Amorphous Sb2Se3                        
   1.00000000000000     
    21.5867606951059798    0.0000000000000000    0.0000000000000000
     0.0000000000000000   21.5867606951059798    0.0000000000000000
     0.0000000000000000    0.0000000000000000   21.5867606951059798
   Sb   Se
   120   180
Direct
  0.1422526404782371  0.6335451916105920  0.2136519878833599
  0.6715364218511146  0.2524066612154772  0.7436506628501486
  0.3680035852260328  0.1746592198122978  0.2104170712146156
  0.2735350783089604  0.2704787411905721  0.3473925444187979
  0.5466491886997643  0.3371030191289614  0.2613150165758495
  0.8451841298828627  0.8466724754323234  0.1442310468245296
  0.6613566728776159  0.5402024875123294  0.0560592577006120
  0.2320400480384428  0.8568182263253880  0.2236625836080257
  0.2046833647088420  0.4355630658847967  0.7960651650095255
  0.3927550621798592  0.8246696871523052  0.1918328258461202
  0.8044553765760526  0.5982694101373733  0.4651854321742223
  0.7698283189022020  0.9413225888206778  0.7533843649651104
  0.7595550649313433  0.1140178989057197  0.0753122440783660
  0.3187757344696426  0.1490558569242964  0.3912121051110843
  0.3585564385631244  0.9284381251720389  0.8937754202109883
  0.6420041568790569  0.0885371759226112  0.5793908758600790
  0.1416108957016254  0.0287063045772417  0.9286395848346931
  0.9185548684734542  0.9195168514492201  0.9859335145822792
  0.9674877357187897  0.6626460226938700  0.5321017239601296
  0.3536253451647126  0.2083967069010928  0.8381020542869280
  0.4020885038031237  0.4962005739609538  0.0768660129656735
  0.3552204038618242  0.7405068101377791  0.8399322913617960
  0.0007221443450635  0.6029559734948193  0.0836104303761421
  0.4898468848583292  0.6127770558456863  0.4936676103782459
  0.9046416664344552  0.4584347473430400  0.0230324828136830
  0.8180678452986702  0.4391911822124968  0.2148540029548077
  0.6006419187046916  0.6070805791714561  0.6369052946646867
  0.1911030356773579  0.4366531356562054  0.1103845038537446
  0.4521546367944791  0.6658399812886108  0.0213125181560898
  0.7411749827574258  0.2584271741859310  0.5745304274365061
  0.0425742401604627  0.8942559401364403  0.8454832356102828
  0.4864543796235505  0.4153015060833266  0.9324343157102588
  0.2640404009635648  0.9761039242814364  0.5735064482795612
  0.3947714417409549  0.9620207807288698  0.1802898926056352
  0.9880887260249838  0.0257511957515584  0.7306747037616884
  0.2956177233326193  0.5754218070940463  0.6469305786806671
  0.4535441501623231  0.0427318518579623  0.7805969554478106
  0.3371749777282167  0.5411995851249878  0.8752044001971596
  0.4665189939640081  0.7179736385582743  0.3356683105593827
  0.1705778726975445  0.7446769354787866  0.5238024962400325
  0.7164187968364107  0.8297667811813256  0.9794311648286291
  0.5971596750821758  0.5781030479902057  0.3477604810297816
  0.6633166821598945  0.8876726111816152  0.1372430022298773
  0.5371651758399825  0.2539606513937258  0.8846708276556757
  0.3518507402218117  0.0131631892844912  0.6918698837828748
  0.6593352478647098  0.6056336706864436  0.1754375756115109
  0.2788991879043360  0.1563198597158419  0.5916099995205117
  0.4161021946894552  0.2066789157389835  0.0322695920945554
  0.0816838152786963  0.9723850022926955  0.2786240968376472
  0.2216838792396462  0.6299194316635942  0.3706330458662084
  0.7565114493244381  0.7633674515783874  0.3368300633829637
  0.8803556682738954  0.4532358182455217  0.3890151166973519
  0.2786656227194499  0.8602119601961775  0.7316920064768886
  0.2792836492860840  0.3349349957989421  0.9855181049150546
  0.7096491891247465  0.3161902522812365  0.9208062125664839
  0.4265158588736407  0.6010764819446506  0.6850095028828056
  0.3940257781660518  0.3277591583497619  0.1534994003550241
  0.7927567408156989  0.2924661745259866  0.1205900843274964
  0.1848327582822237  0.2351137035173866  0.1046640609920844
  0.1549186553058898  0.0388119130188196  0.4707761408108385
  0.5498123955821290  0.7847220891816125  0.5057801391742951
  0.2240524224609999  0.2373100401332079  0.7509931154768102
  0.7625856110950069  0.9276144422407570  0.4635748907227483
  0.6947814712976973  0.7591702862339266  0.7771154363402243
  0.8676234936921202  0.5709707544046395  0.8838122469381448
 -0.0016403020998530  0.3830722171933799  0.9589735274372450
  0.9311622086973977  0.3292645311722178  0.5500185024775494
  0.2402154356357394  0.0460487100054007  0.2750374587389627
  0.8980569447290597  0.4498175693005865  0.6454433457721647
  0.1306717994279365  0.9526538820748821  0.6543480777948442
  0.5757236153581990  0.4632983052907155  0.5081935537896709
  0.7368479464060793  0.2274218969611161  0.3008440019025604
  0.6370106596867448  0.4416250284252435  0.7163285080290130
  0.6253532887527788  0.0226649210564989  0.8280871890958093
  0.9431279318882988  0.7421084794743172  0.2525380254704960
  0.0201477493916951  0.2024579833794647  0.4756982519258055
  0.8986593541538377  0.1575988139865030  0.2489762517034549
  0.5681888568971647  0.9217199548198441  0.6655488652006701
  0.8408098416309159  0.0682239141742525  0.8888812376242013
  0.1240394719591444  0.3782061772689865  0.4527486522074208
  0.4926760648634136  0.2026495075410805  0.7005525693110232
  0.6263645347936923  0.3721896055863477  0.0971375746712918
  0.5836422162665243  0.1264759711030636  0.4173987313392005
  0.3287599361195842  0.3074336636098665  0.6878495680596103
  0.4439663432608965  0.2873793226390094  0.4159284569780918
  0.8883454368868285  0.1322597540298895  0.6198487840230412
  0.8338315899721065  0.3745795909262771  0.8163305520990876
  0.7383369788903819  0.8403632066510995  0.6106334375090157
  0.8545227950570178  0.9727789527004608  0.3693848955079897
  0.1689946741106412  0.6500261352876250  0.7883303240542963
  0.5132431618834914  0.8569135727400643  0.9674961640044768
  0.4164348131249496  0.9719628203670559  0.0464678215595779
  0.8026726675864115  0.5244065302764885  0.7078225418812285
  0.2830804183800186  0.9208221264193661  0.4495454447994036
  0.0064486370160746  0.7047562177555096  0.8791614860548503
  0.5764604600002027  0.1326320762086320  0.1202714684267227
  0.5923275731107158  0.2727570917399407  0.5239561354247882
  0.9127459894642616  0.0416878198031704  0.1339913375597250
  0.4585613557118779  0.9475336474275884  0.4896503508863580
  0.1538855391175223  0.7049284082128541  0.0385096421515058
  0.1613978047315781  0.5287040774204400  0.5129009728395185
  0.8829686787299406  0.2560946458219891  0.9517082635235184
  0.3243979066517509  0.4372621455942537  0.5428001124170401
  0.7120952855957733  0.6270800456547225  0.9144605999024009
  0.8836778325237077  0.8003852457071411  0.4485548913989175
  0.9751578404319899  0.9870683470096829  0.5010260892524088
  0.0007487986174091  0.6308513945611809  0.7150664527985456
  0.5800922803569075  0.6649476837134055  0.9265686887643354
  0.5156647915274162  0.4678027357149296  0.2297726414190755
  0.3270134676487599  0.7615031956286138  0.4535734815420429
  0.6886458892317171  0.3820641432446091  0.3783375052408625
  0.0203479535958021  0.2967922302263896  0.2331702496150145
  0.5709813443855837  0.1008314874479239  0.9878807320818955
  0.1058488122738503  0.1950321196165090  0.9334865817771457
  0.0490074152907028  0.2068696098226905  0.6707713925386899
  0.1143695304517475  0.4573999542504543  0.2952286980225334
  0.6129539595285370  0.8423952078536360  0.2951972147490944
  0.5382068070383135  0.0663155627569340  0.2577946843505078
  0.4542244255850262  0.4755224404327734  0.7195654336998570
  0.1485982446459297  0.1011017258440385  0.7783265099968066
  0.6601279557162972  0.7289643181948711  0.2729196083140413
  0.1102875544774575  0.6036686004653495  0.3278555378191467
  0.3612032559188148  0.0535395809511716  0.5716771345423897
  0.1166845576291502  0.3324027939287266  0.2983350236426360
  0.0681851701473329  0.2680229349809410  0.5667245085554564
  0.1829388303878502  0.7183314324550677  0.9188697741312152
  0.3920933095675713  0.1017578712447767  0.3030316371259717
  0.7245641836301623  0.1571037760380773  0.6430624148835188
  0.4677900422796553  0.5293141829000393  0.5844479067659211
  0.4817504953152825  0.7043479082101535  0.5722634589975483
  0.6829260413595136  0.5151817490933940  0.6270793673001603
  0.1156174368496548  0.1160658686609054  0.0230086209164113
  0.1381831081023811  0.8683813566312725  0.1147384065854016
  0.9767023885754336  0.3154466154586731  0.4374979808403547
  0.9044961763705255  0.6678037742980071  0.8184230844621722
  0.7052688850941670  0.8233918191875473  0.4338721207446248
  0.2117737467387371  0.1499287243297163  0.8743818785929866
  0.9170781941884343  0.5685574050770871  0.6317398966271528
  0.8882336240513978  0.3709681997120914  0.1251910777442471
  0.5924686785493762  0.2511679227033528  0.4028127191492041
  0.1993760277724309  0.4458316210506744  0.3803228866471008
  0.3166134654649353  0.4545266061637664  0.6626874304521793
  0.6473856527356669  0.5118882468205934  0.2535479593597724
  0.2819293960471180  0.1164923512356219  0.7097369940660754
  0.1441418006248997  0.7522295306188728  0.2596171436696285
  0.8462034073338198  0.8251600443307477  0.0103665317637422
  0.7359644228487758  0.1319949099767735  0.9128590460172766
  0.2602192742046970  0.6649563228688610  0.2655646946825201
  0.5608209262736574  0.8448071041476615  0.1838905944278297
  0.1326103804762974  0.3090440007023503  0.8035667256942420
  0.2002427216449024  0.4100280005342949  0.5506615588650524
  0.4614975903308846  0.9190775648737134  0.7734189674346643
  0.4458332761926564  0.7905106881089876  0.0463535844213298
  0.4117197813360403  0.6300249978193965  0.8193291185314020
  0.5879822725255482  0.9323851863056312  0.5478086309975082
  0.5128734673876473  0.2955725016081377  0.1523805735947322
  0.7175462094628132  0.8888622813281905  0.2592607980978690
  0.8199719805159110  0.1422617378840606  0.3390456871497313
  0.5874636874627619  0.0183277932047941  0.1586942869469095
  0.3740829037985318  0.9857822526774561  0.4065819506612610
  0.0570456016635948  0.0911358245981585  0.8640555704835923
  0.2566428969586050  0.5518709672780322  0.7759632087158417
  0.3062574680115986  0.9588360453149876  0.0011620985745163
  0.3097664665743384  0.5543542897616536  0.5217572428705639
  0.7653146038633486  0.4773364037457752  0.3539868271250824
  0.3866603470185785  0.2796373437264739  0.2717144736658215
  0.0663278508878144  0.3229674206665005  0.7174905615362301
  0.0532489485031012  0.7586986501418128  0.0056793849355570
  0.9956066926692614  0.7673046841427205  0.4732628377963963
  0.1679408313944092  0.8392191307643081  0.6870149767533488
  0.2811318709310255  0.7024588376676401  0.5529004097384884
  0.6018892386654573  0.4029267941102482  0.9746208021532761
  0.2490368968127056  0.1698358364464151  0.2224597725689132
  0.9053614290426594  0.5730913958581941  0.4033155445816116
  0.8014070750532832  0.8283199302180465  0.7186411003231439
  0.7344793893013070  0.6501441866483895  0.3829423272064265
  0.4980060000183379  0.6123464106638296  0.2826305400203845
  0.0427522621726116  0.0503997579416733  0.4217962150027637
  0.2645712474644228  0.8565719687139254  0.8552496927425984
  0.6323101774231030  0.3398145154935313  0.8273684718379305
  0.5604324374106631  0.5188157198723448  0.7717294011404450
  0.5686518387329115  0.0377862705148263  0.7065665837834377
  0.5769067890859662  0.1680740574972604  0.8101347903031465
  0.8933310350336785  0.4918597506000242  0.7931882514786953
  0.7972846454096848  0.0414908322089340  0.1670212198875259
  0.0725054194857633  0.9307614450402228  0.9585661570285651
  0.9887272189253746  0.2745793070390866  0.0142887010221517
  0.9467587288658530  0.0396051491132066  0.2512282606180042
  0.6703558683987521  0.9059195537629811  0.8157951701214623
  0.4091781922333135  0.1799260838538378  0.4637450979415097
  0.4444560936332722  0.9035063992557272  0.6629632051577171
  0.3020038695404364  0.3152206927159625  0.8677698367219568
  0.5632199997967737  0.7069021760856057  0.4104525128313901
  0.2218459071636463  0.2729229015343264  0.6323623509604869
  0.8536087860437445  0.2379209668080360  0.5243310893667764
  0.2406308703851069  0.3350999646337382  0.1564124095969661
  0.6409569208046372  0.0968363014784495  0.3131805207956129
  0.9311651616390816  0.2226472363128067  0.6917445095281706
  0.3884142414845901  0.4459862684025159  0.8180569386602897
  0.1299222121542104  0.1809919629821875  0.4170987493102213
  0.7061783091926233  0.7797382257526921  0.0895126477833635
  0.3788189807651295  0.6625826589391685  0.4010570845629792
  0.1570199727788793  0.3011069313775606 -0.0004854030633471
  0.6786119415111215  0.0429530112338696  0.9543895669649048
  0.6134061661685606  0.5845879688692407  0.5048761039532870
  0.8761125264997762  0.0495739039361255  0.4628092169629019
  0.6664745180834931  0.7025651519166156  0.5907984660946558
  0.9662886556265065  0.5443277771793572  0.9435299274954165
  0.4609125561837992  0.8347935124917920  0.4398467750709436
  0.8500226283786804  0.5556136982019926  0.2150451383539495
  0.9541006454426124  0.8153667586992354  0.8780512276219077
  0.2734736531161048  0.9769210435394199  0.1718568862053591
  0.8553723791015091  0.1943501083873711  0.0794592077546969
  0.1249945753014144  0.6260842427825757  0.6698120701580533
  0.8724236002884904  0.0424878438916316  0.7058301468421361
  0.3932839901336420  0.4383588307500450  0.2025279836373048
  0.9791454596374072  0.7215548621307939  0.6388511016915406
  0.2085226523607526  0.7540992415455481  0.4054395793423033
  0.5983147195770291  0.9194597100269454  0.0259321248227066
  0.3006465471481148  0.7387664979506997  0.7322097775095199
  0.3339388758028520  0.3403764439046461  0.4274736276087770
  0.2781479392818098  0.4981592925425061  0.0525580122219951
  0.2850534074879895  0.6744694476574674  0.9170606539779197
  0.4055470472324862  0.6156746304194544  0.1189191351399990
  0.7589976356423446  0.6663911895654425  0.7363168387787991
  0.5548014340342645  0.9794401754310333  0.4163277827257033
  0.8498629959535230  0.8811322506158931  0.5371916252811857
  0.7152225515977760  0.9556605528153488  0.6434749284104190
  0.8248033115699848  0.2853297481022178  0.2372901654931857
  0.6307207464360042  0.7803357101773811  0.6619926409223728
  0.7299234966383257  0.4406942363055137  0.0879216247105394
  0.7731001305639962  0.2975505917477613  0.3944094732222019
  0.7806184294115244  0.2525773571204145  0.8422279569759136
  0.5414081877937591  0.4740111120440507  0.3904641450026546
  0.0730621842308332  0.2218230000061448  0.1531316103780683
  0.1474788347932432  0.5221558922078110  0.6367742647307566
 -0.0014743088906555  0.4813787863576233  0.0985063611366801
  0.7600506215266026  0.7384247285272214  0.9019498599812096
  0.1018360334161529  0.5730936559539416  0.8561793908175253
  0.2919849433940747  0.8040913629943458  0.1301874860689063
  0.6028434600453385  0.7842570209949831  0.9154994552208386
  0.9073542718071830  0.7422747747548090  0.1368686075515073
  0.0537078169125885  0.4714607951731538  0.4856860172711218
  0.9253399944958838  0.4457682987220166  0.2751817958314822
  0.5712429500335308  0.2929777073668526  0.6751582448391893
  0.7938905817641282  0.4078667274156333  0.9260332632702083
  0.2024912554675263  0.4958290614063073  0.2166035890270538
  0.1141305731802766  0.9691837951738859  0.1584275228670705
  0.8932188054385779  0.8544164736554475  0.2616724116877032
  0.2099651936327926  0.2450695544074735  0.4584642556029274
  0.9264198248052741  0.1504238159965045  0.9122265642810278
  0.7484024161775532  0.3286413142277289  0.6731806044873634
  0.0639609904738295  0.7325168373106060  0.7752710692801351
  0.0133350126141585  0.6245908507177776  0.2037021004645314
  0.2986888621419910  0.2102207081446940  0.0132313148058389
  0.0511857898773803  0.7994822032088482  0.1188316389230507
  0.9938068166611445  0.2046224144194768  0.3091144006499330
  0.6801768283344176  0.3971761413086225  0.5004805375997793
  0.1655435771610618  0.9839321560218939  0.7945325384910676
  0.0003586676753669  0.0971312176363337  0.5898946768728788
  0.1167921856044911  0.5892486324765430  0.0481506620179403
  0.4541888549702614  0.5314946796718917  0.9611850494855571
  0.6036733818132251  0.2180257668444710  0.9842447572480113
  0.6880778073422057  0.1808776676441078  0.1476509436160981
  0.6918012243972945  0.1113564039377663  0.4706258864311652
  0.0482692314339693  0.8101877841290994  0.2450400934887319
  0.6547866098734533  0.6326954120594971  0.7597402276441475
  0.7498094759958289  0.6219002309174347  0.0293309416097429
  0.8479169098805682  0.4214427065574233  0.5393418969823506
  0.9436118438995598  0.3261913455008829  0.8623081155055978
  0.4441201170397034  0.1682168598809372  0.9184735685057513
  0.0909522663900969  0.4840088030560340  0.7939763318124260
  0.3329398433756592  0.8762264311082137  0.5547872708903941
  0.5470859267377303  0.4665973339022193  0.1128200859651026
  0.3374894425684946  0.0324106614391306  0.8378610273130386
  0.2314364630748965  0.4482313152760266  0.9121725240544897
  0.1222293113828830  0.9313021887229798  0.5275282094216545
  0.5435048424243402  0.1586986857121788  0.5601059744408716
  0.5220276187026038  0.9566452263993784  0.3132708396251284
  0.5252431528850026  0.9909530954692821  0.8847158128142142
  0.3951000262976558  0.2331325877785698  0.6200480326535490
  0.3324514049442363  0.8450640134632055  0.2964978889853331
  0.4375314538689380  0.2800334342538738  0.7809381029982365
  0.4879584734054813  0.3367920618353726  0.5209258497130738
  0.9508752686739448  0.9059336892726036  0.4011543055767016
  0.1872754579728091  0.9417318255646860  0.3343740625343666
  0.7775448196631441  0.6321769241578745  0.1772588479016817
  0.0143796401199067  0.9209963101667306  0.6747409352888964
  0.9443767320559585  0.9231931757286417  0.1104612502018800
  0.1038163738080815  0.6474625736405407  0.5013320227958598
  0.6617481136150959  0.3451743220846977  0.2299950934962743
  0.8443652281489266  0.6984359422280995  0.5254226759863885
  0.5722344659242096  0.6609312842796543  0.0464076162647023
  0.4177139023736844  0.3618428237068086  0.0173391946070213
  0.9436817679390123  0.9648870264732404  0.8295279484014224
  0.8335082326737377  0.0095372059532066  0.9961167376970551
  0.1263960605246341  0.0810859661475211  0.2475506388705778
  0.1665664197099112  0.0941997280726865  0.5816928042072411
  0.4312557711659707  0.0924010997627417  0.0815348433053610
  0.7286242772303411  0.4679989871292662  0.7911929866244478
 
  0.00000000E+00  0.00000000E+00  0.00000000E+00
  0.00000000E+00  0.00000000E+00  0.00000000E+00
  0.00000000E+00  0.00000000E+00  0.00000000E+00
  0.00000000E+00  0.00000000E+00  0.00000000E+00
  0.00000000E+00  0.00000000E+00  0.00000000E+00
  0.00000000E+00  0.00000000E+00  0.00000000E+00
  0.00000000E+00  0.00000000E+00  0.00000000E+00
  0.00000000E+00  0.00000000E+00  0.00000000E+00
  0.00000000E+00  0.00000000E+00  0.00000000E+00
  0.00000000E+00  0.00000000E+00  0.00000000E+00
  0.00000000E+00  0.00000000E+00  0.00000000E+00
  0.00000000E+00  0.00000000E+00  0.00000000E+00
  0.00000000E+00  0.00000000E+00  0.00000000E+00
  0.00000000E+00  0.00000000E+00  0.00000000E+00
  0.00000000E+00  0.00000000E+00  0.00000000E+00
  0.00000000E+00  0.00000000E+00  0.00000000E+00
  0.00000000E+00  0.00000000E+00  0.00000000E+00
  0.00000000E+00  0.00000000E+00  0.00000000E+00
  0.00000000E+00  0.00000000E+00  0.00000000E+00
  0.00000000E+00  0.00000000E+00  0.00000000E+00
  0.00000000E+00  0.00000000E+00  0.00000000E+00
  0.00000000E+00  0.00000000E+00  0.00000000E+00
  0.00000000E+00  0.00000000E+00  0.00000000E+00
  0.00000000E+00  0.00000000E+00  0.00000000E+00
  0.00000000E+00  0.00000000E+00  0.00000000E+00
  0.00000000E+00  0.00000000E+00  0.00000000E+00
  0.00000000E+00  0.00000000E+00  0.00000000E+00
  0.00000000E+00  0.00000000E+00  0.00000000E+00
  0.00000000E+00  0.00000000E+00  0.00000000E+00
  0.00000000E+00  0.00000000E+00  0.00000000E+00
  0.00000000E+00  0.00000000E+00  0.00000000E+00
  0.00000000E+00  0.00000000E+00  0.00000000E+00
  0.00000000E+00  0.00000000E+00  0.00000000E+00
  0.00000000E+00  0.00000000E+00  0.00000000E+00
  0.00000000E+00  0.00000000E+00  0.00000000E+00
  0.00000000E+00  0.00000000E+00  0.00000000E+00
  0.00000000E+00  0.00000000E+00  0.00000000E+00
  0.00000000E+00  0.00000000E+00  0.00000000E+00
  0.00000000E+00  0.00000000E+00  0.00000000E+00
  0.00000000E+00  0.00000000E+00  0.00000000E+00
  0.00000000E+00  0.00000000E+00  0.00000000E+00
  0.00000000E+00  0.00000000E+00  0.00000000E+00
  0.00000000E+00  0.00000000E+00  0.00000000E+00
  0.00000000E+00  0.00000000E+00  0.00000000E+00
  0.00000000E+00  0.00000000E+00  0.00000000E+00
  0.00000000E+00  0.00000000E+00  0.00000000E+00
  0.00000000E+00  0.00000000E+00  0.00000000E+00
  0.00000000E+00  0.00000000E+00  0.00000000E+00
  0.00000000E+00  0.00000000E+00  0.00000000E+00
  0.00000000E+00  0.00000000E+00  0.00000000E+00
  0.00000000E+00  0.00000000E+00  0.00000000E+00
  0.00000000E+00  0.00000000E+00  0.00000000E+00
  0.00000000E+00  0.00000000E+00  0.00000000E+00
  0.00000000E+00  0.00000000E+00  0.00000000E+00
  0.00000000E+00  0.00000000E+00  0.00000000E+00
  0.00000000E+00  0.00000000E+00  0.00000000E+00
  0.00000000E+00  0.00000000E+00  0.00000000E+00
  0.00000000E+00  0.00000000E+00  0.00000000E+00
  0.00000000E+00  0.00000000E+00  0.00000000E+00
  0.00000000E+00  0.00000000E+00  0.00000000E+00
  0.00000000E+00  0.00000000E+00  0.00000000E+00
  0.00000000E+00  0.00000000E+00  0.00000000E+00
  0.00000000E+00  0.00000000E+00  0.00000000E+00
  0.00000000E+00  0.00000000E+00  0.00000000E+00
  0.00000000E+00  0.00000000E+00  0.00000000E+00
  0.00000000E+00  0.00000000E+00  0.00000000E+00
  0.00000000E+00  0.00000000E+00  0.00000000E+00
  0.00000000E+00  0.00000000E+00  0.00000000E+00
  0.00000000E+00  0.00000000E+00  0.00000000E+00
  0.00000000E+00  0.00000000E+00  0.00000000E+00
  0.00000000E+00  0.00000000E+00  0.00000000E+00
  0.00000000E+00  0.00000000E+00  0.00000000E+00
  0.00000000E+00  0.00000000E+00  0.00000000E+00
  0.00000000E+00  0.00000000E+00  0.00000000E+00
  0.00000000E+00  0.00000000E+00  0.00000000E+00
  0.00000000E+00  0.00000000E+00  0.00000000E+00
  0.00000000E+00  0.00000000E+00  0.00000000E+00
  0.00000000E+00  0.00000000E+00  0.00000000E+00
  0.00000000E+00  0.00000000E+00  0.00000000E+00
  0.00000000E+00  0.00000000E+00  0.00000000E+00
  0.00000000E+00  0.00000000E+00  0.00000000E+00
  0.00000000E+00  0.00000000E+00  0.00000000E+00
  0.00000000E+00  0.00000000E+00  0.00000000E+00
  0.00000000E+00  0.00000000E+00  0.00000000E+00
  0.00000000E+00  0.00000000E+00  0.00000000E+00
  0.00000000E+00  0.00000000E+00  0.00000000E+00
  0.00000000E+00  0.00000000E+00  0.00000000E+00
  0.00000000E+00  0.00000000E+00  0.00000000E+00
  0.00000000E+00  0.00000000E+00  0.00000000E+00
  0.00000000E+00  0.00000000E+00  0.00000000E+00
  0.00000000E+00  0.00000000E+00  0.00000000E+00
  0.00000000E+00  0.00000000E+00  0.00000000E+00
  0.00000000E+00  0.00000000E+00  0.00000000E+00
  0.00000000E+00  0.00000000E+00  0.00000000E+00
  0.00000000E+00  0.00000000E+00  0.00000000E+00
  0.00000000E+00  0.00000000E+00  0.00000000E+00
  0.00000000E+00  0.00000000E+00  0.00000000E+00
  0.00000000E+00  0.00000000E+00  0.00000000E+00
  0.00000000E+00  0.00000000E+00  0.00000000E+00
  0.00000000E+00  0.00000000E+00  0.00000000E+00
  0.00000000E+00  0.00000000E+00  0.00000000E+00
  0.00000000E+00  0.00000000E+00  0.00000000E+00
  0.00000000E+00  0.00000000E+00  0.00000000E+00
  0.00000000E+00  0.00000000E+00  0.00000000E+00
  0.00000000E+00  0.00000000E+00  0.00000000E+00
  0.00000000E+00  0.00000000E+00  0.00000000E+00
  0.00000000E+00  0.00000000E+00  0.00000000E+00
  0.00000000E+00  0.00000000E+00  0.00000000E+00
  0.00000000E+00  0.00000000E+00  0.00000000E+00
  0.00000000E+00  0.00000000E+00  0.00000000E+00
  0.00000000E+00  0.00000000E+00  0.00000000E+00
  0.00000000E+00  0.00000000E+00  0.00000000E+00
  0.00000000E+00  0.00000000E+00  0.00000000E+00
  0.00000000E+00  0.00000000E+00  0.00000000E+00
  0.00000000E+00  0.00000000E+00  0.00000000E+00
  0.00000000E+00  0.00000000E+00  0.00000000E+00
  0.00000000E+00  0.00000000E+00  0.00000000E+00
  0.00000000E+00  0.00000000E+00  0.00000000E+00
  0.00000000E+00  0.00000000E+00  0.00000000E+00
  0.00000000E+00  0.00000000E+00  0.00000000E+00
  0.00000000E+00  0.00000000E+00  0.00000000E+00
  0.00000000E+00  0.00000000E+00  0.00000000E+00
  0.00000000E+00  0.00000000E+00  0.00000000E+00
  0.00000000E+00  0.00000000E+00  0.00000000E+00
  0.00000000E+00  0.00000000E+00  0.00000000E+00
  0.00000000E+00  0.00000000E+00  0.00000000E+00
  0.00000000E+00  0.00000000E+00  0.00000000E+00
  0.00000000E+00  0.00000000E+00  0.00000000E+00
  0.00000000E+00  0.00000000E+00  0.00000000E+00
  0.00000000E+00  0.00000000E+00  0.00000000E+00
  0.00000000E+00  0.00000000E+00  0.00000000E+00
  0.00000000E+00  0.00000000E+00  0.00000000E+00
  0.00000000E+00  0.00000000E+00  0.00000000E+00
  0.00000000E+00  0.00000000E+00  0.00000000E+00
  0.00000000E+00  0.00000000E+00  0.00000000E+00
  0.00000000E+00  0.00000000E+00  0.00000000E+00
  0.00000000E+00  0.00000000E+00  0.00000000E+00
  0.00000000E+00  0.00000000E+00  0.00000000E+00
  0.00000000E+00  0.00000000E+00  0.00000000E+00
  0.00000000E+00  0.00000000E+00  0.00000000E+00
  0.00000000E+00  0.00000000E+00  0.00000000E+00
  0.00000000E+00  0.00000000E+00  0.00000000E+00
  0.00000000E+00  0.00000000E+00  0.00000000E+00
  0.00000000E+00  0.00000000E+00  0.00000000E+00
  0.00000000E+00  0.00000000E+00  0.00000000E+00
  0.00000000E+00  0.00000000E+00  0.00000000E+00
  0.00000000E+00  0.00000000E+00  0.00000000E+00
  0.00000000E+00  0.00000000E+00  0.00000000E+00
  0.00000000E+00  0.00000000E+00  0.00000000E+00
  0.00000000E+00  0.00000000E+00  0.00000000E+00
  0.00000000E+00  0.00000000E+00  0.00000000E+00
  0.00000000E+00  0.00000000E+00  0.00000000E+00
  0.00000000E+00  0.00000000E+00  0.00000000E+00
  0.00000000E+00  0.00000000E+00  0.00000000E+00
  0.00000000E+00  0.00000000E+00  0.00000000E+00
  0.00000000E+00  0.00000000E+00  0.00000000E+00
  0.00000000E+00  0.00000000E+00  0.00000000E+00
  0.00000000E+00  0.00000000E+00  0.00000000E+00
  0.00000000E+00  0.00000000E+00  0.00000000E+00
  0.00000000E+00  0.00000000E+00  0.00000000E+00
  0.00000000E+00  0.00000000E+00  0.00000000E+00
  0.00000000E+00  0.00000000E+00  0.00000000E+00
  0.00000000E+00  0.00000000E+00  0.00000000E+00
  0.00000000E+00  0.00000000E+00  0.00000000E+00
  0.00000000E+00  0.00000000E+00  0.00000000E+00
  0.00000000E+00  0.00000000E+00  0.00000000E+00
  0.00000000E+00  0.00000000E+00  0.00000000E+00
  0.00000000E+00  0.00000000E+00  0.00000000E+00
  0.00000000E+00  0.00000000E+00  0.00000000E+00
  0.00000000E+00  0.00000000E+00  0.00000000E+00
  0.00000000E+00  0.00000000E+00  0.00000000E+00
  0.00000000E+00  0.00000000E+00  0.00000000E+00
  0.00000000E+00  0.00000000E+00  0.00000000E+00
  0.00000000E+00  0.00000000E+00  0.00000000E+00
  0.00000000E+00  0.00000000E+00  0.00000000E+00
  0.00000000E+00  0.00000000E+00  0.00000000E+00
  0.00000000E+00  0.00000000E+00  0.00000000E+00
  0.00000000E+00  0.00000000E+00  0.00000000E+00
  0.00000000E+00  0.00000000E+00  0.00000000E+00
  0.00000000E+00  0.00000000E+00  0.00000000E+00
  0.00000000E+00  0.00000000E+00  0.00000000E+00
  0.00000000E+00  0.00000000E+00  0.00000000E+00
  0.00000000E+00  0.00000000E+00  0.00000000E+00
  0.00000000E+00  0.00000000E+00  0.00000000E+00
  0.00000000E+00  0.00000000E+00  0.00000000E+00
  0.00000000E+00  0.00000000E+00  0.00000000E+00
  0.00000000E+00  0.00000000E+00  0.00000000E+00
  0.00000000E+00  0.00000000E+00  0.00000000E+00
  0.00000000E+00  0.00000000E+00  0.00000000E+00
  0.00000000E+00  0.00000000E+00  0.00000000E+00
  0.00000000E+00  0.00000000E+00  0.00000000E+00
  0.00000000E+00  0.00000000E+00  0.00000000E+00
  0.00000000E+00  0.00000000E+00  0.00000000E+00
  0.00000000E+00  0.00000000E+00  0.00000000E+00
  0.00000000E+00  0.00000000E+00  0.00000000E+00
  0.00000000E+00  0.00000000E+00  0.00000000E+00
  0.00000000E+00  0.00000000E+00  0.00000000E+00
  0.00000000E+00  0.00000000E+00  0.00000000E+00
  0.00000000E+00  0.00000000E+00  0.00000000E+00
  0.00000000E+00  0.00000000E+00  0.00000000E+00
  0.00000000E+00  0.00000000E+00  0.00000000E+00
  0.00000000E+00  0.00000000E+00  0.00000000E+00
  0.00000000E+00  0.00000000E+00  0.00000000E+00
  0.00000000E+00  0.00000000E+00  0.00000000E+00
  0.00000000E+00  0.00000000E+00  0.00000000E+00
  0.00000000E+00  0.00000000E+00  0.00000000E+00
  0.00000000E+00  0.00000000E+00  0.00000000E+00
  0.00000000E+00  0.00000000E+00  0.00000000E+00
  0.00000000E+00  0.00000000E+00  0.00000000E+00
  0.00000000E+00  0.00000000E+00  0.00000000E+00
  0.00000000E+00  0.00000000E+00  0.00000000E+00
  0.00000000E+00  0.00000000E+00  0.00000000E+00
  0.00000000E+00  0.00000000E+00  0.00000000E+00
  0.00000000E+00  0.00000000E+00  0.00000000E+00
  0.00000000E+00  0.00000000E+00  0.00000000E+00
  0.00000000E+00  0.00000000E+00  0.00000000E+00
  0.00000000E+00  0.00000000E+00  0.00000000E+00
  0.00000000E+00  0.00000000E+00  0.00000000E+00
  0.00000000E+00  0.00000000E+00  0.00000000E+00
  0.00000000E+00  0.00000000E+00  0.00000000E+00
  0.00000000E+00  0.00000000E+00  0.00000000E+00
  0.00000000E+00  0.00000000E+00  0.00000000E+00
  0.00000000E+00  0.00000000E+00  0.00000000E+00
  0.00000000E+00  0.00000000E+00  0.00000000E+00
  0.00000000E+00  0.00000000E+00  0.00000000E+00
  0.00000000E+00  0.00000000E+00  0.00000000E+00
  0.00000000E+00  0.00000000E+00  0.00000000E+00
  0.00000000E+00  0.00000000E+00  0.00000000E+00
  0.00000000E+00  0.00000000E+00  0.00000000E+00
  0.00000000E+00  0.00000000E+00  0.00000000E+00
  0.00000000E+00  0.00000000E+00  0.00000000E+00
  0.00000000E+00  0.00000000E+00  0.00000000E+00