Amorphous GeTe6                         
   1.00000000000000     
    21.5328235405677297    0.0000000000000000    0.0000000000000000
     0.0000000000000000   21.5328235405677297    0.0000000000000000
     0.0000000000000000    0.0000000000000000   21.5328235405677297
   Zn   Te
   105   195
Direct
  0.9187852515061955  0.6979689149907777  0.0968059232196572
  0.4550194158403623  0.6833996945391688  0.0605479832811753
  0.8098153989038654  0.7637775905361673  0.2158622372345941
  0.3795932858358861  0.5442376205266419  0.7756294100707288
  0.9851713857067658  0.5724173948989846  0.9759323138806757
  0.1876489272501137  0.6592190070045713  0.2640081688180566
  0.1985779355806320  0.2656573316062804  0.3579195812996563
  0.9791151385515983  0.5141912354156717  0.7959085541244691
  0.2747656256435557  0.4278977423802164  0.5590443130285578
  0.1126514169276305  0.1729396550290314  0.5671122646293927
  0.9860019788883320  0.3704395144669565  0.6883042274661171
  0.9935647732630465  0.1557492330829731  0.4188468838623882
  0.4284493494331237  0.8492305130970902  0.4197333496713979
  0.8192658634429945  0.4638793214849517  0.6900476146484757
  0.3687944808690249  0.1163098027428934  0.0504685854994032
  0.9130585377625480  0.7188151752696498  0.7059240089781903
  0.3589535332765909  0.7789655271216338  0.2503263362948696
  0.6904750841779725  0.6995857889715504  0.5549338241972565
  0.8311760502584012  0.7343897094692607  0.4099959514942352
  0.0781815486482132  0.6988499367031460  0.5887930234524963
  0.7553189968983659  0.2524609896658022  0.8753608604093127
  0.6559515739904503  0.9406734506523969  0.9821515025940373
  0.5651608050424641  0.3276582030669357  0.3303291939509256
  0.9406193119040361  0.5670425770901114  0.4549500714909631
  0.6385819948114618  0.6770562142854964  0.2794494150585610
  0.2092053456407834  0.9017797076162268  0.9162192723807751
  0.8255965866541191  0.5499329750943655  0.2854447997234097
  0.3531748736165868  0.9348036587747333  0.9886882069421502
  0.5480675294132639  0.8026754437877007  0.7356213819237903
  0.2516009178906183  0.5691288894530611  0.5883346047691644
  0.0599853836094473  0.2596374728958558  0.7402903387097926
  0.1766083707444812  0.4406684512069738  0.3201292539440013
  0.0528795580418263  0.1767793523368333  0.0398842933146376
  0.9063417489420724  0.3908282189868648  0.5001394842529032
  0.9384309471064413  0.6464722354082897  0.2990122721756000
  0.0260325462058094  0.9038321650137986  0.5764337576963711
  0.1869465924328904  0.0796432716681520  0.3013925577937395
  0.8540484508692440  0.1972605201561814  0.4533670025477087
  0.9906914311009382  0.0333479360115389  0.3352351828680266
  0.6204015231748884  0.5286910511744628  0.0903630024530801
  0.3409602998949253  0.0328722235519233  0.4588488433956595
  0.6320477073757731  0.1511866289297109  0.9942285727705699
  0.0548312203343700  0.5248946659428967  0.5998633105861005
  0.2714618844521952  0.0815514020028739  0.9113198525550443
  0.1114387345763642  0.3443111353603659  0.5768248351153963
  0.4453989512208035  0.1498697158700439  0.7552877692668548
  0.7023463446897674  0.3371362093518115  0.0526354732990626
  0.4478974421812464  0.3674316496892039  0.4569947047382676
  0.4064930414899057  0.5748134662323505  0.5956350948824318
  0.1399389777385876  0.1035954192413796  0.4267333834375691
  0.7360463205899989  0.1623545577992386  0.1462819944462567
  0.9038336575503533  0.1345188719058092  0.7671021063942912
  0.7407503699017385  0.8968812978069692  0.1377105259778020
  0.5416314557999337  0.5182939077981498  0.7206710146007091
  0.5972125330729332  0.2100201256699105  0.8179985496191796
  0.4787517034335366  0.7627724266124862  0.5674046295754132
  0.6220009557985411  0.4152225622795629  0.8366908022181853
  0.9281547649625717  0.6972929904004633  0.8913451338664676
  0.2472437895608408  0.5406507615946371  0.2675989337038110
  0.3875860636113309  0.4664978107541313  0.3159837749072777
  0.5470163337285084  0.9908090020061378  0.3538940041139116
  0.6690344846024198  0.9761901519325407  0.2394392534762099
  0.2486990991878656  0.7203372570857284  0.1003947218985208
  0.4603056545562538  0.9844735231017073  0.5239562296194284
  0.8979088948489198  0.2871446521149257  0.3198118986958699
  0.4204518672573501  0.6526518400719865  0.3893400065135880
  0.1380162637995177  0.4002908513210028  0.7802455734058371
  0.1422475518552787  0.3147374368624638  0.2004455712447589
  0.1920081322873821  0.7337557020118440  0.7910085298023889
  0.3570567286936863  0.7281077112056420  0.9317246813459781
  0.3751704213762220  0.7228498966385050  0.7040092638561247
  0.8495506324931359  0.5869066865529841  0.8534296954805471
  0.8033279965685439  0.8806913821983036  0.7516212621329049
  0.7210290297180783  0.3875724035276295  0.2459946825042000
  0.0500021417659020  0.8335747299277595  0.1161690333581031
  0.0916480363416278  0.1361495693474877  0.8929298837350698
  0.5383614989485057  0.0764440469537299  0.6839863684350102
  0.9811288908938146  0.9913965278521880  0.9682495176413947
  0.8074378173633955  0.4778449510180584  0.0620135529247791
  0.5123569115792469  0.6033521456288305  0.5213135733827295
  0.6959019399021781  0.1169719876814441  0.3584081452744884
  0.5370960142099354  0.1002339182892602  0.2638070107795122
  0.9164816669356505  0.9946409867164493  0.6528595586513584
  0.8656433683657782  0.2861525270996663  0.1201599078013851
  0.6481829922669575  0.4994978867073940  0.5762935355923421
  0.3047094429215344  0.2147665188574232  0.4997184563339677
  0.2416276005969965  0.9204845860740167  0.3049675324249495
  0.1449414966626135  0.9443482006661986  0.4671657809983986
  0.5519620450719007  0.2698221921091988  0.1596390437392083
  0.1691506715389202  0.8819579227149368  0.7579561193432069
  0.1788523349589064  0.1580532452605108  0.7422803425248697
  0.4171994323887253  0.2292407297661516  0.9245638559481331
  0.8209818135121099  0.2707485206434464  0.6602430879990625
  0.3324930377176189  0.3924812666401270  0.8221640712121605
  0.4810836487407162  0.1902706927905901  0.4245703375782378
  0.9745268996120130  0.8263169285475868  0.3403483853456735
  0.8719065635703128  0.1519437058695688  0.2699496686912136
  0.8972169520242921  0.0886720359136219  0.0550931461662728
  0.7155396518157435  0.3446358445637492  0.5013494371721257
  0.0722790291083246  0.5367024617140572  0.2199982311719885
  0.5598070243681977  0.0615732754813540  0.8580030311115828
  0.7723837000879914  0.6028333984358352  0.1333111684028941
  0.0749290985960914  0.9294353685277378  0.2732428042583869
  0.4806742645536714  0.4421711162406586  0.8840805878744843
  0.3073554556151499  0.5520380238097832  0.0518004148222160
  0.6496661216082087  0.2733553923054760  0.4134412024510450
  0.3956876881775548  0.9984274621392377  0.1686247951962492
  0.8294315292938154  0.8827455854004567  0.2255170846983751
  0.5476168377011732  0.9848685637070447  0.2301468752561351
  0.3434344289207809  0.9633232800065982  0.5621024722143193
  0.7317658136262514  0.0010139033314118  0.3441825950210744
  0.7736227699953104  0.0933997099248378  0.5748148468830457
  0.9363966857122397  0.2448774730753039  0.2151086119738865
  0.0708692342430696  0.1269140039472574  0.3209187129837703
  0.6467875317909795  0.9921978100349300  0.5273493059297860
  0.5606765444510897  0.9448615964693259  0.9072450425188491
  0.1828059016777153  0.8191644988102545  0.3537529659288064
  0.4547040933917453  0.6517160940866329  0.9351649979000869
  0.2313478487463939  0.4192285709095700  0.2103575444772031
  0.8686929197389827  0.9696189542167679  0.0225039105687421
  0.9987062257191058  0.4355549655566607  0.2314730092234247
  0.0601991249020026  0.1402578928810501  0.7741830571090988
  0.1861225856280357  0.2106589984174910  0.4677925309736846
  0.3484534024724979  0.2367347947812417  0.0290216035955748
  0.5869458825220537  0.4744321395412479  0.9394196407277844
  0.2009560717105482  0.8818599944321428  0.6344085459704012
  0.0681951197427640  0.2917062219401286  0.0067935585730636
  0.9824048545397489  0.0351457571334980  0.1293329797440644
  0.3354130098828870  0.5231069229737256  0.5104129016892521
  0.8819127744357278  0.3759869656935579  0.6253290200313318
  0.9979379733307108  0.4724796713537815  0.5012080933347092
  0.4825259592174304  0.0962959319386912  0.5724061706396905
  0.1835266953121406  0.0112917844844188  0.0635141496837299
  0.8436239981098839  0.2368002900947814  0.7772049261685828
  0.5436076837893308  0.2068414608900518  0.7045823936620396
  0.4323819963961549  0.2815904551152326  0.6171701348103705
  0.7348433760760726  0.1406816340649664  0.9243575945374558
  0.7105089330664700  0.2928264125179107  0.6129017436218057
  0.0871442094160907  0.2810392569875013  0.3070820106518801
  0.7021758326558908  0.8412177073929819  0.0382773785749274
  0.0368466196098075  0.2577790951376211  0.6117606604510044
  0.5521153567310401  0.9132219709884415  0.5712656262882146
  0.8173368956059747  0.6781541626278634  0.3015739996046757
  0.6212656902149966  0.8838501286696683  0.7963189505489487
  0.4664311378695655  0.3119948627020586  0.0732376356406305
  0.9020191246174621  0.3306820353140842  0.0021187467587354
  0.3575064225798020  0.5802294730485341  0.2997620389867799
  0.9274422791504759  0.9679024320453454  0.5299552011144578
  0.9077245275008604  0.4658537540017592  0.9897838440988914
  0.1008819729643781  0.9828296544694496  0.7925590872701670
  0.2019483276883922  0.1162207021926151  0.6287240980286595
  0.2785341975292036  0.8931244539018683  0.8176825797616204
  0.5323457515315666  0.1716665584100368  0.9197490430686757
  0.6467512439378993  0.6650070409114509  0.4016680716021122
  0.9687461450964838  0.3252934720669273  0.8019872848909161
  0.1495064336631645  0.6308905553822848  0.9315024999965370
  0.4512867696550595  0.7593569958312444  0.3343264746422978
  0.6284562068639984  0.4289096817382966  0.4783068535463618
  0.6557968318661324  0.5233551984581186  0.7734156777897072
  0.8875009669045127  0.0971953817545930  0.3864441232974318
  0.0968824219529216  0.8471411093115321  0.9263217956698324
  0.0407538785893043  0.9316927986215979  0.3909160868439001
  0.4120732015527493  0.4091281844172484  0.1375174844416248
  0.5715017578122622  0.7565071823568054  0.2131216070738871
  0.1947132740118854  0.6405310196483107  0.7125769112892352
  0.7259549961251343  0.5817897156047834  0.5267357129241843
  0.0663029269714588  0.9292541553894941  0.0370567431425164
  0.1792436166729532  0.2841151184178644  0.7622875473599336
  0.0924698962258388  0.4270896393003842  0.6668514055431588
  0.8216322503508225  0.1816939304101698  0.0605069569159288
  0.1661076710763588  0.7967315539720959  0.1522308516778862
  0.3988393875818061  0.3565806499497122  0.9153066313139843
  0.3660528638477393  0.1469063401298854  0.4213404282004307
  0.6466731526035526  0.2286842223574322  0.0893734893968319
  0.4762776547537249  0.1035061766307816  0.1071645857677997
  0.2517837766904988  0.3740210828578579  0.3924515331929529
  0.5241591794264255  0.5794372579176393  0.4007145370511412
  0.6252363729491550  0.0347994358965214  0.0544482448712457
  0.6267221749438537  0.7411579755797593  0.0947685139274586
  0.5172197356207406  0.5921541430036542  0.1256639282489014
  0.7778727331221449  0.3144017546245433  0.3347788468120362
  0.0917885524133816  0.1251554713931822  0.1406953789339633
  0.2841877885808129  0.1123268838042199  0.7930215363005091
  0.6032314371075580  0.6870092403613085  0.7296531082677710
  0.8750689481598717  0.1767568309012234  0.5842798011481731
  0.6730840560772844  0.5761136696611319  0.2112537514812591
  0.7244023320960623  0.0277312133703159  0.1380941690042628
  0.8694936085646224  0.8517701670052409  0.5151738518171411
  0.3505457665103064  0.3314152475991687  0.5244618785381865
  0.2835169797954741  0.6878345478335661  0.6238846010457906
  0.0423639403859879  0.4234472217662054  0.8530607540498244
  0.4528412758819197  0.2921739573463403  0.3548735072833019
  0.3802081933634769  0.0967200468948862  0.6530922194238752
  0.5408547612571678  0.8263875179998532  0.4752788588598971
  0.9111062943347386  0.0383882976081192  0.2375210545486836
  0.8711811105148322  0.5322089547837200  0.1699385481191976
  0.1393250637835690  0.5158192768829020  0.1173914594442511
  0.4382127486921453  0.9701364893239044  0.4033065575998607
  0.6692729882823797  0.1047686185735930  0.8153321981747836
  0.1800952600377624  0.4317540249680122  0.9568100490707070
  0.9192164356979186  0.8103698236437639  0.9416440258035634
  0.8011702973651023  0.4057706539837262  0.4351932748213022
  0.1700766420468225  0.9835439404351152  0.2265606084849411
  0.7792388841281408  0.3449395465289840  0.9536799626261336
  0.5715352862377163  0.1128908388644709  0.3787439538273972
  0.7882710078340625  0.5805016730343475  0.6418978393479916
  0.8186808287168883  0.0022968734702938  0.7312676229694677
  0.2827646703336330  0.4342979460487914  0.0333135642405848
  0.2053983763764830  0.2147069160940426  0.1643151974219172
  0.2758662498250157  0.6091199070398287  0.8119365859237142
  0.8004818562591378  0.8352346903399718  0.8676803089347533
  0.4721797169759607  0.1851329124990765  0.2088583896038658
  0.4718709108234870  0.0319905246088860  0.7766414526051617
  0.6397864715036725  0.9267954167965858  0.4026784858798316
  0.2289857048877097  0.0108503868267969  0.4038994173870048
  0.6950174468030140  0.4394785354877284  0.6773946456859038
  0.3601516695442700  0.2178881335730450  0.8131987070687944
  0.2568587522076412  0.1819670731166023  0.2819306003902367
  0.9716982317961683  0.5658953506729488  0.6813548418561159
  0.0056578108721497  0.7505413759223357  0.0341506240203191
  0.4910546961050075  0.4523645999259279  0.3765117460159993
  0.5978824914172431  0.4109505815658256  0.0534978768987429
  0.5348993144342630  0.3632594605899094  0.5489699203133853
  0.0167011249926449  0.7127542789989866  0.3654575283544184
  0.8869475481187912  0.8345179259584863  0.6722800970485472
  0.7211942418086655  0.5586425689527018  0.0299544428523661
  0.6728635220978171  0.1553329959772219  0.6380817041416249
  0.7018703133062789  0.8564834454595741  0.6799511771900728
  0.3373799221078322  0.8445575240356454  0.5069831143924788
  0.9453601862224946  0.2766976441104352  0.4329605400579656
  0.4104263132648169  0.8373608978900259  0.9430714193134028
  0.5110143617422113  0.7892996020967805  0.0236323955287481
  0.8544437781042036  0.6858563557568133  0.6008525344843580
  0.3747603847700826  0.4367113769311790  0.7153599942297896
  0.1694264235789221  0.4104537352628632  0.4946453644330966
  0.6476164027644661  0.0225389485127799  0.6666378300010032
  0.9324208962610061  0.6875386366003321  0.4721808111142397
  0.1601091301160267  0.0246218954689584  0.9155742745435893
  0.8961522402378496  0.0315886360807583  0.8319035734422512
  0.0575417428758296  0.7976748780077285  0.5192500241170340
  0.5226830941250100  0.5033836743879619  0.5975435164148271
  0.7248544892758548  0.7271269519343334  0.6740818281588532
  0.1543928494723188  0.2454310812027055  0.9136722189300280
  0.4324506987363695  0.5156011141378721  0.0597956238539325
  0.9848321114623612  0.1153440777304091  0.9559523892180588
  0.8618171354057175  0.8541189184982744  0.3826021121219587
  0.0031090141016122  0.9232518013718815  0.8642493445476834
  0.3373116371608115  0.3641847897259304  0.2714211040866580
  0.7187091795745754  0.7629742354690187  0.4542878022116864
  0.3061341820763139  0.2011936091224027  0.6243269958309078
  0.7509321813380148  0.1837790570033678  0.2658713571115743
  0.5072621643384971  0.4115856854264205  0.7671177145973742
  0.0293992698866418  0.6809259984499261  0.7032224984866564
  0.9305708919848749  0.5288886788135531  0.3415949924761488
  0.1254878246472457  0.9767636594792800  0.5857283747435539
  0.3813112207109284  0.0444906008070875  0.9505215014670491
  0.3091287416126526  0.7490966354485223  0.8143510944387718
  0.6981120654008731  0.8480896855050775  0.2447836813918688
  0.9878567787505720  0.8665984654730690  0.2183009197472572
  0.7177589186430956  0.4986596145950320  0.3072241297232812
  0.3625412852398509  0.7116730299308545  0.1450354006767413
  0.8693558494940030  0.6160484764497668  0.9738901681325992
  0.2294160672120268  0.4578647509449523  0.8383694027819791
  0.0916981758957586  0.7919596179540468  0.7985151406241590
  0.8408656109213174  0.6978956712478627  0.8022627021686087
  0.7825619630890511  0.3794113532368286  0.1384218424460991
  0.2479559311416254  0.8981381649022645  0.0365064341303912
  0.5877445145105579  0.7880823327389170  0.8981764368845144
  0.2337812052026068  0.1716488923608489  0.9912580462744126
  0.5998700267632215  0.3664427273335911  0.2235950642017141
  0.2380041143380402  0.5992043338545813  0.1543199328350754
  0.9742142489827532  0.6193994263653175  0.1801886113113791
  0.6458531516199013  0.6797944887036158  0.8574594137603884
  0.2691540517632108  0.7246792300110398  0.3270444799121718
  0.5626992725055834  0.2370291404806807  0.5075367279265394
  0.0812128096376284  0.6248461903077819  0.0455220971585571
  0.1354763739105860  0.5621615319806132  0.3247601751321686
  0.0900041283053960  0.7169059181255074  0.2239675538813085
  0.2692918416406235  0.6593855727799377  0.9936285365957577
  0.9930887504195345  0.9053536266451627  0.6956920716153963
  0.4451453692411703  0.8206072823579509  0.6720945625411218
  0.8580053320008965  0.4769378824940376  0.8067658336397203
  0.6704388551803186  0.3084312130467334  0.8071779014788895
  0.3525888559242304  0.9019102448020407  0.2596684411618006
  0.0604599222401329  0.3717523794561022  0.1296008717931532
  0.8025262227487385  0.7171359558195400  0.1059036577831251
  0.0215796185955014  0.6138639871649159  0.8651883333270113
  0.3948761404365618  0.5393533624608720  0.8997914107705158
  0.5732775953659716  0.6860216322302094  0.5867498850927950
  0.7747371685977557  0.9540506342981769  0.9286543928536212
  0.4458825261617267  0.6180560196152864  0.7061580341182487
  0.0606301938283889  0.4020664021881242  0.3444471282576567
  0.9631351603922810  0.1115013727709117  0.6628328062244382
  0.7332330259666830  0.1726150978258791  0.4664451040580356
  0.2902069675602135  0.0691356994138041  0.1355105340657333
  0.1894017524532915  0.8266647304645218  0.4944968358903897
  0.4016986463723206  0.6797336507163783  0.5159302103061048
  0.0467083651136274  0.0878519201347665  0.5077071153732069
  0.2495272659363999  0.4708831389306463  0.6714631383941944
  0.1344500608763322  0.5993460780242313  0.5450729634297881
 
  0.00000000E+00  0.00000000E+00  0.00000000E+00
  0.00000000E+00  0.00000000E+00  0.00000000E+00
  0.00000000E+00  0.00000000E+00  0.00000000E+00
  0.00000000E+00  0.00000000E+00  0.00000000E+00
  0.00000000E+00  0.00000000E+00  0.00000000E+00
  0.00000000E+00  0.00000000E+00  0.00000000E+00
  0.00000000E+00  0.00000000E+00  0.00000000E+00
  0.00000000E+00  0.00000000E+00  0.00000000E+00
  0.00000000E+00  0.00000000E+00  0.00000000E+00
  0.00000000E+00  0.00000000E+00  0.00000000E+00
  0.00000000E+00  0.00000000E+00  0.00000000E+00
  0.00000000E+00  0.00000000E+00  0.00000000E+00
  0.00000000E+00  0.00000000E+00  0.00000000E+00
  0.00000000E+00  0.00000000E+00  0.00000000E+00
  0.00000000E+00  0.00000000E+00  0.00000000E+00
  0.00000000E+00  0.00000000E+00  0.00000000E+00
  0.00000000E+00  0.00000000E+00  0.00000000E+00
  0.00000000E+00  0.00000000E+00  0.00000000E+00
  0.00000000E+00  0.00000000E+00  0.00000000E+00
  0.00000000E+00  0.00000000E+00  0.00000000E+00
  0.00000000E+00  0.00000000E+00  0.00000000E+00
  0.00000000E+00  0.00000000E+00  0.00000000E+00
  0.00000000E+00  0.00000000E+00  0.00000000E+00
  0.00000000E+00  0.00000000E+00  0.00000000E+00
  0.00000000E+00  0.00000000E+00  0.00000000E+00
  0.00000000E+00  0.00000000E+00  0.00000000E+00
  0.00000000E+00  0.00000000E+00  0.00000000E+00
  0.00000000E+00  0.00000000E+00  0.00000000E+00
  0.00000000E+00  0.00000000E+00  0.00000000E+00
  0.00000000E+00  0.00000000E+00  0.00000000E+00
  0.00000000E+00  0.00000000E+00  0.00000000E+00
  0.00000000E+00  0.00000000E+00  0.00000000E+00
  0.00000000E+00  0.00000000E+00  0.00000000E+00
  0.00000000E+00  0.00000000E+00  0.00000000E+00
  0.00000000E+00  0.00000000E+00  0.00000000E+00
  0.00000000E+00  0.00000000E+00  0.00000000E+00
  0.00000000E+00  0.00000000E+00  0.00000000E+00
  0.00000000E+00  0.00000000E+00  0.00000000E+00
  0.00000000E+00  0.00000000E+00  0.00000000E+00
  0.00000000E+00  0.00000000E+00  0.00000000E+00
  0.00000000E+00  0.00000000E+00  0.00000000E+00
  0.00000000E+00  0.00000000E+00  0.00000000E+00
  0.00000000E+00  0.00000000E+00  0.00000000E+00
  0.00000000E+00  0.00000000E+00  0.00000000E+00
  0.00000000E+00  0.00000000E+00  0.00000000E+00
  0.00000000E+00  0.00000000E+00  0.00000000E+00
  0.00000000E+00  0.00000000E+00  0.00000000E+00
  0.00000000E+00  0.00000000E+00  0.00000000E+00
  0.00000000E+00  0.00000000E+00  0.00000000E+00
  0.00000000E+00  0.00000000E+00  0.00000000E+00
  0.00000000E+00  0.00000000E+00  0.00000000E+00
  0.00000000E+00  0.00000000E+00  0.00000000E+00
  0.00000000E+00  0.00000000E+00  0.00000000E+00
  0.00000000E+00  0.00000000E+00  0.00000000E+00
  0.00000000E+00  0.00000000E+00  0.00000000E+00
  0.00000000E+00  0.00000000E+00  0.00000000E+00
  0.00000000E+00  0.00000000E+00  0.00000000E+00
  0.00000000E+00  0.00000000E+00  0.00000000E+00
  0.00000000E+00  0.00000000E+00  0.00000000E+00
  0.00000000E+00  0.00000000E+00  0.00000000E+00
  0.00000000E+00  0.00000000E+00  0.00000000E+00
  0.00000000E+00  0.00000000E+00  0.00000000E+00
  0.00000000E+00  0.00000000E+00  0.00000000E+00
  0.00000000E+00  0.00000000E+00  0.00000000E+00
  0.00000000E+00  0.00000000E+00  0.00000000E+00
  0.00000000E+00  0.00000000E+00  0.00000000E+00
  0.00000000E+00  0.00000000E+00  0.00000000E+00
  0.00000000E+00  0.00000000E+00  0.00000000E+00
  0.00000000E+00  0.00000000E+00  0.00000000E+00
  0.00000000E+00  0.00000000E+00  0.00000000E+00
  0.00000000E+00  0.00000000E+00  0.00000000E+00
  0.00000000E+00  0.00000000E+00  0.00000000E+00
  0.00000000E+00  0.00000000E+00  0.00000000E+00
  0.00000000E+00  0.00000000E+00  0.00000000E+00
  0.00000000E+00  0.00000000E+00  0.00000000E+00
  0.00000000E+00  0.00000000E+00  0.00000000E+00
  0.00000000E+00  0.00000000E+00  0.00000000E+00
  0.00000000E+00  0.00000000E+00  0.00000000E+00
  0.00000000E+00  0.00000000E+00  0.00000000E+00
  0.00000000E+00  0.00000000E+00  0.00000000E+00
  0.00000000E+00  0.00000000E+00  0.00000000E+00
  0.00000000E+00  0.00000000E+00  0.00000000E+00
  0.00000000E+00  0.00000000E+00  0.00000000E+00
  0.00000000E+00  0.00000000E+00  0.00000000E+00
  0.00000000E+00  0.00000000E+00  0.00000000E+00
  0.00000000E+00  0.00000000E+00  0.00000000E+00
  0.00000000E+00  0.00000000E+00  0.00000000E+00
  0.00000000E+00  0.00000000E+00  0.00000000E+00
  0.00000000E+00  0.00000000E+00  0.00000000E+00
  0.00000000E+00  0.00000000E+00  0.00000000E+00
  0.00000000E+00  0.00000000E+00  0.00000000E+00
  0.00000000E+00  0.00000000E+00  0.00000000E+00
  0.00000000E+00  0.00000000E+00  0.00000000E+00
  0.00000000E+00  0.00000000E+00  0.00000000E+00
  0.00000000E+00  0.00000000E+00  0.00000000E+00
  0.00000000E+00  0.00000000E+00  0.00000000E+00
  0.00000000E+00  0.00000000E+00  0.00000000E+00
  0.00000000E+00  0.00000000E+00  0.00000000E+00
  0.00000000E+00  0.00000000E+00  0.00000000E+00
  0.00000000E+00  0.00000000E+00  0.00000000E+00
  0.00000000E+00  0.00000000E+00  0.00000000E+00
  0.00000000E+00  0.00000000E+00  0.00000000E+00
  0.00000000E+00  0.00000000E+00  0.00000000E+00
  0.00000000E+00  0.00000000E+00  0.00000000E+00
  0.00000000E+00  0.00000000E+00  0.00000000E+00
  0.00000000E+00  0.00000000E+00  0.00000000E+00
  0.00000000E+00  0.00000000E+00  0.00000000E+00
  0.00000000E+00  0.00000000E+00  0.00000000E+00
  0.00000000E+00  0.00000000E+00  0.00000000E+00
  0.00000000E+00  0.00000000E+00  0.00000000E+00
  0.00000000E+00  0.00000000E+00  0.00000000E+00
  0.00000000E+00  0.00000000E+00  0.00000000E+00
  0.00000000E+00  0.00000000E+00  0.00000000E+00
  0.00000000E+00  0.00000000E+00  0.00000000E+00
  0.00000000E+00  0.00000000E+00  0.00000000E+00
  0.00000000E+00  0.00000000E+00  0.00000000E+00
  0.00000000E+00  0.00000000E+00  0.00000000E+00
  0.00000000E+00  0.00000000E+00  0.00000000E+00
  0.00000000E+00  0.00000000E+00  0.00000000E+00
  0.00000000E+00  0.00000000E+00  0.00000000E+00
  0.00000000E+00  0.00000000E+00  0.00000000E+00
  0.00000000E+00  0.00000000E+00  0.00000000E+00
  0.00000000E+00  0.00000000E+00  0.00000000E+00
  0.00000000E+00  0.00000000E+00  0.00000000E+00
  0.00000000E+00  0.00000000E+00  0.00000000E+00
  0.00000000E+00  0.00000000E+00  0.00000000E+00
  0.00000000E+00  0.00000000E+00  0.00000000E+00
  0.00000000E+00  0.00000000E+00  0.00000000E+00
  0.00000000E+00  0.00000000E+00  0.00000000E+00
  0.00000000E+00  0.00000000E+00  0.00000000E+00
  0.00000000E+00  0.00000000E+00  0.00000000E+00
  0.00000000E+00  0.00000000E+00  0.00000000E+00
  0.00000000E+00  0.00000000E+00  0.00000000E+00
  0.00000000E+00  0.00000000E+00  0.00000000E+00
  0.00000000E+00  0.00000000E+00  0.00000000E+00
  0.00000000E+00  0.00000000E+00  0.00000000E+00
  0.00000000E+00  0.00000000E+00  0.00000000E+00
  0.00000000E+00  0.00000000E+00  0.00000000E+00
  0.00000000E+00  0.00000000E+00  0.00000000E+00
  0.00000000E+00  0.00000000E+00  0.00000000E+00
  0.00000000E+00  0.00000000E+00  0.00000000E+00
  0.00000000E+00  0.00000000E+00  0.00000000E+00
  0.00000000E+00  0.00000000E+00  0.00000000E+00
  0.00000000E+00  0.00000000E+00  0.00000000E+00
  0.00000000E+00  0.00000000E+00  0.00000000E+00
  0.00000000E+00  0.00000000E+00  0.00000000E+00
  0.00000000E+00  0.00000000E+00  0.00000000E+00
  0.00000000E+00  0.00000000E+00  0.00000000E+00
  0.00000000E+00  0.00000000E+00  0.00000000E+00
  0.00000000E+00  0.00000000E+00  0.00000000E+00
  0.00000000E+00  0.00000000E+00  0.00000000E+00
  0.00000000E+00  0.00000000E+00  0.00000000E+00
  0.00000000E+00  0.00000000E+00  0.00000000E+00
  0.00000000E+00  0.00000000E+00  0.00000000E+00
  0.00000000E+00  0.00000000E+00  0.00000000E+00
  0.00000000E+00  0.00000000E+00  0.00000000E+00
  0.00000000E+00  0.00000000E+00  0.00000000E+00
  0.00000000E+00  0.00000000E+00  0.00000000E+00
  0.00000000E+00  0.00000000E+00  0.00000000E+00
  0.00000000E+00  0.00000000E+00  0.00000000E+00
  0.00000000E+00  0.00000000E+00  0.00000000E+00
  0.00000000E+00  0.00000000E+00  0.00000000E+00
  0.00000000E+00  0.00000000E+00  0.00000000E+00
  0.00000000E+00  0.00000000E+00  0.00000000E+00
  0.00000000E+00  0.00000000E+00  0.00000000E+00
  0.00000000E+00  0.00000000E+00  0.00000000E+00
  0.00000000E+00  0.00000000E+00  0.00000000E+00
  0.00000000E+00  0.00000000E+00  0.00000000E+00
  0.00000000E+00  0.00000000E+00  0.00000000E+00
  0.00000000E+00  0.00000000E+00  0.00000000E+00
  0.00000000E+00  0.00000000E+00  0.00000000E+00
  0.00000000E+00  0.00000000E+00  0.00000000E+00
  0.00000000E+00  0.00000000E+00  0.00000000E+00
  0.00000000E+00  0.00000000E+00  0.00000000E+00
  0.00000000E+00  0.00000000E+00  0.00000000E+00
  0.00000000E+00  0.00000000E+00  0.00000000E+00
  0.00000000E+00  0.00000000E+00  0.00000000E+00
  0.00000000E+00  0.00000000E+00  0.00000000E+00
  0.00000000E+00  0.00000000E+00  0.00000000E+00
  0.00000000E+00  0.00000000E+00  0.00000000E+00
  0.00000000E+00  0.00000000E+00  0.00000000E+00
  0.00000000E+00  0.00000000E+00  0.00000000E+00
  0.00000000E+00  0.00000000E+00  0.00000000E+00
  0.00000000E+00  0.00000000E+00  0.00000000E+00
  0.00000000E+00  0.00000000E+00  0.00000000E+00
  0.00000000E+00  0.00000000E+00  0.00000000E+00
  0.00000000E+00  0.00000000E+00  0.00000000E+00
  0.00000000E+00  0.00000000E+00  0.00000000E+00
  0.00000000E+00  0.00000000E+00  0.00000000E+00
  0.00000000E+00  0.00000000E+00  0.00000000E+00
  0.00000000E+00  0.00000000E+00  0.00000000E+00
  0.00000000E+00  0.00000000E+00  0.00000000E+00
  0.00000000E+00  0.00000000E+00  0.00000000E+00
  0.00000000E+00  0.00000000E+00  0.00000000E+00
  0.00000000E+00  0.00000000E+00  0.00000000E+00
  0.00000000E+00  0.00000000E+00  0.00000000E+00
  0.00000000E+00  0.00000000E+00  0.00000000E+00
  0.00000000E+00  0.00000000E+00  0.00000000E+00
  0.00000000E+00  0.00000000E+00  0.00000000E+00
  0.00000000E+00  0.00000000E+00  0.00000000E+00
  0.00000000E+00  0.00000000E+00  0.00000000E+00
  0.00000000E+00  0.00000000E+00  0.00000000E+00
  0.00000000E+00  0.00000000E+00  0.00000000E+00
  0.00000000E+00  0.00000000E+00  0.00000000E+00
  0.00000000E+00  0.00000000E+00  0.00000000E+00
  0.00000000E+00  0.00000000E+00  0.00000000E+00
  0.00000000E+00  0.00000000E+00  0.00000000E+00
  0.00000000E+00  0.00000000E+00  0.00000000E+00
  0.00000000E+00  0.00000000E+00  0.00000000E+00
  0.00000000E+00  0.00000000E+00  0.00000000E+00
  0.00000000E+00  0.00000000E+00  0.00000000E+00
  0.00000000E+00  0.00000000E+00  0.00000000E+00
  0.00000000E+00  0.00000000E+00  0.00000000E+00
  0.00000000E+00  0.00000000E+00  0.00000000E+00
  0.00000000E+00  0.00000000E+00  0.00000000E+00
  0.00000000E+00  0.00000000E+00  0.00000000E+00
  0.00000000E+00  0.00000000E+00  0.00000000E+00
  0.00000000E+00  0.00000000E+00  0.00000000E+00
  0.00000000E+00  0.00000000E+00  0.00000000E+00
  0.00000000E+00  0.00000000E+00  0.00000000E+00
  0.00000000E+00  0.00000000E+00  0.00000000E+00
  0.00000000E+00  0.00000000E+00  0.00000000E+00
  0.00000000E+00  0.00000000E+00  0.00000000E+00
  0.00000000E+00  0.00000000E+00  0.00000000E+00
  0.00000000E+00  0.00000000E+00  0.00000000E+00
  0.00000000E+00  0.00000000E+00  0.00000000E+00
  0.00000000E+00  0.00000000E+00  0.00000000E+00
  0.00000000E+00  0.00000000E+00  0.00000000E+00
  0.00000000E+00  0.00000000E+00  0.00000000E+00
  0.00000000E+00  0.00000000E+00  0.00000000E+00
  0.00000000E+00  0.00000000E+00  0.00000000E+00
  0.00000000E+00  0.00000000E+00  0.00000000E+00