Amorphous GeAsSeSi                      
   1.00000000000000     
    19.1036188657994757    0.0000000000000000    0.0000000000000000
     0.0000000000000000   19.1036188657994757    0.0000000000000000
     0.0000000000000000    0.0000000000000000   19.1036188657994757
   Ge   Sb   Se
   108    24   108
Direct
  0.8904653752722296  0.5452901852357710  0.9844925388864620
  0.1957154342072346  0.5915217744713750  0.8182819816540301
  0.0254989336084685  0.4199896647834296  0.7757185458179945
  0.1271158714960547  0.7148094085232956  0.8338981668277411
  0.4012465585157114  0.1176365674852471  0.0645181518587660
  0.2545747077394837  0.2869982169426613  0.5992077728924933
  0.9135541452735999  0.4466986206690362  0.7011939821387483
  0.9655532216637202  0.6208429548076466  0.4281418785751633
  0.4532694057003938  0.7708746786202835  0.9232593685891644
  0.0293261550266760  0.6828553250098673  0.1557722903292178
  0.4930220234847146  0.3494879756991943  0.0977541017890070
  0.7137051568917082  0.3928768652093340  0.3732584830240515
  0.2800769845183204  0.9414312513405070  0.6052218451300837
  0.6981427847344543  0.1371756011164225  0.3473140609245893
  0.8922913288037404  0.2550970088083875  0.3218654376777356
  0.2097175257786115  0.7565224200721790  0.6670905664512312
  0.7730631764199831  0.7475544479708719  0.4807364249056713
  0.3142525787811511  0.9098211812769594  0.3351919399595643
  0.2991899425468006  0.3971928188450375  0.9765527718412214
  0.4880317140500195  0.5179689130987774 -0.0147894543952604
  0.7549396955315799  0.9278648613745308  0.4547387181490378
  0.9193571691903960  0.0678724090926594  0.0435500128842516
  0.2622174046931025  0.5704107049664621  0.0645341874944761
  0.4263424036800776  0.8420028549814914  0.3690646360736609
  0.7899392586161432  0.2412031407279505  0.7120236154964368
  0.9803164570574070  0.1042978729959206  0.7397705419449088
  0.6240763018175330  0.3696518595052818  0.5992596133237307
  0.9850634095206566  0.8670081158864963  0.6994566879923120
  0.3444613912496626  0.7100846260821108  0.4964172452844478
  0.0543880485136968  0.9789463474811553  0.6591562021536431
  0.2270282141985776  0.9608805292181433  0.9398295464389154
  0.5489548402219286  0.0275082515806327  0.8137788443417624
  0.0703090675528697  0.3019289803286153  0.5478220510586527
  0.3104368204434296  0.2612103894622415  0.9919479106973040
  0.0552788076815739  0.8048337611970768  0.5371240155476618
  0.4573748201606202  0.5904178614834628  0.2804760459087584
  0.5111247080567635  0.1903494340536389  0.8748072226542809
  0.0631679703902532  0.9507493304440562  0.3845699684601189
  0.9504525817486008  0.7716153494057545  0.9156617401128375
  0.9672397949577051  0.6299623026311416  0.7730223843342635
  0.9078670071344466  0.4033423528592899  0.0222863428412656
  0.1213392484490632  0.4591101897113474  0.0389045962016479
  0.5255652398661441  0.5643585759969749  0.7966468744468073
  0.8425428496436627  0.6057472743543147  0.5877254958000027
  0.6302228782313078  0.0291243900861530  0.3948871095209914
  0.5764800658166380  0.4789340564830363  0.2308247674277141
  0.9670765584219506  0.9100356175853042  0.1939847736509452
  0.6591979902160343  0.6782254281800437  0.5091261248902188
  0.7615421492790447  0.4312932484354631  0.8450573790073918
  0.2982083237025632  0.2717526844294355  0.2328669874666653
  0.4798163141129949  0.4797510707306381  0.6425395923346746
  0.5235852376432673  0.7563139482385892  0.7599256603656371
  0.8073527302681970  0.8757023856622642  0.0080435833542401
  0.3048593818766447  0.7178196174796849  0.2613717126443013
  0.3753407872702509  0.0954725992908326  0.8453707467478940
  0.1074651170041702  0.3696388702790834  0.1667774723008581
  0.1458156306345829  0.0832842252189824  0.4897908768778400
  0.1729813434302230  0.0939970613889377  0.0472139148186036
  0.0630562775235920  0.1932251423593241  0.1198800361792130
  0.8727037644744039  0.8661565323314276  0.3009125372629006
  0.7745842734595836  0.7096035164114345  0.0312397651417819
  0.3811599357687620  0.0905838803132727  0.5738252222121174
  0.0950917238869015  0.1334814529518606  0.8928375035762168
  0.3720943629016915  0.5997605084471850  0.6709451714433056
  0.6301742949563993  0.8097183911739414  0.8184103511983937
  0.0074947039840622  0.7613023166515598  0.7879223306169563
  0.6579595309033845  0.2639794874481822  0.5022692518573801
  0.8408546603671413  0.1741209198945076  0.0806321115072770
  0.1441390965381080  0.6483653133594099  0.5427919041504911
  0.4579454272748577  0.4476065178522681  0.1784673831450324
  0.0949612576731733  0.3079530698927517  0.9463627282317597
  0.7268212261409072  0.9012334157382732  0.7809908934652497
  0.4906115845061366  0.7809858074056144  0.5597188051275940
  0.9602610346367982  0.9256918883164694  0.8780321733218046
  0.3008089761270890  0.5891055755196145  0.2213368870820748
  0.8941091807288211  0.9043459118185549  0.5036167187828688
  0.2208082142400011  0.2380282384667991  0.3972998853801322
  0.2882009047686208  0.9373026966066743  0.1209130813706353
  0.3177329330528105  0.0674515108985040  0.3538021340636928
  0.5660015265115040  0.3362906185084426  0.7946511919195927
  0.0744512164421816  0.2019519438971484  0.2864973282688024
  0.7584721079341679  0.0406569047318833  0.8111493504556445
  0.4577475771474715  0.2672800951481636  0.6624933655511567
  0.0863384875164230  0.0640716668017751  0.2082663006353147
  0.7714743843114753  0.8739712474621847  0.6376175735951020
  0.8286472529916775  0.1396462338016287  0.8794068331733310
  0.9566730495725160  0.0334572981870637  0.3634551908930098
  0.3625154646252608  0.3172652109710860  0.7644092780022099
  0.7896621918125679  0.2646411506377785  0.4756822221219936
  0.6833371447415151  0.8007497925397937  0.2181076574080566
  0.6608647091859303 -0.0063906397865612  0.1082835310796592
  0.6402410152574943  0.1209872102681768  0.6927460817992604
  0.3681455236243589  0.4483321471406890  0.3637236762752149
  0.7389274107475406  0.5101897418127801  0.4371938230154651
  0.0732043387492489  0.3746944213744872  0.3714427075153318
  0.6982226087833532  0.7456272366292193  0.9133262383335914
  0.4116561602477402  0.6846780062757324  0.8251339968044304
  0.0783696341285747  0.4863863967269054  0.4574378427326097
  0.7285309581916011  0.6133176710356584  0.8788735809215403
  0.7520700645765095  0.6510946441936293  0.2855004076535997
  0.9073165865612066  0.5684621535538548  0.2206020435665324
  0.1416201861008319  0.2922126880433429  0.7758354976065638
  0.0178723887368172  0.0047615462702518  0.1091360763938656
  0.7005637989634932  0.1339008354136629  0.2098021851195204
  0.2264802994470462  0.8028497032115384  0.8437919921569117
  0.2864360977775851  0.4276862839215820  0.7893840025851007
  0.7218053878230634  0.3224678578945628  0.9854229208982510
  0.8558961216891083  0.7486971519780975  0.1416522856479862
  0.0475001548838963  0.5447606759692388  0.3311297176133379
  0.3724344427921349  0.4897073993735372  0.8892674239647310
  0.7369146308198821  0.1769950349837709 -0.0141338434264598
  0.6566311011553958  0.9717135702606799  0.6638086226792338
  0.5575231151171959  0.0783440268987090  0.5101473109533035
  0.5321821074299423  0.9812815664685389  0.2933758646498888
  0.3399713738935898  0.9509487067360989  0.7403554904137553
  0.6653557550545438  0.4161811323650503  0.1355270679794846
 -0.0218212712802504  0.2044039314510580  0.6029020263948824
  0.5478037568276827  0.8648178689935355  0.6643902357727970
  0.3628233389307037  0.8789397223675957  0.9290985625080476
  0.9252800131967240  0.4336047385270730  0.5566498595386096
  0.2009500990313230  0.5592159388880515  0.4364665984075449
  0.5249062256678834  0.1425973690446091  0.3790323370782738
  0.6132689704375659  0.8114808935744493  0.0192807274944944
  0.9943005126909975  0.1137401423728905  0.4820504591093189
  0.4349273663258347  0.8159201600952338  0.1469438432733245
  0.6934366484812370  0.6554786123437133  0.6476417453890692
  0.7759670757801221  0.4105306240232960  0.2399463107223771
  0.9521636704131269  0.2557242392462252  0.0480250824105166
  0.4865567502482389  0.5201626871282294  0.4092877854509835
  0.5978336925584816  0.1235318666038783  0.1012518793413591
  0.1418352596775829  0.6921342893457620  0.0635701196986827
  0.2667089605095456  0.4685826734169088  0.5395935683702607
  0.6004767839517112  0.9006484719690209  0.1728983520204672
  0.4799421588220499  0.0692757555861377  0.9301184236122955
  0.7926506192865205  0.4822032469861942  0.5564206050645594
  0.8013054819168358  0.3887683388374215  0.7254305311327026
  0.3162275210771457  0.6161352379664390  0.8988871611603410
  0.4817346056081658  0.0897753738546643  0.1657889332543536
  0.9449601320877559  0.1479524419839346  0.9437807172385615
  0.2570342884094351  0.7996066588943426  0.9684321642401508
  0.8002479427635616  0.8256080120129115  0.8854064542503164
  0.5505338264218798  0.8616802716490278  0.3594776254293095
  0.3402780801710742  0.2107664993303419  0.3438435826250738
  0.9682550970602826  0.1091962522503541  0.2605027005245080
  0.5956500272226756  0.2980238463416989  0.1547831708812385
  0.3759626892217505  0.9355113204679700  0.2221318705824386
 -0.0177889401797151  0.4287529365714658  0.2959826176065015
  0.0828688624545912  0.7615612656399823  0.9467257723907475
  0.1785086172150762  0.4115657469064706  0.9244076712804297
  0.2577500111464918  0.2445728599891022  0.7244684489786211
  0.3692370733797687  0.2241295273701579  0.5688995209767088
  0.3553381917121318  0.4357202613576221  0.6775032905120916
  0.2394285801633034  0.6229679414150305  0.6892494774209151
  0.6726435367153117  0.7127451573095839  0.1134680856961540
  0.1957996651544846  0.9255572120366861  0.8183006522745727
  0.2402336688115008  0.8035764606129251  0.3268493453755540
  0.0405169838459882  0.0237828990936958  0.8380793989227042
  0.4268185934150467  0.5395455544943151  0.1001390466411091
  0.7740608655083278  0.5446443469786691  0.1994861935463705
  0.0816638630489449  0.7160327871841962  0.6407688127645175
  0.8475602936058445  0.3551596518556271  0.4069412917083399
  0.2231347586534640  0.7545349108063050  0.5326383617813649
  0.9698831971173650  0.5673029941534974  0.5549233825434468
  0.6894532268853651  0.8383586514005192  0.5393440792307228
  0.5589773172595598  0.6487323516786908  0.6910457937701580
  0.5404941778412606  0.8675464609145043  0.8972115840401134
  0.6919583331690891  0.9439706364350560  0.9940091113953436
  0.5384275574499058  0.7029813252356772  0.4732517837770233
  0.7959484649839295  0.8592373838985313  0.1785167433145958
  0.0847760495198298  0.9295733129443460  0.2543012022953272
  0.1219167500367513  0.9698525311449260  0.0388896721728133
  0.6340940552279430  0.5506571339464118  0.4976015119611399
  0.3876853761392585  0.7279441315191432  0.6218676263895554
  0.1014996316505930  0.1630639669462712  0.7623743863621663
  0.1482186891481823  0.9207873991382063  0.5920799132913851
  0.8635248618746413  0.5674861925836812  0.7179733289740194
  0.8096405290769398  0.6093252779225540  0.3982804717949987
  0.2602675194127245  0.5038298724115235  0.3172412796268488
  0.9545682295561959  0.5885569714980886  0.0959154559065636
  0.8395500302912619  0.9906421019664972  0.3389020150088592
  0.8573147742742399  0.2741386170942975  0.5899294110752041
  0.3947471616194742  0.3667589119721352  0.2646712542269467
  0.2832712255178866  0.0736860366329118  0.1243698475600114
  0.2868601227075458  0.0614724768077909  0.6669579923289030
  0.4410174755013406  0.0229577924226479  0.3977960093048778
  0.8387455985430338  0.3491648024495516  0.9237188363726673
  0.6781358647351838  0.1417719852825891  0.5401680314516670
  0.5847046784185763  0.4554758968040898  0.7341629639344383
  0.6358531323640794  0.2482820331497030  0.3726683535411247
  0.3977493370355313  0.2595406718573431  0.0922806544543728
  0.4943436951900499  0.3670041501894494  0.5726525596188279
  0.2262111572853318  0.0939439219569651  0.9216599981483555
  0.0700941123165874  0.7003605763762025  0.4446225294842698
  0.9254950808117816  0.8108354195589371  0.5934586652846910
  0.0149339625154021  0.4171910330202732  0.9484087004443394
  0.3132418064744752  0.7552666335421712  0.1364791828855073
  0.8648309887632688  0.9868358655850298  0.9551154225169045
  0.3795042038313803  0.2325367540795433  0.8809889928019419
  0.5806690403681826  0.6031850366032371  0.2414374023453734
  0.4910038505444766  0.7270323939730905  0.0363797733364657
  0.2599865233852740  0.4387678724317252  0.0914305026589299
  0.0627037673690941  0.5462702988001660  0.7586600854062550
  0.7622171453033557  0.0267999732482660  0.1769286811705089
  0.4278471697017799  0.7252510983593338  0.3042499752562003
  0.2870195992295186  0.0634818658175000  0.4822753731684717
  0.0978424368943076  0.3623862368531957  0.6715465450040903
  0.8209033490107419  0.1609619788536719  0.4028700799364812
  0.3399996019063223  0.7900016034920070  0.7826925678546321
  0.5301131573583946  0.3933761388258363 -0.0135227868889501
  0.9561565327416341  0.0030290635061565  0.5662555524907020
  0.8956832116994086  0.2134982817059585  0.7912849009042562
  0.6868799975002325  0.3204236611814817  0.8547344966783857
  0.1543400258912952  0.1984826845508575  0.5672977128016449
  0.1452115907859418  0.5794141969449547  0.9825843803920034
  0.0096058796044824  0.2549322691750157  0.3968898763199837
  0.5974905733559677  0.5966252189099468  0.8996611979675658
  0.3181775960174781  0.3740100755031677  0.4541165585998690
  0.9745241608969516  0.8557495236046231  0.4098880462369613
  0.1509924565329912  0.2814274813293612  0.0734507828204503
  0.9948737194219006  0.2979848568784789  0.1854465360762877
  0.1760751146245899  0.3201906968758101  0.2867207921018105
  0.4567304851909995  0.9644714908186782  0.6581460498935073
  0.6249451032470286  0.2735277155940455  0.6914979568753169
  0.1589680150243894  0.1217488463225651  0.3608484821336712
  0.7641428191103448  0.5773639454043826  0.0073738657970126
  0.7719572533288629  0.0904757059962838  0.6906735299698858
  0.7544461285369187  0.8246387158505231  0.3726626870179480
  0.5674606115929069  0.4268602716558299  0.3477282494574415
  0.3700078720209236  0.5602659001274725  0.5403559650567020
  0.9110515557516931  0.6406225503318760  0.8910726524961773
  0.4772858932327697  0.1314035522470155  0.7585352271617097
  0.4077583823816187  0.9216646239185139  0.0544198571014371
  0.9733939929589613  0.8009937294496170  0.1117575552571587
  0.1766126610861900  0.5881353633451885  0.1697195356138508
  0.3977164711799557  0.8429510377867517  0.4940006121233549
  0.7493041076527807  0.7626112676215280  0.7126313295954733
  0.6507284197633815  0.1155168171062079  0.8341668951080172
  0.8941056196292981  0.9349271900511428  0.7629755626096292
  0.8800831004044124  0.6960123548974521  0.2609971791426376
  0.7902893266656047  0.2232573179263666  0.1888682819444268
 
  0.00000000E+00  0.00000000E+00  0.00000000E+00
  0.00000000E+00  0.00000000E+00  0.00000000E+00
  0.00000000E+00  0.00000000E+00  0.00000000E+00
  0.00000000E+00  0.00000000E+00  0.00000000E+00
  0.00000000E+00  0.00000000E+00  0.00000000E+00
  0.00000000E+00  0.00000000E+00  0.00000000E+00
  0.00000000E+00  0.00000000E+00  0.00000000E+00
  0.00000000E+00  0.00000000E+00  0.00000000E+00
  0.00000000E+00  0.00000000E+00  0.00000000E+00
  0.00000000E+00  0.00000000E+00  0.00000000E+00
  0.00000000E+00  0.00000000E+00  0.00000000E+00
  0.00000000E+00  0.00000000E+00  0.00000000E+00
  0.00000000E+00  0.00000000E+00  0.00000000E+00
  0.00000000E+00  0.00000000E+00  0.00000000E+00
  0.00000000E+00  0.00000000E+00  0.00000000E+00
  0.00000000E+00  0.00000000E+00  0.00000000E+00
  0.00000000E+00  0.00000000E+00  0.00000000E+00
  0.00000000E+00  0.00000000E+00  0.00000000E+00
  0.00000000E+00  0.00000000E+00  0.00000000E+00
  0.00000000E+00  0.00000000E+00  0.00000000E+00
  0.00000000E+00  0.00000000E+00  0.00000000E+00
  0.00000000E+00  0.00000000E+00  0.00000000E+00
  0.00000000E+00  0.00000000E+00  0.00000000E+00
  0.00000000E+00  0.00000000E+00  0.00000000E+00
  0.00000000E+00  0.00000000E+00  0.00000000E+00
  0.00000000E+00  0.00000000E+00  0.00000000E+00
  0.00000000E+00  0.00000000E+00  0.00000000E+00
  0.00000000E+00  0.00000000E+00  0.00000000E+00
  0.00000000E+00  0.00000000E+00  0.00000000E+00
  0.00000000E+00  0.00000000E+00  0.00000000E+00
  0.00000000E+00  0.00000000E+00  0.00000000E+00
  0.00000000E+00  0.00000000E+00  0.00000000E+00
  0.00000000E+00  0.00000000E+00  0.00000000E+00
  0.00000000E+00  0.00000000E+00  0.00000000E+00
  0.00000000E+00  0.00000000E+00  0.00000000E+00
  0.00000000E+00  0.00000000E+00  0.00000000E+00
  0.00000000E+00  0.00000000E+00  0.00000000E+00
  0.00000000E+00  0.00000000E+00  0.00000000E+00
  0.00000000E+00  0.00000000E+00  0.00000000E+00
  0.00000000E+00  0.00000000E+00  0.00000000E+00
  0.00000000E+00  0.00000000E+00  0.00000000E+00
  0.00000000E+00  0.00000000E+00  0.00000000E+00
  0.00000000E+00  0.00000000E+00  0.00000000E+00
  0.00000000E+00  0.00000000E+00  0.00000000E+00
  0.00000000E+00  0.00000000E+00  0.00000000E+00
  0.00000000E+00  0.00000000E+00  0.00000000E+00
  0.00000000E+00  0.00000000E+00  0.00000000E+00
  0.00000000E+00  0.00000000E+00  0.00000000E+00
  0.00000000E+00  0.00000000E+00  0.00000000E+00
  0.00000000E+00  0.00000000E+00  0.00000000E+00
  0.00000000E+00  0.00000000E+00  0.00000000E+00
  0.00000000E+00  0.00000000E+00  0.00000000E+00
  0.00000000E+00  0.00000000E+00  0.00000000E+00
  0.00000000E+00  0.00000000E+00  0.00000000E+00
  0.00000000E+00  0.00000000E+00  0.00000000E+00
  0.00000000E+00  0.00000000E+00  0.00000000E+00
  0.00000000E+00  0.00000000E+00  0.00000000E+00
  0.00000000E+00  0.00000000E+00  0.00000000E+00
  0.00000000E+00  0.00000000E+00  0.00000000E+00
  0.00000000E+00  0.00000000E+00  0.00000000E+00
  0.00000000E+00  0.00000000E+00  0.00000000E+00
  0.00000000E+00  0.00000000E+00  0.00000000E+00
  0.00000000E+00  0.00000000E+00  0.00000000E+00
  0.00000000E+00  0.00000000E+00  0.00000000E+00
  0.00000000E+00  0.00000000E+00  0.00000000E+00
  0.00000000E+00  0.00000000E+00  0.00000000E+00
  0.00000000E+00  0.00000000E+00  0.00000000E+00
  0.00000000E+00  0.00000000E+00  0.00000000E+00
  0.00000000E+00  0.00000000E+00  0.00000000E+00
  0.00000000E+00  0.00000000E+00  0.00000000E+00
  0.00000000E+00  0.00000000E+00  0.00000000E+00
  0.00000000E+00  0.00000000E+00  0.00000000E+00
  0.00000000E+00  0.00000000E+00  0.00000000E+00
  0.00000000E+00  0.00000000E+00  0.00000000E+00
  0.00000000E+00  0.00000000E+00  0.00000000E+00
  0.00000000E+00  0.00000000E+00  0.00000000E+00
  0.00000000E+00  0.00000000E+00  0.00000000E+00
  0.00000000E+00  0.00000000E+00  0.00000000E+00
  0.00000000E+00  0.00000000E+00  0.00000000E+00
  0.00000000E+00  0.00000000E+00  0.00000000E+00
  0.00000000E+00  0.00000000E+00  0.00000000E+00
  0.00000000E+00  0.00000000E+00  0.00000000E+00
  0.00000000E+00  0.00000000E+00  0.00000000E+00
  0.00000000E+00  0.00000000E+00  0.00000000E+00
  0.00000000E+00  0.00000000E+00  0.00000000E+00
  0.00000000E+00  0.00000000E+00  0.00000000E+00
  0.00000000E+00  0.00000000E+00  0.00000000E+00
  0.00000000E+00  0.00000000E+00  0.00000000E+00
  0.00000000E+00  0.00000000E+00  0.00000000E+00
  0.00000000E+00  0.00000000E+00  0.00000000E+00
  0.00000000E+00  0.00000000E+00  0.00000000E+00
  0.00000000E+00  0.00000000E+00  0.00000000E+00
  0.00000000E+00  0.00000000E+00  0.00000000E+00
  0.00000000E+00  0.00000000E+00  0.00000000E+00
  0.00000000E+00  0.00000000E+00  0.00000000E+00
  0.00000000E+00  0.00000000E+00  0.00000000E+00
  0.00000000E+00  0.00000000E+00  0.00000000E+00
  0.00000000E+00  0.00000000E+00  0.00000000E+00
  0.00000000E+00  0.00000000E+00  0.00000000E+00
  0.00000000E+00  0.00000000E+00  0.00000000E+00
  0.00000000E+00  0.00000000E+00  0.00000000E+00
  0.00000000E+00  0.00000000E+00  0.00000000E+00
  0.00000000E+00  0.00000000E+00  0.00000000E+00
  0.00000000E+00  0.00000000E+00  0.00000000E+00
  0.00000000E+00  0.00000000E+00  0.00000000E+00
  0.00000000E+00  0.00000000E+00  0.00000000E+00
  0.00000000E+00  0.00000000E+00  0.00000000E+00
  0.00000000E+00  0.00000000E+00  0.00000000E+00
  0.00000000E+00  0.00000000E+00  0.00000000E+00
  0.00000000E+00  0.00000000E+00  0.00000000E+00
  0.00000000E+00  0.00000000E+00  0.00000000E+00
  0.00000000E+00  0.00000000E+00  0.00000000E+00
  0.00000000E+00  0.00000000E+00  0.00000000E+00
  0.00000000E+00  0.00000000E+00  0.00000000E+00
  0.00000000E+00  0.00000000E+00  0.00000000E+00
  0.00000000E+00  0.00000000E+00  0.00000000E+00
  0.00000000E+00  0.00000000E+00  0.00000000E+00
  0.00000000E+00  0.00000000E+00  0.00000000E+00
  0.00000000E+00  0.00000000E+00  0.00000000E+00
  0.00000000E+00  0.00000000E+00  0.00000000E+00
  0.00000000E+00  0.00000000E+00  0.00000000E+00
  0.00000000E+00  0.00000000E+00  0.00000000E+00
  0.00000000E+00  0.00000000E+00  0.00000000E+00
  0.00000000E+00  0.00000000E+00  0.00000000E+00
  0.00000000E+00  0.00000000E+00  0.00000000E+00
  0.00000000E+00  0.00000000E+00  0.00000000E+00
  0.00000000E+00  0.00000000E+00  0.00000000E+00
  0.00000000E+00  0.00000000E+00  0.00000000E+00
  0.00000000E+00  0.00000000E+00  0.00000000E+00
  0.00000000E+00  0.00000000E+00  0.00000000E+00
  0.00000000E+00  0.00000000E+00  0.00000000E+00
  0.00000000E+00  0.00000000E+00  0.00000000E+00
  0.00000000E+00  0.00000000E+00  0.00000000E+00
  0.00000000E+00  0.00000000E+00  0.00000000E+00
  0.00000000E+00  0.00000000E+00  0.00000000E+00
  0.00000000E+00  0.00000000E+00  0.00000000E+00
  0.00000000E+00  0.00000000E+00  0.00000000E+00
  0.00000000E+00  0.00000000E+00  0.00000000E+00
  0.00000000E+00  0.00000000E+00  0.00000000E+00
  0.00000000E+00  0.00000000E+00  0.00000000E+00
  0.00000000E+00  0.00000000E+00  0.00000000E+00
  0.00000000E+00  0.00000000E+00  0.00000000E+00
  0.00000000E+00  0.00000000E+00  0.00000000E+00
  0.00000000E+00  0.00000000E+00  0.00000000E+00
  0.00000000E+00  0.00000000E+00  0.00000000E+00
  0.00000000E+00  0.00000000E+00  0.00000000E+00
  0.00000000E+00  0.00000000E+00  0.00000000E+00
  0.00000000E+00  0.00000000E+00  0.00000000E+00
  0.00000000E+00  0.00000000E+00  0.00000000E+00
  0.00000000E+00  0.00000000E+00  0.00000000E+00
  0.00000000E+00  0.00000000E+00  0.00000000E+00
  0.00000000E+00  0.00000000E+00  0.00000000E+00
  0.00000000E+00  0.00000000E+00  0.00000000E+00
  0.00000000E+00  0.00000000E+00  0.00000000E+00
  0.00000000E+00  0.00000000E+00  0.00000000E+00
  0.00000000E+00  0.00000000E+00  0.00000000E+00
  0.00000000E+00  0.00000000E+00  0.00000000E+00
  0.00000000E+00  0.00000000E+00  0.00000000E+00
  0.00000000E+00  0.00000000E+00  0.00000000E+00
  0.00000000E+00  0.00000000E+00  0.00000000E+00
  0.00000000E+00  0.00000000E+00  0.00000000E+00
  0.00000000E+00  0.00000000E+00  0.00000000E+00
  0.00000000E+00  0.00000000E+00  0.00000000E+00
  0.00000000E+00  0.00000000E+00  0.00000000E+00
  0.00000000E+00  0.00000000E+00  0.00000000E+00
  0.00000000E+00  0.00000000E+00  0.00000000E+00
  0.00000000E+00  0.00000000E+00  0.00000000E+00
  0.00000000E+00  0.00000000E+00  0.00000000E+00
  0.00000000E+00  0.00000000E+00  0.00000000E+00
  0.00000000E+00  0.00000000E+00  0.00000000E+00
  0.00000000E+00  0.00000000E+00  0.00000000E+00
  0.00000000E+00  0.00000000E+00  0.00000000E+00
  0.00000000E+00  0.00000000E+00  0.00000000E+00
  0.00000000E+00  0.00000000E+00  0.00000000E+00
  0.00000000E+00  0.00000000E+00  0.00000000E+00
  0.00000000E+00  0.00000000E+00  0.00000000E+00
  0.00000000E+00  0.00000000E+00  0.00000000E+00
  0.00000000E+00  0.00000000E+00  0.00000000E+00
  0.00000000E+00  0.00000000E+00  0.00000000E+00
  0.00000000E+00  0.00000000E+00  0.00000000E+00
  0.00000000E+00  0.00000000E+00  0.00000000E+00
  0.00000000E+00  0.00000000E+00  0.00000000E+00
  0.00000000E+00  0.00000000E+00  0.00000000E+00
  0.00000000E+00  0.00000000E+00  0.00000000E+00
  0.00000000E+00  0.00000000E+00  0.00000000E+00
  0.00000000E+00  0.00000000E+00  0.00000000E+00
  0.00000000E+00  0.00000000E+00  0.00000000E+00
  0.00000000E+00  0.00000000E+00  0.00000000E+00
  0.00000000E+00  0.00000000E+00  0.00000000E+00
  0.00000000E+00  0.00000000E+00  0.00000000E+00
  0.00000000E+00  0.00000000E+00  0.00000000E+00
  0.00000000E+00  0.00000000E+00  0.00000000E+00
  0.00000000E+00  0.00000000E+00  0.00000000E+00
  0.00000000E+00  0.00000000E+00  0.00000000E+00
  0.00000000E+00  0.00000000E+00  0.00000000E+00
  0.00000000E+00  0.00000000E+00  0.00000000E+00
  0.00000000E+00  0.00000000E+00  0.00000000E+00
  0.00000000E+00  0.00000000E+00  0.00000000E+00
  0.00000000E+00  0.00000000E+00  0.00000000E+00
  0.00000000E+00  0.00000000E+00  0.00000000E+00
  0.00000000E+00  0.00000000E+00  0.00000000E+00
  0.00000000E+00  0.00000000E+00  0.00000000E+00
  0.00000000E+00  0.00000000E+00  0.00000000E+00
  0.00000000E+00  0.00000000E+00  0.00000000E+00
  0.00000000E+00  0.00000000E+00  0.00000000E+00
  0.00000000E+00  0.00000000E+00  0.00000000E+00
  0.00000000E+00  0.00000000E+00  0.00000000E+00
  0.00000000E+00  0.00000000E+00  0.00000000E+00
  0.00000000E+00  0.00000000E+00  0.00000000E+00
  0.00000000E+00  0.00000000E+00  0.00000000E+00
  0.00000000E+00  0.00000000E+00  0.00000000E+00
  0.00000000E+00  0.00000000E+00  0.00000000E+00
  0.00000000E+00  0.00000000E+00  0.00000000E+00
  0.00000000E+00  0.00000000E+00  0.00000000E+00
  0.00000000E+00  0.00000000E+00  0.00000000E+00
  0.00000000E+00  0.00000000E+00  0.00000000E+00
  0.00000000E+00  0.00000000E+00  0.00000000E+00
  0.00000000E+00  0.00000000E+00  0.00000000E+00
  0.00000000E+00  0.00000000E+00  0.00000000E+00
  0.00000000E+00  0.00000000E+00  0.00000000E+00
  0.00000000E+00  0.00000000E+00  0.00000000E+00
  0.00000000E+00  0.00000000E+00  0.00000000E+00
  0.00000000E+00  0.00000000E+00  0.00000000E+00
  0.00000000E+00  0.00000000E+00  0.00000000E+00
  0.00000000E+00  0.00000000E+00  0.00000000E+00
  0.00000000E+00  0.00000000E+00  0.00000000E+00
  0.00000000E+00  0.00000000E+00  0.00000000E+00
  0.00000000E+00  0.00000000E+00  0.00000000E+00
  0.00000000E+00  0.00000000E+00  0.00000000E+00
  0.00000000E+00  0.00000000E+00  0.00000000E+00
  0.00000000E+00  0.00000000E+00  0.00000000E+00
  0.00000000E+00  0.00000000E+00  0.00000000E+00
  0.00000000E+00  0.00000000E+00  0.00000000E+00
  0.00000000E+00  0.00000000E+00  0.00000000E+00
  0.00000000E+00  0.00000000E+00  0.00000000E+00
  0.00000000E+00  0.00000000E+00  0.00000000E+00
  0.00000000E+00  0.00000000E+00  0.00000000E+00
  0.00000000E+00  0.00000000E+00  0.00000000E+00
  0.00000000E+00  0.00000000E+00  0.00000000E+00
  0.00000000E+00  0.00000000E+00  0.00000000E+00
