Bond                                    
   1.00000000000000     
     5.4870631794972171    0.0000000000000000    0.0000000000000001
     0.0000000000000000    3.3048783066872955   -0.0000000000000000
     0.0000000000000000   -0.0000000000000000    3.3048783066872955
   Sn   Sb
     1     1
Direct
  0.2500000000000000  0.5000000000000000  0.5000000000000000
  0.7500000000000000  0.5000000000000000  0.5000000000000000
 
  0.00000000E+00  0.00000000E+00  0.00000000E+00
  0.00000000E+00  0.00000000E+00  0.00000000E+00
