Ge Se                                   
   1.00000000000000     
    19.7402305603027344    0.0000000000000000    0.0000000000000000
     0.0000000000000000   19.7402305603027344    0.0000000000000000
     0.0000000000000000    0.0000000000000000   19.7402305603027344
   Ge   Se
   150   150
Direct
  0.1582496538791959  0.7648254980811741  0.2941664727153807
  0.2031260821508866  0.3205521045872621  0.4266577781765497
  0.4058883358151256  0.8486386970109293  0.8823666890825200
  0.4979641774115319  0.2235529464272758  0.3010438825968922
  0.4572171616590119  0.2927879095004230  0.8149825580304890
  0.1717668855823600  0.5025829790407726  0.8882229756248726
  0.5955730125298492  0.1785337280323158  0.8733987060338047
  0.5764541521902783  0.5508404409019065  0.2403916308860151
  0.1850782869045732  0.3381103977428080  0.0504115197953720
  0.8434643693982726  0.0160813188804386  0.0018145003135037
  0.5799879799155899  0.4070046070879678  0.6900381846819166
  0.1556048350809542  0.0980083374773263  0.0324623930610762
  0.0125936403115992  0.5116725766224975  0.2653325195464239
  0.2315767521852904  0.6796385582473801  0.5073402758675815
  0.6970410727149722  0.6844120715011921  0.3302498036240747
  0.1472941754030584  0.4130104071420855  0.2388160279582271
  0.5129745241361114  0.8873062668058284  0.1490828420541743
  0.4635087449864009  0.5421835580158577  0.3845389051204633
  0.9002571721460840  0.2076605677643675  0.3095006873484620
  0.7390404244434288  0.9529905165169480  0.3487780665876710
  0.3932324708063782  0.0582048335833891  0.3794590082911717
  0.1314444986181836  0.5786501067606838  0.3739356713707930
  0.3191353953107773  0.1670303080596569  0.0509019554433794
  0.9027356807678186  0.8632853725680200  0.9867493751881661
  0.5725376595132261  0.5174757480011462  0.0345217250907247
  0.5509046180031720  0.9593744062704893  0.6799648081811291
  0.6849553517417930  0.0942605903921242  0.5631796658250053
  0.5829790669815044  0.7964824506023012  0.4676841820914883
  0.7617515841957460  0.9094254504679324  0.7454804826037497
  0.6035661741477991  0.9577545280784774  0.8147036023150018
  0.9873317095383206  0.2962886772434300  0.4569692625836747
  0.4442888582799733  0.2535018194466313  0.4144638650663390
  0.9756553545843332  0.7220013428119072  0.6905541713488079
  0.4416955347818233  0.1476051411063362  0.2116670135606364
  0.2240149369673342  0.1945902630556135  0.4002722866476250
  0.6209592478153549  0.5491068465000816  0.8590316800124923
  0.6777126248379521  0.4519822888147804  0.3200067014076151
  0.6054302106376106  0.1185804120105219  0.0030321096946743
  0.0522223105266124  0.3369361035329023  0.0495493104707097
  0.3781033886016423  0.0388144984588179  0.6714372080391459
  0.8531949949259501  0.7768103843958928  0.6343495685384798
  0.9673482008269633  0.8487476414229436  0.7462897525453102
  0.3837064992972989  0.3417280607271220  0.1556503877506238
  0.6628100836807406  0.8716882035213592  0.9774894483639236
  0.8872645522223508  0.7878754252040706  0.0946090680903190
  0.3357695161673748  0.3077099308375003  0.6729968896396988
  0.4063866378523563  0.3976666870954019  0.7304194734196845
  0.4649809121496260  0.6822098674404103  0.8857343239222969
  0.1700174796648546  0.7010913319933176  0.8688176219454881
  0.5355591111155364  0.6305508661714350  0.6292172672078051
  0.3728306369898254  0.9335894432180883  0.2388587850156489
  0.4019545850341664  0.3712047432401953  0.3781924595268557
  0.3252947557241366  0.1739005417363177  0.8181667065359346
  0.3470572184202650  0.1686137213178428  0.4180020829030853
  0.9003546350855003  0.4171036561896510  0.7247912436405625
  0.8112972434099603  0.4197290367805819  0.5558256541343642
  0.8347423563053802  0.3050139726276643  0.8719527984648981
  0.3530629773057068  0.6066569707910338  0.4051880564200909
  0.9255572600499492  0.2080201464317353  0.6901376799095911
  0.8473290384680936  0.0553874701340628  0.3742354669486584
  0.2985944529201364  0.6570739534613994  0.9983124386755051
  0.1195879958228804  0.9901391048381596  0.8302222592304512
  0.7063125703068597  0.0209275334870498  0.8727986162543527
  0.9068758442603767  0.5590513847229892  0.6735622365685491
  0.9676322844328126  0.4195130424921207  0.9098372772619295
  0.2206240555130928  0.8570485238947353  0.9318487812475262
  0.6148942659001433  0.2399010224725649  0.1798434269066236
  0.0894432571315775  0.6648052543845160  0.5706765129844953
  0.4997792624925745  0.0880802723424593  0.6634575341319198
  0.4116990003709783  0.8738959818932561  0.4653522484150663
  0.8234032338283045  0.6388123264129965  0.3337971990537790
  0.8014877275019198  0.1799046837528055  0.9179257450496086
  0.4036762814935873  0.6143117075650223  0.2215823906863256
  0.9005665151484010  0.7971908661764340  0.2280125560168446
  0.6011827613006362  0.0005988498742779  0.4633242307962745
  0.3319942169378150  0.5812627942465129  0.8226160394591527
  0.3543090211559551  0.1692817544832826  0.5427430061605117
  0.2353661475709427  0.7938302929560961  0.5741536475473381
  0.7625010935109682  0.6555869334195746  0.0608342935957159
  0.6743069917514540  0.3864629594288450  0.8388576696921682
  0.6684729845144853  0.5633624166045313  0.5048810764543111
  0.1922069958450267  0.2623009072437255  0.2185766645821913
  0.6029600716677980  0.7520148088611893  0.9759627227022102
  0.8364064427135358  0.9657578760738191  0.6426158969202742
  0.4649704977457990  0.1081692998155042  0.0884002257668532
  0.2084068930660483  0.3039866868360483  0.6949423013950355
  0.7839775782134014  0.4596662657655538  0.3992868176242785
  0.5830595245091514  0.8097594632594718  0.7851963718108858
  0.7643978778841906  0.4664895378914570  0.6817584722960203
  0.2033587440680910  0.7586599773956945  0.1112402437770319
  0.8073168206973842  0.3109513121488668  0.1438200020190964
  0.7579806532836755  0.0539363905365992  0.1694883941860179
  0.4636168650071289 -0.0021304952250559  0.9782774459701307
  0.7817418231759184  0.8090230055864778  0.9786903333094016
  0.0397611882171818  0.2663281938640220  0.9278093422516048
  0.3161549867584139  0.7236764367808962  0.2168204094883521
  0.4968103587370121  0.4316869776983031  0.3079273392712623
  0.9824904445832485  0.6236077104769364  0.1738842539294909
  0.1288749333539769  0.9480326598440038  0.1165339833367855
  0.0432301539253728  0.1433922390981769  0.5193944270912780
  0.9058396711473912  0.0766254963682344  0.8456190693735012
  0.0149855346513542  0.0170266238202153  0.6894869405815276
  0.2125810508730915  0.5022978956885865  0.0549392097802619
  0.8977292523757052  0.1475928211276333  0.5222016339148300
  0.1726364380059778  0.3069245079551111  0.5651089038515917
  0.0332992098727388  0.6517111681967387  0.8331395192429634
  0.6275380014822248  0.3398155538655561  0.0364925801761127
  0.4966355099961757  0.8148468474142038  0.2986459735859542
  0.8446358272680896  0.4381448099303207  0.8486553317096693
  0.6735294013662904  0.9270248565527700  0.5606739347557659
  0.4472068403403224  0.7576796777105623  0.7526127578499610
  0.7683596589494673  0.1798572756154570  0.1114316510195250
  0.2099027355963484  0.4056330081716676  0.7863609430888403
  0.3110140539866184  0.9141631624835819  0.6724434603402573
  0.4917251591263859  0.3152736586223820  0.9734334807233274
  0.1916545188907525  0.5149555851706924  0.5255015781250020
  0.2564105117946457  0.4680488684520962  0.2949380869556518
  0.9754874137475825  0.7690066247610468  0.3982797289855615
  0.1632644022033211  0.6353451048845020  0.1423502859252971
  0.0823010844670446  0.1222617532115551  0.7689804321093551
  0.1205449256897423  0.8534129846491291  0.7092446523317082
  0.4439059240865073  0.0678688017319186  0.8700098098093173
  0.5758434379188972  0.1991105317250401  0.6688215368016430
  0.0301854911300423  0.7854802263094427  0.2760962491463406
  0.7876291569723524  0.4242615675110595  0.0208610698128132
  0.7303873133707526  0.6898425649423964  0.7530940010749724
  0.0891453994735976  0.0079328437909086  0.4246937034389330
  0.4564726409866382  0.7586874638850274  0.4113631080113194
  0.3568947675349002  0.5526199274779467  0.5814391462551608
  0.2814274070369628  0.3678528258863203  0.9681900712357169
  0.4324425030510415  0.6314695967803953  0.0379011076733483
  0.0617327937342969  0.1805653600789343  0.3133561294034856
  0.6040847301254590  0.0757489421908754  0.2838670311787996
  0.9515207790793417  0.0085454959913580  0.1781962825103542
  0.5498961282986622  0.2006691299673947  0.4798985554787425
  0.0511885263275397  0.7114155466874134  0.0142634368903036
  0.9252404826468849  0.3020148041940998  0.7775848839519915
  0.8061675228374325  0.8248763847610633  0.4075865839310027
  0.9431663978683948  0.9402958246764497  0.3038527222210179
  0.5260323835731912  0.4329298778725169  0.5028954093551338
  0.9101146631059801  0.6610507304649476  0.9312404477214887
  0.2976094592995779  0.9274018000082704  0.0580191831050153
  0.6622149446985077  0.6830107804532771  0.5878630440410235
  0.2656268615287363  0.5129878767476826  0.4173643165042132
 -0.0060181572603445 -0.0074241647327894  0.0052944275165603
  0.7086072030419184  0.2931474795606525  0.5909312092045713
  0.1799654647305508  0.2359350118513992  0.8859036466269911
  0.5676291403671458  0.8505724921834811  0.5877833680388976
  0.1067493108996910  0.8657192872991930  0.4502161347396504
  0.9162184028725610  0.3913802415533117  0.2741226772427054
  0.4120495235240131  0.8822422419522102  0.7508887933116003
  0.0887592372003717  0.2920973563338362  0.3727296400969040
  0.5154759739175281  0.4027984772441688  0.0669743526960347
  0.4220147575183782  0.5879070059108347  0.6911035316195009
  0.9613236727732515  0.6429226735912396  0.5897775546174934
  0.1244414518126683  0.8600560769207626  0.8429085470231394
  0.8810210186349277  0.4326680009955470  0.1563467753337463
  0.0621024532184816  0.9055217851438996  0.2817566662607984
  0.4766275468276238  0.7502223556337869 -0.0011983145447937
  0.2862503642257745  0.7576165372135738  0.8816751511492383
  0.9808287871697088  0.0526971337426247  0.3561821433623025
  0.1882022380927858  0.1498963048480727  0.2888706894193374
  0.5914789143299795  0.7019729197374004  0.8595991413282698
  0.0602358243483229  0.2337800656228089  0.1914746740533153
  0.7022301697471437  0.1812859658801157  0.6589972010357444
  0.0910204272626051  0.4570000037121869  0.3523277422777860
  0.0526342745059058  0.4489300573276528 -0.0039096245933746
  0.0275892585804417  0.1495165014486290  0.8825594296055025
  0.0443904290087857  0.7341002475627955  0.1526063808686481
  0.7870551233893507  0.8120154920056568  0.2806385361106531
  0.1677900485918000  0.8934119160706813  0.5573457281493526
  0.0913265221033177  0.6884988969827407  0.7224659321282367
  0.9173434147243836  0.3074591501208324  0.9676828932916117
  0.8173897996529086  0.9724982953482327  0.8450848897215197
  0.0393587978154985  0.5213329701325873  0.8347452898606074
  0.8301115553943561  0.1783098434520977  0.4164091496199586
  0.6537245342807783  0.5662058442479913  0.3757060511967589
  0.7853859953192251  0.6909029678467798  0.9311200231013512
  0.6190449622641525  0.6086522841815160  0.7385631452672132
  0.4838526748136617  0.5602884712918207  0.9427883392414219
  0.1879343922887177  0.4240364576056709  0.6072313900024879
  0.2321159081268350  0.5967825466578773  0.6114622701663338
  0.5808750107068342  0.2677701682381341  0.7767471275939243
  0.6221692669462272  0.8946400236398384  0.3928744846708480
  0.8413655247132744  0.8107667992966469  0.7597735487704569
  0.0974237626159183  0.0710257976113959  0.1564585350247937
  0.7296952223880616  0.3471525459898849  0.7073503160634418
  0.0397009175564114  0.3279658709930708  0.8183016576201321
  0.7407506783543771  0.5006443176046875  0.8078840320643064
  0.2484846469531837  0.1404187512140966  0.9294356606312090
  0.6687095845968537  0.7848931682669635  0.6921032685737175
  0.8729292943106842  0.5209044307480371  0.3350259796708218
  0.2048435983998301  0.2215906104307447  0.0908564706762696
  0.1215348295397155  0.9804307855856392  0.9874870062206811
  0.0430038369323498  0.3110991039778179  0.5755642330461573
  0.8384116888139336  0.9684503858869510  0.1217150074054695
  0.6430861701874138  0.5158089465550345  0.6495502449264507
 -0.0119899214068837  0.9747787433929392  0.8164495090078562
  0.5315584114148600  0.2199102343731810  0.0549150397399163
  0.4388832832529914  0.7877712748640890  0.1928826338104911
  0.7310903010784053  0.5136684305373544  0.0919880737251222
  0.5119119978690603  0.3149394776529554  0.2163070756744582
  0.1666748169205461  0.1129543559435294  0.4738098977369494
  0.6867507972770053  0.0669236642329075  0.3858994227028465
  0.9300951566041697  0.4384024553595300  0.6013004393565570
  0.3032555751695278  0.4874627885064687  0.9534430912135721
  0.3442553176392632  0.0450222077462780  0.7934541015920166
  0.0366223125842223  0.0211436960116668  0.5389574584254689
  0.7797931211481488  0.6621788030218944  0.6352675125492137
  0.6728214833006888  0.0051268162456494  0.6607260753777734
  0.5164245228283760  0.5652398265851305  0.4990502159238635
  0.6512320420839550  0.4384740221940402  0.5354266213680804
  0.8714963157825785  0.7056774615735991  0.4306385224741437
  0.5663069069693709  0.2879737219045207  0.5816447518621731
  0.3464627042839342  0.9517234109612829  0.9396292956120150
  0.1901759115541618  0.1936249764346126  0.7631548170904895
  0.3442463212834804  0.7188465906153439  0.3481711477825455
  0.3164056744899422  0.7692017050374873  0.0625853143790576
  0.6851964375017550  0.3523644322510879  0.1552666311878979
  0.2872663103255215  0.1091869403771587  0.6228219844723866
  0.2822729411368732  0.3192858373522618  0.8529272923163305
  0.8758060946528090  0.1009041914878019  0.7232444369149581
  0.8486256988950788  0.1023874580662825  0.2514457387069105
  0.7065443542445079  0.2097065011519593  0.0031624281232002
  0.0328943547541324  0.4069478122797081  0.4966676161211114
  0.2938562327294450  0.3479788956490643  0.3168676392630685
  0.6755197334586864  0.6346822746731906  0.2072081976643457
  0.8082392120094463  0.0516947411297042  0.5427218945274429
  0.8163631814391770  0.3007659477170274  0.2733698016314781
  0.0205615508593853  0.3506106906767408  0.1929819592190944
  0.5468244494846011  0.0803234267694007  0.8019722075433442
  0.0260068913301474  0.6285649627407119  0.3202233828468191
  0.5594714014798808  0.4431738390304452  0.8164446183912617
  0.6913882110238818  0.7338062537216178  0.4752097338917701
  0.0423233600459926  0.1856293277077205  0.6538678492197809
  0.3632100399177056  0.6673470033728741  0.5150119150311230
  0.6911050503677889  0.9689202417304077  0.2301512744082598
  0.7975400494997965  0.5118302591362494  0.1962296363771782
  0.8599895566307184  0.5059812196285837  0.9530797952629524
  0.6095819389550147  0.7306904575956682  0.1688170479172179
 -0.0071732357108928  0.1001315846353200  0.0938237352475197
  0.2628526676190147  0.0516982311359790  0.0918504942435159
  0.3539748738322283  0.8380626088832159  0.5739309069189619
  0.1017291962090629  0.5069606420440428  0.1682350319093570
  0.7125637780547224  0.1388500339130719  0.8299327684604751
  0.0097340727076291  0.4861619983594241  0.7210961499939450
  0.7129012565855495  0.0174696136185680  0.9965455350667206
  0.9117252984142284  0.6639449478004632  0.0626320561531212
  0.6704316308800421  0.4442894422927051  0.9626036918359441
  0.4928021465628304  0.5706385911323907  0.1381845277822958
  0.0788731143052776  0.5605731914381362  0.4953734759401279
  0.3721176341871461  0.3050354730261016  0.0239270127612545
  0.3570896481778503  0.0644944836550246  0.2610597233962483
  0.5044500944222547  0.6358485354418373  0.3050023459013824
  0.0383441844643316  0.7684740402131318  0.5058680901269835
  0.3363413023025739  0.9516398947616668  0.4037578964465014
  0.2858970422362787  0.5892924669470472  0.1128136914422261
  0.5303096142982712  0.9102591694675544  0.9107234323595395
  0.1435986893202620  0.9817319531781816  0.7023429466121883
  0.3732437167958447  0.4954525003541328  0.2552816673299882
  0.3489416853171639  0.2914018774792781  0.5514857748186859
  0.4879915861038192  0.7517524203108528  0.6310008783288290
  0.3575676250717165  0.4448956741591144  0.4707371033628289
  0.4302289769995217  0.1865919199636246  0.9016212834793461
  0.9539613000429719  0.9094947311630096  0.6338600431856106
  0.6171499034875839  0.8030118932748370  0.2649064289867223
  0.8731307484800362  0.6736019796635139  0.2236543624293733
  0.9237553271985786  0.8823563021296483  0.4208825351725790
  0.4119032964577993  0.2195260473611945  0.7174813628753983
  0.7987647595376605  0.5361919223794022  0.4982614913458623
  0.6334258167575265  0.6505227669336389  0.0349133891574295
  0.7888200115923806  0.8737937642553459  0.5653825637018391
  0.9681876376039025  0.7786473088949584  0.9233122490075280
  0.4103216090041922  0.9626062354755215  0.1156869870591992
  0.5897370551122636  0.3871099232512430  0.3878769311559454
  0.8650714694541825  0.1400921247091673  0.0403678220407479
  0.6891930424678696  0.8473962293779803  0.8522392725607452
  0.8617140400491800  0.2471662267451797  0.5925822457502199
  0.2065441414411173  0.5935387080562120  0.8034242544615176
  0.2066840923255403  0.6526727182134738  0.2643363969406380
  0.4927460710064028  0.9403229563460888  0.5353141147692996
  0.7612268155894798  0.7869492445267510  0.1020736511652493
  0.1323906161252131  0.8139415727578219  0.0223693029516765
  0.2537534445170451  0.3996743048229562  0.1340388876685566
  0.3443623553235992  0.6808182986253317  0.7251082455902783
  0.9166315438266036  0.6520642438119216  0.7799453440401622
  0.6213684830115229  0.2078422326492990  0.3106488221457696
  0.2214044861580670  0.8362369579490576  0.2115693187735871
  0.8376526085206452  0.3590134026797249  0.4470611492983610
  0.4693922527661739  0.1197260786831466  0.5441682305971645
  0.4985800499451122  0.9382593545328241  0.2693877054014606
  0.2063629045534770  0.8057258586078069  0.4003582244979881
  0.3442429305232551  0.2216995445349995  0.1883748901758656
  0.0049900851556542  0.9131664843430006  0.1062436068310189
  0.4704196706932169  0.4561806571803276  0.6391939565241262
  0.1682724050003915  0.6308738516655255  0.9817525897306146
  0.5153908997182010  0.0748119075859561  0.3884993102016440
  0.2391720840672571  0.8015086236968779  0.6998866821025422
  0.5817888306996500  0.0640108479394183  0.1148265418112926
  0.3070836710533683  0.4767926282687950  0.7403776788248289
 
  0.00000000E+00  0.00000000E+00  0.00000000E+00
  0.00000000E+00  0.00000000E+00  0.00000000E+00
  0.00000000E+00  0.00000000E+00  0.00000000E+00
  0.00000000E+00  0.00000000E+00  0.00000000E+00
  0.00000000E+00  0.00000000E+00  0.00000000E+00
  0.00000000E+00  0.00000000E+00  0.00000000E+00
  0.00000000E+00  0.00000000E+00  0.00000000E+00
  0.00000000E+00  0.00000000E+00  0.00000000E+00
  0.00000000E+00  0.00000000E+00  0.00000000E+00
  0.00000000E+00  0.00000000E+00  0.00000000E+00
  0.00000000E+00  0.00000000E+00  0.00000000E+00
  0.00000000E+00  0.00000000E+00  0.00000000E+00
  0.00000000E+00  0.00000000E+00  0.00000000E+00
  0.00000000E+00  0.00000000E+00  0.00000000E+00
  0.00000000E+00  0.00000000E+00  0.00000000E+00
  0.00000000E+00  0.00000000E+00  0.00000000E+00
  0.00000000E+00  0.00000000E+00  0.00000000E+00
  0.00000000E+00  0.00000000E+00  0.00000000E+00
  0.00000000E+00  0.00000000E+00  0.00000000E+00
  0.00000000E+00  0.00000000E+00  0.00000000E+00
  0.00000000E+00  0.00000000E+00  0.00000000E+00
  0.00000000E+00  0.00000000E+00  0.00000000E+00
  0.00000000E+00  0.00000000E+00  0.00000000E+00
  0.00000000E+00  0.00000000E+00  0.00000000E+00
  0.00000000E+00  0.00000000E+00  0.00000000E+00
  0.00000000E+00  0.00000000E+00  0.00000000E+00
  0.00000000E+00  0.00000000E+00  0.00000000E+00
  0.00000000E+00  0.00000000E+00  0.00000000E+00
  0.00000000E+00  0.00000000E+00  0.00000000E+00
  0.00000000E+00  0.00000000E+00  0.00000000E+00
  0.00000000E+00  0.00000000E+00  0.00000000E+00
  0.00000000E+00  0.00000000E+00  0.00000000E+00
  0.00000000E+00  0.00000000E+00  0.00000000E+00
  0.00000000E+00  0.00000000E+00  0.00000000E+00
  0.00000000E+00  0.00000000E+00  0.00000000E+00
  0.00000000E+00  0.00000000E+00  0.00000000E+00
  0.00000000E+00  0.00000000E+00  0.00000000E+00
  0.00000000E+00  0.00000000E+00  0.00000000E+00
  0.00000000E+00  0.00000000E+00  0.00000000E+00
  0.00000000E+00  0.00000000E+00  0.00000000E+00
  0.00000000E+00  0.00000000E+00  0.00000000E+00
  0.00000000E+00  0.00000000E+00  0.00000000E+00
  0.00000000E+00  0.00000000E+00  0.00000000E+00
  0.00000000E+00  0.00000000E+00  0.00000000E+00
  0.00000000E+00  0.00000000E+00  0.00000000E+00
  0.00000000E+00  0.00000000E+00  0.00000000E+00
  0.00000000E+00  0.00000000E+00  0.00000000E+00
  0.00000000E+00  0.00000000E+00  0.00000000E+00
  0.00000000E+00  0.00000000E+00  0.00000000E+00
  0.00000000E+00  0.00000000E+00  0.00000000E+00
  0.00000000E+00  0.00000000E+00  0.00000000E+00
  0.00000000E+00  0.00000000E+00  0.00000000E+00
  0.00000000E+00  0.00000000E+00  0.00000000E+00
  0.00000000E+00  0.00000000E+00  0.00000000E+00
  0.00000000E+00  0.00000000E+00  0.00000000E+00
  0.00000000E+00  0.00000000E+00  0.00000000E+00
  0.00000000E+00  0.00000000E+00  0.00000000E+00
  0.00000000E+00  0.00000000E+00  0.00000000E+00
  0.00000000E+00  0.00000000E+00  0.00000000E+00
  0.00000000E+00  0.00000000E+00  0.00000000E+00
  0.00000000E+00  0.00000000E+00  0.00000000E+00
  0.00000000E+00  0.00000000E+00  0.00000000E+00
  0.00000000E+00  0.00000000E+00  0.00000000E+00
  0.00000000E+00  0.00000000E+00  0.00000000E+00
  0.00000000E+00  0.00000000E+00  0.00000000E+00
  0.00000000E+00  0.00000000E+00  0.00000000E+00
  0.00000000E+00  0.00000000E+00  0.00000000E+00
  0.00000000E+00  0.00000000E+00  0.00000000E+00
  0.00000000E+00  0.00000000E+00  0.00000000E+00
  0.00000000E+00  0.00000000E+00  0.00000000E+00
  0.00000000E+00  0.00000000E+00  0.00000000E+00
  0.00000000E+00  0.00000000E+00  0.00000000E+00
  0.00000000E+00  0.00000000E+00  0.00000000E+00
  0.00000000E+00  0.00000000E+00  0.00000000E+00
  0.00000000E+00  0.00000000E+00  0.00000000E+00
  0.00000000E+00  0.00000000E+00  0.00000000E+00
  0.00000000E+00  0.00000000E+00  0.00000000E+00
  0.00000000E+00  0.00000000E+00  0.00000000E+00
  0.00000000E+00  0.00000000E+00  0.00000000E+00
  0.00000000E+00  0.00000000E+00  0.00000000E+00
  0.00000000E+00  0.00000000E+00  0.00000000E+00
  0.00000000E+00  0.00000000E+00  0.00000000E+00
  0.00000000E+00  0.00000000E+00  0.00000000E+00
  0.00000000E+00  0.00000000E+00  0.00000000E+00
  0.00000000E+00  0.00000000E+00  0.00000000E+00
  0.00000000E+00  0.00000000E+00  0.00000000E+00
  0.00000000E+00  0.00000000E+00  0.00000000E+00
  0.00000000E+00  0.00000000E+00  0.00000000E+00
  0.00000000E+00  0.00000000E+00  0.00000000E+00
  0.00000000E+00  0.00000000E+00  0.00000000E+00
  0.00000000E+00  0.00000000E+00  0.00000000E+00
  0.00000000E+00  0.00000000E+00  0.00000000E+00
  0.00000000E+00  0.00000000E+00  0.00000000E+00
  0.00000000E+00  0.00000000E+00  0.00000000E+00
  0.00000000E+00  0.00000000E+00  0.00000000E+00
  0.00000000E+00  0.00000000E+00  0.00000000E+00
  0.00000000E+00  0.00000000E+00  0.00000000E+00
  0.00000000E+00  0.00000000E+00  0.00000000E+00
  0.00000000E+00  0.00000000E+00  0.00000000E+00
  0.00000000E+00  0.00000000E+00  0.00000000E+00
  0.00000000E+00  0.00000000E+00  0.00000000E+00
  0.00000000E+00  0.00000000E+00  0.00000000E+00
  0.00000000E+00  0.00000000E+00  0.00000000E+00
  0.00000000E+00  0.00000000E+00  0.00000000E+00
  0.00000000E+00  0.00000000E+00  0.00000000E+00
  0.00000000E+00  0.00000000E+00  0.00000000E+00
  0.00000000E+00  0.00000000E+00  0.00000000E+00
  0.00000000E+00  0.00000000E+00  0.00000000E+00
  0.00000000E+00  0.00000000E+00  0.00000000E+00
  0.00000000E+00  0.00000000E+00  0.00000000E+00
  0.00000000E+00  0.00000000E+00  0.00000000E+00
  0.00000000E+00  0.00000000E+00  0.00000000E+00
  0.00000000E+00  0.00000000E+00  0.00000000E+00
  0.00000000E+00  0.00000000E+00  0.00000000E+00
  0.00000000E+00  0.00000000E+00  0.00000000E+00
  0.00000000E+00  0.00000000E+00  0.00000000E+00
  0.00000000E+00  0.00000000E+00  0.00000000E+00
  0.00000000E+00  0.00000000E+00  0.00000000E+00
  0.00000000E+00  0.00000000E+00  0.00000000E+00
  0.00000000E+00  0.00000000E+00  0.00000000E+00
  0.00000000E+00  0.00000000E+00  0.00000000E+00
  0.00000000E+00  0.00000000E+00  0.00000000E+00
  0.00000000E+00  0.00000000E+00  0.00000000E+00
  0.00000000E+00  0.00000000E+00  0.00000000E+00
  0.00000000E+00  0.00000000E+00  0.00000000E+00
  0.00000000E+00  0.00000000E+00  0.00000000E+00
  0.00000000E+00  0.00000000E+00  0.00000000E+00
  0.00000000E+00  0.00000000E+00  0.00000000E+00
  0.00000000E+00  0.00000000E+00  0.00000000E+00
  0.00000000E+00  0.00000000E+00  0.00000000E+00
  0.00000000E+00  0.00000000E+00  0.00000000E+00
  0.00000000E+00  0.00000000E+00  0.00000000E+00
  0.00000000E+00  0.00000000E+00  0.00000000E+00
  0.00000000E+00  0.00000000E+00  0.00000000E+00
  0.00000000E+00  0.00000000E+00  0.00000000E+00
  0.00000000E+00  0.00000000E+00  0.00000000E+00
  0.00000000E+00  0.00000000E+00  0.00000000E+00
  0.00000000E+00  0.00000000E+00  0.00000000E+00
  0.00000000E+00  0.00000000E+00  0.00000000E+00
  0.00000000E+00  0.00000000E+00  0.00000000E+00
  0.00000000E+00  0.00000000E+00  0.00000000E+00
  0.00000000E+00  0.00000000E+00  0.00000000E+00
  0.00000000E+00  0.00000000E+00  0.00000000E+00
  0.00000000E+00  0.00000000E+00  0.00000000E+00
  0.00000000E+00  0.00000000E+00  0.00000000E+00
  0.00000000E+00  0.00000000E+00  0.00000000E+00
  0.00000000E+00  0.00000000E+00  0.00000000E+00
  0.00000000E+00  0.00000000E+00  0.00000000E+00
  0.00000000E+00  0.00000000E+00  0.00000000E+00
  0.00000000E+00  0.00000000E+00  0.00000000E+00
  0.00000000E+00  0.00000000E+00  0.00000000E+00
  0.00000000E+00  0.00000000E+00  0.00000000E+00
  0.00000000E+00  0.00000000E+00  0.00000000E+00
  0.00000000E+00  0.00000000E+00  0.00000000E+00
  0.00000000E+00  0.00000000E+00  0.00000000E+00
  0.00000000E+00  0.00000000E+00  0.00000000E+00
  0.00000000E+00  0.00000000E+00  0.00000000E+00
  0.00000000E+00  0.00000000E+00  0.00000000E+00
  0.00000000E+00  0.00000000E+00  0.00000000E+00
  0.00000000E+00  0.00000000E+00  0.00000000E+00
  0.00000000E+00  0.00000000E+00  0.00000000E+00
  0.00000000E+00  0.00000000E+00  0.00000000E+00
  0.00000000E+00  0.00000000E+00  0.00000000E+00
  0.00000000E+00  0.00000000E+00  0.00000000E+00
  0.00000000E+00  0.00000000E+00  0.00000000E+00
  0.00000000E+00  0.00000000E+00  0.00000000E+00
  0.00000000E+00  0.00000000E+00  0.00000000E+00
  0.00000000E+00  0.00000000E+00  0.00000000E+00
  0.00000000E+00  0.00000000E+00  0.00000000E+00
  0.00000000E+00  0.00000000E+00  0.00000000E+00
  0.00000000E+00  0.00000000E+00  0.00000000E+00
  0.00000000E+00  0.00000000E+00  0.00000000E+00
  0.00000000E+00  0.00000000E+00  0.00000000E+00
  0.00000000E+00  0.00000000E+00  0.00000000E+00
  0.00000000E+00  0.00000000E+00  0.00000000E+00
  0.00000000E+00  0.00000000E+00  0.00000000E+00
  0.00000000E+00  0.00000000E+00  0.00000000E+00
  0.00000000E+00  0.00000000E+00  0.00000000E+00
  0.00000000E+00  0.00000000E+00  0.00000000E+00
  0.00000000E+00  0.00000000E+00  0.00000000E+00
  0.00000000E+00  0.00000000E+00  0.00000000E+00
  0.00000000E+00  0.00000000E+00  0.00000000E+00
  0.00000000E+00  0.00000000E+00  0.00000000E+00
  0.00000000E+00  0.00000000E+00  0.00000000E+00
  0.00000000E+00  0.00000000E+00  0.00000000E+00
  0.00000000E+00  0.00000000E+00  0.00000000E+00
  0.00000000E+00  0.00000000E+00  0.00000000E+00
  0.00000000E+00  0.00000000E+00  0.00000000E+00
  0.00000000E+00  0.00000000E+00  0.00000000E+00
  0.00000000E+00  0.00000000E+00  0.00000000E+00
  0.00000000E+00  0.00000000E+00  0.00000000E+00
  0.00000000E+00  0.00000000E+00  0.00000000E+00
  0.00000000E+00  0.00000000E+00  0.00000000E+00
  0.00000000E+00  0.00000000E+00  0.00000000E+00
  0.00000000E+00  0.00000000E+00  0.00000000E+00
  0.00000000E+00  0.00000000E+00  0.00000000E+00
  0.00000000E+00  0.00000000E+00  0.00000000E+00
  0.00000000E+00  0.00000000E+00  0.00000000E+00
  0.00000000E+00  0.00000000E+00  0.00000000E+00
  0.00000000E+00  0.00000000E+00  0.00000000E+00
  0.00000000E+00  0.00000000E+00  0.00000000E+00
  0.00000000E+00  0.00000000E+00  0.00000000E+00
  0.00000000E+00  0.00000000E+00  0.00000000E+00
  0.00000000E+00  0.00000000E+00  0.00000000E+00
  0.00000000E+00  0.00000000E+00  0.00000000E+00
  0.00000000E+00  0.00000000E+00  0.00000000E+00
  0.00000000E+00  0.00000000E+00  0.00000000E+00
  0.00000000E+00  0.00000000E+00  0.00000000E+00
  0.00000000E+00  0.00000000E+00  0.00000000E+00
  0.00000000E+00  0.00000000E+00  0.00000000E+00
  0.00000000E+00  0.00000000E+00  0.00000000E+00
  0.00000000E+00  0.00000000E+00  0.00000000E+00
  0.00000000E+00  0.00000000E+00  0.00000000E+00
  0.00000000E+00  0.00000000E+00  0.00000000E+00
  0.00000000E+00  0.00000000E+00  0.00000000E+00
  0.00000000E+00  0.00000000E+00  0.00000000E+00
  0.00000000E+00  0.00000000E+00  0.00000000E+00
  0.00000000E+00  0.00000000E+00  0.00000000E+00
  0.00000000E+00  0.00000000E+00  0.00000000E+00
  0.00000000E+00  0.00000000E+00  0.00000000E+00
  0.00000000E+00  0.00000000E+00  0.00000000E+00
  0.00000000E+00  0.00000000E+00  0.00000000E+00
  0.00000000E+00  0.00000000E+00  0.00000000E+00
  0.00000000E+00  0.00000000E+00  0.00000000E+00
  0.00000000E+00  0.00000000E+00  0.00000000E+00
  0.00000000E+00  0.00000000E+00  0.00000000E+00
  0.00000000E+00  0.00000000E+00  0.00000000E+00
  0.00000000E+00  0.00000000E+00  0.00000000E+00
  0.00000000E+00  0.00000000E+00  0.00000000E+00
  0.00000000E+00  0.00000000E+00  0.00000000E+00
  0.00000000E+00  0.00000000E+00  0.00000000E+00
  0.00000000E+00  0.00000000E+00  0.00000000E+00