Amorphous Sb                            
   1.00000000000000     
    18.3278565917332017    0.0000000000000000    0.0000000000000000
     0.0000000000000000   18.3278565917332017    0.0000000000000000
     0.0000000000000000    0.0000000000000000   18.3278565917332017
   Si
   300
Direct
  0.8580671780416572  0.4087515295371250  0.8225075686296057
  0.0373153964814484  0.1570757992552625  0.8637044067210226
  0.5213061833559671  0.1997086194223286  0.9925812582518831
  0.7432396022367680  0.9097013989942233  0.8811352129073945
  0.5566259575778366 -0.0060595135046094  0.8770124374796772
  0.7568796541771817 -0.0052223349491904  0.6757869376309461
  0.6440993405468605  0.1256015035817513  0.7370736085691525
  0.6426222968435671  0.4822904574110761  0.0961232811468288
  0.5294894603818519  0.2554974383302050  0.6936672331233693
  0.0407083941111324  0.3796046556306126  0.2784326917908935
  0.6989285908304097  0.6891645095089436  0.3230486963787679
  0.2035710677633465  0.3680724194064742  0.7524943308203034
  0.3605872504018772  0.0004755438527601  0.6536756421752372
  0.2408930811507136  0.5338893068984741  0.4985971660788874
  0.6661004535293878  0.8198896075988023  0.6012307328262051
  0.0883475106650076  0.6310825038450124  0.7559238098031482
  0.1539092660521718  0.1502802057726063  0.7479454103496485
  0.6480411126323437  0.9262678038177911  0.5272092716709660
  0.2454926147323672  0.5087943438807413  0.8962632195478362
  0.1402010608311913  0.7406545688449062  0.4154867153896608
  0.9335112789659201  0.3711914626261356  0.4418620724807827
  0.8523233955353112  0.5326630335686965  0.4668047279584794
  0.7390669422084739  0.4595938550271321  0.7882586964274231
  0.3362349522698463  0.7437341596877753  0.6456760388615849
  0.5000586791840876  0.1244982755582009  0.0980108131192984
  0.5920501655035846  0.9235023544065927  0.1555309258403826
  0.2475290378616977  0.2115696310688460  0.9610513848061870
  0.8523724784940779  0.6702354686844781  0.4212049786285514
  0.3423042911584456  0.3513296939784548  0.8719264278503911
  0.3413550124549455  0.3743203371022525  0.4933263814938917
  0.9746499288652395  0.7892619864872156  0.5392891641434887
  0.4506721003565102  0.1576957552899808  0.8921651020467891
  0.5751163519927903  0.8863968696536366  0.0324093423388236
  0.2536234931411179  0.1009664999644799  0.4779830169230483
  0.9857479158766033  0.5791312506691310  0.9095860583410915
  0.8525763063481767  0.2023690247330956  0.9675948055563682
  0.6750552477607581  0.1884720969566396  0.5513889273189838
  0.1484329672139963  0.6223314889575120  0.1884745657310492
  0.7230170558850793  0.9112826807263787  0.1325530934044693
  0.9352057631068080  0.2351012068407630  0.8704124877590751
  0.0083500313971211  0.8536664661978420  0.3264921128491488
  0.7222450966164664  0.6475944893218482  0.9243376851490419
  0.2952906132843923  0.4472044230777533  0.7929965617797715
  0.9716565434126432  0.3499360211221799  0.1746343957729277
  0.5297975192112935  0.3627028633432178  0.3775896082449566
  0.5942841186691428  0.3648262056414336  0.0878489326963027
  0.4894587172958577  0.3213188164562972  0.0230592039671514
  0.4169781514494820  0.5960871954538579  0.9433287885392345
  0.7867925452003182  0.3575367337206452  0.1792349033356186
  0.3374880454290521  0.6165922780042974  0.4397685659990955
  0.3514701270134803  0.3958739634643790  0.3402106185529102
  0.9267535414758834  0.0090618425598813  0.2171339507794808
  0.8596234510907139  0.9818387755342435  0.0050943029935690
  0.3764315241271287  0.7135854311251896  0.9730456914344021
  0.0513259484111648  0.2519177516522458  0.0219271306217813
  0.7476618255315330  0.5854509468646982  0.3940732480893959
  0.0212355948269329  0.2997519622655316  0.3794733702652041
  0.6528699598593626  0.5884501007896874  0.5963531101611792
  0.3436035591692831  0.1997405663930645  0.7297673632103544
  0.2485218378268633  0.3604009302768584  0.6371334479058778
  0.8986867954954293  0.6738065791267620  0.3012748890854572
  0.2393861279773299  0.7809740919612554  0.4890821516565583
  0.0833005634497177  0.3637771434336632  0.8902606982180462
  0.2568283658043001  0.7063915896643105  0.8093740294431352
  0.4541292653721573  0.3953792437328351  0.9203053412340688
  0.0776157435379576  0.6398218545601981  0.4669710357610571
  0.0574264810110781  0.9105214820086167  0.0655017840914825
  0.9550682511046649  0.4918181104264349  0.4024186215771716
  0.9496828075403421  0.1247581877611778  0.4568556487246730
  0.6995591225172053  0.5230536369716315  0.8948682406469239
  0.7301592097861993  0.4602366363084762  0.0015894266284979
  0.4332606956001996  0.2947238497971941  0.3265803880678579
  0.3839063774249888  0.6789418713697719  0.3259025008778000
  0.3591877293716947  0.4871768631983557  0.9567761716134694
  0.6111079037495294  0.1217954788291230  0.2882535270051667
  0.2971311344823840  0.9048658098439057  0.0674845864805299
  0.2645433781239095  0.6649923731101666  0.0194383882310230
  0.8184888207748551  0.9298965183626359  0.3544404703627922
  0.7495083992800923  0.7512051831465680  0.5273330123469115
  0.7085176222542791  0.2092410385896940  0.2815346847173577
  0.6974570474290810  0.0275067515659149  0.2774367815890000
  0.2122241995851905  0.7736091943632190  0.6189017169388603
  0.8762199645171649  0.2628064348218997  0.1909177088803130
  0.3824422654927365  0.1616143352693697  0.1277294978340838
  0.9147509384547495  0.5027710708731437  0.7556827450640019
  0.8132525346695023  0.6853149524796025  0.8426805485349195
  0.0211769891814736  0.7616447994912898  0.9324407143549164
  0.4587491970965457  0.7357254992976101  0.0699156471273195
  0.8894352839998754  0.7369361483202014  0.9393054676485360
  0.6680158810333047  0.7532155830248159  0.4286918646354487
  0.6329670602311332  0.3895230795642717  0.8263831250753305
  0.3554008339101245  0.7263574870588444  0.5089250453790855
  0.1353057447219667  0.8694100253338647  0.6599141689195044
  0.9614562601251559  0.8795885586120432  0.8984832035588204
  0.5458010467390291  0.6586277302451280  0.5863367606684474
  0.7098945275283998  0.2952670356893391  0.3761340183936945
  0.6319447237369918  0.6882548795777899  0.1112137826528947
  0.3050012815087265  0.4603709990571414  0.5826142130775898
  0.5765035187347335  0.7599994988227409  0.0186504946659809
  0.7946057198234693  0.7218081029564491  0.2418992270041351
  0.4661470325179824  0.5550956425362162  0.5923154698608979
  0.4405934848665530  0.0296544240544765  0.9199580915567788
  0.0636630228991635  0.0768746887292994  0.6594958673492626
  0.8427700700974339  0.5665648810998152  0.5911646465860616
  0.4257234768089079  0.1083480552399771  0.6868756487134944
  0.4932954977348874  0.8591556460924045  0.6935762396223517
  0.0510936507718340  0.2079037791833613  0.6277252311744475
  0.9021828684207873  0.8948230255553427  0.2677940144409679
  0.1859046198153207  0.9171001082253400  0.7683902322463850
  0.2070793838002937  0.2516476212048047  0.8066492074579480
  0.7718652623284238  0.2350801626101791  0.4757689226398896
  0.4494651242251970  0.7592365084399774  0.4168640926006847
  0.5380520541245467  0.8330913730269019  0.2338797286601756
  0.0047441112311676  0.5027332999766070  0.2740211379216134
  0.3836146803423729  0.8202968781090143  0.7433936321256079
  0.0359643631743831  0.1633527279393525  0.3718740488841396
  0.1274021180593044  0.2363436372860555  0.9150867674730135
  0.2697647573449559  0.1372004170455736  0.0689204890319895
  0.6926166953228781  0.2040964281804231  0.1511792995757335
  0.7661944493716487  0.0463600138113072  0.3830904059378750
  0.9591761987910203  0.6104005107851914  0.6108120962249505
  0.2114790081574672  0.6332344276552837  0.9058141568626004
  0.6524490026621300  0.9578530062305678  0.9606780154637753
  0.4689594544103178  0.9844569632777123  0.3818869765855032
  0.5690699796074967  0.7589261076645939  0.6648428768023547
  0.8108307572523007  0.0648258660692416  0.2244135592277634
  0.5669177309463065  0.5824912143422992  0.0736178709890195
  0.7004174353281428  0.9046362757843506  0.3166733767440300
  0.5578868983619172  0.4774855251091407  0.8847599827864080
  0.5767177588697006  0.5473052313107660  0.2781662469938706
  0.3351894133409747  0.7773114226766392  0.2399318019607655
  0.5698871655253840  0.1900689426921108  0.1859332492684772
  0.8397738837764738  0.8640464803525647  0.9529624911297996
  0.8331036123842288  0.1781225228041184  0.2813794114920886
  0.4106049952002531  0.9363963675538003  0.1226846838259172
  0.6273684912619144  0.8721036085851094  0.4139286948450356
  0.0430595293618888  0.5088209685833680  0.7352588165383456
  0.1875395429590224  0.3084168318147463  0.1575617456255617
  0.0873568178739594  0.1023791764311386  0.1633703305827144
  0.5732546157411901  0.9302901042571056  0.7669144506113637
  0.1291782589907015  0.2478305592266180  0.5332248154477893
  0.4256559158498047  0.1683424910981760  0.3494863580183694
  0.5685953876355472  0.3229615294778106  0.2030886548841417
  0.8829573622771765  0.1824313925525902  0.0889676462495671
  0.3344868110412593  0.2212936365373844  0.8595388146567919
  0.6470052661042682  0.4007011611154252  0.6148089904613830
  0.1387275343569792  0.9844204851098719  0.5901518144196117
  0.5627981443252293  0.1274178023652636  0.5180214791770669
  0.0300716543656041  0.0707097852823371  0.2741847988851860
  0.2282550748162465  0.3716920357539379  0.3584257411425301
  0.6267899380077936  0.7295998974984166  0.7808610678412957
  0.0105909523020515  0.3170039686501895  0.6881998012464895
  0.5303576040581611  0.1022418446128427  0.3913475630222628
  0.0108298626905857  0.7355298252327934  0.2723254232196052
  0.6108691017371882  0.3047570579229273  0.4611910820520683
  0.7328197580130398  0.3929720347815018  0.2951204275570362
  0.3964380700057858  0.2903067780708082  0.1124039727860300
  0.0062412222817464  0.1401647902400952  0.0707074860657153
  0.4469398947057252  0.3483871927995379  0.2123967578595321
  0.8766878052526823  0.1222803633046520  0.6273245668850137
  0.9961603511132467  0.3928793949460032  0.5764304756155305
  0.9639495249612559  0.0011616007657584  0.4920783865724366
  0.6358205965064003  0.1927306351087688  0.9367049215140283
  0.1892755469794467  0.9230799297891673  0.2341699353642139
  0.9448068016047185  0.2051768527672668  0.5556302264309175
  0.5632746961365106  0.0096834971479139  0.5735705503448929
  0.7581434157107020  0.6565509256048884  0.6142488810594422
  0.1119615243475397  0.4663688715915143  0.0786326130335415
  0.6491117973371830  0.2758340665886227  0.6481775732556120
  0.7590351291222638  0.0934929227958252  0.5915002697502855
  0.2899195715944052  0.3549711509304376  0.0933405239023006
  0.4517987771230568  0.6159485022316868  0.1211483310055032
  0.1777123632875043  0.7206419063599088  0.1013039482135335
  0.8897296867634344  0.5527082171216028  0.2328721921366847
  0.2741268113683873  0.0061822698599401  0.4000753667648687
  0.8237879008800897  0.4695879397656324  0.6694146487401689
  0.1541642762487193  0.0347166542461912  0.8100337854656947
  0.3785134728221221  0.2568634639086413  0.5395492689524624
  0.0857163229276691  0.6573063854782188  0.8839952778769635
  0.5389335427854067  0.4921453296143979  0.7559094111706827
  0.0294625366190255  0.0535284100783239  0.7861043621679864
  0.0833377287992615  0.3578654453207926  0.4828849997673552
  0.2163367113923364  0.0014084699930132  0.9181755540697891
  0.0584406941765870  0.9498331535185197  0.9445388687062876
  0.3659818487371703  0.3132880863106685  0.6677892949230562
  0.5116262924350093  0.1512780633963657  0.7730084615937519
  0.0446899709357194  0.5547007567948609  0.1499215235097753
  0.8026876504851829 -0.0069951028282300  0.7973802108789421
  0.1483157796462194  0.1689159606758866  0.4367214022500991
  0.1624470336802529  0.4532480114488751  0.4324496677306748
  0.4324305185001031  0.8178169537921237  0.1663833741827414
  0.1906583158679696  0.1802184887206064  0.1634732113473828
  0.2483943100199192  0.2509748316053910  0.5754490237913131
  0.0212646428250766  0.0743021575073439  0.9597976861272657
  0.2402208388536870  0.8200815929565929  0.1566845167886726
  0.4469604474914994  0.5539515452119970  0.4645753835152375
  0.2438177764017941  0.1576445501838759  0.2763125783382785
  0.7878488626571516  0.8152789958528764  0.0649468804197892
  0.1409807007408318  0.5833656585510120  0.5641392623808037
  0.2302843045901598  0.0148021338120774  0.0460929854460226
  0.9386722330817453  0.6229676293197914  0.1278351508561412
  0.2348169333851716  0.2420067917078515  0.3751787547592673
  0.8872093761860452  0.8370893496530865  0.1493552903879430
  0.5121640732796409  0.3483803911209135  0.7888857118407843
  0.5439506435641965  0.5887945225314057  0.9471601271319259
  0.0842701107420254  0.9578558125918514  0.4643636965961624
  0.1132440743746036  0.6637402614707942  0.3092090533292056
  0.6292422225194279  0.0093430270407581  0.6840135029742227
  0.7509230646924990  0.0017037831265799  0.5023897223405817
  0.2439432246833559  0.1564285903083946  0.6605348068805517
  0.4170292588434793  0.9053033575641035  0.4723865396275837
  0.9823213646721876  0.6877917217006083  0.7128382172178956
  0.3028184506053676  0.8848334131727221  0.3042794291562169
  0.3659127991710605  0.5189951615907537  0.6816023978237126
  0.3357230919162917  0.1914232517897166  0.4382527636670999
  0.0417125718206437  0.5115722902357823  0.6069896784357490
  0.2581223525155192  0.3434876565594882  0.9721988797564259
  0.3452117414160113  0.5695524811098701  0.0629852375774883
  0.9034625454388550  0.6048502395152647  0.0069536440660586
  0.9780074553875204  0.7433050249425596  0.1470633633547598
  0.3483086477331767  0.8754597229798705  0.9470552361890631
  0.8516976539331151  0.4893604891684548  0.0308972832439462
  0.7780165195167102  0.5127358621326913  0.2929241460846776
  0.6036754349841759  0.6943531030147203  0.9060099306976883
  0.4851508648717878  0.3426682446240769  0.5100564737662003
  0.7471077578348616  0.7061211340563113  0.7347861968574515
  0.9789966162194482  0.3236529015152079  0.9478644256340047
  0.9146545971693486  0.6194905822461494  0.8073719060654029
  0.3940734192330784  0.4656152083303927  0.2372205684924413
  0.1635423340040979  0.4338242851213412  0.9608456769757439
  0.0789501292246666  0.3442327058322172  0.1022750876977876
  0.1629116691954765  0.8838553342128187  0.8945874579080193
  0.0795670860329728  0.5436978652698927  0.3773125049093977
  0.6041931672610851  0.4157849790442041  0.2861087059574567
  0.8373244595565936  0.1503351368319470  0.4047311948090835
  0.2546569361901679  0.0468710856754272  0.5942728728955875
  0.7412887893120482  0.0304855624882862  0.0224552563064844
  0.4527368216437276  0.5846815534762192  0.2477792649690684
  0.1369581762536182  0.9870645722707823  0.1310533311431615
  0.8347673379740151  0.1963589086211689  0.7250758522312548
  0.3671837085962601 -0.0014323263583152  0.3069450849482290
  0.8814878603786271  0.4439617327562507  0.1502599266927671
  0.3028168353789260  0.6351114090799408  0.7106008551315889
  0.5565794666638115  0.6974554957667195  0.4611965115066295
  0.2062528016980204  0.0358988442893534  0.2992805406449919
  0.3108228319532320  0.4724630520620561  0.1405867551589493
  0.6151268365264024  0.7326953860805361  0.2311567172780086
  0.6913965814750188  0.2848876131355954  0.8703877783463153
  0.3634050828330397  0.1160314973471437  0.2500068612570712
  0.6110163605056815  0.1032733037544052  0.8521807663386657
  0.0659266118569510  0.7790525183459290  0.0577247979680214
  0.9388211340268451  0.9476789371261615  0.1023846686586311
  0.0510342592817583  0.8342546033408214  0.4464333074005445
  0.8760373972466438  0.3941824895804441  0.9500418980329604
  0.3143805559061087  0.9290403321803637  0.7534987791793235
  0.8093280981011771  0.4073634960592105  0.4650182456823668
  0.8524935067706580  0.8273423493713402  0.5394497371435838
  0.3342341357573254  0.9774810197450156  0.8716427088598151
  0.6583010359492300  0.5360106932102606  0.4763599859481791
  0.7419772008488711  0.8277246155503399  0.7024246799771183
  0.3515430417407610  0.7752703038912565  0.8634458626572002
  0.5135145517657664  0.8657794231475998  0.3580090802245955
  0.4354854544150429  0.4360143542997405  0.4279478398475934
  0.8554357039656483  0.9329414675666893  0.4733543965416898
  0.9559714370373741  0.0189348905607356  0.6190420782231927
  0.4470115252701314  0.4141404474305014  0.6949938486139038
  0.7752392967947007  0.1133244371659766  0.1142233123846010
  0.5006713199617574  0.0185978822550983  0.1766424062961334
  0.1928249945643389  0.4985427782109880  0.1766371710012789
  0.7152534083693256  0.2323602402914180  0.7488547594761936
  0.7127895636838939  0.8193607272311541  0.2228181392888876
  0.7500902706921325  0.6467926165964841  0.1454147637144777
  0.0818017703873920  0.3919135663381172  0.7665248085032321
  0.5230969514402222  0.4354753338233486  0.5926435816794812
  0.5604308992024916  0.5808417421979638  0.4060595045077005
  0.6667005183237754  0.8503632397259344  0.7991912109538614
  0.8970158714860264  0.0812054232725103  0.9338907354834750
  0.9582261476074734  0.6703337491393425  0.4992166949581945
  0.9035128302449694  0.2984094358706221  0.7625770755183254
  0.6895395088913718  0.5446003723636518  0.2021864862679825
  0.7493281489981526  0.1319060235290386  0.9400673716210539
  0.0167926338263740  0.8092810231780430  0.6604946765907170
  0.4577844726947354  0.9365252321577163  0.5939773461724663
  0.2936897733909078  0.8857444097460917  0.4348879934027742
  0.7100377075449354  0.3107301904565901  0.0840657976557329
  0.1808621494005279  0.6539798529279280  0.6663063627549191
  0.0915758711163959  0.9628864878519715  0.3254605858057738
  0.7908818807006519  0.6828979946225349  0.0283546988677427
  0.9460510823351439  0.9118424247440952  0.6889373074804004
  0.6550032003476739  0.4993698674485334  0.6937386432767013
  0.8300456488071867  0.8928316145215122  0.6456953664482870
  0.8345039400935772  0.2644086007433797  0.5869070922271811
  0.6809846907449715  0.4104059561606626  0.4924086090664065
  0.8202603288493943  0.1123357876664251  0.8332392807814799
  0.4731128517130669  0.1872413657386041  0.5944049744333388
  0.4553918978772897  0.9277867893131744  0.0036475530951675
  0.7645016481522683  0.3327654648054414  0.9697448284184714
  0.8645241081750369  0.3887285530319120  0.5799828201294530
  0.1659698069441699  0.3930361250576341  0.2503837203603599
  0.9319731377834739  0.9630099452314096  0.8033993381581207
 
  0.00000000E+00  0.00000000E+00  0.00000000E+00
  0.00000000E+00  0.00000000E+00  0.00000000E+00
  0.00000000E+00  0.00000000E+00  0.00000000E+00
  0.00000000E+00  0.00000000E+00  0.00000000E+00
  0.00000000E+00  0.00000000E+00  0.00000000E+00
  0.00000000E+00  0.00000000E+00  0.00000000E+00
  0.00000000E+00  0.00000000E+00  0.00000000E+00
  0.00000000E+00  0.00000000E+00  0.00000000E+00
  0.00000000E+00  0.00000000E+00  0.00000000E+00
  0.00000000E+00  0.00000000E+00  0.00000000E+00
  0.00000000E+00  0.00000000E+00  0.00000000E+00
  0.00000000E+00  0.00000000E+00  0.00000000E+00
  0.00000000E+00  0.00000000E+00  0.00000000E+00
  0.00000000E+00  0.00000000E+00  0.00000000E+00
  0.00000000E+00  0.00000000E+00  0.00000000E+00
  0.00000000E+00  0.00000000E+00  0.00000000E+00
  0.00000000E+00  0.00000000E+00  0.00000000E+00
  0.00000000E+00  0.00000000E+00  0.00000000E+00
  0.00000000E+00  0.00000000E+00  0.00000000E+00
  0.00000000E+00  0.00000000E+00  0.00000000E+00
  0.00000000E+00  0.00000000E+00  0.00000000E+00
  0.00000000E+00  0.00000000E+00  0.00000000E+00
  0.00000000E+00  0.00000000E+00  0.00000000E+00
  0.00000000E+00  0.00000000E+00  0.00000000E+00
  0.00000000E+00  0.00000000E+00  0.00000000E+00
  0.00000000E+00  0.00000000E+00  0.00000000E+00
  0.00000000E+00  0.00000000E+00  0.00000000E+00
  0.00000000E+00  0.00000000E+00  0.00000000E+00
  0.00000000E+00  0.00000000E+00  0.00000000E+00
  0.00000000E+00  0.00000000E+00  0.00000000E+00
  0.00000000E+00  0.00000000E+00  0.00000000E+00
  0.00000000E+00  0.00000000E+00  0.00000000E+00
  0.00000000E+00  0.00000000E+00  0.00000000E+00
  0.00000000E+00  0.00000000E+00  0.00000000E+00
  0.00000000E+00  0.00000000E+00  0.00000000E+00
  0.00000000E+00  0.00000000E+00  0.00000000E+00
  0.00000000E+00  0.00000000E+00  0.00000000E+00
  0.00000000E+00  0.00000000E+00  0.00000000E+00
  0.00000000E+00  0.00000000E+00  0.00000000E+00
  0.00000000E+00  0.00000000E+00  0.00000000E+00
  0.00000000E+00  0.00000000E+00  0.00000000E+00
  0.00000000E+00  0.00000000E+00  0.00000000E+00
  0.00000000E+00  0.00000000E+00  0.00000000E+00
  0.00000000E+00  0.00000000E+00  0.00000000E+00
  0.00000000E+00  0.00000000E+00  0.00000000E+00
  0.00000000E+00  0.00000000E+00  0.00000000E+00
  0.00000000E+00  0.00000000E+00  0.00000000E+00
  0.00000000E+00  0.00000000E+00  0.00000000E+00
  0.00000000E+00  0.00000000E+00  0.00000000E+00
  0.00000000E+00  0.00000000E+00  0.00000000E+00
  0.00000000E+00  0.00000000E+00  0.00000000E+00
  0.00000000E+00  0.00000000E+00  0.00000000E+00
  0.00000000E+00  0.00000000E+00  0.00000000E+00
  0.00000000E+00  0.00000000E+00  0.00000000E+00
  0.00000000E+00  0.00000000E+00  0.00000000E+00
  0.00000000E+00  0.00000000E+00  0.00000000E+00
  0.00000000E+00  0.00000000E+00  0.00000000E+00
  0.00000000E+00  0.00000000E+00  0.00000000E+00
  0.00000000E+00  0.00000000E+00  0.00000000E+00
  0.00000000E+00  0.00000000E+00  0.00000000E+00
  0.00000000E+00  0.00000000E+00  0.00000000E+00
  0.00000000E+00  0.00000000E+00  0.00000000E+00
  0.00000000E+00  0.00000000E+00  0.00000000E+00
  0.00000000E+00  0.00000000E+00  0.00000000E+00
  0.00000000E+00  0.00000000E+00  0.00000000E+00
  0.00000000E+00  0.00000000E+00  0.00000000E+00
  0.00000000E+00  0.00000000E+00  0.00000000E+00
  0.00000000E+00  0.00000000E+00  0.00000000E+00
  0.00000000E+00  0.00000000E+00  0.00000000E+00
  0.00000000E+00  0.00000000E+00  0.00000000E+00
  0.00000000E+00  0.00000000E+00  0.00000000E+00
  0.00000000E+00  0.00000000E+00  0.00000000E+00
  0.00000000E+00  0.00000000E+00  0.00000000E+00
  0.00000000E+00  0.00000000E+00  0.00000000E+00
  0.00000000E+00  0.00000000E+00  0.00000000E+00
  0.00000000E+00  0.00000000E+00  0.00000000E+00
  0.00000000E+00  0.00000000E+00  0.00000000E+00
  0.00000000E+00  0.00000000E+00  0.00000000E+00
  0.00000000E+00  0.00000000E+00  0.00000000E+00
  0.00000000E+00  0.00000000E+00  0.00000000E+00
  0.00000000E+00  0.00000000E+00  0.00000000E+00
  0.00000000E+00  0.00000000E+00  0.00000000E+00
  0.00000000E+00  0.00000000E+00  0.00000000E+00
  0.00000000E+00  0.00000000E+00  0.00000000E+00
  0.00000000E+00  0.00000000E+00  0.00000000E+00
  0.00000000E+00  0.00000000E+00  0.00000000E+00
  0.00000000E+00  0.00000000E+00  0.00000000E+00
  0.00000000E+00  0.00000000E+00  0.00000000E+00
  0.00000000E+00  0.00000000E+00  0.00000000E+00
  0.00000000E+00  0.00000000E+00  0.00000000E+00
  0.00000000E+00  0.00000000E+00  0.00000000E+00
  0.00000000E+00  0.00000000E+00  0.00000000E+00
  0.00000000E+00  0.00000000E+00  0.00000000E+00
  0.00000000E+00  0.00000000E+00  0.00000000E+00
  0.00000000E+00  0.00000000E+00  0.00000000E+00
  0.00000000E+00  0.00000000E+00  0.00000000E+00
  0.00000000E+00  0.00000000E+00  0.00000000E+00
  0.00000000E+00  0.00000000E+00  0.00000000E+00
  0.00000000E+00  0.00000000E+00  0.00000000E+00
  0.00000000E+00  0.00000000E+00  0.00000000E+00
  0.00000000E+00  0.00000000E+00  0.00000000E+00
  0.00000000E+00  0.00000000E+00  0.00000000E+00
  0.00000000E+00  0.00000000E+00  0.00000000E+00
  0.00000000E+00  0.00000000E+00  0.00000000E+00
  0.00000000E+00  0.00000000E+00  0.00000000E+00
  0.00000000E+00  0.00000000E+00  0.00000000E+00
  0.00000000E+00  0.00000000E+00  0.00000000E+00
  0.00000000E+00  0.00000000E+00  0.00000000E+00
  0.00000000E+00  0.00000000E+00  0.00000000E+00
  0.00000000E+00  0.00000000E+00  0.00000000E+00
  0.00000000E+00  0.00000000E+00  0.00000000E+00
  0.00000000E+00  0.00000000E+00  0.00000000E+00
  0.00000000E+00  0.00000000E+00  0.00000000E+00
  0.00000000E+00  0.00000000E+00  0.00000000E+00
  0.00000000E+00  0.00000000E+00  0.00000000E+00
  0.00000000E+00  0.00000000E+00  0.00000000E+00
  0.00000000E+00  0.00000000E+00  0.00000000E+00
  0.00000000E+00  0.00000000E+00  0.00000000E+00
  0.00000000E+00  0.00000000E+00  0.00000000E+00
  0.00000000E+00  0.00000000E+00  0.00000000E+00
  0.00000000E+00  0.00000000E+00  0.00000000E+00
  0.00000000E+00  0.00000000E+00  0.00000000E+00
  0.00000000E+00  0.00000000E+00  0.00000000E+00
  0.00000000E+00  0.00000000E+00  0.00000000E+00
  0.00000000E+00  0.00000000E+00  0.00000000E+00
  0.00000000E+00  0.00000000E+00  0.00000000E+00
  0.00000000E+00  0.00000000E+00  0.00000000E+00
  0.00000000E+00  0.00000000E+00  0.00000000E+00
  0.00000000E+00  0.00000000E+00  0.00000000E+00
  0.00000000E+00  0.00000000E+00  0.00000000E+00
  0.00000000E+00  0.00000000E+00  0.00000000E+00
  0.00000000E+00  0.00000000E+00  0.00000000E+00
  0.00000000E+00  0.00000000E+00  0.00000000E+00
  0.00000000E+00  0.00000000E+00  0.00000000E+00
  0.00000000E+00  0.00000000E+00  0.00000000E+00
  0.00000000E+00  0.00000000E+00  0.00000000E+00
  0.00000000E+00  0.00000000E+00  0.00000000E+00
  0.00000000E+00  0.00000000E+00  0.00000000E+00
  0.00000000E+00  0.00000000E+00  0.00000000E+00
  0.00000000E+00  0.00000000E+00  0.00000000E+00
  0.00000000E+00  0.00000000E+00  0.00000000E+00
  0.00000000E+00  0.00000000E+00  0.00000000E+00
  0.00000000E+00  0.00000000E+00  0.00000000E+00
  0.00000000E+00  0.00000000E+00  0.00000000E+00
  0.00000000E+00  0.00000000E+00  0.00000000E+00
  0.00000000E+00  0.00000000E+00  0.00000000E+00
  0.00000000E+00  0.00000000E+00  0.00000000E+00
  0.00000000E+00  0.00000000E+00  0.00000000E+00
  0.00000000E+00  0.00000000E+00  0.00000000E+00
  0.00000000E+00  0.00000000E+00  0.00000000E+00
  0.00000000E+00  0.00000000E+00  0.00000000E+00
  0.00000000E+00  0.00000000E+00  0.00000000E+00
  0.00000000E+00  0.00000000E+00  0.00000000E+00
  0.00000000E+00  0.00000000E+00  0.00000000E+00
  0.00000000E+00  0.00000000E+00  0.00000000E+00
  0.00000000E+00  0.00000000E+00  0.00000000E+00
  0.00000000E+00  0.00000000E+00  0.00000000E+00
  0.00000000E+00  0.00000000E+00  0.00000000E+00
  0.00000000E+00  0.00000000E+00  0.00000000E+00
  0.00000000E+00  0.00000000E+00  0.00000000E+00
  0.00000000E+00  0.00000000E+00  0.00000000E+00
  0.00000000E+00  0.00000000E+00  0.00000000E+00
  0.00000000E+00  0.00000000E+00  0.00000000E+00
  0.00000000E+00  0.00000000E+00  0.00000000E+00
  0.00000000E+00  0.00000000E+00  0.00000000E+00
  0.00000000E+00  0.00000000E+00  0.00000000E+00
  0.00000000E+00  0.00000000E+00  0.00000000E+00
  0.00000000E+00  0.00000000E+00  0.00000000E+00
  0.00000000E+00  0.00000000E+00  0.00000000E+00
  0.00000000E+00  0.00000000E+00  0.00000000E+00
  0.00000000E+00  0.00000000E+00  0.00000000E+00
  0.00000000E+00  0.00000000E+00  0.00000000E+00
  0.00000000E+00  0.00000000E+00  0.00000000E+00
  0.00000000E+00  0.00000000E+00  0.00000000E+00
  0.00000000E+00  0.00000000E+00  0.00000000E+00
  0.00000000E+00  0.00000000E+00  0.00000000E+00
  0.00000000E+00  0.00000000E+00  0.00000000E+00
  0.00000000E+00  0.00000000E+00  0.00000000E+00
  0.00000000E+00  0.00000000E+00  0.00000000E+00
  0.00000000E+00  0.00000000E+00  0.00000000E+00
  0.00000000E+00  0.00000000E+00  0.00000000E+00
  0.00000000E+00  0.00000000E+00  0.00000000E+00
  0.00000000E+00  0.00000000E+00  0.00000000E+00
  0.00000000E+00  0.00000000E+00  0.00000000E+00
  0.00000000E+00  0.00000000E+00  0.00000000E+00
  0.00000000E+00  0.00000000E+00  0.00000000E+00
  0.00000000E+00  0.00000000E+00  0.00000000E+00
  0.00000000E+00  0.00000000E+00  0.00000000E+00
  0.00000000E+00  0.00000000E+00  0.00000000E+00
  0.00000000E+00  0.00000000E+00  0.00000000E+00
  0.00000000E+00  0.00000000E+00  0.00000000E+00
  0.00000000E+00  0.00000000E+00  0.00000000E+00
  0.00000000E+00  0.00000000E+00  0.00000000E+00
  0.00000000E+00  0.00000000E+00  0.00000000E+00
  0.00000000E+00  0.00000000E+00  0.00000000E+00
  0.00000000E+00  0.00000000E+00  0.00000000E+00
  0.00000000E+00  0.00000000E+00  0.00000000E+00
  0.00000000E+00  0.00000000E+00  0.00000000E+00
  0.00000000E+00  0.00000000E+00  0.00000000E+00
  0.00000000E+00  0.00000000E+00  0.00000000E+00
  0.00000000E+00  0.00000000E+00  0.00000000E+00
  0.00000000E+00  0.00000000E+00  0.00000000E+00
  0.00000000E+00  0.00000000E+00  0.00000000E+00
  0.00000000E+00  0.00000000E+00  0.00000000E+00
  0.00000000E+00  0.00000000E+00  0.00000000E+00
  0.00000000E+00  0.00000000E+00  0.00000000E+00
  0.00000000E+00  0.00000000E+00  0.00000000E+00
  0.00000000E+00  0.00000000E+00  0.00000000E+00
  0.00000000E+00  0.00000000E+00  0.00000000E+00
  0.00000000E+00  0.00000000E+00  0.00000000E+00
  0.00000000E+00  0.00000000E+00  0.00000000E+00
  0.00000000E+00  0.00000000E+00  0.00000000E+00
  0.00000000E+00  0.00000000E+00  0.00000000E+00
  0.00000000E+00  0.00000000E+00  0.00000000E+00
  0.00000000E+00  0.00000000E+00  0.00000000E+00
  0.00000000E+00  0.00000000E+00  0.00000000E+00
  0.00000000E+00  0.00000000E+00  0.00000000E+00
  0.00000000E+00  0.00000000E+00  0.00000000E+00
  0.00000000E+00  0.00000000E+00  0.00000000E+00
  0.00000000E+00  0.00000000E+00  0.00000000E+00
  0.00000000E+00  0.00000000E+00  0.00000000E+00
  0.00000000E+00  0.00000000E+00  0.00000000E+00
  0.00000000E+00  0.00000000E+00  0.00000000E+00
  0.00000000E+00  0.00000000E+00  0.00000000E+00
  0.00000000E+00  0.00000000E+00  0.00000000E+00
  0.00000000E+00  0.00000000E+00  0.00000000E+00
  0.00000000E+00  0.00000000E+00  0.00000000E+00
  0.00000000E+00  0.00000000E+00  0.00000000E+00
  0.00000000E+00  0.00000000E+00  0.00000000E+00
  0.00000000E+00  0.00000000E+00  0.00000000E+00
  0.00000000E+00  0.00000000E+00  0.00000000E+00
  0.00000000E+00  0.00000000E+00  0.00000000E+00