Amorphous GeAsSeSi                      
   1.00000000000000     
    19.1136188657994737    0.0000000000000000    0.0000000000000000
     0.0000000000000000   19.1136188657994737    0.0000000000000000
     0.0000000000000000    0.0000000000000000   19.1136188657994737
   Ge   P    Se
   108    24   108
Direct
  0.8201488160094426  0.9857537640405351  0.9168081936576808
  0.1470789582153323  0.9295968040867406  0.5578435146963138
  0.3736763475609543  0.8146387937145371  0.2631088397543707
  0.0036622291334916  0.5935937500295311  0.0429084322854002
  0.0072446382120209  0.0302721344674712  0.3442497196622534
  0.7883649600848616  0.8741254075228713  0.8131748195048782
  0.8964595803104533  0.1871339456714205  0.0527660962004411
  0.9260298908623864  0.1392975042580570  0.3601983282552723
  0.7603180677539775  0.3809405186547285  0.7113093043361326
  0.5382778485125810  0.6946283611456063  0.0135114540246676
  0.5661104970724600  0.8498425463387614  0.1575353687732919
  0.6756129250682185  0.9482485109236716  0.3121904508022240
  0.3122733805554086  0.2194987848096799  0.8958090013695597
  0.9187036286513254  0.6754854485707623  0.2356633971559808
  0.1273720009744038  0.3197368624434027  0.7468653925198613
  0.5254849577000608  0.1152496957653827  0.9697243228392926
  0.2693968741353527  0.6818611141216114  0.7474322537031904
  0.8765342208943051  0.6455390084756344  0.5096244981011689
  0.0545308655115726  0.1852791741651399  0.1994710691885271
  0.4607417651224500  0.7757603221043184  0.7840279512232935
  0.3858152799374438  0.1734384498443881  0.1863630054806396
  0.8080271005046318  0.7449801628752308  0.4305886944925424
  0.9955877588805017  0.4719217743217249  0.2305560431166288
  0.2828876410390042  0.5927916089598740  0.3027191585598533
  0.1505955522465433  0.5473683860576363  0.1348557768485272
  0.3611849220025237  0.0833945803280453  0.8655654302530267
  0.7159832786042759  0.5953234321294743  0.5503408149752186
  0.5156777296201188  0.0894299580190655  0.4658001155020500
  0.5218879337772178  0.0516811352853498  0.6455416078974339
  0.9148382419987732  0.4833325736358990  0.3805329120136313
  0.9685169653359378  0.9979775009318198  0.0239020574194506
  0.6585972300168207  0.1871791226482678  0.3978283903364432
  0.6883521652484198  0.5882749798168052  0.2976982429866890
  0.6615122712703614  0.8030649943797924  0.6400839804148454
  0.2465330810189021  0.0365332555044300  0.1196471759492616
  0.3861286072148767  0.1723577861452902  0.5667693278499882
  0.4257396579076941  0.8657146457025543  0.3883802593351186
  0.9825250736531677  0.3402211198617364  0.3695311391606161
  0.2882716995433676  0.5306339961460522  0.9906597852108922
  0.4092885426354666  0.9471845960390870  0.1862340416012838
  0.1848132546458745  0.5725800770250299  0.9085324319113049
  0.1020369565539942  0.1244219395872124  0.0131963072534728
  0.2892631057731753  0.7047800353011732  0.4618939432804453
  0.1882167542775372  0.0203057487960591  0.7496520101316011
  0.0366359214363407  0.1422237000101622  0.7159978168399755
  0.8497814150900738  0.9048372943741294  0.6187480445302073
  0.2233995867712627  0.8254576414178186  0.3546514960212237
  0.9793278770391081  0.7067386108503488  0.6810289948636754
  0.8938319298922068  0.5275568149005129  0.6626301666141375
  0.2979880586517509  0.9109444280108091  0.0190983801729328
  0.2426162610392530  0.8203398430449886  0.1230460461699645
  0.8579723785020705  0.8712398179498170  0.2938994151211958
  0.4091782847227968  0.4343538434927915  0.3553980209797438
  0.7863823429984875  0.3640514203705117  0.0686296440529468
  0.1359144997256191  0.1863468985766882  0.3107838039917029
  0.3645028369204936  0.4501288660303703  0.1700780554578315
  0.6355176066989088  0.9261603885442563  0.7179417553279146
  0.4861986006211888  0.3096796369417844  0.9733779281933820
  0.9095268919828867  0.3784784493873546  0.0185226023511790
  0.2734258571389557  0.4483746819624984  0.7759234981901910
  0.2230713235462538  0.1727494452962703  0.6877269003583005
  0.0918738991882367  0.8506254370152868  0.7429882242264584
  0.1546048356994470  0.9596505705734185  0.4020363570158639
  0.7599726754563109  0.0614876459789725  0.6486229119752297
  0.0432953213737650  0.8125204193111528  0.1567954299622986
  0.5912207970429113  0.7480549391432431  0.3299036519367314
  0.7856574107297090  0.2463487063305439  0.8776642943036846
  0.4889968016596183  0.8695059028214135  0.5131422878352759
  0.8144445541030301  0.9446220496566679  0.4477666316466370
  0.0467546166831593 -0.0124946922557642  0.6235175514512901
  0.9386377472847429  0.4465816299391017  0.5651616516130590
  0.0317332623012004  0.5397408138572742  0.5220812442524291
  0.9268557304461303  0.6187958616531358  0.8384599315439095
  0.6652231604895019  0.2300451428631566  0.2202361405281615
  0.5529612160326903  0.6085641038217167  0.4105986679813742
  0.7544166312226369  0.4280591811510585  0.1813170536379355
  0.4774743015186688  0.1588090363669388  0.0863382521708760
  0.6014872157479542  0.5751212454009386  0.6161133340586383
  0.5878914629604145  0.7788314640009313  0.8538769216257287
  0.0690268052016833  0.8145884727060928  0.5157595935894129
  0.8605943644818601  0.2299688461158016  0.6259660745470959
  0.2921171429425841  0.2818245572259845  0.5189551697132688
  0.6205493422511705  0.4082384395027713  0.7309863163095276
  0.9168045529596281  0.7985759771936356  0.9187413991766271
  0.5629123588726451  0.4965521631202310  0.8919632535446407
  0.8622763881556361  0.5010311768816341  0.2106873458920902
  0.7717801918095780  0.3789889820591648  0.3813466942707697
  0.7474803082600847  0.4665868920699217  0.5066722276513517
  0.5423834547914947  0.0889934504312538  0.2996884436176513
  0.8649829426668052  0.0214408006738019  0.7302609806686385
  0.4426868414024134  0.7034124231743968  0.5162868752772276
  0.7284714459552675  0.6338007270038811  0.1109321386903299
  0.0938632400257084  0.6767948922481564  0.3110818104162604
  0.6019242501285844  0.3816272031809806  0.3419158004592996
  0.1632700963165446  0.7659277446659111  0.6053709407307087
  0.4687675410150672  0.5831074021150153  0.2715413596732534
  0.3975397017197854  0.5949588834672458  0.8595796592710609
  0.7875406857628928  0.5920668419182967  0.8297955933848883
  0.3142567777224980  0.3453743188732196  0.7002746576348795
  0.0714510339445940  0.2176611167217466  0.8228238675358732
  0.5620898347708676  0.6155757795780166  0.7396041501788366
  0.8390064133785294  0.2630362233768078  0.2561633262900124
  0.3002857099865836  0.2905201165174972  0.3001979088384858
  0.3796744870486831  0.4251290375548856  0.8481480339936841
  0.3761412685624132  0.8198888208875416  0.9497202324319681
  0.6736648560704814  0.1100130164037127  0.1371708630263165
  0.3262929789604567  0.1442626541443594  0.3862704424375785
  0.6545001879432808  0.2326174763347132  0.9865445471001982
  0.8668509536070508  0.5196314919953984  0.4903017977158373
  0.7148485637754266  0.7167684673637077  0.5151210756913039
  0.1382499007000644  0.4111201364731735  0.5017904930046094
  0.4998004337492148  0.8320372008640295  0.6792276495006092
  0.3473407800690925  0.6940420097383461  0.9336884841789803
  0.0532834964307362  0.8579426221716406  0.2741512299685832
  0.7116003383086296  0.7232218482461287  0.2128746422267393
  0.2736671878429657  0.0003239905293207  0.9256382786398550
  0.7644852746772273  0.8042318537935099  0.1478915024212344
  0.7102090039114622  0.3493334045446784  0.2668708019757309
  0.6148426667196465  0.7235122867282344  0.4596574478128824
  0.2121916867144585  0.2905699894807982  0.6599992431731485
  0.3436295012413311  0.1433566862200067  0.6918226874199930
  0.1640120182942465  0.4348417462583529  0.6120000948202260
  0.5519641445215697  0.7622953349681675  0.5476023610730384
  0.9312941585164541  0.8421007384229483  0.1070503943780558
  0.9214965007044256  0.1182740167156676  0.6686480176132918
  0.8707514920242009  0.4613964978865651  0.9270503910898807
  0.1551652640297647  0.5219237880440838  0.5372905562112905
  0.8718022442005599  0.7903685937736505  0.1920770931641566
  0.6942451821200645  0.3950876039256189  0.9877868972818318
  0.6980950767513332  0.5096216194850502  0.9862220142472972
  0.8005996843639249  0.5458565699779331  0.9547205122442666
  0.2871120024979044  0.7254047378524601  0.2938321295318210
  0.4767059632130902  0.4763917822290102  0.7867832536543075
  0.6508598820067201  0.7280492804396274  0.9544283318273457
  0.4040631109238562  0.6632681966529167  0.7448974284285572
  0.3626834574902675  0.8458171048884719  0.8256898022126691
  0.9949718886442589  0.7716204862300823  0.3335454785718756
  0.6507710251759535  0.0979201456263528  0.0008021818937719
  0.3859047274612031  0.3429154698179512  0.5990559190788423
  0.2432542849348518  0.3842362585444757  0.4496656968692861
  0.8752087681809784  0.8375056248371620  0.4995844139832717
  0.5618906572497281  0.2210631198611853  0.3076787090245561
  0.7392814630460941  0.9625548150764208  0.5652208182876014
  0.1285117897890660  0.2460148463579435  0.0188806173937490
  0.2401753660619056  0.4621642134513249  0.0870796451189302
  0.5011609577065373  0.8181612371775276  0.9718126332268783
  0.1912882233184549  0.9481807359927311  0.8621678383571016
  0.0513737092697213  0.2822246047432517  0.1130843619216301
  0.3811833905615709  0.2648973022531839  0.4124560218766193
  0.3864998983383559  0.2998154876669114  0.8063844032674335
  0.6506861271767430  0.7166659727735278  0.7477569237051216
  0.5550315817746465  0.2636064884677947  0.0840918428524505
  0.0260165329577850  0.5529244134788120  0.3931365439412705
  0.2120904769480483  0.0217437318824328  0.5033376515713904
  0.5012126118434456  0.5792223069065399  0.5288275991525405
  0.5083584830397191  0.9321626366996574  0.7440793830846224
  0.1857790570089541  0.3852835185048816  0.8415667749000947
  0.6460763021603899  0.5033152954746896  0.3920963822320771
  0.2638095653597989  0.1586064024223441  0.1668521193071875
  0.1875281153293101  0.1508969347050987  0.8097342589253991
  0.0357593531050664  0.4756615075512432  0.1021082902995102
  0.9468484218151889  0.9211864317423111  0.9038039355857802
  0.0469526178267247  0.0158950155438264  0.7513098428585179
  0.9023973132304605  0.2690275911350197  0.9422185112932708
  0.3753618808424130  0.0045915966610196  0.0711050376229573
  0.7748107369572033  0.2378945516959651  0.0948670498310186
  0.2636466321239579  0.6928003818101103  0.5931544536893303
  0.1269076300235189  0.8681320577724408  0.0826657366876985
  0.0169072302578189  0.0863182525285151  0.9333877090121562
  0.8481719423192003  0.0592294828039198  0.0313644637806411
  0.7896153510793074  0.8125694697573123  0.6942030598198899
  0.2312560905667557  0.5559851610995651  0.7288312387835849
  0.8197986384530784  0.6326062463486207  0.6310730413290668
  0.0335286348441665  0.6828621832763671  0.1689299552136558
  0.5610966954826128 -0.0202110966841228  0.5371164960209416
  0.0026354860440550  0.6681079616970884  0.5494652265004046
  0.9683588618965888  0.9435692590892298  0.2469550060682569
  0.8639762766645890  0.2805708101977328  0.3903618345419189
  0.2824548561554382  0.9080560639707081  0.2193972176940576
  0.9725497832455943  0.3420665612810254  0.2365676741039814
  0.7378707254255201  0.3713672302570509  0.8802229999135911
  0.6447764843186802  0.0588827124945756  0.7139830101697604
  0.2951846484533734  0.4245995721518873  0.2828432179882314
  0.8050334752096762  0.3770293620606254  0.5927656812812158
  0.6705892147178407  0.5284016055158696  0.1788247080323673
  0.3436980158768104  0.6408438119808656  0.0393816715956436
  0.5475368418569323  0.2151755919257356  0.8950205207113413
  0.2318676975360446  0.0959527922331149  0.9920819117435686
  0.1362324417271207  0.6229973357646935  0.0243717308055322
  0.8437739987354960  0.0865577078470463  0.8395794131364632
  0.4077075816271675  0.0922319072312908  0.2858462350999312
  0.2047388999116669  0.8813586315847727  0.6669862712901866
  0.6499860251691879  0.5252080746288598  0.7909026015861533
  0.6738946269519578  0.3126734905609714  0.4409081095054981
  0.0008712942892772  0.7247996001371004  0.8562089576303004
  0.1300663124427393  0.0514548290916907  0.3027189087571149
  0.3901987720285494  0.4487170100715531  0.9716830077381319
  0.7587629392421374  0.9148540959212627  0.2075731826505776
  0.4625374798698802  0.7348141191134198  0.3776526186051528
  0.7537086368152318  0.1706361513958207  0.5856989966199485
  0.2358042958065080  0.6964428627676246  0.8878121728190115
  0.8394279071669136  0.4779859881049220  0.7658047438595754
  0.0036223992144635  0.8628477834369512  0.6432745382190985
  0.5648676011498899  0.8771577394936404  0.2913037818749712
  0.1199069085440451  0.1351322975213125  0.6171482897843473
  0.1923097399622409  0.7241469278792130  0.2203572497760496
  0.0346957405684717  0.2086244456926636  0.3923419846027347
  0.5194081559685435  0.6249833182912603  0.8945613347471818
  0.5994920332882496  0.7204827590685006  0.1668377669831188
  0.9924918420928286  0.5811317710615692  0.7303019881088451
  0.4351691876450849  0.8176817127025853  0.1430256856925925
  0.6599187261279619  0.8921882552641015  0.8442387664808870
  0.7483076381398183  0.1623051624450026  0.2974013752477227
  0.3848250300558322  0.0658640189031115  0.4779807565649057
  0.4050119035178845  0.8477879485100033  0.6096855096409494
  0.6102856018889213  0.4480022486624149  0.6078721888487429
  0.0626404753368855  0.4040353189856757  0.6724128042816182
  0.4729699513344898  0.0246058933866470  0.9014806636485495
  0.3897420387687529  0.5667950370846916  0.3813611439966711
  0.3815968956603398  0.2399270998971198  0.0084611505177832
  0.7136766007343754  0.8699403839707174  0.4075698473937919
  0.4060478634270110  0.2906571651223834  0.2199403836545534
  0.0260279820876236  0.9529598588939320  0.4429158868497237
  0.1104524412428881  0.7189743590784119  0.7153638318951292
  0.5209012780121608  0.1704290626545547  0.5718827346239848
  0.8361615746194072  0.2817071171887000  0.7549001131230861
  0.8215737589231882  0.5665507966654750  0.3142193021504214
  0.9293045913380954  0.7476918179521445  0.0340104222175007
  0.8014113321183010  0.7670863179159145  0.8866472716031294
  0.3119347858646768  0.8382352759363291  0.4574364444293370
  0.1566795337370956  0.7348241435935585  0.4273149115937604
  0.3472311380132406  0.0360731800395507  0.7446548510035184
  0.0819630402136017  0.0780684089968624  0.1278767554139262
  0.8583676526018899  0.5971665201099383  0.1260362426003265
  0.5524348884711749  0.0693455710234793  0.1632315613428079
  0.9288098018591794  0.1530173049352597  0.2283920662099392
  0.9764239741368659  0.5205281401898670  0.9159076031055280
  0.4911939559946046  0.4541391133255233  0.2499852303652114
  0.9522805546639430  0.0583919348080332  0.5690816570040788
  0.3553125217841046  0.5838202486521827  0.1927310952188084
 
  0.00000000E+00  0.00000000E+00  0.00000000E+00
  0.00000000E+00  0.00000000E+00  0.00000000E+00
  0.00000000E+00  0.00000000E+00  0.00000000E+00
  0.00000000E+00  0.00000000E+00  0.00000000E+00
  0.00000000E+00  0.00000000E+00  0.00000000E+00
  0.00000000E+00  0.00000000E+00  0.00000000E+00
  0.00000000E+00  0.00000000E+00  0.00000000E+00
  0.00000000E+00  0.00000000E+00  0.00000000E+00
  0.00000000E+00  0.00000000E+00  0.00000000E+00
  0.00000000E+00  0.00000000E+00  0.00000000E+00
  0.00000000E+00  0.00000000E+00  0.00000000E+00
  0.00000000E+00  0.00000000E+00  0.00000000E+00
  0.00000000E+00  0.00000000E+00  0.00000000E+00
  0.00000000E+00  0.00000000E+00  0.00000000E+00
  0.00000000E+00  0.00000000E+00  0.00000000E+00
  0.00000000E+00  0.00000000E+00  0.00000000E+00
  0.00000000E+00  0.00000000E+00  0.00000000E+00
  0.00000000E+00  0.00000000E+00  0.00000000E+00
  0.00000000E+00  0.00000000E+00  0.00000000E+00
  0.00000000E+00  0.00000000E+00  0.00000000E+00
  0.00000000E+00  0.00000000E+00  0.00000000E+00
  0.00000000E+00  0.00000000E+00  0.00000000E+00
  0.00000000E+00  0.00000000E+00  0.00000000E+00
  0.00000000E+00  0.00000000E+00  0.00000000E+00
  0.00000000E+00  0.00000000E+00  0.00000000E+00
  0.00000000E+00  0.00000000E+00  0.00000000E+00
  0.00000000E+00  0.00000000E+00  0.00000000E+00
  0.00000000E+00  0.00000000E+00  0.00000000E+00
  0.00000000E+00  0.00000000E+00  0.00000000E+00
  0.00000000E+00  0.00000000E+00  0.00000000E+00
  0.00000000E+00  0.00000000E+00  0.00000000E+00
  0.00000000E+00  0.00000000E+00  0.00000000E+00
  0.00000000E+00  0.00000000E+00  0.00000000E+00
  0.00000000E+00  0.00000000E+00  0.00000000E+00
  0.00000000E+00  0.00000000E+00  0.00000000E+00
  0.00000000E+00  0.00000000E+00  0.00000000E+00
  0.00000000E+00  0.00000000E+00  0.00000000E+00
  0.00000000E+00  0.00000000E+00  0.00000000E+00
  0.00000000E+00  0.00000000E+00  0.00000000E+00
  0.00000000E+00  0.00000000E+00  0.00000000E+00
  0.00000000E+00  0.00000000E+00  0.00000000E+00
  0.00000000E+00  0.00000000E+00  0.00000000E+00
  0.00000000E+00  0.00000000E+00  0.00000000E+00
  0.00000000E+00  0.00000000E+00  0.00000000E+00
  0.00000000E+00  0.00000000E+00  0.00000000E+00
  0.00000000E+00  0.00000000E+00  0.00000000E+00
  0.00000000E+00  0.00000000E+00  0.00000000E+00
  0.00000000E+00  0.00000000E+00  0.00000000E+00
  0.00000000E+00  0.00000000E+00  0.00000000E+00
  0.00000000E+00  0.00000000E+00  0.00000000E+00
  0.00000000E+00  0.00000000E+00  0.00000000E+00
  0.00000000E+00  0.00000000E+00  0.00000000E+00
  0.00000000E+00  0.00000000E+00  0.00000000E+00
  0.00000000E+00  0.00000000E+00  0.00000000E+00
  0.00000000E+00  0.00000000E+00  0.00000000E+00
  0.00000000E+00  0.00000000E+00  0.00000000E+00
  0.00000000E+00  0.00000000E+00  0.00000000E+00
  0.00000000E+00  0.00000000E+00  0.00000000E+00
  0.00000000E+00  0.00000000E+00  0.00000000E+00
  0.00000000E+00  0.00000000E+00  0.00000000E+00
  0.00000000E+00  0.00000000E+00  0.00000000E+00
  0.00000000E+00  0.00000000E+00  0.00000000E+00
  0.00000000E+00  0.00000000E+00  0.00000000E+00
  0.00000000E+00  0.00000000E+00  0.00000000E+00
  0.00000000E+00  0.00000000E+00  0.00000000E+00
  0.00000000E+00  0.00000000E+00  0.00000000E+00
  0.00000000E+00  0.00000000E+00  0.00000000E+00
  0.00000000E+00  0.00000000E+00  0.00000000E+00
  0.00000000E+00  0.00000000E+00  0.00000000E+00
  0.00000000E+00  0.00000000E+00  0.00000000E+00
  0.00000000E+00  0.00000000E+00  0.00000000E+00
  0.00000000E+00  0.00000000E+00  0.00000000E+00
  0.00000000E+00  0.00000000E+00  0.00000000E+00
  0.00000000E+00  0.00000000E+00  0.00000000E+00
  0.00000000E+00  0.00000000E+00  0.00000000E+00
  0.00000000E+00  0.00000000E+00  0.00000000E+00
  0.00000000E+00  0.00000000E+00  0.00000000E+00
  0.00000000E+00  0.00000000E+00  0.00000000E+00
  0.00000000E+00  0.00000000E+00  0.00000000E+00
  0.00000000E+00  0.00000000E+00  0.00000000E+00
  0.00000000E+00  0.00000000E+00  0.00000000E+00
  0.00000000E+00  0.00000000E+00  0.00000000E+00
  0.00000000E+00  0.00000000E+00  0.00000000E+00
  0.00000000E+00  0.00000000E+00  0.00000000E+00
  0.00000000E+00  0.00000000E+00  0.00000000E+00
  0.00000000E+00  0.00000000E+00  0.00000000E+00
  0.00000000E+00  0.00000000E+00  0.00000000E+00
  0.00000000E+00  0.00000000E+00  0.00000000E+00
  0.00000000E+00  0.00000000E+00  0.00000000E+00
  0.00000000E+00  0.00000000E+00  0.00000000E+00
  0.00000000E+00  0.00000000E+00  0.00000000E+00
  0.00000000E+00  0.00000000E+00  0.00000000E+00
  0.00000000E+00  0.00000000E+00  0.00000000E+00
  0.00000000E+00  0.00000000E+00  0.00000000E+00
  0.00000000E+00  0.00000000E+00  0.00000000E+00
  0.00000000E+00  0.00000000E+00  0.00000000E+00
  0.00000000E+00  0.00000000E+00  0.00000000E+00
  0.00000000E+00  0.00000000E+00  0.00000000E+00
  0.00000000E+00  0.00000000E+00  0.00000000E+00
  0.00000000E+00  0.00000000E+00  0.00000000E+00
  0.00000000E+00  0.00000000E+00  0.00000000E+00
  0.00000000E+00  0.00000000E+00  0.00000000E+00
  0.00000000E+00  0.00000000E+00  0.00000000E+00
  0.00000000E+00  0.00000000E+00  0.00000000E+00
  0.00000000E+00  0.00000000E+00  0.00000000E+00
  0.00000000E+00  0.00000000E+00  0.00000000E+00
  0.00000000E+00  0.00000000E+00  0.00000000E+00
  0.00000000E+00  0.00000000E+00  0.00000000E+00
  0.00000000E+00  0.00000000E+00  0.00000000E+00
  0.00000000E+00  0.00000000E+00  0.00000000E+00
  0.00000000E+00  0.00000000E+00  0.00000000E+00
  0.00000000E+00  0.00000000E+00  0.00000000E+00
  0.00000000E+00  0.00000000E+00  0.00000000E+00
  0.00000000E+00  0.00000000E+00  0.00000000E+00
  0.00000000E+00  0.00000000E+00  0.00000000E+00
  0.00000000E+00  0.00000000E+00  0.00000000E+00
  0.00000000E+00  0.00000000E+00  0.00000000E+00
  0.00000000E+00  0.00000000E+00  0.00000000E+00
  0.00000000E+00  0.00000000E+00  0.00000000E+00
  0.00000000E+00  0.00000000E+00  0.00000000E+00
  0.00000000E+00  0.00000000E+00  0.00000000E+00
  0.00000000E+00  0.00000000E+00  0.00000000E+00
  0.00000000E+00  0.00000000E+00  0.00000000E+00
  0.00000000E+00  0.00000000E+00  0.00000000E+00
  0.00000000E+00  0.00000000E+00  0.00000000E+00
  0.00000000E+00  0.00000000E+00  0.00000000E+00
  0.00000000E+00  0.00000000E+00  0.00000000E+00
  0.00000000E+00  0.00000000E+00  0.00000000E+00
  0.00000000E+00  0.00000000E+00  0.00000000E+00
  0.00000000E+00  0.00000000E+00  0.00000000E+00
  0.00000000E+00  0.00000000E+00  0.00000000E+00
  0.00000000E+00  0.00000000E+00  0.00000000E+00
  0.00000000E+00  0.00000000E+00  0.00000000E+00
  0.00000000E+00  0.00000000E+00  0.00000000E+00
  0.00000000E+00  0.00000000E+00  0.00000000E+00
  0.00000000E+00  0.00000000E+00  0.00000000E+00
  0.00000000E+00  0.00000000E+00  0.00000000E+00
  0.00000000E+00  0.00000000E+00  0.00000000E+00
  0.00000000E+00  0.00000000E+00  0.00000000E+00
  0.00000000E+00  0.00000000E+00  0.00000000E+00
  0.00000000E+00  0.00000000E+00  0.00000000E+00
  0.00000000E+00  0.00000000E+00  0.00000000E+00
  0.00000000E+00  0.00000000E+00  0.00000000E+00
  0.00000000E+00  0.00000000E+00  0.00000000E+00
  0.00000000E+00  0.00000000E+00  0.00000000E+00
  0.00000000E+00  0.00000000E+00  0.00000000E+00
  0.00000000E+00  0.00000000E+00  0.00000000E+00
  0.00000000E+00  0.00000000E+00  0.00000000E+00
  0.00000000E+00  0.00000000E+00  0.00000000E+00
  0.00000000E+00  0.00000000E+00  0.00000000E+00
  0.00000000E+00  0.00000000E+00  0.00000000E+00
  0.00000000E+00  0.00000000E+00  0.00000000E+00
  0.00000000E+00  0.00000000E+00  0.00000000E+00
  0.00000000E+00  0.00000000E+00  0.00000000E+00
  0.00000000E+00  0.00000000E+00  0.00000000E+00
  0.00000000E+00  0.00000000E+00  0.00000000E+00
  0.00000000E+00  0.00000000E+00  0.00000000E+00
  0.00000000E+00  0.00000000E+00  0.00000000E+00
  0.00000000E+00  0.00000000E+00  0.00000000E+00
  0.00000000E+00  0.00000000E+00  0.00000000E+00
  0.00000000E+00  0.00000000E+00  0.00000000E+00
  0.00000000E+00  0.00000000E+00  0.00000000E+00
  0.00000000E+00  0.00000000E+00  0.00000000E+00
  0.00000000E+00  0.00000000E+00  0.00000000E+00
  0.00000000E+00  0.00000000E+00  0.00000000E+00
  0.00000000E+00  0.00000000E+00  0.00000000E+00
  0.00000000E+00  0.00000000E+00  0.00000000E+00
  0.00000000E+00  0.00000000E+00  0.00000000E+00
  0.00000000E+00  0.00000000E+00  0.00000000E+00
  0.00000000E+00  0.00000000E+00  0.00000000E+00
  0.00000000E+00  0.00000000E+00  0.00000000E+00
  0.00000000E+00  0.00000000E+00  0.00000000E+00
  0.00000000E+00  0.00000000E+00  0.00000000E+00
  0.00000000E+00  0.00000000E+00  0.00000000E+00
  0.00000000E+00  0.00000000E+00  0.00000000E+00
  0.00000000E+00  0.00000000E+00  0.00000000E+00
  0.00000000E+00  0.00000000E+00  0.00000000E+00
  0.00000000E+00  0.00000000E+00  0.00000000E+00
  0.00000000E+00  0.00000000E+00  0.00000000E+00
  0.00000000E+00  0.00000000E+00  0.00000000E+00
  0.00000000E+00  0.00000000E+00  0.00000000E+00
  0.00000000E+00  0.00000000E+00  0.00000000E+00
  0.00000000E+00  0.00000000E+00  0.00000000E+00
  0.00000000E+00  0.00000000E+00  0.00000000E+00
  0.00000000E+00  0.00000000E+00  0.00000000E+00
  0.00000000E+00  0.00000000E+00  0.00000000E+00
  0.00000000E+00  0.00000000E+00  0.00000000E+00
  0.00000000E+00  0.00000000E+00  0.00000000E+00
  0.00000000E+00  0.00000000E+00  0.00000000E+00
  0.00000000E+00  0.00000000E+00  0.00000000E+00
  0.00000000E+00  0.00000000E+00  0.00000000E+00
  0.00000000E+00  0.00000000E+00  0.00000000E+00
  0.00000000E+00  0.00000000E+00  0.00000000E+00
  0.00000000E+00  0.00000000E+00  0.00000000E+00
  0.00000000E+00  0.00000000E+00  0.00000000E+00
  0.00000000E+00  0.00000000E+00  0.00000000E+00
  0.00000000E+00  0.00000000E+00  0.00000000E+00
  0.00000000E+00  0.00000000E+00  0.00000000E+00
  0.00000000E+00  0.00000000E+00  0.00000000E+00
  0.00000000E+00  0.00000000E+00  0.00000000E+00
  0.00000000E+00  0.00000000E+00  0.00000000E+00
  0.00000000E+00  0.00000000E+00  0.00000000E+00
  0.00000000E+00  0.00000000E+00  0.00000000E+00
  0.00000000E+00  0.00000000E+00  0.00000000E+00
  0.00000000E+00  0.00000000E+00  0.00000000E+00
  0.00000000E+00  0.00000000E+00  0.00000000E+00
  0.00000000E+00  0.00000000E+00  0.00000000E+00
  0.00000000E+00  0.00000000E+00  0.00000000E+00
  0.00000000E+00  0.00000000E+00  0.00000000E+00
  0.00000000E+00  0.00000000E+00  0.00000000E+00
  0.00000000E+00  0.00000000E+00  0.00000000E+00
  0.00000000E+00  0.00000000E+00  0.00000000E+00
  0.00000000E+00  0.00000000E+00  0.00000000E+00
  0.00000000E+00  0.00000000E+00  0.00000000E+00
  0.00000000E+00  0.00000000E+00  0.00000000E+00
  0.00000000E+00  0.00000000E+00  0.00000000E+00
  0.00000000E+00  0.00000000E+00  0.00000000E+00
  0.00000000E+00  0.00000000E+00  0.00000000E+00
  0.00000000E+00  0.00000000E+00  0.00000000E+00
  0.00000000E+00  0.00000000E+00  0.00000000E+00
  0.00000000E+00  0.00000000E+00  0.00000000E+00
  0.00000000E+00  0.00000000E+00  0.00000000E+00
  0.00000000E+00  0.00000000E+00  0.00000000E+00
  0.00000000E+00  0.00000000E+00  0.00000000E+00
  0.00000000E+00  0.00000000E+00  0.00000000E+00
  0.00000000E+00  0.00000000E+00  0.00000000E+00
  0.00000000E+00  0.00000000E+00  0.00000000E+00
  0.00000000E+00  0.00000000E+00  0.00000000E+00
  0.00000000E+00  0.00000000E+00  0.00000000E+00
  0.00000000E+00  0.00000000E+00  0.00000000E+00
  0.00000000E+00  0.00000000E+00  0.00000000E+00
  0.00000000E+00  0.00000000E+00  0.00000000E+00
  0.00000000E+00  0.00000000E+00  0.00000000E+00
  0.00000000E+00  0.00000000E+00  0.00000000E+00
  0.00000000E+00  0.00000000E+00  0.00000000E+00
  0.00000000E+00  0.00000000E+00  0.00000000E+00
  0.00000000E+00  0.00000000E+00  0.00000000E+00
  0.00000000E+00  0.00000000E+00  0.00000000E+00
  0.00000000E+00  0.00000000E+00  0.00000000E+00
  0.00000000E+00  0.00000000E+00  0.00000000E+00
