Sb                                      
   1.00000000000000     
    19.2173007964999954    0.0000000000000000    0.0000000000000000
     0.0000000000000000   19.2173007964999954    0.0000000000000000
     0.0000000000000000    0.0000000000000000   19.2173007964999954
   In   Te
    80   120
Direct
  0.6088839236840417  0.7251362525363255  0.9904404857071334
  0.1339200456910789  0.1804439321103931  0.0759235179567594
  0.4296677513618321  0.8067551778041362  0.8876885409415327
  0.2788268449994989  0.6246562223418330  0.9442866647499591
  0.0799847863911009  0.5454016901649281  0.0758490367452688
  0.7366903602081658  0.6434066383100827  0.7427544656416216
  0.9495069194600849  0.2662034732070663  0.8536237605544714
  0.9207265442400211  0.1368665779703469  0.3032059884437977
  0.2321808491096267  0.1730039315648534  0.6578669532744339
  0.6800457949862598  0.0363290109479567  0.2729350637796409
  0.5200034350883297  0.6956406985177879  0.3253628342591548
  0.6298269492097521  0.8308229886448764  0.1858127643676768
  0.8935625170987800  0.4140013727915204  0.0867890341723319
  0.4483683645360190  0.7291119233434645  0.6601873738227814
  0.0231747660174038  0.9973110925107095  0.1463477060927397
  0.1740235106883510  0.7832233045846944  0.1597527917698012
  0.0164587389426888  0.9393171110825714  0.0000948285240574
  0.7852322257620161  0.4078592153303078  0.7696015651264740
  0.4625681669033769  0.8805077864595399  0.3681990793036137
  0.4527303817527084  0.5558700749345091  0.1572926156627886
  0.4799696734772806  0.5549239034473401  0.9029358248782079
  0.6797666558140700  0.2898195351529469  0.6345946715901636
  0.5910495711246772  0.2582447574009573  0.8129183801949195
  0.4449230703038807  0.0148312993928835  0.9522109194210534
  0.0981954308233624  0.8215184095549214  0.7955352032582645
  0.3925912535729376  0.0341562950555597  0.2255045448201308
  0.5994880151420121  0.6268579062493016  0.6163254200781564
  0.3382682859401897  0.7922733678501548  0.7343670865227863
  0.0899496204295698  0.1384352618638195  0.8519213848922200
  0.9421005888998714  0.9667654506753893  0.7548770681019948
  0.6077063880334560  0.0475461509325074  0.5857862497610345
  0.3275671500411060  0.1274446479801982  0.0507837911710426
  0.0434649109434979  0.7361418630890709  0.0036749842286392
  0.6629934953765573  0.9571342809294503  0.4258348667422263
  0.2270530769877323  0.3767344699600572  0.1920738237333662
  0.4175748336243846  0.4987272530853455  0.5452055262084745
  0.6359554356350026  0.1029158768447337  0.9579568503917257
  0.2504467714669850  0.5949046177936836  0.5091721951479375
  0.3524100382342521  0.5046752120400039  0.3461981462102058
  0.4049119141836555  0.1861632032775021  0.5488780490778467
  0.7768556590917085  0.2658361409045523  0.9792448240953996
  0.6848384542435904  0.4489676553230218  0.3930987542230580
  0.1962840693549136  0.7587190813596705  0.3293798826484762
  0.9041017670833740  0.3857761959137548  0.3279354825681577
  0.3083484943616003  0.9857458870412869  0.7973488837922590
  0.2614008956661299  0.5420659328284649  0.7161509355530634
  0.2661798144123987  0.1914291785008426  0.3367746117329080
  0.1063690809979482  0.7315973811315255  0.5159625610577753
  0.8194097652838593  0.7272542640096830  0.4182706107622303
  0.9639076806440418  0.0989655302720327  0.4864350257321417
  0.4471376390642235  0.8129170308983990  0.1537072286620214
  0.2858896537720104  0.1531818553023025  0.8393923314132132
  0.8501022222398430  0.1027024917794018  0.6824470901594806
  0.3993244313841020  0.3504902232062604  0.0219692868278103
  0.6094023551148177  0.4047199666674283  0.1685440419412802
  0.7279638030587529  0.9946254607931874  0.9221008060360163
  0.1420130756012500  0.0528153876051259  0.3230867218155792
  0.4605545676757588  0.2370394364031561  0.7281486754281862
  0.5971646944419953  0.7315998887734992  0.5100865379899910
  0.7053424669163958  0.5690047507167126  0.9261199545876294
  0.9760175766197781  0.4951228684444889  0.8730037017077400
  0.7738286999204406  0.8370189406494295  0.6124675218324028
  0.1846136632419519  0.9758765514316452  0.1194129719335966
  0.4504064910754703  0.9246167306267908  0.5988891849115310
  0.2367152440844321  0.3002947810149025  0.8993669848930511
  0.1566019702574753  0.3636490747942480  0.6036636399488493
  0.7094876504493908  0.6585591484430369  0.3297797289418999
  0.8802786273639440  0.6212728364607752  0.2082975779643914
  0.4705804570404042  0.3068274254466943  0.2770726088184094
  0.9523428342950420  0.7612649120389237  0.6905761217679296
  0.1387135036243433  0.9493138363649060  0.4854402349362027
  0.8732418644033608  0.5157854095175884  0.5856838804072177
  0.0886822628819754  0.6252219211520821  0.6829132961957212
  0.0671047299866382  0.2451571657415570  0.5672580943043739
  0.3022694210021332  0.8241765956137680  0.9950477357242962
  0.6883232677288983  0.5733354740519373  0.1262987466851500
  0.7260899715756101  0.2580836916859441  0.1892258298069479
  0.8560459560223461  0.1563238169177512  0.0557066585217883
  0.1197983460768657  0.2430927399174643  0.3237822962898891
  0.9945120830001895  0.3058381056120577  0.1125881304931169
  0.8233176918626666  0.8683489503187533  0.3835334429275973
  0.5269966808104115  0.6855993812310563  0.8374901504307943
  0.5871768374620587  0.7522395463102752  0.7103834390855429
  0.0832751336303788  0.3470504269847081  0.2202300317788733
  0.8797852430502261  0.9449230990536092  0.5844974995770021
  0.7760462024378806  0.8944156394307921  0.2414192128893889
  0.2343020142400315  0.8096997910749897  0.4737011234450819
  0.9247199023751277  0.6430712764507575  0.3531095161776532
  0.6205715179315112  0.7951170543382566  0.3692630963711862
  0.8640233118029516  0.0193912013298971  0.9733591305010693
  0.0061771001015933  0.7784169954355311  0.3234193522129160
  0.2673302962863064  0.2844109694140404  0.0514380387334545
  0.9851341193980312  0.2362173095477962  0.4034008310248517
  0.9306579903966230  0.8184296555531254  0.9337918013528310
  0.5136834824441640  0.1857447217113677  0.3536099631674322
  0.2905569700339490  0.2699956502832510  0.4682683493288586
  0.3883808990201347  0.5064511828229061  0.0333258097152318
  0.6431025450500135  0.3164292443902501  0.2946315919409290
  0.4414174894388579  0.7867495857149096  0.5216495118714337
  0.4584507438229214  0.5756350894074234  0.6720181273191680
  0.3181665434117471  0.7210758827344996  0.1008404878223437
  0.5884620704426113  0.5852033252504143  0.3900321045868955
  0.3417889666879190  0.9540661033824720  0.0610491757445436
  0.7262708116262671  0.7051103111605513  0.8859526343816738
  0.3791417998637598  0.7581573533000844  0.2999976469216915
  0.2460197389935038  0.9014480661255692  0.6648857648846160
  0.0855334345778126  0.6594954275558438  0.1812106869983987
  0.1148877805908299  0.6221435705898891  0.9479754246963343
  0.6714594409479692  0.5033516174383292  0.8028843275148549
  0.6604528842181770  0.0603624749525715  0.7276883555072312
  0.6904427387291853  0.3053791130892400  0.4858155011848458
  0.3852612162364675  0.3400137379088572  0.6516536297352135
  0.9923873258443241  0.2049242447281937  0.0074044238540302
  0.5516786677582918  0.9014781575162635  0.9112615609670439
  0.2015896428959406  0.4518061295200674  0.9183971459744873
  0.8207208096627048  0.0373633657145463  0.4822217338475307
  0.2390363970895574  0.7829017668283438  0.8411897100699882
  0.8124809571876567  0.5219528917834820  0.4379735049463284
  0.0209814030060370  0.1003971813249849  0.6226220824513863
  0.2693341918140062  0.4621788076152865  0.5664068110787601
  0.8811767601673679  0.2584383281800668  0.2143410265618175
  0.2512900249031343  0.0948616291492043  0.1933508112525466
  0.9756039059719831  0.0090165573466189  0.3647626742218778
  0.0660229585304389  0.4165672744403518  0.9817892021388733
  0.6231303536147930  0.2556873462849551  0.9636617366058949
  0.3708762670896715  0.1191424906440355  0.7032337470916850
  0.9612743026418411  0.6634797766668155  0.5780427475232909
  0.8857259256175570  0.5393564726052075  0.7434593418119012
  0.3908806296116688  0.3710411015720662  0.4089818910886701
  0.8350314882200913  0.3616818451109925  0.6304840635500226
  0.6405938366963960  0.8914791729292368  0.5697608509989173
  0.3890676406427034  0.0993544449301329  0.3743988011464441
  0.9974865751009969  0.8267674593161450  0.4618474342173653
  0.2191513001897050  0.5230909417018614  0.1475223800327612
  0.8184987896829751  0.2861281940774195  0.4260322179761377
  0.8818618218053399  0.0565705522421919  0.1768120997883688
  0.3865881726324185  0.6124735784391069  0.4540205808084855
  0.1988808912960554  0.1504716680540699  0.5117437030753048
  0.5351874371002023  0.9551264804080234  0.2544544654971547
  0.8694864310040628  0.3820903023096154  0.9003391320885850
  0.7244648427951731  0.9435077767223072  0.7745856643581213
  0.0573944445028162  0.1415956760729786  0.2088968504621832
  0.9568813171193540  0.7363031272357936  0.1338412163626687
  0.9706645296204420  0.3904524123112769  0.5248872630333992
  0.6935056600389571  0.4993103095290152  0.5616413112653746
  0.0446157127206937  0.8709631026582907  0.6632113655939469
  0.5489554216281992  0.6729203595998126  0.1708016323691478
  0.1105637527640104  0.5028111191226793  0.7802811578862348
  0.6617722923971484  0.8979398450076562  0.0158951593934336
  0.4914378090871863  0.4655596762729732  0.2727838140971733
  0.1427185802434433  0.8461205807110425  0.0240835799475642
  0.4247702475730231  0.6911846076835056  0.9874398693567260
  0.3968201412375776  0.3242937042916004  0.8715249688305789
  0.4464062174536713  0.9046904895938955  0.7495459535290065
  0.0973234749073011  0.2888230372003245  0.8236486676215012
  0.5007176753544349  0.3785380478803813  0.5325719018235167
  0.0217702693967743  0.6898526710517046  0.8060412784122766
  0.8158524497155903  0.8007238753871889  0.7503726141391983
  0.8269709092757525  0.7777920391059600  0.0438929926897385
  0.7831386471455355  0.6862471541670364  0.5610381188532471
  0.4257286817114597  0.1640795006245310  0.9177923537774408
  0.4657802486930927  0.1319293031758442  0.1364223976337454
  0.5411065620549353  0.0185897625486315  0.0655815109936344
  0.7303640051085978  0.1370475466407106  0.5487993273525401
  0.9706184513955864  0.5014476166491615  0.1970687038417126
  0.5504713090053451  0.0973063228887556  0.8165894650979287
  0.5035054822033356  0.3021650470524304  0.1201248261120573
  0.0410392109030055  0.4586913923408019  0.4128517246410955
  0.0734583543726375  0.9580591433892768  0.8627277686006457
  0.1396382047406403  0.6299319831579042  0.4098189377024052
  0.7463751165159876  0.5228078096283274  0.2518836045909843
  0.3211052883364404  0.9826745562402946  0.5679684601047791
  0.1913651333093521  0.0799267490685353  0.9604205082995843
  0.5955002515468496  0.5293521143797216  0.0156481302525812
  0.5050340716681642  0.0079764942075336  0.4886466786207440
  0.1578640477910002  0.3659359038040487  0.4322973738007729
  0.9460910371101532  0.2701427555247167  0.6847971699911696
  0.5424005345436139  0.4256260057710172  0.8550629725994953
  0.5597627241019274  0.1935636824044833  0.6081738168021323
  0.7411871630319364  0.3692004222279194  0.0878566759212355
  0.3048254987036011  0.9398475899174420  0.4015963460576510
  0.2440655588789100  0.3135529385256704  0.7177169757051881
  0.3315717038601210  0.5065976876781790  0.8491437592375030
  0.5997009849688335  0.4198176336652910  0.6519528411183361
  0.8389230660643084  0.9272111758743389  0.1025121482068096
  0.3271164088194795  0.2705344615004281  0.2266615361803751
  0.7327507614762194  0.2461644618517438  0.7632390996008442
  0.0484150661249641  0.4584740663974983  0.6446875238756583
  0.7131766416133223  0.1216504075417014  0.1223149115667448
  0.1675082611905543  0.0709985932612904  0.7388117342021258
  0.8184241602296878  0.5410031980911926  0.0156295495121224
  0.2204904596788419  0.6876570834833435  0.6209228885708683
  0.9491373915725476  0.6008532879300388  0.9862217171763151
  0.9323069344939404  0.1101063625810058  0.8406939556275094
  0.7810873673430886  0.1488125618933610  0.3626041399732278
  0.3015425064710565  0.9189039507887007  0.2497699120269365
  0.0898107079664370  0.9100622420347945  0.2528642365374869
  0.7514058991848512  0.7070488426767262  0.1716385377080182
  0.2005712755814656  0.4600671731243875  0.3172736729001848
  0.3200066845234216  0.6130260448347866  0.2418418416336854
 
  0.19884471E-02  0.41231329E-03  0.20757185E-02
  0.11303040E-02  0.40391213E-02  0.25787405E-03
 -0.18871660E-03  0.12227104E-02  0.11682495E-02
  0.59351357E-03  0.21160417E-03  0.15596806E-02
  0.72313843E-03 -0.81315473E-03 -0.29772765E-02
 -0.18452909E-02 -0.99295233E-03 -0.22676850E-02
 -0.43939879E-03 -0.13150586E-03 -0.14645116E-02
  0.23240772E-02  0.23830470E-02 -0.28563177E-03
  0.75460369E-03  0.33458067E-03 -0.40070473E-03
 -0.14810942E-02 -0.72841796E-03 -0.38082367E-03
  0.29149969E-02 -0.62484655E-03 -0.29964130E-02
  0.52163250E-03  0.28568461E-02  0.17822195E-02
 -0.40080631E-03  0.44652436E-03 -0.47237852E-03
 -0.38653694E-03 -0.37431580E-03  0.29648140E-03
 -0.14776975E-02  0.91362637E-03  0.15102464E-02
  0.14643904E-02 -0.76555312E-03 -0.10716589E-02
  0.31090075E-03 -0.19597798E-02  0.15763398E-02
 -0.16566974E-02  0.38352593E-02 -0.99061017E-03
  0.27128804E-03  0.18411792E-02 -0.83776793E-03
 -0.25590369E-02 -0.13204149E-02  0.10677265E-02
  0.96503228E-03  0.24851361E-03  0.34987428E-02
 -0.18768024E-02 -0.23990691E-03  0.18498509E-02
  0.19123279E-02 -0.37059378E-02  0.19712727E-02
  0.28880627E-02 -0.17961583E-02 -0.11429372E-02
  0.13154785E-02 -0.24787975E-02 -0.51081933E-03
  0.11860475E-02  0.12401290E-02  0.23915681E-02
  0.12199066E-02  0.42711669E-04 -0.55433691E-03
 -0.49962966E-03 -0.12167276E-02  0.19420766E-02
 -0.14926408E-02  0.26670825E-02 -0.26847439E-05
  0.16188192E-03 -0.30942886E-02 -0.68104914E-04
  0.21005805E-03  0.21961613E-02 -0.15972900E-02
  0.20190617E-02 -0.32513709E-03 -0.61367799E-03
  0.21756801E-02 -0.33059742E-03 -0.14375585E-02
  0.12788780E-02 -0.18493449E-02 -0.12482303E-02
  0.19482073E-03  0.43988593E-03  0.16189581E-03
 -0.17659285E-03 -0.13133820E-02  0.14936661E-02
  0.89837304E-03 -0.78849779E-03  0.21110641E-02
 -0.27273511E-03  0.33743963E-03  0.20459266E-02
  0.13113356E-02  0.11289692E-02 -0.15590042E-02
  0.84152694E-03 -0.50186633E-03 -0.30861468E-03
  0.12202825E-02 -0.14238293E-02 -0.48837953E-05
  0.10598866E-02  0.14479311E-02  0.71268834E-03
  0.10086892E-02 -0.13441998E-02  0.16959868E-02
 -0.39991889E-02 -0.14793848E-03 -0.97086775E-03
  0.10052845E-02 -0.87577605E-04 -0.72816397E-03
  0.47059784E-03  0.78061447E-03 -0.13275255E-02
  0.56713773E-03 -0.38351153E-03 -0.18651489E-02
  0.22309697E-02  0.80220847E-03  0.83866732E-04
  0.11461821E-02  0.62683440E-03  0.35425476E-04
 -0.19206006E-02 -0.25472262E-03 -0.60097448E-03
  0.17326499E-03  0.23759707E-03  0.16711353E-03
  0.19113574E-03  0.18459621E-02 -0.68072869E-03
  0.41500537E-03 -0.15408943E-03 -0.29612248E-02
  0.16230920E-02 -0.17737946E-02 -0.20987355E-02
 -0.10174500E-03  0.35001841E-04 -0.12204854E-02
  0.58300593E-03 -0.21365182E-02 -0.31939008E-03
 -0.17657669E-03  0.47752969E-04  0.19868432E-02
  0.77207108E-03 -0.60641756E-03 -0.92917415E-03
  0.20054728E-03  0.37137258E-02 -0.12410423E-02
  0.11708539E-02  0.23492333E-03  0.20390701E-03
  0.17441284E-02  0.20727417E-02 -0.97838680E-05
 -0.32828457E-03  0.68798092E-03  0.32537613E-03
 -0.27115436E-03  0.13458042E-02 -0.24985773E-02
 -0.76167542E-03  0.14792625E-02  0.10343041E-02
  0.73262360E-03 -0.25477754E-02  0.70267650E-03
 -0.83697683E-03  0.88660218E-03  0.70423536E-03
  0.29395498E-02  0.46917041E-03  0.38630487E-03
  0.61670270E-03 -0.97809040E-03  0.85226634E-03
  0.44039314E-03 -0.14979870E-02  0.22742818E-03
 -0.58858599E-03 -0.37926134E-03  0.11643523E-02
 -0.11868616E-02 -0.12770096E-02  0.90888758E-03
  0.23003316E-02 -0.53884971E-03 -0.86789860E-03
 -0.12066298E-02  0.59534853E-03 -0.14476807E-02
  0.10653068E-02 -0.12632675E-02  0.85787219E-03
 -0.21156478E-03 -0.30061207E-02  0.25018884E-02
  0.16053010E-03  0.86889768E-03 -0.10355957E-02
 -0.10467898E-02  0.10370848E-04 -0.25393652E-02
  0.16631570E-02 -0.87893766E-03 -0.10535318E-02
  0.54082867E-03 -0.27706151E-02  0.36268125E-03
 -0.10439977E-02 -0.16782558E-02 -0.15002539E-02
  0.19166788E-02  0.11872082E-02  0.37566930E-03
 -0.33222413E-03 -0.89993921E-03 -0.27379852E-03
 -0.22993468E-02 -0.85958544E-04 -0.22348557E-02
  0.11130954E-03 -0.18339488E-02  0.12446817E-02
  0.10464968E-02  0.10442294E-02  0.19090128E-03
 -0.33381894E-03  0.16883788E-02  0.10023318E-03
  0.59663079E-03  0.52415725E-03 -0.72453874E-03
  0.14474069E-03 -0.14375388E-02 -0.73003867E-04
  0.13772458E-02  0.21738142E-03 -0.59532648E-03
 -0.11958121E-02  0.17847356E-02 -0.13354822E-03
  0.13337975E-02  0.23425861E-02 -0.20719234E-02
 -0.93808800E-03 -0.13746349E-02 -0.63458470E-03
  0.12044797E-02  0.13844842E-02 -0.21272940E-02
  0.52024860E-03 -0.96436030E-03  0.51206579E-03
 -0.28516424E-02 -0.13889466E-03 -0.12873413E-02
  0.14183855E-02  0.10429564E-02 -0.81818882E-03
  0.11071004E-02 -0.23729262E-02  0.30022072E-02
 -0.57571141E-03 -0.25403161E-02  0.19195912E-02
 -0.13899017E-03 -0.10327242E-02 -0.14459321E-02
  0.15570199E-02  0.10102157E-02  0.29934164E-03
 -0.42079512E-03  0.16027227E-02  0.14197139E-02
  0.83653896E-03 -0.64978483E-03 -0.46846054E-03
 -0.31919871E-02 -0.37590802E-02 -0.25156690E-03
 -0.12409973E-02 -0.14937404E-02  0.69733131E-03
 -0.98559570E-04  0.59615469E-04  0.13449077E-02
 -0.17911966E-02 -0.44233713E-03  0.12643480E-02
 -0.18989590E-02  0.65970042E-03  0.13849761E-02
  0.38352503E-03 -0.59412777E-03 -0.86601729E-03
 -0.25787346E-02  0.13932071E-02 -0.19878799E-02
  0.10728924E-02 -0.25720263E-02  0.39928553E-03
  0.55294144E-03 -0.16694611E-02 -0.12962305E-02
  0.12179594E-02 -0.16815367E-02 -0.34061905E-03
 -0.19135920E-02 -0.11918146E-02  0.16309376E-02
 -0.34723537E-02 -0.29530717E-02 -0.59961687E-03
  0.74165854E-03  0.82016396E-03 -0.10130092E-02
 -0.39430982E-04  0.12565092E-02  0.21681526E-03
 -0.78215777E-03  0.10398452E-02 -0.29800520E-03
  0.83843882E-03  0.10968916E-02 -0.10910788E-02
 -0.18653511E-03  0.15834227E-03 -0.51563150E-03
  0.95150601E-03  0.93490446E-03  0.14009327E-02
 -0.12580536E-02  0.39471549E-03 -0.14753617E-02
  0.85308211E-03  0.15670749E-02  0.92664908E-03
 -0.11886961E-02 -0.73789437E-03  0.19677101E-02
  0.71594272E-03 -0.22625946E-03 -0.21662201E-04
  0.64824285E-03 -0.16084391E-02 -0.38776256E-03
  0.15351962E-02 -0.35584016E-03  0.18796940E-03
  0.68005668E-03 -0.21141890E-03 -0.12428353E-02
  0.11480100E-02 -0.83411441E-03  0.24148753E-02
  0.20594585E-02 -0.27791106E-02  0.19289826E-02
 -0.20690125E-02  0.13720668E-02  0.25895005E-02
 -0.32024323E-02  0.30727978E-02 -0.23580652E-03
  0.19694304E-02 -0.58095445E-03 -0.21835994E-02
 -0.33890917E-02 -0.14928964E-02  0.44754735E-03
 -0.80717726E-03  0.85275408E-03  0.54469350E-03
 -0.85909916E-03  0.94786599E-03  0.11546463E-02
  0.12433728E-02 -0.17674820E-05 -0.78985900E-03
 -0.85175135E-03  0.10958996E-02 -0.12964580E-02
  0.13052966E-03 -0.16421172E-02 -0.34499199E-02
 -0.33883612E-03 -0.16469683E-02 -0.29487817E-02
 -0.25149821E-02  0.79429325E-03 -0.99821073E-03
 -0.82719602E-03 -0.49205766E-03 -0.26144610E-03
  0.48114506E-03 -0.11708199E-02  0.50982702E-03
  0.37715668E-02 -0.49072476E-03 -0.11084399E-03
 -0.17179303E-02 -0.27750390E-02  0.26475423E-02
  0.10380916E-02  0.98087242E-04  0.58820447E-03
  0.13965479E-02 -0.10159490E-02  0.10281863E-02
 -0.88131539E-05  0.19189658E-02 -0.45261222E-03
  0.40025881E-03  0.19222036E-03 -0.69196563E-03
  0.11652615E-03 -0.12590947E-02  0.21714635E-02
  0.78147491E-03 -0.55284671E-03 -0.11857477E-02
 -0.17017545E-02  0.15370199E-02  0.78179016E-03
  0.10808109E-02  0.99410662E-03  0.11089621E-03
  0.89366585E-03  0.83513174E-03 -0.11460935E-02
  0.22223839E-03  0.49970540E-05  0.30397579E-04
 -0.25820762E-02  0.87850489E-03 -0.96501680E-03
 -0.14654601E-03  0.10664533E-03  0.14096226E-02
  0.18419415E-03  0.22683564E-02  0.94140375E-03
  0.57266876E-04  0.28380236E-04 -0.11212153E-02
 -0.71855300E-04  0.14447873E-02  0.18190617E-02
  0.10326275E-02  0.31350194E-02 -0.25599176E-02
  0.12101039E-02 -0.51829944E-03  0.13300147E-02
  0.10003225E-02  0.15491677E-02 -0.16742191E-02
 -0.20304864E-02 -0.76359203E-03  0.19319537E-02
  0.19697176E-03  0.16859557E-02  0.17253086E-02
 -0.16792740E-02  0.35362519E-03  0.21930885E-04
  0.60439823E-04  0.32584394E-02 -0.11315981E-03
  0.48817034E-03 -0.50423553E-03  0.65873509E-03
  0.94003904E-03 -0.21671309E-02  0.32877929E-04
 -0.68973818E-03  0.27782345E-02  0.52559887E-03
 -0.17650924E-02  0.11179947E-03 -0.32484857E-03
 -0.34350467E-02  0.24723502E-03 -0.14580327E-02
 -0.35588898E-02  0.46554908E-05 -0.11934888E-03
 -0.89340871E-03 -0.18673973E-03 -0.21844494E-02
 -0.10219588E-02 -0.42005437E-03  0.17682024E-02
  0.72192098E-03  0.86346138E-03 -0.11648722E-02
 -0.34610594E-03 -0.10841159E-02 -0.21583215E-03
 -0.23098957E-02 -0.29310514E-02  0.95973058E-03
 -0.24619894E-02  0.11701452E-02  0.52811945E-03
 -0.24375996E-02  0.21098802E-02 -0.52294258E-03
  0.36736646E-03  0.22524366E-03  0.11744194E-02
 -0.11298542E-02 -0.37653005E-03  0.59154261E-03
  0.26114045E-03  0.40004620E-03 -0.74027453E-03
 -0.90182490E-03  0.27443740E-03  0.14833847E-02
 -0.12316977E-02  0.13716489E-02 -0.61842003E-03
  0.56310855E-03 -0.55856661E-03  0.39804717E-03
  0.12694085E-02  0.12978585E-02 -0.35581388E-03
  0.30819392E-02  0.94158015E-03  0.53945663E-03
 -0.13602830E-02 -0.18167292E-02 -0.51803867E-03
  0.13675009E-02 -0.13890888E-02  0.26208562E-03
  0.24358858E-02 -0.17980412E-02  0.47655693E-03
  0.80356669E-03  0.11673034E-02  0.29814033E-03
 -0.47882910E-03  0.19417780E-02  0.23994884E-03
  0.22968816E-03  0.34694392E-03  0.50133972E-03
  0.10370549E-02  0.10942677E-03  0.25833818E-02
 -0.24618977E-02  0.15944115E-03 -0.21380494E-03
  0.79190894E-03 -0.37473652E-03  0.16399733E-02
  0.20630925E-02  0.22390438E-02  0.28137264E-02
  0.11245951E-02  0.35102604E-02  0.68849142E-03
 -0.79598202E-03  0.26166449E-02 -0.95885734E-03
 -0.99450905E-03 -0.98371408E-03 -0.75666324E-03
 
           1
   3.00000000000000     
  0.10000000E+01  0.00000000E+00  0.00000000E+00  0.00000000E+00
  0.60919760E+00  0.72520130E+00  0.99076793E+00
  0.13409835E+00  0.18108111E+00  0.75964198E-01
  0.42963798E+00  0.80694806E+00  0.88787283E+00
  0.27892047E+00  0.62468960E+00  0.94453271E+00
  0.80098862E-01  0.54527341E+00  0.75379368E-01
  0.73639926E+00  0.64325000E+00  0.74239674E+00
  0.94943760E+00  0.26618273E+00  0.85339273E+00
  0.92109317E+00  0.13724251E+00  0.30316093E+00
  0.23229989E+00  0.17305671E+00  0.65780374E+00
  0.67981215E+00  0.36214102E-01  0.27287499E+00
  0.52046328E+00  0.69554213E+00  0.32489015E+00
  0.62990924E+00  0.83127366E+00  0.18609391E+00
  0.89349929E+00  0.41407181E+00  0.86714516E-01
  0.44830739E+00  0.72905287E+00  0.66023414E+00
  0.22941658E-01  0.99745522E+00  0.14658595E+00
  0.17425452E+00  0.78310254E+00  0.15958374E+00
  0.16507784E-01  0.93900795E+00  0.34349785E-03
  0.78497088E+00  0.40846423E+00  0.76944530E+00
  0.46261096E+00  0.88079823E+00  0.36806692E+00
  0.45232669E+00  0.55566178E+00  0.15746105E+00
  0.48012191E+00  0.55496311E+00  0.90348776E+00
  0.67947059E+00  0.28978169E+00  0.63488649E+00
  0.59135124E+00  0.25766014E+00  0.81322935E+00
  0.44537867E+00  0.14547953E-01  0.95203062E+00
  0.98402949E-01  0.82112738E+00  0.79545462E+00
  0.39277835E+00  0.34351927E-01  0.22588182E+00
  0.59968046E+00  0.62686464E+00  0.61623797E+00
  0.33818947E+00  0.79208143E+00  0.73467345E+00
  0.89714155E-01  0.13885600E+00  0.85192096E+00
  0.94212613E+00  0.96627732E+00  0.75486632E+00
  0.60773952E+00  0.47892598E-01  0.58553428E+00
  0.32788566E+00  0.12739336E+00  0.50686983E-01
  0.43808127E-01  0.73608971E+00  0.34482078E-02
  0.66319524E+00  0.95684254E+00  0.42563796E+00
  0.22708381E+00  0.37680386E+00  0.19209936E+00
  0.41754698E+00  0.49852007E+00  0.54544115E+00
  0.63609715E+00  0.10279149E+00  0.95828987E+00
  0.25040375E+00  0.59495785E+00  0.50949494E+00
  0.35261690E+00  0.50485331E+00  0.34595221E+00
  0.40504467E+00  0.18608403E+00  0.54882936E+00
  0.77704816E+00  0.26561153E+00  0.97924405E+00
  0.68500565E+00  0.44919607E+00  0.39321118E+00
  0.19644319E+00  0.75850703E+00  0.32964743E+00
  0.90347089E+00  0.38575286E+00  0.32778233E+00
  0.30850708E+00  0.98573207E+00  0.79723402E+00
  0.26147513E+00  0.54218908E+00  0.71594152E+00
  0.26626928E+00  0.19136868E+00  0.33648038E+00
  0.10672102E+00  0.73172393E+00  0.51597579E+00
  0.81959058E+00  0.72735315E+00  0.41827620E+00
  0.96360470E+00  0.98925348E-01  0.48634022E+00
  0.44716497E+00  0.81295451E+00  0.15373359E+00
  0.28591981E+00  0.15347306E+00  0.83928495E+00
  0.85016769E+00  0.10267818E+00  0.68197995E+00
  0.39958048E+00  0.35021041E+00  0.21638209E-01
  0.60938630E+00  0.40472549E+00  0.16835151E+00
  0.72805577E+00  0.99428842E+00  0.92205042E+00
  0.14198522E+00  0.52822921E-01  0.32340015E+00
  0.46067636E+00  0.23694377E+00  0.72800210E+00
  0.59719633E+00  0.73218573E+00  0.50989076E+00
  0.70552717E+00  0.56904181E+00  0.92615212E+00
  0.97629271E+00  0.49544985E+00  0.87300216E+00
  0.77377691E+00  0.83712747E+00  0.61251885E+00
  0.18457089E+00  0.97608885E+00  0.11901882E+00
  0.45028634E+00  0.92485009E+00  0.59905235E+00
  0.23683082E+00  0.29989287E+00  0.89947783E+00
  0.15646994E+00  0.36378894E+00  0.60377473E+00
  0.70995137E+00  0.65863316E+00  0.32984067E+00
  0.88037591E+00  0.62111854E+00  0.20843202E+00
  0.47064993E+00  0.30659112E+00  0.27710849E+00
  0.95224998E+00  0.76120508E+00  0.69075980E+00
  0.13852627E+00  0.94911239E+00  0.48558361E+00
  0.87360474E+00  0.51570041E+00  0.58554697E+00
  0.88491916E-01  0.62531584E+00  0.68268492E+00
  0.67272783E-01  0.24495788E+00  0.56739342E+00
  0.30223605E+00  0.82370238E+00  0.99544241E+00
  0.68834859E+00  0.57347254E+00  0.12613538E+00
  0.72592484E+00  0.25808533E+00  0.18882524E+00
  0.85630832E+00  0.15618516E+00  0.55540463E-01
  0.11988366E+00  0.24265567E+00  0.32383951E+00
  0.99434739E+00  0.30557336E+00  0.11235146E+00
  0.82362005E+00  0.86853623E+00  0.38359271E+00
  0.52694427E+00  0.68545741E+00  0.83744696E+00
  0.58681411E+00  0.75222599E+00  0.71003089E+00
  0.83292693E-01  0.34676112E+00  0.22042638E+00
  0.87995033E+00  0.94508783E+00  0.58452761E+00
  0.77599354E+00  0.89468198E+00  0.24143502E+00
  0.23439613E+00  0.80978248E+00  0.47358683E+00
  0.92474274E+00  0.64284450E+00  0.35309800E+00
  0.62078878E+00  0.79515135E+00  0.36916918E+00
  0.86383467E+00  0.19672745E-01  0.97333806E+00
  0.63875081E-02  0.77878654E+00  0.32309250E+00
  0.26718231E+00  0.28419412E+00  0.51337932E-01
  0.98532413E+00  0.23643571E+00  0.40306525E+00
  0.93074006E+00  0.81827753E+00  0.93387258E+00
  0.51323363E+00  0.18572281E+00  0.35340688E+00
  0.29078072E+00  0.27016018E+00  0.46813928E+00
  0.38855555E+00  0.50607685E+00  0.33799411E-01
  0.64301173E+00  0.31602851E+00  0.29493441E+00
  0.44139556E+00  0.78658667E+00  0.52142141E+00
  0.45869637E+00  0.57579445E+00  0.67206535E+00
  0.31810016E+00  0.72132871E+00  0.10106445E+00
  0.58859404E+00  0.58510082E+00  0.38995820E+00
  0.34128543E+00  0.95347310E+00  0.61009491E-01
  0.72607504E+00  0.70487467E+00  0.88606264E+00
  0.37912625E+00  0.75816676E+00  0.30020981E+00
  0.24573718E+00  0.90137829E+00  0.66508522E+00
  0.85233872E-01  0.65959950E+00  0.18142917E+00
  0.11494828E+00  0.62204985E+00  0.94783881E+00
  0.67105264E+00  0.50357140E+00  0.80257074E+00
  0.66062213E+00  0.59956735E-01  0.72775134E+00
  0.69052997E+00  0.30511575E+00  0.48561102E+00
  0.38545335E+00  0.33974847E+00  0.65159990E+00
  0.99208545E+00  0.20473623E+00  0.76617060E-02
  0.55113090E+00  0.90101231E+00  0.91116697E+00
  0.20170664E+00  0.45193551E+00  0.91823734E+00
  0.82071459E+00  0.37561581E-01  0.48225594E+00
  0.23891301E+00  0.78306580E+00  0.84114270E+00
  0.81261322E+00  0.52212593E+00  0.43780139E+00
  0.20951977E-01  0.10042216E+00  0.62254074E+00
  0.26948429E+00  0.46232629E+00  0.56662781E+00
  0.88097830E+00  0.25850059E+00  0.21410829E+00
  0.25142460E+00  0.95108837E-01  0.19349699E+00
  0.97541639E+00  0.89001537E-02  0.36507308E+00
  0.66135899E-01  0.41653158E+00  0.98178578E+00
  0.62323261E+00  0.25543361E+00  0.96360057E+00
  0.37111845E+00  0.11908636E+00  0.70326340E+00
  0.96138158E+00  0.66344643E+00  0.57784669E+00
  0.88590703E+00  0.53922489E+00  0.74384029E+00
  0.39120551E+00  0.37060269E+00  0.40928619E+00
  0.83470510E+00  0.36189829E+00  0.63089256E+00
  0.64008865E+00  0.89196391E+00  0.56972365E+00
  0.38937832E+00  0.99262799E-01  0.37405434E+00
  0.99695194E+00  0.82653195E+00  0.46191804E+00
  0.21902397E+00  0.52322546E+00  0.14760831E+00
  0.81836327E+00  0.28627772E+00  0.42621436E+00
  0.88205797E+00  0.56570273E-01  0.17668750E+00
  0.38645381E+00  0.61264646E+00  0.45381606E+00
  0.19890148E+00  0.15021262E+00  0.51119947E+00
  0.53513399E+00  0.95486667E+00  0.25398929E+00
  0.86908969E+00  0.38221560E+00  0.90018166E+00
  0.72433435E+00  0.94343015E+00  0.77454442E+00
  0.57470346E-01  0.14141098E+00  0.20897728E+00
  0.95747629E+00  0.73622571E+00  0.13382373E+00
  0.97039352E+00  0.39001465E+00  0.52530492E+00
  0.69366942E+00  0.49932578E+00  0.56173410E+00
  0.44836020E-01  0.87080284E+00  0.66337356E+00
  0.54895403E+00  0.67322308E+00  0.17073023E+00
  0.11062689E+00  0.50284144E+00  0.78017200E+00
  0.66179067E+00  0.89774122E+00  0.16237710E-01
  0.49156109E+00  0.46547246E+00  0.27259676E+00
  0.14245013E+00  0.84636305E+00  0.24206908E-01
  0.42494075E+00  0.69134143E+00  0.98745736E+00
  0.39696112E+00  0.32442545E+00  0.87134417E+00
  0.44644128E+00  0.90469128E+00  0.74955075E+00