AIST                                    
   1.01000000000000     
    21.7666543877800116    0.0000000000000000    0.0000000000000000
     0.0000000000000000   21.7670216467637587    0.0000000000000000
     0.0000000000000000    0.0000000000000000   21.7613986770381906
   Ag   In   Sb   Te
    15    15   180    90
Direct
  0.7040534925668945  0.4838430403991461  0.5292386947358310
  0.9141377540682527  0.4261448106115291  0.7691447119022200
  0.2616516309417028  0.5244088930372750  0.4891772059322919
  0.0763885161625993  0.7886516076320310  0.9414970297278747
  0.5294620038071132  0.4222438167883065  0.1034690804182217
  0.1996348566000906  0.3672929342965023  0.1328578221816135
  0.7224453561457518  0.6864631183131032  0.7892436382544297
  0.5902392271969755  0.1825685308573747  0.7865405227455968
  0.0907445836530537  0.7920318648614462  0.5202395877797229
  0.1420382670539512  0.9490262886059956  0.2194733418266729
  0.9121105369338836  0.6411426635670703  0.3402016641399168
  0.3297999658820884  0.5173513775629450  0.6066936426101566
  0.7141415813527290  0.3803104476917750  0.6246349929179210
  0.0067321189579374  0.7291855022949356  0.7951388830586298
  0.2773163298573331  0.7848051413029941  0.4406599382890278
  0.6711724003270684  0.9406741608229934  0.9242062092217797
  0.2160229387426508  0.0493386152396092  0.6924077750795072
  0.6684234010966376  0.8577817177118481  0.3048225639296711
  0.4132309911357540  0.9816139489173603  0.6371185607257895
  0.9183330256842587  0.8167028283714080  0.6109229123654867
  0.3834611521596051  0.4799871308111883  0.0563825212797560
  0.3379055159492073  0.1266810524570309  0.5230544995686379
  0.1692406040096668  0.1587530288117335  0.1757997471468173
  0.6579557917583544  0.5982786843535917  0.0648566868341780
  0.7704294601188186  0.1620726120443570  0.7140126708976438
  0.5899302806475774  0.6767644822985552  0.9329352114492182
  0.0302665325091567  0.3881446006942295  0.8523925938670773
  0.6566541385251994  0.6032467828823359  0.4902731675052777
  0.1258771749269220  0.7668392881833025  0.3287173494911801
  0.4523442033856976  0.9440431027570090  0.8245694885146764
  0.4532672870184508  0.3168251340972537  0.7892566900302015
  0.8250956849922476  0.9641183422324916  0.7890606643118657
  0.8562049415688071 -0.0017897462688408  0.6622292863114922
  0.6761022894290087  0.4253409398400295  0.9835984550390824
  0.4597690008759660  0.1519499675269745  0.8313712764975548
  0.6570988932180634  0.1456079215673496  0.3142121597139875
  0.0023547556459040  0.0317256602498897  0.2903784464923183
  0.8616735806896825  0.2597776135512781  0.2484286546533273
  0.1106679391589186  0.9000058035272474  0.8053613997932459
  0.5944987465022720  0.5704439227111553  0.8560355781638141
  0.5727898747315774  0.8152313323895216  0.7547291419193992
  0.5148700685490393  0.5658300007463929  0.6460598707028755
  0.2722775331507116  0.6608987144978363  0.2575647739938152
  0.0845275161233639  0.1456939913749439  0.7517350880573364
  0.4291333859496936  0.2142882227130977  0.4378622825237577
  0.5510777434968552  0.1048811718553275  0.3849201497895196
  0.5230664056815596  0.7132174787431994  0.0446979639646270
  0.8858622127889421  0.5976094327506862  0.6957784227900558
  0.5698924612328122  0.0861150163291671  0.8739404220793625
  0.2109974444111714  0.2494392440559654  0.7077350776478892
  0.6012526119426008  0.2735597884127037  0.3459082746786000
  0.8188195080338782  0.9548520517161927  0.0445359122693006
  0.6480806161267878  0.2944869766263293  0.0017663892077696
  0.6326378349452866  0.5056957874023621  0.6353935113550407
  0.9487575411856842  0.5824206594067026  0.9192674687147171
  0.5898514819734761  0.1420070245458805  0.9933906027653620
  0.0789896072552206  0.6623346746883507  0.4663190087853176
  0.1584999819958885  0.4263199033178954  0.7208543804349706
  0.6985518922443534  0.9419272638625195  0.1017923949819599
  0.1503241660525378  0.4388666660794137  0.8537831089154752
  0.4800924845767796  0.1396135704829579  0.6940040480667675
  0.8093890583880587  0.4181119364109290  0.9609990888683404
  0.1707164093768793  0.0650291911924721  0.8141131618701005
  0.3934446777766828  0.9410688349201903  0.1190238439280557
  0.1771125459226772  0.2887712721448435  0.5052862236955886
  0.4321641745688563  0.5660817126010200  0.2052017372763031
  0.2750955662478308  0.3639994948162099  0.7225816606344070
  0.9899705520219523  0.6228472056895701  0.1007793727382874
  0.0485602260783285  0.0143498778633296  0.8962903387956032
  0.2473749279151130  0.5186948647352836  0.1151600910527748
  0.0504848616549364  0.5152971115025911  0.6567504400668510
  0.0845501357187022  0.0100048044221611  0.4456442100109155
  0.2654080125725132  0.2338422018831926  0.5858566271774203
  0.8392597400133488  0.0912900039029642  0.8962917325180132
  0.9618717141723198  0.7550290754536774  0.2869303335828068
  0.2862973399477848  0.0634760213727399  0.2338223167252256
  0.2230317675359142  0.0099256156700428  0.9551439736020573
  0.8536639218240821  0.7337799277762567  0.0028401243447648
  0.2620752059971142  0.9796383204147368  0.0783244412953783
  0.4882396321512414  0.2349602414887702  0.1255636034903950
  0.6012993045758351  0.7670426785696969  0.1369505106400778
  0.8200681570972536  0.6170945814567808  0.8282827132955045
  0.4267866491016199  0.7892659167245396  0.7134476090624484
  0.2292333208083704  0.5366203616641079  0.7025512504060342
  0.6098687268867088  0.6914382225047210  0.7298874428567973
  0.3830825014920188  0.9862593248893227  0.3966786390579167
  0.9835513969657437  0.8674940337506850  0.8441257022666688
  0.6628340955478986  0.4555600897754846  0.2791811620997042
  0.9798696185172920  0.0723570704494708  0.7967874382868152
  0.9450293417047172  0.5530593555920646  0.5804810324856263
  0.4677990772797224  0.7900666364022458  0.3892103586298526
  0.7774353057390951  0.0545658398116049  0.4698893541614326
  0.8456374358609592  0.8288392580007046  0.7997286727859173
  0.7643428208581339  0.5399417191275067  0.9258011561314546
  0.3800664154435398  0.6262870296853078  0.0977353123521441
  0.1096145875770058  0.4894103141851551 -0.0108096902149157
  0.5478009658238024  0.6937909576835614  0.2347264618759229
  0.0648652213926864  0.5298790434156214  0.3040536106700577
  0.5528743558859255  0.0450789017809559  0.0762438122361048
  0.4445847396429473  0.4535959494483388  0.6413456753327812
  0.3035617269154957  0.7304153124120230  0.9157366417898800
  0.7160980679505938  0.5572193507341124  0.7250916249633065
  0.5643451192923276  0.9726554567141469  0.4099108698396679
  0.8800330890573348  0.1895326952253679  0.1327665271345122
  0.0912484067463772  0.3016109209119929  0.6061197995850238
  0.7755468338769742  0.6915970601131296  0.4940888970053966
  0.5719418090673386  0.1387806196756289  0.1685427437423069
  0.2687579313702433  0.0357805766156634  0.4474545276916598
  0.3302462445645312  0.6445918493518795  0.6098878198522411
  0.9183804330625784  0.6017875509858551  0.2148826051325265
  0.8004778472889996  0.5672389408681873  0.5335267346013599
  0.1812493960203682  0.6202918575549922  0.5433194135281478
  0.5019136413880031  0.6376522285231596  0.7872147712158893
  0.4662838703727472  0.4038272650339310  0.4621769862794859
  0.3381706661722292  0.7809054566908120  0.0544384909053535
  0.5210445371031004  0.4807256658474048  0.9176836101228222
  0.7534899646095429  0.2504775957150782  0.5709841641770430
  0.3317689067174958  0.5489751477347402  0.2924706470271399
  0.2738965642642379  0.9029916785822523  0.7905313942694654
  0.7393262821054812  0.8470801218653368  0.1853912795243550
  0.3152320413754053  0.3322190546491629  0.8449135837270961
  0.5725618173286943  0.5070001500576540  0.3638630570912483
  0.2500199398122999  0.7030643900214495  0.7925648859257863
  0.8739803052039528  0.2923043898761803  0.8928642740828147
  0.4740498859208356  0.2017625663373511  0.9974348123798624
  0.2412723060667372  0.5111009513307533  0.9831525666205142
  0.3351220655150837  0.9460871317644967  0.2777862292622768
  0.3834239393690184  0.8319347077392171  0.8303442467124967
  0.2314325660123113  0.8220953947443438  0.6924707423544407
  0.8556754910311465  0.2923855046861597  0.6444548116277893
  0.5334519667447193  0.3576391641982949  0.6061985369759320
  0.9717104961842202  0.7509403907543722  0.0666499543209414
  0.3776785950901289  0.7006819060917061  0.4371712819986351
  0.4267858968051650  0.5940533800388544  0.3721593139201292
  0.8790192827308884  0.1902108099655386  0.9789469426156756
  0.0993440603752335  0.1945076815805339  0.2884703020753782
  0.7220858508721806  0.5443326079729799  0.3595643591427268
  0.2152654169829305  0.6776355029043635  0.3765921181422754
  0.0276482671153671  0.3556628842631820  0.0316490361087353
  0.0628996984348582  0.6184794196975288  0.9784388006022736
  0.6877453853585757  0.8402603964030828  0.8179070961409924
  0.2499644408509298  0.6533255124890858  0.1110971736709598
  0.8983257814607356  0.1754482606479158  0.6876417264113520
  0.1501620688461657  0.8946831027591369  0.4652638635042077
  0.8682567980287449  0.8809418457743693  0.1756760900445446
  0.9296937315413745  0.9629994598374746  0.9233317528720570
  0.4579680740937555  0.8869080806623518  0.2765517631358683
  0.3973820717848676  0.8844382960384348 -0.0003798338761622
  0.8853864020486681  0.4195906350990977  0.2930852290861120
  0.0554752061560617  0.3077173055754165  0.2281581449095674
  0.5739386636132298  0.9929440187184753  0.5414989844346502
  0.7224058195427195  0.6450410602684511  0.2718038048496461
  0.1310627319101787  0.6215882470844291  0.6669331115404767
  0.2412813867820288  0.3781593779437807  0.0098498012940257
  0.6943322456803976  0.8152568526123750  0.0019431077995911
  0.9462338844100621  0.2207201995750365  0.8022621269857134
  0.7309581257643241  0.1718119454955796  0.4233269058638786
  0.3913226699206625  0.5216934947435169  0.9155593970505456
  0.5083692175648642  0.5901737527468864  0.5180458287057422
  0.3660439150921058  0.6719571974106638  0.7333709292730161
  0.7844981396117156  0.4424714442143029  0.1780321190888994
  0.1378279944069861  0.0389996129653848  0.1205702857664409
  0.7301029020331078  0.7383781326490672  0.1079238509928969
 -0.0251449216780938  0.4812003705577779  0.2168729475440569
  0.7965192533596951  0.3773011265413894  0.7631225373568552
  0.4072156960406085  0.2246779152502543  0.2997171221919268
  0.5520013354452010  0.2729943522138410  0.4704680690167349
  0.5271825317183305  0.3163697866251209  0.9541621674100631
  0.3385025377103750  0.3447123675126901  0.5950425650292847
  0.9049197294930958  0.7042523217216373  0.8827691737615222
  0.9460549489933856  0.1214080106290863  0.4066589091123649
  0.0906743081779296  0.4205257156880988  0.3715775064080117
  0.5107631669119158  0.7548145397363188  0.8549112319587674
  0.1550276095277261  0.1609819407598436  0.4694015941741254
  0.1918964438183283  0.3223993874112373  0.8980835436426438
  0.4210988208567109  0.7432077523777812  0.1528315358943588
  0.8735668533372931  0.4502469170712516  0.0751120594692161
  0.3856992593875119  0.1367630297282232  0.1830150789030120
  0.9198911223412551  0.3031187603450861  0.5287606420464640
  0.8111934718740448  0.8553796079418955  0.9545940749868842
  0.5118673298490105  0.8807078543863004  0.1562477709612557
  0.4379387995379089  0.6956809781896531  0.5545290726460349
  0.2605050848135940  0.9288511518794209  0.5291260935226852
  0.3225744339290212  0.3253699603827513  0.1559901303668353
  0.3208614243799766  0.1272723399886512  0.3448422851961896
  0.0716803783578149  0.7844806867774120  0.2097777630691842
  0.3216190844848081  0.0962643961920326  0.9371511254027204
  0.6152825647537775  0.3939470910939829  0.7028708423570613
  0.0036260241060354  0.0375663919403197  0.0972200114064282
  0.4817930106428389  0.4442515102314105  0.7673486272626241
  0.7285804440628446  0.0574858812092854  0.1645299415285073
  0.7727409876425521  0.6425587049473003  0.6386353726429886
  0.6732874449954752  0.2484399847840474  0.6824345808357392
  0.8241206491676992  0.0014713735799401  0.3515893683180029
  0.7059119914507854  0.3541742887362626  0.3546757395314505
  0.5735846737343809  0.9466276472488644  0.2582307493353063
  0.9721309175866270  0.9203652274301029  0.0419974535133565
  0.4503838020994449  0.2720114603400448  0.6663764902174726
  0.1666207459527733  0.1156607211912191  0.0139289573122804
  0.0023545812807114  0.6704833959390866  0.5751895760085689
  0.3994817932478813  0.5202850791451320  0.4819269411003897
  0.5762089096028188  0.2956580692476289  0.8329652353171194
  0.4619435496412240  0.4378191331534924  0.3343938897683398
  0.2301924586425841  0.1673370253481644  0.8712569335379744
  0.7758332994104207  0.8807968907766155  0.3876248679192290
  0.0436883457733608  0.2157334377162250  0.4197648062660933
  0.2242448082806214  0.8539907693998892  0.0689891635636865
  0.1008892188987908  0.7923014541620802  0.7268714029099034
  0.3155395894072625  0.2123346675203119  0.7818797775392365
  0.9767576134830033  0.9384413505316879  0.4159232635119413
  0.5398422151593675  0.8721466111895914  0.5738579775013426
  0.2155708166066531  0.6609927600933929  0.9814388459111717
  0.6950831034414872  0.9693728812395651  0.7838247465535731
  0.8889048444516836  0.7506184284061448  0.1692832910855468
  0.2369335885959888  0.4290540333883277  0.5690792060705760
  0.6182271473513103  0.4253948224367830  0.4546595530331343
  0.3648159451891557  0.4980243780875465  0.7902669092348811
  0.0201407004027105  0.2760300618638789  0.9298946669804374
  0.7777016787880834  0.2127396276082272  0.0560981293453453
  0.9845089605668120  0.9522209323961518  0.7408213953697447
  0.8064537772710558  0.7066398868153948  0.3679855973522960
  0.7459653386011400  0.0592991932185117  0.6326616031268979
  0.4618882077188667  0.0625424937967837  0.5464463160970562
  0.6145192804296363  0.5872800196767839  0.2053784880611998
  0.2230450102456407  0.5803292650902758  0.8253252872590821
  0.0107582629230646  0.3935641511619485  0.5609011011908156
  0.9253411737617281  0.3290206208233938  0.1098470742938451
  0.1294401516420898  0.0391778851706911  0.3122369828424801
  0.0960342416758723  0.6905435229100895  0.8707849217618067
  0.2259152669211559  0.2128980662105728  0.3717446257759224
 -0.0048320963858403  0.5234979980451964  0.7746422794349063
  0.2147161542079964  0.8624598426894684  0.3582085315040910
 -0.0024254460151927  0.5722607964350935  0.4084838851379353
  0.3610896408652207  0.7531457686198176  0.2708180415346191
  0.7315211947573330  0.1528476240273595  0.8444987157450931
  0.8507069043540895  0.5198603498575666  0.3690275117943873
  0.3854791776753557  0.8681988374064379  0.4558623210821671
  0.7094342078795425  0.4447796224139462  0.8351879311268056
  0.2037130713031356  0.5469560876165597  0.3803829224059896
  0.3152050745216862  0.3145917045039590  0.2870081174551069
 -0.0069384256122941  0.3258042421919942  0.7421111957140463
  0.4219840050256269  0.0589091599794604  0.0690427391776010
  0.7401248687638661  0.2968313863724502  0.2321548942971485
  0.3579453281089033  0.3230098671500108  0.4571591971026260
  0.5223945372125716  0.5303623976999045  0.0386703914029182
  0.3673367736530720  0.3520764714929324  0.0031547254961191
  0.1196561933445107  0.4804215998884180  0.1233305073306182
  0.3703031477848162  0.0511914981735221  0.8247938230675471
  0.2045087022211133  0.8515051099458739  0.8880736398386493
  0.8133437823705879  0.4784626724674689  0.6767618920037701
  0.2066579650919655  0.7476655703382948  0.5464948559925985
  0.7964260712107887  0.5756615519275814  0.1724854282741497
  0.7518979671185192  0.7910228794468813  0.7172021010701733
  0.4942197247400381  0.0750556002293544  0.2510691559298024
  0.8578948724799725  0.0554879552691684  0.1607757465936005
  0.9975701426781339  0.1428795501711899  0.2221067084288554
  0.2865885629388769  0.2027790456225824  0.1173777751594124
  0.9053679485004152  0.7332093572018100  0.5079837815595742
 -0.0050249286225107 -0.0314279757037986  0.5387078197821463
  0.0130766162471403  0.9427323711353420  0.1946301816337212
  0.4110841082437547  0.6500843719194994  0.9184591740364053
  0.5193488940503347  0.8362575056394976 -0.0024235667680516
  0.8802019568081965  0.1361869064488553  0.5154849226974734
  0.0398823285357134  0.1137356095283912  0.9780133261876175
  0.1150741659787529  0.1066193309328596  0.6320651758112186
  0.5925342348572988  0.3151359036500073  0.1206499318935909
  0.7373901128632308  0.2813840946887280  0.8656328338209645
  0.3571088871040884  0.8630564865841889  0.6297843507567685
  0.6845446288704060  0.9497742880081245  0.4600069048632570
  0.7156162537100960  0.7127343446444193  0.9189505673925975
  0.4250059399668856  0.4367633646093584  0.1782465857015191
  0.7499224920675195  0.0460024298839803  0.9808188413468496
  0.8215195198882417  0.8982841947068340  0.5900103380031931
  0.5168686591430647  0.3374354930297422  0.2705948329091630
  0.0434226320629279  0.8539024284950741  0.6218270066360163
  0.0810065815549519  0.6557403575542707  0.1922230024834764
  0.7749567420974015  0.3685588330082036  0.5153655898040524
  0.1822831353709274  0.9334599432118754  0.6348182668450134
  0.5710058356323336  0.8066324082489681  0.4703428649078417
  0.2133826106732039  0.8506297990263282  0.1963266831616981
  0.5283626964302929  0.9735082445239146  0.9262274953584450
  0.6271014586038762  0.7294015979055279  0.3339358655737097
  0.0922438601849922  0.8891620214343195  0.0087275852272896
  0.5148746433754212  0.9851733586324581  0.7176578274743317
  0.7085876086852894  0.0184914096136338  0.2888669471966886
  0.0093717246485119  0.2102150877740671  0.5595700252663052
  0.8412672500013212  0.1583140405186762  0.3301310171107286
  0.8639889012406352  0.5864539903094855  0.0202807607440418
  0.9794367269746574  0.3541489470555959  0.3603696283492501
  0.3338135831250640  0.0865328547395923  0.6582164613096756
  0.1604638819983211  0.3716674952345127  0.2700691280776263
  0.6716407856515954  0.4576145788941177  0.1112411161440908
  0.8936219226497728  0.8664818480224632  0.3035460302891431
  0.9600335294732505  0.4434812771852908  0.9528978405247749
  0.6109294014328438  0.6852639626144398  0.6007969860438691
  0.6109022448346998  0.1571374179740660  0.4966814406988422
  0.6110305964178743  0.1294796548368020  0.6747416203372872
  0.1119471967987535  0.2687450013310618  0.1161068146445657
  0.0217424532230729  0.8097937767608079  0.4103881047246081
  0.9123564490348575  0.7361080559649312  0.7155418802577359
 
  0.00000000E+00  0.00000000E+00  0.00000000E+00
  0.00000000E+00  0.00000000E+00  0.00000000E+00
  0.00000000E+00  0.00000000E+00  0.00000000E+00
  0.00000000E+00  0.00000000E+00  0.00000000E+00
  0.00000000E+00  0.00000000E+00  0.00000000E+00
  0.00000000E+00  0.00000000E+00  0.00000000E+00
  0.00000000E+00  0.00000000E+00  0.00000000E+00
  0.00000000E+00  0.00000000E+00  0.00000000E+00
  0.00000000E+00  0.00000000E+00  0.00000000E+00
  0.00000000E+00  0.00000000E+00  0.00000000E+00
  0.00000000E+00  0.00000000E+00  0.00000000E+00
  0.00000000E+00  0.00000000E+00  0.00000000E+00
  0.00000000E+00  0.00000000E+00  0.00000000E+00
  0.00000000E+00  0.00000000E+00  0.00000000E+00
  0.00000000E+00  0.00000000E+00  0.00000000E+00
  0.00000000E+00  0.00000000E+00  0.00000000E+00
  0.00000000E+00  0.00000000E+00  0.00000000E+00
  0.00000000E+00  0.00000000E+00  0.00000000E+00
  0.00000000E+00  0.00000000E+00  0.00000000E+00
  0.00000000E+00  0.00000000E+00  0.00000000E+00
  0.00000000E+00  0.00000000E+00  0.00000000E+00
  0.00000000E+00  0.00000000E+00  0.00000000E+00
  0.00000000E+00  0.00000000E+00  0.00000000E+00
  0.00000000E+00  0.00000000E+00  0.00000000E+00
  0.00000000E+00  0.00000000E+00  0.00000000E+00
  0.00000000E+00  0.00000000E+00  0.00000000E+00
  0.00000000E+00  0.00000000E+00  0.00000000E+00
  0.00000000E+00  0.00000000E+00  0.00000000E+00
  0.00000000E+00  0.00000000E+00  0.00000000E+00
  0.00000000E+00  0.00000000E+00  0.00000000E+00
  0.00000000E+00  0.00000000E+00  0.00000000E+00
  0.00000000E+00  0.00000000E+00  0.00000000E+00
  0.00000000E+00  0.00000000E+00  0.00000000E+00
  0.00000000E+00  0.00000000E+00  0.00000000E+00
  0.00000000E+00  0.00000000E+00  0.00000000E+00
  0.00000000E+00  0.00000000E+00  0.00000000E+00
  0.00000000E+00  0.00000000E+00  0.00000000E+00
  0.00000000E+00  0.00000000E+00  0.00000000E+00
  0.00000000E+00  0.00000000E+00  0.00000000E+00
  0.00000000E+00  0.00000000E+00  0.00000000E+00
  0.00000000E+00  0.00000000E+00  0.00000000E+00
  0.00000000E+00  0.00000000E+00  0.00000000E+00
  0.00000000E+00  0.00000000E+00  0.00000000E+00
  0.00000000E+00  0.00000000E+00  0.00000000E+00
  0.00000000E+00  0.00000000E+00  0.00000000E+00
  0.00000000E+00  0.00000000E+00  0.00000000E+00
  0.00000000E+00  0.00000000E+00  0.00000000E+00
  0.00000000E+00  0.00000000E+00  0.00000000E+00
  0.00000000E+00  0.00000000E+00  0.00000000E+00
  0.00000000E+00  0.00000000E+00  0.00000000E+00
  0.00000000E+00  0.00000000E+00  0.00000000E+00
  0.00000000E+00  0.00000000E+00  0.00000000E+00
  0.00000000E+00  0.00000000E+00  0.00000000E+00
  0.00000000E+00  0.00000000E+00  0.00000000E+00
  0.00000000E+00  0.00000000E+00  0.00000000E+00
  0.00000000E+00  0.00000000E+00  0.00000000E+00
  0.00000000E+00  0.00000000E+00  0.00000000E+00
  0.00000000E+00  0.00000000E+00  0.00000000E+00
  0.00000000E+00  0.00000000E+00  0.00000000E+00
  0.00000000E+00  0.00000000E+00  0.00000000E+00
  0.00000000E+00  0.00000000E+00  0.00000000E+00
  0.00000000E+00  0.00000000E+00  0.00000000E+00
  0.00000000E+00  0.00000000E+00  0.00000000E+00
  0.00000000E+00  0.00000000E+00  0.00000000E+00
  0.00000000E+00  0.00000000E+00  0.00000000E+00
  0.00000000E+00  0.00000000E+00  0.00000000E+00
  0.00000000E+00  0.00000000E+00  0.00000000E+00
  0.00000000E+00  0.00000000E+00  0.00000000E+00
  0.00000000E+00  0.00000000E+00  0.00000000E+00
  0.00000000E+00  0.00000000E+00  0.00000000E+00
  0.00000000E+00  0.00000000E+00  0.00000000E+00
  0.00000000E+00  0.00000000E+00  0.00000000E+00
  0.00000000E+00  0.00000000E+00  0.00000000E+00
  0.00000000E+00  0.00000000E+00  0.00000000E+00
  0.00000000E+00  0.00000000E+00  0.00000000E+00
  0.00000000E+00  0.00000000E+00  0.00000000E+00
  0.00000000E+00  0.00000000E+00  0.00000000E+00
  0.00000000E+00  0.00000000E+00  0.00000000E+00
  0.00000000E+00  0.00000000E+00  0.00000000E+00
  0.00000000E+00  0.00000000E+00  0.00000000E+00
  0.00000000E+00  0.00000000E+00  0.00000000E+00
  0.00000000E+00  0.00000000E+00  0.00000000E+00
  0.00000000E+00  0.00000000E+00  0.00000000E+00
  0.00000000E+00  0.00000000E+00  0.00000000E+00
  0.00000000E+00  0.00000000E+00  0.00000000E+00
  0.00000000E+00  0.00000000E+00  0.00000000E+00
  0.00000000E+00  0.00000000E+00  0.00000000E+00
  0.00000000E+00  0.00000000E+00  0.00000000E+00
  0.00000000E+00  0.00000000E+00  0.00000000E+00
  0.00000000E+00  0.00000000E+00  0.00000000E+00
  0.00000000E+00  0.00000000E+00  0.00000000E+00
  0.00000000E+00  0.00000000E+00  0.00000000E+00
  0.00000000E+00  0.00000000E+00  0.00000000E+00
  0.00000000E+00  0.00000000E+00  0.00000000E+00
  0.00000000E+00  0.00000000E+00  0.00000000E+00
  0.00000000E+00  0.00000000E+00  0.00000000E+00
  0.00000000E+00  0.00000000E+00  0.00000000E+00
  0.00000000E+00  0.00000000E+00  0.00000000E+00
  0.00000000E+00  0.00000000E+00  0.00000000E+00
  0.00000000E+00  0.00000000E+00  0.00000000E+00
  0.00000000E+00  0.00000000E+00  0.00000000E+00
  0.00000000E+00  0.00000000E+00  0.00000000E+00
  0.00000000E+00  0.00000000E+00  0.00000000E+00
  0.00000000E+00  0.00000000E+00  0.00000000E+00
  0.00000000E+00  0.00000000E+00  0.00000000E+00
  0.00000000E+00  0.00000000E+00  0.00000000E+00
  0.00000000E+00  0.00000000E+00  0.00000000E+00
  0.00000000E+00  0.00000000E+00  0.00000000E+00
  0.00000000E+00  0.00000000E+00  0.00000000E+00
  0.00000000E+00  0.00000000E+00  0.00000000E+00
  0.00000000E+00  0.00000000E+00  0.00000000E+00
  0.00000000E+00  0.00000000E+00  0.00000000E+00
  0.00000000E+00  0.00000000E+00  0.00000000E+00
  0.00000000E+00  0.00000000E+00  0.00000000E+00
  0.00000000E+00  0.00000000E+00  0.00000000E+00
  0.00000000E+00  0.00000000E+00  0.00000000E+00
  0.00000000E+00  0.00000000E+00  0.00000000E+00
  0.00000000E+00  0.00000000E+00  0.00000000E+00
  0.00000000E+00  0.00000000E+00  0.00000000E+00
  0.00000000E+00  0.00000000E+00  0.00000000E+00
  0.00000000E+00  0.00000000E+00  0.00000000E+00
  0.00000000E+00  0.00000000E+00  0.00000000E+00
  0.00000000E+00  0.00000000E+00  0.00000000E+00
  0.00000000E+00  0.00000000E+00  0.00000000E+00
  0.00000000E+00  0.00000000E+00  0.00000000E+00
  0.00000000E+00  0.00000000E+00  0.00000000E+00
  0.00000000E+00  0.00000000E+00  0.00000000E+00
  0.00000000E+00  0.00000000E+00  0.00000000E+00
  0.00000000E+00  0.00000000E+00  0.00000000E+00
  0.00000000E+00  0.00000000E+00  0.00000000E+00
  0.00000000E+00  0.00000000E+00  0.00000000E+00
  0.00000000E+00  0.00000000E+00  0.00000000E+00
  0.00000000E+00  0.00000000E+00  0.00000000E+00
  0.00000000E+00  0.00000000E+00  0.00000000E+00
  0.00000000E+00  0.00000000E+00  0.00000000E+00
  0.00000000E+00  0.00000000E+00  0.00000000E+00
  0.00000000E+00  0.00000000E+00  0.00000000E+00
  0.00000000E+00  0.00000000E+00  0.00000000E+00
  0.00000000E+00  0.00000000E+00  0.00000000E+00
  0.00000000E+00  0.00000000E+00  0.00000000E+00
  0.00000000E+00  0.00000000E+00  0.00000000E+00
  0.00000000E+00  0.00000000E+00  0.00000000E+00
  0.00000000E+00  0.00000000E+00  0.00000000E+00
  0.00000000E+00  0.00000000E+00  0.00000000E+00
  0.00000000E+00  0.00000000E+00  0.00000000E+00
  0.00000000E+00  0.00000000E+00  0.00000000E+00
  0.00000000E+00  0.00000000E+00  0.00000000E+00
  0.00000000E+00  0.00000000E+00  0.00000000E+00
  0.00000000E+00  0.00000000E+00  0.00000000E+00
  0.00000000E+00  0.00000000E+00  0.00000000E+00
  0.00000000E+00  0.00000000E+00  0.00000000E+00
  0.00000000E+00  0.00000000E+00  0.00000000E+00
  0.00000000E+00  0.00000000E+00  0.00000000E+00
  0.00000000E+00  0.00000000E+00  0.00000000E+00
  0.00000000E+00  0.00000000E+00  0.00000000E+00
  0.00000000E+00  0.00000000E+00  0.00000000E+00
  0.00000000E+00  0.00000000E+00  0.00000000E+00
  0.00000000E+00  0.00000000E+00  0.00000000E+00
  0.00000000E+00  0.00000000E+00  0.00000000E+00
  0.00000000E+00  0.00000000E+00  0.00000000E+00
  0.00000000E+00  0.00000000E+00  0.00000000E+00
  0.00000000E+00  0.00000000E+00  0.00000000E+00
  0.00000000E+00  0.00000000E+00  0.00000000E+00
  0.00000000E+00  0.00000000E+00  0.00000000E+00
  0.00000000E+00  0.00000000E+00  0.00000000E+00
  0.00000000E+00  0.00000000E+00  0.00000000E+00
  0.00000000E+00  0.00000000E+00  0.00000000E+00
  0.00000000E+00  0.00000000E+00  0.00000000E+00
  0.00000000E+00  0.00000000E+00  0.00000000E+00
  0.00000000E+00  0.00000000E+00  0.00000000E+00
  0.00000000E+00  0.00000000E+00  0.00000000E+00
  0.00000000E+00  0.00000000E+00  0.00000000E+00
  0.00000000E+00  0.00000000E+00  0.00000000E+00
  0.00000000E+00  0.00000000E+00  0.00000000E+00
  0.00000000E+00  0.00000000E+00  0.00000000E+00
  0.00000000E+00  0.00000000E+00  0.00000000E+00
  0.00000000E+00  0.00000000E+00  0.00000000E+00
  0.00000000E+00  0.00000000E+00  0.00000000E+00
  0.00000000E+00  0.00000000E+00  0.00000000E+00
  0.00000000E+00  0.00000000E+00  0.00000000E+00
  0.00000000E+00  0.00000000E+00  0.00000000E+00
  0.00000000E+00  0.00000000E+00  0.00000000E+00
  0.00000000E+00  0.00000000E+00  0.00000000E+00
  0.00000000E+00  0.00000000E+00  0.00000000E+00
  0.00000000E+00  0.00000000E+00  0.00000000E+00
  0.00000000E+00  0.00000000E+00  0.00000000E+00
  0.00000000E+00  0.00000000E+00  0.00000000E+00
  0.00000000E+00  0.00000000E+00  0.00000000E+00
  0.00000000E+00  0.00000000E+00  0.00000000E+00
  0.00000000E+00  0.00000000E+00  0.00000000E+00
  0.00000000E+00  0.00000000E+00  0.00000000E+00
  0.00000000E+00  0.00000000E+00  0.00000000E+00
  0.00000000E+00  0.00000000E+00  0.00000000E+00
  0.00000000E+00  0.00000000E+00  0.00000000E+00
  0.00000000E+00  0.00000000E+00  0.00000000E+00
  0.00000000E+00  0.00000000E+00  0.00000000E+00
  0.00000000E+00  0.00000000E+00  0.00000000E+00
  0.00000000E+00  0.00000000E+00  0.00000000E+00
  0.00000000E+00  0.00000000E+00  0.00000000E+00
  0.00000000E+00  0.00000000E+00  0.00000000E+00
  0.00000000E+00  0.00000000E+00  0.00000000E+00
  0.00000000E+00  0.00000000E+00  0.00000000E+00
  0.00000000E+00  0.00000000E+00  0.00000000E+00
  0.00000000E+00  0.00000000E+00  0.00000000E+00
  0.00000000E+00  0.00000000E+00  0.00000000E+00
  0.00000000E+00  0.00000000E+00  0.00000000E+00
  0.00000000E+00  0.00000000E+00  0.00000000E+00
  0.00000000E+00  0.00000000E+00  0.00000000E+00
  0.00000000E+00  0.00000000E+00  0.00000000E+00
  0.00000000E+00  0.00000000E+00  0.00000000E+00
  0.00000000E+00  0.00000000E+00  0.00000000E+00
  0.00000000E+00  0.00000000E+00  0.00000000E+00
  0.00000000E+00  0.00000000E+00  0.00000000E+00
  0.00000000E+00  0.00000000E+00  0.00000000E+00
  0.00000000E+00  0.00000000E+00  0.00000000E+00
  0.00000000E+00  0.00000000E+00  0.00000000E+00
  0.00000000E+00  0.00000000E+00  0.00000000E+00
  0.00000000E+00  0.00000000E+00  0.00000000E+00
  0.00000000E+00  0.00000000E+00  0.00000000E+00
  0.00000000E+00  0.00000000E+00  0.00000000E+00
  0.00000000E+00  0.00000000E+00  0.00000000E+00
  0.00000000E+00  0.00000000E+00  0.00000000E+00
  0.00000000E+00  0.00000000E+00  0.00000000E+00
  0.00000000E+00  0.00000000E+00  0.00000000E+00
  0.00000000E+00  0.00000000E+00  0.00000000E+00
  0.00000000E+00  0.00000000E+00  0.00000000E+00
  0.00000000E+00  0.00000000E+00  0.00000000E+00
  0.00000000E+00  0.00000000E+00  0.00000000E+00
  0.00000000E+00  0.00000000E+00  0.00000000E+00
  0.00000000E+00  0.00000000E+00  0.00000000E+00
  0.00000000E+00  0.00000000E+00  0.00000000E+00
  0.00000000E+00  0.00000000E+00  0.00000000E+00