Sb1 Te2
1.0
   2.1787718200000001   -3.7737426200000002    0.0000000000000000
   2.1787718200000001    3.7737426200000002    0.0000000000000000
  -0.0000000000000000    0.0000000000000000    5.8175150000000002
Sb Te
1 2
direct
  -0.0000000000000000   -0.0000000000000000    0.0000000000000000 Sb
   0.6666670000000000    0.3333330000000000    0.3058414400000000 Te
   0.3333330000000000    0.6666670000000000    0.6941585600000000 Te
