Amorphous GeS                           
   1.00000000000000     
    19.6876774052841554    0.0000000000000000    0.0000000000000000
     0.0000000000000000   19.6876774052841554    0.0000000000000000
     0.0000000000000000    0.0000000000000000   19.6876774052841554
   Ge   S 
   150   150
Direct
  0.6153368940805375  0.6701913518602119  0.8138401089610541
  0.3129567491718962  0.0998749965996645  0.8645370230602555
  0.5303890270244659  0.7494644738958250  0.7432267802921788
  0.8413355267258057  0.4354154376823348  0.7830877758402985
  0.4760144448941082  0.7958558855318474  0.0005306863879036
  0.8072490111305236  0.3533893278411584  0.3103657041207488
 -0.0006664982711803  0.6847437215695056  0.6295295941254704
  0.8201977318050253  0.4786167659130041  0.4313243407517621
  0.7334521988327758  0.8462952928819584  0.4180417540881819
  0.6883727247848196  0.8180351283753400  0.2886472510523261
  0.2926189655481108  0.9735659602143903  0.6237713143071679
  0.4644328160581525  0.9052138884923014  0.3818557182456546
  0.1011808572991706  0.4486870969656162  0.1958934450166521
  0.6972578133055438  0.8269530332484434  0.9423632878491145
  0.4343324043463695  0.5253515108698980  0.1537783119615729
  0.1984114946847255  0.9413005017382734  0.2196557000991511
  0.1720697437922526  0.5247396032687170  0.4718315514014783
  0.1471389460833407  0.3649550756918407  0.8652047927786044
  0.0280705139573799  0.4857554006714694  0.7512172799247853
  0.8475355390551645  0.2459092058578563  0.8371157012886890
  0.6918948001589796  0.9759527379898341  0.5612691461431277
  0.8887695593427016  0.2270306472739509  0.4541086616623054
  0.2144118532860226  0.6459549291574195  0.9603158732259826
  0.8256949992806812  0.5200965722099047  0.1996622082835974
  0.2639249407391998  0.7801106752528832  0.1803417308824241
  0.2469871440126396  0.2431869717602453  0.9127770597267890
  0.1468591923706133  0.2095901062797034  0.3672643456928372
  0.1097889642782996  0.5364150851425452  0.6560684439414392
  0.6668969738640841  0.3875267402996191  0.2127525871233300
  0.8572460630585393  0.9488400371093312  0.4702715043082452
  0.9609203248736370  0.9428260975767917  0.9906499326008583
  0.6945754361751089  0.3295815407158655  0.8450673025647539
  0.7340948733436740  0.6444819617930752  0.0774571544734327
  0.7597187145868891  0.1266165445842531  0.6761898382287537
  0.9106282476336600  0.7583114546400980  0.5153573085808488
  0.0354158735243843  0.3340476140130618  0.9903484672932003
  0.8124661782453868  0.6130989089476195  0.5115535730339528
  0.9638030524047988  0.9717039275643710  0.6591538693632953
  0.5449798994488910  0.1830015320957716  0.6864183188291757
  0.5159593168422085  0.0699883049538939  0.3685831856686092
  0.5807917583117680  0.1350756913637067  0.0955789226619172
  0.5975273304109365  0.4997206785423124  0.6150129327328082
  0.6328914154220654  0.4344111090406844  0.4415578256063737
  0.9566392579583793  0.5947086434405624  0.2110823360599227
  0.7327266475809089  0.5363444860572870  0.9217822207547597
  0.3403287280286568  0.4311340585145059  0.4427822779359377
  0.4164593490532659  0.7454985994405740  0.3507056614648875
  0.2959486693083634  0.0879598210353328  0.1561395824656422
  0.4825536910203313  0.5616822846926397  0.3393430756795623
  0.5717556993563058  0.5361469311856468  0.1525912184981780
  0.5479547174933147  0.9416419373685343  0.7298946038970626
  0.6048232883291340  0.6679255610306146  0.6391645473228172
  0.1574877987582175  0.0802635678029020  0.9985709453801368
  0.5559716733556145  0.1981939288397031  0.4945904724651138
  0.7960886648472362  0.6921829778962547  0.2213584725263522
  0.5440635550159059  0.3400703552301031  0.6109394783586025
  0.7757129192144652  0.5831818758419129  0.7431376414725989
  0.4845115266469707  0.3726618170483639  0.2722122125350120
  0.3775039681369911  0.4382894796785477  0.8796502674495482
  0.2745519810971523  0.3960668653147476  0.2084310961544085
  0.6602553019014904  0.1637788037246174  0.2585641993007285
  0.7115424205473851  0.4215112029854691  0.0476249810697459
  0.4689034004342739  0.5674593753646924  0.4694238585846456
  0.5034921837605122  0.9709836093266829  0.5799646166298668
  0.5512714360497034  0.5297543401823457  0.8577828977271559
  0.2335301463417300  0.0035357410814190  0.3952851480748882
  0.6049182903881668  0.7560791904796660  0.1891428732992566
  0.1535912376646203  0.0238698572461286  0.7979621613620882
  0.4633856412787001  0.3411808670272274  0.7589978372039127
  0.2521220852822965  0.5994065673341161  0.7450783938044669
  0.3613532476632063  0.6658504942206986  0.0859845630797525
  0.4171167311490249  0.5862008342575465  0.9461455901204376
  0.5797448935523497  0.6071100461647078  0.0277877611891079
  0.9700756485835245  0.7899795818910943  0.7332861284363148
  0.6532237837035102  0.0000538123783294  0.0031836450011091
  0.2390190385481575  0.5863500322243764  0.2170580256703672
  0.3472086810771962  0.8962465830770282  0.4959979622546576
  0.7098302128009445  0.0290288115896747  0.8226454917618924
  0.7087283614254257  0.2808743157006707  0.5367601789335313
  0.7793800994768461  0.8185372231397635  0.0935988105946252
  0.9677353068726283  0.3316914111687284  0.6567626899163465
  0.0117141910395921  0.1620080228690512  0.7504188935756224
  0.7029711657977562  0.8562954744607337  0.7135242487140672
  0.7150408958973299  0.1672531263597939  0.9228720013607047
  0.9377122773387975  0.4291114000976075  0.0831215290318355
  0.6152910292855978  0.6658745540919798  0.4687980677686293
  0.3924062135616147  0.3674738875558624  0.0513784131516167
  0.4242622164215439  0.6061813136650176  0.6578269428212731
  0.1221056613943941  0.1807523194107507  0.8975894164336458
  0.0963211304251429  0.7922281075313642  0.5316405966343167
  0.3387470501538103  0.2853226117259328  0.7742348065731380
  0.1964852987257552  0.8453663085605534  0.3908050088414500
  0.1548552139386506  0.1240224905564484  0.5434648322379647
  0.8455898053786014  0.3063237303179224  0.6029252315235749
  0.0672613051653737  0.7759342350262416  0.9929223250741039
  0.3975422919911091  0.0993418145834205  0.5109238947043334
  0.4170956808894324  0.2253775311546059  0.9616422706607198
  0.8771566741328144  0.6380417454851494  0.6698006255101911
  0.7662566145325892  0.9726529594189879  0.2008101499715501
  0.0422728852204372  0.8930125379614889  0.1450090343789569
  0.0227827404137157  0.2973457862435968  0.1203853929663690
  0.5129218096264400  0.2251803663572401  0.8659259533505236
  0.4224680383686640  0.8489513889586707  0.1796273057604104
  0.1861839640084368  0.2114530243035769  0.2028514283938312
  0.9054385197877683  0.7410106838337831  0.8868725431741170
  0.3094984221362178  0.9253046555895800  0.0295162853164021
  0.0583807356227263  0.5208932297817793  0.9821787317942432
  0.1763450777248198  0.3373738802987249  0.3635649123696914
  0.3567826954691528  0.1689608619303384  0.3164323296913072
  0.0515549595331421  0.9742922850128856  0.4699686051066169
  0.9166065533309902  0.9625566501739516  0.2282203950598650
  0.6763156800042575  0.5836889528306837  0.2911354309556987
  0.2809030339788222  0.8009798698353798  0.5981832025132735
  0.2048088822710740  0.2905385057564817  0.0286637062903866
  0.3009731212212857  0.9187009970056328  0.7897063900572221
  0.4691098900410197  0.0917298063970041  0.9814862061644291
  0.8916123944459065  0.5369726823557593  0.8843529916361768
  0.0708428897163048  0.0560811686365857  0.2742792025234448
  0.2158080118295330  0.2719650111844741  0.5931866303611850
  0.8576211949000269  0.6110983381765165  0.3516167174806770
  0.9648678321664442  0.0941705276959740  0.0922087945611091
  0.8312806491661273  0.9653605403218622  0.6929138579045591
  0.2172141136987839  0.6743162741758515  0.3826754125248901
  0.1185574784541117  0.8171038905728354  0.7129895678572258
  0.9651459687563800  0.1688349121113105  0.5813566646668551
  0.0587864091068294  0.7535774623052077  0.2550502740322190
  0.8194482213238614  0.0998735367742106  0.3543056101561304
  0.3312388836028516  0.4164774432829438  0.6535703328167398
  0.0959578766519907  0.3477922687421215  0.4980110887522279
  0.9825483909424222  0.0908152980820407  0.3983534177994459
  0.5915239741077329  0.9561677955151762  0.1875847306895695
  0.0642226374365717  0.6380038779774451  0.8280804827815281
  0.0989032357695777  0.5516353795281457  0.2962396468076069
  0.9243691671098098  0.6261377861276054  0.0739577693502696
  0.9807935543115178  0.4858209794906647  0.5166422271107566
  0.3490554879878870  0.7269332693308581  0.7510797480514896
  0.8754495536024804  0.2904663111317144  0.0170669065753756
  0.7928550358602243  0.1473855017189168  0.1191157196919898
  0.9718063084805011  0.4135070439764474  0.3055408887456920
  0.7512492210776945  0.4817746563917295  0.6285701007782398
  0.4997621197221468  0.0614061543838697  0.8148719813176057
  0.2479398934490897  0.1327245531086760  0.3847557397037839
  0.2563437338522827  0.7823881805610500  0.8699307949762566
  0.6714909759829557  0.2630972705067517  0.0769768497567937
  0.1139831226107881  0.9718004969193174  0.0711049835704515
  0.3300968320259681  0.5852661324801003  0.3799176561918792
  0.4189155102686807  0.9993070347049808  0.2034646291234605
  0.5661305376622703  0.8716598818452066  0.8471873109520283
  0.8654110920935013  0.9075654040291508  0.8396138983735585
  0.7205568953662721  0.1234332284034819  0.4565096642977868
  0.0229180627475614  0.7545360811410146  0.8392270105046220
  0.0480487872026066  0.2820738243881387  0.8832297937233609
  0.1009905868219812  0.4748747511953563  0.8447216054224743
  0.9155443844751087  0.6508894228641521  0.4526646398231697
  0.0848271239771353  0.1846387794333269  0.2687549781974278
  0.0209404667343242  0.0785332181640927  0.6501579435800002
  0.9064063910006458  0.1838470203576762  0.3411818876286443
  0.2649011723859656  0.0258551203859241  0.7403426819670993
  0.8921845163447250  0.8518874107885657  0.9446309273218150
  0.8637998126265226  0.5371790910697963  0.5984487169915654
  0.1697162159399778  0.3302231441091394  0.2413719284165954
  0.1159674921673513  0.6138851932630808  0.3994557629970065
  0.3118917045821240  0.1628494940099779  0.9781712237478559
  0.7404495130404092  0.4295890578429382  0.5142362470671945
  0.0301865621701298  0.5044397988876419  0.1085610478778409
  0.8949183905499387  0.3819436954870022  0.3984982640872580
  0.2738530239002207  0.6889726721223286  0.6631509615498636
  0.4118936438297301  0.0244176789998311  0.8940105908238993
  0.6969674800408817  0.6755529574273220  0.7233604224670032
  0.0525733963498195  0.2568029468772534  0.6848454379446099
  0.8585046642313033  0.7961044303474714  0.7830469718882418
  0.5713529695067323  0.2959876672790379  0.7316562437204653
  0.8523624282660722  0.0530420745820801  0.0840981184836657
  0.3507725028209269  0.8233595186760604  0.0842526095737721
  0.2962511119723052  0.3110941548766365  0.3797908398091956
  0.8897753623961024  0.0003513900145922  0.3557614586678282
  0.1872149785512300  0.7653000176321381  0.9766424426812732
  0.6024535227555431  0.5730831617396689  0.3890646196367686
  0.2108052846575153  0.3723688985843917  0.5320024263781068
  0.1852137008291495  0.7539148083508425  0.2991182975836163
  0.4555779392611460  0.4143714263054429  0.6672732463140186
  0.0890394890855211  0.6504583922534262  0.7066631201329359
  0.3519383516483117  0.8498610039214544  0.3814865713469811
  0.1340343691512839  0.1516727636055488  0.7821306001392498
  0.5195974128791691  0.0599420818609803  0.4934335747327564
  0.0732161326756043  0.6361352740499622  0.2136924162188252
  0.5038166554396558  0.6661966537395376  0.5168130879184186
  0.7363164105995916  0.9644658905276494  0.4433876026286602
  0.6773750603005178  0.6392190485868737  0.9622107628739771
  0.5498990693205856  0.5052625302201016  0.9770591760498821
  0.9784236602716829  0.5353045823349317  0.3227044508119208
  0.3484575623965976  0.0056039980210533  0.4399405721582942
  0.8349376965105170  0.1959554448385477  0.9519981050391698
  0.4652105800677792  0.8782160062946279  0.5101621758401841
  0.9561694963379229  0.3901236699934907  0.7639420521308953
  0.9566784150860753  0.5739426658877742  0.7863792106000168
  0.3232724003858027  0.2954382827369261  0.6458233608996050
  0.3761125216644877  0.0139044975075616  0.0885859051040648
  0.2215604917190653  0.0251626596555301  0.9024730810133937
  0.2076878682431910  0.6753235672366571  0.8354937335899909
  0.7443250326264906  0.8676091258756389  0.5863551176639157
  0.0417041520730517  0.5800262170586199  0.5662194571240577
  0.6133600567557453  0.3686560254186475  0.1007247754911337
  0.0774732942749131  0.8616366223599968  0.4290941105670647
  0.6630471198853707  0.5922230184317072  0.5619290028995125
  0.3687511109561789  0.5437370729118169  0.0555365148760167
  0.0733879841631687  0.8941649092774273  0.9744531976714869
  0.6553453263028495  0.1692047408042281  0.5611302466524676
  0.4403890176488074  0.4470271191566972  0.3616568861396102
  0.7883281106018829  0.3754225370405071  0.6889981856221787
  0.2600102456293477  0.1652963995113735  0.4982685550125571
  0.8638469502805640  0.1953056851092098  0.6556310544302816
  0.5007732315043851  0.6774113652930922  0.9681178523993814
  0.6736516583382519  0.9409400330180513  0.2789796790707189
  0.3097125366270235  0.4046117545673348  0.7785258192224750
  0.8204535011397694  0.7120935820043705  0.5873215323216422
  0.9655678107499887  0.0747205962799586  0.2154209403512130
  0.5156889801483395  0.8012429684483410  0.1177688408837522
  0.6934736141630234  0.1096692273257020  0.0515915745689074
  0.6636537337606955  0.9785197126270997  0.7171323926327461
  0.8188164422523881  0.0602636132138875  0.7675741126597224
  0.6660902806457460  0.5016946565602100  0.8287221070732008
  0.5822082525089539  0.8687959754284645  0.9654010317611130
  0.6118326540581666  0.3146658704271502  0.4720566425711258
  0.5753602153633893  0.4560967939699162  0.2577310800035369
  0.3405747704724362  0.8743042037262712  0.6805355240633725
  0.4032979170221908  0.0295287140579899  0.6190453675736840
  0.7797818426682699  0.3230450133300719  0.0893575119185611
  0.2054775040030756  0.4878649132193678  0.1487863834419133
  0.5858858197600308  0.6390153161560753  0.2204448294211025
  0.8513947996353479  0.8294429525393372  0.4284533144991136
  0.6561725793195234  0.2708016394610951  0.9542724104152037
  0.9315510439083275  0.2204107139600997  0.1069844851755131
  0.0388900908915677  0.4077593593279022  0.5978854493313661
  0.3977038625435558  0.1340877974599762  0.2120201733093987
  0.9081553529798648  0.6916580930586319  0.2717645401509843
  0.5419627244032397  0.0217388264076405  0.0519130115155266
  0.7135004695049917  0.4860534759019254  0.1565807086175774
  0.2428417363463115  0.6691639332925198  0.1252817418026564
  0.9684650114785697  0.6076847561637845  0.9605723826491285
  0.8338112217605645  0.7070687257266806  0.0455601920146651
  0.6750589548204632  0.7518804659054599  0.0886283559562725
  0.6847362152024100  0.9391788962029655  0.1073332543313411
  0.1472521076695677  0.0449008903096723  0.1806742246587682
  0.8130996474529368  0.3601300990897089  0.8759067654753175
  0.6284471866646957  0.1323524338404939  0.3724895280042070
  0.4706452259909295  0.8079226524581116  0.8264557362551173
  0.1446638998497679  0.3885067055971349  0.9930865790873735
  0.3323412171155336  0.6793981210560757  0.9641421630082978
  0.3517742705782123  0.3235313540149301  0.9227817012050370
  0.4413149215702061  0.7295236759997866  0.6683630851683843
  0.0198999310132488  0.9039230241313979  0.7429900548387844
  0.9746826686705381  0.4308019685313451  0.9603671983811644
  0.7935137060306818  0.8156157072747149  0.2191198972441552
  0.9997553082405255  0.9130699865184098  0.5637717124562491
  0.5842839683076282  0.8350299109461551  0.6760359590423463
  0.8059010770128298  0.6201093261510572  0.8554631882747104
  0.2855076114392223  0.3201071727674065  0.1073768118740944
  0.5863799618595031  0.0827421791301570  0.2056803194457645
  0.5405261247121791  0.5768917807482172  0.6943659804400805
  0.4493766396868465  0.1721128014702411  0.3856564081445147
  0.0788392423934917  0.4536660658952256  0.4382608517277301
  0.2104453501588111  0.9079955382590215  0.0996824451198576
  0.4820563846905859  0.2335082830694500  0.5944713958511195
  0.0792307616457185  0.1745096409717164  0.4568081521050782
  0.6839887252832626  0.8107454686182127  0.5205255641817897
  0.3567325331731562  0.5700450661840959  0.2308381809178891
  0.1244835971614739  0.2269167460938382  0.0940982486618176
  0.6550824180713506  0.7892899067731468  0.8335642671933715
  0.5632684868485025  0.1203977950267673  0.9041279361637226
  0.0265643362784779  0.9118670734627841  0.2573993829042484
  0.0819298773387809  0.7843580014708147  0.1383005638963847
  0.3722484594650565  0.6060232754243220  0.7759344148551547
  0.1901168870740917  0.8633937426791692  0.7993303948586584
  0.7636893122562571  0.0953172575366945  0.2383722548303888
  0.3015292863589179  0.0020035769009008  0.2459891232047444
  0.4919877724706687  0.4094197662518413  0.8511990724608857
  0.7441632492662077  0.4522271400341487  0.3411919857293695
  0.7454379430043456  0.6811791525925238  0.3334514791961246
  0.0540268791522181  0.0964931398162497  0.9405823002837459
  0.7324759999814495  0.2191657928772487  0.8028670188274577
  0.4501969547221111  0.1658044907156349  0.7749217342083216
  0.5252146489140060  0.4748194703776647  0.5214206214294721
  0.2512612116409930  0.4905631892446922  0.3764326191112919
  0.5147042676433884  0.8094425612036495  0.3285217211660925
  0.7961334765043071  0.0330278890336985  0.5983734927591127
  0.9035972644198945  0.1055730988142938  0.4946435283363954
  0.7671248604956618  0.2376924216863646  0.4348715245698602
  0.4220127721457872  0.4083133476707102  0.1698863135982703
  0.3543724868767398  0.5534973226753196  0.4982959895606713
  0.1719192974293058  0.8593669871942633  0.6088320104920774
  0.9352911330726070  0.8980486441668908  0.1036330714166734
  0.3406030896950621  0.2835893574653949  0.2891720853754536
  0.3759348891062771  0.7507300261153749  0.2316632874964837
  0.7507966516344931  0.9278985886489592  0.8789069756341616
  0.8804588173192481  0.4121073591867476  0.2214538161688809
  0.4512209429717479  0.2642170139248671  0.0632355862510626
  0.8555072088412790  0.5223605430530004  0.0766914541570558
  0.1671419565819763  0.0074957306371610  0.5016340572073071
  0.2076547738107710  0.7505257698622629  0.4747799200972588
 
  0.00000000E+00  0.00000000E+00  0.00000000E+00
  0.00000000E+00  0.00000000E+00  0.00000000E+00
  0.00000000E+00  0.00000000E+00  0.00000000E+00
  0.00000000E+00  0.00000000E+00  0.00000000E+00
  0.00000000E+00  0.00000000E+00  0.00000000E+00
  0.00000000E+00  0.00000000E+00  0.00000000E+00
  0.00000000E+00  0.00000000E+00  0.00000000E+00
  0.00000000E+00  0.00000000E+00  0.00000000E+00
  0.00000000E+00  0.00000000E+00  0.00000000E+00
  0.00000000E+00  0.00000000E+00  0.00000000E+00
  0.00000000E+00  0.00000000E+00  0.00000000E+00
  0.00000000E+00  0.00000000E+00  0.00000000E+00
  0.00000000E+00  0.00000000E+00  0.00000000E+00
  0.00000000E+00  0.00000000E+00  0.00000000E+00
  0.00000000E+00  0.00000000E+00  0.00000000E+00
  0.00000000E+00  0.00000000E+00  0.00000000E+00
  0.00000000E+00  0.00000000E+00  0.00000000E+00
  0.00000000E+00  0.00000000E+00  0.00000000E+00
  0.00000000E+00  0.00000000E+00  0.00000000E+00
  0.00000000E+00  0.00000000E+00  0.00000000E+00
  0.00000000E+00  0.00000000E+00  0.00000000E+00
  0.00000000E+00  0.00000000E+00  0.00000000E+00
  0.00000000E+00  0.00000000E+00  0.00000000E+00
  0.00000000E+00  0.00000000E+00  0.00000000E+00
  0.00000000E+00  0.00000000E+00  0.00000000E+00
  0.00000000E+00  0.00000000E+00  0.00000000E+00
  0.00000000E+00  0.00000000E+00  0.00000000E+00
  0.00000000E+00  0.00000000E+00  0.00000000E+00
  0.00000000E+00  0.00000000E+00  0.00000000E+00
  0.00000000E+00  0.00000000E+00  0.00000000E+00
  0.00000000E+00  0.00000000E+00  0.00000000E+00
  0.00000000E+00  0.00000000E+00  0.00000000E+00
  0.00000000E+00  0.00000000E+00  0.00000000E+00
  0.00000000E+00  0.00000000E+00  0.00000000E+00
  0.00000000E+00  0.00000000E+00  0.00000000E+00
  0.00000000E+00  0.00000000E+00  0.00000000E+00
  0.00000000E+00  0.00000000E+00  0.00000000E+00
  0.00000000E+00  0.00000000E+00  0.00000000E+00
  0.00000000E+00  0.00000000E+00  0.00000000E+00
  0.00000000E+00  0.00000000E+00  0.00000000E+00
  0.00000000E+00  0.00000000E+00  0.00000000E+00
  0.00000000E+00  0.00000000E+00  0.00000000E+00
  0.00000000E+00  0.00000000E+00  0.00000000E+00
  0.00000000E+00  0.00000000E+00  0.00000000E+00
  0.00000000E+00  0.00000000E+00  0.00000000E+00
  0.00000000E+00  0.00000000E+00  0.00000000E+00
  0.00000000E+00  0.00000000E+00  0.00000000E+00
  0.00000000E+00  0.00000000E+00  0.00000000E+00
  0.00000000E+00  0.00000000E+00  0.00000000E+00
  0.00000000E+00  0.00000000E+00  0.00000000E+00
  0.00000000E+00  0.00000000E+00  0.00000000E+00
  0.00000000E+00  0.00000000E+00  0.00000000E+00
  0.00000000E+00  0.00000000E+00  0.00000000E+00
  0.00000000E+00  0.00000000E+00  0.00000000E+00
  0.00000000E+00  0.00000000E+00  0.00000000E+00
  0.00000000E+00  0.00000000E+00  0.00000000E+00
  0.00000000E+00  0.00000000E+00  0.00000000E+00
  0.00000000E+00  0.00000000E+00  0.00000000E+00
  0.00000000E+00  0.00000000E+00  0.00000000E+00
  0.00000000E+00  0.00000000E+00  0.00000000E+00
  0.00000000E+00  0.00000000E+00  0.00000000E+00
  0.00000000E+00  0.00000000E+00  0.00000000E+00
  0.00000000E+00  0.00000000E+00  0.00000000E+00
  0.00000000E+00  0.00000000E+00  0.00000000E+00
  0.00000000E+00  0.00000000E+00  0.00000000E+00
  0.00000000E+00  0.00000000E+00  0.00000000E+00
  0.00000000E+00  0.00000000E+00  0.00000000E+00
  0.00000000E+00  0.00000000E+00  0.00000000E+00
  0.00000000E+00  0.00000000E+00  0.00000000E+00
  0.00000000E+00  0.00000000E+00  0.00000000E+00
  0.00000000E+00  0.00000000E+00  0.00000000E+00
  0.00000000E+00  0.00000000E+00  0.00000000E+00
  0.00000000E+00  0.00000000E+00  0.00000000E+00
  0.00000000E+00  0.00000000E+00  0.00000000E+00
  0.00000000E+00  0.00000000E+00  0.00000000E+00
  0.00000000E+00  0.00000000E+00  0.00000000E+00
  0.00000000E+00  0.00000000E+00  0.00000000E+00
  0.00000000E+00  0.00000000E+00  0.00000000E+00
  0.00000000E+00  0.00000000E+00  0.00000000E+00
  0.00000000E+00  0.00000000E+00  0.00000000E+00
  0.00000000E+00  0.00000000E+00  0.00000000E+00
  0.00000000E+00  0.00000000E+00  0.00000000E+00
  0.00000000E+00  0.00000000E+00  0.00000000E+00
  0.00000000E+00  0.00000000E+00  0.00000000E+00
  0.00000000E+00  0.00000000E+00  0.00000000E+00
  0.00000000E+00  0.00000000E+00  0.00000000E+00
  0.00000000E+00  0.00000000E+00  0.00000000E+00
  0.00000000E+00  0.00000000E+00  0.00000000E+00
  0.00000000E+00  0.00000000E+00  0.00000000E+00
  0.00000000E+00  0.00000000E+00  0.00000000E+00
  0.00000000E+00  0.00000000E+00  0.00000000E+00
  0.00000000E+00  0.00000000E+00  0.00000000E+00
  0.00000000E+00  0.00000000E+00  0.00000000E+00
  0.00000000E+00  0.00000000E+00  0.00000000E+00
  0.00000000E+00  0.00000000E+00  0.00000000E+00
  0.00000000E+00  0.00000000E+00  0.00000000E+00
  0.00000000E+00  0.00000000E+00  0.00000000E+00
  0.00000000E+00  0.00000000E+00  0.00000000E+00
  0.00000000E+00  0.00000000E+00  0.00000000E+00
  0.00000000E+00  0.00000000E+00  0.00000000E+00
  0.00000000E+00  0.00000000E+00  0.00000000E+00
  0.00000000E+00  0.00000000E+00  0.00000000E+00
  0.00000000E+00  0.00000000E+00  0.00000000E+00
  0.00000000E+00  0.00000000E+00  0.00000000E+00
  0.00000000E+00  0.00000000E+00  0.00000000E+00
  0.00000000E+00  0.00000000E+00  0.00000000E+00
  0.00000000E+00  0.00000000E+00  0.00000000E+00
  0.00000000E+00  0.00000000E+00  0.00000000E+00
  0.00000000E+00  0.00000000E+00  0.00000000E+00
  0.00000000E+00  0.00000000E+00  0.00000000E+00
  0.00000000E+00  0.00000000E+00  0.00000000E+00
  0.00000000E+00  0.00000000E+00  0.00000000E+00
  0.00000000E+00  0.00000000E+00  0.00000000E+00
  0.00000000E+00  0.00000000E+00  0.00000000E+00
  0.00000000E+00  0.00000000E+00  0.00000000E+00
  0.00000000E+00  0.00000000E+00  0.00000000E+00
  0.00000000E+00  0.00000000E+00  0.00000000E+00
  0.00000000E+00  0.00000000E+00  0.00000000E+00
  0.00000000E+00  0.00000000E+00  0.00000000E+00
  0.00000000E+00  0.00000000E+00  0.00000000E+00
  0.00000000E+00  0.00000000E+00  0.00000000E+00
  0.00000000E+00  0.00000000E+00  0.00000000E+00
  0.00000000E+00  0.00000000E+00  0.00000000E+00
  0.00000000E+00  0.00000000E+00  0.00000000E+00
  0.00000000E+00  0.00000000E+00  0.00000000E+00
  0.00000000E+00  0.00000000E+00  0.00000000E+00
  0.00000000E+00  0.00000000E+00  0.00000000E+00
  0.00000000E+00  0.00000000E+00  0.00000000E+00
  0.00000000E+00  0.00000000E+00  0.00000000E+00
  0.00000000E+00  0.00000000E+00  0.00000000E+00
  0.00000000E+00  0.00000000E+00  0.00000000E+00
  0.00000000E+00  0.00000000E+00  0.00000000E+00
  0.00000000E+00  0.00000000E+00  0.00000000E+00
  0.00000000E+00  0.00000000E+00  0.00000000E+00
  0.00000000E+00  0.00000000E+00  0.00000000E+00
  0.00000000E+00  0.00000000E+00  0.00000000E+00
  0.00000000E+00  0.00000000E+00  0.00000000E+00
  0.00000000E+00  0.00000000E+00  0.00000000E+00
  0.00000000E+00  0.00000000E+00  0.00000000E+00
  0.00000000E+00  0.00000000E+00  0.00000000E+00
  0.00000000E+00  0.00000000E+00  0.00000000E+00
  0.00000000E+00  0.00000000E+00  0.00000000E+00
  0.00000000E+00  0.00000000E+00  0.00000000E+00
  0.00000000E+00  0.00000000E+00  0.00000000E+00
  0.00000000E+00  0.00000000E+00  0.00000000E+00
  0.00000000E+00  0.00000000E+00  0.00000000E+00
  0.00000000E+00  0.00000000E+00  0.00000000E+00
  0.00000000E+00  0.00000000E+00  0.00000000E+00
  0.00000000E+00  0.00000000E+00  0.00000000E+00
  0.00000000E+00  0.00000000E+00  0.00000000E+00
  0.00000000E+00  0.00000000E+00  0.00000000E+00
  0.00000000E+00  0.00000000E+00  0.00000000E+00
  0.00000000E+00  0.00000000E+00  0.00000000E+00
  0.00000000E+00  0.00000000E+00  0.00000000E+00
  0.00000000E+00  0.00000000E+00  0.00000000E+00
  0.00000000E+00  0.00000000E+00  0.00000000E+00
  0.00000000E+00  0.00000000E+00  0.00000000E+00
  0.00000000E+00  0.00000000E+00  0.00000000E+00
  0.00000000E+00  0.00000000E+00  0.00000000E+00
  0.00000000E+00  0.00000000E+00  0.00000000E+00
  0.00000000E+00  0.00000000E+00  0.00000000E+00
  0.00000000E+00  0.00000000E+00  0.00000000E+00
  0.00000000E+00  0.00000000E+00  0.00000000E+00
  0.00000000E+00  0.00000000E+00  0.00000000E+00
  0.00000000E+00  0.00000000E+00  0.00000000E+00
  0.00000000E+00  0.00000000E+00  0.00000000E+00
  0.00000000E+00  0.00000000E+00  0.00000000E+00
  0.00000000E+00  0.00000000E+00  0.00000000E+00
  0.00000000E+00  0.00000000E+00  0.00000000E+00
  0.00000000E+00  0.00000000E+00  0.00000000E+00
  0.00000000E+00  0.00000000E+00  0.00000000E+00
  0.00000000E+00  0.00000000E+00  0.00000000E+00
  0.00000000E+00  0.00000000E+00  0.00000000E+00
  0.00000000E+00  0.00000000E+00  0.00000000E+00
  0.00000000E+00  0.00000000E+00  0.00000000E+00
  0.00000000E+00  0.00000000E+00  0.00000000E+00
  0.00000000E+00  0.00000000E+00  0.00000000E+00
  0.00000000E+00  0.00000000E+00  0.00000000E+00
  0.00000000E+00  0.00000000E+00  0.00000000E+00
  0.00000000E+00  0.00000000E+00  0.00000000E+00
  0.00000000E+00  0.00000000E+00  0.00000000E+00
  0.00000000E+00  0.00000000E+00  0.00000000E+00
  0.00000000E+00  0.00000000E+00  0.00000000E+00
  0.00000000E+00  0.00000000E+00  0.00000000E+00
  0.00000000E+00  0.00000000E+00  0.00000000E+00
  0.00000000E+00  0.00000000E+00  0.00000000E+00
  0.00000000E+00  0.00000000E+00  0.00000000E+00
  0.00000000E+00  0.00000000E+00  0.00000000E+00
  0.00000000E+00  0.00000000E+00  0.00000000E+00
  0.00000000E+00  0.00000000E+00  0.00000000E+00
  0.00000000E+00  0.00000000E+00  0.00000000E+00
  0.00000000E+00  0.00000000E+00  0.00000000E+00
  0.00000000E+00  0.00000000E+00  0.00000000E+00
  0.00000000E+00  0.00000000E+00  0.00000000E+00
  0.00000000E+00  0.00000000E+00  0.00000000E+00
  0.00000000E+00  0.00000000E+00  0.00000000E+00
  0.00000000E+00  0.00000000E+00  0.00000000E+00
  0.00000000E+00  0.00000000E+00  0.00000000E+00
  0.00000000E+00  0.00000000E+00  0.00000000E+00
  0.00000000E+00  0.00000000E+00  0.00000000E+00
  0.00000000E+00  0.00000000E+00  0.00000000E+00
  0.00000000E+00  0.00000000E+00  0.00000000E+00
  0.00000000E+00  0.00000000E+00  0.00000000E+00
  0.00000000E+00  0.00000000E+00  0.00000000E+00
  0.00000000E+00  0.00000000E+00  0.00000000E+00
  0.00000000E+00  0.00000000E+00  0.00000000E+00
  0.00000000E+00  0.00000000E+00  0.00000000E+00
  0.00000000E+00  0.00000000E+00  0.00000000E+00
  0.00000000E+00  0.00000000E+00  0.00000000E+00
  0.00000000E+00  0.00000000E+00  0.00000000E+00
  0.00000000E+00  0.00000000E+00  0.00000000E+00
  0.00000000E+00  0.00000000E+00  0.00000000E+00
  0.00000000E+00  0.00000000E+00  0.00000000E+00
  0.00000000E+00  0.00000000E+00  0.00000000E+00
  0.00000000E+00  0.00000000E+00  0.00000000E+00
  0.00000000E+00  0.00000000E+00  0.00000000E+00
  0.00000000E+00  0.00000000E+00  0.00000000E+00
  0.00000000E+00  0.00000000E+00  0.00000000E+00
  0.00000000E+00  0.00000000E+00  0.00000000E+00
  0.00000000E+00  0.00000000E+00  0.00000000E+00
  0.00000000E+00  0.00000000E+00  0.00000000E+00
  0.00000000E+00  0.00000000E+00  0.00000000E+00
  0.00000000E+00  0.00000000E+00  0.00000000E+00
  0.00000000E+00  0.00000000E+00  0.00000000E+00
  0.00000000E+00  0.00000000E+00  0.00000000E+00
  0.00000000E+00  0.00000000E+00  0.00000000E+00
  0.00000000E+00  0.00000000E+00  0.00000000E+00
  0.00000000E+00  0.00000000E+00  0.00000000E+00
  0.00000000E+00  0.00000000E+00  0.00000000E+00
  0.00000000E+00  0.00000000E+00  0.00000000E+00
  0.00000000E+00  0.00000000E+00  0.00000000E+00
  0.00000000E+00  0.00000000E+00  0.00000000E+00