Ge Se                                   
   1.00000000000000     
    20.8706398010253906    0.0000000000000000    0.0000000000000000
     0.0000000000000000   20.8706398010253906    0.0000000000000000
     0.0000000000000000    0.0000000000000000   20.8706398010253906
   Ge   Se
   150   150
Direct
  0.8000678744982457  0.1414354674196097  0.8512045550143634
  0.2624142151520505  0.8324026789507216  0.7995667534905077
  0.7756118307877646  0.2680070548077984  0.6591353582308672
  0.6999392481058713  0.6716330293276865  0.9197788033149715
  0.2379160647718217  0.0888997038542286  0.6876589101640920
  0.3087667513047795  0.7532404956457502  0.4608368057115781
  0.6016694910451934  0.2511068950847819  0.2592622716877683
  0.3996121749104744  0.9359488736455089  0.2671576793684747
  0.1694258749272212  0.6366532902962431  0.7023354348887677
  0.8847512617230768  0.1573825069876611  0.1567981897776685
  0.6360274961058232  0.5222751014512221  0.0545958611124208
  0.7232797783597051  0.3940782390785308  0.6566009457117395
  0.1822068857109115  0.7886202989278900  0.0988800806099520
  0.7798580601227786  0.7330146201369426  0.3142418590234659
  0.7709027162927042  0.1402772857338101  0.6683711390437035
  0.4041310601758856  0.8017912100411899 -0.0296370824703528
  0.1687038127445801  0.4659372703941221  0.6999125629648805
  0.4286875651918810  0.4367709715820244  0.2091883925347005
  0.1230749468043863  0.7913583098697595  0.7341137521675581
  0.2877143898588014  0.7459742779328815  0.5792337563100224
  0.7865398254524232  0.2645372037730315  0.2716555965161493
  0.2973787171138319  0.2346893176021688  0.5588447921863482
  0.3624998113101996  0.5313285879370134  0.9443746164421584
  0.3302898505699505  0.6056435598727625  0.7765592871753708
  0.7445326008198805  0.4577422599553898  0.9234486926040490
  0.2357898595253717  0.8626934449304060  0.4757963638577029
  0.7697518721090328  0.9885160508257436  0.2133836932019906
  0.1431196934734376  0.1676060559006649  0.7486288966518465
  0.7036425559376928  0.9855638916120376  0.7775311947918246
  0.2770016305124889  0.4489857249540285  0.2404855998594332
  0.5179319790604274  0.1555192289697795  0.7176101850956680
  0.3052589614653816  0.9758008448850570  0.7921739945626151
  0.9789460615733990  0.7253925017226613  0.4796992190614823
  0.3747073028253669  0.0815446877191312  0.4443597523022808
  0.5385341770694944  0.6795815093512356  0.3723381439522314
  0.8114729700050761  0.4985732698242497  0.1331515162418651
  0.9771254705852687  0.7944430623945815  0.2491927498597177
  0.8772374361016613  0.2819107277429165  0.7346848637651278
  0.9256798179922373  0.5463954635191547  0.5786009201459399
  0.5837880912213825  0.3730067873825307  0.1937643203708661
  0.5970870552334593  0.8298113280327317  0.8774389274429265
  0.0095355314702575  0.2124581160489733  0.8464158315677988
  0.6382674904424926  0.9705868964926972  0.5954655246813930
  0.0386287101848453  0.0681514446755350  0.2676225082570305
  0.1815939774535577  0.4140744586866185  0.0586544072517116
  0.4173284792668224  0.5805254797135185  0.1469680067821464
  0.4852854222030384  0.9442003168130417  0.8390912219132339
  0.5084708427416452  0.9416605897605796  0.4801367331740593
  0.7047796102857640  0.2681546598398275  0.9697250039419135
  0.6950358650416663  0.2600058875837377  0.0968277978498887
  0.1319177468825763  0.9697735824684743  0.0690470868868940
  0.0040622757219350  0.0064608398162965  0.4501243154431998
  0.4840224011040509  0.1718558349554127  0.4025617871775356
  0.3896293227979716  0.8437835453320968  0.4052357151986542
  0.0273094166950456  0.6231340360586424  0.9153729645659268
  0.4345682961969723  0.6752981097441136  0.0200399357915343
  0.2065237659624370  0.8473145600083180 -0.0079556195917791
  0.7585669132711579  0.1667029190301062  0.1457805576429081
  0.1489825868102783  0.1399629075560874  0.3754845019074851
  0.3031570940413721  0.0797651414775741  0.9844611797253086
  0.1722872820269283  0.0854412384128123  0.1052788623431826
  0.5023039044232307  0.7837841137494724  0.8089151278462635
  0.4328180584643817  0.4670133693360535  0.4703071187081816
  0.9013475569717475  0.7150231057979708  0.9016893549453833
  0.5806559535392343  0.5607382720506704  0.3678997509064415
  0.7095491339642641  0.5851548184230880  0.8249747207090423
  0.8212758181605466  0.6182082354349174  0.4496789407646033
  0.2073040974124897  0.7064634541418543  0.4135932785648734
  0.9361093743579915  0.0063357798610390  0.2955778909908360
  0.1530243464940625  0.5986225107295349  0.1681017800324703
  0.7685095213037748  0.3288348710724258  0.3856992640752469
  0.5997785040332179  0.2004896173626068  0.8725256100843335
  0.8636759641853483  0.6535660827763217  0.7664103050268595
  0.0372055892921354  0.5595278352651802  0.1568225599218477
  0.8026354986116846  0.0863011678409311  0.0201628050851090
  0.8438912549015154  0.5764916475538711  0.6668825290547405
  0.9100311661555912  0.2991902478990025  0.5069694479825553
  0.1664294007162787  0.2261819271790123 -0.0003793661291177
  0.8531253785049677  0.7036359574756658  0.5947348778754363
  0.0107314852184562  0.6084273070757209  0.6358140819393742
  0.4018781478934363  0.2745359060988093  0.5096906392436851
  0.7656129930946497  0.3421695197865363  0.8872198996417635
  0.2958971590636101  0.9432231548624785  0.1473341281323635
  0.1316526037510568  0.7938481415148789  0.5887498885740077
  0.7010541370295476  0.6169812007968726  0.5566600409289463
  0.6835695331521275  0.7623020829697650  0.0484678969179820
  0.7664236302449280  0.5706762841354326  0.2539798361636101
  0.1846956941809943  0.5035520491138620  0.9008952225279929
  0.0184636012054636  0.7062343346020172  0.0613398360907135
  0.9312962789501883  0.5914106250713517  0.2190694125649282
  0.4437807586463893  0.7916776015121445  0.6374592901008500
  0.6727773205801647  0.3265848705604659  0.8114147290724300
  0.5492890217715376  0.5375075282824784  0.2007465861200832
  0.5283402500591756  0.7000619987807992  0.1613352651936763
  0.7192262935787193  0.4686008754140361  0.3858470124633321
  0.3865513349986823  0.0374808710392481  0.1391944750083214
  0.9444548203456467  0.8315230913690062  0.7644480324450351
  0.8528062800883993  0.8522784756910480  0.1678351073583866
  0.9872559216964539  0.3345866441861291  0.7003373672153891
  0.1062081144208873  0.0506731762131852  0.5842260819426907
  0.8729808246450258  0.9139076781101539  0.4124893980616170
  0.1867239145531421  0.4806747174312387  0.1624825221778040
  0.8374122715354358  0.3442022536891211  0.0706262418219250
  0.8269626211891231  0.2228010769358274  0.5521432629441172
  0.0538535798234538 -0.0001607851133451  0.7409938564376176
  0.4777589709951550  0.4207007357451713  0.6220531686751964
  0.0962247653608990  0.8659851322111910  0.9318590871815744
  0.9624374202880811  0.4675841763139750  0.8196834655399153
  0.8688812163165663  0.6107338130526139  0.9622727826738610
  0.1967961432087121  0.6193275653432064  0.2817113416649492
  0.8639676642571604  0.2031498231263226  0.9837035729834337
  0.0564289600978136  0.5257243994682100  0.0391150547632204
  0.8424576233037682  0.7328408302683881  0.1008604263680670
  0.1818117646211357  0.2878752419213154  0.5795808948849392
  0.8948170114922765  0.0661719696305302  0.8951948048247140
  0.6678693326964248  0.2554445068466336  0.5551525617599226
  0.8917246796858903  0.4646735251250157  0.3792997473565157
  0.2853104460801543  0.0787801876031689  0.3012756748881315
  0.4020155552323081  0.5498354104200711  0.3264042527636106
  0.1867331542943312  0.2560509320101719  0.8229188206157552
  0.4421274027316928  0.0990499291156393  0.5486221740571093
  0.4931165728927944  0.2085066972428064  0.5536423994073355
  0.1571092511885194  0.1769157651306565  0.4923557654460530
  0.4549756540393988  0.0634847115741156  0.2804439010603441
  0.4135143776190497  0.1084434078425438  0.6665321296987277
  0.1236432897544129  0.9754625357546012  0.2815955906218260
  0.9673798966081720  0.1750795708802592  0.6471955418710313
  0.6674992447787315  0.7895227825981377  0.2288123430844490
  0.3039521527336455  0.7907249917007828  0.2389650153070201
  0.4797696152161883  0.3866765291078153  0.3533947329479551
  0.3386217801208450  0.2698615637184946  0.7808654179930293
  0.9855096125247405  0.6415210444235367  0.7484126336963025
  0.8687983233951153  0.9077106489557023  0.9003805815916402
  0.5613385926346913  0.9370498901456964  0.3669455119431907
  0.6066690570238377  0.9064150773219011  0.7509577919724030
  0.3636407163935235  0.1264863457360448  0.8193701357808220
  0.3997158872764145  0.6651641650608480  0.4714508802134572
  0.8218445948870243  0.6120504100912206  0.0729405102425283
  0.5214921629889101  0.5995671234279265  0.5101981421558065
  0.6464372513927452  0.1564640389648159  0.9782994189616717
  0.7765987832154293  0.8143591039125541  0.8139099544537366
  0.0745968840189215  0.4339860528129320  0.5596585823589356
  0.9576710386379220  0.4279873332494222  0.6194423300558602
  0.0673935261464934  0.3281033402877320  0.4211513255184072
  0.7481477040164111  0.7539533943797458  0.4731091634150704
  0.6148469263614208  0.0816039545719888  0.7318249243327014
  0.5898144550614065  0.7694326493030277  0.5025177300143820
  0.9913514478300910  0.8742664508951183  0.5579100355675911
  0.6234456098231157  0.7937480849824802  0.6904840953593294
  0.5559043467323517  0.4082435638040036  0.5032024472728358
  0.8762074384152236 -0.0030971189365884 -0.0076280884303631
  0.7565795747970050  0.3337651639144908  0.1700930355295800
  0.0269295631721352  0.7433443979561484  0.7957714686244761
  0.6083469800045925  0.5169299362046570  0.4770225640736890
  0.2023779533568520  0.3046125532789697  0.0853635163920299
  0.3075514067452200  0.5729252735789747  0.2492277000650864
  0.4920925265439068  0.1958646822897221  0.8254071803491462
  0.6740537914697526  0.3767751799980354  0.5460668592835746
  0.3489685754848882  0.0110410062884230  0.6825311035064844
  0.7507190650868263  0.7025329844060201  0.1993419399473391
  0.3862399652452843  0.8668721033421084  0.1662743931021136
  0.1962363055741464  0.7345400123007125  0.2991612306931621
  0.1307367482115964  0.5939863911495588  0.9749954479560138
  0.5800233560739291  0.3488991254249763  0.4058200149525253
  0.7841752392763868  0.7574064940278360  0.9279986276570825
  0.3371145464717104  0.4241535985520745  0.1396722422010822
  0.8608909880790442  0.3804508745915657  0.5742088899673642
  0.2466624024699983  0.0822574188779372  0.8133302034350778
  0.1027599419071758  0.1698688324804218  0.1442133507207584
  0.9132067767363925  0.9616328861417043  0.5212743940225156
  0.2619367214405652  0.2529005174245098  0.9184914671999089
  0.1919039847276150  0.4138240072985984  0.5883343135311742
  0.0218734855017761  0.2855616959812109  0.5284777980139501
  0.7102954856832380  0.1740862790547613  0.2534878767220586
  0.2884076064575004  0.8060987728788187  0.9184438046743004
  0.3009103697417868  0.8785393644649425  0.3265716807636463
  0.0090536554010893  0.8890177899012310  0.6801348803792416
  0.0130372001572107  0.7180599977218123  0.5979336699166038
  0.4133523781470054  0.0646326130153676  0.0321456650029212
  0.9599448709117507  0.5318163532907857  0.9642957890423662
  0.7378879795084704  0.8842510748310745  0.1563298578512419
  0.6248521322036928  0.3871356992754062  0.7287629637854351
  0.6030853765194709  0.7331902053462636  0.9576412762472327
  0.5902377851205968  0.6531532264340187  0.5901756770544453
  0.5156991953684267  0.4448292479351213  0.1213874669139634
  0.9427390832313172  0.6047262869603428  0.4748791920928301
  0.5834168644314986  0.2586203151143583  0.1348294332743218
  0.8101634278600861  0.4978644584764959  0.4656877020486206
  0.7149872787861428  0.8716806479986863  0.4592126137196068
  0.4225630905965572  0.6752791191720680  0.3512969189573044
  0.0433591043419334  0.1632893864480650  0.3326106058338330
  0.7168916855471160  0.9104979569204338  0.6852911212209732
  0.9663856822063508  0.1468051684551513  0.9480777481805145
  0.5217994580460904  0.7218238454353386  0.7109996561530790
  0.4949381504011943  0.8805717733896278  0.9433196989285801
  0.5284849748723286  0.6165979214747119  0.0786001433784298
  0.4825946815681059  0.8607236782836225  0.3166463773976649
  0.0682214591508745  0.8100732313012901  0.0936882859338756
  0.3398664555103971  0.5229960584585858  0.4244806220149615
  0.5437716257819433  0.0456227512480168  0.5211024940913576
  0.6962071104835348  0.5908976441864340  0.3565337902191734
  0.0486539855330229  0.5633649727041982  0.8099820602238089
  0.2596036782647941  0.5549485518762139  0.6905554246247545
  0.5808590495579115  0.2025070037906390  0.4794541790559938
  0.1624651998452251  0.0242104607499396  0.3823866840765088
  0.9066370459980557  0.4320113628105200  0.1094339397470904
  0.8908982488843978  0.3351671933578571  0.3957947680190657
  0.2428896771296041  0.3358022441063435  0.7561742220052718
  0.5738387619320372  0.4663650324599930  0.2995765169248289
  0.6649553105418307  0.5179299789964259  0.1697730749523600
  0.4145345738505370  0.7047422566283684  0.1676879671459728
  0.3692567282341738  0.1257816439241959  0.2181531523730289
  0.3899619949914589  0.9536225567960860  0.4705329008755993
  0.8028718924999528  0.4498250927118746  0.2946053663528571
  0.7470060967134292  0.9232979755152420  0.8710569245365533
  0.0856593159572773  0.9452502468793954  0.5221530380654638
  0.5441993025035622  0.1514415281693345  0.3004677566045272
  0.3536048640793197  0.1815076506613796  0.9317071989042860
  0.4282496188425318  0.3450338557896978  0.7707815249787183
  0.0800815849528954  0.4649983888788197  0.2101682920793022
  0.9137198847379888  0.1722697406893686  0.7608542455239130
  0.4140804199725062  0.7247133818985833  0.8655248308938185
  0.1742798300102429  0.5948856741610600  0.3933815677647001
  0.8164015476591524  0.5402101887901689  0.8751059305270775
  0.0667704193752959  0.4461983934341349  0.4458236161270673
  0.9901681780270166  0.9185237074472831  0.3574584246837634
  0.6668172434057708  0.1055177631645475  0.6286675194452293
  0.9426681988691362  0.7029042175518120  0.1679371556240495
  0.1061220254899417  0.5415748225900442  0.6123218286083048
  0.7273225490520736  0.0563166966448935  0.1098227395521235
  0.6276704103076606  0.8381091255604881  0.3919185112708627
  0.7499173099945099  0.2274071903447408  0.4614518170524571
  0.0664372281174587  0.2430065122967155  0.6845986829715821
  0.0967529803026313  0.9819440516190259  0.9575834246880722
  0.1144738200032804  0.2977533790436485  0.9023042661212783
  0.2737936015465879  0.5898753843145461  0.8869612502046988
  0.3842242116712165  0.4359633200040522  0.7164819323419113
  0.2220297846694938  0.6814718568456851  0.1184434785007926
  0.6754946496386860  0.2117144421351157  0.7822146676401007
  0.6729908910303095  0.7533974782613085  0.7927353623048036
  0.1617226021689482  0.9909223510904591  0.6758276749523904
  0.6034706091504494  0.3166078352409391  0.9109959771719928
 -0.0015618997072641  0.0577889612327893  0.6449726813278401
  0.8918131823746892  0.2199526145872680  0.2575927476091014
  0.3455488709660800  0.6001477697881935  0.0474290406197224
  0.8923051719027871  0.4733992845440761  0.7155367529594366
  0.2710024714313601  0.1282104549537883  0.5133333032208978
  0.0468339673551875  0.3927935399766956  0.7792514942843223
  0.2544377749932324  0.9503181449540081  0.0352955668098927
  0.2141469253168789  0.0282923290471989  0.2081547096446555
  0.0239077919809589  0.6119553132783736  0.2932053596358070
  0.2304779362967107  0.1825575593887845  0.3055884370038628
  0.1483277899494857  0.8812104825964967  0.8148895102674786
  0.4208810834883454  0.5230599836483317  0.7798763928397242
  0.5517538201037484  0.9881344524851574  0.6834402649989190
  0.7062059449986732  0.6349814300988412  0.0383333671553940
  0.7986429406996652  0.0616811730903899  0.7564951375234488
  0.3820859619608072  0.3851627283801859  0.5487749324027322
  0.5896295918623538  0.6763507480644327  0.2564301245611927
  0.9313125012362004  0.7697075038420542  0.0064344035064505
  0.0784742977308244  0.4183439449954970  0.0030787785868089
  0.8901429739389404  0.9761961303965615  0.1876372226058153
  0.0051970401109475  0.7152897356007837  0.3368238629371885
  0.9185757464215830  0.2478643869606067  0.0806869396896097
  0.8612823319575730  0.8209911709348130  0.2869313087168844
  0.4455149328089787  0.5301981837505898  0.5761449470429471
  0.3881276096783873  0.0123311932114051  0.8724633399876150
  0.4220869978213097  0.8622845488197022  0.7755041444917888
  0.2114630342602637  0.8583481879226128  0.1897925799605044
  0.0753249033965976  0.1134689803764644  0.8260250086667633
  0.2586566285226812  0.4455707781394503  0.9757047909230461
  0.1344550501369099  0.7903908634928247  0.4582391028338265
  0.8676636752602814  0.7837204643550323  0.5058974589407064
  0.8509733287370246  0.0277099958616528  0.3681276711443243
  0.4546764259034055  0.6229497552682967  0.9068943533699770
  0.7225510017509856  0.0778518658524758  0.9291800161770708
  0.0134401342933711  0.0988913212325891  0.1556677016075088
  0.4813650942121776  0.3241457400959114  0.2458600885413081
  0.4926324931325936  0.0095788426719759  0.1797991263618193
  0.2637550067216999  0.1500512319323898  0.0770795662376022
  0.5595036422155505  0.8714875732618054  0.5666305242618705
  0.7332231075819790  0.7308921183267959  0.5957520880710626
  0.4673381974238648  0.7640403596526190  0.5067208705131421
  0.7356776144012438  0.4510838084598117  0.0394633088202304
  0.8727673406877290  0.3304479607477910  0.8452270248429128
  0.8614096202705335  0.7586709084156068  0.7059774690815639
  0.8385182875048989  0.1093784403861456  0.5769417933714542
  0.7316865365749029  0.5487422500916260  0.6573717369572792
  0.1886433992106333  0.6837331097988864  0.5895948584118532
  0.5916388538750684  0.7935394961237573  0.1274068060283716
  0.2054513544392524  0.7174142880276508  0.7875051771864156
  0.3393208946380166  0.2020131048330442  0.6673827470377141
  0.3630732619715383  0.7041604902794479  0.6547091937133175
  0.9399631671757700  0.9773989000945649  0.8345933971089554
  0.8506231592330232  0.6339823374104331  0.3285839734320458
  0.5352366559057909  0.2516685529555492  0.6519550991456678
  0.1832159483917083  0.2935347087631438  0.4569192706027566
  0.4108179785606691  0.2693822516655799  0.3935004694973518
  0.2477661548499660  0.8531958219834269  0.6023743343223986
  0.6455823043819929  0.5018175826919858  0.8860865912966899
 
  0.00000000E+00  0.00000000E+00  0.00000000E+00
  0.00000000E+00  0.00000000E+00  0.00000000E+00
  0.00000000E+00  0.00000000E+00  0.00000000E+00
  0.00000000E+00  0.00000000E+00  0.00000000E+00
  0.00000000E+00  0.00000000E+00  0.00000000E+00
  0.00000000E+00  0.00000000E+00  0.00000000E+00
  0.00000000E+00  0.00000000E+00  0.00000000E+00
  0.00000000E+00  0.00000000E+00  0.00000000E+00
  0.00000000E+00  0.00000000E+00  0.00000000E+00
  0.00000000E+00  0.00000000E+00  0.00000000E+00
  0.00000000E+00  0.00000000E+00  0.00000000E+00
  0.00000000E+00  0.00000000E+00  0.00000000E+00
  0.00000000E+00  0.00000000E+00  0.00000000E+00
  0.00000000E+00  0.00000000E+00  0.00000000E+00
  0.00000000E+00  0.00000000E+00  0.00000000E+00
  0.00000000E+00  0.00000000E+00  0.00000000E+00
  0.00000000E+00  0.00000000E+00  0.00000000E+00
  0.00000000E+00  0.00000000E+00  0.00000000E+00
  0.00000000E+00  0.00000000E+00  0.00000000E+00
  0.00000000E+00  0.00000000E+00  0.00000000E+00
  0.00000000E+00  0.00000000E+00  0.00000000E+00
  0.00000000E+00  0.00000000E+00  0.00000000E+00
  0.00000000E+00  0.00000000E+00  0.00000000E+00
  0.00000000E+00  0.00000000E+00  0.00000000E+00
  0.00000000E+00  0.00000000E+00  0.00000000E+00
  0.00000000E+00  0.00000000E+00  0.00000000E+00
  0.00000000E+00  0.00000000E+00  0.00000000E+00
  0.00000000E+00  0.00000000E+00  0.00000000E+00
  0.00000000E+00  0.00000000E+00  0.00000000E+00
  0.00000000E+00  0.00000000E+00  0.00000000E+00
  0.00000000E+00  0.00000000E+00  0.00000000E+00
  0.00000000E+00  0.00000000E+00  0.00000000E+00
  0.00000000E+00  0.00000000E+00  0.00000000E+00
  0.00000000E+00  0.00000000E+00  0.00000000E+00
  0.00000000E+00  0.00000000E+00  0.00000000E+00
  0.00000000E+00  0.00000000E+00  0.00000000E+00
  0.00000000E+00  0.00000000E+00  0.00000000E+00
  0.00000000E+00  0.00000000E+00  0.00000000E+00
  0.00000000E+00  0.00000000E+00  0.00000000E+00
  0.00000000E+00  0.00000000E+00  0.00000000E+00
  0.00000000E+00  0.00000000E+00  0.00000000E+00
  0.00000000E+00  0.00000000E+00  0.00000000E+00
  0.00000000E+00  0.00000000E+00  0.00000000E+00
  0.00000000E+00  0.00000000E+00  0.00000000E+00
  0.00000000E+00  0.00000000E+00  0.00000000E+00
  0.00000000E+00  0.00000000E+00  0.00000000E+00
  0.00000000E+00  0.00000000E+00  0.00000000E+00
  0.00000000E+00  0.00000000E+00  0.00000000E+00
  0.00000000E+00  0.00000000E+00  0.00000000E+00
  0.00000000E+00  0.00000000E+00  0.00000000E+00
  0.00000000E+00  0.00000000E+00  0.00000000E+00
  0.00000000E+00  0.00000000E+00  0.00000000E+00
  0.00000000E+00  0.00000000E+00  0.00000000E+00
  0.00000000E+00  0.00000000E+00  0.00000000E+00
  0.00000000E+00  0.00000000E+00  0.00000000E+00
  0.00000000E+00  0.00000000E+00  0.00000000E+00
  0.00000000E+00  0.00000000E+00  0.00000000E+00
  0.00000000E+00  0.00000000E+00  0.00000000E+00
  0.00000000E+00  0.00000000E+00  0.00000000E+00
  0.00000000E+00  0.00000000E+00  0.00000000E+00
  0.00000000E+00  0.00000000E+00  0.00000000E+00
  0.00000000E+00  0.00000000E+00  0.00000000E+00
  0.00000000E+00  0.00000000E+00  0.00000000E+00
  0.00000000E+00  0.00000000E+00  0.00000000E+00
  0.00000000E+00  0.00000000E+00  0.00000000E+00
  0.00000000E+00  0.00000000E+00  0.00000000E+00
  0.00000000E+00  0.00000000E+00  0.00000000E+00
  0.00000000E+00  0.00000000E+00  0.00000000E+00
  0.00000000E+00  0.00000000E+00  0.00000000E+00
  0.00000000E+00  0.00000000E+00  0.00000000E+00
  0.00000000E+00  0.00000000E+00  0.00000000E+00
  0.00000000E+00  0.00000000E+00  0.00000000E+00
  0.00000000E+00  0.00000000E+00  0.00000000E+00
  0.00000000E+00  0.00000000E+00  0.00000000E+00
  0.00000000E+00  0.00000000E+00  0.00000000E+00
  0.00000000E+00  0.00000000E+00  0.00000000E+00
  0.00000000E+00  0.00000000E+00  0.00000000E+00
  0.00000000E+00  0.00000000E+00  0.00000000E+00
  0.00000000E+00  0.00000000E+00  0.00000000E+00
  0.00000000E+00  0.00000000E+00  0.00000000E+00
  0.00000000E+00  0.00000000E+00  0.00000000E+00
  0.00000000E+00  0.00000000E+00  0.00000000E+00
  0.00000000E+00  0.00000000E+00  0.00000000E+00
  0.00000000E+00  0.00000000E+00  0.00000000E+00
  0.00000000E+00  0.00000000E+00  0.00000000E+00
  0.00000000E+00  0.00000000E+00  0.00000000E+00
  0.00000000E+00  0.00000000E+00  0.00000000E+00
  0.00000000E+00  0.00000000E+00  0.00000000E+00
  0.00000000E+00  0.00000000E+00  0.00000000E+00
  0.00000000E+00  0.00000000E+00  0.00000000E+00
  0.00000000E+00  0.00000000E+00  0.00000000E+00
  0.00000000E+00  0.00000000E+00  0.00000000E+00
  0.00000000E+00  0.00000000E+00  0.00000000E+00
  0.00000000E+00  0.00000000E+00  0.00000000E+00
  0.00000000E+00  0.00000000E+00  0.00000000E+00
  0.00000000E+00  0.00000000E+00  0.00000000E+00
  0.00000000E+00  0.00000000E+00  0.00000000E+00
  0.00000000E+00  0.00000000E+00  0.00000000E+00
  0.00000000E+00  0.00000000E+00  0.00000000E+00
  0.00000000E+00  0.00000000E+00  0.00000000E+00
  0.00000000E+00  0.00000000E+00  0.00000000E+00
  0.00000000E+00  0.00000000E+00  0.00000000E+00
  0.00000000E+00  0.00000000E+00  0.00000000E+00
  0.00000000E+00  0.00000000E+00  0.00000000E+00
  0.00000000E+00  0.00000000E+00  0.00000000E+00
  0.00000000E+00  0.00000000E+00  0.00000000E+00
  0.00000000E+00  0.00000000E+00  0.00000000E+00
  0.00000000E+00  0.00000000E+00  0.00000000E+00
  0.00000000E+00  0.00000000E+00  0.00000000E+00
  0.00000000E+00  0.00000000E+00  0.00000000E+00
  0.00000000E+00  0.00000000E+00  0.00000000E+00
  0.00000000E+00  0.00000000E+00  0.00000000E+00
  0.00000000E+00  0.00000000E+00  0.00000000E+00
  0.00000000E+00  0.00000000E+00  0.00000000E+00
  0.00000000E+00  0.00000000E+00  0.00000000E+00
  0.00000000E+00  0.00000000E+00  0.00000000E+00
  0.00000000E+00  0.00000000E+00  0.00000000E+00
  0.00000000E+00  0.00000000E+00  0.00000000E+00
  0.00000000E+00  0.00000000E+00  0.00000000E+00
  0.00000000E+00  0.00000000E+00  0.00000000E+00
  0.00000000E+00  0.00000000E+00  0.00000000E+00
  0.00000000E+00  0.00000000E+00  0.00000000E+00
  0.00000000E+00  0.00000000E+00  0.00000000E+00
  0.00000000E+00  0.00000000E+00  0.00000000E+00
  0.00000000E+00  0.00000000E+00  0.00000000E+00
  0.00000000E+00  0.00000000E+00  0.00000000E+00
  0.00000000E+00  0.00000000E+00  0.00000000E+00
  0.00000000E+00  0.00000000E+00  0.00000000E+00
  0.00000000E+00  0.00000000E+00  0.00000000E+00
  0.00000000E+00  0.00000000E+00  0.00000000E+00
  0.00000000E+00  0.00000000E+00  0.00000000E+00
  0.00000000E+00  0.00000000E+00  0.00000000E+00
  0.00000000E+00  0.00000000E+00  0.00000000E+00
  0.00000000E+00  0.00000000E+00  0.00000000E+00
  0.00000000E+00  0.00000000E+00  0.00000000E+00
  0.00000000E+00  0.00000000E+00  0.00000000E+00
  0.00000000E+00  0.00000000E+00  0.00000000E+00
  0.00000000E+00  0.00000000E+00  0.00000000E+00
  0.00000000E+00  0.00000000E+00  0.00000000E+00
  0.00000000E+00  0.00000000E+00  0.00000000E+00
  0.00000000E+00  0.00000000E+00  0.00000000E+00
  0.00000000E+00  0.00000000E+00  0.00000000E+00
  0.00000000E+00  0.00000000E+00  0.00000000E+00
  0.00000000E+00  0.00000000E+00  0.00000000E+00
  0.00000000E+00  0.00000000E+00  0.00000000E+00
  0.00000000E+00  0.00000000E+00  0.00000000E+00
  0.00000000E+00  0.00000000E+00  0.00000000E+00
  0.00000000E+00  0.00000000E+00  0.00000000E+00
  0.00000000E+00  0.00000000E+00  0.00000000E+00
  0.00000000E+00  0.00000000E+00  0.00000000E+00
  0.00000000E+00  0.00000000E+00  0.00000000E+00
  0.00000000E+00  0.00000000E+00  0.00000000E+00
  0.00000000E+00  0.00000000E+00  0.00000000E+00
  0.00000000E+00  0.00000000E+00  0.00000000E+00
  0.00000000E+00  0.00000000E+00  0.00000000E+00
  0.00000000E+00  0.00000000E+00  0.00000000E+00
  0.00000000E+00  0.00000000E+00  0.00000000E+00
  0.00000000E+00  0.00000000E+00  0.00000000E+00
  0.00000000E+00  0.00000000E+00  0.00000000E+00
  0.00000000E+00  0.00000000E+00  0.00000000E+00
  0.00000000E+00  0.00000000E+00  0.00000000E+00
  0.00000000E+00  0.00000000E+00  0.00000000E+00
  0.00000000E+00  0.00000000E+00  0.00000000E+00
  0.00000000E+00  0.00000000E+00  0.00000000E+00
  0.00000000E+00  0.00000000E+00  0.00000000E+00
  0.00000000E+00  0.00000000E+00  0.00000000E+00
  0.00000000E+00  0.00000000E+00  0.00000000E+00
  0.00000000E+00  0.00000000E+00  0.00000000E+00
  0.00000000E+00  0.00000000E+00  0.00000000E+00
  0.00000000E+00  0.00000000E+00  0.00000000E+00
  0.00000000E+00  0.00000000E+00  0.00000000E+00
  0.00000000E+00  0.00000000E+00  0.00000000E+00
  0.00000000E+00  0.00000000E+00  0.00000000E+00
  0.00000000E+00  0.00000000E+00  0.00000000E+00
  0.00000000E+00  0.00000000E+00  0.00000000E+00
  0.00000000E+00  0.00000000E+00  0.00000000E+00
  0.00000000E+00  0.00000000E+00  0.00000000E+00
  0.00000000E+00  0.00000000E+00  0.00000000E+00
  0.00000000E+00  0.00000000E+00  0.00000000E+00
  0.00000000E+00  0.00000000E+00  0.00000000E+00
  0.00000000E+00  0.00000000E+00  0.00000000E+00
  0.00000000E+00  0.00000000E+00  0.00000000E+00
  0.00000000E+00  0.00000000E+00  0.00000000E+00
  0.00000000E+00  0.00000000E+00  0.00000000E+00
  0.00000000E+00  0.00000000E+00  0.00000000E+00
  0.00000000E+00  0.00000000E+00  0.00000000E+00
  0.00000000E+00  0.00000000E+00  0.00000000E+00
  0.00000000E+00  0.00000000E+00  0.00000000E+00
  0.00000000E+00  0.00000000E+00  0.00000000E+00
  0.00000000E+00  0.00000000E+00  0.00000000E+00
  0.00000000E+00  0.00000000E+00  0.00000000E+00
  0.00000000E+00  0.00000000E+00  0.00000000E+00
  0.00000000E+00  0.00000000E+00  0.00000000E+00
  0.00000000E+00  0.00000000E+00  0.00000000E+00
  0.00000000E+00  0.00000000E+00  0.00000000E+00
  0.00000000E+00  0.00000000E+00  0.00000000E+00
  0.00000000E+00  0.00000000E+00  0.00000000E+00
  0.00000000E+00  0.00000000E+00  0.00000000E+00
  0.00000000E+00  0.00000000E+00  0.00000000E+00
  0.00000000E+00  0.00000000E+00  0.00000000E+00
  0.00000000E+00  0.00000000E+00  0.00000000E+00
  0.00000000E+00  0.00000000E+00  0.00000000E+00
  0.00000000E+00  0.00000000E+00  0.00000000E+00
  0.00000000E+00  0.00000000E+00  0.00000000E+00
  0.00000000E+00  0.00000000E+00  0.00000000E+00
  0.00000000E+00  0.00000000E+00  0.00000000E+00
  0.00000000E+00  0.00000000E+00  0.00000000E+00
  0.00000000E+00  0.00000000E+00  0.00000000E+00
  0.00000000E+00  0.00000000E+00  0.00000000E+00
  0.00000000E+00  0.00000000E+00  0.00000000E+00
  0.00000000E+00  0.00000000E+00  0.00000000E+00
  0.00000000E+00  0.00000000E+00  0.00000000E+00
  0.00000000E+00  0.00000000E+00  0.00000000E+00
  0.00000000E+00  0.00000000E+00  0.00000000E+00
  0.00000000E+00  0.00000000E+00  0.00000000E+00
  0.00000000E+00  0.00000000E+00  0.00000000E+00
  0.00000000E+00  0.00000000E+00  0.00000000E+00
  0.00000000E+00  0.00000000E+00  0.00000000E+00
  0.00000000E+00  0.00000000E+00  0.00000000E+00
  0.00000000E+00  0.00000000E+00  0.00000000E+00
  0.00000000E+00  0.00000000E+00  0.00000000E+00
  0.00000000E+00  0.00000000E+00  0.00000000E+00
  0.00000000E+00  0.00000000E+00  0.00000000E+00
  0.00000000E+00  0.00000000E+00  0.00000000E+00
  0.00000000E+00  0.00000000E+00  0.00000000E+00
  0.00000000E+00  0.00000000E+00  0.00000000E+00
  0.00000000E+00  0.00000000E+00  0.00000000E+00
  0.00000000E+00  0.00000000E+00  0.00000000E+00
  0.00000000E+00  0.00000000E+00  0.00000000E+00
  0.00000000E+00  0.00000000E+00  0.00000000E+00
  0.00000000E+00  0.00000000E+00  0.00000000E+00
  0.00000000E+00  0.00000000E+00  0.00000000E+00