In2O3 structure 15 - random placement wi
   1.00000000000000     
     8.0300314484093835   -0.0703241519967401   -0.0249890935451619
    -0.0703410562716634    8.1199732587090754    0.0082574956647537
    -0.0251159643882644    0.0082773497139943    8.1979935895774645
   In   O 
    16    24
Direct
  0.5630879778782284  0.3360106141088559  0.7465298299941840
  0.3041235820571143  0.0897011847020048  0.4723812307007849
  0.7976819362630450  0.5801909988360147  0.4757067405219972
  0.7965076582936498  0.0945126365726279  0.4775918199391090
  0.0259653694147349  0.3641873069181492  0.2525066632359222
  0.0121732366493037  0.8663394345097044  0.2705587460932124
  0.3091948596451943  0.5813171224571508  0.4665483778230822
  0.2793934246510303  0.1213247475181494  0.9702258853594982
  0.0716316985479637  0.8185570712118180  0.7110379657413008
  0.7862183639540107  0.6107640145483338  0.9806286258960496
  0.7846070855273275  0.1260957299747103  0.9867020421621892
  0.5257879510640547  0.3628929343084964  0.2450427997139921
  0.5222190975891878  0.8646688941929710  0.2476749937362442
  0.5434353439044520  0.8364740251673854  0.7415649156105153
  0.2807356139464560  0.5979949754951218  0.9696634024978512
  0.0600563517639197  0.3348079022711347  0.7430374714278412
  0.6799354073726088  0.5968836939794461  0.7209743303818642
  0.3122366619460412  0.7057964745783369  0.7089161942642512
  0.5529573795079882  0.9717972830214798  0.5108345602580178
  0.0542996891824441  0.1219491167364783  0.3716837759473774
  0.3168850784692982  0.3637393068405004  0.8509220220249698
  0.9387765011185440  0.8890736118830372  0.9332699985982452
  0.5245489138066233  0.7380102359624402  0.0053793906257037
  0.4039112550758908  0.1152182118329593  0.2073070348973190
  0.9104524278479644  0.6187210535372266  0.2178870787921946
  0.2736610796250428  0.4781336652576703  0.2074600856723230
  0.1803489404445443  0.0708000615559403  0.7139401501588164
  0.8950734226268303  0.8342273683544498  0.5200904998731442
  0.7687118689783554  0.3321531372331660  0.3605381122338777
  0.5589042315430407  0.6209181435669968  0.3566840111955536
  0.1081747352370696  0.8846395056949663  0.0188494162004431
  0.2632735230310440  0.8288742036787843  0.3638185769336603
  0.5370200820437775  0.0737388980754448  0.8649600382269463
  0.8128611269472118  0.2184236474059451  0.7165290109817527
  0.4264927179396146  0.3324018821252161  0.5094058036031398
  0.0579958801227174  0.4748292086069905  0.5119339473853630
  0.7660926465302023 -0.0142572149770126  0.2153999856232683
  0.0308926954180955  0.2433826646670077  0.0126878281817363
  0.6602873620880761  0.3710146329478696  0.0108470106427562
  0.0273624421778782  0.5815338779933119  0.8562079527894337
 
  0.00000000E+00  0.00000000E+00  0.00000000E+00
  0.00000000E+00  0.00000000E+00  0.00000000E+00
  0.00000000E+00  0.00000000E+00  0.00000000E+00
  0.00000000E+00  0.00000000E+00  0.00000000E+00
  0.00000000E+00  0.00000000E+00  0.00000000E+00
  0.00000000E+00  0.00000000E+00  0.00000000E+00
  0.00000000E+00  0.00000000E+00  0.00000000E+00
  0.00000000E+00  0.00000000E+00  0.00000000E+00
  0.00000000E+00  0.00000000E+00  0.00000000E+00
  0.00000000E+00  0.00000000E+00  0.00000000E+00
  0.00000000E+00  0.00000000E+00  0.00000000E+00
  0.00000000E+00  0.00000000E+00  0.00000000E+00
  0.00000000E+00  0.00000000E+00  0.00000000E+00
  0.00000000E+00  0.00000000E+00  0.00000000E+00
  0.00000000E+00  0.00000000E+00  0.00000000E+00
  0.00000000E+00  0.00000000E+00  0.00000000E+00
  0.00000000E+00  0.00000000E+00  0.00000000E+00
  0.00000000E+00  0.00000000E+00  0.00000000E+00
  0.00000000E+00  0.00000000E+00  0.00000000E+00
  0.00000000E+00  0.00000000E+00  0.00000000E+00
  0.00000000E+00  0.00000000E+00  0.00000000E+00
  0.00000000E+00  0.00000000E+00  0.00000000E+00
  0.00000000E+00  0.00000000E+00  0.00000000E+00
  0.00000000E+00  0.00000000E+00  0.00000000E+00
  0.00000000E+00  0.00000000E+00  0.00000000E+00
  0.00000000E+00  0.00000000E+00  0.00000000E+00
  0.00000000E+00  0.00000000E+00  0.00000000E+00
  0.00000000E+00  0.00000000E+00  0.00000000E+00
  0.00000000E+00  0.00000000E+00  0.00000000E+00
  0.00000000E+00  0.00000000E+00  0.00000000E+00
  0.00000000E+00  0.00000000E+00  0.00000000E+00
  0.00000000E+00  0.00000000E+00  0.00000000E+00
  0.00000000E+00  0.00000000E+00  0.00000000E+00
  0.00000000E+00  0.00000000E+00  0.00000000E+00
  0.00000000E+00  0.00000000E+00  0.00000000E+00
  0.00000000E+00  0.00000000E+00  0.00000000E+00
  0.00000000E+00  0.00000000E+00  0.00000000E+00
  0.00000000E+00  0.00000000E+00  0.00000000E+00
  0.00000000E+00  0.00000000E+00  0.00000000E+00
  0.00000000E+00  0.00000000E+00  0.00000000E+00
