Amorphous GeAsSeSi                      
   1.00000000000000     
    18.7865105632068641    0.0000000000000000    0.0000000000000000
     0.0000000000000000   18.7865105632068641    0.0000000000000000
     0.0000000000000000    0.0000000000000000   18.7865105632068641
   Ge   As   S 
   108    24   108
Direct
  0.4724927700483121  0.6974803283729045  0.2592283063284313
  0.9367517547199711  0.3182046714326177  0.6973076982264743
  0.4832022893810333  0.3548667547063147  0.0809642596490434
  0.1387154213639761  0.2685588922907769  0.5157703283164565
  0.1780009421368476  0.1256603334365423  0.3388157653786692
  0.7229485553475570  0.9851696493248525  0.1812316275111172
  0.4210052890883702  0.1759251423826811  0.1872100822173550
  0.3189754673214793  0.3048411656749010  0.5102298170652233
  0.4739733374626880  0.5335671107874873  0.4002430383481865
  0.9234645284991743  0.6442394200554347  0.1582409682534447
  0.0137115204001361  0.3826729917247818  0.8455230798294551
  0.9467909123082734  0.3361609765529536  0.4699359968427572
  0.4114908731261195  0.4237336162531591  0.9218784383334793
  0.1740157024901663  0.9847327812629700  0.5166046946008862
  0.1548665180856332  0.9199466749615794  0.3255972023932543
  0.2143237252553831  0.0248951019012793  0.0177330428843945
  0.7208702429248390  0.0512627490615074  0.6134310987937113
  0.3009272566336278  0.0995624124723236  0.5308544289924484
  0.9428687236259421  0.2627087324951418  0.9043101310288506
  0.2329026098421707  0.6519900477096598  0.5737738380602906
  0.4937251132206200  0.8749568216756671  0.4001315712437403
  0.8728377064578225  0.1213951613323303  0.1702589943743007
  0.8085142578008515  0.6185669250709509  0.6271396281142927
  0.4383801176080908  0.5059060496531629  0.2702037141535740
  0.5867819957613847  0.4854338043898636  0.6925352772977931
  0.0246043418943671  0.4949265029146375  0.2557240621238677
  0.4396096376151064  0.9941397504153073  0.5587027891763583
  0.7802355118369775  0.2250641136282141  0.7181561447538769
  0.9388555826569345  0.9685977961323857  0.6515329087165469
  0.4760232508248450  0.7709432740864912  0.6319039726564526
  0.0115981192502730  0.2196916561457130  0.2739547625172420
  0.6945442379004447  0.4629648162126543  0.8285736637697596
  0.9927142585097215  0.9332114932952891  0.4584030503583563
  0.8738393257517743  0.4039347538308604  0.0221829957228010
  0.2979402889056857  0.7313005434842310  0.6617712192374796
  0.9933092524617848  0.7583945767355758  0.9365272409049936
  0.6565272404128137  0.1657504312153648  0.0916280921348829
  0.7263313018304487  0.2472827542589755  0.1873918689787786
  0.9412736181840273  0.8178739886125470  0.2844589666025499
  0.5616402977399488  0.7542270294254863  0.8306554675144611
  0.9313113001738174  0.7563253205781209  0.5528676330605506
  0.4216194620112645  0.9149176960019076  0.7809804907106823
  0.3373572735234447  0.3776259541465450  0.0898819104755617
  0.2092420687767671  0.3192615953911542  0.3221440413683681
  0.6762131270180021  0.7440191672750984  0.3691055625118835
  0.6554387263058317  0.2814501145696795  0.7576712830538810
  0.3721736644337099  0.9383330755582762  0.3029447917430872
  0.7759081851390235  0.9780194206583843  0.3118471282440964
  0.6135646555751748  0.1193622198423725  0.3024347278326758
  0.2089392444249825  0.4686867480513044  0.7785837611053736
  0.0311540802541614  0.6810745670099294  0.3063781778102737
  0.9843272563818459  0.2129353264329978  0.4072431480032392
  0.5400186890923138  0.3094452764223448  0.6740901909232875
  0.7385056329969331  0.5947641458877584  0.2235326767508212
  0.4463795402501063  0.1047984427940563  0.8108529714658275
  0.1314942330971718  0.4571138380924680  0.4561035464658829
  0.0631681452145543  0.5790121464574582  0.5623202659948987
  0.0605100037477513  0.0673744590992555  0.5443213698247007
  0.2007647243487725  0.8289028139023387  0.1384030716605764
  0.7069916814096686  0.7428215505630078  0.9697396464208765
  0.9363986424055213  0.0911674045591937  0.7623453436389838
  0.8016284773181255  0.7799026739700423  0.5242246046077810
  0.6906053853825611  0.0964323690165685  0.8387542775769887
  0.5920352271412668  0.2949922086481536  0.9618681112968801
  0.1131278682747947  0.8249673383644804  0.9221712970267646
  0.4096085775939429  0.0001883796793294  0.9453405167944950
  0.3503911675753102  0.7266757040387617  0.3301065686762001
  0.2465826883769893  0.0846430221043306  0.1924492804176694
  0.7103677111250732  0.3590066797306690  0.0443304201922885
  0.9127040165567166  0.3141237719785011  0.1165435447418872
  0.9184676065803643  0.1190851718182699  0.5558084051688397
  0.4043426601391005  0.0603880636327290  0.1040336425786990
  0.4475420201595455  0.5746668124806860  0.0964550261626798
  0.4029734982235809  0.2189629251858491  0.6588386886837441
  0.2800756021115234  0.9257205009780023  0.6840777077904860
  0.7827144507843045  0.7955345906380273  0.7168565390060451
  0.0870653249930982  0.3860033864860668  0.6365365277407236
  0.5136567465397448  0.0120331090533341  0.7388826878350088
  0.2567702260505484  0.7357994294307204  0.0187811118422943
  0.0816494458203749  0.5880513016844588  0.9224045875419691
  0.6361209888642065  0.8442345279794097  0.2786966295090423
  0.0624287752930641  0.3864293017323206  0.0224252955299065
  0.3634054410866909  0.7802696146558361  0.1520859670575234
  0.0612375660751781  0.6892297318138532  0.4772207273821110
  0.3970008494835611  0.4173330733059117  0.7482289130772912
  0.6694041297745059  0.9039221093680823  0.4655177253459897
  0.6357521184062591  0.7273367994789766  0.6131661948372198
  0.0070451130321629  0.4826940325887037  0.7019750592084293
  0.1641548606295444  0.0569713214273619  0.7139533090515187
  0.4922404989400491  0.3987678599580065  0.5098675252731795
  0.5029980712710156  0.1768298103678418  0.5695878837628143
  0.8429830223913299  0.4723453795697168  0.2945398871514939
  0.6515422457276543  0.6470185629046981  0.8129101515256849
  0.2852542730192056  0.8136494626008712  0.4701300753312765
  0.6061400323671933  0.9384109430356844  0.9076639208209727
  0.8688923177787160  0.6239439328296754  0.3925469934954435
  0.9262182943624779  0.1175955384095531  0.9626999826570000
  0.2652804793380596  0.5020994751749157  0.1980183022882969
  0.4844811700451146  0.6064043814591500  0.7041368724389159
  0.1273479770902384  0.5272689204169794  0.3422808721182307
  0.8215694186595925  0.2115209510119769  0.5869652177621276
  0.5324880843654896  0.2930995607808029  0.2614973782393264
  0.0504761613948617  0.0676405531565933  0.9285655694038937
  0.0450325927679245  0.0167948840101246  0.1952304768463264
  0.2099165681271060  0.4374333618421957  0.9122163896358373
  0.9264211877316342  0.9240858208520422  0.9450827213252353
  0.9737655414301045  0.9058638471642553  0.1197538795050690
  0.3762894968784067  0.2850725640358576  0.3194569065321957
  0.8798874130534031  0.6990144390931903  0.2766332600673209
  0.5235965668315004  0.7422051173231736  0.0481032421974064
  0.3185027067756394  0.5063824109524546  0.4694828415193157
  0.8383114377194261  0.2188965067963053  0.2637147870074514
  0.5703236908342717  0.6952676239707216  0.1641946606397866
  0.7707351495100383  0.4859560707936836  0.0269620568859352
  0.4317945947319828  0.5168234687364901  0.5391252822451165
  0.1754471005472098  0.6481380353015780  0.7703090818330480
  0.5576657307040094  0.6164868487562742  0.3313186295231745
  0.0951983443583160  0.1576829433788944  0.4490743842328655
  0.7949754261645268  0.5185177918898205  0.8981475128109579
  0.1783048107446064  0.5461038338520154  0.6272402144650115
  0.0795497229501692  0.5027371091433537  0.8142714996743479
  0.5702418392678723  0.5147971934633162  0.2461484801855391
  0.8940994333605303  0.0039155426010424  0.0504855861876194
  0.1247046676608363  0.4726751920130852  0.0983811719240180
  0.7602997623282661  0.9858005848475244  0.0494731957637455
  0.2274554431839988  0.4499449348357416  0.5514007735784077
  0.3014307933854923  0.9498529020803019  0.4761604132234964
  0.9244726372463603  0.3206358141766259  0.2497356752325004
  0.9497202479647058  0.8781915721995119  0.8135725287824869
  0.5782614450710355  0.5700257783337364  0.1257161267827911
  0.7962409873671277  0.1918890491381546  0.3913731387992243
  0.1827121308706268  0.5385096675293681  0.9990523831368847
  0.1274281910648298  0.3455813407314636  0.9290222738374325
  0.5128518416882741  0.8373862028451242  0.2794407174460645
  0.7324569116493009  0.0936623669529482  0.3558213650646920
  0.4596794492852183  0.3091530180086366  0.9631997783844071
  0.3747445226734811  0.4942520075007266  0.0367960417273636
  0.2976062362223928  0.6256941013663919  0.4743788314234791
  0.5903377905108087  0.4051704162660030  0.0289353723977896
  0.1512638249652483  0.7371416356505236  0.5490106099903755
  0.3544049114949388  0.0159775223785346  0.8272892732404244
  0.0531161723001645  0.7934982312402994  0.2466237890141301
  0.6638137338085741  0.8790277606866255  0.1644162383268366
  0.7189300861490793  0.1582826438422273  0.5486650861938074
  0.4074869170296793  0.7833457060580002  0.4280426379108278
  0.3201089203620739  0.8346828392751604  0.5970760273568203
  0.1433033925659899  0.6866501509350229  0.8822805463604624
  0.3901681836690969  0.2091022199493651  0.7800368330493868
  0.7357555513880456  0.8413977731090725  0.6082365033595707
  0.2112601786305106  0.3957744809943833  0.1362475558463956
  0.7309125806774972  0.3674890915915228  0.1687906975102180
  0.1325726097183235  0.7747942604321167  0.0375931906376792
  0.8766509057455352  0.7243092949654866  0.6657487292501543
  0.7645424113407415  0.8312915100851512  0.4159179874658818
  0.2240206109740654  0.7603269604689871  0.7524317882097975
  0.4848109354582135  0.8991398720452537  0.8921294614617779
  0.3105994957643290  0.8315445743320566  0.2666596796282477
  0.2662621157836753  0.9881202807375971  0.3651913711898658
  0.5174705625848688  0.6535470709001743  0.5932022667026544
  0.5465381705248831  0.4321574366346539  0.4063957313636379
  0.7553180315932053  0.6668792676391035  0.5198133081478247
  0.5905431355021236  0.8034223714701341  0.4529522835133832
  0.2675756178779025  0.5780220789779662  0.8029196486259949
  0.4259811477487929  0.1052942644342991  0.4939727267660672
  0.6635007098883747  0.8211601426002559  0.8736554175016593
  0.3926125373767562  0.6010692094256882  0.2051943456687937
  0.7702239641994311  0.7159622294735684  0.2278296104907653
  0.6465388294989012  0.2433351569914848  0.2915543365472928
  0.8777437860634052  0.0562359517244317  0.8667933320579948
  0.9802432084153310  0.5892908345852135  0.6519462548867594
  0.1185541532847765  0.8926158548552436  0.4469338197061390
  0.4470936527101728  0.2857980790405747  0.4841312287043635
  0.8487222915574648  0.2151704566952262  0.0890535467046050
  0.2564813035837190  0.7088735310465424  0.1458033625692110
  0.1577078822373892  0.0073903076452879  0.1400993170769667
  0.1397334527577030  0.6481092559945623  0.3676203159821654
  0.8431488499072088  0.3274298902517643  0.9331418597201235
  0.2932786875414237  0.1160060809316903  0.0735787198662265
  0.6020287822381150  0.6742378842217320  0.9842868138501473
  0.5758376564640741  0.7983928539348568  0.7110512100511457
  0.9991308139736645  0.1392316534848206  0.1792112415857900
  0.3636873359802024  0.4209986877960787  0.2195198984977367
  0.4256906912099723  0.6728715055298551  0.0268885509821715
  0.8524133647778598  0.5393905494261304  0.1822889187539829
  0.8880427368614860  0.8984985155758736  0.2138354974993959
  0.0424654835492362  0.6083903036545664  0.2016096627076749
  0.1123791872153674  0.1338362831799742  0.6351163256561208
  0.9419967241912346  0.8306470243317463  0.4034393629621320
  0.3377990625631497  0.9916561507434025  0.1897774593399788
  0.6045798753418623  0.1864546690885689  0.8170420690633762
  0.6242352139861680  0.9901882148832115  0.7905296110247875
  0.4658486316623183  0.1861472612970587  0.3041006655869296
  0.9830778299364127  0.6399014662868652  0.9701780412443597
  0.8587237632649689  0.9084718200302859  0.7381583208781350
  0.1136811045489168  0.3429861264044760  0.4087045505313753
  0.5212794059819146  0.2434888382308387  0.1384997185859262
  0.0215092437184126  0.2913916738813640  0.5669191480660132
  0.6931237503129424  0.6451355866643524  0.6934950005039866
  0.7072467682306751  0.4470899951873406  0.7108625013763188
  0.3413844499722813  0.0331035410257030  0.6385277698713949
  0.3230334045731951  0.2442532777004729  0.2078664213502037
  0.7646542958793887  0.5643785875544154  0.3479644952124445
  0.3025845012143691  0.3662355155004988  0.9505539065447763
  0.5981587692378199  0.5375239373584435  0.8336384626131590
  0.3043997229179709  0.8521328675702406  0.0618490065598891
  0.6311923719967325  0.0756595532243765  0.1777283913999526
  0.9741575054231646  0.4613709229933818  0.9842417823671212
  0.8480530526518564  0.0173366710707867  0.5738177471244228
  0.8324414830715980  0.3076225027330324  0.5136437925263735
  0.1514553454526393  0.1188608220172256  0.9679905973048761
  0.3948553226006197  0.5174777139570850  0.6673803640856306
  0.9144529601870204  0.8176582228724598  0.0118058882762355
  0.9452964215836772  0.5213908126937170  0.3533295379524901
  0.0196842152640073  0.2829774696204197  0.0648325714400642
  0.4017207304844845  0.7151409260966872  0.7233173528982917
  0.6760272915022796  0.3471193209424541  0.8657712900382535
  0.9121427873290102  0.4304434649961664  0.7620377705902328
  0.0558593423982217  0.0831221763837604  0.8054269292481706
  0.9253855860288454  0.7632341923872090  0.8328005997213737
  0.2816538339588632  0.2349815071687971  0.3986413162237028
  0.8967462882373596  0.1235276808342078  0.4249303850466362
  0.7558523416421679  0.6370667576254263  0.8837742383823581
  0.1625737509913705  0.9449484993967019  0.6384603770366866
  0.9805052852773528  0.8716580552925848  0.5751377242033087
  0.3982057034979434  0.3430311242358783  0.6448141436221348
  0.0826656058578266  0.0315711006125028  0.3144652645864170
  0.1343544903066203  0.2243463107777828  0.2617047582263652
  0.8925243160784007  0.2286965095066691  0.7852684061031709
  0.7323232099384427  0.0975635009874836  0.0177960249004059
  0.4767642545804023  0.1043917395904970  0.9278330033369429
  0.7616724639785488  0.1038739182308319  0.7283571100014115
  0.2933016539826809  0.2106289239853112  0.5975619420741793
  0.2368473808896212  0.4826857391104369  0.3192565941221588
  0.0281057676632912  0.4697016173925448  0.5187101816823585
  0.5412759809568612  0.0507269906198644  0.6273604334014351
  0.5237323048740734  0.3973252083434531  0.7658069325727297
  0.5884674119445066  0.3868708128225649  0.5859878161085632
  0.0564921767740216  0.3134548091292189  0.7437125656675789
  0.0501002912794490  0.9455148814573704  0.9641099151024477
  0.6508585980461987  0.9518612725474043  0.3415033630377522
 
  0.00000000E+00  0.00000000E+00  0.00000000E+00
  0.00000000E+00  0.00000000E+00  0.00000000E+00
  0.00000000E+00  0.00000000E+00  0.00000000E+00
  0.00000000E+00  0.00000000E+00  0.00000000E+00
  0.00000000E+00  0.00000000E+00  0.00000000E+00
  0.00000000E+00  0.00000000E+00  0.00000000E+00
  0.00000000E+00  0.00000000E+00  0.00000000E+00
  0.00000000E+00  0.00000000E+00  0.00000000E+00
  0.00000000E+00  0.00000000E+00  0.00000000E+00
  0.00000000E+00  0.00000000E+00  0.00000000E+00
  0.00000000E+00  0.00000000E+00  0.00000000E+00
  0.00000000E+00  0.00000000E+00  0.00000000E+00
  0.00000000E+00  0.00000000E+00  0.00000000E+00
  0.00000000E+00  0.00000000E+00  0.00000000E+00
  0.00000000E+00  0.00000000E+00  0.00000000E+00
  0.00000000E+00  0.00000000E+00  0.00000000E+00
  0.00000000E+00  0.00000000E+00  0.00000000E+00
  0.00000000E+00  0.00000000E+00  0.00000000E+00
  0.00000000E+00  0.00000000E+00  0.00000000E+00
  0.00000000E+00  0.00000000E+00  0.00000000E+00
  0.00000000E+00  0.00000000E+00  0.00000000E+00
  0.00000000E+00  0.00000000E+00  0.00000000E+00
  0.00000000E+00  0.00000000E+00  0.00000000E+00
  0.00000000E+00  0.00000000E+00  0.00000000E+00
  0.00000000E+00  0.00000000E+00  0.00000000E+00
  0.00000000E+00  0.00000000E+00  0.00000000E+00
  0.00000000E+00  0.00000000E+00  0.00000000E+00
  0.00000000E+00  0.00000000E+00  0.00000000E+00
  0.00000000E+00  0.00000000E+00  0.00000000E+00
  0.00000000E+00  0.00000000E+00  0.00000000E+00
  0.00000000E+00  0.00000000E+00  0.00000000E+00
  0.00000000E+00  0.00000000E+00  0.00000000E+00
  0.00000000E+00  0.00000000E+00  0.00000000E+00
  0.00000000E+00  0.00000000E+00  0.00000000E+00
  0.00000000E+00  0.00000000E+00  0.00000000E+00
  0.00000000E+00  0.00000000E+00  0.00000000E+00
  0.00000000E+00  0.00000000E+00  0.00000000E+00
  0.00000000E+00  0.00000000E+00  0.00000000E+00
  0.00000000E+00  0.00000000E+00  0.00000000E+00
  0.00000000E+00  0.00000000E+00  0.00000000E+00
  0.00000000E+00  0.00000000E+00  0.00000000E+00
  0.00000000E+00  0.00000000E+00  0.00000000E+00
  0.00000000E+00  0.00000000E+00  0.00000000E+00
  0.00000000E+00  0.00000000E+00  0.00000000E+00
  0.00000000E+00  0.00000000E+00  0.00000000E+00
  0.00000000E+00  0.00000000E+00  0.00000000E+00
  0.00000000E+00  0.00000000E+00  0.00000000E+00
  0.00000000E+00  0.00000000E+00  0.00000000E+00
  0.00000000E+00  0.00000000E+00  0.00000000E+00
  0.00000000E+00  0.00000000E+00  0.00000000E+00
  0.00000000E+00  0.00000000E+00  0.00000000E+00
  0.00000000E+00  0.00000000E+00  0.00000000E+00
  0.00000000E+00  0.00000000E+00  0.00000000E+00
  0.00000000E+00  0.00000000E+00  0.00000000E+00
  0.00000000E+00  0.00000000E+00  0.00000000E+00
  0.00000000E+00  0.00000000E+00  0.00000000E+00
  0.00000000E+00  0.00000000E+00  0.00000000E+00
  0.00000000E+00  0.00000000E+00  0.00000000E+00
  0.00000000E+00  0.00000000E+00  0.00000000E+00
  0.00000000E+00  0.00000000E+00  0.00000000E+00
  0.00000000E+00  0.00000000E+00  0.00000000E+00
  0.00000000E+00  0.00000000E+00  0.00000000E+00
  0.00000000E+00  0.00000000E+00  0.00000000E+00
  0.00000000E+00  0.00000000E+00  0.00000000E+00
  0.00000000E+00  0.00000000E+00  0.00000000E+00
  0.00000000E+00  0.00000000E+00  0.00000000E+00
  0.00000000E+00  0.00000000E+00  0.00000000E+00
  0.00000000E+00  0.00000000E+00  0.00000000E+00
  0.00000000E+00  0.00000000E+00  0.00000000E+00
  0.00000000E+00  0.00000000E+00  0.00000000E+00
  0.00000000E+00  0.00000000E+00  0.00000000E+00
  0.00000000E+00  0.00000000E+00  0.00000000E+00
  0.00000000E+00  0.00000000E+00  0.00000000E+00
  0.00000000E+00  0.00000000E+00  0.00000000E+00
  0.00000000E+00  0.00000000E+00  0.00000000E+00
  0.00000000E+00  0.00000000E+00  0.00000000E+00
  0.00000000E+00  0.00000000E+00  0.00000000E+00
  0.00000000E+00  0.00000000E+00  0.00000000E+00
  0.00000000E+00  0.00000000E+00  0.00000000E+00
  0.00000000E+00  0.00000000E+00  0.00000000E+00
  0.00000000E+00  0.00000000E+00  0.00000000E+00
  0.00000000E+00  0.00000000E+00  0.00000000E+00
  0.00000000E+00  0.00000000E+00  0.00000000E+00
  0.00000000E+00  0.00000000E+00  0.00000000E+00
  0.00000000E+00  0.00000000E+00  0.00000000E+00
  0.00000000E+00  0.00000000E+00  0.00000000E+00
  0.00000000E+00  0.00000000E+00  0.00000000E+00
  0.00000000E+00  0.00000000E+00  0.00000000E+00
  0.00000000E+00  0.00000000E+00  0.00000000E+00
  0.00000000E+00  0.00000000E+00  0.00000000E+00
  0.00000000E+00  0.00000000E+00  0.00000000E+00
  0.00000000E+00  0.00000000E+00  0.00000000E+00
  0.00000000E+00  0.00000000E+00  0.00000000E+00
  0.00000000E+00  0.00000000E+00  0.00000000E+00
  0.00000000E+00  0.00000000E+00  0.00000000E+00
  0.00000000E+00  0.00000000E+00  0.00000000E+00
  0.00000000E+00  0.00000000E+00  0.00000000E+00
  0.00000000E+00  0.00000000E+00  0.00000000E+00
  0.00000000E+00  0.00000000E+00  0.00000000E+00
  0.00000000E+00  0.00000000E+00  0.00000000E+00
  0.00000000E+00  0.00000000E+00  0.00000000E+00
  0.00000000E+00  0.00000000E+00  0.00000000E+00
  0.00000000E+00  0.00000000E+00  0.00000000E+00
  0.00000000E+00  0.00000000E+00  0.00000000E+00
  0.00000000E+00  0.00000000E+00  0.00000000E+00
  0.00000000E+00  0.00000000E+00  0.00000000E+00
  0.00000000E+00  0.00000000E+00  0.00000000E+00
  0.00000000E+00  0.00000000E+00  0.00000000E+00
  0.00000000E+00  0.00000000E+00  0.00000000E+00
  0.00000000E+00  0.00000000E+00  0.00000000E+00
  0.00000000E+00  0.00000000E+00  0.00000000E+00
  0.00000000E+00  0.00000000E+00  0.00000000E+00
  0.00000000E+00  0.00000000E+00  0.00000000E+00
  0.00000000E+00  0.00000000E+00  0.00000000E+00
  0.00000000E+00  0.00000000E+00  0.00000000E+00
  0.00000000E+00  0.00000000E+00  0.00000000E+00
  0.00000000E+00  0.00000000E+00  0.00000000E+00
  0.00000000E+00  0.00000000E+00  0.00000000E+00
  0.00000000E+00  0.00000000E+00  0.00000000E+00
  0.00000000E+00  0.00000000E+00  0.00000000E+00
  0.00000000E+00  0.00000000E+00  0.00000000E+00
  0.00000000E+00  0.00000000E+00  0.00000000E+00
  0.00000000E+00  0.00000000E+00  0.00000000E+00
  0.00000000E+00  0.00000000E+00  0.00000000E+00
  0.00000000E+00  0.00000000E+00  0.00000000E+00
  0.00000000E+00  0.00000000E+00  0.00000000E+00
  0.00000000E+00  0.00000000E+00  0.00000000E+00
  0.00000000E+00  0.00000000E+00  0.00000000E+00
  0.00000000E+00  0.00000000E+00  0.00000000E+00
  0.00000000E+00  0.00000000E+00  0.00000000E+00
  0.00000000E+00  0.00000000E+00  0.00000000E+00
  0.00000000E+00  0.00000000E+00  0.00000000E+00
  0.00000000E+00  0.00000000E+00  0.00000000E+00
  0.00000000E+00  0.00000000E+00  0.00000000E+00
  0.00000000E+00  0.00000000E+00  0.00000000E+00
  0.00000000E+00  0.00000000E+00  0.00000000E+00
  0.00000000E+00  0.00000000E+00  0.00000000E+00
  0.00000000E+00  0.00000000E+00  0.00000000E+00
  0.00000000E+00  0.00000000E+00  0.00000000E+00
  0.00000000E+00  0.00000000E+00  0.00000000E+00
  0.00000000E+00  0.00000000E+00  0.00000000E+00
  0.00000000E+00  0.00000000E+00  0.00000000E+00
  0.00000000E+00  0.00000000E+00  0.00000000E+00
  0.00000000E+00  0.00000000E+00  0.00000000E+00
  0.00000000E+00  0.00000000E+00  0.00000000E+00
  0.00000000E+00  0.00000000E+00  0.00000000E+00
  0.00000000E+00  0.00000000E+00  0.00000000E+00
  0.00000000E+00  0.00000000E+00  0.00000000E+00
  0.00000000E+00  0.00000000E+00  0.00000000E+00
  0.00000000E+00  0.00000000E+00  0.00000000E+00
  0.00000000E+00  0.00000000E+00  0.00000000E+00
  0.00000000E+00  0.00000000E+00  0.00000000E+00
  0.00000000E+00  0.00000000E+00  0.00000000E+00
  0.00000000E+00  0.00000000E+00  0.00000000E+00
  0.00000000E+00  0.00000000E+00  0.00000000E+00
  0.00000000E+00  0.00000000E+00  0.00000000E+00
  0.00000000E+00  0.00000000E+00  0.00000000E+00
  0.00000000E+00  0.00000000E+00  0.00000000E+00
  0.00000000E+00  0.00000000E+00  0.00000000E+00
  0.00000000E+00  0.00000000E+00  0.00000000E+00
  0.00000000E+00  0.00000000E+00  0.00000000E+00
  0.00000000E+00  0.00000000E+00  0.00000000E+00
  0.00000000E+00  0.00000000E+00  0.00000000E+00
  0.00000000E+00  0.00000000E+00  0.00000000E+00
  0.00000000E+00  0.00000000E+00  0.00000000E+00
  0.00000000E+00  0.00000000E+00  0.00000000E+00
  0.00000000E+00  0.00000000E+00  0.00000000E+00
  0.00000000E+00  0.00000000E+00  0.00000000E+00
  0.00000000E+00  0.00000000E+00  0.00000000E+00
  0.00000000E+00  0.00000000E+00  0.00000000E+00
  0.00000000E+00  0.00000000E+00  0.00000000E+00
  0.00000000E+00  0.00000000E+00  0.00000000E+00
  0.00000000E+00  0.00000000E+00  0.00000000E+00
  0.00000000E+00  0.00000000E+00  0.00000000E+00
  0.00000000E+00  0.00000000E+00  0.00000000E+00
  0.00000000E+00  0.00000000E+00  0.00000000E+00
  0.00000000E+00  0.00000000E+00  0.00000000E+00
  0.00000000E+00  0.00000000E+00  0.00000000E+00
  0.00000000E+00  0.00000000E+00  0.00000000E+00
  0.00000000E+00  0.00000000E+00  0.00000000E+00
  0.00000000E+00  0.00000000E+00  0.00000000E+00
  0.00000000E+00  0.00000000E+00  0.00000000E+00
  0.00000000E+00  0.00000000E+00  0.00000000E+00
  0.00000000E+00  0.00000000E+00  0.00000000E+00
  0.00000000E+00  0.00000000E+00  0.00000000E+00
  0.00000000E+00  0.00000000E+00  0.00000000E+00
  0.00000000E+00  0.00000000E+00  0.00000000E+00
  0.00000000E+00  0.00000000E+00  0.00000000E+00
  0.00000000E+00  0.00000000E+00  0.00000000E+00
  0.00000000E+00  0.00000000E+00  0.00000000E+00
  0.00000000E+00  0.00000000E+00  0.00000000E+00
  0.00000000E+00  0.00000000E+00  0.00000000E+00
  0.00000000E+00  0.00000000E+00  0.00000000E+00
  0.00000000E+00  0.00000000E+00  0.00000000E+00
  0.00000000E+00  0.00000000E+00  0.00000000E+00
  0.00000000E+00  0.00000000E+00  0.00000000E+00
  0.00000000E+00  0.00000000E+00  0.00000000E+00
  0.00000000E+00  0.00000000E+00  0.00000000E+00
  0.00000000E+00  0.00000000E+00  0.00000000E+00
  0.00000000E+00  0.00000000E+00  0.00000000E+00
  0.00000000E+00  0.00000000E+00  0.00000000E+00
  0.00000000E+00  0.00000000E+00  0.00000000E+00
  0.00000000E+00  0.00000000E+00  0.00000000E+00
  0.00000000E+00  0.00000000E+00  0.00000000E+00
  0.00000000E+00  0.00000000E+00  0.00000000E+00
  0.00000000E+00  0.00000000E+00  0.00000000E+00
  0.00000000E+00  0.00000000E+00  0.00000000E+00
  0.00000000E+00  0.00000000E+00  0.00000000E+00
  0.00000000E+00  0.00000000E+00  0.00000000E+00
  0.00000000E+00  0.00000000E+00  0.00000000E+00
  0.00000000E+00  0.00000000E+00  0.00000000E+00
  0.00000000E+00  0.00000000E+00  0.00000000E+00
  0.00000000E+00  0.00000000E+00  0.00000000E+00
  0.00000000E+00  0.00000000E+00  0.00000000E+00
  0.00000000E+00  0.00000000E+00  0.00000000E+00
  0.00000000E+00  0.00000000E+00  0.00000000E+00
  0.00000000E+00  0.00000000E+00  0.00000000E+00
  0.00000000E+00  0.00000000E+00  0.00000000E+00
  0.00000000E+00  0.00000000E+00  0.00000000E+00
  0.00000000E+00  0.00000000E+00  0.00000000E+00
  0.00000000E+00  0.00000000E+00  0.00000000E+00
  0.00000000E+00  0.00000000E+00  0.00000000E+00
  0.00000000E+00  0.00000000E+00  0.00000000E+00
  0.00000000E+00  0.00000000E+00  0.00000000E+00
  0.00000000E+00  0.00000000E+00  0.00000000E+00
  0.00000000E+00  0.00000000E+00  0.00000000E+00
  0.00000000E+00  0.00000000E+00  0.00000000E+00
  0.00000000E+00  0.00000000E+00  0.00000000E+00
  0.00000000E+00  0.00000000E+00  0.00000000E+00
  0.00000000E+00  0.00000000E+00  0.00000000E+00
  0.00000000E+00  0.00000000E+00  0.00000000E+00
  0.00000000E+00  0.00000000E+00  0.00000000E+00
  0.00000000E+00  0.00000000E+00  0.00000000E+00
  0.00000000E+00  0.00000000E+00  0.00000000E+00
  0.00000000E+00  0.00000000E+00  0.00000000E+00
  0.00000000E+00  0.00000000E+00  0.00000000E+00
  0.00000000E+00  0.00000000E+00  0.00000000E+00
  0.00000000E+00  0.00000000E+00  0.00000000E+00
  0.00000000E+00  0.00000000E+00  0.00000000E+00
  0.00000000E+00  0.00000000E+00  0.00000000E+00
