Mn Ge Sb Te                             
   1.00000000000000     
    17.6023840110782848    0.0000000000000000    0.0000000000000000
     0.0000000000000000   17.6023840110782848    0.0000000000000000
     0.0000000000000000    0.0000000000000000   17.6023840110782848
   Mn   Ge   Sb   Te
     8    32    32    80
Direct
  0.3048320173810089  0.7681094301010607  0.6306161641622486
  0.5117679556570246  0.5077590592475949  0.0167534829758600
  0.5390769176335628  0.1925824030831097  0.7935361255087424
  0.5201264090894081  0.1122454453033711  0.6707104610821633
  0.5934072707598652  0.2320717271697748  0.6980721029731896
  0.8845025182819847  0.0101391670798473  0.5441544738494468
  0.4173441941219807  0.1274108920539050  0.6281001374690527
  0.5216382189179999  0.5665293835780363  0.3380096073849247
  0.5383980023803350  0.3748073794121592  0.0262412320628034
  0.8277975587320159  0.1504232170519417  0.1882350679580252
  0.8933493335494320  0.4277903395069493  0.0476839991151761
  0.1891668501759839  0.9653760172246449  0.2913353117197247
  0.6481658336927777  0.1109911304011340  0.7583836070301350
  0.5733193741409581  0.4197447234376490  0.4985270269552396
  0.6666732885587136  0.9805091668571194  0.0396443687563212
  0.9869933887889409  0.3703163284351816  0.5375636861601637
  0.3379404442605168  0.8659326188691363  0.8256897138798888
  0.9311693442456140  0.7806279891033401  0.6363251004816747
  0.4240388577242741  0.6578774769145488  0.6525126302121345
  0.0034776200539197  0.1236738971073100  0.4735649221087482
  0.6944973905389987  0.9763749891054651  0.7313795244926097
  0.2031137082247704  0.3640698182105399  0.5041997568491142
  0.9388153044645298  0.0010791534779506  0.0032940403917031
  0.3505502524965342  0.8966605305282118  0.4002586141559259
  0.3112075517528788  0.2964442010618101  0.8856168564386137
  0.7799369623422457  0.2712339627361045  0.8216150574240911
  0.7894479404539317  0.6306188492004676  0.3887424872046026
  0.7177404521443336  0.3382158396194173  0.3899608851773534
  0.0801132270823982  0.2988933820868029  0.3474724797502774
  0.3874473836878034  0.0146348882833639  0.5455234369117179
  0.0207165444265846  0.5456751195366635  0.0482875392871831
  0.6262034760674264  0.6492932082165276  0.4874811139122627
  0.0956941952704457  0.8107355592697919  0.4781557761756405
  0.5336476383940051  0.4548216634641141  0.2574933054254260
  0.4778087490933843  0.0268096667748776  0.7864114700704553
  0.8688759530021252  0.2364740703249930  0.0149918972861282
  0.2665509947267133  0.4965071437090997  0.6624817454361004
  0.4676731817938084  0.8994378557087812  0.9988136468232739
  0.9638019033848759  0.9205993728745295  0.6160133920958233
  0.6110250977596119  0.6189790168030828  0.9704644821735212
  0.9852950276957143  0.6979277228068110  0.5197598591556869
  0.0536767337342705  0.8771875921595139  0.8522918866533955
  0.2444505395569682  0.7069172569972918  0.2377168257011341
  0.1164461411004312  0.2435330217873145  0.0143133632612867
  0.5788978128195235  0.4849965209374548  0.8859813337146583
  0.0855826479291723  0.0789783886191954  0.2448213150186578
  0.5047316701080951  0.3461781415065809  0.6322396525618184
  0.7814209839974554  0.8197057201831018  0.6557704781437930
  0.9423758840156158  0.7200018554941153  0.2476082798702314
  0.1170092635651430  0.9439210050784506  0.6112637912724319
  0.6847293612913905  0.3423236264881885  0.0978200384242389
  0.7424498285655667  0.2066310388914736  0.6757555228462073
  0.8549081184997099  0.7868850949978162  0.0780319568902501
  0.1716564715395779  0.7777392955482981  0.0937034680131689
  0.2466002542044810  0.4906206722428607  0.0102053232990259
  0.8528497473943423  0.3246673375924266  0.6105962710112407
  0.4623491839221501  0.1250889144011305  0.9157063070739159
  0.9048373380619574  0.6797570918723442  0.8748305867482833
  0.0301812530967630  0.2822345786676601  0.6692900070569919
  0.4009504587977823  0.3926004371973782  0.2327355803066090
  0.0233615106688587  0.4988803953345796  0.2562683655282702
  0.5657387207826560  0.6490085527402472  0.2242674433019020
  0.8682440197732867  0.4315795793272574  0.3325183285826947
  0.0385274195802712  0.0962444585366557  0.7997995351451690
  0.4294109119605907  0.6596639605879596  0.8684134366441628
  0.2834126583152208  0.1377074264922160  0.9042464026600584
  0.7347589121869457  0.4242159517977674  0.5548255480775606
  0.7495657687932117  0.5132947635300757  0.8668622774207954
  0.6290143229683712  0.3334206065508028  0.2661150492697076
  0.2738374776269715  0.6948062113934517  0.9963168886030849
  0.3932853135844113  0.4958391971298265  0.1027548754442820
  0.8418984351693477  0.5955145830279892  0.2390317007773537
  0.5161499637405355  0.7010036868527750  0.3900014764945470
  0.6430323529603884  0.5167179299764791  0.3836638583282100
  0.0866568140243044  0.0161165950751237  0.9527810560404550
  0.4811301950227062  0.8320666093231766  0.8435258231077644
  0.7165362766443168  0.5658475256493131  0.6287743233313513
  0.9397464421906716  0.9138267339201338  0.1290318168951122
  0.8641907422472012  0.0717316476892650  0.4180076779050726
  0.3493610355382815  0.9448107226166389  0.2567159068752578
  0.7917707893468020  0.8976155417607197  0.5169519581351416
  0.5219875045454015  0.2147348715062158  0.2728490617506414
  0.4511780207614458  0.4688553594436069  0.4041183815872947
  0.1463645892381373  0.5377624914015461  0.1426919016103792
  0.8770623256175454  0.7646578197309443  0.4240377363756446
  0.3987448657059792  0.4946057165440954  0.8996896931365093
  0.1673005015882402  0.7731103853878833  0.6180162019069814
  0.0181372730828461  0.7405998250491925  0.7553553201528311
  0.1017951193215387  0.4239018024648695  0.7169783409876743
  0.8785460988173927  0.5026133715000269  0.4770164076454654
  0.1507362760688307  0.9775472947282080  0.7600350879619884
  0.3036655293774301  0.8581535267555163  0.9998927921474475
  0.7768881057241259  0.3704136807391424  0.9539887930986887
  0.7566535327947725  0.9948010724410339  0.1751317325899217
  0.7825443190486653  0.6599649047957332  0.7694562521064303
  0.1364575407840422  0.9582992138321165  0.1440400439208480
  0.9476394682100544  0.1165838061607019  0.6328564913056290
  0.7277633631536851  0.1880966172656970  0.0813593996192880
  0.1509038801102541  0.6935363454523534  0.8797043202912089
  0.8594649448872077  0.8240602648169921  0.9210961337086404
  0.5557066741997858  0.5547835684251798  0.5845052543227262
  0.5536587860669229  0.9715233694931056  0.6559099861957577
  0.8136072080467038  0.5739394632198725  0.9930851061222288
  0.1241270946042689  0.4450068065425635  0.3791081927531830
  0.9258897535632823  0.9542597236359653  0.7761527839553928
  0.9023675454566195  0.3165568019010189  0.1832836116792886
  0.5912122924526908  0.1638994555952397  0.5645857953828879
  0.0948142514085561  0.5411307324663138  0.9060186414272388
  0.8784799628917481  0.3702963493502301  0.7571746922990991
  0.3437081070376409  0.4015904359381566  0.5688298182318914
  0.3552666219945234  0.9023337849942084  0.6520871582386033
  0.1285591776160864  0.4947340274744044  0.5793782808747794
  0.0530704995852454  0.2916491667045251  0.2035903686799569
  0.4479611334016971  0.2757740040065746  0.1323455297914597
  0.5137703185782100  0.0472384799372698  0.0493172291944450
  0.1453281083344121  0.2412776506265308  0.8436641234937571
  0.7193910531927943  0.7073982304320410  0.2660871429562738
  0.6432870011959814  0.7540725675201078  0.6125059708420300
  0.6572373441325823  0.1734101750019054  0.8880647590022657
  0.9951799336467450  0.9668496276655183  0.4534206181281631
  0.3041123325004251  0.6267112159609693  0.5657571110241298
  0.5860596440025810  0.8512723543392451  0.0747373561673014
  0.4344136008199763  0.2196345664111828  0.5146913828218034
  0.6214348143105896  0.5097249135258480  0.1278418520563632
  0.6291117808015159  0.0633648040311034  0.2219724482793395
  0.9602492644494754  0.1293360894538563  0.0917551631101157
  0.4355996705567576  0.7688354603302611  0.5551323087652272
  0.3332565497988889  0.0581075935808677  0.7331425227792064
  0.3008727416538172  0.7270096308494228  0.7628862878385966
  0.0549853058844656  0.6411969715889008  0.3287227623335601
  0.7432864000047164  0.1927898520939052  0.4209628871796662
  0.4935308555019540  0.9576437289682292  0.4534997841313776
  0.3804814509282557  0.7920276624122400  0.2414833779853375
  0.3909797936400750  0.5932054890631809  0.2442781519411047
  0.8743703205540229  0.1655107656233321  0.8819751386032260
  0.4878627063499451  0.2934999560172479  0.9015124952644087
  0.7561921815993425  0.0487738272783139  0.5985207348786608
  0.4713530932963397  0.6532679449187082  0.0311692095888165
  0.0041330185992140  0.7016160997210807  0.0859273595651154
  0.1795537685070193  0.8108803868057222  0.3479294960778735
  0.5814816456052232  0.6353111544500768  0.8140204373896952
  0.6558302368314901  0.3660740949582431  0.6970334510897120
  0.0034325413882101  0.3696813196298159  0.9467640337931905
  0.2535701720825203  0.3241448473179098  0.0342762299021302
  0.2679382507766334  0.0299465087058133  0.4570838930184214
  0.2267036771856138  0.1715670274818647  0.2442043071038731
  0.1772168520693510  0.2049443903701376  0.4162417615497265
  0.2404819764466468  0.1275472444432502  0.0628842169944049
  0.1767907781753222  0.2560553134058576  0.6094100616248705
  0.6110987050192734  0.0773788180554133  0.3813053843391164
  0.4047067389068951  0.2266059000196650  0.7394958552994629
  0.9512543562434280  0.2849989091743417  0.4170771522108108
 
  0.16457697E-02 -0.23388718E-03  0.10170821E-02
  0.17078794E-03  0.90908201E-03 -0.19092622E-02
  0.28004711E-02  0.50196324E-03 -0.17440661E-02
 -0.28049494E-02 -0.39720078E-02  0.84350788E-03
 -0.36397991E-02  0.13563335E-02 -0.31776171E-02
 -0.13733188E-03  0.93578908E-03  0.42131923E-02
 -0.32741614E-03 -0.17096406E-02  0.16558951E-02
 -0.85790102E-03 -0.51398086E-03  0.20587065E-02
  0.76492254E-03  0.93242504E-03  0.20878314E-02
 -0.21307197E-02 -0.19249285E-02 -0.29803278E-02
  0.16595035E-02  0.66933540E-03 -0.23716938E-02
 -0.12634278E-03 -0.16776807E-02  0.14072607E-02
 -0.19661658E-02  0.61697349E-03 -0.45493476E-03
 -0.27613720E-02  0.80803641E-03  0.69271377E-04
  0.15141449E-02  0.20888546E-02 -0.30640333E-02
  0.21704085E-02 -0.41845749E-02  0.43349964E-03
 -0.22954182E-02 -0.11294984E-02 -0.46645496E-03
 -0.31269365E-02 -0.17355834E-03 -0.18490260E-02
 -0.21853684E-02 -0.19258997E-02  0.99121862E-03
 -0.21977020E-02 -0.31193075E-02 -0.57403129E-03
 -0.12474178E-02  0.24214294E-02 -0.14437493E-03
  0.17494699E-02 -0.36103707E-02  0.35002414E-03
 -0.12078687E-02  0.22656397E-03 -0.16908629E-02
 -0.10638994E-02  0.49377577E-02 -0.88903562E-03
 -0.23993910E-02  0.10561459E-02  0.97700955E-03
 -0.21791241E-02  0.82459615E-03 -0.45900015E-03
 -0.13764531E-03  0.80477185E-03  0.21766852E-02
  0.23865290E-02 -0.84514627E-03  0.40171045E-02
 -0.45026195E-02 -0.69893743E-03  0.31199192E-03
 -0.90122547E-03 -0.17715052E-02  0.13757480E-02
 -0.18897424E-02 -0.43311912E-02  0.75844316E-03
  0.17638768E-05  0.38749151E-03 -0.18957859E-02
 -0.13391758E-02 -0.24360443E-02 -0.32584999E-02
 -0.12130347E-02 -0.64344507E-03 -0.95758006E-03
 -0.41459597E-02 -0.12436185E-02  0.99589602E-03
 -0.24477037E-03 -0.79020348E-03 -0.13233144E-02
  0.16031891E-02 -0.56501710E-03 -0.14472287E-04
  0.84736036E-03  0.12611480E-02 -0.10705212E-02
 -0.35504435E-02 -0.47605199E-03 -0.54252146E-03
  0.23592336E-02 -0.19813082E-02  0.19172869E-02
  0.17609909E-02 -0.13744628E-02 -0.30516604E-02
 -0.13971533E-02  0.31040755E-02 -0.14526163E-02
  0.39922085E-03 -0.60289941E-03 -0.62656311E-03
  0.31098109E-03 -0.11679928E-02 -0.32606670E-02
  0.32997455E-03 -0.13965285E-04 -0.10453252E-02
 -0.26063319E-03  0.59964515E-03 -0.73333461E-03
 -0.88277458E-03 -0.17224038E-02  0.13254651E-03
 -0.56914907E-03 -0.27635476E-03  0.11079881E-02
  0.20922467E-03 -0.68853787E-03  0.73322295E-03
  0.54112210E-04  0.15738246E-02 -0.17450970E-02
  0.59129051E-03  0.35838394E-03  0.47357882E-03
  0.26312699E-03 -0.63657984E-03  0.18670548E-04
 -0.39164104E-03 -0.14971325E-02 -0.89594146E-03
 -0.14098099E-02 -0.10248108E-02  0.64008797E-03
 -0.12371766E-02  0.46570629E-03  0.13859041E-02
  0.13058494E-02  0.17255433E-02  0.11120924E-02
  0.99662953E-03  0.85620801E-03 -0.11997907E-02
 -0.23054475E-03  0.52118467E-03 -0.23928375E-02
  0.27058478E-02  0.15387985E-02  0.13626963E-02
  0.32825484E-03 -0.18732753E-02  0.39479030E-02
  0.56363956E-03  0.38042736E-02  0.30298816E-02
 -0.84399483E-03 -0.22526349E-02  0.51620752E-03
 -0.38596053E-03 -0.47888257E-03  0.94588613E-04
 -0.43021533E-03  0.97841436E-03  0.69450159E-03
  0.18191112E-02 -0.39623888E-03  0.51100350E-03
  0.16534847E-02 -0.12325121E-02 -0.19503367E-03
  0.10691278E-02 -0.13350655E-04  0.17293013E-02
 -0.52656059E-03 -0.25728034E-02  0.14564986E-02
 -0.34864721E-02 -0.99629385E-03 -0.60491561E-03
  0.25358982E-02 -0.29169621E-03 -0.75896073E-03
  0.72099911E-04  0.18583803E-02  0.10898743E-02
 -0.18453764E-02  0.15676952E-02 -0.12680189E-02
 -0.44828494E-03 -0.29208975E-02  0.58413557E-03
  0.24385220E-03  0.98582795E-03 -0.66588298E-03
  0.17309611E-02  0.88043375E-03  0.26787836E-02
  0.18291147E-02 -0.63003583E-03  0.75389843E-03
  0.27918856E-02 -0.50885963E-03  0.82065906E-03
  0.17590589E-02 -0.13163923E-02 -0.10628191E-02
 -0.90197632E-03 -0.21156729E-03  0.30116597E-02
  0.23803136E-03  0.17998213E-02  0.12203973E-02
 -0.11163259E-03  0.32868292E-03 -0.63724113E-03
 -0.47896186E-04 -0.45384790E-03  0.18373195E-02
  0.93311347E-03 -0.55151879E-03 -0.95069615E-03
 -0.16189860E-02 -0.71397873E-03  0.24696687E-02
 -0.10030742E-02 -0.10223483E-02  0.17671254E-03
  0.56477833E-03  0.89910644E-03  0.46731293E-03
  0.48309322E-03  0.69023474E-04  0.81546664E-03
 -0.20749437E-02  0.15228855E-02  0.39292057E-04
  0.26375008E-02 -0.27957568E-02 -0.97804080E-03
  0.61128431E-03 -0.22264395E-02 -0.19508649E-02
  0.12759660E-02  0.17712907E-02  0.15051242E-02
  0.25525432E-02 -0.37738623E-03 -0.20682651E-03
  0.12137010E-02  0.53770802E-03 -0.15795129E-02
  0.11648642E-02 -0.40231474E-03 -0.55699632E-03
  0.22995213E-02  0.80285693E-03 -0.14326338E-02
  0.62648340E-03  0.31224696E-02  0.33947681E-03
 -0.26269071E-03 -0.22130403E-06  0.27714522E-03
 -0.16055661E-02 -0.12099334E-02  0.11521764E-02
 -0.50949357E-03 -0.46269140E-03  0.23485817E-02
  0.26412373E-02  0.16867418E-02  0.78916200E-03
 -0.92539278E-03  0.31302905E-02 -0.14665827E-02
  0.60614830E-03  0.32934621E-04 -0.10649349E-03
  0.90141717E-03  0.33400714E-03 -0.21182214E-02
  0.43361155E-03 -0.94373696E-03  0.29071771E-03
  0.19054717E-02 -0.56012425E-03  0.47146820E-04
  0.11800242E-02 -0.99646902E-03 -0.14085931E-02
 -0.48651214E-03  0.23898491E-03  0.11926950E-02
 -0.32490956E-03 -0.13502205E-02 -0.95934473E-03
 -0.14996364E-02  0.17616585E-02 -0.47570102E-03
  0.13264733E-02  0.29945036E-02 -0.60493295E-03
 -0.19610007E-02  0.23392547E-02  0.65083118E-03
  0.82462107E-03  0.32167542E-02  0.12277499E-03
 -0.60264139E-03 -0.36794444E-03  0.10862135E-02
  0.10386743E-02 -0.76320035E-03  0.14786710E-03
  0.19023674E-02  0.16726318E-03 -0.46641401E-04
 -0.25685476E-02  0.15608388E-02 -0.23289222E-02
  0.15151428E-02  0.11909220E-03 -0.83750315E-03
  0.18518802E-03 -0.12260799E-02 -0.32680733E-03
  0.11826069E-02  0.14372594E-02 -0.15360064E-03
 -0.54342590E-03  0.32066604E-03 -0.67323297E-03
 -0.21203140E-02  0.15038336E-02 -0.22198394E-02
  0.97310960E-03 -0.72835503E-03 -0.63762565E-03
 -0.30555103E-03 -0.12930619E-02  0.18319111E-02
  0.11696020E-02 -0.20329808E-02 -0.90400886E-03
  0.16778246E-02  0.85949876E-03 -0.54752565E-04
 -0.23770953E-02  0.14206973E-02 -0.22622587E-02
  0.78736127E-03  0.19376771E-02  0.15597142E-03
 -0.11027561E-02 -0.10062976E-02  0.11755692E-03
 -0.32914991E-03  0.27299619E-03  0.10914149E-02
 -0.10968142E-02 -0.13626883E-02 -0.28509081E-02
  0.68204977E-03 -0.19903405E-02 -0.42057276E-03
 -0.29825183E-02  0.19319500E-02  0.98185044E-03
 -0.33790958E-02 -0.19175546E-02  0.12019572E-03
 -0.19306627E-02  0.49726258E-03 -0.59296608E-03
  0.22421713E-02  0.66580903E-03  0.17598954E-02
  0.29080871E-02 -0.14434187E-03  0.14476526E-02
 -0.91697036E-03 -0.21190667E-03 -0.64502282E-03
 -0.10424688E-03  0.26554277E-02 -0.12447251E-02
  0.95917013E-03  0.72011769E-03  0.10215606E-02
  0.50856414E-03  0.27179156E-04  0.46387896E-03
 -0.27139889E-02  0.33796876E-03  0.69162327E-04
 -0.97387574E-03 -0.22132126E-02  0.67350572E-03
  0.75554371E-03  0.90310799E-03 -0.12314717E-03
  0.11654967E-02 -0.78699856E-03  0.78882278E-03
  0.15619872E-02  0.15421616E-03  0.10062816E-02
  0.97227277E-03 -0.64785220E-03  0.25070972E-02
 -0.14976776E-02 -0.20780414E-03  0.30782442E-03
 -0.18053957E-02  0.55342165E-03 -0.74544585E-03
  0.30334795E-03 -0.93215986E-03  0.58803347E-03
 -0.54530168E-03  0.25875316E-02 -0.62731614E-03
  0.11753241E-02 -0.93143019E-03 -0.18601272E-03
 -0.54254892E-03  0.42153766E-04 -0.32649687E-02
 
           1
   3.00000000000000     
  0.10000000E+01  0.00000000E+00  0.00000000E+00  0.00000000E+00
  0.30511187E+00  0.76806966E+00  0.63078911E+00
  0.51179700E+00  0.50791364E+00  0.16428822E-01
  0.53955312E+00  0.19266776E+00  0.79323956E+00
  0.51964944E+00  0.11157003E+00  0.67085390E+00
  0.59278834E+00  0.23230236E+00  0.69753176E+00
  0.88447917E+00  0.10298293E-01  0.54487091E+00
  0.41728852E+00  0.12712018E+00  0.62838171E+00
  0.52149234E+00  0.56644198E+00  0.33835968E+00
  0.53852807E+00  0.37496593E+00  0.26596257E-01
  0.82743524E+00  0.15009589E+00  0.18772828E+00
  0.89363152E+00  0.42790416E+00  0.47280704E-01
  0.18914537E+00  0.96509074E+00  0.29157461E+00
  0.64783150E+00  0.11109604E+00  0.75830625E+00
  0.57284982E+00  0.41988213E+00  0.49853881E+00
  0.66693076E+00  0.98086437E+00  0.39123345E-01
  0.98736246E+00  0.36960476E+00  0.53763740E+00
  0.33755012E+00  0.86574055E+00  0.82561040E+00
  0.93063762E+00  0.78059848E+00  0.63601068E+00
  0.42366725E+00  0.65754999E+00  0.65268118E+00
  0.31039117E-02  0.12314347E+00  0.47346731E+00
  0.69428527E+00  0.97678674E+00  0.73135497E+00
  0.20341120E+00  0.36345589E+00  0.50425928E+00
  0.93860991E+00  0.11176796E-02  0.30065175E-02
  0.35036934E+00  0.89750017E+00  0.40010744E+00
  0.31079955E+00  0.29662379E+00  0.88578299E+00
  0.77956641E+00  0.27137418E+00  0.82153701E+00
  0.78942453E+00  0.63075570E+00  0.38911262E+00
  0.71814627E+00  0.33807213E+00  0.39064397E+00
  0.79347579E-01  0.29877453E+00  0.34752553E+00
  0.38729413E+00  0.14333653E-01  0.54575738E+00
  0.20395203E-01  0.54493862E+00  0.48416509E-01
  0.62620378E+00  0.64935910E+00  0.48715874E+00
  0.95466475E-01  0.81032132E+00  0.47760168E+00
  0.53344137E+00  0.45471225E+00  0.25733047E+00
  0.47710375E+00  0.26598196E-01  0.78658082E+00
  0.86883433E+00  0.23633970E+00  0.14766874E-01
  0.26682361E+00  0.49641107E+00  0.66247928E+00
  0.46781727E+00  0.89965231E+00  0.99863161E+00
  0.96319817E+00  0.92051842E+00  0.61592114E+00
  0.61142627E+00  0.61864211E+00  0.97079051E+00
  0.98559448E+00  0.69769400E+00  0.51924094E+00
  0.53439155E-01  0.87771542E+00  0.85204488E+00
  0.24451843E+00  0.70681474E+00  0.23761028E+00
  0.11649902E+00  0.24333441E+00  0.13758903E-01
  0.57895392E+00  0.48499415E+00  0.88580358E+00
  0.85538329E-01  0.79080355E-01  0.24469662E+00
  0.50458156E+00  0.34588526E+00  0.63226219E+00
  0.78132420E+00  0.81965873E+00  0.65595889E+00
  0.94241146E+00  0.71988477E+00  0.24773296E+00
  0.11701847E+00  0.94418863E+00  0.61096705E+00
  0.68482991E+00  0.34238457E+00  0.97900568E-01
  0.74249457E+00  0.20652279E+00  0.67575870E+00
  0.85484152E+00  0.78663052E+00  0.77879606E-01
  0.17141674E+00  0.77756503E+00  0.93812312E-01
  0.24638988E+00  0.49069986E+00  0.10440989E-01
  0.85307180E+00  0.32496076E+00  0.61078538E+00
  0.46251866E+00  0.12523451E+00  0.91550229E+00
  0.90479814E+00  0.67984572E+00  0.87442370E+00
  0.30641369E-01  0.28249624E+00  0.66952173E+00
  0.40100628E+00  0.39228190E+00  0.23340690E+00
  0.23457355E-01  0.49952729E+00  0.25678358E+00
  0.56559520E+00  0.64862550E+00  0.22435522E+00
  0.86817839E+00  0.43149815E+00  0.33253441E+00
  0.38454264E-01  0.96410833E-01  0.79991763E+00
  0.42972024E+00  0.65959658E+00  0.86850033E+00
  0.28369383E+00  0.13749784E+00  0.90421324E+00
  0.73494071E+00  0.42421368E+00  0.55511961E+00
  0.74947623E+00  0.51285727E+00  0.86710995E+00
  0.62842147E+00  0.33325119E+00  0.26601219E+00
  0.27426869E+00  0.69475661E+00  0.99618783E+00
  0.39329757E+00  0.49615521E+00  0.10294020E+00
  0.84158464E+00  0.59578116E+00  0.23881608E+00
  0.51607374E+00  0.70050700E+00  0.39010081E+00
  0.64307382E+00  0.51688557E+00  0.38355063E+00
  0.86951155E-01  0.16266308E-01  0.95323657E+00
  0.48144123E+00  0.83195947E+00  0.84365402E+00
  0.71701102E+00  0.56576100E+00  0.62891387E+00
  0.94004556E+00  0.91360289E+00  0.12885109E+00
  0.86403737E+00  0.71695672E-01  0.41851980E+00
  0.34940151E+00  0.94511677E+00  0.25692343E+00
  0.79175181E+00  0.89767143E+00  0.51684360E+00
  0.52197936E+00  0.21465770E+00  0.27316149E+00
  0.45133669E+00  0.46876158E+00  0.40395672E+00
  0.14608929E+00  0.53764108E+00  0.14311186E+00
  0.87689176E+00  0.76448397E+00  0.42406779E+00
  0.39884090E+00  0.49475861E+00  0.89976916E+00
  0.16738265E+00  0.77312212E+00  0.61815487E+00
  0.17784439E-01  0.74085878E+00  0.75536200E+00
  0.10224361E+00  0.42342640E+00  0.71681203E+00
  0.87865004E+00  0.50223478E+00  0.47668467E+00
  0.15095325E+00  0.97784849E+00  0.76029103E+00
  0.30409958E+00  0.85808935E+00  0.99985762E+00
  0.77709449E+00  0.37050512E+00  0.95372020E+00
  0.75685161E+00  0.99473266E+00  0.17503702E+00
  0.78293534E+00  0.66010143E+00  0.76921264E+00
  0.13656407E+00  0.95883017E+00  0.14409777E+00
  0.94759480E+00  0.11658377E+00  0.63290362E+00
  0.72749034E+00  0.18789087E+00  0.81555322E-01
  0.15081724E+00  0.69345767E+00  0.88010368E+00
  0.85991407E+00  0.82434709E+00  0.92123033E+00
  0.55554932E+00  0.55531586E+00  0.58425587E+00
  0.55376186E+00  0.97152897E+00  0.65589188E+00
  0.81376049E+00  0.57399626E+00  0.99272491E+00
  0.12420083E+00  0.44484633E+00  0.37915763E+00
  0.92621377E+00  0.95416448E+00  0.77616080E+00
  0.90256820E+00  0.31638736E+00  0.18304409E+00
  0.59112956E+00  0.16394009E+00  0.56478861E+00
  0.94759002E-01  0.54090113E+00  0.90585551E+00
  0.87822496E+00  0.37059591E+00  0.75709380E+00
  0.34393367E+00  0.40209964E+00  0.56872695E+00
  0.35493316E+00  0.90273156E+00  0.65219783E+00
  0.12869940E+00  0.49528102E+00  0.57939916E+00
  0.52968023E-01  0.29158660E+00  0.20377507E+00
  0.44813775E+00  0.27564423E+00  0.13237067E+00
  0.51409381E+00  0.47266922E-01  0.49309298E-01
  0.14489134E+00  0.24154306E+00  0.84326810E+00
  0.71964870E+00  0.70741848E+00  0.26594473E+00
  0.64331849E+00  0.75386408E+00  0.61245040E+00
  0.65743844E+00  0.17365457E+00  0.88803864E+00
  0.99508753E+00  0.96690416E+00  0.45330614E+00
  0.30375178E+00  0.62696694E+00  0.56537964E+00
  0.58622512E+00  0.85114850E+00  0.74628931E-01
  0.43436164E+00  0.21941469E+00  0.51500289E+00
  0.62163370E+00  0.50937922E+00  0.12768813E+00
  0.62939709E+00  0.63510958E-01  0.22196314E+00
  0.95984505E+00  0.12957767E+00  0.91370477E-01
  0.43573356E+00  0.76916495E+00  0.55515883E+00
  0.33306903E+00  0.57936478E-01  0.73316251E+00
  0.30081677E+00  0.72705605E+00  0.76307188E+00
  0.54798798E-01  0.64096525E+00  0.32823798E+00
  0.74340238E+00  0.19245140E+00  0.42089137E+00
  0.49302369E+00  0.95797225E+00  0.45366674E+00
  0.37990685E+00  0.79170159E+00  0.24150382E+00
  0.39065149E+00  0.59329005E+00  0.24417732E+00
  0.87475159E+00  0.16562398E+00  0.88227440E+00
  0.48835721E+00  0.29347541E+00  0.90175866E+00
  0.75603626E+00  0.48737794E-01  0.59841105E+00
  0.47133537E+00  0.65371949E+00  0.30957550E-01
  0.42961207E-02  0.70173855E+00  0.86101071E-01
  0.17964025E+00  0.81088501E+00  0.34800838E+00
  0.58102015E+00  0.63536862E+00  0.81403220E+00
  0.65566463E+00  0.36569775E+00  0.69714798E+00
  0.35610179E-02  0.36983489E+00  0.94674309E+00
  0.25376836E+00  0.32401102E+00  0.34410365E-01
  0.26820386E+00  0.29972732E-01  0.45725501E+00
  0.22686901E+00  0.17145686E+00  0.24463063E+00
  0.17696218E+00  0.20490905E+00  0.41629411E+00
  0.24017498E+00  0.12764135E+00  0.62757458E-01
  0.17684236E+00  0.25589680E+00  0.60951005E+00
  0.61100598E+00  0.77818815E-01  0.38119871E+00
  0.40490660E+00  0.22644751E+00  0.73946422E+00
  0.95116210E+00  0.28500608E+00  0.41652196E+00
  0.26793974E-03 -0.27305426E-04  0.18539017E-03
  0.32467584E-04  0.16268961E-03 -0.32417692E-03
  0.46334052E-03  0.78858862E-04 -0.26938105E-03
 -0.39920141E-03 -0.68227866E-03  0.12511601E-03
 -0.60638799E-03  0.26059421E-03 -0.52556165E-03
 -0.45804992E-04  0.16349346E-03  0.69313540E-03
 -0.10783723E-03 -0.28892695E-03  0.23952096E-03
 -0.14810137E-03 -0.11267778E-03  0.35614393E-03
  0.11921198E-03  0.15802395E-03  0.33200662E-03
 -0.38129260E-03 -0.31817681E-03 -0.52192332E-03
  0.26574453E-03  0.10515757E-03 -0.40135033E-03
 -0.32904112E-04 -0.27262780E-03  0.23800829E-03
 -0.32149046E-03  0.11371403E-03 -0.72995178E-04
 -0.45756989E-03  0.12891050E-03  0.18428746E-04
  0.27003553E-03  0.36227296E-03 -0.51424443E-03
  0.36371715E-03 -0.73149623E-03  0.65713674E-04
 -0.37620552E-03 -0.19799008E-03 -0.79132828E-04
 -0.53660901E-03 -0.32710955E-04 -0.31114393E-03
 -0.36621047E-03 -0.31700734E-03  0.15079067E-03
 -0.36855760E-03 -0.52718145E-03 -0.11415520E-03
 -0.20939702E-03  0.41066507E-03 -0.11197072E-04
  0.29556309E-03 -0.61996729E-03  0.52535099E-04
 -0.19200433E-03  0.31239239E-04 -0.27346843E-03
 -0.17482448E-03  0.82856747E-03 -0.16726488E-03
 -0.40368798E-03  0.18978784E-03  0.16933387E-03
 -0.37129282E-03  0.15445824E-03 -0.80575264E-04
 -0.24662945E-04  0.13937065E-03  0.36881782E-03
  0.38559987E-03 -0.15990000E-03  0.67286185E-03
 -0.79234438E-03 -0.13908977E-03  0.30365226E-04
 -0.15816059E-03 -0.32733175E-03  0.23108356E-03
 -0.32343455E-03 -0.72644519E-03  0.13213739E-03
 -0.14289958E-04  0.59364055E-04 -0.31187269E-03
 -0.21633616E-03 -0.42181948E-03 -0.57223750E-03
 -0.22557502E-03 -0.12154258E-03 -0.14773415E-03
 -0.71257641E-03 -0.21788486E-03  0.17296135E-03
 -0.48820080E-04 -0.13932244E-03 -0.22878891E-03
  0.27923452E-03 -0.10942317E-03  0.45458319E-05
  0.14951188E-03  0.21020031E-03 -0.16426933E-03
 -0.59375072E-03 -0.93024555E-04 -0.11504546E-03
  0.39009873E-03 -0.33731025E-03  0.30980462E-03
  0.29520735E-03 -0.23309174E-03 -0.51182598E-03
 -0.22530992E-03  0.51879485E-03 -0.24409121E-03
  0.76115399E-04 -0.10465829E-03 -0.98972242E-04
  0.59120252E-04 -0.19547969E-03 -0.54153953E-03
  0.57359355E-04  0.39904868E-05 -0.17489530E-03
 -0.57096713E-04  0.92710274E-04 -0.11845918E-03
 -0.15386772E-03 -0.27979073E-03  0.25152554E-04
 -0.94874074E-04 -0.42539103E-04  0.17574803E-03
  0.31264780E-04 -0.12342885E-03  0.12000879E-03
  0.11134752E-04  0.28019275E-03 -0.27941623E-03
  0.10245989E-03  0.52489976E-04  0.78005663E-04
  0.41230892E-04 -0.10843312E-03  0.25226913E-05
 -0.71337718E-04 -0.25665236E-03 -0.15052517E-03
 -0.24117845E-03 -0.17134435E-03  0.10420896E-03
 -0.21062350E-03  0.72159141E-04  0.23235627E-03
  0.22653612E-03  0.29544467E-03  0.19422252E-03
  0.17547463E-03  0.14322377E-03 -0.20548113E-03
 -0.40086944E-04  0.95474319E-04 -0.40402733E-03
  0.45576485E-03  0.25985997E-03  0.22934159E-03
  0.71762289E-04 -0.31355950E-03  0.68367679E-03
  0.93334296E-04  0.65091995E-03  0.50786092E-03
 -0.14879402E-03 -0.37683610E-03  0.90105593E-04
 -0.63953343E-04 -0.76146563E-04  0.11903729E-04
 -0.63193531E-04  0.17502769E-03  0.10827483E-03
  0.30644637E-03 -0.70091700E-04  0.79326850E-04
  0.27634933E-03 -0.21797573E-03 -0.34287646E-04
  0.17607404E-03 -0.99850658E-06  0.30014599E-03
 -0.87238397E-04 -0.43307195E-03  0.26285049E-03
 -0.59164012E-03 -0.16453176E-03 -0.94589594E-04
  0.43478730E-03 -0.52394247E-04 -0.12381720E-03
  0.10129539E-04  0.31701578E-03  0.18311369E-03
 -0.30144583E-03  0.27023210E-03 -0.21346272E-03
 -0.75063735E-04 -0.49356897E-03  0.10272684E-03
  0.35772525E-04  0.15948211E-03 -0.11561648E-03
  0.29699434E-03  0.14445733E-03  0.46028991E-03
  0.30251450E-03 -0.10833839E-03  0.12295723E-03
  0.48029904E-03 -0.90466783E-04  0.13696758E-03
  0.30073473E-03 -0.21941341E-03 -0.18541159E-03
 -0.15451603E-03 -0.40480813E-04  0.51991009E-03
  0.46845315E-04  0.29167786E-03  0.21149516E-03
 -0.20464722E-04  0.43810897E-04 -0.10526709E-03
 -0.31746594E-05 -0.78385694E-04  0.31749369E-03
  0.16835767E-03 -0.83368081E-04 -0.17856627E-03
 -0.27884696E-03 -0.12234643E-03  0.42548056E-03
 -0.16880093E-03 -0.17007196E-03  0.36965251E-04
  0.91201358E-04  0.15498569E-03  0.70325385E-04
  0.88046577E-04 -0.12400543E-05  0.14755971E-03
 -0.34276676E-03  0.26497906E-03  0.14217134E-04
  0.45128862E-03 -0.47625576E-03 -0.17328565E-03
  0.10547573E-03 -0.37717332E-03 -0.33390940E-03
  0.20994885E-03  0.30398767E-03  0.23995492E-03
  0.43813736E-03 -0.53058984E-04 -0.37905941E-04
  0.21388543E-03  0.96630363E-04 -0.26549598E-03
  0.18163564E-03 -0.56232815E-04 -0.90350716E-04
  0.38347437E-03  0.13657018E-03 -0.24953662E-03
  0.10368443E-03  0.52514304E-03  0.51945875E-04
 -0.42977504E-04  0.84062404E-05  0.59516718E-04
 -0.26677187E-03 -0.19660774E-03  0.20702996E-03
 -0.90601224E-04 -0.76312551E-04  0.39170723E-03
  0.44821399E-03  0.27875291E-03  0.12923534E-03
 -0.15736349E-03  0.53996375E-03 -0.25161600E-03
  0.99318631E-04  0.11053609E-04 -0.17957481E-04
  0.14697945E-03  0.45691902E-04 -0.37119584E-03
  0.78066825E-04 -0.15580847E-03  0.56245195E-04
  0.31205488E-03 -0.99054684E-04  0.89195315E-05
  0.21824008E-03 -0.17312515E-03 -0.23989237E-03
 -0.79649728E-04  0.25842844E-04  0.21081216E-03
 -0.49802500E-04 -0.22642742E-03 -0.16742313E-03
 -0.26688267E-03  0.29002589E-03 -0.81370603E-04
  0.23259214E-03  0.50806270E-03 -0.97703720E-04