GeSe+Se                                 
   1.00000000000000     
    23.3786273745123196    0.0000000454951261   -0.0690736045226564
     0.0000053085099395    7.9593654222706096   -0.0000000901420482
     0.2465534807201001    0.0000032668376622    8.5775265469186568
   Ge   Se
    33    32
Direct
  0.0685710030517109  0.1255570357956898  0.0613234427538689
  0.9310348766660314  0.8749999999964270  0.9401178708166208
  0.1806465671627280  0.8750000000098233  0.3033583139330073
  0.3107469107546099  0.1212531875858997  0.1885662603353015
  0.9318742108106887  0.3749999999985586  0.9386855330354182
  0.1805108813168888  0.3750000000116426  0.3030273209293664
  0.0678414835812266  0.1245151754744853  0.5616751874559825
  0.9312996150001814  0.8749999999979757  0.4382928712388697
  0.1810292031982316  0.8750000000073115  0.8030250067182043
  0.3133852007241581  0.1208758170698553  0.6956927207714062
  0.9319097349339724  0.3749999999957304  0.4384160468885230
  0.1807236739956241  0.3750000000090614  0.8026760292582079
  0.0685710030517840  0.6244429642130198  0.0613234427518370
  0.3107469107548959  0.6287468124721983  0.1885662603553359
  0.0678414835812232  0.6254848245427114  0.5616751874586579
  0.3133852007225820  0.6291241829486830  0.6956927208102379
  0.5735781909387905  0.1295182541968907  0.0575311892987562
  0.4280491386598569  0.8750000000198906  0.9526953489732016
  0.6847212732537242  0.8749999999892196  0.3057385148875543
  0.8186590852425490  0.1239696787844602  0.1976482405431716
  0.4269229454325117  0.3750000000188705  0.9428822974101089
  0.6850081200231534  0.3749999999852025  0.3063733719890205
  0.5775998555069294  0.1135701257259433  0.5580243252779893
  0.4299817649715015  0.8750000000140954  0.4338889528938505
  0.6839561335576020  0.8749999999932733  0.8121535120712504
  0.8192702532589020  0.1259595983875039  0.6965964184686939
  0.4104195680733845  0.3749999999224037  0.4045054524172317
  0.6970569205468381  0.3749999999592525  0.8242382337623760
  0.5735781909470898  0.6204817457592807  0.0575311892441951
  0.8186590852411235  0.6260303212039051  0.1976482405470648
  0.5775998555022928  0.6364298741998894  0.5580243253297639
  0.8192702532585622  0.6240404015967300  0.6965964184638862
  0.4960683372002428  0.3749990170682819  0.5845846490578561
  0.0717448728061392  0.3749999999996794  0.2635831022511336
  0.9278972280776343  0.6249619151429791  0.7370230101026963
  0.1765623376892589  0.6255523984433461  0.5063014876859534
  0.3177559831101047  0.3750000000324591  0.9884899711786537
  0.0720431264821625  0.8750000000004384  0.2631696134410540
  0.3177297501812678  0.8750000000310668  0.9881040678934196
  0.0719402736330063  0.3750000000000338  0.7642676306297574
  0.9278321004837944  0.6251156174476669  0.2359568331996228
  0.1779679658425750  0.6248599456466634  0.0063566364441729
  0.3092049497359800  0.3750000000529854  0.4977073714508455
  0.0722774795492531  0.8749999999989978  0.7645357222198657
  0.3207519752080569  0.8750000000187914  0.4882050502018359
  0.9278972280773897  0.1250380848533434  0.7370230101030587
  0.1765623376897628  0.1244476015392749  0.5063014876826536
  0.9278321004834108  0.1248843825538145  0.2359568331999337
  0.1779679658427847  0.1251400543264909  0.0063566364464178
  0.5750706608812749  0.3749999999912922  0.2647671772227480
  0.4237640726949675  0.6221027163659202  0.7352796663980768
  0.6859652406530387  0.6241503146523604  0.5104473623618013
  0.8224491429054867  0.3750000000059995  0.9945883673978380
  0.5739076537484552  0.8749999999898398  0.2756182687096751
  0.8221329147169858  0.8750000000117492  0.9934042722173263
  0.5872370919865036  0.3750000000282989  0.7826939970098561
  0.4229362317570841  0.6290762287098313  0.2224214746757477
  0.6834611918871821  0.6307726000983769  0.0199842208748056
  0.8232608942878459  0.3750000000072795  0.4930840861559059
  0.5736579950528949  0.8749999999893201  0.7710783305761694
  0.8223905716267078  0.8750000000094673  0.4943982438824276
  0.4237640726910367  0.1278972836556475  0.7352796664201344
  0.6859652406483221  0.1258496852835128  0.5104473623682427
  0.4229362317638981  0.1209237713461396  0.2224214746240708
  0.6834611918841624  0.1192273998127684  0.0199842208272857
 
  0.00000000E+00  0.00000000E+00  0.00000000E+00
  0.00000000E+00  0.00000000E+00  0.00000000E+00
  0.00000000E+00  0.00000000E+00  0.00000000E+00
  0.00000000E+00  0.00000000E+00  0.00000000E+00
  0.00000000E+00  0.00000000E+00  0.00000000E+00
  0.00000000E+00  0.00000000E+00  0.00000000E+00
  0.00000000E+00  0.00000000E+00  0.00000000E+00
  0.00000000E+00  0.00000000E+00  0.00000000E+00
  0.00000000E+00  0.00000000E+00  0.00000000E+00
  0.00000000E+00  0.00000000E+00  0.00000000E+00
  0.00000000E+00  0.00000000E+00  0.00000000E+00
  0.00000000E+00  0.00000000E+00  0.00000000E+00
  0.00000000E+00  0.00000000E+00  0.00000000E+00
  0.00000000E+00  0.00000000E+00  0.00000000E+00
  0.00000000E+00  0.00000000E+00  0.00000000E+00
  0.00000000E+00  0.00000000E+00  0.00000000E+00
  0.00000000E+00  0.00000000E+00  0.00000000E+00
  0.00000000E+00  0.00000000E+00  0.00000000E+00
  0.00000000E+00  0.00000000E+00  0.00000000E+00
  0.00000000E+00  0.00000000E+00  0.00000000E+00
  0.00000000E+00  0.00000000E+00  0.00000000E+00
  0.00000000E+00  0.00000000E+00  0.00000000E+00
  0.00000000E+00  0.00000000E+00  0.00000000E+00
  0.00000000E+00  0.00000000E+00  0.00000000E+00
  0.00000000E+00  0.00000000E+00  0.00000000E+00
  0.00000000E+00  0.00000000E+00  0.00000000E+00
  0.00000000E+00  0.00000000E+00  0.00000000E+00
  0.00000000E+00  0.00000000E+00  0.00000000E+00
  0.00000000E+00  0.00000000E+00  0.00000000E+00
  0.00000000E+00  0.00000000E+00  0.00000000E+00
  0.00000000E+00  0.00000000E+00  0.00000000E+00
  0.00000000E+00  0.00000000E+00  0.00000000E+00
  0.00000000E+00  0.00000000E+00  0.00000000E+00
  0.00000000E+00  0.00000000E+00  0.00000000E+00
  0.00000000E+00  0.00000000E+00  0.00000000E+00
  0.00000000E+00  0.00000000E+00  0.00000000E+00
  0.00000000E+00  0.00000000E+00  0.00000000E+00
  0.00000000E+00  0.00000000E+00  0.00000000E+00
  0.00000000E+00  0.00000000E+00  0.00000000E+00
  0.00000000E+00  0.00000000E+00  0.00000000E+00
  0.00000000E+00  0.00000000E+00  0.00000000E+00
  0.00000000E+00  0.00000000E+00  0.00000000E+00
  0.00000000E+00  0.00000000E+00  0.00000000E+00
  0.00000000E+00  0.00000000E+00  0.00000000E+00
  0.00000000E+00  0.00000000E+00  0.00000000E+00
  0.00000000E+00  0.00000000E+00  0.00000000E+00
  0.00000000E+00  0.00000000E+00  0.00000000E+00
  0.00000000E+00  0.00000000E+00  0.00000000E+00
  0.00000000E+00  0.00000000E+00  0.00000000E+00
  0.00000000E+00  0.00000000E+00  0.00000000E+00
  0.00000000E+00  0.00000000E+00  0.00000000E+00
  0.00000000E+00  0.00000000E+00  0.00000000E+00
  0.00000000E+00  0.00000000E+00  0.00000000E+00
  0.00000000E+00  0.00000000E+00  0.00000000E+00
  0.00000000E+00  0.00000000E+00  0.00000000E+00
  0.00000000E+00  0.00000000E+00  0.00000000E+00
  0.00000000E+00  0.00000000E+00  0.00000000E+00
  0.00000000E+00  0.00000000E+00  0.00000000E+00
  0.00000000E+00  0.00000000E+00  0.00000000E+00
  0.00000000E+00  0.00000000E+00  0.00000000E+00
  0.00000000E+00  0.00000000E+00  0.00000000E+00
  0.00000000E+00  0.00000000E+00  0.00000000E+00
  0.00000000E+00  0.00000000E+00  0.00000000E+00
  0.00000000E+00  0.00000000E+00  0.00000000E+00
  0.00000000E+00  0.00000000E+00  0.00000000E+00
