Amorphous Sb2Se3                        
   1.00000000000000     
    20.1283632703415059    0.0000000000000000    0.0000000000000000
     0.0000000000000000   20.1283632703415059    0.0000000000000000
     0.0000000000000000    0.0000000000000000   20.1283632703415059
   Sb   S 
   120   180
Direct
  0.2410885990549016  0.6716754067067426  0.3508868041917203
  0.4177099015683165  0.9251111287945030  0.8202459608024955
  0.4776799770766978  0.8093277404955509  0.0172299649547419
  0.9265976062347522  0.9580265302069569  0.1337040521369522
  0.3633281590910369  0.2337385977049206  0.7907137551028636
  0.3292884691530373  0.9048351456518654  0.1189835720910345
  0.1617061529575444  0.6764413512970012  0.6897810683281103
  0.6418178939495424  0.7375944865702243  0.4396700856945780
  0.6908272014549524  0.0913515451113132  0.6912426299598758
  0.3899767918838893  0.6584084638101999  0.9033549028064634
  0.5604777248837413  0.0833206863998081  0.8481900071643259
  0.1685317103714261  0.1959556440460072  0.7554021339396230
  0.5312235445379805  0.5635432469041498  0.0397905293873593
  0.5598454600273914  0.0573430775830034  0.4295292134585286
  0.0331287783282597  0.0993032990400199  0.7075611536909093
  0.0802705463801295  0.6594539846062768  0.8493643866781208
  0.8186438642651267  0.4168850248406796  0.7539711957863355
  0.5908525046120542  0.9346545903194838  0.5975151626747396
  0.8596040511300498  0.7644000293370640  0.1662310732561670
  0.3381431353558037  0.4469431198461797  0.4379328611141111
  0.9812988557221232  0.4413568452756258  0.5878228133582134
  0.6585555571297055  0.9314464933862703  0.8915934750343933
  0.3827355365047548  0.7815963151064981  0.5143978381518927
  0.1448642423835086  0.9039540295140397  0.0730776009028093
  0.8420197094358320  0.2574814008153951  0.1625546081357421
  0.8171740049607742  0.0981398601359121  0.2234052709504074
  0.4646832057955462  0.2207099948736631  0.0877448004752982
  0.8522452035239154  0.1134947123213550  0.0494210239502517
  0.3193420403686824  0.0547440654459753  0.3792934970312257
  0.5931230438831810  0.0435745452468003  0.2548094100179355
  0.5758009446860202  0.3745786273302309  0.2771049414678167
  0.3967183346183983  0.9315443266422596  0.6006524066656075
  0.2261170710230031  0.5120631734919172  0.6408167388091702
  0.2839206428566887  0.8415820684098634  0.9150740189152670
  0.9849309664802610  0.8436856596120549  0.2990445104001552
  0.6386824266662561  0.4616858535976143  0.6942906369061432
  0.4891166324285333  0.8945823542690445  0.3969649854294519
  0.8901946477901738  0.5809714978759402  0.2062207855096541
  0.8396816051445262  0.5298631514905335  0.0047807401307514
  0.1529404390834031  0.4263206111873634  0.9596756832219322
  0.7379006405094172  0.3409594758539368  0.5560937340089810
  0.9299353329825361  0.0993751861328693  0.3981290700988229
  0.6561470661390358  0.5062772739340790  0.4046968651411198
  0.1168436495509992  0.7640524157623585  0.2041746651211645
  0.5012677359060459  0.6518633284602114  0.5218608095541509
  0.8385993713570876  0.1059978148055414  0.7951452769766051
  0.2879419097238409  0.5914265026662058  0.0517209250500584
  0.3831491140895055  0.2791061322942014  0.2492627113906465
  0.7726793298643870  0.2284976915287487  0.9192799789529611
  0.6222179736554116  0.5036360212706756  0.9119082235973496
  0.0480963044493148  0.8023833040128470  0.7574910467118622
  0.4206636878289513  0.7482233361848053  0.7057309946704678
  0.0167615708086502  0.2555629022518264  0.3724157308636775
  0.1363432838209604  0.7285437553176903  0.0129648439736837
  0.1752679338843709  0.1587073702877727  0.0705931822837168
  0.0408490410196100  0.8995511111991509  0.6099972958769088
  0.6483599293058308  0.2662349741039506  0.7655065035119245
  0.6834806953257441  0.8976445818385113  0.6964346408580397
  0.3440597232299729  0.5936333538459139  0.6908076281836263
  0.2328339493376762  0.0126177603052771  0.5794560364218260
  0.3517399032213215  0.0822952716893984  0.1643079017288057
  0.7954287963028339  0.6062989711632953  0.6799566925310040
  0.6332336811981167  0.1446422246435260  0.0041487577109142
  0.7401056117178378  0.3697991660160270  0.9667861607899827
  0.5091231276861581  0.0965736564704257  0.5966162235451971
  0.2131552879189350  0.5858901283269462  0.8737553598141629
  0.5453927075548015  0.3323765742797590  0.8967549401121488
  0.4789824315716381  0.4394607708331717  0.3528480878311755
  0.2984939009144289  0.8668489552091507  0.3640966695142000
  0.8847202792013578  0.7090792541370898  0.9436783746311258
  0.2664066152868875  0.0401124403831912  0.7193217343631536
  0.0418314040298401  0.1480322768407786  0.9492148541914619
  0.9142218610371452  0.9830368699190600  0.5838573674831589
  0.9623131777976642  0.2977905594550755  0.7502899605639040
  0.3217682648993555  0.4018737657596784  0.9075770923145942
  0.0502402249216673  0.5466829156548995  0.3078693975680536
  0.4870642025962037  0.4368474743392616  0.5715384060155226
  0.8658065075106240  0.9509025851486431  0.9514722416851304
  0.0411405828222214  0.3563995432682346  0.2345438576735387
  0.4614350613571672  0.0720450082008108  0.0012763854435527
  0.5309139544017584  0.8727232917317397  0.1834984202529074
  0.0645868066265597  0.5836011045914197  0.5155218000131678
  0.9587132734089654  0.2956701890546353  0.0813436409159187
  0.9963468085986942  0.9932890030892887  0.8006961067727866
  0.2373138933197830  0.3821971414781246  0.7848421206505537
  0.8693299828322816  0.5976005674644110  0.4447513558309762
  0.8137915500100112  0.7466395763990844  0.5486232253008076
  0.6536566614351873  0.2455209457736117  0.1496609542451150
  0.6588757972586778  0.7459760996504713  0.8261754436854455
  0.7657406470070550  0.3380539797350148  0.3231299203051305
  0.5621186326713928  0.2651900834488418  0.5145186357451739
  0.4102045799298908  0.2009599340549541  0.4593184609244083
  0.9103924093861683  0.6799356713011175  0.7436809780816303
  0.8575901760753217  0.8577231933059201  0.7810687239713606
  0.7613397770421027  0.9373005696919319  0.2765429485017947
  0.1422455936290771  0.4235842920956714  0.4299800460704934
  0.7100081497488183  0.8356496649621189  0.0338676535602558
  0.1593901003646751  0.9448760601214047  0.2748037154350047
  0.0358359019559946  0.4715370981229456  0.7810967603743554
  0.7353736655507855  0.9379853286085146  0.4708258319205482
  0.6796514651445518  0.1758471062025296  0.3976765421046082
  0.0181414518864165  0.5542950979345362  0.0676435006155892
  0.0941351946042171  0.0797167732366958  0.2801026123587585
  0.3987187593335788  0.3415456092734376  0.5058282977830801
  0.2322158110141411  0.2064482705189497  0.3408304195621695
  0.0755804542061899  0.9895394979922499  0.4391039547305597
  0.4376399530848941  0.4439739045314862  0.7676721300878608
  0.4028171832532303  0.6795660092311084  0.2588614302148160
  0.9991815756368484  0.2600924225094065  0.5920953498036053
  0.6027369370096614  0.6497948711044134  0.6948721917527352
  0.7318481485412334  0.4677513489453540  0.1248552052413445
  0.1717686595476940  0.4198473754895194  0.1746391095474326
  0.2611183519613791  0.0203031063433627  0.9767239792334071
  0.8497610745543384  0.1812344004159397  0.5694227481265287
  0.3108000086194989  0.5228680963931817  0.2255624546732994
  0.6997850544586032  0.6838109436287747  0.2230209588049835
  0.4343957807714744  0.4121204952065651  0.1158181140495839
  0.7112495329847524  0.5690177807424520  0.5290869477634896
  0.1372654050537840  0.2126553076936393  0.5453584332720095
  0.3101272569418241  0.2681555277776283  0.5982195419688592
  0.3361071465213951  0.3730994909688153  0.7113745465960502
  0.7820762383941898  0.4644596746463153  0.9036413340060397
  0.2877986578783629  0.7319103702068421  0.2553103732941494
  0.4016282160838811  0.5139147084767201  0.5436676428064352
  0.9151497790414037  0.1378698121872309  0.1553234475069657
  0.4986690939076292  0.0033665708936070  0.3254669505309737
  0.1411975502217578  0.9206779725641466  0.5428075086736751
  0.9034786549501903  0.7878171398016965  0.6854375666845133
  0.9458493900959624  0.4554068512897370  0.9898799230339745
  0.3668392941312713  0.1486280661157112  0.0401062675284853
  0.2408005801297133  0.3472668757909098  0.9853899667066514
  0.7712180189404054  0.8612084512546367  0.9163002628333556
  0.1350769199387973  0.7827732171882374  0.8375321492044717
  0.2880133078972572  0.3462785419394529  0.3521755992187709
  0.7331287495577514  0.3399913168456163  0.1606478755632052
  0.4589635391561983  0.0945087254346804  0.7764477523665456
  0.1640265029474526  0.0773070065047737  0.7962008756006256
  0.0067216808236489  0.0143357423970255  0.3325894624322115
  0.9538155297847808  0.6859602865638803  0.4383778736906235
  0.8328842256885332  0.2987909217183622  0.4226672100713801
  0.8655746567845011  0.3341811291810090  0.6724396858025866
  0.7391321275529678  0.1956619239813318  0.6064175129192951
  0.5043704286046886  0.4513069016445808  0.9038226293999482
  0.6982214284198429  0.7250350623910241  0.7019194675643748
  0.7791002331182700  0.7005831505212835  0.4428270562368132
  0.2263372116465466  0.8160223664463718  0.0862467319567673
  0.3778472545033580  0.1125659530488499  0.8309506110883754
  0.4135909471455795  0.8259338221664368  0.3256469367818502
  0.2002673543289489  0.0869685259811452  0.3947050582425378
  0.8102474557998219  0.0111719139954225  0.1422850170214937
  0.5335610977169339  0.3442779656063535  0.1660065969461208
  0.5566130405027797  0.5426969780822274  0.1822277395559821
  0.3494460378963484  0.5273344305235786  0.7968267582424303
  0.9401032141835705  0.1737908355208715  0.3005057228182886
  0.3679143046480489  0.1829146145548700  0.3350796141361442
  0.6175951828513565  0.9978572188939665  0.7365675308923577
  0.0484035107502949  0.2041092262734724  0.8442228843566714
  0.1380575751518525  0.5478564538756333  0.4134076732144509
  0.1796626822945687  0.1132601216324189  0.9567503382298188
  0.7531945661929331  0.4525852823102733  0.6446024340797774
  0.0614852988172065  0.0442748374910066  0.1638287831068066
  0.9505399149553578  0.0257858283149056  0.0254154740797083
  0.2809021395529227  0.9051426248388396  0.6174296934491124
  0.4431544835156239  0.6940854118440770  0.0060556174455922
  0.5498747649614754  0.0972503377162131  0.0899869145441051
  0.9190734098969545  0.5542056027850407  0.3277217343064999
  0.6497709405106123  0.5202227400689711  0.2142205835827206
  0.0632980173987081  0.1303779600028812  0.1068773335004809
  0.1656047456972821  0.5248306702941954  0.7478925732454040
  0.6130444540031541  0.8332750803152131  0.9450962314399671
  0.5369155803744415  0.3039199958643023  0.7769190308341928
  0.1428425470785132  0.2664517324196540  0.4318555003472123
  0.9705171383062172  0.5102921994178706  0.4691985637822445
  0.0322680078267138  0.6776761815416571  0.9564875415967284
  0.2313850001270296  0.1525655742592702  0.2256008470494536
  0.2222721854203176  0.4165225544232653  0.3185081061666136
  0.2741130466413586  0.7712989909081478  0.4461842336266677
  0.7899403557525958  0.8708051860643206  0.5614158174045834
  0.1945185473281354  0.3094008348961966  0.5983062837152324
  0.2394028565183563  0.4560830371572983  0.5033536595048107
  0.7486218517251072  0.6051586107862880  0.1299663752301422
  0.2671690762645803  0.6677088576861075  0.7529551560427313
  0.0973770105147730  0.2453208937480988  0.0078677447010054
  0.5550730361121247  0.4368986788026141  0.4542645724418100
  0.6750883785586563  0.1942263273587314  0.8637243766896073
  0.9887343632414816  0.7386495871645518  0.2407081436404233
  0.0293230793156742  0.1569377915037296  0.4449154546131724
  0.9342617721449411  0.4021219881275107  0.8167640498102891
  0.7271030397878467  0.2253820375700361  0.2916050975115555
  0.3128827888326846  0.0021326163824028  0.2745384627221268
  0.6148765033744981  0.5204475693690856  0.5855298351436251
  0.4987636126373748  0.5212497289874974  0.6959700540060022
  0.6104839489729111  0.1477598299068976  0.5266367576624038
  0.6882095188362923  0.0380399609590682  0.3406722000783737
  0.3797788225751511  0.6576412935737090  0.5004099257852158
  0.4493661634228898  0.0595195666046906  0.4907861974217513
  0.8855755250121048  0.3914821657444015  0.0462597529082700
  0.7730095684953827  0.8631673876923323  0.3750657237830670
  0.9761370842650400  0.6139028281911839  0.6207024627522950
  0.0149925259456945  0.0551976986760994  0.5892481239878193
  0.2445674514845519  0.2631568150014900  0.8399540170579443
  0.4599234764790607  0.1744309273915728  0.2034298851964704
  0.1105385339481999  0.6669563135191341  0.1257479240751087
  0.7549565822276654  0.7143981441741093  0.9991396062577427
  0.8519148676066081  0.0118758281370420  0.3154361244878865
  0.8291878658670453  0.7289502530830845  0.8275698078463365
  0.6188926167699860  0.4738926505180658  0.0367147396498407
  0.6837894405109174  0.0161839856856572  0.5815330648343972
  0.7708380322193914  0.0289100815047818  0.9616962812860792
  0.1613219108644549  0.5245491481465454  0.2317644668242533
  0.3223634826733935  0.7664526944374490  0.6266686854181862
  0.5154501194380663  0.1669879050183125  0.9366021111621144
  0.5579336538217595  0.1565330139858868  0.3553625433351600
  0.8313967404328546  0.2320414602236593  0.8117467695985587
  0.6671189296180692  0.2918424141887742  0.4439316506382764
  0.2516788385005595  0.2520114181939722  0.1959050941099403
  0.9622291574133567  0.8449731453335181  0.8458613774352773
  0.4020736888474046  0.4277631545374801  0.2297950075973900
  0.9701652968794213  0.9327787978730113  0.4756689902691666
  0.1357679132650655  0.8956191720729019  0.3822292341326755
  0.3583804634455796  0.5904369299347328  0.3381398945641186
  0.9104831705518741  0.1434334802840397  0.7007655986210993
  0.0374149522785671  0.5288100676689855  0.8819698311860530
  0.0986721865277997  0.2499080880191910  0.2685393454354136
  0.8353469742875369  0.0631712951036622  0.5331757725115530
  0.4919255997693874  0.3110889918116503  0.3493041507942686
  0.6276558217518473  0.6433870350851998  0.3635891390878582
  0.3734317500845266  0.0440399199593269  0.6365754342041793
  0.9188602787457839  0.0704384345347776  0.8716758170404543
  0.0934396156751932  0.3607823727219918  0.8274263266610441
  0.4153867475857358  0.8033476269714473  0.1344628530606173
  0.9264122702276372  0.2110203593625664  0.9937238689467374
  0.7378688465766238  0.4344958085718379  0.4682557738661846
  0.3868359110526784  0.6025615091356028  0.1656932945636135
  0.4948030124376735  0.7570021943470928  0.6021102331708920
  0.0998695413894564  0.4697912683336937  0.5611000398102283
  0.8356966800035265  0.1952813580585532  0.4356936075467420
  0.6270460972357662  0.3232890034734824  0.6050775695908451
  0.5895671148875586  0.1619768632932732  0.7076735075683056
  0.6257451887977187  0.2691166943246445  0.0268901392392679
  0.6278019694958205  0.8742264942382035  0.4954231982061034
  0.3243559599086149  0.9466073134887690  0.4517004042159802
  0.6651486850230205  0.3759341959664781  0.8660955940246541
  0.7158330143856068  0.6307510454316017  0.0328308148200378
  0.0715110254555933  0.7768821300832884  0.6076012766626692
  0.9698384622209243  0.3474972291562682  0.5091756482176676
  0.6152639321119162  0.8521046110320897  0.7875480948734292
  0.7366523279301940  0.7956431535796080  0.1680477054444499
  0.5447648452063786  0.6938642585638729  0.7961833958326437
  0.9130054435359467  0.6298337991635699  0.0611724216563784
  0.2729560005557135  0.1687488313972574  0.6964060100385183
  0.7181252106883571  0.1493313101807104  0.1009557646846281
  0.3738099255988287  0.5517162841972091  0.9722063185903739
  0.2936296030549458  0.9427792356113535  0.8359224604826896
  0.5776512367798623  0.6208297275408128  0.9411154218207904
  0.6341791047241764  0.9490886154959871  0.1962998365607000
  0.6501539295208311  0.6817027434808807  0.5519738185527019
  0.0576995470203420  0.3539164313873686  0.9196141960517198
  0.0428400704248451  0.9006397798876329  0.2086892155183813
  0.7238224899097595  0.6101242373194863  0.3411878721974817
  0.1784153229811179  0.9329530213067161  0.9564328596002730
  0.0288983317388660  0.4295357687306997  0.3407691570174507
  0.8770161140060311  0.8673650094575225  0.2381480910477874
  0.6886730365607663  0.9777889164221855  0.0083564562659849
  0.4607304429140949  0.2113636736440108  0.5975096514784444
  0.1938987555935505  0.6188829439540495  0.5871124652947602
  0.3977453615997285  0.8050176353334658  0.8579588592100793
  0.8541692929017999  0.5995843392586172  0.9020631108353805
  0.1741802644879542  0.5736684742679619  0.9953996717945561
  0.9835775761648474  0.5020566120306034  0.1750458842748208
  0.5191786272058315  0.7228806896228205  0.4281763034221266
  0.0832105614680370  0.9203035800044774  0.7245228771734238
  0.1743745065450280  0.7817419901523346  0.6319804192114181
  0.9357883089229618  0.7617126658097991  0.5075319837603645
  0.8696352720130495  0.5302571468579028  0.7434429588166737
  0.3937230817469352  0.3010733315430405  0.8969312470002898
  0.2406171309073638  0.0231611668332004  0.1028886542409759
  0.5708075027142933  0.6338150294914412  0.1331994218976932
  0.2955069638342097  0.4793135666556967  0.1040702957412290
  0.3618075553296356  0.9093371210948292  0.9983821379728808
  0.8735967264078943  0.3307240732869824  0.2561808030089789
  0.8941820540069578  0.9774051043756867  0.7315026976717818
  0.5800224124797025  0.7986888150945797  0.2698694630313744
  0.5321441600437474  0.9804095155855925  0.9141077333196186
  0.4374332271340670  0.8764398094512363  0.7070373582861944
  0.5763009441685057  0.7923288661699665  0.1004528519562255
  0.6020351960632329  0.8577579011157732  0.3473304417610386
  0.3014739801795788  0.1872972472395431  0.5041958442370811
  0.1248718830768359  0.7052566484063524  0.3160569485036571
  0.2728541218932913  0.6934735955110222  0.9250306937703994
  0.8730597141514190  0.8757360081065200  0.0578736286448761
  0.0501937099188286  0.3502442187962254  0.6647716350043621
  0.3677247111871899  0.3127542205086516  0.0999832787460038
  0.6683576218731401  0.5631227523469575  0.7630851553456992
  0.8106464904314242  0.4857456698613209  0.2229727926522668
  0.0594654845184652  0.8230943962605215  0.0479535828826928
  0.0962384184832765  0.4325548744693708  0.0718952528192975
  0.8812627995144735  0.5893468991459605  0.5818836138982235
  0.8172836633313952  0.6977337359249338  0.2640517374976230
  0.4320323998024454  0.9903264006902117  0.1295397845889277
 
  0.84880935E-03 -0.65274004E-03 -0.20388479E-04
 -0.55613862E-04  0.12854015E-02  0.32104458E-03
 -0.27721695E-03  0.53312656E-04 -0.13028161E-02
  0.47201237E-03  0.47919321E-03  0.18738338E-02
 -0.14337324E-02 -0.24405611E-04  0.26081302E-02
 -0.66689710E-03 -0.13494627E-03  0.10125389E-02
  0.50202360E-03  0.11098853E-02  0.37893289E-03
  0.15270741E-02  0.18570907E-02 -0.25822931E-03
 -0.21649329E-02  0.73298136E-03 -0.41416622E-03
  0.33431219E-03  0.18583998E-02 -0.43384545E-03
  0.90105329E-04  0.76749647E-03 -0.33541152E-03
 -0.50575719E-03 -0.37896711E-03  0.17621451E-02
  0.42620242E-03 -0.43723300E-04  0.60792005E-03
 -0.63298821E-03  0.33663918E-03 -0.24876931E-02
 -0.24594848E-02  0.46301335E-03  0.19482717E-02
 -0.25839892E-03 -0.25682286E-03 -0.21293025E-04
 -0.33232752E-04 -0.49187756E-03  0.49903321E-04
 -0.88031296E-03 -0.17620571E-02 -0.16363965E-03
 -0.13310070E-03  0.95026073E-03  0.10952672E-02
  0.65747813E-04  0.24569564E-02  0.70631694E-03
 -0.18135266E-02  0.90269703E-03  0.12050331E-02
 -0.46362749E-04 -0.17990790E-03  0.46980249E-02
  0.14096742E-02 -0.41287786E-03 -0.79368187E-03
 -0.11631567E-02 -0.10390520E-02 -0.13788818E-03
 -0.16387399E-02 -0.13515404E-02 -0.38286298E-03
  0.18247771E-02  0.12170287E-02  0.12544763E-02
 -0.16330164E-02 -0.29741726E-03 -0.25877595E-02
  0.20698755E-02 -0.38690124E-03  0.24659943E-02
  0.10318484E-02  0.31857860E-03  0.84728413E-03
  0.11145664E-02 -0.13161054E-02  0.16221725E-02
 -0.24208531E-02 -0.23762648E-02  0.10173452E-02
 -0.10297286E-02 -0.17041450E-02  0.19269396E-02
 -0.81604984E-03  0.14476426E-03  0.14205307E-02
 -0.15642173E-02  0.12085731E-02  0.19292446E-02
  0.38266075E-03  0.23645640E-02 -0.10804447E-02
 -0.33244333E-03 -0.13551617E-02  0.19857829E-02
  0.13831062E-02 -0.11152234E-04 -0.92241779E-03
  0.58542606E-03  0.24351864E-03  0.15010997E-03
  0.11865883E-02  0.10005567E-02  0.64522424E-03
 -0.82033157E-03  0.30241780E-02 -0.35839004E-03
 -0.18543094E-02  0.11097377E-03  0.33157868E-02
 -0.17225910E-03  0.35938406E-03 -0.17974121E-02
  0.46306736E-03 -0.10796966E-02 -0.25257258E-02
  0.40934260E-03  0.68609752E-03  0.10761105E-03
  0.52453601E-03 -0.31908036E-03  0.12184116E-02
  0.15647305E-02  0.33926585E-02 -0.19198311E-02
  0.22314402E-02 -0.15128419E-02  0.97649993E-03
  0.26899976E-03 -0.11047924E-02 -0.11434950E-03
 -0.14137235E-02 -0.13191425E-02  0.62780864E-03
  0.69391966E-03  0.27431521E-02  0.64440647E-03
 -0.26811549E-02  0.86915127E-03  0.20089337E-03
 -0.24027322E-02 -0.34360083E-04  0.52080221E-03
  0.37762474E-03 -0.76405642E-03 -0.19581831E-02
  0.18547763E-02  0.11841530E-02 -0.28193205E-02
 -0.38097595E-03  0.47678935E-03 -0.25703754E-02
 -0.10842517E-03  0.38395474E-02  0.10612662E-02
  0.65936551E-03 -0.98746560E-03 -0.45771332E-03
  0.26066922E-02 -0.19362152E-02 -0.16007124E-02
 -0.11616824E-02 -0.84096704E-03  0.28041812E-02
 -0.29228009E-03 -0.25605285E-02  0.33026879E-03
  0.10785111E-02  0.17010821E-02 -0.27872828E-02
 -0.29124338E-02  0.10462504E-02  0.11215472E-02
  0.29516328E-02 -0.37862278E-03 -0.11387840E-02
 -0.18210886E-03  0.12546282E-02  0.16431494E-03
  0.21512672E-02  0.50623798E-03  0.14618010E-02
  0.18389510E-02 -0.45922765E-03 -0.30776492E-02
 -0.10658545E-02 -0.11181194E-02  0.20652947E-02
  0.28903668E-02 -0.25889192E-02 -0.63884416E-03
  0.27148477E-02  0.28377840E-02  0.97790398E-03
 -0.11153580E-02 -0.12245091E-02  0.11624614E-02
  0.12760543E-02 -0.14536655E-02 -0.20737112E-02
 -0.38605505E-03  0.77004778E-03 -0.14728825E-02
  0.25187204E-02  0.18883228E-02  0.17841052E-02
 -0.17217554E-02 -0.14406402E-02  0.20967880E-02
  0.21967499E-02 -0.24124411E-02 -0.16513144E-02
 -0.87517282E-04  0.15549915E-02  0.81831787E-03
  0.39243373E-03  0.13648831E-02 -0.19982014E-02
 -0.29888701E-02 -0.19722738E-02  0.10558738E-02
 -0.13532499E-02 -0.39110973E-03  0.23435124E-02
  0.11849101E-03  0.98671231E-03  0.17905554E-02
  0.78628673E-03  0.29364130E-02  0.15820693E-02
  0.65995607E-03 -0.11211647E-03  0.18232120E-02
  0.40789510E-03 -0.39654259E-03  0.14916658E-02
 -0.13402978E-03  0.70710194E-03  0.85212292E-03
 -0.75643163E-03 -0.25563343E-02 -0.44035545E-03
  0.23931733E-02 -0.30918215E-03  0.20570970E-02
 -0.17915997E-02  0.79819235E-03  0.49683323E-04
  0.32987684E-03 -0.11246550E-02 -0.19448367E-02
 -0.15148093E-02 -0.35765433E-02  0.10857010E-02
  0.41133220E-03  0.42937584E-06 -0.26749269E-02
  0.14249622E-02  0.17144718E-02 -0.19922319E-02
  0.14495265E-02 -0.98348928E-03  0.33430839E-03
 -0.37661768E-03 -0.10788287E-03  0.22110954E-02
 -0.90541574E-03 -0.41766485E-03 -0.43773247E-03
 -0.15738533E-02 -0.15388368E-02  0.17964070E-02
  0.62221628E-03 -0.20127797E-02 -0.61888604E-03
 -0.48569603E-03  0.12508450E-03 -0.70152659E-03
 -0.16181014E-02  0.13144142E-02 -0.12181211E-02
 -0.15606974E-02  0.81937307E-03  0.16318630E-02
  0.76484174E-03 -0.12696762E-02 -0.18957810E-03
  0.11460806E-02 -0.11655810E-02  0.27177954E-03
 -0.34935620E-03  0.87197956E-03 -0.17069653E-03
  0.67620845E-03 -0.39115201E-03  0.23489538E-02
 -0.21900565E-02  0.22929906E-02 -0.37206331E-03
 -0.14589619E-02 -0.80321649E-03 -0.40773001E-02
 -0.62722673E-03 -0.22765119E-02 -0.12623566E-02
 -0.25481757E-02  0.22165339E-02 -0.27725405E-04
  0.45290359E-03 -0.13208212E-02 -0.26682085E-04
  0.38418520E-03 -0.17186395E-02 -0.41568061E-02
  0.56478173E-03 -0.10303628E-02 -0.43361846E-03
  0.27331378E-02 -0.42842471E-03 -0.99879443E-03
 -0.20317253E-02  0.75555020E-04  0.73350494E-03
  0.19892180E-03  0.35010457E-02 -0.25614071E-02
  0.68001698E-03  0.95366648E-03 -0.17232351E-02
  0.10017274E-02 -0.15835863E-02 -0.13319290E-02
 -0.10230298E-02  0.13835966E-02 -0.15676633E-02
  0.25189637E-03 -0.77327096E-03 -0.33795423E-03
  0.45605902E-03  0.62977600E-03 -0.87306719E-03
 -0.63166516E-03  0.23710103E-03  0.34362894E-03
  0.24300836E-02 -0.11660657E-02  0.16552666E-02
 -0.26639427E-03 -0.17047999E-02  0.58671163E-02
 -0.32957827E-03 -0.51055593E-02 -0.86481316E-03
  0.40313970E-02  0.25205289E-02  0.16927315E-02
  0.16759186E-02  0.13376364E-03  0.15209187E-02
  0.34113247E-03  0.85721485E-03 -0.12960728E-02
  0.12749938E-02 -0.60694870E-03  0.23214531E-02
 -0.41759548E-02 -0.20296739E-03 -0.11101212E-02
  0.40908253E-02 -0.26113620E-02  0.26080077E-02
 -0.14240173E-02 -0.31911314E-02 -0.14391277E-02
 -0.19312967E-02 -0.34108517E-02 -0.28937615E-02
  0.21093128E-02  0.29302568E-02 -0.22225881E-03
  0.13351694E-03 -0.51468220E-02 -0.12246197E-02
  0.40771705E-02  0.27162677E-02 -0.82075209E-03
  0.12496781E-02 -0.18491986E-02 -0.95954241E-03
 -0.13674613E-02 -0.19989307E-02 -0.25174197E-02
 -0.90403538E-03  0.15371589E-02  0.72116786E-03
 -0.36945200E-02 -0.64406248E-03  0.60663542E-02
  0.88687321E-04  0.27353634E-02 -0.22136585E-02
 -0.42383483E-02 -0.26159236E-03 -0.59948328E-03
 -0.65065799E-03 -0.34700091E-02 -0.15539625E-02
  0.15221767E-02  0.24626553E-02  0.13529521E-02
  0.38408663E-02  0.29157234E-02 -0.42187669E-02
 -0.21532095E-02 -0.14809521E-02  0.36731227E-02
 -0.26314505E-03  0.52522382E-04 -0.24277694E-02
 -0.17031458E-02  0.28882049E-02  0.36218886E-02
  0.52546857E-02 -0.66899965E-02  0.18256810E-02
  0.63666497E-03  0.25007080E-02  0.14068443E-03
  0.29319102E-04 -0.26551951E-02 -0.17456934E-03
  0.10022805E-02 -0.39089629E-02 -0.17552992E-03
  0.13805960E-02 -0.28409469E-02 -0.95602176E-03
 -0.47582863E-03 -0.11624101E-02  0.15919410E-02
  0.24560831E-02 -0.17847422E-02  0.19918176E-02
 -0.39801398E-02  0.47586294E-03 -0.54396686E-03
  0.14259713E-02 -0.21426352E-02  0.20446372E-02
  0.14537196E-02 -0.96492508E-03  0.58119564E-03
  0.32851305E-02  0.35413148E-02 -0.59900497E-02
  0.36261919E-02  0.63478163E-02 -0.22525964E-02
  0.13636773E-03  0.10160066E-02 -0.12188178E-02
 -0.17880714E-02  0.64108811E-04 -0.52460709E-02
  0.13080111E-02 -0.65836640E-03  0.10518425E-02
 -0.59095151E-03 -0.48472225E-02 -0.38602184E-02
 -0.44622303E-02  0.15913913E-02 -0.15786548E-02
 -0.93918423E-05  0.51968353E-02  0.75730490E-03
  0.56880971E-02  0.20460633E-02  0.51166348E-02
 -0.37180034E-04  0.50289730E-02 -0.93910057E-03
 -0.17307173E-02  0.14992952E-02  0.18653792E-02
  0.18056164E-03 -0.39413604E-02 -0.40290929E-02
 -0.24831387E-02  0.28405508E-02 -0.36967650E-02
 -0.29696139E-02  0.57896371E-04  0.12949661E-02
  0.54118458E-02 -0.46993418E-02 -0.65099356E-04
  0.16138466E-04 -0.66816252E-03 -0.31502936E-02
  0.21533117E-02  0.28419141E-02 -0.24003016E-02
  0.66695718E-02  0.11341539E-02 -0.12024462E-02
 -0.37009976E-02  0.20328745E-02 -0.25905626E-02
 -0.43469000E-04  0.22663818E-02  0.43164483E-02
 -0.93707780E-03 -0.16324905E-02  0.59365233E-03
 -0.10845235E-02  0.26084963E-02 -0.22178026E-02
 -0.86086933E-03 -0.25830173E-02 -0.17171012E-02
 -0.84487509E-03 -0.71068602E-03  0.16906780E-02
  0.25600414E-02 -0.10222879E-02  0.41960457E-02
 -0.11262833E-03 -0.60702234E-03 -0.40024816E-02
 -0.29026551E-02  0.22006187E-02 -0.18310462E-02
  0.24075713E-02 -0.36377349E-02 -0.12821635E-02
  0.94526507E-03 -0.28233922E-02  0.58005920E-02
  0.23203683E-02 -0.46520469E-03  0.37317623E-02
  0.30731164E-03  0.12559919E-02 -0.43989833E-02
  0.17947564E-02 -0.51045487E-02 -0.32302204E-02
  0.15061371E-02 -0.17022444E-02 -0.15898525E-02
  0.11076025E-02  0.19350251E-02 -0.36195087E-02
 -0.14238956E-02 -0.23177898E-03 -0.38056128E-02
 -0.41637400E-03  0.25873912E-02  0.25631087E-02
  0.81777520E-03  0.54511289E-02 -0.57293565E-02
  0.10815044E-02 -0.23087483E-02  0.74816600E-03
  0.98992116E-03 -0.13950361E-02  0.28660416E-03
 -0.78729876E-03 -0.33004392E-02 -0.71772022E-03
  0.29662742E-03  0.33505470E-02 -0.19382307E-02
 -0.18532736E-02 -0.29339485E-02 -0.18621829E-02
 -0.51647444E-02  0.15296545E-04 -0.49206720E-02
 -0.18881419E-02  0.66720447E-03  0.12544524E-02
  0.12231933E-03 -0.27246664E-02 -0.21728212E-02
  0.18138857E-02 -0.17791294E-02  0.14442631E-03
 -0.84500088E-04  0.17925709E-02  0.32596207E-02
  0.79057393E-03 -0.31214421E-02 -0.54633645E-02
 -0.28372704E-02  0.10684885E-02  0.44172527E-02
 -0.30031939E-02  0.18355588E-02  0.92029579E-05
  0.54811152E-03 -0.23959229E-03 -0.38730903E-02
  0.22502996E-02 -0.21438909E-02 -0.48585276E-02
 -0.31416020E-02 -0.14901695E-03  0.36362530E-02
  0.85812049E-03 -0.10785805E-02 -0.51917945E-03
  0.38302613E-02  0.65335286E-02  0.26563015E-04
  0.23121214E-02  0.46327014E-03  0.77846348E-03
 -0.20745386E-02 -0.61235982E-03 -0.91919550E-03
 -0.16143815E-02 -0.60219606E-03  0.15910712E-03
 -0.29545237E-02 -0.10549634E-02 -0.29042710E-02
  0.23339513E-02  0.23635978E-03  0.26607249E-02
 -0.18748588E-03 -0.32879782E-02  0.88632300E-03
 -0.18895732E-02  0.33266675E-02 -0.35769018E-02
 -0.11333516E-02  0.92703839E-03  0.17919732E-02
  0.10876953E-02 -0.58944556E-03 -0.13799140E-02
 -0.25717978E-02 -0.10013369E-02 -0.17537949E-02
 -0.41918084E-02  0.32364388E-02  0.45758599E-02
 -0.43259419E-02 -0.40578500E-03 -0.21684780E-02
 -0.93865645E-03 -0.11947191E-02  0.96275126E-05
 -0.65183921E-02 -0.23365041E-02 -0.24542036E-03
  0.46390606E-02  0.18084528E-02 -0.45929337E-03
 -0.47597531E-02 -0.84077650E-04  0.23787374E-02
  0.15992799E-02  0.28978046E-02 -0.90539870E-03
  0.11936474E-02  0.33233886E-02 -0.18493560E-02
  0.23906311E-02  0.15358831E-02  0.38364187E-02
 -0.29168950E-02 -0.27578732E-02  0.57071061E-02
  0.32417412E-02  0.20470888E-02  0.28087948E-02
 -0.13932866E-02  0.10124175E-02 -0.81797910E-03