Sb                                      
   1.00000000000000     
    16.9173007964999975    0.0000000000000000    0.0000000000000000
     0.0000000000000000   16.9173007964999975    0.0000000000000000
     0.0000000000000000    0.0000000000000000   16.9173007964999975
   C    Se
    80   120
Direct
  0.5529801657646716  0.9598371286527879  0.2592798479182180
  0.8754267277842990  0.7183256844156721  0.8570843584580849
  0.2011584848343156  0.0296961213334143  0.4858536272811025
  0.6273755204967166  0.5942697265187779  0.5440901995457440
  0.6657182610020076  0.2273926595959541  0.6399290365010263
  0.0217592300848544  0.4643136352659540  0.0868435722330325
  0.9848156881168142  0.2864168831547150  0.5455132160034145
  0.3897990627387666  0.9407111592075296  0.1850152941242312
  0.6091389306792188  0.6011658270092615  0.4010235046541608
  0.2734023446237384  0.4768833555359073  0.0380715416357166
  0.3603895810075461  0.6768371441259043  0.0043788732864461
  0.2472617240431567  0.8862578340483060  0.1210878200257146
  0.5650236261599235  0.8568722608210777  0.1119704774614031
  0.3242234959301540  0.0986078982282035  0.4528704946770027
  0.4783660423533934  0.8889016468855749  0.6422279777991980
  0.7793916172188043  0.9614794882131742  0.7145771815712970
  0.4217440824768870  0.2807987459920215  0.7960519911974046
  0.9276489450428512  0.2642664712878776  0.3841983073687714
  0.0356058539660824  0.1984993508425007  0.8798220681850569
  0.2433348960714591  0.3233035609083597  0.5751136345001967
  0.6641532185550199  0.4169436541782062  0.9109477960383039
  0.1596902557811764  0.8245263854774995  0.4881711691164680
  0.9824019890900412  0.5143367967251785  0.1401374368691192
  0.3049141705691762  0.2390083097764733  0.0899197582168004
  0.8247282957670397  0.0428183134709576  0.4926115742459451
  0.6004076294868256  0.9711517822800606  0.7093148752018862
  0.4803511877496507  0.4179621596834018  0.5200572663384040
  0.5627085983242001  0.4921042493690306  0.0201371616294491
  0.8671229383501527  0.0995182202141634  0.3531026085176525
  0.7823063855602359  0.5544209803222155  0.5648223907957558
  0.0564374223598650  0.4182725842316776  0.0428101600706617
  0.9929078852622815  0.6570612994474249  0.0436585697439052
  0.3480167777985356  0.2062690680320779  0.2282087334216126
  0.2269950740058957  0.9353820915887878  0.7714242929386543
  0.6535613518094722  0.5838519271456155  0.4667438646685645
  0.2448187287122335  0.9828949507357362  0.8356867492933371
  0.3729124161570381  0.4435025804046261  0.3945441899958839
  0.2903124729107412  0.6746307198934048  0.8317902174461508
  0.1987262038671187  0.6188792725120630  0.7083665496454671
  0.3546395409512214  0.6591717830115332  0.1862513145189847
  0.5056425038939500  0.3696754637895275  0.4598287211280208
  0.2389829070378906  0.3996890075247495  0.7726234417644497
  0.8926375020140831  0.6893582001892233  0.7871276470430320
  0.5129645614206932  0.6440072082080045  0.0975763227302688
  0.9180138034099569  0.5398271646956709  0.6905996973818002
  0.8217527823956339  0.7966447263931524  0.4979860648670769
  0.4681186566392306  0.2604466309690440  0.8549960037445433
  0.7330105925703572  0.3990536126131961  0.8682834244872347
  0.1322270191175088  0.1497469739633871  0.7606050621619806
  0.0669371329218465  0.0576283444772484  0.2253936720208006
  0.5937487025760845  0.7997551553916141  0.0636555821838243
  0.3531470011006534  0.2428301927108082  0.1548358610996619
  0.8897065681150055  0.9805806330725225  0.1959109570672796
  0.8690297068962332  0.7395740445419811  0.9314830148653105
  0.8317044207268381  0.9884301751420701  0.6600453929919038
  0.9867476718906617  0.1540525186126261  0.8341181575552490
  0.1405221810828362  0.2022222606689440  0.1615939397996332
  0.0902239019802457  0.9340415500821029  0.8729123218080849
  0.8643883317674241  0.8250267534680524  0.6759024955095341
  0.4894986950215858  0.8353518306590667  0.4793136327948316
  0.9797609922674908  0.5071520304403416  0.2916600748957338
  0.8135883426433578  0.8659260097281258  0.4585295532653283
  0.3546495827132916  0.1799825104171660  0.2959183412490434
  0.6891860776156461  0.7572005772585276  0.9220987787889184
  0.2646166626415161  0.9214500640251387  0.6979292424864163
  0.5894542456693527  0.3821463403696667  0.9033359638459342
  0.8590740505053469  0.3018874677910653  0.3995240355466737
  0.4089127446980366  0.9280110152959102  0.1082312638174331
  0.7491647755828827  0.1213233277457321  0.0337687407881504
  0.3826394067181583  0.3050979623448968  0.7341254862261185
  0.7730074335667612  0.3178230274823434  0.6942157661289418
  0.1461794966844222  0.6799205426768482  0.3966260865683441
  0.8518910302609805  0.7600200057417353  0.3416046054092074
  0.3457972165734544  0.6605154738252887  0.7746825432356834
  0.3043400758764622  0.2837539408200853  0.5862069623429368
  0.9125969066701851  0.3134411232466826  0.5656465066070613
  0.1749530205406506  0.8728496746373032  0.5503932471880639
  0.1719283858021691  0.4107804918362034  0.7999961094737842
  0.4430454227288311  0.9562228990358853  0.6676282882255744
  0.4162483350439329  0.0009762103327480  0.8753954809950053
  0.1463330870726680  0.8578847556950797  0.1033118633120123
  0.2123883468541744  0.1424485402586056  0.6910243295121047
  0.4487445255117191  0.3700087837253158  0.3629118338381625
  0.8378962405370826  0.4094888823854507  0.9059264662043680
  0.0493438201912512  0.1307558704382167  0.1412922594522002
  0.6618431427075262  0.1486617851591396  0.9789654290346566
  0.7316456902104472  0.2126403347266133  0.7293512532212681
  0.1278631207196438  0.5752904812196787  0.3905193464507230
  0.8477440832051030  0.8715942026401187  0.1760870453444679
  0.8302635914737805  0.3980942504598116  0.0472559927984412
  0.2273049882904144  0.1365045919625548  0.4936724281089145
  0.0893408643937818  0.8590905378678723  0.4071636391685414
  0.1229278547744010  0.5928063838578460  0.6348781275365140
  0.7794560860514299  0.7870319285941851  0.9836991954377415
  0.9140191548156856  0.4562677187161900  0.2179050776974481
  0.0627493497643446  0.2570676357090153  0.6220084893266346
  0.2892570070277993  0.5002065953583469  0.9409977927403099
  0.1493746119491289  0.0536044641515965  0.2914328496026038
  0.3190918549504602  0.2897166403167960  0.9920922532601990
  0.4222108410219307  0.8941720328153723  0.8657360675179453
  0.5035646918275432  0.4204194930390637  0.9608145426767191
  0.7779616357243543  0.1282149741000684  0.4256058244128924
  0.2986738888266135  0.6400593550631176  0.2748518602687527
  0.9054608406375044  0.0227127210925737  0.0876995109488040
  0.9486205662380500  0.7499510006902516  0.7085432286924146
  0.5087560446728654  0.9457398909634346  0.4654427616359371
  0.7020549670721798  0.3236607872977042  0.5980959694717701
  0.3254021756777761  0.0615320055613975  0.8485205936644555
  0.8309076574645509  0.0860527597780202  0.6028283527811962
 -0.0006769378716535  0.9673370179427617  0.2394024323515815
  0.6317979593848971  0.6130255564622006  0.3001338009677372
  0.3251580774328979  0.8934146210056447  0.0406362125120115
  0.6966465151690755  0.5797789165133581  0.6305958513749549
  0.7308814642757001  0.4116538848806293  0.7563301843242451
  0.1482904712731155  0.3668162354888222  0.5660618255678264
  0.5473865905296164  0.2156198653089266  0.1169189326390020
  0.9906861005682195  0.9290144187569130  0.9118989453708153
  0.4355941709237575  0.1956010623025014  0.9432364552096619
  0.0556496461300058  0.5618123065298271  0.2270927370654235
  0.5081071939469748  0.0580715636458506  0.9044123807193122
  0.4548272336616080  0.6843611921040322  0.7808898670355932
  0.2005156898830358  0.7187394802320185  0.4873495318952057
  0.6313064640803359  0.0289486211443795  0.2029245833290558
  0.4439332778148210 -0.0016206700336795  0.2652262626997052
  0.8611584897403866  0.7089465421787785  0.4385265449164660
  0.8125066370940009  0.1868817395427603  0.0998261023480217
  0.1706257970051801  0.9934958249253902  0.9194190626962693
  0.2586243957419448  0.4535254136408951  0.1350857167873354
  0.8425720710370960  0.8700340067798207  0.3473041695637289
  0.2949289201584328  0.6675358172279162  0.0921539550599333
  0.5100298577976727  0.0329050980944755  0.7127096602120540
  0.8914473491048339  0.5552021194239547  0.5827835661818193
  0.5237971125085699  0.6334779151052312  0.5597092140785569
  0.3969122521582503  0.1576286773496928  0.3939940243356733
  0.9239868505603511  0.1878520783530265  0.3004666067669014
  0.5765128871262959  0.8509089368717889  0.2252677141009475
  0.6906170078490509  0.0196986418127406  0.7550180609920101
  0.3932013509476964  0.2490894293464381  0.6327687669665187
  0.8458135866408315  0.7117739746176142  0.2429154797129572
  0.7732213751772832  0.2863660226732591  0.3229634732655585
  0.8450249746069619  0.3662938455524600  0.4905177186720991
  0.2880551390087391  0.9104882194881706  0.2219458743804250
  0.1095913278289822  0.3514583928728905  0.9793157365145534
  0.6766811105252797  0.3761140154183980  0.3663698564079400
  0.7826827846754962  0.7767769410756185  0.6025355769764491
  0.2905345143477756  0.4727412630896851  0.3314450364024839
  0.8129181625684171  0.0371507520241539  0.2676020392462113
  0.7993449362359530  0.8627580484930716  0.7660727026221330
  0.8834744776697999  0.1586052126921613  0.8779386635823336
  0.5941065403884715  0.8135405131027674  0.9488285575828653
  0.0137541426828475  0.4900044509322075  0.6939505752532377
  0.3029007318653822  0.7377238455242606  0.9258148124726678
  0.9124767405593586  0.5917024441760351  0.0832388327270283
  0.1819559609524415  0.6517331730849674  0.8118296017276450
  0.9188586018910850  0.9206927180385622  0.6357308341731336
  0.4614216465062949  0.6908953057614474  0.1907459654781121
  0.4678941952735878  0.6621610887724454  0.9886589767727211
  0.8543578676432422  0.5808790036469396  0.7722787766294502
  0.1436970229815372  0.2061798643528532  0.8556769261375585
  0.0968779710281167  0.6469451933182082  0.0661823931995032
  0.6056063311102954  0.9648524374121166  0.3654795556116864
  0.1265587874281590  0.9754877830990455  0.5490204439881037
  0.8893043469492838  0.3196115460269893  0.6787967810536258
  0.1247643136026528  0.7536460051291926  0.3153460551816666
  0.5917151017634421  0.2962732907803769  0.4610258122890254
  0.4490334030039795  0.3080424752815360  0.1502782473072042
  0.7511576847826400  0.9505695488564279  0.4976743601265802
  0.1398343528961970  0.2804455545624948  0.2317109271905740
  0.5249293852813249  0.4219792593692038  0.6225439066157481
  0.9749567321267026  0.2487164782077368  0.9596480273706788
  0.9255266372514852  0.0350996637037224  0.4330839356381097
  0.0769062606417384  0.4222304620642431  0.8466002807589968
  0.6855455509433253  0.6939758445863149  0.8368316548321075
  0.7627235930782638  0.5437797534958690  0.4572537003102527
  0.5933869379938125  0.1619959722278527  0.5961561016352415
  0.5863429102589461  0.8704304324188530  0.6681388197390880
  0.2151181805635424  0.1676823110308633  0.0873635686548415
  0.5079564180273529  0.7532994973129322  0.4143553290542548
  0.3894031650226231  0.4807182153052607  0.4977223036453482
  0.6043810762779713  0.1591611546484354  0.2397848603104751
  0.7764298332487735  0.0139178194281435  0.0293453219456443
  0.6680083021994523  0.5009941649517534  0.9911890197945801
  0.4293559605819667  0.8133728338138044  0.5728778876794558
  0.1250290228672440  0.8809899343447981  0.7808701961208508
  0.2307039568210204  0.8310090081100587  0.6418208267198561
  0.2935035667661859 -0.0094144441145110  0.4397136662555399
  0.9667847634563475  0.5029632999732760  0.3969445993538485
  0.9734686980878591  0.7493562919370873  0.9827463386202366
  0.3059472691335686  0.6137868706811300  0.6795063744193220
  0.5124396597433923  0.9486460246208327  0.0648625317862909
  0.3347542989678838 -0.0060777190623929  0.6498167316121471
  0.7352549030747517  0.3046506811716017  0.0853305790373784
  0.3399886648658823  0.4125980494804781  0.7381150179819521
  0.4971531206895244  0.5645008769877377  0.6839621798060418
  0.6218273990103260  0.6947201116475180  0.1009162208922442
  0.5253628025160167  0.5279043344505231  0.1190412980718825
  0.7738565985299645  0.5845793982008537  0.2691792489761405
  0.0246266280102059  0.2806119167724456  0.4388142848831754
  0.5787245836883300  0.2920237904668290  0.8366716587473149
  0.0302619196837334  0.1070667462021446  0.7427657892291424
 
  0.00000000E+00  0.00000000E+00  0.00000000E+00
  0.00000000E+00  0.00000000E+00  0.00000000E+00
  0.00000000E+00  0.00000000E+00  0.00000000E+00
  0.00000000E+00  0.00000000E+00  0.00000000E+00
  0.00000000E+00  0.00000000E+00  0.00000000E+00
  0.00000000E+00  0.00000000E+00  0.00000000E+00
  0.00000000E+00  0.00000000E+00  0.00000000E+00
  0.00000000E+00  0.00000000E+00  0.00000000E+00
  0.00000000E+00  0.00000000E+00  0.00000000E+00
  0.00000000E+00  0.00000000E+00  0.00000000E+00
  0.00000000E+00  0.00000000E+00  0.00000000E+00
  0.00000000E+00  0.00000000E+00  0.00000000E+00
  0.00000000E+00  0.00000000E+00  0.00000000E+00
  0.00000000E+00  0.00000000E+00  0.00000000E+00
  0.00000000E+00  0.00000000E+00  0.00000000E+00
  0.00000000E+00  0.00000000E+00  0.00000000E+00
  0.00000000E+00  0.00000000E+00  0.00000000E+00
  0.00000000E+00  0.00000000E+00  0.00000000E+00
  0.00000000E+00  0.00000000E+00  0.00000000E+00
  0.00000000E+00  0.00000000E+00  0.00000000E+00
  0.00000000E+00  0.00000000E+00  0.00000000E+00
  0.00000000E+00  0.00000000E+00  0.00000000E+00
  0.00000000E+00  0.00000000E+00  0.00000000E+00
  0.00000000E+00  0.00000000E+00  0.00000000E+00
  0.00000000E+00  0.00000000E+00  0.00000000E+00
  0.00000000E+00  0.00000000E+00  0.00000000E+00
  0.00000000E+00  0.00000000E+00  0.00000000E+00
  0.00000000E+00  0.00000000E+00  0.00000000E+00
  0.00000000E+00  0.00000000E+00  0.00000000E+00
  0.00000000E+00  0.00000000E+00  0.00000000E+00
  0.00000000E+00  0.00000000E+00  0.00000000E+00
  0.00000000E+00  0.00000000E+00  0.00000000E+00
  0.00000000E+00  0.00000000E+00  0.00000000E+00
  0.00000000E+00  0.00000000E+00  0.00000000E+00
  0.00000000E+00  0.00000000E+00  0.00000000E+00
  0.00000000E+00  0.00000000E+00  0.00000000E+00
  0.00000000E+00  0.00000000E+00  0.00000000E+00
  0.00000000E+00  0.00000000E+00  0.00000000E+00
  0.00000000E+00  0.00000000E+00  0.00000000E+00
  0.00000000E+00  0.00000000E+00  0.00000000E+00
  0.00000000E+00  0.00000000E+00  0.00000000E+00
  0.00000000E+00  0.00000000E+00  0.00000000E+00
  0.00000000E+00  0.00000000E+00  0.00000000E+00
  0.00000000E+00  0.00000000E+00  0.00000000E+00
  0.00000000E+00  0.00000000E+00  0.00000000E+00
  0.00000000E+00  0.00000000E+00  0.00000000E+00
  0.00000000E+00  0.00000000E+00  0.00000000E+00
  0.00000000E+00  0.00000000E+00  0.00000000E+00
  0.00000000E+00  0.00000000E+00  0.00000000E+00
  0.00000000E+00  0.00000000E+00  0.00000000E+00
  0.00000000E+00  0.00000000E+00  0.00000000E+00
  0.00000000E+00  0.00000000E+00  0.00000000E+00
  0.00000000E+00  0.00000000E+00  0.00000000E+00
  0.00000000E+00  0.00000000E+00  0.00000000E+00
  0.00000000E+00  0.00000000E+00  0.00000000E+00
  0.00000000E+00  0.00000000E+00  0.00000000E+00
  0.00000000E+00  0.00000000E+00  0.00000000E+00
  0.00000000E+00  0.00000000E+00  0.00000000E+00
  0.00000000E+00  0.00000000E+00  0.00000000E+00
  0.00000000E+00  0.00000000E+00  0.00000000E+00
  0.00000000E+00  0.00000000E+00  0.00000000E+00
  0.00000000E+00  0.00000000E+00  0.00000000E+00
  0.00000000E+00  0.00000000E+00  0.00000000E+00
  0.00000000E+00  0.00000000E+00  0.00000000E+00
  0.00000000E+00  0.00000000E+00  0.00000000E+00
  0.00000000E+00  0.00000000E+00  0.00000000E+00
  0.00000000E+00  0.00000000E+00  0.00000000E+00
  0.00000000E+00  0.00000000E+00  0.00000000E+00
  0.00000000E+00  0.00000000E+00  0.00000000E+00
  0.00000000E+00  0.00000000E+00  0.00000000E+00
  0.00000000E+00  0.00000000E+00  0.00000000E+00
  0.00000000E+00  0.00000000E+00  0.00000000E+00
  0.00000000E+00  0.00000000E+00  0.00000000E+00
  0.00000000E+00  0.00000000E+00  0.00000000E+00
  0.00000000E+00  0.00000000E+00  0.00000000E+00
  0.00000000E+00  0.00000000E+00  0.00000000E+00
  0.00000000E+00  0.00000000E+00  0.00000000E+00
  0.00000000E+00  0.00000000E+00  0.00000000E+00
  0.00000000E+00  0.00000000E+00  0.00000000E+00
  0.00000000E+00  0.00000000E+00  0.00000000E+00
  0.00000000E+00  0.00000000E+00  0.00000000E+00
  0.00000000E+00  0.00000000E+00  0.00000000E+00
  0.00000000E+00  0.00000000E+00  0.00000000E+00
  0.00000000E+00  0.00000000E+00  0.00000000E+00
  0.00000000E+00  0.00000000E+00  0.00000000E+00
  0.00000000E+00  0.00000000E+00  0.00000000E+00
  0.00000000E+00  0.00000000E+00  0.00000000E+00
  0.00000000E+00  0.00000000E+00  0.00000000E+00
  0.00000000E+00  0.00000000E+00  0.00000000E+00
  0.00000000E+00  0.00000000E+00  0.00000000E+00
  0.00000000E+00  0.00000000E+00  0.00000000E+00
  0.00000000E+00  0.00000000E+00  0.00000000E+00
  0.00000000E+00  0.00000000E+00  0.00000000E+00
  0.00000000E+00  0.00000000E+00  0.00000000E+00
  0.00000000E+00  0.00000000E+00  0.00000000E+00
  0.00000000E+00  0.00000000E+00  0.00000000E+00
  0.00000000E+00  0.00000000E+00  0.00000000E+00
  0.00000000E+00  0.00000000E+00  0.00000000E+00
  0.00000000E+00  0.00000000E+00  0.00000000E+00
  0.00000000E+00  0.00000000E+00  0.00000000E+00
  0.00000000E+00  0.00000000E+00  0.00000000E+00
  0.00000000E+00  0.00000000E+00  0.00000000E+00
  0.00000000E+00  0.00000000E+00  0.00000000E+00
  0.00000000E+00  0.00000000E+00  0.00000000E+00
  0.00000000E+00  0.00000000E+00  0.00000000E+00
  0.00000000E+00  0.00000000E+00  0.00000000E+00
  0.00000000E+00  0.00000000E+00  0.00000000E+00
  0.00000000E+00  0.00000000E+00  0.00000000E+00
  0.00000000E+00  0.00000000E+00  0.00000000E+00
  0.00000000E+00  0.00000000E+00  0.00000000E+00
  0.00000000E+00  0.00000000E+00  0.00000000E+00
  0.00000000E+00  0.00000000E+00  0.00000000E+00
  0.00000000E+00  0.00000000E+00  0.00000000E+00
  0.00000000E+00  0.00000000E+00  0.00000000E+00
  0.00000000E+00  0.00000000E+00  0.00000000E+00
  0.00000000E+00  0.00000000E+00  0.00000000E+00
  0.00000000E+00  0.00000000E+00  0.00000000E+00
  0.00000000E+00  0.00000000E+00  0.00000000E+00
  0.00000000E+00  0.00000000E+00  0.00000000E+00
  0.00000000E+00  0.00000000E+00  0.00000000E+00
  0.00000000E+00  0.00000000E+00  0.00000000E+00
  0.00000000E+00  0.00000000E+00  0.00000000E+00
  0.00000000E+00  0.00000000E+00  0.00000000E+00
  0.00000000E+00  0.00000000E+00  0.00000000E+00
  0.00000000E+00  0.00000000E+00  0.00000000E+00
  0.00000000E+00  0.00000000E+00  0.00000000E+00
  0.00000000E+00  0.00000000E+00  0.00000000E+00
  0.00000000E+00  0.00000000E+00  0.00000000E+00
  0.00000000E+00  0.00000000E+00  0.00000000E+00
  0.00000000E+00  0.00000000E+00  0.00000000E+00
  0.00000000E+00  0.00000000E+00  0.00000000E+00
  0.00000000E+00  0.00000000E+00  0.00000000E+00
  0.00000000E+00  0.00000000E+00  0.00000000E+00
  0.00000000E+00  0.00000000E+00  0.00000000E+00
  0.00000000E+00  0.00000000E+00  0.00000000E+00
  0.00000000E+00  0.00000000E+00  0.00000000E+00
  0.00000000E+00  0.00000000E+00  0.00000000E+00
  0.00000000E+00  0.00000000E+00  0.00000000E+00
  0.00000000E+00  0.00000000E+00  0.00000000E+00
  0.00000000E+00  0.00000000E+00  0.00000000E+00
  0.00000000E+00  0.00000000E+00  0.00000000E+00
  0.00000000E+00  0.00000000E+00  0.00000000E+00
  0.00000000E+00  0.00000000E+00  0.00000000E+00
  0.00000000E+00  0.00000000E+00  0.00000000E+00
  0.00000000E+00  0.00000000E+00  0.00000000E+00
  0.00000000E+00  0.00000000E+00  0.00000000E+00
  0.00000000E+00  0.00000000E+00  0.00000000E+00
  0.00000000E+00  0.00000000E+00  0.00000000E+00
  0.00000000E+00  0.00000000E+00  0.00000000E+00
  0.00000000E+00  0.00000000E+00  0.00000000E+00
  0.00000000E+00  0.00000000E+00  0.00000000E+00
  0.00000000E+00  0.00000000E+00  0.00000000E+00
  0.00000000E+00  0.00000000E+00  0.00000000E+00
  0.00000000E+00  0.00000000E+00  0.00000000E+00
  0.00000000E+00  0.00000000E+00  0.00000000E+00
  0.00000000E+00  0.00000000E+00  0.00000000E+00
  0.00000000E+00  0.00000000E+00  0.00000000E+00
  0.00000000E+00  0.00000000E+00  0.00000000E+00
  0.00000000E+00  0.00000000E+00  0.00000000E+00
  0.00000000E+00  0.00000000E+00  0.00000000E+00
  0.00000000E+00  0.00000000E+00  0.00000000E+00
  0.00000000E+00  0.00000000E+00  0.00000000E+00
  0.00000000E+00  0.00000000E+00  0.00000000E+00
  0.00000000E+00  0.00000000E+00  0.00000000E+00
  0.00000000E+00  0.00000000E+00  0.00000000E+00
  0.00000000E+00  0.00000000E+00  0.00000000E+00
  0.00000000E+00  0.00000000E+00  0.00000000E+00
  0.00000000E+00  0.00000000E+00  0.00000000E+00
  0.00000000E+00  0.00000000E+00  0.00000000E+00
  0.00000000E+00  0.00000000E+00  0.00000000E+00
  0.00000000E+00  0.00000000E+00  0.00000000E+00
  0.00000000E+00  0.00000000E+00  0.00000000E+00
  0.00000000E+00  0.00000000E+00  0.00000000E+00
  0.00000000E+00  0.00000000E+00  0.00000000E+00
  0.00000000E+00  0.00000000E+00  0.00000000E+00
  0.00000000E+00  0.00000000E+00  0.00000000E+00
  0.00000000E+00  0.00000000E+00  0.00000000E+00
  0.00000000E+00  0.00000000E+00  0.00000000E+00
  0.00000000E+00  0.00000000E+00  0.00000000E+00
  0.00000000E+00  0.00000000E+00  0.00000000E+00
  0.00000000E+00  0.00000000E+00  0.00000000E+00
  0.00000000E+00  0.00000000E+00  0.00000000E+00
  0.00000000E+00  0.00000000E+00  0.00000000E+00
  0.00000000E+00  0.00000000E+00  0.00000000E+00
  0.00000000E+00  0.00000000E+00  0.00000000E+00
  0.00000000E+00  0.00000000E+00  0.00000000E+00
  0.00000000E+00  0.00000000E+00  0.00000000E+00
  0.00000000E+00  0.00000000E+00  0.00000000E+00
  0.00000000E+00  0.00000000E+00  0.00000000E+00
  0.00000000E+00  0.00000000E+00  0.00000000E+00
  0.00000000E+00  0.00000000E+00  0.00000000E+00
  0.00000000E+00  0.00000000E+00  0.00000000E+00
  0.00000000E+00  0.00000000E+00  0.00000000E+00
  0.00000000E+00  0.00000000E+00  0.00000000E+00
  0.00000000E+00  0.00000000E+00  0.00000000E+00
  0.00000000E+00  0.00000000E+00  0.00000000E+00
  0.00000000E+00  0.00000000E+00  0.00000000E+00
  0.00000000E+00  0.00000000E+00  0.00000000E+00
  0.00000000E+00  0.00000000E+00  0.00000000E+00
  0.00000000E+00  0.00000000E+00  0.00000000E+00
