Ge Se                                   
   1.00000000000000     
    20.8706398010253906    0.0000000000000000    0.0000000000000000
     0.0000000000000000   20.8706398010253906    0.0000000000000000
     0.0000000000000000    0.0000000000000000   20.8706398010253906
   Ge   Se
   150   150
Direct
  0.9942002793177739  0.6482489900441681  0.1581930628063574
  0.6144918554775374  0.9676713659619985  0.6676271839272327
  0.9712281721165443  0.7686206099158179  0.4521527902365925
  0.0852463587721859  0.8291718532331342  0.9914928348049561
  0.0241854890674567  0.3153073074289692  0.6333964930092471
  0.3395830994567465  0.0030547379780677  0.3324904334844945
  0.8198450562852925  0.9775159478171539  0.9314763402220463
  0.6445536569333398  0.4662430549867042  0.8443187753379227
  0.3387747553104346  0.1011757307625765  0.8240269769424350
  0.5467341568500963  0.8665191581607856  0.4927323162371124
  0.5953327614624669  0.8837409699275082  0.8130985425207929
  0.1925882846687379  0.4231525913622174  0.5892543320096790
  0.4269212409561922  0.6416761419165981  0.3656357392623431
  0.0452214595234629  0.5305859218763840  0.7135557350193952
  0.5594532022164636  0.6223207708044071  0.8254323653775802
  0.1710943675405421  0.2930091421158786  0.9233377329176979
  0.3584306772633253  0.7603018126953646  0.0975604623549075
  0.8213826528410234  0.7181647716514491  0.8545565679898875
  0.7796039290027834  0.0669948963301530  0.0714611144515530
  0.6274737240435773  0.0430403591125765  0.8757379457255323
  0.0416552738042050  0.1242695561403806  0.9886439054164938
  0.6284661361847261  0.4244773496041999  0.5323302773602854
  0.3683719569065291  0.7255406262610998  0.9188269394811219
  0.6608664612950018  0.4233361912967846  0.3107926235626152
  0.3588700664501323  0.2646731639813604  0.3820054990527758
  0.4389842144039667  0.9448185018324484  0.5886823285886698
  0.2462518327855042  0.8494150175141365  0.8401431860614340
  0.5314156346507999  0.8388491108016829  0.1789990988881663
  0.7225029745358391  0.4046423101867055  0.9783170178992325
  0.8749531780641457  0.3462504119898167  0.8482907697057025
  0.8252069106542563  0.2798326437218702  0.4138014436311002
  0.9338933326452603  0.4101360517193410  0.4026405210549389
  0.5258857333528776  0.0899769642595832  0.9714132271620011
  0.4556291213192918  0.9773184034132738  0.1215663603006983
  0.9204395977885963  0.1358641363702424  0.1731688865594144
  0.0037610424710345  0.7510496907179613  0.7396568985486209
  0.6340362052350446  0.7658583836820240  0.9008402729471999
  0.7059404957757861  0.7865104090949102  0.0829722169643500
  0.3334554119857051  0.5813544867623776  0.5101375462215452
  0.5705229881238726  0.7325280453265336  0.3908604851035268
  0.6654719802834315  0.8876454154742507  0.5734689818181135
  0.2457327975698878  0.0141205973432554  0.1872221262693325
  0.0431212108897342  0.1028530677768137  0.8649882642766530
  0.7248004066682048  0.1406971219988382  0.7629124165880461
  0.3625967280171026  0.5417153748631863  0.3154470439927975
  0.1453292921517549  0.1847191611898135  0.9812664269966570
  0.3885730416139248  0.3849639742823744  0.4530686434405763
  0.7796383803859368  0.9567913970471292  0.1284202037691915
  0.5139467958612776  0.1406156377882255  0.3872849242924918
  0.1433526943900205  0.1333858122036587  0.4705053872620645
  0.6221300331532629  0.4785371963716356  0.1868555347673074
  0.5199834314484606  0.2054165078094561  0.8438320722497606
  0.1469599023712569  0.4699795006520016  0.7730700875468232
  0.9315914583184862  0.3545248105566353  0.1214517321508723
  0.3049612238568611  0.8149623731962818  0.6440168745673708
  0.6304001061183571  0.1578753700356531  0.2731684765870148
  0.0278467444666714  0.3974078024577866  0.2260681895525980
  0.3111229641361817  0.9418511051245591  0.9483346281587174
  0.4740424759289602  0.5250412848441627  0.5962887143208374
  0.6980220785661142  0.6388838907028336  0.0232193541292678
  0.6183147534847225  0.1213859173701647  0.1280202765242102
  0.6686946230864247  0.2337813907746425  0.4122009579046453
  0.3466578184398781  0.1838045851809537  0.1493285136456079
  0.0233507923957668  0.8168138177052521  0.3488989938625922
  0.9335855066548998  0.6862268956535631  0.5433356791508641
  0.8219280778148089  0.5565000947698809  0.9834052582670142
  0.6998087487547242  0.3257696648009971  0.8225878855421146
  0.4002430038161566  0.3264180684387096  0.1829847133755105
  0.1673802752221964  0.9907939724626563  0.9851699790515399
  0.3323331681275871  0.2525277271142762  0.9727976047326552
  0.4430652648333294  0.7717643636824904  0.2548351126831190
  0.8939254353450021  0.9979161859652644  0.8302940804544671
  0.5846094758020824  0.9953681541997137  0.2916409972069854
  0.5890696866401952  0.3636678524655351  0.7351004423771577
  0.2713784990368305  0.5379300386085323  0.6788578304788251
  0.1985638962236947  0.1400298996949106  0.8154721696876346
  0.4043743056846594  0.0107215693897262  0.4959552709770046
  0.1039870497924629  0.8738961898182412  0.6148664809894191
  0.9188349541011904  0.9939126342963501  0.0694574678516325
  0.8076285032611193  0.1200494534929898  0.4502899918938649
  0.6542743194494436  0.9255066681281212  0.1139223215614054
  0.9697376847471209  0.5124867570959828  0.4602135726976230
  0.8265943089493094  0.8269260251284293  0.4809465243010108
  0.5874724506426277 -0.0122159935440889  0.4928902440618221
  0.0261196274021810  0.9783481268611648  0.2253086876775419
  0.1729967925709708  0.9004477705808844  0.3191919455666259
  0.4702451649356244  0.9861766873382413  0.8882941263705175
  0.7459801182221949  0.9703660536270755  0.7199243561734450
  0.9913926919821822  0.6594572882974699  0.9262229632921409
  0.2217920087834424  0.6263020386476476  0.9857361883201855
  0.0821193330275068  0.9206000392040773  0.7799284185971082
  0.2954174522043205  0.1290827900676345  0.4561144081869711
  0.1906448297414931  0.1895363430224266  0.0929683965951853
  0.1546839793028310  0.0859611245596528  0.1456664871176735
  0.7611763564325037  0.6284791153855467  0.7860144268384164
  0.9909576286709725  0.0604591423044000  0.5506182946999277
  0.9087256628546213  0.4473897630125225  0.2211874021188603
  0.0549233055931752  0.1421835466914300  0.6503024861770026
  0.1887764333415838  0.3115183413977354  0.1156513786689925
  0.1206425936784714  0.5606627333606754  0.9964840373034957
  0.2607119196748468  0.8810852355825131  0.1838208364502664
  0.7967709502819931  0.6263450940368077  0.4842301036556225
  0.6778914367275335  0.5105706547857670  0.7303896273300347
  0.8696274430134100  0.0798944787452198  0.9907194004476818
  0.9424111656968673  0.1562903104037880  0.0499759107164214
  0.1870650052084055  0.8369480770429228  0.4940555953670114
  0.7494632084049684  0.3411541457620917  0.2673437355005598
  0.0666631108755158  0.5024832179704699  0.9010172883022227
  0.0365480785195881  0.6408437430614692  0.3594252684744961
  0.6556292302503786  0.5321428107815831  0.3922421446953562
  0.2697535767146014  0.2864062860021942  0.3009011044574215
  0.3995873013598970  0.7071865675375238  0.7961171771820548
  0.7472264695294136  0.9017458916436177  0.8556047373071666
  0.3088139837978430  0.0844128188461322  0.6328342279065554
  0.4744940333534726  0.8266132463165455  0.5902418506826189
  0.4651247954881848  0.4944781249098458  0.7280828599749208
  0.9249093853107625  0.8361006497773948  0.8982696054731815
  0.8626996455255881  0.0934326771044291  0.6609143117380011
  0.5458934579119310  0.5204426786366578  0.8888851106969740
  0.6354059986978036  0.2183441861399921  0.7974241812738468
  0.2859223671454867  0.2822252564856805  0.1837553177705263
  0.4157715289018141  0.2983314507917380  0.7397404359090156
  0.9045776197208339  0.6030374500179814  0.7364406678811773
  0.0296052305977068  0.4506794020287073  0.0939486831055573
  0.9112151896654253  0.4307423515681809  0.9339850780810700
  0.6785661020542623  0.1894336672837724  0.9556266793390985
  0.1233570024723796  0.4553720242557976  0.3507630946691052
  0.7930636743323255  0.2511945749509994  0.0790039697795640
  0.1690444276806617  0.7361619716052978  0.0017208228495265
  0.9403347616393566  0.5534120567344908  0.2711359939292523
  0.8491840245392082  0.1717527870424358  0.8810732654694252
  0.1646495779151635  0.2629637205472468  0.4389731733721530
  0.2694542430239906  0.6648210129977481  0.7881689914214600
  0.6281462998055267  0.6319515696249748  0.5373983236016697
  0.2418154240918464  0.7271744511837279  0.1002783473177066
  0.4641848305565935  0.3887569341917546  0.2783238208426836
  0.4245592894925848  0.7867172420183185  0.4599658646734679
  0.7515213492177373  0.8084896315824838  0.7410589544141681
  0.9069826809706636  0.2686624835688697  0.0262353973584836
  0.3038954551343008  0.6689709534408458  0.2559997389124986
  0.0884886018235531  0.0389939702891493  0.0566348999863740
  0.5355627261743101  0.5088465717423160  0.0103029601571224
  0.1539708008439530  0.7516125258185522  0.7029272780138001
  0.2796285336149595  0.4235076693951299  0.4039478318346055
  0.4408995849272395  0.9078239364247317  0.7500349731524164
  0.9926095003752600  0.2332359941115786  0.4647409036784909
  0.8499344462888195  0.5336742107866502  0.1409641725416798
  0.4460757434084036  0.4176984209116112  0.1180960376353318
  0.0012562730188732  0.9457808411495202  0.4918441750859195
  0.3812650567577484  0.5893966676976733  0.7175011793883922
  0.7316028320299826  0.5724911276169699  0.5728289871201583
  0.5422311374773291  0.9004667467905477  0.0728087471617519
  0.7329154065283580  0.7027220148334468  0.6973954738297176
  0.0265432996287540  0.9477913840339318  0.0971485925963937
  0.9352672277284887  0.2570627138360930  0.9082167712887984
  0.0789358231850266  0.5473290634944874  0.4290387670286084
  0.5188072157349544  0.7271458367110918  0.8067220382149933
  0.3864151389547675  0.1185714511221282  0.5436185121472846
  0.4000751877555617  0.6839960456066286  0.1792931851744947
  0.1435768302056838  0.8063104483882704  0.3825147477874617
  0.2643283027180365  0.4048526142515237  0.2900231438931859
  0.0772854757216200  0.6643090016397413  0.0422580451431691
  0.7501894967187738  0.4911703542402043  0.8932290339507893
  0.4976186983521448  0.8452172565252308  0.3863622354474986
  0.9351574585792438  0.1093877727038846  0.8142310499309108
  0.3514053914904364  0.7326928557446786  0.3551929081666493
  0.5580477835354469  0.2090886519710555  0.9627372381617244
  0.5756517306675454  0.8510402862545737  0.6584884875323971
  0.0643357447618486  0.0936555336537398  0.2180741194951632
  0.7673206965167840  0.8718437673073064  0.6375350277073979
  0.4855169875535078  0.3868592655429171  0.6748353343398837
  0.8231271042557988  0.7261321728299684  0.5572172206558461
  0.2224646077710083  0.7481615780461899  0.2131564122063936
  0.1109564905646050  0.2503973611653176  0.6992825461603852
  0.2887182086603650  0.8083825216473077  0.9473061301218246
  0.5646241741193672  0.0017668119250369  0.7739319081131045
  0.5650089351276548  0.5649486616939624  0.7187158545309639
  0.8429405394883039  0.4401631354030973  0.0290834908988279
  0.7479142573229390  0.2337403916299297  0.3119812820564261
  0.6314096519932252  0.5377203894635824  0.0691295280043038
  0.6496741864991291  0.1144295491814006  0.3864504609678462
  0.0082741580445687  0.4273385023717106  0.5461706747970596
  0.1831662847592643  0.5872425009130301  0.7428755748990661
  0.6526033530162966  0.8357232017847676  0.1932411462643650
  0.4143244394774204  0.6307014959401661  0.6127901439523873
  0.9889225679082766  0.9377666773296326  0.8600777740310956
  0.4966049159317240  0.4815062842915301  0.2052147396803557
  0.5240144734021089  0.3962415117861522  0.0364284177904192
  0.1191604610016180  0.8918632267057313  0.2184339579852873
  0.7580899629262210  0.2215267133355392  0.4990708739711827
  0.7389232355508268  0.5267065884449352  0.2945301365736341
  0.9788466534141695  0.6681939162989519  0.6517162453292291
  0.9214955484974173  0.5974475002520321  0.3779113942542212
  0.0234740414827427  0.4137136636135287  0.9742029850347852
  0.8134314241804752  0.2153231365827420  0.7714943396597007
  0.5991291837655172  0.2487033024661711  0.6899641886504467
  0.3463765075832843  0.9698807542424590  0.6517641480114089
  0.1042654467858578  0.7734062210461463  0.5583628049144242
  0.4781134077077832  0.1973016447107830  0.7050928682742712
  0.4913044118222632  0.0146837868972258  0.4195037359444695
  0.4852432546951908  0.6781403359219313  0.4655622273364802
  0.6195937455005558  0.3685012886806707  0.9043077168416632
  0.7426820589353476  0.6824771100435192  0.1234846905386427
  0.4929505587750596  0.9360116832838660  0.2406763044159777
  0.1372805706021658  0.4952262317315348  0.0905242890149016
  0.1546202171880466  0.1250260627301109  0.5845626510314459
  0.3780689875107077  0.4716735563365782  0.5420830786017163
  0.4511850502568088  0.4729909042092529  0.8443812914533905
  0.8834531025083150  0.7951537946053734  0.7844509740104654
  0.1483786297334511  0.0046573200995062  0.3631831431872872
  0.2326637692401011  0.0595982884267155  0.3062843531613619
  0.4406629935631612  0.4609967293863634  0.3703607469074355
  0.9601728753368151  0.5528230780953879  0.0872046899392823
  0.5317618442360341  0.0215382838741921  0.5984403007631812
  0.0032015578387901  0.6449113811787477  0.7980758646318367
  0.4359819273946962  0.7351541547137426  0.0143946364805716
  0.0541908712766800  0.5819532766576283  0.2498997830690598
  0.7936851659205456  0.1548704081822211  0.1509263827903285
  0.8687587430699389  0.0533159385577675  0.5440589046492563
  0.3087858392608740  0.6183085558064236  0.9099778873457802
  0.1236968218152302  0.9415269560085631  0.5217944365641962
  0.8791884775854850  0.7009594852817616  0.9542389778940177
  0.2091389337041677  0.0914959549703033  0.9315056754014792
  0.6464771354215973  0.8008031194866700  0.4937725243283445
  0.8784911991815244  0.6337934557522450  0.2140288273449308
  0.4859248092565582  0.8663382444386691  0.8605753532193648
  0.2684305840687532  0.6149592778062688  0.0923429330165995
  0.0325993814994717  0.7779204813292704  0.8940106475731310
  0.1963922935484489  0.8715007662476167  0.6886684467554917
  0.3693413764117799  0.4850739658451024  0.0661535247985434
  0.1374222912240546  0.3023787304879373  0.5957093159373645
  0.2310859358150994  0.5595202178052747  0.5710851656832684
  0.2973941678394696  0.1558312159558363  0.0459980491412792
  0.0881688182235983  0.4906886111358039  0.6018312447570743
  0.8447397059734233  0.4116682966456151  0.3175332554472986
  0.1714303657308318  0.3970324378281487  0.4472922805640085
  0.9719584784122041  0.2119819039752255  0.5844026468251016
  0.8041786424678246  0.3382692294133152  0.1596614522420909
  0.0307518832412706  0.1060995137452220  0.4456241188530650
  0.7289065809563927  0.4785968536534837  0.4888815020116032
  0.8706999656327622  0.9759960196936963  0.7160469836747554
  0.3814930164027546  0.8607521875722439  0.1518144335084876
  0.1416643116652440  0.9042855384474450  0.9123691985998967
  0.6415183430550943  0.5755092416047922  0.2558599802534867
  0.4107081293854306  0.9801868913892363  0.9935472032780808
  0.5348737675583860  0.2352820397793158  0.2940069063246398
  0.7375180884103794  0.0842992717345387  0.6581935034391022
  0.6724040224788604  0.6470041937560914  0.4231566671260736
  0.1761935422230240  0.4534196713617255  0.8842917747838958
  0.5177058017741664  0.0972986885906622  0.2720814404879768
  0.5531139769278657  0.3410981347044820  0.3379645323147896
  0.8996718169574195  0.1819674519066266  0.4003213598072800
  0.0023288159482915  0.2875754958940140  0.1859755019317376
  0.2739802833777436  0.5412048083804578  0.3973754011991972
  0.0149383442231837  0.9100281737894774  0.6744444898797075
  0.7025470694980674  0.3775637255852746  0.4150729415313162
  0.0925050599431996  0.2036379243733478  0.8301610962984969
  0.2660916298991585  0.2388838976089155  0.8676464460062523
  0.9059401869101122  0.5696127287045035  0.5436220516990546
  0.2558621265429262  0.7063825562143283  0.6559242664650489
  0.3752145462102953  0.1459263273821090  0.3649641658539136
  0.9084972984284919  0.5424049691873948  0.9006007559178866
  0.6656077652836697  0.6490588148212466  0.8686570831203382
  0.8486360456350884  0.9043461608081217  0.0353738640898288
  0.2881373570279687  0.8883414279955441  0.3051511312640587
  0.6457659842190160  0.9302038837918234  0.9182503718490495
  0.4322958709826985  0.1391062735941649  0.8934449930009403
  0.9353053542930313  0.4906504889359435  0.7171745154623375
  0.4434358280098719  0.5692604588999919  0.0499079196928050
  0.3037971393228193  0.9846435765192592  0.4476722171394592
  0.2390486435879624  0.4245948354606311  0.7057912992282531
  0.3704757648577020  0.9818704253015648  0.8177398021929093
  0.0988180109393695  0.0430125241645491  0.7810671173021279
  0.1844702597365993  0.7447565255857462  0.8246383984153651
  0.3631560569966648  0.1564715099122448  0.7194164395643339
  0.7541920682658828  0.7976919637254577  0.9195446807080633
  0.6677936793830108  0.4191925143019083  0.6557482460213754
  0.6828026463617217  0.2655978260626465  0.0490583388988819
  0.8880095959705607  0.0165816328010093  0.1817328295307044
  0.9072169267995169  0.3416010723500700  0.4909073454748089
  0.5052639180678747  0.0919631326163502  0.0919759156892492
  0.7463936335053606  0.0550073352294990  0.8411264519525228
  0.4790380643526996  0.3123881469346134  0.8416604175301889
  0.0007006669162650  0.9307062752627934  0.3759853978981568
  0.1639996398034750  0.2468184377740568  0.3228381057051225
  0.4528989643440545  0.2323134290999731  0.1409504843978949
  0.7793126291193132  0.3120218358687366  0.9141242638716512
  0.0308072526831389  0.3702415397230897  0.3492989681485386
  0.2817037780042522  0.2575901744795968  0.4747252704183205
  0.9417025030883361  0.8500893523946582  0.5359850573107673
  0.5631640669445779  0.5279004838106733  0.5082177007584482
  0.6144537023095167  0.7310301650584813  0.0171475892395811
  0.3491330108843132  0.0746266012308975  0.1928675048228164
  0.2502972131982892  0.3355804930378857  0.0144159627548921
  0.8729515198730415  0.7676703358487001  0.3886692665193477
  0.3547244858091041  0.8165693993761852  0.7599965243210551
  0.6729604949982829  0.0808244255479132  0.0210278595107946
  0.2522575651123541  0.9564996357556140  0.0536977989631376
  0.6549510045355381  0.0204652439592013  0.1911095876216377
  0.5163621318953903  0.6742902257108538  0.2932018412520637
 
  0.00000000E+00  0.00000000E+00  0.00000000E+00
  0.00000000E+00  0.00000000E+00  0.00000000E+00
  0.00000000E+00  0.00000000E+00  0.00000000E+00
  0.00000000E+00  0.00000000E+00  0.00000000E+00
  0.00000000E+00  0.00000000E+00  0.00000000E+00
  0.00000000E+00  0.00000000E+00  0.00000000E+00
  0.00000000E+00  0.00000000E+00  0.00000000E+00
  0.00000000E+00  0.00000000E+00  0.00000000E+00
  0.00000000E+00  0.00000000E+00  0.00000000E+00
  0.00000000E+00  0.00000000E+00  0.00000000E+00
  0.00000000E+00  0.00000000E+00  0.00000000E+00
  0.00000000E+00  0.00000000E+00  0.00000000E+00
  0.00000000E+00  0.00000000E+00  0.00000000E+00
  0.00000000E+00  0.00000000E+00  0.00000000E+00
  0.00000000E+00  0.00000000E+00  0.00000000E+00
  0.00000000E+00  0.00000000E+00  0.00000000E+00
  0.00000000E+00  0.00000000E+00  0.00000000E+00
  0.00000000E+00  0.00000000E+00  0.00000000E+00
  0.00000000E+00  0.00000000E+00  0.00000000E+00
  0.00000000E+00  0.00000000E+00  0.00000000E+00
  0.00000000E+00  0.00000000E+00  0.00000000E+00
  0.00000000E+00  0.00000000E+00  0.00000000E+00
  0.00000000E+00  0.00000000E+00  0.00000000E+00
  0.00000000E+00  0.00000000E+00  0.00000000E+00
  0.00000000E+00  0.00000000E+00  0.00000000E+00
  0.00000000E+00  0.00000000E+00  0.00000000E+00
  0.00000000E+00  0.00000000E+00  0.00000000E+00
  0.00000000E+00  0.00000000E+00  0.00000000E+00
  0.00000000E+00  0.00000000E+00  0.00000000E+00
  0.00000000E+00  0.00000000E+00  0.00000000E+00
  0.00000000E+00  0.00000000E+00  0.00000000E+00
  0.00000000E+00  0.00000000E+00  0.00000000E+00
  0.00000000E+00  0.00000000E+00  0.00000000E+00
  0.00000000E+00  0.00000000E+00  0.00000000E+00
  0.00000000E+00  0.00000000E+00  0.00000000E+00
  0.00000000E+00  0.00000000E+00  0.00000000E+00
  0.00000000E+00  0.00000000E+00  0.00000000E+00
  0.00000000E+00  0.00000000E+00  0.00000000E+00
  0.00000000E+00  0.00000000E+00  0.00000000E+00
  0.00000000E+00  0.00000000E+00  0.00000000E+00
  0.00000000E+00  0.00000000E+00  0.00000000E+00
  0.00000000E+00  0.00000000E+00  0.00000000E+00
  0.00000000E+00  0.00000000E+00  0.00000000E+00
  0.00000000E+00  0.00000000E+00  0.00000000E+00
  0.00000000E+00  0.00000000E+00  0.00000000E+00
  0.00000000E+00  0.00000000E+00  0.00000000E+00
  0.00000000E+00  0.00000000E+00  0.00000000E+00
  0.00000000E+00  0.00000000E+00  0.00000000E+00
  0.00000000E+00  0.00000000E+00  0.00000000E+00
  0.00000000E+00  0.00000000E+00  0.00000000E+00
  0.00000000E+00  0.00000000E+00  0.00000000E+00
  0.00000000E+00  0.00000000E+00  0.00000000E+00
  0.00000000E+00  0.00000000E+00  0.00000000E+00
  0.00000000E+00  0.00000000E+00  0.00000000E+00
  0.00000000E+00  0.00000000E+00  0.00000000E+00
  0.00000000E+00  0.00000000E+00  0.00000000E+00
  0.00000000E+00  0.00000000E+00  0.00000000E+00
  0.00000000E+00  0.00000000E+00  0.00000000E+00
  0.00000000E+00  0.00000000E+00  0.00000000E+00
  0.00000000E+00  0.00000000E+00  0.00000000E+00
  0.00000000E+00  0.00000000E+00  0.00000000E+00
  0.00000000E+00  0.00000000E+00  0.00000000E+00
  0.00000000E+00  0.00000000E+00  0.00000000E+00
  0.00000000E+00  0.00000000E+00  0.00000000E+00
  0.00000000E+00  0.00000000E+00  0.00000000E+00
  0.00000000E+00  0.00000000E+00  0.00000000E+00
  0.00000000E+00  0.00000000E+00  0.00000000E+00
  0.00000000E+00  0.00000000E+00  0.00000000E+00
  0.00000000E+00  0.00000000E+00  0.00000000E+00
  0.00000000E+00  0.00000000E+00  0.00000000E+00
  0.00000000E+00  0.00000000E+00  0.00000000E+00
  0.00000000E+00  0.00000000E+00  0.00000000E+00
  0.00000000E+00  0.00000000E+00  0.00000000E+00
  0.00000000E+00  0.00000000E+00  0.00000000E+00
  0.00000000E+00  0.00000000E+00  0.00000000E+00
  0.00000000E+00  0.00000000E+00  0.00000000E+00
  0.00000000E+00  0.00000000E+00  0.00000000E+00
  0.00000000E+00  0.00000000E+00  0.00000000E+00
  0.00000000E+00  0.00000000E+00  0.00000000E+00
  0.00000000E+00  0.00000000E+00  0.00000000E+00
  0.00000000E+00  0.00000000E+00  0.00000000E+00
  0.00000000E+00  0.00000000E+00  0.00000000E+00
  0.00000000E+00  0.00000000E+00  0.00000000E+00
  0.00000000E+00  0.00000000E+00  0.00000000E+00
  0.00000000E+00  0.00000000E+00  0.00000000E+00
  0.00000000E+00  0.00000000E+00  0.00000000E+00
  0.00000000E+00  0.00000000E+00  0.00000000E+00
  0.00000000E+00  0.00000000E+00  0.00000000E+00
  0.00000000E+00  0.00000000E+00  0.00000000E+00
  0.00000000E+00  0.00000000E+00  0.00000000E+00
  0.00000000E+00  0.00000000E+00  0.00000000E+00
  0.00000000E+00  0.00000000E+00  0.00000000E+00
  0.00000000E+00  0.00000000E+00  0.00000000E+00
  0.00000000E+00  0.00000000E+00  0.00000000E+00
  0.00000000E+00  0.00000000E+00  0.00000000E+00
  0.00000000E+00  0.00000000E+00  0.00000000E+00
  0.00000000E+00  0.00000000E+00  0.00000000E+00
  0.00000000E+00  0.00000000E+00  0.00000000E+00
  0.00000000E+00  0.00000000E+00  0.00000000E+00
  0.00000000E+00  0.00000000E+00  0.00000000E+00
  0.00000000E+00  0.00000000E+00  0.00000000E+00
  0.00000000E+00  0.00000000E+00  0.00000000E+00
  0.00000000E+00  0.00000000E+00  0.00000000E+00
  0.00000000E+00  0.00000000E+00  0.00000000E+00
  0.00000000E+00  0.00000000E+00  0.00000000E+00
  0.00000000E+00  0.00000000E+00  0.00000000E+00
  0.00000000E+00  0.00000000E+00  0.00000000E+00
  0.00000000E+00  0.00000000E+00  0.00000000E+00
  0.00000000E+00  0.00000000E+00  0.00000000E+00
  0.00000000E+00  0.00000000E+00  0.00000000E+00
  0.00000000E+00  0.00000000E+00  0.00000000E+00
  0.00000000E+00  0.00000000E+00  0.00000000E+00
  0.00000000E+00  0.00000000E+00  0.00000000E+00
  0.00000000E+00  0.00000000E+00  0.00000000E+00
  0.00000000E+00  0.00000000E+00  0.00000000E+00
  0.00000000E+00  0.00000000E+00  0.00000000E+00
  0.00000000E+00  0.00000000E+00  0.00000000E+00
  0.00000000E+00  0.00000000E+00  0.00000000E+00
  0.00000000E+00  0.00000000E+00  0.00000000E+00
  0.00000000E+00  0.00000000E+00  0.00000000E+00
  0.00000000E+00  0.00000000E+00  0.00000000E+00
  0.00000000E+00  0.00000000E+00  0.00000000E+00
  0.00000000E+00  0.00000000E+00  0.00000000E+00
  0.00000000E+00  0.00000000E+00  0.00000000E+00
  0.00000000E+00  0.00000000E+00  0.00000000E+00
  0.00000000E+00  0.00000000E+00  0.00000000E+00
  0.00000000E+00  0.00000000E+00  0.00000000E+00
  0.00000000E+00  0.00000000E+00  0.00000000E+00
  0.00000000E+00  0.00000000E+00  0.00000000E+00
  0.00000000E+00  0.00000000E+00  0.00000000E+00
  0.00000000E+00  0.00000000E+00  0.00000000E+00
  0.00000000E+00  0.00000000E+00  0.00000000E+00
  0.00000000E+00  0.00000000E+00  0.00000000E+00
  0.00000000E+00  0.00000000E+00  0.00000000E+00
  0.00000000E+00  0.00000000E+00  0.00000000E+00
  0.00000000E+00  0.00000000E+00  0.00000000E+00
  0.00000000E+00  0.00000000E+00  0.00000000E+00
  0.00000000E+00  0.00000000E+00  0.00000000E+00
  0.00000000E+00  0.00000000E+00  0.00000000E+00
  0.00000000E+00  0.00000000E+00  0.00000000E+00
  0.00000000E+00  0.00000000E+00  0.00000000E+00
  0.00000000E+00  0.00000000E+00  0.00000000E+00
  0.00000000E+00  0.00000000E+00  0.00000000E+00
  0.00000000E+00  0.00000000E+00  0.00000000E+00
  0.00000000E+00  0.00000000E+00  0.00000000E+00
  0.00000000E+00  0.00000000E+00  0.00000000E+00
  0.00000000E+00  0.00000000E+00  0.00000000E+00
  0.00000000E+00  0.00000000E+00  0.00000000E+00
  0.00000000E+00  0.00000000E+00  0.00000000E+00
  0.00000000E+00  0.00000000E+00  0.00000000E+00
  0.00000000E+00  0.00000000E+00  0.00000000E+00
  0.00000000E+00  0.00000000E+00  0.00000000E+00
  0.00000000E+00  0.00000000E+00  0.00000000E+00
  0.00000000E+00  0.00000000E+00  0.00000000E+00
  0.00000000E+00  0.00000000E+00  0.00000000E+00
  0.00000000E+00  0.00000000E+00  0.00000000E+00
  0.00000000E+00  0.00000000E+00  0.00000000E+00
  0.00000000E+00  0.00000000E+00  0.00000000E+00
  0.00000000E+00  0.00000000E+00  0.00000000E+00
  0.00000000E+00  0.00000000E+00  0.00000000E+00
  0.00000000E+00  0.00000000E+00  0.00000000E+00
  0.00000000E+00  0.00000000E+00  0.00000000E+00
  0.00000000E+00  0.00000000E+00  0.00000000E+00
  0.00000000E+00  0.00000000E+00  0.00000000E+00
  0.00000000E+00  0.00000000E+00  0.00000000E+00
  0.00000000E+00  0.00000000E+00  0.00000000E+00
  0.00000000E+00  0.00000000E+00  0.00000000E+00
  0.00000000E+00  0.00000000E+00  0.00000000E+00
  0.00000000E+00  0.00000000E+00  0.00000000E+00
  0.00000000E+00  0.00000000E+00  0.00000000E+00
  0.00000000E+00  0.00000000E+00  0.00000000E+00
  0.00000000E+00  0.00000000E+00  0.00000000E+00
  0.00000000E+00  0.00000000E+00  0.00000000E+00
  0.00000000E+00  0.00000000E+00  0.00000000E+00
  0.00000000E+00  0.00000000E+00  0.00000000E+00
  0.00000000E+00  0.00000000E+00  0.00000000E+00
  0.00000000E+00  0.00000000E+00  0.00000000E+00
  0.00000000E+00  0.00000000E+00  0.00000000E+00
  0.00000000E+00  0.00000000E+00  0.00000000E+00
  0.00000000E+00  0.00000000E+00  0.00000000E+00
  0.00000000E+00  0.00000000E+00  0.00000000E+00
  0.00000000E+00  0.00000000E+00  0.00000000E+00
  0.00000000E+00  0.00000000E+00  0.00000000E+00
  0.00000000E+00  0.00000000E+00  0.00000000E+00
  0.00000000E+00  0.00000000E+00  0.00000000E+00
  0.00000000E+00  0.00000000E+00  0.00000000E+00
  0.00000000E+00  0.00000000E+00  0.00000000E+00
  0.00000000E+00  0.00000000E+00  0.00000000E+00
  0.00000000E+00  0.00000000E+00  0.00000000E+00
  0.00000000E+00  0.00000000E+00  0.00000000E+00
  0.00000000E+00  0.00000000E+00  0.00000000E+00
  0.00000000E+00  0.00000000E+00  0.00000000E+00
  0.00000000E+00  0.00000000E+00  0.00000000E+00
  0.00000000E+00  0.00000000E+00  0.00000000E+00
  0.00000000E+00  0.00000000E+00  0.00000000E+00
  0.00000000E+00  0.00000000E+00  0.00000000E+00
  0.00000000E+00  0.00000000E+00  0.00000000E+00
  0.00000000E+00  0.00000000E+00  0.00000000E+00
  0.00000000E+00  0.00000000E+00  0.00000000E+00
  0.00000000E+00  0.00000000E+00  0.00000000E+00
  0.00000000E+00  0.00000000E+00  0.00000000E+00
  0.00000000E+00  0.00000000E+00  0.00000000E+00
  0.00000000E+00  0.00000000E+00  0.00000000E+00
  0.00000000E+00  0.00000000E+00  0.00000000E+00
  0.00000000E+00  0.00000000E+00  0.00000000E+00
  0.00000000E+00  0.00000000E+00  0.00000000E+00
  0.00000000E+00  0.00000000E+00  0.00000000E+00
  0.00000000E+00  0.00000000E+00  0.00000000E+00
  0.00000000E+00  0.00000000E+00  0.00000000E+00
  0.00000000E+00  0.00000000E+00  0.00000000E+00
  0.00000000E+00  0.00000000E+00  0.00000000E+00
  0.00000000E+00  0.00000000E+00  0.00000000E+00
  0.00000000E+00  0.00000000E+00  0.00000000E+00
  0.00000000E+00  0.00000000E+00  0.00000000E+00
  0.00000000E+00  0.00000000E+00  0.00000000E+00
  0.00000000E+00  0.00000000E+00  0.00000000E+00
  0.00000000E+00  0.00000000E+00  0.00000000E+00
  0.00000000E+00  0.00000000E+00  0.00000000E+00
  0.00000000E+00  0.00000000E+00  0.00000000E+00
  0.00000000E+00  0.00000000E+00  0.00000000E+00
  0.00000000E+00  0.00000000E+00  0.00000000E+00
  0.00000000E+00  0.00000000E+00  0.00000000E+00
  0.00000000E+00  0.00000000E+00  0.00000000E+00
  0.00000000E+00  0.00000000E+00  0.00000000E+00
  0.00000000E+00  0.00000000E+00  0.00000000E+00
  0.00000000E+00  0.00000000E+00  0.00000000E+00
  0.00000000E+00  0.00000000E+00  0.00000000E+00
  0.00000000E+00  0.00000000E+00  0.00000000E+00
  0.00000000E+00  0.00000000E+00  0.00000000E+00
  0.00000000E+00  0.00000000E+00  0.00000000E+00
  0.00000000E+00  0.00000000E+00  0.00000000E+00
  0.00000000E+00  0.00000000E+00  0.00000000E+00