Amorphous Sb                            
   1.00000000000000     
    21.1156461905629591    0.0000000000000000    0.0000000000000000
     0.0000000000000000   21.1156461905629591    0.0000000000000000
     0.0000000000000000    0.0000000000000000   21.1156461905629591
   Ge   Te
   150   150
Direct
  0.2421103435592288  0.0523684410596124  0.6462073136342260
  0.4742035994229390  0.6717440449035171  0.0531110692350452
  0.8515630357829389  0.1352931230608010  0.5865847569910668
  0.5483813221885522  0.0977684603889470  0.8452349338270964
  0.8986168396159537  0.9605511795673678  0.7184317684275316
  0.2811547519141158  0.4894310274651513  0.5626861739407973
  0.4524322902931920  0.8405213118692552  0.2587166975899433
  0.1883427447813128  0.0524344421599479  0.3459268921843103
  0.6525409412012466  0.7373648986250290  0.3294808988684947
  0.1200046478774547  0.5929416394164022  0.3333941738687859
  0.0252286447618005  0.2705895861339430  0.6357363607562311
  0.6624412123521983  0.2833998702275842  0.4074746046485321
  0.2976136609686881  0.7476944318028758  0.0678913800506562
  0.8269750575516079  0.2585849318514272  0.3681509112584785
  0.9959508254790925  0.0408877535822440  0.3815851954975071
  0.3366876514955334  0.6361742702825541  0.0067903607974165
  0.9219164457957310  0.9198147000087326  0.1107797661263381
  0.4180610600618260  0.4819005498540069  0.2224250337508681
  0.3398220601428271  0.2914581082554274  0.9120413310630880
  0.6761961082359421  0.8018679861064071  0.1581260826658455
  0.1139038523287556  0.8005920469109113  0.8808250856378844
  0.4350345177070353  0.7551694434006646  0.9658900590312294
  0.8176444526531432  0.8077094999443751  0.7854995854895317
  0.6431122196082537  0.8688508121841244  0.7055735693164884
  0.7440498868489734  0.7750692824598057  0.9501011742231845
  0.8419018340853355  0.2020674965681589  0.7977183514854285
  0.9576182239427602  0.7046244906502646  0.8606727619215677
  0.0219473686939981  0.0456609103600603  0.9789616828303827
  0.3609815882843660  0.7781960068356901  0.6645113783060277
  0.4795328544249710  0.7072968172205443  0.4204409527805812
  0.0404265351186174  0.3575735148004330  0.9011474753227781
  0.8306885792935735  0.4120648371222352  0.4410664599163638
  0.1658493015617496  0.2154294352233596  0.1084588116128815
  0.9204311390254886  0.9377768240912342  0.5215278852667606
  0.4461780635140046  0.1998388273179758  0.8982368269030594
  0.6348839601332589  0.4683837135114050  0.4626440389737592
  0.7605695804179223  0.0581564777552298  0.5713085859978104
  0.9302210637271758  0.6420515904255278  0.1795181956729060
  0.7601389160984843  0.2193854246972398  0.9738182233489290
  0.8939869729103183  0.3057080910279346  0.4799240261234095
  0.7222449056223817  0.0323264365835592  0.8892401382309366
  0.0395577046424282  0.5022962604858215  0.1672243979322256
  0.1784814655135729  0.9690703317043209  0.7651880796846549
  0.6445916862852387  0.4201864560258611  0.1820146569222926
  0.6501230333967301  0.6306460912174301  0.5851888945852093
  0.3924642072466260  0.1928217297678904  0.2004331077392991
  0.2860808752492502  0.9545768975039719  0.0416359437873671
  0.2008461978806905  0.3856016868709932  0.6683056122989843
  0.0464456901251296  0.4386872525742503  0.5446434961307056
  0.1157303244788263  0.9714011809656111  0.9646230487500693
  0.8255405330227384  0.7982201745227075  0.2014318458002591
  0.4461762266526478  0.4998082994725697  0.6724054485254622
  0.3859622802238423  0.1962412007928935  0.7342307466922110
  0.7733354974172519  0.2898378623472853  0.8680102829005647
  0.5398871870321437  0.4259152449274700  0.7233231670562416
  0.1070867757092923  0.2453986636315414  0.7766895228531724
  0.6899874689729228  0.9829713940016251  0.6433705268075758
  0.6498293448977773  0.9860406486535513  0.2369954829406665
  0.5269453738620097  0.7016279284429475  0.6091760508357446
  0.2387705064834553  0.2601297293948185  0.6280288934988583
  0.1145984513498567  0.6953278782305723  0.0575382441401491
  0.8136365489014659  0.7418467410183606  0.6770214577240430
  0.8941026662018354  0.4625366497180375  0.0409759060305678
  0.7067601758317886  0.9613810720780966  0.0762050247695475
  0.1773846546753641  0.2737985005010604  0.9011916779126647
  0.0648508025079094  0.2556160051193957  0.0543609119554941
  0.4135109263885453  0.2581588549776702  0.0350684654740824
  0.0711981431723122  0.6509198393093762  0.7667441621083261
  0.9530143774876021  0.6433164075044314  0.7190500725183019
  0.6081622636056313  0.4937064604992971  0.9872847687759019
  0.1591431046503251  0.3942714146841790  0.5506063143291272
  0.0349930607331571  0.5309229864986560  0.9683561308945617
  0.5661484602919392  0.9674703153163553  0.4170876997383960
  0.2247558801182552  0.5612433734335459  0.9777290283606185
  0.5382169460439018  0.0548469868528719  0.5662508792798489
  0.1022286595389212  0.6933042670443352  0.6543851767431740
  0.9575155653513233  0.9137420360790075  0.2351246412192377
  0.7523069499538469  0.1311282343658183  0.1751598668917243
  0.6195718921105083  0.5385271698861065  0.6688100894304114
  0.0763084352808415  0.7408929980095919  0.2685996123070570
  0.6267947212259378  0.7092067797436986  0.7414161896839789
  0.6212915279050419  0.1220293793784530  0.4097446203454606
  0.8260115304621596  0.3645091342387790  0.9558244438528247
  0.0063616453545355  0.3633651464638053  0.0227920495557548
  0.5114349255280547  0.0855860288334578  0.0289052273558996
  0.4001165031872671  0.1532229217897163  0.6204216770997268
  0.8445611784711795  0.6212338683805962  0.4438395208869881
  0.4245130483648234  0.6590738144771432  0.2537086619049289
 -0.0056267464583654  0.2124703900872926  0.3381365574821374
  0.1392639929452874  0.9767390605635202  0.4568116022885104
  0.6505479896090502  0.4587231112612665  0.8195660031527012
  0.5167686216749101  0.3666987505040863  0.2957342422408099
  0.9413239447097146  0.2021475014605143  0.5253355047094246
  0.7050536164478486  0.0912792088281422  0.7103911647428491
  0.8123184088409185  0.6141565863808671  0.7108650350849610
  0.5789796622593943  0.9361722135711366  0.7876256281673563
  0.1208689141136525  0.0730708791856956  0.6327719151731832
  0.8394884690442983  0.3960222186008313  0.7987630158654010
  0.2691228742963110  0.8255085509417622  0.8011822420067536
  0.3000146581042004  0.9215624160621698  0.4099906188893527
  0.2810560083868859  0.2198270986497622  0.0614506675947110
  0.3439141922578045  0.0384981310003587  0.2783867899577915
  0.4812537903727007  0.8595929937510166  0.8051821011948476
  0.0005303746115772  0.2394808188827075  0.8452966643099984
  0.6385934709369306  0.2053276864586150  0.3156663313089054
  0.4979900164072767  0.8802544302410904  0.3698391245231883
  0.4192383199023333  0.5337655982801188  0.0427204379557243
  0.3724968240328657  0.0794465378966493  0.7689901147073933
  0.3337758685014922  0.5572160512575528  0.3945984209222371
  0.4962583389165726  0.4281217421945629  0.9069623217021581
  0.9533596437408008  0.5471852520257214  0.8146008677705759
  0.4142201588844386  0.9749807292895138  0.7141946596462904
  0.0663094234338844  0.2889883494081501  0.2472926856991625
  0.7382756654147933  0.6060417445463733  0.9630071145509167
  0.2244646648665844  0.2337889683653544  0.7473505287984719
  0.2071433855339801  0.3468074850269655  0.3268203627793105
  0.7753747359735264  0.4591859008719432  0.0812775605586957
  0.8500981471729675  0.6987961478155129  0.5642201422197948
  0.5770834518946143  0.8542452278303275  0.9934915374472172
  0.6036687319364770  0.5891434721052592  0.2618957643950297
  0.9589092731058454  0.6196907961934802  0.5929415232920657
  0.1214151266703153  0.7637134856561193  0.4637222616856701
  0.7596677077092167  0.8912206005334001  0.5694731220028668
  0.1807217385428154  0.7201377014999476  0.8014011675984908
  0.4266294797391221  0.3240127481282311  0.5011405629456132
  0.5108294799454770  0.6198927953077429  0.3361670131965760
  0.2410603046700096  0.8221673323886176  0.2284858909859205
  0.7977883576613718  0.6762056795815925  0.3215537295515006
  0.4171548148334328  0.9289901329468908  0.8902777020553176
  0.1095940961658971  0.9201605653743855  0.8556536394987307
  0.5057094601289220  0.5808832360042856  0.5127894716506626
  0.3898396380461635  0.5606797165922900  0.8561063491040578
  0.1173468737877169  0.8904923468692676  0.0559717818508361
  0.0688348916153493  0.1486638441428376  0.7133759115478517
  0.2881951163140951  0.6303954006353434  0.8897672272868599
  0.6246697716651742  0.0572157171089835  0.0720323085244154
  0.9889579664427249  0.9062005697394596  0.8306627169571418
  0.2608403699617838  0.1285681464782665  0.7958262967043761
  0.1010198875171594  0.0140925092191683  0.1351673094770565
  0.1708565137937068  0.8779462181341552  0.6071759014614236
  0.5124395360440913  0.5394254455020574  0.8362828482073510
  0.3118774437099910  0.4429332557937273  0.4349939142845407
  0.9012683383146548  0.9041219057912733  0.9810248938333632
  0.2087224733082585  0.6845687920719294  0.6015755877121975
  0.6344559301946717  0.6854875383237052  0.1608155702279648
  0.3778471499579586  0.2884362977601083  0.3885314475081935
  0.2925623619003374  0.6667663035450403  0.4385817499910181
  0.3157767642895409  0.7432949291654138  0.9362253349553207
  0.2940541209208851  0.1147995331213963  0.1948155602708508
  0.6742288582687578  0.3129710830075459  0.7153764011163223
  0.9930559425700314  0.2177412215732951  0.1549804607661883
  0.2135338747577576  0.6855421295655438  0.3343216359301039
  0.7033250233879166  0.3775008721911194  0.0118695678433204
  0.8785576146272847  0.2909649046712216  0.1501542531871479
  0.5602908017072601  0.6042859718681571  0.9343832838794477
  0.0605828008518196  0.5410256596963686  0.6192572221415830
  0.2830074220681841  0.6790429822111201  0.7032297859532309
  0.7924049647554855  0.8911970608783318  0.9166917569235551
  0.0870337634735883  0.6168162390587810  0.2030874688091144
  0.6885623112001035  0.5566048364914450  0.0750226165684884
  0.0954651693234096  0.4540837601583196  0.0602306404851974
  0.6749295915950986  0.0126117951848189  0.3676734555902588
  0.8939066412349115  0.9595072848966345  0.3409430474105183
  0.5935799879633963  0.7271685703408516  0.0445373348067985
  0.6830950802044606  0.8025399857900039  0.8141167197174063
  0.6906074218723410  0.7510238961167118  0.6314396988545907
  0.4486009784103413  0.3712315735299498  0.8010181441790866
  0.8760544599362272  0.8656203901414180  0.6258759458767157
  0.6239068602374415  0.1103014889013880  0.1907637649895069
  0.5082446453694778  0.5724619485651073  0.1717106337411960
  0.4452379681412267  0.8786872813812290  0.0094528473841593
  0.3866107084285769  0.7709102255311590  0.7940742813920445
  0.1808573320880420  0.4344542008761913  0.4294312668112208
  0.4155215659304537  0.9004953949934928  0.4623422496908995
  0.6641892999759215  0.1343403351781879  0.5341922878750417
  0.3497204181991516  0.3008174092799048  0.1447827117748478
  0.8001648182355048  0.9779223216655177  0.4815041752338082
  0.7820801854820669  0.1928754063288625  0.6813518372990072
  0.5609660967914434  0.1795337072945353  0.9547521574351083
  0.5044429649098476  0.2128958362366475  0.7837355959780360
  0.1806303355091439  0.4662853681990076  0.2669459828779539
  0.3364945963088002  0.4777558707293124  0.1214162873742964
  0.4088276052189993  0.7414094122738019  0.1447285640940737
  0.7596094353242807  0.1603371147710791  0.3079454699417220
  0.1694158320189621  0.3200218429806100  0.1774901835142786
  0.5537643091946990  0.7456380882907981  0.2456702570479991
  0.7776657865326744  0.5890630868915900  0.5857877483688589
  0.9481987147884083  0.3691457454422906  0.5869140682634783
  0.4105687828773454  0.0659539953424377  0.8916882989880891
  0.6157157784463280  0.4682043935138250  0.3001656034999174
  0.8256442860555528  0.7046253959133274  0.8657233621930821
  0.2095279169523625  0.5950816736908650  0.5119097817551677
  0.2319965791127082  0.6353333136605995  0.0930525063225882
  0.1453719487556735  0.8484623930217764  0.3145848062796955
  0.4592909058923023  0.5219086115570896  0.4027072185519899
  0.9475457795152367  0.6663781034389173  0.0513949273506812
  0.3282552809866798  0.5679957321133674  0.2669821980628719
  0.7970164274587125  0.6716613310252391  0.1918304977410976
  0.4901201631682899  0.1874910395061903  0.1139861457789723
  0.3520344837722343  0.4735911316412691  0.7635010102812176
  0.5197096944598093  0.4505382554726713  0.0810737290973105
  0.5608228053080342  0.3219285054090000  0.6564111090609439
  0.1316620624926017  0.2689936960599739  0.5513644724380609
  0.0733454350074447  0.5167387020126406  0.7656599711607033
  0.7129257954742900  0.4380561376660418  0.7072226605656408
  0.7504850024261016  0.4883125222502507  0.9058617938318635
  0.5066391909178278  0.6084073651426278  0.7140802252596175
  0.1398343732884101  0.0866329175587917  0.8098374781124051
  0.6363955578878521  0.6082848345948859  0.4590944365343841
  0.1244839117249852  0.1283819522229697  0.1945396176804086
  0.1224355343764831  0.1405173140727001  0.4145061487294287
  0.5771050923394280  0.7913189333855755  0.4254857481948832
  0.1779008412936283  0.7962160010739773  0.9944874170170434
  0.2812674625846305  0.1524026293971757  0.5713040938603633
  0.7093886641130601  0.2737421242248469  0.5252184810418201
  0.4705385992704018  0.0369561193246060  0.2704985053797305
  0.3579546744620383  0.0510999830553720  0.0971381227142008
  0.0635138980110154  0.0655117109155098  0.5162868855868825
  0.6785053081205678  0.1397769238017720  0.8253805266577592
  0.9177369848009386  0.6136026603324207  0.3376981305770694
  0.2446720204616580  0.3306540300481723  0.0021316268800662
  0.5344997599269755  0.0342386689969369  0.7209454950443471
  0.0801038120133571  0.3569738057529541  0.7200973737704741
  0.4745101073385604  0.2094789713505838  0.5348446508178860
  0.9704343517191477  0.0410663653595863  0.0949434161787770
  0.9040895367907055  0.5253989630150064  0.5101675762618523
  0.2383244169743017  0.7845604864626627  0.5323877876529274
  0.9132506336279088  0.3105972821429689  0.2862534110173943
  0.0688299809712794  0.8786637344649599  0.5019176892508035
  0.2131694425006843  0.1818330432593482  0.3033454605947105
  0.7183488854957673  0.8412605805375128  0.2762729453563980
  0.2567218711640223  0.3365264500919516  0.8122268964087965
  0.5159768996109184  0.3377179017307332  0.0007612075911733
  0.3827618380500403  0.5668764992262161  0.5851522577074778
  0.2295930120024434  0.5108247015182735  0.6842311342663632
  0.9302968285666933  0.0027983503167415  0.9007946574415088
  0.5997029826838696  0.9003381594168596  0.1263225662482597
  0.7476664394474436  0.3609165557181074  0.3520920803390976
  0.0324518801296440  0.6874493721662555  0.3784449014581491
  0.8803351302824566  0.4978410870267755  0.7192832527944376
  0.2400834479013241  0.9745954896800462  0.5405873777240137
  0.3106348306037315  0.0531199346886439  0.4006509055567523
  0.6019017797794128  0.9784239985597473  0.9084438036283358
  0.0750101293595401  0.9599822681308999  0.2667736780933804
  0.4058520408188978  0.0252180408892115  0.5947932634018014
  0.4557757923081152  0.2283052686528000  0.3080992508963487
  0.0133068073982777  0.4966944536512451  0.4379124237393566
  0.9145378288675328  0.2989132028927520  0.7508381808318457
  0.6968227487374536  0.2607929181658971  0.0751043479218187
  0.9106850421410690  0.1386418384105693  0.4169886928871487
  0.1984598784708371  0.0498193493251931  0.0180683236472595
  0.4616551050702516  0.9782484163863449  0.1503484076037027
  0.7849634726579363  0.5500236708484778  0.3509050566974170
  0.0782464942417332  0.9640481070926260  0.6797869337666926
  0.7704387716776573  0.9977263246687946  0.1874990414193005
  0.9135001552281359  0.5081283985095890  0.1657528605555295
  0.3761650346764104  0.4632505764527662  0.9407844969852098
  0.0229527198400238  0.8349434528000030  0.1161508129875150
  0.7727400080651801  0.4116015936188093  0.1965583531847180
  0.1204071325844068  0.8018073346010960  0.7172386198033460
  0.6039070874159088  0.3033910354604935  0.2225787371450172
  0.5008557385076332  0.0738873047400785  0.4355057657398313
  0.9471563895278701  0.0648037682965565  0.2638148151501905
  0.2698255736244297  0.1788512809006249  0.9142110992681658
  0.5343487197723119  0.7720960935577895  0.8835023414950693
  0.0134373134106643  0.3022224885414089  0.4295720706936157
  0.7727795923634488  0.9827517300449080  0.7501595729648008
  0.0541441155735127  0.1693288185399774  0.9568677916469522
  0.3295581255213943  0.3410502862739268  0.5915649437383362
  0.9339308584359926  0.4319075006929153  0.8857762425944786
  0.7394973527687455  0.4110737223980033  0.5324897131697249
  0.3881086406521893  0.7565733325976387  0.3399121418070538
  0.0525275770934920  0.4284889608940072  0.2709145842633219
  0.5244874425764088  0.8184651275780737  0.6768566757404803
  0.5556182497841039  0.3484638757174839  0.4232596265454295
  0.1175654580969111  0.6314665866144292  0.9446306270717326
  0.9883062346863477  0.8145008360650438  0.9293770706600031
  0.8800323490468314  0.2558886597546241  0.0047971702172015
  0.6510876184185201  0.3277346160382480  0.8462254141733110
  0.8934957616287404  0.8342135972922988  0.4322808248512697
  0.4231707002170212  0.7330897090816775  0.5375712655151452
  0.5900153796057891  0.9385620144228459  0.5378868776404458
  0.8712367249476092  0.5798102897954456  0.9829271077020597
  0.2689928238955179  0.2341957368856039  0.4153057705615978
  0.9639314653358800  0.1252279335230880  0.7793616673680159
  0.7358663940552702  0.0952950806051277  0.0089405559855042
  0.0271614529848384  0.7271274168409024  0.5590680246216830
  0.2087107145453823  0.9210220277355262  0.1457151893499870
  0.9506449918784170  0.7684858148691713  0.7469054884234257
  0.1185235488335371  0.4648967280656463  0.8911620261721974
  0.9544501568315226  0.7842002557432401  0.2529542698076514
  0.2908361145390900  0.9214972029518343  0.8855208959417903
  0.6970315232246808  0.6024923449743741  0.7705148694318401
  0.7800598740534996  0.7883823896877303  0.4849515180449224
  0.9319603786221838  0.0468670512893872  0.6264046983957389
  0.3323630225643261  0.3849256255894836  0.3154841690720627
  0.5511269735771022  0.4695614246071331  0.5639439450127003
  0.3304955783447789  0.9084930626268254  0.2781568681186380
  0.7782051788260259  0.8250576103122910  0.0798324660581104
  0.2897001091471209  0.8867382156840458  0.6861066154334340
 
  0.00000000E+00  0.00000000E+00  0.00000000E+00
  0.00000000E+00  0.00000000E+00  0.00000000E+00
  0.00000000E+00  0.00000000E+00  0.00000000E+00
  0.00000000E+00  0.00000000E+00  0.00000000E+00
  0.00000000E+00  0.00000000E+00  0.00000000E+00
  0.00000000E+00  0.00000000E+00  0.00000000E+00
  0.00000000E+00  0.00000000E+00  0.00000000E+00
  0.00000000E+00  0.00000000E+00  0.00000000E+00
  0.00000000E+00  0.00000000E+00  0.00000000E+00
  0.00000000E+00  0.00000000E+00  0.00000000E+00
  0.00000000E+00  0.00000000E+00  0.00000000E+00
  0.00000000E+00  0.00000000E+00  0.00000000E+00
  0.00000000E+00  0.00000000E+00  0.00000000E+00
  0.00000000E+00  0.00000000E+00  0.00000000E+00
  0.00000000E+00  0.00000000E+00  0.00000000E+00
  0.00000000E+00  0.00000000E+00  0.00000000E+00
  0.00000000E+00  0.00000000E+00  0.00000000E+00
  0.00000000E+00  0.00000000E+00  0.00000000E+00
  0.00000000E+00  0.00000000E+00  0.00000000E+00
  0.00000000E+00  0.00000000E+00  0.00000000E+00
  0.00000000E+00  0.00000000E+00  0.00000000E+00
  0.00000000E+00  0.00000000E+00  0.00000000E+00
  0.00000000E+00  0.00000000E+00  0.00000000E+00
  0.00000000E+00  0.00000000E+00  0.00000000E+00
  0.00000000E+00  0.00000000E+00  0.00000000E+00
  0.00000000E+00  0.00000000E+00  0.00000000E+00
  0.00000000E+00  0.00000000E+00  0.00000000E+00
  0.00000000E+00  0.00000000E+00  0.00000000E+00
  0.00000000E+00  0.00000000E+00  0.00000000E+00
  0.00000000E+00  0.00000000E+00  0.00000000E+00
  0.00000000E+00  0.00000000E+00  0.00000000E+00
  0.00000000E+00  0.00000000E+00  0.00000000E+00
  0.00000000E+00  0.00000000E+00  0.00000000E+00
  0.00000000E+00  0.00000000E+00  0.00000000E+00
  0.00000000E+00  0.00000000E+00  0.00000000E+00
  0.00000000E+00  0.00000000E+00  0.00000000E+00
  0.00000000E+00  0.00000000E+00  0.00000000E+00
  0.00000000E+00  0.00000000E+00  0.00000000E+00
  0.00000000E+00  0.00000000E+00  0.00000000E+00
  0.00000000E+00  0.00000000E+00  0.00000000E+00
  0.00000000E+00  0.00000000E+00  0.00000000E+00
  0.00000000E+00  0.00000000E+00  0.00000000E+00
  0.00000000E+00  0.00000000E+00  0.00000000E+00
  0.00000000E+00  0.00000000E+00  0.00000000E+00
  0.00000000E+00  0.00000000E+00  0.00000000E+00
  0.00000000E+00  0.00000000E+00  0.00000000E+00
  0.00000000E+00  0.00000000E+00  0.00000000E+00
  0.00000000E+00  0.00000000E+00  0.00000000E+00
  0.00000000E+00  0.00000000E+00  0.00000000E+00
  0.00000000E+00  0.00000000E+00  0.00000000E+00
  0.00000000E+00  0.00000000E+00  0.00000000E+00
  0.00000000E+00  0.00000000E+00  0.00000000E+00
  0.00000000E+00  0.00000000E+00  0.00000000E+00
  0.00000000E+00  0.00000000E+00  0.00000000E+00
  0.00000000E+00  0.00000000E+00  0.00000000E+00
  0.00000000E+00  0.00000000E+00  0.00000000E+00
  0.00000000E+00  0.00000000E+00  0.00000000E+00
  0.00000000E+00  0.00000000E+00  0.00000000E+00
  0.00000000E+00  0.00000000E+00  0.00000000E+00
  0.00000000E+00  0.00000000E+00  0.00000000E+00
  0.00000000E+00  0.00000000E+00  0.00000000E+00
  0.00000000E+00  0.00000000E+00  0.00000000E+00
  0.00000000E+00  0.00000000E+00  0.00000000E+00
  0.00000000E+00  0.00000000E+00  0.00000000E+00
  0.00000000E+00  0.00000000E+00  0.00000000E+00
  0.00000000E+00  0.00000000E+00  0.00000000E+00
  0.00000000E+00  0.00000000E+00  0.00000000E+00
  0.00000000E+00  0.00000000E+00  0.00000000E+00
  0.00000000E+00  0.00000000E+00  0.00000000E+00
  0.00000000E+00  0.00000000E+00  0.00000000E+00
  0.00000000E+00  0.00000000E+00  0.00000000E+00
  0.00000000E+00  0.00000000E+00  0.00000000E+00
  0.00000000E+00  0.00000000E+00  0.00000000E+00
  0.00000000E+00  0.00000000E+00  0.00000000E+00
  0.00000000E+00  0.00000000E+00  0.00000000E+00
  0.00000000E+00  0.00000000E+00  0.00000000E+00
  0.00000000E+00  0.00000000E+00  0.00000000E+00
  0.00000000E+00  0.00000000E+00  0.00000000E+00
  0.00000000E+00  0.00000000E+00  0.00000000E+00
  0.00000000E+00  0.00000000E+00  0.00000000E+00
  0.00000000E+00  0.00000000E+00  0.00000000E+00
  0.00000000E+00  0.00000000E+00  0.00000000E+00
  0.00000000E+00  0.00000000E+00  0.00000000E+00
  0.00000000E+00  0.00000000E+00  0.00000000E+00
  0.00000000E+00  0.00000000E+00  0.00000000E+00
  0.00000000E+00  0.00000000E+00  0.00000000E+00
  0.00000000E+00  0.00000000E+00  0.00000000E+00
  0.00000000E+00  0.00000000E+00  0.00000000E+00
  0.00000000E+00  0.00000000E+00  0.00000000E+00
  0.00000000E+00  0.00000000E+00  0.00000000E+00
  0.00000000E+00  0.00000000E+00  0.00000000E+00
  0.00000000E+00  0.00000000E+00  0.00000000E+00
  0.00000000E+00  0.00000000E+00  0.00000000E+00
  0.00000000E+00  0.00000000E+00  0.00000000E+00
  0.00000000E+00  0.00000000E+00  0.00000000E+00
  0.00000000E+00  0.00000000E+00  0.00000000E+00
  0.00000000E+00  0.00000000E+00  0.00000000E+00
  0.00000000E+00  0.00000000E+00  0.00000000E+00
  0.00000000E+00  0.00000000E+00  0.00000000E+00
  0.00000000E+00  0.00000000E+00  0.00000000E+00
  0.00000000E+00  0.00000000E+00  0.00000000E+00
  0.00000000E+00  0.00000000E+00  0.00000000E+00
  0.00000000E+00  0.00000000E+00  0.00000000E+00
  0.00000000E+00  0.00000000E+00  0.00000000E+00
  0.00000000E+00  0.00000000E+00  0.00000000E+00
  0.00000000E+00  0.00000000E+00  0.00000000E+00
  0.00000000E+00  0.00000000E+00  0.00000000E+00
  0.00000000E+00  0.00000000E+00  0.00000000E+00
  0.00000000E+00  0.00000000E+00  0.00000000E+00
  0.00000000E+00  0.00000000E+00  0.00000000E+00
  0.00000000E+00  0.00000000E+00  0.00000000E+00
  0.00000000E+00  0.00000000E+00  0.00000000E+00
  0.00000000E+00  0.00000000E+00  0.00000000E+00
  0.00000000E+00  0.00000000E+00  0.00000000E+00
  0.00000000E+00  0.00000000E+00  0.00000000E+00
  0.00000000E+00  0.00000000E+00  0.00000000E+00
  0.00000000E+00  0.00000000E+00  0.00000000E+00
  0.00000000E+00  0.00000000E+00  0.00000000E+00
  0.00000000E+00  0.00000000E+00  0.00000000E+00
  0.00000000E+00  0.00000000E+00  0.00000000E+00
  0.00000000E+00  0.00000000E+00  0.00000000E+00
  0.00000000E+00  0.00000000E+00  0.00000000E+00
  0.00000000E+00  0.00000000E+00  0.00000000E+00
  0.00000000E+00  0.00000000E+00  0.00000000E+00
  0.00000000E+00  0.00000000E+00  0.00000000E+00
  0.00000000E+00  0.00000000E+00  0.00000000E+00
  0.00000000E+00  0.00000000E+00  0.00000000E+00
  0.00000000E+00  0.00000000E+00  0.00000000E+00
  0.00000000E+00  0.00000000E+00  0.00000000E+00
  0.00000000E+00  0.00000000E+00  0.00000000E+00
  0.00000000E+00  0.00000000E+00  0.00000000E+00
  0.00000000E+00  0.00000000E+00  0.00000000E+00
  0.00000000E+00  0.00000000E+00  0.00000000E+00
  0.00000000E+00  0.00000000E+00  0.00000000E+00
  0.00000000E+00  0.00000000E+00  0.00000000E+00
  0.00000000E+00  0.00000000E+00  0.00000000E+00
  0.00000000E+00  0.00000000E+00  0.00000000E+00
  0.00000000E+00  0.00000000E+00  0.00000000E+00
  0.00000000E+00  0.00000000E+00  0.00000000E+00
  0.00000000E+00  0.00000000E+00  0.00000000E+00
  0.00000000E+00  0.00000000E+00  0.00000000E+00
  0.00000000E+00  0.00000000E+00  0.00000000E+00
  0.00000000E+00  0.00000000E+00  0.00000000E+00
  0.00000000E+00  0.00000000E+00  0.00000000E+00
  0.00000000E+00  0.00000000E+00  0.00000000E+00
  0.00000000E+00  0.00000000E+00  0.00000000E+00
  0.00000000E+00  0.00000000E+00  0.00000000E+00
  0.00000000E+00  0.00000000E+00  0.00000000E+00
  0.00000000E+00  0.00000000E+00  0.00000000E+00
  0.00000000E+00  0.00000000E+00  0.00000000E+00
  0.00000000E+00  0.00000000E+00  0.00000000E+00
  0.00000000E+00  0.00000000E+00  0.00000000E+00
  0.00000000E+00  0.00000000E+00  0.00000000E+00
  0.00000000E+00  0.00000000E+00  0.00000000E+00
  0.00000000E+00  0.00000000E+00  0.00000000E+00
  0.00000000E+00  0.00000000E+00  0.00000000E+00
  0.00000000E+00  0.00000000E+00  0.00000000E+00
  0.00000000E+00  0.00000000E+00  0.00000000E+00
  0.00000000E+00  0.00000000E+00  0.00000000E+00
  0.00000000E+00  0.00000000E+00  0.00000000E+00
  0.00000000E+00  0.00000000E+00  0.00000000E+00
  0.00000000E+00  0.00000000E+00  0.00000000E+00
  0.00000000E+00  0.00000000E+00  0.00000000E+00
  0.00000000E+00  0.00000000E+00  0.00000000E+00
  0.00000000E+00  0.00000000E+00  0.00000000E+00
  0.00000000E+00  0.00000000E+00  0.00000000E+00
  0.00000000E+00  0.00000000E+00  0.00000000E+00
  0.00000000E+00  0.00000000E+00  0.00000000E+00
  0.00000000E+00  0.00000000E+00  0.00000000E+00
  0.00000000E+00  0.00000000E+00  0.00000000E+00
  0.00000000E+00  0.00000000E+00  0.00000000E+00
  0.00000000E+00  0.00000000E+00  0.00000000E+00
  0.00000000E+00  0.00000000E+00  0.00000000E+00
  0.00000000E+00  0.00000000E+00  0.00000000E+00
  0.00000000E+00  0.00000000E+00  0.00000000E+00
  0.00000000E+00  0.00000000E+00  0.00000000E+00
  0.00000000E+00  0.00000000E+00  0.00000000E+00
  0.00000000E+00  0.00000000E+00  0.00000000E+00
  0.00000000E+00  0.00000000E+00  0.00000000E+00
  0.00000000E+00  0.00000000E+00  0.00000000E+00
  0.00000000E+00  0.00000000E+00  0.00000000E+00
  0.00000000E+00  0.00000000E+00  0.00000000E+00
  0.00000000E+00  0.00000000E+00  0.00000000E+00
  0.00000000E+00  0.00000000E+00  0.00000000E+00
  0.00000000E+00  0.00000000E+00  0.00000000E+00
  0.00000000E+00  0.00000000E+00  0.00000000E+00
  0.00000000E+00  0.00000000E+00  0.00000000E+00
  0.00000000E+00  0.00000000E+00  0.00000000E+00
  0.00000000E+00  0.00000000E+00  0.00000000E+00
  0.00000000E+00  0.00000000E+00  0.00000000E+00
  0.00000000E+00  0.00000000E+00  0.00000000E+00
  0.00000000E+00  0.00000000E+00  0.00000000E+00
  0.00000000E+00  0.00000000E+00  0.00000000E+00
  0.00000000E+00  0.00000000E+00  0.00000000E+00
  0.00000000E+00  0.00000000E+00  0.00000000E+00
  0.00000000E+00  0.00000000E+00  0.00000000E+00
  0.00000000E+00  0.00000000E+00  0.00000000E+00
  0.00000000E+00  0.00000000E+00  0.00000000E+00
  0.00000000E+00  0.00000000E+00  0.00000000E+00
  0.00000000E+00  0.00000000E+00  0.00000000E+00
  0.00000000E+00  0.00000000E+00  0.00000000E+00
  0.00000000E+00  0.00000000E+00  0.00000000E+00
  0.00000000E+00  0.00000000E+00  0.00000000E+00
  0.00000000E+00  0.00000000E+00  0.00000000E+00
  0.00000000E+00  0.00000000E+00  0.00000000E+00
  0.00000000E+00  0.00000000E+00  0.00000000E+00
  0.00000000E+00  0.00000000E+00  0.00000000E+00
  0.00000000E+00  0.00000000E+00  0.00000000E+00
  0.00000000E+00  0.00000000E+00  0.00000000E+00
  0.00000000E+00  0.00000000E+00  0.00000000E+00
  0.00000000E+00  0.00000000E+00  0.00000000E+00
  0.00000000E+00  0.00000000E+00  0.00000000E+00
  0.00000000E+00  0.00000000E+00  0.00000000E+00
  0.00000000E+00  0.00000000E+00  0.00000000E+00
  0.00000000E+00  0.00000000E+00  0.00000000E+00
  0.00000000E+00  0.00000000E+00  0.00000000E+00
  0.00000000E+00  0.00000000E+00  0.00000000E+00
  0.00000000E+00  0.00000000E+00  0.00000000E+00
  0.00000000E+00  0.00000000E+00  0.00000000E+00
  0.00000000E+00  0.00000000E+00  0.00000000E+00
  0.00000000E+00  0.00000000E+00  0.00000000E+00
  0.00000000E+00  0.00000000E+00  0.00000000E+00
  0.00000000E+00  0.00000000E+00  0.00000000E+00
  0.00000000E+00  0.00000000E+00  0.00000000E+00
  0.00000000E+00  0.00000000E+00  0.00000000E+00
  0.00000000E+00  0.00000000E+00  0.00000000E+00
  0.00000000E+00  0.00000000E+00  0.00000000E+00
  0.00000000E+00  0.00000000E+00  0.00000000E+00
  0.00000000E+00  0.00000000E+00  0.00000000E+00
  0.00000000E+00  0.00000000E+00  0.00000000E+00
  0.00000000E+00  0.00000000E+00  0.00000000E+00
  0.00000000E+00  0.00000000E+00  0.00000000E+00