Sc Ge Sb Te                             
   1.00000000000000     
    17.5194119516371757    0.0000000000000000    0.0000000000000000
     0.0000000000000000   17.5194119516371757    0.0000000000000000
     0.0000000000000000    0.0000000000000000   17.5194119516371757
   Sc   Ge   Sb   Te
     8    32    32    80
Direct
  0.2727634413215448  0.1639586300828252  0.8470724630079284
  0.6219572797844779  0.5848869696100956  0.1132101324820926
  0.2892988050873881  0.2726065465322504  0.0878208853444183
  0.7851751709995943  0.2671611486740329  0.6505442436735759
  0.9238761470660904  0.7916060757779104  0.8611250234421540
  0.9233611240097217  0.1633701891726060  0.4715794695424019
  0.4718370051957415  0.5032219371484670  0.3864673239273330
  0.9088635903793063  0.6499266746556094  0.2739542908484648
  0.5696246727692391  0.7233728361764787  0.8206684745060223
  0.4936725422275202  0.4463393824235463  0.1785927133620951
  0.2006116530618752  0.7082685722033388  0.7232427672693328
  0.9850326075380739  0.4725654715617504  0.7993699868140600
  0.6507768424477586  0.7761298387809916  0.3417267922226440
  0.3036243149281260  0.3646723256398668  0.7715465136905033
  0.9706308723539971  0.3691812363862639  0.4895417205021504
  0.4599521377039505  0.0428636962036509  0.2468210108687468
  0.6406313936231723  0.9423716877204225  0.6934233159996717
  0.9456546234375111  0.8926835726087737  0.7346656405169250
  0.7376125217552854  0.9036251713317373  0.8976765831789115
  0.4954166840003350  0.9021082157433030  0.2579740524712110
  0.7145970159843273  0.5130958236056922  0.2679126636762337
  0.6391285402435255  0.7698670579224810  0.0211907146482421
  0.7160568976183145  0.7844992712791984  0.2071147992511855
  0.0652216786719639  0.5274041924460757  0.5337853947747541
  0.8777470005330389  0.5699454025707708  0.9441305059984100
  0.1898664948651701  0.0227911686797693  0.6610863979011496
  0.0434396593130279  0.6692332548050454  0.0099933766237978
  0.8165906995934489  0.7004830972965578  0.5052015478696512
  0.9597811724482577  0.6590252104615615  0.5155731986236135
  0.0483787404622847  0.2824349288975532  0.2943137066919851
  0.1405275271112477  0.9629755594939623  0.9600982539886191
  0.7160715032200512  0.2726518247581999  0.9957881876874328
  0.3946753798478537  0.2656128126243966  0.2122605399071639
  0.5829967913232839  0.9432072925014888  0.4586614938898313
  0.3965954984418392  0.6023130691121367  0.7229049002009444
  0.0004790897925186  0.9302099663614356  0.5237809825033385
  0.3429091126375039  0.3534802936021985  0.3265806277488232
  0.0289214062264300  0.7769371711974828  0.5929472218718529
  0.0744818820416580  0.0654503842078668  0.3725741665058694
  0.7366339040144047  0.6773662093916070  0.6244448604191272
  0.5498238261961576  0.4732682206991695  0.5512866284591104
  0.1961146981324980  0.7989520639120341  0.1727206456574073
  0.9706102618522227  0.0200487630317190  0.0268858303960420
  0.2836596400171446  0.9046414917600007  0.9436242037113768
  0.5463804801204404  0.0138804349538702  0.5933537058874404
  0.9262645050420318  0.4354106300453085  0.6392810483948003
  0.7815404288878475  0.8268006263492985  0.4213506931824264
  0.7669926206588263  0.0118326160838880  0.2361197927787030
  0.7711760180634366  0.8461595218169043  0.0674971724693969
  0.0248201893388763  0.9644485788285604  0.2024020072035433
  0.2232177626275005  0.7581442479769804  0.4261651952321538
  0.1809540487613226  0.6061972019922127  0.3817297480794430
  0.5357258458566909  0.2384467569072289  0.2844563417900733
  0.6862918724750032  0.2397513467198163  0.4790110840494879
  0.3886996580034104  0.0268982556215211  0.6702927915610702
  0.0404912202937022  0.4140488714664500  0.1497759536983886
  0.4962737860125480  0.9379796560748288  0.7621892493311062
  0.1931947738659228  0.4663542953749799  0.2070999339439445
  0.0555464009519700  0.0429278017424496  0.8198795367043893
  0.4741750232320207  0.6907356711052312  0.5034585421584288
  0.2184175454828813  0.7554736112505042  0.8940421699628726
  0.4081435158312865  0.5386953161091219  0.9645674278374794
  0.6412014912374120  0.9374280887770373  0.3117122232423052
  0.3856847639626730  0.7312783947064477  0.3680517559467096
  0.5000827629238911  0.7960068974251489  0.6864683610241736
  0.6224185777186768  0.6183277920637923  0.4855459210335947
  0.3138137418552672  0.9089473044881681  0.5811210418533678
  0.1323927006753529  0.8695868540044929  0.3126122606145542
  0.8376086786826802  0.1247434390188060  0.0740765273372846
  0.3299022810857635  0.1166212182486866  0.1941309627900094
  0.1847487454160504  0.6333142661080970  0.2177902440243839
  0.5874753550475997  0.5948707104524403  0.6570991454710861
  0.2984480163707004  0.2120887892173483  0.3559099981155062
  0.6336198959284911  0.2175754532317464  0.7123146192359702
  0.0776298421372504  0.2159658318085290  0.4342087111709448
  0.3281047277192436  0.2225064041420473  0.6962733108286602
  0.6976441915190373  0.3426008614193187  0.8577962876831731
  0.2179465197154162  0.6709272181912381  0.0310699712796803
  0.6474886392201594  0.4243296006431655  0.1431764577289320
  0.8966093776765504  0.9511952999183723  0.9033205474075388
  0.1616176902913075  0.9462969033554726  0.1107119971259221
  0.2571750450850022  0.0957816158950584  0.5394982586522175
  0.8508668286666913  0.5805672354995376  0.4229343251931341
  0.4591855596641562  0.3218123134984954  0.0795252405713671
  0.6886079747123716  0.9936461603622768  0.0967446171921548
  0.2509120333159967  0.5634248806146354  0.7412297300064796
  0.5723192125696631  0.7329409081182481  0.1513206159147845
  0.4113355383744284  0.6715061486271552  0.8670997144210830
  0.9114819042435955  0.0432878214837885  0.7193162161445270
  0.6969704949662214  0.0467046966866238  0.7984383341824756
  0.6304136239521134  0.8141014111267575  0.5232066947630126
  0.3628225121058207  0.1240920545066527  0.0334338660233775
  0.1442397660036393  0.3164201944807406  0.0288668834712719
  0.4901683317834138  0.1126900417823814  0.3697168200725327
  0.7104531923295750  0.3843773060580495  0.5612795832085514
  0.4356562627413375  0.1534057693911580  0.7977144413444436
  0.2497802679415619  0.4367554817281543  0.0575236974487112
  0.7407892477221646  0.5362080576448042  0.6778415415599974
  0.7084315302767749  0.1635389305595635  0.2610656773122854
  0.1763178768864355  0.9764843820975059  0.4638171170281402
  0.9441459972570575  0.2514055387942846  0.1011171265280656
  0.0264822763770745  0.1563788671514840  0.9387209664562380
  0.5466883130671890  0.1779022839777613  0.5801816884112818
  0.4801930636396188  0.3534136190398255  0.4256240847532581
  0.1670908911741533  0.6704344204865449  0.5608660808144308
  0.4549668834408054  0.5848380472329259  0.1105736236132705
  0.0120281672146256  0.0741916638435416  0.5880010067821705
  0.7718815004260740  0.1305787409223985  0.5586212578702177
  0.8992610752471851  0.5984734409002832  0.7828660381448977
  0.0459998704963609  0.1297290159317946  0.2052531220474831
  0.8806305352026211  0.8733130525926154  0.5992299831337154
  0.5716857115193094  0.0771473464072943  0.8982937639259623
  0.7564737898829066  0.5033500414505910  0.9963383696230222
  0.0686199286720580  0.8127646053122454  0.9312598586789812
  0.8709372438824631  0.3655733360358326  0.9939612925270590
  0.5593821136114246  0.2177219757725538  0.9668934550262980
  0.3181351952961360  0.3088064979035632  0.9121780584010203
  0.1298718106923942  0.3947216427364323  0.4987055202847622
  0.9188975490459430  0.4867888242226373  0.2425110613975107
  0.8402272216733239  0.3446790880728743  0.7829655873140273
  0.0106800468941130  0.7091509166762308  0.7374751732466702
  0.8828113385320743  0.7107000691123777  0.9988332758790601
  0.4570283027000776  0.4550831201593659  0.7599306884891455
  0.5724554228094245  0.1333309095451492  0.1672862868272001
  0.8239823407648741  0.3042799910736455  0.4223834792855405
  0.8146764193685742  0.1764732258829358  0.9251649916309642
  0.4010103186904402  0.5466102052531341  0.5235251174177638
  0.2014677908255647  0.2833336664732794  0.2325906990034691
  0.0879849303902315  0.4668112670323346  0.6802355304185147
  0.4437538764838944  0.9133344912609535  0.4065149425278050
  0.1935815198583012  0.1269568088059080  0.9975664059210727
  0.8834901413688436  0.1987803419456567  0.3148629416418290
  0.1429657586786298  0.1633918062383139  0.7470257213325836
  0.7706965187641209  0.7927637309853565  0.7960002059966408
  0.0229158285402318  0.6990398826714148  0.3807500292943589
  0.3459600821001634  0.8710212703762698  0.1922486830890589
  0.9463829165267593  0.2634659879722258  0.6080423688940583
  0.0962220897968828  0.8850826106753985  0.6923002460577702
  0.0360219858711165  0.7081375994505629  0.1691940552615019
  0.7663594915592932  0.6311390150049381  0.1709058392579388
  0.9327875124215580  0.0115514480435307  0.4100794964600449
  0.3461205412507424  0.5855935394459918  0.3143637917829651
  0.5666919438409559  0.8644685394060707  0.9082088537281139
  0.2780185963020676  0.9471810563693854  0.3153912011558802
  0.0391074059537645  0.4439711991873522  0.3510847753909874
  0.5798920600467123  0.5890605034939006  0.2994584767069348
  0.8700308592198942  0.8241626706469982  0.2793713800948911
  0.9958762349336634  0.4882267912543647  0.9986567062281738
  0.5384235726743126  0.4708455604394771  0.8928327328049944
  0.6548120548370834  0.6368880652067598  0.9560348410976220
  0.3307255001742104  0.7861945335817827  0.6859043059190616
  0.2765987397359505  0.9979437361298040  0.8093560647226485
 
  0.11825125E-02 -0.10228039E-02  0.19669864E-02
  0.32849691E-02 -0.29402884E-02  0.69007897E-03
  0.11240359E-02 -0.22854030E-02 -0.50902464E-03
  0.17774942E-02 -0.36527777E-02 -0.26233265E-02
  0.65224494E-04  0.38691716E-02 -0.34077784E-02
  0.12418217E-02  0.33160686E-03 -0.23076968E-02
 -0.51275915E-03  0.66501950E-03  0.14089849E-02
  0.28401730E-02 -0.40845364E-02  0.53769311E-03
 -0.30347816E-02 -0.18569834E-02 -0.36438727E-02
 -0.11315993E-02 -0.27074813E-03  0.14098151E-02
 -0.31365057E-03 -0.95041092E-03 -0.19772962E-03
  0.19615998E-02 -0.17186475E-02  0.16143423E-02
 -0.10738552E-03 -0.78925586E-03  0.15732218E-02
 -0.10928894E-02 -0.26870587E-02 -0.66157537E-03
  0.25425508E-02  0.29840374E-03 -0.11236608E-02
  0.35842984E-02  0.20729487E-03 -0.19504297E-02
  0.11731013E-02  0.19644642E-02 -0.33540205E-03
 -0.75642287E-03 -0.15279368E-02  0.15469578E-02
 -0.11630149E-02  0.24212331E-02 -0.17340530E-02
 -0.29441839E-02  0.59599265E-03  0.21925351E-03
 -0.73674702E-03  0.43696424E-02  0.39659184E-03
  0.14486943E-02 -0.33805637E-03  0.17553344E-02
 -0.42367671E-03 -0.20453012E-02  0.93157318E-03
  0.19951441E-02 -0.12482942E-02  0.70464522E-02
  0.58151097E-03  0.13860633E-02 -0.18723236E-03
  0.37929751E-02 -0.23355488E-02 -0.13596062E-02
 -0.18448160E-02  0.35052788E-02  0.99007108E-03
 -0.83657009E-04  0.46541891E-02 -0.46862946E-03
  0.66845065E-03 -0.19762822E-02 -0.28382887E-02
  0.57175975E-03  0.13626193E-02 -0.28412410E-02
  0.63492035E-03 -0.11440010E-03  0.17956671E-02
  0.62797970E-04 -0.84859277E-03  0.16940225E-02
 -0.12749754E-03  0.98174714E-04 -0.29547705E-02
  0.13818642E-02  0.25424797E-02 -0.46346209E-03
  0.26820307E-02 -0.24057247E-02  0.62595302E-03
  0.62205323E-03 -0.17637609E-02 -0.14260525E-02
 -0.11133328E-03 -0.16852411E-02  0.10906123E-03
  0.73661725E-04 -0.21263150E-02  0.34965196E-03
  0.42510613E-03  0.65138159E-03  0.17931184E-02
  0.80791988E-03  0.19164086E-02 -0.14057892E-02
 -0.11135905E-02  0.17229417E-02 -0.15778232E-02
 -0.44778105E-03 -0.26864665E-03 -0.20683942E-02
  0.18044768E-02  0.21288856E-02 -0.13006148E-02
 -0.20984776E-02  0.11196281E-02  0.15884489E-02
  0.14298376E-02  0.60628552E-03 -0.11646577E-02
  0.20933428E-02 -0.11022884E-02 -0.47217651E-03
 -0.31207278E-02 -0.94180997E-03 -0.22139522E-03
  0.14808738E-02  0.13356173E-02 -0.99760683E-03
  0.11815864E-02 -0.30216677E-02  0.38198691E-03
 -0.24358124E-02 -0.19861066E-02 -0.34045932E-02
  0.88083921E-04 -0.30741659E-03  0.16239404E-02
 -0.68769618E-03  0.19812894E-02  0.37279367E-04
 -0.17876809E-02  0.15339779E-02  0.13182895E-03
  0.96510837E-03 -0.19485967E-03  0.16985386E-02
 -0.26510470E-02 -0.76041549E-03  0.27104764E-03
  0.90734376E-04 -0.13584596E-02 -0.16233690E-02
  0.48777689E-03 -0.12027268E-03  0.17890044E-02
 -0.29288646E-02 -0.58123435E-03 -0.12198822E-03
 -0.27332478E-03  0.91302614E-04  0.25300981E-03
  0.78482753E-03 -0.28761813E-03  0.14410824E-02
 -0.29699090E-03  0.24313516E-02 -0.11708204E-02
 -0.15020955E-02  0.25654320E-02 -0.40970952E-04
 -0.16004072E-02  0.34996008E-03  0.17162267E-02
 -0.16487306E-02  0.10923217E-02  0.14451253E-02
 -0.87846886E-03 -0.98134163E-03 -0.15986453E-02
  0.60431675E-03  0.10313912E-02  0.11863967E-02
 -0.13010067E-02  0.30090529E-03  0.79956095E-03
 -0.27854276E-02 -0.79505563E-03 -0.24627293E-02
  0.11978677E-03  0.30052345E-02  0.88666326E-03
 -0.21350872E-03 -0.33322245E-03  0.19048318E-02
  0.22663590E-02 -0.11652724E-03 -0.37141733E-03
  0.15664670E-02 -0.25752591E-02  0.20070902E-03
 -0.33259496E-02 -0.23090633E-02  0.11408546E-02
 -0.28945812E-02  0.63319173E-03  0.80818717E-03
 -0.21944527E-02  0.23968818E-03  0.12804821E-02
  0.93221630E-03 -0.15743634E-03 -0.93525887E-03
  0.71757855E-03 -0.45995813E-03 -0.88464930E-03
  0.13108211E-02 -0.23926098E-02 -0.18465453E-02
 -0.50935226E-04  0.21148198E-03  0.42281420E-03
 -0.23521845E-02  0.22291983E-04  0.36952480E-03
  0.58705205E-03  0.87511466E-03 -0.57550629E-05
 -0.55570721E-03  0.88553696E-03 -0.77840200E-03
 -0.18269907E-02  0.22390664E-02  0.81291933E-03
 -0.60071770E-03  0.72326172E-03 -0.20556360E-03
 -0.35817399E-03 -0.16056854E-02  0.59121038E-03
  0.13415759E-02 -0.14420346E-02  0.55083948E-03
 -0.10427751E-02 -0.30612385E-02 -0.13635745E-02
  0.27592972E-02  0.94403704E-03  0.13200216E-02
  0.72256378E-03  0.12586292E-02 -0.14984856E-03
  0.27656558E-02 -0.16862816E-02  0.13855240E-02
  0.12561050E-02  0.54701262E-03  0.80337636E-03
  0.12672690E-02 -0.40307602E-03  0.29400668E-02
 -0.27941747E-03  0.10132522E-03 -0.15238997E-03
 -0.25476364E-02  0.13541717E-02  0.10284063E-02
 -0.10831126E-02  0.31853453E-02 -0.13193983E-02
  0.12308031E-02  0.71401597E-04  0.88863581E-03
 -0.90610457E-03 -0.39992986E-03 -0.74925967E-03
  0.14844505E-02  0.12779278E-02 -0.36108610E-03
 -0.10709034E-02  0.32211559E-02 -0.10795416E-03
 -0.26564460E-02 -0.98309759E-03  0.16610429E-02
  0.66094095E-03 -0.63293467E-03 -0.34035823E-03
 -0.64580163E-03  0.18141040E-02 -0.87746563E-03
 -0.22755749E-03  0.28297645E-03 -0.19538579E-03
 -0.11373175E-02 -0.26426854E-04  0.23906543E-03
  0.11997488E-02  0.26647667E-02  0.14967020E-02
 -0.78323586E-03 -0.12072140E-02  0.51990979E-03
 -0.55754029E-03 -0.17215709E-02 -0.25894513E-02
  0.27083476E-02 -0.71984017E-03 -0.13207750E-02
 -0.14204893E-02 -0.49195455E-03 -0.16329151E-02
  0.12132242E-02  0.25468130E-02 -0.17259924E-03
 -0.90020830E-03  0.57221390E-03 -0.23816898E-02
  0.22765203E-02  0.26301141E-02 -0.10412783E-02
  0.52343052E-04  0.48339003E-03  0.85845518E-03
 -0.65143278E-03  0.26308563E-03  0.13249543E-02
  0.17966241E-02 -0.19566391E-02  0.36138478E-03
  0.52866475E-03 -0.14102799E-02 -0.24827313E-02
  0.93171898E-03 -0.12503513E-02 -0.18854615E-02
  0.81827091E-03  0.27413243E-02 -0.43723077E-04
  0.55422267E-03 -0.14901080E-02  0.22717536E-02
  0.57057805E-03  0.72877472E-04 -0.11518927E-02
  0.12105605E-03 -0.49925847E-03 -0.16134481E-02
  0.12167963E-02  0.10163489E-02 -0.69867673E-05
  0.81522909E-03  0.77808020E-03  0.60346836E-03
 -0.29753957E-03 -0.45288842E-03 -0.16094147E-02
  0.34971435E-02 -0.69369789E-03 -0.97100261E-03
  0.17926757E-02 -0.13137932E-02  0.79162494E-03
 -0.14514524E-02  0.11301588E-02  0.35172715E-03
 -0.26414391E-03 -0.20409366E-02 -0.92302338E-03
  0.22928559E-02 -0.20612309E-02  0.17034316E-02
 -0.32376971E-03  0.13488346E-02  0.12957328E-02
 -0.64073423E-03 -0.31319796E-03 -0.69887258E-03
  0.13844718E-03  0.57198316E-04 -0.70934086E-03
 -0.26638896E-02  0.17470074E-02  0.16911754E-02
  0.16013191E-02  0.11940908E-02  0.11189848E-02
  0.74215919E-03 -0.21815644E-02  0.22228899E-02
 -0.92220074E-03  0.54428656E-03  0.21042906E-02
 -0.14175985E-03  0.97975027E-03 -0.58047771E-03
  0.34625478E-03 -0.12488504E-02 -0.45288601E-03
  0.21936378E-02 -0.18712986E-02  0.14586470E-02
 -0.25178999E-03 -0.17504714E-02  0.18619742E-02
 -0.12282516E-02  0.10049989E-03  0.10024770E-02
  0.14182302E-02 -0.56826796E-03  0.19033479E-03
  0.48122093E-03  0.14064022E-02  0.35023379E-03
 -0.13846325E-02 -0.15038996E-02 -0.11209297E-02
  0.76046113E-03 -0.53205255E-03  0.15060921E-02
 -0.67509171E-03 -0.13633051E-02 -0.14080558E-02
 -0.29863977E-02  0.10459417E-03  0.57164407E-03
 -0.13126183E-03 -0.32813658E-03 -0.18901859E-02
  0.10161512E-02 -0.26778007E-02 -0.14890907E-02
 -0.16153404E-02  0.10164750E-02  0.56135903E-03
 -0.92708241E-03  0.20543383E-02 -0.10670097E-02
 -0.13956056E-03  0.17878016E-03 -0.41375396E-03
 
           1
   3.00000000000000     
  0.10000000E+01  0.00000000E+00  0.00000000E+00  0.00000000E+00
  0.27296478E+00  0.16378448E+00  0.84740738E+00
  0.62251660E+00  0.58438634E+00  0.11332763E+00
  0.28949019E+00  0.27221742E+00  0.87734215E-01
  0.78547782E+00  0.26653920E+00  0.65009758E+00
  0.92388725E+00  0.79226487E+00  0.86054479E+00
  0.92357256E+00  0.16342665E+00  0.47118655E+00
  0.47174970E+00  0.50333517E+00  0.38670723E+00
  0.90934718E+00  0.64923121E+00  0.27404584E+00
  0.56910795E+00  0.72305665E+00  0.82004804E+00
  0.49347987E+00  0.44629328E+00  0.17883276E+00
  0.20055825E+00  0.70810675E+00  0.72320910E+00
  0.98536660E+00  0.47227284E+00  0.79964486E+00
  0.65075856E+00  0.77599545E+00  0.34199466E+00
  0.30343823E+00  0.36421481E+00  0.77143387E+00
  0.97106378E+00  0.36923204E+00  0.48935040E+00
  0.46056242E+00  0.42898992E-01  0.24648892E+00
  0.64083113E+00  0.94270617E+00  0.69336621E+00
  0.94552583E+00  0.89242342E+00  0.73492904E+00
  0.73741450E+00  0.90403743E+00  0.89738133E+00
  0.49491539E+00  0.90220969E+00  0.25801138E+00
  0.71447157E+00  0.51383983E+00  0.26798019E+00
  0.63937520E+00  0.76980950E+00  0.21489590E-01
  0.71598476E+00  0.78415102E+00  0.20727342E+00
  0.65561385E-01  0.52719165E+00  0.53498517E+00
  0.87784601E+00  0.57018140E+00  0.94409863E+00
  0.19051231E+00  0.22393502E-01  0.66085490E+00
  0.43125548E-01  0.66983009E+00  0.10161953E-01
  0.81657646E+00  0.70127555E+00  0.50512176E+00
  0.95989499E+00  0.65868872E+00  0.51508993E+00
  0.48476092E-01  0.28266694E+00  0.29382994E+00
  0.14063563E+00  0.96295608E+00  0.96040400E+00
  0.71608220E+00  0.27250734E+00  0.99607662E+00
  0.39465367E+00  0.26562953E+00  0.21175744E+00
  0.58323208E+00  0.94364019E+00  0.45858258E+00
  0.39705216E+00  0.60190345E+00  0.72301148E+00
  0.58500477E-03  0.92990966E+00  0.52353817E+00
  0.34289016E+00  0.35319335E+00  0.32659920E+00
  0.28933948E-01  0.77657513E+00  0.59300676E+00
  0.74554263E-01  0.65561293E-01  0.37287947E+00
  0.73677147E+00  0.67769251E+00  0.62420550E+00
  0.54963422E+00  0.47356158E+00  0.55101798E+00
  0.19603846E+00  0.79890632E+00  0.17236847E+00
  0.97091750E+00  0.20411241E-01  0.26664379E-01
  0.28330234E+00  0.90483213E+00  0.94389466E+00
  0.54662393E+00  0.13983665E-01  0.59315540E+00
  0.92662093E+00  0.43522295E+00  0.63920065E+00
  0.78100907E+00  0.82664027E+00  0.42131300E+00
  0.76724476E+00  0.12060027E-01  0.23594993E+00
  0.77137720E+00  0.84564503E+00  0.67562212E-01
  0.24405451E-01  0.96411041E+00  0.20182232E+00
  0.22323276E+00  0.75809191E+00  0.42644170E+00
  0.18083696E+00  0.60653455E+00  0.38173610E+00
  0.53542146E+00  0.23870794E+00  0.28447879E+00
  0.68645620E+00  0.23971817E+00  0.47930029E+00
  0.38824827E+00  0.26768782E-01  0.67033894E+00
  0.40506669E-01  0.41381757E+00  0.14949955E+00
  0.49635684E+00  0.93795918E+00  0.76249386E+00
  0.19269609E+00  0.46625533E+00  0.20707916E+00
  0.55499863E-01  0.42943348E-01  0.81992262E+00
  0.47430865E+00  0.69068670E+00  0.50370391E+00
  0.21836698E+00  0.75588759E+00  0.89384282E+00
  0.40788776E+00  0.53913212E+00  0.96456045E+00
  0.64092900E+00  0.93748768E+00  0.31200444E+00
  0.38540404E+00  0.73146438E+00  0.36829781E+00
  0.49993319E+00  0.79583981E+00  0.68619616E+00
  0.62252147E+00  0.61850340E+00  0.48574792E+00
  0.31359222E+00  0.90899854E+00  0.58125718E+00
  0.13191843E+00  0.86945148E+00  0.31219294E+00
  0.83762907E+00  0.12525513E+00  0.74227497E-01
  0.32986593E+00  0.11656448E+00  0.19445529E+00
  0.18513463E+00  0.63329443E+00  0.21772700E+00
  0.58774207E+00  0.59443223E+00  0.65713332E+00
  0.29788172E+00  0.21169563E+00  0.35610425E+00
  0.63312704E+00  0.21768326E+00  0.71245223E+00
  0.77256200E-01  0.21600664E+00  0.43442673E+00
  0.32826345E+00  0.22247960E+00  0.69611407E+00
  0.69776637E+00  0.34252255E+00  0.85764566E+00
  0.21816971E+00  0.67051984E+00  0.30755566E-01
  0.64747997E+00  0.42436561E+00  0.14324845E+00
  0.89620888E+00  0.95119910E+00  0.90338347E+00
  0.16171765E+00  0.94644591E+00  0.11071102E+00
  0.25708043E+00  0.95932393E-01  0.53936572E+00
  0.85055575E+00  0.58094847E+00  0.42307274E+00
  0.45908328E+00  0.32193546E+00  0.79490240E-01
  0.68854699E+00  0.99337277E+00  0.96845281E-01
  0.25114046E+00  0.56317935E+00  0.74132352E+00
  0.57214166E+00  0.73241968E+00  0.15108844E+00
  0.41180535E+00  0.67166689E+00  0.86732447E+00
  0.91160493E+00  0.43502124E-01  0.71929070E+00
  0.69744139E+00  0.46417579E-01  0.79867424E+00
  0.63062750E+00  0.81419455E+00  0.52334348E+00
  0.36303829E+00  0.12402342E+00  0.33934462E-01
  0.14419219E+00  0.31643745E+00  0.28840937E-01
  0.48973455E+00  0.11292061E+00  0.36989192E+00
  0.71026877E+00  0.38491966E+00  0.56105493E+00
  0.43586583E+00  0.15341793E+00  0.79786575E+00
  0.24962599E+00  0.43668739E+00  0.57396123E-01
  0.74104200E+00  0.53642565E+00  0.67778006E+00
  0.70824919E+00  0.16408739E+00  0.26104730E+00
  0.17586557E+00  0.97631699E+00  0.46409994E+00
  0.94425853E+00  0.25129777E+00  0.10105917E+00
  0.26372318E-01  0.15668775E+00  0.93857156E+00
  0.54664957E+00  0.17795047E+00  0.58014842E+00
  0.47999942E+00  0.35340912E+00  0.42566479E+00
  0.16729517E+00  0.67088814E+00  0.56112092E+00
  0.45483352E+00  0.58463250E+00  0.11066215E+00
  0.11933237E-01  0.73898538E-01  0.58756011E+00
  0.77234264E+00  0.13045618E+00  0.55839637E+00
  0.89901921E+00  0.59838968E+00  0.78258801E+00
  0.46206442E-01  0.13016265E+00  0.20522373E+00
  0.88047726E+00  0.87341048E+00  0.59882446E+00
  0.57207333E+00  0.77595167E-01  0.89811647E+00
  0.75648270E+00  0.50343235E+00  0.99648454E+00
  0.68509011E-01  0.81280940E+00  0.93148545E+00
  0.87124315E+00  0.36524019E+00  0.99402282E+00
  0.55947213E+00  0.21748185E+00  0.96647073E+00
  0.31829384E+00  0.30859360E+00  0.91185703E+00
  0.13001114E+00  0.39518840E+00  0.49869808E+00
  0.91899191E+00  0.48653511E+00  0.24289787E+00
  0.84032437E+00  0.34469150E+00  0.78276946E+00
  0.10700659E-01  0.70906591E+00  0.73720046E+00
  0.88301852E+00  0.71087312E+00  0.99883209E+00
  0.45716711E+00  0.45521560E+00  0.76003344E+00
  0.57240476E+00  0.13325380E+00  0.16701226E+00
  0.82457779E+00  0.30416188E+00  0.42221815E+00
  0.81498165E+00  0.17624953E+00  0.92529978E+00
  0.40076318E+00  0.54680263E+00  0.52358500E+00
  0.20142282E+00  0.28298616E+00  0.23243354E+00
  0.88375328E-01  0.46646031E+00  0.68052557E+00
  0.44369875E+00  0.91356415E+00  0.40673556E+00
  0.19347242E+00  0.12690348E+00  0.99744741E+00
  0.88351371E+00  0.19879008E+00  0.31474216E+00
  0.14251219E+00  0.16368926E+00  0.74731367E+00
  0.77096917E+00  0.79296704E+00  0.79619073E+00
  0.23042194E-01  0.69866843E+00  0.38112851E+00
  0.34580306E+00  0.87111394E+00  0.19260697E+00
  0.94635878E+00  0.26363281E+00  0.60794353E+00
  0.96281045E-01  0.88486997E+00  0.69222313E+00
  0.36395489E-01  0.70781898E+00  0.16944241E+00
  0.76631662E+00  0.63084097E+00  0.17122287E+00
  0.93257838E+00  0.11568560E-01  0.41025018E+00
  0.34636202E+00  0.58549678E+00  0.31439620E+00
  0.56677388E+00  0.86470800E+00  0.90826849E+00
  0.27778284E+00  0.94692499E+00  0.31520034E+00
  0.39236887E-01  0.44388061E+00  0.35134121E+00
  0.57977711E+00  0.58882838E+00  0.29921873E+00
  0.86952237E+00  0.82418048E+00  0.27946871E+00
  0.99585389E+00  0.48817092E+00  0.99833487E+00
  0.53859659E+00  0.47038962E+00  0.89257919E+00
  0.65453702E+00  0.63706114E+00  0.95613042E+00
  0.33056765E+00  0.78654432E+00  0.68572263E+00
  0.27657498E+00  0.99797418E+00  0.80928562E+00
  0.18559686E-03 -0.17165378E-03  0.32640713E-03
  0.55445016E-03 -0.49135627E-03  0.13628366E-03
  0.18160014E-03 -0.37927622E-03 -0.68779612E-04
  0.33320403E-03 -0.63117178E-03 -0.42709881E-03
  0.33594688E-04  0.65750476E-03 -0.54363499E-03
  0.24269566E-03  0.40928765E-04 -0.39074860E-03
 -0.88499172E-04  0.95973250E-04  0.25053542E-03
  0.50084485E-03 -0.70754182E-03  0.81895819E-04
 -0.49921454E-03 -0.33205131E-03 -0.63442601E-03
 -0.19391354E-03 -0.34882221E-04  0.23092643E-03
 -0.39912270E-04 -0.15475669E-03 -0.27307964E-04
  0.33405195E-03 -0.28106257E-03  0.27673446E-03
 -0.26670717E-04 -0.15542213E-03  0.25819173E-03
 -0.19515915E-03 -0.46002117E-03 -0.11776357E-03
  0.42188378E-03  0.41604030E-04 -0.18393282E-03
  0.60112241E-03  0.29730746E-04 -0.29537906E-03
  0.19514958E-03  0.34082654E-03 -0.63542301E-04
 -0.12639741E-03 -0.24917560E-03  0.26657453E-03
 -0.17792889E-03  0.40860875E-03 -0.28926514E-03
 -0.50050604E-03  0.10955401E-03  0.34572210E-04
 -0.11974719E-03  0.74390680E-03  0.75223350E-04
  0.24888145E-03 -0.81736251E-04  0.30291948E-03
 -0.85468789E-04 -0.33507146E-03  0.15802930E-03
  0.34613342E-03 -0.23026807E-03  0.11889112E-02
  0.97522864E-04  0.23331340E-03 -0.24234801E-04
  0.64311584E-03 -0.39704488E-03 -0.23366637E-03
 -0.32363634E-03  0.59082895E-03  0.15242106E-03
 -0.18628845E-04  0.78070386E-03 -0.71926980E-04
  0.11196745E-03 -0.32616328E-03 -0.47433135E-03
  0.10909556E-03  0.22974877E-03 -0.48110362E-03
  0.11277393E-03 -0.24392245E-04  0.31401593E-03
  0.61317678E-05 -0.14599251E-03  0.29258208E-03
 -0.32945188E-04  0.19581801E-04 -0.51764308E-03
  0.23034674E-03  0.43119487E-03 -0.76628788E-04
  0.44565851E-03 -0.41078775E-03  0.10082776E-03
  0.92887621E-04 -0.30290559E-03 -0.24059118E-03
 -0.31142722E-04 -0.29106489E-03  0.23625674E-04
  0.12055806E-04 -0.36673376E-03  0.62632029E-04
  0.73392532E-04  0.97391440E-04  0.32002635E-03
  0.15357911E-03  0.31301930E-03 -0.24922556E-03
 -0.18866834E-03  0.29401991E-03 -0.26677053E-03
 -0.79049738E-04 -0.38611770E-04 -0.34670889E-03
  0.31176364E-03  0.34669190E-03 -0.22709537E-03
 -0.36088888E-03  0.19355167E-03  0.27070791E-03
  0.24789271E-03  0.90397034E-04 -0.19661174E-03
  0.35086243E-03 -0.18369514E-03 -0.79113451E-04
 -0.52794494E-03 -0.15999974E-03 -0.32327238E-04
  0.24533415E-03  0.22594532E-03 -0.17174070E-03
  0.20817152E-03 -0.51825421E-03  0.64596947E-04
 -0.41622991E-03 -0.34113541E-03 -0.57816701E-03
  0.89060747E-05 -0.50064646E-04  0.27294517E-03
 -0.11021299E-03  0.33427883E-03  0.98326857E-05
 -0.29761682E-03  0.24566266E-03  0.21746425E-04
  0.17342964E-03 -0.30995219E-04  0.28890827E-03
 -0.45025906E-03 -0.12717266E-03  0.48639233E-04
  0.10157228E-04 -0.22788474E-03 -0.27861552E-03
  0.74751395E-04 -0.15360340E-04  0.29980174E-03
 -0.49069871E-03 -0.99555014E-04 -0.22918134E-04
 -0.47926841E-04  0.32077955E-05  0.40003873E-04
  0.13390051E-03 -0.54604149E-04  0.23836420E-03
 -0.52837798E-04  0.41224297E-03 -0.19776463E-03
 -0.25476988E-03  0.44187187E-03  0.19276190E-05
 -0.27195927E-03  0.70403223E-04  0.28882392E-03
 -0.28222559E-03  0.17807372E-03  0.24720792E-03
 -0.14817692E-03 -0.16526014E-03 -0.27057471E-03
  0.10632509E-03  0.17986541E-03  0.20077150E-03
 -0.21496693E-03  0.52482249E-04  0.13488379E-03
 -0.47203100E-03 -0.13980597E-03 -0.42213648E-03
  0.10530137E-04  0.51575861E-03  0.15159848E-03
 -0.37157263E-04 -0.62946795E-04  0.32147404E-03
  0.39318707E-03 -0.18304403E-04 -0.58548682E-04
  0.26059901E-03 -0.44360511E-03  0.34644187E-04
 -0.56074951E-03 -0.39110906E-03  0.19763972E-03
 -0.49455895E-03  0.10473673E-03  0.13548154E-03
 -0.37522232E-03  0.47693790E-04  0.21889043E-03
  0.15705888E-03 -0.33971528E-04 -0.16592574E-03
  0.12593309E-03 -0.77672474E-04 -0.14183567E-03
  0.22074775E-03 -0.40958061E-03 -0.31234497E-03
 -0.24377891E-05  0.30199031E-04  0.65036883E-04
 -0.40126044E-03  0.50897762E-05  0.64966946E-04
  0.10268513E-03  0.13754942E-03 -0.80932266E-05
 -0.96768951E-04  0.14802693E-03 -0.12938419E-03
 -0.30888027E-03  0.38917850E-03  0.14954450E-03
 -0.97075518E-04  0.11517328E-03 -0.39002474E-04
 -0.64864944E-04 -0.26204868E-03  0.10242997E-03
  0.23665441E-03 -0.24151718E-03  0.90285352E-04
 -0.17424862E-03 -0.53743065E-03 -0.23214313E-03
  0.45894295E-03  0.15497527E-03  0.22908775E-03
  0.10886557E-03  0.20433041E-03 -0.26264845E-04
  0.46834654E-03 -0.28130031E-03  0.23545854E-03
  0.21513518E-03  0.92459036E-04  0.13243743E-03
  0.21806111E-03 -0.72091870E-04  0.50337774E-03
 -0.45684416E-04  0.76633024E-05 -0.31562845E-04
 -0.42997218E-03  0.22099878E-03  0.14970067E-03
 -0.19344933E-03  0.55084564E-03 -0.22776256E-03
  0.20868144E-03  0.78706523E-05  0.15401864E-03
 -0.15364264E-03 -0.65506459E-04 -0.12527650E-03
  0.25364714E-03  0.22078514E-03 -0.61161098E-04
 -0.18517814E-03  0.55341701E-03 -0.14986390E-04
 -0.45100779E-03 -0.17182707E-03  0.27956868E-03
  0.11210501E-03 -0.10599641E-03 -0.57970278E-04
 -0.10702568E-03  0.32239258E-03 -0.15073044E-03
 -0.44472101E-04  0.51516317E-04 -0.40244374E-04
 -0.18975998E-03  0.27516144E-05  0.46053310E-04
  0.20311708E-03  0.45098261E-03  0.25092325E-03
 -0.13168505E-03 -0.19739828E-03  0.91337223E-04
 -0.91422474E-04 -0.29071938E-03 -0.45108918E-03
  0.45447237E-03 -0.11968803E-03 -0.22311766E-03
 -0.24044397E-03 -0.85175647E-04 -0.27611661E-03
  0.20782660E-03  0.44035823E-03 -0.31450927E-04