Ge Se                                   
   1.00000000000000     
    20.2740058898925781    0.0000000000000000    0.0000000000000000
     0.0000000000000000   20.2740058898925781    0.0000000000000000
     0.0000000000000000    0.0000000000000000   20.2740058898925781
   Ge   Se
   150   150
Direct
  0.1572423257064993  0.8833782190613053  0.3653529958166382
  0.8264167344731886  0.9783280189333790  0.3422324884846870
  0.6009638016971172  0.0445631358205222  0.3735586862052389
  0.5338862624922517  0.8074364297702775  0.6003991535787470
  0.9786678865080803  0.6165901501416398  0.8872374393876480
  0.4361688407958580  0.1064699691172007  0.8865133361412625
  0.0388677495461164  0.2497784189102524  0.1713924458583359
  0.0648218033262795  0.7752310057131474  0.5079331115378145
  0.5850158943714402  0.3188145385004463  0.2398080390773402
  0.8039320657133959  0.4315677908599126  0.4964664707669743
  0.4299825618531041  0.0605806033876137  0.5685595515460085
  0.1676022682268990  0.2503376790417627  0.9265665816669514
  0.3481588677314092  0.7421336302221787  0.0181488662283531
  0.4497611036049569  0.4424002790018245  0.2316926917254299
  0.1211104334674471  0.0594077741429231  0.1899947029059314
 -0.0035525777694950  0.4383929698137999  0.4159062900870649
  0.0263177770899476  0.8867884997352029  0.2473195472266368
  0.9230367476265845  0.9083266406258037  0.5686089972230265
  0.8262606142191196  0.3184435235212859  0.3468818205110947
  0.3315183607344486  0.2333703554298870  0.2587553804778031
  0.2419110316015414  0.9795408856972184  0.9874485493599037
  0.8083284072456182  0.5408651652621757  0.9888469115841988
  0.3608704812976587  0.3128810960888856  0.1570856479760706
  0.0356743194689488  0.2047483447597207  0.8061011429700410
  0.8576240881837961  0.0425472982342143  0.6744526665352125
  0.3261531065584137  0.0449265940976659  0.1823199203428053
  0.4106672965620093  0.3438117087967027  0.6458231801322710
  0.7631948244241452  0.6449410352835976  0.4370882826727067
  0.2843775280382061  0.2311026733698050  0.8887656086867003
  0.5259029506916256  0.3606704761940520  0.5506954498481369
  0.2649890630826271  0.4010325990542186  0.7714469341709700
  0.1405838064565703  0.4513113794722628  0.8830862587870462
  0.0321898587750878  0.3847607236116026  0.2554776790866596
  0.3117331657454599  0.6916870153893098  0.1458393090210861
  0.2459719117393012  0.5761518691238484  0.2649574460876286
  0.5411177202268176  0.2615118120164429  0.3792976123116264
  0.6252052053261398  0.6731980233210078  0.7150401166391434
  0.7051111028412239  0.3270867674175494  0.5239122057193144
  0.3782977153721675  0.8561391589235769  0.1333307328246353
  0.6715999151026273  0.0108412521643144  0.0395436164816573
  0.7754482477451985  0.8004459384252296  0.1983966458947613
  0.1239998443777589  0.3132870224805039  0.6064419822702251
  0.4231655262327867  0.0602896871781052  0.7670307402503650
  0.9485293310769303  0.4890847683070355  0.0549620880515280
  0.3128716227173191  0.9087437227405463  0.8164778354549835
  0.8219615395385009  0.7536859902265597  0.5684175727541795
  0.9900587785134022  0.0463094616505640  0.8253886011083267
  0.6692851355372075  0.1767939599507381  0.8960124838521997
  0.3154672458330016  0.9535249717589396  0.6567007217618767
  0.4225459808769226  0.6843071828731321  0.6427952758873798
  0.5983612620911403  0.8966889656545470  0.8980544994531772
  0.7304291780597894  0.3490683069989117  0.7636921848932567
  0.8880940271068302  0.7473320196307081  0.0464964088548320
  0.6320612852139461  0.7096687457612793  0.4780961959834231
  0.2645097066679441  0.3983463512562236  0.5699512347901365
  0.5951173390945023  0.0597034621938250  0.5616480132861812
  0.4117313653156587  0.8861648492714960  0.3117809670357205
  0.3817590436770574  0.4131703694535336  0.8304315859189967
  0.4265392106503909  0.3284472519839433  0.9659884811356468
  0.2435688622542521  0.8488583932101252  0.0288278423877357
  0.6913450072972360  0.4894298607210471  0.3832338524406987
  0.8824564374889909  0.8080597094538851  0.3510484072166704
  0.0812327703846595  0.0209847168561007  0.6095477337371827
  0.0804188328087243  0.7182568520431037  0.9869243019199685
  0.0821371432609590  0.4538701835884453  0.5866391258722804
  0.2700432596083617  0.1131209151665287  0.0195689958879955
  0.9560155018106128  0.6546682539266753  0.6263368593073579
  0.6660800954978452  0.8970160244180984  0.4786929085577765
  0.9759062357720335  0.8367503587022181  0.0448779842858971
  0.1558662579718779  0.6214129599182796  0.5286821278589863
  0.0717140631207354  0.5817047955844935  0.4419412720555713
  0.8918945248790127  0.3282069902967875  0.1230347062164714
  0.9381399586471815  0.8678964301122594  0.7830647890475044
  0.7436620436825538  0.9328690814294350  0.1874958263827270
  0.9576282336544290  0.7073894093351339  0.3891483042246786
  0.5331687491185487  0.7485525862666632  0.0527124795942119
  0.5705501475822849  0.9014859658051098  0.2432467843968035
  0.0978508013230857  0.9516586250854119  0.1250534501346651
  0.4084583943701098  0.8447307992389935  0.9596140322031658
  0.1966845874679367  0.5039417156954793  0.7887263934773057
  0.5611125775119211  0.9696689446508324  0.6521925606837394
  0.3665511632799344  0.5184334441470365  0.4074939562188832
  0.4107373553257099  0.8615333058984882  0.7413936329491547
  0.1334128921136318  0.7086332909622084  0.2440974423306824
  0.9735825895614093  0.6564720845164169  0.0168580564740790
  0.4015660939313412  0.1374249771642262  0.3969564547899730
  0.6649093880952844  0.7811680327698539  0.0692137927437175
  0.7812780060181227  0.8892265915742740  0.6926484490992952
  0.3025492614923025  0.0953063739143963  0.7370233703842176
  0.5016306971765042  0.4726807913340054  0.6672806318596950
  0.0177192642584293  0.3192440697693403  0.9851341773277195
  0.4299501695036765  0.7594618058721995  0.2765793032659126
  0.1240932185660412  0.5821842421790839  0.7142649019500492
  0.8483406733742294  0.5897743454956582  0.7718544328129489
  0.9031339460637361  0.4427955385511614  0.7145639819787950
  0.6101609079378956  0.5664274523403137  0.9338326814342440
  0.8133233066029314  0.1983256634858816  0.2473672257459496
  0.5683004142006924  0.8594416705090901  0.4077719120669210
  0.8656109045053887  0.0682793249768618  0.1073224474870828
  0.7153235361447970  0.1708582138613856  0.5588667569087726
  0.4021697485340603  0.1822787558224799  0.1102887459910235
  0.0765266802477934  0.1520607859054471  0.5996491494629129
  0.2596686533453442  0.3833733496366090  0.2876179984335961
  0.5672220462617731  0.4309459124227888  0.0042457880544761
  0.5476350536938592  0.0174070276906057  0.8919392020143619
  0.7970847903088831  0.8424184143707344  0.8863401644498877
  0.1489064730309635  0.9044553271987174  0.9286066003760329
  0.2485103704406329  0.7934413479678381  0.5569176348095812
  0.2151692294430578  0.1305065636108791  0.1481331610638441
  0.0710293529977591  0.1119342388273297  0.3986259362473826
  0.2349805563602967  0.2963412788420201  0.1042107320121256
  0.3749871290996610  0.2858524817323915  0.8190353527250207
  0.8947606049241239  0.5936680711044940  0.1871197126879539
  0.9938879727859858  0.9601558436045057  0.4558241199409163
  0.7393651481369892  0.4507116853432093  0.8434733050992913
  0.5766416837721237  0.2776128853062991  0.8980797153735477
  0.6643654441292396  0.2474907748416188  0.3497515155131531
  0.0792192546765291  0.2744285531251704  0.4812959375536570
  0.2233343343794992  0.5569835970558679  0.9907009851770348
  0.3080882428889258  0.7821410931370658  0.3903887009904873
  0.0124410657693563  0.6663135399048553  0.2389860069080147
  0.2120966738382747  0.3678571132456080  0.9441015160455553
  0.9832677101143071  0.9824400651095132 -0.0075589711154197
  0.8925343424005496  0.3189763107712811  0.4914719972742397
  0.0337454700585633  0.1503528090412996  0.9664569907983597
  0.6367015438133272  0.5709140614501765  0.5886845345462421
  0.7505059638696203  0.8000362881819516  0.4569939335888480
  0.2574392256823341  0.2094719119190988  0.4652709992537625
  0.5502069923311279  0.4667096010663465  0.3704957978593768
  0.3409382083857204  0.4938462600920531  0.5279587304538427
  0.8663608280320902  0.7209446238875075  0.1647383370790053
  0.1486125329710601  0.6276148132743559  0.8611997680889906
  0.1192150045433826  0.2967896522904636  0.8197561745126286
  0.6156883952285368  0.7874902388872662  0.8368361939456515
  0.2668721856351352  0.0596190946208199  0.3089010523641789
  0.8017956528094307  0.6407474103091160  0.2817735273569318
  0.5621822739750110  0.1702447193488271  0.4855368272627620
  0.5952337873770310  0.1619131381408159  0.7289957716507232
  0.3511800004135401  0.9287532926887073  0.4899304304239707
  0.5410468544706686  0.0814812091025087  0.1590547371419158
  0.9222095090149180  0.4754854518221897  0.5110984021846909
  0.7576098107548317  0.5805276643603188  0.6805522144844871
  0.4688116180615562  0.6212198853632522  0.5103707415468715
  0.8103407686957975  0.3273552483988807  0.9810350226000927
  0.3036406668743899  0.6926005463539441  0.7674840403567539
  0.7309699775671756  0.6722916363831061  0.9113526428676489
  0.5634193227632111  0.2942590205599021  0.1087481696591339
  0.9694982196657747  0.0256215633950954  0.2610179636230106
  0.3165157684065675  0.7393664487327172  0.8837960573386465
  0.6836178598548086  0.1815797700460805  0.0953544577680741
  0.0405902032939999  0.9324431057522076  0.7568058143646640
  0.3100603627096158  0.1125277344347471  0.8867075767550155
  0.2004920850108572  0.6623304381000999  0.3328587617588008
  0.0334244145684474  0.1342283583767245  0.2293157612796607
  0.4206399943958895  0.6216205848234407  0.3926142340599416
  0.3114613028246319  0.0721021834947191  0.6111490991131767
  0.6695304377005153  0.7041510527550308  0.5980621108816898
  0.1407840264414737  0.2147418771716779  0.0935297287504819
  0.3033362748222735  0.9111286040401781  0.3647573971745487
  0.5235632638928752  0.1810333570171367  0.0736313468291744
  0.3135893185081864  0.2403254090790962  0.0113423465237363
  0.6213736032608668  0.2973273922638177  0.7833001776486910
  0.3146194560230373  0.7916138917109228  0.2213680607126066
  0.6396388805577456  0.8773365003840525  0.5961010179995785
  0.3636281754502835  0.8026747975218071  0.5020583158300965
  0.4610108767262432  0.3171547833319021  0.2449054360205250
  0.1880728709032713  0.7811669662172029  0.4361532695174565
  0.2408918005505828  0.9208197942603844  0.5604883922697984
  0.1967937137266257  0.6831667646316762  0.9657004178075886
  0.1685497140878170  0.5331739618495082  0.1849624482051271
  0.3311703675260930  0.4129958391263469  0.9457621188422984
  0.3556391294693303  0.2523873451002105  0.3756713561614149
  0.7966266085732594  0.4675267172283928  0.6547938715791893
  0.8546545908580014  0.0605070652096573  0.2330953143368535
  0.6357356654393491  0.0809084078581382  0.8239602365659051
  0.8352517095284042  0.6325959456422618  0.5925439304732329
  0.7101752320749316  0.9219408208770080  0.9247173848415382
  0.8082736764155833  0.2957449882742683  0.8492591973485346
  0.3250650093608932  0.6058876252968132  0.5844179995806984
  0.7494070836412794  0.2475482488139734  0.4368798972743124
  0.4940392584142725  0.9641610461052009  0.7940422546913229
  0.6637553758038036  0.0706090013096366  0.1531149961824357
  0.8441893952198477  0.8824219843427161  0.4400418102651742
  0.1481788642569146  0.8300370215804201  0.2478650749197983
  0.1551477560884719  0.4165226443466858  0.2230457956323272
  0.0977557765583818  0.0137478681918784  0.0126761687866130
  0.1109691473020120  0.7065880695244862  0.5995009692385747
  0.1855048458973325  0.2053077877602424  0.5849135616056955
  0.4062485845134470  0.1347198982155737  0.2326577182154741
  0.6790945571866647  0.5546081540516172  0.8287381795111863
  0.0329495238956512  0.2484231828389088  0.6584163418585592
  0.4136734848183473  0.9550213097819720  0.2074565028228035
  0.3782704789295296  0.0681126506298802  0.0628171127639784
  0.0285770004941384  0.8685925832080651  0.3735185063795790
  0.9572783459645837  0.0287813969909264  0.5956801483375624
  0.3237822880299445  0.4259389197863058  0.1926033280425122
  0.6631030716042664  0.9518233818665329  0.3190230995448687
  0.8537573312822548  0.9609973214299699  0.7752480928460298
  0.5516939330386867  0.7724889786658299  0.7358752391412803
  0.9364938464146929  0.0442765718159170  0.3825335485804403
  0.2307077141353229  0.8263616007336525  0.8533538594496713
  0.5205682434645700  0.7665815184617373  0.4776726618039825
  0.9487463862950861  0.1385289706562612  0.7560648334527401
  0.4849566513925264  0.7979449024766325  0.1658383744644585
  0.9652809821869367  0.2368444513056483  0.9031247488466196
  0.7874390873953578  0.9727185003937099  0.0723645025168843
  0.5885744748799752  0.3634720850888788  0.4361106529680962
  0.0901346872939747  0.8421887570460820  0.6963662442028979
  0.8043455510283734  0.1896479950979969  0.1233419943143158
  0.2676065669178903  0.5646867597151042  0.8667523041127527
  0.1511351429950883  0.2213945431220418  0.3961953928600720
  0.9629912388750224  0.8852171660317270  0.9294257547854251
  0.8093297374978912  0.4416609057795340  0.3695130576131747
  0.3844695707683994  0.6120984796842734  0.7361389142738446
  0.3520959680587877  0.6013714982242536  0.2215821026527442
  0.9561394884564179  0.5606842733809422  0.7209881892147619
  0.7411258864235731  0.4334389907424264  0.9659017191627750
  0.6064886334378204  0.4307333309872518  0.6147742936035893
  0.4479040715777979  0.6739681301172403  0.0095224311555898
  0.8743821662790819  0.6134776256193017  0.3830733706221474
  0.1878452787664004  0.6715928283469330  0.1427739147286177
  0.3290494449785480  0.7788045742606284  0.6837165125460426
  0.8026542297061495  0.9649363479306711  0.5925102595566720
  0.0087722957500761  0.1730517221680154  0.4963616109064826
  0.0407446477095744  0.7258974777676962  0.8742365476673714
  0.6697616230766189  0.1337065560168055  0.3024065458210872
  0.1175963521659115  0.8310323138940534  0.0272132735075125
  0.1042481229597422  0.5291294079821230  0.9664000559394545
  0.4729841754693783  0.3775258805124421  0.0766210613897761
  0.2252114585737220  0.1748219769864575  0.2645620112442125
  0.7354186413533943  0.5348462645977168  0.4947073632473044
  0.3542818994076208  0.3213654469668634  0.5381994711238686
  0.5844567384575496  0.5940101952358675  0.4721043578732124
  0.6085001858509563  0.2462414959029792  0.5736388758451393
  0.9161568094539837  0.3938064020778162  0.9690384801882831
  0.7690070353333137  0.7624346383047833  0.3209801019673059
  0.9639219377619568  0.2354795364550735  0.0715408902507607
  0.9807848114992215  0.7731846931964065  0.1888631681950055
  0.7750918233206794  0.1844545932931244  0.8344458741625504
  0.6947057795102123  0.6058677653282448  0.3348972784065239
  0.8811269215734385  0.2143334327326976  0.5552421080691091
 -0.0037293824376675  0.4897267463638252  0.3096961738079952
  0.5784204693788104  0.7943918118110338  0.3089751785704410
  0.0644327742439691  0.8743414973640976  0.5847434427846921
  0.2552820509678079  0.4954561704749043  0.3545507528077639
  0.3564441305036444  0.9536819365541829  0.9277237569207363
  0.8359879287905115  0.5094239622315194  0.1096965069633753
  0.7296680624163625  0.7750732695470177  0.8042008436831027
  0.4259828582484445  0.4259409075960853  0.3579094070655222
  0.5107924534577124  0.3991048651902501  0.8966588966243728
  0.4403630208607778  0.1770447929044109  0.5144715272106108
  0.1870315474056165  0.3965367448693202  0.0552679435190463
  0.2867295175302630  0.0881827657031504  0.4325433230305651
  0.9363859387418431  0.7401461424955740  0.5081449290914014
  0.5332003339980864  0.6000156300384492  0.6645276152599537
 -0.0092015971833190  0.3172757432667440  0.4009770680606023
  0.4628962021637812  0.9135663933527026  0.6007566701681378
  0.1942765525650875  0.3105416635655356  0.7268807081626932
  0.4808187747737567  0.9418475129124856  0.3961026098534036
  0.6390159431052657  0.8910546779319702  0.1338197532713595
  0.0469193416946734  0.3900977437520607  0.8405162689301812
  0.1046700996790175  0.0173929394636120  0.4803285560477031
  0.1101438633132065  0.4597128794938689  0.4612769719069738
  0.5236836074729723  0.8652637528115086 -0.0001846179551997
  0.6038987779353127  0.7003203552863285  0.9227751262808844
  0.8785166565934637  0.8081195481314415  0.6684161087807503
  0.4259950680000327  0.7906686694797825  0.8505532867167185
  0.8851592377539484  0.8957966346672754  0.2664930253575256
  0.2365877194108228  0.9860928366209843  0.7561388055272565
  0.6750208300971403  0.0951089204429573  0.6534524828998621
  0.8582027519743597  0.4838833833780037  0.8328320286530466
  0.9102216167367695  0.2831605544862114  0.2397839859220984
 -0.0024968034579631  0.4020767875714306  0.1328401692828091
  0.8746248814438832  0.6756159179197921  0.8503416583479932
  0.4618500669809002  0.4859704298845346  0.5431361676678015
  0.7242160711296225  0.1214095630595684  0.9924502507790735
  0.6364924684309579  0.3238942758659396  0.0156028909376929
  0.1498078558953309  0.0172454423973765  0.3019256066962027
  0.6996815626444363  0.5966434493754110  0.0164492622017477
  0.2683356245504989  0.6478615826227078  0.4890018167798552
  0.7841314419957526  0.2628941317932584  0.6109334227550375
  0.9300438607643075  0.0761494310981033  0.9438874115780586
  0.4742895193386066  0.2130002900173398  0.8400472366359003
  0.1842860447457453  0.6871900886349743  0.7476854504947202
  0.3256486635892636  0.4378515458900574  0.6726263230628122
  0.5519224036377199  0.1405246315903700  0.2694371424410071
  0.1822982529763809  0.5356530826020549  0.6114072806874101
  0.9536305290608943  0.9514290386878916  0.1043372047666075
  0.7016660528020437  0.7114401194368538  0.1611587901578156
  0.9585250151946921  0.3823348322919587  0.5785131493322868
  0.7799503323751611  0.7684048236176846  0.9928611930442884
  0.0082308372703730  0.6015053652132438  0.1240249670955034
  0.0971021730009971  0.1114075808625205  0.8559461644064663
  0.4873775446836051  0.1037541627841809  0.6745465173112222
  0.2356026923118249  0.9455062352977809  0.1090245879613480
  0.6787672946845863  0.0191251178314236  0.4779384927957844
  0.3607720508662762  0.2477348197767315  0.7071171929173540
  0.5932812810140105  0.4405827050672410  0.2559490322823998
  0.0037474946049442  0.5607773057981935  0.5503673950985427
  0.7306221214424456  0.3051871366143419  0.2639125790169615
 
  0.00000000E+00  0.00000000E+00  0.00000000E+00
  0.00000000E+00  0.00000000E+00  0.00000000E+00
  0.00000000E+00  0.00000000E+00  0.00000000E+00
  0.00000000E+00  0.00000000E+00  0.00000000E+00
  0.00000000E+00  0.00000000E+00  0.00000000E+00
  0.00000000E+00  0.00000000E+00  0.00000000E+00
  0.00000000E+00  0.00000000E+00  0.00000000E+00
  0.00000000E+00  0.00000000E+00  0.00000000E+00
  0.00000000E+00  0.00000000E+00  0.00000000E+00
  0.00000000E+00  0.00000000E+00  0.00000000E+00
  0.00000000E+00  0.00000000E+00  0.00000000E+00
  0.00000000E+00  0.00000000E+00  0.00000000E+00
  0.00000000E+00  0.00000000E+00  0.00000000E+00
  0.00000000E+00  0.00000000E+00  0.00000000E+00
  0.00000000E+00  0.00000000E+00  0.00000000E+00
  0.00000000E+00  0.00000000E+00  0.00000000E+00
  0.00000000E+00  0.00000000E+00  0.00000000E+00
  0.00000000E+00  0.00000000E+00  0.00000000E+00
  0.00000000E+00  0.00000000E+00  0.00000000E+00
  0.00000000E+00  0.00000000E+00  0.00000000E+00
  0.00000000E+00  0.00000000E+00  0.00000000E+00
  0.00000000E+00  0.00000000E+00  0.00000000E+00
  0.00000000E+00  0.00000000E+00  0.00000000E+00
  0.00000000E+00  0.00000000E+00  0.00000000E+00
  0.00000000E+00  0.00000000E+00  0.00000000E+00
  0.00000000E+00  0.00000000E+00  0.00000000E+00
  0.00000000E+00  0.00000000E+00  0.00000000E+00
  0.00000000E+00  0.00000000E+00  0.00000000E+00
  0.00000000E+00  0.00000000E+00  0.00000000E+00
  0.00000000E+00  0.00000000E+00  0.00000000E+00
  0.00000000E+00  0.00000000E+00  0.00000000E+00
  0.00000000E+00  0.00000000E+00  0.00000000E+00
  0.00000000E+00  0.00000000E+00  0.00000000E+00
  0.00000000E+00  0.00000000E+00  0.00000000E+00
  0.00000000E+00  0.00000000E+00  0.00000000E+00
  0.00000000E+00  0.00000000E+00  0.00000000E+00
  0.00000000E+00  0.00000000E+00  0.00000000E+00
  0.00000000E+00  0.00000000E+00  0.00000000E+00
  0.00000000E+00  0.00000000E+00  0.00000000E+00
  0.00000000E+00  0.00000000E+00  0.00000000E+00
  0.00000000E+00  0.00000000E+00  0.00000000E+00
  0.00000000E+00  0.00000000E+00  0.00000000E+00
  0.00000000E+00  0.00000000E+00  0.00000000E+00
  0.00000000E+00  0.00000000E+00  0.00000000E+00
  0.00000000E+00  0.00000000E+00  0.00000000E+00
  0.00000000E+00  0.00000000E+00  0.00000000E+00
  0.00000000E+00  0.00000000E+00  0.00000000E+00
  0.00000000E+00  0.00000000E+00  0.00000000E+00
  0.00000000E+00  0.00000000E+00  0.00000000E+00
  0.00000000E+00  0.00000000E+00  0.00000000E+00
  0.00000000E+00  0.00000000E+00  0.00000000E+00
  0.00000000E+00  0.00000000E+00  0.00000000E+00
  0.00000000E+00  0.00000000E+00  0.00000000E+00
  0.00000000E+00  0.00000000E+00  0.00000000E+00
  0.00000000E+00  0.00000000E+00  0.00000000E+00
  0.00000000E+00  0.00000000E+00  0.00000000E+00
  0.00000000E+00  0.00000000E+00  0.00000000E+00
  0.00000000E+00  0.00000000E+00  0.00000000E+00
  0.00000000E+00  0.00000000E+00  0.00000000E+00
  0.00000000E+00  0.00000000E+00  0.00000000E+00
  0.00000000E+00  0.00000000E+00  0.00000000E+00
  0.00000000E+00  0.00000000E+00  0.00000000E+00
  0.00000000E+00  0.00000000E+00  0.00000000E+00
  0.00000000E+00  0.00000000E+00  0.00000000E+00
  0.00000000E+00  0.00000000E+00  0.00000000E+00
  0.00000000E+00  0.00000000E+00  0.00000000E+00
  0.00000000E+00  0.00000000E+00  0.00000000E+00
  0.00000000E+00  0.00000000E+00  0.00000000E+00
  0.00000000E+00  0.00000000E+00  0.00000000E+00
  0.00000000E+00  0.00000000E+00  0.00000000E+00
  0.00000000E+00  0.00000000E+00  0.00000000E+00
  0.00000000E+00  0.00000000E+00  0.00000000E+00
  0.00000000E+00  0.00000000E+00  0.00000000E+00
  0.00000000E+00  0.00000000E+00  0.00000000E+00
  0.00000000E+00  0.00000000E+00  0.00000000E+00
  0.00000000E+00  0.00000000E+00  0.00000000E+00
  0.00000000E+00  0.00000000E+00  0.00000000E+00
  0.00000000E+00  0.00000000E+00  0.00000000E+00
  0.00000000E+00  0.00000000E+00  0.00000000E+00
  0.00000000E+00  0.00000000E+00  0.00000000E+00
  0.00000000E+00  0.00000000E+00  0.00000000E+00
  0.00000000E+00  0.00000000E+00  0.00000000E+00
  0.00000000E+00  0.00000000E+00  0.00000000E+00
  0.00000000E+00  0.00000000E+00  0.00000000E+00
  0.00000000E+00  0.00000000E+00  0.00000000E+00
  0.00000000E+00  0.00000000E+00  0.00000000E+00
  0.00000000E+00  0.00000000E+00  0.00000000E+00
  0.00000000E+00  0.00000000E+00  0.00000000E+00
  0.00000000E+00  0.00000000E+00  0.00000000E+00
  0.00000000E+00  0.00000000E+00  0.00000000E+00
  0.00000000E+00  0.00000000E+00  0.00000000E+00
  0.00000000E+00  0.00000000E+00  0.00000000E+00
  0.00000000E+00  0.00000000E+00  0.00000000E+00
  0.00000000E+00  0.00000000E+00  0.00000000E+00
  0.00000000E+00  0.00000000E+00  0.00000000E+00
  0.00000000E+00  0.00000000E+00  0.00000000E+00
  0.00000000E+00  0.00000000E+00  0.00000000E+00
  0.00000000E+00  0.00000000E+00  0.00000000E+00
  0.00000000E+00  0.00000000E+00  0.00000000E+00
  0.00000000E+00  0.00000000E+00  0.00000000E+00
  0.00000000E+00  0.00000000E+00  0.00000000E+00
  0.00000000E+00  0.00000000E+00  0.00000000E+00
  0.00000000E+00  0.00000000E+00  0.00000000E+00
  0.00000000E+00  0.00000000E+00  0.00000000E+00
  0.00000000E+00  0.00000000E+00  0.00000000E+00
  0.00000000E+00  0.00000000E+00  0.00000000E+00
  0.00000000E+00  0.00000000E+00  0.00000000E+00
  0.00000000E+00  0.00000000E+00  0.00000000E+00
  0.00000000E+00  0.00000000E+00  0.00000000E+00
  0.00000000E+00  0.00000000E+00  0.00000000E+00
  0.00000000E+00  0.00000000E+00  0.00000000E+00
  0.00000000E+00  0.00000000E+00  0.00000000E+00
  0.00000000E+00  0.00000000E+00  0.00000000E+00
  0.00000000E+00  0.00000000E+00  0.00000000E+00
  0.00000000E+00  0.00000000E+00  0.00000000E+00
  0.00000000E+00  0.00000000E+00  0.00000000E+00
  0.00000000E+00  0.00000000E+00  0.00000000E+00
  0.00000000E+00  0.00000000E+00  0.00000000E+00
  0.00000000E+00  0.00000000E+00  0.00000000E+00
  0.00000000E+00  0.00000000E+00  0.00000000E+00
  0.00000000E+00  0.00000000E+00  0.00000000E+00
  0.00000000E+00  0.00000000E+00  0.00000000E+00
  0.00000000E+00  0.00000000E+00  0.00000000E+00
  0.00000000E+00  0.00000000E+00  0.00000000E+00
  0.00000000E+00  0.00000000E+00  0.00000000E+00
  0.00000000E+00  0.00000000E+00  0.00000000E+00
  0.00000000E+00  0.00000000E+00  0.00000000E+00
  0.00000000E+00  0.00000000E+00  0.00000000E+00
  0.00000000E+00  0.00000000E+00  0.00000000E+00
  0.00000000E+00  0.00000000E+00  0.00000000E+00
  0.00000000E+00  0.00000000E+00  0.00000000E+00
  0.00000000E+00  0.00000000E+00  0.00000000E+00
  0.00000000E+00  0.00000000E+00  0.00000000E+00
  0.00000000E+00  0.00000000E+00  0.00000000E+00
  0.00000000E+00  0.00000000E+00  0.00000000E+00
  0.00000000E+00  0.00000000E+00  0.00000000E+00
  0.00000000E+00  0.00000000E+00  0.00000000E+00
  0.00000000E+00  0.00000000E+00  0.00000000E+00
  0.00000000E+00  0.00000000E+00  0.00000000E+00
  0.00000000E+00  0.00000000E+00  0.00000000E+00
  0.00000000E+00  0.00000000E+00  0.00000000E+00
  0.00000000E+00  0.00000000E+00  0.00000000E+00
  0.00000000E+00  0.00000000E+00  0.00000000E+00
  0.00000000E+00  0.00000000E+00  0.00000000E+00
  0.00000000E+00  0.00000000E+00  0.00000000E+00
  0.00000000E+00  0.00000000E+00  0.00000000E+00
  0.00000000E+00  0.00000000E+00  0.00000000E+00
  0.00000000E+00  0.00000000E+00  0.00000000E+00
  0.00000000E+00  0.00000000E+00  0.00000000E+00
  0.00000000E+00  0.00000000E+00  0.00000000E+00
  0.00000000E+00  0.00000000E+00  0.00000000E+00
  0.00000000E+00  0.00000000E+00  0.00000000E+00
  0.00000000E+00  0.00000000E+00  0.00000000E+00
  0.00000000E+00  0.00000000E+00  0.00000000E+00
  0.00000000E+00  0.00000000E+00  0.00000000E+00
  0.00000000E+00  0.00000000E+00  0.00000000E+00
  0.00000000E+00  0.00000000E+00  0.00000000E+00
  0.00000000E+00  0.00000000E+00  0.00000000E+00
  0.00000000E+00  0.00000000E+00  0.00000000E+00
  0.00000000E+00  0.00000000E+00  0.00000000E+00
  0.00000000E+00  0.00000000E+00  0.00000000E+00
  0.00000000E+00  0.00000000E+00  0.00000000E+00
  0.00000000E+00  0.00000000E+00  0.00000000E+00
  0.00000000E+00  0.00000000E+00  0.00000000E+00
  0.00000000E+00  0.00000000E+00  0.00000000E+00
  0.00000000E+00  0.00000000E+00  0.00000000E+00
  0.00000000E+00  0.00000000E+00  0.00000000E+00
  0.00000000E+00  0.00000000E+00  0.00000000E+00
  0.00000000E+00  0.00000000E+00  0.00000000E+00
  0.00000000E+00  0.00000000E+00  0.00000000E+00
  0.00000000E+00  0.00000000E+00  0.00000000E+00
  0.00000000E+00  0.00000000E+00  0.00000000E+00
  0.00000000E+00  0.00000000E+00  0.00000000E+00
  0.00000000E+00  0.00000000E+00  0.00000000E+00
  0.00000000E+00  0.00000000E+00  0.00000000E+00
  0.00000000E+00  0.00000000E+00  0.00000000E+00
  0.00000000E+00  0.00000000E+00  0.00000000E+00
  0.00000000E+00  0.00000000E+00  0.00000000E+00
  0.00000000E+00  0.00000000E+00  0.00000000E+00
  0.00000000E+00  0.00000000E+00  0.00000000E+00
  0.00000000E+00  0.00000000E+00  0.00000000E+00
  0.00000000E+00  0.00000000E+00  0.00000000E+00
  0.00000000E+00  0.00000000E+00  0.00000000E+00
  0.00000000E+00  0.00000000E+00  0.00000000E+00
  0.00000000E+00  0.00000000E+00  0.00000000E+00
  0.00000000E+00  0.00000000E+00  0.00000000E+00
  0.00000000E+00  0.00000000E+00  0.00000000E+00
  0.00000000E+00  0.00000000E+00  0.00000000E+00
  0.00000000E+00  0.00000000E+00  0.00000000E+00
  0.00000000E+00  0.00000000E+00  0.00000000E+00
  0.00000000E+00  0.00000000E+00  0.00000000E+00
  0.00000000E+00  0.00000000E+00  0.00000000E+00
  0.00000000E+00  0.00000000E+00  0.00000000E+00
  0.00000000E+00  0.00000000E+00  0.00000000E+00
  0.00000000E+00  0.00000000E+00  0.00000000E+00
  0.00000000E+00  0.00000000E+00  0.00000000E+00
  0.00000000E+00  0.00000000E+00  0.00000000E+00
  0.00000000E+00  0.00000000E+00  0.00000000E+00
  0.00000000E+00  0.00000000E+00  0.00000000E+00
  0.00000000E+00  0.00000000E+00  0.00000000E+00
  0.00000000E+00  0.00000000E+00  0.00000000E+00
  0.00000000E+00  0.00000000E+00  0.00000000E+00
  0.00000000E+00  0.00000000E+00  0.00000000E+00
  0.00000000E+00  0.00000000E+00  0.00000000E+00
  0.00000000E+00  0.00000000E+00  0.00000000E+00
  0.00000000E+00  0.00000000E+00  0.00000000E+00
  0.00000000E+00  0.00000000E+00  0.00000000E+00
  0.00000000E+00  0.00000000E+00  0.00000000E+00
  0.00000000E+00  0.00000000E+00  0.00000000E+00
  0.00000000E+00  0.00000000E+00  0.00000000E+00
  0.00000000E+00  0.00000000E+00  0.00000000E+00
  0.00000000E+00  0.00000000E+00  0.00000000E+00
  0.00000000E+00  0.00000000E+00  0.00000000E+00
  0.00000000E+00  0.00000000E+00  0.00000000E+00
  0.00000000E+00  0.00000000E+00  0.00000000E+00
  0.00000000E+00  0.00000000E+00  0.00000000E+00
  0.00000000E+00  0.00000000E+00  0.00000000E+00
  0.00000000E+00  0.00000000E+00  0.00000000E+00
  0.00000000E+00  0.00000000E+00  0.00000000E+00
  0.00000000E+00  0.00000000E+00  0.00000000E+00
  0.00000000E+00  0.00000000E+00  0.00000000E+00
  0.00000000E+00  0.00000000E+00  0.00000000E+00
  0.00000000E+00  0.00000000E+00  0.00000000E+00
  0.00000000E+00  0.00000000E+00  0.00000000E+00
  0.00000000E+00  0.00000000E+00  0.00000000E+00
  0.00000000E+00  0.00000000E+00  0.00000000E+00
  0.00000000E+00  0.00000000E+00  0.00000000E+00
  0.00000000E+00  0.00000000E+00  0.00000000E+00
  0.00000000E+00  0.00000000E+00  0.00000000E+00
  0.00000000E+00  0.00000000E+00  0.00000000E+00
  0.00000000E+00  0.00000000E+00  0.00000000E+00
  0.00000000E+00  0.00000000E+00  0.00000000E+00