Sb                                      
   1.00000000000000     
    18.8327124033410804    0.0000000000000000    0.0000000000000000
     0.0000000000000000   18.8327124033410804    0.0000000000000000
     0.0000000000000000    0.0000000000000000   18.8327124033410804
   Sb   Si
   205    11
Selective dynamics
Direct
  0.9239565700000000  0.1007526100000000  0.6713796900000000   T   T   T
  0.3952353100000000  0.7337552000000001  0.3587174400000000   T   T   T
  0.9218013600000000  0.0927978480000000  0.9906462800000000   T   T   T
  0.2457826400000000  0.4275878000000000  0.0230140120000000   T   T   T
  0.7363096400000000  0.0902953380000000  0.0180296220000000   T   T   T
  0.0764756980000000  0.7321255000000000  0.0171824260000000   T   T   T
  0.9121092600000000  0.2523166700000000  0.4864108700000000   T   T   T
  0.7477732400000000  0.4199179800000000  0.6865867300000000   T   T   T
  0.4066356900000000  0.9128144100000000  0.1853110400000000   T   T   T
  0.0852220480000000  0.2626403600000000  0.0215269810000000   T   T   T
  0.2536395200000000  0.8990222100000000  0.1789931200000000   T   T   T
  0.4211346500000000  0.2609925900000000  0.5241119500000000   T   T   T
  0.7384090100000000  0.9353363700000000  0.1803399500000000   T   T   T
  0.4040994400000000  0.7510195500000000  0.0099496940000000   T   T   T
  0.0777167460000000  0.4094874000000000  0.3482495000000000   T   T   T
  0.7316156600000000  0.4406906400000000  0.1691985300000000   T   T   T
  0.0758348150000000  0.0916988760000000  0.6755106600000000   T   T   T
  0.0764654650000000  0.0868541170000000  0.1601917400000000   T   T   T
  0.7424366500000000  0.2558194500000000  0.6863721300000000   T   T   T
  0.0752019510000000  0.0989324500000000  0.0049292605000000   T   T   T
  0.7454994700000001  0.0994859760000000  0.8409646500000000   T   T   T
  0.5975740800000000  0.0929728100000000  0.6618659500000000   T   T   T
  0.7412680100000000  0.2554847700000000  0.3474915900000000   T   T   T
  0.5769208600000000  0.7729645100000000  0.3431851200000000   T   T   T
  0.7588629600000000  0.2632642700000000  0.0059971617000000   T   T   T
  0.4156601700000000  0.4249728900000000  0.0182261080000000   T   T   T
  0.5618344400000000  0.5640808000000000  0.0014061717000000   T   T   T
  0.7475884699999999  0.9191283099999999  0.3403963400000000   T   T   T
  0.9020463100000000  0.4226958600000000  0.8471674900000000   T   T   T
  0.5949476500000001  0.7526164400000001  0.6630771300000000   T   T   T
  0.9150794100000000  0.5959179200000000  0.3438161600000000   T   T   T
  0.2308626300000000  0.2427598200000000  0.0146692400000000   T   T   T
  0.7603877300000000  0.7456714600000000  0.6938295600000000   T   T   T
  0.2372592000000000  0.2568672500000000  0.6978357500000000   T   T   T
  0.9140214000000000  0.2598322800000000  0.1592581500000000   T   T   T
  0.5865402400000000  0.6064873600000000  0.1588582300000000   T   T   T
  0.2360770700000000  0.9202156100000000  0.6769746900000000   T   T   T
  0.7422659300000000  0.5732573100000000  0.8690659600000000   T   T   T
  0.9089301400000001  0.5940646700000000  0.0105403740000000   T   T   T
  0.4165727100000000  0.9126530200000000  0.5096035300000000   T   T   T
  0.0778834860000000  0.4294310500000000  0.1708657200000000   T   T   T
  0.0798485450000000  0.2706854200000000  0.6802657900000000   T   T   T
  0.0684331080000000  0.5931300700000000  0.8568486300000000   T   T   T
  0.0798790600000000  0.5867501400000000  0.3192206500000000   T   T   T
  0.2415105800000000  0.4271948800000000  0.8710804500000000   T   T   T
  0.7380199300000000  0.4200906600000000  0.3467127100000000   T   T   T
  0.9133469500000000  0.9219971600000000  0.1680399100000000   T   T   T
  0.7468282700000000  0.0658035060000000  0.6871863600000000   T   T   T
  0.7333845600000000  0.7654206300000000  0.0172268880000000   T   T   T
  0.7044526300000000  0.4331268400000000  0.0135312330000000   T   T   T
  0.0824291500000000  0.6166428300000000  0.6778293600000000   T   T   T
  0.9171900800000000  0.5927419500000000  0.1673982900000000   T   T   T
  0.3992008200000000  0.0948348680000000  0.0088438257000000   T   T   T
  0.7642779800000000  0.7530851500000000  0.8506746200000000   T   T   T
  0.9394125700000000  0.9202094300000000  0.8386780000000000   T   T   T
  0.5812626100000000  0.9161015000000000  0.0022314678000000   T   T   T
  0.7568366100000000  0.9120839300000000  0.8510312400000000   T   T   T
  0.2334364500000000  0.5824298100000000  0.0244192640000000   T   T   T
  0.9040717300000000  0.7677387200000000  0.3407424500000000   T   T   T
  0.4092790000000000  0.5711802100000000  0.1820263000000000   T   T   T
  0.0716174330000000  0.9086975500000000  0.1723934200000000   T   T   T
  0.2343938800000000  0.9236466500000000  0.3378128300000000   T   T   T
  0.2327273500000000  0.4073092100000000  0.1842652900000000   T   T   T
  0.2481902800000000  0.9379060100000000  0.4959854000000000   T   T   T
  0.9295401700000000  0.7603559400000000  0.9986902300000000   T   T   T
  0.2452638700000000  0.0943069740000000  0.3286472700000000   T   T   T
  0.5817736600000000  0.7364428300000000  0.8516703500000000   T   T   T
  0.7632572600000000  0.4287181800000000  0.4982534100000000   T   T   T
  0.8913962800000000  0.2518150300000000  0.3292346500000000   T   T   T
  0.0659091230000000  0.9114678200000000  0.5181041700000000   T   T   T
  0.0703766360000000  0.0887366620000000  0.3550810700000000   T   T   T
  0.2483147400000000  0.2742403900000000  0.8551094600000000   T   T   T
  0.9025133100000000  0.9003304500000000  0.6744846500000000   T   T   T
  0.2482522700000000  0.0962337600000000  0.5093510900000000   T   T   T
  0.7460260800000000  0.5876204900000001  0.5148378400000000   T   T   T
  0.4092873000000000  0.2379714100000000  0.8421032700000000   T   T   T
  0.4082027300000000  0.0834724560000000  0.8396415100000000   T   T   T
  0.3972023600000000  0.0829158270000000  0.3319312100000000   T   T   T
  0.4244960200000000  0.7371494700000000  0.1583347500000000   T   T   T
  0.2425291700000000  0.0659208870000000  0.1758327800000000   T   T   T
  0.0866050500000000  0.2504131700000000  0.8663700200000000   T   T   T
  0.2322918500000000  0.5817851400000000  0.6759187000000000   T   T   T
  0.3895994000000000  0.5681862300000000  0.8429436200000000   T   T   T
  0.4114305200000000  0.4143457500000000  0.1802091600000000   T   T   T
  0.4168042600000000  0.9267265800000000  0.0005244590300000   T   T   T
  0.9200103400000000  0.2536772000000000  0.0095253356000000   T   T   T
  0.9129760300000000  0.7587181200000001  0.1756423100000000   T   T   T
  0.9119420600000000  0.9193679300000001  0.3499716600000000   T   T   T
  0.4102436900000000  0.9084288700000001  0.8344488900000000   T   T   T
  0.5690397600000000  0.0780256320000000  0.5037078600000000   T   T   T
  0.2407714000000000  0.9153908300000000  0.0174078910000000   T   T   T
  0.2159700600000000  0.2632192000000000  0.3556423400000000   T   T   T
  0.0835983790000000  0.9210262400000000  0.9992803300000000   T   T   T
  0.0590408680000000  0.4385105600000000  0.0201493110000000   T   T   T
  0.4114515300000000  0.0819523270000000  0.6766648800000000   T   T   T
  0.2500756100000000  0.4208167800000000  0.3519079200000000   T   T   T
  0.5751527900000000  0.0721425030000000  0.8445913000000000   T   T   T
  0.2649629200000000  0.5993705400000000  0.5007361800000000   T   T   T
  0.4129011500000000  0.5919070000000000  0.9830254300000000   T   T   T
  0.7613487799999999  0.6135290300000000  0.0118408430000000   T   T   T
  0.2550201600000000  0.4253587700000000  0.6679094700000000   T   T   T
  0.2350708500000000  0.7654976000000000  0.5235144600000000   T   T   T
  0.0640925510000000  0.2602638500000000  0.2051721500000000   T   T   T
  0.9042109699999999  0.7495411700000000  0.5201179900000000   T   T   T
  0.2341440000000000  0.0902104290000000  0.0030222441000000   T   T   T
  0.7348155800000000  0.2737224000000000  0.1931371500000000   T   T   T
  0.0847463610000000  0.0924108240000000  0.8301360600000000   T   T   T
  0.7528776500000000  0.9377226200000000  0.0075038357000000   T   T   T
  0.5868272000000000  0.7564269500000000  0.1872194900000000   T   T   T
  0.2150045400000000  0.7431981800000000  0.1842190600000000   T   T   T
  0.5815997400000000  0.2582731700000000  0.8251887900000000   T   T   T
  0.9187786300000000  0.9082759200000000  0.5030762300000000   T   T   T
  0.0879528990000000  0.7521016500000000  0.4778349600000000   T   T   T
  0.9196715900000000  0.5994102800000000  0.4994980900000000   T   T   T
  0.2538453400000000  0.2483281700000000  0.1771167900000000   T   T   T
  0.0622864560000000  0.7591429700000000  0.6835378300000000   T   T   T
  0.2625754000000000  0.7653931800000000  0.6810725100000000   T   T   T
  0.5945047200000000  0.9092172200000000  0.8355818699999999   T   T   T
  0.2368324600000000  0.9220701800000000  0.8272666600000000   T   T   T
  0.5847296800000000  0.7562439399999999  0.0015121743000000   T   T   T
  0.0972899910000000  0.0990810610000000  0.5157234200000000   T   T   T
  0.5812329800000000  0.2546869200000000  0.9949071400000000   T   T   T
  0.4033267700000000  0.2507208700000000  0.3327928400000000   T   T   T
  0.7557869000000000  0.9123251200000000  0.5237674400000000   T   T   T
  0.4529669200000000  0.7464700700000000  0.5083316400000000   T   T   T
  0.7453206100000001  0.7505490000000000  0.5076160199999999   T   T   T
  0.7427128700000000  0.7750641300000000  0.1698222700000000   T   T   T
  0.7292846400000000  0.7561432200000000  0.3480617500000000   T   T   T
  0.5763350800000000  0.9087273000000000  0.6716683500000000   T   T   T
  0.9126378300000000  0.4253695400000000  0.3324774100000000   T   T   T
  0.9024277400000000  0.2613429900000000  0.6863362000000000   T   T   T
  0.2602641100000000  0.2689972900000000  0.5184360900000000   T   T   T
  0.9195293200000000  0.9151491200000000  0.0103611130000000   T   T   T
  0.5690642900000000  0.2465525400000000  0.6424648200000000   T   T   T
  0.7467866399999999  0.0784571860000000  0.3464096500000000   T   T   T
  0.7430871300000000  0.4215498600000000  0.8436763300000000   T   T   T
  0.2363583800000000  0.0801958440000000  0.8318564700000000   T   T   T
  0.8985602800000000  0.4160291200000000  0.1768711200000000   T   T   T
  0.2611421500000000  0.1057414900000000  0.6627799400000000   T   T   T
  0.5773650400000000  0.0999852310000000  0.9969050000000000   T   T   T
  0.4056033000000000  0.2444007000000000  0.1848331700000000   T   T   T
  0.4167826300000000  0.0928801920000000  0.1756325900000000   T   T   T
  0.9214064300000000  0.7521683400000000  0.8422737500000000   T   T   T
  0.7505533900000000  0.5904379800000000  0.6726469400000000   T   T   T
  0.9071108300000000  0.0599962980000000  0.5067224299999999   T   T   T
  0.4074683900000000  0.2618340800000000  0.9956276300000000   T   T   T
  0.0789433420000000  0.4247157300000000  0.6922009800000000   T   T   T
  0.9193273500000000  0.4106006300000000  0.5084310700000000   T   T   T
  0.9256412500000000  0.0942515120000000  0.3364312300000000   T   T   T
  0.5729852100000000  0.0783718420000000  0.1770461600000000   T   T   T
  0.5843284399999999  0.2656983300000000  0.1641351700000000   T   T   T
  0.5823598900000000  0.0986179990000000  0.3458740700000000   T   T   T
  0.9171255100000000  0.5978548299999999  0.8496044100000000   T   T   T
  0.5687741300000000  0.2580916500000000  0.3643680500000000   T   T   T
  0.0764208130000000  0.5941277200000000  0.1708145100000000   T   T   T
  0.7369175100000001  0.6069777000000000  0.1867702500000000   T   T   T
  0.0926423310000000  0.4363051900000000  0.5042959200000000   T   T   T
  0.5718612600000000  0.4227824700000000  0.1747929700000000   T   T   T
  0.4239961900000000  0.9239841200000000  0.6617113100000001   T   T   T
  0.0808726730000000  0.5886807100000000  0.5213078500000000   T   T   T
  0.9077798100000000  0.5835112800000000  0.6835459100000000   T   T   T
  0.4108732100000000  0.4156056100000000  0.8412953100000000   T   T   T
  0.9050961600000000  0.0929694880000000  0.1792903000000000   T   T   T
  0.5816912400000001  0.9312960400000000  0.3482363000000000   T   T   T
  0.7580449700000000  0.5972371800000000  0.3478706600000000   T   T   T
  0.0787335170000000  0.4328369000000000  0.8405108300000000   T   T   T
  0.5894060300000000  0.5823918900000000  0.8354977500000000   T   T   T
  0.8927365700000000  0.0824394900000000  0.8475963600000000   T   T   T
  0.6053969300000001  0.9194241100000000  0.5095073300000000   T   T   T
  0.4187744500000000  0.7477480500000000  0.6762775400000000   T   T   T
  0.2488808200000000  0.5844859100000001  0.3463982400000000   T   T   T
  0.2534311600000000  0.4321462300000000  0.5100783300000000   T   T   T
  0.4168757000000000  0.9118211500000000  0.3425153500000000   T   T   T
  0.0928240690000000  0.7808220000000000  0.8351951800000000   T   T   T
  0.0756111650000000  0.9176671900000000  0.3296156000000000   T   T   T
  0.0731432270000000  0.2627485500000000  0.5133735800000000   T   T   T
  0.0764961410000000  0.9334782100000000  0.6707140500000000   T   T   T
  0.7508586400000000  0.9073006400000000  0.6802627900000000   T   T   T
  0.4110648300000000  0.0762872120000000  0.4914426100000000   T   T   T
  0.7548829200000000  0.1099877100000000  0.1898948000000000   T   T   T
  0.2501587600000000  0.7471139300000000  0.9812825700000000   T   T   T
  0.5707599700000000  0.4087010500000000  0.8565644700000000   T   T   T
  0.2467662600000000  0.5856522600000000  0.1774811400000000   T   T   T
  0.0714188350000000  0.7435976600000000  0.3195033600000000   T   T   T
  0.8970744700000000  0.2573498700000000  0.8394652100000000   T   T   T
  0.7334092300000000  0.2416144300000000  0.5273530600000000   T   T   T
  0.9029318300000000  0.4378077300000000  0.0100896310000000   T   T   T
  0.5812364400000000  0.9315179800000000  0.1638491700000000   T   T   T
  0.2343178100000000  0.7498220900000000  0.3314195500000000   T   T   T
  0.9234948200000000  0.4299333600000000  0.6729291700000000   T   T   T
  0.2387327700000000  0.6057272900000000  0.8404575900000000   T   T   T
  0.7495863400000000  0.0912355110000000  0.5117937900000000   T   T   T
  0.4221216000000000  0.7485759900000000  0.8300988000000000   T   T   T
  0.4098299700000000  0.4105500000000000  0.3493199900000000   F   F   F
  0.4210000000000000  0.5906100300000000  0.3288600100000000   F   F   F
  0.5893000400000000  0.4294100100000000  0.3294600000000000   F   F   F
  0.4098299700000000  0.5795900200000000  0.5097299800000000   F   F   F
  0.5778700100000000  0.5859400000000000  0.3337799900000000   F   F   F
  0.4100900300000000  0.4120700100000000  0.6862800100000001   F   F   F
  0.4212600000000000  0.4230700100000000  0.5054100200000000   F   F   F
  0.5893000400000000  0.5984500000000000  0.4898800000000000   F   F   F
  0.5781300100000000  0.5874400100000000  0.6707500199999999   F   F   F
  0.4212600000000000  0.5921099800000000  0.6658300200000000   F   F   F
  0.5895600300000000  0.4309099900000000  0.6664199800000000   F   F   F
  0.5781300100000000  0.4183900100000000  0.5103300200000001   F   F   F
  0.2396436300000000  0.7536041100000000  0.8307518200000000   T   T   T
  0.0865157610000000  0.9297325200000000  0.8429419400000000   T   T   T
  0.4212932400000000  0.2652305500000000  0.6640001600000000   T   T   T
  0.0701198030000000  0.7538112300000001  0.1475455400000000   T   T   T
  0.7429726700000000  0.2511327200000000  0.8503399699999999   T   T   T
  0.0841188260000000  0.5836982900000000  0.9951313200000000   T   T   T
  0.5650771800000000  0.4251748000000000  0.0054782766000000   T   T   T
  0.9174584500000000  0.7544976900000000  0.6666694300000000   T   T   T
  0.5996735800000000  0.7458395200000000  0.5166461500000000   T   T   T
  0.5874098400000000  0.2670450200000000  0.4985897500000000   T   T   T
  0.0681568330000000  0.2589959100000000  0.3546144500000000   T   T   T
 
  0.00000000E+00  0.00000000E+00  0.00000000E+00
  0.00000000E+00  0.00000000E+00  0.00000000E+00
  0.00000000E+00  0.00000000E+00  0.00000000E+00
  0.00000000E+00  0.00000000E+00  0.00000000E+00
  0.00000000E+00  0.00000000E+00  0.00000000E+00
  0.00000000E+00  0.00000000E+00  0.00000000E+00
  0.00000000E+00  0.00000000E+00  0.00000000E+00
  0.00000000E+00  0.00000000E+00  0.00000000E+00
  0.00000000E+00  0.00000000E+00  0.00000000E+00
  0.00000000E+00  0.00000000E+00  0.00000000E+00
  0.00000000E+00  0.00000000E+00  0.00000000E+00
  0.00000000E+00  0.00000000E+00  0.00000000E+00
  0.00000000E+00  0.00000000E+00  0.00000000E+00
  0.00000000E+00  0.00000000E+00  0.00000000E+00
  0.00000000E+00  0.00000000E+00  0.00000000E+00
  0.00000000E+00  0.00000000E+00  0.00000000E+00
  0.00000000E+00  0.00000000E+00  0.00000000E+00
  0.00000000E+00  0.00000000E+00  0.00000000E+00
  0.00000000E+00  0.00000000E+00  0.00000000E+00
  0.00000000E+00  0.00000000E+00  0.00000000E+00
  0.00000000E+00  0.00000000E+00  0.00000000E+00
  0.00000000E+00  0.00000000E+00  0.00000000E+00
  0.00000000E+00  0.00000000E+00  0.00000000E+00
  0.00000000E+00  0.00000000E+00  0.00000000E+00
  0.00000000E+00  0.00000000E+00  0.00000000E+00
  0.00000000E+00  0.00000000E+00  0.00000000E+00
  0.00000000E+00  0.00000000E+00  0.00000000E+00
  0.00000000E+00  0.00000000E+00  0.00000000E+00
  0.00000000E+00  0.00000000E+00  0.00000000E+00
  0.00000000E+00  0.00000000E+00  0.00000000E+00
  0.00000000E+00  0.00000000E+00  0.00000000E+00
  0.00000000E+00  0.00000000E+00  0.00000000E+00
  0.00000000E+00  0.00000000E+00  0.00000000E+00
  0.00000000E+00  0.00000000E+00  0.00000000E+00
  0.00000000E+00  0.00000000E+00  0.00000000E+00
  0.00000000E+00  0.00000000E+00  0.00000000E+00
  0.00000000E+00  0.00000000E+00  0.00000000E+00
  0.00000000E+00  0.00000000E+00  0.00000000E+00
  0.00000000E+00  0.00000000E+00  0.00000000E+00
  0.00000000E+00  0.00000000E+00  0.00000000E+00
  0.00000000E+00  0.00000000E+00  0.00000000E+00
  0.00000000E+00  0.00000000E+00  0.00000000E+00
  0.00000000E+00  0.00000000E+00  0.00000000E+00
  0.00000000E+00  0.00000000E+00  0.00000000E+00
  0.00000000E+00  0.00000000E+00  0.00000000E+00
  0.00000000E+00  0.00000000E+00  0.00000000E+00
  0.00000000E+00  0.00000000E+00  0.00000000E+00
  0.00000000E+00  0.00000000E+00  0.00000000E+00
  0.00000000E+00  0.00000000E+00  0.00000000E+00
  0.00000000E+00  0.00000000E+00  0.00000000E+00
  0.00000000E+00  0.00000000E+00  0.00000000E+00
  0.00000000E+00  0.00000000E+00  0.00000000E+00
  0.00000000E+00  0.00000000E+00  0.00000000E+00
  0.00000000E+00  0.00000000E+00  0.00000000E+00
  0.00000000E+00  0.00000000E+00  0.00000000E+00
  0.00000000E+00  0.00000000E+00  0.00000000E+00
  0.00000000E+00  0.00000000E+00  0.00000000E+00
  0.00000000E+00  0.00000000E+00  0.00000000E+00
  0.00000000E+00  0.00000000E+00  0.00000000E+00
  0.00000000E+00  0.00000000E+00  0.00000000E+00
  0.00000000E+00  0.00000000E+00  0.00000000E+00
  0.00000000E+00  0.00000000E+00  0.00000000E+00
  0.00000000E+00  0.00000000E+00  0.00000000E+00
  0.00000000E+00  0.00000000E+00  0.00000000E+00
  0.00000000E+00  0.00000000E+00  0.00000000E+00
  0.00000000E+00  0.00000000E+00  0.00000000E+00
  0.00000000E+00  0.00000000E+00  0.00000000E+00
  0.00000000E+00  0.00000000E+00  0.00000000E+00
  0.00000000E+00  0.00000000E+00  0.00000000E+00
  0.00000000E+00  0.00000000E+00  0.00000000E+00
  0.00000000E+00  0.00000000E+00  0.00000000E+00
  0.00000000E+00  0.00000000E+00  0.00000000E+00
  0.00000000E+00  0.00000000E+00  0.00000000E+00
  0.00000000E+00  0.00000000E+00  0.00000000E+00
  0.00000000E+00  0.00000000E+00  0.00000000E+00
  0.00000000E+00  0.00000000E+00  0.00000000E+00
  0.00000000E+00  0.00000000E+00  0.00000000E+00
  0.00000000E+00  0.00000000E+00  0.00000000E+00
  0.00000000E+00  0.00000000E+00  0.00000000E+00
  0.00000000E+00  0.00000000E+00  0.00000000E+00
  0.00000000E+00  0.00000000E+00  0.00000000E+00
  0.00000000E+00  0.00000000E+00  0.00000000E+00
  0.00000000E+00  0.00000000E+00  0.00000000E+00
  0.00000000E+00  0.00000000E+00  0.00000000E+00
  0.00000000E+00  0.00000000E+00  0.00000000E+00
  0.00000000E+00  0.00000000E+00  0.00000000E+00
  0.00000000E+00  0.00000000E+00  0.00000000E+00
  0.00000000E+00  0.00000000E+00  0.00000000E+00
  0.00000000E+00  0.00000000E+00  0.00000000E+00
  0.00000000E+00  0.00000000E+00  0.00000000E+00
  0.00000000E+00  0.00000000E+00  0.00000000E+00
  0.00000000E+00  0.00000000E+00  0.00000000E+00
  0.00000000E+00  0.00000000E+00  0.00000000E+00
  0.00000000E+00  0.00000000E+00  0.00000000E+00
  0.00000000E+00  0.00000000E+00  0.00000000E+00
  0.00000000E+00  0.00000000E+00  0.00000000E+00
  0.00000000E+00  0.00000000E+00  0.00000000E+00
  0.00000000E+00  0.00000000E+00  0.00000000E+00
  0.00000000E+00  0.00000000E+00  0.00000000E+00
  0.00000000E+00  0.00000000E+00  0.00000000E+00
  0.00000000E+00  0.00000000E+00  0.00000000E+00
  0.00000000E+00  0.00000000E+00  0.00000000E+00
  0.00000000E+00  0.00000000E+00  0.00000000E+00
  0.00000000E+00  0.00000000E+00  0.00000000E+00
  0.00000000E+00  0.00000000E+00  0.00000000E+00
  0.00000000E+00  0.00000000E+00  0.00000000E+00
  0.00000000E+00  0.00000000E+00  0.00000000E+00
  0.00000000E+00  0.00000000E+00  0.00000000E+00
  0.00000000E+00  0.00000000E+00  0.00000000E+00
  0.00000000E+00  0.00000000E+00  0.00000000E+00
  0.00000000E+00  0.00000000E+00  0.00000000E+00
  0.00000000E+00  0.00000000E+00  0.00000000E+00
  0.00000000E+00  0.00000000E+00  0.00000000E+00
  0.00000000E+00  0.00000000E+00  0.00000000E+00
  0.00000000E+00  0.00000000E+00  0.00000000E+00
  0.00000000E+00  0.00000000E+00  0.00000000E+00
  0.00000000E+00  0.00000000E+00  0.00000000E+00
  0.00000000E+00  0.00000000E+00  0.00000000E+00
  0.00000000E+00  0.00000000E+00  0.00000000E+00
  0.00000000E+00  0.00000000E+00  0.00000000E+00
  0.00000000E+00  0.00000000E+00  0.00000000E+00
  0.00000000E+00  0.00000000E+00  0.00000000E+00
  0.00000000E+00  0.00000000E+00  0.00000000E+00
  0.00000000E+00  0.00000000E+00  0.00000000E+00
  0.00000000E+00  0.00000000E+00  0.00000000E+00
  0.00000000E+00  0.00000000E+00  0.00000000E+00
  0.00000000E+00  0.00000000E+00  0.00000000E+00
  0.00000000E+00  0.00000000E+00  0.00000000E+00
  0.00000000E+00  0.00000000E+00  0.00000000E+00
  0.00000000E+00  0.00000000E+00  0.00000000E+00
  0.00000000E+00  0.00000000E+00  0.00000000E+00
  0.00000000E+00  0.00000000E+00  0.00000000E+00
  0.00000000E+00  0.00000000E+00  0.00000000E+00
  0.00000000E+00  0.00000000E+00  0.00000000E+00
  0.00000000E+00  0.00000000E+00  0.00000000E+00
  0.00000000E+00  0.00000000E+00  0.00000000E+00
  0.00000000E+00  0.00000000E+00  0.00000000E+00
  0.00000000E+00  0.00000000E+00  0.00000000E+00
  0.00000000E+00  0.00000000E+00  0.00000000E+00
  0.00000000E+00  0.00000000E+00  0.00000000E+00
  0.00000000E+00  0.00000000E+00  0.00000000E+00
  0.00000000E+00  0.00000000E+00  0.00000000E+00
  0.00000000E+00  0.00000000E+00  0.00000000E+00
  0.00000000E+00  0.00000000E+00  0.00000000E+00
  0.00000000E+00  0.00000000E+00  0.00000000E+00
  0.00000000E+00  0.00000000E+00  0.00000000E+00
  0.00000000E+00  0.00000000E+00  0.00000000E+00
  0.00000000E+00  0.00000000E+00  0.00000000E+00
  0.00000000E+00  0.00000000E+00  0.00000000E+00
  0.00000000E+00  0.00000000E+00  0.00000000E+00
  0.00000000E+00  0.00000000E+00  0.00000000E+00
  0.00000000E+00  0.00000000E+00  0.00000000E+00
  0.00000000E+00  0.00000000E+00  0.00000000E+00
  0.00000000E+00  0.00000000E+00  0.00000000E+00
  0.00000000E+00  0.00000000E+00  0.00000000E+00
  0.00000000E+00  0.00000000E+00  0.00000000E+00
  0.00000000E+00  0.00000000E+00  0.00000000E+00
  0.00000000E+00  0.00000000E+00  0.00000000E+00
  0.00000000E+00  0.00000000E+00  0.00000000E+00
  0.00000000E+00  0.00000000E+00  0.00000000E+00
  0.00000000E+00  0.00000000E+00  0.00000000E+00
  0.00000000E+00  0.00000000E+00  0.00000000E+00
  0.00000000E+00  0.00000000E+00  0.00000000E+00
  0.00000000E+00  0.00000000E+00  0.00000000E+00
  0.00000000E+00  0.00000000E+00  0.00000000E+00
  0.00000000E+00  0.00000000E+00  0.00000000E+00
  0.00000000E+00  0.00000000E+00  0.00000000E+00
  0.00000000E+00  0.00000000E+00  0.00000000E+00
  0.00000000E+00  0.00000000E+00  0.00000000E+00
  0.00000000E+00  0.00000000E+00  0.00000000E+00
  0.00000000E+00  0.00000000E+00  0.00000000E+00
  0.00000000E+00  0.00000000E+00  0.00000000E+00
  0.00000000E+00  0.00000000E+00  0.00000000E+00
  0.00000000E+00  0.00000000E+00  0.00000000E+00
  0.00000000E+00  0.00000000E+00  0.00000000E+00
  0.00000000E+00  0.00000000E+00  0.00000000E+00
  0.00000000E+00  0.00000000E+00  0.00000000E+00
  0.00000000E+00  0.00000000E+00  0.00000000E+00
  0.00000000E+00  0.00000000E+00  0.00000000E+00
  0.00000000E+00  0.00000000E+00  0.00000000E+00
  0.00000000E+00  0.00000000E+00  0.00000000E+00
  0.00000000E+00  0.00000000E+00  0.00000000E+00
  0.00000000E+00  0.00000000E+00  0.00000000E+00
  0.00000000E+00  0.00000000E+00  0.00000000E+00
  0.00000000E+00  0.00000000E+00  0.00000000E+00
  0.00000000E+00  0.00000000E+00  0.00000000E+00
  0.00000000E+00  0.00000000E+00  0.00000000E+00
  0.00000000E+00  0.00000000E+00  0.00000000E+00
  0.00000000E+00  0.00000000E+00  0.00000000E+00
  0.00000000E+00  0.00000000E+00  0.00000000E+00
  0.00000000E+00  0.00000000E+00  0.00000000E+00
  0.00000000E+00  0.00000000E+00  0.00000000E+00
  0.00000000E+00  0.00000000E+00  0.00000000E+00
  0.00000000E+00  0.00000000E+00  0.00000000E+00
  0.00000000E+00  0.00000000E+00  0.00000000E+00
  0.00000000E+00  0.00000000E+00  0.00000000E+00
  0.00000000E+00  0.00000000E+00  0.00000000E+00
  0.00000000E+00  0.00000000E+00  0.00000000E+00
  0.00000000E+00  0.00000000E+00  0.00000000E+00
  0.00000000E+00  0.00000000E+00  0.00000000E+00
  0.00000000E+00  0.00000000E+00  0.00000000E+00
  0.00000000E+00  0.00000000E+00  0.00000000E+00
  0.00000000E+00  0.00000000E+00  0.00000000E+00
  0.00000000E+00  0.00000000E+00  0.00000000E+00
  0.00000000E+00  0.00000000E+00  0.00000000E+00
  0.00000000E+00  0.00000000E+00  0.00000000E+00
  0.00000000E+00  0.00000000E+00  0.00000000E+00
  0.00000000E+00  0.00000000E+00  0.00000000E+00
  0.00000000E+00  0.00000000E+00  0.00000000E+00
  0.00000000E+00  0.00000000E+00  0.00000000E+00
  0.00000000E+00  0.00000000E+00  0.00000000E+00
  0.00000000E+00  0.00000000E+00  0.00000000E+00
  0.00000000E+00  0.00000000E+00  0.00000000E+00
  0.00000000E+00  0.00000000E+00  0.00000000E+00
  0.00000000E+00  0.00000000E+00  0.00000000E+00
  0.00000000E+00  0.00000000E+00  0.00000000E+00
 
           1
   4.00000000000000     
  0.10000000E+01  0.00000000E+00  0.00000000E+00  0.00000000E+00
  0.92395657E+00  0.10075261E+00  0.67137969E+00
  0.39523531E+00  0.73375520E+00  0.35871744E+00
  0.92180136E+00  0.92797848E-01  0.99064628E+00
  0.24578264E+00  0.42758780E+00  0.23014012E-01
  0.73630964E+00  0.90295338E-01  0.18029622E-01
  0.76475698E-01  0.73212550E+00  0.17182426E-01
  0.91210926E+00  0.25231667E+00  0.48641087E+00
  0.74777324E+00  0.41991798E+00  0.68658673E+00
  0.40663569E+00  0.91281441E+00  0.18531104E+00
  0.85222048E-01  0.26264036E+00  0.21526981E-01
  0.25363952E+00  0.89902221E+00  0.17899312E+00
  0.42113465E+00  0.26099259E+00  0.52411195E+00
  0.73840901E+00  0.93533637E+00  0.18033995E+00
  0.40409944E+00  0.75101955E+00  0.99496940E-02
  0.77716746E-01  0.40948740E+00  0.34824950E+00
  0.73161566E+00  0.44069064E+00  0.16919853E+00
  0.75834815E-01  0.91698876E-01  0.67551066E+00
  0.76465465E-01  0.86854117E-01  0.16019174E+00
  0.74243665E+00  0.25581945E+00  0.68637213E+00
  0.75201951E-01  0.98932450E-01  0.49292605E-02
  0.74549947E+00  0.99485976E-01  0.84096465E+00
  0.59757408E+00  0.92972810E-01  0.66186595E+00
  0.74126801E+00  0.25548477E+00  0.34749159E+00
  0.57692086E+00  0.77296451E+00  0.34318512E+00
  0.75886296E+00  0.26326427E+00  0.59971617E-02
  0.41566017E+00  0.42497289E+00  0.18226108E-01
  0.56183444E+00  0.56408080E+00  0.14061717E-02
  0.74758847E+00  0.91912831E+00  0.34039634E+00
  0.90204631E+00  0.42269586E+00  0.84716749E+00
  0.59494765E+00  0.75261644E+00  0.66307713E+00
  0.91507941E+00  0.59591792E+00  0.34381616E+00
  0.23086263E+00  0.24275982E+00  0.14669240E-01
  0.76038773E+00  0.74567146E+00  0.69382956E+00
  0.23725920E+00  0.25686725E+00  0.69783575E+00
  0.91402140E+00  0.25983228E+00  0.15925815E+00
  0.58654024E+00  0.60648736E+00  0.15885823E+00
  0.23607707E+00  0.92021561E+00  0.67697469E+00
  0.74226593E+00  0.57325731E+00  0.86906596E+00
  0.90893014E+00  0.59406467E+00  0.10540374E-01
  0.41657271E+00  0.91265302E+00  0.50960353E+00
  0.77883486E-01  0.42943105E+00  0.17086572E+00
  0.79848545E-01  0.27068542E+00  0.68026579E+00
  0.68433108E-01  0.59313007E+00  0.85684863E+00
  0.79879060E-01  0.58675014E+00  0.31922065E+00
  0.24151058E+00  0.42719488E+00  0.87108045E+00
  0.73801993E+00  0.42009066E+00  0.34671271E+00
  0.91334695E+00  0.92199716E+00  0.16803991E+00
  0.74682827E+00  0.65803506E-01  0.68718636E+00
  0.73338456E+00  0.76542063E+00  0.17226888E-01
  0.70445263E+00  0.43312684E+00  0.13531233E-01
  0.82429150E-01  0.61664283E+00  0.67782936E+00
  0.91719008E+00  0.59274195E+00  0.16739829E+00
  0.39920082E+00  0.94834868E-01  0.88438257E-02
  0.76427798E+00  0.75308515E+00  0.85067462E+00
  0.93941257E+00  0.92020943E+00  0.83867800E+00
  0.58126261E+00  0.91610150E+00  0.22314678E-02
  0.75683661E+00  0.91208393E+00  0.85103124E+00
  0.23343645E+00  0.58242981E+00  0.24419264E-01
  0.90407173E+00  0.76773872E+00  0.34074245E+00
  0.40927900E+00  0.57118021E+00  0.18202630E+00
  0.71617433E-01  0.90869755E+00  0.17239342E+00
  0.23439388E+00  0.92364665E+00  0.33781283E+00
  0.23272735E+00  0.40730921E+00  0.18426529E+00
  0.24819028E+00  0.93790601E+00  0.49598540E+00
  0.92954017E+00  0.76035594E+00  0.99869023E+00