Amorphous GeTe6                         
   1.00000000000000     
    22.2628235405677266    0.0000000000000000    0.0000000000000000
     0.0000000000000000   22.2628235405677266    0.0000000000000000
     0.0000000000000000    0.0000000000000000   22.2628235405677266
   Ge   Te
    43   257
Direct
  0.9360454565427005  0.4901935778205697  0.9613063502950681
  0.7745662628940693  0.6348537800660807  0.8692871091018688
  0.5646577749215069  0.9135396445780444  0.6100110196885211
  0.7667040270400705  0.4220468708523555  0.9352370416754994
  0.0215261261566440  0.0825686082146930  0.0533950458531223
  0.8155248901869783  0.3759152747609065  0.3788913184770877
  0.0119224577926786  0.5611029028255885  0.2208440055072813
  0.6141832334791602  0.9118025109196068  0.9282656968060721
  0.8387816972259543  0.3198316280219018  0.5421481805211741
  0.9953306777913298  0.0339181516632792  0.3820217447087941
  0.7560661508139432  0.0267353268899839  0.6962306192190653
  0.7246033316635376  0.4643679275429804  0.5122607365027818
  0.9593383323890734  0.2263618510399326  0.9153191285318343
  0.1848034541849373  0.3754971325633321  0.1956587375609971
  0.1472149474556659  0.3380384904735863  0.7858288429717248
  0.0755894638838015  0.7255123459190145  0.2506886080761745
  0.4576583531417597  0.1822448217599160  0.6922644545397816
  0.4509009214904651  0.0255681622104120  0.1371851948648413
  0.3255968294961065  0.9572483786046533  0.5808942605984626
  0.5898813409063237  0.9460339154850672  0.2509710511345489
  0.2991812622678296  0.1836322651659970  0.9043055223367631
  0.6197163231847114  0.5151601417121014  0.5740468496635458
  0.1555277085633904  0.8094876973390939  0.2275562534853393
  0.7481072360983774  0.0777556879662242  0.2298437953607433
  0.0268508186077696  0.3197208665068061  0.8965186310011291
  0.7523906466545753  0.8795362407169875  0.9966713607389579
  0.3635333538279184  0.2141586413044365  0.3451339958304374
  0.7465977339691108  0.3042870387839542  0.8780827669103886
  0.8157330328378194  0.8695570035781017  0.7199652478907552
  0.3022068168569589  0.7457388088069621  0.3967925978076607
  0.1062602502693721  0.2657645006536740  0.3096934009975953
  0.9866643502961026  0.1485911289073911  0.6230717583965983
  0.4849803859161952  0.4136110672805700  0.5669107368349984
  0.7958307826986513  0.5888854415822422  0.6811625437389779
  0.9599950883597685  0.6262762462175573  0.8432573858209196
  0.3089013035920871  0.4772851930634232  0.2445810890457381
  0.0033121585616414  0.9683575016298605  0.5658115402742254
  0.6524775905395543  0.1506246129739850  0.7770765101243100
  0.9259823171008605  0.9542178414523192  0.0645429724694608
  0.8974764326597295  0.0230021169778283  0.9099060573000628
  0.7540836650298886  0.5761384753030825  0.4968415341492260
  0.5279379628485117  0.9146718516291443  0.0241371021829835
  0.3339860233298353  0.3518501600780581  0.5329183214186486
  0.0279143245086217  0.8430763828810868  0.7573535512883964
  0.4169887261470961  0.7303240550209793  0.7267795829883710
  0.0352227656789523  0.8932679068568916  0.2485897352338640
  0.4090437608582320  0.9064603145708432  0.7402192182149179
  0.9313580522605136  0.2018426070150028  0.7998410218459213
  0.6654354651515746  0.0480815816264766  0.5330412933278055
  0.4585557721850861  0.1983835678832335  0.9588438438178173
  0.0776667572520680  0.1510088579646904  0.5349169837632743
  0.0362433117539993  0.0402182520493142  0.6634420942453545
  0.2018882055514268  0.6361197959633671  0.8355401315941364
  0.8748164182244693  0.3171635721768311  0.9440236368305150
  0.4562371809797412  0.4399044574201199  0.8648882487134770
  0.2876671393548307  0.2366724538648555  0.0640351425320063
  0.8585062754480148  0.5997775760197825  0.4451462005819664
  0.9114246038625069  0.8959758388280932  0.6514666355039367
  0.5947030285317965  0.3614858584121947  0.9919698151234684
  0.8707605103534632  0.4383248166750917  0.8676899663493813
  0.2986793893247537  0.8175130234431478  0.8611388203840775
  0.5026942263044631  0.0581071137579130  0.5541214032722905
  0.8341571324408505  0.9325678516259686  0.8232599971162742
  0.7102476621898006  0.9613673265069878  0.2493028792311947
  0.3514458003698593  0.8274948050118667  0.6536482774792418
  0.1411947171319454  0.3871066822801410  0.3095251448381546
  0.7216197991411590  0.7125225120555356  0.2516667647320006
  0.2825224904357952  0.0506481557809053  0.8795975463039838
  0.5269283927657753  0.8524713849269645  0.7296874355015959
  0.2130554741989954  0.2142965479398526  0.3455824804272538
  0.4978336418060536  0.2142437031947040  0.5795342810562829
  0.9787877984848379  0.3763115856803410  0.9953969620543646
  0.0299313219859485  0.3896393517848935  0.7992726654882034
  0.7522821730976830  0.4748424235958524  0.6391207839204114
  0.2714246491966463  0.8956354844241048  0.4788293007679343
  0.5759966371779868  0.2411653277472041  0.7541081077742007
  0.1928792581826997  0.0673559542965947  0.7926468026605562
  0.8257178986983718  0.7214721199827210  0.4316301683551274
  0.5556176134272022  0.4962919446951375  0.4703981387873881
  0.2494788045664293  0.7509853105128812  0.1737526130564220
  0.7391245521822043  0.1575785321111525  0.3160646722377649
  0.3943637823261525  0.1613373502197319  0.4527587514586386
  0.7392712880830317  0.2201736533461585  0.0034731884899344
  0.6719306252904289  0.3221696101683378  0.5265226999652697
  0.7002602990028564  0.5373337292281448  0.1897924162414668
  0.6254090723327934  0.2714527934069224  0.1600082035930228
  0.1174913730236682  0.8308173370659375  0.9443542867719259
  0.6321296893922366  0.0132682799685639  0.1049327201072430
  0.6035001073178137  0.1405733601351002  0.4159124430004582
  0.4233435414088333  0.6589721827346438  0.0975105037449353
  0.1961770511354146  0.0765932783014165  0.5044487924772127
  0.3697813151429727  0.0381809429976627  0.6925993167127302
  0.1103390459974491  0.7429477619550582  0.4250995184619129
  0.6330160021146298  0.3752096935488467  0.3335357889502575
  0.5967135732573112  0.9874391077613183  0.8247266164913754
  0.7644429712343381  0.1979752689343002  0.8071937431804983
  0.8600616463552768  0.8524578761040829  0.1898163269140696
  0.2705323185802655  0.4081743184630042  0.3427330295354736
  0.1026448768129669  0.5025813996039616  0.7329628460452255
  0.1331384268210769  0.2412282660338718  0.1911056037016436
  0.3998569150542721  0.6688810881882432  0.3828311585033433
  0.1326083978602739  0.9565573415245581  0.7956885333764347
  0.1176337355443806  0.6706849233171610  0.6286868167168365
  0.2809264319444225  0.9567148258535241  0.1550148753389635
  0.8661872365235865  0.0581830965742753  0.2182951811325751
  0.6670009329254043  0.8049389305372827  0.3205403456565037
  0.4672544251511255  0.6209028391081475  0.7877796871415583
  0.1371330566763262  0.8406587861403736  0.6287444165913101
  0.8180471925366319  0.3091030153151451  0.1671119823684322
  0.8450865021287512  0.9930049173972151  0.5693513959264607
  0.7062236387207435  0.8363509649577239  0.8931962070120392
  0.6848382096729821  0.6313130336817352  0.4155523840791702
  0.7194966533198368  0.3018104408602085  0.4079661582142080
  0.7200990129716871  0.1204357782686216  0.1192596717530634
  0.0744868248666180  0.9735532511126621  0.0476219162012868
  0.0439554206024084  0.5607346045409685  0.4822356545053950
  0.5188872830007440  0.8062360182549000  0.8729062967579395
  0.5412627930656768  0.5910649377809065  0.6385035677275326
  0.4856864677990131  0.6206872552103064  0.9171624112355019
  0.6127160232739826  0.2466618834262988  0.6311890865535759
  0.5692833621453133  0.6278628199752845  0.4720002609577705
  0.5223963827128770  0.0497092967576407  0.0378146660267475
  0.2805555764742067  0.6456730510058080  0.2354193083074563
  0.7082809768716274  0.5293643681654672  0.9117230599582840
  0.2492769626962996  0.9575168796566373  0.2996802690974860
  0.3826081141142481  0.4413452276095668  0.6808394278557373
  0.3096102011451549  0.0178737380896763  0.4693927517740164
  0.0061787476730757  0.9631055080331237  0.9093376618863402
  0.8222873113936942  0.9614209435218868  0.1312928301249841
  0.1979656532816136  0.0204496173469693  0.9736962359634660
  0.8272265033956998  0.8897346595801707  0.4975819941468771
  0.2073598534327914  0.4081879736868785  0.4770278693720940
  0.1926856407640045  0.5048306094287653  0.2053710031992324
  0.0891135616917182  0.3959758082216638  0.1082593674577694
  0.5744026899436889  0.6909771092636419  0.1502341522343258
  0.2873718362531861  0.2363029202456559  0.5201991949999751
  0.6922308407396045  0.9453784903506914  0.3866343673757129
  0.4649664171662096  0.9333664226016509  0.5404462762683409
  0.8124510314920528  0.4558992049357329  0.0482529778980094
  0.9535084726681546  0.4446302723217599  0.6051728608327664
  0.7886267308947552  0.7536753464192856  0.7386436706064856
  0.2311508637024886  0.1376892292175427  0.2375507179601399
  0.1886184633683854  0.6635256261542395  0.4910010440043138
  0.7812732004823744  0.0733764762466649  0.4916879919818129
  0.8986036430333826  0.6040486154635616  0.0579647664777454
  0.4426406464041008  0.9068399959339359  0.9309181256357775
  0.3808191839832418  0.5411104749155768  0.9447537421535870
  0.3257094428437952  0.6451944827567715  0.6966801530996420
  0.3500097932481765  0.1088210498129598  0.2753390990974438
  0.7631942981718609  0.5444919925368907  0.2992635337310716
  0.9612322979578849  0.2958239011145380  0.5448636777910139
  0.4144285400911087  0.3298585683512627  0.4372563362775495
  0.1009266948576339  0.7454565730139535  0.0385450936593585
  0.3450152565610267  0.9501374646136398  0.0461383324094697
  0.3279478493852395  0.5974284572998414  0.8211833816050103
  0.5988797189489432  0.1051414543651461  0.8751018981165615
  0.9458351361029926  0.2730191336071215  0.2576426683882431
  0.9765377181322634  0.0861284913613432  0.8368558493662022
  0.7889409146352193  0.1939889090664124  0.6015725920056241
  0.3811843507673416  0.8421684920065289  0.4163124892398997
  0.9640853750026608  0.5402096123830162  0.6863979616998108
  0.3522691461191698  0.7167178363821378  0.9128323905908928
  0.1731526059600981  0.4868166792331294  0.0778396435035660
  0.5988129306643373  0.6241623701116268  0.0286374747895408
  0.9755842637307737  0.8438519323969018  0.1446854122180170
  0.1933478692786963  0.8513149480383859  0.3366671322917654
  0.4794019513493311  0.2492552210116301  0.3020829001893759
  0.4926676198597448  0.0835137268426394  0.4151464823961675
  0.9867139737986079  0.4719212020511634  0.1394957217479771
  0.5469360375119550  0.3436719692908525  0.4828054180457499
  0.7493791920337713  0.2806810482776569  0.6871882558738491
  0.2053154881608918  0.3296132150700757  0.6492649306257690
  0.0131434947614792  0.1367616030956285  0.3271280100518652
  0.6687090995739879  0.4979529264349196  0.3778392487897833
  0.5639490218030971  0.5036955148395919  0.8896020478314526
  0.1236539841693514  0.3940627633880069  0.5725986804375793
  0.6229328217389991  0.7867570127319254  0.4768078713086226
  0.3332223355434110  0.3780929995092137  0.8091553967771716
  0.3195331080736636  0.3561231705558399  0.2231869173369319
  0.7406569012195305  0.0214743758015103  0.8172630267054473
  0.3399496249536540  0.1563995503551538  0.6438553768620423
  0.2148264283952344  0.6828145070992022  0.0463538761144733
  0.5553680622073358  0.6188548836244934  0.3204746205438695
  0.1821598355714258  0.8816168397688173  0.1287366215065404
  0.5080228059324341  0.2737239830312959  0.1157885223310586
  0.2133325419763707  0.9056302925817548  0.7121560703939309
  0.0014887175363754  0.7877964081396200  0.3209275200587953
  0.9527145818177161  0.8521233243703819  0.8588885272381859
  0.7285865934661899  0.6491184628405833  0.5914634173237658
  0.9979328512726298  0.3298137195556450  0.6649020794110783
  0.6397481782208700  0.2585659966915799  0.9186474359386878
  0.2158925983144826  0.7082290982693209  0.7183655408375103
  0.8983573318838651  0.9757567519101613  0.3451388833398354
  0.8408864302058348  0.4347590065656277  0.4816202912418106
  0.3931667370186602  0.5248098060418727  0.4957211671541302
  0.7153047125130811  0.3934854567887882  0.7963994036436830
  0.9002918993647668  0.2878865442256640  0.3972921532226223
  0.7084883552534933  0.5490865788680068  0.0386812315219913
  0.2282071113740045  0.2123714353228152  0.8059137095212208
  0.8514629588760698  0.1078141001447221  0.6707294896181537
  0.9864687792360414  0.4000472799652783  0.2788255207658068
  0.3710572115512605  0.8753256166379941  0.2897297251102984
  0.7336815167758957  0.3609995101763346  0.0869569282578269
  0.8706138075846326  0.8756588400698675  0.9863329815540780
  0.4549167225833486  0.4590426448947298  0.0985682437402744
  0.8582646440480062  0.5602825826498830  0.8158538349577285
  0.0961895823297496  0.7481640426522986  0.8051486611653615
  0.4054107306727488  0.2024156321232979  0.8445138938988492
  0.1711146688744094  0.4393792121154405  0.9412338499145250
  0.8894268914316044  0.7132435950078957  0.1218649702084704
  0.5202810531904731  0.7775979288415229  0.0000924722234998
  0.1482637608788053  0.0412758599339043  0.3079180744839292
  0.4391536753565362  0.9772380209966300  0.3181276752153224
  0.7803143477683250  0.7126931356857042  0.0548640246960730
  0.1820348314406388  0.1286005055217956  0.0336654019230878
  0.9932208644283165  0.3713275383916610  0.4039630386316517
  0.1583589855663092  0.2116416970851063  0.6346614654604323
  0.8612379043303449  0.4538810895162442  0.2828088735825318
  0.0311583760380287  0.6664993742708845  0.1574638780380511
  0.7098610755316201  0.6229074417032905  0.7646132091319373
  0.2712909737753293  0.5340873594800613  0.5313251664497258
  0.4671004271356338  0.9973836696013691  0.8474470027963861
  0.3911721363780956  0.7768012959226809  0.0172191193489155
  0.4318826455865477  0.5569512681714670  0.1796033889064006
  0.7127360943182097  0.9096950701797581  0.6751402021873503
  0.8370636716253657  0.7365822219774074  0.2934117747135687
  0.6557916644787980  0.0899995708797618  0.6713782722710206
  0.9382214688061339  0.9964706914537231  0.7384848248967728
  0.3407129855919422  0.1292192485992203  0.0989125780896956
  0.5776057705361382  0.4702306068568873  0.0779080373691059
  0.1314827964999807  0.6406190475778573  0.3183263738512636
  0.3990353958529553  0.0893759890324759  0.9898548960339895
  0.0528072000569040  0.2146771074644107  0.7108502092560514
  0.5515462830862106  0.0494268050612092  0.2074642042427612
  0.8837282532072592  0.1523985883558510  0.3137992089485735
  0.8608834780083043  0.7371665033197559  0.8414489339671292
  0.0713505317505891  0.1685077739937810  0.9866374960624285
  0.7002871739585714  0.9872011724102734  0.9859941544708875
  0.4255307956556180  0.7957861378497526  0.5447645357890707
  0.5674510565687427  0.5690018586944916  0.2034657657787449
  0.3995746605571426  0.6868987832487292  0.2571505666313243
  0.2105113952093944  0.4485188299076555  0.7820217227830000
  0.0388725228014479  0.6633731454521126  0.7321023349638054
  0.2093296650476333  0.0114252881810373  0.6185867459278640
  0.4953806098851388  0.0594099133888335  0.6860561364979674
  0.0260972259227827  0.1018284256174411  0.1704100689364196
  0.7711823237944699  0.1301449261369214  0.9183078615345224
  0.4413713157944557  0.1947502525827574  0.1946469132876842
  0.6594314800187533  0.9160034201963327  0.5103809825074848
  0.5914104541329621  0.3961936050475785  0.8179422942304200
  0.2937626342226167  0.7303352965237480  0.5178215955127214
  0.5631046742796144  0.8548109011467702  0.1796577106870885
  0.0819943806262060  0.9520680895438574  0.3779621543833827
  0.0300111145258271  0.5271748204181321  0.8879883820854957
  0.4456690041244968  0.9001682099368793  0.1202233769726817
  0.6537951212955946  0.7271502142191508  0.9634931751656950
  0.1461758703172293  0.3157311758177173  0.9169600548188299
  0.9034690588096410  0.6303605787767950  0.6193665204451406
  0.2368407761917979  0.8634251671604787  0.9587842738354624
  0.0578088365962586  0.8186510789809276  0.5146087149144805
  0.3172922331000549  0.2599892072322163  0.7315612733018355
  0.4702744746441141  0.3499496605789361  0.9606111569510887
  0.9368801102519200  0.6749188262631876  0.9557611466037343
  0.8141599862050484  0.7390608311501197  0.5642100567054413
  0.3243523964223129  0.5953101430551797  0.0505628841865615
  0.0143548014079684  0.2644084002656868  0.1494360964270172
  0.6328720143751383  0.4009400122193867  0.1886905650308250
  0.3299471531429106  0.3203748799271153  0.9237024160024347
  0.6556584953768763  0.7882534522215963  0.6912643988752762
  0.5685793280758418  0.7889086738697344  0.5947079856194719
  0.9356848739588131  0.8909444096641579  0.4326106735096076
  0.5331697587562303  0.4335690472646476  0.2603144843720528
  0.2705745240926021  0.3964046211831658  0.0139852664353128
  0.5896437326022337  0.6933109815079774  0.8561677854494647
  0.0063085219048205  0.6644464007932029  0.5411914529142763
  0.5449423651778460  0.7404204088644306  0.2699522431208550
  0.1021207032621874  0.9985186200923408  0.1749831201329712
  0.5866893780630491  0.4121313333093752  0.6387719517641486
  0.2653638026556564  0.4781405237536660  0.6542782806646841
  0.5534396425145971  0.9362181417386353  0.3635132108837169
  0.9060179597770954  0.0758934118813528  0.0236000801469061
  0.5490823004249492  0.4942456405756275  0.7290472186877395
  0.0634198955448682  0.6317837315981549  0.9604779209815604
  0.1927544082085433  0.5892684993737518  0.9561938170020170
  0.0294755626121059  0.5760856845658324  0.3560543286796332
  0.7116141895686567  0.8104365644511660  0.0870142044860458
  0.1305747505956703  0.5299479457284733  0.6143354665325163
  0.8906406370709021  0.5570589333137264  0.1999162470172848
  0.1832068661558850  0.2810151253718232  0.4600115513284351
  0.1297660835133456  0.9343681635060719  0.5407262834081905
  0.7823903577760305  0.8486539337075811  0.3561087361271618
  0.6051464467467085  0.2006729534785592  0.3039895595269400
  0.3996073756818603  0.4403071777182035  0.3806507306248506
  0.4178498835851201  0.3217799830928669  0.6256632864420837
  0.9793778502704669  0.0709106126299233  0.4978009042721254
  0.3656233839616050  0.3302719720181173  0.1005602317666572
  0.4437458770131428  0.6237066523710766  0.5636970190900641
  0.8289380939103381  0.1965503372221917  0.1111876146860311
  0.4955969139305481  0.7566044652089658  0.4278966152173851
  0.8438369414825928  0.3824870933260129  0.6542084041026399
 
  0.00000000E+00  0.00000000E+00  0.00000000E+00
  0.00000000E+00  0.00000000E+00  0.00000000E+00
  0.00000000E+00  0.00000000E+00  0.00000000E+00
  0.00000000E+00  0.00000000E+00  0.00000000E+00
  0.00000000E+00  0.00000000E+00  0.00000000E+00
  0.00000000E+00  0.00000000E+00  0.00000000E+00
  0.00000000E+00  0.00000000E+00  0.00000000E+00
  0.00000000E+00  0.00000000E+00  0.00000000E+00
  0.00000000E+00  0.00000000E+00  0.00000000E+00
  0.00000000E+00  0.00000000E+00  0.00000000E+00
  0.00000000E+00  0.00000000E+00  0.00000000E+00
  0.00000000E+00  0.00000000E+00  0.00000000E+00
  0.00000000E+00  0.00000000E+00  0.00000000E+00
  0.00000000E+00  0.00000000E+00  0.00000000E+00
  0.00000000E+00  0.00000000E+00  0.00000000E+00
  0.00000000E+00  0.00000000E+00  0.00000000E+00
  0.00000000E+00  0.00000000E+00  0.00000000E+00
  0.00000000E+00  0.00000000E+00  0.00000000E+00
  0.00000000E+00  0.00000000E+00  0.00000000E+00
  0.00000000E+00  0.00000000E+00  0.00000000E+00
  0.00000000E+00  0.00000000E+00  0.00000000E+00
  0.00000000E+00  0.00000000E+00  0.00000000E+00
  0.00000000E+00  0.00000000E+00  0.00000000E+00
  0.00000000E+00  0.00000000E+00  0.00000000E+00
  0.00000000E+00  0.00000000E+00  0.00000000E+00
  0.00000000E+00  0.00000000E+00  0.00000000E+00
  0.00000000E+00  0.00000000E+00  0.00000000E+00
  0.00000000E+00  0.00000000E+00  0.00000000E+00
  0.00000000E+00  0.00000000E+00  0.00000000E+00
  0.00000000E+00  0.00000000E+00  0.00000000E+00
  0.00000000E+00  0.00000000E+00  0.00000000E+00
  0.00000000E+00  0.00000000E+00  0.00000000E+00
  0.00000000E+00  0.00000000E+00  0.00000000E+00
  0.00000000E+00  0.00000000E+00  0.00000000E+00
  0.00000000E+00  0.00000000E+00  0.00000000E+00
  0.00000000E+00  0.00000000E+00  0.00000000E+00
  0.00000000E+00  0.00000000E+00  0.00000000E+00
  0.00000000E+00  0.00000000E+00  0.00000000E+00
  0.00000000E+00  0.00000000E+00  0.00000000E+00
  0.00000000E+00  0.00000000E+00  0.00000000E+00
  0.00000000E+00  0.00000000E+00  0.00000000E+00
  0.00000000E+00  0.00000000E+00  0.00000000E+00
  0.00000000E+00  0.00000000E+00  0.00000000E+00
  0.00000000E+00  0.00000000E+00  0.00000000E+00
  0.00000000E+00  0.00000000E+00  0.00000000E+00
  0.00000000E+00  0.00000000E+00  0.00000000E+00
  0.00000000E+00  0.00000000E+00  0.00000000E+00
  0.00000000E+00  0.00000000E+00  0.00000000E+00
  0.00000000E+00  0.00000000E+00  0.00000000E+00
  0.00000000E+00  0.00000000E+00  0.00000000E+00
  0.00000000E+00  0.00000000E+00  0.00000000E+00
  0.00000000E+00  0.00000000E+00  0.00000000E+00
  0.00000000E+00  0.00000000E+00  0.00000000E+00
  0.00000000E+00  0.00000000E+00  0.00000000E+00
  0.00000000E+00  0.00000000E+00  0.00000000E+00
  0.00000000E+00  0.00000000E+00  0.00000000E+00
  0.00000000E+00  0.00000000E+00  0.00000000E+00
  0.00000000E+00  0.00000000E+00  0.00000000E+00
  0.00000000E+00  0.00000000E+00  0.00000000E+00
  0.00000000E+00  0.00000000E+00  0.00000000E+00
  0.00000000E+00  0.00000000E+00  0.00000000E+00
  0.00000000E+00  0.00000000E+00  0.00000000E+00
  0.00000000E+00  0.00000000E+00  0.00000000E+00
  0.00000000E+00  0.00000000E+00  0.00000000E+00
  0.00000000E+00  0.00000000E+00  0.00000000E+00
  0.00000000E+00  0.00000000E+00  0.00000000E+00
  0.00000000E+00  0.00000000E+00  0.00000000E+00
  0.00000000E+00  0.00000000E+00  0.00000000E+00
  0.00000000E+00  0.00000000E+00  0.00000000E+00
  0.00000000E+00  0.00000000E+00  0.00000000E+00
  0.00000000E+00  0.00000000E+00  0.00000000E+00
  0.00000000E+00  0.00000000E+00  0.00000000E+00
  0.00000000E+00  0.00000000E+00  0.00000000E+00
  0.00000000E+00  0.00000000E+00  0.00000000E+00
  0.00000000E+00  0.00000000E+00  0.00000000E+00
  0.00000000E+00  0.00000000E+00  0.00000000E+00
  0.00000000E+00  0.00000000E+00  0.00000000E+00
  0.00000000E+00  0.00000000E+00  0.00000000E+00
  0.00000000E+00  0.00000000E+00  0.00000000E+00
  0.00000000E+00  0.00000000E+00  0.00000000E+00
  0.00000000E+00  0.00000000E+00  0.00000000E+00
  0.00000000E+00  0.00000000E+00  0.00000000E+00
  0.00000000E+00  0.00000000E+00  0.00000000E+00
  0.00000000E+00  0.00000000E+00  0.00000000E+00
  0.00000000E+00  0.00000000E+00  0.00000000E+00
  0.00000000E+00  0.00000000E+00  0.00000000E+00
  0.00000000E+00  0.00000000E+00  0.00000000E+00
  0.00000000E+00  0.00000000E+00  0.00000000E+00
  0.00000000E+00  0.00000000E+00  0.00000000E+00
  0.00000000E+00  0.00000000E+00  0.00000000E+00
  0.00000000E+00  0.00000000E+00  0.00000000E+00
  0.00000000E+00  0.00000000E+00  0.00000000E+00
  0.00000000E+00  0.00000000E+00  0.00000000E+00
  0.00000000E+00  0.00000000E+00  0.00000000E+00
  0.00000000E+00  0.00000000E+00  0.00000000E+00
  0.00000000E+00  0.00000000E+00  0.00000000E+00
  0.00000000E+00  0.00000000E+00  0.00000000E+00
  0.00000000E+00  0.00000000E+00  0.00000000E+00
  0.00000000E+00  0.00000000E+00  0.00000000E+00
  0.00000000E+00  0.00000000E+00  0.00000000E+00
  0.00000000E+00  0.00000000E+00  0.00000000E+00
  0.00000000E+00  0.00000000E+00  0.00000000E+00
  0.00000000E+00  0.00000000E+00  0.00000000E+00
  0.00000000E+00  0.00000000E+00  0.00000000E+00
  0.00000000E+00  0.00000000E+00  0.00000000E+00
  0.00000000E+00  0.00000000E+00  0.00000000E+00
  0.00000000E+00  0.00000000E+00  0.00000000E+00
  0.00000000E+00  0.00000000E+00  0.00000000E+00
  0.00000000E+00  0.00000000E+00  0.00000000E+00
  0.00000000E+00  0.00000000E+00  0.00000000E+00
  0.00000000E+00  0.00000000E+00  0.00000000E+00
  0.00000000E+00  0.00000000E+00  0.00000000E+00
  0.00000000E+00  0.00000000E+00  0.00000000E+00
  0.00000000E+00  0.00000000E+00  0.00000000E+00
  0.00000000E+00  0.00000000E+00  0.00000000E+00
  0.00000000E+00  0.00000000E+00  0.00000000E+00
  0.00000000E+00  0.00000000E+00  0.00000000E+00
  0.00000000E+00  0.00000000E+00  0.00000000E+00
  0.00000000E+00  0.00000000E+00  0.00000000E+00
  0.00000000E+00  0.00000000E+00  0.00000000E+00
  0.00000000E+00  0.00000000E+00  0.00000000E+00
  0.00000000E+00  0.00000000E+00  0.00000000E+00
  0.00000000E+00  0.00000000E+00  0.00000000E+00
  0.00000000E+00  0.00000000E+00  0.00000000E+00
  0.00000000E+00  0.00000000E+00  0.00000000E+00
  0.00000000E+00  0.00000000E+00  0.00000000E+00
  0.00000000E+00  0.00000000E+00  0.00000000E+00
  0.00000000E+00  0.00000000E+00  0.00000000E+00
  0.00000000E+00  0.00000000E+00  0.00000000E+00
  0.00000000E+00  0.00000000E+00  0.00000000E+00
  0.00000000E+00  0.00000000E+00  0.00000000E+00
  0.00000000E+00  0.00000000E+00  0.00000000E+00
  0.00000000E+00  0.00000000E+00  0.00000000E+00
  0.00000000E+00  0.00000000E+00  0.00000000E+00
  0.00000000E+00  0.00000000E+00  0.00000000E+00
  0.00000000E+00  0.00000000E+00  0.00000000E+00
  0.00000000E+00  0.00000000E+00  0.00000000E+00
  0.00000000E+00  0.00000000E+00  0.00000000E+00
  0.00000000E+00  0.00000000E+00  0.00000000E+00
  0.00000000E+00  0.00000000E+00  0.00000000E+00
  0.00000000E+00  0.00000000E+00  0.00000000E+00
  0.00000000E+00  0.00000000E+00  0.00000000E+00
  0.00000000E+00  0.00000000E+00  0.00000000E+00
  0.00000000E+00  0.00000000E+00  0.00000000E+00
  0.00000000E+00  0.00000000E+00  0.00000000E+00
  0.00000000E+00  0.00000000E+00  0.00000000E+00
  0.00000000E+00  0.00000000E+00  0.00000000E+00
  0.00000000E+00  0.00000000E+00  0.00000000E+00
  0.00000000E+00  0.00000000E+00  0.00000000E+00
  0.00000000E+00  0.00000000E+00  0.00000000E+00
  0.00000000E+00  0.00000000E+00  0.00000000E+00
  0.00000000E+00  0.00000000E+00  0.00000000E+00
  0.00000000E+00  0.00000000E+00  0.00000000E+00
  0.00000000E+00  0.00000000E+00  0.00000000E+00
  0.00000000E+00  0.00000000E+00  0.00000000E+00
  0.00000000E+00  0.00000000E+00  0.00000000E+00
  0.00000000E+00  0.00000000E+00  0.00000000E+00
  0.00000000E+00  0.00000000E+00  0.00000000E+00
  0.00000000E+00  0.00000000E+00  0.00000000E+00
  0.00000000E+00  0.00000000E+00  0.00000000E+00
  0.00000000E+00  0.00000000E+00  0.00000000E+00
  0.00000000E+00  0.00000000E+00  0.00000000E+00
  0.00000000E+00  0.00000000E+00  0.00000000E+00
  0.00000000E+00  0.00000000E+00  0.00000000E+00
  0.00000000E+00  0.00000000E+00  0.00000000E+00
  0.00000000E+00  0.00000000E+00  0.00000000E+00
  0.00000000E+00  0.00000000E+00  0.00000000E+00
  0.00000000E+00  0.00000000E+00  0.00000000E+00
  0.00000000E+00  0.00000000E+00  0.00000000E+00
  0.00000000E+00  0.00000000E+00  0.00000000E+00
  0.00000000E+00  0.00000000E+00  0.00000000E+00
  0.00000000E+00  0.00000000E+00  0.00000000E+00
  0.00000000E+00  0.00000000E+00  0.00000000E+00
  0.00000000E+00  0.00000000E+00  0.00000000E+00
  0.00000000E+00  0.00000000E+00  0.00000000E+00
  0.00000000E+00  0.00000000E+00  0.00000000E+00
  0.00000000E+00  0.00000000E+00  0.00000000E+00
  0.00000000E+00  0.00000000E+00  0.00000000E+00
  0.00000000E+00  0.00000000E+00  0.00000000E+00
  0.00000000E+00  0.00000000E+00  0.00000000E+00
  0.00000000E+00  0.00000000E+00  0.00000000E+00
  0.00000000E+00  0.00000000E+00  0.00000000E+00
  0.00000000E+00  0.00000000E+00  0.00000000E+00
  0.00000000E+00  0.00000000E+00  0.00000000E+00
  0.00000000E+00  0.00000000E+00  0.00000000E+00
  0.00000000E+00  0.00000000E+00  0.00000000E+00
  0.00000000E+00  0.00000000E+00  0.00000000E+00
  0.00000000E+00  0.00000000E+00  0.00000000E+00
  0.00000000E+00  0.00000000E+00  0.00000000E+00
  0.00000000E+00  0.00000000E+00  0.00000000E+00
  0.00000000E+00  0.00000000E+00  0.00000000E+00
  0.00000000E+00  0.00000000E+00  0.00000000E+00
  0.00000000E+00  0.00000000E+00  0.00000000E+00
  0.00000000E+00  0.00000000E+00  0.00000000E+00
  0.00000000E+00  0.00000000E+00  0.00000000E+00
  0.00000000E+00  0.00000000E+00  0.00000000E+00
  0.00000000E+00  0.00000000E+00  0.00000000E+00
  0.00000000E+00  0.00000000E+00  0.00000000E+00
  0.00000000E+00  0.00000000E+00  0.00000000E+00
  0.00000000E+00  0.00000000E+00  0.00000000E+00
  0.00000000E+00  0.00000000E+00  0.00000000E+00
  0.00000000E+00  0.00000000E+00  0.00000000E+00
  0.00000000E+00  0.00000000E+00  0.00000000E+00
  0.00000000E+00  0.00000000E+00  0.00000000E+00
  0.00000000E+00  0.00000000E+00  0.00000000E+00
  0.00000000E+00  0.00000000E+00  0.00000000E+00
  0.00000000E+00  0.00000000E+00  0.00000000E+00
  0.00000000E+00  0.00000000E+00  0.00000000E+00
  0.00000000E+00  0.00000000E+00  0.00000000E+00
  0.00000000E+00  0.00000000E+00  0.00000000E+00
  0.00000000E+00  0.00000000E+00  0.00000000E+00
  0.00000000E+00  0.00000000E+00  0.00000000E+00
  0.00000000E+00  0.00000000E+00  0.00000000E+00
  0.00000000E+00  0.00000000E+00  0.00000000E+00
  0.00000000E+00  0.00000000E+00  0.00000000E+00
  0.00000000E+00  0.00000000E+00  0.00000000E+00
  0.00000000E+00  0.00000000E+00  0.00000000E+00
  0.00000000E+00  0.00000000E+00  0.00000000E+00
  0.00000000E+00  0.00000000E+00  0.00000000E+00
  0.00000000E+00  0.00000000E+00  0.00000000E+00
  0.00000000E+00  0.00000000E+00  0.00000000E+00
  0.00000000E+00  0.00000000E+00  0.00000000E+00
  0.00000000E+00  0.00000000E+00  0.00000000E+00
  0.00000000E+00  0.00000000E+00  0.00000000E+00
  0.00000000E+00  0.00000000E+00  0.00000000E+00
  0.00000000E+00  0.00000000E+00  0.00000000E+00
  0.00000000E+00  0.00000000E+00  0.00000000E+00
  0.00000000E+00  0.00000000E+00  0.00000000E+00
  0.00000000E+00  0.00000000E+00  0.00000000E+00
  0.00000000E+00  0.00000000E+00  0.00000000E+00
  0.00000000E+00  0.00000000E+00  0.00000000E+00
  0.00000000E+00  0.00000000E+00  0.00000000E+00