Amorphous Sb                            
   1.00000000000000     
    22.7119198510770417    0.0000000000000000    0.0000000000000000
     0.0000000000000000   22.7119198510770417    0.0000000000000000
     0.0000000000000000    0.0000000000000000   22.7119198510770417
   In   Te
    75   225
Direct
  0.2350876648134243  0.1984148759481270  0.3544058364654493
  0.8573699754627748  0.3986245263935494  0.6171551920239706
  0.3773626711687744  0.1819686410964012  0.1196053533283925
  0.5740618241919281  0.7798098250739298  0.4729546032566903
  0.1584005722644896  0.8001662043343378  0.8619255372270400
  0.6054725550976291  0.4273296955725177  0.6328106214391103
  0.9538169637977055  0.1155340224125942  0.2449939547006808
  0.5092249423013809  0.6317403047270339  0.8751973573542184
  0.5496271266254414  0.5202653818211020  0.1803310279476755
  0.3694800018735556  0.7884201902629502  0.2397476104174092
  0.3892533399019205  0.0162102760475410  0.7369657110089202
  0.3257672995449321  0.5837779262557937  0.2114312350470255
  0.3558572166525162  0.2156618957975861  0.6975016200788750
  0.5087989818529850  0.3230542467371073  0.2994492420042758
  0.8541305485801145  0.6812069859385931  0.6983310909670029
  0.1097244073985405  0.5958718449124101  0.3317611732869679
  0.9034092935488454  0.0104100884602598  0.0976304476265783
  0.7456553528813986  0.5471306655771006  0.1155714027307321
  0.3840391770350087  0.9888542520645752  0.5788410006872107
  0.8607086507368932  0.8979308362367058  0.4888253208648342
  0.2271195133284422  0.3883332053535206  0.8528939651995883
  0.0067842352588430  0.0409874053411794  0.3546575104118236
  0.0165317901812112  0.6024482099236825  0.8356167633241541
  0.6149075463182064  0.1276774537329356  0.6450482015690343
  0.8593549717032273  0.4511312952707857  0.2445554713401198
  0.0325299644030812  0.3954025570262059  0.2664500948301874
  0.2478485848912337  0.7767084079834267  0.0285658456418227
  0.2537881129987751  0.9843974455307555  0.0739695884910864
  0.0620706634857168  0.4875055616550151  0.9415991009677415
  0.1369306464487284  0.7527936638504306  0.2089719621215093
  0.7411453993493312  0.7099735896204439  0.2309207927926537
  0.5617977753885032  0.0412673888409598  0.4641822203718186
  0.6893445323792369  0.3103652984256633  0.4272267018919448
  0.5535536070314478  0.6620574438224526  0.0757650105475816
  0.3825579768228442  0.7265658623044333  0.8199157793378380
  0.7398958604750490  0.6900203070800721  0.9650148582176886
  0.5221946883358548  0.8500437489004787  0.3029755115183629
  0.9153748507084936  0.8521113252500201  0.1812342408063839
  0.5943472987431634  0.3273441266138516  0.1406440849802554
  0.7836951611647724  0.9829700499734906  0.6611298334442965
  0.0731065533037854  0.8946748417631021  0.6718641592226056
  0.5181495981782400  0.6165214651258558  0.4441207796928123
  0.3941182050120441  0.3068480561488229  0.7713756790248700
  0.2375714509443830  0.1262255633777905  0.5928196747953413
  0.4533458182400345  0.9244704021637149  0.1296533263292753
  0.1184152519873762  0.7691575669875516  0.4033138056090457
  0.1321615643456588  0.1658945521758586  0.1243378128396429
  0.9819577141130357  0.6452513479824150  0.0167823266868412
  0.7505744312937935  0.2920399121762837  0.6611935540163822
  0.1714261736237420  0.8235277397754822  0.5015636562667256
  0.8253488121155191  0.7339631389367529  0.4229306231704270
 -0.0199260020903733  0.9039339393192591  0.7575862837345853
  0.4048199630610835  0.3674804021831469 -0.0397159966652556
  0.1577038820629691  0.4813810145307644  0.1850031482702347
  0.8976480003222130  0.5556881412839554 -0.0218926389379916
  0.8125279434433366  0.4118076022520127  0.0527096250866029
  0.1608662018876530  0.9668826242591378  0.4191687816786442
  0.3001891101137547  0.6211908276400167  0.0161217876517411
  0.8658591589124159  0.3733050825180769  0.3456241947548810
  0.9143336637443668  0.2746193567966356  0.8981113256648043
  0.7551704553587095  0.5024008218103505  0.7358795730864459
  0.6712226803285986  0.8801268827296033  0.2167283181711285
 -0.0028291170808310  0.1718316389902808  0.6635900759065044
  0.3812870634989826  0.1821729703878256  0.5322842690883324
  0.0668946838820190  0.0603200547422864  0.5395821223621007
  0.1173946805330059  0.4436711425521887  0.6143228246827552
  0.7557746811600369  0.1555980923047036  0.1952332084036887
  0.8795909084628256  0.0591469730672536  0.5423229257729112
  0.6252889000740439  0.4463526319137778  0.9861456889250692
  0.0264431708363125  0.1725902942554110  0.9937482378165405
  0.4110469105765154  0.4189537840930732  0.4351515120805223
  0.5671829448085322  0.8991759970859733  0.8611259884685462
  0.7695788250923896  0.7933445334199578  0.7953834569062509
  0.2575078447488850  0.1764552696501875  0.0001616541417517
  0.2135916021516146  0.4030082622208687  0.3233716903438966
  0.3443642334499401  0.4288113970883579  0.3190541100995924
  0.8751508419165466  0.9600979412477276  0.8071530087010746
  0.6399802965889694  0.6183474062321628  0.9841593667010484
  0.1489787420059338  0.1474376889252675  0.5061001676708829
  0.4610643961197478  0.1689696501236008  0.6311096745979433
  0.3100226021203785  0.1334723072647238  0.2794721270983299
  0.3162826740496452  0.1156882691465700  0.7684014570189304
  0.5742632087105951  0.7048042005850219  0.7409608089194720
  0.6373516051681076  0.1615515474241812  0.3256045583111030
  0.4313391811641161  0.0812304065610778  0.1800268519729254
  0.8427957584573980  0.3729277558392136  0.8923103280796070
  0.6777366296686276  0.1787880771107969  0.4465460889231961
  0.3082778507944648  0.9431040642084261  0.6702986354114132
  0.7340738345382481  0.8650355818070500  0.9779279617056785
  0.9601945098117957  0.8419539019944291  0.0590022313387202
  0.6202877120855251  0.0370007894448970  0.3515553879109066
  0.7638589413440946  0.3262849983684764  0.9789544819709376
  0.0705727254864063  0.5953311625218701  0.7235075718243970
  0.0393520808344817  0.6830720669225545  0.4634286343550194
  0.4452619987185597  0.9037445504316477  0.5142034825547021
  0.8479736978106325  0.1456575573911532  0.0054590416841875
  0.1930871725060327  0.8490343468633155  0.1501126663675222
  0.6166671140948740  0.9706456351022406  0.0571319297595084
  0.1345168140468497  0.0301456614808092  0.9449647043614257
  0.0354825586894784  0.3480160324747551  0.6427680813556230
  0.2739642843148468  0.6892267702315207  0.1188935559337154
  0.7996045724743840  0.7694542879441342  0.0436246388157931
  0.5854011245619453  0.0851183187296361  0.0907964970540372
  0.1774854127167699  0.1386704859792972  0.9104380001161110
  0.4631816259861733  0.1366294372131246  0.8122537226558454
  0.4190578469742330  0.3835312192108751  0.2329122736943152
  0.2552374936894978  0.6897554232306780  0.7658661110038181
  0.4764722427063529 -0.0129265915122772  0.0206144970104945
  0.2940340987886106  0.2817212781255454  0.4270400944823109
  0.9901987705581818  0.6446444137299895  0.3570731880863156
  0.2649920393614680  0.9021387432922507  0.9187177145696892
  0.4060492120254955  0.5521106713183309  0.0349363268553849
  0.3252858077404028  0.3089960438843487  0.8789089794869942
  0.7673837424448915  0.4374891078874991  0.5356971306442012
  0.5538734316331690  0.9373965582888253  0.2144141955945346
  0.2749327103712712  0.5029787366025228  0.7493396903033303
  0.7726672516706228  0.5203976558430728 -0.0055948613438267
  0.5947538621317385  0.8817390301267561  0.4002576430875264
  0.6117501313184817  0.4052173243276191  0.4388602687027102
  0.4147340899145481  0.5498329236126696  0.4164360687804289
  0.3998970038843281  0.5031263056658816  0.7725208617361392
  0.5495648798865490  0.6000111976343494  0.5664865832043622
  0.0489986664033282  0.8963167854213571  0.8678338006886062
  0.9014220064117762  0.7483091553138078  0.9685672880644700
  0.5947664960667998  0.9560678295004773  0.5482669921944168
  0.8512044253894138  0.9314830574676760  0.9626682855750276
  0.3480500871700236  0.6855514018051934  0.3039151857800403
  0.0421863278939273  0.9614118843499392  0.4668644936681822
  0.0337664450661733  0.8451426968700040  0.3403033969218880
  0.8411596278561703  0.6589412329166409  0.8988411610094436
  0.6431502116382822  0.6046128674513030  0.1602978302240269
  0.1829107134759620  0.7039839118749853  0.3174444767526970
  0.8640829195687888  0.5671114036254949  0.7448100244536450
  0.4422286991855429  0.0177621889816515  0.4282694195195528
  0.1231486767373794  0.2547437433645299  0.3455683363665961
  0.0110845345515395  0.2491486056936880  0.8214226149705919
  0.5094628816644723  0.3316011667163153  0.4257255126940156
  0.9062671151013937  0.7797565517008773  0.7772591679283724
  0.7431352521951021  0.1715683653483804  0.7046683379382565
  0.8115848102231933  0.3304010168129811  0.4551774407059895
  0.7038141227732095  0.5116743567318673  0.6184312971679002
  0.8925649111079937  0.9463878788526323  0.6025314831296869
  0.7560767087304532  0.4333827187710900  0.1673989063796863
  0.4658902711868540  0.7306871918913170  0.4373075574580700
  0.2344213968150028  0.4442901232380064  0.5709331179520925
  0.1394744868006195  0.6572244291430037  0.1259615100979008
  0.5288555309050192  0.3457599930600843  0.9472106533345611
  0.8072609931745015  0.2071524327624421  0.3751940896787879
  0.1858782671697305  0.2457355848512533  0.7426428813429389
  0.5137328687750665  0.7751066630852114  0.8328920504630141
  0.0144365751285385  0.7704422899673183  0.2391207048793669
  0.4344940442369175  0.4030842502395284  0.7021730582629999
  0.3333647638280454  0.8685131673648664  0.0183846040463537
  0.4320084444364368  0.9504247218781069  0.8351417455468664
  0.9540615693090440  0.4991531481757573  0.8742153758145307
  0.6340491839404101  0.0497188481241840  0.7746728325238436
  0.1422200314999743  0.8410562282487997 -0.0005246189423538
  0.8614614475008930  0.2734050336788126  0.5953972170686703
  0.2413604254982908  0.9246294126813170  0.4996310309557956
  0.2291937091494271  0.4961488529193507  0.4593163770956471
  0.9296713571490388  0.8008426466390338  0.4486342607871036
  0.5695072077306760  0.1620383707241559  0.5054105135092912
  0.3191240306339513  0.0722739745680167  0.5125763855944935
  0.9241725988040238  0.2447996830899328  0.0238647560683888
  0.0267523888251340  0.5114720137895724  0.5562239969203607
  0.6213079976106978  0.3631583890088279  0.2589013982295638
  0.7811036236739418  0.0391118154246757  0.9320249703656546
  0.3599047836244139  0.8256940987892633  0.6699076582155441
  0.0147502847028044  0.3589285298950290  0.0537486474306871
  0.9030835235178772  0.6075960678752492  0.5282434098278754
  0.4803864708892214  0.3059646034067146  0.6194118347631687
  0.9373897770201028  0.3539775680322696  0.1931026995125200
  0.6469726959024744  0.0957153343257920  0.1962447097063689
  0.0593846081319782  0.7658416601882049  0.0638014795251511
  0.7264443509297839  0.8062005988481988  0.5800830557752379
  0.4135588818051906 -0.0079257899427092  0.3090366654475121
  0.1447819343387203  0.9039698991115982  0.3094094622333204
  0.6648438093334930  0.7839974463598007  0.3110593766369235
  0.8858939090364149  0.2702547447838931  0.2706068198055753
  0.0516352468974961  0.8456133845740288  0.5568619114342264
  0.4725076477039942  0.8029070557902469  0.9600965484609337
  0.1804016566736018  0.8442799128956380  0.7129291512948548
  0.0901651733588168  0.6140376089861028  0.9417588419754122
  0.3979835244939794  0.4952177621450635  0.9191060693763852
  0.8236565583102502  0.6434159779358392  0.3357874633912232
  0.2368380247730257  0.6299885496629970  0.4992709680233457
  0.9769021495468898  0.5136778000319223  0.3794367252785274
  0.7698423367444619  0.5510853208670972  0.3950863548402066
  0.9165143655086361  0.2538893447533408  0.7099644241311012
  0.9109383245984806  0.5641838853507182  0.2095843232465716
  0.9503426978668167  0.0075950729363812  0.9813513603511047
  0.0965879781582168  0.0218673200703286  0.6559593898932616
  0.6700047601645346  0.6241520904082869  0.5378008813602807
  0.7347413525662120  0.8867897164111597  0.4768253759983234
  0.2161681835901741  0.5295276507535590  0.2988250311016736
  0.1528829174791286  0.0889169257108507  0.3840621968944768
  0.4070706415058297  0.2252552219695185  0.4196788868214767
  0.2529613900392180  0.5090631032748054  0.8761767859722057
  0.2754816821139759  0.8732317929516533  0.2367411744681447
  0.2135730830699575  0.5285088905496365  0.0105399750674000
  0.9734579327232180  0.1435419554733885  0.5388021984139205
  0.0041480997548284  0.0041081363313460  0.1731877416824791
  0.8651013608312099  0.1244639754641109  0.1362851004535241
  0.0678187605269424  0.0754021596284705  0.0642145949599131
  0.6655765615835659  0.1840938724456939  0.8050974721258448
  0.3842309815368303  0.1506923872331009 -0.0091401607992001
  0.4615461602579570  0.6103846928391047  0.1562808333312434
  0.9325620363502778  0.9521686891573288  0.2616388516358468
  0.1126876629756610  0.2318176324520062  0.6441945660193046
  0.9289556135397058  0.4549815994894043  0.0658872953331898
  0.1220663355021682  0.5785915485433337  0.4673368691896705
  0.2264148461216375  0.7363238617105964  0.5767557688900193
  0.6828595109021600  0.2649078111013391  0.0779779527089680
  0.1426064893104643  0.7225995129187630  0.7187799376894831
  0.5513720957844360  0.7354531358422185  0.2572142369955350
  0.0451634670939464  0.5197605407794209  0.2370025674802181
  0.1481926778697356  0.9594505823935806  0.8360307874128368
  0.6807816524661815  0.7778882982070328  0.8899033906516471
  0.5040620696810045  0.4785249256760435  0.5682500721358965
  0.1650047237306346  0.3441668229277424  0.4215575875235446
  0.1218698585795723  0.0361638140065509  0.2667865614734458
  0.3928270095942880  0.3986353526289361  0.5579298752136859
  0.1470873125830510  0.3586413088825141  0.2226792406339040
 -0.0108666559359519  0.7259365069950309  0.8522147192594950
  0.0087305282773373  0.6588302307689501  0.1415811167740597
  0.5096545903288635  0.2520440754140117  0.8108696497660601
  0.6637090759992418  0.6966040784281963  0.4355052628598029
  0.4238302782127275  0.7993596858458445  0.1259595280800132
  0.9175274364686806  0.7225848810588171  0.5954447120140459
  0.6104503907062671  0.3992253135048721  0.7553908632014580
  0.8488582888629711  0.0614322675954703  0.7417573808413541
  0.1080761557902518  0.3740084857023150  0.8967578898875912
  0.4727195141109999  0.8548856465606078  0.6278197075471647
  0.3085529358469210  0.6261902826289719  0.6755906073458000
  0.6509886621258940  0.3139093775421825  0.5892906180555245
  0.5396467244203996  0.2362682999056836  0.0015856947356754
  0.7991401286994723  0.6795831711257109  0.5351940879228924
  0.1027379159731541  0.4460395285953968  0.0535620594239087
  0.5491477749259976  0.0642799962720027  0.8625304816813072
  0.8763218618958896  0.0079097233953732  0.4260496756899656
  0.1094389802316146  0.2577700761907415  0.0392465802811810
  0.7737610629139796  0.9508904801682784  0.2360714361251987
  0.8239790667810281  0.6364087318502064  0.1547513603922985
  0.4767009897073189  0.0401513657206096  0.6492395519417228
  0.6494141789195081  0.5094152899554861  0.7999565163377435
  0.9821519032044469  0.0544932512896842  0.7075211304800008
  0.3619183611837111  0.0287048425100278 -0.0111758154679917
  0.4832678024390203  0.6186612147476639  0.7489090456180020
  0.8050656928493748  0.3835597014184488  0.7320710336341028
  0.2265675375055252  0.3645501681682630  0.7283418522058802
  0.9636386052054230  0.4582151148880608  0.6505040634208723
  0.3962167313230289  0.6951930122071034  0.6239216283393653
  0.1304411752218148  0.4860819149865696  0.7370587658264692
  0.5872275890321829  0.8180335161373254  0.0021334539325696
  0.7355362358546828  0.7236342824691695  0.6954181428429742
  0.6198114028253282  0.9255832480275781  0.7360221827125859
  0.3629192928290627  0.3167763327251180  0.0685030888826061
  0.2880518910708640  0.2425601520878549  0.5949725046455546
  0.6107272771728494  0.5962901664410861  0.3611150807716915
  0.5417140845282761  0.4994383665439927  0.3034681537498099
  0.2139715557615531  0.0758890438246245  0.7052466019069463
  0.2517639647524647  0.1254136802947987  0.1154510783849207
  0.0419830697089764  0.7353448674729327  0.6206717919871636
  0.3531102934521824  0.9823178886264543  0.1810334772294175
  0.0883546063961600  0.1605579527288464  0.2415144795003159
  0.7863077960809559  0.1331729019971604  0.5754052499494153
  0.8663694884520984  0.1544188387387204  0.8763879447992241
  0.4038683608484070  0.8689860541472906  0.3387026286720012
  0.5353209821792281  0.4297348234258921  0.0957150426020258
  0.3394041015020636  0.8696539248574462  0.8244034931416730
  0.5599250168985621  0.7807534292057631  0.1312662234538547
  0.7748819648222807  0.2740150572746354  0.1610239332566634
  0.9918116549947947  0.1207461978636790  0.8842099938902271
  0.8720065759272324  0.5034916746637382  0.4532732966364177
  0.7341114517825960  0.1686535145660850  0.9071433097129048
  0.7461214468693831  0.0208640906148355  0.3870489687359255
  0.6021502990314256  0.7980533576290038  0.5944140964312872
  0.2766773929730766  0.7043920843745722  0.9267998554016436
  0.5766109603243481  0.2708388870247705  0.6989252684745066
  0.8058081745739238  0.1021309779503406  0.3070772586388562
  0.4449660323622538  0.5911750993219675  0.2982468023387722
  0.7096262293660406  0.2797039856329437  0.3068563109609755
  0.8145574210956588  0.9216192452195477  0.1221586557618399
  0.6677025036530368  0.9786952850880859  0.9405576058501168
  0.2465011277867513  0.2988072898338661  0.0312872696985325
  0.0568521817136435  0.3632196712002999  0.7816582549315927
  0.6979091690816696  0.0283711429697471  0.5791639214980365
  0.2622978573658564  0.4825663597390766  0.1133214910713421
  0.3382603829112357  0.7235639447164742  0.5163253797844514
  0.7434298766320044  0.9208074318311772  0.7699142912887285
  0.4520032102615495  0.6796161154410135  0.9841422833038962
  0.5123307027821988  0.2281118452880949  0.1261199434483925
  0.6893164217389942  0.7863464861770856  0.1315865254048155
  0.4845656736996702  0.2032839570299647  0.2651052896114520
  0.7783292937550749  0.8348990338768407  0.3617519945997613
  0.3653261694733577  0.2376059042521814  0.2460868433452051
 -0.0089030134012215  0.3811026434119188  0.3835811098847337
  0.5231016260819807  0.5055289779555191  0.9060582269168541
  0.8490674941488729  0.7760788968780029  0.2612593855123591
  0.6328015275455692  0.6537769540829508  0.8504287425009820
 
  0.00000000E+00  0.00000000E+00  0.00000000E+00
  0.00000000E+00  0.00000000E+00  0.00000000E+00
  0.00000000E+00  0.00000000E+00  0.00000000E+00
  0.00000000E+00  0.00000000E+00  0.00000000E+00
  0.00000000E+00  0.00000000E+00  0.00000000E+00
  0.00000000E+00  0.00000000E+00  0.00000000E+00
  0.00000000E+00  0.00000000E+00  0.00000000E+00
  0.00000000E+00  0.00000000E+00  0.00000000E+00
  0.00000000E+00  0.00000000E+00  0.00000000E+00
  0.00000000E+00  0.00000000E+00  0.00000000E+00
  0.00000000E+00  0.00000000E+00  0.00000000E+00
  0.00000000E+00  0.00000000E+00  0.00000000E+00
  0.00000000E+00  0.00000000E+00  0.00000000E+00
  0.00000000E+00  0.00000000E+00  0.00000000E+00
  0.00000000E+00  0.00000000E+00  0.00000000E+00
  0.00000000E+00  0.00000000E+00  0.00000000E+00
  0.00000000E+00  0.00000000E+00  0.00000000E+00
  0.00000000E+00  0.00000000E+00  0.00000000E+00
  0.00000000E+00  0.00000000E+00  0.00000000E+00
  0.00000000E+00  0.00000000E+00  0.00000000E+00
  0.00000000E+00  0.00000000E+00  0.00000000E+00
  0.00000000E+00  0.00000000E+00  0.00000000E+00
  0.00000000E+00  0.00000000E+00  0.00000000E+00
  0.00000000E+00  0.00000000E+00  0.00000000E+00
  0.00000000E+00  0.00000000E+00  0.00000000E+00
  0.00000000E+00  0.00000000E+00  0.00000000E+00
  0.00000000E+00  0.00000000E+00  0.00000000E+00
  0.00000000E+00  0.00000000E+00  0.00000000E+00
  0.00000000E+00  0.00000000E+00  0.00000000E+00
  0.00000000E+00  0.00000000E+00  0.00000000E+00
  0.00000000E+00  0.00000000E+00  0.00000000E+00
  0.00000000E+00  0.00000000E+00  0.00000000E+00
  0.00000000E+00  0.00000000E+00  0.00000000E+00
  0.00000000E+00  0.00000000E+00  0.00000000E+00
  0.00000000E+00  0.00000000E+00  0.00000000E+00
  0.00000000E+00  0.00000000E+00  0.00000000E+00
  0.00000000E+00  0.00000000E+00  0.00000000E+00
  0.00000000E+00  0.00000000E+00  0.00000000E+00
  0.00000000E+00  0.00000000E+00  0.00000000E+00
  0.00000000E+00  0.00000000E+00  0.00000000E+00
  0.00000000E+00  0.00000000E+00  0.00000000E+00
  0.00000000E+00  0.00000000E+00  0.00000000E+00
  0.00000000E+00  0.00000000E+00  0.00000000E+00
  0.00000000E+00  0.00000000E+00  0.00000000E+00
  0.00000000E+00  0.00000000E+00  0.00000000E+00
  0.00000000E+00  0.00000000E+00  0.00000000E+00
  0.00000000E+00  0.00000000E+00  0.00000000E+00
  0.00000000E+00  0.00000000E+00  0.00000000E+00
  0.00000000E+00  0.00000000E+00  0.00000000E+00
  0.00000000E+00  0.00000000E+00  0.00000000E+00
  0.00000000E+00  0.00000000E+00  0.00000000E+00
  0.00000000E+00  0.00000000E+00  0.00000000E+00
  0.00000000E+00  0.00000000E+00  0.00000000E+00
  0.00000000E+00  0.00000000E+00  0.00000000E+00
  0.00000000E+00  0.00000000E+00  0.00000000E+00
  0.00000000E+00  0.00000000E+00  0.00000000E+00
  0.00000000E+00  0.00000000E+00  0.00000000E+00
  0.00000000E+00  0.00000000E+00  0.00000000E+00
  0.00000000E+00  0.00000000E+00  0.00000000E+00
  0.00000000E+00  0.00000000E+00  0.00000000E+00
  0.00000000E+00  0.00000000E+00  0.00000000E+00
  0.00000000E+00  0.00000000E+00  0.00000000E+00
  0.00000000E+00  0.00000000E+00  0.00000000E+00
  0.00000000E+00  0.00000000E+00  0.00000000E+00
  0.00000000E+00  0.00000000E+00  0.00000000E+00
  0.00000000E+00  0.00000000E+00  0.00000000E+00
  0.00000000E+00  0.00000000E+00  0.00000000E+00
  0.00000000E+00  0.00000000E+00  0.00000000E+00
  0.00000000E+00  0.00000000E+00  0.00000000E+00
  0.00000000E+00  0.00000000E+00  0.00000000E+00
  0.00000000E+00  0.00000000E+00  0.00000000E+00
  0.00000000E+00  0.00000000E+00  0.00000000E+00
  0.00000000E+00  0.00000000E+00  0.00000000E+00
  0.00000000E+00  0.00000000E+00  0.00000000E+00
  0.00000000E+00  0.00000000E+00  0.00000000E+00
  0.00000000E+00  0.00000000E+00  0.00000000E+00
  0.00000000E+00  0.00000000E+00  0.00000000E+00
  0.00000000E+00  0.00000000E+00  0.00000000E+00
  0.00000000E+00  0.00000000E+00  0.00000000E+00
  0.00000000E+00  0.00000000E+00  0.00000000E+00
  0.00000000E+00  0.00000000E+00  0.00000000E+00
  0.00000000E+00  0.00000000E+00  0.00000000E+00
  0.00000000E+00  0.00000000E+00  0.00000000E+00
  0.00000000E+00  0.00000000E+00  0.00000000E+00
  0.00000000E+00  0.00000000E+00  0.00000000E+00
  0.00000000E+00  0.00000000E+00  0.00000000E+00
  0.00000000E+00  0.00000000E+00  0.00000000E+00
  0.00000000E+00  0.00000000E+00  0.00000000E+00
  0.00000000E+00  0.00000000E+00  0.00000000E+00
  0.00000000E+00  0.00000000E+00  0.00000000E+00
  0.00000000E+00  0.00000000E+00  0.00000000E+00
  0.00000000E+00  0.00000000E+00  0.00000000E+00
  0.00000000E+00  0.00000000E+00  0.00000000E+00
  0.00000000E+00  0.00000000E+00  0.00000000E+00
  0.00000000E+00  0.00000000E+00  0.00000000E+00
  0.00000000E+00  0.00000000E+00  0.00000000E+00
  0.00000000E+00  0.00000000E+00  0.00000000E+00
  0.00000000E+00  0.00000000E+00  0.00000000E+00
  0.00000000E+00  0.00000000E+00  0.00000000E+00
  0.00000000E+00  0.00000000E+00  0.00000000E+00
  0.00000000E+00  0.00000000E+00  0.00000000E+00
  0.00000000E+00  0.00000000E+00  0.00000000E+00
  0.00000000E+00  0.00000000E+00  0.00000000E+00
  0.00000000E+00  0.00000000E+00  0.00000000E+00
  0.00000000E+00  0.00000000E+00  0.00000000E+00
  0.00000000E+00  0.00000000E+00  0.00000000E+00
  0.00000000E+00  0.00000000E+00  0.00000000E+00
  0.00000000E+00  0.00000000E+00  0.00000000E+00
  0.00000000E+00  0.00000000E+00  0.00000000E+00
  0.00000000E+00  0.00000000E+00  0.00000000E+00
  0.00000000E+00  0.00000000E+00  0.00000000E+00
  0.00000000E+00  0.00000000E+00  0.00000000E+00
  0.00000000E+00  0.00000000E+00  0.00000000E+00
  0.00000000E+00  0.00000000E+00  0.00000000E+00
  0.00000000E+00  0.00000000E+00  0.00000000E+00
  0.00000000E+00  0.00000000E+00  0.00000000E+00
  0.00000000E+00  0.00000000E+00  0.00000000E+00
  0.00000000E+00  0.00000000E+00  0.00000000E+00
  0.00000000E+00  0.00000000E+00  0.00000000E+00
  0.00000000E+00  0.00000000E+00  0.00000000E+00
  0.00000000E+00  0.00000000E+00  0.00000000E+00
  0.00000000E+00  0.00000000E+00  0.00000000E+00
  0.00000000E+00  0.00000000E+00  0.00000000E+00
  0.00000000E+00  0.00000000E+00  0.00000000E+00
  0.00000000E+00  0.00000000E+00  0.00000000E+00
  0.00000000E+00  0.00000000E+00  0.00000000E+00
  0.00000000E+00  0.00000000E+00  0.00000000E+00
  0.00000000E+00  0.00000000E+00  0.00000000E+00
  0.00000000E+00  0.00000000E+00  0.00000000E+00
  0.00000000E+00  0.00000000E+00  0.00000000E+00
  0.00000000E+00  0.00000000E+00  0.00000000E+00
  0.00000000E+00  0.00000000E+00  0.00000000E+00
  0.00000000E+00  0.00000000E+00  0.00000000E+00
  0.00000000E+00  0.00000000E+00  0.00000000E+00
  0.00000000E+00  0.00000000E+00  0.00000000E+00
  0.00000000E+00  0.00000000E+00  0.00000000E+00
  0.00000000E+00  0.00000000E+00  0.00000000E+00
  0.00000000E+00  0.00000000E+00  0.00000000E+00
  0.00000000E+00  0.00000000E+00  0.00000000E+00
  0.00000000E+00  0.00000000E+00  0.00000000E+00
  0.00000000E+00  0.00000000E+00  0.00000000E+00
  0.00000000E+00  0.00000000E+00  0.00000000E+00
  0.00000000E+00  0.00000000E+00  0.00000000E+00
  0.00000000E+00  0.00000000E+00  0.00000000E+00
  0.00000000E+00  0.00000000E+00  0.00000000E+00
  0.00000000E+00  0.00000000E+00  0.00000000E+00
  0.00000000E+00  0.00000000E+00  0.00000000E+00
  0.00000000E+00  0.00000000E+00  0.00000000E+00
  0.00000000E+00  0.00000000E+00  0.00000000E+00
  0.00000000E+00  0.00000000E+00  0.00000000E+00
  0.00000000E+00  0.00000000E+00  0.00000000E+00
  0.00000000E+00  0.00000000E+00  0.00000000E+00
  0.00000000E+00  0.00000000E+00  0.00000000E+00
  0.00000000E+00  0.00000000E+00  0.00000000E+00
  0.00000000E+00  0.00000000E+00  0.00000000E+00
  0.00000000E+00  0.00000000E+00  0.00000000E+00
  0.00000000E+00  0.00000000E+00  0.00000000E+00
  0.00000000E+00  0.00000000E+00  0.00000000E+00
  0.00000000E+00  0.00000000E+00  0.00000000E+00
  0.00000000E+00  0.00000000E+00  0.00000000E+00
  0.00000000E+00  0.00000000E+00  0.00000000E+00
  0.00000000E+00  0.00000000E+00  0.00000000E+00
  0.00000000E+00  0.00000000E+00  0.00000000E+00
  0.00000000E+00  0.00000000E+00  0.00000000E+00
  0.00000000E+00  0.00000000E+00  0.00000000E+00
  0.00000000E+00  0.00000000E+00  0.00000000E+00
  0.00000000E+00  0.00000000E+00  0.00000000E+00
  0.00000000E+00  0.00000000E+00  0.00000000E+00
  0.00000000E+00  0.00000000E+00  0.00000000E+00
  0.00000000E+00  0.00000000E+00  0.00000000E+00
  0.00000000E+00  0.00000000E+00  0.00000000E+00
  0.00000000E+00  0.00000000E+00  0.00000000E+00
  0.00000000E+00  0.00000000E+00  0.00000000E+00
  0.00000000E+00  0.00000000E+00  0.00000000E+00
  0.00000000E+00  0.00000000E+00  0.00000000E+00
  0.00000000E+00  0.00000000E+00  0.00000000E+00
  0.00000000E+00  0.00000000E+00  0.00000000E+00
  0.00000000E+00  0.00000000E+00  0.00000000E+00
  0.00000000E+00  0.00000000E+00  0.00000000E+00
  0.00000000E+00  0.00000000E+00  0.00000000E+00
  0.00000000E+00  0.00000000E+00  0.00000000E+00
  0.00000000E+00  0.00000000E+00  0.00000000E+00
  0.00000000E+00  0.00000000E+00  0.00000000E+00
  0.00000000E+00  0.00000000E+00  0.00000000E+00
  0.00000000E+00  0.00000000E+00  0.00000000E+00
  0.00000000E+00  0.00000000E+00  0.00000000E+00
  0.00000000E+00  0.00000000E+00  0.00000000E+00
  0.00000000E+00  0.00000000E+00  0.00000000E+00
  0.00000000E+00  0.00000000E+00  0.00000000E+00
  0.00000000E+00  0.00000000E+00  0.00000000E+00
  0.00000000E+00  0.00000000E+00  0.00000000E+00
  0.00000000E+00  0.00000000E+00  0.00000000E+00
  0.00000000E+00  0.00000000E+00  0.00000000E+00
  0.00000000E+00  0.00000000E+00  0.00000000E+00
  0.00000000E+00  0.00000000E+00  0.00000000E+00
  0.00000000E+00  0.00000000E+00  0.00000000E+00
  0.00000000E+00  0.00000000E+00  0.00000000E+00
  0.00000000E+00  0.00000000E+00  0.00000000E+00
  0.00000000E+00  0.00000000E+00  0.00000000E+00
  0.00000000E+00  0.00000000E+00  0.00000000E+00
  0.00000000E+00  0.00000000E+00  0.00000000E+00
  0.00000000E+00  0.00000000E+00  0.00000000E+00
  0.00000000E+00  0.00000000E+00  0.00000000E+00
  0.00000000E+00  0.00000000E+00  0.00000000E+00
  0.00000000E+00  0.00000000E+00  0.00000000E+00
  0.00000000E+00  0.00000000E+00  0.00000000E+00
  0.00000000E+00  0.00000000E+00  0.00000000E+00
  0.00000000E+00  0.00000000E+00  0.00000000E+00
  0.00000000E+00  0.00000000E+00  0.00000000E+00
  0.00000000E+00  0.00000000E+00  0.00000000E+00
  0.00000000E+00  0.00000000E+00  0.00000000E+00
  0.00000000E+00  0.00000000E+00  0.00000000E+00
  0.00000000E+00  0.00000000E+00  0.00000000E+00
  0.00000000E+00  0.00000000E+00  0.00000000E+00
  0.00000000E+00  0.00000000E+00  0.00000000E+00
  0.00000000E+00  0.00000000E+00  0.00000000E+00
  0.00000000E+00  0.00000000E+00  0.00000000E+00
  0.00000000E+00  0.00000000E+00  0.00000000E+00
  0.00000000E+00  0.00000000E+00  0.00000000E+00
  0.00000000E+00  0.00000000E+00  0.00000000E+00
  0.00000000E+00  0.00000000E+00  0.00000000E+00
  0.00000000E+00  0.00000000E+00  0.00000000E+00
  0.00000000E+00  0.00000000E+00  0.00000000E+00
  0.00000000E+00  0.00000000E+00  0.00000000E+00
  0.00000000E+00  0.00000000E+00  0.00000000E+00
  0.00000000E+00  0.00000000E+00  0.00000000E+00
  0.00000000E+00  0.00000000E+00  0.00000000E+00
  0.00000000E+00  0.00000000E+00  0.00000000E+00
  0.00000000E+00  0.00000000E+00  0.00000000E+00
  0.00000000E+00  0.00000000E+00  0.00000000E+00
  0.00000000E+00  0.00000000E+00  0.00000000E+00
  0.00000000E+00  0.00000000E+00  0.00000000E+00