In32 O48                                
   1.00000000000000     
    10.3837818698666684   -0.0154336537845199    0.0033419768006360
    -0.0154311939104536   10.3810945310703620   -0.0005204589609960
     0.0033223639495242   -0.0005151713102502   10.3777997892465503
   In   O 
    32    47
Direct
  0.4982234090268688  0.2509001152249689  0.0391751963682536
  0.0025465352129801  0.2527472408880166  0.4634919283868104
  0.2482203493381769  0.7500196125219687  0.2476586293180305
  0.7507676550552910  0.7494851799184965  0.2514207635434631
  0.0360976601915379  0.4995816758947179  0.2491088376660722
  0.4642841877301872  0.0004917918868186  0.2519961028359182
  0.0018301052112755  0.7493891660888981  0.0372069155978967
  0.4915804728169831  0.7427532328874004  0.4533268389232540
  0.2471441266112818  0.0353882776773588  0.4990034115660373
  0.0347476202400885  0.0006871090095309  0.7500552651612961
  0.7508306409791435  0.2515093557176256  0.2483382004087903
  0.2496746945597345  0.2500007158769005  0.2496347761169721
  0.4667098703120042  0.4989877179905606  0.7506188437853257
  0.2506063353189772  0.4644284673046497 -0.0003299870554946
  0.7498642879145315  0.4630587848145077  0.4996776475406796
  0.7505836983887401  0.0344667592052083 -0.0002876428651651
 -0.0002933718707921  0.7490040761149517  0.5329632716016903
  0.4995411036859123  0.7486194915668243  0.9643403897150826
  0.7512009495036873  0.2489521313462373  0.7499681090629174
  0.2480297293691728  0.2525323621730627  0.7496675740608895
  0.5250679259843606  0.0163330680438519  0.7648602529539306
  0.9664268382242002  0.4968055443671892  0.7486094141907540
  0.4982133208661079  0.2499331799035823  0.5341370208696894
  0.0005388326679628  0.2500323196573158  0.9640885655968504
  0.7519969015083324  0.5332443612136261  0.0023628714379545
  0.5356276270405927  0.4982790123030783  0.2491060209679452
  0.2487764513874690  0.7503338856356512  0.7499455593401234
  0.7627863062022006  0.7445393043879160  0.7610985485623211
  0.9663259713980760  0.0022548576227613  0.2458205023331624
  0.7611022899143747  0.9737381666687563  0.4946813855416142
  0.2490810968347883  0.9655252461435642  0.0004369427761853
  0.2490147911140654  0.5351861523189492  0.4997535274957841
  0.3887637978675003  0.1540746407784191  0.3832544306451178
  0.1558780103944689  0.3829623055547884  0.3889820015252210
  0.3460773313149311  0.6171003149813643  0.8875378894484300
  0.1095474230753424  0.1554605196282948  0.6169353386920643
  0.3454077181309628  0.1168141189947242  0.1110347504230838
  0.8892229987787474  0.1548467797755047  0.1155215031079322
  0.1175306528547835  0.1105412227532339  0.3442241703550957
  0.3783054947853717  0.6064009738527969  0.3413465194129502
  0.8825726497795371  0.3913011281786785  0.3448511244452948
  0.8891326406628014  0.3441863443785706  0.6163230930802658
  0.6163548176365724  0.8890436953850648  0.3645926528238712
  0.1172355241265603  0.8898653648039686  0.1536146798316370
  0.6119851333788676  0.1592814289748766  0.8884942115301220
  0.6106623583429655  0.3441970821753934  0.3826037762001526
  0.3432022264919409  0.8820440837888498  0.3885869410382924
  0.3461514121464161  0.3865926121846127  0.6104785157634274
  0.1556768325103775  0.6170930109279861  0.1094386537743701
  0.6184892571243313  0.1069644970772079  0.1572540647512595
  0.3902251462187541  0.3442814656178043  0.8826959854939265
  0.1506056906506142  0.8828217210735331  0.6100526212657065
  0.1544372804365870  0.1174859279799808  0.8893446200076158
  0.8828402479992428  0.6107919447590169  0.1562328846249035
  0.3823212764603618  0.3897763466311312  0.1552801988985099
  0.1106474012048033  0.3451610567872795  0.1168575450116107
  0.8961533270425958  0.6496334770925778  0.8858866718736342
  0.6525552722737374  0.8838718549831126  0.8752914665505538
  0.8488522029854239  0.1224844878447027  0.3867412363014805
  0.6109997492783459  0.6558012471561648  0.1178801411022557
  0.8441217468602612  0.6177551528180830  0.6109643490992938
  0.3991701037712234  0.6627780344630491  0.6191289561560330
  0.6205772940776160  0.6110401937498159  0.8449314096867347
  0.8813718309711477  0.1087172228355003  0.8433583215239524
  0.3820200384159095  0.8895276740975125  0.8455627053854305
  0.3915914588263001  0.8456066859624750  0.1176973820572644
  0.1177122257742143  0.3899020436946252  0.8449807526970305
  0.6176930765266431  0.3844584107164663  0.6547153943813144
  0.1103604294710306  0.6548625298733646  0.3820875434680612
  0.1092130327690538  0.8454417811415662  0.8816549087685801
  0.8455537780042952  0.3816127641490273  0.8891299035487560
  0.8424076788876587  0.8809462170894737  0.1083696960634581
  0.6483718691778089  0.1026762495436759  0.6137483244872957
  0.1185462726768350  0.6103802986453934  0.6535899113481490
  0.8921038994008261  0.8477518556608161  0.3796991797464172
  0.6545106031376056  0.3822509138509071  0.1106489966168482
  0.6532167787285305  0.6174111406306589  0.3909776830368693
  0.3789893941023578  0.1130545027839175  0.6546930058952931
  0.8735389571929885  0.8882375823948219  0.6527211952649443
 
  0.00000000E+00  0.00000000E+00  0.00000000E+00
  0.00000000E+00  0.00000000E+00  0.00000000E+00
  0.00000000E+00  0.00000000E+00  0.00000000E+00
  0.00000000E+00  0.00000000E+00  0.00000000E+00
  0.00000000E+00  0.00000000E+00  0.00000000E+00
  0.00000000E+00  0.00000000E+00  0.00000000E+00
  0.00000000E+00  0.00000000E+00  0.00000000E+00
  0.00000000E+00  0.00000000E+00  0.00000000E+00
  0.00000000E+00  0.00000000E+00  0.00000000E+00
  0.00000000E+00  0.00000000E+00  0.00000000E+00
  0.00000000E+00  0.00000000E+00  0.00000000E+00
  0.00000000E+00  0.00000000E+00  0.00000000E+00
  0.00000000E+00  0.00000000E+00  0.00000000E+00
  0.00000000E+00  0.00000000E+00  0.00000000E+00
  0.00000000E+00  0.00000000E+00  0.00000000E+00
  0.00000000E+00  0.00000000E+00  0.00000000E+00
  0.00000000E+00  0.00000000E+00  0.00000000E+00
  0.00000000E+00  0.00000000E+00  0.00000000E+00
  0.00000000E+00  0.00000000E+00  0.00000000E+00
  0.00000000E+00  0.00000000E+00  0.00000000E+00
  0.00000000E+00  0.00000000E+00  0.00000000E+00
  0.00000000E+00  0.00000000E+00  0.00000000E+00
  0.00000000E+00  0.00000000E+00  0.00000000E+00
  0.00000000E+00  0.00000000E+00  0.00000000E+00
  0.00000000E+00  0.00000000E+00  0.00000000E+00
  0.00000000E+00  0.00000000E+00  0.00000000E+00
  0.00000000E+00  0.00000000E+00  0.00000000E+00
  0.00000000E+00  0.00000000E+00  0.00000000E+00
  0.00000000E+00  0.00000000E+00  0.00000000E+00
  0.00000000E+00  0.00000000E+00  0.00000000E+00
  0.00000000E+00  0.00000000E+00  0.00000000E+00
  0.00000000E+00  0.00000000E+00  0.00000000E+00
  0.00000000E+00  0.00000000E+00  0.00000000E+00
  0.00000000E+00  0.00000000E+00  0.00000000E+00
  0.00000000E+00  0.00000000E+00  0.00000000E+00
  0.00000000E+00  0.00000000E+00  0.00000000E+00
  0.00000000E+00  0.00000000E+00  0.00000000E+00
  0.00000000E+00  0.00000000E+00  0.00000000E+00
  0.00000000E+00  0.00000000E+00  0.00000000E+00
  0.00000000E+00  0.00000000E+00  0.00000000E+00
  0.00000000E+00  0.00000000E+00  0.00000000E+00
  0.00000000E+00  0.00000000E+00  0.00000000E+00
  0.00000000E+00  0.00000000E+00  0.00000000E+00
  0.00000000E+00  0.00000000E+00  0.00000000E+00
  0.00000000E+00  0.00000000E+00  0.00000000E+00
  0.00000000E+00  0.00000000E+00  0.00000000E+00
  0.00000000E+00  0.00000000E+00  0.00000000E+00
  0.00000000E+00  0.00000000E+00  0.00000000E+00
  0.00000000E+00  0.00000000E+00  0.00000000E+00
  0.00000000E+00  0.00000000E+00  0.00000000E+00
  0.00000000E+00  0.00000000E+00  0.00000000E+00
  0.00000000E+00  0.00000000E+00  0.00000000E+00
  0.00000000E+00  0.00000000E+00  0.00000000E+00
  0.00000000E+00  0.00000000E+00  0.00000000E+00
  0.00000000E+00  0.00000000E+00  0.00000000E+00
  0.00000000E+00  0.00000000E+00  0.00000000E+00
  0.00000000E+00  0.00000000E+00  0.00000000E+00
  0.00000000E+00  0.00000000E+00  0.00000000E+00
  0.00000000E+00  0.00000000E+00  0.00000000E+00
  0.00000000E+00  0.00000000E+00  0.00000000E+00
  0.00000000E+00  0.00000000E+00  0.00000000E+00
  0.00000000E+00  0.00000000E+00  0.00000000E+00
  0.00000000E+00  0.00000000E+00  0.00000000E+00
  0.00000000E+00  0.00000000E+00  0.00000000E+00
  0.00000000E+00  0.00000000E+00  0.00000000E+00
  0.00000000E+00  0.00000000E+00  0.00000000E+00
  0.00000000E+00  0.00000000E+00  0.00000000E+00
  0.00000000E+00  0.00000000E+00  0.00000000E+00
  0.00000000E+00  0.00000000E+00  0.00000000E+00
  0.00000000E+00  0.00000000E+00  0.00000000E+00
  0.00000000E+00  0.00000000E+00  0.00000000E+00
  0.00000000E+00  0.00000000E+00  0.00000000E+00
  0.00000000E+00  0.00000000E+00  0.00000000E+00
  0.00000000E+00  0.00000000E+00  0.00000000E+00
  0.00000000E+00  0.00000000E+00  0.00000000E+00
  0.00000000E+00  0.00000000E+00  0.00000000E+00
  0.00000000E+00  0.00000000E+00  0.00000000E+00
  0.00000000E+00  0.00000000E+00  0.00000000E+00
  0.00000000E+00  0.00000000E+00  0.00000000E+00
