Bond                                    
   1.00000000000000     
     6.2805981193086398   -0.0000000000000000    0.0000000000000000
    -0.0000000000000000    3.4767541259726302    0.0000000000000000
     0.0000000000000000    0.0000000000000000    3.4767541259726302
   In   Sb
     1     1
Direct
  0.2500000000000000  0.5000000000000000  0.5000000000000000
  0.7500000000000000  0.5000000000000000  0.5000000000000000
 
  0.00000000E+00  0.00000000E+00  0.00000000E+00
  0.00000000E+00  0.00000000E+00  0.00000000E+00
