GST-225                                 
   1.00000000000000     
    17.3103375075902584   -0.0404530257993690    0.0040741428427096
    -8.6900232261931727   15.0601845406269010   -0.0183024459936951
     0.0043768151666941   -0.0227679639989066   21.3523749921844157
   Ge   Sb   Te
    38    38    96
Direct
  0.9217204490677117  0.1009753382901386  0.1336797142644148
  0.3248895555036653  0.9117239541309176  0.9814072887348831
  0.1751118018043348  0.8263142947307375  0.6324285825332114
  0.7450313005131173  0.7565114295333545  0.3006651382720859
  0.8289661253915114  0.6736921311167097  0.4609310012099472
  0.0041526110682114  0.4977428212639067  0.3063096480322523
  0.7498788974804844  0.5064817522384731  0.2981489181613250
  0.9222897507920846  0.5773715070110070  0.6468620336849519
  0.9193915890140745  0.8311998194535735  0.1236203676116763
  0.5888956061578690  0.4203996229363139  0.4778272568258811
  0.5718403687086637  0.6658307733860731  0.9732316584999440
  0.8447827232885682  0.4011267280225191  0.9702862686041142
  0.6614530722989110  0.0677350401328667  0.1518674989454539
  0.0861269269742791  0.4136077956313644  0.9534180399337623
  0.1592872418897329  0.3383724180571650  0.6353566844661707
  0.4148807514960677  0.3416525213858856  0.6498398733158252
 -0.0040824930019829  0.7422227338614571  0.8226599740240684
  0.0800538312474778  0.6378390045359087  0.9653515375209366
  0.9236203525731662  0.3423463984480369  0.6461253032678738
  0.6830524771571086  0.3363778766725918  0.6329889970876964
 -0.0151340335326284  0.7320508417698562  0.3096581645374701
  0.8170451761279446  0.8904132782931932  0.4584744339351627
  0.5060318022156479  0.5019727912053190  0.7984855265715567
  0.0042718836485265 -0.0037638067592663  0.8042964049785511
  0.2488056276191533  0.2654046969493841  0.7935231753250870
  0.5763696303739438  0.6675192142702396  0.4759664923367377
  0.5965152432829564  0.1765812083218193  0.9808808218959639
  0.7459623895441828  0.2448280333139166  0.3193247706965813
  0.3301933114859813  0.1645300509665093  0.4743256112387342
  0.4223767487151315  0.8394042539065785  0.6477070106350852
  0.7597129529474890  0.5026871833522060  0.8191206590780667
  0.8229220316352549  0.9175479968104541  0.9859114122464655
  0.1530445648775621  0.8390234661102716  0.1337475460096179
  0.0916183213852148  0.4352541047126516  0.4732240269768828
  0.4092957992766176  0.5872339630786434  0.1334701822594955
  0.5078438475881176 -0.0016891991686824  0.7974701789289346
  0.3382686564460714  0.4324105213479927  0.4705115052424175
  0.4230949618658660  0.0778083962098047  0.6385069355654334
  0.8565981541684258  0.1758469566411542  0.9750592126928759
  0.3260991235169815  0.6575650201147036  0.9684172550351330
 -0.0184790654473985  0.2370235515354852  0.3175905125392275
  0.1500196543790250  0.5717821410185447  0.6422741630138227
  0.0917783898527398  0.9215785722353312  0.9720946039503826
  0.1640543278680117  0.5793947808643919  0.1446913259123302
  0.6703677816853920  0.5724807737140264  0.6347795265775510
  0.6771882654078291  0.3494898610230474  0.1314466706393441
  0.1414981371692835  0.0726983267700154  0.1500660631947174
  0.5783235553631489  0.9206925051932683  0.9682138541126961
  0.2506481213297006  0.0047914565728851  0.8152454744288703
  0.3991627559227067  0.3259166370638558  0.1281948148613231
  0.5763521789845557  0.1690067217759814  0.4756490980337773
  0.1630756697021895  0.0876887546680141  0.6400869632596456
  0.7612675478458404  0.0131024963213241  0.8157142680512276
  0.5046637319113167 -0.0081147093051732  0.3156781000895152
  0.6681689024506521  0.5979676976895003  0.1314972617594737
  0.0886920848653767  0.1636842686092344  0.4753756747545210
  0.0892717360253907  0.9092301268088135  0.4695363038068339
  0.7660255085136538 -0.0074842331622808  0.2989329156591211
  0.0835688116627372  0.6721141593697744  0.4677750397440995
  0.9123915749581462  0.8339170285033217  0.6469215597218527
  0.4175064773836575  0.0779076789510133  0.1541642242894590
  0.9120544705151657  0.0941202615648049  0.6298747890699692
  0.2475575560481744  0.2475560555010825  0.3124921754651637
  0.7539075849681749  0.7512647370430395  0.8060976740739535
  0.2383855840136744  0.4954755798340377  0.3021778830992766
  0.4252383495403174  0.6084728906359849  0.6309891510449609
  0.9216777221919954  0.5810841600215721  0.1425252065934082
  0.3385722877818099  0.9053811307866184  0.4651364637547452
  0.5085447095774186  0.2570776168648035  0.3114657431359428
  0.3116437584867504  0.3939652055166135  0.9615740220035089
  0.4996209420007831  0.5167232670698392  0.3003124244910336
  0.4097900438071952  0.8340975475893371  0.1427128180844663
  0.5789767473665577  0.4113532095682200  0.9686518486619557
  0.5032259274532641  0.2359809138550180  0.8053898468318820
  0.4983033519930257  0.7515664695695572  0.8038969489610582
  0.6831573596277261  0.0904207307572582  0.6269684207914906
  0.2538591192484474 -0.0005054098945257  0.0505046007362281
  0.2529226315816957  0.5024828961935834  0.0535229173213152
  0.7480259456277970 -0.0022785562420985  0.0557303509399294
  0.7538552613367054  0.5038349369593563  0.0483817950679399
  0.0801235498558859  0.1778208631783066  0.2114323640678194
  0.0883700561750242  0.6752153417416945  0.2194244150056264
  0.5934441098215067  0.1680982948307307  0.2172461032062273
  0.5847043526577662  0.6735272332373611  0.2185057808035162
  0.4154820343284837  0.3322360838067185  0.3863678963179299
  0.4254182090419548  0.8339811262892999  0.3903802426355558
  0.9146939503425366  0.3398576842527066  0.3827424259176659
  0.9128308260891805  0.8284983354402905  0.3823093761356121
  0.2517946371217827  0.0040168820423117  0.5504617315358351
  0.2464090131119506  0.4936562594589024  0.5475254510945382
  0.7585256402429585  0.0077091615611128  0.5502119898173397
  0.7489972502348475  0.4950872498666316  0.5497409159568549
  0.0885461835518364  0.1750680931605713  0.7211873269148071
  0.0842376978770017  0.6713350530259466  0.7131894405744501
  0.5817777008701499  0.1643545902920432  0.7161533726026134
  0.5848508074631058  0.6668941377074733  0.7162402468379370
  0.4183653322587962  0.3387235341048461  0.8805193323805427
  0.4167447341237975  0.8376295992721245  0.8809171735444584
  0.9238742892747953  0.3329761155357236  0.8890573570563256
  0.9216658481706098  0.8374789231995109  0.8805794475791807
  0.0025066033053750  0.2492131364342207  0.0576657035091633
  0.0020509089247054  0.7545494578238234  0.0515086210820621
  0.5013457348837935  0.2481017858857594  0.0465534906910771
  0.5037131394013413  0.7509915881615473  0.0509653021261433
  0.3356728949741247  0.4261616858320036  0.2130010840172211
  0.3241530028647825  0.9112582128652158  0.2199880200431851
  0.8371717029281002  0.4185499374985759  0.2168461433730069
  0.8261147214053974  0.9051277618415443  0.2178267815008363
  0.1665758374940664  0.0852654396681180  0.3861151059096199
  0.1626930863532059  0.5787103872896613  0.3853999608778748
  0.6698380435164704  0.0870687365053200  0.3882704499667915
  0.6688049024382442  0.5789027494865088  0.3839667132623237
  0.0050225843560887  0.2580733247585070  0.5523677454492169
 -0.0028568200454141  0.7475370835418322  0.5477980962801032
  0.4959028360153796  0.2544055085461335  0.5503669594082566
  0.4988484294164591  0.7492768122448870  0.5439043410040740
  0.3333710159057608  0.4183512265397320  0.7178792428156771
  0.3347078313582535  0.9158202945646060  0.7104757464147073
  0.8368114071913239  0.4198491027860287  0.7141208477117912
  0.8306030577173146  0.9159226820296175  0.7172089681629663
  0.1631529554744820  0.0830787317606137  0.8835177226152033
  0.1619067108052937  0.5733172398408155  0.8863772612956113
  0.6610317055351297  0.0858481417594494  0.8810792602611297
  0.6655938308582868  0.5807857599383363  0.8787622964147264
  0.2492699750192048  0.2448289939382863  0.0475466453079392
  0.2436961546221126  0.7493330817697221  0.0479104229313721
  0.7529507462908983  0.2497133237299723  0.0493994519702605
  0.7604679165325727  0.7424178577829829  0.0381088664704491
  0.0818743390861227  0.4159863401296093  0.2188685540301872
  0.0749547475166906  0.9086048322759781  0.2160745077983523
  0.5896868458625040  0.4223953388853945  0.2182691657702683
  0.5783338554897463  0.9122323863792386  0.2233182505516133
  0.4104468564495170  0.0849007842710751  0.3853146894812166
  0.4167821439707135  0.5853879895114819  0.3880134061631320
  0.9022177150543804  0.0863040383646632  0.3988323567915418
  0.9159141382170687  0.5794209884323913  0.3816598424708075
  0.2546506551224556  0.2546415800309103  0.5499610120913111
  0.2520736203513982  0.7495513995277375  0.5488722395209585
  0.7528093929804823  0.2561109958420493  0.5518845174027412
  0.7501037569638261  0.7458042546026158  0.5435075658693377
  0.0814584400342086  0.4140715359685995  0.7172997171715688
  0.0829282364787443  0.9168330968880402  0.7169008831604647
  0.5803938778541629  0.4165730262993289  0.7187116433478898
  0.5830255338941081  0.9167257721518028  0.7167889705826005
  0.4197593470217560  0.0774630249562487  0.8844521143019463
  0.4237845103758784  0.5858177689726136  0.8857837063775085
  0.9201236060227901  0.0771222895296792  0.8884176642790375
  0.9123266991296413  0.5919548954634085  0.8950995825763803
 -0.0083516837679902 -0.0060169526539014  0.0514897784095433
  0.0006971625555726  0.4944490890938296  0.0483206568213935
  0.4984154868419351  0.0049398402729449  0.0475146627189140
  0.5016027812179871  0.5075700841827675  0.0500123440786802
  0.3297433218865718  0.1667065077054813  0.2151080502819964
  0.3356949505546916  0.6677014879853339  0.2169140165614549
  0.8291629860225692  0.1584461510055271  0.2163826098098166
  0.8362745188661441  0.6676983144051809  0.2212423640251445
  0.1629149004147377  0.3328854719838827  0.3861299387142400
  0.1638417549755520  0.8298210669298804  0.3821174284118549
  0.6728290062169586  0.3388981471337038  0.3842330233860451
  0.6657410320763167  0.8246093603348122  0.3845711647284169
 -0.0031132237031311 -0.0013973758442803  0.5513951102909537
 -0.0028712667827090  0.4954269539897316  0.5507258425538804
  0.4998283794518162  0.0030694010249648  0.5530435057963651
  0.4977498652308430  0.4972721678877772  0.5458336655960034
  0.3353251662942452  0.1743192371823308  0.7181466055669362
  0.3375036122064967  0.6756680673670027  0.7149663285054723
  0.8372559512187745  0.1760421621276790  0.7164273157425645
  0.8361592459413307  0.6587663967765361  0.7162416289331046
  0.1540760619133850  0.3124205614815515  0.8877389364874428
  0.1651702096367334  0.8319704978644474  0.8853625412205514
  0.6719826630177441  0.3361590082446410  0.8852456758335492
  0.6695919020663634  0.8329571375069518  0.8858620062185284
 
  0.00000000E+00  0.00000000E+00  0.00000000E+00
  0.00000000E+00  0.00000000E+00  0.00000000E+00
  0.00000000E+00  0.00000000E+00  0.00000000E+00
  0.00000000E+00  0.00000000E+00  0.00000000E+00
  0.00000000E+00  0.00000000E+00  0.00000000E+00
  0.00000000E+00  0.00000000E+00  0.00000000E+00
  0.00000000E+00  0.00000000E+00  0.00000000E+00
  0.00000000E+00  0.00000000E+00  0.00000000E+00
  0.00000000E+00  0.00000000E+00  0.00000000E+00
  0.00000000E+00  0.00000000E+00  0.00000000E+00
  0.00000000E+00  0.00000000E+00  0.00000000E+00
  0.00000000E+00  0.00000000E+00  0.00000000E+00
  0.00000000E+00  0.00000000E+00  0.00000000E+00
  0.00000000E+00  0.00000000E+00  0.00000000E+00
  0.00000000E+00  0.00000000E+00  0.00000000E+00
  0.00000000E+00  0.00000000E+00  0.00000000E+00
  0.00000000E+00  0.00000000E+00  0.00000000E+00
  0.00000000E+00  0.00000000E+00  0.00000000E+00
  0.00000000E+00  0.00000000E+00  0.00000000E+00
  0.00000000E+00  0.00000000E+00  0.00000000E+00
  0.00000000E+00  0.00000000E+00  0.00000000E+00
  0.00000000E+00  0.00000000E+00  0.00000000E+00
  0.00000000E+00  0.00000000E+00  0.00000000E+00
  0.00000000E+00  0.00000000E+00  0.00000000E+00
  0.00000000E+00  0.00000000E+00  0.00000000E+00
  0.00000000E+00  0.00000000E+00  0.00000000E+00
  0.00000000E+00  0.00000000E+00  0.00000000E+00
  0.00000000E+00  0.00000000E+00  0.00000000E+00
  0.00000000E+00  0.00000000E+00  0.00000000E+00
  0.00000000E+00  0.00000000E+00  0.00000000E+00
  0.00000000E+00  0.00000000E+00  0.00000000E+00
  0.00000000E+00  0.00000000E+00  0.00000000E+00
  0.00000000E+00  0.00000000E+00  0.00000000E+00
  0.00000000E+00  0.00000000E+00  0.00000000E+00
  0.00000000E+00  0.00000000E+00  0.00000000E+00
  0.00000000E+00  0.00000000E+00  0.00000000E+00
  0.00000000E+00  0.00000000E+00  0.00000000E+00
  0.00000000E+00  0.00000000E+00  0.00000000E+00
  0.00000000E+00  0.00000000E+00  0.00000000E+00
  0.00000000E+00  0.00000000E+00  0.00000000E+00
  0.00000000E+00  0.00000000E+00  0.00000000E+00
  0.00000000E+00  0.00000000E+00  0.00000000E+00
  0.00000000E+00  0.00000000E+00  0.00000000E+00
  0.00000000E+00  0.00000000E+00  0.00000000E+00
  0.00000000E+00  0.00000000E+00  0.00000000E+00
  0.00000000E+00  0.00000000E+00  0.00000000E+00
  0.00000000E+00  0.00000000E+00  0.00000000E+00
  0.00000000E+00  0.00000000E+00  0.00000000E+00
  0.00000000E+00  0.00000000E+00  0.00000000E+00
  0.00000000E+00  0.00000000E+00  0.00000000E+00
  0.00000000E+00  0.00000000E+00  0.00000000E+00
  0.00000000E+00  0.00000000E+00  0.00000000E+00
  0.00000000E+00  0.00000000E+00  0.00000000E+00
  0.00000000E+00  0.00000000E+00  0.00000000E+00
  0.00000000E+00  0.00000000E+00  0.00000000E+00
  0.00000000E+00  0.00000000E+00  0.00000000E+00
  0.00000000E+00  0.00000000E+00  0.00000000E+00
  0.00000000E+00  0.00000000E+00  0.00000000E+00
  0.00000000E+00  0.00000000E+00  0.00000000E+00
  0.00000000E+00  0.00000000E+00  0.00000000E+00
  0.00000000E+00  0.00000000E+00  0.00000000E+00
  0.00000000E+00  0.00000000E+00  0.00000000E+00
  0.00000000E+00  0.00000000E+00  0.00000000E+00
  0.00000000E+00  0.00000000E+00  0.00000000E+00
  0.00000000E+00  0.00000000E+00  0.00000000E+00
  0.00000000E+00  0.00000000E+00  0.00000000E+00
  0.00000000E+00  0.00000000E+00  0.00000000E+00
  0.00000000E+00  0.00000000E+00  0.00000000E+00
  0.00000000E+00  0.00000000E+00  0.00000000E+00
  0.00000000E+00  0.00000000E+00  0.00000000E+00
  0.00000000E+00  0.00000000E+00  0.00000000E+00
  0.00000000E+00  0.00000000E+00  0.00000000E+00
  0.00000000E+00  0.00000000E+00  0.00000000E+00
  0.00000000E+00  0.00000000E+00  0.00000000E+00
  0.00000000E+00  0.00000000E+00  0.00000000E+00
  0.00000000E+00  0.00000000E+00  0.00000000E+00
  0.00000000E+00  0.00000000E+00  0.00000000E+00
  0.00000000E+00  0.00000000E+00  0.00000000E+00
  0.00000000E+00  0.00000000E+00  0.00000000E+00
  0.00000000E+00  0.00000000E+00  0.00000000E+00
  0.00000000E+00  0.00000000E+00  0.00000000E+00
  0.00000000E+00  0.00000000E+00  0.00000000E+00
  0.00000000E+00  0.00000000E+00  0.00000000E+00
  0.00000000E+00  0.00000000E+00  0.00000000E+00
  0.00000000E+00  0.00000000E+00  0.00000000E+00
  0.00000000E+00  0.00000000E+00  0.00000000E+00
  0.00000000E+00  0.00000000E+00  0.00000000E+00
  0.00000000E+00  0.00000000E+00  0.00000000E+00
  0.00000000E+00  0.00000000E+00  0.00000000E+00
  0.00000000E+00  0.00000000E+00  0.00000000E+00
  0.00000000E+00  0.00000000E+00  0.00000000E+00
  0.00000000E+00  0.00000000E+00  0.00000000E+00
  0.00000000E+00  0.00000000E+00  0.00000000E+00
  0.00000000E+00  0.00000000E+00  0.00000000E+00
  0.00000000E+00  0.00000000E+00  0.00000000E+00
  0.00000000E+00  0.00000000E+00  0.00000000E+00
  0.00000000E+00  0.00000000E+00  0.00000000E+00
  0.00000000E+00  0.00000000E+00  0.00000000E+00
  0.00000000E+00  0.00000000E+00  0.00000000E+00
  0.00000000E+00  0.00000000E+00  0.00000000E+00
  0.00000000E+00  0.00000000E+00  0.00000000E+00
  0.00000000E+00  0.00000000E+00  0.00000000E+00
  0.00000000E+00  0.00000000E+00  0.00000000E+00
  0.00000000E+00  0.00000000E+00  0.00000000E+00
  0.00000000E+00  0.00000000E+00  0.00000000E+00
  0.00000000E+00  0.00000000E+00  0.00000000E+00
  0.00000000E+00  0.00000000E+00  0.00000000E+00
  0.00000000E+00  0.00000000E+00  0.00000000E+00
  0.00000000E+00  0.00000000E+00  0.00000000E+00
  0.00000000E+00  0.00000000E+00  0.00000000E+00
  0.00000000E+00  0.00000000E+00  0.00000000E+00
  0.00000000E+00  0.00000000E+00  0.00000000E+00
  0.00000000E+00  0.00000000E+00  0.00000000E+00
  0.00000000E+00  0.00000000E+00  0.00000000E+00
  0.00000000E+00  0.00000000E+00  0.00000000E+00
  0.00000000E+00  0.00000000E+00  0.00000000E+00
  0.00000000E+00  0.00000000E+00  0.00000000E+00
  0.00000000E+00  0.00000000E+00  0.00000000E+00
  0.00000000E+00  0.00000000E+00  0.00000000E+00
  0.00000000E+00  0.00000000E+00  0.00000000E+00
  0.00000000E+00  0.00000000E+00  0.00000000E+00
  0.00000000E+00  0.00000000E+00  0.00000000E+00
  0.00000000E+00  0.00000000E+00  0.00000000E+00
  0.00000000E+00  0.00000000E+00  0.00000000E+00
  0.00000000E+00  0.00000000E+00  0.00000000E+00
  0.00000000E+00  0.00000000E+00  0.00000000E+00
  0.00000000E+00  0.00000000E+00  0.00000000E+00
  0.00000000E+00  0.00000000E+00  0.00000000E+00
  0.00000000E+00  0.00000000E+00  0.00000000E+00
  0.00000000E+00  0.00000000E+00  0.00000000E+00
  0.00000000E+00  0.00000000E+00  0.00000000E+00
  0.00000000E+00  0.00000000E+00  0.00000000E+00
  0.00000000E+00  0.00000000E+00  0.00000000E+00
  0.00000000E+00  0.00000000E+00  0.00000000E+00
  0.00000000E+00  0.00000000E+00  0.00000000E+00
  0.00000000E+00  0.00000000E+00  0.00000000E+00
  0.00000000E+00  0.00000000E+00  0.00000000E+00
  0.00000000E+00  0.00000000E+00  0.00000000E+00
  0.00000000E+00  0.00000000E+00  0.00000000E+00
  0.00000000E+00  0.00000000E+00  0.00000000E+00
  0.00000000E+00  0.00000000E+00  0.00000000E+00
  0.00000000E+00  0.00000000E+00  0.00000000E+00
  0.00000000E+00  0.00000000E+00  0.00000000E+00
  0.00000000E+00  0.00000000E+00  0.00000000E+00
  0.00000000E+00  0.00000000E+00  0.00000000E+00
  0.00000000E+00  0.00000000E+00  0.00000000E+00
  0.00000000E+00  0.00000000E+00  0.00000000E+00
  0.00000000E+00  0.00000000E+00  0.00000000E+00
  0.00000000E+00  0.00000000E+00  0.00000000E+00
  0.00000000E+00  0.00000000E+00  0.00000000E+00
  0.00000000E+00  0.00000000E+00  0.00000000E+00
  0.00000000E+00  0.00000000E+00  0.00000000E+00
  0.00000000E+00  0.00000000E+00  0.00000000E+00
  0.00000000E+00  0.00000000E+00  0.00000000E+00
  0.00000000E+00  0.00000000E+00  0.00000000E+00
  0.00000000E+00  0.00000000E+00  0.00000000E+00
  0.00000000E+00  0.00000000E+00  0.00000000E+00
  0.00000000E+00  0.00000000E+00  0.00000000E+00
  0.00000000E+00  0.00000000E+00  0.00000000E+00
  0.00000000E+00  0.00000000E+00  0.00000000E+00
  0.00000000E+00  0.00000000E+00  0.00000000E+00
  0.00000000E+00  0.00000000E+00  0.00000000E+00
  0.00000000E+00  0.00000000E+00  0.00000000E+00
  0.00000000E+00  0.00000000E+00  0.00000000E+00
  0.00000000E+00  0.00000000E+00  0.00000000E+00
  0.00000000E+00  0.00000000E+00  0.00000000E+00
  0.00000000E+00  0.00000000E+00  0.00000000E+00
  0.00000000E+00  0.00000000E+00  0.00000000E+00
  0.00000000E+00  0.00000000E+00  0.00000000E+00
  0.00000000E+00  0.00000000E+00  0.00000000E+00
  0.00000000E+00  0.00000000E+00  0.00000000E+00
  0.00000000E+00  0.00000000E+00  0.00000000E+00
