Amorphous Sb                            
   1.00000000000000     
    21.9413969107436451    0.0000000000000000    0.0000000000000000
     0.0000000000000000   21.9413969107436451    0.0000000000000000
     0.0000000000000000    0.0000000000000000   21.9413969107436451
   Sn   Te
   150   150
Direct
  0.1923999353831317  0.1196808620908872  0.9262004989199191
  0.4584285044485492  0.4626531826999954  0.0760487650960469
  0.8770632584050553  0.4698949127267000  0.4421195534773000
  0.1815189072258190  0.4382408724352861  0.2781707079880675
  0.6477734918327400  0.1988328043401366  0.3421834029944510
  0.2539943965148996  0.1470842649762162  0.2515105917600109
  0.9531588578425096  0.0286942005263449  0.1088275083462075
  0.2637758539805273  0.7075547222382216  0.1111719823745414
  0.4191277542483029  0.1237405821725568  0.3788218138057390
  0.1044483390211714  0.5467948141711161  0.0315545823009557
  0.8518157926814477  0.2824345631230623  0.4124087933866556
  0.6638675750415881  0.7576933517192472  0.8585994033533788
  0.7978229608551208  0.6204524443751971  0.8591336503780643
  0.2337429747620185  0.2662772317661695  0.3643353936295253
  0.2684414538208411  0.5965625404649287  0.3303874690508024
  0.9096880455161191  0.6821328466198926  0.4420646651210848
  0.1646250424835952  0.4260666216977283  0.9740189466068521
  0.5997315964904519  0.1737009372113992  0.8085663451645814
  0.5118642406595495  0.8670854164919424  0.6472427434687125
  0.3450011562061903  0.2133019114688516  0.5327609243752413
  0.0034677153527371  0.3397259586437005  0.6332854867322821
  0.0348107670508745  0.2011986206680058  0.5057704047459222
  0.7242778823916415  0.3450208796109971  0.5428833877859172
  0.6196721502405981  0.2395871323079624  0.5664809103649538
  0.0218959513723653  0.4568475099762724  0.3358169158079322
  0.3668676242803354  0.3385017221788728  0.6512769206611985
  0.8681492220522923  0.6031365043486342  0.0212038388550821
  0.9044196637415797  0.1777470209271877  0.9184147571568823
  0.1058196447563421  0.6595344567595119  0.7865199142850258
  0.9565966672551499  0.8622550108997346  0.8038685673807497
  0.3808205420244122  0.7516221149133594  0.1651444523536493
  0.6525564007917657  0.5304657981411670  0.5002990938498850
  0.2348029385024228  0.8404427477698211  0.8132924016646118
  0.6734604928050093  0.5905490146886025  0.2627348324310274
  0.5664926973068363  0.0694063240949318  0.3977338609876963
  0.9651092547477269  0.0115543517017823  0.5067102960713393
  0.7964086252178114  0.2798482132925155  0.8076026466425157
  0.7531627078871569  0.4290275118558227  0.8496494114808120
  0.5197338486550062  0.0371825310345015  0.9276946834273152
  0.4263972827062190  0.3694024061647359  0.2733862685353556
  0.2558690928874798  0.0058790540732955  0.6965304963543425
  0.4738090064372813  0.1094719698414164  0.5947785966586452
  0.8085336546635350  0.2940775910229773  0.0150280217341132
  0.0854189336142426  0.6622354847151668  0.1288718987688522
  0.8682553902643492  0.7381674618744530  0.1732664396344626
  0.2046848293311060  0.0812928827696682  0.5635322500757272
  0.3763761267680104  0.1225989379267318  0.0901376802712501
  0.4852024563602323  0.7743609484584625  0.8664956538697979
  0.0113358718014171  0.8472326546605794  0.0932778193345204
  0.2730520278497822  0.5376188173906232  0.1388561306162120
  0.2510280040919214  0.5723661200966772  0.6105691121184367
  0.9634627284120322  0.3888938376637769  0.1831258563338036
  0.1718164713147628  0.1304059295956497  0.3768632364442465
  0.6774566697536745  0.9639218591511304  0.6277604237925609
  0.0249807532187042  0.2036249429068318  0.6426582697427730
  0.1588939108738884  0.1857223591079321  0.6485253604525418
  0.0744362364635131  0.3283013526007914  0.2655858730239729
  0.9351374652377840  0.7433740365649136  0.9401254750252337
  0.8258289003373210  0.5092368875585646  0.2109911359304957
  0.0000871709091211  0.1063712748646495  0.3324730704004836
  0.1279398648082289  0.1705137669571258  0.1556096878416215
  0.7915240414226319  0.8041401101258777  0.8514995286125496
  0.4901183537280841  0.4397367001889068  0.5574326890622998
  0.0536738730644577  0.4721632612157394  0.5826911257688587
  0.6370974856658845  0.3344425920788595  0.1142636000533263
  0.5341479782607265  0.1566472435145866  0.1267817395787265
  0.4102443053763513  0.9689656298198810  0.8071207315145891
  0.8623161789617531  0.2056146975220234  0.6208085883403688
  0.4288591134310540  0.3104570692222847  0.4900578107551838
  0.4967677986202174  0.6352271870811868  0.9542161858684191
  0.8411170327156109  0.9389806893224008  0.8943970554886556
  0.9731951758259885  0.0657249061029608  0.6527666139849246
  0.4427573691429631  0.8140123306143447  0.3156659561838809
  0.4715134074171957  0.7927476113151155  0.0556138713382551
  0.3574443384541668  0.8479092938485606  0.6575873301521843
  0.1076029768698263  0.7633222084595086  0.6867471148039187
  0.9206985841863108  0.4735236552497787  0.6406979077347713
  0.7146151024228200  0.7448485834565065  0.2517787421734870
  0.7204327206638691  0.1667731798811391  0.1739137035496119
  0.0536864631641928  0.6397179489550233  0.6288445699651964
  0.2233543411571638  0.3099439840548047  0.9235774743484497
  0.5840168848814340  0.4381501568223833  0.9319285297498281
  0.5480551206436807  0.8825161101961546  0.4462168450381545
  0.3333558959447991  0.4151280931949463  0.9239299174612292
  0.4663486557166595  0.5592918012004394  0.2356868865194080
  0.0449096171504101  0.3747680237959983  0.0546758474238145
  0.3521918733075169  0.3100326377468339  0.1655300474853261
  0.2443116072527530  0.0353701657633696  0.1706193355287244
  0.2409990452611395  0.4537726427879282  0.7484917480570630
  0.6961926493097303  0.9020746099882073  0.4338613331946902
  0.4485814813390980  0.5778261697716270  0.3714907776213127
  0.5960097161042903  0.9607580439533934  0.2554193930067127
  0.7173963271681865  0.7523497264979983  0.4872641417510455
  0.2268766506105467  0.3048227094936491  0.6529206341681766
  0.7052324785086935  0.0604034633939405  0.9852305421178572
  0.2631050389037007  0.2718501679123425  0.7978499389455164
  0.8203926124051472  0.0232686211887619  0.7658869218914993
  0.9861512028910160  0.2408254606034348  0.0839279557640679
  0.6815323116278976  0.6303491705546517  0.9845724847380440
  0.6980503146600798  0.7636527617809843  0.6609498830957575
  0.4563765426008159  0.9609062712615460  0.0762688727841677
  0.8589466133345073  0.2108002966668249  0.2100925050828513
  0.1288164108993954  0.0179326085334250  0.7886184218547896
  0.2480444605845903  0.9362954798426506  0.5453077779521039
  0.2269803373467680  0.6159352824977130  0.0176240600218004
  0.1173395788013600  0.7586728478600380  0.5226789854282577
  0.7114042579874285  0.4793173071813453  0.0814255071971286
  0.3129192177538772  0.1188392889603747  0.7762132841221174
  0.1857383554748137  0.8978362268270995  0.1694598349648937
  0.9927508947185991  0.9699831756998600  0.8948948300406628
  0.3444912698191182  0.8443640555316536  0.5091757366156064
  0.6238872367595341  0.9003457228856973  0.0705827421350004
  0.6103383524763978  0.7111658988087051  0.3796794820129398
  0.1919068069670249  0.7353552885991000  0.9554982961934815
  0.4500564440101791  0.5947636933898794  0.5718234833529812
  0.3770635321511908  0.8959055463364169  0.9359603046291370
  0.9066475979867817  0.8620213210438935  0.5672228860709250
  0.9891182287482823  0.8166351957205669  0.2946129028083170
  0.3555789332846612  0.7093146055717582  0.5312810907585888
  0.4555538126335896  0.2031062543774231  0.8513813914498761
  0.2642205079378663  0.7738961033200047  0.3137349788859873
  0.1453089022068701  0.2838504551368168  0.0780948305162863
  0.6531047244305695  0.3548465579116812  0.6943645100809352
  0.1221449077604527  0.7015080587602502  0.3266213868042753
  0.5059740223488964  0.4700855629372953  0.7339590305456696
  0.3615945221449594  0.6834953745646616  0.7280217937599026
  0.8221719628170397  0.6314892734430263  0.3024825891530413
  0.0630453989329073  0.8975300990653873  0.6379394978029612
  0.5721177182021330  0.4169065391239734  0.3536023797944196
  0.3133796811651660  0.6131002992522266  0.9118252727739262
  0.3062367471661043  0.4217821589710740  0.5039642734568002
  0.2768518558922540  0.2852431144584975  0.0478064012332472
  0.6897360915322016  0.1101751044064993  0.6707414531895035
  0.4245933991542614  0.2450211754280754  0.0149120310076661
  0.0491757246463508  0.4605615489557369  0.7409045412726036
  0.4941705281448726  0.3318346621108851  0.8174018958246153
  0.9195965134903934  0.4612968777771042  0.9118571338570807
  0.9507836563751713  0.7087653277577145  0.7772723976210125
  0.7940904750736728  0.0833634846020135  0.4240207348677180
  0.6310121735452295  0.9377912454416589  0.8059471849380815
  0.7075695501595601  0.5698037913036386  0.7004709121788177
  0.8060217983391339  0.8871251585632065  0.0826125766664088
  0.0327582600180197  0.3202918090044619  0.8534097532524150
  0.1221810836292465  0.3346787836950525  0.4894436949064304
  0.3927204908977452  0.5597620247014493  0.8089565208423178
  0.1751561007576095  0.5855855629679910  0.4825687180805438
  0.1210341729567415  0.9610438697656009  0.3695668347451969
  0.0138578072790048  0.1992924590319422  0.7771102445713913
  0.8088875809337134  0.4005047546817097  0.6795610446240444
  0.0720213530689464  0.6106061737629104  0.9073627062650411
  0.2217898313228362  0.8797656760926054  0.6667957301905371
  0.3750619291566890  0.1901419770179684  0.2149894830869806
  0.4540568043989529  0.7148276228945102  0.6338140806699863
  0.3709857670982365  0.8103915708899134  0.7868328685734021
  0.7278320662637116  0.9269941476249868  0.9607702513646615
  0.6994803788810566  0.4666263605848403  0.2270909616044398
  0.3295192774444395  0.1887496902028930  0.8932517628362627
  0.8146128103560050  0.7645404353828773  0.5809075550018810
  0.5619515768981986  0.9837862353867851  0.6967880645574107
  0.7453767654403920  0.2358176188156307  0.6837602737390647
  0.1577470210377238  0.5578178036322684  0.7117661074256078
  0.9077616063590513  0.3865651733435181  0.3040806549177173
  0.1334170462255766  0.8888898620824127  0.4978859943474485
  0.7477613888850017  0.4949040079071100  0.4046077223307837
  0.9305826036787865  0.8744749891536968  0.9826653677700720
  0.1690069570315927  0.1535071327057136  0.7857062640680237
  0.3060624020309020  0.5511678807280364  0.4660611799568405
  0.7613270301992756  0.6363359573500920  0.4197392267024911
  0.0535408312903937  0.4617671779623287  0.8776080433436303
  0.5125829208680905  0.3536141306841804  0.6607309761411000
  0.7932637626790193  0.7156453565295057  0.9631738648855493
  0.1476909421757832  0.3551153803054934  0.7548100369183340
  0.5949887586011698  0.7405121929429633  0.9706125985529993
  0.3150337136503217  0.8551154780855279  0.2183783913389957
  0.0096610966278863  0.2214910611437383  0.2184352875379688
  0.6501287702192516  0.8462462635409131  0.3172892338912342
  0.8326939113342453  0.8888149584118007  0.4210636743717037
  0.9018749572862239  0.0425695703440660  0.9585724574901664
  0.3909989063288891  0.7206671964495741  0.9623454869527964
  0.5794431092254874  0.5209638150810715  0.0401644886328112
  0.3072853432166476  0.4834483486840284  0.2598425230454641
  0.0000418426407162  0.0647678496686693  0.7873213419854201
  0.0725887862456443  0.9635537399931595  0.1107409840907414
  0.7508811506423703  0.4937428567539471  0.5939119484104918
  0.6762206032240121  0.1250166160642492  0.5190747336170219
  0.2142300963162315  0.3953920353891565  0.4070662813937615
  0.6439282165495281  0.3017643792832584  0.8180648631104415
  0.3920971303788311  0.0333063117155465  0.9666895597935805
  0.1052578208757002  0.0233911916109485  0.6428036543680662
  0.5877745467106367  0.0324767329638561  0.0506525554556717
  0.7192618540344838  0.9517637620578228  0.1645326172509696
  0.2300044848088929  0.8584107321821762  0.9449225333132426
  0.0868233247697489  0.2565916511939144  0.3770443967362897
  0.6289583397140096  0.8470885716624819  0.5783527974242526
  0.5161869573930667  0.8874135353811058  0.9607700201294226
  0.3795594034518012  0.0203154482597903  0.1756853136905026
  0.0144540700242568  0.6929357778874873  0.2403703316444447
  0.8629889971328699  0.1805705602688671  0.0729996539203867
  0.2172223377070455  0.2252335623407821  0.5086447225553086
  0.8526387456856100  0.9894382716737422  0.3309042273174321
  0.4860562100853058  0.2925357709862785  0.1230651435480291
  0.1155059126385611  0.0603327889969449  0.2732471715085610
  0.7761138193760102  0.6024415970308236  0.1240351948902426
  0.3359679438180422  0.8680509090078404  0.3805324748861476
  0.0117149587137277  0.4089558038242961  0.4730307128465673
  0.4933102070985758  0.9647010734705137  0.3500888843322431
  0.8260876581153979  0.0660185969125112  0.6378734819760752
  0.5678944854215267  0.1821067573563313  0.6758711526435103
  0.1190999654928993  0.4580595059235383  0.1440359297470000
  0.6635148730543299  0.6264424507104940  0.8469364180878306
  0.7748184311677817  0.5163007611395177  0.9538914342837594
  0.9772921584287698  0.7527303843512333  0.6487507498866342
  0.3804041477069300  0.6932144911654935  0.2862744673027715
  0.4929485024114771  0.7586536210242786  0.4296888947468023
  0.8711436347402470  0.5578071123016864  0.5492927555337122
  0.3881218086953926  0.9812651569483934  0.6739427167710433
  0.6967229077306804  0.0789003201769083  0.8079683771777677
  0.6892000107302384  0.0164652764234640  0.3595610852091170
  0.0685512252953306  0.7495781039742017  0.9101262821410102
  0.1151278027927434  0.0057130343185724  0.9280190518045291
  0.5276853486491992  0.2877590496666831  0.3191910616678308
  0.4026325423012092  0.5826715937184177  0.1223937414069515
  0.4558810295984267  0.0965159571453682  0.7776238496179001
  0.7701577030778078  0.0557311161985621  0.1073419249441987
  0.2789824597696645  0.9911978348187789  0.8321056566142826
  0.7793724928853399  0.2204346878062821  0.5125418439440478
  0.4118113842222185  0.5204167280584314  0.9484526177479990
  0.1509003064565165  0.7786450279230234  0.0976193879490982
  0.9395438897430665  0.6055674410175172  0.8917766435406375
  0.9721912359707973  0.5814661418541892  0.7181442397134111
  0.2823761761387819  0.4206549385712869  0.0523911532027410
  0.6456948908121102  0.3051268790950530  0.2592257628978745
  0.7421791724042609  0.7746214235795045  0.1211025412138081
  0.6469933860257073  0.2060052800258713  0.0708118728380222
  0.5837839770816184  0.5732734299374386  0.3703949479713924
  0.0874402180139989  0.8686909791198756  0.7763377646798075
  0.3211290401726691  0.0431748090463195  0.3131319696450498
  0.6428546840477773  0.4705634755127268  0.7705488319821689
  0.8482308111750798  0.4161332785071932  0.1079986684926924
  0.1992055298991826  0.4239546387788143  0.5871592246068545
  0.1390642524544596  0.8554888507635179  0.2893977660160628
  0.5595945891516985  0.5368349683430408  0.6291026189572098
  0.4416395448552614  0.4425555433334542  0.3883956049081039
  0.3669997170001970  0.0882616300723852  0.4984000435827207
  0.7870808182093034  0.1885252139254707  0.3340296356014274
  0.4528436581843909  0.9208339506914867  0.5310564236916848
  0.8168822204784038  0.7126150449331240  0.7582134741895452
  0.9443375595166210  0.3619556507422757  0.7538597559113649
  0.9800142039974061  0.9734157428506114  0.3723449573697426
  0.2053774498745281  0.3098618366186843  0.2269459829205109
  0.3717254594951820  0.5274091566557183  0.6591584255309485
  0.7391935994083819  0.3593961836288421  0.4086242544291181
  0.5279806254025967  0.8767157098235223  0.1643778425264837
  0.7459446764691792  0.9068328360623875  0.7382131618775297
  0.9115614291743609  0.8688507109050527  0.1801889950479232
  0.9303452136359230  0.5702348909309110  0.3629370597588401
  0.9548118305200891  0.7007777999361139  0.0669721907821313
  0.5988108625148791  0.4009355583586333  0.4909533535439589
  0.2277121463332517  0.7010062234706199  0.8244908956136366
  0.5769152402650874  0.0335793013207662  0.5273502748192840
  0.3626880551497070  0.3685894301244036  0.7834465165677571
  0.9309880925612618  0.9284667625141075  0.6873878457904333
  0.5108720714841301  0.2031447979858069  0.4977096156995334
  0.9504295485676676  0.4951270318912035  0.0407581863918788
  0.8249251358080123  0.9693096522041992  0.5279806402265275
  0.9215645476148824  0.1335837194010419  0.4772939731797091
  0.5183830046356765  0.4428893084811208  0.2063505230793606
  0.2054401908990072  0.6403273723520710  0.2078114791532713
  0.0156104240574600  0.5123656027149399  0.2017057764933971
  0.0427947538037789  0.1222120249816011  0.0630026226834159
  0.8172165865091512  0.5185366708368604  0.7685892273376721
  0.2317727094400908  0.4998644530907818  0.8778299172105752
  0.4717025606602554  0.3571785632224757  0.9489539186543149
  0.0302171187925585  0.7496538860085563  0.4168378275084930
  0.2659058795943338  0.7075656958002625  0.6334271961471604
  0.1184667997995273  0.2331334891787044  0.9507380992929068
  0.2408313030642046  0.1203893067692665  0.0653043214518054
  0.3693881893398099  0.2033792800978473  0.6617941388439781
  0.2205923218050276  0.7100246907669739  0.4541875560425563
  0.5763603370570123  0.7340025220966572  0.2460847941227083
  0.5843172782831731  0.8061977606155434  0.7678317080060185
  0.6820347920509620  0.3661179306339065  0.9845161838975006
  0.4987278223927495  0.6398565175582892  0.8177559191454341
  0.9083686962644384  0.0793896715429354  0.2351359444365852
  0.6111135501630121  0.1164747816088757  0.2377536939837819
  0.8626189880615444  0.7583039549674496  0.3271759840126467
  0.8795756857080597  0.3440468026691429  0.5728210496357390
  0.5706336973444501  0.6219728338529442  0.1800360514551932
  0.9342952592230337  0.3216259859134846  0.9487604286516469
  0.0932052360796695  0.0831434363628560  0.4815687543414698
  0.7727100488594955  0.2038520039201559  0.9199057487111717
  0.6563317710743798  0.6703045163268230  0.5695883530757676
  0.3583456727687132  0.8681305610757901  0.0642315982323708
  0.1341469866936101  0.5643762880927383  0.3556785239782888
  0.0000212627843731  0.5917533691163201  0.5182430565237471
  0.5278715565939200  0.1735620774184354  0.9567852126947515
  0.8805790779779614  0.1753654999435333  0.7820242341352963
  0.3808733811128535  0.2596125892081281  0.3753670127739843
  0.2399829275465300  0.0143077234399824  0.4121472133964786
  0.7674179528053018  0.3230046111400103  0.1663884804302843
 
  0.00000000E+00  0.00000000E+00  0.00000000E+00
  0.00000000E+00  0.00000000E+00  0.00000000E+00
  0.00000000E+00  0.00000000E+00  0.00000000E+00
  0.00000000E+00  0.00000000E+00  0.00000000E+00
  0.00000000E+00  0.00000000E+00  0.00000000E+00
  0.00000000E+00  0.00000000E+00  0.00000000E+00
  0.00000000E+00  0.00000000E+00  0.00000000E+00
  0.00000000E+00  0.00000000E+00  0.00000000E+00
  0.00000000E+00  0.00000000E+00  0.00000000E+00
  0.00000000E+00  0.00000000E+00  0.00000000E+00
  0.00000000E+00  0.00000000E+00  0.00000000E+00
  0.00000000E+00  0.00000000E+00  0.00000000E+00
  0.00000000E+00  0.00000000E+00  0.00000000E+00
  0.00000000E+00  0.00000000E+00  0.00000000E+00
  0.00000000E+00  0.00000000E+00  0.00000000E+00
  0.00000000E+00  0.00000000E+00  0.00000000E+00
  0.00000000E+00  0.00000000E+00  0.00000000E+00
  0.00000000E+00  0.00000000E+00  0.00000000E+00
  0.00000000E+00  0.00000000E+00  0.00000000E+00
  0.00000000E+00  0.00000000E+00  0.00000000E+00
  0.00000000E+00  0.00000000E+00  0.00000000E+00
  0.00000000E+00  0.00000000E+00  0.00000000E+00
  0.00000000E+00  0.00000000E+00  0.00000000E+00
  0.00000000E+00  0.00000000E+00  0.00000000E+00
  0.00000000E+00  0.00000000E+00  0.00000000E+00
  0.00000000E+00  0.00000000E+00  0.00000000E+00
  0.00000000E+00  0.00000000E+00  0.00000000E+00
  0.00000000E+00  0.00000000E+00  0.00000000E+00
  0.00000000E+00  0.00000000E+00  0.00000000E+00
  0.00000000E+00  0.00000000E+00  0.00000000E+00
  0.00000000E+00  0.00000000E+00  0.00000000E+00
  0.00000000E+00  0.00000000E+00  0.00000000E+00
  0.00000000E+00  0.00000000E+00  0.00000000E+00
  0.00000000E+00  0.00000000E+00  0.00000000E+00
  0.00000000E+00  0.00000000E+00  0.00000000E+00
  0.00000000E+00  0.00000000E+00  0.00000000E+00
  0.00000000E+00  0.00000000E+00  0.00000000E+00
  0.00000000E+00  0.00000000E+00  0.00000000E+00
  0.00000000E+00  0.00000000E+00  0.00000000E+00
  0.00000000E+00  0.00000000E+00  0.00000000E+00
  0.00000000E+00  0.00000000E+00  0.00000000E+00
  0.00000000E+00  0.00000000E+00  0.00000000E+00
  0.00000000E+00  0.00000000E+00  0.00000000E+00
  0.00000000E+00  0.00000000E+00  0.00000000E+00
  0.00000000E+00  0.00000000E+00  0.00000000E+00
  0.00000000E+00  0.00000000E+00  0.00000000E+00
  0.00000000E+00  0.00000000E+00  0.00000000E+00
  0.00000000E+00  0.00000000E+00  0.00000000E+00
  0.00000000E+00  0.00000000E+00  0.00000000E+00
  0.00000000E+00  0.00000000E+00  0.00000000E+00
  0.00000000E+00  0.00000000E+00  0.00000000E+00
  0.00000000E+00  0.00000000E+00  0.00000000E+00
  0.00000000E+00  0.00000000E+00  0.00000000E+00
  0.00000000E+00  0.00000000E+00  0.00000000E+00
  0.00000000E+00  0.00000000E+00  0.00000000E+00
  0.00000000E+00  0.00000000E+00  0.00000000E+00
  0.00000000E+00  0.00000000E+00  0.00000000E+00
  0.00000000E+00  0.00000000E+00  0.00000000E+00
  0.00000000E+00  0.00000000E+00  0.00000000E+00
  0.00000000E+00  0.00000000E+00  0.00000000E+00
  0.00000000E+00  0.00000000E+00  0.00000000E+00
  0.00000000E+00  0.00000000E+00  0.00000000E+00
  0.00000000E+00  0.00000000E+00  0.00000000E+00
  0.00000000E+00  0.00000000E+00  0.00000000E+00
  0.00000000E+00  0.00000000E+00  0.00000000E+00
  0.00000000E+00  0.00000000E+00  0.00000000E+00
  0.00000000E+00  0.00000000E+00  0.00000000E+00
  0.00000000E+00  0.00000000E+00  0.00000000E+00
  0.00000000E+00  0.00000000E+00  0.00000000E+00
  0.00000000E+00  0.00000000E+00  0.00000000E+00
  0.00000000E+00  0.00000000E+00  0.00000000E+00
  0.00000000E+00  0.00000000E+00  0.00000000E+00
  0.00000000E+00  0.00000000E+00  0.00000000E+00
  0.00000000E+00  0.00000000E+00  0.00000000E+00
  0.00000000E+00  0.00000000E+00  0.00000000E+00
  0.00000000E+00  0.00000000E+00  0.00000000E+00
  0.00000000E+00  0.00000000E+00  0.00000000E+00
  0.00000000E+00  0.00000000E+00  0.00000000E+00
  0.00000000E+00  0.00000000E+00  0.00000000E+00
  0.00000000E+00  0.00000000E+00  0.00000000E+00
  0.00000000E+00  0.00000000E+00  0.00000000E+00
  0.00000000E+00  0.00000000E+00  0.00000000E+00
  0.00000000E+00  0.00000000E+00  0.00000000E+00
  0.00000000E+00  0.00000000E+00  0.00000000E+00
  0.00000000E+00  0.00000000E+00  0.00000000E+00
  0.00000000E+00  0.00000000E+00  0.00000000E+00
  0.00000000E+00  0.00000000E+00  0.00000000E+00
  0.00000000E+00  0.00000000E+00  0.00000000E+00
  0.00000000E+00  0.00000000E+00  0.00000000E+00
  0.00000000E+00  0.00000000E+00  0.00000000E+00
  0.00000000E+00  0.00000000E+00  0.00000000E+00
  0.00000000E+00  0.00000000E+00  0.00000000E+00
  0.00000000E+00  0.00000000E+00  0.00000000E+00
  0.00000000E+00  0.00000000E+00  0.00000000E+00
  0.00000000E+00  0.00000000E+00  0.00000000E+00
  0.00000000E+00  0.00000000E+00  0.00000000E+00
  0.00000000E+00  0.00000000E+00  0.00000000E+00
  0.00000000E+00  0.00000000E+00  0.00000000E+00
  0.00000000E+00  0.00000000E+00  0.00000000E+00
  0.00000000E+00  0.00000000E+00  0.00000000E+00
  0.00000000E+00  0.00000000E+00  0.00000000E+00
  0.00000000E+00  0.00000000E+00  0.00000000E+00
  0.00000000E+00  0.00000000E+00  0.00000000E+00
  0.00000000E+00  0.00000000E+00  0.00000000E+00
  0.00000000E+00  0.00000000E+00  0.00000000E+00
  0.00000000E+00  0.00000000E+00  0.00000000E+00
  0.00000000E+00  0.00000000E+00  0.00000000E+00
  0.00000000E+00  0.00000000E+00  0.00000000E+00
  0.00000000E+00  0.00000000E+00  0.00000000E+00
  0.00000000E+00  0.00000000E+00  0.00000000E+00
  0.00000000E+00  0.00000000E+00  0.00000000E+00
  0.00000000E+00  0.00000000E+00  0.00000000E+00
  0.00000000E+00  0.00000000E+00  0.00000000E+00
  0.00000000E+00  0.00000000E+00  0.00000000E+00
  0.00000000E+00  0.00000000E+00  0.00000000E+00
  0.00000000E+00  0.00000000E+00  0.00000000E+00
  0.00000000E+00  0.00000000E+00  0.00000000E+00
  0.00000000E+00  0.00000000E+00  0.00000000E+00
  0.00000000E+00  0.00000000E+00  0.00000000E+00
  0.00000000E+00  0.00000000E+00  0.00000000E+00
  0.00000000E+00  0.00000000E+00  0.00000000E+00
  0.00000000E+00  0.00000000E+00  0.00000000E+00
  0.00000000E+00  0.00000000E+00  0.00000000E+00
  0.00000000E+00  0.00000000E+00  0.00000000E+00
  0.00000000E+00  0.00000000E+00  0.00000000E+00
  0.00000000E+00  0.00000000E+00  0.00000000E+00
  0.00000000E+00  0.00000000E+00  0.00000000E+00
  0.00000000E+00  0.00000000E+00  0.00000000E+00
  0.00000000E+00  0.00000000E+00  0.00000000E+00
  0.00000000E+00  0.00000000E+00  0.00000000E+00
  0.00000000E+00  0.00000000E+00  0.00000000E+00
  0.00000000E+00  0.00000000E+00  0.00000000E+00
  0.00000000E+00  0.00000000E+00  0.00000000E+00
  0.00000000E+00  0.00000000E+00  0.00000000E+00
  0.00000000E+00  0.00000000E+00  0.00000000E+00
  0.00000000E+00  0.00000000E+00  0.00000000E+00
  0.00000000E+00  0.00000000E+00  0.00000000E+00
  0.00000000E+00  0.00000000E+00  0.00000000E+00
  0.00000000E+00  0.00000000E+00  0.00000000E+00
  0.00000000E+00  0.00000000E+00  0.00000000E+00
  0.00000000E+00  0.00000000E+00  0.00000000E+00
  0.00000000E+00  0.00000000E+00  0.00000000E+00
  0.00000000E+00  0.00000000E+00  0.00000000E+00
  0.00000000E+00  0.00000000E+00  0.00000000E+00
  0.00000000E+00  0.00000000E+00  0.00000000E+00
  0.00000000E+00  0.00000000E+00  0.00000000E+00
  0.00000000E+00  0.00000000E+00  0.00000000E+00
  0.00000000E+00  0.00000000E+00  0.00000000E+00
  0.00000000E+00  0.00000000E+00  0.00000000E+00
  0.00000000E+00  0.00000000E+00  0.00000000E+00
  0.00000000E+00  0.00000000E+00  0.00000000E+00
  0.00000000E+00  0.00000000E+00  0.00000000E+00
  0.00000000E+00  0.00000000E+00  0.00000000E+00
  0.00000000E+00  0.00000000E+00  0.00000000E+00
  0.00000000E+00  0.00000000E+00  0.00000000E+00
  0.00000000E+00  0.00000000E+00  0.00000000E+00
  0.00000000E+00  0.00000000E+00  0.00000000E+00
  0.00000000E+00  0.00000000E+00  0.00000000E+00
  0.00000000E+00  0.00000000E+00  0.00000000E+00
  0.00000000E+00  0.00000000E+00  0.00000000E+00
  0.00000000E+00  0.00000000E+00  0.00000000E+00
  0.00000000E+00  0.00000000E+00  0.00000000E+00
  0.00000000E+00  0.00000000E+00  0.00000000E+00
  0.00000000E+00  0.00000000E+00  0.00000000E+00
  0.00000000E+00  0.00000000E+00  0.00000000E+00
  0.00000000E+00  0.00000000E+00  0.00000000E+00
  0.00000000E+00  0.00000000E+00  0.00000000E+00
  0.00000000E+00  0.00000000E+00  0.00000000E+00
  0.00000000E+00  0.00000000E+00  0.00000000E+00
  0.00000000E+00  0.00000000E+00  0.00000000E+00
  0.00000000E+00  0.00000000E+00  0.00000000E+00
  0.00000000E+00  0.00000000E+00  0.00000000E+00
  0.00000000E+00  0.00000000E+00  0.00000000E+00
  0.00000000E+00  0.00000000E+00  0.00000000E+00
  0.00000000E+00  0.00000000E+00  0.00000000E+00
  0.00000000E+00  0.00000000E+00  0.00000000E+00
  0.00000000E+00  0.00000000E+00  0.00000000E+00
  0.00000000E+00  0.00000000E+00  0.00000000E+00
  0.00000000E+00  0.00000000E+00  0.00000000E+00
  0.00000000E+00  0.00000000E+00  0.00000000E+00
  0.00000000E+00  0.00000000E+00  0.00000000E+00
  0.00000000E+00  0.00000000E+00  0.00000000E+00
  0.00000000E+00  0.00000000E+00  0.00000000E+00
  0.00000000E+00  0.00000000E+00  0.00000000E+00
  0.00000000E+00  0.00000000E+00  0.00000000E+00
  0.00000000E+00  0.00000000E+00  0.00000000E+00
  0.00000000E+00  0.00000000E+00  0.00000000E+00
  0.00000000E+00  0.00000000E+00  0.00000000E+00
  0.00000000E+00  0.00000000E+00  0.00000000E+00
  0.00000000E+00  0.00000000E+00  0.00000000E+00
  0.00000000E+00  0.00000000E+00  0.00000000E+00
  0.00000000E+00  0.00000000E+00  0.00000000E+00
  0.00000000E+00  0.00000000E+00  0.00000000E+00
  0.00000000E+00  0.00000000E+00  0.00000000E+00
  0.00000000E+00  0.00000000E+00  0.00000000E+00
  0.00000000E+00  0.00000000E+00  0.00000000E+00
  0.00000000E+00  0.00000000E+00  0.00000000E+00
  0.00000000E+00  0.00000000E+00  0.00000000E+00
  0.00000000E+00  0.00000000E+00  0.00000000E+00
  0.00000000E+00  0.00000000E+00  0.00000000E+00
  0.00000000E+00  0.00000000E+00  0.00000000E+00
  0.00000000E+00  0.00000000E+00  0.00000000E+00
  0.00000000E+00  0.00000000E+00  0.00000000E+00
  0.00000000E+00  0.00000000E+00  0.00000000E+00
  0.00000000E+00  0.00000000E+00  0.00000000E+00
  0.00000000E+00  0.00000000E+00  0.00000000E+00
  0.00000000E+00  0.00000000E+00  0.00000000E+00
  0.00000000E+00  0.00000000E+00  0.00000000E+00
  0.00000000E+00  0.00000000E+00  0.00000000E+00
  0.00000000E+00  0.00000000E+00  0.00000000E+00
  0.00000000E+00  0.00000000E+00  0.00000000E+00
  0.00000000E+00  0.00000000E+00  0.00000000E+00
  0.00000000E+00  0.00000000E+00  0.00000000E+00
  0.00000000E+00  0.00000000E+00  0.00000000E+00
  0.00000000E+00  0.00000000E+00  0.00000000E+00
  0.00000000E+00  0.00000000E+00  0.00000000E+00
  0.00000000E+00  0.00000000E+00  0.00000000E+00
  0.00000000E+00  0.00000000E+00  0.00000000E+00
  0.00000000E+00  0.00000000E+00  0.00000000E+00
  0.00000000E+00  0.00000000E+00  0.00000000E+00
  0.00000000E+00  0.00000000E+00  0.00000000E+00
  0.00000000E+00  0.00000000E+00  0.00000000E+00
  0.00000000E+00  0.00000000E+00  0.00000000E+00
  0.00000000E+00  0.00000000E+00  0.00000000E+00
  0.00000000E+00  0.00000000E+00  0.00000000E+00
  0.00000000E+00  0.00000000E+00  0.00000000E+00
  0.00000000E+00  0.00000000E+00  0.00000000E+00
  0.00000000E+00  0.00000000E+00  0.00000000E+00
  0.00000000E+00  0.00000000E+00  0.00000000E+00
  0.00000000E+00  0.00000000E+00  0.00000000E+00
  0.00000000E+00  0.00000000E+00  0.00000000E+00
  0.00000000E+00  0.00000000E+00  0.00000000E+00