Amorphous GeAsSeSi                      
   1.00000000000000     
    18.6136188657994737    0.0000000000000000    0.0000000000000000
     0.0000000000000000   18.6136188657994737    0.0000000000000000
     0.0000000000000000    0.0000000000000000   18.6136188657994737
   Ge   N    Se
   108    24   108
Direct
  0.4130600363076091  0.9925997732699328  0.8685071226669333
  0.0715415800342512  0.7152928977448255  0.4207040295055801
  0.5484623663151968  0.9824553778795811  0.4869536162891734
  0.8082687813479964  0.0544468858335600  0.1234076540482167
  0.4529399741597995  0.3021858722671432  0.5741451895202735
  0.5796438723380753  0.7795297642203859  0.3293992323749946
  0.8372545771690414  0.2184223097571409  0.5229410677126086
  0.1006872859636980  0.3176752951763565  0.3886977246993826
  0.1334893840318543  0.4250863562822200  0.1218611194378269
  0.8971929669649693  0.0017738840995303  0.9027184337237508
  0.1454089523189535  0.2488023832227079  0.2062612182904001
  0.9549492470019852  0.3896385677019470  0.7848931113351024
  0.8374484929305802  0.0206189113929450  0.5980541046370865
  0.0799061246372672  0.3744364628523673  0.8962762189551994
  0.1778384671029840  0.9813638722223534  0.2742161826710938
  0.2987602017693793  0.2225217225195348  0.8928411156647009
  0.3857904816137899  0.6780786569391368  0.9278388921237628
  0.2719487805354253  0.3995789634328279  0.8777124865041680
  0.4864083411957023  0.2987947943353867  0.0900713655331874
  0.6326303233324080  0.8397557211044105  0.4496677052218702
  0.9258507558470994  0.3552640620891350  0.1598869066925484
  0.5933591525653400  0.4737289305921678  0.9232829751890413
  0.7045120007619052  0.9578290149878822  0.0249856683989755
  0.6171362531910690  0.9592988635817061  0.3117332440662808
  0.7130816637610484  0.8049294124556400  0.6935303926305402
  0.8386582627180699  0.1637229141035778  0.8998975574520538
  0.7430915271769327  0.3806555874365513  0.6802099037894955
  0.5310063256379171  0.8021470750980946  0.0889680892244444
  0.0791702881949945  0.0087427323265751  0.9771309060670618
  0.6200829710665816  0.3098586367772387  0.0703896921730308
  0.5075207546106513  0.3419083031980242  0.7042371739860480
  0.2171054346217169  0.9903659694049309  0.5493202989961706
  0.1171736574634901  0.0443990862326367  0.3866609669060874
  0.5931050599576959  0.6877863117717251  0.7149598500169361
  0.8792047547294868  0.6502034620355126  0.8417240125111775
  0.4875639570356596  0.3827494703077798  0.9318729369716450
  0.6627511754512553  0.2311857114919360  0.7325819659919146
  0.3865881513536264  0.7493933339165456  0.7522284621964921
  0.0003309693730735  0.1055019637937001  0.6689903972030629
  0.6141532560016524  0.3825293414010950  0.2460903756310985
  0.9118078709142682  0.0462235464813597  0.7612443135870228
  0.1564673030382190  0.6239296830774769  0.0338126952098113
  0.3406427712337801  0.0138001367181906  0.3960603850729044
  0.8470940338547137  0.8976927588857974  0.4133023216692616
  0.2793341880055935  0.7275636884640386  0.6141931090313769
  0.9357345442061489  0.4754822641791718  0.0208844149061456
  0.9936122650185067  0.2629718752871471  0.6464371935950143
  0.7086089975789861  0.4831791020915521  0.4722483516737312
  0.7855583609194510  0.5065887177624291  0.1603425231517024
  0.1406613884357130  0.1152887752596937  0.1567753971680605
  0.9892147786132348  0.4336889478501126  0.3809362555915529
  0.7405190751368806  0.3346103071601894  0.9154796936557483
  0.8877203516504322  0.0473404563889483  0.4010097682916827
  0.2392895844934010  0.8395619361140833  0.8554849593132816
  0.0683455265826109  0.9641387202095396  0.8358895463404004
  0.4258958151682213  0.8240090278661167  0.3760265121192198
  0.4108438876145115  0.4963401257891601  0.8068997442617382
  0.7135118346705362  0.0067784097997469  0.4358383308609828
  0.8274712307814465  0.3620440264774208  0.2910112659940241
  0.4069646176301893  0.4410947793515829  0.2519278385750341
  0.0576119004927563  0.8415117665770373  0.0492671646651090
  0.2335658628463159  0.0566761184655001  0.8710607270714028
  0.7852456747334400  0.8120701630706189  0.2553989738685591
  0.9843127035857526  0.1724249349459974  0.0555736341874489
  0.5433088509125051  0.0780061408964608  0.2809644388182261
  0.0201572336328244  0.6427857421200210  0.1240867336648050
  0.1715898137328823  0.9446918830184856  0.1158039818911466
  0.1755315807918079  0.1914916691611604  0.7701265362585599
  0.1031522597036529  0.6707118322026309  0.6133866564170511
  0.2893715747284220  0.8022904333087887  0.3904869999483105
  0.6012674095383995  0.6349525830971380  0.0154004994265154
  0.9058642004220496  0.8635551850435506  0.0264191267920704
  0.7864979445461542  0.5739722540149991  0.6381753658076459
  0.3685049805604633  0.2481301222961251  0.3017585407332168
  0.4531924172452050  0.6885157582121236  0.5492196908360570
  0.9184900939686089  0.8105086288390172  0.5619465955616337
  0.9945067606481762  0.7016889099152487  0.9595905490354923
  0.0219623267308876  0.5537659971017955  0.9340680474393824
  0.7502056914310596  0.7205058287777478  0.9294621187745870
  0.6660802615957236  0.3147767012442089  0.3589875369994701
  0.6161404297627516  0.5422378401218325  0.1278120789323012
  0.0883270303532239  0.3646047317984096  0.6576444398679040
  0.4022511019451412  0.3284833280700564  0.8004763976445617
  0.7401521995778286  0.6702555225804645  0.1711288177138733
  0.6332621673205704  0.8376869531860820  0.1789581478893439
  0.7882338768311841  0.2168796323757023  0.3932622110650268
  0.9878210865341877  0.4933937132071426  0.5701164436328126
  0.2628311049421764  0.7980920296265136  0.1596661653889081
  0.4354526121409217  0.6964539123117979  0.2576451540750288
  0.4499063276693284  0.3918430929389332  0.4197568760338675
  0.1912520115642344  0.4552927309541359  0.9982470144961328
  0.3882340689169482  0.5167946140476328  0.5879480191181298
  0.8543175943440551  0.6021293794991051  0.2833998268821294
  0.3399881152837677  0.3730660646676929  0.0362438344714850
  0.6272688958437941  0.2673976373978778  0.5747217091723569
  0.9249963820968803  0.8729685054814850  0.7781573463202693
  0.2153815364421626  0.1195434414843895  0.6096531647195194
  0.9513290737380253  0.2097827046085290  0.2427089921397070
  0.3153569832980504  0.1676656840379858  0.1097345554923174
  0.0049572204810540  0.8894967008349272  0.4410504669822186
  0.1946510425026408  0.2795085826788149  0.5338338631807119
  0.9606280359749210  0.6523398906025757  0.6826573291342910
  0.9465192165089448  0.7676103361869009  0.3247989401406651
  0.1402149701910716  0.4400587654487089  0.5119787129263013
  0.4677675398310320  0.8988869436355695  0.2617960701393381
  0.2789629037947979  0.9039690242309217  0.7365991732333320
  0.3114406479235649  0.5536840314036657  0.9787688472775107
  0.6744626118837591  0.5805012721056698  0.8395651667677756
  0.9676325659021515  0.6300349647238673  0.8933790470213087
  0.0178285799349157  0.8007776332231761  0.3870887671447787
  0.4162670148629133  0.4125187276417075  0.8623434479098487
  0.6235186246764542  0.9447948572907157  0.4172059749237348
  0.5746497168292523  0.8722235464071677  0.2679791174408141
  0.4815083163894725  0.7492340744540738  0.3355078494009049
  0.8676178336448465  0.0814218769750062  0.8472858030422387
  0.0536569763238929  0.6293060089755417  0.0094781623316747
  0.0986948337398792  0.9362104798441401  0.0461816889559096
  0.3069333541983180  0.3098721426746193  0.8425445109007914
  0.2337274615140064  0.1590508314662627  0.8515590366594702
  0.2973973427831594  0.4417901717676122  0.9730970384207605
  0.7142309897839558  0.5728526882591908  0.1394842440303725
  0.1761869402053395  0.0239160696278659  0.1791705280200510
  0.9631339538544389  0.9739822798724554  0.8238205441657456
  0.1772609857379319  0.3969667234264567  0.9148779262406046
  0.7690663318115397  0.3096657757530249  0.3551379718437740
  0.6786412621190321  0.3029035212879342  0.6559095850890959
  0.8674517145076505  0.5595691230592421  0.1870486250126748
  0.1619304162548895  0.3497385215767927  0.4654313123904604
  0.0080375296351936  0.6315047247163220  0.5901886567146837
  0.4377335490393964  0.3607624406783655  0.0238007417353336
  0.2059536457951068  0.5559087899207394  0.9782652781006304
  0.0715727814412434  0.4348902512081871  0.5853060414524583
  0.4615457263225392  0.0118775927717660  0.1986734737211066
  0.4985543442331180  0.8535736603996331  0.4864847135287581
  0.8838076252406898  0.4268862041790316  0.8803055620312731
  0.6519507984312306  0.3957452968898189  0.8323150307635288
  0.3023023092860648  0.9327515779737934  0.2994458823641000
  0.3266994379095495  0.0239581932408258  0.7640115372420679
  0.4566265062536291  0.7938389686217796  0.8565746124119383
  0.0464124773217974  0.8104663454086929  0.9138542862341650
  0.0038538479760936  0.8798112603091998  0.6489065562158841
  0.4684739837091010  0.2596536206296727  0.4498950219976371
  0.8487875597365963  0.1351720244077175  0.3017175730347055
  0.1390886278851390  0.2085988372637720  0.3356019954087354
  0.8729096074093963  0.4778800413601717  0.3622833603383164
  0.1104587999804956  0.1819054622273560  0.5482549352898745
  0.1857203405783683  0.9094706262272628  0.6482534962482879
  0.0804923868853457  0.4045110326874579  0.2926975860325158
  0.3752650377588312  0.8450264463823699  0.6658351926013482
  0.4490691502417495  0.1761016398699173  0.1010501471790994
  0.1345214184034654  0.5634242514072962  0.1503581459236459
  0.9800830105066449  0.9920532281387172  0.5863787251446789
  0.4807796955318895  0.6848856698601244  0.0479174392774367
  0.6049146736300478  0.9871372580759776  0.1044569197032721
  0.2742715639297299  0.7186142296380322  0.8111294558996940
  0.3544098676358963  0.5497506109768868  0.1085571243675908
  0.9491126789058201  0.0336665400394351  0.0180281101183661
  0.8248358764729568  0.4117885658386448  0.0773390103532424
  0.6550096517207595  0.2391945373083343  0.9729402063127088
  0.3913549893738018  0.6454259151053945  0.6727730622549596
  0.7572641412952246  0.0717105431648482  0.9960522116914310
  0.4989511817527768  0.2639919386638645  0.8683419812466431
  0.9632289575089061  0.6825129638614403  0.5129300062973696
  0.6210161249022200  0.5535757618250556  0.5690955336710626
  0.2837787955381694  0.9086590619404220  0.0718867653908980
  0.9578581627324512  0.5248147876433488  0.1588375194408467
  0.6323604958882263  0.7481965821296995  0.5970627729301576
  0.5313695487235187  0.8933489104308397  0.9865969512006428
  0.0568658852226240  0.5227435709842406  0.4462251436290992
  0.0807401928800491  0.2336531214724435  0.8639106536865004
  0.2822441504509401  0.4925388836393396  0.7876813982027870
  0.7832906921205492  0.5859637192495613  0.9251864517526142
  0.7781404175550537  0.2497022585999297  0.8129401870382810
  0.6488518795113437  0.8838842997714033  0.9349206763383945
  0.3624751093917143  0.8659085136711475  0.9129385844933124
  0.7179398549176343  0.1501578401912101  0.5482848359888223
  0.6909105672394460  0.6511631995326946  0.5225226654074792
  0.0761815159890210  0.4399245048345313  0.7666125133971500
  0.1409132856616928  0.8623245268564464  0.2149284160802682
  0.8749119048383646  0.2295655479945337  0.1299364632082328
  0.9351761853373013  0.1295802609365339  0.4952692125650928
  0.3674510938327531  0.3950214697503889  0.5293376597457665
  0.3361105921188276  0.0540948247208586  0.9638984181792712
  0.8260058782700539  0.7586118583345495  0.3817584516074472
  0.3673986895376149  0.2173996434793201  0.6291168644808076
  0.6309785890055932  0.3712168471657790  0.4774778110795286
  0.9947130863032259  0.9879695654124120  0.3409343732580580
  0.1491389484856406  0.9279806962523729  0.4512737096288856
  0.8996986805031183  0.5520270440005874  0.7390293762408360
  0.2064990087679539  0.7413490501767985  0.0373381218257286
  0.4681144895771187  0.3226862487434271  0.2218233385924858
  0.2805860252802341  0.2709129050683595  0.1956474240649813
  0.7578812122007667  0.9459039087974550  0.3099260566702897
  0.7285498864058960  0.6767356881259758  0.7508049649654774
  0.6888386566560669  0.7293700842444342  0.0570375135083801
  0.1043640469367190  0.0671804669676542  0.7478137406594548
  0.9763047534872170  0.2547692299927837  0.7913995592124452
  0.7696624440521527  0.9163233393976095  0.5247394522233259
  0.7979500782909836  0.4474053833665764  0.5626969846167869
  0.3399027127204509  0.9569878961881636  0.5131794755971767
  0.7991697075835917  0.9086170068749547  0.1067696239541409
  0.2306908661905008  0.5380012251909314  0.5174370045439766
  0.1412827868018500  0.1178501406551052  0.0240102411597015
  0.6745492861976928  0.2809720295728292  0.1816498963207590
  0.4697137388735006  0.5999927488796341  0.8533108758100199
  0.6521118318596675  0.4354043905399056  0.0407071921160731
  0.6833654869166185  0.0594706226607134  0.1792555694135925
  0.4807251389194627  0.4747771203947887  0.6940667841942594
  0.3065826973275792  0.4362388385937270  0.1491332305235114
  0.6598776484647293  0.1854299563045806  0.3839437010515676
  0.3010595509425484  0.1919560489067368  0.5211190694338520
  0.4107368415523879  0.1602050124869564  0.9134085892837116
  0.4727657128191793  0.5624396661313095  0.4971272076479866
  0.3284770614352930  0.6965555221552119  0.4942955092044795
  0.0051468950393712  0.1019843843053536  0.1715682192183418
  0.2190549186967357  0.3518972713179804  0.6384334838937274
  0.1959666447221144  0.5792088427017228  0.6319026764442639
  0.8320267492706772  0.8893951028536978  0.9108794911266189
  0.1381438081721636  0.7649613984615945  0.5372988077700074
  0.9789280581819885  0.3180514503311410  0.4386178712302788
  0.8239697530981159  0.9522310862990948  0.7196213024816461
  0.6149363542929919  0.6936526840637057  0.8961304163921062
  0.0717306098251247  0.6904476634170263  0.7382918271108196
  0.3311857245746228  0.3741733386837235  0.3434577929797790
  0.2620242663030313  0.2632919624619351  0.0179140655166293
  0.9080495021703240  0.3685564041928953  0.6667669133618463
  0.7325120437063474  0.4570420854239851  0.2696151353958846
  0.3026581531297349  0.7124643988291385  0.2926532647265775
  0.6734714473906686  0.5083940490342495  0.6869491198847886
  0.8906454772663086  0.7271694547413841  0.0346850186052597
  0.9818159135955894  0.6474395077591452  0.2938006324546310
  0.5849565355665277  0.8237663749874097  0.7259643017377058
  0.0208280213376919  0.3744044825432964  0.0504508132489199
  0.8699378759615279  0.7408900231537761  0.6661997017581437
  0.4681634203423011  0.0536558416668214  0.3976823838520372
  0.6119439725634039  0.6997009974695461  0.2242237624150178
  0.4226739996845549  0.8175924053675603  0.1665009269282247
  0.9130466099109783  0.8431291540183409  0.2275554249334512
  0.7328337479605370  0.1225482324644924  0.6722544472566691
  0.2676193325319670  0.1150026987766753  0.3779868260505082
 
  0.00000000E+00  0.00000000E+00  0.00000000E+00
  0.00000000E+00  0.00000000E+00  0.00000000E+00
  0.00000000E+00  0.00000000E+00  0.00000000E+00
  0.00000000E+00  0.00000000E+00  0.00000000E+00
  0.00000000E+00  0.00000000E+00  0.00000000E+00
  0.00000000E+00  0.00000000E+00  0.00000000E+00
  0.00000000E+00  0.00000000E+00  0.00000000E+00
  0.00000000E+00  0.00000000E+00  0.00000000E+00
  0.00000000E+00  0.00000000E+00  0.00000000E+00
  0.00000000E+00  0.00000000E+00  0.00000000E+00
  0.00000000E+00  0.00000000E+00  0.00000000E+00
  0.00000000E+00  0.00000000E+00  0.00000000E+00
  0.00000000E+00  0.00000000E+00  0.00000000E+00
  0.00000000E+00  0.00000000E+00  0.00000000E+00
  0.00000000E+00  0.00000000E+00  0.00000000E+00
  0.00000000E+00  0.00000000E+00  0.00000000E+00
  0.00000000E+00  0.00000000E+00  0.00000000E+00
  0.00000000E+00  0.00000000E+00  0.00000000E+00
  0.00000000E+00  0.00000000E+00  0.00000000E+00
  0.00000000E+00  0.00000000E+00  0.00000000E+00
  0.00000000E+00  0.00000000E+00  0.00000000E+00
  0.00000000E+00  0.00000000E+00  0.00000000E+00
  0.00000000E+00  0.00000000E+00  0.00000000E+00
  0.00000000E+00  0.00000000E+00  0.00000000E+00
  0.00000000E+00  0.00000000E+00  0.00000000E+00
  0.00000000E+00  0.00000000E+00  0.00000000E+00
  0.00000000E+00  0.00000000E+00  0.00000000E+00
  0.00000000E+00  0.00000000E+00  0.00000000E+00
  0.00000000E+00  0.00000000E+00  0.00000000E+00
  0.00000000E+00  0.00000000E+00  0.00000000E+00
  0.00000000E+00  0.00000000E+00  0.00000000E+00
  0.00000000E+00  0.00000000E+00  0.00000000E+00
  0.00000000E+00  0.00000000E+00  0.00000000E+00
  0.00000000E+00  0.00000000E+00  0.00000000E+00
  0.00000000E+00  0.00000000E+00  0.00000000E+00
  0.00000000E+00  0.00000000E+00  0.00000000E+00
  0.00000000E+00  0.00000000E+00  0.00000000E+00
  0.00000000E+00  0.00000000E+00  0.00000000E+00
  0.00000000E+00  0.00000000E+00  0.00000000E+00
  0.00000000E+00  0.00000000E+00  0.00000000E+00
  0.00000000E+00  0.00000000E+00  0.00000000E+00
  0.00000000E+00  0.00000000E+00  0.00000000E+00
  0.00000000E+00  0.00000000E+00  0.00000000E+00
  0.00000000E+00  0.00000000E+00  0.00000000E+00
  0.00000000E+00  0.00000000E+00  0.00000000E+00
  0.00000000E+00  0.00000000E+00  0.00000000E+00
  0.00000000E+00  0.00000000E+00  0.00000000E+00
  0.00000000E+00  0.00000000E+00  0.00000000E+00
  0.00000000E+00  0.00000000E+00  0.00000000E+00
  0.00000000E+00  0.00000000E+00  0.00000000E+00
  0.00000000E+00  0.00000000E+00  0.00000000E+00
  0.00000000E+00  0.00000000E+00  0.00000000E+00
  0.00000000E+00  0.00000000E+00  0.00000000E+00
  0.00000000E+00  0.00000000E+00  0.00000000E+00
  0.00000000E+00  0.00000000E+00  0.00000000E+00
  0.00000000E+00  0.00000000E+00  0.00000000E+00
  0.00000000E+00  0.00000000E+00  0.00000000E+00
  0.00000000E+00  0.00000000E+00  0.00000000E+00
  0.00000000E+00  0.00000000E+00  0.00000000E+00
  0.00000000E+00  0.00000000E+00  0.00000000E+00
  0.00000000E+00  0.00000000E+00  0.00000000E+00
  0.00000000E+00  0.00000000E+00  0.00000000E+00
  0.00000000E+00  0.00000000E+00  0.00000000E+00
  0.00000000E+00  0.00000000E+00  0.00000000E+00
  0.00000000E+00  0.00000000E+00  0.00000000E+00
  0.00000000E+00  0.00000000E+00  0.00000000E+00
  0.00000000E+00  0.00000000E+00  0.00000000E+00
  0.00000000E+00  0.00000000E+00  0.00000000E+00
  0.00000000E+00  0.00000000E+00  0.00000000E+00
  0.00000000E+00  0.00000000E+00  0.00000000E+00
  0.00000000E+00  0.00000000E+00  0.00000000E+00
  0.00000000E+00  0.00000000E+00  0.00000000E+00
  0.00000000E+00  0.00000000E+00  0.00000000E+00
  0.00000000E+00  0.00000000E+00  0.00000000E+00
  0.00000000E+00  0.00000000E+00  0.00000000E+00
  0.00000000E+00  0.00000000E+00  0.00000000E+00
  0.00000000E+00  0.00000000E+00  0.00000000E+00
  0.00000000E+00  0.00000000E+00  0.00000000E+00
  0.00000000E+00  0.00000000E+00  0.00000000E+00
  0.00000000E+00  0.00000000E+00  0.00000000E+00
  0.00000000E+00  0.00000000E+00  0.00000000E+00
  0.00000000E+00  0.00000000E+00  0.00000000E+00
  0.00000000E+00  0.00000000E+00  0.00000000E+00
  0.00000000E+00  0.00000000E+00  0.00000000E+00
  0.00000000E+00  0.00000000E+00  0.00000000E+00
  0.00000000E+00  0.00000000E+00  0.00000000E+00
  0.00000000E+00  0.00000000E+00  0.00000000E+00
  0.00000000E+00  0.00000000E+00  0.00000000E+00
  0.00000000E+00  0.00000000E+00  0.00000000E+00
  0.00000000E+00  0.00000000E+00  0.00000000E+00
  0.00000000E+00  0.00000000E+00  0.00000000E+00
  0.00000000E+00  0.00000000E+00  0.00000000E+00
  0.00000000E+00  0.00000000E+00  0.00000000E+00
  0.00000000E+00  0.00000000E+00  0.00000000E+00
  0.00000000E+00  0.00000000E+00  0.00000000E+00
  0.00000000E+00  0.00000000E+00  0.00000000E+00
  0.00000000E+00  0.00000000E+00  0.00000000E+00
  0.00000000E+00  0.00000000E+00  0.00000000E+00
  0.00000000E+00  0.00000000E+00  0.00000000E+00
  0.00000000E+00  0.00000000E+00  0.00000000E+00
  0.00000000E+00  0.00000000E+00  0.00000000E+00
  0.00000000E+00  0.00000000E+00  0.00000000E+00
  0.00000000E+00  0.00000000E+00  0.00000000E+00
  0.00000000E+00  0.00000000E+00  0.00000000E+00
  0.00000000E+00  0.00000000E+00  0.00000000E+00
  0.00000000E+00  0.00000000E+00  0.00000000E+00
  0.00000000E+00  0.00000000E+00  0.00000000E+00
  0.00000000E+00  0.00000000E+00  0.00000000E+00
  0.00000000E+00  0.00000000E+00  0.00000000E+00
  0.00000000E+00  0.00000000E+00  0.00000000E+00
  0.00000000E+00  0.00000000E+00  0.00000000E+00
  0.00000000E+00  0.00000000E+00  0.00000000E+00
  0.00000000E+00  0.00000000E+00  0.00000000E+00
  0.00000000E+00  0.00000000E+00  0.00000000E+00
  0.00000000E+00  0.00000000E+00  0.00000000E+00
  0.00000000E+00  0.00000000E+00  0.00000000E+00
  0.00000000E+00  0.00000000E+00  0.00000000E+00
  0.00000000E+00  0.00000000E+00  0.00000000E+00
  0.00000000E+00  0.00000000E+00  0.00000000E+00
  0.00000000E+00  0.00000000E+00  0.00000000E+00
  0.00000000E+00  0.00000000E+00  0.00000000E+00
  0.00000000E+00  0.00000000E+00  0.00000000E+00
  0.00000000E+00  0.00000000E+00  0.00000000E+00
  0.00000000E+00  0.00000000E+00  0.00000000E+00
  0.00000000E+00  0.00000000E+00  0.00000000E+00
  0.00000000E+00  0.00000000E+00  0.00000000E+00
  0.00000000E+00  0.00000000E+00  0.00000000E+00
  0.00000000E+00  0.00000000E+00  0.00000000E+00
  0.00000000E+00  0.00000000E+00  0.00000000E+00
  0.00000000E+00  0.00000000E+00  0.00000000E+00
  0.00000000E+00  0.00000000E+00  0.00000000E+00
  0.00000000E+00  0.00000000E+00  0.00000000E+00
  0.00000000E+00  0.00000000E+00  0.00000000E+00
  0.00000000E+00  0.00000000E+00  0.00000000E+00
  0.00000000E+00  0.00000000E+00  0.00000000E+00
  0.00000000E+00  0.00000000E+00  0.00000000E+00
  0.00000000E+00  0.00000000E+00  0.00000000E+00
  0.00000000E+00  0.00000000E+00  0.00000000E+00
  0.00000000E+00  0.00000000E+00  0.00000000E+00
  0.00000000E+00  0.00000000E+00  0.00000000E+00
  0.00000000E+00  0.00000000E+00  0.00000000E+00
  0.00000000E+00  0.00000000E+00  0.00000000E+00
  0.00000000E+00  0.00000000E+00  0.00000000E+00
  0.00000000E+00  0.00000000E+00  0.00000000E+00
  0.00000000E+00  0.00000000E+00  0.00000000E+00
  0.00000000E+00  0.00000000E+00  0.00000000E+00
  0.00000000E+00  0.00000000E+00  0.00000000E+00
  0.00000000E+00  0.00000000E+00  0.00000000E+00
  0.00000000E+00  0.00000000E+00  0.00000000E+00
  0.00000000E+00  0.00000000E+00  0.00000000E+00
  0.00000000E+00  0.00000000E+00  0.00000000E+00
  0.00000000E+00  0.00000000E+00  0.00000000E+00
  0.00000000E+00  0.00000000E+00  0.00000000E+00
  0.00000000E+00  0.00000000E+00  0.00000000E+00
  0.00000000E+00  0.00000000E+00  0.00000000E+00
  0.00000000E+00  0.00000000E+00  0.00000000E+00
  0.00000000E+00  0.00000000E+00  0.00000000E+00
  0.00000000E+00  0.00000000E+00  0.00000000E+00
  0.00000000E+00  0.00000000E+00  0.00000000E+00
  0.00000000E+00  0.00000000E+00  0.00000000E+00
  0.00000000E+00  0.00000000E+00  0.00000000E+00
  0.00000000E+00  0.00000000E+00  0.00000000E+00
  0.00000000E+00  0.00000000E+00  0.00000000E+00
  0.00000000E+00  0.00000000E+00  0.00000000E+00
  0.00000000E+00  0.00000000E+00  0.00000000E+00
  0.00000000E+00  0.00000000E+00  0.00000000E+00
  0.00000000E+00  0.00000000E+00  0.00000000E+00
  0.00000000E+00  0.00000000E+00  0.00000000E+00
  0.00000000E+00  0.00000000E+00  0.00000000E+00
  0.00000000E+00  0.00000000E+00  0.00000000E+00
  0.00000000E+00  0.00000000E+00  0.00000000E+00
  0.00000000E+00  0.00000000E+00  0.00000000E+00
  0.00000000E+00  0.00000000E+00  0.00000000E+00
  0.00000000E+00  0.00000000E+00  0.00000000E+00
  0.00000000E+00  0.00000000E+00  0.00000000E+00
  0.00000000E+00  0.00000000E+00  0.00000000E+00
  0.00000000E+00  0.00000000E+00  0.00000000E+00
  0.00000000E+00  0.00000000E+00  0.00000000E+00
  0.00000000E+00  0.00000000E+00  0.00000000E+00
  0.00000000E+00  0.00000000E+00  0.00000000E+00
  0.00000000E+00  0.00000000E+00  0.00000000E+00
  0.00000000E+00  0.00000000E+00  0.00000000E+00
  0.00000000E+00  0.00000000E+00  0.00000000E+00
  0.00000000E+00  0.00000000E+00  0.00000000E+00
  0.00000000E+00  0.00000000E+00  0.00000000E+00
  0.00000000E+00  0.00000000E+00  0.00000000E+00
  0.00000000E+00  0.00000000E+00  0.00000000E+00
  0.00000000E+00  0.00000000E+00  0.00000000E+00
  0.00000000E+00  0.00000000E+00  0.00000000E+00
  0.00000000E+00  0.00000000E+00  0.00000000E+00
  0.00000000E+00  0.00000000E+00  0.00000000E+00
  0.00000000E+00  0.00000000E+00  0.00000000E+00
  0.00000000E+00  0.00000000E+00  0.00000000E+00
  0.00000000E+00  0.00000000E+00  0.00000000E+00
  0.00000000E+00  0.00000000E+00  0.00000000E+00
  0.00000000E+00  0.00000000E+00  0.00000000E+00
  0.00000000E+00  0.00000000E+00  0.00000000E+00
  0.00000000E+00  0.00000000E+00  0.00000000E+00
  0.00000000E+00  0.00000000E+00  0.00000000E+00
  0.00000000E+00  0.00000000E+00  0.00000000E+00
  0.00000000E+00  0.00000000E+00  0.00000000E+00
  0.00000000E+00  0.00000000E+00  0.00000000E+00
  0.00000000E+00  0.00000000E+00  0.00000000E+00
  0.00000000E+00  0.00000000E+00  0.00000000E+00
  0.00000000E+00  0.00000000E+00  0.00000000E+00
  0.00000000E+00  0.00000000E+00  0.00000000E+00
  0.00000000E+00  0.00000000E+00  0.00000000E+00
  0.00000000E+00  0.00000000E+00  0.00000000E+00
  0.00000000E+00  0.00000000E+00  0.00000000E+00
  0.00000000E+00  0.00000000E+00  0.00000000E+00
  0.00000000E+00  0.00000000E+00  0.00000000E+00
  0.00000000E+00  0.00000000E+00  0.00000000E+00
  0.00000000E+00  0.00000000E+00  0.00000000E+00
  0.00000000E+00  0.00000000E+00  0.00000000E+00
  0.00000000E+00  0.00000000E+00  0.00000000E+00
  0.00000000E+00  0.00000000E+00  0.00000000E+00
  0.00000000E+00  0.00000000E+00  0.00000000E+00
  0.00000000E+00  0.00000000E+00  0.00000000E+00
  0.00000000E+00  0.00000000E+00  0.00000000E+00
  0.00000000E+00  0.00000000E+00  0.00000000E+00
  0.00000000E+00  0.00000000E+00  0.00000000E+00
  0.00000000E+00  0.00000000E+00  0.00000000E+00
  0.00000000E+00  0.00000000E+00  0.00000000E+00
  0.00000000E+00  0.00000000E+00  0.00000000E+00
  0.00000000E+00  0.00000000E+00  0.00000000E+00
  0.00000000E+00  0.00000000E+00  0.00000000E+00
  0.00000000E+00  0.00000000E+00  0.00000000E+00
  0.00000000E+00  0.00000000E+00  0.00000000E+00
  0.00000000E+00  0.00000000E+00  0.00000000E+00
  0.00000000E+00  0.00000000E+00  0.00000000E+00
  0.00000000E+00  0.00000000E+00  0.00000000E+00
  0.00000000E+00  0.00000000E+00  0.00000000E+00
  0.00000000E+00  0.00000000E+00  0.00000000E+00
  0.00000000E+00  0.00000000E+00  0.00000000E+00
  0.00000000E+00  0.00000000E+00  0.00000000E+00
  0.00000000E+00  0.00000000E+00  0.00000000E+00
  0.00000000E+00  0.00000000E+00  0.00000000E+00
  0.00000000E+00  0.00000000E+00  0.00000000E+00
  0.00000000E+00  0.00000000E+00  0.00000000E+00
  0.00000000E+00  0.00000000E+00  0.00000000E+00
