Sb                                      
   1.00000000000000     
    16.4173007964999975    0.0000000000000000    0.0000000000000000
     0.0000000000000000   16.4173007964999975    0.0000000000000000
     0.0000000000000000    0.0000000000000000   16.4173007964999975
   Al   S 
    80   120
Direct
  0.3812498880159162  0.4098286297984137  0.0947933276789231
  0.3786678628349682  0.2009799287370592  0.0728160989983291
  0.5559517387582867  0.6294743244669646  0.4532536091880631
  0.2338810220225142  0.8733668543396728  0.3650251484422026
  0.3728235314831814  0.9632798997557830  0.6356000954088828
  0.5725043392740141  0.4761956694147877  0.5514615516332341
  0.8274330953796202  0.6281691667689189  0.0354737283246279
  0.0166342430861034  0.3642995247573929  0.1601335274172497
  0.2546018648079124  0.6623239760533706  0.3521150790482193
  0.9958168414929794  0.4655862831411928  0.3867276437478421
  0.3454662649762952  0.0340732580692533  0.3677956924176518
  0.6414742947047314  0.1385591395574043  0.1051466912522263
 -0.0053511048531401  0.8520876552842287  0.1168099607938873
  0.6226954066529853  0.1904159231668796  0.8520441373403547
  0.7331650914425308  0.1140889933111481  0.5195241235236403
  0.0689564811175156  0.9506159154411168  0.8853897465488905
  0.9169363164355442  0.7859459024328616  0.6637700681766882
  0.0980158749946725  0.7733438602980225  0.3136720252509619
  0.5844986719703877  0.1220565359797021  0.3438493218273604
  0.8175831647455467  0.9803304734861028  0.6097959993430523
  0.9350145044660745  0.6576996917942166  0.2126219260215643
  0.8782046820660557  0.0114952523780986  0.0327517736635404
  0.8858048700418962  0.9533259621596026  0.7722272343678086
  0.8057673315741510  0.7953920711333953  0.8854605128291871
  0.7997037925182425  0.7272845101544225  0.5157662714626375
  0.7450433966556894  0.3483876006655805  0.7925556485848737
  0.8457964638420457  0.4757172645290114  0.2108787150367012
  0.2995534978368440  0.7831900370642374  0.0447186898136489
  0.5623983412232687  0.0476268794503585  0.6802532072623086
  0.9421850493192808  0.6726647770777040  0.4315768439727939
  0.2638079764348831  0.3101102382667871  0.5198678921407170
  0.9628952393959513  0.6256527604706029  0.7969961547184021
  0.9494731790063740  0.0713346213788577  0.4645601431553982
  0.2507527372378760  0.4817737782408609  0.3922814429929607
  0.4911079243909849  0.0694499212236089  0.9167258288846744
  0.1890866877871522  0.1263406428037501  0.5696845730684434
  0.7647760926067729  0.6167065566629515  0.7116950224960555
  0.3644893955752266  0.5330670826600505  0.5407100703165989
  0.8660165396289289  0.2094774047129878  0.9015549969739498
  0.4949035925758640  0.5802776319655194  0.7300865822796211
  0.2643142451692451  0.2629838007728305  0.7557810952419283
  0.1751721957249162  0.5591783734256268  0.2134944178872023
  0.0459072716524665  0.1450469913187437  0.7941469128869715
  0.6570982046018288  0.7566240388171082  0.3176793670008770
  0.0881939502820470  0.1848256074279906  0.4100732740907958
  0.0975178405778734  0.5145066609227890  0.8648714150584201
  0.6455930917819060  0.5376267826913339  0.8795696275004834
  0.6305882000496327  0.9189656351343387  0.2058385206603885
  0.9315153712378771  0.2079849826683195  0.2826141123932245
  0.8880112326434244  0.5231299146387673  0.5214796881459739
  0.4109812244797969  0.7312733780477932  0.5455703744748966
  0.1888628283597481  0.3618118834070690  0.0578533200276532
  0.4628317668100836  0.8280732317164785  0.0912033117440004
  0.7033860221817175  0.0268016410311649  0.9399303497604088
  0.2202488484896606  0.3306852709005751  0.2999477784876661
  0.9638855940515598  0.9764333017681176  0.2542355913634629
  0.4166105285322531  0.3625609603490021  0.6750215718432243
  0.3160555203665064  0.4727239676230593  0.8555253607561543
  0.6042361072107844  0.2952428189770176  0.4206206107166002
  0.2403839415584590  0.1284481462036014  0.9385391561435914
  0.2501013789872256  0.9593681764895444  0.1514769330449152
  0.7558280994828024  0.9238348425743119  0.3732496818111283
  0.0815585797744246  0.3013774632150130  0.8571284781578969
  0.6545786354995591  0.7376886761358397  0.9953168666526921
  0.2244423934834698  0.0290962771080268  0.7542179895517871
  0.5671839216088166  0.8683317982738802  0.8111790337851295
  0.6435299576024238  0.2794061021537979  0.6522657290442248
  0.1179165671660137  0.7404401300004455  0.7831990143371917
  0.5551362644149519  0.5344903163632957  0.0395920398094825
  0.3368099205892888  0.8138658218763570  0.7460581274135858
  0.8746947266677828  0.4673602974207696  0.8888738781476467
  0.3337095281593562  0.6144385314844313  0.0782703263327086
  0.8223053458743008  0.2490653457053626  0.1183754491327639
  0.1299085458474243  0.1579487845774108  0.1773486149092643
  0.5917290094100233  0.3264571803383391  0.1735950081215327
  0.4232771053464758  0.1711857297862641  0.5375942689821951
  0.4541481415458605  0.8173951019917086  0.3907277364342930
  0.4223488778162404  0.7105639311474010  0.9110911421054183
  0.6498324412660585  0.4860192591671006  0.2763923640140649
  0.4473709700215594  0.0457248798052661  0.1957778680793124
  0.6316788496919615  0.4638192173253484  0.1407965897375807
  0.5622280126182371  0.4490115223918004  0.9351238559822321
  0.3119868752100584  0.4188646839322739  0.6010190338363725
  0.8125723538602988  0.9456337225940535  0.9240454208873288
  0.7121863673994769  0.8014557553184729  0.4370830047464704
  0.2034809929608577  0.6348444521584413  0.1087066040090472
  0.1066182079156019  0.1789517016338925  0.9140306585160457
  0.3193837017844675  0.3565559205760916  0.3988239368523472
  0.3420461951837329  0.8295310690379457  0.6073956853937004
  0.9146183607021019  0.8251100123703412  0.8097468792070225
  0.7786896410513057  0.3045664791730413  0.6724922510283045
  0.9499551543359565  0.2014054908566631  0.4188609052845776
  0.2985191316652397  0.1420903214002778  0.8058388786390028
  0.4175859572237284  0.5686079797224035  0.8406260717987174
  0.6065387866545262  0.6227257110118333  0.3216972430052238
  0.3852084719587511  0.9247093045150697  0.1708928565428428
  0.6682990546839108  0.7863265047675465  0.8634156147152511
  0.7568668159723622  0.4857270127567679  0.8130379149739467
  0.3797248624619762  0.7004072502023156  0.4108754361050729
  0.5345809683516666  0.7665268525577036  0.4987166385588862
  0.6012433001879189  0.8211891313789960  0.0976236675230497
  0.7597669101102995  0.9749440209867716  0.7299215633738644
  0.4750640960512723  0.3117419881030550  0.0807435664366963
  0.5771138331324466  0.9600593925337395  0.9182401536631086
  0.1088198916064372  0.4628479551623850  0.1333110340064672
  0.3542222468325701  0.9497939166552631  0.7727462730215450
  0.0191637239526521  0.6892378043795830  0.6863663377551597
  0.4377945398513242  0.5312004925843370  0.1248937128274642
  0.1334136302951259  0.4179370757743422  0.3694332199283602
  0.3727431907053157  0.1570271636572729  0.2003764322948856
  0.8312837336299976  0.6552118669081843  0.8312576079398819
  0.2786394428200269  0.3523949745608022  0.1754110403678867
  0.8150921374670270  0.6136759477424585  0.4386975659345332
  0.6233847513928588  0.6189806531013049  0.7664469701758236
  0.9011086440443820  0.1616045411703232  0.0262348392636394
  0.5391392529915179  0.8247295040265931  0.2846460981977912
  0.5591403512597223  0.0162475602404399  0.1244598851553679
  0.9773979028351782  0.4851205740091661  0.7925163793461778
  0.8107446899799289  0.1853111012757713  0.2350455815842040
  0.2770847320100698  0.2551939023796225 -0.0050177541028733
  0.0124615461792402  0.1047361688352061  0.2310425477288594
  0.4683642181971971  0.0441657492797108  0.5763262938115784
  0.2438488015221197  0.0032363702907982  0.6137023012998926
  0.6993186167105333  0.1886589357504015  0.4077220726286663
  0.4734618729362747  0.5101772525566945  0.4563464347053973
  0.5714642521564113  0.1633351326153034  0.9773806240813288
  0.2318013583585778  0.9963179203715506  0.2935422271846700
  0.6106094079594684  0.3117989327184357  0.7924198226304847
  0.9261824716193934  0.7812208095667716  0.5147584103342623
  0.3831966870312448  0.7300575146141186  0.1460384981405007
  0.0657544298978890  0.6544366617988269  0.8871289145656056
  0.1199459960600809  0.6286794731769675  0.3224129763159237
  0.1089065136562704  0.0917854437042964  0.6888813246453206
  0.0879517974761182  0.2628958588058517  0.0967330601399306
  0.3094039760345207  0.1330690328881092  0.4573595327396821
  0.7489152569945233  0.1351292885124316  0.8561117490589689
  0.2924568989771352  0.4551888791931026  0.9970073471801879
  0.6590208563474179  0.1390455552231807  0.6344847628433989
  0.8390753592487127  0.5245598598218502  0.6464768126627094
  0.1807931726486658  0.1998352088400170  0.3038178197496229
  0.4789634394277150  0.0266386147650010  0.3314755246945215
  0.7684121564648729  0.4367694566088396  0.3120803196551181
  0.3004439011576267  0.5454698118884835  0.2811118560942965
  0.6516356161037747  0.3659588869758588  0.5275880200970290
  0.8813677425200790  0.9330603534190107  0.1529882182561731
  0.8965977957397341  0.9715150579053364  0.3769303274333435
  0.9673947134455685  0.0418522500828468  0.8429498513722781
  0.0877160532013911  0.4014284256289395  0.9504558866456493
  0.5681124193773486  0.9130029826862708  0.6846768232832350
  0.5208586942383499  0.4542191699650552  0.6783411867411935
  0.0178506208627453  0.5721314404140165  0.4832708788382457
  0.0695174117627559  0.8913595593981398  0.2284244372040556
  0.9407071263013834  0.9247861654640778  0.6395307185477310
  0.9661451721251856  0.5265562646538309  0.2606070412371930
  0.3545608367321276  0.9067673862082121  0.4304208395259477
  0.9905149451861769  0.7157631813029283  0.1023635278329282
  0.1365973195278963  0.2552032881503024  0.5210026137083986
  0.7989295584070545  0.7639384974358330  0.0209476483363049
  0.2984973919659821  0.6730822917519895  0.9560262405519599
  0.4959205452922830  0.2111087094719857  0.4196504758429579
  0.8138528941148775  0.3378565543891376  0.9149253448062129
  0.3676674140163588  0.3473688797182217  0.8038086426228442
  0.0902854883175228  0.0588813852494156  0.4689905562433593
  0.6939403345288511  0.5987774855275271  0.9975389626661768
  0.6919591684222712  0.2719079131898510  0.0778463619599280
  0.5157959152003592  0.1228223921443253  0.7889569513015848
  0.6739547052093106  0.0123379556440073  0.3031006551001391
  0.9189560000960282  0.5397760228913376  0.9935302260873387
  0.3989001984534221  0.6273728658469007  0.6348403208450989
  0.7770315865260911  0.7451755481371113  0.6506320602705944
  0.3775751694480697  0.0814211316758709  0.9920477498285825
  0.5269278847022979  0.6685534773485624  0.9908811013037750
  0.1019109615672152  0.8754480382304165  0.7771150176516834
  0.2388906860169152  0.7759870043040115  0.2694636391409916
  0.6392836043747518  0.5926812771963574  0.5529519461233843
  0.2457714121502575  0.5785415651920786  0.4865023587571352
  0.9079828981458095  0.4020287739517965  0.4657726679742580
  0.2498412294856110  0.7145416463137336  0.7664448123558891
  0.1974144033750285  0.9999298352729841  0.8920115217744086
  0.7355123548130506  0.0413560662537296  0.0727385530680843
  0.4657814656954001  0.7656567165549722  0.7898253834856821
  0.8845785861622413  0.3780860707314118  0.1114268387742661
  0.4926763294221922  0.2612522775324420  0.6253423699564045
  0.8081814105716132  0.6091834777843145  0.1736463959699512
  0.5656045143470669  0.3786162553958284  0.3111812526151407
  0.1419279158163815  0.3127232336499271  0.7365909869680328
  0.7201738676853005  0.9771617999919509  0.5070261213401968
  0.9516475781557449  0.7468815585035640  0.3160254014670424
  0.7428571720722152  0.8385454796931167  0.2468001723535684
  0.3029094894650406  0.2181143143811774  0.6201288247317780
  0.4036292243909196  0.8461307845459328  0.9693357584819298
  0.1957507824174046  0.8626730694087530  0.0720490243296668
  0.2074471036404254  0.5124025851510774  0.7888880432232768
  0.5895132728583811  0.1923998307763487  0.2224602521286577
  0.0068939048649788  0.9415358296808788  0.0096900912066952
  0.1950605007554984  0.0741883683855633  0.0938461706847815
  0.8653363785043806  0.1081789467481769  0.5707968578339778
 -0.0056182102250611  0.3283170532498970  0.2868951673535444
  0.9561690809939901  0.2503591095690548  0.8006828015108315
  0.1281846488891911  0.8285378311980560  0.4357875786859535
 
  0.00000000E+00  0.00000000E+00  0.00000000E+00
  0.00000000E+00  0.00000000E+00  0.00000000E+00
  0.00000000E+00  0.00000000E+00  0.00000000E+00
  0.00000000E+00  0.00000000E+00  0.00000000E+00
  0.00000000E+00  0.00000000E+00  0.00000000E+00
  0.00000000E+00  0.00000000E+00  0.00000000E+00
  0.00000000E+00  0.00000000E+00  0.00000000E+00
  0.00000000E+00  0.00000000E+00  0.00000000E+00
  0.00000000E+00  0.00000000E+00  0.00000000E+00
  0.00000000E+00  0.00000000E+00  0.00000000E+00
  0.00000000E+00  0.00000000E+00  0.00000000E+00
  0.00000000E+00  0.00000000E+00  0.00000000E+00
  0.00000000E+00  0.00000000E+00  0.00000000E+00
  0.00000000E+00  0.00000000E+00  0.00000000E+00
  0.00000000E+00  0.00000000E+00  0.00000000E+00
  0.00000000E+00  0.00000000E+00  0.00000000E+00
  0.00000000E+00  0.00000000E+00  0.00000000E+00
  0.00000000E+00  0.00000000E+00  0.00000000E+00
  0.00000000E+00  0.00000000E+00  0.00000000E+00
  0.00000000E+00  0.00000000E+00  0.00000000E+00
  0.00000000E+00  0.00000000E+00  0.00000000E+00
  0.00000000E+00  0.00000000E+00  0.00000000E+00
  0.00000000E+00  0.00000000E+00  0.00000000E+00
  0.00000000E+00  0.00000000E+00  0.00000000E+00
  0.00000000E+00  0.00000000E+00  0.00000000E+00
  0.00000000E+00  0.00000000E+00  0.00000000E+00
  0.00000000E+00  0.00000000E+00  0.00000000E+00
  0.00000000E+00  0.00000000E+00  0.00000000E+00
  0.00000000E+00  0.00000000E+00  0.00000000E+00
  0.00000000E+00  0.00000000E+00  0.00000000E+00
  0.00000000E+00  0.00000000E+00  0.00000000E+00
  0.00000000E+00  0.00000000E+00  0.00000000E+00
  0.00000000E+00  0.00000000E+00  0.00000000E+00
  0.00000000E+00  0.00000000E+00  0.00000000E+00
  0.00000000E+00  0.00000000E+00  0.00000000E+00
  0.00000000E+00  0.00000000E+00  0.00000000E+00
  0.00000000E+00  0.00000000E+00  0.00000000E+00
  0.00000000E+00  0.00000000E+00  0.00000000E+00
  0.00000000E+00  0.00000000E+00  0.00000000E+00
  0.00000000E+00  0.00000000E+00  0.00000000E+00
  0.00000000E+00  0.00000000E+00  0.00000000E+00
  0.00000000E+00  0.00000000E+00  0.00000000E+00
  0.00000000E+00  0.00000000E+00  0.00000000E+00
  0.00000000E+00  0.00000000E+00  0.00000000E+00
  0.00000000E+00  0.00000000E+00  0.00000000E+00
  0.00000000E+00  0.00000000E+00  0.00000000E+00
  0.00000000E+00  0.00000000E+00  0.00000000E+00
  0.00000000E+00  0.00000000E+00  0.00000000E+00
  0.00000000E+00  0.00000000E+00  0.00000000E+00
  0.00000000E+00  0.00000000E+00  0.00000000E+00
  0.00000000E+00  0.00000000E+00  0.00000000E+00
  0.00000000E+00  0.00000000E+00  0.00000000E+00
  0.00000000E+00  0.00000000E+00  0.00000000E+00
  0.00000000E+00  0.00000000E+00  0.00000000E+00
  0.00000000E+00  0.00000000E+00  0.00000000E+00
  0.00000000E+00  0.00000000E+00  0.00000000E+00
  0.00000000E+00  0.00000000E+00  0.00000000E+00
  0.00000000E+00  0.00000000E+00  0.00000000E+00
  0.00000000E+00  0.00000000E+00  0.00000000E+00
  0.00000000E+00  0.00000000E+00  0.00000000E+00
  0.00000000E+00  0.00000000E+00  0.00000000E+00
  0.00000000E+00  0.00000000E+00  0.00000000E+00
  0.00000000E+00  0.00000000E+00  0.00000000E+00
  0.00000000E+00  0.00000000E+00  0.00000000E+00
  0.00000000E+00  0.00000000E+00  0.00000000E+00
  0.00000000E+00  0.00000000E+00  0.00000000E+00
  0.00000000E+00  0.00000000E+00  0.00000000E+00
  0.00000000E+00  0.00000000E+00  0.00000000E+00
  0.00000000E+00  0.00000000E+00  0.00000000E+00
  0.00000000E+00  0.00000000E+00  0.00000000E+00
  0.00000000E+00  0.00000000E+00  0.00000000E+00
  0.00000000E+00  0.00000000E+00  0.00000000E+00
  0.00000000E+00  0.00000000E+00  0.00000000E+00
  0.00000000E+00  0.00000000E+00  0.00000000E+00
  0.00000000E+00  0.00000000E+00  0.00000000E+00
  0.00000000E+00  0.00000000E+00  0.00000000E+00
  0.00000000E+00  0.00000000E+00  0.00000000E+00
  0.00000000E+00  0.00000000E+00  0.00000000E+00
  0.00000000E+00  0.00000000E+00  0.00000000E+00
  0.00000000E+00  0.00000000E+00  0.00000000E+00
  0.00000000E+00  0.00000000E+00  0.00000000E+00
  0.00000000E+00  0.00000000E+00  0.00000000E+00
  0.00000000E+00  0.00000000E+00  0.00000000E+00
  0.00000000E+00  0.00000000E+00  0.00000000E+00
  0.00000000E+00  0.00000000E+00  0.00000000E+00
  0.00000000E+00  0.00000000E+00  0.00000000E+00
  0.00000000E+00  0.00000000E+00  0.00000000E+00
  0.00000000E+00  0.00000000E+00  0.00000000E+00
  0.00000000E+00  0.00000000E+00  0.00000000E+00
  0.00000000E+00  0.00000000E+00  0.00000000E+00
  0.00000000E+00  0.00000000E+00  0.00000000E+00
  0.00000000E+00  0.00000000E+00  0.00000000E+00
  0.00000000E+00  0.00000000E+00  0.00000000E+00
  0.00000000E+00  0.00000000E+00  0.00000000E+00
  0.00000000E+00  0.00000000E+00  0.00000000E+00
  0.00000000E+00  0.00000000E+00  0.00000000E+00
  0.00000000E+00  0.00000000E+00  0.00000000E+00
  0.00000000E+00  0.00000000E+00  0.00000000E+00
  0.00000000E+00  0.00000000E+00  0.00000000E+00
  0.00000000E+00  0.00000000E+00  0.00000000E+00
  0.00000000E+00  0.00000000E+00  0.00000000E+00
  0.00000000E+00  0.00000000E+00  0.00000000E+00
  0.00000000E+00  0.00000000E+00  0.00000000E+00
  0.00000000E+00  0.00000000E+00  0.00000000E+00
  0.00000000E+00  0.00000000E+00  0.00000000E+00
  0.00000000E+00  0.00000000E+00  0.00000000E+00
  0.00000000E+00  0.00000000E+00  0.00000000E+00
  0.00000000E+00  0.00000000E+00  0.00000000E+00
  0.00000000E+00  0.00000000E+00  0.00000000E+00
  0.00000000E+00  0.00000000E+00  0.00000000E+00
  0.00000000E+00  0.00000000E+00  0.00000000E+00
  0.00000000E+00  0.00000000E+00  0.00000000E+00
  0.00000000E+00  0.00000000E+00  0.00000000E+00
  0.00000000E+00  0.00000000E+00  0.00000000E+00
  0.00000000E+00  0.00000000E+00  0.00000000E+00
  0.00000000E+00  0.00000000E+00  0.00000000E+00
  0.00000000E+00  0.00000000E+00  0.00000000E+00
  0.00000000E+00  0.00000000E+00  0.00000000E+00
  0.00000000E+00  0.00000000E+00  0.00000000E+00
  0.00000000E+00  0.00000000E+00  0.00000000E+00
  0.00000000E+00  0.00000000E+00  0.00000000E+00
  0.00000000E+00  0.00000000E+00  0.00000000E+00
  0.00000000E+00  0.00000000E+00  0.00000000E+00
  0.00000000E+00  0.00000000E+00  0.00000000E+00
  0.00000000E+00  0.00000000E+00  0.00000000E+00
  0.00000000E+00  0.00000000E+00  0.00000000E+00
  0.00000000E+00  0.00000000E+00  0.00000000E+00
  0.00000000E+00  0.00000000E+00  0.00000000E+00
  0.00000000E+00  0.00000000E+00  0.00000000E+00
  0.00000000E+00  0.00000000E+00  0.00000000E+00
  0.00000000E+00  0.00000000E+00  0.00000000E+00
  0.00000000E+00  0.00000000E+00  0.00000000E+00
  0.00000000E+00  0.00000000E+00  0.00000000E+00
  0.00000000E+00  0.00000000E+00  0.00000000E+00
  0.00000000E+00  0.00000000E+00  0.00000000E+00
  0.00000000E+00  0.00000000E+00  0.00000000E+00
  0.00000000E+00  0.00000000E+00  0.00000000E+00
  0.00000000E+00  0.00000000E+00  0.00000000E+00
  0.00000000E+00  0.00000000E+00  0.00000000E+00
  0.00000000E+00  0.00000000E+00  0.00000000E+00
  0.00000000E+00  0.00000000E+00  0.00000000E+00
  0.00000000E+00  0.00000000E+00  0.00000000E+00
  0.00000000E+00  0.00000000E+00  0.00000000E+00
  0.00000000E+00  0.00000000E+00  0.00000000E+00
  0.00000000E+00  0.00000000E+00  0.00000000E+00
  0.00000000E+00  0.00000000E+00  0.00000000E+00
  0.00000000E+00  0.00000000E+00  0.00000000E+00
  0.00000000E+00  0.00000000E+00  0.00000000E+00
  0.00000000E+00  0.00000000E+00  0.00000000E+00
  0.00000000E+00  0.00000000E+00  0.00000000E+00
  0.00000000E+00  0.00000000E+00  0.00000000E+00
  0.00000000E+00  0.00000000E+00  0.00000000E+00
  0.00000000E+00  0.00000000E+00  0.00000000E+00
  0.00000000E+00  0.00000000E+00  0.00000000E+00
  0.00000000E+00  0.00000000E+00  0.00000000E+00
  0.00000000E+00  0.00000000E+00  0.00000000E+00
  0.00000000E+00  0.00000000E+00  0.00000000E+00
  0.00000000E+00  0.00000000E+00  0.00000000E+00
  0.00000000E+00  0.00000000E+00  0.00000000E+00
  0.00000000E+00  0.00000000E+00  0.00000000E+00
  0.00000000E+00  0.00000000E+00  0.00000000E+00
  0.00000000E+00  0.00000000E+00  0.00000000E+00
  0.00000000E+00  0.00000000E+00  0.00000000E+00
  0.00000000E+00  0.00000000E+00  0.00000000E+00
  0.00000000E+00  0.00000000E+00  0.00000000E+00
  0.00000000E+00  0.00000000E+00  0.00000000E+00
  0.00000000E+00  0.00000000E+00  0.00000000E+00
  0.00000000E+00  0.00000000E+00  0.00000000E+00
  0.00000000E+00  0.00000000E+00  0.00000000E+00
  0.00000000E+00  0.00000000E+00  0.00000000E+00
  0.00000000E+00  0.00000000E+00  0.00000000E+00
  0.00000000E+00  0.00000000E+00  0.00000000E+00
  0.00000000E+00  0.00000000E+00  0.00000000E+00
  0.00000000E+00  0.00000000E+00  0.00000000E+00
  0.00000000E+00  0.00000000E+00  0.00000000E+00
  0.00000000E+00  0.00000000E+00  0.00000000E+00
  0.00000000E+00  0.00000000E+00  0.00000000E+00
  0.00000000E+00  0.00000000E+00  0.00000000E+00
  0.00000000E+00  0.00000000E+00  0.00000000E+00
  0.00000000E+00  0.00000000E+00  0.00000000E+00
  0.00000000E+00  0.00000000E+00  0.00000000E+00
  0.00000000E+00  0.00000000E+00  0.00000000E+00
  0.00000000E+00  0.00000000E+00  0.00000000E+00
  0.00000000E+00  0.00000000E+00  0.00000000E+00
  0.00000000E+00  0.00000000E+00  0.00000000E+00
  0.00000000E+00  0.00000000E+00  0.00000000E+00
  0.00000000E+00  0.00000000E+00  0.00000000E+00
  0.00000000E+00  0.00000000E+00  0.00000000E+00
  0.00000000E+00  0.00000000E+00  0.00000000E+00
  0.00000000E+00  0.00000000E+00  0.00000000E+00
  0.00000000E+00  0.00000000E+00  0.00000000E+00
  0.00000000E+00  0.00000000E+00  0.00000000E+00
  0.00000000E+00  0.00000000E+00  0.00000000E+00
  0.00000000E+00  0.00000000E+00  0.00000000E+00
  0.00000000E+00  0.00000000E+00  0.00000000E+00
  0.00000000E+00  0.00000000E+00  0.00000000E+00
  0.00000000E+00  0.00000000E+00  0.00000000E+00
  0.00000000E+00  0.00000000E+00  0.00000000E+00
  0.00000000E+00  0.00000000E+00  0.00000000E+00
  0.00000000E+00  0.00000000E+00  0.00000000E+00
