Amorphous Sb                            
  0.970000000000000     
    20.1278877258000009    0.0000000000000000    0.0000000000000000
     0.0000000000000000   20.1278877258000009    0.0000000000000000
     0.0000000000000000    0.0000000000000000   20.1278877258000009
   Ge   Se
   150   150
Selective dynamics
Direct
  0.8165118690000028  0.3946960569999973  0.3574110870000027   F   F   F
  0.7584902640000024  0.5502476099999996  0.6040061710000018   F   F   F
  0.9009631870000021  0.4910475309999995  0.4842960829999967   F   F   F
  0.7496008869999997  0.6805205940000008  0.1857844740000019   F   F   F
  0.8410634399999992  0.8268708590000031  0.3793723579999977   F   F   F
  0.5937990549999981  0.8538532849999996  0.5237411259999973   F   F   F
  0.0364786760000015  0.3513431249999996  0.4058486819999985   F   F   F
  0.9242142439999981  0.6569729449999997  0.3274040519999986   F   F   F
  0.7428033349999978  0.7506048680000035  0.6833686829999976   F   F   F
  0.7695150380000015  0.5198313590000012  0.3527172800000002   F   F   F
  0.5419463519999965  0.6540923709999973  0.6156412959999997   F   F   F
  0.7569697500000032  0.3357405069999970  0.5190030930000020   F   F   F
  0.6547109480000017  0.5662705900000020  0.1684091389999978   F   F   F
  0.6851938369999999  0.7016353010000032  0.5192888979999992   F   F   F
  0.7437458039999996  0.8140426869999970  0.2938403489999999   F   F   F
  0.7312344910000022  0.6466585989999984  0.4007343950000006   F   F   F
  0.9211552140000023  0.4467973109999974  0.2030193809999972   F   F   F
  0.8365761040000024  0.2162057910000001  0.3786076009999988   F   F   F
  0.7205893399999965  0.3969926830000006  0.2197672129999972   F   F   F
  0.5757732962143867  0.5734768363308840  0.9318032726699400   T   T   T
  0.1663107274175898  0.4632120975878261  0.6817151995815340   T   T   T
  0.4240427703708390  0.3586015297079641  0.6998328119589551   T   T   T
  0.8129969772743374  0.0073246432893481  0.5805347761034070   T   T   T
  0.8869088700025954  0.5788149862093689  0.6766842805078688   T   T   T
  0.0363721484524881  0.7502996029383655  0.8798352482984469   T   T   T
  0.1135221531934003  0.1336808834953356  0.3543817339609818   T   T   T
  0.3262260667126496  0.5808601301426394  0.8152936537804412   T   T   T
  0.3077414095235884  0.8867277694552106  0.3211993383991695   T   T   T
  0.4237071701581584  0.0420056688972734  0.4052290065998879   T   T   T
  0.9822866258417635  0.0653985591190073  0.5141460709558695   T   T   T
  0.5141645496904200  0.2998578851861375  0.9449445145026808   T   T   T
  0.5868555983704261  0.4590375484688547  0.5764984102628715   T   T   T
  0.1794356370855919  0.8545788975089784  0.0531451941028804   T   T   T
  0.7812333203077773  0.9273506984688263  0.4486597897907059   T   T   T
  0.0564237677771548  0.7068521294878963  0.1615781924402597   T   T   T
  0.1456875518851335  0.8314649352229372  0.3473234488964734   T   T   T
  0.1151279195942443  0.6894956564350243  0.9718982833059555   T   T   T
  0.1129026035119985  0.9514057844788895  0.4536791083834405   T   T   T
  0.1389072814965552  0.9218879742760828  0.1619891318676125   T   T   T
  0.3873630203488342  0.6784245371478582  0.9709464847146695   T   T   T
  0.9777766831003736  0.1119646304374501  0.8002338675386492   T   T   T
  0.0399464856937451  0.1822094240320956  0.1962439566553557   T   T   T
  0.5152893894943076  0.3133225800807120  0.2404846006318481   T   T   T
  0.4486773282644832  0.1837527353988336  0.6124227788575016   T   T   T
  0.3163960632305435  0.7966830653353202  0.6088275809563528   T   T   T
  0.6845332944523119  0.9276441875603338  0.0511580613649035   T   T   T
  0.9150644689130810  0.7958455945389191  0.6726089474185180   T   T   T
  0.8833483445315650  0.4959650750825357  0.7837755078677054   T   T   T
  0.9423433921279388  0.0734217194094665  0.3377862938305320   T   T   T
  0.3652381142425358  0.4298098741166191  0.1363103528028722   T   T   T
  0.0636301145333275  0.5207050988656875  0.5140843035055429   T   T   T
  0.4263635682561214  0.4627953289681253  0.9435918574998317   T   T   T
  0.1562804640895577  0.1514709437324656  0.1429373808374849   T   T   T
  0.2860196056827781  0.3960080854802250  0.0402794056538856   T   T   T
  0.6416386222471854  0.4061309870871082  0.7715838673348678   T   T   T
  0.8391793111367054  0.1928525633344514  0.5532168499855232   T   T   T
  0.4356853183496852  0.2437532484988046  0.0932338049108718   T   T   T
  0.2497117219199322  0.6680160640179953  0.3211444312509781   T   T   T
  0.3393102377629240  0.4782610410216764  0.5552080157608402   T   T   T
  0.8907187151784860  0.8433258713305122  0.1621609967566082   T   T   T
  0.9945949274506710  0.8707793173774465  0.0103884945048715   T   T   T
  0.6224854861943756  0.1603521342223821  0.3094638010470117   T   T   T
  0.2065021314821626  0.4996660629474056  0.8946216786069092   T   T   T
  0.9574675072192876  0.2945091423638241  0.1367559733983861   T   T   T
  0.6022011553791272  0.7410000367604480  0.8763506333960385   T   T   T
  0.5991940180510968  0.2694052083026864  0.5927546748152750   T   T   T
  0.0465632802413652  0.5981993338559416  0.3244102776990367   T   T   T
  0.0146961848264514  0.9042378277105294  0.2850732234294678   T   T   T
  0.1420723101598629  0.7162110621660722  0.4679996325203202   T   T   T
  0.8840239307472777  0.3192948341398001  0.6675352330221441   T   T   T
  0.0126419010060110  0.1909662739494649  0.7008886081280132   T   T   T
  0.5292176735851779  0.5540459298404481  0.2770873572477436   T   T   T
  0.6121700985670602  0.1805925559000086  0.1277947619833245   T   T   T
  0.5207939606901012  0.6249660044220523  0.1445543878210208   T   T   T
  0.8323178416264403 -0.0034703492447811  0.7962067876815597   T   T   T
  0.5371900960164531  0.7998750189966325  0.0486517399259281   T   T   T
  0.0667446267459281  0.4106483935038140  0.0148916716411518   T   T   T
  0.9002962545081218  0.8646127769346950  0.5531143694492038   T   T   T
  0.8272110725240013  0.2901038176632156  0.0562252800206775   T   T   T
  0.8633670487423645  0.1960823301592833  0.8391719316518644   T   T   T
  0.9293528523570089  0.3358612387513240  0.8411313033958631   T   T   T
  0.3442855318572954  0.1350225947638387  0.2161505325119764   T   T   T
  0.3354320960761498  0.5974091862983909  0.4873223191264927   T   T   T
  0.5596594653653649  0.9173535468454080  0.4014178482750108   T   T   T
  0.2976426277384678  0.4155445591232472  0.7162380904514090   T   T   T
  0.6418635784083796  0.9322480983633001  0.1965396360987937   T   T   T
  0.2297886052513910  0.2696634918981923  0.2584697338727566   T   T   T
  0.7753400803606686  0.0901917878589367 -0.0065531118175572   T   T   T
  0.3102498977631016  0.8639328615954694  0.0573292094682810   T   T   T
  0.2934475453965762  0.0985080957163676  0.9508849961196576   T   T   T
  0.6565487201493589  0.9513181442266929  0.8471978789057422   T   T   T
  0.8930482706417189  0.7506576395853021  0.0478157508090970   T   T   T
  0.7989101365300567  0.4665223398652434  0.0410340508662694   T   T   T
  0.2564317578342080  0.2274937841080921  0.6758070165668355   T   T   T
  0.7611055668315990  0.2657741775787348  0.8999471498275965   T   T   T
  0.4651899468798416  0.4192934712395575  0.4240613937973166   T   T   T
  0.6225548086270061  0.1513701431028667  0.9070041134639493   T   T   T
  0.1544377292591501  0.0394374460949620  0.6706831821456470   T   T   T
  0.2468702129112194  0.6370340642781384  0.6497207801680656   T   T   T
  0.7685411430766298  0.0480249988309168  0.2672973992019336   T   T   T
  0.6795667096226152  0.9197012969152191  0.6421061872154783   T   T   T
  0.5064750290191956  0.0291657859070859  0.2473852276302820   T   T   T
  0.0374330069694361  0.4457623695880982  0.6207858267690056   T   T   T
  0.2196830788904772  0.8732020822907912  0.5519081367316605   T   T   T
  0.1982638388657697  0.2980702308258750  0.0073303229285495   T   T   T
  0.1269129279315827  0.4475441613810507  0.2382263048231988   T   T   T
  0.5442214465710216  0.1969375427094421  0.7237078185570596   T   T   T
  0.1903649289153156  0.5569909495061742  0.0847891186099286   T   T   T
  0.8552655179838893  0.0163785559432531  0.1414087001606387   T   T   T
  0.3460386368757101  0.8538491829795386  0.8416685966026001   T   T   T
  0.6863918560624834  0.6869378480956818  0.0598512374083328   T   T   T
  0.9172522912923859  0.5826836434006820  0.1371748473719711   T   T   T
  0.1361268091227009  0.8356500764951951  0.9306582538146355   T   T   T
  0.6788708386842457  0.2176060402729764  0.7454120812411251   T   T   T
  0.5184524189942361  0.8431881830791594  0.7198894013298421   T   T   T
  0.0652847805771234  0.8931830509384682  0.6139500371825948   T   T   T
  0.0601807481394520  0.0020184615478770  0.0654727457276608   T   T   T
  0.2249302560530626  0.0817930066438599  0.4178045336139536   T   T   T
  0.7935373235814497  0.2253911851465867  0.2549522591094526   T   T   T
  0.3212038441065577  0.2876076233276565  0.4932088084644547   T   T   T
  0.6860349527331192  0.6329898602217550  0.7404830271678493   T   T   T
  0.4052049436555827  0.1745134550978313  0.4372787229313077   T   T   T
  0.1342722281088722  0.0354384430660495  0.8544667333700671   T   T   T
  0.8324360281798432  0.6696539437642137  0.8800836090971645   T   T   T
  0.9122450710412988  0.0508801417869950  0.9764486770716622   T   T   T
  0.1804994518634978  0.3793674711325354  0.4895443613538562   T   T   T
  0.1805472661541344  0.8116013226494513  0.7491804732361288   T   T   T
  0.4316731635657348  0.9671386324643512  0.5644107094678764   T   T   T
  0.4817615533324730  0.8760273408510113  0.9307114552992356   T   T   T
  0.2043010341654737  0.0038599006768578  0.9813959906208264   T   T   T
  0.2802511796185824  0.0241428221678947  0.0924034407600205   T   T   T
  0.5254407069364276  0.6094538594562332  0.4597671678715831   T   T   T
  0.7845947725047338  0.8148268124332949  0.8358851146113732   T   T   T
  0.4818279512195289  0.0581980911609919  0.9056185161011779   T   T   T
  0.3478639975884664  0.5205505964049487  0.2257626149151167   T   T   T
  0.0207737093356688  0.7107982064915983  0.5953093489191199   T   T   T
  0.3074672015259212  0.7259750261291721  0.2042123504649933   T   T   T
  0.3383411753168288  0.2528375161935478  0.8618530333566393   T   T   T
  0.6833278730591383  0.1161388875964191  0.6332504371643396   T   T   T
  0.4127144338199399  0.7582355950287420  0.4401507640829482   T   T   T
  0.3179580439327752 -0.0037133584182368  0.7805571282131964   T   T   T
  0.5785889283898666  0.4364871757750965  0.0633638339088006   T   T   T
  0.2830790192938900  0.0510175588616869  0.6134293423092475   T   T   T
  0.0151389369880151  0.2596685238392947  0.9243357296065640   T   T   T
  0.5788150313385693  0.2435279742068885  0.4186839200803582   T   T   T
  0.0987557890557582  0.2050876967744174  0.5220195308563322   T   T   T
  0.0749633659847939  0.6561919507099949  0.7584518063992693   T   T   T
  0.4569257070470052  0.8351417497202409  0.1834349635209801   T   T   T
  0.4809852185587691  0.5272891178048880  0.7729750570972658   T   T   T
  0.9629537903555008  0.5284709109849185  0.9388959619924693   T   T   T
  0.7750768083992542  0.1056028841143981  0.8633708176755209   T   T   T
  0.9850330717354913  0.9737384260160007  0.4121359574214136   T   T   T
  0.1250996730141528  0.7011521284802350  0.2985032009673678   T   T   T
  0.9098251518164896  0.4369408514151614  0.6184246082298729   T   T   T
  0.3756170900299982  0.7639543639658156  0.0874672546708268   T   T   T
  0.0502732403022938  0.0685465375257016  0.2594866000007285   T   T   T
  0.5874471583976033  0.4599600612421545  0.2013121089527101   T   T   T
  0.6819323195794461  0.0152060912132702  0.5487998184835420   T   T   T
  0.5524269498705766  0.3051611354629619  0.0728793455144287   T   T   T
  0.1378240317739063  0.0653853893435348  0.5155375222899928   T   T   T
  0.9580998516060224  0.8025300851280540  0.3404097756138521   T   T   T
  0.7127117574538311  0.0046677166313707  0.7387576183981569   T   T   T
  0.2291838492812629  0.9137408191714795  0.6811829461029161   T   T   T
  0.8808409568292257  0.6863015287428382  0.2107375497738519   T   T   T
  0.5124446957881148  0.1651344230157291  0.9771951517227176   T   T   T
  0.2462229035615183  0.2393866712533468  0.1378713773922664   T   T   T
  0.4320397691419741  0.9140365889497158  0.4241367019521479   T   T   T
  0.0446439519886769  0.0089251241718418  0.7649874374045569   T   T   T
  0.6712477707817259  0.2541386177309769  0.2264902962570927   T   T   T
  0.6578746618522420  0.0398840342074770  0.9961647182075580   T   T   T
  0.6927424309215982  0.2018502525468726  0.5319681080647348   T   T   T
  0.1319050345179220  0.1053656292157501  0.0267087694747303   T   T   T
  0.8333029372202384  0.5349435767247556  0.8933044688784437   T   T   T
  0.2382367907204305  0.3871634900685907  0.2815438109165098   T   T   T
  0.3235701548650988  0.4510107022808889  0.8372458196850061   T   T   T
  0.2136398207808766  0.8386793182169470  0.2358481383406637   T   T   T
  0.3772346013486318  0.0273899143610834  0.2875731569430428   T   T   T
  0.2893921695980035  0.5170599925766829  0.9972587814390267   T   T   T
  0.5392542073235028  0.8990499941637766  0.2729530853668857   T   T   T
  0.4409985152021854  0.3094460409538508  0.5856053208872486   T   T   T
  0.3920069022058967  0.3225263410330922  0.1938492945350854   T   T   T
  0.8947336293069106  0.9510106085719526  0.2493404401047243   T   T   T
  0.3532604623322645  0.9389346275246608  0.1464350206913135   T   T   T
  0.0874492148456428  0.4702638925532939  0.4005322772847451   T   T   T
  0.1104665227763389  0.5628182431243053  0.9824439800608050   T   T   T
  0.5575331535779489  0.4407266135314571  0.9205147027762584   T   T   T
  0.3905480396938866  0.0377655683195188  0.6807705477808725   T   T   T
  0.4704211895060834  0.2871260262782133  0.3662783039721141   T   T   T
  0.5947213990561393  0.5302087903133278  0.3833588203602133   T   T   T
  0.3731057999430752  0.1041529703930698  0.8525064757998791   T   T   T
  0.3051308474728736  0.9687059847489075  0.5168472865359227   T   T   T
  0.0043484497708825  0.1706650677924593  0.4101854012709303   T   T   T
  0.5613528174309950  0.9312086183736683  0.0926529942231972   T   T   T
  0.4584542002220987  0.9227659144801262  0.8094636845180438   T   T   T
  0.7178585200147204  0.5086274024263940  0.7260765443074393   T   T   T
  0.1842546940381783  0.9774776694623512  0.3498234798532408   T   T   T
  0.5444080097257833  0.7654301606031184  0.4381255131719606   T   T   T
  0.8251673269766557  0.3804367590489889  0.7704861921249988   T   T   T
  0.3802583130102172  0.6932451788589750  0.5576538791684986   T   T   T
  0.6405977197450927  0.2810136152990550  0.8564237562231244   T   T   T
  0.3337846866869129  0.1542004120263333  0.5512462519845455   T   T   T
  0.7471724275215842  0.8150490937501909  0.1685843823064366   T   T   T
  0.2550495048598189  0.8042623143706409  0.4129525127518007   T   T   T
  0.9243096574341466  0.7979962040421656  0.9248988404732237   T   T   T
  0.8184058856637293  0.3699325691248795  0.9470461732783561   T   T   T
  0.9675848084472889  0.1947190129411100  0.5845755479969049   T   T   T
  0.2258637020829566  0.0637190377313097  0.2004654020950422   T   T   T
  0.5580474331331929  0.6355704331304224  0.7442394736523448   T   T   T
  0.9534275997941430  0.9656427465586820  0.6145605071595723   T   T   T
  0.0770526683226117  0.1692287536029174  0.8564467708556722   T   T   T
  0.5352259808788803  0.4278855211862418  0.6922271610153197   T   T   T
  0.2549380785853667  0.3326352251047761  0.5959135150151755   T   T   T
  0.3645166281895243  0.1081423355051769  0.0524920122832807   T   T   T
  0.7263366586983203  0.2105356658841404  0.0116120669002095   T   T   T
  0.8071132919059052  0.6609132223258768  0.0190501629289569   T   T   T
  0.8412688885262315  0.1669006971954338  0.1642356631985506   T   T   T
  0.4738894831004604  0.5070015147571272  0.5364487255936785   T   T   T
  0.4348574944255945  0.4704090000645045  0.3034139127509776   T   T   T
  0.3937794195591931  0.7828209848084093  0.2832892724325854   T   T   T
  0.0298015790072459  0.8191712199419118  0.7181190342271478   T   T   T
  0.6552357380863489  0.8280167953938378  0.7937819646393327   T   T   T
  0.5584552304629957  0.7493806950652153  0.1699435802777937   T   T   T
  0.8674543377256334  0.6936619858099082  0.7398477545179383   T   T   T
  0.0616844969894981  0.2782435790746158  0.0489508999624490   T   T   T
  0.7786054594377069  0.9296160087036242  0.8977126380675677   T   T   T
  0.6561142864158186  0.8003899407873429  0.9858806461709618   T   T   T
  0.6502626441513991  0.0671718995645509  0.2075432883039647   T   T   T
  0.1820457357699510  0.5750956727958608  0.7496835201277084   T   T   T
  0.7706137168022418  0.4749384758184487  0.4930026106662161   T   T   T
  0.4635432692067105  0.2730086835697965  0.7842637056906946   T   T   T
  0.9605238229814164  0.0813265666242993  0.0951381164316352   T   T   T
  0.4105956663882628  0.6311529239404554  0.3895196372958214   T   T   T
  0.1103386295689424  0.2443810141913117  0.2891774313421426   T   T   T
  0.0164739083216412  0.8209500864975929  0.5145498976324018   T   T   T
  0.2971084653595647  0.7420706365191756  0.7226492690266393   T   T   T
  0.7127824433968656  0.9414302009526130  0.3340981193324454   T   T   T
  0.3590270115446523  0.9233551025456191  0.9564361439758819   T   T   T
  0.0331545887095428  0.8424494939131156  0.1635542761495433   T   T   T
  0.8529664345641352  0.0807085310855850  0.4805138100756406   T   T   T
  0.7042428058991735  0.8250100136869322  0.4599286864991948   T   T   T
  0.0017858821126242  0.3142468422761835  0.7280887371133559   T   T   T
  0.6991903205856865  0.6479379931426401  0.8670792148954877   T   T   T
  0.1504756170669064  0.3797006987827201  0.9160380711696393   T   T   T
  0.4398665859273751  0.5884221906035425  0.8872413893543257   T   T   T
 -0.0110362261250661  0.6257940089283596  0.8547541379463107   T   T   T
  0.5031186585358282  0.1847106640657284  0.2061217989948338   T   T   T
  0.3833737333287280  0.3218803197187589  0.9771164247255689   T   T   T
  0.8727214653905951  0.9177759969258299  0.0531464972698913   T   T   T
  0.7353152100265382  0.1243982214613376  0.3704408183430329   T   T   T
  0.2116580495432786  0.7334359183656607  0.9013366227374464   T   T   T
  0.1867667395181650  0.5146354596400861  0.5663301400136962   T   T   T
  0.5570186153063789  0.0948049312859896  0.8007794518389851   T   T   T
  0.3832348936531307  0.5676716503285337  0.7007131059237863   T   T   T
  0.1933114440012017  0.9069779408780380  0.8454497570359287   T   T   T
  0.0247717383249582  0.9789428705632381  0.9414193124315740   T   T   T
  0.2188211420291861  0.6120585816152742  0.4354217576704947   T   T   T
  0.9114467741241209  0.1897977638361264  0.9600926743448706   T   T   T
  0.2470726657986209  0.3097692146070863  0.7754915021667805   T   T   T
  0.3015240624096077  0.1921141494388152  0.3225440648383751   T   T   T
  0.4356099168244383  0.7630691209056086  0.8830467825416290   T   T   T
  0.0349611182593710  0.5632889130777221  0.1969318638872409   T   T   T
  0.9826117618398368  0.6607135852569399  0.0518527065597538   T   T   T
  0.2001835461591795  0.2539732228467325  0.4418604448915457   T   T   T
  0.2304717175932412  0.2029982365845438  0.9180125191780673   T   T   T
 -0.0065215892500087  0.4498454789557599  0.8333284604140775   T   T   T
  0.5484952152030956  0.0513180380720838  0.3714111823573986   T   T   T
  0.6678427921298634  0.5527916318912053  0.0365615555445726   T   T   T
  0.2242350383848464  0.0881346938603440  0.7709062251367818   T   T   T
  0.4575845202521800  0.4901014426658369  0.0736974634714728   T   T   T
  0.6122021155198382  0.3554271058021252  0.4942152850594065   T   T   T
  0.2334853493949258  0.5529318731227847  0.2561547764916318   T   T   T
  0.0616089564725509  0.3421272808860467  0.5378697281151453   T   T   T
  0.8309890588875489  0.8719005563999166  0.7288795442140071   T   T   T
  0.3893976844119625  0.6242531456528597  0.1712578318524542   T   T   T
  0.1672462010108336  0.7258761827995686  0.0860250796041073   T   T   T
  0.5129678531928313  0.6617800081072468  0.0164315894366872   T   T   T
  0.6906814495961102  0.3260159150047437  0.6762183767709991   T   T   T
  0.4329832204301823  0.8464758932185421  0.6107899005131209   T   T   T
  0.3332370761785269  0.4137428611655293  0.4432856165727854   T   T   T
  0.1538408098175739  0.7249176749836995  0.6017642935468210   T   T   T
  0.8123518108730323  0.1198478097709114  0.6576834604900692   T   T   T
  0.0191660804457801  0.3641380105161268  0.2328193415417180   T   T   T
  0.9228548498398104  0.4160355889030877  0.0786076101643924   T   T   T
  0.1606138683730131  0.4299744185698128  0.1087536737017280   T   T   T
  0.5201557722815204  0.1596822567697221  0.5062487371912594   T   T   T
  0.0305153404011162  0.6384130229825173  0.4804314553967088   T   T   T
  0.1326351595825999  0.1831380076080366  0.6562036080490582   T   T   T
  0.0153214066560458  0.5816163651738365  0.6697065529201249   T   T   T
  0.7260319538687878  0.3718600303529799  0.0935739906636267   T   T   T
  0.5588814946329373  0.9521564897663570  0.6673514440135708   T   T   T
  0.7937417629999999  0.7033995390000030  0.5802567599999975   F   F   F
  0.8970372080000004  0.5344469549999999  0.3521536590000025   F   F   F
  0.9105228780000019  0.3674127159999969  0.4378188849999987   F   F   F
  0.7631037829999983  0.5180714130000013  0.2184454799999997   F   F   F
  0.6435669059999967  0.5857456920000033  0.5546893479999966   F   F   F
  0.6865011450000011  0.7020694610000007  0.2977844179999991   F   F   F
  0.7414086459999965  0.3046995999999993  0.3933571279999981   F   F   F
  0.8415666220000020  0.7041201589999986  0.4115778509999970   F   F   F
  0.8426703209999999  0.3523051439999989  0.2435380519999981   F   F   F
  0.6218443510000000  0.7562983629999991  0.6257421370000031   F   F   F
 
  0.00000000E+00  0.00000000E+00  0.00000000E+00
  0.00000000E+00  0.00000000E+00  0.00000000E+00
  0.00000000E+00  0.00000000E+00  0.00000000E+00
  0.00000000E+00  0.00000000E+00  0.00000000E+00
  0.00000000E+00  0.00000000E+00  0.00000000E+00
  0.00000000E+00  0.00000000E+00  0.00000000E+00
  0.00000000E+00  0.00000000E+00  0.00000000E+00
  0.00000000E+00  0.00000000E+00  0.00000000E+00
  0.00000000E+00  0.00000000E+00  0.00000000E+00
  0.00000000E+00  0.00000000E+00  0.00000000E+00
  0.00000000E+00  0.00000000E+00  0.00000000E+00
  0.00000000E+00  0.00000000E+00  0.00000000E+00
  0.00000000E+00  0.00000000E+00  0.00000000E+00
  0.00000000E+00  0.00000000E+00  0.00000000E+00
  0.00000000E+00  0.00000000E+00  0.00000000E+00
  0.00000000E+00  0.00000000E+00  0.00000000E+00
  0.00000000E+00  0.00000000E+00  0.00000000E+00
  0.00000000E+00  0.00000000E+00  0.00000000E+00
  0.00000000E+00  0.00000000E+00  0.00000000E+00
  0.00000000E+00  0.00000000E+00  0.00000000E+00
  0.00000000E+00  0.00000000E+00  0.00000000E+00
  0.00000000E+00  0.00000000E+00  0.00000000E+00
  0.00000000E+00  0.00000000E+00  0.00000000E+00
  0.00000000E+00  0.00000000E+00  0.00000000E+00
  0.00000000E+00  0.00000000E+00  0.00000000E+00
  0.00000000E+00  0.00000000E+00  0.00000000E+00
  0.00000000E+00  0.00000000E+00  0.00000000E+00
  0.00000000E+00  0.00000000E+00  0.00000000E+00
  0.00000000E+00  0.00000000E+00  0.00000000E+00
  0.00000000E+00  0.00000000E+00  0.00000000E+00
  0.00000000E+00  0.00000000E+00  0.00000000E+00
  0.00000000E+00  0.00000000E+00  0.00000000E+00
  0.00000000E+00  0.00000000E+00  0.00000000E+00
  0.00000000E+00  0.00000000E+00  0.00000000E+00
  0.00000000E+00  0.00000000E+00  0.00000000E+00
  0.00000000E+00  0.00000000E+00  0.00000000E+00
  0.00000000E+00  0.00000000E+00  0.00000000E+00
  0.00000000E+00  0.00000000E+00  0.00000000E+00
  0.00000000E+00  0.00000000E+00  0.00000000E+00
  0.00000000E+00  0.00000000E+00  0.00000000E+00
  0.00000000E+00  0.00000000E+00  0.00000000E+00
  0.00000000E+00  0.00000000E+00  0.00000000E+00
  0.00000000E+00  0.00000000E+00  0.00000000E+00
  0.00000000E+00  0.00000000E+00  0.00000000E+00
  0.00000000E+00  0.00000000E+00  0.00000000E+00
  0.00000000E+00  0.00000000E+00  0.00000000E+00
  0.00000000E+00  0.00000000E+00  0.00000000E+00
  0.00000000E+00  0.00000000E+00  0.00000000E+00
  0.00000000E+00  0.00000000E+00  0.00000000E+00
  0.00000000E+00  0.00000000E+00  0.00000000E+00
  0.00000000E+00  0.00000000E+00  0.00000000E+00
  0.00000000E+00  0.00000000E+00  0.00000000E+00
  0.00000000E+00  0.00000000E+00  0.00000000E+00
  0.00000000E+00  0.00000000E+00  0.00000000E+00
  0.00000000E+00  0.00000000E+00  0.00000000E+00
  0.00000000E+00  0.00000000E+00  0.00000000E+00
  0.00000000E+00  0.00000000E+00  0.00000000E+00
  0.00000000E+00  0.00000000E+00  0.00000000E+00
  0.00000000E+00  0.00000000E+00  0.00000000E+00
  0.00000000E+00  0.00000000E+00  0.00000000E+00
  0.00000000E+00  0.00000000E+00  0.00000000E+00
  0.00000000E+00  0.00000000E+00  0.00000000E+00
  0.00000000E+00  0.00000000E+00  0.00000000E+00
  0.00000000E+00  0.00000000E+00  0.00000000E+00
  0.00000000E+00  0.00000000E+00  0.00000000E+00
  0.00000000E+00  0.00000000E+00  0.00000000E+00
  0.00000000E+00  0.00000000E+00  0.00000000E+00
  0.00000000E+00  0.00000000E+00  0.00000000E+00
  0.00000000E+00  0.00000000E+00  0.00000000E+00
  0.00000000E+00  0.00000000E+00  0.00000000E+00
  0.00000000E+00  0.00000000E+00  0.00000000E+00
  0.00000000E+00  0.00000000E+00  0.00000000E+00
  0.00000000E+00  0.00000000E+00  0.00000000E+00
  0.00000000E+00  0.00000000E+00  0.00000000E+00
  0.00000000E+00  0.00000000E+00  0.00000000E+00
  0.00000000E+00  0.00000000E+00  0.00000000E+00
  0.00000000E+00  0.00000000E+00  0.00000000E+00
  0.00000000E+00  0.00000000E+00  0.00000000E+00
  0.00000000E+00  0.00000000E+00  0.00000000E+00
  0.00000000E+00  0.00000000E+00  0.00000000E+00
  0.00000000E+00  0.00000000E+00  0.00000000E+00
  0.00000000E+00  0.00000000E+00  0.00000000E+00
  0.00000000E+00  0.00000000E+00  0.00000000E+00
  0.00000000E+00  0.00000000E+00  0.00000000E+00
  0.00000000E+00  0.00000000E+00  0.00000000E+00
  0.00000000E+00  0.00000000E+00  0.00000000E+00
  0.00000000E+00  0.00000000E+00  0.00000000E+00
  0.00000000E+00  0.00000000E+00  0.00000000E+00
  0.00000000E+00  0.00000000E+00  0.00000000E+00
  0.00000000E+00  0.00000000E+00  0.00000000E+00
  0.00000000E+00  0.00000000E+00  0.00000000E+00
  0.00000000E+00  0.00000000E+00  0.00000000E+00
  0.00000000E+00  0.00000000E+00  0.00000000E+00
  0.00000000E+00  0.00000000E+00  0.00000000E+00
  0.00000000E+00  0.00000000E+00  0.00000000E+00
  0.00000000E+00  0.00000000E+00  0.00000000E+00
  0.00000000E+00  0.00000000E+00  0.00000000E+00
  0.00000000E+00  0.00000000E+00  0.00000000E+00
  0.00000000E+00  0.00000000E+00  0.00000000E+00
  0.00000000E+00  0.00000000E+00  0.00000000E+00
  0.00000000E+00  0.00000000E+00  0.00000000E+00
  0.00000000E+00  0.00000000E+00  0.00000000E+00
  0.00000000E+00  0.00000000E+00  0.00000000E+00
  0.00000000E+00  0.00000000E+00  0.00000000E+00
  0.00000000E+00  0.00000000E+00  0.00000000E+00
  0.00000000E+00  0.00000000E+00  0.00000000E+00
  0.00000000E+00  0.00000000E+00  0.00000000E+00
  0.00000000E+00  0.00000000E+00  0.00000000E+00
  0.00000000E+00  0.00000000E+00  0.00000000E+00
  0.00000000E+00  0.00000000E+00  0.00000000E+00
  0.00000000E+00  0.00000000E+00  0.00000000E+00
  0.00000000E+00  0.00000000E+00  0.00000000E+00
  0.00000000E+00  0.00000000E+00  0.00000000E+00
  0.00000000E+00  0.00000000E+00  0.00000000E+00
  0.00000000E+00  0.00000000E+00  0.00000000E+00
  0.00000000E+00  0.00000000E+00  0.00000000E+00
  0.00000000E+00  0.00000000E+00  0.00000000E+00
  0.00000000E+00  0.00000000E+00  0.00000000E+00
  0.00000000E+00  0.00000000E+00  0.00000000E+00
  0.00000000E+00  0.00000000E+00  0.00000000E+00
  0.00000000E+00  0.00000000E+00  0.00000000E+00
  0.00000000E+00  0.00000000E+00  0.00000000E+00
  0.00000000E+00  0.00000000E+00  0.00000000E+00
  0.00000000E+00  0.00000000E+00  0.00000000E+00
  0.00000000E+00  0.00000000E+00  0.00000000E+00
  0.00000000E+00  0.00000000E+00  0.00000000E+00
  0.00000000E+00  0.00000000E+00  0.00000000E+00
  0.00000000E+00  0.00000000E+00  0.00000000E+00
  0.00000000E+00  0.00000000E+00  0.00000000E+00
  0.00000000E+00  0.00000000E+00  0.00000000E+00
  0.00000000E+00  0.00000000E+00  0.00000000E+00
  0.00000000E+00  0.00000000E+00  0.00000000E+00
  0.00000000E+00  0.00000000E+00  0.00000000E+00
  0.00000000E+00  0.00000000E+00  0.00000000E+00
  0.00000000E+00  0.00000000E+00  0.00000000E+00
  0.00000000E+00  0.00000000E+00  0.00000000E+00
  0.00000000E+00  0.00000000E+00  0.00000000E+00
  0.00000000E+00  0.00000000E+00  0.00000000E+00
  0.00000000E+00  0.00000000E+00  0.00000000E+00
  0.00000000E+00  0.00000000E+00  0.00000000E+00
  0.00000000E+00  0.00000000E+00  0.00000000E+00
  0.00000000E+00  0.00000000E+00  0.00000000E+00
  0.00000000E+00  0.00000000E+00  0.00000000E+00
  0.00000000E+00  0.00000000E+00  0.00000000E+00
  0.00000000E+00  0.00000000E+00  0.00000000E+00
  0.00000000E+00  0.00000000E+00  0.00000000E+00
  0.00000000E+00  0.00000000E+00  0.00000000E+00
  0.00000000E+00  0.00000000E+00  0.00000000E+00
  0.00000000E+00  0.00000000E+00  0.00000000E+00
  0.00000000E+00  0.00000000E+00  0.00000000E+00
  0.00000000E+00  0.00000000E+00  0.00000000E+00
  0.00000000E+00  0.00000000E+00  0.00000000E+00
  0.00000000E+00  0.00000000E+00  0.00000000E+00
  0.00000000E+00  0.00000000E+00  0.00000000E+00
  0.00000000E+00  0.00000000E+00  0.00000000E+00
  0.00000000E+00  0.00000000E+00  0.00000000E+00
  0.00000000E+00  0.00000000E+00  0.00000000E+00
  0.00000000E+00  0.00000000E+00  0.00000000E+00