Ge Se                                   
   1.00000000000000     
    20.9479177037426325    0.0000000000000000    0.0000000000000000
     0.0000000000000000   20.9479177037426325    0.0000000000000000
     0.0000000000000000    0.0000000000000000   20.9479177037426325
   Ge   Se
   149   151
Direct
  0.7457102042663593  0.0492868482786264  0.3743322197879451
  0.3775305309987189  0.3705396378275196  0.0078980405643563
  0.4684091560052153  0.3626910660192024  0.4157919921254205
  0.2098166755421431  0.6156499467666663  0.5053273676683077
  0.8416547283135785  0.9617104829448522  0.0134042055910584
  0.3928348519904432  0.0111830921950400  0.0414557501558264
  0.2940987394198515  0.3876868722224458  0.7571647534148767
  0.6414474087444830  0.8274836611874790  0.3936795881700377
  0.2816397256830996  0.3162147712824819  0.2719127472862866
  0.6190888621732213  0.7541332342780649  0.8607594002417613
  0.6421217528909082  0.9245140616503633  0.4658331558562807
  0.2784365585631932  0.2876514103930887  0.4130141516906747
  0.9172592979801308  0.4847819164387701  0.3044713496151346
  0.2364609630872962  0.4976129883487843  0.5139261836051858
  0.2031044874176331  0.0363271923894786  0.2634775477734976
  0.3203622397874497  0.1565979042992609  0.9402197204508909
  0.9016524408806958  0.2116185727078914  0.3329923866214912
  0.9967670528007133  0.0121240726463085  0.2743542542337494
  0.4314439865467818  0.6064751235093198  0.1801323602312692
  0.2901244674951400  0.4837164659923872  0.6201042534724479
  0.4612045620325560  0.5009448046207652  0.0848550847127854
  0.6112656036658493  0.8616009124926620  0.5630782425645364
  0.5968625631725644  0.0160716748968426  0.8516505750031911
  0.8411157071888624  0.2466400868926399  0.5960201337408932
  0.1479269498938223  0.1697995398580332  0.1626422280855806
  0.2780938264353452  0.8839002007609764  0.0454602940577189
  0.7679319190178191  0.2488888488717080  0.7391134146096334
  0.6918917005451561  0.7180379200796736  0.2576779163852123
  0.4808056877401299  0.6110059486365458  0.7778148282097703
  0.1430701471614455  0.7424313746929769  0.0405694967510257
  0.0248621211424194  0.2510920310868698  0.5308207187686946
  0.4905759850513363  0.7472885550432906  0.2621729873438667
  0.7045995661491418  0.0718364746596265  0.7425923539252679
  0.3469638113335662  0.7756680336769008  0.7396816346225989
  0.8836731259741484  0.9073628620913183  0.8893280052244208
  0.3443763915613616  0.5102638094179213  0.3741064172434676
  0.9453144550005561  0.9775330669423283  0.8057176939887185
  0.3903770303307752  0.1928097181507979  0.8145812368995919
  0.3524744260711685  0.0761641028525943  0.1408980825062613
  0.1334744310632487  0.8031107119174621  0.8009288930687646
  0.2019765817816577  0.2923517315307080  0.0340460287190609
  0.2391363121479060  0.0788302716123965  0.5312969329141310
  0.9472895584357417  0.0086057061066143  0.0833986289231561
  0.6858881351232853  0.5658463272187078  0.3456422129044654
  0.1485317012745071  0.3446548402695413  0.5134450210065822
  0.2960938898770777  0.6841779266958667  0.4562554745468788
  0.6124129689625519  0.4345736653366430  0.1710723040199298
  0.6985315860864603  0.1874564798852347  0.5614743632271768
  0.9082321765611709  0.7351279444633647  0.1187895204435634
  0.6986336670847351  0.4155408384586750  0.4836841633186424
  0.7238664044554639  0.8123587289087197  0.9324771950928010
  0.7026478679605077  0.4627289880972256  0.8498735713036112
  0.4531819055956205  0.6376809854105545  0.5787259304529258
  0.3442396062012349  0.7751426781511910  0.1584609155324941
  0.8238456388969766  0.1374674016603450  0.9677017799246244
  0.5801240213724839  0.5784203858148160  0.0718435675276297
  0.0922161945403133  0.4385760037517912  0.8320552996465054
  0.7426140105750818  0.8340118325421031  0.5250499928368910
  0.1483900918461316  0.6206901765460273  0.8682723340688625
  0.9510141582227050  0.8037597375737775  0.8849041870429986
  0.9985185531428726  0.8178735085616893  0.2173279651110107
  0.9493997524809643  0.0481589032945777  0.3861047598699443
  0.5231059588972613  0.8995286632753192  0.7217559373730182
  0.3265174370196178  0.6292711333479701  0.2983976053145909
  0.8286301202231030  0.7467260088751146  0.8186040978019449
  0.2110684839630039  0.4643556268623783  0.2783867894651735
  0.4478631407756879  0.2081624289537913  0.6988907205587580
  0.5717311170762400  0.1678171892580806  0.5711068777754562
  0.8447101590213819  0.5401352016328858  0.4957837101473785
  0.7689951037619522  0.3129321223240993  0.1498008657096150
  0.1263470792119747  0.8035460052422465  0.5788378583479385
  0.8444618275310560  0.9004811062067049  0.1905322990062572
  0.5552625675294891  0.3870599346893400  0.0175954498225934
  0.8361848703169841  0.3870316367925284  0.5087579158485909
  0.5726053529673365  0.7114245133891473  0.1783252675307097
  0.5954644305042294  0.0828260358870097  0.3528520920406422
  0.2011799858819643  0.3082713275119815  0.9012164220061649
  0.6854277280557213  0.9089161574317615  0.6467363368004229
  0.4647340051479674  0.8075950290603586  0.7765124294256651
  0.3539027490703930  0.3097241736048275  0.5753034569820130
  0.8084423943682211  0.1728225651411321  0.4973862260284179
  0.8170461301455774  0.4095126778326161  0.2893470767354032
  0.6531786219292925  0.7676480726746675  0.1015004238953523
  0.4037296226467006  0.0360583423036189  0.7045191711957060
  0.0266009624133190  0.5578596557710895  0.5381645740466823
  0.0749297089881367  0.8985881483988294  0.7457681086487398
  0.4159313682514210  0.8448461990650173  0.5672595677276604
  0.0874494368514434  0.4931910260828900  0.3782687543448873
  0.7541951484845697  0.3032942617474461  0.3330403849667931
  0.1674825417071375  0.3982877515001704  0.7434734737773496
  0.0022245054500729  0.3158624495036619  0.3497820313871571
  0.6470758207440639  0.0641101357082263  0.0238454870961249
  0.2357390096282970  0.0411946894896786  0.8221142701186750
  0.8225438972539081  0.7918428945923779  0.3840604036141713
  0.2520439934792762  0.6867302550283796  0.6018248881105634
  0.1997473175213358  0.2114859381891279  0.7347711294091539
  0.7848306986354245  0.1850549959425862  0.0755652905871571
  0.4609617308467264  0.1583088301637048  0.4513847770998254
  0.2700345644405999  0.3849269816660552  0.1030328467870021
  0.4892646129019056  0.1543475867468231  0.3293109225470516
  0.4158529818060259  0.1212435416128983  0.6163707244728656
  0.0006908136027093  0.9881431412963266  0.6905375488946675
  0.7877571416884450  0.4901465290066938  0.9336525339781687
  0.5313567051177301  0.4763371320469219  0.7840067291158945
  0.9352764035574737  0.8364792207698741  0.5459609102267819
  0.9564138384444902  0.5506070976431161  0.9345320469375977
  0.4866129151166305  0.0690585480703731  0.5307586041071843
  0.2514274874415037  0.8538556206679502  0.6851913117551049
  0.6792908717098385  0.8924895989598767  0.0674619853767027
  0.0751784772714785  0.4134778707168181  0.6559244669535289
  0.2296440620748612  0.8341883926375289  0.2793458613110502
  0.0703754902416875  0.7980240649035011  0.9113332214429448
  0.5277238711116610  0.3357464740257612  0.6146230739956735
  0.6427313027757151  0.4782875828961366  0.6156913537351940
  0.4785886712386755  0.5061072720009889  0.4941086890509254
  0.3115933879802242  0.8214599465879502  0.8892305089696251
  0.9207429767043465  0.6231105494819289  0.6430894872707782
  0.6767371373546993  0.6500011585635193  0.8218825614153786
  0.9881144592618440  0.8305584466230442  0.6964334603771718
  0.6131725437057511  0.2404979540117438  0.0757152351162986
  0.9189766253828395  0.4133744838481803  0.8738571932374768
  0.3776342399968726  0.0109445753740971  0.4896127425985455
  0.9693188868246878  0.1228766539484312  0.8866337808764442
  0.0881668751018267  0.0687669144850673  0.7729040209529714
  0.1011182268957285  0.1578427638671442  0.3728141975097046
  0.2190983124587547  0.4496042256695532  0.9869640812939409
  0.1171456909199975  0.1016603638521900  0.5448554120508291
  0.4336342403687183  0.2059624472503216  0.0685219450854504
  0.5990621505631424  0.7382946378393385  0.5652414432782180
  0.2927754426106901  0.4145780386115163  0.4387377593057380
  0.4119009724173779  0.8374653078226828  0.2415912625596590
  0.7739841547690602  0.5799573229379860  0.1984094189841770
  0.3299781176747274  0.2052010076146686  0.1394437347464148
  0.9578073584005011  0.6300216345753071  0.2496900941370015
  0.9222913286410375  0.0981478846697854  0.7155753931310542
  0.2349688177554654  0.5448481471542124  0.1482199081374347
  0.3331548328560388  0.9580184201277007  0.9489756324569498
  0.3269813309477243  0.9348479319002010  0.1914837638972671
  0.4709934045838793  0.9204064310827604  0.3560700418911438
  0.6211982631044251  0.5663489643874087  0.7508474792297761
  0.4914236991649474  0.8299820587886799  0.0614839724564789
  0.6640892462310433  0.0193584722691540  0.5928194355602443
  0.7509722354735828  0.9848963366143906  0.4780289625941165
  0.5056824155183079  0.9478113769472927  0.9082527467965278
  0.3393318946617470  0.5998110384560746  0.8552317305588630
  0.3516095746359724  0.5760794279968806  0.7298320469760213
  0.5132816020941675  0.0142881316663761  0.7589073198081095
  0.9976681244846191  0.9997467773342237  0.5015323805468270
  0.3431982291942290  0.1934164845783002  0.4683828084314428
  0.0199800223154440  0.4251173911439210  0.2922830791343074
  0.7332210750035273  0.5388329480886824  0.4555309747016665
  0.0501574469472388  0.5472322844650179  0.8477311176148987
  0.3806676646504172  0.2939806337474096  0.3492096423068176
  0.4512493276695366  0.6401806538815009  0.2982866369798458
  0.1754465237239415  0.4290350061234349  0.1742363827634676
  0.2943154517606175  0.7089684178477214  0.8255085402764024
  0.0363497794509300  0.5874838889726135  0.6529958076001208
  0.1180684020830469  0.3948728583199426  0.9385119864398703
  0.4249123743336369  0.1158344795285728  0.9894225883649312
  0.1688925331275684  0.1420264470906716  0.8339136437206136
  0.2772312025982941  0.9456843780136737  0.3011830338018981
  0.1301645995038712  0.2941591666884307  0.7887273269275141
  0.5015800443740446  0.8714118070170045  0.1735300890748874
  0.0647516560377639  0.8343434315421803  0.0211325380273450
  0.0157474613080026  0.1605802625611332  0.7539900843218845
  0.9556106997685205  0.4378846491926183  0.9776377514480572
  0.4008029385353353  0.4051029445652503  0.5104517628663814
  0.9390551436021894  0.7522270848183226  0.7747102924740972
  0.8210417224775597  0.2165589703526862  0.1834226510119947
  0.7627090922353545  0.7222908969528135  0.4739487774929927
  0.1597198585724584  0.5778559517355362  0.0574280549415747
  0.3089749511986568  0.1670067109824984  0.5839209338433307
  0.0042655046239943  0.0718608679178772  0.1763798996082713
  0.8720450399501658  0.0727774725194266  0.8253488090041898
  0.6990168465383775  0.5740071852846924  0.9103264643270776
  0.7899223535214688  0.8583821551295117  0.8311679687751266
  0.7651332825095807  0.2958676430675524  0.0373368621630661
  0.2397101316070476  0.5429457047433175  0.7062707711010887
  0.2301220175757948  0.8735910708800247  0.8055304590028385
  0.9018626642392036  0.6372684503627468  0.5160753076959210
  0.3999050579662793  0.4993756422631392  0.6547682412851898
  0.1227844331228312  0.2774652772924426  0.1150240663644269
  0.4087200927877532  0.0014580301278144  0.8707453914407282
  0.0156912702104464  0.7591287264715092  0.6090739538242786
  0.6575154430623797  0.6778491907752553  0.0223592938719719
  0.0349362453271880  0.0189825882884804  0.8753162253647417
  0.0334569061066361  0.3518663305314362  0.4615174416226537
  0.2578685202776114  0.1862089667477349  0.0474796079874906
  0.8350154008278636  0.2692021615861009  0.4229853728772213
  0.5523545682802151  0.9893397362223268  0.4215770390924973
  0.9130397127351983  0.4607361534416796  0.4476239056105769
  0.9556485433996045  0.5848720865788053  0.3548414215284055
  0.0362165964988463  0.7240788076505851  0.1277991563326992
  0.1002072655621689  0.0325081632919364  0.4484424799579401
  0.7518103223556523  0.7354031778012668  0.1574939797539585
  0.9270911391278318  0.5057269772526496  0.6365162124619417
  0.2177631325909175  0.8195551760155340  0.9637483528687483
  0.3163869396548549  0.6608796420642520  0.1753156426956508
  0.9318223570426341  0.1067725987541834  0.0097518253667985
  0.1010271741299533  0.3006112661132434  0.6165926157974368
  0.4596725023230945  0.4538585929270482  0.9715422411730827
  0.2868875909757094  0.7732067914100540  0.5295207631118686
  0.4795704515554249  0.6927499372687151  0.1090316786625678
  0.3245800102085283  0.4581503635183992  0.2669626938315020
  0.4851885431058207  0.7463068475942976  0.5289160175995349
  0.8993642307454621  0.5473081329978768  0.1930326500018040
  0.5943146564122870  0.0676954189859202  0.6855262305017789
  0.6429094032319753  0.4717707456626741  0.0577954512806400
  0.7187320356442086  0.5015706749895017  0.7423727472446586
  0.0635574488550077  0.6444040167269591  0.2082487417316301
  0.3954493674097463  0.8973034329426994  0.4509357823655264
  0.5982567820842632  0.5876034234022995  0.6386580289915145
  0.0212541840718430  0.8871992897855918  0.4837270972589565
  0.8488462423857612  0.0893010989679510  0.3273701637582604
  0.4253495870044546  0.0182757293359614  0.2155017578914027
  0.5498574685544497  0.1199309747830952  0.8812473525744480
  0.7735563499772482  0.8326053658781163  0.6365576453313366
  0.7759788161088821  0.3536329080102618  0.7911951575941671
  0.7316211691789789  0.2873059904419080  0.6335305725946867
  0.9141630226410769  0.9090747734558207  0.6501246948496728
  0.5283438166995680  0.2463827651980992  0.4904231503417407
  0.7888902366222013  0.8523855375745271  0.0304783150752357
  0.5212678172230341  0.1902684428932062  0.1377204867242128
  0.6504609465518740  0.7202528146441765  0.4450959212338788
  0.6681120769661035  0.3617408521232903  0.3831521490444274
  0.2565760026505615  0.0496202642168768  0.9424674273956413
  0.2206865165997414  0.5712533895882643  0.9598631023440163
  0.2556178225066148  0.1919268688647904  0.2331896195184200
  0.5798036044189558  0.4419505682176776  0.5116141163131402
  0.4834368786931833  0.8312186874318144  0.8900373716865602
  0.4486972575445023  0.2779954035557353  0.9779272870196252
  0.3506670024146743  0.3232453574995660  0.1695648813392694
  0.1748877196763345  0.4027928091989281  0.3690346648653389
  0.4990225113040623  0.3951164921087411  0.1301648968786040
  0.3794633591606811  0.6081890610232321  0.4876339764474551
  0.1790618870572942  0.7402622308080851  0.6755146199020103
  0.4164302682743468  0.0604691940982960  0.3242738912120089
  0.2912369435025184  0.9819364154077803  0.5635973629443711
  0.2337428710087792  0.8233709715026265  0.1545988586866187
  0.6362077837920950  0.8770894301869347  0.7462142044247386
  0.8290436627109301  0.8915823294138647  0.4592309165852768
  0.0808506057385898  0.6842305589378057  0.9466748206630413
  0.5965343426353229  0.4228542834337361  0.8687175136813181
  0.1593578408547813  0.5621508330663829  0.3052546467721200
  0.6573173838083548  0.3158868450194703  0.1832920147573418
  0.3604376978863755  0.6785325939053450  0.6619306714267239
  0.8711176660885300  0.5168998191191676  0.8462866332913777
  0.9124217143347053  0.3360549203018266  0.5851610833499734
  0.5669883926441770  0.7007755994891340  0.9563005817019885
  0.2623521213552920  0.3683291665457276  0.6320608532486816
  0.4975102474382282  0.9557721422774961  0.0290526417660644
  0.6429692693280984  0.8952346748455398  0.9552287274411455
  0.5834679124439717  0.4071049665156750  0.6974290534230505
  0.0550133882071648  0.1876421033936424  0.2420122394056179
  0.5443374030290542  0.7192431286085821  0.7641722126461445
  0.8351808776093250  0.3329702201898641  0.8853712395631561
  0.8768048497211041  0.2202041654659013  0.7072540775973550
  0.9965795952141860  0.3791626988936159  0.7983642221491678
  0.6795061435659377  0.1421645972364018  0.1125077395408880
  0.1043431165709379  0.6478073209227730  0.4908159816755955
  0.5627748092592242  0.2307971596057925  0.6761148340368450
  0.7738131719425567  0.6412906315960996  0.3065059528680578
  0.2951245210960778  0.2677819535342181  0.7904793921108180
  0.7752028003246991  0.6666410063562296  0.7592563651787927
  0.9037785722328806  0.7331007639085598  0.2434859567635925
  0.3254750419568850  0.4914194252921931  0.0834763815458075
  0.2957713149462151  0.3945089127066908  0.9088577888964977
  0.8168143925925406  0.4841608254043308  0.5941546163023190
  0.6785273504336544  0.1336251083697562  0.4223553100128896
  0.2942859772271973  0.7320675791914795  0.3526512816936886
  0.9334764743360324  0.8535983088289356  0.1184552114114794
  0.8404001614695886  0.3998021378723280  0.1742833304720293
  0.3694007995831399  0.9272204610386936  0.7003041531071190
  0.9267601685181717  0.9181829276899336  0.2809274393615624
  0.8765554691687782  0.7190583634754759  0.9200158364808075
  0.6039556548756053  0.5974866223768629  0.1895029171153979
  0.9813230927779628  0.1623529492632869  0.4114735972182757
  0.8361785240288526  0.0076440653592869  0.1345049664721429
  0.6277226736930217  0.1604166617039198  0.9551766943698254
  0.4197715810182601  0.3217522680262022  0.6748013244918312
  0.1281584393723847  0.4661708836614764  0.5516253233845632
  0.7021290381333500  0.1809275284863503  0.7977281831202490
  0.6756396975844652  0.0323357061778324  0.2836838397222223
  0.7286996237123589  0.4839592434772371  0.2649742046601276
  0.1053705418562387  0.2700698452830963  0.3104205410296998
  0.1364967030776825  0.9076044735706503  0.6455883656561170
  0.1372523168294251  0.2061599066581650  0.4845229649409504
  0.3240413575260490  0.1040676515459751  0.7627614337847817
  0.1194948058611232  0.8663007761765655  0.3083412063200299
  0.7579386070622718  0.0366365889570801  0.9673289242482070
  0.2926894729348888  0.0906836732233103  0.4255892009193403
  0.3706474497684553  0.8019250115612664  0.0457238884551856
  0.2453704180582150  0.0205220099145720  0.1478191356142275
  0.7290153581574259  0.8251533595097627  0.3145349560165371
  0.5306886818069430  0.8045592806843942  0.3639725512287484
  0.4497705930666740  0.6191812235220269  0.8884317534252233
  0.1022758231813796  0.9574942471684480  0.2410852728464405
  0.7500519218258077  0.0986658903084461  0.6282517530465555
  0.4623719471322261  0.4806921012099465  0.3755971072277902
  0.5127262871454974  0.9145043358799185  0.6038453573262856
 
  0.00000000E+00  0.00000000E+00  0.00000000E+00
  0.00000000E+00  0.00000000E+00  0.00000000E+00
  0.00000000E+00  0.00000000E+00  0.00000000E+00
  0.00000000E+00  0.00000000E+00  0.00000000E+00
  0.00000000E+00  0.00000000E+00  0.00000000E+00
  0.00000000E+00  0.00000000E+00  0.00000000E+00
  0.00000000E+00  0.00000000E+00  0.00000000E+00
  0.00000000E+00  0.00000000E+00  0.00000000E+00
  0.00000000E+00  0.00000000E+00  0.00000000E+00
  0.00000000E+00  0.00000000E+00  0.00000000E+00
  0.00000000E+00  0.00000000E+00  0.00000000E+00
  0.00000000E+00  0.00000000E+00  0.00000000E+00
  0.00000000E+00  0.00000000E+00  0.00000000E+00
  0.00000000E+00  0.00000000E+00  0.00000000E+00
  0.00000000E+00  0.00000000E+00  0.00000000E+00
  0.00000000E+00  0.00000000E+00  0.00000000E+00
  0.00000000E+00  0.00000000E+00  0.00000000E+00
  0.00000000E+00  0.00000000E+00  0.00000000E+00
  0.00000000E+00  0.00000000E+00  0.00000000E+00
  0.00000000E+00  0.00000000E+00  0.00000000E+00
  0.00000000E+00  0.00000000E+00  0.00000000E+00
  0.00000000E+00  0.00000000E+00  0.00000000E+00
  0.00000000E+00  0.00000000E+00  0.00000000E+00
  0.00000000E+00  0.00000000E+00  0.00000000E+00
  0.00000000E+00  0.00000000E+00  0.00000000E+00
  0.00000000E+00  0.00000000E+00  0.00000000E+00
  0.00000000E+00  0.00000000E+00  0.00000000E+00
  0.00000000E+00  0.00000000E+00  0.00000000E+00
  0.00000000E+00  0.00000000E+00  0.00000000E+00
  0.00000000E+00  0.00000000E+00  0.00000000E+00
  0.00000000E+00  0.00000000E+00  0.00000000E+00
  0.00000000E+00  0.00000000E+00  0.00000000E+00
  0.00000000E+00  0.00000000E+00  0.00000000E+00
  0.00000000E+00  0.00000000E+00  0.00000000E+00
  0.00000000E+00  0.00000000E+00  0.00000000E+00
  0.00000000E+00  0.00000000E+00  0.00000000E+00
  0.00000000E+00  0.00000000E+00  0.00000000E+00
  0.00000000E+00  0.00000000E+00  0.00000000E+00
  0.00000000E+00  0.00000000E+00  0.00000000E+00
  0.00000000E+00  0.00000000E+00  0.00000000E+00
  0.00000000E+00  0.00000000E+00  0.00000000E+00
  0.00000000E+00  0.00000000E+00  0.00000000E+00
  0.00000000E+00  0.00000000E+00  0.00000000E+00
  0.00000000E+00  0.00000000E+00  0.00000000E+00
  0.00000000E+00  0.00000000E+00  0.00000000E+00
  0.00000000E+00  0.00000000E+00  0.00000000E+00
  0.00000000E+00  0.00000000E+00  0.00000000E+00
  0.00000000E+00  0.00000000E+00  0.00000000E+00
  0.00000000E+00  0.00000000E+00  0.00000000E+00
  0.00000000E+00  0.00000000E+00  0.00000000E+00
  0.00000000E+00  0.00000000E+00  0.00000000E+00
  0.00000000E+00  0.00000000E+00  0.00000000E+00
  0.00000000E+00  0.00000000E+00  0.00000000E+00
  0.00000000E+00  0.00000000E+00  0.00000000E+00
  0.00000000E+00  0.00000000E+00  0.00000000E+00
  0.00000000E+00  0.00000000E+00  0.00000000E+00
  0.00000000E+00  0.00000000E+00  0.00000000E+00
  0.00000000E+00  0.00000000E+00  0.00000000E+00
  0.00000000E+00  0.00000000E+00  0.00000000E+00
  0.00000000E+00  0.00000000E+00  0.00000000E+00
  0.00000000E+00  0.00000000E+00  0.00000000E+00
  0.00000000E+00  0.00000000E+00  0.00000000E+00
  0.00000000E+00  0.00000000E+00  0.00000000E+00
  0.00000000E+00  0.00000000E+00  0.00000000E+00
  0.00000000E+00  0.00000000E+00  0.00000000E+00
  0.00000000E+00  0.00000000E+00  0.00000000E+00
  0.00000000E+00  0.00000000E+00  0.00000000E+00
  0.00000000E+00  0.00000000E+00  0.00000000E+00
  0.00000000E+00  0.00000000E+00  0.00000000E+00
  0.00000000E+00  0.00000000E+00  0.00000000E+00
  0.00000000E+00  0.00000000E+00  0.00000000E+00
  0.00000000E+00  0.00000000E+00  0.00000000E+00
  0.00000000E+00  0.00000000E+00  0.00000000E+00
  0.00000000E+00  0.00000000E+00  0.00000000E+00
  0.00000000E+00  0.00000000E+00  0.00000000E+00
  0.00000000E+00  0.00000000E+00  0.00000000E+00
  0.00000000E+00  0.00000000E+00  0.00000000E+00
  0.00000000E+00  0.00000000E+00  0.00000000E+00
  0.00000000E+00  0.00000000E+00  0.00000000E+00
  0.00000000E+00  0.00000000E+00  0.00000000E+00
  0.00000000E+00  0.00000000E+00  0.00000000E+00
  0.00000000E+00  0.00000000E+00  0.00000000E+00
  0.00000000E+00  0.00000000E+00  0.00000000E+00
  0.00000000E+00  0.00000000E+00  0.00000000E+00
  0.00000000E+00  0.00000000E+00  0.00000000E+00
  0.00000000E+00  0.00000000E+00  0.00000000E+00
  0.00000000E+00  0.00000000E+00  0.00000000E+00
  0.00000000E+00  0.00000000E+00  0.00000000E+00
  0.00000000E+00  0.00000000E+00  0.00000000E+00
  0.00000000E+00  0.00000000E+00  0.00000000E+00
  0.00000000E+00  0.00000000E+00  0.00000000E+00
  0.00000000E+00  0.00000000E+00  0.00000000E+00
  0.00000000E+00  0.00000000E+00  0.00000000E+00
  0.00000000E+00  0.00000000E+00  0.00000000E+00
  0.00000000E+00  0.00000000E+00  0.00000000E+00
  0.00000000E+00  0.00000000E+00  0.00000000E+00
  0.00000000E+00  0.00000000E+00  0.00000000E+00
  0.00000000E+00  0.00000000E+00  0.00000000E+00
  0.00000000E+00  0.00000000E+00  0.00000000E+00
  0.00000000E+00  0.00000000E+00  0.00000000E+00
  0.00000000E+00  0.00000000E+00  0.00000000E+00
  0.00000000E+00  0.00000000E+00  0.00000000E+00
  0.00000000E+00  0.00000000E+00  0.00000000E+00
  0.00000000E+00  0.00000000E+00  0.00000000E+00
  0.00000000E+00  0.00000000E+00  0.00000000E+00
  0.00000000E+00  0.00000000E+00  0.00000000E+00
  0.00000000E+00  0.00000000E+00  0.00000000E+00
  0.00000000E+00  0.00000000E+00  0.00000000E+00
  0.00000000E+00  0.00000000E+00  0.00000000E+00
  0.00000000E+00  0.00000000E+00  0.00000000E+00
  0.00000000E+00  0.00000000E+00  0.00000000E+00
  0.00000000E+00  0.00000000E+00  0.00000000E+00
  0.00000000E+00  0.00000000E+00  0.00000000E+00
  0.00000000E+00  0.00000000E+00  0.00000000E+00
  0.00000000E+00  0.00000000E+00  0.00000000E+00
  0.00000000E+00  0.00000000E+00  0.00000000E+00
  0.00000000E+00  0.00000000E+00  0.00000000E+00
  0.00000000E+00  0.00000000E+00  0.00000000E+00
  0.00000000E+00  0.00000000E+00  0.00000000E+00
  0.00000000E+00  0.00000000E+00  0.00000000E+00
  0.00000000E+00  0.00000000E+00  0.00000000E+00
  0.00000000E+00  0.00000000E+00  0.00000000E+00
  0.00000000E+00  0.00000000E+00  0.00000000E+00
  0.00000000E+00  0.00000000E+00  0.00000000E+00
  0.00000000E+00  0.00000000E+00  0.00000000E+00
  0.00000000E+00  0.00000000E+00  0.00000000E+00
  0.00000000E+00  0.00000000E+00  0.00000000E+00
  0.00000000E+00  0.00000000E+00  0.00000000E+00
  0.00000000E+00  0.00000000E+00  0.00000000E+00
  0.00000000E+00  0.00000000E+00  0.00000000E+00
  0.00000000E+00  0.00000000E+00  0.00000000E+00
  0.00000000E+00  0.00000000E+00  0.00000000E+00
  0.00000000E+00  0.00000000E+00  0.00000000E+00
  0.00000000E+00  0.00000000E+00  0.00000000E+00
  0.00000000E+00  0.00000000E+00  0.00000000E+00
  0.00000000E+00  0.00000000E+00  0.00000000E+00
  0.00000000E+00  0.00000000E+00  0.00000000E+00
  0.00000000E+00  0.00000000E+00  0.00000000E+00
  0.00000000E+00  0.00000000E+00  0.00000000E+00
  0.00000000E+00  0.00000000E+00  0.00000000E+00
  0.00000000E+00  0.00000000E+00  0.00000000E+00
  0.00000000E+00  0.00000000E+00  0.00000000E+00
  0.00000000E+00  0.00000000E+00  0.00000000E+00
  0.00000000E+00  0.00000000E+00  0.00000000E+00
  0.00000000E+00  0.00000000E+00  0.00000000E+00
  0.00000000E+00  0.00000000E+00  0.00000000E+00
  0.00000000E+00  0.00000000E+00  0.00000000E+00
  0.00000000E+00  0.00000000E+00  0.00000000E+00
  0.00000000E+00  0.00000000E+00  0.00000000E+00
  0.00000000E+00  0.00000000E+00  0.00000000E+00
  0.00000000E+00  0.00000000E+00  0.00000000E+00
  0.00000000E+00  0.00000000E+00  0.00000000E+00
  0.00000000E+00  0.00000000E+00  0.00000000E+00
  0.00000000E+00  0.00000000E+00  0.00000000E+00
  0.00000000E+00  0.00000000E+00  0.00000000E+00
  0.00000000E+00  0.00000000E+00  0.00000000E+00
  0.00000000E+00  0.00000000E+00  0.00000000E+00
  0.00000000E+00  0.00000000E+00  0.00000000E+00
  0.00000000E+00  0.00000000E+00  0.00000000E+00
  0.00000000E+00  0.00000000E+00  0.00000000E+00
  0.00000000E+00  0.00000000E+00  0.00000000E+00
  0.00000000E+00  0.00000000E+00  0.00000000E+00
  0.00000000E+00  0.00000000E+00  0.00000000E+00
  0.00000000E+00  0.00000000E+00  0.00000000E+00
  0.00000000E+00  0.00000000E+00  0.00000000E+00
  0.00000000E+00  0.00000000E+00  0.00000000E+00
  0.00000000E+00  0.00000000E+00  0.00000000E+00
  0.00000000E+00  0.00000000E+00  0.00000000E+00
  0.00000000E+00  0.00000000E+00  0.00000000E+00
  0.00000000E+00  0.00000000E+00  0.00000000E+00
  0.00000000E+00  0.00000000E+00  0.00000000E+00
  0.00000000E+00  0.00000000E+00  0.00000000E+00
  0.00000000E+00  0.00000000E+00  0.00000000E+00
  0.00000000E+00  0.00000000E+00  0.00000000E+00
  0.00000000E+00  0.00000000E+00  0.00000000E+00
  0.00000000E+00  0.00000000E+00  0.00000000E+00
  0.00000000E+00  0.00000000E+00  0.00000000E+00
  0.00000000E+00  0.00000000E+00  0.00000000E+00
  0.00000000E+00  0.00000000E+00  0.00000000E+00
  0.00000000E+00  0.00000000E+00  0.00000000E+00
  0.00000000E+00  0.00000000E+00  0.00000000E+00
  0.00000000E+00  0.00000000E+00  0.00000000E+00
  0.00000000E+00  0.00000000E+00  0.00000000E+00
  0.00000000E+00  0.00000000E+00  0.00000000E+00
  0.00000000E+00  0.00000000E+00  0.00000000E+00
  0.00000000E+00  0.00000000E+00  0.00000000E+00
  0.00000000E+00  0.00000000E+00  0.00000000E+00
  0.00000000E+00  0.00000000E+00  0.00000000E+00
  0.00000000E+00  0.00000000E+00  0.00000000E+00
  0.00000000E+00  0.00000000E+00  0.00000000E+00
  0.00000000E+00  0.00000000E+00  0.00000000E+00
  0.00000000E+00  0.00000000E+00  0.00000000E+00
  0.00000000E+00  0.00000000E+00  0.00000000E+00
  0.00000000E+00  0.00000000E+00  0.00000000E+00
  0.00000000E+00  0.00000000E+00  0.00000000E+00
  0.00000000E+00  0.00000000E+00  0.00000000E+00
  0.00000000E+00  0.00000000E+00  0.00000000E+00
  0.00000000E+00  0.00000000E+00  0.00000000E+00
  0.00000000E+00  0.00000000E+00  0.00000000E+00
  0.00000000E+00  0.00000000E+00  0.00000000E+00
  0.00000000E+00  0.00000000E+00  0.00000000E+00
  0.00000000E+00  0.00000000E+00  0.00000000E+00
  0.00000000E+00  0.00000000E+00  0.00000000E+00
  0.00000000E+00  0.00000000E+00  0.00000000E+00
  0.00000000E+00  0.00000000E+00  0.00000000E+00
  0.00000000E+00  0.00000000E+00  0.00000000E+00
  0.00000000E+00  0.00000000E+00  0.00000000E+00
  0.00000000E+00  0.00000000E+00  0.00000000E+00
  0.00000000E+00  0.00000000E+00  0.00000000E+00
  0.00000000E+00  0.00000000E+00  0.00000000E+00
  0.00000000E+00  0.00000000E+00  0.00000000E+00
  0.00000000E+00  0.00000000E+00  0.00000000E+00
  0.00000000E+00  0.00000000E+00  0.00000000E+00
  0.00000000E+00  0.00000000E+00  0.00000000E+00
  0.00000000E+00  0.00000000E+00  0.00000000E+00
  0.00000000E+00  0.00000000E+00  0.00000000E+00
  0.00000000E+00  0.00000000E+00  0.00000000E+00
  0.00000000E+00  0.00000000E+00  0.00000000E+00
  0.00000000E+00  0.00000000E+00  0.00000000E+00
  0.00000000E+00  0.00000000E+00  0.00000000E+00
  0.00000000E+00  0.00000000E+00  0.00000000E+00
  0.00000000E+00  0.00000000E+00  0.00000000E+00
  0.00000000E+00  0.00000000E+00  0.00000000E+00
  0.00000000E+00  0.00000000E+00  0.00000000E+00
  0.00000000E+00  0.00000000E+00  0.00000000E+00
  0.00000000E+00  0.00000000E+00  0.00000000E+00
  0.00000000E+00  0.00000000E+00  0.00000000E+00
  0.00000000E+00  0.00000000E+00  0.00000000E+00
  0.00000000E+00  0.00000000E+00  0.00000000E+00
  0.00000000E+00  0.00000000E+00  0.00000000E+00
  0.00000000E+00  0.00000000E+00  0.00000000E+00
  0.00000000E+00  0.00000000E+00  0.00000000E+00