Amorphous Sb                            
   1.00000000000000     
    22.5970374761353128    0.0000000000000000    0.0000000000000000
     0.0000000000000000   22.5970374761353128    0.0000000000000000
     0.0000000000000000    0.0000000000000000   22.5970374761353128
   In   Te
    90   210
Direct
  0.0249911921827256  0.6372826861743237  0.9945536293995114
  0.6262151222435156  0.1288983930357294  0.3728833574339364
  0.8952686981226714  0.0802914012722633  0.9292135076567583
  0.4330026444145061  0.6195215596462997  0.7060161855922720
  0.9721949146410541  0.9209022745131104  0.9680609626211003
  0.8301206235998873  0.5447438889358718  0.5441576983921367
 -0.0277925973980130  0.6826505960609643  0.1667338251936883
  0.2338813033738935  0.4280965369262452  0.9266422068017488
  0.0879680827648655  0.0839988979402979  0.1824643449341737
  0.3051781846121173  0.5320273800328992  0.5901024013592573
  0.4069117502393154  0.2491803497627817  0.4280699832154564
  0.2439715577211637  0.5563006638475545  0.7772857767609718
  0.3184654466454079  0.2484015407163811  0.9234333584680818
  0.5435672480635643  0.7228019840380765 -0.0001777016737491
  0.7163453008392243  0.1811256806481792  0.8876646530100638
  0.6271945266845215  0.5645932280300585 -0.0061856397016431
  0.3734255467926935  0.6484665073643967  0.8449706642849097
  0.2626202337522712  0.6319950351092717  0.3447582165299446
  0.5305624835995911  0.4174194594139787  0.0054498375456639
  0.5743009339996736  0.9224723547615975  0.6098977144701512
  0.6395114715956631  0.5117425466545067  0.3233211445104203
  0.2313819027054801  0.1768582854262314  0.0820852778342262
  0.3887098821500624  0.9205477865615391  0.4993735808162426
  0.7352804088839550  0.4468953399876072  0.2641404913244509
 -0.0012324134673672  0.2318169164997460  0.3964185706650430
  0.5217689648318286  0.7154330345838938  0.3304133185666697
 -0.0176484063547363  0.9016675025584641  0.3568612123181321
  0.8860189846564627  0.4175541974210927  0.4812666347624798
  0.7896286906444965  0.0109279626919655  0.6018211196958787
  0.8995354072991415  0.6337241011885540  0.7531983115386024
  0.7141430190484024  0.6521888376396948  0.7142627014119903
  0.9286884651559667  0.2278799137404220  0.8734811726006704
  0.5526088605127202  0.8467850174635428  0.5110127667616478
  0.4598233377735281  0.0194923829117232  0.7475592667545423
  0.1237110137488082  0.0251667160790286  0.0348848722324185
  0.1962543949136770  0.5386362094866215  0.6580714832309831
  0.5577795529227619  0.1311905655037754  0.9279071436158104
  0.8991265578619032  0.7594153021958692  0.8776269398481085
  0.7211346281027671  0.8600072844067000  0.6956264910286828
  0.3576596526602958  0.7466039353380245  0.2138140234272132
  0.1237818726644325  0.0180467668383886  0.6306668759588284
  0.4473121666620366  0.2944292085665702  0.7676952222517888
  0.1885865653671733  0.0878531752113996  0.8861729871747974
  0.3087114013090728  0.8297631190403373  0.8035391158137331
  0.2142925886138561  0.1605662734828935  0.6375518361657306
  0.1746945169696155  0.3601568757011563  0.4175235218877890
  0.0993972730109193  0.7111107210622510  0.7125166145873959
  0.5804175306903361  0.6633970761927895  0.7940468617698434
  0.8894521718091315  0.0777019057411462  0.4411493661648868
  0.5808285384059210  0.8445863845093958  0.0983136898676660
  0.4529076212587229  0.2585957206228486  0.6391267787490623
  0.5902732334921688  0.5783334986594011  0.4981573564630681
  0.3859699704149469  0.0443667763110719  0.4731045095683610
 -0.0262778148060925  0.4395141150509235  0.8744568437732524
  0.4066571601079270  0.5363906774785654  0.0653238825086074
  0.2483840073683626  0.3672346947015236  0.2751413276818756
  0.0150698309564811  0.7406498353833084  0.9211984332882812
  0.8640113702734034  0.3586540486094335  0.7486355484885794
  0.9109192738441723  0.0787191016038419  0.3166813846495313
  0.7339121582277953  0.7875722963143412  0.2875007331133652
  0.4797720208308960  0.4467053997972376  0.5364926764860642
  0.1184644712553832  0.8754155594001357  0.9420766805652342
  0.6300691847828287  0.3161351858831301  0.3050378404616626
  0.5555245661785171  0.9358986776750363  0.9187655852353129
  0.7927432511055540  0.3020777339404611  0.5434080559479695
  0.6489735623928578  0.4484969644505143  0.6123398037178936
  0.3284155093880304  0.3691633704975726  0.5435855628759687
  0.0422130701823616  0.5414455314557430  0.1523225836089908
  0.1949229730294216  0.7001397383234476  0.2096348532525135
  0.3858385002271142  0.8359420827193479  0.3516981338279561
  0.5699740868033850  0.4517812693368818  0.1883374150693938
  0.5734565956543551  0.3056639554317599  0.8868843824046908
  0.8322052004889514  0.8921307047591017  0.4821831029771264
  0.0822993551912408  0.0468164743871843  0.4030994546045026
  0.3034051045551740  0.9479360306238974  0.3321541229012117
  0.2062482947417369  0.7633398831672892  0.5978952774888078
  0.6520172294297584  0.1341118580168858  0.6784673414079926
  0.8075582451298460  0.5805631248495293  0.3470622806170067
  0.0022481064648103  0.2787163928522225  0.1525770201769701
  0.7478778403041948  0.3593637203021025  0.8884634866585520
  0.3266032430156999  0.3126098635071010  0.1502139002619995
  0.2590189453202636  0.2680516499444972  0.7592399215510772
  0.7641333730539218  0.4790700035425890  0.8731710862273094
  0.7637975704127395  0.6464156634835467  0.8812883570746293
  0.8090607095093952  0.8894047017304514  0.1321113797254289
  0.0552067808276811  0.6429177402981103  0.3146103656909099
  0.4859569341740785  0.1210383464655576  0.2688811892110132
  0.4282511054108165  0.5979559914829129  0.4284761818664747
  0.0749644112794106  0.8565328422870545  0.6517989178575226
  0.6966356752424626  0.8185364565058288  0.9662508316043268
  0.4988485444540551  0.3128628976733587  0.5310000094694340
  0.6542502885006597  0.7446603885984886  0.0615991647157387
  0.2177526223157260  0.4254296823825252  0.5205787530176924
  0.5355268545409674  0.5445286795993327  0.7214921655770747
  0.7866606325854008  0.0089641339626296  0.4748998393260110
  0.2924460380418363  0.6673140251890693  0.1329224587327522
  0.4094395355889924  0.8562818742146769  0.9903005983710453
  0.4321074448762391  0.9123866919585929  0.8053956538816358
  0.4607612210611233  0.1033581295554923  0.1385843739283718
  0.9447988265223254  0.2011096403786654  0.2838828863537365
  0.7708863623954371  0.4174266927330615  0.5954108166612950
  0.8403234566137350  0.0605071314935585  0.2139808960820922
  0.3348515667561085  0.6496918525360013  0.6369944399137070
  0.2315485443362249  0.8126748062142872  0.0933027614687069
  0.9110571850779771  0.9366673819104542  0.1930086544284629
  0.2066983770111405  0.2325945591956487  0.8670344792878157
  0.0257834809307814  0.7575282746194646  0.2631307693048358
  0.1784505562673896  0.9616794771458821  0.3978492389253002
  0.9235828962570607  0.1969002279303224  0.0989686971909152
  0.4173232765434868  0.2004146777397329  0.8611095714515935
  0.4641618009125316 -0.0040515553275180  0.6219581580654389
  0.5725426868870381  0.8497937451943030  0.7180041694520963
  0.5366800278834962  0.6207633792051317  0.9249354508988241
  0.9623369803265481  0.9067051141640797  0.4834060632498075
  0.2860470641717364  0.0669412323238585  0.5809174080539663
  0.2230276371318651  0.5484109213807060  0.9013747891417281
  0.6667112831003520  0.1264714868107575  0.1696217638425253
  0.1581471362084912  0.4379251907664020  0.3218858925414767
  0.0310690146292828  0.5070155015644061  0.9688704611240332
  0.3689758121115405  0.9855042028765821  0.8898945405530317
  0.4862474062417990  0.9015920776622504  0.4190475058859052
  0.6150752799096868  0.2659512572320022  0.5238049126374986
  0.7457377308455727  0.3145337640576435  0.7664331101601131
  0.2055238079100937  0.9554752742176641  0.5602822769619398
  0.8804416564483341  0.7605512405251770  0.7462044253626593
  0.7165399389436474  0.6486603653743336  0.1896634773384482
  0.7896387475244471  0.7935370833477380  0.4069255286004722
  0.0661343504937563  0.2016704775969378  0.2384746992476817
  0.7327741115682499  0.5149617310813823  0.4304645041856090
  0.4497119434348135  0.9192307964871455  0.2284624853994317
  0.5179967498284727  0.8143099393281129  0.9088818759060334
  0.3156578489363000  0.1573754766048091  0.3532497215833783
  0.0973852586605666  0.6410020392959856  0.1024741264907927
  0.8127692351304535  0.5800471113443015  0.6805002209378803
  0.0623449846152275 -0.0271729122407891  0.1291020555126724
  0.1579925341278652  0.8961526239908807  0.2906035318598394
  0.4164809218279490 -0.0118273205243380  0.1320968995688059
  0.4628243757383544  0.7884073012782887  0.0797798137578938
  0.1235274496446698  0.4330408552568609  0.6244488379428715
  0.9724117794623186  0.5738651964555803  0.2499732268236574
  0.4820969045612986  0.0299049556990661  0.9569460892387736
  0.0188071394788546  0.0107434709219188  0.2993605275954891
  0.0356723715813375  0.8277713314832066  0.0262273121801177
 -0.0156347055871373  0.4686484896795995  0.3788370760882852
  0.1301641387398827  0.8495681173341787  0.5367733467840041
  0.6414869811182126  0.9244642267477482  0.0166228463546350
  0.0737659766798781  0.9939247558350062  0.9256966941508294
  0.8767320403889881  0.9331697814442664  0.6469162196577237
  0.6486679193893663  0.7825612206415543  0.4518285425411125
  0.1369904263802376  0.2207303829197581  0.0136455633087935
  0.6737136625214861  0.0830306877396538  0.9531523556321638
  0.8765998019350382  0.4724441921001259  0.8034804595649541
  0.3428574462155621  0.2311433533094477  0.0501794441409047
  0.0635609318676333  0.1348456634304905  0.0610742201185966
  0.0116176195872591  0.5822626827615275  0.7352186247192669
  0.9039272112424560  0.2030614489862472  0.4772308073621588
  0.5764409313117539  0.0816025139989403  0.0893690895763634
  0.0418671784455935  0.3737430874473501  0.0711137032697566
  0.3092627899775072  0.7734481734629621  0.9490887835841721
  0.3097108998621104  0.0928075212633857  0.9604107921761542
  0.7338697702202446  0.1932052174254066  0.5609894579243195
  0.3203512138232615  0.7592550329175761  0.5452393631500787
  0.7665399848354961  0.1866978906848109  0.7719066984047271
  0.8298416725713922 -0.0133720245337136  0.8751462858222026
  0.4773295957623092  0.4770262854186980  0.9070408838128823
  0.2625719060728848  0.0940352622377134  0.4533857957728445
  0.7828290041670551  0.1733660210343719  0.2431911214715066
  0.3201868998151833  0.5532782272887501  0.1864063818115112
  0.5407134488721925  0.6001064077088495  0.0829164125311230
  0.2936373670619495  0.8487539712681935  0.4574934160378825
  0.5745225700767497  0.8992470115465588  0.2111482522316717
  0.9294259971316754  0.2517745957275761  0.7495762456996969
  0.3414865888478711  0.2482571390586583  0.5647884181631421
  0.4554317127500286  0.7209512538782671  0.7790555211669462
  0.3559214959970252  0.0989922716614614  0.7903160336900721
  0.1439803532542682  0.5501124639805811  0.4550142180647159
  0.5712351266624656  0.2400035970896600  0.3848643183416365
  0.8730124926542829  0.8823121073547303  0.2983033687614644
  0.5800203705219608  0.0437067215857848  0.4504625023280796
  0.1816380817636075  0.2829709523746881  0.6600014477020046
  0.8436840589369200  0.3703564326529049 -0.0159781482613766
  0.9790838636472861  0.3818384532800583  0.2198859624905933
  0.6513013486838987  0.4432382789621325 -0.0016613239281740
  0.9196859449566893  0.3028064029056223  0.5739969289567214
  0.7259981993231374  0.3723862795573403  0.3682849141312872
  0.5775850813452308  0.3734816381753679  0.6824670662252267
  0.6349677793068854  0.7902196319278963  0.8600175506045172
  0.3349287933070374  0.3708333379472061  0.7732353094746640
  0.8382624864020077  0.5099329187230498  0.2501587387742889
  0.4625944299859472  0.2423533617994154  0.2814749415212547
  0.0693082360490395  0.3154938339014648  0.4760063381271494
  0.6885006116674158  0.5650953605500419  0.8227231255938409
  0.8099376774537936  0.2381008952255770  0.1316690105855208
  0.0847136252369210  0.6448762316089861  0.8162440670611461
  0.5499489307620008  0.5941826198758224  0.3735301310208562
  0.3566382324897199  0.4085570681611171  0.2250857813516313
  0.0024656845934859  0.1283796838811049  0.8860369061964908
  0.2461668883584384  0.9705730654066164  0.2123099966389002
  0.3703806213414956  0.6653392850404131  0.9665429874718642
  0.8174320147611481  0.2873482319396884  0.4153145179201793
  0.4085114960202525  0.8838278291941991  0.6166724301919717
  0.0386349236483278  0.4345251032290885  0.4898325971168372
  0.3232904730482214  0.5214818209146824  0.4554059397276106
  0.8863606922104856  0.6214153307227708  0.8791079214772927
  0.6528675236452647  0.2811723296050304  0.6437545382802135
  0.9566158659770621  0.8941474841569693  0.8450367939707745
  0.2671751568637333  0.2881200040714308  0.3727798179459798
  0.2482447727919329  0.0506747801933727  0.0605542781470704
  0.2482994903721168  0.9531770347848161  0.8487978321636845
  0.1994089585492176  0.7233829194991056  0.8827123636509178
  0.2378783699805849  0.8993512507341287  0.9643800695219977
  0.2701895931179097  0.7517872520211499  0.3054225915530889
  0.3459859255406044  0.3726833481916570  0.8962990857843309
  0.1803036708995255  0.8129545896919677  0.7135636840030133
  0.5771217665286146  0.2002336878965688  0.8211051356842174
  0.6262820501017908  0.5728545902796953  0.6431498276966015
  0.9071483583009810  0.0573235307669355  0.7141429522670750
  0.1078169434963268  0.1688643358793580  0.4165645132468750
  0.7353346598999995  0.1610238141982454  0.0595896900681477
  0.9085835013652315  0.0058507746742318  0.0402720033079293
  0.5665543906830679  0.7364804453730454  0.6532494849867767
  0.8986741743418605  0.7493389974299297  0.3565173122934124
  0.7166370554133632  0.8942795769432180  0.2194006380495489
  0.5957339245517596  0.0648214745919208  0.2683215854568837
  0.2739657062566846  0.4239991765265468  0.0478972792072891
  0.8077931061939008  0.5023189575628825 -0.0100978764584241
  0.0802476836722375  0.8230459584206540  0.3655198836632737
  0.5237954299183039  0.4015226243329635  0.8182337054666994
  0.7375932597024228  0.0089663912638068  0.3131625268163179
  0.0568098874791824  0.2770290809817011  0.7110298112558752
  0.0280595092701942  0.4140014572584748  0.7089548677292703
  0.6771563572493799  0.2828379408462399  0.9573541377994310
  0.7428465629214378  0.6178710341507208  0.0053221703241767
  0.7104198029761342  0.6193820857738643  0.4989769646349530
  0.2330861635916130  0.6364163902224245  0.4673775443600048
  0.5398590881764394  0.2025576357819589  0.0325862286921610
  0.7585525091194969  0.7461316221018716  0.7983992967268738
  0.4786685261662900  0.1340566368782065  0.4961696066042905
  0.1332527503867991  0.8023686946593102  0.1738327340356436
  0.7983937014795054  0.0462155076436636  0.7722413256177690
  0.6019808048571420  0.4507946707743199  0.4932630191545253
  0.7883861334286322  0.9735555384974556  0.0403703057468830
  0.3766385274626051  0.5356994760625590  0.7875865350575632
  0.9182237908319952  0.4111354407831064  0.6420080340465499
  0.3268113627282621  0.8595667952138852  0.1588067533472727
  0.3958736299475422  0.4165430662624809  0.4422947243679188
  0.0651045509517615  0.8283281761631359  0.8365185328246432
  0.2889219276893291  0.0134658255539970  0.7119537149519520
  0.3558291649420416  0.2057144700251441  0.2241114798638677
  0.1420957163932682  0.6500472868095656  0.6103145109519323
 -0.0037762275560939  0.0250195682672454  0.5020938935898029
  0.8224427056987662  0.8287092582471806  0.9558760711121672
  0.7064430964343248  0.6548140970188382  0.3112913134337675
  0.1872628144235042  0.0705577468962935  0.2599234190131394
  0.0911230492135481  0.4768555893490515  0.8456196814986964
  0.6850898008337492  0.7368868060372226  0.6147289240664663
  0.5051321171100484  0.1425803019785250  0.6169956224992799
  0.1898470950972453  0.5025266522707034  0.0882967746566191
  0.6599374114136755  0.9575438979956805  0.3986582316827970
  0.5759084227651334  0.0546072759897700  0.7848542390545731
  0.8893285559893829  0.6411364820240061  0.4206526823308365
  0.2007710496533445  0.3157999352787917  0.1662912443002674
  0.0553915184694416  0.1456402052477094  0.7064544199691994
  0.9111817007719650  0.6249021280742132  0.0637089055820437
  0.6589054193683865  0.2787251747011230  0.1878491304210682
  0.6829150691111773  0.3985209252930269  0.1575739239460111
  0.3876695068038662  0.4389659121256427  0.6318735538710766
  0.1803471994499521  0.0789637227472559  0.7327271083877364
  0.7526145318143368  0.1223289417398101  0.3689995038032188
  0.8315563968642636  0.1257782038443042  0.6353869519314198
  0.1406628152685192  0.3639095110469834  0.8719604014015381
  0.0361701835751315  0.9637408709717541  0.6964095437232178
  0.1644722127297659  0.5936627857473336  0.2713590926543986
  0.9499929568466067  0.5047521405500787  0.0729187378108248
  0.0889014112697448  0.1350014858573806  0.5870144224982049
  0.4736523163089362  0.7036365935872338  0.2154234216659636
  0.6223093418576647  0.9422556142311769  0.8107850563890866
  0.4837193561734986  0.3017551287801337  0.9743607240428656
  0.1085084825041574  0.4335523745182318  0.1615305847467157
  0.3952089939375607  0.0572276674179497  0.3359119584232649
  0.9580231895859912  0.3343718817153674  0.9468763157860727
  0.5894647737619018  0.5778503521383813  0.1957447782658260
  0.8339283276703318  0.1898956954369669  0.9493741922469432
  0.4743868870079356  0.5780480962293565  0.5473648143394750
  0.2042042916831857  0.1926093494504182  0.2059094719259580
  0.5016997410532119  0.7345568228452741  0.5425528373580925
  0.5471173372212814  0.4131001519725730  0.3067476104302925
  0.8207787624167510  0.8338453173919236  0.5910583184475536
  0.6062744397069499  0.8112678577651536  0.3388572264196240
  0.8211747142482548  0.7226939364619658  0.2066270828215648
  0.4334462621705301  0.7255811043247973  0.4221172402207113
  0.8281672733187467  0.7727531787132667  0.0881028317143868
  0.9938550040018413  0.7606916191817751  0.6638330142022949
  0.0378225566299382  0.6101694360226385  0.4348935726378393
  0.9413891948632170  0.3588362658769148  0.3364648422412831
  0.4726250202506137  0.4236024602819836  0.1163738852983155
  0.6764113688688399  0.9889651026248280  0.6523869445706235
  0.2657185028495477  0.6875186799869855  0.7837183717328342
  0.3590188745479771  0.5604248030103216  0.3066860461052711
  0.3370970084450442  0.1846607382352817  0.6992940467753019
 
  0.00000000E+00  0.00000000E+00  0.00000000E+00
  0.00000000E+00  0.00000000E+00  0.00000000E+00
  0.00000000E+00  0.00000000E+00  0.00000000E+00
  0.00000000E+00  0.00000000E+00  0.00000000E+00
  0.00000000E+00  0.00000000E+00  0.00000000E+00
  0.00000000E+00  0.00000000E+00  0.00000000E+00
  0.00000000E+00  0.00000000E+00  0.00000000E+00
  0.00000000E+00  0.00000000E+00  0.00000000E+00
  0.00000000E+00  0.00000000E+00  0.00000000E+00
  0.00000000E+00  0.00000000E+00  0.00000000E+00
  0.00000000E+00  0.00000000E+00  0.00000000E+00
  0.00000000E+00  0.00000000E+00  0.00000000E+00
  0.00000000E+00  0.00000000E+00  0.00000000E+00
  0.00000000E+00  0.00000000E+00  0.00000000E+00
  0.00000000E+00  0.00000000E+00  0.00000000E+00
  0.00000000E+00  0.00000000E+00  0.00000000E+00
  0.00000000E+00  0.00000000E+00  0.00000000E+00
  0.00000000E+00  0.00000000E+00  0.00000000E+00
  0.00000000E+00  0.00000000E+00  0.00000000E+00
  0.00000000E+00  0.00000000E+00  0.00000000E+00
  0.00000000E+00  0.00000000E+00  0.00000000E+00
  0.00000000E+00  0.00000000E+00  0.00000000E+00
  0.00000000E+00  0.00000000E+00  0.00000000E+00
  0.00000000E+00  0.00000000E+00  0.00000000E+00
  0.00000000E+00  0.00000000E+00  0.00000000E+00
  0.00000000E+00  0.00000000E+00  0.00000000E+00
  0.00000000E+00  0.00000000E+00  0.00000000E+00
  0.00000000E+00  0.00000000E+00  0.00000000E+00
  0.00000000E+00  0.00000000E+00  0.00000000E+00
  0.00000000E+00  0.00000000E+00  0.00000000E+00
  0.00000000E+00  0.00000000E+00  0.00000000E+00
  0.00000000E+00  0.00000000E+00  0.00000000E+00
  0.00000000E+00  0.00000000E+00  0.00000000E+00
  0.00000000E+00  0.00000000E+00  0.00000000E+00
  0.00000000E+00  0.00000000E+00  0.00000000E+00
  0.00000000E+00  0.00000000E+00  0.00000000E+00
  0.00000000E+00  0.00000000E+00  0.00000000E+00
  0.00000000E+00  0.00000000E+00  0.00000000E+00
  0.00000000E+00  0.00000000E+00  0.00000000E+00
  0.00000000E+00  0.00000000E+00  0.00000000E+00
  0.00000000E+00  0.00000000E+00  0.00000000E+00
  0.00000000E+00  0.00000000E+00  0.00000000E+00
  0.00000000E+00  0.00000000E+00  0.00000000E+00
  0.00000000E+00  0.00000000E+00  0.00000000E+00
  0.00000000E+00  0.00000000E+00  0.00000000E+00
  0.00000000E+00  0.00000000E+00  0.00000000E+00
  0.00000000E+00  0.00000000E+00  0.00000000E+00
  0.00000000E+00  0.00000000E+00  0.00000000E+00
  0.00000000E+00  0.00000000E+00  0.00000000E+00
  0.00000000E+00  0.00000000E+00  0.00000000E+00
  0.00000000E+00  0.00000000E+00  0.00000000E+00
  0.00000000E+00  0.00000000E+00  0.00000000E+00
  0.00000000E+00  0.00000000E+00  0.00000000E+00
  0.00000000E+00  0.00000000E+00  0.00000000E+00
  0.00000000E+00  0.00000000E+00  0.00000000E+00
  0.00000000E+00  0.00000000E+00  0.00000000E+00
  0.00000000E+00  0.00000000E+00  0.00000000E+00
  0.00000000E+00  0.00000000E+00  0.00000000E+00
  0.00000000E+00  0.00000000E+00  0.00000000E+00
  0.00000000E+00  0.00000000E+00  0.00000000E+00
  0.00000000E+00  0.00000000E+00  0.00000000E+00
  0.00000000E+00  0.00000000E+00  0.00000000E+00
  0.00000000E+00  0.00000000E+00  0.00000000E+00
  0.00000000E+00  0.00000000E+00  0.00000000E+00
  0.00000000E+00  0.00000000E+00  0.00000000E+00
  0.00000000E+00  0.00000000E+00  0.00000000E+00
  0.00000000E+00  0.00000000E+00  0.00000000E+00
  0.00000000E+00  0.00000000E+00  0.00000000E+00
  0.00000000E+00  0.00000000E+00  0.00000000E+00
  0.00000000E+00  0.00000000E+00  0.00000000E+00
  0.00000000E+00  0.00000000E+00  0.00000000E+00
  0.00000000E+00  0.00000000E+00  0.00000000E+00
  0.00000000E+00  0.00000000E+00  0.00000000E+00
  0.00000000E+00  0.00000000E+00  0.00000000E+00
  0.00000000E+00  0.00000000E+00  0.00000000E+00
  0.00000000E+00  0.00000000E+00  0.00000000E+00
  0.00000000E+00  0.00000000E+00  0.00000000E+00
  0.00000000E+00  0.00000000E+00  0.00000000E+00
  0.00000000E+00  0.00000000E+00  0.00000000E+00
  0.00000000E+00  0.00000000E+00  0.00000000E+00
  0.00000000E+00  0.00000000E+00  0.00000000E+00
  0.00000000E+00  0.00000000E+00  0.00000000E+00
  0.00000000E+00  0.00000000E+00  0.00000000E+00
  0.00000000E+00  0.00000000E+00  0.00000000E+00
  0.00000000E+00  0.00000000E+00  0.00000000E+00
  0.00000000E+00  0.00000000E+00  0.00000000E+00
  0.00000000E+00  0.00000000E+00  0.00000000E+00
  0.00000000E+00  0.00000000E+00  0.00000000E+00
  0.00000000E+00  0.00000000E+00  0.00000000E+00
  0.00000000E+00  0.00000000E+00  0.00000000E+00
  0.00000000E+00  0.00000000E+00  0.00000000E+00
  0.00000000E+00  0.00000000E+00  0.00000000E+00
  0.00000000E+00  0.00000000E+00  0.00000000E+00
  0.00000000E+00  0.00000000E+00  0.00000000E+00
  0.00000000E+00  0.00000000E+00  0.00000000E+00
  0.00000000E+00  0.00000000E+00  0.00000000E+00
  0.00000000E+00  0.00000000E+00  0.00000000E+00
  0.00000000E+00  0.00000000E+00  0.00000000E+00
  0.00000000E+00  0.00000000E+00  0.00000000E+00
  0.00000000E+00  0.00000000E+00  0.00000000E+00
  0.00000000E+00  0.00000000E+00  0.00000000E+00
  0.00000000E+00  0.00000000E+00  0.00000000E+00
  0.00000000E+00  0.00000000E+00  0.00000000E+00
  0.00000000E+00  0.00000000E+00  0.00000000E+00
  0.00000000E+00  0.00000000E+00  0.00000000E+00
  0.00000000E+00  0.00000000E+00  0.00000000E+00
  0.00000000E+00  0.00000000E+00  0.00000000E+00
  0.00000000E+00  0.00000000E+00  0.00000000E+00
  0.00000000E+00  0.00000000E+00  0.00000000E+00
  0.00000000E+00  0.00000000E+00  0.00000000E+00
  0.00000000E+00  0.00000000E+00  0.00000000E+00
  0.00000000E+00  0.00000000E+00  0.00000000E+00
  0.00000000E+00  0.00000000E+00  0.00000000E+00
  0.00000000E+00  0.00000000E+00  0.00000000E+00
  0.00000000E+00  0.00000000E+00  0.00000000E+00
  0.00000000E+00  0.00000000E+00  0.00000000E+00
  0.00000000E+00  0.00000000E+00  0.00000000E+00
  0.00000000E+00  0.00000000E+00  0.00000000E+00
  0.00000000E+00  0.00000000E+00  0.00000000E+00
  0.00000000E+00  0.00000000E+00  0.00000000E+00
  0.00000000E+00  0.00000000E+00  0.00000000E+00
  0.00000000E+00  0.00000000E+00  0.00000000E+00
  0.00000000E+00  0.00000000E+00  0.00000000E+00
  0.00000000E+00  0.00000000E+00  0.00000000E+00
  0.00000000E+00  0.00000000E+00  0.00000000E+00
  0.00000000E+00  0.00000000E+00  0.00000000E+00
  0.00000000E+00  0.00000000E+00  0.00000000E+00
  0.00000000E+00  0.00000000E+00  0.00000000E+00
  0.00000000E+00  0.00000000E+00  0.00000000E+00
  0.00000000E+00  0.00000000E+00  0.00000000E+00
  0.00000000E+00  0.00000000E+00  0.00000000E+00
  0.00000000E+00  0.00000000E+00  0.00000000E+00
  0.00000000E+00  0.00000000E+00  0.00000000E+00
  0.00000000E+00  0.00000000E+00  0.00000000E+00
  0.00000000E+00  0.00000000E+00  0.00000000E+00
  0.00000000E+00  0.00000000E+00  0.00000000E+00
  0.00000000E+00  0.00000000E+00  0.00000000E+00
  0.00000000E+00  0.00000000E+00  0.00000000E+00
  0.00000000E+00  0.00000000E+00  0.00000000E+00
  0.00000000E+00  0.00000000E+00  0.00000000E+00
  0.00000000E+00  0.00000000E+00  0.00000000E+00
  0.00000000E+00  0.00000000E+00  0.00000000E+00
  0.00000000E+00  0.00000000E+00  0.00000000E+00
  0.00000000E+00  0.00000000E+00  0.00000000E+00
  0.00000000E+00  0.00000000E+00  0.00000000E+00
  0.00000000E+00  0.00000000E+00  0.00000000E+00
  0.00000000E+00  0.00000000E+00  0.00000000E+00
  0.00000000E+00  0.00000000E+00  0.00000000E+00
  0.00000000E+00  0.00000000E+00  0.00000000E+00
  0.00000000E+00  0.00000000E+00  0.00000000E+00
  0.00000000E+00  0.00000000E+00  0.00000000E+00
  0.00000000E+00  0.00000000E+00  0.00000000E+00
  0.00000000E+00  0.00000000E+00  0.00000000E+00
  0.00000000E+00  0.00000000E+00  0.00000000E+00
  0.00000000E+00  0.00000000E+00  0.00000000E+00
  0.00000000E+00  0.00000000E+00  0.00000000E+00
  0.00000000E+00  0.00000000E+00  0.00000000E+00
  0.00000000E+00  0.00000000E+00  0.00000000E+00
  0.00000000E+00  0.00000000E+00  0.00000000E+00
  0.00000000E+00  0.00000000E+00  0.00000000E+00
  0.00000000E+00  0.00000000E+00  0.00000000E+00
  0.00000000E+00  0.00000000E+00  0.00000000E+00
  0.00000000E+00  0.00000000E+00  0.00000000E+00
  0.00000000E+00  0.00000000E+00  0.00000000E+00
  0.00000000E+00  0.00000000E+00  0.00000000E+00
  0.00000000E+00  0.00000000E+00  0.00000000E+00
  0.00000000E+00  0.00000000E+00  0.00000000E+00
  0.00000000E+00  0.00000000E+00  0.00000000E+00
  0.00000000E+00  0.00000000E+00  0.00000000E+00
  0.00000000E+00  0.00000000E+00  0.00000000E+00
  0.00000000E+00  0.00000000E+00  0.00000000E+00
  0.00000000E+00  0.00000000E+00  0.00000000E+00
  0.00000000E+00  0.00000000E+00  0.00000000E+00
  0.00000000E+00  0.00000000E+00  0.00000000E+00
  0.00000000E+00  0.00000000E+00  0.00000000E+00
  0.00000000E+00  0.00000000E+00  0.00000000E+00
  0.00000000E+00  0.00000000E+00  0.00000000E+00
  0.00000000E+00  0.00000000E+00  0.00000000E+00
  0.00000000E+00  0.00000000E+00  0.00000000E+00
  0.00000000E+00  0.00000000E+00  0.00000000E+00
  0.00000000E+00  0.00000000E+00  0.00000000E+00
  0.00000000E+00  0.00000000E+00  0.00000000E+00
  0.00000000E+00  0.00000000E+00  0.00000000E+00
  0.00000000E+00  0.00000000E+00  0.00000000E+00
  0.00000000E+00  0.00000000E+00  0.00000000E+00
  0.00000000E+00  0.00000000E+00  0.00000000E+00
  0.00000000E+00  0.00000000E+00  0.00000000E+00
  0.00000000E+00  0.00000000E+00  0.00000000E+00
  0.00000000E+00  0.00000000E+00  0.00000000E+00
  0.00000000E+00  0.00000000E+00  0.00000000E+00
  0.00000000E+00  0.00000000E+00  0.00000000E+00
  0.00000000E+00  0.00000000E+00  0.00000000E+00
  0.00000000E+00  0.00000000E+00  0.00000000E+00
  0.00000000E+00  0.00000000E+00  0.00000000E+00
  0.00000000E+00  0.00000000E+00  0.00000000E+00
  0.00000000E+00  0.00000000E+00  0.00000000E+00
  0.00000000E+00  0.00000000E+00  0.00000000E+00
  0.00000000E+00  0.00000000E+00  0.00000000E+00
  0.00000000E+00  0.00000000E+00  0.00000000E+00
  0.00000000E+00  0.00000000E+00  0.00000000E+00
  0.00000000E+00  0.00000000E+00  0.00000000E+00
  0.00000000E+00  0.00000000E+00  0.00000000E+00
  0.00000000E+00  0.00000000E+00  0.00000000E+00
  0.00000000E+00  0.00000000E+00  0.00000000E+00
  0.00000000E+00  0.00000000E+00  0.00000000E+00
  0.00000000E+00  0.00000000E+00  0.00000000E+00
  0.00000000E+00  0.00000000E+00  0.00000000E+00
  0.00000000E+00  0.00000000E+00  0.00000000E+00
  0.00000000E+00  0.00000000E+00  0.00000000E+00
  0.00000000E+00  0.00000000E+00  0.00000000E+00
  0.00000000E+00  0.00000000E+00  0.00000000E+00
  0.00000000E+00  0.00000000E+00  0.00000000E+00
  0.00000000E+00  0.00000000E+00  0.00000000E+00
  0.00000000E+00  0.00000000E+00  0.00000000E+00
  0.00000000E+00  0.00000000E+00  0.00000000E+00
  0.00000000E+00  0.00000000E+00  0.00000000E+00
  0.00000000E+00  0.00000000E+00  0.00000000E+00
  0.00000000E+00  0.00000000E+00  0.00000000E+00
  0.00000000E+00  0.00000000E+00  0.00000000E+00
  0.00000000E+00  0.00000000E+00  0.00000000E+00
  0.00000000E+00  0.00000000E+00  0.00000000E+00
  0.00000000E+00  0.00000000E+00  0.00000000E+00
  0.00000000E+00  0.00000000E+00  0.00000000E+00
  0.00000000E+00  0.00000000E+00  0.00000000E+00
  0.00000000E+00  0.00000000E+00  0.00000000E+00
  0.00000000E+00  0.00000000E+00  0.00000000E+00
  0.00000000E+00  0.00000000E+00  0.00000000E+00
  0.00000000E+00  0.00000000E+00  0.00000000E+00
  0.00000000E+00  0.00000000E+00  0.00000000E+00
  0.00000000E+00  0.00000000E+00  0.00000000E+00
  0.00000000E+00  0.00000000E+00  0.00000000E+00
  0.00000000E+00  0.00000000E+00  0.00000000E+00