Amorphous GeTe6                         
   1.00000000000000     
    22.7282823540567733    0.0000000000000000    0.0000000000000000
     0.0000000000000000   22.7282823540567733    0.0000000000000000
     0.0000000000000000    0.0000000000000000   22.7282823540567733
   Te
   300
Direct
  0.5264463205765493  0.8039050462120908  0.4406829830330853
  0.5416836635476694  0.6215828828752719  0.2283489838762778
  0.9328937868957282  0.0052039296229934  0.1445808348060056
  0.1535758440803073  0.9956746025878127  0.5573312033639489
  0.0209185641492504  0.2010343407645799  0.1011898468813103
  0.6713508104879086  0.8572251560028116  0.8531608605286443
  0.6061282957425400  0.6510964336475898  0.0637950816651202
  0.8755903146670393  0.6550772598153258  0.7343175452107498
  0.3074476425553455  0.1314906846440594  0.0270345763911960
  0.9540788944423617  0.2628844866429751  0.3450317137968278
  0.2591395411097004  0.6622404208510178  0.2420152661320790
  0.5270155875740614  0.6580496447576289  0.9356151666702571
  0.9085295626185590  0.5483794434599595  0.4883952649992317
  0.1460976858499589  0.6957914508273360  0.0913949518232786
  0.3931288036457245  0.7021814799700260  0.4882704351091633
  0.3461730778389645  0.7174402154894576  0.3760766596240548
  0.6223678560176310  0.5637715473338832  0.7044949580350732
  0.2738479386973983  0.6765726466100584  0.8488154775544492
  0.1428138931618017  0.7299670925988605  0.2318171954049991
  0.2262742936246461  0.4424818577198063  0.3230234409376188
  0.7515265135310375  0.7743362007141072  0.5919704067870055
  0.3957954554103486  0.2333038895335647  0.8662515641720229
  0.2646008957466719  0.7358880462190053  0.0545673322434679
  0.7359187465890982  0.8886307447288220  0.9863729125752185
  0.8346494534404740  0.6463962244654636  0.9077092337937767
  0.0462892824048938  0.3003923492542235  0.1727152525937931
  0.5041666937409163  0.7731589548044210  0.8517804457627586
  0.2214381621643597  0.0450760880353048  0.9868519155093148
  0.9995980399427637  0.8936989463265604  0.5563516005335003
  0.9240099261326709  0.7605526916025402  0.6940368679814198
  0.0926800869910130  0.5511373241638785  0.2533473414749789
  0.9888574310592647  0.7823803874802305  0.2116584648948882
  0.1006463409504681  0.6421664121027537  0.9126066383350250
  0.7356910005166261  0.5480249245482151  0.7497318294706149
  0.3594148455207369  0.3481276930754054  0.4310921805514195
  0.6903138238816937  0.8700798005387517  0.6875192433987454
  0.7181840663341796  0.1033412132901610  0.2244267376941284
  0.7530465077057300  0.0507281517053774  0.8168576984128586
  0.8345160169157366  0.5145626272006407  0.9321868714855566
  0.3845919101540062  0.6096629908467048  0.2352868078387970
  0.4387538259926669  0.0003951388023212  0.9992141726053861
  0.8271483160673831  0.0200283523951598  0.6325093296985308
  0.4696706255872471  0.7381696412666064  0.2182951604419195
  0.4121365778720924  0.8695158709911510  0.0918363581591593
  0.4268728727031234  0.1019044276401893  0.7779444132128082
  0.1594626656025857  0.2860730460439153  0.4230154159785189
  0.1541819523811075  0.2539602362962796  0.7416711953869477
  0.0601780903589337  0.5575149196485022  0.0809546023214611
  0.1852569287594918  0.1757736733803549  0.2605880327803839
  0.4467988173439222  0.4631277062445714  0.1343000691809498
  0.8067787517240123  0.0672144567269250  0.4862507609058997
  0.1632033333667291  0.5985667336138787  0.6451903278220398
  0.5310902623226958  0.0148722262351950  0.1625480366283869
  0.2117565096751942  0.7923907149118237  0.8426786779886528
  0.2820090169068585  0.0055646546246297  0.6648658081088147
  0.9492556711963903  0.6963411783962911  0.1295457463889018
  0.0619854874032787  0.7085479416445088  0.4244657960555953
  0.9787884162779268  0.3628913838307077  0.4193481531838309
  0.7848823504197884  0.8929872866841166  0.4825967984644973
  0.5208835705517906  0.1624870055279423  0.2703947727024236
  0.5229808353820388  0.0128483674036276  0.5585116292327496
  0.8005754718584273  0.0083570772053606  0.2266941412679129
  0.7799258060993060  0.8280098222571043  0.7691524823380980
  0.8998477262912306  0.3650768933213910  0.0532357091441755
  0.9739717943966297  0.2710911619116498  0.8348843216114460
  0.7100480049886511  0.3648392941474125  0.1738313750635494
  0.6498468440037539  0.0761563692516873  0.9241507410172219
  0.3262260391626605  0.6753577206475363  0.7369042968934340
  0.0807597873512701  0.5137215873494291  0.4478651225629780
  0.1833223676336604  0.5498102974590624  0.9367486390216527
  0.3362186529490162  0.3300023455566006  0.9131943059748572
  0.6100494426049177  0.1213414222270106  0.7677162582433907
  0.2994939630245765  0.3871344110680733  0.8109418821127634
  0.4910883942635723  0.5759535086875226  0.4824012772584123
  0.9506474657821949  0.3860235465144968  0.8939565109003470
  0.7400518767337537  0.2350136604090090  0.1805925326370653
  0.3605131424059181  0.9486334294806419  0.7403563377347631
  0.8803510369040933  0.3379227210259704  0.1828810754227935
  0.5248639582568703  0.1690837159304677  0.0239510441355318
  0.9973093209770038  0.3054339025969579  0.5269795351137136
  0.5675200993433281  0.1279046489336246  0.5722750668210750
  0.5310805896666215  0.4151715822419834  0.3851418934683180
  0.1888750373623260  0.7418691428831067  0.6611683924092552
  0.8696713259434214  0.5947002499741745  0.5945416927936183
  0.9236463337022198  0.7819012613413153  0.5436833411220011
  0.9525762977232767  0.4015882177132296  0.2590586024825061
  0.8177467583597103  0.9943261372863471  0.9793203107389695
  0.0138964444176403  0.5252634050087663  0.3444425175617745
  0.1738027857860165  0.9982701679225251  0.2048297182115704
  0.5049183547287776  0.7626552232798025  0.6569213962060432
  0.3328137345690486  0.5517181063171316  0.7008065056697832
  0.6596025357283335  0.3964769453460291  0.0670378308429341
  0.1827451216666284  0.5650667387264033  0.0658969361117249
  0.6223204506496369  0.7951466334646938  0.5231598680749464
  0.8660529935451681  0.2579948256564322  0.0002904595905189
  0.4775986287190664  0.4600917049739958  0.6118360910709580
  0.4018535914076346  0.1099247296508616  0.9505043023719473
  0.1181381204477972  0.3956589274182990  0.3725632779961257
  0.5398755926685782  0.9431410547609543  0.8068014661946196
  0.2281991315546820  0.2647891610126192  0.9780824572149925
  0.3012462502342614  0.2651642108765711  0.2888782251362195
  0.2771669814545112  0.0984310466703881  0.4285980638846583
  0.6858167124592301  0.4255565831301795  0.9027605409582500
  0.9995870554817712  0.2291808255686875  0.9501383064099643
  0.7335785661181339  0.8903890241474940  0.3064465290625884
  0.0217558434922915  0.8529155732439179  0.3310436509025896
  0.8036724688906213  0.5709997470995783  0.0806785361430820
  0.6408841259893684  0.8027066585273220  0.0137872727182151
  0.7894044041949768  0.6811026304434648  0.1336413183951033
  0.4016880272755723  0.2586789621582735  0.6869117412991670
  0.3781011829836070  0.7965820177784263  0.6717652799903422
  0.2095959325168248  0.5659050181948846  0.3425461545135629
  0.8818499790723662  0.7914180782006530  0.8829650859499277
  0.7481256267568355  0.9410433279458255  0.0990749646800981
  0.2099929833113725  0.8622389896727249  0.0194319401879582
  0.3549942279201244  0.0196867516600406  0.8415438731153658
  0.2916044377601903  0.7173638098689317  0.5664221053634115
  0.8301261961982187  0.4511065241941726  0.4720543349263943
  0.9281929028704672  0.6470169260284256  0.9902426006774729
  0.5635197591532740  0.8746121587636556  0.9192466108941457
  0.4773383960057919  0.9341579562669035  0.2373542945911205
  0.5047458538726129  0.3881218197561780  0.9386885714072477
  0.5566349670906474  0.9538165817174609  0.4007606238360262
  0.7381321100085765  0.2559631433744136  0.0045415062561936
  0.0505086724913224  0.4373967002880181  0.1109351623705480
  0.6792256817651973  0.0864009916777037  0.0907868474575113
  0.9590614749682468  0.0966847639708607  0.6240971972602462
  0.3281689334757663  0.1626202288235913  0.7298649051439192
  0.7139428650336621  0.5014542834984512  0.4920556795390082
  0.5972020470164217  0.6484786833856305  0.3551246573355442
  0.3771141147540803  0.9064191393880080  0.4293392006990679
  0.4045010140824482  0.0298698688003590  0.5171390660502400
  0.3139949047542172  0.5868987542714016  0.4111152995750053
  0.4137966293467348  0.5756912772710652  0.5843065424373342
  0.8470319844790153  0.3336006634197465  0.7148322784075340
  0.9277350742559175  0.1335883462779534  0.5012223625511957
  0.1994249362392026  0.1669755945163793  0.4962440190146731
  0.0898013878446306  0.8109395840100616  0.1151107146096221
  0.0369978020153734  0.6196576093979611  0.5027042131582492
  0.6905869290712203  0.6562475654389857  0.4425185231284935
  0.7470610259211136  0.3633917141487270  0.8008273057845418
  0.9068886367657061  0.9163754506917259  0.3007910469101790
  0.1734211672434986  0.5091589444365524  0.8053976840494410
  0.6915899182129569  0.0193621542385063  0.4539479285205175
  0.8347904555446685  0.3972890030812503  0.5936117019891060
  0.2669455753412976  0.4237284234866993  0.0934104486851499
  0.1637669424983794  0.7440728475307947  0.9483302567727506
  0.3980120841901638  0.4953235320907645  0.9761255591963237
  0.1540387057325470  0.1748549875259500  0.8547966673722392
  0.8204248735247368  0.0276788069212603  0.3529833777574299
  0.1008611484763519  0.0780668855543505  0.4815450146425216
  0.9922379954173078  0.5806100392862530  0.7211044949520177
  0.6636916017565477  0.9570787039548739  0.5576993691445048
  0.3899463689168394  0.6671880407283759  0.9130489415481865
  0.4018964474157202  0.7743040122352434  0.0071223120564053
  0.0501015802538045  0.3370938136689487  0.9918936321386972
  0.7810849224422152  0.4047559552545383  0.9835677878185163
  0.1539851615680763  0.3579530274268772  0.9323965934599949
  0.6863799531166255  0.6832462620748514  0.6470250087482071
  0.0938548808085618  0.5012476308058107  0.6112248971151059
  0.9490729674230520  0.9163392830562369  0.6662217953362375
  0.9138100714203430  0.7720267073545685  0.0399641134527565
  0.2106728128370416  0.2092993559977393  0.6383839792303305
  0.8239004802412461  0.7021222948365464  0.5156293263590024
  0.3207081769388895  0.9295448619334898  0.0015811596771729
  0.9813022169910726  0.0290878167072016  0.3370560205604990
  0.6402251898946204  0.9918494136075893  0.7295243742284582
  0.5848618876273064  0.3157727387598362  0.2041011872741761
  0.8528705276394057  0.4690099233543724  0.2996668582998477
  0.9073534656994847  0.1560860460850227  0.2580229760342197
  0.7072078517043874  0.5499926444694599  0.8712547893663894
  0.4277761189514981  0.5275983047739357  0.7859126909189298
  0.3938417388465986  0.5282730877882669  0.3327922063588333
  0.2848056982636982  0.0092796948042309  0.1427875386196587
  0.0253749603254880  0.8319968524420155  0.0123130128130731
  0.6307794943055091  0.3100861962672393  0.7788840217609742
  0.5859125685696678  0.1882578719411724  0.9187431221290707
  0.9108516149354043  0.5268649593217655  0.1301547842741614
  0.1425417499524687  0.8067092595137092  0.3327622175630927
  0.6949177565285496  0.7440341386079111  0.9189376330650306
  0.2600670825852078  0.9360413757731757  0.4043151950478890
  0.1245965107870061  0.9011242443470453  0.8477134780501125
  0.4702086224458707  0.2580864302966452  0.2040157025655525
  0.0408698886314273  0.0151489654036044  0.0848062460582663
  0.6587636743830352  0.8752652493500265  0.1552410399303923
  0.1862896574226102  0.7069341070079784  0.4201224587304416
  0.5892856378734080  0.5047432351449831  0.2354587693652694
  0.5860838837407536  0.5268280882460175  0.5474206920171941
  0.1229041172556634  0.1184783902645901  0.9673139459380987
  0.5203446493043695  0.1753315535077295  0.7005728310049051
  0.9037328267248818  0.5023397612150612  0.6757013224612312
  0.4474991987863904  0.2966404671093498  0.5017615385960231
  0.8935768528478161  0.2172282287832214  0.6694215944670447
  0.9627313627296394  0.4048818093309789  0.5980872255291831
  0.5256748011845014  0.0740875527659789  0.3820903230157605
  0.8622951563390810  0.4331080053649786  0.8193440498139304
  0.3590732600358292  0.4289889376122172  0.6448288507255546
  0.9261193331162081  0.9342780923702003  0.9991872438443880
  0.5117970439862848  0.2916963199420246  0.8640333746323390
  0.1839994427953585  0.8958886588770338  0.4942872236364396
  0.3620566011736430  0.3533424217004268  0.1305025632083748
  0.3492066187905574  0.0959032430577261  0.6137214611922620
  0.4307494757640455  0.6792088193712775  0.1110176018660586
  0.1275734033529346  0.9408580922111617  0.9678252487481056
  0.4190564282049335  0.0232662522556549  0.3155786572191018
  0.7583809732593318  0.6690398727273589  0.3275396912868697
  0.8982097164970895  0.1941398285244765  0.1421104477527475
  0.5655105669480966  0.3972943621540738  0.7203030679369495
  0.7138112901257361  0.1743862011298197  0.7053828169290238
  0.6291347621914150  0.2290788376354814  0.3062545092118433
  0.7495101488133262  0.1846130581052795  0.5403704642608163
  0.3164996795672934  0.9305114627336313  0.2323282791184049
  0.5396022650333904  0.3661420556805034  0.0959767924954771
  0.2283237388043050  0.3889037558935590  0.5260005988885789
  0.0389380229660130  0.9930208116789956  0.6947497555300883
  0.7411419166510970  0.2886701694626773  0.4406366224465018
  0.4016766451783951  0.8281920765489570  0.3376914299488596
  0.3568301859524997  0.6032367026550784  0.0209015474668649
  0.3177498859188421  0.7532805699089056  0.1686843918230956
  0.4159950507450520  0.4046369738580574  0.7719017676357377
  0.4849407729170067  0.4372131551507488  0.2639139370048339
  0.6217108805471009  0.1348654423070054  0.4535702471434713
  0.9259378563887692  0.0975826584178673  0.8943225765615610
  0.8361474309575535  0.9860712256516264  0.7530745775192892
  0.2154323050043595  0.0598427002198086  0.3116736550376936
  0.7424348526394018  0.5503220575106008  0.2877288435104757
  0.0999288418489223  0.8180911754107231  0.6041981505414835
  0.6139688219701137  0.1903291756533086  0.1072890818528555
  0.5071358864319412  0.3316945768168468  0.6305035495661288
  0.3600553060276071  0.1839779026655971  0.3969483644238138
  0.4247784978265166  0.1700766298226241  0.5045991555349973
  0.4266970569553497  0.0575745168865978  0.1147661161363884
  0.9823313494592421  0.7166550592799289  0.8642698616404427
  0.7065833727268147  0.0589380822883699  0.6311496931083621
  0.3346830751177965  0.5283063585699180  0.1516217668724155
  0.0271134654676763  0.7680001409458187  0.7632870020715045
  0.9817291689080029  0.0140792351609599  0.4621900460846625
  0.5160204247770951  0.8291842561734698  0.1497842042741428
  0.3868642286805075  0.8948827602776162  0.5954501365610487
  0.5908092772410457  0.8100674314523567  0.7594829516189960
  0.6684596498394541  0.2483092040235504  0.6142080539988041
  0.1938344903972578  0.9853294287917852  0.7908020308856839
  0.1702683092932811  0.2851936202201331  0.1692577596901667
  0.6078510922375810  0.6665925337559541  0.5448710668968836
  0.5379593290472123  0.5388334617893270  0.9758841851419190
  0.1665637443456439  0.4058803763296062  0.6302344955802799
  0.9924646645133010  0.5482005082970989  0.8423245692089630
  0.7366023502021997  0.1216358460719492  0.3497109333633519
  0.8749601835958877  0.7954473518069121  0.2671973909044302
  0.4001363320708448  0.1157674604920086  0.2372805799467866
  0.0666962343202078  0.1591589421944734  0.6037866878077671
  0.6729857834387188  0.6584850985306701  0.1718969157297495
  0.9807968986692767  0.1471531146384085  0.7901697175050280
  0.4172268100602039  0.3129992693962328  0.3120661674343547
  0.8206977138325602  0.1473739964087413  0.8631053189102370
  0.2559221452510373  0.8342315573500161  0.7119298533619950
  0.2367567606604770  0.8383524062763330  0.2140152677964559
  0.0847834921765490  0.9612726757601814  0.3253789899095599
  0.0366393681438153  0.2410167776167986  0.6956890757054897
  0.3090399244303655  0.2392466300937608  0.1684245998794436
  0.6350043521914331  0.3270850792652777  0.4915118980267933
  0.7053227151200303  0.7858689395675031  0.2313659580333071
  0.5369901224245811  0.4880611495871411  0.8599903712997616
  0.6923883587047605  0.4132716214193881  0.5759397273205943
  0.8975332718871700  0.5714641176174413  0.2438194631981085
  0.5353252186640012  0.0536418425056122  0.8651047484906514
  0.0986740912857314  0.0903489961686622  0.1633200611841289
  0.7063930410667121  0.6333145533260002  0.9915381438733890
  0.2952523545207267  0.2984898887715932  0.6171931303315547
  0.4311121984499904  0.4576131498541032  0.4496450826115218
  0.2799123098751394  0.4491499842091271  0.9711229142562039
  0.1387910848268397  0.9079304117228033  0.6923852771789289
  0.6051992779959563  0.9249841411644343  0.2894858469274655
  0.7537404275973362  0.3610126449373174  0.3341660615966255
  0.8647062375619888  0.2018957776442303  0.4043229543819523
  0.1584980262365465  0.2050312230937855  0.0628214637899943
  0.8978579370670031  0.8498648585893004  0.4419711731487744
  0.3779291857801195  0.8606062264360582  0.9152007147788962
  0.9498091335125093  0.5160944964103881  0.9828830983161406
  0.1315753790858649  0.4433568568211113  0.2086855272690370
  0.5607675244546627  0.2493968048417456  0.4088955510282786
  0.5062321639086004  0.8602344707381678  0.5754843552198305
  0.7049054773817098  0.8288120891339931  0.4134688399654063
  0.4743880323141878  0.6700695039851829  0.7681085950169586
  0.0592164770224118  0.4464595968240416  0.8356690369806850
  0.8555508270646449  0.7408995361349070  0.3825433458136050
  0.8697756128717358  0.2419809043233165  0.5480878852399169
  0.6425490927031171  0.5001549225651040  0.3516164013614037
  0.2191725772937364  0.6319576053825443  0.5139403436954304
  0.0941566019191764  0.0818112022017887  0.7995207302604671
  0.8706337645242024  0.0855380281834105  0.0765322984515895
  0.7547983353635004  0.1325747292072590  0.9939225535050125
  0.7560613217397280  0.7042560647401143  0.7684913909594812
  0.3164460884526731  0.4873166414238565  0.5396271261321313
  0.1370394160879818  0.6180364305445903  0.7657738952315715
  0.0999251391044399  0.2171641265738650  0.3402870847520388
  0.8144698932771891  0.2628115208642910  0.2812258807896991
  0.9387680493784354  0.9006437516464458  0.8818943835199974
  0.5801448696925909  0.6155933398709897  0.8157280119659331
  0.5915313342202201  0.7723787573906947  0.3381803216122617
 
  0.00000000E+00  0.00000000E+00  0.00000000E+00
  0.00000000E+00  0.00000000E+00  0.00000000E+00
  0.00000000E+00  0.00000000E+00  0.00000000E+00
  0.00000000E+00  0.00000000E+00  0.00000000E+00
  0.00000000E+00  0.00000000E+00  0.00000000E+00
  0.00000000E+00  0.00000000E+00  0.00000000E+00
  0.00000000E+00  0.00000000E+00  0.00000000E+00
  0.00000000E+00  0.00000000E+00  0.00000000E+00
  0.00000000E+00  0.00000000E+00  0.00000000E+00
  0.00000000E+00  0.00000000E+00  0.00000000E+00
  0.00000000E+00  0.00000000E+00  0.00000000E+00
  0.00000000E+00  0.00000000E+00  0.00000000E+00
  0.00000000E+00  0.00000000E+00  0.00000000E+00
  0.00000000E+00  0.00000000E+00  0.00000000E+00
  0.00000000E+00  0.00000000E+00  0.00000000E+00
  0.00000000E+00  0.00000000E+00  0.00000000E+00
  0.00000000E+00  0.00000000E+00  0.00000000E+00
  0.00000000E+00  0.00000000E+00  0.00000000E+00
  0.00000000E+00  0.00000000E+00  0.00000000E+00
  0.00000000E+00  0.00000000E+00  0.00000000E+00
  0.00000000E+00  0.00000000E+00  0.00000000E+00
  0.00000000E+00  0.00000000E+00  0.00000000E+00
  0.00000000E+00  0.00000000E+00  0.00000000E+00
  0.00000000E+00  0.00000000E+00  0.00000000E+00
  0.00000000E+00  0.00000000E+00  0.00000000E+00
  0.00000000E+00  0.00000000E+00  0.00000000E+00
  0.00000000E+00  0.00000000E+00  0.00000000E+00
  0.00000000E+00  0.00000000E+00  0.00000000E+00
  0.00000000E+00  0.00000000E+00  0.00000000E+00
  0.00000000E+00  0.00000000E+00  0.00000000E+00
  0.00000000E+00  0.00000000E+00  0.00000000E+00
  0.00000000E+00  0.00000000E+00  0.00000000E+00
  0.00000000E+00  0.00000000E+00  0.00000000E+00
  0.00000000E+00  0.00000000E+00  0.00000000E+00
  0.00000000E+00  0.00000000E+00  0.00000000E+00
  0.00000000E+00  0.00000000E+00  0.00000000E+00
  0.00000000E+00  0.00000000E+00  0.00000000E+00
  0.00000000E+00  0.00000000E+00  0.00000000E+00
  0.00000000E+00  0.00000000E+00  0.00000000E+00
  0.00000000E+00  0.00000000E+00  0.00000000E+00
  0.00000000E+00  0.00000000E+00  0.00000000E+00
  0.00000000E+00  0.00000000E+00  0.00000000E+00
  0.00000000E+00  0.00000000E+00  0.00000000E+00
  0.00000000E+00  0.00000000E+00  0.00000000E+00
  0.00000000E+00  0.00000000E+00  0.00000000E+00
  0.00000000E+00  0.00000000E+00  0.00000000E+00
  0.00000000E+00  0.00000000E+00  0.00000000E+00
  0.00000000E+00  0.00000000E+00  0.00000000E+00
  0.00000000E+00  0.00000000E+00  0.00000000E+00
  0.00000000E+00  0.00000000E+00  0.00000000E+00
  0.00000000E+00  0.00000000E+00  0.00000000E+00
  0.00000000E+00  0.00000000E+00  0.00000000E+00
  0.00000000E+00  0.00000000E+00  0.00000000E+00
  0.00000000E+00  0.00000000E+00  0.00000000E+00
  0.00000000E+00  0.00000000E+00  0.00000000E+00
  0.00000000E+00  0.00000000E+00  0.00000000E+00
  0.00000000E+00  0.00000000E+00  0.00000000E+00
  0.00000000E+00  0.00000000E+00  0.00000000E+00
  0.00000000E+00  0.00000000E+00  0.00000000E+00
  0.00000000E+00  0.00000000E+00  0.00000000E+00
  0.00000000E+00  0.00000000E+00  0.00000000E+00
  0.00000000E+00  0.00000000E+00  0.00000000E+00
  0.00000000E+00  0.00000000E+00  0.00000000E+00
  0.00000000E+00  0.00000000E+00  0.00000000E+00
  0.00000000E+00  0.00000000E+00  0.00000000E+00
  0.00000000E+00  0.00000000E+00  0.00000000E+00
  0.00000000E+00  0.00000000E+00  0.00000000E+00
  0.00000000E+00  0.00000000E+00  0.00000000E+00
  0.00000000E+00  0.00000000E+00  0.00000000E+00
  0.00000000E+00  0.00000000E+00  0.00000000E+00
  0.00000000E+00  0.00000000E+00  0.00000000E+00
  0.00000000E+00  0.00000000E+00  0.00000000E+00
  0.00000000E+00  0.00000000E+00  0.00000000E+00
  0.00000000E+00  0.00000000E+00  0.00000000E+00
  0.00000000E+00  0.00000000E+00  0.00000000E+00
  0.00000000E+00  0.00000000E+00  0.00000000E+00
  0.00000000E+00  0.00000000E+00  0.00000000E+00
  0.00000000E+00  0.00000000E+00  0.00000000E+00
  0.00000000E+00  0.00000000E+00  0.00000000E+00
  0.00000000E+00  0.00000000E+00  0.00000000E+00
  0.00000000E+00  0.00000000E+00  0.00000000E+00
  0.00000000E+00  0.00000000E+00  0.00000000E+00
  0.00000000E+00  0.00000000E+00  0.00000000E+00
  0.00000000E+00  0.00000000E+00  0.00000000E+00
  0.00000000E+00  0.00000000E+00  0.00000000E+00
  0.00000000E+00  0.00000000E+00  0.00000000E+00
  0.00000000E+00  0.00000000E+00  0.00000000E+00
  0.00000000E+00  0.00000000E+00  0.00000000E+00
  0.00000000E+00  0.00000000E+00  0.00000000E+00
  0.00000000E+00  0.00000000E+00  0.00000000E+00
  0.00000000E+00  0.00000000E+00  0.00000000E+00
  0.00000000E+00  0.00000000E+00  0.00000000E+00
  0.00000000E+00  0.00000000E+00  0.00000000E+00
  0.00000000E+00  0.00000000E+00  0.00000000E+00
  0.00000000E+00  0.00000000E+00  0.00000000E+00
  0.00000000E+00  0.00000000E+00  0.00000000E+00
  0.00000000E+00  0.00000000E+00  0.00000000E+00
  0.00000000E+00  0.00000000E+00  0.00000000E+00
  0.00000000E+00  0.00000000E+00  0.00000000E+00
  0.00000000E+00  0.00000000E+00  0.00000000E+00
  0.00000000E+00  0.00000000E+00  0.00000000E+00
  0.00000000E+00  0.00000000E+00  0.00000000E+00
  0.00000000E+00  0.00000000E+00  0.00000000E+00
  0.00000000E+00  0.00000000E+00  0.00000000E+00
  0.00000000E+00  0.00000000E+00  0.00000000E+00
  0.00000000E+00  0.00000000E+00  0.00000000E+00
  0.00000000E+00  0.00000000E+00  0.00000000E+00
  0.00000000E+00  0.00000000E+00  0.00000000E+00
  0.00000000E+00  0.00000000E+00  0.00000000E+00
  0.00000000E+00  0.00000000E+00  0.00000000E+00
  0.00000000E+00  0.00000000E+00  0.00000000E+00
  0.00000000E+00  0.00000000E+00  0.00000000E+00
  0.00000000E+00  0.00000000E+00  0.00000000E+00
  0.00000000E+00  0.00000000E+00  0.00000000E+00
  0.00000000E+00  0.00000000E+00  0.00000000E+00
  0.00000000E+00  0.00000000E+00  0.00000000E+00
  0.00000000E+00  0.00000000E+00  0.00000000E+00
  0.00000000E+00  0.00000000E+00  0.00000000E+00
  0.00000000E+00  0.00000000E+00  0.00000000E+00
  0.00000000E+00  0.00000000E+00  0.00000000E+00
  0.00000000E+00  0.00000000E+00  0.00000000E+00
  0.00000000E+00  0.00000000E+00  0.00000000E+00
  0.00000000E+00  0.00000000E+00  0.00000000E+00
  0.00000000E+00  0.00000000E+00  0.00000000E+00
  0.00000000E+00  0.00000000E+00  0.00000000E+00
  0.00000000E+00  0.00000000E+00  0.00000000E+00
  0.00000000E+00  0.00000000E+00  0.00000000E+00
  0.00000000E+00  0.00000000E+00  0.00000000E+00
  0.00000000E+00  0.00000000E+00  0.00000000E+00
  0.00000000E+00  0.00000000E+00  0.00000000E+00
  0.00000000E+00  0.00000000E+00  0.00000000E+00
  0.00000000E+00  0.00000000E+00  0.00000000E+00
  0.00000000E+00  0.00000000E+00  0.00000000E+00
  0.00000000E+00  0.00000000E+00  0.00000000E+00
  0.00000000E+00  0.00000000E+00  0.00000000E+00
  0.00000000E+00  0.00000000E+00  0.00000000E+00
  0.00000000E+00  0.00000000E+00  0.00000000E+00
  0.00000000E+00  0.00000000E+00  0.00000000E+00
  0.00000000E+00  0.00000000E+00  0.00000000E+00
  0.00000000E+00  0.00000000E+00  0.00000000E+00
  0.00000000E+00  0.00000000E+00  0.00000000E+00
  0.00000000E+00  0.00000000E+00  0.00000000E+00
  0.00000000E+00  0.00000000E+00  0.00000000E+00
  0.00000000E+00  0.00000000E+00  0.00000000E+00
  0.00000000E+00  0.00000000E+00  0.00000000E+00
  0.00000000E+00  0.00000000E+00  0.00000000E+00
  0.00000000E+00  0.00000000E+00  0.00000000E+00
  0.00000000E+00  0.00000000E+00  0.00000000E+00
  0.00000000E+00  0.00000000E+00  0.00000000E+00
  0.00000000E+00  0.00000000E+00  0.00000000E+00
  0.00000000E+00  0.00000000E+00  0.00000000E+00
  0.00000000E+00  0.00000000E+00  0.00000000E+00
  0.00000000E+00  0.00000000E+00  0.00000000E+00
  0.00000000E+00  0.00000000E+00  0.00000000E+00
  0.00000000E+00  0.00000000E+00  0.00000000E+00
  0.00000000E+00  0.00000000E+00  0.00000000E+00
  0.00000000E+00  0.00000000E+00  0.00000000E+00
  0.00000000E+00  0.00000000E+00  0.00000000E+00
  0.00000000E+00  0.00000000E+00  0.00000000E+00
  0.00000000E+00  0.00000000E+00  0.00000000E+00
  0.00000000E+00  0.00000000E+00  0.00000000E+00
  0.00000000E+00  0.00000000E+00  0.00000000E+00
  0.00000000E+00  0.00000000E+00  0.00000000E+00
  0.00000000E+00  0.00000000E+00  0.00000000E+00
  0.00000000E+00  0.00000000E+00  0.00000000E+00
  0.00000000E+00  0.00000000E+00  0.00000000E+00
  0.00000000E+00  0.00000000E+00  0.00000000E+00
  0.00000000E+00  0.00000000E+00  0.00000000E+00
  0.00000000E+00  0.00000000E+00  0.00000000E+00
  0.00000000E+00  0.00000000E+00  0.00000000E+00
  0.00000000E+00  0.00000000E+00  0.00000000E+00
  0.00000000E+00  0.00000000E+00  0.00000000E+00
  0.00000000E+00  0.00000000E+00  0.00000000E+00
  0.00000000E+00  0.00000000E+00  0.00000000E+00
  0.00000000E+00  0.00000000E+00  0.00000000E+00
  0.00000000E+00  0.00000000E+00  0.00000000E+00
  0.00000000E+00  0.00000000E+00  0.00000000E+00
  0.00000000E+00  0.00000000E+00  0.00000000E+00
  0.00000000E+00  0.00000000E+00  0.00000000E+00
  0.00000000E+00  0.00000000E+00  0.00000000E+00
  0.00000000E+00  0.00000000E+00  0.00000000E+00
  0.00000000E+00  0.00000000E+00  0.00000000E+00
  0.00000000E+00  0.00000000E+00  0.00000000E+00
  0.00000000E+00  0.00000000E+00  0.00000000E+00
  0.00000000E+00  0.00000000E+00  0.00000000E+00
  0.00000000E+00  0.00000000E+00  0.00000000E+00
  0.00000000E+00  0.00000000E+00  0.00000000E+00
  0.00000000E+00  0.00000000E+00  0.00000000E+00
  0.00000000E+00  0.00000000E+00  0.00000000E+00
  0.00000000E+00  0.00000000E+00  0.00000000E+00
  0.00000000E+00  0.00000000E+00  0.00000000E+00
  0.00000000E+00  0.00000000E+00  0.00000000E+00
  0.00000000E+00  0.00000000E+00  0.00000000E+00
  0.00000000E+00  0.00000000E+00  0.00000000E+00
  0.00000000E+00  0.00000000E+00  0.00000000E+00
  0.00000000E+00  0.00000000E+00  0.00000000E+00
  0.00000000E+00  0.00000000E+00  0.00000000E+00
  0.00000000E+00  0.00000000E+00  0.00000000E+00
  0.00000000E+00  0.00000000E+00  0.00000000E+00
  0.00000000E+00  0.00000000E+00  0.00000000E+00
  0.00000000E+00  0.00000000E+00  0.00000000E+00
  0.00000000E+00  0.00000000E+00  0.00000000E+00
  0.00000000E+00  0.00000000E+00  0.00000000E+00
  0.00000000E+00  0.00000000E+00  0.00000000E+00
  0.00000000E+00  0.00000000E+00  0.00000000E+00
  0.00000000E+00  0.00000000E+00  0.00000000E+00
  0.00000000E+00  0.00000000E+00  0.00000000E+00
  0.00000000E+00  0.00000000E+00  0.00000000E+00
  0.00000000E+00  0.00000000E+00  0.00000000E+00
  0.00000000E+00  0.00000000E+00  0.00000000E+00
  0.00000000E+00  0.00000000E+00  0.00000000E+00
  0.00000000E+00  0.00000000E+00  0.00000000E+00
  0.00000000E+00  0.00000000E+00  0.00000000E+00
  0.00000000E+00  0.00000000E+00  0.00000000E+00
  0.00000000E+00  0.00000000E+00  0.00000000E+00
  0.00000000E+00  0.00000000E+00  0.00000000E+00
  0.00000000E+00  0.00000000E+00  0.00000000E+00
  0.00000000E+00  0.00000000E+00  0.00000000E+00
  0.00000000E+00  0.00000000E+00  0.00000000E+00
  0.00000000E+00  0.00000000E+00  0.00000000E+00
  0.00000000E+00  0.00000000E+00  0.00000000E+00
  0.00000000E+00  0.00000000E+00  0.00000000E+00
  0.00000000E+00  0.00000000E+00  0.00000000E+00
  0.00000000E+00  0.00000000E+00  0.00000000E+00
  0.00000000E+00  0.00000000E+00  0.00000000E+00
  0.00000000E+00  0.00000000E+00  0.00000000E+00
  0.00000000E+00  0.00000000E+00  0.00000000E+00
  0.00000000E+00  0.00000000E+00  0.00000000E+00
  0.00000000E+00  0.00000000E+00  0.00000000E+00
  0.00000000E+00  0.00000000E+00  0.00000000E+00
  0.00000000E+00  0.00000000E+00  0.00000000E+00
  0.00000000E+00  0.00000000E+00  0.00000000E+00