Amorphous Sb                            
   1.00000000000000     
    22.3638363270341500    0.0000000000000000    0.0000000000000000
     0.0000000000000000   22.3638363270341500    0.0000000000000000
     0.0000000000000000    0.0000000000000000   22.3638363270341500
   Sb   Te   Se
   120    36   144
Direct
  0.8106495878096345  0.5670542834373524  0.2429311532838083
  0.5346619098279622  0.5920840411793510  0.7795364721512440
  0.5853391410024066  0.9861909389044536  0.8623116930639040
  0.3042046846929795  0.3292552812813283  0.2376772127238956
  0.0509153188229876  0.2536722446572322  0.5714862248692972
  0.9640918532498073  0.3483837121786394  0.5449770635706522
  0.9543261326040877  0.0558626144475913  0.8726915441157570
  0.3585556898857736  0.6257352000229249  0.5546637477260470
  0.2589891177017480  0.6461245237810405  0.8402911512931810
  0.6605504138747285  0.8587130764600399  0.6704466065879335
  0.4105323668618871  0.5269791055477792  0.2036289645093401
  0.8297144829399919  0.8553179726216792  0.3449135195355453
  0.8757202693073217  0.4461218646074747  0.6689707533041889
  0.6649025607753990  0.4237827067525577  0.1729663244810745
  0.1703532939013447  0.3999670689843117  0.2854624506615669
  0.1072325391884066  0.6997077123182769  0.6436418593145808
  0.7155919010553733  0.1279789205651084  0.3002459704540378
  0.2666206746800058  0.7805722580641331  0.8455497351153848
 -0.0000937019658256  0.8536569228655464  0.8530274673413686
  0.9219633826544834  0.5232952588791281  0.9380643356959024
  0.9212085623358089  0.7749158778452500  0.9920517172590706
  0.4352771964634740  0.7941734866788083  0.1135729276520065
  0.3235433299339113  0.4717402968493206  0.5058768061675863
  0.5492862447444760  0.6638391763532939  0.8853135724640812
  0.2559850686408010  0.1813290070221373  0.1207847886241631
  0.8519556418263103  0.4876327747838277  0.3392990245989350
  0.1874798056883848  0.7467710310444672  0.0186264086361916
  0.2604307972250610  0.3744653223545134  0.8361866977105797
  0.7524190461790959  0.9956773868770002  0.6092473454020352
  0.2989376587045292  0.4641582110543761  0.6919255594329010
  0.9424515246488507  0.6289442462108307  0.3619350807998519
  0.7668175503306439 -0.0059516795268000  0.7937793986997220
  0.2667927747622171  0.0993026942283541  0.6314968747103803
  0.1023290088899360  0.2714134164676457  0.1159296767532320
  0.2743151368956063  0.0522160025034599  0.9190896852280032
 -0.0010369090895297  0.1011100957745982  0.4722239067067270
  0.0826434104461515  0.0714388140765061  0.3251386045292956
  0.7005490488603451  0.4244353702370440  0.5590116322296134
  0.1979429149716393  0.9773608289393865  0.0816577427034283
  0.6183477841569932  0.2155391246556873  0.4240786793565483
  0.3019009913360551  0.9059632294399140  0.6798087247048715
  0.1990912878590878  0.5497651925879932  0.6503199157966891
  0.5669904251164319  0.6840425439506270  0.6379518892115129
  0.1797180389940136  0.4730901514192069  0.9257209031024181
  0.7767047416339443  0.6592619768473785  0.8983880662188356
  0.4768898107394368  0.7402891767239057  0.2829072212856090
  0.3424121870711467  0.8018355068246182  0.5489926080949079
  0.8874976175438013  0.2365058251202269  0.8227721226226684
  0.0006105456749914  0.7835405654087135  0.1954680176541683
  0.5103476753636786  0.0881824558793226  0.6408505893958542
  0.1684651942555017  0.3645640193419001  0.5992376109177321
  0.2397069544914465  0.8838426767442589  0.4273371630823825
  0.9874514797447763  0.6742650419280042  0.5308298652178167
  0.7672907050573634  0.7652226215545653  0.0626312005324593
  0.8274775856848436  0.9549542421376178  0.1531508412177743
  0.4208808316880226  0.8898408451855903  0.8997844299578613
  0.8836943848537251  0.0889726661457447  0.2678995923834070
  0.2791873206331794  0.0140555527797008  0.2457974617622308
  0.5781821878739921  0.5821949177981016  0.1566281456108522
  0.1705852353929092  0.3668102412811739  0.0014252043788989
  0.9219292139136271  0.2186036955851085  0.1505173134521618
  0.2333837244093123  0.7431466784279890  0.6879742714123293
  0.3962040176735139  0.3265055043089543  0.1437446647844163
  0.6875887707962938  0.7138245808852013  0.7685019454020279
  0.6963647617629238  0.1214206405006896  0.7049297154878332
  0.1081326594959477  0.1456591067282617  0.9530834062815413
  0.0616963001129631  0.5148582169694614  0.8844674835628646
  0.5598885179245511  0.3007875499376256  0.2400026917440909
  0.3310467249709336  0.7122920314049157  0.1910481154779510
  0.7766331367246615  0.7956299371990562  0.5518772296621788
  0.2966243329817070  0.4625148050565570  0.0674601231174262
  0.1652121743162385  0.9324789499394623  0.5628114301037426
  0.0014158937904815  0.3603906663215410  0.2565021636968303
  0.5841699070076127 -0.0018490181163261  0.3124083108583389
  0.7571141841672517  0.1733334392352862  0.9198343351245936
  0.7146250176304887  0.9205947384086277  0.9735715901718466
  0.1847999456552519  0.5925278206404178  0.3118062803930578
  0.8276155271990984  0.8091553632321246  0.8525177227630473
  0.3663402426133722  0.0159719939327219  0.1291528244430486
  0.0252111874843210  0.3982657312351284  0.0296525618276382
  0.4959010596403262  0.4064598110192386  0.7550096009417967
  0.8569533630081602  0.3477745556842384  0.0090933167307999
  0.2009770552624732  0.5491837975532288  0.5123024459468927
  0.7545066944245383  0.5033870493260881  0.0401395977214390
  0.7989700940785798  0.1392271204302513  0.5398795487709495
  0.4798430130384266  0.0702786403507262  0.2843146332663034
  0.4247852091092271  0.4578623497831370  0.5895601733189773
  0.4510955395195582  0.1186373958529447  0.1332412655429216
  0.9458127516760590  0.3931723456595925  0.9278923910398800
  0.7769626729831842  0.9905645386944061  0.4286117244582937
  0.6464851933819277  0.3254936054372106  0.7058196135405693
  0.5884785900270137  0.6678112579775872  0.0544437646576118
  0.4116822254230072  0.0393340562854167  0.4791957571947355
  0.5691751520803676  0.5416976711022399  0.5548681675832289
  0.4431655821186251  0.2212123044670817  0.4419139796235111
  0.8388440865152005  0.0443937427519775 -0.0000749734290609
  0.4897624922744378  0.9027684670366820  0.0650082379585562
  0.5118152169698978  0.1852305413777616  0.9808393025298350
  0.2839871223410085  0.1458539951836565  0.3624207278844191
  0.0431348093223125  0.6506746192798607  0.7417794708335602
  0.1358491745446283  0.6625060785063696  0.1323488295287330
  0.4931626311306172  0.9159163461287589  0.6345849865342377
  0.2332935908415066  0.2742041257877955  0.4744975136881209
  0.4123785763722643  0.1047633190827428  0.9688295653200165
  0.5633406382198743  0.3035558187580525  0.1097874132291230
  0.7636988108433010  0.5908482103263508  0.4259552454572222
  0.5728217114442592  0.8574507498472288  0.2384025118062145
  0.3346598966422962  0.6387561207673595  0.0246827821020685
  0.9185903708933847  0.4333473503730546  0.1016337040912633
  0.4556922404056551  0.1353887345368349  0.7885974154710123
  0.0087407602134396  0.9648284622948475  0.2023140476763091
  0.0276404871001582  0.4473650956527787  0.7077086600916557
 -0.0149967337616324  0.5260198757255180  0.1794494360952633
  0.7120030072319476  0.2332636695036453  0.7758270385242705
  0.7094125044918046  0.4959481447917804  0.6655243033965974
  0.1699401366022100  0.7739635307559872  0.1931526913112834
  0.6509329464833841  0.9307852412542310  0.1552453488363746
  0.6830928683370954  0.0758200492091276  0.5319192015204290
  0.9025031506242562  0.2562894049801248  0.4747824830142941
  0.1848125486100541  0.1365337550586033  0.5364116295707146
  0.0553148971187779  0.0928766616733130  0.5964833521012537
  0.5742329130584922  0.6617995011336150  0.3197852710990015
  0.9737997383048791  0.7508288282901191  0.3883665015723717
  0.2907585498492199  0.5881158573774838  0.1352164213044680
  0.9151949452929037  0.7532696251660224  0.5999934583121278
  0.5482247604187297  0.5782214369800882  0.9758701953554193
  0.0912016144395072  0.4092184211732489  0.1800758625881781
  0.1776623470323601  0.2497715536991427  0.9134106892273262
  0.4471436316597124  0.9634849892382945  0.2190370678166409
  0.8316812477442473  0.3609220621464680  0.3339372172543738
  0.5203534588636171  0.5553054551054230  0.3523790186664159
  0.0332279703269083  0.7917839059205291  0.6942820175361825
  0.0494956116521454  0.9085463222084844  0.0114090906921267
  0.1818916440997817  0.2268054667081300  0.3688035514515054
  0.1160378755382248  0.3939733761470324  0.8068061967013521
  0.6926406303285471  0.7052337382528662  0.2226338853390868
  0.4164914217540511  0.2990048913501571  0.7848667063395933
  0.7043428632017855  0.6890016998879329  0.5366826070631652
  0.4119549691287994  0.5548707937408167  0.7900316561862997
  0.3467970173390274  0.5245826881338620  0.9693020439839797
  0.7147168165085215  0.6494494615805319  0.0439025620575382
  0.7194114138031152  0.5060756309405544  0.3417538100214803
  0.5219419221920741  0.4796998996435723  0.2545004445569581
  0.1568008089298576  0.6698001123407415  0.4777602488912667
  0.9311677521127232  0.6278731141781754  0.6353751762066415
  0.8205892558625258  0.4212376107346968  0.5186489193043736
  0.0694248511748373  0.3103747294501368  0.8842082819184151
  0.3893554216362125  0.6639976464089473  0.8713172653559139
  0.0323718490483498  0.2242599409759917  0.2151920875155358
  0.8808904699641555  0.9379304884802222  0.7756886909995747
  0.7286346241724883  0.2481452618803268  0.5477343582397036
  0.2937549004156465  0.0392859272213676  0.7788026302528037
  0.6862453434180876  0.8935515387516720  0.5498025077529044
  0.0820447618664077  0.0221399683300137  0.0552414877269705
  0.0294277043926533  0.1548763738126884  0.8506269117998382
  0.5874901712924470  0.3362677036088613  0.4504049987353288
  0.0756927352102607  0.6306635966976250  0.9077940998189385
  0.7337438784369587  0.7673976688655205  0.9101969254200700
  0.3843104776198236  0.9418119445106246  0.0377595494522872
  0.4805121469555310  0.8877161221729445  0.5183766206132940
  0.1435692932298044  0.8479263736705422  0.4865530848995480
  0.9282493524492816  0.4578144730892128  0.7734940049260308
  0.2817711779209653  0.3759495194238183  0.5777877026672428
  0.7977877632437618  0.0621338922408259  0.1893779277279457
  0.1102095705770584  0.5882670037540843  0.2214247974289281
  0.2979468876548562  0.1436920614067118  0.4793096815005226
  0.0501290962850499  0.9501107194836165  0.8982957847959345
  0.2902787611453484  0.3564714449589130  0.0066233035169977
  0.4970313085529225  0.8343055100469908  0.9684313127933603
  0.6736876987202876  0.8318718519198040  0.0584197727869981
  0.4734467689630000  0.0030395975696315  0.8851684958558900
  0.1011710796609102  0.6409408498865572  0.3801929773798891
  0.4425883739214593  0.3054805235240097  0.2494836813886463
  0.9134140669210671  0.6029858279092284  0.4724409741881456
  0.5188549309401528  0.2095262665198452  0.3551069226499213
  0.0821026412284792  0.7621093345393959  0.2733742170590902
  0.9269661708555034  0.3402920035087938  0.6555455442122788
  0.2840460944078557  0.6379558254640258  0.7179009180806731
  0.1756788313661310  0.0118643705368879  0.1908283911918111
  0.2873630403188115  0.9245435983459178  0.7956423549766511
  0.2744945118126186  0.7783204068920672  0.0867136683465623
  0.3660818830152039  0.3360669421968617  0.8815734376118387
  0.6946650009948533  0.6838515279071585  0.4212883585315195
  0.2758914523150411  0.4888721203470177  0.8074600080332343
  0.4000503675357363  0.6554800466432605  0.2766729133796004
  0.0269240672647059  0.2174658205179019  0.4603710698719309
  0.6446518823643896  0.0752130866193048  0.3793957248824953
  0.0923336979788521  0.5368676220924248  0.7550598530977856
  0.1911123202489453  0.8180588855668544  0.9245645817510304
  0.0278042256862326  0.7026448791666505  0.1126127568713139
  0.2499771327298114  0.7305240540458897  0.5732292209468113
  0.3577856801254417  0.7724660024245416  0.9179379826062843
  0.5923456033817796  0.4809812188721711  0.6558736089715116
  0.4310451037679177  0.1744465554372047  0.6827760185368541
  0.8157674987993357  0.1554046594854028  0.0212483875912623
  0.2777064841865137  0.3519884317403093  0.7212086504355893
  0.9100901605444812  0.6129189301701434  0.1938326892981429
  0.9789855808735118  0.1747754476855392  0.6241414439753030
  0.4666138925093516  0.5926797596131248  0.1240170712935157
  0.5124452551815377  0.2835270555819668  0.5176141717000090
  0.0992798360710110  0.0511270880561613  0.4407550424117376
  0.3135062463730814  0.7961032381692473  0.4322695735176331
  0.7678179956873298  0.4114176634297491  0.9692142522775324
  0.1428720260114700  0.4883969907359806  0.3532946417696399
  0.5750697712978227  0.8746276213202302  0.8184368363053941
  0.8110935469109023  0.1131169477010836  0.3679969918976245
  0.1980675447480896  0.0648038755993188  0.7210962699624197
  0.2894729228191960  0.3392460422707259  0.3917166731802430
  0.6589811295008221  0.6272487268515449  0.8458405204501154
  0.9842731409758579  0.1316572123446705  0.3503913391235960
  0.5362898072938317  0.7605799029121966  0.1747803781897436
  0.7986353929567725  0.6789497134983418  0.7814381839704522
  0.5028963547491597  0.2364487507436059  0.8345221573211626
  0.0627997715255670  0.8722637604039013  0.1462777546197625
  0.5927525178774286  0.3663507579004024  0.8029547560871346
  0.2286333897092633  0.6455969307859601  0.9731004230611781
  0.4839607772209754  0.1289800448936749  0.5020816101686474
  0.1654742247247020  0.0724588154133729  0.8829388668519922
  0.9621680752367850  0.0172042316161985  0.7630502017388381
  0.8057577285794049  0.1150411423468946  0.6558124459938274
  0.0106487536945694  0.2767680080857680  0.0377522272685984
  0.8724132018795330  0.8714056749312881  0.9453241581602602
  0.9290909178867650  0.0322201501027045  0.0828783358607444
  0.7422119193242946  0.0018212502075266  0.0581744741302078
  0.7392282098571999  0.3941727606903238  0.7186997574393610
  0.6087547481916126  0.4868390657540304  0.0919395161348534
  0.5224483103418417  0.7039138752182199  0.7435236175623422
  0.4210525542018926  0.0099131350983094  0.6346714238182872
  0.1880473319708711  0.8747787353391523  0.6646237220857342
  0.8549187385484504  0.1252256653772320  0.8368289239477950
  0.7897893457178767  0.7442073587868063  0.1774312461046750
  0.4214515944622542  0.4386635991339303  0.1191529186432466
  0.5985471611613188  0.1574284044914835  0.9033099040568872
  0.6414308290558388  0.1571216090585729  0.6079559155596039
  0.3931860372151041  0.1874686053245307  0.0575032655658353
  0.2677529362233175  0.0673002349296899  0.0454444998141817
  0.8277578763268126  0.6485079614105814  0.3330422982097704
  0.6918018187768776  0.2396155851208190  0.3376341539365340
  0.6188802307857706  0.0368649776538605  0.2095847146060458
  0.8589123659325266  0.2029669396392806  0.2492682317273192
  0.9735238038511861  0.4779429345051595  0.2851671441590294
  0.7383997488734375  0.8752698785835324  0.4147229467819372
  0.5731553505330987  0.2061793627491361  0.1734607275438493
  0.6059503477279182  0.9602977712230222  0.9765176023837882
  0.6610552923343213  0.5058259543225501  0.4850320851018741
  0.8654038367885316  0.5466564702015746  0.0399270374700207
  0.6560915786692098  0.7905856242557880  0.2912063677804383
  0.2439543874137004  0.7236269857507214  0.2697266581092710
  0.0923779438455398  0.8438712285019605  0.7826329457907552
  0.7767783104498885  0.4598836947984936  0.1481235985556654
  0.5881716997583446  0.9812594696488864  0.6299300550279902
  0.9305116209048265  0.3204220080157854  0.3758985071028850
  0.1439213653306466  0.1596499098769347  0.0935597623280379
  0.8160554352440359  0.2616652354922571  0.7324428988641870
  0.4649573722600993  0.4685928274667484  0.8484245364998274
  0.4451737100413099  0.5681001961144481  0.6208535654392896
  0.8705937930221718  0.9635097132184801  0.3659760602376339
  0.6766739911645830  0.3323976627332565  0.1028514313623693
  0.7456000487939970  0.0290923629498488  0.9034279568743582
  0.3134091972438133  0.1235567257505683  0.2149713467760679
  0.8397480164348744  0.9932331567503031  0.5317224989150445
  0.0185792556897190  0.5390665942734471  0.0010808224209870
  0.3792646666054358  0.5710968989970058  0.4504744722902644
  0.8938651047527376  0.7036138471560746  0.9029747450699681
  0.5048522065138752  0.4600466565489125  0.5026491574674715
  0.0477746767770971  0.9592567282899160  0.3127657907725068
  0.6568717727920285  0.2307641615805216  0.9561655043365246
  0.1746969510599486  0.4846504855887832  0.0446424337625526
  0.4724349589264902  0.8613034153265288  0.7973613958425884
  0.2743463790194093  0.9464855233000520  0.5224568107060844
  0.0290048475113499  0.7851097870730577  0.9466107227282603
  0.9086103366554613  0.3498572285146793  0.1864147792396371
  0.9647816259362536  0.5019744315105166  0.6152518450040035
  0.3721287629914183  0.3926552315637524  0.4335949632855638
  0.3925839842328056  0.0470378091335020  0.3608660843331926
  0.8763214363721656  0.7918286172139735  0.4337314156717518
  0.2287057601518784  0.2075997325191573  0.6207924903978459
  0.6739772120769596  0.6472311493194707  0.6722461642782912
  0.2738968170551614  0.6244783365822756  0.4490887839638205
  0.5306740194441129  0.0896051015328655  0.0508650230799394
  0.2603112033224880  0.4371338616617088  0.2193731005438357
  0.1217848425444896  0.4718196274952500  0.5956025288839402
  0.5548882902739118  0.0839578706840008  0.7524264900281563
  0.5833797429511172  0.7945776270635166  0.6056365476062463
  0.2141504522895666  0.2624487317045693  0.2001292738441149
  0.7311497648472491  0.8857686316263791  0.8160962059756911
  0.8097079294467094  0.2809598089129503  0.9022839681810757
  0.3233932739860206  0.1566631652960471  0.9049621326131323
  0.3796239536568459  0.8257540993564857  0.2097861196825501
  0.5115293212452102  0.9770698206930396  0.4726304905343707
  0.9114501858176641  0.9072646736286295  0.2304730205116085
  0.3508061694604339  0.8027971037399058  0.6908320858712148
  0.1257595697648844  0.6784021354426291  0.8260450615986619
  0.7417991652583247  0.8992423994471097  0.2182030183080060
  0.2254284429113455  0.0445819191554919  0.3494761421829894
  0.7890749124523954  0.3177922433336378  0.4702203623580679
  0.1349797494585808  0.3430631100062687  0.4893544678330848
  0.7641541218639446  0.7981715878688921  0.6690136965082034
  0.9681374790120629  0.1051767718857577  0.1535920170587825
  0.4262843198138757  0.7184015468279087  0.5370249720524943
 
  0.00000000E+00  0.00000000E+00  0.00000000E+00
  0.00000000E+00  0.00000000E+00  0.00000000E+00
  0.00000000E+00  0.00000000E+00  0.00000000E+00
  0.00000000E+00  0.00000000E+00  0.00000000E+00
  0.00000000E+00  0.00000000E+00  0.00000000E+00
  0.00000000E+00  0.00000000E+00  0.00000000E+00
  0.00000000E+00  0.00000000E+00  0.00000000E+00
  0.00000000E+00  0.00000000E+00  0.00000000E+00
  0.00000000E+00  0.00000000E+00  0.00000000E+00
  0.00000000E+00  0.00000000E+00  0.00000000E+00
  0.00000000E+00  0.00000000E+00  0.00000000E+00
  0.00000000E+00  0.00000000E+00  0.00000000E+00
  0.00000000E+00  0.00000000E+00  0.00000000E+00
  0.00000000E+00  0.00000000E+00  0.00000000E+00
  0.00000000E+00  0.00000000E+00  0.00000000E+00
  0.00000000E+00  0.00000000E+00  0.00000000E+00
  0.00000000E+00  0.00000000E+00  0.00000000E+00
  0.00000000E+00  0.00000000E+00  0.00000000E+00
  0.00000000E+00  0.00000000E+00  0.00000000E+00
  0.00000000E+00  0.00000000E+00  0.00000000E+00
  0.00000000E+00  0.00000000E+00  0.00000000E+00
  0.00000000E+00  0.00000000E+00  0.00000000E+00
  0.00000000E+00  0.00000000E+00  0.00000000E+00
  0.00000000E+00  0.00000000E+00  0.00000000E+00
  0.00000000E+00  0.00000000E+00  0.00000000E+00
  0.00000000E+00  0.00000000E+00  0.00000000E+00
  0.00000000E+00  0.00000000E+00  0.00000000E+00
  0.00000000E+00  0.00000000E+00  0.00000000E+00
  0.00000000E+00  0.00000000E+00  0.00000000E+00
  0.00000000E+00  0.00000000E+00  0.00000000E+00
  0.00000000E+00  0.00000000E+00  0.00000000E+00
  0.00000000E+00  0.00000000E+00  0.00000000E+00
  0.00000000E+00  0.00000000E+00  0.00000000E+00
  0.00000000E+00  0.00000000E+00  0.00000000E+00
  0.00000000E+00  0.00000000E+00  0.00000000E+00
  0.00000000E+00  0.00000000E+00  0.00000000E+00
  0.00000000E+00  0.00000000E+00  0.00000000E+00
  0.00000000E+00  0.00000000E+00  0.00000000E+00
  0.00000000E+00  0.00000000E+00  0.00000000E+00
  0.00000000E+00  0.00000000E+00  0.00000000E+00
  0.00000000E+00  0.00000000E+00  0.00000000E+00
  0.00000000E+00  0.00000000E+00  0.00000000E+00
  0.00000000E+00  0.00000000E+00  0.00000000E+00
  0.00000000E+00  0.00000000E+00  0.00000000E+00
  0.00000000E+00  0.00000000E+00  0.00000000E+00
  0.00000000E+00  0.00000000E+00  0.00000000E+00
  0.00000000E+00  0.00000000E+00  0.00000000E+00
  0.00000000E+00  0.00000000E+00  0.00000000E+00
  0.00000000E+00  0.00000000E+00  0.00000000E+00
  0.00000000E+00  0.00000000E+00  0.00000000E+00
  0.00000000E+00  0.00000000E+00  0.00000000E+00
  0.00000000E+00  0.00000000E+00  0.00000000E+00
  0.00000000E+00  0.00000000E+00  0.00000000E+00
  0.00000000E+00  0.00000000E+00  0.00000000E+00
  0.00000000E+00  0.00000000E+00  0.00000000E+00
  0.00000000E+00  0.00000000E+00  0.00000000E+00
  0.00000000E+00  0.00000000E+00  0.00000000E+00
  0.00000000E+00  0.00000000E+00  0.00000000E+00
  0.00000000E+00  0.00000000E+00  0.00000000E+00
  0.00000000E+00  0.00000000E+00  0.00000000E+00
  0.00000000E+00  0.00000000E+00  0.00000000E+00
  0.00000000E+00  0.00000000E+00  0.00000000E+00
  0.00000000E+00  0.00000000E+00  0.00000000E+00
  0.00000000E+00  0.00000000E+00  0.00000000E+00
  0.00000000E+00  0.00000000E+00  0.00000000E+00
  0.00000000E+00  0.00000000E+00  0.00000000E+00
  0.00000000E+00  0.00000000E+00  0.00000000E+00
  0.00000000E+00  0.00000000E+00  0.00000000E+00
  0.00000000E+00  0.00000000E+00  0.00000000E+00
  0.00000000E+00  0.00000000E+00  0.00000000E+00
  0.00000000E+00  0.00000000E+00  0.00000000E+00
  0.00000000E+00  0.00000000E+00  0.00000000E+00
  0.00000000E+00  0.00000000E+00  0.00000000E+00
  0.00000000E+00  0.00000000E+00  0.00000000E+00
  0.00000000E+00  0.00000000E+00  0.00000000E+00
  0.00000000E+00  0.00000000E+00  0.00000000E+00
  0.00000000E+00  0.00000000E+00  0.00000000E+00
  0.00000000E+00  0.00000000E+00  0.00000000E+00
  0.00000000E+00  0.00000000E+00  0.00000000E+00
  0.00000000E+00  0.00000000E+00  0.00000000E+00
  0.00000000E+00  0.00000000E+00  0.00000000E+00
  0.00000000E+00  0.00000000E+00  0.00000000E+00
  0.00000000E+00  0.00000000E+00  0.00000000E+00
  0.00000000E+00  0.00000000E+00  0.00000000E+00
  0.00000000E+00  0.00000000E+00  0.00000000E+00
  0.00000000E+00  0.00000000E+00  0.00000000E+00
  0.00000000E+00  0.00000000E+00  0.00000000E+00
  0.00000000E+00  0.00000000E+00  0.00000000E+00
  0.00000000E+00  0.00000000E+00  0.00000000E+00
  0.00000000E+00  0.00000000E+00  0.00000000E+00
  0.00000000E+00  0.00000000E+00  0.00000000E+00
  0.00000000E+00  0.00000000E+00  0.00000000E+00
  0.00000000E+00  0.00000000E+00  0.00000000E+00
  0.00000000E+00  0.00000000E+00  0.00000000E+00
  0.00000000E+00  0.00000000E+00  0.00000000E+00
  0.00000000E+00  0.00000000E+00  0.00000000E+00
  0.00000000E+00  0.00000000E+00  0.00000000E+00
  0.00000000E+00  0.00000000E+00  0.00000000E+00
  0.00000000E+00  0.00000000E+00  0.00000000E+00
  0.00000000E+00  0.00000000E+00  0.00000000E+00
  0.00000000E+00  0.00000000E+00  0.00000000E+00
  0.00000000E+00  0.00000000E+00  0.00000000E+00
  0.00000000E+00  0.00000000E+00  0.00000000E+00
  0.00000000E+00  0.00000000E+00  0.00000000E+00
  0.00000000E+00  0.00000000E+00  0.00000000E+00
  0.00000000E+00  0.00000000E+00  0.00000000E+00
  0.00000000E+00  0.00000000E+00  0.00000000E+00
  0.00000000E+00  0.00000000E+00  0.00000000E+00
  0.00000000E+00  0.00000000E+00  0.00000000E+00
  0.00000000E+00  0.00000000E+00  0.00000000E+00
  0.00000000E+00  0.00000000E+00  0.00000000E+00
  0.00000000E+00  0.00000000E+00  0.00000000E+00
  0.00000000E+00  0.00000000E+00  0.00000000E+00
  0.00000000E+00  0.00000000E+00  0.00000000E+00
  0.00000000E+00  0.00000000E+00  0.00000000E+00
  0.00000000E+00  0.00000000E+00  0.00000000E+00
  0.00000000E+00  0.00000000E+00  0.00000000E+00
  0.00000000E+00  0.00000000E+00  0.00000000E+00
  0.00000000E+00  0.00000000E+00  0.00000000E+00
  0.00000000E+00  0.00000000E+00  0.00000000E+00
  0.00000000E+00  0.00000000E+00  0.00000000E+00
  0.00000000E+00  0.00000000E+00  0.00000000E+00
  0.00000000E+00  0.00000000E+00  0.00000000E+00
  0.00000000E+00  0.00000000E+00  0.00000000E+00
  0.00000000E+00  0.00000000E+00  0.00000000E+00
  0.00000000E+00  0.00000000E+00  0.00000000E+00
  0.00000000E+00  0.00000000E+00  0.00000000E+00
  0.00000000E+00  0.00000000E+00  0.00000000E+00
  0.00000000E+00  0.00000000E+00  0.00000000E+00
  0.00000000E+00  0.00000000E+00  0.00000000E+00
  0.00000000E+00  0.00000000E+00  0.00000000E+00
  0.00000000E+00  0.00000000E+00  0.00000000E+00
  0.00000000E+00  0.00000000E+00  0.00000000E+00
  0.00000000E+00  0.00000000E+00  0.00000000E+00
  0.00000000E+00  0.00000000E+00  0.00000000E+00
  0.00000000E+00  0.00000000E+00  0.00000000E+00
  0.00000000E+00  0.00000000E+00  0.00000000E+00
  0.00000000E+00  0.00000000E+00  0.00000000E+00
  0.00000000E+00  0.00000000E+00  0.00000000E+00
  0.00000000E+00  0.00000000E+00  0.00000000E+00
  0.00000000E+00  0.00000000E+00  0.00000000E+00
  0.00000000E+00  0.00000000E+00  0.00000000E+00
  0.00000000E+00  0.00000000E+00  0.00000000E+00
  0.00000000E+00  0.00000000E+00  0.00000000E+00
  0.00000000E+00  0.00000000E+00  0.00000000E+00
  0.00000000E+00  0.00000000E+00  0.00000000E+00
  0.00000000E+00  0.00000000E+00  0.00000000E+00
  0.00000000E+00  0.00000000E+00  0.00000000E+00
  0.00000000E+00  0.00000000E+00  0.00000000E+00
  0.00000000E+00  0.00000000E+00  0.00000000E+00
  0.00000000E+00  0.00000000E+00  0.00000000E+00
  0.00000000E+00  0.00000000E+00  0.00000000E+00
  0.00000000E+00  0.00000000E+00  0.00000000E+00
  0.00000000E+00  0.00000000E+00  0.00000000E+00
  0.00000000E+00  0.00000000E+00  0.00000000E+00
  0.00000000E+00  0.00000000E+00  0.00000000E+00
  0.00000000E+00  0.00000000E+00  0.00000000E+00
  0.00000000E+00  0.00000000E+00  0.00000000E+00
  0.00000000E+00  0.00000000E+00  0.00000000E+00
  0.00000000E+00  0.00000000E+00  0.00000000E+00
  0.00000000E+00  0.00000000E+00  0.00000000E+00
  0.00000000E+00  0.00000000E+00  0.00000000E+00
  0.00000000E+00  0.00000000E+00  0.00000000E+00
  0.00000000E+00  0.00000000E+00  0.00000000E+00
  0.00000000E+00  0.00000000E+00  0.00000000E+00
  0.00000000E+00  0.00000000E+00  0.00000000E+00
  0.00000000E+00  0.00000000E+00  0.00000000E+00
  0.00000000E+00  0.00000000E+00  0.00000000E+00
  0.00000000E+00  0.00000000E+00  0.00000000E+00
  0.00000000E+00  0.00000000E+00  0.00000000E+00
  0.00000000E+00  0.00000000E+00  0.00000000E+00
  0.00000000E+00  0.00000000E+00  0.00000000E+00
  0.00000000E+00  0.00000000E+00  0.00000000E+00
  0.00000000E+00  0.00000000E+00  0.00000000E+00
  0.00000000E+00  0.00000000E+00  0.00000000E+00
  0.00000000E+00  0.00000000E+00  0.00000000E+00
  0.00000000E+00  0.00000000E+00  0.00000000E+00
  0.00000000E+00  0.00000000E+00  0.00000000E+00
  0.00000000E+00  0.00000000E+00  0.00000000E+00
  0.00000000E+00  0.00000000E+00  0.00000000E+00
  0.00000000E+00  0.00000000E+00  0.00000000E+00
  0.00000000E+00  0.00000000E+00  0.00000000E+00
  0.00000000E+00  0.00000000E+00  0.00000000E+00
  0.00000000E+00  0.00000000E+00  0.00000000E+00
  0.00000000E+00  0.00000000E+00  0.00000000E+00
  0.00000000E+00  0.00000000E+00  0.00000000E+00
  0.00000000E+00  0.00000000E+00  0.00000000E+00
  0.00000000E+00  0.00000000E+00  0.00000000E+00
  0.00000000E+00  0.00000000E+00  0.00000000E+00
  0.00000000E+00  0.00000000E+00  0.00000000E+00
  0.00000000E+00  0.00000000E+00  0.00000000E+00
  0.00000000E+00  0.00000000E+00  0.00000000E+00
  0.00000000E+00  0.00000000E+00  0.00000000E+00
  0.00000000E+00  0.00000000E+00  0.00000000E+00
  0.00000000E+00  0.00000000E+00  0.00000000E+00
  0.00000000E+00  0.00000000E+00  0.00000000E+00
  0.00000000E+00  0.00000000E+00  0.00000000E+00
  0.00000000E+00  0.00000000E+00  0.00000000E+00
  0.00000000E+00  0.00000000E+00  0.00000000E+00
  0.00000000E+00  0.00000000E+00  0.00000000E+00
  0.00000000E+00  0.00000000E+00  0.00000000E+00
  0.00000000E+00  0.00000000E+00  0.00000000E+00
  0.00000000E+00  0.00000000E+00  0.00000000E+00
  0.00000000E+00  0.00000000E+00  0.00000000E+00
  0.00000000E+00  0.00000000E+00  0.00000000E+00
  0.00000000E+00  0.00000000E+00  0.00000000E+00
  0.00000000E+00  0.00000000E+00  0.00000000E+00
  0.00000000E+00  0.00000000E+00  0.00000000E+00
  0.00000000E+00  0.00000000E+00  0.00000000E+00
  0.00000000E+00  0.00000000E+00  0.00000000E+00
  0.00000000E+00  0.00000000E+00  0.00000000E+00
  0.00000000E+00  0.00000000E+00  0.00000000E+00
  0.00000000E+00  0.00000000E+00  0.00000000E+00
  0.00000000E+00  0.00000000E+00  0.00000000E+00
  0.00000000E+00  0.00000000E+00  0.00000000E+00
  0.00000000E+00  0.00000000E+00  0.00000000E+00
  0.00000000E+00  0.00000000E+00  0.00000000E+00
  0.00000000E+00  0.00000000E+00  0.00000000E+00
  0.00000000E+00  0.00000000E+00  0.00000000E+00
  0.00000000E+00  0.00000000E+00  0.00000000E+00
  0.00000000E+00  0.00000000E+00  0.00000000E+00
  0.00000000E+00  0.00000000E+00  0.00000000E+00
  0.00000000E+00  0.00000000E+00  0.00000000E+00
  0.00000000E+00  0.00000000E+00  0.00000000E+00
  0.00000000E+00  0.00000000E+00  0.00000000E+00
  0.00000000E+00  0.00000000E+00  0.00000000E+00
  0.00000000E+00  0.00000000E+00  0.00000000E+00
  0.00000000E+00  0.00000000E+00  0.00000000E+00
  0.00000000E+00  0.00000000E+00  0.00000000E+00
  0.00000000E+00  0.00000000E+00  0.00000000E+00
  0.00000000E+00  0.00000000E+00  0.00000000E+00
  0.00000000E+00  0.00000000E+00  0.00000000E+00