Amorphous Sb                            
   1.00000000000000     
    19.6678869700586887    0.0000000000000000    0.0000000000000000
     0.0000000000000000   19.6678869700586887    0.0000000000000000
     0.0000000000000000    0.0000000000000000   19.6678869700586887
   Ga   S 
   150   150
Direct
  0.2640187396641170  0.5911578292398638  0.1556854130714860
  0.0016676932388486  0.6583755559760552  0.1815788886012251
  0.6545491868736593  0.1890628918196671  0.8882516293136722
  0.7996480390211841  0.7102382565374260  0.1532147672784266
  0.8999396169107055  0.2216281568188318  0.5859898489568455
  0.9775919241887762  0.9215539952342529  0.7691612499253022
  0.7553231084538679  0.8656101091451373  0.3207359289354794
  0.7996253201541910  0.8006889910086390  0.7279416193285396
  0.6185861274380052  0.8881008660606460  0.6682393467771550
  0.8922736734886502  0.6684288110177399  0.4324321726359021
  0.1082192665271565  0.5652274572026472  0.6736933048017648
  0.9013270140833134  0.8526191049395931  0.9495981223186378
  0.1350073404943261  0.8487535210832269  0.7909272949473496
  0.9833979063401970  0.1202563681656651  0.3361953064561073
  0.8620431746396920  0.3347044068300200  0.8228071553823392
  0.5735096765949222  0.0008278005429466  0.8451622942055279
  0.0970221754727037  0.6643409961722743  0.0781066191504766
  0.6780126763142347  0.4976837190222743  0.3208225854638039
  0.0384271444960776  0.1426934173878461  0.9411379471799955
  0.7156749278584923  0.4478991309328216  0.9329848730785444
  0.1789193330894013  0.7560637028691213 -0.0130163380745546
  0.4067382460454259  0.3243314414749172  0.9862655288541593
  0.3967208449600386  0.6900233697812516  0.3151019812061084
  0.0267627675600269  0.7828019971805130  0.5715562903546741
  0.4753590985400455  0.5335261144944083  0.6441163472212760
  0.5269519306356536  0.5380936038861120  0.3479537559824823
  0.2988629902608042  0.5863897325426564  0.5967404564756553
  0.6891555178794402  0.6958617091573683  0.9535848845536107
  0.6128752299338472  0.0032760490448054  0.4331598724739888
  0.3359006243048986  0.9821176005444996  0.7459425492784921
  0.6996254793416224  0.3085132341769149  0.3514022381403700
  0.7987589560761287  0.2463111380464526 -0.0153087992051598
  0.7317758945925906  0.2321500875132250  0.5595603547199515
  0.7690876418934430  0.3362909382132797  0.6964884463761818
  0.1499869864375909  0.8494805967345052  0.3233891611797331
  0.0102898692129481  0.4048637350466229  0.7372087752094615
  0.6118811149523554  0.8778823577003504  0.4310847070771227
  0.3158344302686742  0.3501139358222468  0.2468218729819156
  0.0161693275304072  0.2387727260989940  0.3139619859921505
  0.1901673921516255  0.1130593191920267  0.6630966672824721
  0.4030646010234795  0.1011777800421462  0.2269927348685530
  0.8055701901488205  0.0108953362381026  0.7920749396264642
  0.4314283850648305 -0.0066156702712586  0.4461036347604252
  0.1076429405961737  0.2738583597291017  0.6284762739295073
  0.9267644060295587  0.8076882673319639  0.2805468115749566
  0.0455076344640826  0.2096149046581137  0.7886820453152710
  0.3165990129331848  0.5013898326569666  0.4397778473738686
  0.3090439204930393  0.7551915650045110  0.2467397495459287
  0.6046279346889232  0.6850185657639493  0.6537351207677639
  0.8890643892181492  0.3823117652566972  0.3678239400286811
  0.8539357272616152  0.6197491111925986  0.6344929090464613
  0.1175836461186583  0.5691238075638049  0.3614632692254985
  0.9718981315721584  0.3242658659118844  0.8859392055351103
  0.4789878507065788  0.1307548991330147  0.7276389137303982
  0.2616866379901377  0.1349479773944775  0.0391746390019722
  0.5881431192301834  0.1673675750947724  0.5419828293153285
  0.4857651655027033  0.9398667829577450  0.1798147588952874
  0.3195466839122989  0.7863363553774347  0.7429028439110148
  0.2184082943991414  0.8691289427950634  0.5937086253397723
  0.5312690775926354  0.1761009171227756  0.9136372572613699
  0.7377207104506152  0.8493431084125865  0.8652916309782920
  0.1215213035048946  0.1249890804400319  0.2256891957760472
  0.5981413487417934  0.8468653868125203  0.2293961553355320
  0.7332892996717318  0.0914107244527817  0.8629852891440685
  0.6365966318901758  0.5824712157510886  0.4949683373038750
  0.8048209498994686  0.6648130035355087  0.8941583115168716
  0.2627756858361786  0.0428485421135139  0.5811424775527736
  0.8748867017740373  0.4822542073701339  0.9620054757962649
  0.3906127449579205  0.6267213053737062  0.8697748093178761
  0.1123879349241040  0.0986313187273835  0.4968235577729212
  0.6345645678977833  0.4667659342888966  0.7491135745902303
  0.1363686256546841  0.6280851221982519  0.4739047540529658
  0.3981932555871319  0.4278800913447762  0.6321926404168080
  0.2427748652074522  0.2454495679777275  0.5000296979274688
  0.3403308480749282  0.8759469279211605  0.2927502031069573
  0.3443231011918609  0.1300432239618744  0.8551151759660106
  0.9197998676315002  0.4830442100140037  0.4409110479575170
  0.0653160917384503  0.3083136349905343  0.1797330370005611
  0.7343750000000000  0.1553247230907180  0.1755552261984736
  0.4453598280246553  0.1953598280251812  0.1046401719747137
  0.2381774970807801  0.0061352816121107  0.4053603193402237
  0.6063007869014883  0.3598048027155623  0.0823254958826913
  0.2185635971209289  0.4291472209950410  0.2721075040610528
  0.2558817525702094  0.6129390934635727  0.7841507000814205
  0.3709874140373461  0.0239596613265968  0.0538002029596625
  0.9907447592879414  0.7370064504776568  0.6849594955589772
  0.7700995774065520  0.0570535238951609  0.3259424365245938
  0.7051432575444568  0.9194371894547124  0.9669893691152350
  0.1741647920189012  0.7483849060117157  0.1420808686377914
  0.4000962572531151  0.7465721455204605  0.6502731488404485
  0.3280577884691515  0.3060348074042103  0.1268348504320586
  0.8639729825516841  0.1924932136117549  0.4371048090834701
  0.0609229488467042  0.8123055203409226  0.4065255014476624
  0.6688280806017967  0.0201738250748247  0.1870590956039818
  0.7441355159129814  0.4896673183861128  0.8147262339291578
  0.1014370963175439  0.9021984227259375  0.0511715225057465
  0.0618194385703350  0.4250521793803885  0.3247707948107210
  0.4227567472992205  0.5424380906894450  0.0275401276075012
  0.1254553799309393  0.4844063535609662  0.8324561577367021
  0.9815902169454367  0.5358324332262201  0.5397118995656297
  0.2976917574303616  0.7366215128520024  0.4406655799204132
  0.4750371409692159  0.1637738455400788  0.3929952366941961
  0.8547911885694440  0.3864962820375787  0.1410131510659020
  0.3082412692805231  0.4888711313729408  0.9083026453157299
  0.9411409274172476  0.1781215384748134  0.1289454397510055
  0.5471148600806670  0.3838532105462742  0.4562327898353742
  0.6119888291554001  0.8752538331256258  0.0414429236145617
  0.9523317068893247  0.5808568153189254  0.8288836743680457
  0.5486153877286563  0.7746422816901395  0.8211849482760808
  0.7840397340841915  0.0696760907353135  0.0478704711866982
  0.0514187649068329  0.1735385171948837  0.0628565234360820
  0.1232123386773670  0.9616706627625262  0.6376327757194068
  0.4942221673451061  0.9547796468153671  0.5453839693478932
 -0.0014227061760635  0.6126266662148832  0.7161475803838856
  0.3672773617792259  0.2637927721451031  0.3244246395535536
  0.5467524862205886  0.0434104853905684  0.6729776240147018
  0.4043431508164173  0.2705260429205718  0.5261835145206745
  0.7793713986191193  0.9118710061423412  0.4335829441743085
  0.1640422970647250  0.0602391210814336  0.7764107022324068
  0.5468749999999999  0.5838075514856231  0.0440337242571882
  0.9929251118497854  0.9236138478097425  0.4192725480598739
  0.8609605293551631  0.9008066310074198  0.1374783760238752
  0.1020438566194651  0.5983765579467820  0.2361237801244775
  0.4960393410977648  0.6892098698553148  0.8962234122103035
  0.5262493076158836  0.7852587097016159  0.0617808507323185
  0.9662646021273672  0.3367306013268170  0.0133391150098795
  0.2314880920526166  0.9376509591389680  0.9257038852634808
  0.9370595425442564  0.0579064586296861  0.9311965323567553
  0.2098721888823863  0.3009770694056310  0.8631274521601009
  0.6835228769191443  0.7220628974752231  0.0865544768850622
  0.1579469566016820  0.0470432769890194  0.3182798143679463
  0.9338834441155413  0.9205118622690526  0.6536159695229435
  0.7962597605384771  0.4767021763640825  0.4914599949577045
  0.4202852004029672  0.8677114304202878  0.9090507992739344
  0.4382992054639945  0.8077365459085217  0.4571374515847664
  0.5581326739052926  0.0817458484691925  0.0792294262371031
  0.6014021965743613  0.2727454638922041  0.7119878614121637
  0.6745406998718581  0.1280757259532916  0.0660733822032668
  0.9775618155111657  0.7529035610243725  0.0889121281282547
  0.3800876435191828  0.5130318937884538  0.2350669327117147
  0.7203284373592815  0.7548355577601977  0.5450689788845370
  0.8478769792851678  0.5429857334642143  0.2628823390376990
  0.5612015049023595  0.3566181416434065  0.8663685947617179
  0.0248360363654422  0.9624098689612266  0.2183708475313700
  0.0009293401709973  0.2060874015494278  0.6657909470831375
  0.0434073315272409  0.6715607912870490  0.9601013206906858
  0.7080522903216354  0.4899527352897600  0.1221375760922666
  0.2705442819755334  0.2999302707145384  0.6495192877969872
  0.5817424915016914  0.3148455752616987  0.2562547010380726
  0.9112712227209845  0.8093319390037436  0.5132617701910021
  0.7558743101277059  0.5237117090717879  0.0200731235758385
  0.0058722337216497  0.5253749795088315  0.3432374130609732
  0.1023350129027136  0.5433194464216706  0.5524468839926557
  0.0383960392891992  0.8003417503446618 -0.0032633380425287
  0.0987731394674058  0.6738014362597209  0.8507679391648839
  0.2032031827325486  0.8331341152641356  0.8849144990706846
  0.4888637872819220  0.2456508576622256  0.7195685239061089
  0.6830026341286582  0.2316503254381753  0.0007028231336737
  0.4681481085920079  0.3559532312676083  0.5666037125625105
  0.4303159780891165  0.8944017521702547  0.3744966075599790
  0.6155100237250005  0.6953625887157445  0.5335333894091301
  0.2995864490547192  0.2841367340169069  0.0127208103801440
  0.6492932356766664  0.2892562131520701  0.8218045661289923
  0.3437044477848495  0.5348008383322211  0.8017803766701562
  0.7498414318140310  0.9034843828600151  0.7569300016323748
  0.6055839572864028  0.4124616531020420  0.9602949850587511
  0.5678824058516491  0.6825979469628592  0.1128307654646723
  0.7643341039868140  0.9648764812048660  0.2518337585108852
  0.7244338863510821  0.5455814708054078  0.5564021715788203
  0.8517913286487367 -0.0052131601380110  0.6204609180278401
  0.5183993196429439  0.9680671685197755  0.0698327609732576
  0.0932384656961278  0.9608326665082169  0.7775040535491069
  0.8196020829172439  0.5850552321941347  0.8071804797022744
  0.9289053884689181  0.6359969702521108  0.9338619145318547
  0.4587276587035179  0.5969956351991950  0.2681202566320602
  0.3483648560932621  0.5142886004957682  0.1200603054726962
  0.8852899966544711  0.9258104889198090  0.4822723400134625
  0.3589479823952975  0.7963064242657296  0.5438845556183157
  0.4074893143665235  0.6312264798671076  0.6133042657092239
  0.4070495607764417  0.4403003608084580  0.9549997586809212
  0.8072345722200486  0.9567244052904238  0.0216281678206169
  0.8858707218569322  0.6235666825746905  0.1830783423634830
  0.1902096431132793  0.7503048405292834  0.2647868829990114
  0.8026299676542268  0.3514923822662541  0.9308695671478114
  0.4892629048215784  0.9412305420104712  0.6590082663144398
  0.3284026517973802  0.5918899644428973  0.9684232258921840
  0.1922028343126108  0.3344209706209659  0.5632574020815498
  0.3820656791335070  0.8776654095135997  0.7917863832125341
  0.5767153403925867  0.4491472431267761  0.2902130656905443
  0.9494599243397989  0.6506544395648032  0.5304775677697112
  0.5400769642587534  0.5156963675649336  0.5256612131222098
  0.8252145401697402  0.2787199840258686  0.3643842462984198
  0.1249758611076898  0.2408676282315656  0.2579506004902858
  0.8100505956934498  0.7500052544826169  0.4656558768785404
  0.5273125292853500  0.7662776907791613  0.6954098401712059
  0.5172353560293530  0.0550908838461779  0.3774983406228411
  0.9575703484856122  0.1964061004854955  0.8705077667325170
  0.1390837982406407  0.4588470117864623  0.7195450282789131
  0.0517998769434046  0.0447229757528088  0.4022225305781556
  0.1939746360376333  0.2290423004920812  0.7081779199578951
  0.1529891594594666  0.5648988971622479  0.1263151044973120
  0.4680725259345958  0.2810740163935906  0.8944171293464745
  0.8912313270498391  0.4329267876409373  0.2503649439455939
  0.8443029595638067  0.5730543584130423  0.3817190220811482
  0.9038831916104224  0.9646973688733673  0.8561746342647796
  0.1030491301681860  0.4175286353073103  0.2140159884706578
  0.4881695095611081  0.2707372780589202  0.3507859175638220
  0.4888820721939170  0.8208142955715491  0.1845436931609768
  0.9630803865658196  0.2229272638599745  0.4859685761450339
  0.3207738752213217  0.2115192889942277  0.5860064022053335
  0.3387049966054293  0.1691610034448273  0.1497386406940285
  0.7219838227806262  0.7295712758484372  0.6620782673123106
  0.8246602840774773  0.4255529632480536  0.7515147377226798
  0.0792951767284513  0.3182054289862439  0.8295602958089701
  0.8638212117221425  0.7749066550879610  0.0717950420063385
  0.6526880932973008  0.2358945526733416  0.4732982011673458
  0.1227457654855768  0.1408225405112623  0.8541768024253673
  0.4373525473301343  0.7650931885477154  0.9770649736898201
  0.2056057706457647  0.4331169155861481  0.9067537508896757
  0.3801911850006146  0.9829820707315767  0.2125730335416330
  0.7379538481678828  0.4275294382621079  0.3891511498582669
  0.5351904482145472  0.8414750218471866  0.5145276104357619
  0.3298928262588416  0.0506626433427206  0.4683712336230701
  0.0043895808889676  0.9406782174402893  0.1056715948802640
  0.5100346178326890  0.1354329487467223  0.1853337160922759
  0.2531355718521434  0.8878298505825257  0.3769840372447500
  0.6284419700581908  0.5952691385624023  0.3770478591543006
  0.5946983849397078  0.0451035890767123  0.5520735418629054
  0.2578259680657715  0.6253182789816460  0.4920032379834690
  0.9444913143218664  0.9241386918083909  0.2996661072878256
  0.5761102321278356  0.9606887632435722  0.2521178364043073
  0.6329108155676009  0.0100077267291577  0.7462234955629128
  0.8567059973120982  0.0626319168883168  0.7007471638257496
  0.4610602137100216  0.7051558296961431  0.4079870596930652
  0.1677355836145292  0.5944271136642869  0.8663876580027234
  0.8149546316700200  0.7770996681870995  0.2651331210333367
  0.4541223811465359  0.3119115908511402  0.0965810142621115
  0.0731731081778217  0.2954394379428323  0.0637867378422558
  0.5896375631627206  0.6223182676072799  0.9374151460254937
  0.6564774451167191  0.3695683209623716  0.6675490723165821
  0.4142262215673704  0.4116540834794704  0.2698880720472431
  0.5744555409125798  0.5775753104469568  0.6959361290190419
  0.0263783599569889  0.9101433879985735  0.5784658255450195
  0.1437823124070175  0.9867153653663061  0.9820726570973605
  0.1701124923328591  0.1805747786803611  0.4383146110387776
  0.8111409851800671  0.3163856939798782  0.5850601417882260
  0.9430958467077086  0.5227327575229270  0.6512006316617119
  0.2185581496052299  0.6274449157793603  0.6747104991785022
  0.3133749388455374  0.9497786973119335  0.6359495737295879
  0.6648785445868253  0.7559477841757284  0.8425371983275439
  0.5349726498439025  0.8891671773505079  0.8787780084931235
  0.9348103792949041  0.4363807022412740  0.0724775729907871
  0.7011705555177187  0.8697478164014911  0.5169555944333889
  0.3386476591264177  0.3659429229461276  0.7124135356639633
  0.1470789111444190  0.1224698958041298  0.1112133749303379
  0.7388780670311811  0.3776190291955004  0.1420512991738832
  0.8464221444546691  0.1038181955189141  0.1487744961231925
  0.0228823489958515  0.8073857600000225  0.7879126668008272
  0.2072614334680601  0.8050168504091552  0.7081998322924287
  0.7331906270865003  0.5515305916725352  0.2283492426316839
  0.1981729888465338  0.8514835286076949  0.0900623225634708
  0.3077908288098833  0.4747066503396400  0.5681413996831290
  0.4678147794001812  0.1308435267669001  0.0090979604184060
  0.1163122053954071  0.7513719630258854  0.4942076975488901
  0.8761425278123780  0.2711934721829405  0.0726373444323962
  0.5911759477032337  0.4978262580670644  0.1136216863725945
  0.1747494229852516 -0.0032144750599648  0.5076138539420648
  0.6768147156336766  0.8371535665021780  0.1422668975100472
  0.7302089846993368  0.0274708073083902  0.4337935309520630
  0.0049627225106069  0.0818198323726466  0.2244769125405125
  0.3417496632003802  0.9240168218988832  0.9758779539594218
  0.4708613103659561  0.1707683974505714  0.5128811245742413
  0.9698295971429479  0.7379633948484207  0.3671658260390752
  0.8864766879857290  0.8035361822671889  0.6490571594136058
  0.8110308478214766  0.2491109915679518  0.7602369580655273
  0.6518471160592209  0.0233017024488413  0.9321687916707271
  0.7027656126270740  0.1416737053938946  0.2875973263004297
  0.0769246989660910  0.1107733449282962  0.6098732505985852
  0.6532128537337190  0.1870130399770005  0.6423169453308653
  0.8351855460900990  0.7754553566243753  0.8396764858060316
  0.8267236074782252  0.1284544459824918  0.9490327164848761
  0.9555522620134371  0.2721140440031499  0.2127173465548228
  0.3064169583867341  0.7078970128662579  0.8323515815974589
  0.2597687382687501  0.0142352579420309  0.8352605364553071
  0.3700583972500831  0.1403160884741803  0.3336424098891981
  0.2931875606413399  0.7048619643962327  0.1364064629805979
  0.6445293583597052  0.8098217359965342  0.3340438140471325
  0.8127522376232801  0.1497073554255654  0.5382978401034029
  0.0089823793302769  0.3368261902180536  0.3784511684489933
  0.1364966922340717  0.9446171122975291  0.2511113783339520
  0.8757381741955164  0.0897691569986917  0.3754278608438614
  0.5285380004579147  0.4332324414576613  0.7860470722594156
  0.2706093557004079  0.5489383455602640  0.2675652891491117
  0.0099300869499114  0.7812723889765524  0.2026640144675654
  0.1670584075182389  0.4552548632727234  0.3772961622385663
  0.0112595875985596  0.4757553266014679  0.8619249690678544
  0.3621339651698955  0.0981204923735202  0.7290228299322981
  0.3296827702246977  0.2995477078451028  0.4373344572531446
  0.4856037976013039  0.0827704774447674  0.8454828975058999
  0.4678379730521318  0.5080161984681774  0.4468709955458189
 
  0.00000000E+00  0.00000000E+00  0.00000000E+00
  0.00000000E+00  0.00000000E+00  0.00000000E+00
  0.00000000E+00  0.00000000E+00  0.00000000E+00
  0.00000000E+00  0.00000000E+00  0.00000000E+00
  0.00000000E+00  0.00000000E+00  0.00000000E+00
  0.00000000E+00  0.00000000E+00  0.00000000E+00
  0.00000000E+00  0.00000000E+00  0.00000000E+00
  0.00000000E+00  0.00000000E+00  0.00000000E+00
  0.00000000E+00  0.00000000E+00  0.00000000E+00
  0.00000000E+00  0.00000000E+00  0.00000000E+00
  0.00000000E+00  0.00000000E+00  0.00000000E+00
  0.00000000E+00  0.00000000E+00  0.00000000E+00
  0.00000000E+00  0.00000000E+00  0.00000000E+00
  0.00000000E+00  0.00000000E+00  0.00000000E+00
  0.00000000E+00  0.00000000E+00  0.00000000E+00
  0.00000000E+00  0.00000000E+00  0.00000000E+00
  0.00000000E+00  0.00000000E+00  0.00000000E+00
  0.00000000E+00  0.00000000E+00  0.00000000E+00
  0.00000000E+00  0.00000000E+00  0.00000000E+00
  0.00000000E+00  0.00000000E+00  0.00000000E+00
  0.00000000E+00  0.00000000E+00  0.00000000E+00
  0.00000000E+00  0.00000000E+00  0.00000000E+00
  0.00000000E+00  0.00000000E+00  0.00000000E+00
  0.00000000E+00  0.00000000E+00  0.00000000E+00
  0.00000000E+00  0.00000000E+00  0.00000000E+00
  0.00000000E+00  0.00000000E+00  0.00000000E+00
  0.00000000E+00  0.00000000E+00  0.00000000E+00
  0.00000000E+00  0.00000000E+00  0.00000000E+00
  0.00000000E+00  0.00000000E+00  0.00000000E+00
  0.00000000E+00  0.00000000E+00  0.00000000E+00
  0.00000000E+00  0.00000000E+00  0.00000000E+00
  0.00000000E+00  0.00000000E+00  0.00000000E+00
  0.00000000E+00  0.00000000E+00  0.00000000E+00
  0.00000000E+00  0.00000000E+00  0.00000000E+00
  0.00000000E+00  0.00000000E+00  0.00000000E+00
  0.00000000E+00  0.00000000E+00  0.00000000E+00
  0.00000000E+00  0.00000000E+00  0.00000000E+00
  0.00000000E+00  0.00000000E+00  0.00000000E+00
  0.00000000E+00  0.00000000E+00  0.00000000E+00
  0.00000000E+00  0.00000000E+00  0.00000000E+00
  0.00000000E+00  0.00000000E+00  0.00000000E+00
  0.00000000E+00  0.00000000E+00  0.00000000E+00
  0.00000000E+00  0.00000000E+00  0.00000000E+00
  0.00000000E+00  0.00000000E+00  0.00000000E+00
  0.00000000E+00  0.00000000E+00  0.00000000E+00
  0.00000000E+00  0.00000000E+00  0.00000000E+00
  0.00000000E+00  0.00000000E+00  0.00000000E+00
  0.00000000E+00  0.00000000E+00  0.00000000E+00
  0.00000000E+00  0.00000000E+00  0.00000000E+00
  0.00000000E+00  0.00000000E+00  0.00000000E+00
  0.00000000E+00  0.00000000E+00  0.00000000E+00
  0.00000000E+00  0.00000000E+00  0.00000000E+00
  0.00000000E+00  0.00000000E+00  0.00000000E+00
  0.00000000E+00  0.00000000E+00  0.00000000E+00
  0.00000000E+00  0.00000000E+00  0.00000000E+00
  0.00000000E+00  0.00000000E+00  0.00000000E+00
  0.00000000E+00  0.00000000E+00  0.00000000E+00
  0.00000000E+00  0.00000000E+00  0.00000000E+00
  0.00000000E+00  0.00000000E+00  0.00000000E+00
  0.00000000E+00  0.00000000E+00  0.00000000E+00
  0.00000000E+00  0.00000000E+00  0.00000000E+00
  0.00000000E+00  0.00000000E+00  0.00000000E+00
  0.00000000E+00  0.00000000E+00  0.00000000E+00
  0.00000000E+00  0.00000000E+00  0.00000000E+00
  0.00000000E+00  0.00000000E+00  0.00000000E+00
  0.00000000E+00  0.00000000E+00  0.00000000E+00
  0.00000000E+00  0.00000000E+00  0.00000000E+00
  0.00000000E+00  0.00000000E+00  0.00000000E+00
  0.00000000E+00  0.00000000E+00  0.00000000E+00
  0.00000000E+00  0.00000000E+00  0.00000000E+00
  0.00000000E+00  0.00000000E+00  0.00000000E+00
  0.00000000E+00  0.00000000E+00  0.00000000E+00
  0.00000000E+00  0.00000000E+00  0.00000000E+00
  0.00000000E+00  0.00000000E+00  0.00000000E+00
  0.00000000E+00  0.00000000E+00  0.00000000E+00
  0.00000000E+00  0.00000000E+00  0.00000000E+00
  0.00000000E+00  0.00000000E+00  0.00000000E+00
  0.00000000E+00  0.00000000E+00  0.00000000E+00
  0.00000000E+00  0.00000000E+00  0.00000000E+00
  0.00000000E+00  0.00000000E+00  0.00000000E+00
  0.00000000E+00  0.00000000E+00  0.00000000E+00
  0.00000000E+00  0.00000000E+00  0.00000000E+00
  0.00000000E+00  0.00000000E+00  0.00000000E+00
  0.00000000E+00  0.00000000E+00  0.00000000E+00
  0.00000000E+00  0.00000000E+00  0.00000000E+00
  0.00000000E+00  0.00000000E+00  0.00000000E+00
  0.00000000E+00  0.00000000E+00  0.00000000E+00
  0.00000000E+00  0.00000000E+00  0.00000000E+00
  0.00000000E+00  0.00000000E+00  0.00000000E+00
  0.00000000E+00  0.00000000E+00  0.00000000E+00
  0.00000000E+00  0.00000000E+00  0.00000000E+00
  0.00000000E+00  0.00000000E+00  0.00000000E+00
  0.00000000E+00  0.00000000E+00  0.00000000E+00
  0.00000000E+00  0.00000000E+00  0.00000000E+00
  0.00000000E+00  0.00000000E+00  0.00000000E+00
  0.00000000E+00  0.00000000E+00  0.00000000E+00
  0.00000000E+00  0.00000000E+00  0.00000000E+00
  0.00000000E+00  0.00000000E+00  0.00000000E+00
  0.00000000E+00  0.00000000E+00  0.00000000E+00
  0.00000000E+00  0.00000000E+00  0.00000000E+00
  0.00000000E+00  0.00000000E+00  0.00000000E+00
  0.00000000E+00  0.00000000E+00  0.00000000E+00
  0.00000000E+00  0.00000000E+00  0.00000000E+00
  0.00000000E+00  0.00000000E+00  0.00000000E+00
  0.00000000E+00  0.00000000E+00  0.00000000E+00
  0.00000000E+00  0.00000000E+00  0.00000000E+00
  0.00000000E+00  0.00000000E+00  0.00000000E+00
  0.00000000E+00  0.00000000E+00  0.00000000E+00
  0.00000000E+00  0.00000000E+00  0.00000000E+00
  0.00000000E+00  0.00000000E+00  0.00000000E+00
  0.00000000E+00  0.00000000E+00  0.00000000E+00
  0.00000000E+00  0.00000000E+00  0.00000000E+00
  0.00000000E+00  0.00000000E+00  0.00000000E+00
  0.00000000E+00  0.00000000E+00  0.00000000E+00
  0.00000000E+00  0.00000000E+00  0.00000000E+00
  0.00000000E+00  0.00000000E+00  0.00000000E+00
  0.00000000E+00  0.00000000E+00  0.00000000E+00
  0.00000000E+00  0.00000000E+00  0.00000000E+00
  0.00000000E+00  0.00000000E+00  0.00000000E+00
  0.00000000E+00  0.00000000E+00  0.00000000E+00
  0.00000000E+00  0.00000000E+00  0.00000000E+00
  0.00000000E+00  0.00000000E+00  0.00000000E+00
  0.00000000E+00  0.00000000E+00  0.00000000E+00
  0.00000000E+00  0.00000000E+00  0.00000000E+00
  0.00000000E+00  0.00000000E+00  0.00000000E+00
  0.00000000E+00  0.00000000E+00  0.00000000E+00
  0.00000000E+00  0.00000000E+00  0.00000000E+00
  0.00000000E+00  0.00000000E+00  0.00000000E+00
  0.00000000E+00  0.00000000E+00  0.00000000E+00
  0.00000000E+00  0.00000000E+00  0.00000000E+00
  0.00000000E+00  0.00000000E+00  0.00000000E+00
  0.00000000E+00  0.00000000E+00  0.00000000E+00
  0.00000000E+00  0.00000000E+00  0.00000000E+00
  0.00000000E+00  0.00000000E+00  0.00000000E+00
  0.00000000E+00  0.00000000E+00  0.00000000E+00
  0.00000000E+00  0.00000000E+00  0.00000000E+00
  0.00000000E+00  0.00000000E+00  0.00000000E+00
  0.00000000E+00  0.00000000E+00  0.00000000E+00
  0.00000000E+00  0.00000000E+00  0.00000000E+00
  0.00000000E+00  0.00000000E+00  0.00000000E+00
  0.00000000E+00  0.00000000E+00  0.00000000E+00
  0.00000000E+00  0.00000000E+00  0.00000000E+00
  0.00000000E+00  0.00000000E+00  0.00000000E+00
  0.00000000E+00  0.00000000E+00  0.00000000E+00
  0.00000000E+00  0.00000000E+00  0.00000000E+00
  0.00000000E+00  0.00000000E+00  0.00000000E+00
  0.00000000E+00  0.00000000E+00  0.00000000E+00
  0.00000000E+00  0.00000000E+00  0.00000000E+00
  0.00000000E+00  0.00000000E+00  0.00000000E+00
  0.00000000E+00  0.00000000E+00  0.00000000E+00
  0.00000000E+00  0.00000000E+00  0.00000000E+00
  0.00000000E+00  0.00000000E+00  0.00000000E+00
  0.00000000E+00  0.00000000E+00  0.00000000E+00
  0.00000000E+00  0.00000000E+00  0.00000000E+00
  0.00000000E+00  0.00000000E+00  0.00000000E+00
  0.00000000E+00  0.00000000E+00  0.00000000E+00
  0.00000000E+00  0.00000000E+00  0.00000000E+00
  0.00000000E+00  0.00000000E+00  0.00000000E+00
  0.00000000E+00  0.00000000E+00  0.00000000E+00
  0.00000000E+00  0.00000000E+00  0.00000000E+00
  0.00000000E+00  0.00000000E+00  0.00000000E+00
  0.00000000E+00  0.00000000E+00  0.00000000E+00
  0.00000000E+00  0.00000000E+00  0.00000000E+00
  0.00000000E+00  0.00000000E+00  0.00000000E+00
  0.00000000E+00  0.00000000E+00  0.00000000E+00
  0.00000000E+00  0.00000000E+00  0.00000000E+00
  0.00000000E+00  0.00000000E+00  0.00000000E+00
  0.00000000E+00  0.00000000E+00  0.00000000E+00
  0.00000000E+00  0.00000000E+00  0.00000000E+00
  0.00000000E+00  0.00000000E+00  0.00000000E+00
  0.00000000E+00  0.00000000E+00  0.00000000E+00
  0.00000000E+00  0.00000000E+00  0.00000000E+00
  0.00000000E+00  0.00000000E+00  0.00000000E+00
  0.00000000E+00  0.00000000E+00  0.00000000E+00
  0.00000000E+00  0.00000000E+00  0.00000000E+00
  0.00000000E+00  0.00000000E+00  0.00000000E+00
  0.00000000E+00  0.00000000E+00  0.00000000E+00
  0.00000000E+00  0.00000000E+00  0.00000000E+00
  0.00000000E+00  0.00000000E+00  0.00000000E+00
  0.00000000E+00  0.00000000E+00  0.00000000E+00
  0.00000000E+00  0.00000000E+00  0.00000000E+00
  0.00000000E+00  0.00000000E+00  0.00000000E+00
  0.00000000E+00  0.00000000E+00  0.00000000E+00
  0.00000000E+00  0.00000000E+00  0.00000000E+00
  0.00000000E+00  0.00000000E+00  0.00000000E+00
  0.00000000E+00  0.00000000E+00  0.00000000E+00
  0.00000000E+00  0.00000000E+00  0.00000000E+00
  0.00000000E+00  0.00000000E+00  0.00000000E+00
  0.00000000E+00  0.00000000E+00  0.00000000E+00
  0.00000000E+00  0.00000000E+00  0.00000000E+00
  0.00000000E+00  0.00000000E+00  0.00000000E+00
  0.00000000E+00  0.00000000E+00  0.00000000E+00
  0.00000000E+00  0.00000000E+00  0.00000000E+00
  0.00000000E+00  0.00000000E+00  0.00000000E+00
  0.00000000E+00  0.00000000E+00  0.00000000E+00
  0.00000000E+00  0.00000000E+00  0.00000000E+00
  0.00000000E+00  0.00000000E+00  0.00000000E+00
  0.00000000E+00  0.00000000E+00  0.00000000E+00
  0.00000000E+00  0.00000000E+00  0.00000000E+00
  0.00000000E+00  0.00000000E+00  0.00000000E+00
  0.00000000E+00  0.00000000E+00  0.00000000E+00
  0.00000000E+00  0.00000000E+00  0.00000000E+00
  0.00000000E+00  0.00000000E+00  0.00000000E+00
  0.00000000E+00  0.00000000E+00  0.00000000E+00
  0.00000000E+00  0.00000000E+00  0.00000000E+00
  0.00000000E+00  0.00000000E+00  0.00000000E+00
  0.00000000E+00  0.00000000E+00  0.00000000E+00
  0.00000000E+00  0.00000000E+00  0.00000000E+00
  0.00000000E+00  0.00000000E+00  0.00000000E+00
  0.00000000E+00  0.00000000E+00  0.00000000E+00
  0.00000000E+00  0.00000000E+00  0.00000000E+00
  0.00000000E+00  0.00000000E+00  0.00000000E+00
  0.00000000E+00  0.00000000E+00  0.00000000E+00
  0.00000000E+00  0.00000000E+00  0.00000000E+00
  0.00000000E+00  0.00000000E+00  0.00000000E+00
  0.00000000E+00  0.00000000E+00  0.00000000E+00
  0.00000000E+00  0.00000000E+00  0.00000000E+00
  0.00000000E+00  0.00000000E+00  0.00000000E+00
  0.00000000E+00  0.00000000E+00  0.00000000E+00
  0.00000000E+00  0.00000000E+00  0.00000000E+00
  0.00000000E+00  0.00000000E+00  0.00000000E+00
  0.00000000E+00  0.00000000E+00  0.00000000E+00
  0.00000000E+00  0.00000000E+00  0.00000000E+00
  0.00000000E+00  0.00000000E+00  0.00000000E+00
  0.00000000E+00  0.00000000E+00  0.00000000E+00
  0.00000000E+00  0.00000000E+00  0.00000000E+00
  0.00000000E+00  0.00000000E+00  0.00000000E+00
  0.00000000E+00  0.00000000E+00  0.00000000E+00
  0.00000000E+00  0.00000000E+00  0.00000000E+00
  0.00000000E+00  0.00000000E+00  0.00000000E+00
  0.00000000E+00  0.00000000E+00  0.00000000E+00
  0.00000000E+00  0.00000000E+00  0.00000000E+00