In Ge Sb Te                             
   1.00000000000000     
    22.1549510956000013    0.0000000000000000    0.0000000000000000
     0.0000000000000000   22.1549510956000013    0.0000000000000000
     0.0000000000000000    0.0000000000000000   22.1549510956000013
   In   Ge   Sb   Te
    30    53    53   170
Direct
  0.4769006889060152  0.1341824099669217  0.3561240845594554
  0.8499850050631115  0.5120769032487916  0.1761956942312303
  0.2686996247743616  0.7244065651928130  0.1814356339384434
  0.9666457154985477  0.4466126975510582  0.3351505299172773
  0.3008678105477550  0.8681809914871823  0.1323004079249774
  0.8251835845896583  0.2853053198838081  0.0340398288152825
  0.8256423748237858  0.3210950703352159  0.5384356445803171
  0.6388657675681501  0.8938076784095087  0.4337787914993182
  0.6795298412117634  0.4795294459334771  0.6114163318152023
  0.6235224680198432  0.7063620774827412  0.9332105306836741
  0.6867481254861448  0.6853490148102661  0.5966364817154720
  0.9364582232649845  0.9591326528315671  0.3721753145615369
  0.4333734329571100  0.9417207189475296  0.5278978699946750
  0.8508232398740074  0.6045894482754340  0.6160451973874402
  0.7612003672660180  0.9195661585363819  0.7129567090552809
  0.9292024113948977  0.9911105951060137  0.0652749193027520
  0.6777785842980084  0.8707790670697314  0.9980938056623142
  0.9494792089836543  0.3432605968841241  0.1897568449277095
  0.7559911286964828  0.3905336941786506  0.2767012910618106
  0.7782184820269864  0.6461798677954852  0.4194012712956504
  0.1200017992185946  0.9510208565575604  0.2995805626012519
  0.7633192592038296  0.8225911962189223  0.2825000542651775
  0.8946664373341708  0.4443782364754221  0.6479875027440253
  0.2262525001820792  0.7221020630963829  0.8614629249117272
  0.2393894349888428  0.0527988480432103  0.1030162710380796
  0.0600587222879674  0.9755672176159904  0.9318027341462063
  0.1989553857434643  0.1897695309404016  0.2286791070702393
  0.9663877074684750  0.6475591304888334  0.3224942719056184
  0.7172826053132035  0.1335960202521153  0.7324841237841822
  0.2536944248852716  0.3913621460398380  0.1680521000913717
  0.3261791804923983  0.1921653265192974  0.8768475770292864
  0.7373466823895476  0.7193292771955411  0.0735491983131487
  0.5489922718360244  0.6641652832575305  0.3455807529483777
  0.6970137068690960  0.3947911659219437  0.8437819610719171
  0.0178109802952983  0.8207131578420608  0.0733333257163630
  0.2695445527934086  0.3665130944664904  0.8780990587150724
  0.5839201367283834  0.5188487805933566  0.4216391115218185
  0.2403735726036812  0.7257733845083225  0.5701982666138034
  0.3036218719255916  0.0153813484978101  0.3086293132883807
  0.9189598091726071  0.9666728128601420  0.8262318702989068
  0.3447248653209919  0.8543794476854331  0.5284247952973468
  0.7652765890528006  0.5102169468452784  0.8142203344165045
  0.2563917057666263  0.8732662226503436  0.8007287921138609
  0.5834391625739018  0.5628951355597420  0.9213583805053818
  0.6373639039107212  0.0171705348997854  0.3071475782527884
  0.3512063286199116  0.5648930098851430  0.4980481966421920
  0.5868025443569759  0.3050114116233045  0.6094626696922448
  0.0642930655809395  0.0708090063665374  0.4273345865057243
  0.9199716141926312  0.2063004222774826  0.7719032110206027
  0.4380131155616667  0.0777459714509804  0.1648750234015256
  0.5715912476573846  0.8890621392937375  0.1454992485159662
  0.4732254096036235  0.6741266475064331  0.2589710467059914
  0.4204960324639816  0.2950214599047803  0.2204624235280022
  0.8965374317207376  0.6886591841722419  0.9314981389897481
  0.7864215491244282  0.3191056101314349  0.6566299779144306
  0.8490676176721448  0.6031399310849278  0.0943932566783410
  0.1447517399387566  0.3237524085441939  0.0343564057896418
  0.1032039147515184  0.5907549864504269  0.1406988286312756
  0.6753554229822452  0.4659317004673039  0.1318012861340002
  0.6514704782161805  0.7726654687340252  0.1324617921194730
  0.4456176779237213  0.1676736739296429  0.8262668134456276
  0.9397279218319717  0.6512338931726832  0.0376871893666875
  0.9126998700359331  0.1577113264746901  0.2502512246384166
  0.6783968019843195  0.0233465255988014  0.0519229759242669
  0.5203894660783521  0.9621688163757934  0.8106474008950759
  0.3973171429611513  0.0192700026232853  0.6980808279994726
  0.8149500688767906  0.0617592738500780  0.3623085626660725
  0.7979382696312789  0.8205326184322148  0.5399086092527006
  0.1323641369293046  0.4383044444800011  0.9119122927459338
  0.7901462433567301  0.1307232086948017  0.1908370021426277
  0.6633065881759352  0.6547163141205206  0.7643838458112386
  0.7765871121938681  0.9812188372130324  0.2006368586879107
  0.5705835689619615  0.4494400313920707  0.0836887208042727
  0.1233534624589325  0.1919810287788765  0.7407848502093743
  0.3665932007564144  0.7806404412183370  0.9518932264723978
  0.5934584644139410  0.0017245940479423  0.6413563096575249
  0.6044699521205018  0.8273419229421441  0.7132928878353237
  0.1724916958260484  0.3243990877639545  0.9210771776591750
  0.1468896754259626  0.7026506192663623  0.2737528319433982
  0.0481708919691552  0.2632818929221892  0.2009421685555504
  0.3630382368047058  0.3046925456141772  0.7544037767601146
  0.5309008360694780  0.1010092269102460  0.6315230072633961
  0.9148857743439794  0.1129737411485388  0.5296295518086126
  0.4439666240014287  0.8159456676786772  0.3840996556486205
  0.1871476394110119  0.5439716425461123  0.9516094660975195
  0.7971264454400616  0.0847085047343110  0.9008395895669314
  0.3318045465068474  0.0722174915928326  0.9445424761003949
  0.5187139473160333  0.3983418981995965  0.1861888893770373
  0.5531738345679784  0.1773622536901494  0.0029090200209708
  0.3047967407579675  0.2144368338722898  0.3151688844142503
  0.4909645567262242  0.2390733956409291  0.5181845522851983
  0.4010479503403179  0.5429724774476556  0.1326652055865325
  0.3070171379702433  0.4670625547262309  0.6876537439851408
  0.0811068031583757  0.8551595149304927  0.8872497262110163
  0.1588734845296597  0.4697006321270067  0.7940271181186624
  0.1219397401690708  0.2203802629865745  0.1093904313763047
  0.8272184260925040  0.3919161189343977  0.7457998031327724
  0.7795809567424496  0.3754782632976321  0.9443080388736370
  0.1566939793819898  0.8106558052444846  0.4066302563900753
  0.8258231111573889  0.9158425862791474  0.8945902803385262
  0.1265283572175588  0.6093210404248561  0.6704296185176035
  0.4567955978706779  0.6930964753379298  0.8118712226499050
  0.7384139928169166  0.6007173733099069  0.0383609083182639
  0.0251986938209497  0.0323145581508714  0.1499071825323464
  0.2672102441650214  0.1849557471017744  0.0875795325894978
  0.4974871204978952  0.4059053795235329  0.9938263247670642
  0.1357804234570016  0.5899450291186992  0.4062789219250142
  0.1911273179030097  0.0621439448549229  0.3022065648776766
  0.9839779926676254  0.4614015475723964  0.0321248666743376
  0.0568126573099978  0.2460202457942161  0.3758380734341357
  0.0728329502354061  0.7992896385471667  0.6508715044246850
  0.3975212645550004  0.2016282822137835  0.6059892575713248
  0.6953958804943683  0.9983886101384070  0.5678182900104093
  0.5829199304535897  0.3378129515252401  0.4223369940221535
  0.8846316402343080  0.7687947973426607  0.6165729896679824
  0.9862573428250364  0.5370830694868693  0.4903619906936165
  0.8147068052711607  0.2852600736755762  0.8548255944952780
  0.2477294027405063  0.5712009161374582  0.7464171691389762
  0.4908000503979386  0.7309634849452120  0.1500707568585485
  0.1850186126826261  0.2144298149228643  0.4033961611377045
  0.1435486722236022  0.1223276608812208  0.8650406968314952
  0.4347930714127909  0.6086369852288815  0.6804349307879245
  0.0659759622436452  0.7558607325659914  0.9714513124762021
  0.0596776210561381  0.2755824592043339  0.5942081406810585
  0.4685492323813418  0.9148188981219909  0.2968298907732122
  0.8446341343518531  0.6057370138429384  0.7944719273698684
  0.5345785252705670  0.6558723578647827  0.5296135301824257
  0.2962967727776373  0.7462829039525177  0.6772729776975457
  0.0755180375808391  0.4940936668334122  0.6243325056729262
  0.9626150760848016  0.9498850542540983  0.6067799607940637
  0.7029813786008610  0.1554640288266125  0.5096667101926865
  0.2565910546233688  0.3255072808686236  0.5593932356554899
  0.3383867236368389  0.7342065665522948  0.4938571774379509
  0.3149873092232233  0.8996978344154258  0.3504264548557644
  0.4393745825379544  0.9058714132592608  0.7289025140763777
  0.4486359306440013  0.9705150896589517  0.0325649486195770
  0.2113183162597490  0.8550993281173178  0.2868036122284766
  0.1402190779274496  0.3137779129384767  0.4756701690633816
  0.5600801185969515  0.7644349212141592  0.4128670845576812
  0.4543375011134907  0.5552452148492661  0.2498597662528783
  0.3188366548872058  0.3899937828992389  0.4553277432701497
  0.3722675695456947  0.3060408988022914  0.8923247986607363
  0.5519720584543268  0.2777814053594350  0.1564734674691334
  0.6802189340365806  0.0688196215373790  0.1981863900046055
  0.4139541531455156  0.4043206942437571  0.0997642956082876
  0.9432857097351059  0.5565228719550547  0.6916380427027840
  0.7935361675911610  0.5117815959162550  0.2909502272679646
  0.0127676913742089  0.4290168525463238  0.9115264747820216
  0.6439677259609505  0.5952713557805187  0.3378846807905078
  0.7551185649188252  0.7726837882444665  0.9680840345008253
  0.9466349769273250  0.3695196498632731  0.5589172747336162
  0.1245126704036862  0.4046640770393793  0.1841729291105222
  0.8589330489646798  0.4967566725544739  0.9814682001798524
  0.9219650831529543  0.5688331380753869  0.8944402749242870
  0.4620777001678972  0.7009841216170523  0.9379548518560614
  0.0593061165295918  0.0323062170655867  0.8076611182982421
  0.0025202112157073  0.6984013985402480  0.8664504313793862
  0.9831055211751560  0.8345714790866274  0.5513016884564049
  0.5465215376733108  0.2133424144889564  0.8793737821687341
  0.9064849588745491  0.8639393552473276  0.0433566401547929
  0.0571492535525936  0.7682967514955967  0.3342555578074285
  0.4261898754685887  0.5002643980995743  0.7592186377943257
  0.2042766485757205  0.7234668132344544  0.0446148877499007
  0.5207857009974141  0.9035763507543478  0.6203597596576134
  0.3921773360902569  0.2499992448426311  0.4283600021918973
  0.0412826797807072  0.1988280300835977  0.8834585683469346
  0.4121106509015567  0.4630079003390986  0.5230249078604740
  0.8821277039353281  0.0342192481884676  0.2593588458862480
  0.6599098050551682  0.5830415783633086  0.5248799995619382
  0.3799878652218490  0.0492824347368683  0.5828104690039851
  0.2932461623497086  0.6766190323008382  0.9654775767591236
  0.7051120628751857  0.8731992463678694  0.6037728257491298
  0.3503610281905570  0.6023898076834910  0.8240691142610456
  0.1969796920401037  0.4516773035298279  0.6073103843694022
  0.9995784823966998  0.2064917057539011  0.5018311217174941
  0.1294187531182371  0.9718593285629900  0.5740543276753317
  0.3131039631401809  0.0588540063167602  0.7776839980944273
  0.7803524079829466  0.6905843264960516  0.6849036522820587
  0.3661477920244341  0.1811818599793516  0.1988311116490291
  0.0107231285457550  0.1883675351434326  0.6862796969262034
  0.0664650664083903  0.4641325235344966  0.4199357568999413
  0.1028472164286767  0.5865511255418856  0.2808626221779535
  0.8941488483921579  0.5327780458169429  0.3966772044901888
  0.3427312028653166  0.7834578099417907  0.8265021586630391
  0.7396607316587575  0.9425428788979836  0.3323857565753872
  0.2875781636885405  0.2037490021896310  0.7594723468474067
  0.3798552987770686  0.1482948838529817  0.0363866235867808
  0.5466882046442147  0.5681691669725270  0.0717954101850199
  0.1385974677314711  0.0651019041875134  0.9822946798022036
  0.9465520954491727  0.3302763183971569  0.0581288261713317
  0.0598613416864460  0.0788636700497276  0.5499929560857582
  0.0648246091323596  0.9443646515402642  0.4170228636471991
  0.0384026114809240  0.1601023455819279  0.2705015108015895
  0.6853541674927459  0.2875843230659444  0.9087600362651753
  0.8203102145827152  0.2074028788718346  0.6897414828937722
  0.5356521625903010  0.1264289564343000  0.4732057885446874
  0.5169239689274432  0.0651409076488850  0.2587186797687102
  0.3346892646382155  0.0015282516775156  0.1927572130361899
  0.7364596161353666  0.6201585430240290  0.8716155830761668
  0.8240367319680055  0.1996376782608726  0.4866962354356664
  0.8956229303043872  0.8940812998997425  0.7051575260701078
  0.7771847151896307  0.0399561403381532  0.6632889835279973
  0.9260063682339519  0.1766243604920442  0.1289987542533655
  0.7037870308458741  0.8852723736746363  0.1262033594935869
  0.9293902456024565  0.8408467778629141  0.9148079430068088
  0.5283438606179129  0.3510409559719097  0.8014024977723535
  0.1848247275612296  0.6198128526988175  0.5558375621367257
  0.1808494829896988  0.7470164936606304  0.7334813863270526
  0.2965996726833651  0.9644094729615269  0.0217725230986927
  0.8535049103056077  0.8784087710401380  0.4468772369270297
  0.8634883110306548  0.1988533502261327  0.9390651352993787
  0.2348966393648370  0.3664962420248969  0.7604358400322891
  0.4729035526068062  0.2470285981425458  0.7342717480868699
  0.4590692625753180  0.0513398017695728  0.9308222747516343
  0.8465247862671592  0.7666584621757787  0.3640676818355148
  0.5885070134796998  0.4115533521311095  0.5321078024646705
  0.5616245497487617  0.8134681019281319  0.0288355088726906
  0.5545397008869296  0.0079829587594846  0.1015504143760338
  0.0322289387800588  0.1392388523124796  0.0602566272513060
  0.9722162089944313  0.4724526266626431  0.2038346815602567
  0.9612533267602202  0.7894434072206322  0.7863805426749673
  0.4886067087422948  0.8813490502450754  0.9483953204604676
  0.2089595039436308  0.8452796303816543  0.9130874576362316
  0.2653502138444818  0.3339222064084387  0.0537386308724172
  0.5528510867084350  0.6031851844343505  0.8064639651855241
  0.4408153731926743  0.8486988084202358  0.1721051428056651
  0.3758425985567241  0.3298101049200503  0.6236225943786624
  0.9296051874904366  0.3323396450811603  0.7939748473032778
  0.5012642439359783  0.5423303187441606  0.5910131195310229
  0.7125077724008642  0.7519389068444426  0.4886198412227298
  0.3829987133442787  0.7183632640968609  0.3220587738707122
  0.6570813499341752  0.8034717134144990  0.8275413128013284
  0.6730329976993228  0.5843737517267235  0.1486920165745098
  0.3193361852326076  0.5897332209562949  0.6266822093701713
  0.2225310952317139  0.2046399338775382  0.9524088715267136
  0.1472723916932092  0.6141296296053610  0.8514610830443547
  0.6772226890117961  0.7355904530481456  0.2445907019854379
  0.6735480698011078  0.9783221870422731  0.9341974121515892
  0.3020759473029963  0.8705309264522963  0.6412165852394252
  0.9346712583137353  0.3226236754536756  0.3263670335933676
  0.4853690531547609  0.2623348769752967  0.3274259177042996
  0.1726233360885603  0.2206154223115149  0.6329699823912227
  0.8022609606444918  0.4951530196964538  0.5678733032551087
  0.1318674630601889  0.3055912425516210  0.2815314302548043
  0.6716375183187443  0.5289608943841504  0.7340865959963702
  0.9678974161375088  0.7229304103017283  0.1355441673055757
  0.2983315387171540  0.2053458799921109  0.5167480116467078
  0.8096184935547048  0.0396807071232979  0.0889409910345361
  0.2613652552764736  0.5025339395063003  0.4448138008286864
  0.2596444731853134  0.9169980693758494  0.4632935041978275
  0.8311395833063168  0.7110054986382701  0.1512480082448222
  0.6255447922984082  0.1748414236220331  0.6536899958316951
  0.4688746447903825  0.5362631083679815  0.9699847724751227
  0.4822294533556312  0.5953611305697866  0.4218072572844375
  0.1908499819029368  0.0808402994771294  0.4297011325785222
  0.8615546653873372  0.0725238973024572  0.7895773534143701
  0.3529156154312328  0.0974345580353885  0.3817507617786686
  0.7766151906006369  0.1725424434100417  0.3208841000835757
  0.1450386898747028  0.9489606468423369  0.7635503847907912
  0.2915797358986253  0.4841183593033637  0.8949528077882041
  0.6664972068216829  0.1485527279045344  0.3826967961828533
  0.8494571745245727  0.8690561844016960  0.1930327264057416
  0.7832121486097458  0.4282923294139499  0.0979002290595572
  0.6720870649557902  0.2782118211224701  0.5251846182194860
  0.0995411234273486  0.7141688209114088  0.1502616494747313
  0.2858460722471420  0.5155333930232371  0.1929365220333669
  0.6391092564581710  0.4348948346453079  0.2406523290727847
  0.5925177229056526  0.4401116099632594  0.8922201629362831
  0.6880029019274271  0.1291554638410427  0.8550704134920208
  0.0324338788599151  0.6526097431622574  0.4510601942752319
  0.1990910287428651  0.0131003068135635  0.6709714738099198
  0.0499427670088079  0.4372710060964216  0.7370511222217258
  0.7798547808802836  0.4044271145191028  0.4495216121229099
  0.7139370966665290  0.3230992773778928  0.3802950292845592
  0.8269479175890597  0.2959026261573555  0.2206297846376301
  0.1317761924486365  0.9721674492476067  0.1086675660263733
  0.5942975961240167  0.2969731009653105  0.0359230763041606
  0.5044304871521746  0.9610188453317510  0.4221220321478180
  0.2252972487414208  0.6050577483389477  0.1100602942463493
  0.0221544908975219  0.6826338544172300  0.6443366697070747
  0.0397704979857252  0.9054662946997351  0.2060523658331475
  0.5808765115876626  0.7073388144763053  0.6643360882852858
  0.8608559977888340  0.9795390885035512  0.5348460033058295
  0.0999581105103652  0.2941243008855295  0.8236240427787987
  0.3127019350781680  0.3437509543875324  0.2737514968050102
  0.1223475779778496  0.4422288871461726  0.0605516901452563
  0.2183979186481841  0.6985837112878442  0.3931458967155314
  0.5173081847853049  0.4243217291951839  0.7005663233342609
  0.4943548349974041  0.0758862168212936  0.7499076129288390
  0.7857361672387512  0.8305409743964411  0.8046417469120550
  0.1583169867133715  0.8122761332519622  0.5524887934776112
  0.9288406079260745  0.0977146335370250  0.4071663114983796
  0.6772578147524975  0.1444765805342401  0.0187669346332807
  0.5217194294683111  0.8150233076133369  0.8057142484387166
  0.4295910719332919  0.7269790335549480  0.5858954362978426
  0.9439869628238469  0.0321202677087689  0.9420708227848531
  0.5949340014085890  0.8998790886126067  0.2773206995499701
  0.3829652758880336  0.6809316519348889  0.1060744882184995
  0.8870959806567692  0.6786100682966802  0.5182668475263450
  0.0456885285123409  0.5915859290375742  0.0218909574634763
  0.7472815647204099  0.2420161405768959  0.1304526246284692
  0.6758854040986697  0.3580764833505778  0.6864325973739106
  0.5280502465280238  0.4305603037404778  0.3550047544740305
  0.9444908703536480  0.8463761274880458  0.2759418565568919
  0.3473843655980559  0.9480904051437234  0.8376216344315750
  0.6314454374783527  0.9677114895961131  0.7513916025751335
 
  0.00000000E+00  0.00000000E+00  0.00000000E+00
  0.00000000E+00  0.00000000E+00  0.00000000E+00
  0.00000000E+00  0.00000000E+00  0.00000000E+00
  0.00000000E+00  0.00000000E+00  0.00000000E+00
  0.00000000E+00  0.00000000E+00  0.00000000E+00
  0.00000000E+00  0.00000000E+00  0.00000000E+00
  0.00000000E+00  0.00000000E+00  0.00000000E+00
  0.00000000E+00  0.00000000E+00  0.00000000E+00
  0.00000000E+00  0.00000000E+00  0.00000000E+00
  0.00000000E+00  0.00000000E+00  0.00000000E+00
  0.00000000E+00  0.00000000E+00  0.00000000E+00
  0.00000000E+00  0.00000000E+00  0.00000000E+00
  0.00000000E+00  0.00000000E+00  0.00000000E+00
  0.00000000E+00  0.00000000E+00  0.00000000E+00
  0.00000000E+00  0.00000000E+00  0.00000000E+00
  0.00000000E+00  0.00000000E+00  0.00000000E+00
  0.00000000E+00  0.00000000E+00  0.00000000E+00
  0.00000000E+00  0.00000000E+00  0.00000000E+00
  0.00000000E+00  0.00000000E+00  0.00000000E+00
  0.00000000E+00  0.00000000E+00  0.00000000E+00
  0.00000000E+00  0.00000000E+00  0.00000000E+00
  0.00000000E+00  0.00000000E+00  0.00000000E+00
  0.00000000E+00  0.00000000E+00  0.00000000E+00
  0.00000000E+00  0.00000000E+00  0.00000000E+00
  0.00000000E+00  0.00000000E+00  0.00000000E+00
  0.00000000E+00  0.00000000E+00  0.00000000E+00
  0.00000000E+00  0.00000000E+00  0.00000000E+00
  0.00000000E+00  0.00000000E+00  0.00000000E+00
  0.00000000E+00  0.00000000E+00  0.00000000E+00
  0.00000000E+00  0.00000000E+00  0.00000000E+00
  0.00000000E+00  0.00000000E+00  0.00000000E+00
  0.00000000E+00  0.00000000E+00  0.00000000E+00
  0.00000000E+00  0.00000000E+00  0.00000000E+00
  0.00000000E+00  0.00000000E+00  0.00000000E+00
  0.00000000E+00  0.00000000E+00  0.00000000E+00
  0.00000000E+00  0.00000000E+00  0.00000000E+00
  0.00000000E+00  0.00000000E+00  0.00000000E+00
  0.00000000E+00  0.00000000E+00  0.00000000E+00
  0.00000000E+00  0.00000000E+00  0.00000000E+00
  0.00000000E+00  0.00000000E+00  0.00000000E+00
  0.00000000E+00  0.00000000E+00  0.00000000E+00
  0.00000000E+00  0.00000000E+00  0.00000000E+00
  0.00000000E+00  0.00000000E+00  0.00000000E+00
  0.00000000E+00  0.00000000E+00  0.00000000E+00
  0.00000000E+00  0.00000000E+00  0.00000000E+00
  0.00000000E+00  0.00000000E+00  0.00000000E+00
  0.00000000E+00  0.00000000E+00  0.00000000E+00
  0.00000000E+00  0.00000000E+00  0.00000000E+00
  0.00000000E+00  0.00000000E+00  0.00000000E+00
  0.00000000E+00  0.00000000E+00  0.00000000E+00
  0.00000000E+00  0.00000000E+00  0.00000000E+00
  0.00000000E+00  0.00000000E+00  0.00000000E+00
  0.00000000E+00  0.00000000E+00  0.00000000E+00
  0.00000000E+00  0.00000000E+00  0.00000000E+00
  0.00000000E+00  0.00000000E+00  0.00000000E+00
  0.00000000E+00  0.00000000E+00  0.00000000E+00
  0.00000000E+00  0.00000000E+00  0.00000000E+00
  0.00000000E+00  0.00000000E+00  0.00000000E+00
  0.00000000E+00  0.00000000E+00  0.00000000E+00
  0.00000000E+00  0.00000000E+00  0.00000000E+00
  0.00000000E+00  0.00000000E+00  0.00000000E+00
  0.00000000E+00  0.00000000E+00  0.00000000E+00
  0.00000000E+00  0.00000000E+00  0.00000000E+00
  0.00000000E+00  0.00000000E+00  0.00000000E+00
  0.00000000E+00  0.00000000E+00  0.00000000E+00
  0.00000000E+00  0.00000000E+00  0.00000000E+00
  0.00000000E+00  0.00000000E+00  0.00000000E+00
  0.00000000E+00  0.00000000E+00  0.00000000E+00
  0.00000000E+00  0.00000000E+00  0.00000000E+00
  0.00000000E+00  0.00000000E+00  0.00000000E+00
  0.00000000E+00  0.00000000E+00  0.00000000E+00
  0.00000000E+00  0.00000000E+00  0.00000000E+00
  0.00000000E+00  0.00000000E+00  0.00000000E+00
  0.00000000E+00  0.00000000E+00  0.00000000E+00
  0.00000000E+00  0.00000000E+00  0.00000000E+00
  0.00000000E+00  0.00000000E+00  0.00000000E+00
  0.00000000E+00  0.00000000E+00  0.00000000E+00
  0.00000000E+00  0.00000000E+00  0.00000000E+00
  0.00000000E+00  0.00000000E+00  0.00000000E+00
  0.00000000E+00  0.00000000E+00  0.00000000E+00
  0.00000000E+00  0.00000000E+00  0.00000000E+00
  0.00000000E+00  0.00000000E+00  0.00000000E+00
  0.00000000E+00  0.00000000E+00  0.00000000E+00
  0.00000000E+00  0.00000000E+00  0.00000000E+00
  0.00000000E+00  0.00000000E+00  0.00000000E+00
  0.00000000E+00  0.00000000E+00  0.00000000E+00
  0.00000000E+00  0.00000000E+00  0.00000000E+00
  0.00000000E+00  0.00000000E+00  0.00000000E+00
  0.00000000E+00  0.00000000E+00  0.00000000E+00
  0.00000000E+00  0.00000000E+00  0.00000000E+00
  0.00000000E+00  0.00000000E+00  0.00000000E+00
  0.00000000E+00  0.00000000E+00  0.00000000E+00
  0.00000000E+00  0.00000000E+00  0.00000000E+00
  0.00000000E+00  0.00000000E+00  0.00000000E+00
  0.00000000E+00  0.00000000E+00  0.00000000E+00
  0.00000000E+00  0.00000000E+00  0.00000000E+00
  0.00000000E+00  0.00000000E+00  0.00000000E+00
  0.00000000E+00  0.00000000E+00  0.00000000E+00
  0.00000000E+00  0.00000000E+00  0.00000000E+00
  0.00000000E+00  0.00000000E+00  0.00000000E+00
  0.00000000E+00  0.00000000E+00  0.00000000E+00
  0.00000000E+00  0.00000000E+00  0.00000000E+00
  0.00000000E+00  0.00000000E+00  0.00000000E+00
  0.00000000E+00  0.00000000E+00  0.00000000E+00
  0.00000000E+00  0.00000000E+00  0.00000000E+00
  0.00000000E+00  0.00000000E+00  0.00000000E+00
  0.00000000E+00  0.00000000E+00  0.00000000E+00
  0.00000000E+00  0.00000000E+00  0.00000000E+00
  0.00000000E+00  0.00000000E+00  0.00000000E+00
  0.00000000E+00  0.00000000E+00  0.00000000E+00
  0.00000000E+00  0.00000000E+00  0.00000000E+00
  0.00000000E+00  0.00000000E+00  0.00000000E+00
  0.00000000E+00  0.00000000E+00  0.00000000E+00
  0.00000000E+00  0.00000000E+00  0.00000000E+00
  0.00000000E+00  0.00000000E+00  0.00000000E+00
  0.00000000E+00  0.00000000E+00  0.00000000E+00
  0.00000000E+00  0.00000000E+00  0.00000000E+00
  0.00000000E+00  0.00000000E+00  0.00000000E+00
  0.00000000E+00  0.00000000E+00  0.00000000E+00
  0.00000000E+00  0.00000000E+00  0.00000000E+00
  0.00000000E+00  0.00000000E+00  0.00000000E+00
  0.00000000E+00  0.00000000E+00  0.00000000E+00
  0.00000000E+00  0.00000000E+00  0.00000000E+00
  0.00000000E+00  0.00000000E+00  0.00000000E+00
  0.00000000E+00  0.00000000E+00  0.00000000E+00
  0.00000000E+00  0.00000000E+00  0.00000000E+00
  0.00000000E+00  0.00000000E+00  0.00000000E+00
  0.00000000E+00  0.00000000E+00  0.00000000E+00
  0.00000000E+00  0.00000000E+00  0.00000000E+00
  0.00000000E+00  0.00000000E+00  0.00000000E+00
  0.00000000E+00  0.00000000E+00  0.00000000E+00
  0.00000000E+00  0.00000000E+00  0.00000000E+00
  0.00000000E+00  0.00000000E+00  0.00000000E+00
  0.00000000E+00  0.00000000E+00  0.00000000E+00
  0.00000000E+00  0.00000000E+00  0.00000000E+00
  0.00000000E+00  0.00000000E+00  0.00000000E+00
  0.00000000E+00  0.00000000E+00  0.00000000E+00
  0.00000000E+00  0.00000000E+00  0.00000000E+00
  0.00000000E+00  0.00000000E+00  0.00000000E+00
  0.00000000E+00  0.00000000E+00  0.00000000E+00
  0.00000000E+00  0.00000000E+00  0.00000000E+00
  0.00000000E+00  0.00000000E+00  0.00000000E+00
  0.00000000E+00  0.00000000E+00  0.00000000E+00
  0.00000000E+00  0.00000000E+00  0.00000000E+00
  0.00000000E+00  0.00000000E+00  0.00000000E+00
  0.00000000E+00  0.00000000E+00  0.00000000E+00
  0.00000000E+00  0.00000000E+00  0.00000000E+00
  0.00000000E+00  0.00000000E+00  0.00000000E+00
  0.00000000E+00  0.00000000E+00  0.00000000E+00
  0.00000000E+00  0.00000000E+00  0.00000000E+00
  0.00000000E+00  0.00000000E+00  0.00000000E+00
  0.00000000E+00  0.00000000E+00  0.00000000E+00
  0.00000000E+00  0.00000000E+00  0.00000000E+00
  0.00000000E+00  0.00000000E+00  0.00000000E+00
  0.00000000E+00  0.00000000E+00  0.00000000E+00
  0.00000000E+00  0.00000000E+00  0.00000000E+00
  0.00000000E+00  0.00000000E+00  0.00000000E+00
  0.00000000E+00  0.00000000E+00  0.00000000E+00
  0.00000000E+00  0.00000000E+00  0.00000000E+00
  0.00000000E+00  0.00000000E+00  0.00000000E+00
  0.00000000E+00  0.00000000E+00  0.00000000E+00
  0.00000000E+00  0.00000000E+00  0.00000000E+00
  0.00000000E+00  0.00000000E+00  0.00000000E+00
  0.00000000E+00  0.00000000E+00  0.00000000E+00
  0.00000000E+00  0.00000000E+00  0.00000000E+00
  0.00000000E+00  0.00000000E+00  0.00000000E+00
  0.00000000E+00  0.00000000E+00  0.00000000E+00
  0.00000000E+00  0.00000000E+00  0.00000000E+00
  0.00000000E+00  0.00000000E+00  0.00000000E+00
  0.00000000E+00  0.00000000E+00  0.00000000E+00
  0.00000000E+00  0.00000000E+00  0.00000000E+00
  0.00000000E+00  0.00000000E+00  0.00000000E+00
  0.00000000E+00  0.00000000E+00  0.00000000E+00
  0.00000000E+00  0.00000000E+00  0.00000000E+00
  0.00000000E+00  0.00000000E+00  0.00000000E+00
  0.00000000E+00  0.00000000E+00  0.00000000E+00
  0.00000000E+00  0.00000000E+00  0.00000000E+00
  0.00000000E+00  0.00000000E+00  0.00000000E+00
  0.00000000E+00  0.00000000E+00  0.00000000E+00
  0.00000000E+00  0.00000000E+00  0.00000000E+00
  0.00000000E+00  0.00000000E+00  0.00000000E+00
  0.00000000E+00  0.00000000E+00  0.00000000E+00
  0.00000000E+00  0.00000000E+00  0.00000000E+00
  0.00000000E+00  0.00000000E+00  0.00000000E+00
  0.00000000E+00  0.00000000E+00  0.00000000E+00
  0.00000000E+00  0.00000000E+00  0.00000000E+00
  0.00000000E+00  0.00000000E+00  0.00000000E+00
  0.00000000E+00  0.00000000E+00  0.00000000E+00
  0.00000000E+00  0.00000000E+00  0.00000000E+00
  0.00000000E+00  0.00000000E+00  0.00000000E+00
  0.00000000E+00  0.00000000E+00  0.00000000E+00
  0.00000000E+00  0.00000000E+00  0.00000000E+00
  0.00000000E+00  0.00000000E+00  0.00000000E+00
  0.00000000E+00  0.00000000E+00  0.00000000E+00
  0.00000000E+00  0.00000000E+00  0.00000000E+00
  0.00000000E+00  0.00000000E+00  0.00000000E+00
  0.00000000E+00  0.00000000E+00  0.00000000E+00
  0.00000000E+00  0.00000000E+00  0.00000000E+00
  0.00000000E+00  0.00000000E+00  0.00000000E+00
  0.00000000E+00  0.00000000E+00  0.00000000E+00
  0.00000000E+00  0.00000000E+00  0.00000000E+00
  0.00000000E+00  0.00000000E+00  0.00000000E+00
  0.00000000E+00  0.00000000E+00  0.00000000E+00
  0.00000000E+00  0.00000000E+00  0.00000000E+00
  0.00000000E+00  0.00000000E+00  0.00000000E+00
  0.00000000E+00  0.00000000E+00  0.00000000E+00
  0.00000000E+00  0.00000000E+00  0.00000000E+00
  0.00000000E+00  0.00000000E+00  0.00000000E+00
  0.00000000E+00  0.00000000E+00  0.00000000E+00
  0.00000000E+00  0.00000000E+00  0.00000000E+00
  0.00000000E+00  0.00000000E+00  0.00000000E+00
  0.00000000E+00  0.00000000E+00  0.00000000E+00
  0.00000000E+00  0.00000000E+00  0.00000000E+00
  0.00000000E+00  0.00000000E+00  0.00000000E+00
  0.00000000E+00  0.00000000E+00  0.00000000E+00
  0.00000000E+00  0.00000000E+00  0.00000000E+00
  0.00000000E+00  0.00000000E+00  0.00000000E+00
  0.00000000E+00  0.00000000E+00  0.00000000E+00
  0.00000000E+00  0.00000000E+00  0.00000000E+00
  0.00000000E+00  0.00000000E+00  0.00000000E+00
  0.00000000E+00  0.00000000E+00  0.00000000E+00
  0.00000000E+00  0.00000000E+00  0.00000000E+00
  0.00000000E+00  0.00000000E+00  0.00000000E+00
  0.00000000E+00  0.00000000E+00  0.00000000E+00