Amorphous Sb                            
   1.00000000000000     
    22.3938363270341512    0.0000000000000000    0.0000000000000000
     0.0000000000000000   22.3938363270341512    0.0000000000000000
     0.0000000000000000    0.0000000000000000   22.3938363270341512
   Sb   Te   Se
   120   126    54
Direct
  0.2356734264584784  0.1657514486791262  0.6118148882871058
  0.6826689152438542  0.5313437690953096  0.2450667315919755
  0.8780014573841325  0.8889997779339012  0.9626783397788309
  0.5283562953380434  0.4404149359316156  0.3214010458043274
  0.5145647898408540  0.6759065330543919  0.0576925712468265
  0.7894256693508853  0.6160455416541059  0.5401194869307961
  0.8018451958035935  0.8409503089082712  0.3861482751564089
  0.0585697890324769  0.6677173887701332  0.8558688564324115
  0.5634784144425435  0.2305523881372709  0.7969629011998175
  0.7505802531631511  0.9535945317206976  0.0514220908794243
  0.9863140525349607  0.3317772468534832  0.3867775355554826
  0.6892342612911450  0.4471618188341497  0.0534997050663479
  0.2899936416276889  0.7993615195509304  0.2551092215878326
  0.8260741805179340  0.1521239548288581  0.0143892527816870
  0.3234083464140746  0.1855687225683778  0.9832603851348203
  0.5269469316823692  0.0228364215344693  0.3507797599402384
  0.2504005106885388  0.0694143569299744  0.7462112899051195
  0.2084574845268592  0.9727904215908699  0.2895109358833865
  0.3812293530353187 -0.0113681919546212  0.4396774880667907
  0.6183569234596035  0.1824784739552994  0.0586237151556768
  0.5431313915559779  0.1630794768356595  0.9538556691582506
  0.0336488224753594  0.1589443546148599  0.6258481504477418
  0.0953130563705222  0.4107743402291814  0.8811585032515528
  0.7287557706188084  0.3960217082863782  0.3536990654974820
  0.2541343912511002  0.2871262872821234  0.1912023309434120
  0.6343213477586481  0.5118093368211560  0.5756943213728279
  0.9331147206392694  0.6791157706189114  0.1824366231422284
  0.1239816506751022  0.2152912949681752  0.3225994777812716
  0.3247401697207358  0.5998440498278276  0.6552085696145267
  0.6963397326603066  0.6072361914985728  0.6960955946950678
  0.1736678401545156  0.0218345580599414  0.1732666619612527
  0.7674199175108559  0.9208406471237185  0.8943490868425282
  0.4720642096894643  0.7112611831038630  0.6217769241926184
  0.2757591665975458  0.9270164776963791  0.6224064642277715
 -0.0005889412814556  0.5412593733102522  0.9307346321938146
  0.3748896633334811  0.2409679484352451  0.2056810366921120
  0.3032066560335983  0.6908174475526562  0.7896617986633171
  0.6001422484040029  0.8380100859088053  0.1179857525403607
  0.9380277529658948  0.3979929904601442  0.5593823246942685
  0.7593906846344259  0.3862992829066890  0.7719137577733911
  0.0083151029816005  0.4837101935708712  0.8127853445243146
  0.9845713671414655  0.0281191907145809  0.1533216674991947
  0.5090968140101830  0.0687807135806898  0.1678642868720822
  0.7545611326178978  0.6924160915685476  0.7768586312869408
  0.0373668358406070  0.0409241730639911  0.4964283747401755
  0.2595257143240127  0.9312444425652557  0.1343419004261897
  0.8104022188888321  0.5574090957343787  0.6553812564570380
  0.9087658464891429  0.4809550987191976  0.4036189750267259
  0.2851323661698990  0.2906683450658193  0.6222708659558742
  0.4605109798274924  0.8433486254898335  0.2637534326132181
  0.0689619328164866  0.8873128715752714  0.2845182814613904
  0.8132413875820342  0.5627758671039962  0.3759879218440393
  0.5895330395401078  0.8494497965327792  0.2505535933687249
  0.9291322448856827  0.6942944631155030  0.8722208842143203
  0.6395555870318314  0.4965653896334369  0.3651542427401807
  0.6156529219658131  0.8473779915100513  0.6067771274381086
  0.2873309471156306  0.7038341948942812  0.1085921661833474
  0.6423673742276600  0.9048171905101082  0.4340305263352237
  0.5274858060987263  0.2403355134073107  0.1341425749996287
  0.9498460304272391  0.3118822449942449  0.9320420623074697
  0.4815454176217507  0.7148818770442368  0.2851885348879116
  0.5416647871221508  0.5690108679652813  0.1654854962490646
  0.8750291966274569  0.7434907256807396  0.2770481888198311
  0.8132166722800408  0.4096481241424902  0.4550838458727225
  0.0707368890839285  0.1154586239178849  0.2047164226956486
  0.1077179981709580  0.6882323870418177  0.2136261661184916
  0.5539524159803335  0.4379518190388135  0.1708579547353418
  0.9195773173563676  0.2695651764799479  0.1322336124653063
  0.8171191361495556  0.6229006148957793  0.1548026858537674
  0.2860360702227215  0.4288495332471383  0.6528583901274335
  0.5422501411680433  0.5521082340152307  0.0137875371669140
  0.7853850794841793  0.7412614702965508  0.1071409682105312
  0.4454827679416417  0.5813794738740423  0.7130756714352076
  0.4210912998241159  0.6159272268276619  0.4719176247787939
  0.2633150422801802  0.8141246411026820  0.4310326350388853
  0.3404377678437184  0.0352567689397626  0.1276872820323844
  0.4194435944276952  0.3362515914321004  0.0690366652838134
  0.3733979958290069  0.7060637997967523  0.9409420801003966
  0.2967713100879490  0.0663047552552156  0.3054452957446253
  0.9102577072040251  0.2606124852489085  0.7710906705522365
  0.6116835998343315  0.3630208777134074  0.6761143046755302
  0.1396631225212477  0.2092100951406278  0.6882149894123971
  0.2677458942750802  0.2181255229380770  0.4527472121499719
  0.1742209225527452  0.7218841433145982  0.5609309230382806
  0.0426272497625697  0.5846251239960611  0.5600194077350722
  0.4920512233913539  0.5613715967935785  0.2873014615891060
  0.0370477501326903  0.9869844693527990  0.8648396889128702
  0.9739904392216047  0.1152557066707111  0.9704421210148023
  0.2095360856563963  0.5322606908506319  0.5065081712341055
  0.9107075859666471  0.1071526717128169  0.4107593286875992
  0.1469051380312995  0.1490879705979431  0.0049760501058394
  0.2860452340819389  0.9027805983525450  0.8145850333671124
  0.1508661989492610  0.5058033074156305  0.7442075548933121
  0.0981516906184893  0.6519847602136193  0.3865161912698387
  0.5948142762860420  0.8573244627685082  0.8764212822332867
  0.1272804183007468  0.7845385216268802  0.0118542972245060
  0.3270287247564302  0.6332205752306824  0.3796873687971357
  0.9472725937962717  0.7138479653777583  0.0001348099904655
  0.2492658754393157  0.4472771752907310  0.4094430247849781
  0.8851294666612722  0.4437071163332693  0.8476693916809102
  0.7120494415972594  0.8699592603914700  0.7456226515395182
  0.5824539129819691  0.4258369888540614  0.4816007771670614
  0.1312831675673485  0.5114506823898362  0.0463527430997669
  0.8473235872252035  0.4315493763299859  0.9966407617323767
  0.4167751315509962  0.4338090938922772 -0.0178655814625319
  0.0350135306940506  0.7399495632706956  0.6255750088687834
  0.8488505978821602  0.9914944857292316  0.4011595463114108
  0.4365596021645457  0.3150479295983702  0.4531385517641279
  0.9648336901096958  0.4257218811590168  0.1977835160832001
  0.1657648245083257  0.0312930639242715  0.4766000312809753
  0.2867200957716960  0.4049237498907669  0.2334779276080032
  0.6126957034755415  0.2505963696458854  0.4535091586203828
  0.4779662521227118  0.4871731982493848  0.6294834576228910
  0.2740278051246570  0.4553443148620904  0.1109285568799429
  0.1790666143402880  0.8044321920070368  0.8926390856421478
  0.6455279834034680  0.7577653388676598  0.3848490564556705
  0.7500431748053529  0.1164851604957574  0.1709635253574338
  0.4506085162035774  0.0384861619127210 -0.0086591752599226
  0.4862858336363498  0.1857775598165339  0.3660478063658779
  0.0261318576740760  0.9155726843162508  0.4614099434925084
  0.4192179930893953  0.5398985533801121  0.1868429227043495
  0.9817582923537201  0.6348922591905058  0.6827186570644308
  0.0830930012912469  0.3094445785257414  0.2467872928819382
  0.6089880448108554  0.7138831296721944  0.2668444320682192
  0.7273001591653643  0.8585819451207621  0.1496917165217667
  0.4814884039748783  0.9153960345869480  0.4008245579670855
  0.2018993943806529  0.9300141099972343  0.0211151368178804
  0.5068556973277578  0.8459182216104195  0.9681066246175236
  0.8986064963731774  0.9881847034038298  0.6273461385531922
  0.1581495646489342  0.2013363481280592  0.5172494317131020
  0.7374683027979011  0.4105295419385372  0.9390268682772562
  0.2787933479499114  0.5221484402702952  0.7515558060583398
  0.0728502500756803  0.0470936591825504  0.0205612377171844
  0.1236727812743323  0.1967331223059694  0.1206369889936232
  0.1166225183235159  0.0316545033128411  0.3565220197417527
  0.8744858977663570  0.1434781341285472  0.2882903745086193
  0.5086985140553320  0.7231815725683285  0.9354958983078839
  0.2957154254957097  0.4651163833074893  0.9545846889904308
  0.1643129218232885  0.3954808412048986  0.0864184076395617
  0.8078307583572750  0.1325616855510409  0.8201047980129121
  0.3535393176679285  0.9605598664300580  0.7220290050071213
  0.3954232327378793  0.2475019463091310  0.6656099841402194
  0.5152621802994746  0.0582374189033714  0.6360820491974358
  0.9351137325703941  0.5198919568832433  0.1140034869152012
  0.0577290275662940  0.8729699707332609  0.5766456581977472
  0.2640545344535843  0.3491661385019702  0.9162024505842435
  0.8012085592453054  0.0865994180639907  0.4686896947134951
  0.5876091218647014  0.9865780404972579  0.2444904058393540
  0.6182016930996830  0.0408360614958894  0.7028839924234047
  0.7237473634472941  0.6467870481030682  0.8917869524931999
  0.0370865542464333  0.0251015624412297  0.6224484931602319
  0.5858106289542527  0.1103924088297301  0.5496419639318162
  0.7626133308076648  0.7223867967231123  0.4187110099150120
  0.5571190492704751  0.1717824513002879  0.2369940234010062
  0.4852798703073498  0.8298278931489257  0.5766270238966202
  0.8639432852403512  0.3513723565620711  0.2173704583934512
  0.6372613707563680  0.0322101831916989  0.4123678485254495
  0.4953902712115432  0.7121479965843024  0.4211899407409205
  0.6481387150213767  0.1676916341006901  0.7089145862793198
  0.2281753966539173  0.6874123404965915  0.8940837136205850
  0.3412691188140461  0.5090725471574289  0.5618420272817019
  0.1817476657348866  0.8838143361693046  0.7437015751589698
  0.4112743116437816  0.3217354626971674  0.9179706190494046
  0.7433367496864919  0.0663802579497998  0.9756892197719587
  0.1729030408683776  0.9077442900418946  0.5099887452737698
  0.4172771633431924  0.3639861385304524  0.1974180016173106
  0.7617099725341142  0.8531426564247452  0.6285697400926988
  0.9143995514709047  0.0007735303369646  0.9012334025323757
  0.1966618040413407  0.0282225758913099  0.6349818004604274
  0.9429204696573933  0.0213374182655805  0.2761848997538235
  0.8149992528230197  0.8182893235341110  0.8275426384659040
  0.3822635788964794  0.9954403032660479  0.2421597847098226
  0.3382921514410742  0.2366599902936783  0.7824708302894868
  0.9057151960457822  0.6537982482348615  0.3782720637214408
  0.4219545216508188  0.4886561444245334  0.7961543632095316
  0.8968610020832156  0.9839151283764110  0.7555854596721332
  0.5825769994915690 -0.0181241077050611  0.8564432242350558
  0.8234266098989854  0.7540876091668182  0.9855192302825879
  0.2263718416637398  0.6761832620751207  0.4499933199333543
  0.0554435534125609  0.5452939846551154  0.1420165368891938
  0.9985359056270006  0.5980204279604294  0.3173151096145607
  0.1615579713125254  0.6128778650425279  0.6196845841536273
  0.0890697972231824  0.6657026748001442  0.9821837046688716
 -0.0368222885050116  0.2842478979611617  0.6332703723224160
  0.3665662880671686  0.7764566148047523  0.3672734740687257
  0.1666637181527704  0.4435269936043980  0.5864442144454337
  0.4715512320258817  0.4719234684646801  0.4317343858191935
  0.1555544480710577  0.5294036352155993  0.8702710526224128
  0.5358402337211784  0.2915945496921170  0.9210863419982868
  0.0135047230374160  0.2337457541069699  0.0144194724823552
  0.4467485443106192  0.1576544601319945  0.0801319204512938
  0.7719026452439867  0.0361460144174732  0.7490007444356471
  0.7532862581919193  0.2521654157655092  0.3154037659134461
  0.8867224578106447  0.2109936247628842  0.5554130570607435
  0.0290471800605400  0.7646122610696838  0.2805915817309938
  0.4671049939703680  0.7787887468179315  0.1514452369969498
  0.9422844942907680  0.8235451819616210  0.6238807567073823
  0.0379936092377219  0.2191187495696349  0.4173291389771968
  0.6340384432420653  0.7188360522473075  0.0899969095065053
  0.8648954585551105  0.6747857174739331  0.6516940965653396
  0.5573266958591544  0.3926598500565274  0.0525406433492278
  0.6033959320879069  0.6505691015401264  0.4461928225516017
  0.0393590893526158  0.3934702687727012  0.4846777476328349
  0.7449457972114722  0.2490195381904080  0.0430000806595855
  0.7180553604994065  0.6991596359330300  0.6095014637366173
  0.2587415614207450  0.1261992762516292  0.2012148759151047
  0.1668451140208928  0.3761996901518099  0.7540077946602878
  0.0700154152606747  0.9307011098386758  0.1606095365556637
  0.8729207430635287  0.2967467440398818  0.4348632089986072
  0.8041824951552282  0.4962035815327663  0.2670593559310538
  0.3756832912293053  0.6248657767053738  0.0395763072259712
  0.9611745211484840  0.1288284768164540  0.7298266325619480
  0.9017092101192566  0.9154416760116740  0.4899150201440726
  0.4106426476598462  0.3948538081273002  0.7147093021676676
  0.0377616311508184  0.1186839645494414  0.8586069111477712
  0.6585403735355433  0.5479073821406879  0.8585889725077283
  0.1547783669457902  0.4222394752255004  0.2449670886784886
  0.4467879113828408  0.9599479732723843  0.0901382659476554
  0.5144762464370463  0.3420975659137137  0.5521288778647463
  0.3862187933300713  0.9666442473949206  0.5643532977472878
  0.0244265468464414  0.3706403033727374  0.7259930460433216
  0.2833103938079122  0.8470073856280759  0.9750803210336936
  0.8913452035194317  0.7992251884121360  0.1535233846657354
  0.9897769742569275  0.2087637007478929  0.2408564008696570
  0.5411436292397999  0.5778496042426650  0.8866500854445528
  0.6717933787924257  0.1752570595647166  0.3695185380947034
  0.1868567524253331  0.7591246390560241  0.7203417110299037
  0.2746527882024068  0.7612099825628932  0.6289224388855861
  0.2915090920375728  0.2970790738581021  0.0639756882997680
  0.9929369509871552  0.4679253554437799  0.6483696956773857
  0.3339426287495648  0.0875757232777057  0.8786738303668783
  0.5788490818199309  0.0198045277982002  0.9754635291376478
  0.4033321561877931  0.9822544589631204  0.8847469261060940
  0.9153697824872448  0.5301866280073513  0.5200783937435542
  0.0068488003002250  0.8267575397140198  0.0059295668616006
  0.6437630073636585  0.1719685681704534  0.8745140660757619
  0.8611722004270141  0.1256118504431580  0.6456270372988090
  0.3712859024647288  0.2283750786978980  0.3322136036746385
  0.7377796717138938  0.2462222441808690  0.1908304962184574
  0.9429853481810130  0.8132090467259652  0.8296025140164471
  0.0397842024007324  0.2848430689883875  0.8439902464736575
  0.1835430255651642  0.7867786627822742  0.1723711158322983
  0.2203487536973557  0.2916088358318316  0.3600056541604214
  0.4230096485533554  0.8076071884332906  0.6907731931827641
  0.7642376578754497  0.6823489383818447  0.2536005725447340
  0.3602767884928317  0.8080546360418284  0.0786442772192585
  0.7079001018033041  0.8604224519916597  0.3205728330078776
  0.4395239436625402  0.1999542817522166  0.4762522930057260
  0.2582216309058741  0.2087253087548955  0.8904445697102433
  0.6147669384373595  0.3364428142959647  0.7895766445547390
  0.3075659293810150  0.3156486606417495  0.5093523975318431
  0.2904689870998403  0.9331730456889862  0.3972023677137231
  0.9563671408688426  0.9035815565307834  0.2997016525304517
  0.8658071176699048  0.9445845624128045  0.0660874026577299
  0.6906372498815235  0.3373840130629848  0.4574259962410513
  0.0320433269319086  0.4403959889957918  0.9839092593839881
  0.7993336668518666  0.4843532664285202  0.0886572412179946
  0.7502871289702708  0.8950693722291615  0.4775614176948931
  0.7241159419168703  0.3948904665393224  0.6605328621496106
  0.4021619762287858  0.1380246456775297  0.7993742627776691
  0.3793962107477367  0.6256177140090073  0.8569340482266554
  0.3228716112922447  0.6905497748539853  0.2203243100912161
  0.8602965120491998  0.2580595474653707  0.8805626248604589
  0.5986691897056865  0.9038730058104254  0.7080084358470100
  0.5760784028221501  0.4724886914637054  0.6978495468143613
  0.0169855205525510  0.9497036414084500  0.7586098137209456
  0.1992158543861844  0.9940980297191323  0.8186753895909732
  0.6104768133442907  0.0750999879511165  0.1033972592236330
  0.1628013657723300  0.6213484204186277  0.2925786034403199
  0.7009727579942091  0.5560754023169905  0.4838531473015583
  0.2796057630623968  0.3656010320419491  0.8006621826976946
  0.6705255819866790  0.4270955240244612  0.1923607365661155
  0.5342290305079841  0.2970895874138555  0.3732609616128145
  0.8028680741680878  0.2129122321682255  0.7367873021170425
  0.6128247853901662  0.9437032227900676  0.5448164922778167
  0.7769506157290912  0.9670487753527123  0.6228232898315159
  0.0267623958520335  0.6931165137223111  0.5160522570098878
  0.1472919647388463  0.4637960069671779  0.3543092518330139
  0.3231567804602800  0.5162927781657620  0.3501245797912468
  0.1568689846008510  0.1372922984936711  0.7771245860975877
  0.2006667904106880  0.8012339320483322  0.3325886176890152
  0.6862889899166789  0.8559835502924761  0.9509697948105663
  0.3617527084707818  0.7902916768582122  0.8054515802979915
  0.7188995614978742  0.9791916142592787  0.1613798925471265
  0.2158409368982244  0.5565907395606025  0.1247428625045456
  0.6625585670386464  0.7639961154584046  0.7580695669258322
  0.3756923089566015  0.6897261572210410  0.5548431531445764
  0.2537971317052535  0.0978125551338132  0.0231006338664166
  0.8590771812042537  0.1210133644299446  0.1233292044679411
  0.0956889875675518  0.5494877318766611  0.4504726346728458
  0.7920462069438261  0.4979536158337887  0.7941726659726178
  0.0784071879205364  0.7776723117265818  0.8239115330323775
  0.8820667850465863  0.5408867773527193  0.9277630529673703
  0.8492119057239136  0.3089570908370138  0.0356920943774738
  0.7715279425804712  0.0837937071490920  0.2801130618867856
  0.0036966737916107  0.3509104619293922  0.1160526850728138
  0.8720698922550132  0.3741924924944972  0.7397097644091601
  0.6556691735865939  0.5608008260696011  0.0373245101458899
  0.5989706788998213  0.2080000130881788  0.6104736386800927
  0.5386468476434833  0.5793951760253646  0.5691794443168814
 
  0.00000000E+00  0.00000000E+00  0.00000000E+00
  0.00000000E+00  0.00000000E+00  0.00000000E+00
  0.00000000E+00  0.00000000E+00  0.00000000E+00
  0.00000000E+00  0.00000000E+00  0.00000000E+00
  0.00000000E+00  0.00000000E+00  0.00000000E+00
  0.00000000E+00  0.00000000E+00  0.00000000E+00
  0.00000000E+00  0.00000000E+00  0.00000000E+00
  0.00000000E+00  0.00000000E+00  0.00000000E+00
  0.00000000E+00  0.00000000E+00  0.00000000E+00
  0.00000000E+00  0.00000000E+00  0.00000000E+00
  0.00000000E+00  0.00000000E+00  0.00000000E+00
  0.00000000E+00  0.00000000E+00  0.00000000E+00
  0.00000000E+00  0.00000000E+00  0.00000000E+00
  0.00000000E+00  0.00000000E+00  0.00000000E+00
  0.00000000E+00  0.00000000E+00  0.00000000E+00
  0.00000000E+00  0.00000000E+00  0.00000000E+00
  0.00000000E+00  0.00000000E+00  0.00000000E+00
  0.00000000E+00  0.00000000E+00  0.00000000E+00
  0.00000000E+00  0.00000000E+00  0.00000000E+00
  0.00000000E+00  0.00000000E+00  0.00000000E+00
  0.00000000E+00  0.00000000E+00  0.00000000E+00
  0.00000000E+00  0.00000000E+00  0.00000000E+00
  0.00000000E+00  0.00000000E+00  0.00000000E+00
  0.00000000E+00  0.00000000E+00  0.00000000E+00
  0.00000000E+00  0.00000000E+00  0.00000000E+00
  0.00000000E+00  0.00000000E+00  0.00000000E+00
  0.00000000E+00  0.00000000E+00  0.00000000E+00
  0.00000000E+00  0.00000000E+00  0.00000000E+00
  0.00000000E+00  0.00000000E+00  0.00000000E+00
  0.00000000E+00  0.00000000E+00  0.00000000E+00
  0.00000000E+00  0.00000000E+00  0.00000000E+00
  0.00000000E+00  0.00000000E+00  0.00000000E+00
  0.00000000E+00  0.00000000E+00  0.00000000E+00
  0.00000000E+00  0.00000000E+00  0.00000000E+00
  0.00000000E+00  0.00000000E+00  0.00000000E+00
  0.00000000E+00  0.00000000E+00  0.00000000E+00
  0.00000000E+00  0.00000000E+00  0.00000000E+00
  0.00000000E+00  0.00000000E+00  0.00000000E+00
  0.00000000E+00  0.00000000E+00  0.00000000E+00
  0.00000000E+00  0.00000000E+00  0.00000000E+00
  0.00000000E+00  0.00000000E+00  0.00000000E+00
  0.00000000E+00  0.00000000E+00  0.00000000E+00
  0.00000000E+00  0.00000000E+00  0.00000000E+00
  0.00000000E+00  0.00000000E+00  0.00000000E+00
  0.00000000E+00  0.00000000E+00  0.00000000E+00
  0.00000000E+00  0.00000000E+00  0.00000000E+00
  0.00000000E+00  0.00000000E+00  0.00000000E+00
  0.00000000E+00  0.00000000E+00  0.00000000E+00
  0.00000000E+00  0.00000000E+00  0.00000000E+00
  0.00000000E+00  0.00000000E+00  0.00000000E+00
  0.00000000E+00  0.00000000E+00  0.00000000E+00
  0.00000000E+00  0.00000000E+00  0.00000000E+00
  0.00000000E+00  0.00000000E+00  0.00000000E+00
  0.00000000E+00  0.00000000E+00  0.00000000E+00
  0.00000000E+00  0.00000000E+00  0.00000000E+00
  0.00000000E+00  0.00000000E+00  0.00000000E+00
  0.00000000E+00  0.00000000E+00  0.00000000E+00
  0.00000000E+00  0.00000000E+00  0.00000000E+00
  0.00000000E+00  0.00000000E+00  0.00000000E+00
  0.00000000E+00  0.00000000E+00  0.00000000E+00
  0.00000000E+00  0.00000000E+00  0.00000000E+00
  0.00000000E+00  0.00000000E+00  0.00000000E+00
  0.00000000E+00  0.00000000E+00  0.00000000E+00
  0.00000000E+00  0.00000000E+00  0.00000000E+00
  0.00000000E+00  0.00000000E+00  0.00000000E+00
  0.00000000E+00  0.00000000E+00  0.00000000E+00
  0.00000000E+00  0.00000000E+00  0.00000000E+00
  0.00000000E+00  0.00000000E+00  0.00000000E+00
  0.00000000E+00  0.00000000E+00  0.00000000E+00
  0.00000000E+00  0.00000000E+00  0.00000000E+00
  0.00000000E+00  0.00000000E+00  0.00000000E+00
  0.00000000E+00  0.00000000E+00  0.00000000E+00
  0.00000000E+00  0.00000000E+00  0.00000000E+00
  0.00000000E+00  0.00000000E+00  0.00000000E+00
  0.00000000E+00  0.00000000E+00  0.00000000E+00
  0.00000000E+00  0.00000000E+00  0.00000000E+00
  0.00000000E+00  0.00000000E+00  0.00000000E+00
  0.00000000E+00  0.00000000E+00  0.00000000E+00
  0.00000000E+00  0.00000000E+00  0.00000000E+00
  0.00000000E+00  0.00000000E+00  0.00000000E+00
  0.00000000E+00  0.00000000E+00  0.00000000E+00
  0.00000000E+00  0.00000000E+00  0.00000000E+00
  0.00000000E+00  0.00000000E+00  0.00000000E+00
  0.00000000E+00  0.00000000E+00  0.00000000E+00
  0.00000000E+00  0.00000000E+00  0.00000000E+00
  0.00000000E+00  0.00000000E+00  0.00000000E+00
  0.00000000E+00  0.00000000E+00  0.00000000E+00
  0.00000000E+00  0.00000000E+00  0.00000000E+00
  0.00000000E+00  0.00000000E+00  0.00000000E+00
  0.00000000E+00  0.00000000E+00  0.00000000E+00
  0.00000000E+00  0.00000000E+00  0.00000000E+00
  0.00000000E+00  0.00000000E+00  0.00000000E+00
  0.00000000E+00  0.00000000E+00  0.00000000E+00
  0.00000000E+00  0.00000000E+00  0.00000000E+00
  0.00000000E+00  0.00000000E+00  0.00000000E+00
  0.00000000E+00  0.00000000E+00  0.00000000E+00
  0.00000000E+00  0.00000000E+00  0.00000000E+00
  0.00000000E+00  0.00000000E+00  0.00000000E+00
  0.00000000E+00  0.00000000E+00  0.00000000E+00
  0.00000000E+00  0.00000000E+00  0.00000000E+00
  0.00000000E+00  0.00000000E+00  0.00000000E+00
  0.00000000E+00  0.00000000E+00  0.00000000E+00
  0.00000000E+00  0.00000000E+00  0.00000000E+00
  0.00000000E+00  0.00000000E+00  0.00000000E+00
  0.00000000E+00  0.00000000E+00  0.00000000E+00
  0.00000000E+00  0.00000000E+00  0.00000000E+00
  0.00000000E+00  0.00000000E+00  0.00000000E+00
  0.00000000E+00  0.00000000E+00  0.00000000E+00
  0.00000000E+00  0.00000000E+00  0.00000000E+00
  0.00000000E+00  0.00000000E+00  0.00000000E+00
  0.00000000E+00  0.00000000E+00  0.00000000E+00
  0.00000000E+00  0.00000000E+00  0.00000000E+00
  0.00000000E+00  0.00000000E+00  0.00000000E+00
  0.00000000E+00  0.00000000E+00  0.00000000E+00
  0.00000000E+00  0.00000000E+00  0.00000000E+00
  0.00000000E+00  0.00000000E+00  0.00000000E+00
  0.00000000E+00  0.00000000E+00  0.00000000E+00
  0.00000000E+00  0.00000000E+00  0.00000000E+00
  0.00000000E+00  0.00000000E+00  0.00000000E+00
  0.00000000E+00  0.00000000E+00  0.00000000E+00
  0.00000000E+00  0.00000000E+00  0.00000000E+00
  0.00000000E+00  0.00000000E+00  0.00000000E+00
  0.00000000E+00  0.00000000E+00  0.00000000E+00
  0.00000000E+00  0.00000000E+00  0.00000000E+00
  0.00000000E+00  0.00000000E+00  0.00000000E+00
  0.00000000E+00  0.00000000E+00  0.00000000E+00
  0.00000000E+00  0.00000000E+00  0.00000000E+00
  0.00000000E+00  0.00000000E+00  0.00000000E+00
  0.00000000E+00  0.00000000E+00  0.00000000E+00
  0.00000000E+00  0.00000000E+00  0.00000000E+00
  0.00000000E+00  0.00000000E+00  0.00000000E+00
  0.00000000E+00  0.00000000E+00  0.00000000E+00
  0.00000000E+00  0.00000000E+00  0.00000000E+00
  0.00000000E+00  0.00000000E+00  0.00000000E+00
  0.00000000E+00  0.00000000E+00  0.00000000E+00
  0.00000000E+00  0.00000000E+00  0.00000000E+00
  0.00000000E+00  0.00000000E+00  0.00000000E+00
  0.00000000E+00  0.00000000E+00  0.00000000E+00
  0.00000000E+00  0.00000000E+00  0.00000000E+00
  0.00000000E+00  0.00000000E+00  0.00000000E+00
  0.00000000E+00  0.00000000E+00  0.00000000E+00
  0.00000000E+00  0.00000000E+00  0.00000000E+00
  0.00000000E+00  0.00000000E+00  0.00000000E+00
  0.00000000E+00  0.00000000E+00  0.00000000E+00
  0.00000000E+00  0.00000000E+00  0.00000000E+00
  0.00000000E+00  0.00000000E+00  0.00000000E+00
  0.00000000E+00  0.00000000E+00  0.00000000E+00
  0.00000000E+00  0.00000000E+00  0.00000000E+00
  0.00000000E+00  0.00000000E+00  0.00000000E+00
  0.00000000E+00  0.00000000E+00  0.00000000E+00
  0.00000000E+00  0.00000000E+00  0.00000000E+00
  0.00000000E+00  0.00000000E+00  0.00000000E+00
  0.00000000E+00  0.00000000E+00  0.00000000E+00
  0.00000000E+00  0.00000000E+00  0.00000000E+00
  0.00000000E+00  0.00000000E+00  0.00000000E+00
  0.00000000E+00  0.00000000E+00  0.00000000E+00
  0.00000000E+00  0.00000000E+00  0.00000000E+00
  0.00000000E+00  0.00000000E+00  0.00000000E+00
  0.00000000E+00  0.00000000E+00  0.00000000E+00
  0.00000000E+00  0.00000000E+00  0.00000000E+00
  0.00000000E+00  0.00000000E+00  0.00000000E+00
  0.00000000E+00  0.00000000E+00  0.00000000E+00
  0.00000000E+00  0.00000000E+00  0.00000000E+00
  0.00000000E+00  0.00000000E+00  0.00000000E+00
  0.00000000E+00  0.00000000E+00  0.00000000E+00
  0.00000000E+00  0.00000000E+00  0.00000000E+00
  0.00000000E+00  0.00000000E+00  0.00000000E+00
  0.00000000E+00  0.00000000E+00  0.00000000E+00
  0.00000000E+00  0.00000000E+00  0.00000000E+00
  0.00000000E+00  0.00000000E+00  0.00000000E+00
  0.00000000E+00  0.00000000E+00  0.00000000E+00
  0.00000000E+00  0.00000000E+00  0.00000000E+00
  0.00000000E+00  0.00000000E+00  0.00000000E+00
  0.00000000E+00  0.00000000E+00  0.00000000E+00
  0.00000000E+00  0.00000000E+00  0.00000000E+00
  0.00000000E+00  0.00000000E+00  0.00000000E+00
  0.00000000E+00  0.00000000E+00  0.00000000E+00
  0.00000000E+00  0.00000000E+00  0.00000000E+00
  0.00000000E+00  0.00000000E+00  0.00000000E+00
  0.00000000E+00  0.00000000E+00  0.00000000E+00
  0.00000000E+00  0.00000000E+00  0.00000000E+00
  0.00000000E+00  0.00000000E+00  0.00000000E+00
  0.00000000E+00  0.00000000E+00  0.00000000E+00
  0.00000000E+00  0.00000000E+00  0.00000000E+00
  0.00000000E+00  0.00000000E+00  0.00000000E+00
  0.00000000E+00  0.00000000E+00  0.00000000E+00
  0.00000000E+00  0.00000000E+00  0.00000000E+00
  0.00000000E+00  0.00000000E+00  0.00000000E+00
  0.00000000E+00  0.00000000E+00  0.00000000E+00
  0.00000000E+00  0.00000000E+00  0.00000000E+00
  0.00000000E+00  0.00000000E+00  0.00000000E+00
  0.00000000E+00  0.00000000E+00  0.00000000E+00
  0.00000000E+00  0.00000000E+00  0.00000000E+00
  0.00000000E+00  0.00000000E+00  0.00000000E+00
  0.00000000E+00  0.00000000E+00  0.00000000E+00
  0.00000000E+00  0.00000000E+00  0.00000000E+00
  0.00000000E+00  0.00000000E+00  0.00000000E+00
  0.00000000E+00  0.00000000E+00  0.00000000E+00
  0.00000000E+00  0.00000000E+00  0.00000000E+00
  0.00000000E+00  0.00000000E+00  0.00000000E+00
  0.00000000E+00  0.00000000E+00  0.00000000E+00
  0.00000000E+00  0.00000000E+00  0.00000000E+00
  0.00000000E+00  0.00000000E+00  0.00000000E+00
  0.00000000E+00  0.00000000E+00  0.00000000E+00
  0.00000000E+00  0.00000000E+00  0.00000000E+00
  0.00000000E+00  0.00000000E+00  0.00000000E+00
  0.00000000E+00  0.00000000E+00  0.00000000E+00
  0.00000000E+00  0.00000000E+00  0.00000000E+00
  0.00000000E+00  0.00000000E+00  0.00000000E+00
  0.00000000E+00  0.00000000E+00  0.00000000E+00
  0.00000000E+00  0.00000000E+00  0.00000000E+00
  0.00000000E+00  0.00000000E+00  0.00000000E+00
  0.00000000E+00  0.00000000E+00  0.00000000E+00
  0.00000000E+00  0.00000000E+00  0.00000000E+00
  0.00000000E+00  0.00000000E+00  0.00000000E+00
  0.00000000E+00  0.00000000E+00  0.00000000E+00
  0.00000000E+00  0.00000000E+00  0.00000000E+00
  0.00000000E+00  0.00000000E+00  0.00000000E+00
  0.00000000E+00  0.00000000E+00  0.00000000E+00
  0.00000000E+00  0.00000000E+00  0.00000000E+00
  0.00000000E+00  0.00000000E+00  0.00000000E+00
  0.00000000E+00  0.00000000E+00  0.00000000E+00
  0.00000000E+00  0.00000000E+00  0.00000000E+00
  0.00000000E+00  0.00000000E+00  0.00000000E+00
  0.00000000E+00  0.00000000E+00  0.00000000E+00
  0.00000000E+00  0.00000000E+00  0.00000000E+00
  0.00000000E+00  0.00000000E+00  0.00000000E+00
  0.00000000E+00  0.00000000E+00  0.00000000E+00
  0.00000000E+00  0.00000000E+00  0.00000000E+00
  0.00000000E+00  0.00000000E+00  0.00000000E+00
  0.00000000E+00  0.00000000E+00  0.00000000E+00
  0.00000000E+00  0.00000000E+00  0.00000000E+00