Ge16 Sb61 Te108                         
   1.00000000000000     
    18.9531309270042918    0.0000000000000000    0.0000000000000013
     0.0000000000000032   18.9531309270042918    0.0000000000000013
     0.0000000000000000    0.0000000000000000   18.9531309270042918
   Ge   Sb   Te
    16    61   108
Direct
  0.1878865439172781  0.0654715124967883  0.4583346382395455
  0.0261378323774141  0.5053714605406905  0.0302607657928108
  0.5305711598456676  0.4546375720784883  0.5818313157387358
  0.7946522266891024  0.3374129805094626  0.4210056491538428
  0.1423425584158678  0.9995809973578580  0.2198398145974692
  0.2340949926790576  0.2805729460068345  0.5050471588570232
  0.6417890803915183  0.5634682889195594  0.0017642591772633
  0.7543082342269042  0.4113285601197940  0.6409069834318400
  0.2050287034479522  0.1333033957735054  0.0939110928512895
  0.1642240964804914  0.1936812646015618  0.5983783577946541
  0.2511175245414012  0.4685073508084809  0.5106792561603050
  0.2201761804851420  0.3556119552711575 -0.0083387862908282
  0.6739920081326205  0.9106079243478494  0.3020631441027486
  0.3545747388964315  0.7613976298425909  0.4577513357812941
  0.8346922930302402  0.1549776919169343  0.0807094206257314
  0.7422048285546734  0.7459867875634942  0.2176269877051736
  0.7943027621000349  0.7373037194144161  0.6002615873476129
  0.0075937486400165  0.7252169274769162  0.1370180096104890
  0.9449400928962147  0.9630295364979616  0.8883201952470637
  0.0804954033742373  0.3245964223557498  0.1247944683631408
  0.4768493320826478  0.9199823358142203  0.1645196332588403
  0.8832864651145717  0.8273739859144600  0.8134685386308954
  0.1143569791985049  0.7858895403603104  0.3303989524953680
  0.3245300398343947  0.9577680063173580  0.7309762297355680
  0.8713867190664841  0.8634125260144614  0.5460470428083296
  0.0499677865603069  0.7096774918558464  0.8916129384867604
  0.7782790412895431  0.0401214102023253  0.6415983822236118
  0.3321645490123173  0.6816667551485687  0.6678124761818913
  0.5409820939480486  0.0298656930788817  0.6755761204556613
  0.8401850307168293  0.5292948531066931  0.8090884700985752
  0.6033242130024254  0.2732099504924754  0.6912691275723198
  0.4509200305074721  0.2537136404156378  0.6959936601165103
 -0.0075803817833172  0.0759327867533439  0.6248812839622451
  0.6492538325548163  0.6769645365755811  0.4704896821703885
  0.9759902280211842  0.5106181781367085  0.2056665674416425
  0.5880546583380220  0.8108979570777126  0.0551533891102251
  0.7280013661292287  0.6342041110920645  0.1250790291256516
  0.7193924486430654  0.5107879997708279  0.2240280386797384
  0.4114100196270892  0.2706893575427731  0.3086461901156480
  0.5618940523739417  0.3827954644048272  0.2134100491293311
  0.0130586928203104  0.2108627069050553  0.4447845861030251
  0.0584468989705348  0.2750471902774270  0.7593758623450142
  0.7496894754212188  0.4044199026448763  0.1122814672372049
  0.4796061450503064  0.0475236125782470  0.3694903599924780
  0.3959608167141851  0.5231038783743929 -0.0037900520446558
  0.0479215759795968  0.6536035541647411  0.6092013726645721
  0.1454257015371275  0.0473551823935025  0.6112696433136716
  0.3000118221931476  0.1590090468575793  0.2929600621043005
  0.4309345129590543  0.4123938126440187  0.8894473615657049
  0.9126951870329054  0.8658378150294991  0.0043185682260362
  0.3228369267735464  0.7697237971622056  0.2246323675888772
  0.5333691919551701  0.2814913556190431  0.9453472815477769
  0.6064395628145409  0.0246065442360561  0.4653161267993178
  0.1333248727350893  0.5832243598987578  0.7762574664936828
  0.3913720327406138  0.6217755404810120  0.8009946643795739
  0.9983112171815487  0.3589129294436449  0.3912503127379857
  0.8703911732275011  0.1364759666413382  0.4363628276954863
  0.7313680019412462  0.7680006389976308  0.0117022693185514
  0.7912168357106052  0.0851877162352398  0.2233909333629227
  0.7913061815557705  0.5343440100546857  0.5356372266791348
  0.1928544820533522  0.8780353569982207  0.5585655706338412
  0.9178590793738832  0.9621438185429744  0.3152139048026196
  0.0264849090069164  0.0495276298247260  0.0201242987784075
  0.2628836916116143  0.4879659152084929  0.2800842476376391
  0.8745113871535346  0.3419566612567085  0.3003508956035524
  0.1890201396031830  0.4601622290710345  0.8551043795580249
  0.9953227948432434  0.7257301441930057  0.4121126357793833
  0.4464606577129172  0.8976296612741590  0.9155608127109155
  0.5163978790533469  0.9215648542500116  0.5359478797243159
  0.6559897844416035  0.4247537338615858  0.8562031678871778
  0.3081286982361557  0.0010976218697419  0.0773924101741841
  0.4744826098473713  0.6966230273438503  0.5158894434184410
  0.6380828119662536  0.1560774504480022  0.0439950510729662
  0.1410716521897092  0.3896400300021883  0.6977703553442384
  0.8106687149493774  0.0871305530185754  0.8730760474320134
  0.7331998703297250  0.9356489727548346  0.5384891109837907
  0.0859999112928250  0.9126954550858669  0.8449581332575329
  0.1715358215387044  0.9433912042256972  0.0907334061089170
  0.3006080807237905  0.6490432528530091  0.1359603354873582
  0.0427782092640300  0.8852449102190169  0.2380361264939477
  0.4928899024750527  0.2506428563522899  0.1796929691391590
  0.1868176330265795  0.2492136503733614  0.3383275042400096
  0.0845483413625945  0.6591083821172392  0.2474034717160268
  0.5340725658141359  0.3971717964004838  0.7433138413217306
  0.0722206233827064  0.1163515254104302  0.1569271597836470
  0.2289507998985077  0.7358558864656825  0.5149487468391973
  0.2672592535457258  0.6717412486475670  0.8710892269016791
  0.7684609879918112  0.0162380786990728  0.3588330987136807
  0.3272637595837625  0.9428739002776907  0.5805620865495034
  0.2326827845587241  0.2750366723627942  0.1190060494551778
  0.9038660956092730  0.9405892261886448  0.6717419187612411
  0.7156653928761969  0.4526308877922802  0.4283984020453138
  0.2301331735246005  0.6019201139969031  0.3779998420686592
  0.5077452526321846  0.1921950363447030  0.3913344826278660
  0.4710449902323435  0.7780174556063493  0.2350562380292813
  0.2449556984795983  0.5538759510125635 -0.0333687226785597
  0.0071354719132935  0.0954972502501582  0.7727747766135313
  0.6943008979888171  0.1948369402563014  0.8912633526355451
  0.9362403947319846  0.4106505495481687  0.0981472164543802
  0.0626014427486902  0.5936300046825386  0.4711610231833307
  0.8932666329644141  0.4024013962228489  0.7421091137445827
  0.2910274934390996  0.8488911897385288  0.9040396497592493
  0.7265960345522037  0.8773833950735603  0.1683488594094484
  0.3427219481766165  0.4835108121419747  0.7769735689617118
  0.2181444847399648  0.5691704488974723  0.6550842070080108
  0.5774345504407825  0.6466283945248755  0.1098916943464874
  0.8765098859957841  0.1714477039892924  0.7638306780258921
  0.7806299430339230  0.4763201092056453  0.9362687462893912
  0.0822437341560274  0.3962036366604215  0.2706751617611086
  0.3225267675752935  0.2904407326961387  0.9063964518421056
  0.0291768386757259  0.7937842155475023  0.5420070735371626
  0.4687011058597885  0.7681156407931720  0.6440168474159541
  0.9858410661531243  0.0102771450642688  0.4384609545857917
  0.1424840595619328  0.4592382479171888  0.1038553463141761
  0.4715940355846747  0.1851302994545673  0.8435480771899552
  0.6366473179448083  0.3509262845943587  0.5640769246116549
  0.6965570116765450  0.6763505186512735  0.8984681761299190
  0.9308008873970860  0.1594895587161184  0.9751650619026996
  0.1312113405873169  0.3788190309392291  0.5400480275104063
  0.6548195258094226  0.1594542099766297  0.2196076991146676
  0.3907041311613551  0.5818498337150487  0.5661799986556888
  0.0260369719284688  0.2352652594270525  0.6119434735441784
  0.3018129302695696 -0.0036447269096362  0.9053373109167262
  0.6304118442721013  0.1179098243376213  0.5844929703798017
  0.7983726373976594  0.6514263886478368  0.4395742588163227
  0.5020237020551535  0.4871381294376200  0.4270666366711754
  0.0428041927478803  0.4399564268526722  0.9041532478549662
  0.6395112384188283  0.5799180076888999  0.5839645529004981
  0.2070257510488162  0.7455011645857750  0.0689305124017966
  0.8981996605828984  0.6383362825309201  0.6487679189625405
  0.1876509175954128  0.0333705068510640  0.7550674710387271
  0.5044222519955126  0.8563863138826638  0.3961139589587464
  0.6304321990557442  0.8476925353553716  0.6031113003647246
  0.1015790311714278  0.1230297162960512  0.3519478354459230
  0.8735779256681219  0.3445320433807855  0.5356813459755814
  0.9368801455845582  0.4776142524403724  0.4990033667203981
  0.9198316696456440  0.9772923326829501  0.1079860376960360
  0.3667351265189474  0.8568412382544409  0.0722153759693882
  0.5825326709315337  0.6004289521634134  0.3584799739904335
  0.6095437321197491  0.7737028214037146  0.8245582023447778
  0.5839655673956314  0.0194399697847972  0.2517546150389467
  0.2018069194598539  0.2366515684654195  0.7321032288020468
  0.0966047435576396  0.6446471568845288  0.0408841526432780
  0.7750869528231265  0.8857033085554948  0.9277093470892023
  0.3231797625339665  0.1092217042678123  0.4324605864408191
  0.8984601191987606  0.6208901829589565  0.1201549303825536
  0.7466178385482456  0.0485972020483869  0.0407307105383696
  0.4076285909340472  0.2716694152197501  0.0315166521109927
  0.3956077360356041  0.4317668189522780  0.1153091221515183
  0.4015872668369841  0.5287884752925472  0.2312919457660929
  0.3572893771484719  0.6712605762788290  0.3423901134010921
  0.0979159292258177  0.2848166594159718  0.9527304126569850
  0.7625161002258622  0.2621673867331190  0.0128879778713012
  0.8995826083587972  0.1708944340217192  0.2938356662464330
  0.9011361946263406  0.7049638236320437  0.9100374046499601
  0.3659016162539959  0.0049533149027061  0.2239626616714968
  0.5074773908983624  0.7524940823828069  0.9378168068672353
  0.4139264365055944  0.1066738271705610  0.6591529015701177
  0.5478934106544152  0.5327968233148799  0.8921855956724110
  0.0798246967089004  0.8317821636834023  0.9762787359578893
  0.8672744845828588  0.8299340175776262  0.3701554360161455
  0.7190726271489930 -0.0037902199203788  0.7724051579715997
  0.7005616471525136  0.3180693372950005  0.2305502586852125
  0.2596945542649281  0.8181746934154699  0.7579846920964305
  0.8774661857679699  0.7267514752743519  0.2563950591947701
  0.6454744918580069  0.7499023245720763  0.3164172317340939
  0.3130883131666219  0.3673450390150984  0.6007210846406503
  0.1605084827396238  0.1448317486651615  0.9591997243158403
  0.4805177092594888  0.8933952167761805  0.7696902121813238
  0.1868959208231677  0.9259541422956634  0.4148634142310912
  0.7027419429051094  0.5192436586002286  0.7459360622761195
  0.6127567035100938  0.4190655709238206  0.0532326145286591
  0.4446132523524741  0.3287338446266423  0.5470763375276688
  0.8518490389876608  0.4988259344999696  0.3018884882710895
  0.5953371655657184  0.9450841591343422  0.9676262486544378
  0.2968011855623021  0.3913898923628795  0.3919010304410095
  0.7666081769000729  0.3182723508066223  0.7511985220737761
  0.7504661478500245  0.7999594117208040  0.7323136519462088
  0.0388601061505473  0.7985298137620199  0.7591411667187208
  0.5209827830686733  0.0435045156637978  0.0467334613308290
  0.5562074846309175  0.3621087416736131  0.3710835154791446
  0.0296888437459399  0.5050330855312961  0.6951070303243343
  0.5936149538897404  0.0945054191053319  0.8056959498058466
  0.7323238048737516  0.2169854487530170  0.4377173503382391
  0.3542242795371681  0.8870402392094560  0.3931840397412921
 
  0.00000000E+00  0.00000000E+00  0.00000000E+00
  0.00000000E+00  0.00000000E+00  0.00000000E+00
  0.00000000E+00  0.00000000E+00  0.00000000E+00
  0.00000000E+00  0.00000000E+00  0.00000000E+00
  0.00000000E+00  0.00000000E+00  0.00000000E+00
  0.00000000E+00  0.00000000E+00  0.00000000E+00
  0.00000000E+00  0.00000000E+00  0.00000000E+00
  0.00000000E+00  0.00000000E+00  0.00000000E+00
  0.00000000E+00  0.00000000E+00  0.00000000E+00
  0.00000000E+00  0.00000000E+00  0.00000000E+00
  0.00000000E+00  0.00000000E+00  0.00000000E+00
  0.00000000E+00  0.00000000E+00  0.00000000E+00
  0.00000000E+00  0.00000000E+00  0.00000000E+00
  0.00000000E+00  0.00000000E+00  0.00000000E+00
  0.00000000E+00  0.00000000E+00  0.00000000E+00
  0.00000000E+00  0.00000000E+00  0.00000000E+00
  0.00000000E+00  0.00000000E+00  0.00000000E+00
  0.00000000E+00  0.00000000E+00  0.00000000E+00
  0.00000000E+00  0.00000000E+00  0.00000000E+00
  0.00000000E+00  0.00000000E+00  0.00000000E+00
  0.00000000E+00  0.00000000E+00  0.00000000E+00
  0.00000000E+00  0.00000000E+00  0.00000000E+00
  0.00000000E+00  0.00000000E+00  0.00000000E+00
  0.00000000E+00  0.00000000E+00  0.00000000E+00
  0.00000000E+00  0.00000000E+00  0.00000000E+00
  0.00000000E+00  0.00000000E+00  0.00000000E+00
  0.00000000E+00  0.00000000E+00  0.00000000E+00
  0.00000000E+00  0.00000000E+00  0.00000000E+00
  0.00000000E+00  0.00000000E+00  0.00000000E+00
  0.00000000E+00  0.00000000E+00  0.00000000E+00
  0.00000000E+00  0.00000000E+00  0.00000000E+00
  0.00000000E+00  0.00000000E+00  0.00000000E+00
  0.00000000E+00  0.00000000E+00  0.00000000E+00
  0.00000000E+00  0.00000000E+00  0.00000000E+00
  0.00000000E+00  0.00000000E+00  0.00000000E+00
  0.00000000E+00  0.00000000E+00  0.00000000E+00
  0.00000000E+00  0.00000000E+00  0.00000000E+00
  0.00000000E+00  0.00000000E+00  0.00000000E+00
  0.00000000E+00  0.00000000E+00  0.00000000E+00
  0.00000000E+00  0.00000000E+00  0.00000000E+00
  0.00000000E+00  0.00000000E+00  0.00000000E+00
  0.00000000E+00  0.00000000E+00  0.00000000E+00
  0.00000000E+00  0.00000000E+00  0.00000000E+00
  0.00000000E+00  0.00000000E+00  0.00000000E+00
  0.00000000E+00  0.00000000E+00  0.00000000E+00
  0.00000000E+00  0.00000000E+00  0.00000000E+00
  0.00000000E+00  0.00000000E+00  0.00000000E+00
  0.00000000E+00  0.00000000E+00  0.00000000E+00
  0.00000000E+00  0.00000000E+00  0.00000000E+00
  0.00000000E+00  0.00000000E+00  0.00000000E+00
  0.00000000E+00  0.00000000E+00  0.00000000E+00
  0.00000000E+00  0.00000000E+00  0.00000000E+00
  0.00000000E+00  0.00000000E+00  0.00000000E+00
  0.00000000E+00  0.00000000E+00  0.00000000E+00
  0.00000000E+00  0.00000000E+00  0.00000000E+00
  0.00000000E+00  0.00000000E+00  0.00000000E+00
  0.00000000E+00  0.00000000E+00  0.00000000E+00
  0.00000000E+00  0.00000000E+00  0.00000000E+00
  0.00000000E+00  0.00000000E+00  0.00000000E+00
  0.00000000E+00  0.00000000E+00  0.00000000E+00
  0.00000000E+00  0.00000000E+00  0.00000000E+00
  0.00000000E+00  0.00000000E+00  0.00000000E+00
  0.00000000E+00  0.00000000E+00  0.00000000E+00
  0.00000000E+00  0.00000000E+00  0.00000000E+00
  0.00000000E+00  0.00000000E+00  0.00000000E+00
  0.00000000E+00  0.00000000E+00  0.00000000E+00
  0.00000000E+00  0.00000000E+00  0.00000000E+00
  0.00000000E+00  0.00000000E+00  0.00000000E+00
  0.00000000E+00  0.00000000E+00  0.00000000E+00
  0.00000000E+00  0.00000000E+00  0.00000000E+00
  0.00000000E+00  0.00000000E+00  0.00000000E+00
  0.00000000E+00  0.00000000E+00  0.00000000E+00
  0.00000000E+00  0.00000000E+00  0.00000000E+00
  0.00000000E+00  0.00000000E+00  0.00000000E+00
  0.00000000E+00  0.00000000E+00  0.00000000E+00
  0.00000000E+00  0.00000000E+00  0.00000000E+00
  0.00000000E+00  0.00000000E+00  0.00000000E+00
  0.00000000E+00  0.00000000E+00  0.00000000E+00
  0.00000000E+00  0.00000000E+00  0.00000000E+00
  0.00000000E+00  0.00000000E+00  0.00000000E+00
  0.00000000E+00  0.00000000E+00  0.00000000E+00
  0.00000000E+00  0.00000000E+00  0.00000000E+00
  0.00000000E+00  0.00000000E+00  0.00000000E+00
  0.00000000E+00  0.00000000E+00  0.00000000E+00
  0.00000000E+00  0.00000000E+00  0.00000000E+00
  0.00000000E+00  0.00000000E+00  0.00000000E+00
  0.00000000E+00  0.00000000E+00  0.00000000E+00
  0.00000000E+00  0.00000000E+00  0.00000000E+00
  0.00000000E+00  0.00000000E+00  0.00000000E+00
  0.00000000E+00  0.00000000E+00  0.00000000E+00
  0.00000000E+00  0.00000000E+00  0.00000000E+00
  0.00000000E+00  0.00000000E+00  0.00000000E+00
  0.00000000E+00  0.00000000E+00  0.00000000E+00
  0.00000000E+00  0.00000000E+00  0.00000000E+00
  0.00000000E+00  0.00000000E+00  0.00000000E+00
  0.00000000E+00  0.00000000E+00  0.00000000E+00
  0.00000000E+00  0.00000000E+00  0.00000000E+00
  0.00000000E+00  0.00000000E+00  0.00000000E+00
  0.00000000E+00  0.00000000E+00  0.00000000E+00
  0.00000000E+00  0.00000000E+00  0.00000000E+00
  0.00000000E+00  0.00000000E+00  0.00000000E+00
  0.00000000E+00  0.00000000E+00  0.00000000E+00
  0.00000000E+00  0.00000000E+00  0.00000000E+00
  0.00000000E+00  0.00000000E+00  0.00000000E+00
  0.00000000E+00  0.00000000E+00  0.00000000E+00
  0.00000000E+00  0.00000000E+00  0.00000000E+00
  0.00000000E+00  0.00000000E+00  0.00000000E+00
  0.00000000E+00  0.00000000E+00  0.00000000E+00
  0.00000000E+00  0.00000000E+00  0.00000000E+00
  0.00000000E+00  0.00000000E+00  0.00000000E+00
  0.00000000E+00  0.00000000E+00  0.00000000E+00
  0.00000000E+00  0.00000000E+00  0.00000000E+00
  0.00000000E+00  0.00000000E+00  0.00000000E+00
  0.00000000E+00  0.00000000E+00  0.00000000E+00
  0.00000000E+00  0.00000000E+00  0.00000000E+00
  0.00000000E+00  0.00000000E+00  0.00000000E+00
  0.00000000E+00  0.00000000E+00  0.00000000E+00
  0.00000000E+00  0.00000000E+00  0.00000000E+00
  0.00000000E+00  0.00000000E+00  0.00000000E+00
  0.00000000E+00  0.00000000E+00  0.00000000E+00
  0.00000000E+00  0.00000000E+00  0.00000000E+00
  0.00000000E+00  0.00000000E+00  0.00000000E+00
  0.00000000E+00  0.00000000E+00  0.00000000E+00
  0.00000000E+00  0.00000000E+00  0.00000000E+00
  0.00000000E+00  0.00000000E+00  0.00000000E+00
  0.00000000E+00  0.00000000E+00  0.00000000E+00
  0.00000000E+00  0.00000000E+00  0.00000000E+00
  0.00000000E+00  0.00000000E+00  0.00000000E+00
  0.00000000E+00  0.00000000E+00  0.00000000E+00
  0.00000000E+00  0.00000000E+00  0.00000000E+00
  0.00000000E+00  0.00000000E+00  0.00000000E+00
  0.00000000E+00  0.00000000E+00  0.00000000E+00
  0.00000000E+00  0.00000000E+00  0.00000000E+00
  0.00000000E+00  0.00000000E+00  0.00000000E+00
  0.00000000E+00  0.00000000E+00  0.00000000E+00
  0.00000000E+00  0.00000000E+00  0.00000000E+00
  0.00000000E+00  0.00000000E+00  0.00000000E+00
  0.00000000E+00  0.00000000E+00  0.00000000E+00
  0.00000000E+00  0.00000000E+00  0.00000000E+00
  0.00000000E+00  0.00000000E+00  0.00000000E+00
  0.00000000E+00  0.00000000E+00  0.00000000E+00
  0.00000000E+00  0.00000000E+00  0.00000000E+00
  0.00000000E+00  0.00000000E+00  0.00000000E+00
  0.00000000E+00  0.00000000E+00  0.00000000E+00
  0.00000000E+00  0.00000000E+00  0.00000000E+00
  0.00000000E+00  0.00000000E+00  0.00000000E+00
  0.00000000E+00  0.00000000E+00  0.00000000E+00
  0.00000000E+00  0.00000000E+00  0.00000000E+00
  0.00000000E+00  0.00000000E+00  0.00000000E+00
  0.00000000E+00  0.00000000E+00  0.00000000E+00
  0.00000000E+00  0.00000000E+00  0.00000000E+00
  0.00000000E+00  0.00000000E+00  0.00000000E+00
  0.00000000E+00  0.00000000E+00  0.00000000E+00
  0.00000000E+00  0.00000000E+00  0.00000000E+00
  0.00000000E+00  0.00000000E+00  0.00000000E+00
  0.00000000E+00  0.00000000E+00  0.00000000E+00
  0.00000000E+00  0.00000000E+00  0.00000000E+00
  0.00000000E+00  0.00000000E+00  0.00000000E+00
  0.00000000E+00  0.00000000E+00  0.00000000E+00
  0.00000000E+00  0.00000000E+00  0.00000000E+00
  0.00000000E+00  0.00000000E+00  0.00000000E+00
  0.00000000E+00  0.00000000E+00  0.00000000E+00
  0.00000000E+00  0.00000000E+00  0.00000000E+00
  0.00000000E+00  0.00000000E+00  0.00000000E+00
  0.00000000E+00  0.00000000E+00  0.00000000E+00
  0.00000000E+00  0.00000000E+00  0.00000000E+00
  0.00000000E+00  0.00000000E+00  0.00000000E+00
  0.00000000E+00  0.00000000E+00  0.00000000E+00
  0.00000000E+00  0.00000000E+00  0.00000000E+00
  0.00000000E+00  0.00000000E+00  0.00000000E+00
  0.00000000E+00  0.00000000E+00  0.00000000E+00
  0.00000000E+00  0.00000000E+00  0.00000000E+00
  0.00000000E+00  0.00000000E+00  0.00000000E+00
  0.00000000E+00  0.00000000E+00  0.00000000E+00
  0.00000000E+00  0.00000000E+00  0.00000000E+00
  0.00000000E+00  0.00000000E+00  0.00000000E+00
  0.00000000E+00  0.00000000E+00  0.00000000E+00
  0.00000000E+00  0.00000000E+00  0.00000000E+00
  0.00000000E+00  0.00000000E+00  0.00000000E+00
  0.00000000E+00  0.00000000E+00  0.00000000E+00
  0.00000000E+00  0.00000000E+00  0.00000000E+00
  0.00000000E+00  0.00000000E+00  0.00000000E+00
  0.00000000E+00  0.00000000E+00  0.00000000E+00
  0.00000000E+00  0.00000000E+00  0.00000000E+00
  0.00000000E+00  0.00000000E+00  0.00000000E+00
