SYSTEM = GST225 crystalline ISIF=3 relax (prep for phonon_dos)

ENCUT  = 400
PREC   = Accurate
EDIFF  = 1.0E-5
EDIFFG = -0.02
ALGO   = Fast
AMIN   = 0.01
ISMEAR = 0
SIGMA  = 0.05
ISIF   = 3
IBRION = 2
NSW    = 200
NELM   = 200
NELMIN = 4
ISYM   = 0
LREAL  = Auto
LWAVE  = .FALSE.
LCHARG = .FALSE.
NCORE  = 16
