In6 Sb2 Te4                             
   1.00000000000000     
     4.4087335927444089   -0.0000000000000000    0.0000000000000003
    -0.0000000000000004    6.2298865736678088    0.0000000000000004
    -0.0000000000000000   -0.0000000000000000   13.2145061142142222
   In   Sb   Te
     6     2     4
Direct
 -0.0000000000000000 -0.0000000000000000  0.6591485513413210
  0.5000000000000000  0.5000000000000000  0.8408514486586790
  0.5000000000000000  0.5000000000000000  0.1591485513413210
  0.0000000000000000  0.0000000000000000  0.3408514486586791
  0.0000000000000000  0.0000000000000000  0.0000000000000000
  0.5000000000000000  0.5000000000000000  0.5000000000000000
  0.0000000000000000  0.5000000000000000  0.0000000000000000
  0.5000000000000000 -0.0000000000000000  0.5000000000000000
  0.0000000000000000  0.5000000000000000  0.6723883066674410
  0.5000000000000000 -0.0000000000000000  0.8276116933325590
  0.5000000000000000  0.0000000000000000  0.1723883066674410
 -0.0000000000000000  0.5000000000000000  0.3276116933325591
 
  0.00000000E+00  0.00000000E+00  0.00000000E+00
  0.00000000E+00  0.00000000E+00  0.00000000E+00
  0.00000000E+00  0.00000000E+00  0.00000000E+00
  0.00000000E+00  0.00000000E+00  0.00000000E+00
  0.00000000E+00  0.00000000E+00  0.00000000E+00
  0.00000000E+00  0.00000000E+00  0.00000000E+00
  0.00000000E+00  0.00000000E+00  0.00000000E+00
  0.00000000E+00  0.00000000E+00  0.00000000E+00
  0.00000000E+00  0.00000000E+00  0.00000000E+00
  0.00000000E+00  0.00000000E+00  0.00000000E+00
  0.00000000E+00  0.00000000E+00  0.00000000E+00
  0.00000000E+00  0.00000000E+00  0.00000000E+00
