Ce1 Se2
1.0
   6.3841999999999999   -2.1525870000000000    0.0000000000000000
   6.3841999999999999    2.1525870000000000    0.0000000000000000
   5.6584029999999998    0.0000000000000000    3.6570640000000001
Ce Se
1 2
direct
   0.0000000000000000    0.0000000000000000    0.0000000000000000 Ce
   0.7431540000000000    0.7431540000000000    0.7431540000000000 Se
   0.2568459999999990    0.2568459999999990    0.2568459999999990 Se
