Amorphous AlTe                          
   1.00000000000000     
    20.6572922372385506    0.0000000000000000    0.0000000000000000
     0.0000000000000000   20.6572922372385506    0.0000000000000000
     0.0000000000000000    0.0000000000000000   20.6572922372385506
   Al   Te
   150   150
Direct
  0.5331009968617991  0.5868170968980959  0.9544154248660204
  0.0026826330248953  0.6198072424380606  0.6220681260820271
  0.4851708986767447  0.0980027457404613  0.6641421163811595
  0.9071098970379150  0.1936649835496414  0.8111625629151347
  0.4886448873833380  0.1978709594737255  0.4415198236493774
  0.2095966355754848  0.5838323156417798  0.5156165902065261
  0.1609481382510440  0.7334871209910144  0.9143134346710299
  0.7522607330181296  0.0790102507073760  0.1062432854553114
  0.8980363339676404  0.9362131121285976  0.4034964713422011
  0.6299309612396147  0.3687480322788750  0.5243953695954279
  0.3123341206195695  0.3519928464813383  0.4841336553349133
  0.2838118717027479  0.1143697913890750  0.6844114440187488
  0.1041476910540865  0.3442247304872239  0.8530550623226762
  0.9695167169913195  0.0431743937343039  0.5646213160040827
  0.3438287138343832  0.7463496455660477  0.8002873591225844
  0.7756293155946382  0.6983108442616752  0.0486489168589385
  0.8531677023394553  0.7918564461350871  0.5166196511490376
  0.2768881053829873  0.9827842344864586  0.2257220708682725
  0.3849876870414599  0.0727470844865656  0.5706145576997534
  0.7776510500073878  0.1432800412248634  0.2642816748865068
  0.8891496661036785  0.9493085647612396  0.5888955498032158
  0.5647287862860041  0.1943121221245691  0.7888716368890261
  0.7676653722880984  0.1405997481202026  0.8621977890180431
  0.1442568946566450  0.0823703851609437  0.9320387324048949
  0.5506087236479389  0.2182242035774729  0.0135762160857750
  0.1974241069374906  0.1289997991169377  0.2925561922644566
  0.8905190581006812  0.0112032641055085  0.1122710878937299
  0.5747832837746881  0.9730246454493682  0.7878258246445793
  0.3277222341979058  0.7002637324947293  0.5741047786865199
  0.9201975314301354  0.1490824746217670  0.5127707324094958
  0.7501857976857346  0.8967110316589021  0.0452717197174599
  0.7956669055142046  0.4745433451801972  0.5885387715813698
  0.9700939376108322  0.7224284490022080  0.1235856675908714
  0.2002695774598336  0.1035290705106495  0.7775619972381540
  0.8631448297019374  0.0898559359158117  0.6454135538010046
  0.5942045345826173  0.1271459546606366  0.3522702186811927
  0.9495581335333736  0.8690760095815703  0.8489694364355198
  0.6784405335969557  0.7177558823448813  0.4496185075157316
  0.2582864997815571  0.9030272372852562  0.6213148024411725
  0.5488102400498044  0.4708273864433146  0.0821254378665864
  0.4497616248865691  0.0822291092669356  0.1537475960039770
  0.9590966944022991  0.5524953128112804  0.4385779235431180
  0.5142670054846525  0.8931983999626431  0.2448956207191244
  0.6849631467548470  0.9211588894431283  0.6090458613817061
  0.4874968872653104  0.3092719776700316  0.9585230616150395
  0.4549951517296290  0.4621266230294721  0.4724646901493800
  0.0478944011228721  0.7365425430760305  0.4822246293564117
  0.0589152486194584  0.1750731697379770  0.5661126027609157
  0.4484655969042743  0.6900002734499275  0.0333106884106892
  0.7074261487270995  0.7205457158016459  0.8648687099487362
  0.3261868543336508  0.4966077574079198  0.0495078134153942
  0.0364692551601077  0.1145046230857140  0.8116610511218733
  0.9744452025681674  0.1191135262054131  0.7023690675111099
  0.1298487988051550  0.7993576330577440  0.2389476119853304
  0.0590327284364183  0.6482291070020969  0.1889474367087472
  0.7658111499341814  0.3846182653641165  0.6778797518726462
  0.5515042257315432  0.0216862244257560  0.1120997804175760
  0.8751656875311727  0.9904295688026267  0.7699090514705537
  0.7854724167711705  0.6137499902830705  0.3279169241935772
  0.3715404244532269  0.5240217504040952  0.1677757770926483
  0.8042039236893516  0.4592753692936012  0.8199555389201583
  0.3950703569838813  0.9807960811626195  0.7414763560692799
  0.0733689822815816  0.5042791747641190  0.4587078908606369
  0.9751754149767302  0.2319524561596575  0.6415322919245829
  0.7689773799995017  0.2950725585897822  0.7743165736388845
  0.3120443583540955  0.3517042265829320  0.6084562106294817
  0.4587083972321772  0.8147603364426008  0.7765702617161394
  0.5090616282103880  0.5149122970243435  0.2745228621651603
  0.9255941889913123  0.8445006979044242  0.1437511168882075
  0.3777320568625590  0.7801467298271058  0.1753869781010151
  0.2970177134669229  0.8115792391873333  0.0179847571335674
  0.3384995036596072  0.2047256937461955  0.0874000608162899
  0.4136028767565119  0.5472348738705192  0.8471148850869338
  0.2454220089410908  0.6242014538187454  0.7816021547197938
  0.3003263573355885  0.2288341942689573  0.6364893214208340
  0.7261519251980535  0.2866719632082929  0.1441735452662703
  0.1505400269983241  0.5395294205698857  0.9305264793566032
  0.0090706941467867  0.2059070819955649  0.3621166563281150
 -0.0014361624176943  0.4424260011394546  0.0561025588265259
  0.5476066684567259  0.3412209408657224  0.3606816662327811
  0.0057108892132982  0.7885481870969919  0.2317812839935556
  0.9765216712837403  0.7104419305090051  0.3243222365324768
  0.7871955508129944  0.7098475279528494  0.5856771923285422
  0.8142403632372677  0.0001850589256871  0.3263176396449120
  0.4391976007347106  0.1882624043385223  0.5854763454414371
  0.0218550835410902  0.8445326143205379  0.4217778936105547
  0.1580017666252196  0.5154704793566157  0.1421754628555786
  0.2367799366908327  0.0649312988632041  0.1287426525568886
  0.9049005905599281  0.2406510811036315  0.1047657372702149
  0.5255446384606863  0.3474705935520875  0.1398440434959420
  0.8717546817392454  0.3125288755438275  0.1993908065864936
  0.6385178626898276  0.8927372356892379  0.9848152231159151
  0.0572136528989522  0.3857220802443849  0.1663125334818852
  0.4268388814804513  0.3027515929595628  0.3787668756902374
  0.5162260194174902  0.4308066755500521  0.6467521029765041
  0.2053598123548903  0.6919449293678317  0.3417095379589338
  0.1519767316396272  0.8957512537414518  0.9574116284526526
  0.0215098720738401  0.2513290616094122  0.8441519073719542
  0.6155707830819778  0.6936396804273105  0.2926942645950334
  0.1221622798455438  0.3454167103103760  0.5938620847906423
  0.3309753548365256  0.6609907936062742  0.3588841157872126
  0.0799207203350814  0.9725958083148226  0.2247033045950395
  0.6605855856716231  0.8406435227155775  0.4076592617558866
  0.5735337837847999  0.6975103883645687  0.0082405161197262
  0.3014650618731466  0.3829785599323690  0.9942251646843432
  0.7956734252577315  0.0059674863914044  0.1999207741517303
  0.9133036845469995  0.8204937190092831  0.7037043249727625
  0.1951566565108846  0.1903151686976883  0.4002250102089716
  0.5989735655745781  0.4709593024634562  0.1979792470642164
  0.3471500329506962  0.0481020387523058  0.3782150343721825
  0.9181877937926076  0.5462167703386185  0.6779964801948720
  0.4071237412703107  0.3264194121224371  0.7592787638608884
  0.3823993269771694  0.7959207676793948  0.6784958554032690
  0.3995172401291537  0.0904587040541961  0.2689821582548278
  0.6751950051585701  0.5463384433809485  0.4192878735735408
  0.3183104462164169  0.2862288476917317  0.3193007397023490
  0.2890388625038527  0.8832875592987832  0.3185841327428091
  0.9781569707798166  0.4832789454368281  0.8291386684755414
  0.9351717208490610  0.3542272670632831  0.5008161993332312
  0.2712565502401973  0.8423760659504450  0.8311552679988422
  0.2693427256876424  0.2358519277915573  0.8814470966849135
  0.1249567945773398  0.6212866220739883  0.7598846214764724
  0.6107185553147281  0.3741718466738736  0.7133403666039083
  0.9273706158427490  0.4168525176901894  0.6690291344877830
  0.6602694890709017  0.0937688995551765  0.9159448668846042
  0.1246007267323064  0.7592394511499031  0.5756409367142525
  0.6508315264824249  0.5864839254113703  0.0202225026559880
  0.9372539389390777  0.8226741324915610  0.0214578404820714
  0.1573987554442852  0.4153308395083696  0.7664406629204250
  0.5310898398630393  0.7104867308677275  0.7671149667472135
  0.4239043610043588  0.5607780484502332  0.5371544416654416
  0.6733813910616916 -0.0057619305786681  0.2733980347501898
  0.9228522070596937  0.5580928239080660  0.1163063604960230
  0.8936517440836087  0.0732641332718077  0.4116632615612509
  0.5586706892087671  0.1276995654552554  0.5495407491360104
  0.8827882928802854  0.1027183163344787  0.2076667496787137
  0.6539471005058860  0.8247289658299402  0.5366143308345268
  0.6059904683864830  0.6392623187675252  0.1810373530149898
  0.4007735267637402  0.9526439965810625  0.2750620154072436
  0.4525468151429208  0.8564590681900603  0.0563377229853570
  0.3082127446713842  0.3861946957013897  0.2441402302338342
  0.9680766307609934  0.4732000541640418  0.1929027740430725
  0.1734859919368144  0.2937038760623813  0.1397812735850446
  0.6134264516277724  0.1907309183011152  0.4575835424162694
  0.6038087715435471  0.9383019616005532  0.4669544614639261
  0.8064064067915864  0.7804322081134292  0.8182542948443263
  0.5072100528507867  0.8435084835881622  0.6546837064569839
  0.3816919042466299  0.2475356004872404  0.4880273282124394
  0.8401492170575448  0.4013646728808222  0.0132983641333644
  0.0420368392115693  0.2884631553354650  0.2762961466161707
  0.4841468845040998  0.1825909059100524  0.3067237611853643
  0.4925371801563792  0.2530670928223527  0.6944169090668172
  0.7396647675405655  0.7206326363344501  0.2794610926244032
  0.6061849719199397  0.3448734691431564  0.2413274133111280
  0.6518432003968889  0.0282720531256993  0.5435127653375038
  0.1923375515961074  0.3133210727932133  0.9448417308968017
  0.6019035742365559  0.0865728874634669  0.7266032415153916
  0.3635508369938751  0.2648370285238229  0.9652528851435302
  0.0642665745757623  0.5077025503184287  0.7377492048868558
  0.0106933489016011  0.9702604422062279  0.4599716628293873
  0.4682933678278131  0.0659369651665539  0.4697019425417742
  0.2752030277581739  0.9388211874203326  0.7443791542566028
  0.8898903519075843  0.7970164472794691  0.3904463802393924
  0.5221319183425259  0.9498469722628290  0.0074092368897600
  0.0013831828398717  0.9458636706154415  0.1220477626488228
  0.6017478116113152  0.4790977957023471  0.9664532071919787
  0.8111369332336756  0.0066204412275677  0.0103099397269544
  0.3057237295290777  0.1758113955247985  0.2343208916601550
  0.1429257696631956  0.4070018378393784  0.0716557819260090
  0.0390808172209895  0.1563452344869825  0.9373081578392354
  0.0833145268708751  0.6568576404023024  0.3839805626638905
  0.6195992819081599  0.8779579730681633  0.7138846281076457
  0.6918979087728971  0.5506570139012487  0.1402525136960863
  0.1460112856645163  0.0071417530161159  0.0346298207448962
  0.4907706267796730  0.3742261395613097  0.8472348035251737
  0.1670990224879984  0.7871294499116708  0.0320028986703585
  0.6960248903264443  0.4749247190809675  0.7468076815262824
  0.3085607829736232  0.5689191035277676  0.5982545947214459
  0.1009038804994115  0.5496940710739530  0.5760539324365076
  0.8538962984200281  0.6630404314133216  0.1486387334267859
  0.1388433769136445  0.8837418297125099  0.5913277147900482
  0.8004058204525585  0.5928866518360116  0.6440125655830782
  0.5208115854509050  0.5554031428145083  0.6219176437976942
  0.2171200058745608  0.5756331038920460  0.0367915643836440
  0.5684191615972778 -0.0029462730312849  0.3522287098172390
  0.6734334757794854  0.4882143930275260  0.5353553677216623
  0.6577629997988692  0.7049306023650606  0.5808333082947379
  0.8134848703502203  0.8014666531773217  0.9822322769002552
  0.9148885845365970  0.5945747557692006  0.3194520243993406
  0.4626883710422325  0.9317622389204430  0.8380864403242101
  0.6537305283430517  0.1196878227802455  0.2330743597442889
  0.0358839504996128  0.3401350478290300  0.6873330434414801
  0.2995746911122170  0.3300000006522757  0.1239140329250206
  0.6591890149756752  0.7335764474609372  0.0999772436231552
  0.6050974322871265  0.7853546829912996  0.9158081040427709
  0.0414660468148522  0.2586804921997636  0.1500723228105390
  0.4721148995913163  0.2142894536522098  0.1213453187645072
  0.2568279302191703  0.5060695645782649  0.2300203600270030
  0.2319019522644465  0.4984301085287032  0.8393765538351056
  0.2179885272109871  0.3147935845331690  0.4022493372888366
  0.2870741203243644  0.2826207359476059  0.7656787997862196
  0.9053974849077232  0.3796845699054823  0.7946867578041242
  0.4756771761435930  0.7103821442636937  0.6429238464453635
  0.3341589439969939  0.6918953638750682  0.0980865582044362
  0.6556570988613396  0.6848592127353155  0.7546111168518930
  0.7845038642307792  0.2008540492898217  0.0664924868272388
  0.9580426448186216  0.8335960771219941  0.5839050322974402
  0.9348517888818474  0.7465335978821462  0.8102786524269147
  0.6619896464663224  0.3048733637316793  0.4189075494920909
  0.4113667541563984  0.7889145438127723  0.9543924978469855
  0.3678121539488098  0.7797984953174700  0.3007402766021862
  0.8186863104960460  0.2550612589499177  0.8914386553500322
  0.6764259414880582  0.3031031469864341  0.6235157629092821
  0.8261935853081182  0.9051221990685222  0.8546245216442607
  0.0805518408540581  0.6375848044342611  0.8822394465550881
  0.3421549679286669  0.8904964708050823  0.1153086636990952
  0.3940854180719404  0.1058832605625229  0.7602019533396968
  0.6296345001934698  0.3104030133801094  0.0609258396928270
  0.6652579761795163  0.9700787054186126  0.8790358484105827
  0.9437512419873386  0.6617896113908770  0.5131564049765169
  0.4036249630737114  0.5783875778331403  0.9714866609851288
  0.5014487205123092  0.5887814629290523  0.1173294464066686
  0.4573850187447818  0.9749548009423693  0.6308684642590393
  0.9429763489342018  0.3809625633828473  0.2837386783373854
  0.3527476586922743  0.8396384137870325  0.5619947060003542
  0.3780603859542391  0.9250551408640492  0.4049020734454880
  0.7408077006911218  0.8919962034084147  0.3239333915217866
  0.3576919098213865  0.0773035496463318  0.0612669611646038
  0.0010194335602242  0.9043522772977252  0.3025409987657385
  0.7690874735175587  0.2723858929271689  0.2670346857115882
  0.2208713025387410  0.7111941938026914  0.5026815688221463
  0.0047671945294122  0.9124486316343977  0.9533191051500280
  0.7903244889826958  0.1703244736511990  0.7357150810310354
  0.1934431518079675  0.5106878558181449  0.4143790580656870
  0.6399954462310278  0.2951077381392764  0.8157615535788176
  0.7643428750504108  0.1027030418386686  0.3867417392217078
  0.0686467232878834  0.7121840800330521  0.6854647498088994
  0.3917153602871058  0.4263122593744427  0.6827854279101262
  0.8756169266662466  0.3106558424502987  0.6069191460318673
  0.3684879553916942  0.6160444672235842  0.7526502410866120
  0.7740666408220264  0.6316634026591079  0.4542584193324939
  0.9571126338545848  0.1224291205942024  0.1008429333273440
  0.7943268436252406  0.3978287886761896  0.1340992303679327
  0.8671297397215688  0.4618716490838654  0.4759611757973795
  0.0487718531492147  0.5741371241229369  0.0731655827962481
  0.7518564858919029  0.6220206246773137  0.9471551594703458
  0.2618794103128264  0.7435261516905481  0.6931241587034501
  0.8007759679425401  0.8768316185098896  0.1641723518102066
  0.1179696160381638  0.0125896169053229  0.8241066889569894
  0.1844178671331951  0.6853636613504531  0.2077826953159106
  0.5534296349533993  0.4702894729628584  0.3884461352397134
  0.5272473208786471  0.8464237946414593  0.5233734427995328
  0.4363954289214741  0.4179061211610202  0.2226505122881712
  0.8015148740887253  0.1517972932524475  0.5559383575847187
  0.3053890264278022  0.1468481763885084  0.4533373095343437
  0.2232398551172413  0.0128995447164319  0.3444823236409640
  0.1785322427786885  0.9025595376495560  0.1783788995415966
  0.9892078853793440  0.7112761158287341 -0.0004692107774364
  0.0733696628805580  0.5284211246301822  0.2474882025863961
  0.1801801021100185  0.2349315819345261  0.5753576326079579
  0.7515637935627080  0.4132763952197576  0.9247972059052436
  0.6198126567744137  0.9310491444156002  0.1737594909716231
  0.4482874161985804  0.3979263254947289  0.0442794638804438
  0.2086049562429602  0.4237912521403795  0.6464875120086898
  0.4078155414000115  0.6737561584312944  0.4677898021688560
  0.9432509371631044  0.3242226808279046  0.0091703505706478
  0.1492432163214262  0.3571224228464098  0.2569162843243349
  0.8830277173115934  0.0749955445269851  0.8664333910496397
  0.7274174766049796  0.5015049633560519  0.3131961719837855
  0.9666176251696295  0.0944853028047129  0.3045795963150251
  0.1390120586447627  0.8327063382280597  0.8379138843954131
  0.8834661262728265  0.5660095523931976  0.8085270236487915
  0.7907260697748617  0.9825507701671425  0.6728165364478623
  0.1169697191070728  0.0928864036404033  0.1992875875779606
  0.1795793304471960  0.8219194859162208  0.3579845773936216
  0.2076803867260647  0.1835400941133823  0.0714821957854245
  0.3610653533618053  0.4288461723330227  0.3933285415106882
  0.2651404764196522  0.0297570668211901  0.5830818192876991
  0.5565356629044318  0.8049960209416873  0.3348219551337633
  0.2813960511551592  0.9163845788047305  0.9366657220462213
  0.9059952183294278  0.2500729224666619  0.4263749759526195
  0.8050048078991524  0.9170434509146106  0.4973133757750089
  0.1198082681230640  0.2061937777019836  0.7614586518984332
  0.5336589858779663  0.5864304801269921  0.8239552929187138
  0.0745287504015290  0.0635271389576267  0.6333826067644063
  0.5841373511259679  0.6397820244466245  0.4065429909097421
  0.0610010804146440  0.3718297492142283  0.4810963078858927
  0.5035839975929328  0.7900865744770426  0.1540847045410670
  0.7889273495675425  0.7976079646662364  0.6886060001475869
  0.0846012917687682  0.1388091514068089  0.4426481863145033
  0.9830988755386035  0.9276996904224108  0.7381585575064997
  0.3612115721316124  0.4298216552332830  0.8643710161975910
  0.8966789636570196  0.5145915078889267  0.0006060815382477
  0.4166797540658199  0.6082826602335301  0.2672001795222361
  0.5017752126719787  0.3576307038114425  0.5376225281427387
  0.2639175394422921  0.1103180620350385  0.8936662722740080
  0.6360023209437085  0.1007184493427164  0.0467468584518611
  0.2729922318695390  0.6776484901507945  0.8973873238458412
  0.5368432931442737  0.1379621631920442  0.9029566857790330
  0.0549339372620877  0.4487675567463291  0.9279967440991554
 
  0.00000000E+00  0.00000000E+00  0.00000000E+00
  0.00000000E+00  0.00000000E+00  0.00000000E+00
  0.00000000E+00  0.00000000E+00  0.00000000E+00
  0.00000000E+00  0.00000000E+00  0.00000000E+00
  0.00000000E+00  0.00000000E+00  0.00000000E+00
  0.00000000E+00  0.00000000E+00  0.00000000E+00
  0.00000000E+00  0.00000000E+00  0.00000000E+00
  0.00000000E+00  0.00000000E+00  0.00000000E+00
  0.00000000E+00  0.00000000E+00  0.00000000E+00
  0.00000000E+00  0.00000000E+00  0.00000000E+00
  0.00000000E+00  0.00000000E+00  0.00000000E+00
  0.00000000E+00  0.00000000E+00  0.00000000E+00
  0.00000000E+00  0.00000000E+00  0.00000000E+00
  0.00000000E+00  0.00000000E+00  0.00000000E+00
  0.00000000E+00  0.00000000E+00  0.00000000E+00
  0.00000000E+00  0.00000000E+00  0.00000000E+00
  0.00000000E+00  0.00000000E+00  0.00000000E+00
  0.00000000E+00  0.00000000E+00  0.00000000E+00
  0.00000000E+00  0.00000000E+00  0.00000000E+00
  0.00000000E+00  0.00000000E+00  0.00000000E+00
  0.00000000E+00  0.00000000E+00  0.00000000E+00
  0.00000000E+00  0.00000000E+00  0.00000000E+00
  0.00000000E+00  0.00000000E+00  0.00000000E+00
  0.00000000E+00  0.00000000E+00  0.00000000E+00
  0.00000000E+00  0.00000000E+00  0.00000000E+00
  0.00000000E+00  0.00000000E+00  0.00000000E+00
  0.00000000E+00  0.00000000E+00  0.00000000E+00
  0.00000000E+00  0.00000000E+00  0.00000000E+00
  0.00000000E+00  0.00000000E+00  0.00000000E+00
  0.00000000E+00  0.00000000E+00  0.00000000E+00
  0.00000000E+00  0.00000000E+00  0.00000000E+00
  0.00000000E+00  0.00000000E+00  0.00000000E+00
  0.00000000E+00  0.00000000E+00  0.00000000E+00
  0.00000000E+00  0.00000000E+00  0.00000000E+00
  0.00000000E+00  0.00000000E+00  0.00000000E+00
  0.00000000E+00  0.00000000E+00  0.00000000E+00
  0.00000000E+00  0.00000000E+00  0.00000000E+00
  0.00000000E+00  0.00000000E+00  0.00000000E+00
  0.00000000E+00  0.00000000E+00  0.00000000E+00
  0.00000000E+00  0.00000000E+00  0.00000000E+00
  0.00000000E+00  0.00000000E+00  0.00000000E+00
  0.00000000E+00  0.00000000E+00  0.00000000E+00
  0.00000000E+00  0.00000000E+00  0.00000000E+00
  0.00000000E+00  0.00000000E+00  0.00000000E+00
  0.00000000E+00  0.00000000E+00  0.00000000E+00
  0.00000000E+00  0.00000000E+00  0.00000000E+00
  0.00000000E+00  0.00000000E+00  0.00000000E+00
  0.00000000E+00  0.00000000E+00  0.00000000E+00
  0.00000000E+00  0.00000000E+00  0.00000000E+00
  0.00000000E+00  0.00000000E+00  0.00000000E+00
  0.00000000E+00  0.00000000E+00  0.00000000E+00
  0.00000000E+00  0.00000000E+00  0.00000000E+00
  0.00000000E+00  0.00000000E+00  0.00000000E+00
  0.00000000E+00  0.00000000E+00  0.00000000E+00
  0.00000000E+00  0.00000000E+00  0.00000000E+00
  0.00000000E+00  0.00000000E+00  0.00000000E+00
  0.00000000E+00  0.00000000E+00  0.00000000E+00
  0.00000000E+00  0.00000000E+00  0.00000000E+00
  0.00000000E+00  0.00000000E+00  0.00000000E+00
  0.00000000E+00  0.00000000E+00  0.00000000E+00
  0.00000000E+00  0.00000000E+00  0.00000000E+00
  0.00000000E+00  0.00000000E+00  0.00000000E+00
  0.00000000E+00  0.00000000E+00  0.00000000E+00
  0.00000000E+00  0.00000000E+00  0.00000000E+00
  0.00000000E+00  0.00000000E+00  0.00000000E+00
  0.00000000E+00  0.00000000E+00  0.00000000E+00
  0.00000000E+00  0.00000000E+00  0.00000000E+00
  0.00000000E+00  0.00000000E+00  0.00000000E+00
  0.00000000E+00  0.00000000E+00  0.00000000E+00
  0.00000000E+00  0.00000000E+00  0.00000000E+00
  0.00000000E+00  0.00000000E+00  0.00000000E+00
  0.00000000E+00  0.00000000E+00  0.00000000E+00
  0.00000000E+00  0.00000000E+00  0.00000000E+00
  0.00000000E+00  0.00000000E+00  0.00000000E+00
  0.00000000E+00  0.00000000E+00  0.00000000E+00
  0.00000000E+00  0.00000000E+00  0.00000000E+00
  0.00000000E+00  0.00000000E+00  0.00000000E+00
  0.00000000E+00  0.00000000E+00  0.00000000E+00
  0.00000000E+00  0.00000000E+00  0.00000000E+00
  0.00000000E+00  0.00000000E+00  0.00000000E+00
  0.00000000E+00  0.00000000E+00  0.00000000E+00
  0.00000000E+00  0.00000000E+00  0.00000000E+00
  0.00000000E+00  0.00000000E+00  0.00000000E+00
  0.00000000E+00  0.00000000E+00  0.00000000E+00
  0.00000000E+00  0.00000000E+00  0.00000000E+00
  0.00000000E+00  0.00000000E+00  0.00000000E+00
  0.00000000E+00  0.00000000E+00  0.00000000E+00
  0.00000000E+00  0.00000000E+00  0.00000000E+00
  0.00000000E+00  0.00000000E+00  0.00000000E+00
  0.00000000E+00  0.00000000E+00  0.00000000E+00
  0.00000000E+00  0.00000000E+00  0.00000000E+00
  0.00000000E+00  0.00000000E+00  0.00000000E+00
  0.00000000E+00  0.00000000E+00  0.00000000E+00
  0.00000000E+00  0.00000000E+00  0.00000000E+00
  0.00000000E+00  0.00000000E+00  0.00000000E+00
  0.00000000E+00  0.00000000E+00  0.00000000E+00
  0.00000000E+00  0.00000000E+00  0.00000000E+00
  0.00000000E+00  0.00000000E+00  0.00000000E+00
  0.00000000E+00  0.00000000E+00  0.00000000E+00
  0.00000000E+00  0.00000000E+00  0.00000000E+00
  0.00000000E+00  0.00000000E+00  0.00000000E+00
  0.00000000E+00  0.00000000E+00  0.00000000E+00
  0.00000000E+00  0.00000000E+00  0.00000000E+00
  0.00000000E+00  0.00000000E+00  0.00000000E+00
  0.00000000E+00  0.00000000E+00  0.00000000E+00
  0.00000000E+00  0.00000000E+00  0.00000000E+00
  0.00000000E+00  0.00000000E+00  0.00000000E+00
  0.00000000E+00  0.00000000E+00  0.00000000E+00
  0.00000000E+00  0.00000000E+00  0.00000000E+00
  0.00000000E+00  0.00000000E+00  0.00000000E+00
  0.00000000E+00  0.00000000E+00  0.00000000E+00
  0.00000000E+00  0.00000000E+00  0.00000000E+00
  0.00000000E+00  0.00000000E+00  0.00000000E+00
  0.00000000E+00  0.00000000E+00  0.00000000E+00
  0.00000000E+00  0.00000000E+00  0.00000000E+00
  0.00000000E+00  0.00000000E+00  0.00000000E+00
  0.00000000E+00  0.00000000E+00  0.00000000E+00
  0.00000000E+00  0.00000000E+00  0.00000000E+00
  0.00000000E+00  0.00000000E+00  0.00000000E+00
  0.00000000E+00  0.00000000E+00  0.00000000E+00
  0.00000000E+00  0.00000000E+00  0.00000000E+00
  0.00000000E+00  0.00000000E+00  0.00000000E+00
  0.00000000E+00  0.00000000E+00  0.00000000E+00
  0.00000000E+00  0.00000000E+00  0.00000000E+00
  0.00000000E+00  0.00000000E+00  0.00000000E+00
  0.00000000E+00  0.00000000E+00  0.00000000E+00
  0.00000000E+00  0.00000000E+00  0.00000000E+00
  0.00000000E+00  0.00000000E+00  0.00000000E+00
  0.00000000E+00  0.00000000E+00  0.00000000E+00
  0.00000000E+00  0.00000000E+00  0.00000000E+00
  0.00000000E+00  0.00000000E+00  0.00000000E+00
  0.00000000E+00  0.00000000E+00  0.00000000E+00
  0.00000000E+00  0.00000000E+00  0.00000000E+00
  0.00000000E+00  0.00000000E+00  0.00000000E+00
  0.00000000E+00  0.00000000E+00  0.00000000E+00
  0.00000000E+00  0.00000000E+00  0.00000000E+00
  0.00000000E+00  0.00000000E+00  0.00000000E+00
  0.00000000E+00  0.00000000E+00  0.00000000E+00
  0.00000000E+00  0.00000000E+00  0.00000000E+00
  0.00000000E+00  0.00000000E+00  0.00000000E+00
  0.00000000E+00  0.00000000E+00  0.00000000E+00
  0.00000000E+00  0.00000000E+00  0.00000000E+00
  0.00000000E+00  0.00000000E+00  0.00000000E+00
  0.00000000E+00  0.00000000E+00  0.00000000E+00
  0.00000000E+00  0.00000000E+00  0.00000000E+00
  0.00000000E+00  0.00000000E+00  0.00000000E+00
  0.00000000E+00  0.00000000E+00  0.00000000E+00
  0.00000000E+00  0.00000000E+00  0.00000000E+00
  0.00000000E+00  0.00000000E+00  0.00000000E+00
  0.00000000E+00  0.00000000E+00  0.00000000E+00
  0.00000000E+00  0.00000000E+00  0.00000000E+00
  0.00000000E+00  0.00000000E+00  0.00000000E+00
  0.00000000E+00  0.00000000E+00  0.00000000E+00
  0.00000000E+00  0.00000000E+00  0.00000000E+00
  0.00000000E+00  0.00000000E+00  0.00000000E+00
  0.00000000E+00  0.00000000E+00  0.00000000E+00
  0.00000000E+00  0.00000000E+00  0.00000000E+00
  0.00000000E+00  0.00000000E+00  0.00000000E+00
  0.00000000E+00  0.00000000E+00  0.00000000E+00
  0.00000000E+00  0.00000000E+00  0.00000000E+00
  0.00000000E+00  0.00000000E+00  0.00000000E+00
  0.00000000E+00  0.00000000E+00  0.00000000E+00
  0.00000000E+00  0.00000000E+00  0.00000000E+00
  0.00000000E+00  0.00000000E+00  0.00000000E+00
  0.00000000E+00  0.00000000E+00  0.00000000E+00
  0.00000000E+00  0.00000000E+00  0.00000000E+00
  0.00000000E+00  0.00000000E+00  0.00000000E+00
  0.00000000E+00  0.00000000E+00  0.00000000E+00
  0.00000000E+00  0.00000000E+00  0.00000000E+00
  0.00000000E+00  0.00000000E+00  0.00000000E+00
  0.00000000E+00  0.00000000E+00  0.00000000E+00
  0.00000000E+00  0.00000000E+00  0.00000000E+00
  0.00000000E+00  0.00000000E+00  0.00000000E+00
  0.00000000E+00  0.00000000E+00  0.00000000E+00
  0.00000000E+00  0.00000000E+00  0.00000000E+00
  0.00000000E+00  0.00000000E+00  0.00000000E+00
  0.00000000E+00  0.00000000E+00  0.00000000E+00
  0.00000000E+00  0.00000000E+00  0.00000000E+00
  0.00000000E+00  0.00000000E+00  0.00000000E+00
  0.00000000E+00  0.00000000E+00  0.00000000E+00
  0.00000000E+00  0.00000000E+00  0.00000000E+00
  0.00000000E+00  0.00000000E+00  0.00000000E+00
  0.00000000E+00  0.00000000E+00  0.00000000E+00
  0.00000000E+00  0.00000000E+00  0.00000000E+00
  0.00000000E+00  0.00000000E+00  0.00000000E+00
  0.00000000E+00  0.00000000E+00  0.00000000E+00
  0.00000000E+00  0.00000000E+00  0.00000000E+00
  0.00000000E+00  0.00000000E+00  0.00000000E+00
  0.00000000E+00  0.00000000E+00  0.00000000E+00
  0.00000000E+00  0.00000000E+00  0.00000000E+00
  0.00000000E+00  0.00000000E+00  0.00000000E+00
  0.00000000E+00  0.00000000E+00  0.00000000E+00
  0.00000000E+00  0.00000000E+00  0.00000000E+00
  0.00000000E+00  0.00000000E+00  0.00000000E+00
  0.00000000E+00  0.00000000E+00  0.00000000E+00
  0.00000000E+00  0.00000000E+00  0.00000000E+00
  0.00000000E+00  0.00000000E+00  0.00000000E+00
  0.00000000E+00  0.00000000E+00  0.00000000E+00
  0.00000000E+00  0.00000000E+00  0.00000000E+00
  0.00000000E+00  0.00000000E+00  0.00000000E+00
  0.00000000E+00  0.00000000E+00  0.00000000E+00
  0.00000000E+00  0.00000000E+00  0.00000000E+00
  0.00000000E+00  0.00000000E+00  0.00000000E+00
  0.00000000E+00  0.00000000E+00  0.00000000E+00
  0.00000000E+00  0.00000000E+00  0.00000000E+00
  0.00000000E+00  0.00000000E+00  0.00000000E+00
  0.00000000E+00  0.00000000E+00  0.00000000E+00
  0.00000000E+00  0.00000000E+00  0.00000000E+00
  0.00000000E+00  0.00000000E+00  0.00000000E+00
  0.00000000E+00  0.00000000E+00  0.00000000E+00
  0.00000000E+00  0.00000000E+00  0.00000000E+00
  0.00000000E+00  0.00000000E+00  0.00000000E+00
  0.00000000E+00  0.00000000E+00  0.00000000E+00
  0.00000000E+00  0.00000000E+00  0.00000000E+00
  0.00000000E+00  0.00000000E+00  0.00000000E+00
  0.00000000E+00  0.00000000E+00  0.00000000E+00
  0.00000000E+00  0.00000000E+00  0.00000000E+00
  0.00000000E+00  0.00000000E+00  0.00000000E+00
  0.00000000E+00  0.00000000E+00  0.00000000E+00
  0.00000000E+00  0.00000000E+00  0.00000000E+00
  0.00000000E+00  0.00000000E+00  0.00000000E+00
  0.00000000E+00  0.00000000E+00  0.00000000E+00
  0.00000000E+00  0.00000000E+00  0.00000000E+00
  0.00000000E+00  0.00000000E+00  0.00000000E+00
  0.00000000E+00  0.00000000E+00  0.00000000E+00
  0.00000000E+00  0.00000000E+00  0.00000000E+00
  0.00000000E+00  0.00000000E+00  0.00000000E+00
  0.00000000E+00  0.00000000E+00  0.00000000E+00
  0.00000000E+00  0.00000000E+00  0.00000000E+00
  0.00000000E+00  0.00000000E+00  0.00000000E+00
  0.00000000E+00  0.00000000E+00  0.00000000E+00
  0.00000000E+00  0.00000000E+00  0.00000000E+00