Sn4 Se4                                 
   1.00000000000000     
     4.2597246169999998    0.0000000000000000    0.0000000000000000
     0.0000000000000000    4.4187455176999997    0.0000000000000000
     0.0000000000000000    0.0000000000000000   12.0031423568999998
   Sn   Se
     4     4
Direct
  0.2500000000000000  0.5562658910000025  0.3732444640000026
  0.7500000000000000  0.0562658830000018  0.1267555359999974
  0.2500000000000000  0.9437341089999975  0.8732444640000026
  0.7500000000000000  0.4437341089999975  0.6267555359999974
  0.2500000000000000  0.5114650729999966  0.1444150210000004
  0.7500000000000000  0.0114651000000023  0.3555849789999996
  0.2500000000000000  0.9885349270000034  0.6444150210000004
  0.7500000000000000  0.4885348979999975  0.8555849789999996
 
  0.00000000E+00  0.00000000E+00  0.00000000E+00
  0.00000000E+00  0.00000000E+00  0.00000000E+00
  0.00000000E+00  0.00000000E+00  0.00000000E+00
  0.00000000E+00  0.00000000E+00  0.00000000E+00
  0.00000000E+00  0.00000000E+00  0.00000000E+00
  0.00000000E+00  0.00000000E+00  0.00000000E+00
  0.00000000E+00  0.00000000E+00  0.00000000E+00
  0.00000000E+00  0.00000000E+00  0.00000000E+00
