Ge Se                                   
   1.00000000000000     
    20.8706398010253906    0.0000000000000000    0.0000000000000000
     0.0000000000000000   20.8706398010253906    0.0000000000000000
     0.0000000000000000    0.0000000000000000   20.8706398010253906
   Ge   Se
   150   150
Direct
  0.8371432912326886  0.5470325918468847  0.5724873549839473
  0.5473904558506919  0.1810051438611070  0.0279396988201423
  0.2937288096990229  0.8850495455426752  0.2561965729924840
  0.1976875274627958 -0.0056510671404643  0.3217678684397686
  0.2266267249706602  0.2156089883989208  0.3331910227170076
  0.0216519336627280  0.9424484857174316  0.7454485149706161
  0.0904674119515931  0.7514815310148159  0.6983557863559071
  0.5465742807127023  0.7747843880504695  0.5193768827085025
  0.5021670582480837  0.9301504403306025  0.7366975622836313
  0.7048187842468886  0.8989073743775100  0.0742589504975920
  0.5258622888254668  0.0847376295401418  0.5355893693552051
  0.9381431576056891  0.9659585699229916  0.8384656130282120
  0.6209487447757382  0.9235249856910084  0.2699776125461152
  0.8006314144162158  0.1372545724794935  0.3549266915818127
  0.7214065312311848  0.0787579588404780  0.4862206551851031
  0.1641959851394510  0.4973748586286610  0.2623777572966245
  0.1796097088036043  0.7151304783931752  0.8633014083237911
  0.8924440543697865  0.3995335706105791  0.0646133821885446
  0.6087578088088279  0.3913530301651116  0.6034226209885752
  0.3404950094070528  0.0815880386898854  0.1994411716214090
  0.7295971328521486  0.4042857321598919  0.2292058197800283
  0.9286813190337670  0.7789350020031106  0.1985873775244997
  0.9981024921657803  0.9639855906088798  0.2470908616854568
  0.1027042939932861  0.8203354171592742  0.3269963115724764
  0.9507706959037937  0.1562802446190616  0.9338660637776608
  0.8275715100860589  0.2199285091780172  0.6888178402084215
  0.6881396052261254  0.1277192665323190  0.2008274050111037
  0.8949302318950578  0.6894544373330393  0.4641396951882357
  0.0158733739771026  0.4270101714340801  0.7625274339355357
  0.1365989308839475  0.5930121891786012  0.6106618539926579
  0.2365571433406122  0.7049806459299568  0.4544934749877170
  0.7638136635423828  0.9318244437340120  0.9292576180266047
  0.6757809876609850  0.5883817709769581  0.1375332491890588
  0.6522340104010113  0.8196374773409513  0.8571820118364657
  0.2651459322939415  0.1443182302130558  0.1039074947052492
  0.0974566696422082  0.0120253083975553  0.8900139885017692
  0.3147776391358119  0.9310960740036288  0.7677940534899013
  0.9879240393704454  0.6830164045944678  0.0549345573154435
  0.3836492371353197  0.2011265616509257  0.5183189277666569
  0.3537782828906862  0.6659797484900788  0.5148785168085328
  0.3086735517894581  0.6044875827549222  0.6689946859289760
  0.4964154779638739  0.6650895870197349  0.8754674249291253
  0.5265246889405345  0.5971582048830025  0.0178924351867227
  0.8245736327613256  0.4228250453195257  0.7330281200082849
  0.1082130684570943  0.7907635020741703  0.1360234211429844
  0.5466702353693483  0.6715572841746755  0.2168470749981914
  0.0337865964241765  0.2767285015859652  0.4252879931474733
  0.6700272272964085  0.2758940913033137  0.7250225978379262
  0.6337624786592915  0.2388011938642429  0.5251139512145833
  0.0251489657519037  0.7066726481682857  0.4956445559781975
  0.3465563235954490  0.1844114008725896  0.3583042589119953
  0.4856829815564855  0.4992590044713835  0.4970143307838100
  0.8178724439674133  0.4810140072687950  0.1742514426050923
  0.5015369254425025  0.4473491173292338  0.6954507106114012
  0.3178454568295202  0.3258626570956139  0.5969378637700292
  0.2209419660874933  0.5425322649457168  0.1314072788148883
  0.4573687446926767  0.9449241799721353  0.2503778841826443
  0.6886235827932305  0.5587255159918080  0.9547401389060652
  0.4567853129003635  0.0594945329588705  0.1392782477002097
  0.1409969437973018  0.6066194626427989  0.7969717037442773
  0.8289441305141462  0.9408951101544906  0.1631803067061825
  0.5456826652239704  0.0935101475898843  0.9386254605533986
  0.8998674961813944  0.2669934122711521  0.5125754087218186
  0.4503805931456155  0.7960439860745167  0.0360380117281482
  0.2152833457947723  0.7088469632726474  0.0249512305693749
  0.2182435502271525  0.2717935436414426  0.9208465385809256
  0.7799680971297622  0.4120437706510148  0.4935426097765730
  0.2428249506397494  0.0226098417982024  0.8782347513486309
  0.7527729067362442  0.1562848145634496  0.8219954947385667
  0.1713661850505926  0.2756584867675744  0.7155965508732033
  0.3483421034761464  0.3922096431974387 -0.0035529432217038
  0.2631673968815412  0.5202154554192205  0.4113910422646279
  0.3196862978264897  0.3686695542772110  0.2709555086081566
  0.8928308243784490  0.7165881965386830  0.6582021892204718
  0.5793629071047165  0.8628182157726418  0.9544211558280180
  0.7750618824173942  0.4097979299246492  0.9845909159341178
  0.5834200451745780  0.0623044659799965  0.7156573194509719
  0.6979580399276591  0.2588558626758198  0.3523807215700968
  0.3207093262558672  0.1236705716574653  0.7842237660100130
  0.4247398677213251  0.1481346880129656  0.7079259385254637
  0.8932919483461886  0.0634166921081949  0.4629271431045572
  0.9704437861009315  0.8738400357018001  0.5721664644730922
  0.8393994239135947  0.7254629593377226  0.2915969812798370
  0.5730723051654025  0.0043855305432551  0.1170578004380026
  0.6542365041536766  0.3881327158116514  0.4637044818936867
  0.1172342190597292  0.5667989235070355  0.9722543618460429
  0.9823531074652032  0.5298333983046809  0.9388951467037870
  0.9198444200736272  0.8756600521036482  0.3999221986483107
  0.5216004966146407  0.6974362943335236  0.4102363340618849
  0.2150104466132426  0.7863190958942013  0.3574218054853719
  0.4808277286952884  0.2483845444439665  0.2068414073840452
  0.7699837297665317  0.5746658508951975  0.3062757532320596
  0.0717293730262010  0.1837545120705546  0.1068270160655370
  0.9029167493402334  0.7854141503713521  0.7994010331535817
  0.1110845998145404  0.1243437829486221  0.9770427310503182
  0.0407313353010093  0.8695287794621800  0.4162348180634093
  0.1138048829463816  0.2562776831371195  0.9807366791773124
  0.9833318412419338  0.5904014128216336  0.7188629770334423
  0.6267383387571271  0.7893057992596383  0.6129079961228769
  0.0631752741242469  0.6980921678891465  0.2111313535071617
  0.8568507633944479  0.8246648851921010  0.0280463198366484
  0.9042730466838926  0.2438372277298032  0.0081277003753792
  0.6414173324909062  0.8820976838702994  0.4356145265730504
  0.0620874989752373  0.3631836896683174  0.0235560394092530
  0.8575742840639868  0.0592745123247779  0.8363758524141648
  0.1927506860109791  0.8334616124691644  0.8113143242981330
  0.9056450931519783  0.5056776921422498  0.4276016459696027
  0.1002846102685454  0.1082260503258802  0.3004726843238761
  0.7450100498044770  0.7457772279119086  0.7810230596268829
  0.2890974541334754  0.4869008257868760  0.2879625665572781
  0.9652628826187090  0.0705132587296222  0.3131362530445986
  0.3577051388213534  0.3692725832317005  0.4519517947529807
  0.1064841402442264  0.4384355983537552  0.1098109996573240
  0.0358073051531238  0.2204273161979424  0.6588391864657565
  0.7110281206077648  0.2730738130243362  0.1117100281917001
  0.0917918657382750  0.2045149277193776  0.8000013225737242
  0.6134909445604275  0.5343321257598449  0.6811489562113657
  0.4700294799776250  0.8206803103287877  0.2880979715149363
  0.4335673694367906  0.4590170967471591  0.1655024157509634
  0.7604772926441863  0.2051081583716472  0.9629172365076266
  0.0538747130548788  0.9765821749184307  0.5550737053799895
  0.5980739944456619  0.2930488739238291  0.9000137238512743
  0.0699077465547478  0.5985848112359000  0.3571570291188061
  0.7133399370975718  0.6632194737519016  0.6950723960319418
  0.3337717727480717  0.2584797460427416 -0.0372469883035281
  0.2465769792625957  0.4704573962589903  0.9406782158095570
  0.5453459117719617  0.4316923884962112  0.2331096685731806
  0.4859844146276920  0.2829681795695379  0.8166774467625786
  0.4735303057269717  0.7811482886937583  0.8432106472167227
  0.0886034690697848  0.8800128531448019  0.2230398174842954
  0.9126845395471226  0.0984949675071855  0.1613617095702780
  0.5761733374325712  0.3869419315998066  0.0480397662107803
  0.7857413141973859  0.4432008135279391  0.6149816310981817
  0.3327101808556568  0.6130391445499161  0.9062763333790387
  0.1547440000421298  0.2703406410724040  0.1833725571216692
  0.3929027109832985  0.6724482784494367  0.2865169215970063
  0.0825860915933993  0.0453534423393417  0.6973876581091374
  0.8081779281409833  0.5179074600962194  0.8271155356882007
  0.5824701273747260  0.9746309469080782  0.5549860248965628
  0.4421330406290899  0.5075285479123181  0.9074519401313107
  0.5451319048288569  0.2958839829471261  0.4477169129897052
  0.6148225983915127  0.1753009093869419  0.3337439166583240
  0.5210273690107685  0.3994395566770417  0.3609329854291572
  0.4146684643946836  0.0953349488543252  0.9599952624444543
  0.3580308499974194  0.8150594026601429  0.6773273989450154
  0.6509877238595008  0.7520653081478553  0.2252324017547887
  0.2853890268985115  0.2927090158052457  0.7724614004034047
  0.6088992278319532  0.6887075354419603  0.0090542949129630
  0.1644303503898182  0.2666013417076641  0.5441685796348871
  0.8023897770900633  0.6391263957359923  0.9497237789963108
  0.6078685659097847  0.1751156419686028  0.8783063288565371
  0.5249726752023050  0.1841011805102594  0.4051751120043328
  0.1187047169690211  0.7371338120776918  0.9610200691017223
  0.8208402478664395  0.8180325534667583  0.1463759410860461
  0.9481094163576363  0.9786377589407095  0.1398851247666607
  0.0336558845040898  0.6850230394536814  0.7824946431655168
  0.6674982654466937  0.7777435267404218  0.4954992452276815
  0.0702815795361167  0.8174948691746907  0.5180638187995806
  0.2803238006213911  0.6306662344348317  0.3723639706059328
  0.8204392455009740  0.8054016866973527  0.7102136885317542
  0.0754647774218289  0.4325984110749873  0.2218259558005359
  0.2002331441609588  0.3534042199667041  0.6246383966641119
  0.0232344702679490  0.7340165952999380  0.3173359695982912
  0.7205855504378935  0.1648159956307049  0.7047932121568974
  0.4214625540793416  0.4638143921858607  0.3974318252626275
  0.3773237362001060  0.3511890509024965  0.1724189091304259
  0.6907040726721095  0.4960388833509606  0.0543258673447439
  0.5576142210898690  0.8203994882292149  0.7732044438982461
  0.2532814472262102  0.5415791441271534  0.8414541101341748
  0.2379908289999677  0.2595593649956145  0.0980450210397118
  0.5480034735260578  0.0066320640594174  0.8161704342273207
  0.8831018335512459  0.3768520671071210  0.4502752999633548
  0.8537568341984445  0.0644766986120556  0.2663609964035287
  0.7978643322357115  0.6573840274984777  0.6028793783471890
  0.8624986289221636  0.5325423307514329  0.9562577192730956
  0.6960803650012828  0.3057531286494057  0.6073954369306687
  0.4427736021949311  0.6831290474321314  0.9857560217828500
  0.2412328429243945  0.5798604203899586  0.0152133082491536
  0.2762871374585878  0.2491437562549399  0.4878110144726087
  0.5190375194255641  0.5870060772885990  0.1358584026555870
  0.4603554505350037  0.8642782351827973  0.9295247018781013
  0.5696188285681552  0.1558788026087013  0.2304859323769498
  0.6227395151127424  0.7060978485336724  0.8918650466978687
  0.6942774052478151  0.9606741581253007  0.5237102869991552
  0.7871836400433435  0.2365415704638237  0.2866187012626467
  0.0818883352904874  0.5497437632981832  0.0877129684173016
  0.6540608888224144  0.1697903200989415  0.0757291134794257
  0.2665307037790653  0.8994494326452853  0.8782074069644716
  0.6035450827309462  0.9455551405929844  0.6680355388160165
  0.8675464540072038  0.9448536930390514  0.4763957846404028
  0.8215785111966615  0.0907829638330667  0.5533917821034757
  0.3638045153436616  0.1910984094021546  0.2391301652343986
  0.1225474256174146  0.6484894466805758  0.4568670311782205
  0.6166292037022079  0.9651048326960897  0.0055681147858477
  0.7396313289746769  0.8223728963628861  0.9791470725226559
  0.8407413402630458  0.0984674080362426  0.9472246773696559
  0.7012585291999545  0.5639564837187543  0.7558849584636924
  0.0072648846854821  0.1524042522430922  0.2237402412905307
  0.9390220245135398  0.2092899820005924  0.4140656202698991
  0.1282627757332463  0.4492393371174790  0.9390806414241624
  0.8147180798546467  0.2040479604024666  0.0768898617686418
  0.1890122026680548  0.1597721256582168  0.2330975396420268
  0.3038861567067490  0.1415966944080320 -0.0140300441445559
  0.9283955606688593  0.4835642681264124  0.1368521010514021
  0.6654936059806185  0.3680325654931755  0.3437585597653315
  0.1888923945319407  0.9445113509684061  0.2103756667272505
  0.1264596300767705  0.1862755537464894  0.3928863299076280
  0.4527465106061460  0.7449037779683793  0.1960319792582947
  0.7936828959888221  0.5972384368674916  0.1859458321451279
  0.0053338334849387  0.1100739182001583  0.0374474608369019
  0.7993824660181393  0.9705170908383911  0.0438669848397730
  0.3434239840074086  0.5375806807278967  0.1975718428039580
  0.5079398331162014  0.5153670055766533  0.7975872440848431
  0.4482585050232368  0.3137856936687536  0.5178318189456136
  0.3910344593531154  0.5324377327112513  0.7932684489450725
  0.2835982963972656  0.7251558112610533  0.9230860738571666
  0.0435906763207752  0.0849874306926294  0.8061813230323862
  0.9806394330220195  0.1054790968837864  0.6504258026001729
  0.6359120374048047  0.1273061615269551  0.5707245481217501
  0.7839841374396264  0.3120023783581054  0.7624425357256968
  0.8380416304015472  0.3019800192019016  0.9307466722126050
  0.9453820824327401  0.5569982201583714  0.5337937923813183
  0.9708949006349908  0.3009445280250060  0.0897449196446476
  0.3842161165833684  0.3065883172605900  0.3490205588985912
  0.5862746694323208  0.4829126366716756  0.4207990780568778
  0.4559355242646090  0.1799941289950660  0.1055001276779872
  0.3070559856464010  0.0460593286150419  0.3085106993924192
  0.3696375629693650  0.0401742802161574  0.8603663147852314
  0.6149949092376767  0.6689549031378575  0.6367213441032454
  0.1998344022042507  0.1788312003450346  0.8488139155394558
  0.4076277761429719  0.3954149177291589  0.8932838976470326
  0.9888692464436386  0.8426069454245489  0.6892688747193718
  0.3807722734949782  0.6507753883593443  0.7971952629028289
  0.2105867744869749  0.3253550930894269  0.2874992054832729
  0.1527482046802322  0.1823953478446514  0.6373546458852248
  0.2215535099894491  0.4244690408393300  0.1081590488958924
  0.6453849824266334  0.4946316087431751  0.2364963434466051
  0.9094086953899988  0.8949473373403196  0.2854384873607542
  0.0904109150855106  0.8953818875098783  0.8306183798467339
  0.9533781541554507  0.5150789661750563  0.8185766117292184
  0.8904124529348086  0.7858286094484156  0.5577970958393581
  0.5241083088825742  0.2070616388155771  0.7299441593805444
 -0.0004847122890713  0.8018728931011596  0.0856599491386346
  0.8441385058559168  0.7859236082491479  0.4004019372421083
  0.3428201706592827  0.3837214258418585  0.7156598884514879
  0.0849947513518085  0.5236193476038369  0.7037577591595933
  0.8213238143575839  0.4547426728296648  0.2925139694789644
  0.8666734089881499  0.8794862078971242  0.8768059045750345
  0.0400600048367130  0.6763384290716173  0.6126308614895729
  0.5839403652059209  0.8015528797799272  0.3168763066190969
  0.5753787006212576  0.3381614379480578  0.1618885083454430
  0.2390945281850275  0.8522988567952677  0.7018268920155682
  0.0012774292407299  0.0808476634574490  0.5381345160803644
  0.5429762377970989  0.9002842290462928  0.1703522630634854
  0.6794381727083797  0.4915456484030409  0.5834449391352883
  0.5721475689746182  0.7939033058410283  0.0536361010051748
  0.8811074584751835  0.6236698473015878  0.3438728891326527
  0.6882971359502421  0.0847745594807150  0.3301526549216728
  0.9292232540372088  0.3985147534708604  0.6852331886541753
  0.6761304969794034  0.0103551551758435  0.1725265961526328
  0.8353909578977993  0.6829829087879220  0.8318436549228519
  0.1433867061406258  0.6221750518060252  0.2618256092767442
  0.7157007641746818  0.4574894216991031  0.8854116053668839
  0.7510497403669011  0.0358942713323535  0.8045625324442931
  0.3667386581104398  0.7892113694672090  0.7954982133347489
  0.5366387805326024 -0.0146228918187928  0.3269179816831610
  0.3438792404316318  0.2063687812008071  0.6339790306945383
  0.3721030643314830  0.2356413317360543  0.8427585230980820
  0.8670215792420175  0.6981989306281509  0.0332465454973551
  0.0210949260514171  0.2807912378052813  0.5501841878267275
  0.8839541923398304  0.1642725238255352  0.7885235056656310
  0.7209925900619080  0.7059330118095971  0.3126828010105289
  0.5007463733703917  0.6107025748326637  0.3065442166221736
  0.4403127642239095  0.4539883156550714  0.0467206076378505
  0.7119819852292585  0.6805243840178865  0.0576608458367669
  0.0390204251849908  0.2649364888306426  0.8877633051892209
  0.3754115648482924  0.7010812961192630  0.6354051241500018
  0.2611721230586840  0.7681883824907352  0.2520169516341744
  0.6825918752524768  0.3256949585973710  0.0036855719359853
  0.2362964529563817  0.0268431616025621  0.7561411157318564
  0.9928454356850207  0.9839745662708858  0.9387465493702721
  0.1965623164823083  0.6593437699046037  0.6977140244391896
  0.6122058577204598  0.4113263195584039  0.7253102236066429
  0.2233281351074534  0.3621337234012307  0.8459329032025640
  0.4168693695282308  0.7577935844929119  0.3771674829508515
  0.4477120037335639  0.3332786838295642  0.7111456178302967
  0.2594372283354196  0.8970756195401222  0.3750207856065764
  0.5164246329230756  0.2891982113429046  0.9893339156481614
  0.1416433888609555  0.4952379118184004  0.3786699764871180
  0.0675429067805365  0.9799359744342461  0.4368412606276166
  0.4178246505767592  0.0074498429005063  0.0387805914332887
  0.7894758203305725  0.5302900142143782  0.4632054933592453
  0.2859512803529506  0.5728411583226457  0.5522639719397056
  0.1560087533050249  0.0916959620494478  0.0832244885138042
  0.4742406613854513  0.0587248236952249  0.6457559334993330
  0.5282829934168481  0.8927787110734553  0.4881049229847533
  0.9695446807366739  0.4108821405350548  0.9654009799304364
  0.9622498170365373  0.6515783568543668  0.1740744323423436
  0.7349839859622398  0.2377541210408327  0.4602880192755307
  0.4708348790128900  0.6202127848938879  0.4983747061457623
 
  0.00000000E+00  0.00000000E+00  0.00000000E+00
  0.00000000E+00  0.00000000E+00  0.00000000E+00
  0.00000000E+00  0.00000000E+00  0.00000000E+00
  0.00000000E+00  0.00000000E+00  0.00000000E+00
  0.00000000E+00  0.00000000E+00  0.00000000E+00
  0.00000000E+00  0.00000000E+00  0.00000000E+00
  0.00000000E+00  0.00000000E+00  0.00000000E+00
  0.00000000E+00  0.00000000E+00  0.00000000E+00
  0.00000000E+00  0.00000000E+00  0.00000000E+00
  0.00000000E+00  0.00000000E+00  0.00000000E+00
  0.00000000E+00  0.00000000E+00  0.00000000E+00
  0.00000000E+00  0.00000000E+00  0.00000000E+00
  0.00000000E+00  0.00000000E+00  0.00000000E+00
  0.00000000E+00  0.00000000E+00  0.00000000E+00
  0.00000000E+00  0.00000000E+00  0.00000000E+00
  0.00000000E+00  0.00000000E+00  0.00000000E+00
  0.00000000E+00  0.00000000E+00  0.00000000E+00
  0.00000000E+00  0.00000000E+00  0.00000000E+00
  0.00000000E+00  0.00000000E+00  0.00000000E+00
  0.00000000E+00  0.00000000E+00  0.00000000E+00
  0.00000000E+00  0.00000000E+00  0.00000000E+00
  0.00000000E+00  0.00000000E+00  0.00000000E+00
  0.00000000E+00  0.00000000E+00  0.00000000E+00
  0.00000000E+00  0.00000000E+00  0.00000000E+00
  0.00000000E+00  0.00000000E+00  0.00000000E+00
  0.00000000E+00  0.00000000E+00  0.00000000E+00
  0.00000000E+00  0.00000000E+00  0.00000000E+00
  0.00000000E+00  0.00000000E+00  0.00000000E+00
  0.00000000E+00  0.00000000E+00  0.00000000E+00
  0.00000000E+00  0.00000000E+00  0.00000000E+00
  0.00000000E+00  0.00000000E+00  0.00000000E+00
  0.00000000E+00  0.00000000E+00  0.00000000E+00
  0.00000000E+00  0.00000000E+00  0.00000000E+00
  0.00000000E+00  0.00000000E+00  0.00000000E+00
  0.00000000E+00  0.00000000E+00  0.00000000E+00
  0.00000000E+00  0.00000000E+00  0.00000000E+00
  0.00000000E+00  0.00000000E+00  0.00000000E+00
  0.00000000E+00  0.00000000E+00  0.00000000E+00
  0.00000000E+00  0.00000000E+00  0.00000000E+00
  0.00000000E+00  0.00000000E+00  0.00000000E+00
  0.00000000E+00  0.00000000E+00  0.00000000E+00
  0.00000000E+00  0.00000000E+00  0.00000000E+00
  0.00000000E+00  0.00000000E+00  0.00000000E+00
  0.00000000E+00  0.00000000E+00  0.00000000E+00
  0.00000000E+00  0.00000000E+00  0.00000000E+00
  0.00000000E+00  0.00000000E+00  0.00000000E+00
  0.00000000E+00  0.00000000E+00  0.00000000E+00
  0.00000000E+00  0.00000000E+00  0.00000000E+00
  0.00000000E+00  0.00000000E+00  0.00000000E+00
  0.00000000E+00  0.00000000E+00  0.00000000E+00
  0.00000000E+00  0.00000000E+00  0.00000000E+00
  0.00000000E+00  0.00000000E+00  0.00000000E+00
  0.00000000E+00  0.00000000E+00  0.00000000E+00
  0.00000000E+00  0.00000000E+00  0.00000000E+00
  0.00000000E+00  0.00000000E+00  0.00000000E+00
  0.00000000E+00  0.00000000E+00  0.00000000E+00
  0.00000000E+00  0.00000000E+00  0.00000000E+00
  0.00000000E+00  0.00000000E+00  0.00000000E+00
  0.00000000E+00  0.00000000E+00  0.00000000E+00
  0.00000000E+00  0.00000000E+00  0.00000000E+00
  0.00000000E+00  0.00000000E+00  0.00000000E+00
  0.00000000E+00  0.00000000E+00  0.00000000E+00
  0.00000000E+00  0.00000000E+00  0.00000000E+00
  0.00000000E+00  0.00000000E+00  0.00000000E+00
  0.00000000E+00  0.00000000E+00  0.00000000E+00
  0.00000000E+00  0.00000000E+00  0.00000000E+00
  0.00000000E+00  0.00000000E+00  0.00000000E+00
  0.00000000E+00  0.00000000E+00  0.00000000E+00
  0.00000000E+00  0.00000000E+00  0.00000000E+00
  0.00000000E+00  0.00000000E+00  0.00000000E+00
  0.00000000E+00  0.00000000E+00  0.00000000E+00
  0.00000000E+00  0.00000000E+00  0.00000000E+00
  0.00000000E+00  0.00000000E+00  0.00000000E+00
  0.00000000E+00  0.00000000E+00  0.00000000E+00
  0.00000000E+00  0.00000000E+00  0.00000000E+00
  0.00000000E+00  0.00000000E+00  0.00000000E+00
  0.00000000E+00  0.00000000E+00  0.00000000E+00
  0.00000000E+00  0.00000000E+00  0.00000000E+00
  0.00000000E+00  0.00000000E+00  0.00000000E+00
  0.00000000E+00  0.00000000E+00  0.00000000E+00
  0.00000000E+00  0.00000000E+00  0.00000000E+00
  0.00000000E+00  0.00000000E+00  0.00000000E+00
  0.00000000E+00  0.00000000E+00  0.00000000E+00
  0.00000000E+00  0.00000000E+00  0.00000000E+00
  0.00000000E+00  0.00000000E+00  0.00000000E+00
  0.00000000E+00  0.00000000E+00  0.00000000E+00
  0.00000000E+00  0.00000000E+00  0.00000000E+00
  0.00000000E+00  0.00000000E+00  0.00000000E+00
  0.00000000E+00  0.00000000E+00  0.00000000E+00
  0.00000000E+00  0.00000000E+00  0.00000000E+00
  0.00000000E+00  0.00000000E+00  0.00000000E+00
  0.00000000E+00  0.00000000E+00  0.00000000E+00
  0.00000000E+00  0.00000000E+00  0.00000000E+00
  0.00000000E+00  0.00000000E+00  0.00000000E+00
  0.00000000E+00  0.00000000E+00  0.00000000E+00
  0.00000000E+00  0.00000000E+00  0.00000000E+00
  0.00000000E+00  0.00000000E+00  0.00000000E+00
  0.00000000E+00  0.00000000E+00  0.00000000E+00
  0.00000000E+00  0.00000000E+00  0.00000000E+00
  0.00000000E+00  0.00000000E+00  0.00000000E+00
  0.00000000E+00  0.00000000E+00  0.00000000E+00
  0.00000000E+00  0.00000000E+00  0.00000000E+00
  0.00000000E+00  0.00000000E+00  0.00000000E+00
  0.00000000E+00  0.00000000E+00  0.00000000E+00
  0.00000000E+00  0.00000000E+00  0.00000000E+00
  0.00000000E+00  0.00000000E+00  0.00000000E+00
  0.00000000E+00  0.00000000E+00  0.00000000E+00
  0.00000000E+00  0.00000000E+00  0.00000000E+00
  0.00000000E+00  0.00000000E+00  0.00000000E+00
  0.00000000E+00  0.00000000E+00  0.00000000E+00
  0.00000000E+00  0.00000000E+00  0.00000000E+00
  0.00000000E+00  0.00000000E+00  0.00000000E+00
  0.00000000E+00  0.00000000E+00  0.00000000E+00
  0.00000000E+00  0.00000000E+00  0.00000000E+00
  0.00000000E+00  0.00000000E+00  0.00000000E+00
  0.00000000E+00  0.00000000E+00  0.00000000E+00
  0.00000000E+00  0.00000000E+00  0.00000000E+00
  0.00000000E+00  0.00000000E+00  0.00000000E+00
  0.00000000E+00  0.00000000E+00  0.00000000E+00
  0.00000000E+00  0.00000000E+00  0.00000000E+00
  0.00000000E+00  0.00000000E+00  0.00000000E+00
  0.00000000E+00  0.00000000E+00  0.00000000E+00
  0.00000000E+00  0.00000000E+00  0.00000000E+00
  0.00000000E+00  0.00000000E+00  0.00000000E+00
  0.00000000E+00  0.00000000E+00  0.00000000E+00
  0.00000000E+00  0.00000000E+00  0.00000000E+00
  0.00000000E+00  0.00000000E+00  0.00000000E+00
  0.00000000E+00  0.00000000E+00  0.00000000E+00
  0.00000000E+00  0.00000000E+00  0.00000000E+00
  0.00000000E+00  0.00000000E+00  0.00000000E+00
  0.00000000E+00  0.00000000E+00  0.00000000E+00
  0.00000000E+00  0.00000000E+00  0.00000000E+00
  0.00000000E+00  0.00000000E+00  0.00000000E+00
  0.00000000E+00  0.00000000E+00  0.00000000E+00
  0.00000000E+00  0.00000000E+00  0.00000000E+00
  0.00000000E+00  0.00000000E+00  0.00000000E+00
  0.00000000E+00  0.00000000E+00  0.00000000E+00
  0.00000000E+00  0.00000000E+00  0.00000000E+00
  0.00000000E+00  0.00000000E+00  0.00000000E+00
  0.00000000E+00  0.00000000E+00  0.00000000E+00
  0.00000000E+00  0.00000000E+00  0.00000000E+00
  0.00000000E+00  0.00000000E+00  0.00000000E+00
  0.00000000E+00  0.00000000E+00  0.00000000E+00
  0.00000000E+00  0.00000000E+00  0.00000000E+00
  0.00000000E+00  0.00000000E+00  0.00000000E+00
  0.00000000E+00  0.00000000E+00  0.00000000E+00
  0.00000000E+00  0.00000000E+00  0.00000000E+00
  0.00000000E+00  0.00000000E+00  0.00000000E+00
  0.00000000E+00  0.00000000E+00  0.00000000E+00
  0.00000000E+00  0.00000000E+00  0.00000000E+00
  0.00000000E+00  0.00000000E+00  0.00000000E+00
  0.00000000E+00  0.00000000E+00  0.00000000E+00
  0.00000000E+00  0.00000000E+00  0.00000000E+00
  0.00000000E+00  0.00000000E+00  0.00000000E+00
  0.00000000E+00  0.00000000E+00  0.00000000E+00
  0.00000000E+00  0.00000000E+00  0.00000000E+00
  0.00000000E+00  0.00000000E+00  0.00000000E+00
  0.00000000E+00  0.00000000E+00  0.00000000E+00
  0.00000000E+00  0.00000000E+00  0.00000000E+00
  0.00000000E+00  0.00000000E+00  0.00000000E+00
  0.00000000E+00  0.00000000E+00  0.00000000E+00
  0.00000000E+00  0.00000000E+00  0.00000000E+00
  0.00000000E+00  0.00000000E+00  0.00000000E+00
  0.00000000E+00  0.00000000E+00  0.00000000E+00
  0.00000000E+00  0.00000000E+00  0.00000000E+00
  0.00000000E+00  0.00000000E+00  0.00000000E+00
  0.00000000E+00  0.00000000E+00  0.00000000E+00
  0.00000000E+00  0.00000000E+00  0.00000000E+00
  0.00000000E+00  0.00000000E+00  0.00000000E+00
  0.00000000E+00  0.00000000E+00  0.00000000E+00
  0.00000000E+00  0.00000000E+00  0.00000000E+00
  0.00000000E+00  0.00000000E+00  0.00000000E+00
  0.00000000E+00  0.00000000E+00  0.00000000E+00
  0.00000000E+00  0.00000000E+00  0.00000000E+00
  0.00000000E+00  0.00000000E+00  0.00000000E+00
  0.00000000E+00  0.00000000E+00  0.00000000E+00
  0.00000000E+00  0.00000000E+00  0.00000000E+00
  0.00000000E+00  0.00000000E+00  0.00000000E+00
  0.00000000E+00  0.00000000E+00  0.00000000E+00
  0.00000000E+00  0.00000000E+00  0.00000000E+00
  0.00000000E+00  0.00000000E+00  0.00000000E+00
  0.00000000E+00  0.00000000E+00  0.00000000E+00
  0.00000000E+00  0.00000000E+00  0.00000000E+00
  0.00000000E+00  0.00000000E+00  0.00000000E+00
  0.00000000E+00  0.00000000E+00  0.00000000E+00
  0.00000000E+00  0.00000000E+00  0.00000000E+00
  0.00000000E+00  0.00000000E+00  0.00000000E+00
  0.00000000E+00  0.00000000E+00  0.00000000E+00
  0.00000000E+00  0.00000000E+00  0.00000000E+00
  0.00000000E+00  0.00000000E+00  0.00000000E+00
  0.00000000E+00  0.00000000E+00  0.00000000E+00
  0.00000000E+00  0.00000000E+00  0.00000000E+00
  0.00000000E+00  0.00000000E+00  0.00000000E+00
  0.00000000E+00  0.00000000E+00  0.00000000E+00
  0.00000000E+00  0.00000000E+00  0.00000000E+00
  0.00000000E+00  0.00000000E+00  0.00000000E+00
  0.00000000E+00  0.00000000E+00  0.00000000E+00
  0.00000000E+00  0.00000000E+00  0.00000000E+00
  0.00000000E+00  0.00000000E+00  0.00000000E+00
  0.00000000E+00  0.00000000E+00  0.00000000E+00
  0.00000000E+00  0.00000000E+00  0.00000000E+00
  0.00000000E+00  0.00000000E+00  0.00000000E+00
  0.00000000E+00  0.00000000E+00  0.00000000E+00
  0.00000000E+00  0.00000000E+00  0.00000000E+00
  0.00000000E+00  0.00000000E+00  0.00000000E+00
  0.00000000E+00  0.00000000E+00  0.00000000E+00
  0.00000000E+00  0.00000000E+00  0.00000000E+00
  0.00000000E+00  0.00000000E+00  0.00000000E+00
  0.00000000E+00  0.00000000E+00  0.00000000E+00
  0.00000000E+00  0.00000000E+00  0.00000000E+00
  0.00000000E+00  0.00000000E+00  0.00000000E+00
  0.00000000E+00  0.00000000E+00  0.00000000E+00
  0.00000000E+00  0.00000000E+00  0.00000000E+00
  0.00000000E+00  0.00000000E+00  0.00000000E+00
  0.00000000E+00  0.00000000E+00  0.00000000E+00
  0.00000000E+00  0.00000000E+00  0.00000000E+00
  0.00000000E+00  0.00000000E+00  0.00000000E+00
  0.00000000E+00  0.00000000E+00  0.00000000E+00
  0.00000000E+00  0.00000000E+00  0.00000000E+00
  0.00000000E+00  0.00000000E+00  0.00000000E+00
  0.00000000E+00  0.00000000E+00  0.00000000E+00
  0.00000000E+00  0.00000000E+00  0.00000000E+00
  0.00000000E+00  0.00000000E+00  0.00000000E+00
  0.00000000E+00  0.00000000E+00  0.00000000E+00
  0.00000000E+00  0.00000000E+00  0.00000000E+00
  0.00000000E+00  0.00000000E+00  0.00000000E+00
  0.00000000E+00  0.00000000E+00  0.00000000E+00
  0.00000000E+00  0.00000000E+00  0.00000000E+00
  0.00000000E+00  0.00000000E+00  0.00000000E+00
  0.00000000E+00  0.00000000E+00  0.00000000E+00
  0.00000000E+00  0.00000000E+00  0.00000000E+00
  0.00000000E+00  0.00000000E+00  0.00000000E+00