Amorphous GeAsSeSi                      
   1.00000000000000     
    19.7473233545911326    0.0000000000000000    0.0000000000000000
     0.0000000000000000   19.7473233545911326    0.0000000000000000
     0.0000000000000000    0.0000000000000000   19.7473233545911326
   Zn   Bi   Sb
    98   55   147
Direct
  0.4991967174134395  0.8639398083507517  0.5029410787129279
  0.6011204121228916  0.7849021786478726  0.6047859282704211
  0.1793858107132653  0.5321843807397282  0.7855628635014964
  0.1699477451129551  0.7879523077074263  0.3833514895073781
  0.9986605933106465  0.1500777200357573  0.8364230389548409
  0.5501316142099522  0.1988573408019628  0.3360469565671496
  0.7428875750015377  0.8940024313545160  0.5693549336913126
  0.0831423683989773  0.7403056328871542  0.0208975099423717
  0.8433650895099341  0.1072106524148959  0.8048784033711944
  0.7815914930103742  0.3433986757011522  0.5805218005405971
  0.4066721594082595  0.0206796965667319  0.6551025070056105
  0.9890908188007694  0.4787470919598979  0.2558980867477821
  0.4874562180881126  0.1700516965078291  0.7649372375401906
  0.2811799663893276  0.9362235483122338  0.6782019740053612
  0.9807033039262404  0.5382239535218803  0.8366966230485690
  0.4810538457810339  0.8001811124156700  0.0805525190898086
  0.5357524836511551  0.6015518142240593  0.7920138769063226
  0.4816657278286272  0.3407671891529694  0.5639249498967903
  0.3719408684885362  0.8931859693606946  0.0658133224381969
  0.6978201049381545  0.1133643539697425  0.7390001436366110
  0.3299689544784965  0.2943476148558037  0.1415387994680333
  0.8195664942875497  0.6733015825164409  0.9987827391942087
  0.6340649897938168  0.8293584674338838  0.4412475389131921
  0.0244654292823889  0.7159295217345415  0.8431485140764114
  0.3519405554943329  0.9390656405231962  0.5187073766938296
  0.6468516978968240  0.1194043046127681  0.2645007867106973
  0.6232865206029208  0.5337230245820753  0.5127853392239303
  0.8834628152942110  0.9229005109556557  0.9969933483843914
  0.2443531353439566  0.0946973732883709  0.5936774436797725
  0.5101645812559240  0.3484964210116167  0.4245630876644457
  0.6874681103943324  0.2732930002339997  0.4607396373413343
  0.0768213120304113  0.9517571490193986  0.4088195326954562
  0.5792595000793346  0.8719015055769154  0.2920081442867317
  0.6919192008842652  0.2236878333131212  0.5894852867493604
  0.0985514753589243  0.8045303249164664  0.7092013573146919
  0.5455447619882897  0.5872269374849024  0.3122314326427594
  0.9185444948434326  0.0533095295799059  0.0655055723238832
  0.8933357029134269  0.7642110908049599  0.9166789946906522
  0.5340329790698193  0.7036583304497220  0.9753544625558751
  0.6638246299597530  0.4253127892688384  0.5904611964945738
  0.5269205749578586  0.9028419326630122  0.6384570379309554
  0.3885173559737783  0.4963410567479205  0.9232963631846426
  0.2242014658540964  0.8283064134360135  0.9963695590226167
  0.1373906285199511  0.1476879148622656  0.7426890965772982
  0.5750761194392175  0.9786735071598500  0.4834295917479141
  0.8778218255144172  0.7571749059400174  0.2752558334994318
  0.1973367536927337  0.2705903784107703  0.4282019431765041
  0.8992227185059350  0.2954533224300498  0.3415941839435633
  0.9130825556658052  0.7581921688072295  0.0706304363264960
  0.8062953446876319  0.5396515340703193  0.3663537638841192
  0.3400778884310646  0.7474683938857595  0.1252746186791055
  0.0534328302172623  0.9123154790197967  0.2403235937806348
  0.7280074813397841  0.7139904966963179  0.5376697770475275
  0.8121756349471017  0.0042917137649617  0.6616730500335386
  0.0545767613252272  0.1071135631525281  0.4061787864131254
  0.2863459410579346  0.4660270830665072  0.7694735442329655
  0.5673500011807723  0.0462449991924902  0.9680927609312090
  0.3918936833029081  0.9616791332024990  0.8973082015395403
  0.2040420341615728  0.3278098522771731  0.9120640958417250
  0.8533718442285710  0.4937516579203996  0.9542575155596539
  0.3583026928069202  0.2433047751692079  0.6772662611589927
  0.4123320825970794  0.5234040387532164  0.7657948272442936
  0.0166342058769377  0.5799893509585717  0.9576852819278769
  0.2302530160951520  0.1267160930727616  0.9076516475580951
  0.7150535580168367  0.9370287543090269  0.7747158974874333
  0.9383206208803219  0.3719640963957183  0.5282346992058727
  0.7917500925496355  0.1847890408360498  0.1783992597290775
  0.6049899619735276  0.5381145533835764  0.6976474254810954
  0.4723260646381723  0.4899315802351336  0.2589461190500577
  0.3870695317349578  0.2754422835827681  0.3225345144934323
  0.3426927373864534  0.6920760260652435  0.5700624265357190
  0.1225016476796384  0.6610859829570367  0.3452543886625969
  0.0123480120267616  0.2274296071059723  0.4456837151446528
  0.9997120053270632  0.5151025883730093  0.6654281553612138
  0.0808908032908582  0.5195237561442934  0.4003672794086218
  0.3343866414775023  0.9311007773055192  0.3696643491467478
  0.4602764311253611  0.8448555765344966  0.3632896268287818
  0.7814873315333555  0.0955335087337504  0.3177429670887638
  0.6624889388043487  0.7743974618361531  0.8348556281638115
  0.3750198301540795  0.3789397732703096  0.6532804341359170
  0.4682320428001471  0.6948358219274127  0.2774187441702950
  0.6696080675764750  0.3375898261569656  0.9415527577365056
  0.6171394381439935  0.6852583177743625  0.0979972662109539
  0.2443754160850513  0.8406618521317889  0.1237970312520708
  0.6391671706578791  0.9742684967674492  0.5991177187614084
  0.7859644951399940  0.8594524319714923  0.6884504745329126
  0.3315571580408549  0.0717447060181454  0.4160500476277489
  0.9176611883198785  0.1679240848580898  0.2415983821539678
  0.5639392336398200  0.5736438644330892  0.9983897472710458
  0.6750814446636794  0.5821587113780252  0.2655538275059766
  0.2342992905996270  0.2896907436819199  0.0381628200340284
  0.4355661210165139  0.8812025626972357  0.7854322085068298
  0.8961641245280195  0.4347504960428831  0.8306624378600065
  0.1441589847382901  0.3168198885002492  0.1866628336406703
  0.1552479383224151  0.7319340452986914  0.1658270126536253
  0.3269602181391100  0.2129912648649037  0.9362001983535950
  0.2772758293894688  0.9406129771237101  0.8356697839375271
  0.9617774591518347  0.8575146052990799  0.4052141689156770
  0.6229246374511866  0.6626201473719127  0.8788193776990065
  0.7343802679621431  0.6999426313489390  0.2779767438947603
  0.2983380318259968  0.5158185119041107  0.5714759653367172
  0.4836103522838661  0.6998792422220378  0.7257387764335662
  0.7018054008064083  0.8917001097542252  0.3467267592721803
  0.9255287353983972  0.0782702354321045  0.4054037454261983
  0.2290410878029942  0.3819863301877322  0.5099976629170777
  0.7672508250210262  0.0271087578242622  0.9496142035089743
  0.3605857526920930  0.2908897110115173  0.8235123513893801
  0.6071121075816218  0.8684522882044095  0.0731405424569107
  0.6308703359530207  0.7323168642848386  0.3477652494145057
  0.6912842770327233  0.5920187287890519  0.1392864716260090
  0.4173504947561331  0.7491035421597010  0.8998484190448491
  0.4794295615835759  0.0617697764513387  0.8440145702227549
  0.2859691034999154  0.7848599160681616  0.3218049439318766
  0.6438818442771979  0.6566477031597221  0.4548424658097209
  0.0867723043992439  0.4367740809786780  0.7879853015862882
  0.7353588724732055  0.4401843271378122  0.2482199520158319
  0.4440393551836073  0.1554666154592339  0.1073571228635665
  0.1989083987323497  0.5015208347037613  0.9535803835043903
  0.2548239270574771  0.4610335334518518  0.3919445124156610
  0.2510299061932876  0.2569783239046655  0.7596458431036149
  0.3790641334231248  0.4475804192345315  0.0566827548729365
  0.1396964705921985  0.1660561827191957  0.2879595915150909
  0.3945358662882646  0.8216730268398096  0.6139728102663312
  0.5561220020457581  0.4192296253972572  0.1339236677868025
  0.8248419377874273  0.7942973077645128  0.4069690011475429
  0.3298807760226078  0.0763477293597953  0.7654322132750149
  0.3309617708991298  0.6629495561390168  0.0173498158254514
  0.0255044682556139  0.0843480341803780  0.9693993122774985
  0.3403165476290174  0.0503321553200954  0.2241116654307126
  0.5384233329202649  0.3519087627688028  0.9820217382655609
  0.1282098072205266  0.4687538483529826  0.2693530195033758
  0.4313543540056761  0.5329646123744661  0.6250570254301371
  0.5926594629406866  0.2622998180381914  0.7837971242322479
  0.2005674158606166  0.3747448998432805  0.7026049781847243
  0.9200207614258573  0.3490741113864734  0.1486999705680223
  0.2628770921462095  0.3497579341186753  0.3016296150772417
  0.0412781432846008  0.0093478257621515  0.8076308186389567
  0.0438468528643975  0.6613218678897218  0.4822859164255687
  0.3466199275246865  0.2514442720366997  0.4733885371010437
  0.1660214057488361  0.9369348998272593  0.9439968007954858
  0.1793757764112367  0.2262319250707913  0.5862361272572315
  0.0482300589078861  0.3964713034499929  0.6083362749813580
  0.6996314567755246  0.4308583683199092  0.4363025254589541
  0.5963087514174977  0.3476187286102511  0.3086332132535221
  0.9986803421303092  0.3822160837757083  0.9982465768781988
  0.9639226965219079  0.9613057901135451  0.5997122619074071
  0.1967070497925753  0.0698643901361851  0.1129548478986885
  0.8036250582137504  0.0911195363291852  0.5404464999970578
  0.2520971277107196  0.7359041783720857  0.7255573563777891
  0.8104583402752925  0.1324096595121213  0.0340009269148171
  0.5423823908273875  0.1894408279399213  0.9732329283295889
  0.1638781383213119  0.6319497003436804  0.0714176127023515
  0.7181639356631510  0.2772331443753723  0.0650200194587262
  0.7866142033144408  0.2452397474528759  0.6848902273940312
  0.4264759943581537  0.8820454909732039  0.2010595998607212
  0.7759534717524367  0.8149881387893516  0.9889606733249131
  0.3072319372435676  0.6782361727589765  0.4267060196336109
  0.9488095033938285  0.5069195740520200  0.4811434245262858
  0.9940181654378462  0.6303184482814537  0.2551170199464822
  0.0484945027121936  0.5152243352408606  0.1141020022128106
  0.7675894625616372  0.2983147780478790  0.2799749707852034
  0.5488408507988587  0.2416755163156010  0.1578619545354973
  0.8471276529836570  0.9606014028050244  0.2744506391474994
  0.8506727059837016  0.9321603163332883  0.8445705837040284
  0.8583378302554310  0.6861650639631207  0.5122589794085007
  0.7093672263262113  0.7880746823013112  0.1621715354861110
  0.0701145513858375  0.3397222772205303  0.3821142734333446
  0.8300990209571285  0.2543453415461086  0.4614072703248354
  0.4796742493646729  0.3927747532590639  0.7585857879781850
  0.5418699055234277  0.4766071831784185  0.8980607718186983
  0.9939793721076869  0.8549330766671898  0.9524956964476164
  0.8661105264004757  0.6253040421253093  0.1496144613222052
  0.1758572207599447  0.7929981147895854  0.5235017399404646
  0.6699342075984858  0.1060637502690094  0.8902531124876523
  0.2749827527220993  0.5699773273780093  0.2106708213213520
  0.5738241340262561  0.0471021787733683  0.1511481548382116
  0.3782615160615742  0.0432694048229031  0.0093215421306989
  0.9437661738736799  0.8259156696938162  0.6723668627971719
  0.1355240623267881  0.9384973963879870  0.6711147238219309
  0.9991514657818239  0.1549134631963393  0.1318319267980118
  0.9770809524239180  0.6226786488705714  0.0692104009535935
  0.9579313834996697  0.0352310451959848  0.7110887402875645
  0.1124071534871608  0.4157970243392902  0.9154967389497973
  0.1433750221631193  0.6494611288292694  0.8870816400477726
  0.1943090321065600  0.1681898093494726  0.0215456286788573
  0.2340792991412262  0.7141267888550112  0.9380325929186152
  0.5883196246646005  0.2808043933416856  0.6396987375778516
  0.0742909005794956  0.1587505547774436  0.5357040271782103
  0.8027913233413269  0.3884532841818847  0.0945416732915533
  0.8567101435260686  0.6710221931644114  0.8248197927241753
  0.0209268747851393  0.1346381613472259  0.6815384677179702
  0.6774500625749851  0.4749378049531269  0.1009314837781369
  0.7437250675373447  0.7480971060832095  0.7356944538602591
  0.6426166341204416  0.1025980174486826  0.6148841694465397
  0.2973492035131562  0.7563490602101436  0.8445761913100932
  0.4515185401989748  0.6520107935149136  0.5293972979276647
  0.9527427202362343  0.0511618367482013  0.2829653990659074
  0.4609634587081703  0.0771061193469016  0.3770037217778263
  0.0721377211190925  0.3012931799261186  0.0740419778336076
  0.5561322953645371  0.9136606701492036  0.1748877458183366
  0.7166182895615677  0.4521994289109581  0.9845420847664986
  0.5486877894882394  0.8017971738496867  0.7794189886501562
  0.8441338959942420  0.5299796788103668  0.7773665480139577
  0.1250697039454577  0.0352749739907180  0.2561831314584803
  0.0817784133101804  0.2055757507961552  0.9969936148056830
  0.1885692819524945  0.9254804423318818  0.3034463883506655
  0.1382864869611002  0.4786330288369768  0.5098567562010613
  0.3476812252026548  0.1287612851995934  0.5278072150234311
  0.1528614896897871  0.0618770902953671  0.5017997339603827
  0.5021207693936828  0.6880847069918163  0.1539090891989874
  0.4879923562312605  0.1633945236737819  0.6325969485463997
  0.4262717622991972  0.1389281610761205  0.9282180118444396
  0.7381777139318152  0.5894437687018572  0.8779436727180722
  0.0400074515730249  0.7856316753415652  0.5388404285506109
  0.5409812887240851  0.7302228967162402  0.4987137785842768
  0.2057965240591046  0.0828834703451807  0.3841975072615182
  0.8917693978813536  0.4288794265693756  0.3254648247366968
  0.1466237708850244  0.6437944423946712  0.7310021089382814
  0.6939207902049933  0.6668284090654016  0.6503228805742998
  0.1426366438312552  0.2163080104380114  0.8859197488537535
  0.7372101295909173  0.5593738535344764  0.7022875776152774
  0.4842551856070559  0.5324892634399340  0.0838809256702928
  0.5230695089428896  0.5360373736562383  0.4393231446712188
  0.2223228742010665  0.6815809510143006  0.2601632417262827
  0.2839429196523836  0.4262463680529404  0.8890710409519915
  0.3571568862316502  0.5566226603388194  0.4630117523981276
  0.5030516661643036  0.0772308325680217  0.5263852671663201
  0.4632287119143514  0.0975981381512475  0.2178429241730350
  0.3424402973343606  0.8520776533512235  0.9390853798824700
  0.8817789703631804  0.4822972291808438  0.6306174339579090
  0.6786318994651545  0.9992659788667426  0.4064680426746670
  0.5381964047460570  0.6557053042162092  0.6265815777931968
  0.8852112195546847  0.9594968554962489  0.4115968252799764
  0.4137432864253003  0.5914910160442097  0.2193043548606975
  0.4250610603434807  0.4447165587099101  0.3646507844263202
  0.1829824571286488  0.9191063078197468  0.5474414574592225
  0.0955109091612120  0.5977754471351614  0.5921451605662155
  0.2852355069276427  0.1626232605446131  0.1606396556634692
  0.5096412023364816  0.9585205691867843  0.3649979837667336
  0.7825216773072833  0.9807502725943446  0.4755795974581843
  0.2947026982404166  0.0390242357288276  0.6679930870935696
  0.8194847592503042  0.7119199305487626  0.7579620058504639
  0.9040364944911403  0.5979908463796600  0.7977574750152999
  0.0369267280307643  0.7865963499727513  0.6299351061321669
  0.5542858175438969  0.1094356808359231  0.5964719585264882
  0.0883923028054114  0.1962742933360100  0.8157163116684474
  0.4252812423588963  0.1047721329262066  0.5805157292085096
  0.3097265101107559  0.8794215828408711  0.4462529122292772
  0.6870579201052662  0.8120713772734076  0.5332273521117521
  0.2519963029709968  0.2401171508531461  0.1914986179582810
  0.2663801297265073  0.9415514427076882  0.5727020945004934
  0.9402338780285773  0.6955693949832038  0.3215084635153238
  0.4096867826005245  0.2324488029202397  0.7598382208453573
  0.6174206319336926  0.6120181579574656  0.6295918011545979
  0.4946054351160656  0.1181155004238945  0.4480502313441642
  0.0020164908611592  0.7091817082433024  0.0755821046978110
  0.0330742437384767  0.0143052618870024  0.2527804504359945
  0.6923565299622896  0.0646955381722432  0.3449453930861081
  0.8939503462585960  0.4936974502400843  0.3926929875092975
  0.1850547735173594  0.0150091668170546  0.3280982480004203
  0.1005758566309818  0.6510787806802624  0.6591058074394474
  0.2737846570260109  0.8886048983360358  0.2964992689778254
  0.1611474620603306  0.3328993265730009  0.0858874564066697
  0.5175607355579799  0.2742614997106598  0.2646135858589720
  0.8199740090311688  0.4743386968595589  0.2879692113332686
  0.0567201216661566  0.2812599356927628  0.1642885649311908
  0.1748557004058437  0.5653729398942645  0.8822813754344756
  0.5838811073770483  0.3621374077450104  0.5969524510476815
  0.3506051260282466  0.4919109089146800  0.3975672177887629
  0.7480652792496231  0.4396863814030476  0.1497035805430477
  0.7210180104202158  0.0144924434874328  0.7170849518386876
  0.4623177140360788  0.6026128934045555  0.1397642158194316
  0.8045005741672321  0.6474094757040996  0.8978918843153445
  0.0115923032798540  0.1390839969723976  0.5948728729668039
  0.3578549862934725  0.1959593369041774  0.1130198284351838
  0.9933699046430780  0.8439598900579174  0.4927908773172150
  0.8220561463407096  0.5228208179350438  0.6840455722730808
  0.4752291689158401  0.8055990579966337  0.8381087873441910
  0.0633552227567514  0.6686500111071673  0.9319534261767908
  0.3107396954123440  0.8459952368060132  0.8482823119242882
  0.4873925312487292  0.1225453123649941  0.3028180137234255
  0.7403754558960888  0.1208703961288317  0.2300182722094103
  0.7554783630244150  0.5608697822370186  0.7909025950586536
  0.3021198335837740  0.4156582651539737  0.5623554770463849
  0.1360451348863630  0.9724506725368086  0.4916331240919800
  0.9611217400566971  0.4574285264579906  0.1619439138101606
  0.1584269519974438  0.5470301618649316  0.5595269303173179
  0.1322482528037049  0.8810725577629854  0.3602467255131155
  0.8250733600593467  0.0343285631267209  0.8702920154403303
  0.8021320407545763  0.4261019572097949  0.0120677038605222
  0.7421121099170422  0.5209580316484239  0.9336041064998629
  0.8638443001814627  0.4040894879940081  0.5920741995197268
  0.1086897354655819  0.6778740931434721  0.8060047238458248
  0.5056333241486998  0.2499677168119571  0.6098516929773105
  0.4475314714525196  0.5783499828898466  0.4736076542650882
  0.8704419790004300  0.0451798498816391  0.7296372139691585
  0.4928723638959457  0.4519002059363152  0.4251647018016713
  0.5276922317603550  0.8841581952446113  0.7451709619925005
  0.1465689022350048  0.9498252142311342  0.2242009222282552
  0.4256241204606880  0.3534940732016926  0.3629047739412355
 
  0.20852747E-03  0.35150378E-02  0.10238705E-02
 -0.35340105E-02 -0.29705394E-03 -0.18359551E-02
 -0.10550246E-02  0.64600759E-03  0.80911123E-03
  0.13025182E-02  0.13021916E-03  0.28941805E-02
  0.27449404E-02  0.13977225E-03  0.55035974E-03
  0.34776690E-02  0.14249989E-02  0.36879913E-03
  0.66309723E-03  0.24756802E-02  0.13441850E-02
 -0.11483632E-03 -0.17553592E-02 -0.10520812E-02
 -0.35095944E-02  0.16215457E-02  0.95601020E-04
 -0.26229686E-02 -0.14437513E-02 -0.12789339E-02
 -0.99319534E-03 -0.65925897E-03  0.40686006E-02
  0.18536106E-02  0.27735314E-02  0.24800615E-02
  0.25949645E-02  0.16447040E-02  0.31474542E-02
 -0.45910000E-02  0.12563455E-02  0.11117473E-02
 -0.92137052E-03 -0.24384707E-02  0.10259417E-03
 -0.73723008E-03  0.35786032E-03  0.11401982E-02
  0.31114781E-02 -0.89496260E-03  0.65344631E-03
  0.27305673E-02  0.17638069E-02 -0.24482852E-02
 -0.88394274E-03  0.23667812E-03  0.14294145E-02
  0.27145550E-02  0.17198735E-02 -0.79693235E-03
 -0.25392586E-02  0.93716748E-03  0.62501810E-03
 -0.20788149E-02  0.19098523E-02  0.14079802E-02
 -0.13361553E-02 -0.14141665E-02 -0.28550651E-02
 -0.26499183E-02  0.19269416E-02  0.11637576E-02
  0.10279554E-02  0.43277517E-02  0.58949923E-03
 -0.20941326E-03 -0.64138451E-03  0.93900410E-04
 -0.18660266E-02  0.17358876E-02  0.67555320E-04
  0.20897420E-02  0.25396594E-03  0.43583523E-02
  0.28879211E-03 -0.23431544E-02 -0.29598000E-02
  0.26771934E-02  0.54479314E-03  0.12600826E-02
  0.41233435E-02 -0.89219663E-03 -0.85988862E-03
 -0.18470348E-02 -0.79861173E-02 -0.19311484E-02
  0.12231469E-02  0.49077113E-03  0.22659648E-02
  0.17952253E-02 -0.34736530E-02  0.51967159E-03
 -0.16653151E-02 -0.28643482E-03  0.27856207E-02
  0.18876693E-02  0.86599916E-03 -0.26707443E-02
 -0.80430848E-03  0.64675581E-04  0.54284482E-03
  0.90784749E-04  0.30831459E-02 -0.15615968E-02
  0.46575448E-02  0.82181252E-03  0.79199882E-03
 -0.26134256E-02  0.13961036E-02  0.17096903E-02
 -0.30605109E-02 -0.29579330E-03  0.33120623E-04
  0.31499923E-03  0.14963607E-02  0.10370364E-02
 -0.12421859E-02  0.19865480E-02  0.10073626E-02
  0.49199278E-04  0.50667906E-04 -0.18394201E-02
 -0.28433543E-03  0.40923170E-03 -0.30302500E-02
 -0.44570220E-02 -0.19281423E-02 -0.28785103E-03
 -0.32530502E-02 -0.41093518E-03 -0.79395060E-04
  0.52116463E-02 -0.20864975E-02 -0.73919283E-03
 -0.23122410E-02 -0.39387316E-03 -0.34113196E-02
  0.42024251E-03 -0.62187911E-03 -0.33622039E-02
 -0.22705226E-02 -0.25044168E-03  0.57227156E-03
 -0.27894531E-02 -0.21573207E-02  0.12604350E-03
 -0.14351683E-02 -0.21250497E-03  0.18102577E-03
 -0.11525540E-02  0.63719861E-03  0.10958009E-02
  0.11919708E-02  0.51545242E-03  0.12343622E-03
 -0.43010311E-03  0.28619121E-02  0.28424328E-02
  0.49230325E-03 -0.18884709E-02 -0.23759385E-02
 -0.11140480E-02  0.41075206E-02  0.53806644E-02
 -0.20125038E-02  0.14858588E-03 -0.41144720E-02
 -0.97460022E-03 -0.14986050E-02 -0.14376907E-02
  0.23649492E-02 -0.50368257E-03 -0.26419678E-02
 -0.51947890E-03  0.13060829E-02 -0.13182524E-02
 -0.19035920E-02  0.10786648E-02  0.65389906E-03
  0.32643498E-02 -0.16686998E-02 -0.20559418E-02
 -0.15512643E-02 -0.16762580E-02  0.21285394E-02
 -0.11502959E-02  0.25499950E-02 -0.22347981E-02
  0.20822765E-02  0.10674479E-02 -0.30194132E-02
  0.25798040E-02 -0.20973651E-02 -0.36317829E-02
  0.19106551E-02 -0.16782495E-02 -0.91342806E-03
  0.19714155E-02 -0.38626192E-02  0.50577417E-02
  0.33860342E-03  0.36105520E-03 -0.22260467E-02
  0.37256115E-02  0.79971352E-03  0.45328507E-02
  0.54163014E-03  0.15439837E-02  0.11338645E-02
  0.81367901E-03 -0.39439576E-02  0.23436464E-02
  0.30235864E-02 -0.66792260E-02  0.32083591E-02
 -0.18692544E-02 -0.10352160E-02 -0.15394261E-02
 -0.64786556E-03  0.26962846E-02 -0.40923527E-03
 -0.14118868E-02  0.57874007E-03  0.12040181E-02
  0.24594483E-02  0.18024631E-02  0.41223615E-02
 -0.29722363E-04  0.17285320E-02 -0.32342323E-02
 -0.35758685E-02  0.72657457E-03 -0.13463233E-03
 -0.25907715E-03  0.68733175E-03  0.98780509E-03
  0.71342103E-03  0.55276517E-03  0.20410467E-02
 -0.51507293E-03  0.44928487E-03 -0.47695476E-03
 -0.20894518E-02 -0.10711173E-02 -0.30735154E-03
 -0.31012013E-02  0.15961588E-02  0.24548273E-02
 -0.54223487E-03  0.87523637E-03 -0.72501602E-03
  0.13878182E-02  0.17161855E-02 -0.17115927E-02
  0.12342715E-02 -0.10331873E-02  0.40818868E-03
  0.37154031E-02 -0.18484027E-02  0.27773271E-02
 -0.29563212E-02  0.11486414E-02 -0.40603960E-03
  0.32060031E-02  0.26678287E-02 -0.35562079E-03
  0.87232868E-03  0.14638617E-02 -0.41903733E-02
  0.54040432E-03 -0.23634361E-02  0.79000779E-03
  0.68830199E-04 -0.18414363E-02 -0.45586865E-03
 -0.15245901E-02  0.38227742E-02  0.34286889E-02
 -0.17597966E-02 -0.11214276E-02  0.11746678E-02
 -0.97537891E-03 -0.12436085E-02 -0.92189554E-03
  0.13096549E-02  0.30467044E-03  0.19721369E-02
  0.11046428E-02 -0.11070927E-02 -0.68373896E-03
 -0.99839513E-03 -0.53480193E-03  0.92017306E-03
 -0.24799180E-02 -0.16810276E-02  0.18730027E-02
  0.16528226E-02 -0.17663489E-02 -0.13537718E-02
  0.15907100E-04  0.24399948E-02  0.11833284E-02
 -0.94543598E-03  0.40475520E-03  0.20393989E-02
  0.25081051E-03  0.68013290E-03  0.76181926E-03
 -0.15300367E-02  0.45392175E-03  0.28676473E-03
  0.33516075E-03  0.16802937E-03 -0.56629788E-02
 -0.26878953E-03 -0.49641869E-03 -0.12484317E-02
 -0.10470684E-02 -0.61382343E-03 -0.90961834E-03
  0.27779550E-02  0.73495895E-03  0.10098616E-02
  0.18294745E-02  0.16808198E-02  0.18354846E-03
  0.24699295E-02 -0.10167264E-02  0.23459805E-02
 -0.14578100E-02 -0.17919157E-02 -0.69772817E-03
 -0.31615574E-02  0.19080767E-02 -0.75791493E-03
  0.22457173E-02 -0.32152774E-02 -0.82912811E-03
 -0.67537992E-03  0.12895355E-02  0.10296272E-02
 -0.10619163E-02  0.10843627E-02 -0.33282008E-03
  0.16734170E-03  0.20125061E-02 -0.87176345E-03
  0.12732151E-02 -0.31767476E-02 -0.15255655E-02
  0.88014055E-03  0.57536097E-03 -0.25019913E-02
  0.11455129E-02  0.10156301E-02  0.90281159E-03
 -0.13690103E-03  0.17276856E-02 -0.91625898E-03
 -0.55899718E-03  0.66424857E-03  0.10767245E-02
 -0.10291819E-02 -0.64264913E-03 -0.57829274E-03
  0.14668198E-02 -0.78895132E-03  0.13930197E-02
 -0.72355468E-03  0.18139325E-02 -0.59956519E-03
 -0.18182137E-03 -0.24490822E-02  0.55590056E-03
 -0.10593389E-02 -0.37702473E-02  0.14598235E-02
  0.15264738E-02 -0.10636975E-02 -0.12718954E-02
  0.17864281E-02  0.19595549E-02 -0.18121692E-02
 -0.85126730E-03  0.25557301E-02  0.29032888E-02
  0.28624877E-03  0.10947663E-02  0.15774166E-03
  0.30505487E-02 -0.19409744E-02  0.15710474E-02
 -0.13651692E-02  0.13565883E-02 -0.28170146E-04
 -0.87834767E-03  0.17518969E-03 -0.15661592E-02
  0.61503819E-03 -0.14925141E-02 -0.69901742E-03
 -0.46605775E-03 -0.11938388E-02 -0.18379393E-02
 -0.40215477E-02 -0.11409133E-03 -0.49589733E-03
 -0.11662601E-02 -0.81701147E-03  0.73575675E-03
  0.10083261E-02 -0.35957617E-03 -0.17049466E-02
 -0.50275174E-04 -0.12752718E-02 -0.11307204E-02
 -0.88978301E-03 -0.19878199E-03  0.33037836E-02
  0.13138224E-02  0.17243216E-02  0.11101484E-02
 -0.25783555E-02  0.53989127E-03  0.15092109E-02
 -0.30576472E-03  0.29095536E-02 -0.97013145E-03
  0.17514781E-02 -0.45171733E-02 -0.17222260E-02
  0.18690405E-02 -0.55301192E-03 -0.81496843E-03
 -0.15861542E-02 -0.47444868E-04  0.93472554E-03
  0.14730741E-02 -0.20060587E-03  0.19698890E-02
  0.19451277E-02 -0.33340123E-03  0.10302355E-02
 -0.63079087E-03 -0.86962932E-03  0.15284631E-04
  0.11636447E-02 -0.27104792E-03 -0.20998114E-02
  0.17488664E-02 -0.14669400E-02 -0.19036668E-04
  0.28447247E-02  0.15515581E-02  0.16137889E-02
 -0.11506059E-02  0.54414263E-03 -0.26811747E-02
 -0.32770206E-02  0.43398621E-03 -0.29802944E-03
  0.49510841E-03  0.59195022E-03 -0.20450906E-02
  0.18513924E-02  0.17521590E-02  0.22520173E-02
  0.10323094E-02  0.10883864E-02 -0.28929988E-02
  0.24756341E-02 -0.51900835E-03  0.13369663E-02
 -0.12410188E-02  0.57514726E-03  0.15267012E-02
  0.11840498E-02 -0.52026341E-03 -0.28375311E-02
 -0.73640903E-03  0.10535237E-02 -0.36428854E-03
 -0.15888525E-02 -0.15159062E-02  0.26785803E-02
 -0.18349506E-02 -0.16280272E-02 -0.41478089E-02
 -0.16480735E-02  0.29222020E-02 -0.96208043E-03
  0.14718150E-02  0.24730767E-03  0.32079976E-03
 -0.77171580E-03 -0.11368775E-02 -0.10021758E-02
 -0.29837349E-02 -0.14120822E-02  0.16453837E-02
 -0.14976390E-02 -0.25189026E-02 -0.10215729E-02
  0.18572948E-02 -0.42337486E-02  0.13271971E-02
 -0.19091838E-02  0.25549886E-02  0.17642085E-02
  0.20488642E-02 -0.14712162E-02  0.23256876E-02
 -0.75011244E-03 -0.18235110E-02 -0.51777960E-03
 -0.14585339E-02  0.22346144E-02 -0.33209643E-02
  0.15155727E-02 -0.89714237E-03  0.61787637E-03
 -0.95517798E-03 -0.37279138E-02  0.33744971E-03
 -0.27998582E-02  0.37141875E-03 -0.15527954E-02
  0.25923402E-02 -0.17271699E-02  0.11767225E-02
 -0.13236607E-02 -0.44953269E-02  0.30521670E-02
 -0.29405990E-02 -0.41304381E-03  0.71351211E-04
 -0.32121543E-02  0.90352400E-03  0.51446552E-03
 -0.11948887E-02  0.14296898E-02 -0.33260927E-03
 -0.37845362E-02 -0.14179932E-02 -0.17011716E-02
 -0.17862174E-02  0.19619653E-02  0.26901675E-02
  0.11205918E-03 -0.43541565E-02 -0.54148383E-02
 -0.12879995E-03  0.26269795E-02  0.33891850E-02
 -0.50904463E-03 -0.25374266E-02  0.22381236E-02
  0.38673890E-03  0.79103122E-03 -0.13893210E-02
 -0.19561842E-03 -0.33436483E-04  0.16687171E-03
 -0.79448081E-03 -0.20174912E-02 -0.21771939E-02
 -0.13071860E-02 -0.96514619E-03  0.37134670E-02
  0.69946906E-04 -0.10368070E-02  0.48270086E-03
 -0.20952218E-02  0.14901898E-02  0.17105379E-02
  0.10855318E-02  0.49239242E-03 -0.26801586E-03
 -0.16510239E-04  0.35701893E-02 -0.55538814E-02
 -0.21978248E-02  0.42153946E-02 -0.48025364E-02
  0.45158880E-02 -0.58536338E-03 -0.21150549E-02
  0.46244402E-02 -0.15125522E-02  0.12008818E-03
 -0.14632314E-02 -0.11595246E-02 -0.85454595E-03
  0.43799405E-02 -0.19569834E-02  0.33673222E-02
  0.61974914E-03  0.57010768E-03 -0.61776579E-03
 -0.68891380E-03  0.12358542E-02 -0.36936295E-02
 -0.20453454E-02 -0.27165097E-02  0.22013061E-02
 -0.16274234E-02  0.46376776E-02  0.34802625E-03
  0.64042955E-02 -0.71103259E-03  0.45353468E-02
  0.74559970E-03  0.27586450E-02  0.65602260E-04
 -0.29359128E-02  0.72736189E-03 -0.34142210E-02
 -0.28886541E-02 -0.12965968E-02  0.10386651E-02
 -0.17449713E-02 -0.11252231E-02 -0.17644433E-02
  0.37207895E-03  0.26453195E-02  0.13325203E-02
  0.18548588E-03 -0.26905528E-03 -0.97121975E-03
 -0.14636506E-02 -0.41144970E-04  0.20257413E-04
 -0.31589891E-02 -0.15641544E-02 -0.18648146E-03
 -0.24608712E-02 -0.11536993E-02 -0.19653046E-02
  0.84143260E-03  0.18388919E-02 -0.20404300E-02
  0.29568788E-02 -0.22027237E-02 -0.13966184E-02
 -0.36978917E-03  0.25736272E-02  0.16966465E-02
 -0.41502494E-03 -0.11400545E-02 -0.21097934E-02
  0.16616144E-02  0.23362204E-02 -0.20439986E-02
 -0.32263835E-02  0.19334449E-02 -0.21289857E-02
 -0.82854377E-03 -0.84811536E-03 -0.33773553E-02
  0.15587165E-02 -0.13277520E-02  0.24153165E-02
  0.39483798E-03  0.15573432E-02  0.27737724E-02
 -0.23955493E-02  0.19065023E-02 -0.15619635E-02
  0.83789254E-03  0.41007885E-03 -0.42357935E-02
 -0.36724461E-04  0.48762981E-03 -0.98754413E-03
 -0.31153924E-02  0.49358248E-03 -0.14370762E-02
  0.16238880E-02  0.11236326E-02 -0.14789477E-02
  0.57715193E-03  0.50016131E-03  0.15688185E-02
  0.90698880E-03  0.24246368E-02 -0.20592332E-02