Ge Se                                   
   1.00000000000000     
    23.1333658196260359    0.0000000000000000    0.0000000000000000
     0.0000000000000000   23.1333658196260359    0.0000000000000000
     0.0000000000000000    0.0000000000000000   23.1333658196260359
   Ge   Se
    30   270
Direct
  0.4972355636302536  0.9035866067605114  0.4404564114613331
  0.6135351889750043  0.5968517579558092  0.6734105310783043
  0.0374861161301942  0.5347943770695616  0.1488795046570286
  0.3629003360578730  0.3444791847806618  0.3587920223577320
  0.0309466089522827  0.2981146796667559  0.3734997777650263
  0.4221716462336054  0.0412855611650768  0.4475648204852625
  0.4050256231720171  0.3675572999194817  0.6887623893027798
  0.4922721356164658  0.1347524927719219  0.6099433793569420
  0.6788184032849615  0.7233901569173261  0.4069720801182805
  0.6503485402659334  0.0177578703929494  0.2748543077121131
  0.7714789652536747  0.9198137917469285  0.6965775054409289
  0.3435800553416683  0.1948530547599913  0.3752104143733324
  0.7771352819408491  0.0356506867808681  0.8259158049487789
  0.1626020345375557  0.0067737747006697  0.1654531854249813
  0.5380267648855476  0.7520259817531907  0.4992205188517307
  0.3826540845081602  0.7368148324631842  0.5868532521059919
  0.4102358069229977  0.4475495130498529  0.8598383745133394
  0.5194346907304551  0.2207015069103755  0.2305640243664950
  0.2128028405902417  0.2929317384446621  0.3496661869877370
  0.1894356220141551  0.4974868692921754  0.1949689654526215
  0.1574288311243898  0.5598468616976681  0.3354279530423641
  0.9207890579936799  0.9212691934637438  0.5255981837469418
  0.8143091135055952  0.8041034157372181  0.4602465997888594
  0.4921260796325614  0.2066590659979693  0.7283742054077635
  0.0071410790744655  0.7721369785054288  0.7863428748421247
  0.1791277698101739  0.4305151901746528  0.7353718531915078
  0.5412963025287216  0.3802023967076370  0.7408682190495611
  0.7913244718920951  0.5982777270017742  0.4609831590753146
  0.5082142764181220  0.7235408084311552  0.6682328648595897
  0.6941236791279927  0.8733553044508016  0.5500320020998196
  0.9710212520278100  0.2562113822341668  0.5499847793972722
  0.2345418781130090  0.1882369769197973  0.8388140322142573
  0.1308875418269301  0.9097209081435675  0.2847542334309735
  0.8914343341411133  0.0299403712333879  0.5100402013985486
  0.0232882921297473  0.2944407242341108  0.1872609968239858
  0.4890619206444332  0.3073897950593775  0.6721697592656596
  0.5542958066863124  0.6091904342787960  0.4018126734604857
  0.5302647582585394  0.9771930335404220  0.6456777222524298
  0.3042116153282298  0.8563690762343981  0.4262179906394233
  0.2368040494605859  0.4682488489994432  0.8191624301497569
  0.2728220585486574  0.1191475615862088  0.3428086318047692
  0.0629363449222889  0.3775318381578557  0.4834298025095679
  0.4737032737614754  0.4684750954247394  0.1299095284798376
  0.1793606632644920  0.0470799116743930  0.8933092134271836
  0.9595187816790900  0.3636343979551075  0.3254124130736182
  0.6185817125287555  0.9504637180527905  0.7906719425183736
  0.8967071715621457  0.0577385743931310  0.2919769032099211
  0.3439141643221823  0.4679400395421465  0.4355515045482866
  0.1470157465191339  0.7218099406728292  0.0312937576358807
  0.3209809486572740 -0.0001313236924198  0.1160060914274665
  0.2327345111263564  0.5757368096544486  0.4067723946521835
  0.7724098227605667  0.7741247337343307  0.9672111475067628
  0.3953440087433827  0.9351489327698979  0.9188924175216661
  0.1298199929504606  0.2983225380249975  0.7572603116041373
  0.3680840830708410  0.9754917049650845  0.5165030277188827
  0.5144091091247317  0.5418833684652437  0.2559024668887405
  0.2748973494697008  0.4917788249900867  0.1345066099340582
  0.3132882139910439  0.9838124051163275  0.6791149741910217
  0.4106827822749191  0.8432146726433288  0.8753106260219314
  0.3101347831708592  0.3393049453106201  0.4545874439146140
  0.3821611955810064  0.9235540402278785  0.0848163012524361
  0.7077385020755892  0.8970535994674805  0.7904568714998848
  0.2608956956320275  0.4013691356413693  0.6711814140229055
  0.5412006169738509  0.5400432896427249  0.6237215230953818
  0.6395063203439127  0.6198006652787950  0.9580060663200368
  0.4479016106097093  0.4423280806299348  0.7502098656913470
  0.5686645515131397  0.6077731982691985  0.1949700650490822
  0.4671079494893119  0.1773148917807851  0.5137145643332593
  0.4413230413399353  0.2741801495326726  0.8283308906848135
  0.6280287532083573  0.4963404909398786  0.0954548012541794
  0.2477956421957420  0.8056918373267992  0.8538541144926701
  0.9497255380736443  0.3045884438057125  0.1120956485735087
  0.4159609771002559  0.1473113610048701  0.6763090526370633
  0.3898535276222029  0.9296678475297010  0.7215282616975686
  0.8345842425031932  0.8527441468251042  0.1856498689760023
  0.9827354723170988  0.4452984238076387  0.0929928690183474
  0.4958902883392173  0.8253575768607810  0.3666912075403987
  0.2622835881635082  0.2461721041270742  0.4403817735625439
  0.5425916614960313  0.8519446545922628  0.5244146877756368
  0.8893762495214339  0.2992528873366976  0.5948603752540543
  0.9691414703114331  0.0386258380404690  0.8101659508383683
  0.3966825394725313  0.2807834227993882  0.5018460998326773
  0.2309417373812504  0.1136615838754086  0.6069624714595908
  0.0561720014587837  0.9771653471506651  0.5576472026910932
  0.2439001528494994  0.4706604304460711  0.4430327202587422
  0.1251912165533626  0.7173246290283285  0.8682201435553120
  0.0007506287533930  0.9281519600519541  0.6885511765423535
  0.4602771154241939  0.3076653392706024  0.3720969218637281
  0.1207646088791912  0.4696729944494654  0.1226286024197675
  0.4705712014501109  0.2314755355851474  0.0870758324015728
  0.7304002536074223  0.1662817768217690  0.5397049549485605
  0.5504583009605015  0.6471938043042880  0.9169234898733553
  0.0617921118777093  0.3788113463885288  0.7362887388924496
  0.6309505037446155  0.7019512598564771  0.4969785627433787
  0.9031235067158647  0.7717110412586649  0.7730494806968826
  0.5649264100727306  0.8146862082797984 -0.0811089044065478
  0.4233555066283456  0.4461157928475135  0.0445112803052897
  0.0046935859433595  0.6675907601102899  0.2365725469656287
  0.8750659339776660  0.6528188054542944  0.4910582131694134
  0.0007499256325634  0.1674771268172562  0.0448284060481655
  0.0920222016837329  0.5404669467390114  0.6417293080692212
  0.8451583132371217  0.6140922673635543  0.0502238961848238
  0.9174568162156416  0.5371446462020554  0.3798943637925132
  0.3351353306695529  0.6408232465403036  0.5937713797344363
  0.0865866820313942  0.6941778505206577  0.6605532437478547
  0.9016084819112673  0.0409788610133303  0.6114140754917350
  0.7717630944847876  0.9698052908192970  0.3612594688804956
  0.0897234327829216  0.8392761377763248  0.4729632122439985
  0.3129408681470044  0.8124009639209158  0.3359839133079134
  0.7737053784707510  0.0163980855058370  0.4938612637118367
  0.7009908426933783  0.8238371544592540  0.0226156295704584
 -0.0043282990376960  0.1978296779193973  0.8797542486452298
  0.5819037560393168  0.7983217438712196  0.6654268053409856
  0.2790015294640351  0.2728426551428759  0.9771532279275182
  0.7890310095842062  0.2070709459120876  0.6957166892207886
  0.8456812075329313 -0.0044188335809783  0.9512732727593664
  0.8161838124741154  0.0434589198873226  0.7292848164554543
  0.3759348289564092  0.1981092853287008  0.0986133905339659
  0.2111492971588711  0.3366665910761932  0.0195225299246372
  0.8279435454766209  0.5092524343578190  0.4203868017650282
  0.2356035234098305  0.9211218489857753  0.6613175857682225
  0.0997377886672364 -0.0002045408102843  0.4705414688236233
  0.1822867847105261  0.9229586219046562  0.7493503801592636
  0.7182320548051824  0.5645907249925339  0.5284260890519741
  0.8901182964747812  0.8048521544082210  0.6748535939843240
  0.3667565578386748  0.3393210576034087  0.8655843860520089
  0.6361460716525967 -0.0301205449581401  0.0510143302851402
  0.6147499893256505  0.8093958213163025  0.2788758261962992
  0.0729229418562009  0.6096212222055377  0.3752935670591400
  0.9287879792372433  0.3408770412911250  0.8232051018931320
  0.2946017316762427  0.7854743093626070  0.0904051790178862
  0.3032218156855908  0.0624535964990811  0.0355603168395330
  0.2915051566931086  0.6519257419521631  0.8018917291766887
  0.1919851796183877  0.7907733064170568  0.0910817543389172
  0.8036483429971287  0.2856055117743632  0.4558124080521361
  0.5995217398641196  0.5188774751097507  0.4107525123068457
  0.0652698827129476  0.6916156901428945  0.3159011009035164
  0.1362343386025141  0.4951527361358080  0.9521810841675843
  0.2019047041993569  0.0030623991390615  0.4859940537400595
  0.6334712470283627  0.1595321410692148  0.3356601515969284
  0.6201578298061172  0.7165353933632890  0.3195237872094567
  0.0297319830774012  0.2304834591615310 -0.0290917609002218
  0.8976963458265202 -0.0032592381843420  0.1367366392609402
  0.1739278570560125  0.5917342386753536  0.2370067789945823
  0.3946296901688828  0.6476569477743580  0.0763149989524894
  0.8448507188076240  0.1424704376308486  0.7529485057545136
  0.8280190386205842  0.7315641999539646  0.5343669740824519
  0.5818430083638050  0.1822020222350664  0.9118874248401947
  0.9570004114807940  0.2330874354809345  0.4196488788344757
  0.9251238698738361  0.6665299094383020  0.0143581910382933
  0.5168107132569334  0.0419388844399693  0.5671702656724616
  0.8188107603524699  0.9415787786670717  0.1016668045774672
  0.3277452883594020  0.0326451073849125  0.3829729411972579
  0.2171640020718590  0.7205185762507451  0.5124882072969634
  0.5250479120892779  0.7338142597794072 -0.0347033311611197
  0.7032391191111033  0.2441082640945376  0.7365211741983070
  0.5867791524523153  0.0831115208358192  0.9230088974257422
  0.4573193967923704  0.9058942500799134  0.6476303878754338
  0.7500511283370649  0.1063094345284083  0.4554384472588070
  0.1875025507230121  0.5176879438296056  0.6696720751024914
  0.5016407352772676  0.3602068826039891  0.2942999345757573
  0.0878542007543427  0.9559835273961129  0.0328340021720527
  0.3847951447694459  0.4123432632016436  0.5945764121687820
  0.3076160474702264  0.6638847381601357  0.4997237914930412
  0.6933679605939265  0.3358119570716248  0.8711331583532173
  0.2208094145639107  0.1013964568100318  0.5051434352443817
  0.3794319977184443  0.1265934233857321  0.0218586540042499
  0.8709654598200678  0.8083335314481869  0.3731606776357180
  0.9040493705809454  0.9385986361136289  0.6402262162665482
  0.4899978754287367  0.6867360867766370  0.5684773972883358
  0.2142213926890834  0.0974764460234634  0.1797566751033160
  0.1220635094343776  0.4610830501158101  0.3275253712694191
  0.5038674294249191  0.4331699284481282  0.9088545996942086
  0.2149701697606508  0.6883495350184643  0.3781926900139110
  0.7405521961845308  0.6431932382303366  0.3815056732589982
  0.1817459430273065  0.9666444924943881  0.0694669671107257
  0.2258360768087746  0.7587321016672187  0.6053256825096042
  0.6432380707907343  0.0397557886647876  0.7504424837843412
  0.9608566214961033  0.8705597935098237  0.0560936734461787
  0.5785851769273384  0.0048232234747156  0.2010370223338782
  0.0509163231488370  0.8686327317669261  0.5601145563294799
  0.0222499930098857  0.3773179472065197  0.2456148770812215
  0.1864067653630732  0.6911873524534442  0.6742457016113914
  0.9090948938854964  0.2456485407660156  0.8524605765288900
  0.6787035905621108  0.6702915925975188  0.6338288864111910
  0.0752480993901380  0.2153758848944106  0.7456526107630785
  0.7054488663820490  0.8289668789221973  0.2303692955664124
  0.7240199028617522  0.3375369195029835  0.7741418530508051
  0.5855823475148405  0.0040644416623010  0.3569570281560038
  0.8697234021320489 -0.0326331285789745  0.3321989138856538
  0.6063894304904838  0.2433282103103206  0.2862376306167890
  0.8415483938909545  0.3528219111873558  0.5220215183564143
  0.7016484577578858  0.1088955877920774  0.2780999013673722
  0.1411572285650821  0.2302581414568260  0.1161269851374990
  0.9342509101472958  0.8179573156129183  0.9719821237292893
  0.6511465206378102  0.5517699750877418  0.1788556564038229
  0.0585610778207961  0.9961155807813515  0.1791532804567059
  0.0855619063992635  0.5341388682238929  0.5393677127127189
  0.2120551493925114  0.9597181271361740  0.2458266879559516
  0.3910075127770395  0.8800566981208300  0.4869342759181386
  0.6655136441041789  0.9682522534351349  0.4985938244645537
  0.0407993999490419  0.4543043328874037  0.9320875886866148
  0.3956581680287562  0.1364683217761523  0.8509775541795804
  0.5715307465826436  0.1800947386681383  0.6558161748095894
  0.0610931118833583  0.8593955167720322  0.0659722723002364
  0.6509376604111710  0.7570838987386389  0.0777845096442929
  0.3508405938630083  0.6329144539622865  0.1673309861435124
  0.7652399751813487  0.5497250856329711  0.6843659529428350
  0.0388353657428994  0.1308841113767621  0.3185535691506036
  0.0864064038763524  0.0769021210658987  0.9249114812064243
  0.3373713309017507  0.9861843279647279  0.8522718966787578
  0.3169323592661871  0.7511600709698122  0.8003539206056866
  0.9430810368629889  0.8750067644682203  0.8877041454790879
  0.1872327470444174  0.1967795074903167  0.3037324132716513
  0.1047189255830518  0.7749788249465812  0.9520526706065182
  0.6583202772086812  0.7419734257762215  0.7032177381676801
  0.3773740434687110  0.1273160509434966  0.5006906763369443
  0.4726088884124981  0.7410551327010918  0.4187529402424385
  0.3596838098049137  0.9747897326434983  0.3032463487989582
  0.7107071848721782  0.7435869543273537  0.1665833022478968
  0.0665140377802663  0.6022452979679224  0.0727589749044229
  0.4008113153126452  0.0476701179433108  0.8006093482454658
  0.0159383097053769  0.4653798639586195  0.5116243736706211
  0.8127552364203784  0.8868259883010978  0.5248366254667531
  0.4758368410358931  0.3133042804185742  0.2062971403910515
  0.8424368192673571  0.0814097275339747  0.8938850676373191
  0.4631331101474933  0.5062689614625773 -0.0290143954275469
  0.9199599480812801  0.2102189539078279  0.0939596811461386
  0.5663828326144813  0.4223439305007660  0.1292086599439506
  0.5404066254485493  0.9634962101355898  0.0040853082920232
  0.7124383385263940  0.2515930657513486  0.4893143303232322
  0.7773940665941053  0.0088500202465316  0.0266303124483435
  0.1386386698537282  0.0973175581937525  0.6474532075815940
  0.3002367720289977  0.5860733137849458  0.9528752862357059
  0.8549875788510822  0.0661368578757320  0.1992870077750065
  0.0551091775159411  0.3135708703027464  0.5625362023215671
  0.4772849131381571  0.5945553571813439  0.3319293510813189
  0.3670644030017935  0.3240405281130730  0.9690766280151970
  0.6871246482958507  0.9376686428949441  0.6341717759574900
  0.0196125707665047  0.3925609343786700  0.0067957072693147
  0.8801457645556898  0.4553131963652246  0.0848379485401226
  0.4469636333411057  0.0108104292622227  0.2652987777965752
  0.9083469517335342  0.6599093485541763  0.2701505814304005
  0.0647850345550978  0.9867666141072852  0.2810901544677062
  0.4461065832023591  0.1666851628721819  0.2854954305905201
  0.5892227235015979  0.4653387694576564  0.5713296746864315
  0.7268975999314627  0.9458898696901853  0.2695067991597387
  0.7243116905643101  0.8173322568068251  0.4065536959522058
  0.7879911478102570  0.8112450172602745  0.6815998669228485
  0.7720213141315717  0.9393843648887258  0.8678606981649282
  0.0350162003631830  0.8550484865553785  0.8463595070353648
  0.7851275216811713  0.2236697276511449  0.9382013857749751
  0.0537429232099388  0.7872941408871318  0.6933711784684610
  0.1189613958045533  0.1580067855414571  0.3719140210409663
  0.1994121127165161  0.1488335328036449  0.0921289879496557
  0.5044826538783793  0.8349146618373645  0.8377573244580286
  0.6882510993633320  0.0908790860852225  0.8275808340562343
  0.0331303952912623  0.6844385136288652  0.8375044649478903
  0.6279908069497022  0.2287065628190878 -0.0062654805645755
  0.1670283816572680  0.5293275810861178  0.8624676313340618
  0.1737625239444797  0.8276991205039789  0.7847172491570348
  0.5379311212052460  0.6436465734554859  0.7292321655463788
  0.3665843360000160  0.4451027304156182  0.3367292892135517
  0.7232975524318290  0.7420209336513650  0.8838084353009444
  0.3147762920116730  0.6665085063076996  0.0138656320485882
  0.8117407169856576  0.7677553398922566  0.1405166449539689
  0.1918235078346292  0.1000846135925793  0.8075707584098747
  0.3306239513269977  0.8579929501717918  0.0266350449925465
  0.6745375078149055  0.5250361395119968  0.7228631842205905
  0.8968940724534282  0.5593619122001041  0.2820480511379899
 -0.0256594368200619  0.2147023159168539  0.3189762758430016
  0.5304712483327325  0.3241216154889508  0.8340989753212548
  0.8530907358372386  0.5200185606800357  0.0116303309165911
  0.0267659957615363  0.8569037732223227  0.3930570853351905
  0.5459586658541494  0.4641190053514915  0.4793282543759175
  0.9670293984851003  0.7739464110842013  0.3808103722510341
  0.3113589704214525  0.2784749963538133  0.2959510982917380
  0.6253035963564092  0.0436979533383238  0.1167260101597636
  0.5131609448623428  0.0589084487919275 -0.0044932854717704
  0.3081574464229168  0.7105623956957031  0.3414019696241637
  0.9684683219976499  0.3372948910705080  0.7281442700193265
  0.2080079760622878  0.3075730220666136  0.1172535971200482
  0.0202076474249304  0.0214671263769342  0.7218023790687117
  0.7699654929914996  0.5041249414798126  0.5935778147654749
  0.3266242671847560  0.1884685810342777  0.7950545128946305
  0.6394731028180933  0.9308804860877323  0.4045064881351351
  0.0777476598873356  0.1797024646204637  0.6479342337959276
  0.0223388665795167  0.0045561953322506  0.8907377283701174
  0.5378519790403640  0.1739015106453517  0.1393304891021217
  0.4488499636549996  0.3626519888366980  0.5329222626880680
 -0.0043671932517943  0.6751621319801202  0.0875260345799592
  0.4177273665745602  0.0962988174816163  0.2170144396352303
  0.3506817892311523  0.5330777431632330  0.1889082505304372
  0.4157661018062313  0.7541406450802602  0.6944646447893638
  0.7121471871038616  0.6408721442006243  0.8898000662269248
  0.7187889562690850  0.1907829604389013  0.0113185590598735
  0.2025783681323001  0.4292198471952722  0.2737469488356939
  0.7734379546883801  0.3241255003089508  0.9339445078821682
  0.3155064196547647  0.3268140250991535  0.7205115582765612
  0.3540621080906149  0.6055628271566412  0.8682392977654960
 
  0.00000000E+00  0.00000000E+00  0.00000000E+00
  0.00000000E+00  0.00000000E+00  0.00000000E+00
  0.00000000E+00  0.00000000E+00  0.00000000E+00
  0.00000000E+00  0.00000000E+00  0.00000000E+00
  0.00000000E+00  0.00000000E+00  0.00000000E+00
  0.00000000E+00  0.00000000E+00  0.00000000E+00
  0.00000000E+00  0.00000000E+00  0.00000000E+00
  0.00000000E+00  0.00000000E+00  0.00000000E+00
  0.00000000E+00  0.00000000E+00  0.00000000E+00
  0.00000000E+00  0.00000000E+00  0.00000000E+00
  0.00000000E+00  0.00000000E+00  0.00000000E+00
  0.00000000E+00  0.00000000E+00  0.00000000E+00
  0.00000000E+00  0.00000000E+00  0.00000000E+00
  0.00000000E+00  0.00000000E+00  0.00000000E+00
  0.00000000E+00  0.00000000E+00  0.00000000E+00
  0.00000000E+00  0.00000000E+00  0.00000000E+00
  0.00000000E+00  0.00000000E+00  0.00000000E+00
  0.00000000E+00  0.00000000E+00  0.00000000E+00
  0.00000000E+00  0.00000000E+00  0.00000000E+00
  0.00000000E+00  0.00000000E+00  0.00000000E+00
  0.00000000E+00  0.00000000E+00  0.00000000E+00
  0.00000000E+00  0.00000000E+00  0.00000000E+00
  0.00000000E+00  0.00000000E+00  0.00000000E+00
  0.00000000E+00  0.00000000E+00  0.00000000E+00
  0.00000000E+00  0.00000000E+00  0.00000000E+00
  0.00000000E+00  0.00000000E+00  0.00000000E+00
  0.00000000E+00  0.00000000E+00  0.00000000E+00
  0.00000000E+00  0.00000000E+00  0.00000000E+00
  0.00000000E+00  0.00000000E+00  0.00000000E+00
  0.00000000E+00  0.00000000E+00  0.00000000E+00
  0.00000000E+00  0.00000000E+00  0.00000000E+00
  0.00000000E+00  0.00000000E+00  0.00000000E+00
  0.00000000E+00  0.00000000E+00  0.00000000E+00
  0.00000000E+00  0.00000000E+00  0.00000000E+00
  0.00000000E+00  0.00000000E+00  0.00000000E+00
  0.00000000E+00  0.00000000E+00  0.00000000E+00
  0.00000000E+00  0.00000000E+00  0.00000000E+00
  0.00000000E+00  0.00000000E+00  0.00000000E+00
  0.00000000E+00  0.00000000E+00  0.00000000E+00
  0.00000000E+00  0.00000000E+00  0.00000000E+00
  0.00000000E+00  0.00000000E+00  0.00000000E+00
  0.00000000E+00  0.00000000E+00  0.00000000E+00
  0.00000000E+00  0.00000000E+00  0.00000000E+00
  0.00000000E+00  0.00000000E+00  0.00000000E+00
  0.00000000E+00  0.00000000E+00  0.00000000E+00
  0.00000000E+00  0.00000000E+00  0.00000000E+00
  0.00000000E+00  0.00000000E+00  0.00000000E+00
  0.00000000E+00  0.00000000E+00  0.00000000E+00
  0.00000000E+00  0.00000000E+00  0.00000000E+00
  0.00000000E+00  0.00000000E+00  0.00000000E+00
  0.00000000E+00  0.00000000E+00  0.00000000E+00
  0.00000000E+00  0.00000000E+00  0.00000000E+00
  0.00000000E+00  0.00000000E+00  0.00000000E+00
  0.00000000E+00  0.00000000E+00  0.00000000E+00
  0.00000000E+00  0.00000000E+00  0.00000000E+00
  0.00000000E+00  0.00000000E+00  0.00000000E+00
  0.00000000E+00  0.00000000E+00  0.00000000E+00
  0.00000000E+00  0.00000000E+00  0.00000000E+00
  0.00000000E+00  0.00000000E+00  0.00000000E+00
  0.00000000E+00  0.00000000E+00  0.00000000E+00
  0.00000000E+00  0.00000000E+00  0.00000000E+00
  0.00000000E+00  0.00000000E+00  0.00000000E+00
  0.00000000E+00  0.00000000E+00  0.00000000E+00
  0.00000000E+00  0.00000000E+00  0.00000000E+00
  0.00000000E+00  0.00000000E+00  0.00000000E+00
  0.00000000E+00  0.00000000E+00  0.00000000E+00
  0.00000000E+00  0.00000000E+00  0.00000000E+00
  0.00000000E+00  0.00000000E+00  0.00000000E+00
  0.00000000E+00  0.00000000E+00  0.00000000E+00
  0.00000000E+00  0.00000000E+00  0.00000000E+00
  0.00000000E+00  0.00000000E+00  0.00000000E+00
  0.00000000E+00  0.00000000E+00  0.00000000E+00
  0.00000000E+00  0.00000000E+00  0.00000000E+00
  0.00000000E+00  0.00000000E+00  0.00000000E+00
  0.00000000E+00  0.00000000E+00  0.00000000E+00
  0.00000000E+00  0.00000000E+00  0.00000000E+00
  0.00000000E+00  0.00000000E+00  0.00000000E+00
  0.00000000E+00  0.00000000E+00  0.00000000E+00
  0.00000000E+00  0.00000000E+00  0.00000000E+00
  0.00000000E+00  0.00000000E+00  0.00000000E+00
  0.00000000E+00  0.00000000E+00  0.00000000E+00
  0.00000000E+00  0.00000000E+00  0.00000000E+00
  0.00000000E+00  0.00000000E+00  0.00000000E+00
  0.00000000E+00  0.00000000E+00  0.00000000E+00
  0.00000000E+00  0.00000000E+00  0.00000000E+00
  0.00000000E+00  0.00000000E+00  0.00000000E+00
  0.00000000E+00  0.00000000E+00  0.00000000E+00
  0.00000000E+00  0.00000000E+00  0.00000000E+00
  0.00000000E+00  0.00000000E+00  0.00000000E+00
  0.00000000E+00  0.00000000E+00  0.00000000E+00
  0.00000000E+00  0.00000000E+00  0.00000000E+00
  0.00000000E+00  0.00000000E+00  0.00000000E+00
  0.00000000E+00  0.00000000E+00  0.00000000E+00
  0.00000000E+00  0.00000000E+00  0.00000000E+00
  0.00000000E+00  0.00000000E+00  0.00000000E+00
  0.00000000E+00  0.00000000E+00  0.00000000E+00
  0.00000000E+00  0.00000000E+00  0.00000000E+00
  0.00000000E+00  0.00000000E+00  0.00000000E+00
  0.00000000E+00  0.00000000E+00  0.00000000E+00
  0.00000000E+00  0.00000000E+00  0.00000000E+00
  0.00000000E+00  0.00000000E+00  0.00000000E+00
  0.00000000E+00  0.00000000E+00  0.00000000E+00
  0.00000000E+00  0.00000000E+00  0.00000000E+00
  0.00000000E+00  0.00000000E+00  0.00000000E+00
  0.00000000E+00  0.00000000E+00  0.00000000E+00
  0.00000000E+00  0.00000000E+00  0.00000000E+00
  0.00000000E+00  0.00000000E+00  0.00000000E+00
  0.00000000E+00  0.00000000E+00  0.00000000E+00
  0.00000000E+00  0.00000000E+00  0.00000000E+00
  0.00000000E+00  0.00000000E+00  0.00000000E+00
  0.00000000E+00  0.00000000E+00  0.00000000E+00
  0.00000000E+00  0.00000000E+00  0.00000000E+00
  0.00000000E+00  0.00000000E+00  0.00000000E+00
  0.00000000E+00  0.00000000E+00  0.00000000E+00
  0.00000000E+00  0.00000000E+00  0.00000000E+00
  0.00000000E+00  0.00000000E+00  0.00000000E+00
  0.00000000E+00  0.00000000E+00  0.00000000E+00
  0.00000000E+00  0.00000000E+00  0.00000000E+00
  0.00000000E+00  0.00000000E+00  0.00000000E+00
  0.00000000E+00  0.00000000E+00  0.00000000E+00
  0.00000000E+00  0.00000000E+00  0.00000000E+00
  0.00000000E+00  0.00000000E+00  0.00000000E+00
  0.00000000E+00  0.00000000E+00  0.00000000E+00
  0.00000000E+00  0.00000000E+00  0.00000000E+00
  0.00000000E+00  0.00000000E+00  0.00000000E+00
  0.00000000E+00  0.00000000E+00  0.00000000E+00
  0.00000000E+00  0.00000000E+00  0.00000000E+00
  0.00000000E+00  0.00000000E+00  0.00000000E+00
  0.00000000E+00  0.00000000E+00  0.00000000E+00
  0.00000000E+00  0.00000000E+00  0.00000000E+00
  0.00000000E+00  0.00000000E+00  0.00000000E+00
  0.00000000E+00  0.00000000E+00  0.00000000E+00
  0.00000000E+00  0.00000000E+00  0.00000000E+00
  0.00000000E+00  0.00000000E+00  0.00000000E+00
  0.00000000E+00  0.00000000E+00  0.00000000E+00
  0.00000000E+00  0.00000000E+00  0.00000000E+00
  0.00000000E+00  0.00000000E+00  0.00000000E+00
  0.00000000E+00  0.00000000E+00  0.00000000E+00
  0.00000000E+00  0.00000000E+00  0.00000000E+00
  0.00000000E+00  0.00000000E+00  0.00000000E+00
  0.00000000E+00  0.00000000E+00  0.00000000E+00
  0.00000000E+00  0.00000000E+00  0.00000000E+00
  0.00000000E+00  0.00000000E+00  0.00000000E+00
  0.00000000E+00  0.00000000E+00  0.00000000E+00
  0.00000000E+00  0.00000000E+00  0.00000000E+00
  0.00000000E+00  0.00000000E+00  0.00000000E+00
  0.00000000E+00  0.00000000E+00  0.00000000E+00
  0.00000000E+00  0.00000000E+00  0.00000000E+00
  0.00000000E+00  0.00000000E+00  0.00000000E+00
  0.00000000E+00  0.00000000E+00  0.00000000E+00
  0.00000000E+00  0.00000000E+00  0.00000000E+00
  0.00000000E+00  0.00000000E+00  0.00000000E+00
  0.00000000E+00  0.00000000E+00  0.00000000E+00
  0.00000000E+00  0.00000000E+00  0.00000000E+00
  0.00000000E+00  0.00000000E+00  0.00000000E+00
  0.00000000E+00  0.00000000E+00  0.00000000E+00
  0.00000000E+00  0.00000000E+00  0.00000000E+00
  0.00000000E+00  0.00000000E+00  0.00000000E+00
  0.00000000E+00  0.00000000E+00  0.00000000E+00
  0.00000000E+00  0.00000000E+00  0.00000000E+00
  0.00000000E+00  0.00000000E+00  0.00000000E+00
  0.00000000E+00  0.00000000E+00  0.00000000E+00
  0.00000000E+00  0.00000000E+00  0.00000000E+00
  0.00000000E+00  0.00000000E+00  0.00000000E+00
  0.00000000E+00  0.00000000E+00  0.00000000E+00
  0.00000000E+00  0.00000000E+00  0.00000000E+00
  0.00000000E+00  0.00000000E+00  0.00000000E+00
  0.00000000E+00  0.00000000E+00  0.00000000E+00
  0.00000000E+00  0.00000000E+00  0.00000000E+00
  0.00000000E+00  0.00000000E+00  0.00000000E+00
  0.00000000E+00  0.00000000E+00  0.00000000E+00
  0.00000000E+00  0.00000000E+00  0.00000000E+00
  0.00000000E+00  0.00000000E+00  0.00000000E+00
  0.00000000E+00  0.00000000E+00  0.00000000E+00
  0.00000000E+00  0.00000000E+00  0.00000000E+00
  0.00000000E+00  0.00000000E+00  0.00000000E+00
  0.00000000E+00  0.00000000E+00  0.00000000E+00
  0.00000000E+00  0.00000000E+00  0.00000000E+00
  0.00000000E+00  0.00000000E+00  0.00000000E+00
  0.00000000E+00  0.00000000E+00  0.00000000E+00
  0.00000000E+00  0.00000000E+00  0.00000000E+00
  0.00000000E+00  0.00000000E+00  0.00000000E+00
  0.00000000E+00  0.00000000E+00  0.00000000E+00
  0.00000000E+00  0.00000000E+00  0.00000000E+00
  0.00000000E+00  0.00000000E+00  0.00000000E+00
  0.00000000E+00  0.00000000E+00  0.00000000E+00
  0.00000000E+00  0.00000000E+00  0.00000000E+00
  0.00000000E+00  0.00000000E+00  0.00000000E+00
  0.00000000E+00  0.00000000E+00  0.00000000E+00
  0.00000000E+00  0.00000000E+00  0.00000000E+00
  0.00000000E+00  0.00000000E+00  0.00000000E+00
  0.00000000E+00  0.00000000E+00  0.00000000E+00
  0.00000000E+00  0.00000000E+00  0.00000000E+00
  0.00000000E+00  0.00000000E+00  0.00000000E+00
  0.00000000E+00  0.00000000E+00  0.00000000E+00
  0.00000000E+00  0.00000000E+00  0.00000000E+00
  0.00000000E+00  0.00000000E+00  0.00000000E+00
  0.00000000E+00  0.00000000E+00  0.00000000E+00
  0.00000000E+00  0.00000000E+00  0.00000000E+00
  0.00000000E+00  0.00000000E+00  0.00000000E+00
  0.00000000E+00  0.00000000E+00  0.00000000E+00
  0.00000000E+00  0.00000000E+00  0.00000000E+00
  0.00000000E+00  0.00000000E+00  0.00000000E+00
  0.00000000E+00  0.00000000E+00  0.00000000E+00
  0.00000000E+00  0.00000000E+00  0.00000000E+00
  0.00000000E+00  0.00000000E+00  0.00000000E+00
  0.00000000E+00  0.00000000E+00  0.00000000E+00
  0.00000000E+00  0.00000000E+00  0.00000000E+00
  0.00000000E+00  0.00000000E+00  0.00000000E+00
  0.00000000E+00  0.00000000E+00  0.00000000E+00
  0.00000000E+00  0.00000000E+00  0.00000000E+00
  0.00000000E+00  0.00000000E+00  0.00000000E+00
  0.00000000E+00  0.00000000E+00  0.00000000E+00
  0.00000000E+00  0.00000000E+00  0.00000000E+00
  0.00000000E+00  0.00000000E+00  0.00000000E+00
  0.00000000E+00  0.00000000E+00  0.00000000E+00
  0.00000000E+00  0.00000000E+00  0.00000000E+00
  0.00000000E+00  0.00000000E+00  0.00000000E+00
  0.00000000E+00  0.00000000E+00  0.00000000E+00
  0.00000000E+00  0.00000000E+00  0.00000000E+00
  0.00000000E+00  0.00000000E+00  0.00000000E+00
  0.00000000E+00  0.00000000E+00  0.00000000E+00
  0.00000000E+00  0.00000000E+00  0.00000000E+00
  0.00000000E+00  0.00000000E+00  0.00000000E+00
  0.00000000E+00  0.00000000E+00  0.00000000E+00
  0.00000000E+00  0.00000000E+00  0.00000000E+00
  0.00000000E+00  0.00000000E+00  0.00000000E+00
  0.00000000E+00  0.00000000E+00  0.00000000E+00
  0.00000000E+00  0.00000000E+00  0.00000000E+00
  0.00000000E+00  0.00000000E+00  0.00000000E+00
  0.00000000E+00  0.00000000E+00  0.00000000E+00
  0.00000000E+00  0.00000000E+00  0.00000000E+00