In2O3 structure 1 - random placement wit
   1.00000000000000     
     8.0997185140027916    0.0201931106204129    0.0069623088685799
     0.0201891935267157    8.1216863532598182   -0.0302297368023501
     0.0067416980587210   -0.0301477199617995    8.1193617046919240
   In   O 
    16    24
Direct
  0.4625237959711441  0.9618601514413356  0.8334434236685908
  0.4473383407159801  0.4453946714488879  0.3170423901842483
  0.1554232815494316  0.7259261360476756  0.5265341480938091
  0.7310979565104105  0.1858817287113155  0.0864387079262769
  0.2191916200525057  0.2263562244358752  0.0552340062847634
  0.9398285790455390  0.4675764896254506  0.3098183025787407
  0.2166613206754349  0.2399887648132122  0.5471176348837119
  0.4514854558623540  0.9393548501162385  0.3023460404977811
  0.4544340625195318  0.4271725379394766  0.8343829213518816
  0.9502903140808954  0.9692472116682183  0.8120809846577330
  0.9499412044347721  0.9709891059833282  0.3044688940509985
  0.7289732391923494  0.1917793582686613  0.5807889761807630
  0.1952956049080399  0.7266659940805411  0.0364735337533517
  0.7001149585172186  0.6850325050169346  0.0877367455940288
  0.6926480869327563  0.6911068170779942  0.5786987853508592
  0.9411079718997186  0.4689373123769087  0.8154487462135975
  0.9633184074803296  0.5844896659780972  0.0675010540217187
  0.1900916825907046  0.3450515332264956  0.7963195736754756
  0.6726488262714483  0.5808182601066463  0.8322443869416176
  0.8302326618782772  0.9248725600694030  0.0575828422865925
  0.9060068568541340  0.7306683621578500  0.4179427481011544
  0.3381551048618689  0.1870284410070084  0.3019551550849755
  0.4897283174113980  0.1930154578644760  0.9617496182424148
  0.3263639651167480  0.4871276133238496  0.0705103687324709
  0.1960009918904362  0.9871144028857870  0.9263177850518929
  0.1914234232898195  0.4810327876580018  0.4245952164542146
  0.6905177829271167  0.0724980291634409  0.3388960751056587
  0.8384933772944478  0.2222922020146285  0.8405090920177116
  0.6875250430801572  0.4271015898005786  0.1941093061950170
  0.4101565808499004  0.7450419741176404  0.6495883019210709
  0.3643349129043330  0.9178869886125085  0.5755150171406669
  0.1932908421963973  0.8444735126293352  0.2819803493275685
  0.4663667683628532  0.8189206796689490  0.0517940557247485
  0.6974163119848100  0.9408754993302324  0.6963026131385703
  0.5614134335975507  0.6927676391602233  0.3445860707566410
  0.8358296892132770  0.4374692178079300  0.5585886835881624
  0.0084352563125805  0.0732064177605807  0.5559729069516095
  0.4838591317747003  0.3232241005038929  0.5844797314924364
  0.0543491162142828  0.7154215040912320  0.7720882556631352
  0.9886214489140528  0.2218823560579821  0.1951872075710028
 
  0.00000000E+00  0.00000000E+00  0.00000000E+00
  0.00000000E+00  0.00000000E+00  0.00000000E+00
  0.00000000E+00  0.00000000E+00  0.00000000E+00
  0.00000000E+00  0.00000000E+00  0.00000000E+00
  0.00000000E+00  0.00000000E+00  0.00000000E+00
  0.00000000E+00  0.00000000E+00  0.00000000E+00
  0.00000000E+00  0.00000000E+00  0.00000000E+00
  0.00000000E+00  0.00000000E+00  0.00000000E+00
  0.00000000E+00  0.00000000E+00  0.00000000E+00
  0.00000000E+00  0.00000000E+00  0.00000000E+00
  0.00000000E+00  0.00000000E+00  0.00000000E+00
  0.00000000E+00  0.00000000E+00  0.00000000E+00
  0.00000000E+00  0.00000000E+00  0.00000000E+00
  0.00000000E+00  0.00000000E+00  0.00000000E+00
  0.00000000E+00  0.00000000E+00  0.00000000E+00
  0.00000000E+00  0.00000000E+00  0.00000000E+00
  0.00000000E+00  0.00000000E+00  0.00000000E+00
  0.00000000E+00  0.00000000E+00  0.00000000E+00
  0.00000000E+00  0.00000000E+00  0.00000000E+00
  0.00000000E+00  0.00000000E+00  0.00000000E+00
  0.00000000E+00  0.00000000E+00  0.00000000E+00
  0.00000000E+00  0.00000000E+00  0.00000000E+00
  0.00000000E+00  0.00000000E+00  0.00000000E+00
  0.00000000E+00  0.00000000E+00  0.00000000E+00
  0.00000000E+00  0.00000000E+00  0.00000000E+00
  0.00000000E+00  0.00000000E+00  0.00000000E+00
  0.00000000E+00  0.00000000E+00  0.00000000E+00
  0.00000000E+00  0.00000000E+00  0.00000000E+00
  0.00000000E+00  0.00000000E+00  0.00000000E+00
  0.00000000E+00  0.00000000E+00  0.00000000E+00
  0.00000000E+00  0.00000000E+00  0.00000000E+00
  0.00000000E+00  0.00000000E+00  0.00000000E+00
  0.00000000E+00  0.00000000E+00  0.00000000E+00
  0.00000000E+00  0.00000000E+00  0.00000000E+00
  0.00000000E+00  0.00000000E+00  0.00000000E+00
  0.00000000E+00  0.00000000E+00  0.00000000E+00
  0.00000000E+00  0.00000000E+00  0.00000000E+00
  0.00000000E+00  0.00000000E+00  0.00000000E+00
  0.00000000E+00  0.00000000E+00  0.00000000E+00
  0.00000000E+00  0.00000000E+00  0.00000000E+00
