ge4 se4                                 
   1.00000000000000     
    13.4610685108750037    0.0000000000000000    0.0000000000000000
     0.0000000000000000    4.0109601815394669    0.0000000000000003
     0.0000000000000000   -0.0000000000000007    4.2116120977457694
   Ge   Se
     4     4
Direct
  0.1608717147827105  0.2500000000000000  0.1033971051769427
  0.8391282952172908  0.7499999690000010  0.8966028818230593
  0.3391282952172900  0.7499999690000010  0.6033970651769400
  0.6608717047827092  0.2500000000000000  0.3966028818230597
  0.1519299611431341  0.7499999690000010  0.5204755001640452
  0.8480700288568651  0.2500000000000000  0.4795244998359554
  0.3480700288568648  0.2500000000000000  0.0204755001640450
  0.6519299291431385  0.7499999690000010 -0.0204755071640418
 
  0.00000000E+00  0.00000000E+00  0.00000000E+00
  0.00000000E+00  0.00000000E+00  0.00000000E+00
  0.00000000E+00  0.00000000E+00  0.00000000E+00
  0.00000000E+00  0.00000000E+00  0.00000000E+00
  0.00000000E+00  0.00000000E+00  0.00000000E+00
  0.00000000E+00  0.00000000E+00  0.00000000E+00
  0.00000000E+00  0.00000000E+00  0.00000000E+00
  0.00000000E+00  0.00000000E+00  0.00000000E+00
