In2O3 structure 29 - random placement wi
   1.00000000000000     
     8.0183513496090750    0.0820344500033072   -0.0001332079043201
     0.0821715555917790    8.0086250910328811    0.0002065870649926
    -0.0006997829284845    0.0008100700829949    8.0860469402433122
   In   O 
    16    24
Direct
  0.4294607147241445  0.2740509059314192  0.8520479160171127
  0.9274275793043686  0.2763216079498806  0.8520061494731904
  0.6766836112146030  0.5257149672229580  0.5796065465410710
  0.4565280728512714  0.3056967526878758  0.3520710889220571
  0.9590808367348964  0.3036683494559981  0.3519002717578039
  0.1765968289413500  0.0258785924869390  0.5795768264395681
  0.4591476640150736  0.8036965784075464  0.3521928147205499
  0.7092802138576858  0.5539699815352332  0.0794583115812387
  0.9293854223982990  0.7739700649519085  0.8520829539051600
  0.2069583994096949  0.5564757490530140  0.0796699218544377
  0.4270893338015836  0.7762950445961434  0.8518408020645294
  0.6793230119761423  0.0235644626911058  0.5796114050021602
  0.2094943970492806  0.0538229113315847  0.0795228173251748
  0.1791395159309857  0.5236418628196801  0.5795117667102764
  0.9564747186775150  0.8059851337874419  0.3519178448926398
  0.7070489174357113  0.0566040171923183  0.0795184357547108
  0.4617017769298954  0.6696213231337885  0.1158021181571531
  0.4232271684437795  0.5594423564516748  0.4658560885210888
  0.2128882327264947  0.2696097032932082  0.4658798955384763
  0.6736236131988877  0.3100851177821779  0.9655481740015042
  0.7110503242419112  0.4180014053243903  0.3149913640598111
  0.5639958234425763  0.2712700390138517  0.6159494332134242
  0.0639478884995574  0.7714595476275818  0.6160401081766687
  0.1750413311706700  0.1612256467172649  0.8157244584894510
  0.2111639276467252  0.9182655231272067  0.3152717068047858
  0.9232732360877607  0.0595262621495833  0.4658378168567445
  0.5721636529908027  0.0579604420103247  0.3159583695389659
  0.8216240931417522  0.8083585309748105  0.1159111723380501
  0.1735800779716680  0.8099017960609882  0.9656267842946686
  0.6749271428073660  0.6612887445062935  0.8156885843088194
  0.9633747685507134  0.5201339987535920  0.9660652317939846
  0.0717448701579510  0.5580863105222150  0.3159274720260573
  0.7129962105065926  0.7696070082231019  0.4659621069356574
  0.9242061086090071  0.4111219497735402  0.6159268952263887
  0.3217594071152992  0.3083049626666704  0.1160664415914881
  0.3142887866422936  0.5217669422736302  0.8152353802924587
  0.8146751326708370  0.0217172256498251  0.8150902941279660
  0.4241405629381250  0.9111291204748697  0.6158989012559194
  0.9619052184023383  0.1693389412738809  0.1155499421732402
  0.4635070790147840  0.0202093437595517  0.9658667286060080
 
  0.00000000E+00  0.00000000E+00  0.00000000E+00
  0.00000000E+00  0.00000000E+00  0.00000000E+00
  0.00000000E+00  0.00000000E+00  0.00000000E+00
  0.00000000E+00  0.00000000E+00  0.00000000E+00
  0.00000000E+00  0.00000000E+00  0.00000000E+00
  0.00000000E+00  0.00000000E+00  0.00000000E+00
  0.00000000E+00  0.00000000E+00  0.00000000E+00
  0.00000000E+00  0.00000000E+00  0.00000000E+00
  0.00000000E+00  0.00000000E+00  0.00000000E+00
  0.00000000E+00  0.00000000E+00  0.00000000E+00
  0.00000000E+00  0.00000000E+00  0.00000000E+00
  0.00000000E+00  0.00000000E+00  0.00000000E+00
  0.00000000E+00  0.00000000E+00  0.00000000E+00
  0.00000000E+00  0.00000000E+00  0.00000000E+00
  0.00000000E+00  0.00000000E+00  0.00000000E+00
  0.00000000E+00  0.00000000E+00  0.00000000E+00
  0.00000000E+00  0.00000000E+00  0.00000000E+00
  0.00000000E+00  0.00000000E+00  0.00000000E+00
  0.00000000E+00  0.00000000E+00  0.00000000E+00
  0.00000000E+00  0.00000000E+00  0.00000000E+00
  0.00000000E+00  0.00000000E+00  0.00000000E+00
  0.00000000E+00  0.00000000E+00  0.00000000E+00
  0.00000000E+00  0.00000000E+00  0.00000000E+00
  0.00000000E+00  0.00000000E+00  0.00000000E+00
  0.00000000E+00  0.00000000E+00  0.00000000E+00
  0.00000000E+00  0.00000000E+00  0.00000000E+00
  0.00000000E+00  0.00000000E+00  0.00000000E+00
  0.00000000E+00  0.00000000E+00  0.00000000E+00
  0.00000000E+00  0.00000000E+00  0.00000000E+00
  0.00000000E+00  0.00000000E+00  0.00000000E+00
  0.00000000E+00  0.00000000E+00  0.00000000E+00
  0.00000000E+00  0.00000000E+00  0.00000000E+00
  0.00000000E+00  0.00000000E+00  0.00000000E+00
  0.00000000E+00  0.00000000E+00  0.00000000E+00
  0.00000000E+00  0.00000000E+00  0.00000000E+00
  0.00000000E+00  0.00000000E+00  0.00000000E+00
  0.00000000E+00  0.00000000E+00  0.00000000E+00
  0.00000000E+00  0.00000000E+00  0.00000000E+00
  0.00000000E+00  0.00000000E+00  0.00000000E+00
  0.00000000E+00  0.00000000E+00  0.00000000E+00
