GST                                     
   1.00000000000000     
    21.5549502903316075    0.0000000000000000    0.0000000000000000
     0.0000000000000000   21.5549502903316075    0.0000000000000000
     0.0000000000000000    0.0000000000000000   21.5549502903316075
   Ge   Sb   Te
    68    68   170
Direct
  0.2684288924606722  0.3515903030721115  0.0216360363631475
  0.1342793165163640  0.2754054207740010  0.6253432482740829
  0.0794511211790101  0.1079870874406029  0.7304611521700309
  0.3729029308719907  0.9033603158206874  0.2033678559367866
  0.7341614810605985  0.2072288825846519  0.7579771266110975
  0.0639935547293348  0.4012822335183409  0.5137603290677889
  0.8105183023702581  0.1550728896209533  0.4130364329447381
  0.6103354710030481  0.4944645360589742  0.8177096778975879
  0.6113565832759980  0.5442778339244239  0.7055113180035490
  0.0981541128024613  0.6281296875770594  0.4973564668421794
  0.1229660379091164  0.0026572384611609  0.6315768559569322
  0.4834966997211179  0.0233996553225113  0.7608737271111887
  0.1780993311668408  0.5691509784202964  0.9199793356578572
  0.1811268097131797  0.0551480580418817  0.4738841196749579
  0.1825787069211011  0.8841884497018836  0.8340877644286954
  0.4546914736466958  0.6730632822465794  0.8613036199742931
  0.9116152039220232  0.0452152190919731  0.1149173359703532
  0.1238928617623944  0.3074866916387298  0.3549610419569722
  0.8381636669275657  0.2193524650221214  0.9890542342837271
  0.4294606791134590  0.1287777371401825  0.4891775070473948
  0.1853878753546801  0.5786280118367820  0.1420493716160128
  0.5904231005203171  0.8860845521814357  0.4022193624329528
  0.7970316328227570  0.8465903765508046  0.0826186758238656
  0.5981960001578879  0.0214844557118870  0.0078666411913868
  0.8202494021243881  0.7830724047099517  0.3830613218091035
  0.3151207818583510  0.4642400670023752  0.1328336161270237
  0.1811913221912267  0.2492059389838677  0.9860522203005943
  0.2695155354798129  0.7479843024981926  0.7710751551961511
  0.5333149050307406  0.3114862657714848  0.7525269718099555
  0.5554601053260086  0.1639203919878781  0.8721944436552370
  0.4940151794373390  0.9609915985075604  0.2692549874284724
  0.0030384984188765  0.8864570375869485  0.7238099620234827
  0.7103733455688748  0.9180767405537518  0.4338843230292702
  0.6915115801412267  0.8737764527817297  0.2561953357642803
  0.7399100672271683  0.5700503045986333  0.9553981339836207
  0.2163914767322020  0.4193863544478459  0.4848534180103796
  0.3472939797816673  0.1791421501877458  0.3692977588906710
  0.8989164423748021  0.3898531181409617  0.8940840147714437
  0.2918979394462426  0.6706250954828712  0.3274932812661379
  0.0691548960722771  0.1955704276978931  0.0304009959044345
  0.2113073432766040  0.8048582230236545  0.2595620978503737
  0.4195974559391909  0.1670009914317494  0.6926539978517329
  0.5897545871617632  0.0426327947722156  0.6864443310113718
  0.5740489249747734  0.2041572136295595  0.0513025084236785
  0.2932522517909965  0.7350481774795551  0.4405591879346376
  0.7574816053181568  0.6733224839757618  0.5204467064961937
  0.5562183079400281  0.9332729986620405  0.5284278012574896
  0.3400406802686477  0.2428297700102080  0.9816703328011067
  0.9667841986795684  0.8930356062596807  0.1070745080229508
  0.8125328072036156  0.9578075977184578  0.4888045018651194
  0.2860797692860271  0.6264181007484219  0.8074986988732031
  0.5948757861332995  0.8345984321061962  0.0614700565727300
  0.0840786812804371  0.2888928689372524  0.1853591259195446
  0.3517353516895995  0.0244718486706554  0.2274762748864604
  0.5617628936931561  0.6160718325231083  0.8623763985562665
  0.7791103349566341  0.6026314822131734  0.3362169118874344
  0.7435321407023124  0.2292913479314615  0.1222409760044676
  0.6956754765756377  0.0682242265539194  0.5785843465272099
  0.7282921580378815  0.7955690321800047  0.4888030810248700
  0.2815779070734190  0.1636355154027578  0.8931543901571252
  0.3985297654953891  0.3709532723531583  0.0970047505216200
  0.8299306726065465  0.4417304804579178  0.5710667999608472
  0.9297504764952353  0.1868397359260959  0.8232511232049208
  0.9862759090401105  0.0243360599706924  0.4906560650547084
  0.3481986221786696  0.6354889593546660  0.1231191508019898
  0.2408213865594931  0.1516833735034884  0.4254080322252514
  0.5045598798432047  0.7800864944764555  0.3081796923152589
  0.0758102440441625  0.4210758299950437  0.2094438089886973
  0.4688622157086558  0.5819172466248728  0.5507511744493898
  0.8195546485393653  0.3121888568411472  0.7987923592125161
  0.5587822378592655  0.4821682989704613  0.5989251876800170
  0.8885524199951783  0.1618145702351554  0.2632513649234970
  0.2879402512435595  0.8430913594652968  0.6694957408182837
  0.2414651905536067  0.7031199107148540  0.0693414831068518
  0.2780436112337142  0.6705928529207632  0.9458342306819595
  0.4107734224049581  0.7667722052126410  0.7784363397848337
  0.8207770467591076  0.1597008110335035  0.5555696207534990
  0.2150845651182834  0.1533676596315414  0.2121384407425199
  0.5659578655538695  0.0372984196287816  0.4270953946869079
  0.5678168443091437  0.8996585618045562  0.6865432929286706
  0.6842061947482840  0.6347460595683053  0.2149563941170241
  0.7329767806723906  0.5858425924336987  0.7811663386383065
  0.8551886963873659  0.6511370627925183  0.7715159165147294
  0.8381898874968616  0.7130608313177633  0.0901818187105861
  0.7979421180696967  0.3038046239647651  0.5660593443476178
  0.3202332848035881  0.6306687524864797  0.5432607537480848
  0.2050087333485356  0.0622232909656501  0.9027849744392316
  0.0630390858894418  0.5011281731378502  0.8603093578866859
  0.3631053262232995  0.5075831975300455  0.6162642667299580
  0.1979207344587965  0.5108003601128787  0.5940204354798878
  0.1301224056464456  0.7584700172071219  0.9459097565252339
  0.8380269543853334  0.5638317477560572  0.2056887533946327
  0.9237834936832164  0.7474736768702005  0.2291690705283345
  0.6833752904043701  0.6352098475717668  0.6377958724179694
  0.1111249445409662  0.3652395867277191  0.9751401741832310
  0.1181660217320089  0.7988213112952166  0.0928475556962829
  0.3705764478899876  0.2878436675249450  0.4452593049427451
  0.3284587507028958  0.3026509081545299  0.6023097539092898
  0.4023213621939996  0.5315122944436772  0.9662252782486843
  0.3026969301374390  0.3224348107337988  0.8567044939816357
  0.5105414606892582  0.2262239256263437  0.2262932077572023
  0.7115574550185136  0.7066230754339047  0.9290982942224224
  0.7584548509119824  0.9068728142127416  0.7296058230904560
  0.4762122555358266  0.4622526918625546  0.2478211384760443
  0.2723845518232602  0.9846436671468138  0.6440761778131849
  0.0149770094833067  0.6631710420962007  0.9668050735538269
  0.1557864835400276  0.6378928323918847  0.3291814088044567
  0.4209573292728653  0.7324861732137453  0.1721025157428391
  0.6365147831543640  0.8757248387598674  0.8055131969922087
  0.7522044499682699  0.9395203564278597  0.1580236237515841
  0.3831056225647285  0.1318679512063568  0.1603051743680079
  0.2011263061970322  0.4596215667092614  0.2892792218488387
  0.7093935559392123  0.4048174744916412  0.7800714956988857
  0.9536494701466492  0.0733195032262852  0.6797495393210087
  0.9068636947779868  0.9855507689124802  0.7959972920175696
  0.8502294789079498  0.2964574390937603  0.0928499107273737
  0.6103529778686250  0.4896097024031904  0.3168889695371815
  0.0988794379931808  0.9658012913439319  0.3413931401349863
  0.8355106449662417  0.0925703204549150  0.9824695397664625
  0.7972555895302812  0.5105049205546989  0.0717832811630288
  0.0077627184536751  0.9937514154613882  0.8987564901588458
  0.6389656747563127  0.0108775233551172  0.8335973779337801
  0.8687148661332633  0.3251676684603469  0.3913299011195150
  0.9482409688829864  0.5988989340721069  0.1048098883724017
  0.5325823890565751  0.9455396790258750  0.9130382944588484
  0.3406932028956769  0.8084330680179418  0.0659670546369320
  0.4223655397060294  0.9606706646052255  0.0896049760359057
  0.6101481779014235  0.7121831478824768  0.7716496924293778
  0.1383526160082903  0.7688925741914541  0.8046501025939202
  0.6289517244315648  0.7634190175781590  0.1788084375383573
  0.6951243170921841  0.2320103801660902  0.6203191981956592
  0.2288820430568438  0.2575551434605755  0.4988084952473891
  0.9550483058728195  0.2862115049510960  0.6339356051088170
  0.7180460307280496  0.7752532300729558  0.6355011637267578
  0.9079504933052435  0.5772954290602054  0.9607081253759775
  0.5346770798878447  0.3627967039135022  0.9378881186559477
  0.3748814944889535  0.5904237022090738  0.4011191325980890
  0.0979084174989688  0.5464734356446820  0.2353693840874307
  0.0127227402799557  0.6325502406489516  0.3850041231220357
  0.6444645461638847  0.6208359269181241  0.3568783056738714
  0.2165782894383741  0.1209594284417863  0.6885472870271077
  0.7089992985944783  0.5329740591154101  0.5279227507800635
  0.9817275895705472  0.0083394309013171  0.2819150567253947
  0.2888726803520055  0.9374952274312858  0.7835634754069719
  0.7144411918193557  0.9888504432663866  0.9438087069508302
  0.9755117809960578  0.0892806414429978  0.0089279513250703
  0.3952887658724388  0.3983762475668314  0.9635114686125098
  0.1554635988765616  0.1820369404653069  0.3337610598383455
  0.0136959457060240  0.7162254538906982  0.6639909851795800
  0.2762674559139047  0.1573821578313336  0.0728455535750739
  0.0990092493207188  0.5762060525759228  0.0348417359214409
  0.4677373469203759  0.2347052266364252  0.5365355576504076
  0.9450616860981187  0.5098505989214055  0.4073037454886766
  0.5714864360392583  0.5681577279509716  0.1785292673347719
  0.8226693256718755  0.9003464650544526  0.8499480194873942
  0.0543363220664699  0.3336231865025843  0.8492040375447796
  0.6260705028757828  0.3113358465951277  0.8464294421211981
  0.4616486446674906  0.8891807333203414  0.3754800909838824
  0.0664124685695966  0.0948715705794099  0.4173368528965499
  0.8471806372563748  0.1899310484398752  0.6914123832519208
  0.7435162997199363  0.0993048039112742  0.1014634052721941
  0.0898857786851257  0.8714550821692336  0.2408485967246121
  0.3275507916409757  0.8028569464439812  0.8835306514144159
  0.5847698796989700  0.7838668152545464  0.4962654729933536
  0.5281716868841617  0.7027969277316179  0.0859492160642690
  0.4654852998770526  0.3451026990782682  0.3196792180638514
  0.8216026834070805  0.0171376376380727  0.6011809187192081
  0.3256834993498155  0.1542878238534693  0.5737446851967696
  0.3435439653553695  0.4154585715745461  0.5144759085744128
  0.4993237042346860  0.4297768706854515  0.8174368284426413
  0.2217195631155606  0.7852839411780632  0.5625388970997549
  0.6684013009126991  0.1277263515968998  0.9802273624543001
  0.3620068140211434  0.7853035126805726  0.2923922952506168
  0.3010941360559163  0.9880028956374273  0.3863020160246125
  0.0669998966257345  0.5305396703663841  0.5726451528908842
  0.6981757446109584  0.1979873688214180  0.2373222662541812
  0.4910234618877293  0.4907889622094978  0.4362272389785097
  0.1673275245709430  0.5954611641559827  0.7634928572060750
  0.9538610937566818  0.1469227237296357  0.5554673248972477
  0.6517582042348953  0.2984771408248220  0.0848468604284605
  0.6095549362318898  0.6429498334993303  0.5211298142736283
  0.5644409506720406  0.7683522624646946  0.6444758356583888
  0.1305671600991640  0.1262851243888311  0.5804460339562459
  0.5484791616169484  0.7556386685743632  0.8914637076432507
  0.8812128678243025  0.8851893621074166  0.2088975731195173
  0.9706670240612733  0.4429819435140083  0.7742900752344533
  0.7232643063414559  0.0581816209278555  0.7319001178220036
  0.0980419562641615  0.4514014327904551  0.3821798837121719
  0.8722749910259525  0.8452297672387682  0.6674977908646479
  0.9862963513839270  0.4667248587336540  0.9614456177415814
  0.8052849194051992  0.3971823264171871  0.9958222173728336
  0.7058598577552653  0.8441381579980464  0.9722208543566687
  0.4609085723666917  0.4081286152696678  0.6638686675561761
  0.4485414434190412  0.0723880022146423  0.8877232165262341
  0.3002600137756432  0.0016993908303478  0.0485421315269417
  0.3884421402059013  0.3029809388526798  0.7409770958569685
  0.9736210741968893  0.4620015812026668  0.1166639258524164
  0.2230277705098153  0.8520825561332521  0.3866305287235979
  0.9384731337137036  0.2076563082265745  0.4174435219452460
  0.0840112657571246  0.1517445020536120  0.1620805133461990
  0.5165572392326943  0.8539094378932262  0.1949497254371373
  0.9447333026105704  0.5729918244298556  0.6976755484439924
  0.2106974607046538  0.8755576944064637  0.9591470662903657
  0.1387135469443728  0.0606061134510788  0.0138231025866614
  0.7472232939768427  0.7589389928610859  0.8031188169646960
  0.2264860723214826  0.3292882887296016  0.7007100563895282
  0.7494238853876499  0.2519947613055915  0.9061915796047239
  0.2037351574434501  0.6508473655649903  0.6039161547397585
  0.0533774049095742  0.3730599182572675  0.6352285415427854
  0.7927931115198722  0.7185590935385563  0.2526721572034810
  0.4750086782221943  0.8474320773472099  0.0010497201252650
  0.8499067088913568  0.7164474044933815  0.6399345450797590
  0.9777217318475399  0.4038464501400318  0.3222250222739111
  0.0075371545822288  0.2709819209045582  0.2801802518134515
  0.0859407437333956  0.2690039206032933  0.4717013468058279
  0.6176087162821070  0.9583557477616832  0.1161787705165728
  0.1134508391362600  0.7629033473978959  0.3796094529256899
  0.9857469928224079  0.9698676727165633  0.6017367666434299
  0.4099762291078525  0.7688230582003368  0.4829664920278164
  0.5524639318670552  0.3950774573809003  0.4970242919783551
  0.4837065118154367  0.6828216260615152  0.4102900187836869
  0.3405180047960619  0.9673116307302991  0.5184456689855693
  0.7242961942822241  0.4604762847209281  0.2452508502578816
  0.6440349932437541  0.4762616420669113  0.9526692930045606
  0.8824273229129054  0.9196616675470994  0.0127197341038395
  0.2273647275136864  0.2798084255078496  0.1241826979709043
  0.6070087712272875  0.2313973856202833  0.5162936455030613
  0.8160257567010329  0.5123430463376736  0.8577509887544208
  0.8798023090563240  0.0178392482759784  0.4122428610915402
  0.0939561194583537  0.9215898168292278  0.0344114193763607
  0.5718027534360700  0.5826149283406787  0.9903710312421607
  0.3197814790010932  0.9802392135270528  0.9212556390934176
  0.0192885503942610  0.3100790857773597  0.0739141265901099
  0.9829382769879361  0.7942442154559375  0.8134359084360877
  0.7117607775594601  0.6655960952646434  0.0801946140525850
  0.5137801377537647  0.6286455597329811  0.6817963460065968
  0.2636779241828207  0.3492967670413819  0.3669145592608750
  0.9313145415797018  0.1746079889690287  0.1352561902395340
  0.8535098568126075  0.6496961549331480  0.4349929338142461
  0.9489816400054928  0.7945753752192013  0.3601079792054860
  0.2520022338098761  0.8739541798853467  0.1471812687283789
  0.6763907939586780  0.9352893682919929  0.5790135413747926
  0.5209791646741970  0.4022961918167460  0.1328025729238105
  0.6396791090351680  0.7832547685016201  0.3462672854714808
  0.9438616730374026  0.2582369768876529  0.9317830218460408
  0.3513009098323377  0.3943833954320554  0.2413025064949070
  0.3245643141549763  0.4943054800291875  0.8410340439413763
  0.0044886224126057  0.7053262712722048  0.5344348956521272
  0.3318297528724951  0.1258463824274939  0.7787366283613718
  0.9841019768966549  0.7524420279054889  0.0864797437929050
  0.1346283061066077  0.6923634638278608  0.2001656317259384
  0.4556020167943137  0.2557333608221358  0.8923788352971174
  0.6772579976600340  0.4439847560433990  0.4362218797751896
  0.6946884973450024  0.0627638393601611  0.4383780093943296
  0.2068474387910252  0.4265176873473510  0.8887657155261072
  0.6160846230827557  0.3133472592519077  0.2275338676886560
  0.4120631537877017  0.0245155722247082  0.6524523084059100
  0.5228937627173064  0.1667848596578140  0.3514388948156819
  0.1563567023115260  0.9315719288529294  0.5257536426382675
  0.6287239557116289  0.9793526675418024  0.3054819122002632
  0.1074676907178269  0.8278176339198970  0.6733071765637629
  0.4101865210958121  0.8411454653936881  0.6280204489490787
  0.0532581740335693  0.2363231424228301  0.7204460427096343
  0.8785615423078574  0.4292529014105206  0.2050694485075371
  0.4871806723446585  0.6406537675283387  0.2612974180767226
  0.9313588465083281  0.3667980088559266  0.5067105616316571
  0.0409322717579123  0.1218738248982427  0.8531926067142533
  0.8923124587426876  0.5646871534679875  0.5758897445616264
  0.0972552278029795  0.9673642390996807  0.7919258091321549
  0.5556776668872553  0.1725702086489224  0.7386431748751037
  0.7502067351699687  0.4924955595940606  0.6817576672060833
  0.2960432108863199  0.5757322902061516  0.2268484433291527
  0.0322713189690514  0.9085413370438694  0.4509050984578408
  0.2293390231039552  0.0217921440254639  0.2448473710772356
  0.3791810271238190  0.5847658551092824  0.7307319312688586
  0.4354911726285271  0.5337534574770502  0.1066522412499493
  0.8680495897342024  0.3888558283458272  0.6859563181187113
  0.0279950146832015  0.9986640676729132  0.1588066195682835
  0.7911163182072620  0.9036798703601323  0.3328344386768433
  0.3312951205384583  0.2300756648571303  0.2483821582516060
  0.7445700698934286  0.2790096933579165  0.4410814382070905
  0.2813676509944537  0.5444528038319673  0.0187027033592137
  0.7821817232072727  0.0813186214446954  0.2366876482359970
  0.5307295569425272  0.0665524879124097  0.5622825793477947
  0.9633143229708691  0.6128117733265793  0.2497859007915291
  0.1673460000232738  0.4304277047650632  0.1161511041212259
  0.4851861651355764  0.0782627126990155  0.0443987769386442
  0.6723227669453421  0.4700479415326093  0.1168012363374225
  0.0143594618710033  0.8390534674330959  0.9391911778925360
  0.5900899174197844  0.1347903062035707  0.1590368944638242
  0.0061693747412885  0.6185179001194634  0.8362264646917335
  0.8139589751389572  0.2787698549283814  0.2570966826284284
  0.4456504815818280  0.2518383806832395  0.0774598140404958
  0.1899799582935552  0.4674028479338435  0.7198294173869587
  0.8033900628690559  0.4717758977106062  0.3826313972332154
  0.6374163302659405  0.3514115054347888  0.6640831987289351
  0.8450683389617382  0.7175950170165101  0.9498586132591498
  0.4594391798594374  0.9062584736072914  0.7984411254442730
  0.4122365892914849  0.0693820891268203  0.3408006900260304
  0.1880436222743996  0.2437310021798814  0.8480182791681059
  0.4211401228160000  0.6805746614163409  0.9865363750033331
  0.8515772757219997  0.8300654638602908  0.5097470456901773
  0.3619227595330172  0.7094186773369422  0.6502719069544375
  0.2303996932075081  0.5334528130836089  0.4095503792727601
  0.8340961400699408  0.1057472728477202  0.8503277489220777
  0.5942290316780280  0.3217385923609855  0.3667277045861327
 
  0.22429665E-02 -0.23488395E-02 -0.25268019E-02
  0.32245788E-03 -0.49883321E-04 -0.66671610E-03
 -0.26556717E-03 -0.30905441E-02 -0.31517627E-02
 -0.25745134E-02 -0.65282668E-03  0.10101533E-02
  0.60326273E-03  0.57906274E-03  0.15577351E-02
  0.87359456E-03 -0.23880797E-02 -0.18636240E-02
  0.14179618E-02 -0.41738125E-03 -0.11848614E-02
 -0.11018743E-02  0.84356640E-03  0.14510900E-02
  0.11384748E-02  0.58369392E-03  0.19396326E-02
 -0.31817714E-03  0.17949704E-02 -0.32738976E-02
  0.13455653E-02 -0.52959726E-03  0.97744380E-03
  0.17343700E-02 -0.12183707E-02  0.35960890E-04
  0.24942587E-02  0.13530383E-02  0.37456587E-02
 -0.33752747E-03 -0.56906479E-04  0.52092434E-02
 -0.27987561E-02 -0.21558450E-02  0.54402542E-03
 -0.49999080E-03  0.87960175E-03 -0.80959132E-03
 -0.63149371E-03  0.27669206E-03  0.30174377E-02
 -0.40391869E-02  0.16633286E-02  0.43057214E-03
 -0.76874115E-03 -0.19361672E-02  0.10863100E-02
 -0.15090560E-02  0.18460451E-02  0.14943935E-03
  0.54383489E-03  0.15729818E-02 -0.50558636E-03
  0.14643800E-02 -0.26531059E-03 -0.31564460E-02
 -0.41558728E-02  0.82082042E-03 -0.51340502E-04
 -0.29393411E-03  0.10651716E-02 -0.49122409E-03
  0.12676009E-02  0.34954219E-02 -0.87701731E-03
 -0.43380650E-02 -0.33682738E-02  0.12423984E-02
 -0.36129759E-02 -0.20970572E-02 -0.48441097E-03
 -0.33369359E-02  0.13226099E-02 -0.84063294E-03
 -0.79949161E-03 -0.13923739E-02 -0.11919042E-02
  0.12080157E-02 -0.70867817E-04 -0.15704535E-02
  0.13797257E-02  0.36407486E-02 -0.49783979E-03
  0.73173363E-02  0.12535191E-02  0.32706145E-03
  0.80905589E-03  0.30783115E-03 -0.29652252E-03
  0.14356956E-02 -0.76096093E-03  0.15765117E-02
  0.12020030E-02  0.15156318E-02  0.66078642E-03
 -0.24030874E-02 -0.10596821E-03 -0.10955447E-02
  0.12141616E-02 -0.10707948E-03 -0.12465789E-02
  0.34634664E-02  0.20873535E-03 -0.11344561E-02
  0.24330674E-02  0.21316573E-03  0.12574468E-02
 -0.64041360E-03 -0.29799029E-02  0.89035953E-03
 -0.18841688E-03  0.49950675E-02 -0.17819245E-02
 -0.23175886E-03  0.67828198E-04 -0.28126887E-02
 -0.15457024E-02 -0.17523260E-03  0.36635508E-02
  0.72228794E-03  0.26777174E-02  0.15549819E-02
 -0.16932943E-02  0.26351643E-03  0.14725968E-02
 -0.28546007E-02 -0.69524600E-04  0.22186423E-02
 -0.19453564E-02 -0.34149363E-03  0.75809941E-03
  0.14028110E-03 -0.77525905E-03 -0.56159567E-03
 -0.14022380E-02  0.44926228E-02  0.36404223E-02
 -0.66450267E-03 -0.17822694E-02 -0.13632481E-02
 -0.27344082E-02  0.26724989E-02  0.14878607E-02
 -0.91207304E-03 -0.20848634E-02 -0.11593388E-02
  0.24595016E-02 -0.16470554E-02  0.35519027E-03
  0.13106756E-03 -0.12472917E-02 -0.93065661E-03
  0.93510936E-03 -0.22833067E-02 -0.80742356E-03
  0.19357051E-02  0.49047657E-03  0.18925343E-02
 -0.93245378E-03 -0.33109228E-02 -0.15546723E-02
 -0.38427244E-02 -0.28173329E-03 -0.16219311E-02
  0.85971678E-03 -0.84414418E-03 -0.38205752E-03
 -0.42888343E-03 -0.12005444E-02 -0.44977124E-03
 -0.19083543E-02 -0.53682359E-03  0.84039762E-03
 -0.81868333E-03  0.14414815E-03  0.35808504E-03
 -0.81118072E-03 -0.44114130E-02  0.68086260E-03
 -0.37614627E-04  0.10456554E-02 -0.12723106E-02
  0.68849173E-03 -0.31450427E-02  0.14364662E-04
 -0.41570651E-03 -0.51612128E-03  0.11741823E-02
 -0.17190300E-02  0.78558311E-03 -0.76645524E-03
 -0.49710110E-03  0.32351516E-02  0.27016388E-02
  0.21195491E-02  0.25188649E-03 -0.57565463E-03
  0.15557545E-02  0.16871455E-02 -0.21899091E-04
 -0.23465583E-02  0.13444024E-02  0.20000717E-02
  0.16115386E-02 -0.60274835E-03  0.11145924E-03
 -0.76281899E-03  0.16532245E-02 -0.16985610E-02
 -0.37560281E-03 -0.16102543E-02  0.42436251E-02
 -0.72101484E-03 -0.12399131E-02 -0.58243415E-03
 -0.76517633E-03  0.30804722E-02 -0.29689909E-03
  0.12816701E-03  0.99937673E-03  0.16814498E-02
  0.26350442E-02  0.46365889E-03  0.62798147E-03
  0.63098124E-03 -0.44998486E-03 -0.18574921E-02
 -0.82085918E-03 -0.13639430E-02 -0.41061244E-03
  0.28282435E-02  0.48253479E-03  0.23764351E-02
 -0.12863062E-02  0.98537975E-03  0.19192791E-03
  0.10259799E-02  0.26086992E-02  0.21427256E-03
 -0.18450065E-02  0.31201785E-03 -0.23628996E-03
 -0.17382783E-02 -0.19476942E-02  0.25985660E-02
 -0.16127072E-02 -0.15826549E-02  0.28276983E-02
 -0.16290566E-02 -0.18674038E-02  0.18632880E-03
 -0.16278278E-02 -0.70767245E-03 -0.14234611E-02
  0.11770293E-02  0.14094105E-02  0.35520445E-04
  0.10137887E-02  0.54884066E-03 -0.58229695E-03
  0.23562356E-03 -0.18714896E-02  0.14041210E-02
 -0.10960739E-02  0.61711907E-03  0.11772175E-02
 -0.21426213E-02 -0.94998987E-03 -0.17724455E-02
  0.10549721E-02 -0.21479354E-03  0.13482436E-03
 -0.24033012E-02 -0.99983186E-03  0.23360149E-03
  0.32836988E-03  0.12010317E-02  0.17336070E-02
  0.16666653E-02  0.46768340E-03 -0.12957082E-02
 -0.45325142E-04  0.12043974E-02 -0.34031238E-02
 -0.30706153E-02 -0.11677979E-02 -0.34503551E-03
 -0.20791348E-02 -0.19644237E-02  0.23836620E-03
 -0.14767625E-02  0.29441604E-02  0.21326131E-02
  0.14730111E-02 -0.55389766E-03  0.38450042E-03
 -0.36940295E-02  0.77536517E-03 -0.18813582E-02
 -0.46619897E-03 -0.23164926E-02 -0.23297372E-02
  0.21554438E-02 -0.48957069E-03 -0.80357087E-03
 -0.18760283E-02 -0.22490340E-03 -0.16794555E-02
  0.10882213E-02  0.19289082E-02  0.74567528E-03
 -0.10791990E-02 -0.10046800E-02 -0.94838958E-03
 -0.16375580E-02  0.29760167E-03  0.62598711E-03
  0.14473249E-02  0.21653942E-03  0.57998106E-03
  0.21747066E-03 -0.11851634E-02 -0.55560089E-03
 -0.23456843E-03 -0.61095816E-03  0.47274328E-03
  0.27126113E-02 -0.12319964E-02 -0.13925192E-02
  0.77230462E-03  0.10332998E-02  0.54773360E-04
 -0.67259531E-03  0.42621301E-03 -0.11358101E-02
  0.17914716E-02  0.26217013E-02  0.11357535E-03
 -0.12704521E-02 -0.49608610E-03 -0.51424086E-03
  0.19541340E-03  0.53988698E-03  0.22083708E-02
  0.53805929E-05 -0.18080457E-02  0.10629297E-02
 -0.10063748E-02  0.34729088E-03  0.66401207E-03
  0.13033806E-02 -0.21875085E-02 -0.11429700E-02
  0.65463875E-03  0.31213976E-02  0.79237392E-04
  0.11323482E-03 -0.14083345E-02  0.37220735E-02
  0.16571780E-02 -0.30048222E-03 -0.20701387E-02
 -0.67369000E-03  0.57668068E-04 -0.16179376E-03
 -0.16487197E-02  0.11155019E-02 -0.12386317E-02
  0.11490741E-02 -0.26490553E-03  0.10667373E-02
  0.28623995E-02 -0.13967114E-02  0.29628307E-03
  0.27697677E-02 -0.80204923E-03 -0.43020466E-02
  0.62093503E-03  0.25566254E-02  0.32934478E-03
  0.20817941E-02 -0.14767013E-02 -0.55586116E-03
  0.47010031E-02 -0.21965685E-03  0.95269958E-03
  0.30030653E-02  0.96514949E-03 -0.12803653E-02
 -0.11627571E-03  0.23320201E-02  0.24434231E-02
  0.20746892E-02  0.14298316E-02  0.14871057E-02
  0.18752397E-02 -0.15368368E-02 -0.10141896E-02
 -0.10236833E-03  0.61800414E-03 -0.13661428E-02
  0.38464112E-02  0.41823644E-03 -0.22121225E-02
 -0.47946861E-03  0.98272704E-03  0.16430394E-02
 -0.20212569E-03 -0.83583208E-03  0.38039473E-03
  0.16831245E-03  0.20982147E-02 -0.12301469E-02
 -0.23701479E-02  0.45967028E-05  0.95489697E-03
 -0.22452000E-02 -0.10901146E-02  0.10541728E-02
 -0.18429460E-02  0.24265858E-02  0.11760623E-02
 -0.12405254E-02  0.58070331E-03 -0.15128882E-03
 -0.15510832E-02 -0.89380306E-03 -0.23932951E-03
 -0.18412849E-02  0.21493286E-03  0.45260412E-03
  0.17533160E-02 -0.74488783E-05 -0.11969747E-02
  0.34115434E-03 -0.35014767E-03 -0.16180902E-02
 -0.12911343E-02 -0.70947568E-03 -0.86678026E-03
 -0.94564902E-03  0.18531750E-02  0.46574042E-03
  0.24906955E-03 -0.74779609E-03  0.15466803E-02
  0.69364487E-03  0.10281162E-02 -0.50856610E-03
  0.95122181E-03 -0.14288978E-03  0.16191075E-03
 -0.41707986E-03 -0.14884554E-02  0.26842323E-03
  0.28485826E-02  0.78398586E-03 -0.76300187E-03
  0.96128830E-03 -0.17475212E-03 -0.60306973E-03
 -0.19861597E-03  0.26816572E-02  0.84781839E-03
  0.78473955E-03 -0.80843530E-03  0.41055963E-03
  0.40505374E-03 -0.10467038E-02 -0.35014920E-03
  0.10782140E-02  0.10998684E-02  0.18422833E-02
  0.23514073E-03  0.11246327E-02  0.16576940E-02
 -0.16222910E-02  0.52652886E-03 -0.11010755E-02
 -0.91528133E-03  0.28956094E-03 -0.81282984E-03
 -0.95094518E-03 -0.20935482E-03  0.88601772E-04
  0.61044757E-03 -0.13540894E-02  0.86234414E-03
 -0.11796461E-02 -0.61735815E-03  0.27283972E-02
  0.25277937E-03  0.33374480E-02  0.13835608E-02
 -0.18942860E-02  0.29315728E-02 -0.10581604E-02
 -0.47081231E-03  0.11127569E-02  0.40968429E-03
 -0.57133191E-03  0.12045958E-02 -0.20081874E-02
 -0.17652547E-02 -0.47384030E-03  0.34378748E-03
  0.86619607E-03  0.95497233E-04 -0.18845227E-02
 -0.88782835E-03 -0.29399708E-03 -0.82445055E-03
 -0.10299738E-02 -0.48242347E-03 -0.52937075E-03
  0.44992611E-03 -0.47726702E-03  0.14314108E-02
  0.78614914E-03 -0.11668143E-02  0.38243450E-03
  0.49778844E-03  0.21665203E-02  0.91612731E-03
 -0.67773967E-03 -0.93281357E-03  0.33433134E-03
  0.15099227E-02 -0.26724430E-02  0.29647008E-03
 -0.41270649E-02  0.22951237E-02 -0.15705337E-03
  0.19237448E-03 -0.11327670E-02 -0.40770624E-03
 -0.18352978E-02 -0.61642412E-03  0.13116299E-02
  0.19105111E-02 -0.13675700E-02  0.14978300E-02
 -0.16753198E-02  0.12092179E-02  0.12565261E-02
 -0.14718970E-02  0.70099901E-03  0.20366337E-02
 -0.11534774E-02 -0.76491081E-03  0.18087230E-02
  0.10407394E-02 -0.20406285E-02  0.19416211E-02
  0.10748375E-02  0.19780352E-02 -0.16330816E-02
 -0.11154092E-02 -0.16664700E-03  0.87866281E-03
 -0.11931292E-02 -0.16454523E-02  0.25534009E-03
 -0.29814832E-03  0.77363603E-03 -0.19531692E-02
 -0.22179185E-02  0.58851712E-03 -0.86677903E-03
 -0.72608749E-03  0.30813796E-02  0.27077490E-02
  0.18594062E-02 -0.13774261E-03  0.14974213E-02
  0.16056122E-02 -0.60809248E-03  0.28809010E-03
  0.19129311E-02 -0.27354231E-02 -0.55519924E-03
  0.56815164E-03  0.84855921E-03  0.11431303E-02
  0.10445224E-03 -0.29218582E-02 -0.21278873E-02
 -0.70798472E-03 -0.27417630E-03  0.64697119E-03
 -0.22887208E-03  0.61125493E-03 -0.28272481E-03
  0.36537288E-03 -0.12001575E-02 -0.31105332E-03
 -0.52390063E-03 -0.10137599E-02  0.32249156E-03
  0.43654771E-02  0.56256535E-03  0.11900931E-02
  0.11217240E-02  0.12722411E-02  0.14589071E-03
  0.31604376E-03 -0.16472150E-03 -0.74699657E-03
 -0.14821779E-03  0.54891117E-03 -0.23221030E-03
 -0.11771959E-02 -0.29988185E-02  0.41906684E-03
 -0.75528929E-03  0.20101820E-02 -0.86296417E-03
  0.12692292E-02  0.44870443E-03 -0.29693079E-02
  0.46089633E-05 -0.13987337E-02 -0.14820506E-02
 -0.41949712E-03 -0.56991820E-03 -0.19373627E-02
 -0.11124739E-02 -0.25975582E-03  0.72475177E-04
 -0.13773732E-02 -0.28044168E-02  0.11719226E-02
 -0.23122939E-02 -0.59932067E-03 -0.93094818E-03
 -0.42607863E-02  0.14514146E-02 -0.89039065E-03
  0.95930447E-03 -0.48631890E-04  0.22207489E-02
 -0.23336460E-02 -0.42361754E-03  0.18988395E-02
 -0.11293334E-02  0.92566082E-03 -0.13914946E-02
  0.14629369E-02 -0.72334135E-04 -0.21421331E-02
 -0.20842205E-02 -0.76948944E-03  0.56177404E-03
  0.92512163E-03 -0.68438197E-03 -0.20945262E-02
 -0.19815091E-02 -0.21791508E-03  0.94168914E-03
 -0.35731898E-02 -0.10209797E-02 -0.24954294E-03