Amorphous GeTe6                         
   1.00000000000000     
    22.1728235405677232    0.0000000000000000    0.0000000000000000
     0.0000000000000000   22.1728235405677232    0.0000000000000000
     0.0000000000000000    0.0000000000000000   22.1728235405677232
   Ge   Te
    43   257
Direct
  0.0071960555025945  0.3791754006080746  0.8710876538208319
  0.0627988353015894  0.0453513846722939  0.4375666772162305
  0.7128533154586933  0.6813140866235020  0.3546631523180708
  0.6871362714364114  0.8504225338550844  0.8308473240533242
  0.9687868379453772  0.1799624968396851  0.8186515290634495
  0.1979214380145932  0.7191474681676265  0.7938374799161320
  0.1431051923874689  0.3021709168473795  0.2147350035678154
  0.6595234244585682  0.0692006781865015  0.3526119368894527
  0.3353703207679460  0.9841297139926848  0.5562085392716024
  0.5646195260882753  0.6107025253232052  0.8407839788570918
  0.1925300744383825  0.4208595220202825  0.8873308102201186
  0.4051770831368273  0.9976538558259562  0.3866092162488484
  0.9832572879386690  0.6156225359891457  0.4202414588680665
  0.0975479945844171  0.8413455651369143  0.7125171162660705
  0.1477689956354419  0.9896437117522109  0.5748308154651214
  0.3461165603069790  0.9843946399769287  0.8082742586344296
  0.1571326016952352  0.5978706726763138  0.9364644830252407
  0.3395259841400229  0.8421454084352287  0.2403732269241965
  0.1831667988720989  0.2990286876872018  0.9236109289684311
  0.3510000431939280  0.5035841360508113  0.4933196106408069
  0.9090611821705035  0.2714998825289469  0.0828920685398638
  0.3026638837302498  0.1313206803691366  0.5242896903146615
  0.1317557274098847  0.2848432884650966  0.7618396399211192
  0.8649553496673223  0.5512159372099709  0.7880889576173896
  0.9730042558980078  0.7784821989922855  0.3680994649163364
  0.5592488690068979  0.7017615356602711  0.7047819929812766
  0.6331459400927982  0.2715253809910511  0.2984502870084360
  0.2447504883077963  0.2543315138064397  0.0926411287986916
  0.7972490558964996  0.0720484496672546  0.2345499970836556
  0.1970197950260059  0.9871203089693390  0.3811007070059760
  0.6631849010508040  0.9025507785914505  0.0303458808116745
  0.6670041034745772  0.8796147309230592  0.6209002599435738
  0.5901893210372976  0.4336136956948454  0.0760388521476207
  0.6823476727378489  0.3160240489999717  0.4702751654831542
  0.7062895790706611  0.9740019842908272  0.1295456062484771
  0.9802010435274290  0.5823783768859462  0.1062610446175576
  0.3676394364663961  0.8155266929916054  0.5236671827565514
  0.8421335848718223  0.8516279949834652  0.5991937344344569
  0.4985315295188764  0.9260427674099310  0.0379981180112837
  0.8791981747359700  0.1724438568249231  0.3864525739700505
  0.8344018910627899  0.7538462808976515  0.8008417636365938
  0.5064350325478962  0.8441319025287800  0.8157088190457557
  0.2173080134867426  0.1500411476764425  0.2197896232115999
  0.9771160107920031  0.5524577840050900  0.8314239613530874
  0.3114223306781326  0.6252541298302771  0.9776700984814036
  0.6199224735093806  0.9865294636884878  0.4701595261380790
  0.6573933514542620  0.3495255592598768  0.7381510419694884
  0.8896962792828356  0.5325200577726811  0.1880139355643869
  0.4540656429126693  0.6495201638913527  0.4505376729975544
  0.9995721204990942  0.2759964591847087  0.3225503440000756
  0.4428934164759080  0.2140873714910783  0.9138735794178552
  0.2268650061442636  0.5411574981085970  0.6382305766758537
  0.4386676405575636  0.5526560955747696  0.9021735151614266
  0.4730965482713278  0.1011881257540154  0.0688142858579534
  0.8260545416516035  0.9762976962802118  0.1667377703801902
  0.7806164634136978  0.0661550398707195  0.0399619112776614
  0.6162133901678547  0.6003131027198852  0.3320573744522828
  0.1733113799018406  0.0702267035063863  0.4739920649287360
  0.6672642704744903  0.7577044273657887  0.2676375354458473
  0.3285647564093503  0.8921281164948731  0.6334437495301016
  0.9793713199189362  0.7650453698188725  0.9486448645209581
  0.2456675061338480  0.6681866672136080  0.3009658004497694
  0.0301509850263311  0.8299649711052939  0.6089189054385611
  0.4752295913576581  0.4295256861808874  0.9482164695346490
  0.4756309666998078  0.2018983000516880  0.5029592782417244
  0.1138556021371168  0.4795984567302634  0.9681697917542594
  0.9495727564557898  0.3102086078827371  0.7932986171616785
  0.2145490256969925  0.1646040944314908  0.6138764344841608
  0.4258117700408521  0.5363385204051114  0.4009703754624639
  0.2308166799136428  0.4700877927023731  0.4975441378988481
  0.2254033691358599  0.8667779865816381  0.2947878262409286
  0.5180870697908589  0.6789959477772998  0.5906924541187226
  0.8820471793789908  0.5026434095491981  0.4552702257469543
  0.2218225830209922  0.0262033311448131  0.0846049253589220
  0.7492546267199233  0.0247948267291346  0.8585940745207287
  0.8431639018802993  0.6566514203395464  0.7174040471876985
  0.2719622474382261  0.4391295537047035  0.6967230344730465
  0.6584676423972469  0.4159523718910888  0.6211679546085282
  0.3759995580309385  0.5736367005328925  0.5881793278406610
  0.8693085976197197  0.3460956972323715  0.2622259661238117
  0.7707573733926428  0.5588756798411519  0.8609799019262705
  0.0463136452825453  0.1176560483389415  0.9843365470585524
  0.1921474636103666  0.8671760811706128  0.5449829480544265
  0.0783450588529438  0.3898126188947384  0.3029913252229720
  0.0360110309008322  0.8721208025746586  0.3242751746265505
  0.2905740791295890  0.7344164157466998  0.0476409975521010
  0.5460931814499115  0.0370581717123499  0.3703918967846452
  0.0638491516256525  0.4969752806682908  0.1384602256961837
  0.0086335972893686  0.9285194863043189  0.8568705662356705
  0.2644962590998881  0.5065044500193031  0.8298193670681298
  0.6992304092732325  0.2992147658873430  0.8610640195896614
  0.5036391313400610  0.9981815052630812  0.6858171409376569
  0.4019498220851687  0.5165638783412237  0.7883797753501069
  0.5131730739117683  0.2544445651363937  0.7075954037580731
  0.5986549413726013  0.6879178398447852  0.4189173683780424
  0.8431185142085755  0.1791104013572275  0.1875926233830817
  0.2535527300857088  0.3492313871984073  0.1694419186197880
  0.0411459495834613  0.3091561858140568  0.9661074517573706
  0.8950681606212769  0.0242029290921319  0.7169167127710657
  0.2892937968423798  0.0376575338365686  0.9075156661566903
  0.7842289499690941  0.2625343017782261  0.0943041214074607
  0.4489696560190800  0.6293505421628622  0.2438023969602393
  0.1662821439448269  0.0135236846745600  0.9025819359256122
  0.6772258877581521  0.5154607760939693  0.4113749559656414
  0.7036528150486880  0.4714013536698721  0.7748384754010602
  0.0299319479414210  0.9963909185498206  0.7354017860780068
  0.0304890776065064  0.6168756010045960  0.9431712331440769
  0.8674826015788558  0.1937415550791948  0.6187486469059212
  0.3884982405320607  0.2701014076304071  0.2140655828634361
  0.4145502137691470  0.7674091397451597  0.0626814010582498
  0.1503697796311216  0.9456190814726522  0.7182913007620645
  0.2167032659353257  0.7566717128134733  0.2124112640185322
  0.1665174932712419  0.0260239554615937  0.1967679960411715
  0.7706246725408672  0.3576658827007603  0.5587016092032365
  0.2097056145808762  0.9064233035893270  0.0499260468218179
  0.7490832751110196  0.2151345775512133  0.3209723259932044
  0.3189328029113308  0.6913791054346149  0.7949410789772210
  0.1495075380776374  0.5608495494943077  0.2133020348674092
  0.0980357423181020  0.4083515518818711  0.7999574842867693
  0.1750400744326375  0.2920022670237974  0.6375529319126815
  0.9530537789530537  0.8791465839901206  0.0003012755123377
  0.0428191258106938  0.0769273041291570  0.6264408026043951
  0.2014749942977406  0.4492332333008399  0.2934647356283391
  0.0449391107900547  0.1835186659061811  0.6983101406783155
  0.7802697145516121  0.2661294708642025  0.6739382251383751
  0.7186870256784516  0.9544417075656477  0.3101305551872892
  0.4633118153049604  0.6848346940710500  0.9642103020344053
  0.8279260123397959  0.6249910961576195  0.5703871363153749
  0.4869496887373000  0.8053627696138409  0.2071271432981307
  0.1136925012141094  0.9202799133673498  0.9730142659373960
  0.3365488189521380  0.8142845723931479  0.7880630582259127
  0.4014770545061770  0.5837010375903510  0.0614451416162866
  0.3883050861149030  0.2755839226607059  0.6742889482314731
  0.9075572859274901  0.0842304111185764  0.2918601100918961
  0.4437847011537421  0.8797228473764541  0.3817423979244522
  0.5917935207052034  0.2312765976340572  0.6035508002192292
  0.0398112884926444  0.6362139641964339  0.6463287562978725
  0.2236520342801373  0.6412026047331618  0.1345851644687477
  0.3357056581334278  0.8712874536157718  0.1247979512099761
  0.7835657265357978  0.8201378330646004  0.2845734662005650
  0.2699121468046172  0.1699225397934118  0.8499888358180352
  0.2926559200171794  0.3080456644845280  0.9884768422794273
  0.6304512486227846  0.5690289466993786  0.1872215418135994
  0.5158867699883414  0.4975970534059087  0.1510462896665390
  0.3741422813525916  0.1534811307866336  0.0015985056118208
  0.1364220914544224  0.2104821531468748  0.1195912438636491
  0.1125630813239937  0.6394199819175606  0.0504889048226200
  0.2379143791617005  0.2626375013335004  0.2858635721787013
  0.4095504314335135  0.7403938912177768  0.2924860952270803
  0.8946715696295294  0.1706207883520515  0.9265184925703639
  0.1778668803393519  0.4379797746305330  0.0674409982096060
  0.1679432594201810  0.7969054438610249  0.8847696447712308
  0.3970465416584750  0.4059031646125548  0.5430696385472842
  0.5097103861279019  0.2328398461040058  0.2147975390966722
  0.6515664660465086  0.8731261413076508  0.4202005008326268
  0.2589108293556177  0.0390746443796360  0.6302921290066718
  0.9290939908798700  0.9132470052515422  0.2617853182307132
  0.1846295146852932  0.7651534603210602  0.6869080355080682
  0.3335327709756766  0.5568863723221114  0.2500170822492919
  0.2881791447957449  0.8358393398800118  0.9004048971046255
  0.9302040806458927  0.4590135895306549  0.9136608066889063
  0.1089369377213195  0.8822265613333229  0.4448495281220863
  0.9604902918236660  0.0628294917214735  0.9062172462423557
  0.3952374774795409  0.3885815000622303  0.7641980973002023
  0.7189204446184594  0.7276002751154543  0.5470930816468128
  0.0627064985913172  0.4521314780691243  0.4258420857026832
  0.8971430742969199  0.7714586226781924  0.5320299242708094
  0.7500171041167664  0.0960872032493659  0.7435485625803832
  0.5969419086375488  0.8251110025717235  0.9070354065744903
  0.6775915960779078  0.9393996523139101  0.7294037634774324
  0.8663504007017856  0.8194772089951564  0.4150631590227446
  0.9644953999081214  0.3410787329258481  0.6662175612161504
  0.7792737835238732  0.7071735955507089  0.9921956616250427
  0.8358012899849635  0.4693597424083784  0.7005891352397662
  0.3373493674122934  0.9883178059300894  0.2759488244046748
  0.7532707494969272  0.1612570834234688  0.9571253512454854
  0.4607027944872669  0.8607406759854199  0.6512093782087881
  0.1017610935792659  0.5210704083942956  0.6512857901692364
  0.2919123130063410  0.4355925407079981  0.0012571559185150
  0.6339944357921871  0.9397789097699842  0.2205355433947318
  0.9351281834537790  0.9061444901789357  0.6638118551278115
  0.8656195705979312  0.9768683227003885  0.8329165613245065
  0.4096079791194542  0.4091470928966908  0.1058487644654950
  0.7365184543970058  0.4240547875206233  0.8894284411885589
  0.5733174971209000  0.5059622619467008  0.5121615968523382
  0.3945268901104295  0.1863733419032681  0.4066341386899858
  0.2878983946993564  0.6761694884827685  0.5455751005205837
  0.8101015833461213  0.6350260362525844  0.1625145073855197
  0.7803302400658017  0.8375488426160717  0.9085355098349220
  0.9448802853944209  0.3848332639803965  0.4300854008568163
  0.0374434933734877  0.5680132460840595  0.3193142423681696
  0.8517465690162704  0.6329666450923959  0.4393225481678143
  0.4669609803910825  0.4909395371264692  0.6178058269256813
  0.7796169272644982  0.8346092682935276  0.1511298612840050
  0.9920395916101081  0.3061128829280208  0.5326726359165157
  0.5825432460856705  0.0048715659336249  0.0140670072106358
  0.0155974745340512  0.9582587962524723  0.5054473465336586
  0.4848864690958138  0.6939170056916609  0.7951049423798812
  0.9164283873467531  0.4750246179227075  0.0683506471442602
  0.9208597503438564  0.0778659448642667  0.5326070701152833
  0.6779678017146186  0.4138943576805125  0.3166712240893369
  0.6057894598533597  0.7940115720198231  0.5231716100447071
  0.0426200651879990  0.6660804999536838  0.7668232481755022
  0.0709755443151174  0.1598116852452795  0.3304527131939154
  0.8143269462214544  0.2070887125696565  0.7781649503933390
  0.0858810415179776  0.2098350211482654  0.8780072229496696
  0.4103076834525318  0.7421041623616833  0.6246081551666940
  0.4035732209510294  0.1527602947315813  0.6040414597593511
  0.8112524064882721  0.4921069027671567  0.3447614542200761
  0.7175393309407352  0.7359333986155813  0.1073319184244617
  0.1986208189982428  0.5632815834839225  0.3869905359002686
  0.4029481474775148  0.4082087011481617  0.2472391805189460
  0.7486393157038556  0.5373758593234875  0.6027305138879040
  0.9403641459786996  0.7380981855030097  0.6711000865804718
  0.8570906037709071  0.6108681220745596  0.2961404755894412
  0.4869378670830904  0.1370118967557943  0.2990630809663224
  0.0579552401287150  0.8014883665675414  0.1357871702463541
  0.4123273741885145  0.0671195957487040  0.2018779901822417
  0.5160550356766912  0.3897402527971627  0.3966892875150990
  0.5804203758480641  0.8166666461311208  0.7069720261490656
  0.3077029916337781  0.9370265049278067  0.4505959181255043
  0.2845514731164793  0.3548214700038603  0.5898293815871137
  0.0333302298156405  0.8086179613718577  0.8150671093061886
  0.0367608683868159  0.6670202005557376  0.2385624129301671
  0.5608526504019354  0.9633436411804369  0.7957669212750380
  0.6421286195165525  0.0176566121510568  0.6261097890029552
  0.3627577070669368  0.1002352563860076  0.7515510865568609
  0.3193031896874840  0.1696864407089189  0.1389795866248849
  0.9342011271921757  0.4476285719503568  0.3013930773517938
  0.8163970111356120  0.3389412451014790  0.3784842580055101
  0.1721197233247759  0.6646583641647228  0.4673049276359036
  0.5796478603298677  0.3448339881936311  0.5504064943031385
  0.0315706059272273  0.7157325429760011  0.4571840243664078
  0.7115427223092664  0.7275673058612346  0.8265610855725102
  0.0447299040859798  0.0711199039946992  0.1818807371619136
  0.6557673832216776  0.6408484757225594  0.7286525884981443
  0.0062650176142771  0.5433640753726640  0.5094399116765426
  0.0810022388726983  0.0185305171833968  0.3257436221868502
  0.2175301959320696  0.1812623738081798  0.9649596585126958
  0.9254659837269141  0.1466182890385035  0.0974123204392362
  0.5602363679523645  0.8331433131908818  0.0850703224322558
  0.8715568377183319  0.6864243088188897  0.8997503522882090
  0.9581176636991446  0.4687816935058223  0.6616098831516625
  0.2987470953089261  0.2364101103053771  0.4704825626107719
  0.5864240564978649  0.6718841939416561  0.9589225671686070
  0.8419601735268785  0.6112819641906568  0.0411546045795296
  0.7675851058001700  0.9494129596813285  0.9738014703628960
  0.9942484264261825  0.1503865773269386  0.4427658700889880
  0.5919589088469764  0.5458234404718730  0.9979487604587968
  0.4774310716808310  0.3090743300613952  0.0253592846621296
  0.4651859378664293  0.1275691060501636  0.8190137686229344
  0.6305267002347940  0.1394583482463947  0.4538787370179189
  0.2657813561536517  0.0926183063174906  0.3286528356519443
  0.4051929206680432  0.9883218111852078  0.0841381822574412
  0.4493244643514946  0.0284033664431070  0.5644732013663346
  0.1886367925023259  0.1899928347679616  0.3896948749832890
  0.6975678125508601  0.4328391874237726  0.1408223928417214
  0.8685183236641216  0.2541201323080594  0.5065131839063485
  0.6079486297148144  0.0712123614867331  0.8910099796267155
  0.5678437873240088  0.6839373456865204  0.2040691749641156
  0.6256300998246773  0.1565998753747682  0.9810386918114399
  0.3795197959753233  0.3874719182113612  0.3727667651222649
  0.4514902555202174  0.9938170085189688  0.8820774748263527
  0.7178440624570251  0.3266670135269482  0.2090708142712172
  0.5793498543388791  0.3090321973800576  0.1065393696457610
  0.1458843595588298  0.1449444390272938  0.7718056723636327
  0.0250618708843321  0.0133628992929217  0.0658891768710105
  0.5491019830027908  0.4238875335407640  0.2715992456063239
  0.6900459915785070  0.5728853537967523  0.0698473855270232
  0.1112487672197132  0.3620745469841347  0.5488651796026889
  0.5923219985610567  0.2673513397531639  0.9108741406025929
  0.7713823473728285  0.9207312823757436  0.5305510097236883
  0.6257630547873602  0.1445057107084422  0.7850556362043251
  0.8993107077426049  0.3235063893350892  0.9695233849276422
  0.5225432329003262  0.5439276202303926  0.7263884186004913
  0.1231387975121685  0.7739104913658525  0.0325211284855740
  0.9316230381561372  0.7285749719291534  0.2588783620988935
  0.8833718721560614  0.9760510412291364  0.3621526292708143
  0.2396403497104818  0.3750151523571858  0.3914231873170599
  0.3398309189831525  0.7045389593754422  0.4278248402032283
  0.7715933364102220  0.0147744126537968  0.6150928043039987
  0.4356987491664592  0.8788988674538276  0.9354876808637751
  0.9329759005813969  0.8176484060211326  0.1112922237901975
  0.5070777392300446  0.3771983062516764  0.8373997272622367
  0.6433452493986426  0.6054435893907935  0.5587768353607491
  0.2097407164096115  0.7643749676593060  0.3863345448912964
  0.5556060343518012  0.8388072152519886  0.3241991601447229
  0.6506182362463687  0.1476554565376690  0.2542666489845391
  0.7515346945085892  0.7789012030096646  0.6552966211712006
  0.0148250141491339  0.2440348297894296  0.1948273904773370
  0.5555725332017710  0.2643325239996192  0.4150829354250213
  0.8276560982042550  0.0818019981860002  0.4529349152769505
  0.4781318717965064  0.8723992621580995  0.5075947754510406
  0.3182864277393801  0.5095277309544312  0.1307338449975615
  0.6939781571599807  0.0966472138653027  0.1333841154002482
  0.1584410436602454  0.6028986107440751  0.7893872308975955
  0.7141701179735518  0.2071822860517631  0.5093980623906925
  0.2490928419012125  0.2941031790582448  0.8145980451046158
  0.9680479259937772  0.3620339548038894  0.1400613630415176
  0.7752155991867369  0.3683274030257874  0.0238842444899024
 
 -0.35376719E-02 -0.18895292E-02 -0.13143981E-02
 -0.26072853E-02  0.15220055E-02 -0.14831388E-02
  0.37293862E-03 -0.34355795E-02  0.19511015E-02
 -0.13283340E-02  0.72369299E-03 -0.85369745E-03
 -0.24473095E-02  0.20845197E-02  0.11575712E-02
 -0.29090888E-02 -0.21766131E-02 -0.80117496E-03
 -0.21795124E-02  0.33127848E-03  0.16311616E-02
  0.39140264E-03 -0.34965582E-04 -0.66336721E-03
  0.15654787E-02 -0.55217046E-03 -0.24407855E-02
 -0.24137035E-02 -0.18693408E-02 -0.84803018E-03
 -0.26703181E-03 -0.48785838E-03  0.54553880E-03
 -0.34399324E-03 -0.33361889E-02  0.46319991E-04
  0.19073703E-02  0.49835008E-03  0.13151976E-03
  0.78919019E-03  0.13924629E-02 -0.54167679E-03
 -0.30130816E-02  0.25729193E-02  0.54837106E-03
  0.12940301E-03  0.29877588E-02 -0.73946245E-03
 -0.43845692E-03  0.18786348E-02 -0.38494606E-03
 -0.15529639E-02 -0.21958681E-02  0.12516356E-02
 -0.18464037E-04 -0.16424377E-02  0.38153273E-02
  0.12478531E-02 -0.13102096E-02 -0.68861061E-03
 -0.11043129E-02 -0.58168758E-03 -0.37173419E-03
  0.10350251E-02 -0.18057937E-02  0.18008340E-02
  0.10636469E-03 -0.20978311E-02  0.74849934E-03
  0.35655241E-03 -0.10979581E-02 -0.12348395E-02
 -0.54301984E-03 -0.22885982E-03  0.21245909E-03
  0.16894348E-02  0.32614768E-02  0.86052062E-03
 -0.14299115E-02 -0.17983823E-03  0.22090838E-02
  0.27080432E-03  0.58427520E-03 -0.82438266E-03
  0.26875622E-03 -0.14778987E-02  0.16687175E-02
  0.18990326E-02 -0.12876187E-02 -0.18609647E-02
 -0.52898957E-03  0.10209922E-02  0.33349435E-02
  0.55576937E-03  0.24472311E-02  0.48481444E-02
 -0.22488125E-02  0.30447964E-03  0.25376968E-03
  0.24047507E-02 -0.19776443E-02 -0.11698496E-02
  0.13487878E-02  0.20933172E-02  0.16113470E-03
 -0.88534469E-03  0.30875966E-03  0.11453824E-02
  0.11340315E-02 -0.52273137E-03 -0.71521892E-03
 -0.64883550E-03 -0.57303903E-05  0.27960914E-02
 -0.12708590E-02  0.11678412E-03  0.58732115E-03
  0.92266618E-03  0.14782744E-03  0.19403761E-03
  0.67790450E-03 -0.21298596E-03 -0.79866240E-03
  0.10428740E-02 -0.50026419E-03  0.31498973E-02
  0.69410153E-03  0.22437580E-03 -0.23661555E-03
 -0.24680349E-03 -0.50613131E-03 -0.10071723E-02
 -0.13122105E-03  0.18097057E-02  0.12329666E-02
 -0.32163009E-02 -0.40033985E-03  0.48648556E-03
  0.40624278E-03 -0.47196092E-03 -0.94078008E-03
 -0.94404778E-03 -0.19547790E-03 -0.72320166E-03
  0.13604932E-04  0.19610609E-02  0.82434725E-03
 -0.24701107E-02 -0.56650768E-03 -0.17453469E-02
 -0.80867539E-03  0.24204875E-02 -0.16891357E-02
  0.26082402E-02 -0.35693647E-04 -0.87713271E-03
  0.43171676E-02 -0.19678912E-03  0.35297241E-03
 -0.15695090E-05 -0.10652316E-02 -0.22181759E-02
  0.22022473E-02  0.85308320E-03  0.12684073E-02
  0.10369506E-04 -0.16432792E-02 -0.14901341E-02
 -0.18646181E-02  0.13120864E-03  0.11758936E-02
  0.59927384E-03  0.22407144E-02  0.17952947E-04
  0.19639142E-03  0.34586164E-03 -0.91517076E-06
  0.72450921E-03 -0.57589058E-03 -0.20661917E-03
  0.23508792E-02  0.20590650E-04 -0.22694421E-03
  0.17506951E-03 -0.16344430E-02 -0.24497072E-03
 -0.47131574E-03  0.89241349E-03 -0.21209782E-03
 -0.36465263E-03 -0.96195741E-03 -0.97506126E-03
  0.40345343E-02 -0.34437865E-03  0.13994152E-02
 -0.98407489E-03 -0.27570940E-03 -0.75437924E-03
  0.73755070E-03 -0.51699934E-03  0.22041385E-02
 -0.52947777E-03 -0.55402411E-03 -0.53401873E-03
 -0.45864425E-03 -0.50722104E-03 -0.11290836E-02
 -0.95288823E-03  0.10955039E-03 -0.86049874E-03
 -0.54886418E-03  0.12179893E-02 -0.21355831E-02
 -0.13749273E-02  0.19394126E-02  0.38407756E-03
  0.81787461E-03 -0.14949291E-02  0.73354669E-03
  0.34596625E-03 -0.20039573E-02 -0.16261797E-02
 -0.10400720E-03  0.28999535E-02 -0.17147848E-02
  0.14075003E-02 -0.51398626E-03  0.53531730E-03
 -0.17493566E-02 -0.84339271E-04  0.19751507E-02
 -0.14081919E-02 -0.11166694E-02  0.19209122E-02
 -0.30228432E-02 -0.17819885E-02 -0.32433963E-03
 -0.20264307E-04 -0.58549878E-03 -0.19281572E-02
 -0.96689341E-03  0.24173724E-03 -0.26379534E-02
 -0.48821519E-03  0.23104396E-03 -0.34711872E-02
  0.29179344E-03  0.10966735E-03  0.13222769E-02
 -0.38648699E-03  0.53559727E-02 -0.11562807E-02
  0.54030744E-03  0.89540246E-03  0.16639217E-02
  0.11705258E-02 -0.16112131E-02 -0.13170870E-02
 -0.14306182E-02  0.16875274E-03 -0.34924069E-02
  0.20117122E-02  0.30965308E-02  0.35566586E-02
 -0.28936913E-03 -0.90937802E-04 -0.16703072E-02
  0.69782397E-03 -0.54907295E-03  0.26724933E-02
  0.12940768E-03 -0.46402316E-03  0.14392753E-02
 -0.20823580E-02  0.10337771E-04 -0.11814773E-02
 -0.62512809E-03  0.79225058E-03  0.14607379E-02
  0.13364426E-02 -0.46842742E-03  0.25785001E-03
 -0.15990705E-02 -0.89073752E-03 -0.19568342E-02
 -0.13316367E-03 -0.91625537E-03 -0.31314877E-03
 -0.27422612E-02 -0.13307957E-02  0.27535632E-03
 -0.15854296E-03  0.44564701E-03  0.11030272E-02
  0.14545769E-02  0.45244425E-04 -0.20968893E-03
 -0.14658422E-02 -0.72579118E-03 -0.14822765E-02
 -0.13336725E-02 -0.82799416E-03  0.18862144E-02
  0.18574200E-02  0.17858040E-02  0.23902172E-02
 -0.26485292E-02 -0.23524765E-02  0.16947979E-02
  0.29152476E-02  0.64326281E-03 -0.10726044E-02
  0.21419957E-02 -0.15066875E-02 -0.12615429E-02
  0.25578224E-02 -0.32228124E-02  0.25785880E-02
  0.17921911E-02  0.86189971E-03  0.17648212E-02
 -0.74910833E-04  0.12476319E-02  0.11278753E-03
 -0.27128582E-02 -0.23378841E-02 -0.78884576E-04
 -0.50726145E-03  0.42774185E-04  0.65449023E-03
  0.64433083E-04  0.87136119E-03  0.42090119E-03
  0.21964860E-02  0.13763514E-02  0.83741568E-03
 -0.57920644E-04  0.20811719E-03  0.19695863E-02
 -0.71585638E-03 -0.36281881E-02 -0.10553206E-02
 -0.11611228E-02  0.20970687E-02 -0.21049216E-02
  0.95022229E-03  0.22790447E-03  0.13730519E-02
 -0.11777863E-03  0.10206968E-02  0.93000744E-03
  0.92807671E-03 -0.53954698E-03  0.92799840E-03
  0.24222434E-03 -0.64801377E-03 -0.37839039E-03
  0.63937890E-04 -0.99356646E-04 -0.17645249E-02
 -0.13865016E-02  0.14774663E-03  0.20719612E-03
 -0.34098290E-03 -0.80181774E-03 -0.17383723E-02
  0.17566663E-04  0.11580752E-02 -0.17520732E-02
 -0.17922709E-02 -0.19313680E-03 -0.32549001E-03
 -0.14686018E-02  0.73214238E-03  0.51829762E-03
  0.16622463E-02 -0.12570876E-02  0.79461836E-03
  0.12631933E-04  0.47781618E-02  0.27125404E-02
  0.30047912E-05  0.80569260E-03 -0.10848620E-02
  0.16081977E-02  0.11950348E-02 -0.27831381E-02
 -0.86171485E-03  0.14250362E-03  0.44567562E-03
 -0.41029516E-03  0.96574486E-03 -0.65331586E-03
  0.51930261E-03 -0.66307542E-03 -0.15362617E-02
  0.10135491E-02  0.64164964E-03 -0.47893390E-03
  0.13565259E-02 -0.10689195E-03  0.81867335E-03
 -0.75599808E-03 -0.59406904E-03 -0.51096138E-03
  0.14443121E-02  0.23892555E-02 -0.83847044E-03
  0.50080544E-03  0.14278759E-02  0.17532887E-02
  0.12050508E-04 -0.26917427E-02 -0.15372237E-02
  0.49925390E-03  0.11306741E-03  0.72391989E-03
  0.26038519E-02 -0.12963109E-02 -0.41313499E-03
 -0.15788329E-02 -0.15464576E-02  0.31874919E-03
  0.26538036E-02 -0.21381339E-03  0.58444814E-03
  0.32049774E-03  0.59957279E-03  0.12376848E-02
 -0.24999673E-02 -0.20549756E-02  0.28514226E-02
 -0.17957762E-02 -0.92274319E-04 -0.25187190E-04
 -0.68526792E-03  0.14292189E-02 -0.75375045E-03
  0.15559257E-02  0.24321585E-03  0.63703186E-03
 -0.10838353E-02  0.72620794E-04  0.11244214E-02
 -0.13086736E-02 -0.28796996E-02 -0.13164108E-02
  0.11956152E-02  0.32685852E-04 -0.16342418E-02
  0.43166013E-03  0.71755721E-03  0.69944265E-03
  0.11692973E-02  0.16043174E-02  0.11040629E-02
 -0.10062405E-02  0.18827424E-02 -0.73140885E-03
 -0.10928867E-02  0.89446673E-03  0.75397350E-03
  0.76068785E-03 -0.23644068E-02 -0.55510386E-03
 -0.14337298E-02  0.27273646E-03  0.14531844E-02
 -0.20014549E-02 -0.68554637E-04 -0.19924782E-02
 -0.18844603E-02  0.37981999E-03  0.18916967E-02
 -0.69555167E-03  0.30192640E-02 -0.65466668E-03
 -0.55736765E-03  0.10325464E-02 -0.47327171E-02
 -0.61131550E-04 -0.98758107E-03  0.52549014E-03
 -0.11903883E-02 -0.79831324E-03  0.16349404E-03
 -0.12125497E-02  0.10311003E-02 -0.14777414E-02
 -0.15140867E-02 -0.13488234E-03  0.19895796E-03
 -0.33826217E-02  0.25770625E-02 -0.11729820E-02
  0.11794819E-02 -0.22581753E-03  0.73291152E-04
  0.34995257E-03  0.15450153E-03 -0.53113274E-03
 -0.19294141E-02 -0.22210230E-02  0.79942183E-03
 -0.92664530E-03 -0.31946973E-02  0.12238277E-02
 -0.31461547E-03  0.79345800E-03  0.72461462E-03
  0.15686598E-02  0.16135067E-04  0.15566144E-03
  0.91321501E-03 -0.10047088E-02 -0.98048810E-04
  0.19611518E-02  0.17746880E-02 -0.83387632E-03
 -0.65212970E-03 -0.19866574E-02  0.71162810E-03
 -0.51116701E-03  0.14019001E-02 -0.46660615E-02
  0.72754667E-03  0.14925172E-02 -0.16597649E-03
  0.60250122E-03 -0.21528586E-03 -0.34043359E-03
  0.13290772E-02 -0.11266251E-02  0.19016758E-02
  0.87894577E-03  0.43469410E-03  0.20111587E-02
  0.12099960E-02  0.14517140E-03  0.25256470E-02
  0.49904188E-04  0.21142756E-03  0.16084614E-02
 -0.24888938E-02 -0.60155515E-03 -0.21336353E-02
  0.98065039E-04  0.25532200E-02 -0.11335600E-02
  0.16293255E-03 -0.12399954E-02 -0.26919240E-02
 -0.27054259E-03  0.50165238E-03 -0.20293774E-02
  0.11488310E-02  0.23321986E-03 -0.33949511E-03
 -0.13033910E-02  0.63842963E-03 -0.18905038E-02
  0.19986020E-02  0.13800903E-02 -0.26364214E-02
  0.34308048E-03  0.21757786E-03 -0.99654377E-04
 -0.63350686E-03 -0.13880805E-02 -0.10959698E-02
  0.16573418E-02 -0.33326881E-03 -0.23788642E-02
  0.29916494E-03 -0.33176536E-03  0.19289087E-02
 -0.24390420E-02 -0.16283039E-02  0.16140053E-02
 -0.39100709E-03  0.47677085E-03 -0.86394510E-03
  0.23346690E-02  0.17528784E-02  0.99361286E-03
  0.10539612E-02  0.19737712E-02  0.36213745E-03
  0.35326354E-03  0.64552231E-03  0.12283984E-02
  0.12550262E-02  0.15366087E-02  0.10167277E-03
  0.15028703E-04 -0.63324331E-04 -0.16858032E-02
 -0.15293833E-02 -0.57888876E-03  0.50702727E-03
  0.10542546E-02 -0.15066534E-02  0.22053347E-02
 -0.13448637E-02  0.30195300E-04  0.57260761E-03
 -0.31196194E-03 -0.38291418E-04 -0.99919356E-03
  0.30784153E-03  0.29009298E-02  0.13347385E-02
 -0.12790254E-02 -0.29376794E-03 -0.48979075E-03
 -0.39038284E-04 -0.11778183E-03 -0.48562087E-03
 -0.40484445E-03  0.35071380E-03  0.13141816E-02
 -0.30720329E-02 -0.28405074E-02  0.19089446E-02
 -0.18498808E-02 -0.77360601E-04  0.27086636E-02
 -0.10469986E-03  0.23874827E-03 -0.20612691E-02
  0.17092387E-02 -0.10154133E-02  0.50630883E-03
 -0.16618819E-03  0.32457609E-02  0.14345945E-02
  0.91835049E-03  0.87128861E-03 -0.16077826E-02
 -0.38697521E-02 -0.26278269E-03  0.59083546E-03
 -0.97564256E-03  0.13947637E-02  0.29405497E-02
  0.23304983E-03 -0.16158319E-02  0.25389754E-04
 -0.91170146E-03 -0.30254211E-03  0.17453881E-02
  0.13734683E-03 -0.19883138E-03 -0.11477234E-02
 -0.78114532E-03  0.22593407E-02  0.14307505E-02
  0.23449253E-02 -0.28599823E-03  0.12667234E-02
  0.13196449E-02 -0.16101323E-02  0.33842621E-03
  0.78137219E-03 -0.21245379E-02 -0.82979790E-03
 -0.18770137E-02  0.34886683E-03  0.74524086E-03
 -0.77342329E-03 -0.94337858E-04  0.66400103E-03
 -0.23376511E-03  0.84833076E-03  0.76521385E-03
 -0.26190361E-02 -0.25204211E-02  0.22610952E-02
  0.39612314E-03  0.14502895E-02 -0.32875222E-02
 -0.94548956E-03 -0.95727050E-05 -0.59192862E-03
 -0.23629116E-03 -0.70392292E-03 -0.15288727E-03
  0.17218108E-02 -0.12087896E-02 -0.13911177E-02
 -0.24777037E-03  0.90434687E-03 -0.88682343E-03
 -0.61219833E-03 -0.26923800E-02  0.12487680E-02