Amorphous Sb                            
   1.00000000000000     
    19.3671579077798057    0.0000000000000000    0.0000000000000000
     0.0000000000000000   19.3671579077798057    0.0000000000000000
     0.0000000000000000    0.0000000000000000   19.3671579077798057
   Zn   Sb
    45   255
Direct
  0.2335638366709161  0.1298919745261264  0.5114703013745928
  0.5850311233700303  0.6586200454973302  0.0420329943474279
  0.6466692765077463  0.9589247028598824  0.0778022717578643
  0.5686582083575417  0.2142777851939945  0.0961819203511715
  0.1039857217282141  0.4166699223170441  0.7916866530001244
  0.8712792142585981  0.4240655166996415  0.2657376128215152
  0.9358786286565441  0.2686686984711909  0.9611324076505731
  0.4624521808081072  0.2003972121226796  0.1815798193866449
  0.7216099296139195  0.3425608430783318  0.7632821628230486
  0.2559933327130516  0.8153709546797607  0.2635194699499612
  0.4420019677126577  0.9981236231182280  0.2448417797684675
  0.4875701323747823  0.2436226345363507  0.3846863212170272
  0.6152851703632352  0.9532383668424871  0.4431030078642142
  0.7364697844139403  0.2642320866515631  0.3132729415376533
  0.0258502067162063  0.5168651844019245  0.7493685949137155
  0.6292824010191406 -0.0112663243603607  0.5679306491217839
  0.0032920174286501  0.1662506813451210  0.4621494589596723
  0.3437940666381566  0.9431929064884281  0.6726233713486709
  0.6818310257111779  0.1290144069494711  0.6896300923771670
  0.7593770196612113  0.2595549236657242  0.0967055415549325
  0.5764095697770746  0.6713822539204877  0.1827186783631749
  0.5021595723930763  0.7450145669481028  0.9793496888785724
  0.3231745665317013  0.8575184617597902  0.8830964710336822
  0.9800733079537699  0.2972887874891650  0.0837286648772004
  0.8859164852609381  0.8568850971173233  0.5379841022135988
  0.4675845253750077  0.3830992948286877  0.3845613991596816
  0.5621000600261676  0.5486801526077918  0.6815038450299342
  0.7344439166599706  0.8672802891209578  0.1412700735514197
  0.5922640675021745  0.8965404674186983  0.7803221740144760
  0.4454205372121546  0.7918238044855652  0.8610882445425393
  0.2107998578984037  0.4340282285122640  0.7033534425845065
  0.9842039844209254  0.1200447471860965  0.5943382259789490
  0.7196341045625060  0.8712941727472623  0.8816375236255451
  0.2501976500153430  0.5387237035899697  0.0148772565500210
  0.6166189278443184  0.7642513978577704  0.6404953300793191
  0.1084963132900296  0.6848143433549850  0.5461096967316222
  0.0557094423602593  0.3227230511950598  0.9711878749501466
  0.8801510002875021  0.1714671751813291  0.5101778117564519
  0.9014208988725967  0.5085228362682443  0.5375200382197050
  0.4291351679036524  0.5175719586461620  0.2061457095163508
  0.7079670733559801  0.7450791250573737  0.8389075484434297
  0.0558904132882322  0.0841477421870291  0.1580001004898912
  0.3598617715247336  0.9316642723365187  0.4247143788181563
  0.5734015991371763  0.7395999321660797  0.3181137050499612
  0.9793239226275970  0.8329426862064171  0.0734950213631676
  0.1926271115213943  0.9854752390553120  0.6607206460642749
  0.5158856619272564  0.0790710600666171  0.8230692382386712
  0.5431564382615022  0.9206464113871353  0.1632042955039433
  0.3838801962429727  0.4865284038484202  0.9870247265242613
  0.1562121150398718  0.0205846541837742  0.2418699160107125
  0.8526009235099009  0.0439907967200683  0.5629079316932587
  0.9954818519756539  0.7197057227929123  0.9813290684990091
  0.8949010026526770  0.5650080037770099  0.3225577288641574
  0.7481129492342431  0.2088693674779186  0.7905596782313734
  0.5737590198992883  0.3265201328464267  0.4640988919600058
  0.2974790106647302  0.5620057556508379  0.1697017942240596
  0.6979061083986459  0.6470203025391488  0.9561267767875000
  0.6357306700393948  0.3667813325946986  0.8743124483674367
  0.5760754604885354  0.0345453164320459  0.6876520616357701
  0.8215888979470112 -0.0114679668850307  0.3061884206947327
  0.8969185967043150  0.8773734977299109  0.9691278164321997
  0.8537886508487487  0.3661357040118379  0.0717949373158194
  0.6616952142573573  0.6445266298606497  0.6901936596011320
  0.2562380528527349  0.9547388623845008  0.9701378341510354
  0.8967115880355907  0.1871125737527534  0.8414595058750405
  0.0055985553904289  0.5803992001694926  0.0431578054155923
  0.6542971868695185  0.3807041572998902  0.3384036281137909
  0.3028470596805966  0.6451760847007714  0.3122572492911833
  0.2162627960571944  0.3954695833654391  0.8773100308439251
  0.9975464985362946  0.0917612066472537  0.2873408613892811
  0.6721113051555249  0.5574055224619372  0.5573365362820686
  0.8946730523265192  0.7592140031557852  0.2823711265775673
  0.4417880842151901  0.2551267002459129  0.0455988052373707
  0.2902278371149597  0.4114017947226005  0.1056661057396751
  0.3600244174528818  0.6836621467619840  0.4578142803543513
  0.4881603465733273  0.6133532468903828  0.9366126845282051
  0.6324246730452107  0.2039825572774097  0.3864839933023954
  0.8667266690248883  0.8298426010112556  0.1531843106886439
  0.3855147163309419  0.8134039103787056 -0.0027257915740025
  0.9354070238327258  0.2519231406760606  0.3563793556209275
  0.7102595121718408  0.5064539324584720  0.1485155480689749
  0.4465762744209380  0.9940371963336027  0.5359951481659916
  0.8572382538273464  0.5575288790420014  0.6725780631455797
  0.4477562775414236  0.6500059466830466  0.2568370682283284
  0.5060668847363972  0.6444965718318054  0.4038494908598685
  0.2492314244631799  0.6895304921833172  0.7712518677324235
  0.1314163631907309  0.6421926045720893  0.2396323497333377
  0.3544580353854811  0.0814420417882490  0.4480862984511744
  0.5995634434591985  0.2177751550864580  0.5796340093435005
  0.1466480060181375  0.2461283016739298  0.8886507371623427
  0.0001865070557224  0.3345188955374390  0.8362358986554105
  0.0406827967603972  0.8233246478773076  0.2887617198513357
  0.2059982884986738  0.1250025893975036  0.3639475474915828
  0.7423331110137289  0.4993504870123386  0.3001353081907513
  0.7586654702979210  0.9494810224562528  0.9911374225591282
  0.7976215571425994  0.3805621453111973  0.8840831968081282
  0.8554080990835342  0.9902898808273002  0.1132724248885103
  0.4579440048221763  0.9360131287891386  0.8522373140086674
  0.2301267487190977  0.7705277514237757  0.5077010342522448
  0.9340745861708888  0.8895192962856505  0.4071910801267559
  0.9255343348404728  0.6430892979259644  0.4932949432927057
  0.2555389364881172  0.7122774224118728  0.1678394294219062
  0.5598851803041314  0.3556844603051564  0.7447056074162020
  0.7127092637472981  0.1784042067278424  0.2010051164740392
  0.0062810019449903  0.3750731885222915  0.2876245449420281
  0.0312482884114780  0.5202183600245384  0.2483585633458342
  0.4796698353378823  0.9155739365441681  0.6965711225382020
  0.8685883372654962  0.4999775317666709  0.1474841686838935
  0.4429687981875366  0.3322193420346246  0.8578062341827463
  0.0940657949188856  0.0586278297689076  0.8260141529727127
  0.7637553083270060  0.0345755863326451  0.7665532408060177
  0.8316455213539221  0.7510722990377823  0.4396245684133676
  0.2484727733249213  0.8420908661400335  0.0781196905356403
  0.0710711077539556  0.7084894494022779  0.8451094562365415
  0.4504742711644803  0.3964906106963356  0.1254633117403906
  0.7804453011359790  0.6601673238047281  0.2619018565316521
  0.2135126661095610  0.2673377383126770  0.4793032039280689
  0.3309865256318252  0.3869628227815095  0.7562244980119346
  0.7925434434878473  0.6549095689107302  0.7728392223257806
  0.8621886469887033  0.1207859413464254  0.2189284965943722
  0.1647455745261089  0.7403301485320494  0.3522639846411934
  0.4902101180592291  0.9461150004696024  0.3727264259136825
  0.1306218707718197  0.3172176344203993  0.6852909788460578
  0.4079434878252084  0.2199836532499823  0.5031498475305928
 -0.0043497474627453  0.9687940513839924  0.5378373275677831
  0.6462676478974182  0.0016007149945525  0.8584484460191505
  0.7884856877189358  0.5443508109879888  0.4446863133957236
  0.5761578004268879  0.2042978842291182  0.7507184369726491
  0.3576621725937699  0.1928050598821956  0.8813841737028845
  0.9121342821639943  0.3066296016203202  0.5110516432640616
  0.3072212674018777  0.5242258229429956  0.8590176291204787
  0.6135945218612935  0.5086854813737295  0.8114804003787305
  0.7579761975256484  0.5366598276024238  0.8626620010445001
  0.7179269501822674  0.6576127373938914  0.1176469228683135
  0.7267419820203415  0.4709476397744372  0.7041981045170568
  0.3441736156737014  0.5559147525124178  0.5448955509500087
  0.4267902710593652  0.7521809991072752  0.5944306640887230
  0.9540066760810079  0.9485104814164494  0.2303755806675338
  0.1055968418406072  0.9798515158279115  0.9637790329942590
  0.1446234193487070  0.6820124403902497  0.0458375125352829
  0.0470936399092959  0.9503113702088857  0.1062156679456997
  0.2208508141477466  0.1141816923245706  0.7422038932811520
  0.7100599737990411  0.3102220180881364  0.6263499967851462
  0.1104817256603922  0.8735464915545426  0.5602975293357861
  0.3811178909908914  0.0454453667026533  0.9427375700115564
  0.8987870399032341  0.2680302817774838  0.2045977495177850
  0.5564298420767440  0.9504400052148518  0.9723477322205757
  0.8125421130577025  0.1276628272830534  0.0568478877422286
  0.9175995319854433  0.0546581242702994  0.4161689772578869
  0.6412797562331679  0.8184478282412602  0.4196514910421792
  0.0727723480233251  0.9623467022499869  0.3584688904095510
  0.3510668814373957  0.8060665571551368  0.3625194785532056
  0.0305870309179193  0.8468874607712140  0.7027607191174419
  0.5936953117747937  0.6614185743465403  0.8305830835400647
  0.7340483099587988  0.8088827939071596  0.5470598466482232
  0.2934781096136266  0.2381682917600546  0.6164517979005518
  0.4485341896660633  0.6243921110452112  0.7380908281394684
  0.0074695444585632  0.4346595850382780  0.1146041591861204
  0.3010001142049104  0.9705773793454654  0.8035219347569472
  0.6033079718159521  0.3822964962956943  0.1614784897451511
  0.0538589168942050  0.7434237893561200  0.1563129021993279
  0.4489300301643390  0.4582385784950458  0.6849971774453211
  0.0047581536117828  0.4079378573162296  0.6611715036102354
  0.2161418668413015  0.8323128014858692  0.6721345998596342
  0.4605899123871793  0.4896752084860373  0.8356093123785954
  0.2004716478022902  0.7873735974202650  0.8839482715896775
  0.8923145593179628  0.9230680373598560  0.6665760792156362
  0.1460309537253432  0.5470074963616022  0.1172146065921258
  0.5804672628425585  0.2529216065171080  0.2397468120026394
  0.8103669634716131  0.1958817837864342  0.6480542094206517
  0.3948865958419187  0.5232060477191024  0.3707710704721314
  0.8514354887919611  0.5556232560720049 -0.0012848325484021
  0.9124479618053963  0.6328223894736235  0.8745039006876453
  0.5539097157227206  0.5418362338226277  0.1212992135304508
  0.9047639609078556  0.4903506024273119  0.8070617243020949
  0.5596041807856440  0.8719561493925144  0.5742467290134261
  0.1255526591310193  0.2723676228136256  0.0854817973002947
  0.4085808294045656  0.7516540541615552  0.1482732211474959
  0.6312325234964613  0.9231227769681001  0.2914375292252272
  0.0112557667526634  0.6594805693067546  0.3583086748258189
  0.4691624494478686  0.4629062850105735  0.5058099058483350
  0.0934290751142032  0.2243015151922098  0.3683269858267547
  0.0548926560189945  0.5236534244956544  0.9077153517724385
  0.2923422208727857  0.6868748633804077  0.6216156966141078
  0.3355526056867651  0.3826096093399984  0.5949017582942909
  0.0476053423184200  0.7814554438220200  0.4544857454506812
  0.1984320193083813  0.1681606970504055  0.1993058783479318
  0.7970370768868498  0.2510781692167910  0.9569580289647891
  0.1501636581430744  0.8751176533258169  0.1914821415230472
  0.3248316897785204  0.0747185243175013  0.6140361101670392
  0.3460309627525536  0.3496077531382493  0.4431529450362925
  0.2025175708624715  0.6223153765033422  0.4491286536198378
  0.9542638929586980 -0.0038891880520385  0.8337983526400130
  0.5172625574816481  0.3953687352670734  0.9839517926147273
  0.2241718446892826  0.3040688730106502  0.2767588360842198
  0.0202944310419559  0.8636876061084509  0.8729896472753346
  0.1392937647645969  0.1106374647816241  0.0466262643589696
  0.1337803546858446  0.3732078880008509  0.3809192308146145
  0.7820946794114036  0.9397786482962444  0.4704288786161236
  0.7509007342377075  0.2381404745191431  0.4856260351128057
  0.0333626850614145  0.5581281562007560  0.5787446948952524
  0.5187161594245058  0.1047693264938007  0.9816871701943093
  0.1178909081658132  0.7146386740221989  0.6866698353186257
  0.0400195560947102  0.0083707011351056  0.6826922714596937
  0.4723974829887742  0.1076239090335400  0.3462599632593582
  0.2598034807594385  0.4780863971447108  0.4346151953187168
  0.2209654306132240  0.9732759186926931  0.5094081424210376
  0.9721201837919599  0.7548640578177419  0.5879929555555624
  0.0773097224821173  0.5386931566666558  0.4182574737164730
  0.1303460109341057  0.1278986845066532  0.6161115909107445
  0.9009159452937140  0.0856467194788112  0.7173198211044459
  0.3811458706965682  0.1001740286390920  0.7596657803112772
  0.8235435356531384  0.3551508740478551  0.3863047811182710
  0.3367686839637634  0.8751268658302979  0.5522694252527607
  0.2538725155406575  0.2177379215911026  0.0122920741588271
  0.4280832225698775  0.9448009533023302  0.0595089782199091
  0.5095534499241295  0.7656700670414908  0.7359330651040751
  0.8138025281621566  0.1574188663922326  0.3656656618414574
  0.2051127482915272  0.8906953022248353  0.3854035009685695
  0.9320513904096865  0.4316043952010367  0.9515889758088865
  0.0544561955627346  0.2057406825313474  0.7671944155001652
  0.7200290355815134  0.4079141074643062  0.4875323471053103
  0.3454319051425114  0.8100190484719997  0.7499254019133147
  0.9552210950309888  0.0207431361628664  0.9873463203430445
  0.7749401960358930  0.8478603064136819  0.3332482902155269
  0.3678045047437732  0.6714358798839181  0.8661538686277999
  0.1819912450269798  0.5609511630567576  0.6058981956898506
  0.4858033063784583  0.6110196539846225  0.5780820052413810
  0.3538975072485960  0.1161905851400008  0.0717912739228676
  0.6019290703302500  0.0852992247999371  0.2660778445464498
  0.1570204165258961  0.9077355564483790  0.8027616047496293
  0.5326457899096863  0.4608535383750084  0.2839973990492997
  0.4709354468221281  0.8244742273112800  0.2749894426759572
  0.5639715674619574  0.2325442834312010  0.9015092666984018
  0.4217122359905032  0.2407203868408038  0.7170777842112604
  0.7397340676587587  0.9500026007040381  0.6430909066090392
  0.5918644872703605  0.5105312116113603  0.4310346790272113
  0.6990896640118796  0.0530173893295691  0.3853625853427813
  0.7591924096904588  0.3528959987183430  0.2071345342271856
  0.6067094489869139  0.6903313476964009  0.5192751705427053
  0.8352525928004102  0.7715684350921791  0.6645564510919324
  0.7017557013147290  0.8306357416298512  0.7277476075525227
  0.9253139175074041  0.7715326203513502  0.7925839487627395
  0.3423297100393319  0.9116934278900892  0.1919651016790125
  0.8355487160610576  0.9017728189857627  0.8114360963411310
  0.5540158582573332  0.7822190874349152  0.1024176030199724
  0.6038666504912464  0.5195765308399037  0.9774813151978526
  0.3202893034832359  0.5467388710581661  0.6991816747114511
  0.0242303202754462  0.1533299215435730  0.9401379785254766
  0.1365430047042482  0.4356471516653264 -0.0017017268556973
  0.8555579410411802  0.6992115829657095  0.0730966169870606
  0.1569607969517669  0.5505311068005747  0.7586641151017280
  0.5881631160062826  0.8174994112411103  0.9011196301780663
  0.5620917897606790  0.0866890458668305  0.4797007285039622
  0.9441611832033913  0.6385736694485393  0.1789590599022057
  0.1901836124104568  0.4129375950040176  0.5622805061533842
  0.4762942233951188  0.1259657283947928  0.6168265258649278
  0.0556102437285187  0.2289507326772200  0.2187887887517458
  0.8734270545745124  0.3524261527430200  0.7447108480955609
  0.4806096768318186  0.3171004373226120  0.5971812883672505
  0.3283088238557522  0.3444126826751304  0.9630762186831791
  0.3214847400037887  0.2648716117190080  0.1488120671729031
  0.2238387318070995  0.1051735554016878  0.8991754361716552
  0.2993630179092743  0.6811530051346213  0.0016466644545706
  0.9441527974485053  0.4533835603965685  0.4132355802496779
  0.7243470622321850 -0.0016840193378825  0.1902998927337644
  0.6174020680975567  0.5901327671455450  0.2909658241982517
  0.6959029645395017  0.8025390162629369  0.0236089666114976
  0.2559822125601655  0.2576016259652930  0.7788687911529729
  0.4331444231053682  0.3149056251140315  0.2636633475578501
  0.6550490514467646  0.1050868825929248  0.0669090771982433
  0.7107998845526485  0.1031065388782880  0.5515382199615674
  0.7107206578297823  0.6668953611939608  0.3971502597324132
  0.9595188831572116  0.1574821423094135  0.0848848344187936
  0.6783646792657643  0.7745348330308499  0.2288995003102706
  0.0451756139385192  0.3960331495921348  0.5144973989022505
  0.6855805827758011  0.1410739243657805  0.9184586123253669
  0.1518387288731022  0.3954086250519162  0.1734559267449078
  0.0985474915718518  0.0619953388737608  0.4715602708468382
  0.3289187216692778  0.2200105781704456  0.3491294557858178
  0.6439865756745157  0.3131921094664417  0.0297529792651894
  0.7935690247072561  0.6549762693972611  0.5771991265972232
  0.9547916641141962  0.2493490676899436  0.6519510969430461
  0.1185324138974902  0.8277798717792964  0.0039011283714368
  0.1761021562437272  0.6123538548011200  0.9068436379223475
  0.8257995100126562  0.0694124399614741  0.9152908288595434
  0.3556273158977983  0.1225087960251134  0.2343221781992506
  0.4906853247445153  0.8083304336952645  0.4536206251464135
  0.1875321612490457  0.5060670575662781  0.2982090575885765
  0.3237271545244655  0.4259612745857548  0.2656542228478165
  0.6041140108739540  0.4295820432253428  0.6125175588889716
  0.4134455460086452  0.6115592915603614  0.0769289399849042
  0.8300306371168633  0.4061523802509949  0.5975195586851747
  0.7329810243182047  0.4451706610074793  0.0119713617693911
  0.2920296441919299 -0.0025233068905887  0.3133556830009206
  0.2498241066615371  0.0134378954448582  0.1131540989335397
  0.0790934235279481  0.2525216502044721  0.5468466376465643
  0.5026783073895879  0.0727818809685219  0.1367953979149470
  0.8172915312125263  0.7511477153688086  0.9312910004763740
  0.9822539926779826  0.6380889992846962  0.7012048930376648
 
  0.00000000E+00  0.00000000E+00  0.00000000E+00
  0.00000000E+00  0.00000000E+00  0.00000000E+00
  0.00000000E+00  0.00000000E+00  0.00000000E+00
  0.00000000E+00  0.00000000E+00  0.00000000E+00
  0.00000000E+00  0.00000000E+00  0.00000000E+00
  0.00000000E+00  0.00000000E+00  0.00000000E+00
  0.00000000E+00  0.00000000E+00  0.00000000E+00
  0.00000000E+00  0.00000000E+00  0.00000000E+00
  0.00000000E+00  0.00000000E+00  0.00000000E+00
  0.00000000E+00  0.00000000E+00  0.00000000E+00
  0.00000000E+00  0.00000000E+00  0.00000000E+00
  0.00000000E+00  0.00000000E+00  0.00000000E+00
  0.00000000E+00  0.00000000E+00  0.00000000E+00
  0.00000000E+00  0.00000000E+00  0.00000000E+00
  0.00000000E+00  0.00000000E+00  0.00000000E+00
  0.00000000E+00  0.00000000E+00  0.00000000E+00
  0.00000000E+00  0.00000000E+00  0.00000000E+00
  0.00000000E+00  0.00000000E+00  0.00000000E+00
  0.00000000E+00  0.00000000E+00  0.00000000E+00
  0.00000000E+00  0.00000000E+00  0.00000000E+00
  0.00000000E+00  0.00000000E+00  0.00000000E+00
  0.00000000E+00  0.00000000E+00  0.00000000E+00
  0.00000000E+00  0.00000000E+00  0.00000000E+00
  0.00000000E+00  0.00000000E+00  0.00000000E+00
  0.00000000E+00  0.00000000E+00  0.00000000E+00
  0.00000000E+00  0.00000000E+00  0.00000000E+00
  0.00000000E+00  0.00000000E+00  0.00000000E+00
  0.00000000E+00  0.00000000E+00  0.00000000E+00
  0.00000000E+00  0.00000000E+00  0.00000000E+00
  0.00000000E+00  0.00000000E+00  0.00000000E+00
  0.00000000E+00  0.00000000E+00  0.00000000E+00
  0.00000000E+00  0.00000000E+00  0.00000000E+00
  0.00000000E+00  0.00000000E+00  0.00000000E+00
  0.00000000E+00  0.00000000E+00  0.00000000E+00
  0.00000000E+00  0.00000000E+00  0.00000000E+00
  0.00000000E+00  0.00000000E+00  0.00000000E+00
  0.00000000E+00  0.00000000E+00  0.00000000E+00
  0.00000000E+00  0.00000000E+00  0.00000000E+00
  0.00000000E+00  0.00000000E+00  0.00000000E+00
  0.00000000E+00  0.00000000E+00  0.00000000E+00
  0.00000000E+00  0.00000000E+00  0.00000000E+00
  0.00000000E+00  0.00000000E+00  0.00000000E+00
  0.00000000E+00  0.00000000E+00  0.00000000E+00
  0.00000000E+00  0.00000000E+00  0.00000000E+00
  0.00000000E+00  0.00000000E+00  0.00000000E+00
  0.00000000E+00  0.00000000E+00  0.00000000E+00
  0.00000000E+00  0.00000000E+00  0.00000000E+00
  0.00000000E+00  0.00000000E+00  0.00000000E+00
  0.00000000E+00  0.00000000E+00  0.00000000E+00
  0.00000000E+00  0.00000000E+00  0.00000000E+00
  0.00000000E+00  0.00000000E+00  0.00000000E+00
  0.00000000E+00  0.00000000E+00  0.00000000E+00
  0.00000000E+00  0.00000000E+00  0.00000000E+00
  0.00000000E+00  0.00000000E+00  0.00000000E+00
  0.00000000E+00  0.00000000E+00  0.00000000E+00
  0.00000000E+00  0.00000000E+00  0.00000000E+00
  0.00000000E+00  0.00000000E+00  0.00000000E+00
  0.00000000E+00  0.00000000E+00  0.00000000E+00
  0.00000000E+00  0.00000000E+00  0.00000000E+00
  0.00000000E+00  0.00000000E+00  0.00000000E+00
  0.00000000E+00  0.00000000E+00  0.00000000E+00
  0.00000000E+00  0.00000000E+00  0.00000000E+00
  0.00000000E+00  0.00000000E+00  0.00000000E+00
  0.00000000E+00  0.00000000E+00  0.00000000E+00
  0.00000000E+00  0.00000000E+00  0.00000000E+00
  0.00000000E+00  0.00000000E+00  0.00000000E+00
  0.00000000E+00  0.00000000E+00  0.00000000E+00
  0.00000000E+00  0.00000000E+00  0.00000000E+00
  0.00000000E+00  0.00000000E+00  0.00000000E+00
  0.00000000E+00  0.00000000E+00  0.00000000E+00
  0.00000000E+00  0.00000000E+00  0.00000000E+00
  0.00000000E+00  0.00000000E+00  0.00000000E+00
  0.00000000E+00  0.00000000E+00  0.00000000E+00
  0.00000000E+00  0.00000000E+00  0.00000000E+00
  0.00000000E+00  0.00000000E+00  0.00000000E+00
  0.00000000E+00  0.00000000E+00  0.00000000E+00
  0.00000000E+00  0.00000000E+00  0.00000000E+00
  0.00000000E+00  0.00000000E+00  0.00000000E+00
  0.00000000E+00  0.00000000E+00  0.00000000E+00
  0.00000000E+00  0.00000000E+00  0.00000000E+00
  0.00000000E+00  0.00000000E+00  0.00000000E+00
  0.00000000E+00  0.00000000E+00  0.00000000E+00
  0.00000000E+00  0.00000000E+00  0.00000000E+00
  0.00000000E+00  0.00000000E+00  0.00000000E+00
  0.00000000E+00  0.00000000E+00  0.00000000E+00
  0.00000000E+00  0.00000000E+00  0.00000000E+00
  0.00000000E+00  0.00000000E+00  0.00000000E+00
  0.00000000E+00  0.00000000E+00  0.00000000E+00
  0.00000000E+00  0.00000000E+00  0.00000000E+00
  0.00000000E+00  0.00000000E+00  0.00000000E+00
  0.00000000E+00  0.00000000E+00  0.00000000E+00
  0.00000000E+00  0.00000000E+00  0.00000000E+00
  0.00000000E+00  0.00000000E+00  0.00000000E+00
  0.00000000E+00  0.00000000E+00  0.00000000E+00
  0.00000000E+00  0.00000000E+00  0.00000000E+00
  0.00000000E+00  0.00000000E+00  0.00000000E+00
  0.00000000E+00  0.00000000E+00  0.00000000E+00
  0.00000000E+00  0.00000000E+00  0.00000000E+00
  0.00000000E+00  0.00000000E+00  0.00000000E+00
  0.00000000E+00  0.00000000E+00  0.00000000E+00
  0.00000000E+00  0.00000000E+00  0.00000000E+00
  0.00000000E+00  0.00000000E+00  0.00000000E+00
  0.00000000E+00  0.00000000E+00  0.00000000E+00
  0.00000000E+00  0.00000000E+00  0.00000000E+00
  0.00000000E+00  0.00000000E+00  0.00000000E+00
  0.00000000E+00  0.00000000E+00  0.00000000E+00
  0.00000000E+00  0.00000000E+00  0.00000000E+00
  0.00000000E+00  0.00000000E+00  0.00000000E+00
  0.00000000E+00  0.00000000E+00  0.00000000E+00
  0.00000000E+00  0.00000000E+00  0.00000000E+00
  0.00000000E+00  0.00000000E+00  0.00000000E+00
  0.00000000E+00  0.00000000E+00  0.00000000E+00
  0.00000000E+00  0.00000000E+00  0.00000000E+00
  0.00000000E+00  0.00000000E+00  0.00000000E+00
  0.00000000E+00  0.00000000E+00  0.00000000E+00
  0.00000000E+00  0.00000000E+00  0.00000000E+00
  0.00000000E+00  0.00000000E+00  0.00000000E+00
  0.00000000E+00  0.00000000E+00  0.00000000E+00
  0.00000000E+00  0.00000000E+00  0.00000000E+00
  0.00000000E+00  0.00000000E+00  0.00000000E+00
  0.00000000E+00  0.00000000E+00  0.00000000E+00
  0.00000000E+00  0.00000000E+00  0.00000000E+00
  0.00000000E+00  0.00000000E+00  0.00000000E+00
  0.00000000E+00  0.00000000E+00  0.00000000E+00
  0.00000000E+00  0.00000000E+00  0.00000000E+00
  0.00000000E+00  0.00000000E+00  0.00000000E+00
  0.00000000E+00  0.00000000E+00  0.00000000E+00
  0.00000000E+00  0.00000000E+00  0.00000000E+00
  0.00000000E+00  0.00000000E+00  0.00000000E+00
  0.00000000E+00  0.00000000E+00  0.00000000E+00
  0.00000000E+00  0.00000000E+00  0.00000000E+00
  0.00000000E+00  0.00000000E+00  0.00000000E+00
  0.00000000E+00  0.00000000E+00  0.00000000E+00
  0.00000000E+00  0.00000000E+00  0.00000000E+00
  0.00000000E+00  0.00000000E+00  0.00000000E+00
  0.00000000E+00  0.00000000E+00  0.00000000E+00
  0.00000000E+00  0.00000000E+00  0.00000000E+00
  0.00000000E+00  0.00000000E+00  0.00000000E+00
  0.00000000E+00  0.00000000E+00  0.00000000E+00
  0.00000000E+00  0.00000000E+00  0.00000000E+00
  0.00000000E+00  0.00000000E+00  0.00000000E+00
  0.00000000E+00  0.00000000E+00  0.00000000E+00
  0.00000000E+00  0.00000000E+00  0.00000000E+00
  0.00000000E+00  0.00000000E+00  0.00000000E+00
  0.00000000E+00  0.00000000E+00  0.00000000E+00
  0.00000000E+00  0.00000000E+00  0.00000000E+00
  0.00000000E+00  0.00000000E+00  0.00000000E+00
  0.00000000E+00  0.00000000E+00  0.00000000E+00
  0.00000000E+00  0.00000000E+00  0.00000000E+00
  0.00000000E+00  0.00000000E+00  0.00000000E+00
  0.00000000E+00  0.00000000E+00  0.00000000E+00
  0.00000000E+00  0.00000000E+00  0.00000000E+00
  0.00000000E+00  0.00000000E+00  0.00000000E+00
  0.00000000E+00  0.00000000E+00  0.00000000E+00
  0.00000000E+00  0.00000000E+00  0.00000000E+00
  0.00000000E+00  0.00000000E+00  0.00000000E+00
  0.00000000E+00  0.00000000E+00  0.00000000E+00
  0.00000000E+00  0.00000000E+00  0.00000000E+00
  0.00000000E+00  0.00000000E+00  0.00000000E+00
  0.00000000E+00  0.00000000E+00  0.00000000E+00
  0.00000000E+00  0.00000000E+00  0.00000000E+00
  0.00000000E+00  0.00000000E+00  0.00000000E+00
  0.00000000E+00  0.00000000E+00  0.00000000E+00
  0.00000000E+00  0.00000000E+00  0.00000000E+00
  0.00000000E+00  0.00000000E+00  0.00000000E+00
  0.00000000E+00  0.00000000E+00  0.00000000E+00
  0.00000000E+00  0.00000000E+00  0.00000000E+00
  0.00000000E+00  0.00000000E+00  0.00000000E+00
  0.00000000E+00  0.00000000E+00  0.00000000E+00
  0.00000000E+00  0.00000000E+00  0.00000000E+00
  0.00000000E+00  0.00000000E+00  0.00000000E+00
  0.00000000E+00  0.00000000E+00  0.00000000E+00
  0.00000000E+00  0.00000000E+00  0.00000000E+00
  0.00000000E+00  0.00000000E+00  0.00000000E+00
  0.00000000E+00  0.00000000E+00  0.00000000E+00
  0.00000000E+00  0.00000000E+00  0.00000000E+00
  0.00000000E+00  0.00000000E+00  0.00000000E+00
  0.00000000E+00  0.00000000E+00  0.00000000E+00
  0.00000000E+00  0.00000000E+00  0.00000000E+00
  0.00000000E+00  0.00000000E+00  0.00000000E+00
  0.00000000E+00  0.00000000E+00  0.00000000E+00
  0.00000000E+00  0.00000000E+00  0.00000000E+00
  0.00000000E+00  0.00000000E+00  0.00000000E+00
  0.00000000E+00  0.00000000E+00  0.00000000E+00
  0.00000000E+00  0.00000000E+00  0.00000000E+00
  0.00000000E+00  0.00000000E+00  0.00000000E+00
  0.00000000E+00  0.00000000E+00  0.00000000E+00
  0.00000000E+00  0.00000000E+00  0.00000000E+00
  0.00000000E+00  0.00000000E+00  0.00000000E+00
  0.00000000E+00  0.00000000E+00  0.00000000E+00
  0.00000000E+00  0.00000000E+00  0.00000000E+00
  0.00000000E+00  0.00000000E+00  0.00000000E+00
  0.00000000E+00  0.00000000E+00  0.00000000E+00
  0.00000000E+00  0.00000000E+00  0.00000000E+00
  0.00000000E+00  0.00000000E+00  0.00000000E+00
  0.00000000E+00  0.00000000E+00  0.00000000E+00
  0.00000000E+00  0.00000000E+00  0.00000000E+00
  0.00000000E+00  0.00000000E+00  0.00000000E+00
  0.00000000E+00  0.00000000E+00  0.00000000E+00
  0.00000000E+00  0.00000000E+00  0.00000000E+00
  0.00000000E+00  0.00000000E+00  0.00000000E+00
  0.00000000E+00  0.00000000E+00  0.00000000E+00
  0.00000000E+00  0.00000000E+00  0.00000000E+00
  0.00000000E+00  0.00000000E+00  0.00000000E+00
  0.00000000E+00  0.00000000E+00  0.00000000E+00
  0.00000000E+00  0.00000000E+00  0.00000000E+00
  0.00000000E+00  0.00000000E+00  0.00000000E+00
  0.00000000E+00  0.00000000E+00  0.00000000E+00
  0.00000000E+00  0.00000000E+00  0.00000000E+00
  0.00000000E+00  0.00000000E+00  0.00000000E+00
  0.00000000E+00  0.00000000E+00  0.00000000E+00
  0.00000000E+00  0.00000000E+00  0.00000000E+00
  0.00000000E+00  0.00000000E+00  0.00000000E+00
  0.00000000E+00  0.00000000E+00  0.00000000E+00
  0.00000000E+00  0.00000000E+00  0.00000000E+00
  0.00000000E+00  0.00000000E+00  0.00000000E+00
  0.00000000E+00  0.00000000E+00  0.00000000E+00
  0.00000000E+00  0.00000000E+00  0.00000000E+00
  0.00000000E+00  0.00000000E+00  0.00000000E+00
  0.00000000E+00  0.00000000E+00  0.00000000E+00
  0.00000000E+00  0.00000000E+00  0.00000000E+00
  0.00000000E+00  0.00000000E+00  0.00000000E+00
  0.00000000E+00  0.00000000E+00  0.00000000E+00
  0.00000000E+00  0.00000000E+00  0.00000000E+00
  0.00000000E+00  0.00000000E+00  0.00000000E+00
  0.00000000E+00  0.00000000E+00  0.00000000E+00
  0.00000000E+00  0.00000000E+00  0.00000000E+00
  0.00000000E+00  0.00000000E+00  0.00000000E+00
  0.00000000E+00  0.00000000E+00  0.00000000E+00
  0.00000000E+00  0.00000000E+00  0.00000000E+00
  0.00000000E+00  0.00000000E+00  0.00000000E+00
  0.00000000E+00  0.00000000E+00  0.00000000E+00