Na2 Bi2 Se4
1.0
  -2.9680659999999999    2.9680659999999999    6.1589419999999997
   2.9680659999999999   -2.9680659999999999    6.1589419999999997
   2.9680659999999999    2.9680659999999999   -6.1589419999999997
Na Bi Se
2 2 4
direct
   0.0000000000000000    0.0000000000000000    0.0000000000000000 Na
   0.7500000000000000    0.2500000000000000    0.5000000000000000 Na
   0.5000000000000000    0.5000000000000000    0.0000000000000000 Bi
   0.2500000000000000    0.7500000000000000    0.5000000000000000 Bi
   0.7401230000000000    0.7401230000000000    0.0000000000000000 Se
   0.4901230000000000    0.9901230000000000    0.5000000000000000 Se
   0.2598769999999990    0.2598769999999990    0.0000000000000000 Se
   0.0098770000000000    0.5098770000000000    0.5000000000000000 Se
