POSCAR file written by OVITO Basic 3.10.
   1.00000000000000     
    18.2321835864000015    0.0000000000000000    0.0000000000000000
     0.0000000000000000   18.2321835864000015    0.0000000000000000
     0.0000000000000000    0.0000000000000000   18.2321835864000015
   Ge   Te
   100   100
Direct
  0.8675176787401169  0.5847060638871208  0.6296592226632679
  0.3929960178038888  0.2575816497587051  0.6498537504335962
  0.7848829945219769  0.4372880894024807  0.6637766642735767
  0.7816956074352914  0.5618035793290275  0.8972015545265879
  0.1975424611148250  0.9930492857938809  0.2694670520154860
  0.1920274889355481  0.2424546914556034  0.6118278723910301
  0.2569243311113668  0.6875023046513559  0.0621262072026260
  0.5396070401924017  0.7545044042893568  0.9347996200373944
  0.3010214084048830  0.1351523639651676  0.7529314094234734
  0.8327611360119515  0.7949931143525233  0.0243460716382399
  0.4580834428907894  0.6209231541338032  0.6448155281928727
  0.5376474531112050  0.3269907281612363  0.0161031978440556
  0.1760415765448330  0.5284276909098572  0.6293812855741646
  0.6885398294372211  0.2554379222986308  0.4924787543004656
  0.9216779823520748  0.0206641969719988  0.6650490216932596
  0.6977345343483016  0.4243319903713486  0.1281786525987258
  0.7936145790352478  0.4212595098161870  0.2985858494076023
  0.8857103297953030  0.3984149718761393  0.4943758420114440
  0.9380188246519428  0.6547848123894406  0.7315938053499229
  0.5024778253749649  0.5352552057490515  0.8249089451355459
  0.7424032403476298  0.8239956430315994  0.8209960403657544
  0.2371602218842497  0.6439903409434783  0.6820011076571907
  0.6975877805876886  0.8717620646099621  0.3139177403217784
  0.8167513256048647  0.6895454730906986  0.2724566849918906
  0.5582047343721799  0.9401597679510734  0.6323049004032896
  0.1860314226844265  0.1242571423399418  0.2143001689885639
  0.0474328498270475  0.9016261809239213  0.9585056543963277
  0.3002149669582362  0.1197454986780505  0.8935444136764356
  0.9419695677883655  0.9184371439322264  0.8653216651564256
  0.1588171662750424  0.1027631857054761  0.5840707338288517
 -0.0006623268845916  0.4249703375033383  0.7845099600714541
  0.3913492629282629  0.9849301695487935  0.0108077433669210
  0.6049050834456229  0.2311357495381104  0.7009408833256193
  0.7544233429344009  0.2278323137745311  0.7948196134144401
  0.9855264534134739  0.0666749941948269  0.1481612821545477
  0.1335726786966684  0.9454559242089263  0.8098774357587348
  0.8827982244833762  0.0332852570209658  0.8040091474866969
  0.4404651963017512  0.1232352251741860  0.9169812391438195
  0.8689224317722527  0.6020218981916841  0.3788792122866799
  0.0775910725370395  0.9456088527074159  0.4137754840225513
  0.3205081989350889  0.3751663297943670  0.9240906626140567
  0.9383605489086015  0.9236312417006798  0.5575975469847445
  0.6575779069931608  0.6225957920431370  0.5337035750187034
  0.4755427563678633  0.4212895282200921  0.4444798431642337
  0.4439195989240906  0.7968980757653438  0.1309725893911332
  0.1024618255662262  0.0325450908393172  0.0165363150673128
  0.3016471803384812  0.1105038353644653  0.6084714556103674
  0.7965659898296918  0.8783963597014968  0.4174416576193339
  0.9807531438928154  0.4022158665265491  0.1397161714587393
  0.7883680382401665  0.7527344374114179  0.4828997233120351
  0.3932420707488575  0.9992187778742383  0.1733861193447073
  0.9089254324280788  0.3467641710505932  0.9166455037702549
  0.7672229358494640  0.0015434548552266  0.9357317321782639
  0.8211041296135251  0.0839977805741264  0.5705886538217798
  0.7511430678610002  0.3203468593888495  0.0182785580727885
  0.6227628886774308  0.6052428978206862  0.2300636951430611
  0.4338672531064844  0.5565831548357771  0.4259540425480666
  0.7680661457803284  0.5681011550298487  0.7353097699500758
  0.8671025160610468 -0.0000200617464483  0.4531753342531934
  0.2199762914665904  0.7698683911294096  0.8645528470536931
  0.5684349224137950  0.0407789452015016  0.3058744305954647
  0.6793514367110928  0.3557501451997960  0.3599600256319048
  0.5180133103052423  0.1297905829784775  0.5186250234479137
  0.4865526166264516  0.0615964198258514  0.6448354732559791
  0.8930203320771757  0.1327418310706604  0.9161730017699611
  0.0492000101408475  0.6759431910123870  0.2266742977435731
  0.6001942955091670  0.8196285143801098  0.4702265381917802
  0.2222882193384070  0.4396153927554888  0.5259647196799743
  0.0455283000275709  0.7375829062027662  0.7744543245349108
  0.8922214360379903  0.1895953965887886  0.6331795037734745
  0.1458910498461904  0.7460426225638027  0.6792030389124399
  0.9226823140270513  0.0087486803456929  0.0325546049104782
  0.5121973908690850  0.7559176377074019  0.2519413260957514
  0.9478101191913608  0.5816823770097794  0.0324894816804380
  0.4805976960510964  0.4782020000009121  0.2409053248655721
  0.0011236471676341  0.7965401761807156  0.4328316967960519
  0.2998796344615110  0.7269953707494146  0.2064518168549337
  0.1034307499386607  0.7723981229171175  0.5490640824801519
  0.5115147445635498  0.3418931040337221  0.2322776404031710
  0.7341319515622698  0.0766385839337638  0.4133304836754390
  0.6021667544793942  0.3795731562638780  0.8951695853698098
  0.9070300701288609  0.2579766700470056  0.5076440751518558
  0.8050940797919481  0.6057586036770589  0.5052301104609808
  0.3342303348449647  0.8685863765845937  0.0740350737553155
  0.1784881237841843  0.3597944031667010  0.2442454359596594
  0.9609974069520402  0.0117663617194895  0.3361248524630416
  0.0868002890501424  0.7734062778110320  0.9081002529922992
  0.7937089431580090  0.9430153019668448  0.6077706410225692
  0.2387579344265003  0.4793052009046193  0.3029584824791542
  0.3235512915925933  0.3668912111803490  0.0688299537274167
  0.1293582638256331  0.5691181020421855  0.8728696041663371
  0.5507788763010056  0.0880772475661250  0.0084145564923865
  0.3064909681449744  0.5585198885037226  0.0164914076139234
  0.5914979022453917  0.7013105342942346  0.7390161957528057
  0.3731635099505063  0.1792605965087805  0.2395599309937833
  0.4295675117850732  0.9779079885873667  0.4918585308400213
  0.5498945003837484  0.9050941161623334  0.8993407672186127
  0.1152790948806323  0.2317121961919371  0.8388525501995387
  0.6817751617180406  0.9480513475999603  0.1190780355929034
  0.1490537242281472  0.6118997546152013  0.4388100560476467
  0.8999626281411661  0.1317454548577533  0.2457201475075682
  0.2362305026800412  0.8508704331869319  0.7422074719727451
  0.4292122396359253  0.2743680569701406  0.1276963522020750
  0.3737553102071264  0.7691623449065519  0.3391897593224951
  0.2997748236680498  0.3007342683618267  0.5217433968066642
  0.1897597574585797  0.3233465122698436  0.1059202336869286
  0.0113828973359267  0.6549319858859188  0.3774893724425362
  0.1885937530127424  0.6231251702908785  0.2450749545700868
  0.5112528838150068  0.0943556676135072  0.1775528683230542
  0.6899571848979967  0.7071545869314810  0.3505533827364296
  0.1918699536685313  0.4766980132683089  0.9751897576839577
  0.1151065092316592  0.6688391549091557  0.0050852396715237
  0.2506129584002463  0.2757002169911011  0.7446466060377499
  0.3321885020955510  0.7687390862682892  0.9599914851749675
  0.9227671036164969  0.4648038872074871  0.3626606208470821
  0.5894607198013171  0.4781654810612763  0.3554650645900999
 -0.0002147720832508  0.1006817235269821  0.5657279372384799
  0.8041353278425204  0.7242112225983915  0.7172607114257442
  0.6674533776923507  0.6973430384494094  0.8728205236764888
  0.7557423762172841  0.9768839595563740  0.7501851904572598
  0.9059172876120627  0.2335700376318527  0.8036183570838757
  0.2122270916291377  0.8372459797179765  0.1490146369951698
  0.9361592625453370  0.4520483569669151  0.6250708418909159
  0.0859847621215623  0.3415195001561197  0.5952819522111155
  0.1278354518623728  0.4625330894356900  0.4112751890376135
  0.6362414759468055  0.5543713779302164  0.6662528311845426
  0.9167994921982806  0.7740013921240048  0.5629009893300519
  0.3005505538426460  0.1117528991068819  0.1203110211468538
  0.0585378628334527  0.3590598363675486  0.9140056882908429
  0.6126482538822769  0.1729513289486265  0.3842616772369040
  0.7061613420469028  0.8703940830569413  0.9853626480232450
  0.5678304440621222  0.5048284337934674  0.1215657750913185
  0.6289749222358915  0.0435385480268636  0.8881580447607509
  0.6821219505319002  0.7619127450600207  0.5870933505933382
  0.6217597896884739  0.5244821921035437  0.9189815861524094
  0.0486078307251725  0.2608158533038675  0.4629575383368699
  0.9443996112598143  0.5585448610824241  0.8439720451291710
  0.1584404193192682  0.0775844400279789  0.7341296873744991
  0.8946464796380149  0.8253616319244271  0.3219981556528712
  0.5474852837530055  0.8871590991401822  0.3263412955713601
  0.6547969375242484  0.9557084236030551  0.5189463012048346
  0.0388670421591070  0.1375741504431030  0.3370489680224139
  0.3899844563189329  0.0361762057291172  0.3209535635957833
  0.0884704160323529  0.1659423977505823  0.1116881214768370
  0.0058436394168879  0.8744869029903068  0.7380026818168478
  0.8848265359227291  0.2494256073800988  0.0280306132039353
  0.2356699292817776  0.7743807952575411  0.4786441668681386
  0.2310896269958939 -0.0024532020456579  0.9389450837836216
  0.0938940016115257  0.9254117260012554  0.5595870033798139
  0.5197206639858376  0.9080130321459787  0.0587378616224460
  0.5066734446305622  0.6599055144053021  0.5035534896666506
  0.3363694700346746  0.4894212063947610  0.1464848958237463
  0.3185740792945787  0.9244791097435975  0.4074408214886753
  0.8099871518743690  0.2161215704904769  0.4031161206494717
  0.6538108013256847  0.3047126683628604  0.2175959294576817
  0.2624195435063102  0.6314123447184347  0.8272362880815401
  0.4762158073963122  0.8449653997771613  0.5522472921136938
  0.2322938418715007  0.2336741177335369  0.3058904330336228
  0.3623157996915172  0.3913068981475133  0.3469593338726826
  0.0401431919511973  0.1014495619921374  0.8978072739244044
  0.1458472385325223  0.4578625733226450  0.7550624102441386
  0.7866976066362548  0.0547656262522720  0.0782423258092402
  0.4111909714842838  0.9521711094067903  0.8659898681412767
  0.1713955777565084  0.0619374514548642  0.4036774239829445
  0.3815748795955891  0.4911930682324635  0.6122233300955356
  0.0668223629380533  0.6048291181969851  0.5708858262853379
  0.6356579743819762  0.2132949503128854  0.0204681868937147
  0.4244917727553707  0.4909934260560505  0.9506042884212772
  0.3015064059595248  0.5686013814688422  0.4920990497086187
  0.6780885191629219  0.1273934684864705  0.5888591351669634
  0.6260550768642299  0.7292031629028721  0.1287918278400838
  0.5741986081158027  0.3787107095244641  0.7466430675398393
  0.7513457289120261  0.8270025273890967  0.1817013429564318
  0.8791748786539140  0.7863990474214851  0.8849691679873934
  0.4699601906816382  0.1503117992652470  0.7651728438828679
  0.0363039695214636  0.3313125567648444  0.2565161850775913
  0.4145586624456130  0.6181130132853441  0.2933888729181335
  0.4201154421491367  0.3838677405589970  0.7355064715846483
  0.3680376402617231  0.1506739675221054  0.4791684800362019
  0.7156476681685888  0.0222414323886296  0.2703134677826757
  0.9662864078481805  0.5558738503022564  0.1833079272353560
  0.0547795104941784  0.9572103498574760  0.2245513178044467
  0.4448941857551936  0.2754791340680666  0.9113972862806003
  0.9602840885183983  0.8647284742469751  0.0757473634898425
  0.7615958963801474  0.5386040361542721  0.2131391183423156
  0.4697956724356342  0.2684850725336843  0.3527645073377909
  0.5288319012670332  0.2719451064084026  0.5745751450383747
  0.7514761260058670  0.2897917314424824  0.6543526966356472
  0.3624822819161758  0.9795211326089944  0.6318680681996264
  0.4864135510797580  0.6748404313453235  0.0572474015983521
  0.7515182235251788  0.4542529393687993  0.5141339648065459
  0.8442481231464194  0.4706775842189242  0.0104762875340835
  0.1537151647025188  0.8298775345411141  0.3553628801930754
  0.3458803578883511  0.7212856368822077  0.6279810160090368
  0.2204091271336136  0.2290890885629717  0.9461487774068092
  0.5874481629840511  0.8629065626685936  0.7521394690014486
  0.4658752633801561  0.6824568994503823  0.8236357314799891
  0.8492622625905200  0.3396898510584507  0.1908108786258691
  0.8085872844795340  0.6436955365549362  0.0365626746242937
  0.7477818622638319  0.3625089641109794  0.8636903175499381
 
  0.00000000E+00  0.00000000E+00  0.00000000E+00
  0.00000000E+00  0.00000000E+00  0.00000000E+00
  0.00000000E+00  0.00000000E+00  0.00000000E+00
  0.00000000E+00  0.00000000E+00  0.00000000E+00
  0.00000000E+00  0.00000000E+00  0.00000000E+00
  0.00000000E+00  0.00000000E+00  0.00000000E+00
  0.00000000E+00  0.00000000E+00  0.00000000E+00
  0.00000000E+00  0.00000000E+00  0.00000000E+00
  0.00000000E+00  0.00000000E+00  0.00000000E+00
  0.00000000E+00  0.00000000E+00  0.00000000E+00
  0.00000000E+00  0.00000000E+00  0.00000000E+00
  0.00000000E+00  0.00000000E+00  0.00000000E+00
  0.00000000E+00  0.00000000E+00  0.00000000E+00
  0.00000000E+00  0.00000000E+00  0.00000000E+00
  0.00000000E+00  0.00000000E+00  0.00000000E+00
  0.00000000E+00  0.00000000E+00  0.00000000E+00
  0.00000000E+00  0.00000000E+00  0.00000000E+00
  0.00000000E+00  0.00000000E+00  0.00000000E+00
  0.00000000E+00  0.00000000E+00  0.00000000E+00
  0.00000000E+00  0.00000000E+00  0.00000000E+00
  0.00000000E+00  0.00000000E+00  0.00000000E+00
  0.00000000E+00  0.00000000E+00  0.00000000E+00
  0.00000000E+00  0.00000000E+00  0.00000000E+00
  0.00000000E+00  0.00000000E+00  0.00000000E+00
  0.00000000E+00  0.00000000E+00  0.00000000E+00
  0.00000000E+00  0.00000000E+00  0.00000000E+00
  0.00000000E+00  0.00000000E+00  0.00000000E+00
  0.00000000E+00  0.00000000E+00  0.00000000E+00
  0.00000000E+00  0.00000000E+00  0.00000000E+00
  0.00000000E+00  0.00000000E+00  0.00000000E+00
  0.00000000E+00  0.00000000E+00  0.00000000E+00
  0.00000000E+00  0.00000000E+00  0.00000000E+00
  0.00000000E+00  0.00000000E+00  0.00000000E+00
  0.00000000E+00  0.00000000E+00  0.00000000E+00
  0.00000000E+00  0.00000000E+00  0.00000000E+00
  0.00000000E+00  0.00000000E+00  0.00000000E+00
  0.00000000E+00  0.00000000E+00  0.00000000E+00
  0.00000000E+00  0.00000000E+00  0.00000000E+00
  0.00000000E+00  0.00000000E+00  0.00000000E+00
  0.00000000E+00  0.00000000E+00  0.00000000E+00
  0.00000000E+00  0.00000000E+00  0.00000000E+00
  0.00000000E+00  0.00000000E+00  0.00000000E+00
  0.00000000E+00  0.00000000E+00  0.00000000E+00
  0.00000000E+00  0.00000000E+00  0.00000000E+00
  0.00000000E+00  0.00000000E+00  0.00000000E+00
  0.00000000E+00  0.00000000E+00  0.00000000E+00
  0.00000000E+00  0.00000000E+00  0.00000000E+00
  0.00000000E+00  0.00000000E+00  0.00000000E+00
  0.00000000E+00  0.00000000E+00  0.00000000E+00
  0.00000000E+00  0.00000000E+00  0.00000000E+00
  0.00000000E+00  0.00000000E+00  0.00000000E+00
  0.00000000E+00  0.00000000E+00  0.00000000E+00
  0.00000000E+00  0.00000000E+00  0.00000000E+00
  0.00000000E+00  0.00000000E+00  0.00000000E+00
  0.00000000E+00  0.00000000E+00  0.00000000E+00
  0.00000000E+00  0.00000000E+00  0.00000000E+00
  0.00000000E+00  0.00000000E+00  0.00000000E+00
  0.00000000E+00  0.00000000E+00  0.00000000E+00
  0.00000000E+00  0.00000000E+00  0.00000000E+00
  0.00000000E+00  0.00000000E+00  0.00000000E+00
  0.00000000E+00  0.00000000E+00  0.00000000E+00
  0.00000000E+00  0.00000000E+00  0.00000000E+00
  0.00000000E+00  0.00000000E+00  0.00000000E+00
  0.00000000E+00  0.00000000E+00  0.00000000E+00
  0.00000000E+00  0.00000000E+00  0.00000000E+00
  0.00000000E+00  0.00000000E+00  0.00000000E+00
  0.00000000E+00  0.00000000E+00  0.00000000E+00
  0.00000000E+00  0.00000000E+00  0.00000000E+00
  0.00000000E+00  0.00000000E+00  0.00000000E+00
  0.00000000E+00  0.00000000E+00  0.00000000E+00
  0.00000000E+00  0.00000000E+00  0.00000000E+00
  0.00000000E+00  0.00000000E+00  0.00000000E+00
  0.00000000E+00  0.00000000E+00  0.00000000E+00
  0.00000000E+00  0.00000000E+00  0.00000000E+00
  0.00000000E+00  0.00000000E+00  0.00000000E+00
  0.00000000E+00  0.00000000E+00  0.00000000E+00
  0.00000000E+00  0.00000000E+00  0.00000000E+00
  0.00000000E+00  0.00000000E+00  0.00000000E+00
  0.00000000E+00  0.00000000E+00  0.00000000E+00
  0.00000000E+00  0.00000000E+00  0.00000000E+00
  0.00000000E+00  0.00000000E+00  0.00000000E+00
  0.00000000E+00  0.00000000E+00  0.00000000E+00
  0.00000000E+00  0.00000000E+00  0.00000000E+00
  0.00000000E+00  0.00000000E+00  0.00000000E+00
  0.00000000E+00  0.00000000E+00  0.00000000E+00
  0.00000000E+00  0.00000000E+00  0.00000000E+00
  0.00000000E+00  0.00000000E+00  0.00000000E+00
  0.00000000E+00  0.00000000E+00  0.00000000E+00
  0.00000000E+00  0.00000000E+00  0.00000000E+00
  0.00000000E+00  0.00000000E+00  0.00000000E+00
  0.00000000E+00  0.00000000E+00  0.00000000E+00
  0.00000000E+00  0.00000000E+00  0.00000000E+00
  0.00000000E+00  0.00000000E+00  0.00000000E+00
  0.00000000E+00  0.00000000E+00  0.00000000E+00
  0.00000000E+00  0.00000000E+00  0.00000000E+00
  0.00000000E+00  0.00000000E+00  0.00000000E+00
  0.00000000E+00  0.00000000E+00  0.00000000E+00
  0.00000000E+00  0.00000000E+00  0.00000000E+00
  0.00000000E+00  0.00000000E+00  0.00000000E+00
  0.00000000E+00  0.00000000E+00  0.00000000E+00
  0.00000000E+00  0.00000000E+00  0.00000000E+00
  0.00000000E+00  0.00000000E+00  0.00000000E+00
  0.00000000E+00  0.00000000E+00  0.00000000E+00
  0.00000000E+00  0.00000000E+00  0.00000000E+00
  0.00000000E+00  0.00000000E+00  0.00000000E+00
  0.00000000E+00  0.00000000E+00  0.00000000E+00
  0.00000000E+00  0.00000000E+00  0.00000000E+00
  0.00000000E+00  0.00000000E+00  0.00000000E+00
  0.00000000E+00  0.00000000E+00  0.00000000E+00
  0.00000000E+00  0.00000000E+00  0.00000000E+00
  0.00000000E+00  0.00000000E+00  0.00000000E+00
  0.00000000E+00  0.00000000E+00  0.00000000E+00
  0.00000000E+00  0.00000000E+00  0.00000000E+00
  0.00000000E+00  0.00000000E+00  0.00000000E+00
  0.00000000E+00  0.00000000E+00  0.00000000E+00
  0.00000000E+00  0.00000000E+00  0.00000000E+00
  0.00000000E+00  0.00000000E+00  0.00000000E+00
  0.00000000E+00  0.00000000E+00  0.00000000E+00
  0.00000000E+00  0.00000000E+00  0.00000000E+00
  0.00000000E+00  0.00000000E+00  0.00000000E+00
  0.00000000E+00  0.00000000E+00  0.00000000E+00
  0.00000000E+00  0.00000000E+00  0.00000000E+00
  0.00000000E+00  0.00000000E+00  0.00000000E+00
  0.00000000E+00  0.00000000E+00  0.00000000E+00
  0.00000000E+00  0.00000000E+00  0.00000000E+00
  0.00000000E+00  0.00000000E+00  0.00000000E+00
  0.00000000E+00  0.00000000E+00  0.00000000E+00
  0.00000000E+00  0.00000000E+00  0.00000000E+00
  0.00000000E+00  0.00000000E+00  0.00000000E+00
  0.00000000E+00  0.00000000E+00  0.00000000E+00
  0.00000000E+00  0.00000000E+00  0.00000000E+00
  0.00000000E+00  0.00000000E+00  0.00000000E+00
  0.00000000E+00  0.00000000E+00  0.00000000E+00
  0.00000000E+00  0.00000000E+00  0.00000000E+00
  0.00000000E+00  0.00000000E+00  0.00000000E+00
  0.00000000E+00  0.00000000E+00  0.00000000E+00
  0.00000000E+00  0.00000000E+00  0.00000000E+00
  0.00000000E+00  0.00000000E+00  0.00000000E+00
  0.00000000E+00  0.00000000E+00  0.00000000E+00
  0.00000000E+00  0.00000000E+00  0.00000000E+00
  0.00000000E+00  0.00000000E+00  0.00000000E+00
  0.00000000E+00  0.00000000E+00  0.00000000E+00
  0.00000000E+00  0.00000000E+00  0.00000000E+00
  0.00000000E+00  0.00000000E+00  0.00000000E+00
  0.00000000E+00  0.00000000E+00  0.00000000E+00
  0.00000000E+00  0.00000000E+00  0.00000000E+00
  0.00000000E+00  0.00000000E+00  0.00000000E+00
  0.00000000E+00  0.00000000E+00  0.00000000E+00
  0.00000000E+00  0.00000000E+00  0.00000000E+00
  0.00000000E+00  0.00000000E+00  0.00000000E+00
  0.00000000E+00  0.00000000E+00  0.00000000E+00
  0.00000000E+00  0.00000000E+00  0.00000000E+00
  0.00000000E+00  0.00000000E+00  0.00000000E+00
  0.00000000E+00  0.00000000E+00  0.00000000E+00
  0.00000000E+00  0.00000000E+00  0.00000000E+00
  0.00000000E+00  0.00000000E+00  0.00000000E+00
  0.00000000E+00  0.00000000E+00  0.00000000E+00
  0.00000000E+00  0.00000000E+00  0.00000000E+00
  0.00000000E+00  0.00000000E+00  0.00000000E+00
  0.00000000E+00  0.00000000E+00  0.00000000E+00
  0.00000000E+00  0.00000000E+00  0.00000000E+00
  0.00000000E+00  0.00000000E+00  0.00000000E+00
  0.00000000E+00  0.00000000E+00  0.00000000E+00
  0.00000000E+00  0.00000000E+00  0.00000000E+00
  0.00000000E+00  0.00000000E+00  0.00000000E+00
  0.00000000E+00  0.00000000E+00  0.00000000E+00
  0.00000000E+00  0.00000000E+00  0.00000000E+00
  0.00000000E+00  0.00000000E+00  0.00000000E+00
  0.00000000E+00  0.00000000E+00  0.00000000E+00
  0.00000000E+00  0.00000000E+00  0.00000000E+00
  0.00000000E+00  0.00000000E+00  0.00000000E+00
  0.00000000E+00  0.00000000E+00  0.00000000E+00
  0.00000000E+00  0.00000000E+00  0.00000000E+00
  0.00000000E+00  0.00000000E+00  0.00000000E+00
  0.00000000E+00  0.00000000E+00  0.00000000E+00
  0.00000000E+00  0.00000000E+00  0.00000000E+00
  0.00000000E+00  0.00000000E+00  0.00000000E+00
  0.00000000E+00  0.00000000E+00  0.00000000E+00
  0.00000000E+00  0.00000000E+00  0.00000000E+00
  0.00000000E+00  0.00000000E+00  0.00000000E+00
  0.00000000E+00  0.00000000E+00  0.00000000E+00
  0.00000000E+00  0.00000000E+00  0.00000000E+00
  0.00000000E+00  0.00000000E+00  0.00000000E+00
  0.00000000E+00  0.00000000E+00  0.00000000E+00
  0.00000000E+00  0.00000000E+00  0.00000000E+00
  0.00000000E+00  0.00000000E+00  0.00000000E+00
  0.00000000E+00  0.00000000E+00  0.00000000E+00
  0.00000000E+00  0.00000000E+00  0.00000000E+00
  0.00000000E+00  0.00000000E+00  0.00000000E+00
  0.00000000E+00  0.00000000E+00  0.00000000E+00
  0.00000000E+00  0.00000000E+00  0.00000000E+00
  0.00000000E+00  0.00000000E+00  0.00000000E+00
  0.00000000E+00  0.00000000E+00  0.00000000E+00
  0.00000000E+00  0.00000000E+00  0.00000000E+00
  0.00000000E+00  0.00000000E+00  0.00000000E+00
  0.00000000E+00  0.00000000E+00  0.00000000E+00
  0.00000000E+00  0.00000000E+00  0.00000000E+00
  0.00000000E+00  0.00000000E+00  0.00000000E+00
  0.00000000E+00  0.00000000E+00  0.00000000E+00
  0.00000000E+00  0.00000000E+00  0.00000000E+00
