GST                                     
   1.00000000000000     
    21.8666543877800130   -0.0870731650456825   -0.1733184413729737
    -0.0887236082817490   21.5670216467637594    0.1545634633760399
    -0.1705048909704329    0.1553347592283483   21.5113986770381906
   Ge   Sb   Se   Te
    68    68   136    34
Direct
  0.5704265292472664  0.6084722622761829  0.6838811625006744
  0.3752258398583237  0.9066372914673099  0.7186513802648523
  0.1053863750310252  0.9552328367838759  0.6793164812337052
  0.3222328881753997  0.1658360638667104  0.5495720381840465
  0.4441736050897361  0.6830414086340635  0.7917552014729562
  0.9235317301797340  0.5076941168704515  0.2441267309468329
  0.7053176073340406  0.7186792969936235  0.2983215214276558
  0.3015511501863339  0.0317992072698544  0.8136485446222832
  0.2472824560176791  0.8521566230218109  0.2461830781662241
  0.5204327986756073  0.9081987984605000  0.2493221149908596
  0.5889969885917139  0.5670489616301532  0.2173065706936083
  0.0994080025501101  0.1445890041482215  0.5657577238531192
  0.0807919773195559  0.6094770730719561  0.9833405201365315
  0.7791767540820145  0.1416153662241629  0.0670420853091993
  0.8587255492740626  0.9090611942588420  0.2031767402287444
  0.4330088476923202  0.8620176311766596  0.3567099810871093
  0.0604682353406265  0.6300352113305384  0.5548274855182330
  0.1484512301288989  0.5089726283596259  0.9711989390913760
  0.7015606018387668  0.4078182880530943  0.5936537178941083
  0.4944058141219538  0.5812493659181951  0.8341486581038976
  0.1416690506518764  0.3469910468860053  0.2841409627336807
  0.5245412864334419  0.3927026791369995  0.5895191113816993
  0.5816083297487951  0.0282305070205889  0.4837311310412497
  0.7660352899859968  0.4157208231316412  0.3817736891632129
  0.9486098211185264  0.4998839712129531  0.0875967563637736
  0.1120967943480084  0.4153875003726590  0.5541200404428984
  0.5555762064105196  0.6084479628150242  0.4951228082995774
  0.5598214768021038  0.5973217659297125  0.3383197078433245
  0.2071697729223434  0.3166300996628902  0.6589915625957111
  0.4337904934946226  0.8541083342236918  0.5233499021714203
  0.6497827962253838  0.1484460784328450  0.4139107723777078
  0.0428290701601981  0.4435249023167180  0.7351023522588420
  0.4349615683131268  0.6735132322821787  0.1511852632530930
  0.1648262725819895  0.5725693274644847  0.1143721024610163
  0.1851239430500227  0.1355102596368067  0.7535612308384185
  0.4295885742434598  0.7728434305890830  0.2753182151923584
  0.4996292686970209  0.0188381643816132  0.3921326271112979
  0.2151891208114854  0.9746412502179972  0.0993107478322934
  0.3479339914925849  0.1427988663222634  0.3718970707414762
  0.7699498624865759  0.7911504542812773  0.9869758825441226
  0.0090244260320249  0.9515544997498713  0.9122126285955942
  0.1210136947768762  0.8349986700788555  0.0202205697471997
  0.0835299885940063  0.8088645142849724  0.8227932164812080
  0.1110396012553649  0.4840278352810906  0.2348942099853046
  0.0450870917391007  0.3059149232524452  0.7301344086815480
  0.2904410804661840  0.8527817538880947  0.4556491692317559
  0.9868399322109646  0.6191163161041831  0.4112882727534843
  0.5333618685671176  0.8013568987595410  0.6770148512758670
  0.0748008570336293  0.4509800869802860  0.4410938176028094
  0.9392011288814228  0.1518759170428185  0.7543579832656835
  0.4873031591511403  0.5429000020580113  0.9891858326569042
  0.1077582208114661  0.5780274425395572  0.8141369022400815
  0.6599733201276801  0.3439150024733090  0.2817492200645981
  0.3356494252892530  0.8804724710528208  0.1207395577606456
  0.8124345844235457  0.3438606489348214  0.7442645791921298
  0.3779899116741277  0.3151913391908120  0.5954683016427572
  0.9159557992341959  0.2803179522462544  0.8950235304615771
  0.8294661594600028  0.5058423593988798  0.7792365540250544
  0.2900675251232059  0.5926400942292209  0.8163886240862499
  0.8014499627307670  0.3845143830226480  0.1670137559993796
  0.8255628566560804  0.2529690898708738  0.3889258135709255
  0.8502086917178987  0.8504755684997661  0.7421518388733200
  0.7296224399154426  0.2495654198605388  0.8776654998662902
  0.6332868541942197  0.5138044140294873  0.9154867263545602
  0.8480471811897619  0.3012073940307906  0.5548193806661322
  0.5982230834141370  0.7631581133590288  0.3924889030837392
  0.7316754177067439  0.5401046848443345  0.2516830236735556
  0.9306205498737932  0.6478065783205629  0.7804183692377424
  0.7165339994273024  0.7863038642555393  0.8171678252233616
  0.7694402949396882  0.1272251357466201  0.5421146284913415
  0.0709170971637402  0.1632828196349856  0.0133647552424843
  0.4744323221546798  0.6029246160915381  0.5956752132737944
  0.9778000597690740  0.8298051427819602  0.7462118333847204
  0.1150600630274109  0.7167819877916578  0.7099165419493029
  0.8677006227421081  0.0824808375362485  0.8354898467598929
  0.3981133184475708  0.5152549014330979  0.1826165678476120
  0.2530416725937263  0.5666260459241004  0.5584868537686281
  0.8915122606099101  0.0438332654048811  0.0153393927137176
  0.6215057563954128  0.1423413362936499  0.9860548227513477
  0.9758282473430395  0.4611135362499412  0.8990959534005074
  0.3686816320571741  0.0799331533245269  0.6630931285780678
  0.8156529059912244  0.0589985960503293  0.2191383795530455
  0.3453928876866525  0.3341588044241788  0.7986072628329716
  0.9854120671699337  0.6619481649841356  0.1261319000274728
  0.0492091249453143  0.2121156159861153  0.3354788913414832
  0.6903556336464016  0.0474963185008877  0.8223703462061600
  0.5379457788371130  0.3568418335762594  0.9441986106118708
  0.2850884300119251  0.2275775297289074  0.9147510160485977
  0.2968056859900259  0.7344131581869674  0.0213173987487028
  0.9799235380919487  0.3419064453596147  0.0379036210584182
  0.6693099638217288  0.8379809140310357  0.1726887233594145
  0.8289259519388874  0.7426245663571424  0.4825064302777834
  0.6077672671123554  0.4149711565385434  0.4439097658293914
  0.6600338467640682  0.0465655427777269  0.6370051027468098
  0.2350328146293237  0.8779319924908949  0.7679737463457782
  0.2023412088399532  0.0038301016622470  0.5408635465379472
  0.5817888299949325  0.8214493528814080  0.0731265383139535
  0.5538539564918941  0.8896015719991325  0.8350356530390989
  0.8728523750364965  0.9441540909495280  0.4298103717359589
  0.9001474313281118  0.7659420999661627  0.0853787293427514
  0.7530793944539246  0.6634982089098159  0.7252172040764694
  0.2391322266798554  0.4478928601459350  0.1471556931290366
  0.3105809251857871  0.4463009719157813  0.9448737812468422
  0.1782016691209471  0.2570879080425179  0.4386317218102136
  0.8410074587624152  0.9007761349145351  0.9095053452037575
  0.7593452825688322  0.8948572374858961  0.5662400713615892
  0.2378689409255548  0.0564406666392021  0.9218267547745348
  0.5407217388323379  0.3096155804766212  0.1885370280965479
  0.4500860896873233  0.4161851134214481  0.7660926274090754
  0.2791451286836689  0.6283581167816409  0.2473275764143399
  0.9661876661465786  0.5552393753719856  0.5973659918299262
  0.1692770157544465  0.7133003655749710  0.3696149916735689
  0.7770855937691776  0.6223200502620616  0.9082346161563705
  0.6630070677789264  0.4015902772215796  0.8175126076421954
  0.4582717853753151  0.2106504970154378  0.0533761227753649
  0.6392526342278232  0.6844011760445782  0.1939526757220002
  0.9662854519175990  0.3496045110531631  0.3267338866561949
  0.5619613934869353  0.9569387660673827  0.0773329193269233
  0.0969701688241441  0.1106117661401509  0.1887873739416900
  0.2868639099659139  0.5125003103376305  0.4392594695203309
  0.4870270864779707  0.1695652596770339  0.2449927724031177
  0.9405087906222223  0.7982201422648011  0.5382369078182202
  0.9092746458191874  0.7968758723460240  0.3239197520600829
  0.6778001420663866  0.6463330145010376  0.5023168073231234
  0.7336558634333058  0.2010385312819742  0.2136519336212352
  0.3517363570339790  0.7188491377904153  0.6321072632734546
  0.3045909428408758  0.9631006387757993  0.3916396271361721
  0.2057573866522276  0.2144469781779712  0.1183707456922762
  0.8366127286337733  0.0699327278793456  0.6484425020939976
  0.0645520229507824  0.8388727502659605  0.2455665420625797
  0.3995969692559793  0.0465243924254635  0.1522748777430769
  0.4943151103236206  0.0045685324027788  0.8660257108813906
  0.4096776038198655  0.8501481031917351  0.9411564740755376
  0.3686154111391123  0.2991794909111865  0.2864098431896584
  0.0341644412358732  0.9544381244277582  0.1094127815241823
  0.3159883980278779  0.4537634609988139  0.6061039576374845
  0.7582555870854136  0.9725790163454054  0.6677138964131977
  0.3869535373880625  0.6246863071834647  0.7068076419075949
  0.4204972914620999  0.6570710857395597  0.2701322405713581
  0.3434045593156815  0.6055166008294288  0.1170231526104913
  0.8746439868957492  0.6936426028545898  0.3802998087352026
  0.9966973989352155  0.9175369654920387  0.6665019203362045
  0.4575984740308218  0.8311174670539607  0.7589473352209970
  0.5352059805002647  0.3476770799453620  0.8185169162833988
  0.1133947321773616  0.9546142204089300  0.0160939259044658
  0.4636902059648833  0.7515901201740856  0.5935161790842495
  0.6869156807935330  0.7373508017935358  0.9244399976605611
  0.5105534032132019  0.5835983026089360  0.1320398236842508
  0.7884287996061234  0.9517646888090714  0.2790242182348065
  0.2181192581650967  0.8547652784952369  0.1293395785456860
  0.5999696775830885  0.0265739764210614  0.7428487185587616
  0.9409553619136136  0.9312708814716086  0.0074622366137905
  0.7557630396338715  0.4878657025322336  0.1519181896691378
  0.4688873000676349  0.3288655545458898  0.6749534061335671
  0.2986524042736668  0.5059892659777294  0.2609560089193204
  0.0045723496873757  0.1058370198398357  0.6777280833531016
  0.8350149647987569  0.7605539439727151  0.8212214962707461
  0.8336954585693610  0.1907394297134157  0.8842665081597139
  0.5654313859467218  0.5284212168546641  0.7652938244897063
  0.1491194384609711  0.6781735356605744  0.6006570381837576
  0.2234538814762485  0.3368648558652268  0.1980732822696565
  0.7866888710062221  0.4086021055273781  0.8424830843223465
  0.8235019841579166  0.9702600601490049  0.1168077849821670
  0.3645377177720575  0.1177421494243518  0.7794604901646642
  0.4443550099913470  0.9858362221289928  0.6707608336873161
  0.7123215076789150  0.0903073971569973  0.1576102976248245
  0.9464609085230224  0.2313713635357611  0.0012739863705071
  0.0109798976774949  0.4396326929911485  0.6162631213180061
  0.2710913575698809  0.6521817282606033  0.3705705686141305
  0.3010657217684905  0.2261216193898296  0.4480700986602885
  0.9406544472603260  0.4162736921833385  0.7873198209196289
  0.1189643996275623  0.1524275283705987  0.4477135694680948
  0.0044815024361763  0.7381960551738361  0.2804436759561533
  0.0220896142095585  0.5713863053961458  0.7409387755359355
  0.0243632026847701  0.1024259578714748  0.2799258878206853
  0.7559641787389084  0.6519944810872301  0.2117888111362820
  0.4606808105182562  0.9384212025768479  0.1438830550363938
  0.3365602210426489  0.7871094133386052  0.2075136644591712
  0.6976281898700578  0.4758973304091808  0.5016844528510435
  0.6579868328960232  0.3493353294120067  0.9306311933456438
  0.1941285592734069  0.5915413758968495  0.7484941946047140
  0.6204625612661409  0.9471069153868095  0.2036314727778861
  0.3726800558597832  0.9453847744336026  0.8319579007760576
  0.5291219509590263  0.1404765100273164  0.1210029587526882
  0.1489713086828368  0.2504915472483920  0.7395793670964882
  0.1280723247893260  0.9157624916176171  0.8131126801357090
  0.0985903597961927  0.2588091256505691  0.0839889670813658
  0.3211601772982051  0.4073602305482621  0.4972341101726045
  0.4254970595957892  0.0927841093458749  0.4515520818921089
  0.4912228748528257  0.3267459667378689  0.0779229910696970
  0.5190299349244452  0.7965161953609661  0.2096721820405729
  0.1237369488274741  0.3018566912670033  0.5750674789172578
  0.8761626052317402  0.9306924202866496  0.5526242514882757
  0.6153482323700820  0.4223850952393599  0.6585652268076240
  0.1760457114632763  0.7572016396059853  0.2514294280930197
  0.6758560009838089  0.6085946573857368  0.6439805241518193
  0.7234409080759774  0.5725508355387620  0.8072809035695800
  0.5143261056858054  0.6779085137775270  0.4104709030636020
  0.7948613894188465  0.0084238551152351  0.9489315619306555
  0.8336777075758962  0.2053127225906910  0.1491653946790212
  0.4324495409832296  0.0609830712997046  0.2672977266610203
  0.6749679261263981  0.0316295665605351  0.4100118754594742
  0.5531146470136055  0.7029332375536150  0.7471986713678415
  0.0872653229539329  0.6630368902900150  0.8825292639371949
  0.0158350223659970  0.7112839719811487  0.4865781405677916
  0.1919394932982861  0.8023992786210629  0.4507002225948633
  0.9973560882019596  0.7312040312865655  0.6756572083741547
  0.7420672877491673  0.9037620953061001  0.8322500762039993
  0.0440050939447677  0.3647401730663714  0.9391820899118291
  0.3807873494577220  0.7890865378843004  0.4365976890369018
  0.3878356298994002  0.2959947187725583  0.9064550325106135
  0.2971653945572097  0.9253430863425908  0.9923569877480096
  0.5287464769024007  0.5221689963138032  0.4250194330981431
  0.6496931431265581  0.1601504230981664  0.8630053366535007
  0.9158378623345164  0.2393871332850172  0.3174286447762087
  0.5732934618684639  0.4651909019128680  0.0064123176463958
  0.2048631431112554  0.0217910145010274  0.4195775854598689
  0.5280228778915749  0.2100132088850773  0.9496086136609888
  0.0395561815657499  0.2990838583428688  0.2386622551985063
  0.6968889936381034  0.8620893361418615  0.0524870992454705
  0.2677493081809869  0.4190720679985245  0.8345096148615248
  0.8582644138105711  0.6180690904620216  0.6891636933377707
  0.2465187253509200  0.9927212304969046  0.7201633065874828
  0.5329578316341929  0.8579691739620027  0.4122585751280045
  0.2989797216453261  0.2391159811921898  0.6404493681712191
  0.1692424268185714  0.1431206582560178  0.8723786709711490
  0.6993880506853999  0.2213614438933629  0.0324499664287640
  0.0189571082702350  0.5140405018638295  0.3012365243401220
  0.7610685842052494  0.0189375107480296  0.4833570873548085
  0.1161430933285768  0.4775293157092516  0.8644111182385268
  0.2784363153450098  0.7077211044602113  0.8316867581900395
  0.6049580911749658  0.9580504766898469  0.5712444173033578
  0.5704426499835664  0.0967960073677593  0.3411757610428094
  0.6417012253144380  0.7604537410049437  0.5016777933930000
  0.4384330888477981  0.2248714976415507  0.5516018758633531
  0.9612404595980819  0.0819280185802881  0.9161748925898506
  0.7773051640326996  0.3470051405693007  0.2811436907064310
  0.9196841939755560  0.9420798826145105  0.8255352545515925
  0.3506166584700615  0.4255499881877810  0.1120171793998063
  0.1876810957810565  0.4638895843567399  0.6227439659250812
  0.7202395300139109  0.5497663581871918  0.9841321763579917
  0.8051023346944243  0.6994440058176600  0.0486631254973789
  0.0380391884326217  0.8281606144387065  0.1267556849924112
  0.9708915491649533  0.6135137170135576  0.0128254191055415
  0.0504963404099236  0.3268002281653740  0.4152309268849370
  0.4030369445054914  0.7871483809491887  0.0495289067625301
  0.8942313145652300  0.5827430649002356  0.1579614961826771
  0.4377940232026534  0.4949244403760356  0.8848299719080269
  0.0694068863323467  0.5007818699433367  0.1222539855070710
  0.9285449184694569  0.5453795349353976  0.4845003304096294
  0.4353978953935582  0.2224371766724139  0.3565324718207321
  0.1752434048086513  0.2336340772077622  0.3155373405155548
  0.9188314942028361  0.4142828617006432  0.1836477311041287
  0.8854059286830636  0.5660133545791892  0.8671914886811183
  0.7958531925323140  0.4208028815364542  0.6492054127820293
  0.2128030220170491  0.1139446601943700  0.5911199233078809
  0.3366700590850063  0.1243063962042194  0.9498452921538874
  0.3469812089947947  0.6517491549819894  0.5331367414904373
  0.3067398273969743  0.9810194654275938  0.1915075305841566
  0.3198038122131884  0.8723031692267830  0.5637797907086485
  0.0105403751885445  0.0996853173865723  0.1006841804530091
  0.8835394650188827  0.2179676450845550  0.6788103307103569
  0.6885633309837074  0.3126815836397538  0.4277385630011681
  0.1826922461007568  0.1140635737127318  0.0509942597230289
  0.4543968764285134  0.4839370689531138  0.6157169351325238
  0.6010274700895020  0.1320640055958960  0.5208624253189418
  0.5254787947399132  0.8146677162492321  0.9259094723158766
  0.6386613731593450  0.4476121326111487  0.3313725338919143
  0.5611047352048153  0.6112599591738807  0.9236191489633631
  0.8421237032084375  0.7968343743502386  0.1899069192388012
  0.7711121163873251  0.1395239568768697  0.3112414985988355
  0.1532559127657950  0.5969366435923253  0.2279423170062665
  0.1850229928206653  0.4496142085664780  0.3830243439918249
  0.4747177240443560  0.1551412106210268  0.6431097038455303
  0.0221784553543480  0.8176614459959205  0.9301307153797926
  0.1349015759812885  0.9837304361302899  0.2024074064010829
  0.1849330349053712  0.8204474516976438  0.6597405636705949
  0.6976323546056324  0.2869426565452537  0.7533023741139722
  0.4669504095237255  0.3840746050057525  0.2656502081520021
  0.9651127038822955  0.9365100788697955  0.2559173365747581
  0.9786618265950747  0.8620479355840603  0.4264178622975999
  0.8010242651963208  0.7860730627199189  0.6336060303794312
  0.2353985544140656  0.8347458440454502  0.9471778955991255
  0.6372013558648211  0.3974953776547659  0.1682302608003068
  0.4523200348253242  0.9731457125166874  0.9878966617280507
  0.8705125393700410  0.3649076049804958  0.4448828972716024
  0.2016482629092856  0.3971996701999862  0.0141126202185971
  0.7817684719552080  0.8489440615838109  0.4180416753751570
  0.3725515239901501  0.9908734942579878  0.5023694908058491
  0.1308234993728798  0.6877309004092099  0.0613056758240023
  0.3768878813125827  0.2192235512759283  0.1829601105923934
  0.2877577356672622  0.2831332437915944  0.0379465085703601
  0.7109869266729746  0.2918982355128138  0.5440686511106105
  0.3661525070186243  0.7078540193601277  0.9117666327153500
  0.1094099148786563  0.5834190508982561  0.4556125787453852
  0.0735990970882285  0.0147028769795065  0.5542123573839691
  0.8372298327508820  0.5219750384179183  0.3258771685759009
  0.8761303752014363  0.1872253818967371  0.4945138054538827
  0.8816008996242034  0.4151074674479258  0.9836545084305015
  0.6182869166456776  0.9863470211508804  0.9218741612264743
  0.2553541544867637  0.5673776789580943  0.9444948249257010
  0.6806163574022224  0.6147481124108950  0.3702972784569230
  0.0791694489843474  0.0580130185818588  0.7566116838737021
  0.7560765046901069  0.1383622304386044  0.7223620883208484
  0.9840432057046218  0.2617260183366833  0.6254530059133164
  0.0086836694903985  0.2262122643160588  0.8246326857242705
 
  0.00000000E+00  0.00000000E+00  0.00000000E+00
  0.00000000E+00  0.00000000E+00  0.00000000E+00
  0.00000000E+00  0.00000000E+00  0.00000000E+00
  0.00000000E+00  0.00000000E+00  0.00000000E+00
  0.00000000E+00  0.00000000E+00  0.00000000E+00
  0.00000000E+00  0.00000000E+00  0.00000000E+00
  0.00000000E+00  0.00000000E+00  0.00000000E+00
  0.00000000E+00  0.00000000E+00  0.00000000E+00
  0.00000000E+00  0.00000000E+00  0.00000000E+00
  0.00000000E+00  0.00000000E+00  0.00000000E+00
  0.00000000E+00  0.00000000E+00  0.00000000E+00
  0.00000000E+00  0.00000000E+00  0.00000000E+00
  0.00000000E+00  0.00000000E+00  0.00000000E+00
  0.00000000E+00  0.00000000E+00  0.00000000E+00
  0.00000000E+00  0.00000000E+00  0.00000000E+00
  0.00000000E+00  0.00000000E+00  0.00000000E+00
  0.00000000E+00  0.00000000E+00  0.00000000E+00
  0.00000000E+00  0.00000000E+00  0.00000000E+00
  0.00000000E+00  0.00000000E+00  0.00000000E+00
  0.00000000E+00  0.00000000E+00  0.00000000E+00
  0.00000000E+00  0.00000000E+00  0.00000000E+00
  0.00000000E+00  0.00000000E+00  0.00000000E+00
  0.00000000E+00  0.00000000E+00  0.00000000E+00
  0.00000000E+00  0.00000000E+00  0.00000000E+00
  0.00000000E+00  0.00000000E+00  0.00000000E+00
  0.00000000E+00  0.00000000E+00  0.00000000E+00
  0.00000000E+00  0.00000000E+00  0.00000000E+00
  0.00000000E+00  0.00000000E+00  0.00000000E+00
  0.00000000E+00  0.00000000E+00  0.00000000E+00
  0.00000000E+00  0.00000000E+00  0.00000000E+00
  0.00000000E+00  0.00000000E+00  0.00000000E+00
  0.00000000E+00  0.00000000E+00  0.00000000E+00
  0.00000000E+00  0.00000000E+00  0.00000000E+00
  0.00000000E+00  0.00000000E+00  0.00000000E+00
  0.00000000E+00  0.00000000E+00  0.00000000E+00
  0.00000000E+00  0.00000000E+00  0.00000000E+00
  0.00000000E+00  0.00000000E+00  0.00000000E+00
  0.00000000E+00  0.00000000E+00  0.00000000E+00
  0.00000000E+00  0.00000000E+00  0.00000000E+00
  0.00000000E+00  0.00000000E+00  0.00000000E+00
  0.00000000E+00  0.00000000E+00  0.00000000E+00
  0.00000000E+00  0.00000000E+00  0.00000000E+00
  0.00000000E+00  0.00000000E+00  0.00000000E+00
  0.00000000E+00  0.00000000E+00  0.00000000E+00
  0.00000000E+00  0.00000000E+00  0.00000000E+00
  0.00000000E+00  0.00000000E+00  0.00000000E+00
  0.00000000E+00  0.00000000E+00  0.00000000E+00
  0.00000000E+00  0.00000000E+00  0.00000000E+00
  0.00000000E+00  0.00000000E+00  0.00000000E+00
  0.00000000E+00  0.00000000E+00  0.00000000E+00
  0.00000000E+00  0.00000000E+00  0.00000000E+00
  0.00000000E+00  0.00000000E+00  0.00000000E+00
  0.00000000E+00  0.00000000E+00  0.00000000E+00
  0.00000000E+00  0.00000000E+00  0.00000000E+00
  0.00000000E+00  0.00000000E+00  0.00000000E+00
  0.00000000E+00  0.00000000E+00  0.00000000E+00
  0.00000000E+00  0.00000000E+00  0.00000000E+00
  0.00000000E+00  0.00000000E+00  0.00000000E+00
  0.00000000E+00  0.00000000E+00  0.00000000E+00
  0.00000000E+00  0.00000000E+00  0.00000000E+00
  0.00000000E+00  0.00000000E+00  0.00000000E+00
  0.00000000E+00  0.00000000E+00  0.00000000E+00
  0.00000000E+00  0.00000000E+00  0.00000000E+00
  0.00000000E+00  0.00000000E+00  0.00000000E+00
  0.00000000E+00  0.00000000E+00  0.00000000E+00
  0.00000000E+00  0.00000000E+00  0.00000000E+00
  0.00000000E+00  0.00000000E+00  0.00000000E+00
  0.00000000E+00  0.00000000E+00  0.00000000E+00
  0.00000000E+00  0.00000000E+00  0.00000000E+00
  0.00000000E+00  0.00000000E+00  0.00000000E+00
  0.00000000E+00  0.00000000E+00  0.00000000E+00
  0.00000000E+00  0.00000000E+00  0.00000000E+00
  0.00000000E+00  0.00000000E+00  0.00000000E+00
  0.00000000E+00  0.00000000E+00  0.00000000E+00
  0.00000000E+00  0.00000000E+00  0.00000000E+00
  0.00000000E+00  0.00000000E+00  0.00000000E+00
  0.00000000E+00  0.00000000E+00  0.00000000E+00
  0.00000000E+00  0.00000000E+00  0.00000000E+00
  0.00000000E+00  0.00000000E+00  0.00000000E+00
  0.00000000E+00  0.00000000E+00  0.00000000E+00
  0.00000000E+00  0.00000000E+00  0.00000000E+00
  0.00000000E+00  0.00000000E+00  0.00000000E+00
  0.00000000E+00  0.00000000E+00  0.00000000E+00
  0.00000000E+00  0.00000000E+00  0.00000000E+00
  0.00000000E+00  0.00000000E+00  0.00000000E+00
  0.00000000E+00  0.00000000E+00  0.00000000E+00
  0.00000000E+00  0.00000000E+00  0.00000000E+00
  0.00000000E+00  0.00000000E+00  0.00000000E+00
  0.00000000E+00  0.00000000E+00  0.00000000E+00
  0.00000000E+00  0.00000000E+00  0.00000000E+00
  0.00000000E+00  0.00000000E+00  0.00000000E+00
  0.00000000E+00  0.00000000E+00  0.00000000E+00
  0.00000000E+00  0.00000000E+00  0.00000000E+00
  0.00000000E+00  0.00000000E+00  0.00000000E+00
  0.00000000E+00  0.00000000E+00  0.00000000E+00
  0.00000000E+00  0.00000000E+00  0.00000000E+00
  0.00000000E+00  0.00000000E+00  0.00000000E+00
  0.00000000E+00  0.00000000E+00  0.00000000E+00
  0.00000000E+00  0.00000000E+00  0.00000000E+00
  0.00000000E+00  0.00000000E+00  0.00000000E+00
  0.00000000E+00  0.00000000E+00  0.00000000E+00
  0.00000000E+00  0.00000000E+00  0.00000000E+00
  0.00000000E+00  0.00000000E+00  0.00000000E+00
  0.00000000E+00  0.00000000E+00  0.00000000E+00
  0.00000000E+00  0.00000000E+00  0.00000000E+00
  0.00000000E+00  0.00000000E+00  0.00000000E+00
  0.00000000E+00  0.00000000E+00  0.00000000E+00
  0.00000000E+00  0.00000000E+00  0.00000000E+00
  0.00000000E+00  0.00000000E+00  0.00000000E+00
  0.00000000E+00  0.00000000E+00  0.00000000E+00
  0.00000000E+00  0.00000000E+00  0.00000000E+00
  0.00000000E+00  0.00000000E+00  0.00000000E+00
  0.00000000E+00  0.00000000E+00  0.00000000E+00
  0.00000000E+00  0.00000000E+00  0.00000000E+00
  0.00000000E+00  0.00000000E+00  0.00000000E+00
  0.00000000E+00  0.00000000E+00  0.00000000E+00
  0.00000000E+00  0.00000000E+00  0.00000000E+00
  0.00000000E+00  0.00000000E+00  0.00000000E+00
  0.00000000E+00  0.00000000E+00  0.00000000E+00
  0.00000000E+00  0.00000000E+00  0.00000000E+00
  0.00000000E+00  0.00000000E+00  0.00000000E+00
  0.00000000E+00  0.00000000E+00  0.00000000E+00
  0.00000000E+00  0.00000000E+00  0.00000000E+00
  0.00000000E+00  0.00000000E+00  0.00000000E+00
  0.00000000E+00  0.00000000E+00  0.00000000E+00
  0.00000000E+00  0.00000000E+00  0.00000000E+00
  0.00000000E+00  0.00000000E+00  0.00000000E+00
  0.00000000E+00  0.00000000E+00  0.00000000E+00
  0.00000000E+00  0.00000000E+00  0.00000000E+00
  0.00000000E+00  0.00000000E+00  0.00000000E+00
  0.00000000E+00  0.00000000E+00  0.00000000E+00
  0.00000000E+00  0.00000000E+00  0.00000000E+00
  0.00000000E+00  0.00000000E+00  0.00000000E+00
  0.00000000E+00  0.00000000E+00  0.00000000E+00
  0.00000000E+00  0.00000000E+00  0.00000000E+00
  0.00000000E+00  0.00000000E+00  0.00000000E+00
  0.00000000E+00  0.00000000E+00  0.00000000E+00
  0.00000000E+00  0.00000000E+00  0.00000000E+00
  0.00000000E+00  0.00000000E+00  0.00000000E+00
  0.00000000E+00  0.00000000E+00  0.00000000E+00
  0.00000000E+00  0.00000000E+00  0.00000000E+00
  0.00000000E+00  0.00000000E+00  0.00000000E+00
  0.00000000E+00  0.00000000E+00  0.00000000E+00
  0.00000000E+00  0.00000000E+00  0.00000000E+00
  0.00000000E+00  0.00000000E+00  0.00000000E+00
  0.00000000E+00  0.00000000E+00  0.00000000E+00
  0.00000000E+00  0.00000000E+00  0.00000000E+00
  0.00000000E+00  0.00000000E+00  0.00000000E+00
  0.00000000E+00  0.00000000E+00  0.00000000E+00
  0.00000000E+00  0.00000000E+00  0.00000000E+00
  0.00000000E+00  0.00000000E+00  0.00000000E+00
  0.00000000E+00  0.00000000E+00  0.00000000E+00
  0.00000000E+00  0.00000000E+00  0.00000000E+00
  0.00000000E+00  0.00000000E+00  0.00000000E+00
  0.00000000E+00  0.00000000E+00  0.00000000E+00
  0.00000000E+00  0.00000000E+00  0.00000000E+00
  0.00000000E+00  0.00000000E+00  0.00000000E+00
  0.00000000E+00  0.00000000E+00  0.00000000E+00
  0.00000000E+00  0.00000000E+00  0.00000000E+00
  0.00000000E+00  0.00000000E+00  0.00000000E+00
  0.00000000E+00  0.00000000E+00  0.00000000E+00
  0.00000000E+00  0.00000000E+00  0.00000000E+00
  0.00000000E+00  0.00000000E+00  0.00000000E+00
  0.00000000E+00  0.00000000E+00  0.00000000E+00
  0.00000000E+00  0.00000000E+00  0.00000000E+00
  0.00000000E+00  0.00000000E+00  0.00000000E+00
  0.00000000E+00  0.00000000E+00  0.00000000E+00
  0.00000000E+00  0.00000000E+00  0.00000000E+00
  0.00000000E+00  0.00000000E+00  0.00000000E+00
  0.00000000E+00  0.00000000E+00  0.00000000E+00
  0.00000000E+00  0.00000000E+00  0.00000000E+00
  0.00000000E+00  0.00000000E+00  0.00000000E+00
  0.00000000E+00  0.00000000E+00  0.00000000E+00
  0.00000000E+00  0.00000000E+00  0.00000000E+00
  0.00000000E+00  0.00000000E+00  0.00000000E+00
  0.00000000E+00  0.00000000E+00  0.00000000E+00
  0.00000000E+00  0.00000000E+00  0.00000000E+00
  0.00000000E+00  0.00000000E+00  0.00000000E+00
  0.00000000E+00  0.00000000E+00  0.00000000E+00
  0.00000000E+00  0.00000000E+00  0.00000000E+00
  0.00000000E+00  0.00000000E+00  0.00000000E+00
  0.00000000E+00  0.00000000E+00  0.00000000E+00
  0.00000000E+00  0.00000000E+00  0.00000000E+00
  0.00000000E+00  0.00000000E+00  0.00000000E+00
  0.00000000E+00  0.00000000E+00  0.00000000E+00
  0.00000000E+00  0.00000000E+00  0.00000000E+00
  0.00000000E+00  0.00000000E+00  0.00000000E+00
  0.00000000E+00  0.00000000E+00  0.00000000E+00
  0.00000000E+00  0.00000000E+00  0.00000000E+00
  0.00000000E+00  0.00000000E+00  0.00000000E+00
  0.00000000E+00  0.00000000E+00  0.00000000E+00
  0.00000000E+00  0.00000000E+00  0.00000000E+00
  0.00000000E+00  0.00000000E+00  0.00000000E+00
  0.00000000E+00  0.00000000E+00  0.00000000E+00
  0.00000000E+00  0.00000000E+00  0.00000000E+00
  0.00000000E+00  0.00000000E+00  0.00000000E+00
  0.00000000E+00  0.00000000E+00  0.00000000E+00
  0.00000000E+00  0.00000000E+00  0.00000000E+00
  0.00000000E+00  0.00000000E+00  0.00000000E+00
  0.00000000E+00  0.00000000E+00  0.00000000E+00
  0.00000000E+00  0.00000000E+00  0.00000000E+00
  0.00000000E+00  0.00000000E+00  0.00000000E+00
  0.00000000E+00  0.00000000E+00  0.00000000E+00
  0.00000000E+00  0.00000000E+00  0.00000000E+00
  0.00000000E+00  0.00000000E+00  0.00000000E+00
  0.00000000E+00  0.00000000E+00  0.00000000E+00
  0.00000000E+00  0.00000000E+00  0.00000000E+00
  0.00000000E+00  0.00000000E+00  0.00000000E+00
  0.00000000E+00  0.00000000E+00  0.00000000E+00
  0.00000000E+00  0.00000000E+00  0.00000000E+00
  0.00000000E+00  0.00000000E+00  0.00000000E+00
  0.00000000E+00  0.00000000E+00  0.00000000E+00
  0.00000000E+00  0.00000000E+00  0.00000000E+00
  0.00000000E+00  0.00000000E+00  0.00000000E+00
  0.00000000E+00  0.00000000E+00  0.00000000E+00
  0.00000000E+00  0.00000000E+00  0.00000000E+00
  0.00000000E+00  0.00000000E+00  0.00000000E+00
  0.00000000E+00  0.00000000E+00  0.00000000E+00
  0.00000000E+00  0.00000000E+00  0.00000000E+00
  0.00000000E+00  0.00000000E+00  0.00000000E+00
  0.00000000E+00  0.00000000E+00  0.00000000E+00
  0.00000000E+00  0.00000000E+00  0.00000000E+00
  0.00000000E+00  0.00000000E+00  0.00000000E+00
  0.00000000E+00  0.00000000E+00  0.00000000E+00