Amorphous GeAsSeSi                      
   1.00000000000000     
    18.8021333197291440    0.0000000000000000    0.0000000000000000
     0.0000000000000000   18.8021333197291440    0.0000000000000000
     0.0000000000000000    0.0000000000000000   18.8021333197291440
   Ge   As   S 
   108    24   108
Direct
  0.8198795254461686  0.9643834839939416  0.5923167294050842
  0.9524427120114964  0.2071186815001340  0.9918177922159828
  0.4772169184786605  0.8896607796852578  0.5925927617796205
  0.0993747890291417  0.3529067291121635  0.7702612124076040
  0.8568129560448199  0.0171787438360553  0.7092446973833333
  0.4772285624584143  0.6475390948310817  0.6045971078669368
  0.4572314356792830  0.8362233512719754  0.2141389159322529
  0.7731899770933950  0.9770171701092494  0.0193984886255407
  0.3338285538186270  0.1470501418050745  0.6137352057700696
  0.1007105876126957  0.8702392658574212  0.1674938098241867
  0.8550292262668293  0.5703031194485959  0.1211277179796539
  0.6407550327469878  0.9865736600602872  0.0683117698210793
  0.9805684356663633  0.2461358036308638  0.1891950396021329
  0.5764828861201607  0.8705559128555791  0.0184571751938023
  0.5700934491901037  0.0871275117993875  0.2369326023094231
  0.5514893743743556  0.6471978885280336  0.2165550504465656
  0.9475065988925024  0.3408067504579435  0.8951746316592590
  0.2401097252974651  0.5922670543294828  0.9687299984333535
  0.4262838846496564  0.8982513031048782  0.8948265121698924
  0.9039448845919011  0.3233001498372232  0.3845985858331389
  0.2919879672886836  0.5402567804287841  0.8071777828118698
  0.8967323121808093  0.6472638188956523  0.6760803611747761
  0.4341167293009107  0.4835840681632106  0.9151230086553213
  0.7908061251892136  0.1822829818261340  0.1043876567591226
  0.7625165509697851  0.5232989892620523  0.6001590670390726
  0.8581374841969378  0.0740894746509895  0.5002438308882873
  0.7750465601051886  0.7459185017556180  0.8170986682676684
  0.2888582099098684  0.4228016641581149  0.1093058440505246
  0.4534035251570998  0.3084357254493497  0.2500698842596663
  0.3663503362026219  0.2567191775057651  0.9884436817135906
  0.9532306810061542  0.8975396021188473  0.0234251289760579
  0.2581183434857266  0.8510289688652790  0.7279880971369366
  0.0235898193429378  0.1210831540394395  0.5950591380792858
  0.0833511915151774  0.0555475187146470  0.8935527179631535
  0.7045018911656769  0.6349474809550202  0.3553938535799830
  0.7331083550663209  0.3563583981640477  0.3579213231144109
  0.6873154028467141  0.8870541043182953  0.4687314898781096
  0.3837373441289245  0.9486597526736844  0.5092957865563079
  0.5000353681850385  0.9999841985913704  0.3286817374652955
  0.0136961723982836  0.8395123143468552  0.5719247319383669
  0.7315909225849140  0.4187372004672127  0.0176666458967389
  0.0810471455219073  0.4538386503298923  0.9296172115933317
  0.2247496194588621  0.4196319069685970  0.6906054169591158
  0.1682405713320065  0.8087017533500926  0.9225125056424943
  0.3551915394621190  0.6662911070978552  0.1459187624177005
  0.1692796778247896  0.6683034382602457  0.7477892456166799
  0.2432403523498081  0.3989714844732291  0.3320813268470033
  0.4723987297355023  0.4267653838400278  0.0848055789262929
  0.4617977660381314  0.2886449687978470  0.8924440020016817
  0.7209287812134448  0.5722859844008354  0.8534728564657001
  0.6624398453090805  0.5383452447666031  0.0513273055732384
  0.4342141415486296  0.2846368045370582  0.5567706233596112
  0.8342774938416824  0.3646746304260162  0.1965838111852278
  0.3719155518829353  0.9830267851204795  0.2916678338770637
  0.4917482632211261  0.0915850835901750  0.9599397892319317
  0.0599653734490957  0.1329821720121132  0.3179282030104105
  0.0071142942698046  0.3977679390251652  0.5225712023767883
  0.1635644757949564  0.9585958179198002  0.6369321332699656
  0.1490516868997389  0.4882282000014442  0.4179059054892420
  0.0030096922097300  0.0188492992448843  0.1573420622592607
  0.2949067394838849  0.0849878327606035  0.0752532147979821
  0.9935979433249642  0.2251626736809698  0.4112885603144605
  0.1511751742966183  0.2595107650312798  0.5615806796728933
  0.9949132392803151  0.3314672908961995  0.6815139993606465
  0.0452616560515580  0.5013479501943507  0.6862205102371135
  0.8858155302244839  0.6114668234404803  0.4904400900589536
  0.8116966254588505  0.7919758030357897  0.0113084360038727
  0.3427212959886958  0.7948320487732587  0.9342889306495437
  0.5807549617672692  0.6919258149339385  0.7358996908145770
  0.6603038841498545  0.0741142024037984  0.4416830256064443
  0.7689800331873187  0.7503675682265438  0.5903643071518871
  0.8858558481769165  0.5565414338671815  0.8990618994782906
  0.1903010121139630  0.5587354781656160  0.5873092821963013
  0.6073187367675814  0.4267924661740992  0.8422636625586648
  0.6007968002055648  0.3636725650103187  0.6556155343235375
  0.7443823809598697  0.8679614141033767  0.7564874883281760
  0.1128159627154730  0.3620622174246648  0.1030550065631033
  0.3262331419789177  0.2512394822662358  0.3499992361487116
  0.6260862773373717  0.2125104861663374  0.0273238529200981
  0.2263888220724937  0.2469444184588596  0.9868679500740072
  0.6420106806226826  0.8726435635206613  0.2366138178676920
  0.5329966128509938  0.4762560287784154  0.6212410073833610
  0.9137945404787757  0.1592965289048180  0.8113947330927047
  0.1617063281468987  0.4658120305736020  0.2293175859973360
  0.7674039740066618  0.4414131073477208  0.7136548028766043
  0.1422148870922726  0.1741227474943230  0.1542170773292497
  0.2553992638695206  0.6111832509595061  0.3341362453553245
  0.4439510153104180  0.0399959179565315  0.7305015963943760
  0.0012070690894461  0.5198493654259977  0.1042324996947315
  0.5127593221602282  0.8647405604362106  0.7888596788314146
  0.1862106167523763  0.7288558949418729  0.2679334385752696
  0.3867441465238173  0.4873247108203884  0.2319104569794916
  0.7623732380698485  0.0696428332122281  0.3170440207584022
  0.0879777324302538  0.6883126395013619  0.0527493611229701
  0.6319979452933708  0.7093522803467280  0.9578016282165009
  0.5051190184767052  0.1198116552488102  0.4996310841311171
  0.4248890007080846  0.6002866189643683  0.9839438735009338
  0.5135253364338084  0.1938730900305714  0.6919990341394140
  0.3359661074611751  0.5002384448198569  0.5921469060351967
  0.5970841518170644  0.4415997566927885  0.2378946966369995
  0.0196404720551371  0.7198771583615837  0.7237031395950737
  0.2081410492215170  0.7635670562928567  0.5729223370072773
  0.6203612976470296  0.2637830789753650  0.1851240243131258
  0.2545832573540423  0.9833737937426221  0.9129775713466586
  0.5452728276945749  0.7034968701741846  0.3867571372639489
  0.9675582210127445  0.4259276401770080  0.3241191977483524
  0.1369182020067328  0.9062605049208869  0.4617861004875365
  0.5265162618184220  0.5372265981110189  0.4874759601231844
  0.3692032632201219  0.1527772855426406  0.4891846531914084
  0.8450585035576381  0.0558043037657328  0.9339523943578882
  0.8939145623057811  0.9022517426254595  0.4962042235194275
  0.2830726397465071  0.8940493891721601  0.3479407381856774
  0.8572518383189376  0.4403534221464440  0.4495361263235935
  0.2852642850259670  0.8194148666427594  0.2388739154411894
  0.8595127239389910  0.5081968106640673  0.3343505959716140
  0.9583286713964156  0.9814859844464792  0.9189805955825960
  0.4055168159721632  0.7684421301153890  0.5851472725976024
  0.7444479871561498  0.6047545337879399  0.4907643589916688
  0.2278075595380429  0.9149637102864361  0.1686129626445023
  0.9825282918153349  0.9718025785989610  0.7333054008487281
  0.3014324384123981  0.0872249632573130  0.2448632138541811
  0.1889837093699143  0.0134162918039422  0.2539191134590695
  0.1381421370645199  0.0473971349570093  0.1355336015517992
  0.7664675406609831  0.6757146168078307  0.9710109949497365
  0.1254494914593351  0.4390469048665580  0.5886924998162257
  0.6199394149514532  0.8912408939394751  0.7032053254634434
  0.3900181932715867  0.8511225042663568  0.4141438558331956
  0.2959024884140717  0.0436360172552668  0.4692615541232215
  0.2183615816936353  0.0769755499213787  0.5740738238591234
  0.7321376276736018  0.4715758847886491  0.4794662519131236
  0.8606662676556454  0.9324300881690917  0.1147759270994797
  0.4536058731486108  0.4516187668033567  0.7293205379533205
  0.8100345569754168  0.8231591330003951  0.1278262116684132
  0.0628807900804276  0.2350597549327844  0.0804686514353961
  0.9650013867926646  0.1225609372131728  0.2332745125422448
  0.8275853619993541  0.4505555139193973  0.0910072152538888
  0.4270912767755277  0.9141924516645403  0.7065654489708493
  0.5585443089540689  0.2644719241158811  0.5906776457898886
  0.3303562531152977  0.5583360246055520  0.0629600517789513
  0.6199983186837557  0.5783641170564522  0.9378915934015737
  0.5531943429467745  0.2051769104099819  0.9185895415315599
  0.7753379814743511  0.6754367888404644  0.7055998099614911
  0.9083456726919295  0.9933516536998397  0.4195251684611137
  0.3814319613292554  0.3369244766303083  0.0865546618044846
  0.9279892102532443  0.7888994498536448  0.9801316166166387
  0.0167297598432228  0.4105762277377778  0.0354817435564883
  0.0242048650361255  0.9244036115361283  0.2414965095881527
  0.4279311678757267  0.6107221492478203  0.2374853849944714
  0.4933077565916975  0.9991710448402955  0.4569005064504950
  0.8895486522599967  0.2629803014514493  0.0828475237155502
  0.4350917587131633  0.4121667325881333  0.5687366039380208
  0.8037726921422887  0.8332262251187927  0.4592997185678200
  0.9129941502624277  0.0916602622808256  0.0292388328256692
  0.5847679031950719  0.5872840690826067  0.3332819690466309
  0.2091303025862246  0.7113836450357880  0.0099172256403293
  0.9598480124003075  0.9006909759767296  0.8284427744176313
  0.7759615854157715  0.1357937056675595  0.4308145629554900
  0.4782944141319732  0.7495683519217238  0.7777539901183772
  0.8961072919538182  0.7155978756959485  0.5694202624652362
  0.1143485323532900  0.2326054288107713  0.2559807808248138
  0.3130501709522377  0.7502682949398860  0.6627452617254050
  0.1564355588292017  0.9634899438898472  0.8451671315795224
  0.1390362457866487  0.5584991713177985  0.3106013607805593
  0.9247203322545019  0.2855912287810156  0.7789003296308081
  0.0462460025700295  0.4135745296147633  0.2329367544357552
  0.5652852000806519  0.8275596665650227  0.1383090147858255
  0.3460813483903351  0.7573166767250541  0.4796883408906822
  0.5647980024347561  0.5571219575858066  0.1243039675418487
  0.3371790652771338  0.4365740796849877  0.8613003023433876
  0.1696563275022669  0.5969537675424021  0.4740485128437868
  0.8888832142850731  0.5397429634323885  0.6010629251503161
  0.7362602481580964  0.2982410585109818  0.1442262856324490
  0.2605716589048370  0.7766547685389753  0.8357190181774783
  0.1387490667826938  0.4725659442268224  0.7746894042510846
  0.8216186964307326  0.2743371612852954  0.3114821626053228
  0.7776952764562708  0.9821711528363721  0.7929443507098668
  0.4693014192728384  0.9363589074336645  0.0022706028073500
  0.2628457090996861  0.8841947130898546  0.9849855704989281
  0.3220061965493173  0.4962223479066381  0.3457621668172592
  0.7060200924193367  0.9779524889592253  0.5590983092295545
  0.3811540005137388  0.5521784086577526  0.7031211505148249
  0.5794665549569231  0.3734215602662161  0.1272018195260998
  0.0715625567257305  0.8989429780564464  0.0503503489934971
  0.6549834949046627  0.9970377641283861  0.1931459523353354
  0.8181127359288425  0.8525211721754502  0.6569044105081687
  0.1296614518634414  0.1368694670261377  0.5127836704401361
  0.0767654722243378  0.3270825562337834  0.8899531170236870
  0.0196865279197027  0.4838931745762451  0.4233485298836044
  0.2708446033943162  0.3224100659775289  0.4282744337269691
  0.0834886719934289  0.6237476445061532  0.6536764615491535
  0.9277321793374469  0.5904207036585944  0.0163525039543728
  0.3259374832145383  0.0597466369016786  0.6934421870503087
  0.6518834223345706  0.1367029203714125  0.3210783770814061
  0.4073972069124920  0.5823257499971106  0.5195565770299311
  0.8587300714081536  0.1363862495483872  0.7025974187293968
  0.0656243154146239  0.2281799435792564  0.6537817062564173
  0.7679918582785561  0.4530228399184111  0.2720975697594596
  0.7496103814000108  0.8764652188931308  0.9520770486839893
  0.0244521542885252  0.0778645488531851  0.7788477534333751
  0.7184640494659860  0.3428703283059633  0.6561543033645094
  0.2084459477878511  0.3085262212749029  0.7426135720956353
  0.5115143132432181  0.0844762277185183  0.6236503393598412
  0.5544355169424335  0.3382281707499928  0.7646759588835295
  0.1469335953161774  0.7900973841459233  0.6893967706626825
  0.4085137886151102  0.9485474258234277  0.1810895168735343
  0.5087729050882430  0.5154159952365518  0.8191425361288083
  0.6165764540930141  0.7839914920209097  0.6510548924036712
  0.0736736266550508  0.6844415796043393  0.8279317223942826
  0.5773649684298121  0.0917089563382874  0.0587824909422920
  0.2604579809233059  0.1502759939177807  0.3412380865510229
  0.7396096551543536  0.1848181068645474  0.9870754275140214
  0.6498592553847189  0.7444675671431540  0.8361270300686954
  0.0948075587397526  0.7488859925580726  0.1800142423215050
  0.6609731043803819  0.7490623623712551  0.3676527704438541
  0.4059647389204031  0.1513926480719263  0.0417685235523280
  0.4431566840204937  0.2383043411442785  0.3580015212466563
  0.6630496449015837  0.5022694089080986  0.7537374501740004
  0.5665000746437485  0.6558556482321052  0.5114689183218672
  0.3635746601676928  0.9998983516148670  0.8612228107431292
  0.0756956122264896  0.3037398037610970  0.4641112553976754
  0.5359410134068128  0.8820027523020784  0.3123245930749405
  0.2341117638741039  0.8906607727379949  0.5530901186677895
  0.5022366021999858  0.3905821901505959  0.9612015387729755
  0.2103659294301181  0.3728536429183080  0.0167808464162889
  0.2481686745905876  0.6328565362651730  0.2033285788490176
  0.6916266406258131  0.9707409414540038  0.3704530834190649
  0.3181009107558594  0.3229122051228401  0.2508196949305699
  0.3435406640627505  0.6288021939534190  0.8901112812893430
  0.0628926959996079  0.9610999714250923  0.5568453421847224
  0.6229153083317698  0.3253196398339426  0.2989022277584041
  0.4795317931114553  0.4281887580751871  0.2945080091317323
  0.2294664480423023  0.0883922760029918  0.9638356753601016
  0.1148931666216839  0.5692898944000007  0.0827860908842979
  0.9391416504132266  0.1749067539674627  0.5125230297117369
  0.9693736576359271  0.4639588098702347  0.8600149392248895
  0.7836714764620609  0.4747478120806505  0.9098666745546353
  0.0855197907672292  0.7922816486547148  0.4839147179959653
  0.7415600412702759  0.6324519341930568  0.0854358212136006
  0.3866199958837413  0.2432676405357412  0.6713976642482749
  0.2514121894672456  0.2064073912185904  0.1088803053822431
 
  0.00000000E+00  0.00000000E+00  0.00000000E+00
  0.00000000E+00  0.00000000E+00  0.00000000E+00
  0.00000000E+00  0.00000000E+00  0.00000000E+00
  0.00000000E+00  0.00000000E+00  0.00000000E+00
  0.00000000E+00  0.00000000E+00  0.00000000E+00
  0.00000000E+00  0.00000000E+00  0.00000000E+00
  0.00000000E+00  0.00000000E+00  0.00000000E+00
  0.00000000E+00  0.00000000E+00  0.00000000E+00
  0.00000000E+00  0.00000000E+00  0.00000000E+00
  0.00000000E+00  0.00000000E+00  0.00000000E+00
  0.00000000E+00  0.00000000E+00  0.00000000E+00
  0.00000000E+00  0.00000000E+00  0.00000000E+00
  0.00000000E+00  0.00000000E+00  0.00000000E+00
  0.00000000E+00  0.00000000E+00  0.00000000E+00
  0.00000000E+00  0.00000000E+00  0.00000000E+00
  0.00000000E+00  0.00000000E+00  0.00000000E+00
  0.00000000E+00  0.00000000E+00  0.00000000E+00
  0.00000000E+00  0.00000000E+00  0.00000000E+00
  0.00000000E+00  0.00000000E+00  0.00000000E+00
  0.00000000E+00  0.00000000E+00  0.00000000E+00
  0.00000000E+00  0.00000000E+00  0.00000000E+00
  0.00000000E+00  0.00000000E+00  0.00000000E+00
  0.00000000E+00  0.00000000E+00  0.00000000E+00
  0.00000000E+00  0.00000000E+00  0.00000000E+00
  0.00000000E+00  0.00000000E+00  0.00000000E+00
  0.00000000E+00  0.00000000E+00  0.00000000E+00
  0.00000000E+00  0.00000000E+00  0.00000000E+00
  0.00000000E+00  0.00000000E+00  0.00000000E+00
  0.00000000E+00  0.00000000E+00  0.00000000E+00
  0.00000000E+00  0.00000000E+00  0.00000000E+00
  0.00000000E+00  0.00000000E+00  0.00000000E+00
  0.00000000E+00  0.00000000E+00  0.00000000E+00
  0.00000000E+00  0.00000000E+00  0.00000000E+00
  0.00000000E+00  0.00000000E+00  0.00000000E+00
  0.00000000E+00  0.00000000E+00  0.00000000E+00
  0.00000000E+00  0.00000000E+00  0.00000000E+00
  0.00000000E+00  0.00000000E+00  0.00000000E+00
  0.00000000E+00  0.00000000E+00  0.00000000E+00
  0.00000000E+00  0.00000000E+00  0.00000000E+00
  0.00000000E+00  0.00000000E+00  0.00000000E+00
  0.00000000E+00  0.00000000E+00  0.00000000E+00
  0.00000000E+00  0.00000000E+00  0.00000000E+00
  0.00000000E+00  0.00000000E+00  0.00000000E+00
  0.00000000E+00  0.00000000E+00  0.00000000E+00
  0.00000000E+00  0.00000000E+00  0.00000000E+00
  0.00000000E+00  0.00000000E+00  0.00000000E+00
  0.00000000E+00  0.00000000E+00  0.00000000E+00
  0.00000000E+00  0.00000000E+00  0.00000000E+00
  0.00000000E+00  0.00000000E+00  0.00000000E+00
  0.00000000E+00  0.00000000E+00  0.00000000E+00
  0.00000000E+00  0.00000000E+00  0.00000000E+00
  0.00000000E+00  0.00000000E+00  0.00000000E+00
  0.00000000E+00  0.00000000E+00  0.00000000E+00
  0.00000000E+00  0.00000000E+00  0.00000000E+00
  0.00000000E+00  0.00000000E+00  0.00000000E+00
  0.00000000E+00  0.00000000E+00  0.00000000E+00
  0.00000000E+00  0.00000000E+00  0.00000000E+00
  0.00000000E+00  0.00000000E+00  0.00000000E+00
  0.00000000E+00  0.00000000E+00  0.00000000E+00
  0.00000000E+00  0.00000000E+00  0.00000000E+00
  0.00000000E+00  0.00000000E+00  0.00000000E+00
  0.00000000E+00  0.00000000E+00  0.00000000E+00
  0.00000000E+00  0.00000000E+00  0.00000000E+00
  0.00000000E+00  0.00000000E+00  0.00000000E+00
  0.00000000E+00  0.00000000E+00  0.00000000E+00
  0.00000000E+00  0.00000000E+00  0.00000000E+00
  0.00000000E+00  0.00000000E+00  0.00000000E+00
  0.00000000E+00  0.00000000E+00  0.00000000E+00
  0.00000000E+00  0.00000000E+00  0.00000000E+00
  0.00000000E+00  0.00000000E+00  0.00000000E+00
  0.00000000E+00  0.00000000E+00  0.00000000E+00
  0.00000000E+00  0.00000000E+00  0.00000000E+00
  0.00000000E+00  0.00000000E+00  0.00000000E+00
  0.00000000E+00  0.00000000E+00  0.00000000E+00
  0.00000000E+00  0.00000000E+00  0.00000000E+00
  0.00000000E+00  0.00000000E+00  0.00000000E+00
  0.00000000E+00  0.00000000E+00  0.00000000E+00
  0.00000000E+00  0.00000000E+00  0.00000000E+00
  0.00000000E+00  0.00000000E+00  0.00000000E+00
  0.00000000E+00  0.00000000E+00  0.00000000E+00
  0.00000000E+00  0.00000000E+00  0.00000000E+00
  0.00000000E+00  0.00000000E+00  0.00000000E+00
  0.00000000E+00  0.00000000E+00  0.00000000E+00
  0.00000000E+00  0.00000000E+00  0.00000000E+00
  0.00000000E+00  0.00000000E+00  0.00000000E+00
  0.00000000E+00  0.00000000E+00  0.00000000E+00
  0.00000000E+00  0.00000000E+00  0.00000000E+00
  0.00000000E+00  0.00000000E+00  0.00000000E+00
  0.00000000E+00  0.00000000E+00  0.00000000E+00
  0.00000000E+00  0.00000000E+00  0.00000000E+00
  0.00000000E+00  0.00000000E+00  0.00000000E+00
  0.00000000E+00  0.00000000E+00  0.00000000E+00
  0.00000000E+00  0.00000000E+00  0.00000000E+00
  0.00000000E+00  0.00000000E+00  0.00000000E+00
  0.00000000E+00  0.00000000E+00  0.00000000E+00
  0.00000000E+00  0.00000000E+00  0.00000000E+00
  0.00000000E+00  0.00000000E+00  0.00000000E+00
  0.00000000E+00  0.00000000E+00  0.00000000E+00
  0.00000000E+00  0.00000000E+00  0.00000000E+00
  0.00000000E+00  0.00000000E+00  0.00000000E+00
  0.00000000E+00  0.00000000E+00  0.00000000E+00
  0.00000000E+00  0.00000000E+00  0.00000000E+00
  0.00000000E+00  0.00000000E+00  0.00000000E+00
  0.00000000E+00  0.00000000E+00  0.00000000E+00
  0.00000000E+00  0.00000000E+00  0.00000000E+00
  0.00000000E+00  0.00000000E+00  0.00000000E+00
  0.00000000E+00  0.00000000E+00  0.00000000E+00
  0.00000000E+00  0.00000000E+00  0.00000000E+00
  0.00000000E+00  0.00000000E+00  0.00000000E+00
  0.00000000E+00  0.00000000E+00  0.00000000E+00
  0.00000000E+00  0.00000000E+00  0.00000000E+00
  0.00000000E+00  0.00000000E+00  0.00000000E+00
  0.00000000E+00  0.00000000E+00  0.00000000E+00
  0.00000000E+00  0.00000000E+00  0.00000000E+00
  0.00000000E+00  0.00000000E+00  0.00000000E+00
  0.00000000E+00  0.00000000E+00  0.00000000E+00
  0.00000000E+00  0.00000000E+00  0.00000000E+00
  0.00000000E+00  0.00000000E+00  0.00000000E+00
  0.00000000E+00  0.00000000E+00  0.00000000E+00
  0.00000000E+00  0.00000000E+00  0.00000000E+00
  0.00000000E+00  0.00000000E+00  0.00000000E+00
  0.00000000E+00  0.00000000E+00  0.00000000E+00
  0.00000000E+00  0.00000000E+00  0.00000000E+00
  0.00000000E+00  0.00000000E+00  0.00000000E+00
  0.00000000E+00  0.00000000E+00  0.00000000E+00
  0.00000000E+00  0.00000000E+00  0.00000000E+00
  0.00000000E+00  0.00000000E+00  0.00000000E+00
  0.00000000E+00  0.00000000E+00  0.00000000E+00
  0.00000000E+00  0.00000000E+00  0.00000000E+00
  0.00000000E+00  0.00000000E+00  0.00000000E+00
  0.00000000E+00  0.00000000E+00  0.00000000E+00
  0.00000000E+00  0.00000000E+00  0.00000000E+00
  0.00000000E+00  0.00000000E+00  0.00000000E+00
  0.00000000E+00  0.00000000E+00  0.00000000E+00
  0.00000000E+00  0.00000000E+00  0.00000000E+00
  0.00000000E+00  0.00000000E+00  0.00000000E+00
  0.00000000E+00  0.00000000E+00  0.00000000E+00
  0.00000000E+00  0.00000000E+00  0.00000000E+00
  0.00000000E+00  0.00000000E+00  0.00000000E+00
  0.00000000E+00  0.00000000E+00  0.00000000E+00
  0.00000000E+00  0.00000000E+00  0.00000000E+00
  0.00000000E+00  0.00000000E+00  0.00000000E+00
  0.00000000E+00  0.00000000E+00  0.00000000E+00
  0.00000000E+00  0.00000000E+00  0.00000000E+00
  0.00000000E+00  0.00000000E+00  0.00000000E+00
  0.00000000E+00  0.00000000E+00  0.00000000E+00
  0.00000000E+00  0.00000000E+00  0.00000000E+00
  0.00000000E+00  0.00000000E+00  0.00000000E+00
  0.00000000E+00  0.00000000E+00  0.00000000E+00
  0.00000000E+00  0.00000000E+00  0.00000000E+00
  0.00000000E+00  0.00000000E+00  0.00000000E+00
  0.00000000E+00  0.00000000E+00  0.00000000E+00
  0.00000000E+00  0.00000000E+00  0.00000000E+00
  0.00000000E+00  0.00000000E+00  0.00000000E+00
  0.00000000E+00  0.00000000E+00  0.00000000E+00
  0.00000000E+00  0.00000000E+00  0.00000000E+00
  0.00000000E+00  0.00000000E+00  0.00000000E+00
  0.00000000E+00  0.00000000E+00  0.00000000E+00
  0.00000000E+00  0.00000000E+00  0.00000000E+00
  0.00000000E+00  0.00000000E+00  0.00000000E+00
  0.00000000E+00  0.00000000E+00  0.00000000E+00
  0.00000000E+00  0.00000000E+00  0.00000000E+00
  0.00000000E+00  0.00000000E+00  0.00000000E+00
  0.00000000E+00  0.00000000E+00  0.00000000E+00
  0.00000000E+00  0.00000000E+00  0.00000000E+00
  0.00000000E+00  0.00000000E+00  0.00000000E+00
  0.00000000E+00  0.00000000E+00  0.00000000E+00
  0.00000000E+00  0.00000000E+00  0.00000000E+00
  0.00000000E+00  0.00000000E+00  0.00000000E+00
  0.00000000E+00  0.00000000E+00  0.00000000E+00
  0.00000000E+00  0.00000000E+00  0.00000000E+00
  0.00000000E+00  0.00000000E+00  0.00000000E+00
  0.00000000E+00  0.00000000E+00  0.00000000E+00
  0.00000000E+00  0.00000000E+00  0.00000000E+00
  0.00000000E+00  0.00000000E+00  0.00000000E+00
  0.00000000E+00  0.00000000E+00  0.00000000E+00
  0.00000000E+00  0.00000000E+00  0.00000000E+00
  0.00000000E+00  0.00000000E+00  0.00000000E+00
  0.00000000E+00  0.00000000E+00  0.00000000E+00
  0.00000000E+00  0.00000000E+00  0.00000000E+00
  0.00000000E+00  0.00000000E+00  0.00000000E+00
  0.00000000E+00  0.00000000E+00  0.00000000E+00
  0.00000000E+00  0.00000000E+00  0.00000000E+00
  0.00000000E+00  0.00000000E+00  0.00000000E+00
  0.00000000E+00  0.00000000E+00  0.00000000E+00
  0.00000000E+00  0.00000000E+00  0.00000000E+00
  0.00000000E+00  0.00000000E+00  0.00000000E+00
  0.00000000E+00  0.00000000E+00  0.00000000E+00
  0.00000000E+00  0.00000000E+00  0.00000000E+00
  0.00000000E+00  0.00000000E+00  0.00000000E+00
  0.00000000E+00  0.00000000E+00  0.00000000E+00
  0.00000000E+00  0.00000000E+00  0.00000000E+00
  0.00000000E+00  0.00000000E+00  0.00000000E+00
  0.00000000E+00  0.00000000E+00  0.00000000E+00
  0.00000000E+00  0.00000000E+00  0.00000000E+00
  0.00000000E+00  0.00000000E+00  0.00000000E+00
  0.00000000E+00  0.00000000E+00  0.00000000E+00
  0.00000000E+00  0.00000000E+00  0.00000000E+00
  0.00000000E+00  0.00000000E+00  0.00000000E+00
  0.00000000E+00  0.00000000E+00  0.00000000E+00
  0.00000000E+00  0.00000000E+00  0.00000000E+00
  0.00000000E+00  0.00000000E+00  0.00000000E+00
  0.00000000E+00  0.00000000E+00  0.00000000E+00
  0.00000000E+00  0.00000000E+00  0.00000000E+00
  0.00000000E+00  0.00000000E+00  0.00000000E+00
  0.00000000E+00  0.00000000E+00  0.00000000E+00
  0.00000000E+00  0.00000000E+00  0.00000000E+00
  0.00000000E+00  0.00000000E+00  0.00000000E+00
  0.00000000E+00  0.00000000E+00  0.00000000E+00
  0.00000000E+00  0.00000000E+00  0.00000000E+00
  0.00000000E+00  0.00000000E+00  0.00000000E+00
  0.00000000E+00  0.00000000E+00  0.00000000E+00
  0.00000000E+00  0.00000000E+00  0.00000000E+00
  0.00000000E+00  0.00000000E+00  0.00000000E+00
  0.00000000E+00  0.00000000E+00  0.00000000E+00
  0.00000000E+00  0.00000000E+00  0.00000000E+00
  0.00000000E+00  0.00000000E+00  0.00000000E+00
  0.00000000E+00  0.00000000E+00  0.00000000E+00
  0.00000000E+00  0.00000000E+00  0.00000000E+00
  0.00000000E+00  0.00000000E+00  0.00000000E+00
  0.00000000E+00  0.00000000E+00  0.00000000E+00
  0.00000000E+00  0.00000000E+00  0.00000000E+00
  0.00000000E+00  0.00000000E+00  0.00000000E+00
  0.00000000E+00  0.00000000E+00  0.00000000E+00
  0.00000000E+00  0.00000000E+00  0.00000000E+00
  0.00000000E+00  0.00000000E+00  0.00000000E+00
  0.00000000E+00  0.00000000E+00  0.00000000E+00
  0.00000000E+00  0.00000000E+00  0.00000000E+00
  0.00000000E+00  0.00000000E+00  0.00000000E+00
  0.00000000E+00  0.00000000E+00  0.00000000E+00
  0.00000000E+00  0.00000000E+00  0.00000000E+00
  0.00000000E+00  0.00000000E+00  0.00000000E+00
  0.00000000E+00  0.00000000E+00  0.00000000E+00
  0.00000000E+00  0.00000000E+00  0.00000000E+00
  0.00000000E+00  0.00000000E+00  0.00000000E+00
  0.00000000E+00  0.00000000E+00  0.00000000E+00
  0.00000000E+00  0.00000000E+00  0.00000000E+00
  0.00000000E+00  0.00000000E+00  0.00000000E+00
  0.00000000E+00  0.00000000E+00  0.00000000E+00
  0.00000000E+00  0.00000000E+00  0.00000000E+00
