In Sb                                   
   1.00000000000000     
    21.3251152039000011    0.0000000000000000    0.0000000000000000
     0.0000000000000000   21.3251152039000011    0.0000000000000000
     0.0000000000000000    0.0000000000000000   21.3251152039000011
   In   Sb
    30   270
Direct
  0.4761665666362051  0.1886150557981163  0.7791955521964382
  0.6020972607103042  0.5012996400607616  0.4349941713270559
  0.9299276161031526  0.3618756544498820  0.6526032351339187
  0.2041999362183311  0.0537000583696846  0.4940113585301824
  0.1865994002308210  0.5335419051627336  0.3706372272671728
  0.2663032495092706  0.6820532687194798  0.9602334995305403
  0.7044348173762979  0.2931124329149820  0.4863620676384042
  0.1994707061975968  0.6496358555394520  0.5197973564372063
  0.4165453421934266  0.7738176529545767  0.0234628594900377
  0.4662452351999314  0.5633826500809737  0.3542467447312260
  0.7724746110041129  0.1714575084878899  0.9959197257748994
  0.8104755651328966  0.6867391523022277  0.2209852737793728
  0.5118990826672991  0.7437543552804011  0.5717919615959005
  0.7359399601010579  0.4769795628366399  0.6618167079044835
  0.0710234849891456  0.3697297387092719  0.5725237404419093
  0.1400332865008396  0.1162248344524434  0.9156610280105525
  0.1966521092712842  0.3186727895836119  0.0543016557205099
  0.4564400270610460  0.9845243205126207  0.3130571734537699
  0.0384494558946459  0.7701554417427039  0.1303435782092383
  0.5929667991808373  0.7019789895260770  0.2584253433345464
  0.6924119511608766  0.0671123850649846  0.4468054260466104
  0.9278719828776378  0.0118987081686261  0.0305409718725538
  0.1386694979097963  0.3932936589602555  0.3001651272846316
  0.9398093599949288  0.4395691517342557  0.0893516450376938
  0.9330027270743791  0.8215840006267058  0.8793980657475338
  0.6215212894437634  0.1446634295129561  0.7020173004258689
  0.0197357103612463  0.5109395666581761  0.3526067673314719
  0.9273965239170812  0.6642342055929034  0.8279225095014071
  0.1720590176303271  0.4081795635063271  0.4522054545662207
  0.6654838368091657  0.9960888967406418  0.6515831057012329
  0.8425480401483995  0.4172922974539970  0.4709342432002225
  0.1955505844599109  0.2233273008451159  0.7718403751337092
  0.1802770372614010  0.8465015811993626  0.2580353347351917
  0.2897275500836086  0.2410998748939185  0.2343611885079895
  0.8544509951287350  0.7033514192224860  0.0699937387681686
  0.9883035922316893  0.0759046239043820  0.1532076312878086
  0.6161692034073818  0.0803942870113906  0.8575133095782159
 -0.0096846617409100  0.9720563056968210  0.3462099998927937
  0.9785968819251643  0.4334930668802537  0.2223519762836764
  0.2267648084887567  0.0199644834338407  0.0984043383730320
  0.0686614264930984  0.9253906905079792  0.8868669287277514
  0.8937138036478193  0.5773090433775527  0.3651090580043951
  0.6390236397054279  0.7685798194082397  0.7043669673866609
  0.0596963949256471  0.2819284584384892  0.1235878840546870
  0.6299787759066110  0.2962638203312921  0.1111900548081084
  0.4447853817196371  0.7124569019593943  0.8982629288656294
  0.9366032574219494  0.5049721084770019  0.5221649194698968
  0.8617046678514075  0.8641382647601419  0.3507120838377615
  0.5555585693568460  0.0275912937358778  0.5371952875927652
  0.4107452726794303  0.7807813059466222  0.4863812654940570
  0.7878679255679790  0.9722675884041182  0.5627388103356354
  0.1936077914745138  0.0626892090469437  0.6378772523746494
  0.7583605072554248  0.2146968392359043  0.8641669560606053
  0.7822568152162271  0.3433686733075432  0.5863103815198534
  0.0751135802605496  0.5283975994844654  0.8511102104326571
  0.1976927371848571  0.6947262850110846  0.2473739553798585
  0.5879246146765769  0.8426920955043934  0.3146388338645882
  0.3632223096942896  0.8272615554558668  0.8188191088908977
  0.3418987190198715  0.4055635101375651  0.4478115266066444
  0.5152181648203314  0.3338835926251406  0.5431652115376738
  0.5757402141591723  0.6219188249971819  0.5750943331808123
  0.0057709051722116  0.3747349175314727  0.3841733333846449
  0.1618172578047211  0.4248215053455081  0.8767545055385700
  0.3519741987711421  0.6941573963712835  0.7950743416606297
  0.5606428521849255  0.4567420070408271  0.2348791090171234
  0.8902943335750747  0.2505853224433877  0.3770262855295835
  0.2817011506999151  0.9325128568364733  0.4205789117320184
  0.2939903061015048  0.5375872920628562  0.4707362646754629
  0.7374180152932146  0.8675985659670600  0.8725004352700549
  0.9149692766763105  0.1765033786429920  0.0159763478407734
  0.1604819948493519  0.0885575078072107  0.7827775259227125
  0.1394110499505623  0.9239472923102382  0.5739700785177877
  0.6874801044770623  0.0150477951003649  0.1825872117861888
  0.5099032405002324  0.3059504438256547  0.7122717974291483
  0.5196208950873522  0.3011319088008049  0.4040549945769903
  0.8572991462608224  0.3641176700660053  0.7862535128470748
  0.4685562340083191  0.1102626206897179  0.2266148364355579
  0.9358705142756087  0.1097650411001174  0.4745375341234235
  0.5755704394249921  0.9136316864171395  0.4604324480511098
  0.8525002075767243  0.8520155377425380  0.5738451556161488
  0.6393910487649508  0.5932105491946217  0.1205963491577924
  0.1903859774963130  0.1479436525330395  0.2268819218365436
  0.9354641120972536  0.3027222762671571  0.1861595011081149
  0.6676269229998176  0.3082552332161388  0.6580123561739059
  0.5714637636758514  0.3967301982456334  0.7952432996405401
  0.7900900531611436  0.3403157788737922  0.9076208006335290
  0.3444494700316413  0.6649110067825545  0.0963803280275402
  0.3196547642879190  0.8945366236535671  0.7030129673672020
  0.3973573931108083  0.1333538940248589  0.5041082551701579
  0.8510533911626748  0.9361641132961396  0.1821535919023787
  0.3500680862263003  0.3276158300875540  0.6180067477857922
  0.8203367312242152  0.7548575303615707  0.4255063476154047
  0.4622047953659650  0.5236421193833003  0.8102912119949527
  0.4628692108606641  0.3629698998357094  0.0789653831479071
  0.2272584232488224  0.8433485649564960  0.1223435810532788
  0.4209738440040752  0.9136047864663175  0.4443188926003638
  0.4286234376835324  0.9894184739322263  0.8068481828502017
  0.6423102385313245  0.0861491912803660 -0.0047984014392529
  0.7325350320381590  0.7065355413312574  0.0119841915761300
  0.4225836627240456  0.4334747736049803  0.5537717618679948
  0.4936797603725467  0.0847338546130469  0.6849514633236363
  0.6211090740118574  0.4174362298134043  0.5807304632643669
  0.4487683557180006  0.4218128173578434  0.3670334259712383
  0.5740224687334230  0.9717831843421117  0.0300806380208422
  0.6133527437686879  0.7988844552631070  0.8997469121855358
  0.3736039195495124  0.6248441649411913  0.5424659388173434
  0.1665938256182029  0.7311174573787804  0.0750867712094599
  0.8066237423846094  0.7513331244375190  0.8852973598236229
  0.0109281428985275  0.4470042037840319 -0.0280398725041967
  0.8834439710602706  0.6288513406380229  0.4973774608548015
  0.5991167810909094  0.8458193284634171  0.5972912983576313
  0.8983530068454723  0.2078270403790880  0.6742186649684154
  0.9562346068422717  0.3247891709058078  0.5065917603460721
  0.9162816207830418  0.2230586844351897  0.8256998921311738
  0.4469132501161634  0.6839388722054910  0.6932877738750735
  0.5989998003608434  0.5648526522014494  0.3065803082368115
  0.9837884492798251  0.7568172288090826  0.9943590410404841
  0.0953194982965401  0.6287783460653766  0.6401902170383883
  0.6667075465205027  0.6714686291536287  0.4836563290368441
 -0.0308807592821818  0.1220261903473384  0.9022547703728871
  0.6225442348230960  0.2177529532246513  0.8424425497520253
  0.4065366007596714  0.3697448405028176  0.2486018250405045
  0.0847956235735243  0.6015274925382362  0.4415110188257286
  0.8842066515794392  0.5022413440121622  0.6499242570093017
  0.2736778116462677  0.3971994652374036  0.2419692386548322
  0.8886310424435939  0.4969349028794141  0.8079655670847893
  0.2350855379952068  0.2051278103076463  0.4841630896463427
  0.2704016132087124  0.7821648749475646  0.5280483668092996
  0.3102050212000583  0.8682367027632871  0.0093683759861391
  0.7317251450632073  0.8946601828403227  0.3227510844022221
  0.2919478578540284  0.7627127205031263  0.6617230863318176
  0.8906959716918574 -0.0197118078285340  0.4477213242650690
  0.3238845279383029  0.0836630741102273  0.3720332022772552
  0.4446465534670784  0.7960172995075941  0.1738513535687538
  0.4716639096841407  0.1918954349556399  0.6040915622021864
  0.5325161968185677  0.8012760054114455  0.7846786921081546
  0.0601783304500786  0.0224193547513120  0.9819083368756708
  0.4470939772424243  0.8773858445441319  0.6477727763528356
  0.5021085189198086  0.1685520861676579  0.0154049393526310
  0.0380620669219485  0.0964960602911654  0.3781789244293322
  0.5802918485944467  0.8510963996587282  0.1771647703695117
  0.5604240759078234  0.7917835619942196  0.0356044677316443
  0.7437043871135771  0.1333582629663730  0.5847991073035496
  0.6980040219487362  0.7239704437029756  0.1522153954256233
  0.7819530860002895  0.4292443757958413  0.1566922570342489
  0.4757703427171024  0.2193963333251141  0.1416745230840617
  0.1954975740988707  0.7001108058316300  0.8095499940567034
  0.1557570784637171  0.9060636529766800  0.7105191809880308
  0.8821104341290689  0.4830916599188427  0.9466643081890969
  0.0179758010200292  0.9079425644868169  0.6966656389838674
  0.2829235092968077 -0.0001941267781797  0.9744783262520351
  0.9753152360533990  0.5935508865308000  0.7028060410009778
  0.7678119940799993  0.1996273388930131  0.4094430918459312
  0.4080286383534553  0.9436910255034769  0.1208476912481875
  0.5460282373961124  0.4742701648466340  0.6822939981759643
  0.4031793336752219  0.3915117557419950  0.7279828529468556
  0.3915237297359952  0.4813597360581233  0.0807457896774718
  0.3245231567998485  0.0454429975100885  0.6757392072969884
  0.7415068766527398  0.0638862545170699  0.7686259542853048
  0.2332040272070285  0.4968374687051041  0.5854937158724770
  0.9390799919309412  0.7178674628301684  0.6544774352170647
  0.8935493496511492  0.5767823451432579  0.2165217904601130
  0.3520304026402398  0.0579928230921895  0.1713502633664605
  0.4624425586826768  0.6587361095724296  0.1728621664726048
  0.3433657476130100  0.3102757165252109  0.0332499787762927
  0.4097384372880362  0.2385043671039697  0.9373672729847566
  0.3954852738061816  0.5599820178360854  0.6632390822268730
  0.3570716419214480  0.4310946988790019  0.9317518307328804
  0.4407675531652943  0.9125545983721962  0.9219538297740479
  0.1641060203711391  0.5793792975504597  0.7500212068639022
  0.4975248577263178  0.3489960691653441  0.9450344566742778
  0.5346118900969243  0.9350743420799104  0.7379271411589337
  0.0766348151100023  0.2402215470292227  0.9297299591056057
  0.7111308056440092  0.8626260534064949  0.0329437364589482
  0.4488293021667746  0.8375337602045803  0.3064318304448115
  0.4815688218723641  0.0932362273822703  0.8799023522732180
  0.1951165182457647  0.1298403497900466  0.3698594758478476
  0.7043852014389642  0.3791945797543280  0.7691029698995838
  0.6109085871882005  0.6072240230389624  0.9201502037226270
  0.2671709309945214  0.1542157574271703  0.9526392905311999
  0.8026347893150084  0.0463539294984696  0.1142232269637782
  0.7176080158585250  0.8626752670755703  0.1693894440048379
  0.0417253724085883  0.0853290909687070  0.6571497630099926
  0.9006334407233568  0.7884617379834453  0.2427743160302850
  0.0130605642933310  0.6336254812565737  0.1783997937409914
  0.2468848885733452  0.8247362774167084  0.8942314541574695
  0.3415298563139006  0.1992561227314611  0.1149383116929065
  0.8353680557969018  0.9925779320374130  0.7009223643151078
 -0.0003536680068484  0.0010050072058571  0.7957726539177845
  0.0076598001033582  0.7855962003338115  0.7593311970778570
  0.3343806558213757  0.1853312003470027  0.6390030625376163
  0.9859788074964490  0.8146639354133836  0.4451716143265684
  0.6311345097009062  0.1332816081536064  0.1396988574718573
  0.6073465314555198  0.1695618233268227  0.2738429295244650
  0.1077019005844719  0.5446218350172788  0.2311558232147735
  0.7093687418241734  0.8800488329577364  0.7390867962881790
  0.0587190142414876  0.1585837326553306  0.0642625317838035
  0.7605428184486099  0.1874420219492223  0.7131334778831165
  0.4448841503453289  0.0188654100383535  0.0091675129438941
  0.8368416878272666  0.8364839831566514  0.7103793073964421
  0.5170004305696589  0.5102462222387893  0.9379976822108159
  0.1185895750774520  0.8119213356079299  0.4084511325882563
  0.8531716975839426  0.0475832879062522  0.9192104013098487
  0.2946648445624268  0.0722526668049356  0.8089178938829351
  0.5986602227085531  0.2592203862938025  0.9753655384789600
  0.4735523864357308  0.7249300922552853  0.3751568423380747
  0.7386142547706629  0.5098463642117017  0.4574191886577223
  0.7131250073017270  0.7897644524458911  0.5421220712978216
  0.1906765469997377  0.2059327654111653  0.6259931014062003
  0.1037988922189161  0.4265359377585085  0.1656124919718062
  0.0556212102994032  0.0571363445446666  0.5248944340172709
  0.0992166975357454  0.5179461162751804  0.5534512304982332
  0.1111891640844842  0.8062801727752076  0.9731046036667863
  0.8831908286965862  0.0388590163750083  0.2677381948104353
  0.2591997643535479  0.6944604584705252  0.3702450946333772
  0.2599076960143434  0.4417641942361571  0.1091321230086889
  0.1328650852277073  0.6069650975284198  0.9474686144307037
  0.7490540822553112  0.0302403446125350  0.3069050841797813
  0.2962495325058974  0.8240224334694054  0.3326945806597232
  0.1174924090598144  0.9375843039332389  0.0732459441585091
  0.2385794879281579  0.4910357372000915  0.9698818520657890
  0.5010236676910392  0.0860314297740761  0.4249961517332777
  0.9167721031739616  0.2964606451854532  0.9441621530436402
  0.3152008639589448  0.9842847152790349  0.2799764614380656
  0.2012555262629307  0.1547456168607202  0.0797289623118115
  0.9238534225126471  0.6198326635826800  0.9688528158098045
  0.0630021647929408  0.6860807083023375  0.2980701929993552
  0.2286055149823649  0.5811767990138218  0.1670423580243257
  0.5733002143034774  0.4740378529575985  0.0998042068837094
  0.1285796118328093  0.7867839414335708  0.5459201877644826
  0.7876045781691303  0.5746269014510486  0.8598756127127486
  0.5382420100764389  0.6574707853534101  0.0550031321612252
  0.2503887719388840  0.4521669068233205  0.7751218009854535
  0.1565510157397882  0.7675279255207231  0.6941833275209183
  0.9319644477964732  0.7104899287939140  0.3532954062762400
  0.8736909748481579  0.1927912586831612  0.2525783811730316
  0.0423040978653209  0.8193253628566624  0.2655356024305482
  0.7599023802997803  0.6003884965471645  0.5563252275708125
  0.2702602822404906  0.6159824833679954  0.6518193416190692
  0.8517527603055153  0.8329907515704991  0.0180752739819264
  0.3585000202099248  0.2514700279814554  0.4443733472724295
  0.4889178146524438  0.5527704767989403  0.4944967111096444
 -0.0004572554841522  0.3854268597534113  0.8099119589327236
  0.6344076893886244  0.3719213650561043  0.4025619507012957
  0.5290210444690726  0.9807016389105115  0.1756903694969208
  0.7393889000552974  0.2151268329805332  0.1259334732850782
  0.6687381784208294  0.5126783796959694  0.8356302595787063
  0.9507916206015202  0.8930103105641347  0.0976631763109942
  0.7589928216990123  0.5640960869121191  0.3335125917295439
  0.5677924756546880  0.2997711696966637  0.2429094269302603
  0.4263398516199651  0.4996229170517660  0.2132058900160083
  0.3354346054810842  0.5535162361638062  0.8706977883438864
  0.1619996774597844  0.3659315427821163  0.7181720477183791
  0.5938381008981592  0.9796136407643464  0.3404637526214382
  0.7124199144950926  0.9040691928605119  0.4618513100073234
  0.0524074881590068  0.9621679379339724  0.1926713870533369
  0.3208815904263929  0.3460315285177958  0.8281461876866876
  0.0328251392164594  0.5699948976312097  0.0347343656297618
  0.7993506942969951  0.7119002624171736  0.6661054469513454
  0.6343663534271877  0.5755373886145604  0.7179102164560139
  0.2759980135149149  0.9170483700456923  0.5565170583731356
  0.8492011148920332  0.3312859691865868  0.0854030717906106
  0.0502084210010573  0.2255807327098212  0.6427203628883820
  0.5984597063447645  0.1797909053725976  0.4203271759161966
  0.6853605295227932  0.3605643264110799  0.2775816027965762
  0.9070914673648901  0.0804578271670833  0.6241537329458858
  0.7128774210150927  0.5693041911419277  0.0084072656055468
  0.2094498518000125  0.2727398950514793  0.9122211386113841
  0.4269643479604983  0.9838678810499651  0.5643475834374330
  0.8799578101632133  0.9441021783579309  0.8343424733885285
  0.1698082024582690  0.9843415694004500  0.2738454499013443
  0.5334971936771254  0.6415590172324807  0.7917276813369230
  0.7414907061112361  0.6807725470458817  0.7865312831619821
  0.7307212365013440  0.2292724083840098  0.2821342926534829
  0.0417804669149827  0.2128245765336701  0.5046634643189862
  0.6881621656576918  0.4118345758182936  0.0603682153995385
  0.1341509806443338  0.2728665038583367  0.4213544872030103
  0.5748462117655736  0.9285646080872539  0.8979929204080446
  0.3888579319751191  0.1906941145797418  0.3141067731285004
  0.8772504364758501  0.3840321714371012  0.3390598898037021
  0.0757567987274470  0.7109827562383251  0.8776844809820862
  0.7466604819008267  0.9928091612893797  0.0008809222644716
  0.0457436113835747  0.2579328567397204  0.7963260503712407
  0.2168890478861188  0.3490208046402871  0.5924739134795918
  0.0090723953992578  0.7039093224162950  0.5280911394593397
  0.3759941364555480  0.6580378293289173  0.3064887825831818
  0.6268780783567294  0.2014292609797000  0.5588543172175089
  0.9734280149937627  0.9224359603174911  0.5399644577168752
  0.1053423371531310  0.2530801862058032  0.2491669929506866
  0.7318072759335922  0.6971868199260116  0.3365892781318775
  0.1251087969290509  0.9494226818974054  0.4029151979707523
  0.2035338615107652  0.9535942238342321  0.8613337174949371
  0.4176926301377403  0.5997286733981475  0.9729641778987055
  0.0513476818776153  0.4450694659667069  0.6959591768451761
  0.8404008569658636  0.5391142010410240  0.0936058049119005
  0.3134287312983680  0.7587182819303130  0.1913479204339746
  0.0071426998638709  0.1584957903012758  0.2616272567791029
  0.8449725035613362  0.2261182635012463  0.5497673899913246
  0.2905434544491304  0.5300447153189243  0.2748842817886857
  0.3327148627603994  0.2006751314834351  0.7754198804803081
 
  0.00000000E+00  0.00000000E+00  0.00000000E+00
  0.00000000E+00  0.00000000E+00  0.00000000E+00
  0.00000000E+00  0.00000000E+00  0.00000000E+00
  0.00000000E+00  0.00000000E+00  0.00000000E+00
  0.00000000E+00  0.00000000E+00  0.00000000E+00
  0.00000000E+00  0.00000000E+00  0.00000000E+00
  0.00000000E+00  0.00000000E+00  0.00000000E+00
  0.00000000E+00  0.00000000E+00  0.00000000E+00
  0.00000000E+00  0.00000000E+00  0.00000000E+00
  0.00000000E+00  0.00000000E+00  0.00000000E+00
  0.00000000E+00  0.00000000E+00  0.00000000E+00
  0.00000000E+00  0.00000000E+00  0.00000000E+00
  0.00000000E+00  0.00000000E+00  0.00000000E+00
  0.00000000E+00  0.00000000E+00  0.00000000E+00
  0.00000000E+00  0.00000000E+00  0.00000000E+00
  0.00000000E+00  0.00000000E+00  0.00000000E+00
  0.00000000E+00  0.00000000E+00  0.00000000E+00
  0.00000000E+00  0.00000000E+00  0.00000000E+00
  0.00000000E+00  0.00000000E+00  0.00000000E+00
  0.00000000E+00  0.00000000E+00  0.00000000E+00
  0.00000000E+00  0.00000000E+00  0.00000000E+00
  0.00000000E+00  0.00000000E+00  0.00000000E+00
  0.00000000E+00  0.00000000E+00  0.00000000E+00
  0.00000000E+00  0.00000000E+00  0.00000000E+00
  0.00000000E+00  0.00000000E+00  0.00000000E+00
  0.00000000E+00  0.00000000E+00  0.00000000E+00
  0.00000000E+00  0.00000000E+00  0.00000000E+00
  0.00000000E+00  0.00000000E+00  0.00000000E+00
  0.00000000E+00  0.00000000E+00  0.00000000E+00
  0.00000000E+00  0.00000000E+00  0.00000000E+00
  0.00000000E+00  0.00000000E+00  0.00000000E+00
  0.00000000E+00  0.00000000E+00  0.00000000E+00
  0.00000000E+00  0.00000000E+00  0.00000000E+00
  0.00000000E+00  0.00000000E+00  0.00000000E+00
  0.00000000E+00  0.00000000E+00  0.00000000E+00
  0.00000000E+00  0.00000000E+00  0.00000000E+00
  0.00000000E+00  0.00000000E+00  0.00000000E+00
  0.00000000E+00  0.00000000E+00  0.00000000E+00
  0.00000000E+00  0.00000000E+00  0.00000000E+00
  0.00000000E+00  0.00000000E+00  0.00000000E+00
  0.00000000E+00  0.00000000E+00  0.00000000E+00
  0.00000000E+00  0.00000000E+00  0.00000000E+00
  0.00000000E+00  0.00000000E+00  0.00000000E+00
  0.00000000E+00  0.00000000E+00  0.00000000E+00
  0.00000000E+00  0.00000000E+00  0.00000000E+00
  0.00000000E+00  0.00000000E+00  0.00000000E+00
  0.00000000E+00  0.00000000E+00  0.00000000E+00
  0.00000000E+00  0.00000000E+00  0.00000000E+00
  0.00000000E+00  0.00000000E+00  0.00000000E+00
  0.00000000E+00  0.00000000E+00  0.00000000E+00
  0.00000000E+00  0.00000000E+00  0.00000000E+00
  0.00000000E+00  0.00000000E+00  0.00000000E+00
  0.00000000E+00  0.00000000E+00  0.00000000E+00
  0.00000000E+00  0.00000000E+00  0.00000000E+00
  0.00000000E+00  0.00000000E+00  0.00000000E+00
  0.00000000E+00  0.00000000E+00  0.00000000E+00
  0.00000000E+00  0.00000000E+00  0.00000000E+00
  0.00000000E+00  0.00000000E+00  0.00000000E+00
  0.00000000E+00  0.00000000E+00  0.00000000E+00
  0.00000000E+00  0.00000000E+00  0.00000000E+00
  0.00000000E+00  0.00000000E+00  0.00000000E+00
  0.00000000E+00  0.00000000E+00  0.00000000E+00
  0.00000000E+00  0.00000000E+00  0.00000000E+00
  0.00000000E+00  0.00000000E+00  0.00000000E+00
  0.00000000E+00  0.00000000E+00  0.00000000E+00
  0.00000000E+00  0.00000000E+00  0.00000000E+00
  0.00000000E+00  0.00000000E+00  0.00000000E+00
  0.00000000E+00  0.00000000E+00  0.00000000E+00
  0.00000000E+00  0.00000000E+00  0.00000000E+00
  0.00000000E+00  0.00000000E+00  0.00000000E+00
  0.00000000E+00  0.00000000E+00  0.00000000E+00
  0.00000000E+00  0.00000000E+00  0.00000000E+00
  0.00000000E+00  0.00000000E+00  0.00000000E+00
  0.00000000E+00  0.00000000E+00  0.00000000E+00
  0.00000000E+00  0.00000000E+00  0.00000000E+00
  0.00000000E+00  0.00000000E+00  0.00000000E+00
  0.00000000E+00  0.00000000E+00  0.00000000E+00
  0.00000000E+00  0.00000000E+00  0.00000000E+00
  0.00000000E+00  0.00000000E+00  0.00000000E+00
  0.00000000E+00  0.00000000E+00  0.00000000E+00
  0.00000000E+00  0.00000000E+00  0.00000000E+00
  0.00000000E+00  0.00000000E+00  0.00000000E+00
  0.00000000E+00  0.00000000E+00  0.00000000E+00
  0.00000000E+00  0.00000000E+00  0.00000000E+00
  0.00000000E+00  0.00000000E+00  0.00000000E+00
  0.00000000E+00  0.00000000E+00  0.00000000E+00
  0.00000000E+00  0.00000000E+00  0.00000000E+00
  0.00000000E+00  0.00000000E+00  0.00000000E+00
  0.00000000E+00  0.00000000E+00  0.00000000E+00
  0.00000000E+00  0.00000000E+00  0.00000000E+00
  0.00000000E+00  0.00000000E+00  0.00000000E+00
  0.00000000E+00  0.00000000E+00  0.00000000E+00
  0.00000000E+00  0.00000000E+00  0.00000000E+00
  0.00000000E+00  0.00000000E+00  0.00000000E+00
  0.00000000E+00  0.00000000E+00  0.00000000E+00
  0.00000000E+00  0.00000000E+00  0.00000000E+00
  0.00000000E+00  0.00000000E+00  0.00000000E+00
  0.00000000E+00  0.00000000E+00  0.00000000E+00
  0.00000000E+00  0.00000000E+00  0.00000000E+00
  0.00000000E+00  0.00000000E+00  0.00000000E+00
  0.00000000E+00  0.00000000E+00  0.00000000E+00
  0.00000000E+00  0.00000000E+00  0.00000000E+00
  0.00000000E+00  0.00000000E+00  0.00000000E+00
  0.00000000E+00  0.00000000E+00  0.00000000E+00
  0.00000000E+00  0.00000000E+00  0.00000000E+00
  0.00000000E+00  0.00000000E+00  0.00000000E+00
  0.00000000E+00  0.00000000E+00  0.00000000E+00
  0.00000000E+00  0.00000000E+00  0.00000000E+00
  0.00000000E+00  0.00000000E+00  0.00000000E+00
  0.00000000E+00  0.00000000E+00  0.00000000E+00
  0.00000000E+00  0.00000000E+00  0.00000000E+00
  0.00000000E+00  0.00000000E+00  0.00000000E+00
  0.00000000E+00  0.00000000E+00  0.00000000E+00
  0.00000000E+00  0.00000000E+00  0.00000000E+00
  0.00000000E+00  0.00000000E+00  0.00000000E+00
  0.00000000E+00  0.00000000E+00  0.00000000E+00
  0.00000000E+00  0.00000000E+00  0.00000000E+00
  0.00000000E+00  0.00000000E+00  0.00000000E+00
  0.00000000E+00  0.00000000E+00  0.00000000E+00
  0.00000000E+00  0.00000000E+00  0.00000000E+00
  0.00000000E+00  0.00000000E+00  0.00000000E+00
  0.00000000E+00  0.00000000E+00  0.00000000E+00
  0.00000000E+00  0.00000000E+00  0.00000000E+00
  0.00000000E+00  0.00000000E+00  0.00000000E+00
  0.00000000E+00  0.00000000E+00  0.00000000E+00
  0.00000000E+00  0.00000000E+00  0.00000000E+00
  0.00000000E+00  0.00000000E+00  0.00000000E+00
  0.00000000E+00  0.00000000E+00  0.00000000E+00
  0.00000000E+00  0.00000000E+00  0.00000000E+00
  0.00000000E+00  0.00000000E+00  0.00000000E+00
  0.00000000E+00  0.00000000E+00  0.00000000E+00
  0.00000000E+00  0.00000000E+00  0.00000000E+00
  0.00000000E+00  0.00000000E+00  0.00000000E+00
  0.00000000E+00  0.00000000E+00  0.00000000E+00
  0.00000000E+00  0.00000000E+00  0.00000000E+00
  0.00000000E+00  0.00000000E+00  0.00000000E+00
  0.00000000E+00  0.00000000E+00  0.00000000E+00
  0.00000000E+00  0.00000000E+00  0.00000000E+00
  0.00000000E+00  0.00000000E+00  0.00000000E+00
  0.00000000E+00  0.00000000E+00  0.00000000E+00
  0.00000000E+00  0.00000000E+00  0.00000000E+00
  0.00000000E+00  0.00000000E+00  0.00000000E+00
  0.00000000E+00  0.00000000E+00  0.00000000E+00
  0.00000000E+00  0.00000000E+00  0.00000000E+00
  0.00000000E+00  0.00000000E+00  0.00000000E+00
  0.00000000E+00  0.00000000E+00  0.00000000E+00
  0.00000000E+00  0.00000000E+00  0.00000000E+00
  0.00000000E+00  0.00000000E+00  0.00000000E+00
  0.00000000E+00  0.00000000E+00  0.00000000E+00
  0.00000000E+00  0.00000000E+00  0.00000000E+00
  0.00000000E+00  0.00000000E+00  0.00000000E+00
  0.00000000E+00  0.00000000E+00  0.00000000E+00
  0.00000000E+00  0.00000000E+00  0.00000000E+00
  0.00000000E+00  0.00000000E+00  0.00000000E+00
  0.00000000E+00  0.00000000E+00  0.00000000E+00
  0.00000000E+00  0.00000000E+00  0.00000000E+00
  0.00000000E+00  0.00000000E+00  0.00000000E+00
  0.00000000E+00  0.00000000E+00  0.00000000E+00
  0.00000000E+00  0.00000000E+00  0.00000000E+00
  0.00000000E+00  0.00000000E+00  0.00000000E+00
  0.00000000E+00  0.00000000E+00  0.00000000E+00
  0.00000000E+00  0.00000000E+00  0.00000000E+00
  0.00000000E+00  0.00000000E+00  0.00000000E+00
  0.00000000E+00  0.00000000E+00  0.00000000E+00
  0.00000000E+00  0.00000000E+00  0.00000000E+00
  0.00000000E+00  0.00000000E+00  0.00000000E+00
  0.00000000E+00  0.00000000E+00  0.00000000E+00
  0.00000000E+00  0.00000000E+00  0.00000000E+00
  0.00000000E+00  0.00000000E+00  0.00000000E+00
  0.00000000E+00  0.00000000E+00  0.00000000E+00
  0.00000000E+00  0.00000000E+00  0.00000000E+00
  0.00000000E+00  0.00000000E+00  0.00000000E+00
  0.00000000E+00  0.00000000E+00  0.00000000E+00
  0.00000000E+00  0.00000000E+00  0.00000000E+00
  0.00000000E+00  0.00000000E+00  0.00000000E+00
  0.00000000E+00  0.00000000E+00  0.00000000E+00
  0.00000000E+00  0.00000000E+00  0.00000000E+00
  0.00000000E+00  0.00000000E+00  0.00000000E+00
  0.00000000E+00  0.00000000E+00  0.00000000E+00
  0.00000000E+00  0.00000000E+00  0.00000000E+00
  0.00000000E+00  0.00000000E+00  0.00000000E+00
  0.00000000E+00  0.00000000E+00  0.00000000E+00
  0.00000000E+00  0.00000000E+00  0.00000000E+00
  0.00000000E+00  0.00000000E+00  0.00000000E+00
  0.00000000E+00  0.00000000E+00  0.00000000E+00
  0.00000000E+00  0.00000000E+00  0.00000000E+00
  0.00000000E+00  0.00000000E+00  0.00000000E+00
  0.00000000E+00  0.00000000E+00  0.00000000E+00
  0.00000000E+00  0.00000000E+00  0.00000000E+00
  0.00000000E+00  0.00000000E+00  0.00000000E+00
  0.00000000E+00  0.00000000E+00  0.00000000E+00
  0.00000000E+00  0.00000000E+00  0.00000000E+00
  0.00000000E+00  0.00000000E+00  0.00000000E+00
  0.00000000E+00  0.00000000E+00  0.00000000E+00
  0.00000000E+00  0.00000000E+00  0.00000000E+00
  0.00000000E+00  0.00000000E+00  0.00000000E+00
  0.00000000E+00  0.00000000E+00  0.00000000E+00
  0.00000000E+00  0.00000000E+00  0.00000000E+00
  0.00000000E+00  0.00000000E+00  0.00000000E+00
  0.00000000E+00  0.00000000E+00  0.00000000E+00
  0.00000000E+00  0.00000000E+00  0.00000000E+00
  0.00000000E+00  0.00000000E+00  0.00000000E+00
  0.00000000E+00  0.00000000E+00  0.00000000E+00
  0.00000000E+00  0.00000000E+00  0.00000000E+00
  0.00000000E+00  0.00000000E+00  0.00000000E+00
  0.00000000E+00  0.00000000E+00  0.00000000E+00
  0.00000000E+00  0.00000000E+00  0.00000000E+00
  0.00000000E+00  0.00000000E+00  0.00000000E+00
  0.00000000E+00  0.00000000E+00  0.00000000E+00
  0.00000000E+00  0.00000000E+00  0.00000000E+00
  0.00000000E+00  0.00000000E+00  0.00000000E+00
  0.00000000E+00  0.00000000E+00  0.00000000E+00
  0.00000000E+00  0.00000000E+00  0.00000000E+00
  0.00000000E+00  0.00000000E+00  0.00000000E+00
  0.00000000E+00  0.00000000E+00  0.00000000E+00
  0.00000000E+00  0.00000000E+00  0.00000000E+00
  0.00000000E+00  0.00000000E+00  0.00000000E+00
  0.00000000E+00  0.00000000E+00  0.00000000E+00
  0.00000000E+00  0.00000000E+00  0.00000000E+00
  0.00000000E+00  0.00000000E+00  0.00000000E+00
  0.00000000E+00  0.00000000E+00  0.00000000E+00
  0.00000000E+00  0.00000000E+00  0.00000000E+00
  0.00000000E+00  0.00000000E+00  0.00000000E+00
  0.00000000E+00  0.00000000E+00  0.00000000E+00
  0.00000000E+00  0.00000000E+00  0.00000000E+00
  0.00000000E+00  0.00000000E+00  0.00000000E+00
  0.00000000E+00  0.00000000E+00  0.00000000E+00
  0.00000000E+00  0.00000000E+00  0.00000000E+00
  0.00000000E+00  0.00000000E+00  0.00000000E+00
  0.00000000E+00  0.00000000E+00  0.00000000E+00
  0.00000000E+00  0.00000000E+00  0.00000000E+00
  0.00000000E+00  0.00000000E+00  0.00000000E+00