Amorphous Sb                            
  0.920000000000000     
    20.1278869700586895    0.0000000000000000    0.0000000000000000
     0.0000000000000000   20.1278869700586895    0.0000000000000000
     0.0000000000000000    0.0000000000000000   20.1278869700586895
   Ge   Se
   150   150
Direct
  0.5190727550421599  0.7882580218498489  0.7223662409386691
  0.2234352406286320  0.4501267668311755  0.7989332284463302
  0.3929694657567708  0.3388959106340792  0.6515076414846348
  0.8410452723239246  0.0162490021144208  0.6491177489343940
  0.8844659616696191  0.5984643044480507  0.6324438000525490
  0.2278722384538909  0.7075078685554672  0.9332793317172801
  0.1862502851629344  0.1285081954837324  0.3130389292557965
  0.3778846316041324  0.6177214957250712  0.7846029594818518
  0.3326409422017065  0.8945587480441048  0.2835112288784387
  0.4126779014300155  0.9959834944812798  0.4193550086748914
  0.9965211738524431  0.0267685856594966  0.4144644402902671
  0.6254411944357869  0.3265926454275032  0.8695054805631131
  0.6671967562319949  0.4517889069336576  0.4666044265861942
  0.2746786011756086  0.9991509756232873  0.8362563085100803
  0.6994808431941024  0.9914385973584174  0.4488564922088969
  0.0254721223122232  0.8168203935610094  0.0498372998648051
  0.0540335626090638  0.7645927147313074  0.3355032973447152
  0.8286221009738455  0.4138279376706393  0.3599959831442945
  0.1332205656012135  0.5170669626060800  0.9543932488515665
  0.0394800501784545  0.9097658369735768  0.4876055461133433
  0.1674078404757680  0.8631820510657917  0.1829229097455070
  0.4669346695603878  0.6992137861438081  0.0043413643477805
  0.9764503403565286  0.2019444356605717  0.8961417239945817
  0.0361352910483177  0.1346377298989552  0.1039789052926920
  0.5440655084398429  0.3059380601088506  0.1652933275231305
  0.3485797898651057  0.1613178893184681  0.6048553893903872
  0.4124564971707088  0.7830410246478010  0.5587699614537911
  0.8532437608191330  0.8738066029050557  0.0688594950018881
  0.8154367464681869  0.4184461263764092  0.5931993520609922
  0.9461606854948670  0.7746324408392695  0.5897495614166957
  0.0841781940145836  0.3220861996682203  0.7434413129180157
  0.9945816311637827  0.1232810493251932  0.2523544305987215
  0.9345863287307026  0.4956029157773258  0.4588616979233677
  0.3320365537323298  0.4628401841276428  0.2603781814487292
  0.0602410315240718  0.5540700182383631  0.5741150339481109
  0.7543154806058467  0.7165077093045724  0.1639601267892274
  0.4277188601422566  0.5108619542743540  0.9232357261532513
  0.2222202019563824  0.0554957835702936  0.1826648275562661
  0.2628569530178169  0.3649171160439550  0.1199214376054414
  0.7633959645904298  0.3778885646517267  0.7735988201864146
  0.8519606793942387  0.8508336271650876  0.4123887535608191
  0.9218129709678564  0.1851632551804414  0.5407431546933239
  0.5641985093617308  0.8668465696861176  0.5440265637538815
  0.4236688107066513  0.9461672316110423  0.0756876025701132
  0.3626996188319183  0.6725088717920187  0.2745381514620249
  0.3904034746903378  0.4088335503058360  0.5087648453797513
  0.9390553243827782  0.8336441198177553  0.1956028273043771
  0.0455912070567024  0.3127727152036499  0.3860923856520273
  0.9734258152056512  0.7318837933150988  0.7989256847702464
  0.5611915743971636  0.0777687203390300  0.3334828607273224
  0.2591631342412626  0.4101743184954358  0.9408460214987713
  0.0153651244754442  0.2904606229172231  0.1299990668919122
  0.6005002182794428  0.6843226700270648  0.8084982520944877
  0.5933325736948447  0.2928472185864948  0.7358732636023007
  0.0529357701931232  0.5770741015467991  0.3401142447899801
  0.0423077502119042  0.9453329524302205  0.1634031823411490
  0.1691464442033563  0.5578659321405581  0.4723578272829272
  0.9703535744765901  0.3096758440144214  0.5843613526494167
  0.0786831583267329  0.0080510397711535  0.8057361882322098
  0.5064279089019692  0.4303043861853908  0.3295946052201728
  0.6741021150572806  0.1177581844576068  0.1323601823214631
  0.5498181770949344  0.6699852724495727  0.2479005720620009
  0.9431556329333759  0.6733761724595055  0.3165354870334340
  0.9017567611470838  0.0223024929052613  0.8310464205265831
  0.5769048934661143  0.8309130944994010  0.0208397558622551
  0.0875876750816644  0.3517279171170102  0.9348371369134867
  0.8099364474213218  0.8383806907857405  0.5558357669497340
  0.7170505742252615  0.7252232540331249  0.6908064263816698
  0.8021881585286010  0.2720310295598622  0.1118523727556564
  0.8458615104008018  0.3010266187943316  0.9628953358716217
  0.9630552067083045  0.4209798407307588  0.7379308686751997
  0.4264492141129637  0.0636828674637187  0.1930073301958117
  0.3743826156100241  0.5306776931263286  0.4310862593699625
  0.5123543032480384  0.8341078424014228  0.3973197314402412
  0.3581192609250792  0.4798031390478954  0.7293987761590515
  0.6810739856111141  0.8997701690012718  0.1371270023910398
  0.2441152670705264  0.2363927906371757  0.1713749339004877
  0.8291773618797720  0.1078863285883642  0.9706011960195084
  0.2919533309285427  0.8488666783787906  0.9468815084180662
  0.4079415019407975  0.2731877880220708  0.0547737189164863
  0.6901488514250929  0.9978550808526307  0.9280531859868120
  0.9608593713696365  0.6013573078136076  0.8474688634011969
  0.7937063610060093  0.4922886132792925  0.0469411729724740
  0.7628267964555562  0.5339807955347524  0.3132291056377738
  0.3485372928674124  0.1214368404139705  0.7395754283846898
  0.5678400229580944  0.1394916343692998  0.0500076877542952
  0.5060638316488024  0.6328606923135141  0.5892844705785336
  0.7610161612969861  0.3085563481044602  0.5130791919251507
  0.6236180928846693  0.5841880690595644  0.1398207159013864
  0.5410547220135413  0.2680408383726984  0.4387490355527319
  0.6092484849084627  0.1073573487847028  0.9272294818663340
  0.1074926624601531  0.1005297009914443  0.5767680082153532
  0.3009537220344640  0.5919366996406481  0.5860699571576049
  0.8353145211291917  0.0806561601220395  0.3573113913540240
  0.6429329750957038  0.9363353327432691  0.6340459692865608
  0.6673937406044246  0.6901209723376809  0.4898288673349214
  0.4414131835885797  0.9972939789915216  0.9357633114173183
  0.1397582055295459  0.4431763141822032  0.6279452684491744
  0.1814716156262577  0.7776810027889880  0.4821634419656320
  0.1780392490450708  0.1032145017046417  0.8297680146154107
  0.1098413482352925  0.4195966041817272  0.2255696238571758
  0.4820661931978876  0.3294451525484945  0.8924551881091034
  0.1934836303097001  0.5200349050808626  0.0932400706257823
  0.8195362004513740  0.0727597670164286  0.1786709189959694
  0.4179216346886463  0.8258294449044215  0.8120656797916652
  0.7385034304164719  0.7088386294518685  0.9955469115309299
  0.9939216513561391  0.4800394234633103  0.9980315647185236
  0.0348339204844521  0.6754972353574402  0.0532265332186270
  0.6648414395730882  0.1294446670634315  0.7358042219474825
  0.7523821856559678  0.9142644447151369  0.8249276199713123
  0.1074380462831925  0.8661389765362770  0.6674952939028316
  0.1375952457527205  0.9329036506904913  0.9574820330795575
  0.1723844247024218  0.9572512264797268  0.3859611287235012
  0.7262770586078986  0.1980454708434110  0.3117214071253258
  0.7451616004625805  0.8521731688871199  0.3223808171775957
  0.7450076104429044  0.6501281060616790  0.3831114934343418
  0.4331795251968842  0.2481622211669006  0.2928688018613030
  0.7011304755716878  0.5662304887322236  0.6953870793487766
  0.3262417636895378  0.2306738000683382  0.4435063829285184
  0.0346056507599428  0.8784994451450885  0.7866843075513401
  0.9209604410137047  0.4671638528512645  0.1860605993466748
  0.8608674528089537  0.2260487419311730  0.3548151001494659
  0.7985583928068749  0.6394025172910034  0.8123319197714167
  0.9948544897630995  0.9545978157952177  0.9920720844905375
  0.2221993958449531  0.3962663929009409  0.4082053641043615
  0.2565369236300086  0.6967590433841551  0.6784115164672073
  0.3373711147738163  0.9796578498260189  0.5419444326652965
  0.6158512865140082  0.8788348322071826  0.8008861608583402
  0.1878636250051855  0.1181306419386061  0.9859541327422363
  0.3195054859306978  0.7953725935402858  0.0742728735797940
  0.5297284425855437  0.5673321222391436  0.4496810476249351
  0.8917507770686228  0.7938219939676543  0.8947184597429967
  0.4331543044514561  0.1954753329715473  0.9291005139608970
  0.4308136113997563  0.5106555313524552  0.1365887944355464
  0.0591041048413530  0.7213915167363183  0.6631919370665855
  0.1749221614406196  0.6602961083722718  0.2126008084134909
  0.2747627649855673  0.2671934617236928  0.8104551943151748
  0.5204985370575841  0.1095776546122735  0.5205077473773301
  0.2909921136919280  0.7394140596072347  0.3914963041510902
  0.3181665515463337  0.8751459270142803  0.7136506306414532
  0.6983346982214655  0.3970882948269079  0.2252777914523207
  0.5963010185560478  0.4434838347386361  0.0287699275904743
  0.1451202519843449  0.0012755167585183  0.6742374550488393
  0.9464879236299026  0.1916651340273248  0.7471721942092984
  0.6382312373664973  0.1770538710920846  0.5806092926000730
  0.1577498284297221  0.2229200850872033  0.5222410317881838
  0.1318015738379117  0.6022587599435525  0.7968550279258011
  0.5595882991684817  0.8696527399514054  0.2049412249494864
  0.4947674032233849  0.4782563581114374  0.7491220157984060
  0.8860466544406691  0.4817393819875875  0.8986580061365359
  0.8390116709700166  0.1951903933069730  0.8642859291641187
  0.8442899464780425  0.9903567043667891  0.4548055648183507
  0.0648396822133179  0.7625352437028070  0.1912933895582825
  0.9618469178263851  0.4565032975989709  0.5974602342211242
  0.3291424469186168  0.6726581599454136  0.0212084773653558
  0.0859067304331802  0.0083580292669296  0.2790592653182742
  0.5614585705352866  0.4482138129847044  0.1671132395476036
  0.7111157199717937  0.0363902576585247  0.5848511626966442
  0.5657745165702721  0.2700316967483900  0.0288044713901883
  0.1246398568945750  0.0717767464345869  0.4417649179903478
  0.9590411568031598  0.8659805597779737  0.3276622299852363
  0.7772169998754705  0.0387074469951898  0.7724504097715368
  0.7821504645062802  0.7020154974509865  0.5704460279789956
  0.2821704676760746  0.8073022515610120  0.5999850025267506
  0.8944415484983210  0.7056964237888366  0.1997576878207283
  0.4387692017928373  0.1133647403944025  0.0407965882206938
  0.2791089638501347  0.1363901846909883  0.0874591928489465
  0.3733438567862066  0.8443662064341950  0.4376635230461545
  0.9046711995737127  0.8959343600768790  0.7689660024303677
  0.6842343247023308  0.2577412226919478  0.1950010745539004
  0.7178279324283139  0.0074626621680025  0.0620235291470479
  0.5434322440167421  0.1787160608726737  0.6878384637592703
  0.1289137638524736  0.0226343099332738  0.0839823758025915
  0.8463598909904491  0.4972991680715424  0.7666019381313731
  0.2200103880270845  0.3705301539302113  0.2714483359572526
  0.3620696977995337  0.3850606003083641  0.8520371793906065
  0.2693181497200143  0.7677323735353738  0.1946419247581943
  0.2867961175078690  0.0099037264341817  0.3465860230663438
  0.3126148567464568  0.4978058861481074  0.0272927890788708
  0.4552187009806801  0.9619086795012279  0.2935464718904441
  0.4400741210641854  0.2482042811327148  0.5532796615609428
  0.4009241513306847  0.3332907263429306  0.1828469240702262
  0.9073997170461823  0.0155898484584114  0.2681431926508608
  0.4435255508567195  0.8191522464767118  0.1173363355236603
  0.0838865451943960  0.4654228815368455  0.4077881251284978
  0.0893563848735823  0.4606129368813328  0.8358054593591575
  0.5526770227129489  0.4606926558476800  0.8642702691394746
  0.2770520326926587  0.9983229169842502  0.6701195879561723
  0.5196807996497625  0.1601764341194851  0.2234888358721392
  0.9059945319575391  0.5432162484871839  0.3170765430763822
  0.6204133858032463  0.5178837062841311  0.3511973235070016
  0.3092976168636739  0.1572602648137362  0.8954279163565744
  0.1720647631548857  0.9128365174668218  0.5194499081148010
  0.9921538704816228  0.1785780592191628  0.3844265348263534
  0.5731262039273801  0.9310393563809001  0.9199575524007315
  0.5848190788501100  0.9920265774232746  0.7382439413267150
  0.6941215544690067  0.4333849790444475  0.6643214908744000
  0.1802283408421843  0.8347722615593369  0.3316816256013553
  0.9187052595173171  0.3466369086559595  0.4418106538281634
  0.5527544514496157  0.7035830883631249  0.4222580839338121
  0.8739887805360027  0.3229720685092587  0.7062039961686182
  0.3620096302223104  0.6565865762716854  0.4783104050859492
  0.6711698902783212  0.1956789358059723  0.8560315576830959
  0.2794720544670071  0.1011745225653371  0.5091333467497279
  0.7960568846467382  0.8914548672148328  0.2071920848968176
  0.7571298175605818  0.5756738370788810  0.1845099748962511
  0.1543940284875944  0.6660807847040360  0.3650325560884511
  0.0615386092997596  0.8196392224838220  0.9032016062838295
  0.7684691563834889  0.4187021904941446  0.9255727686535735
  0.9770930167204170  0.0633975493272061  0.5493970151324348
  0.3003982643121361  0.9462234243438914  0.1572676371277097
  0.5642925177375702  0.5832677844422278  0.7042979966899452
  0.9881180550822393  0.9068300714408224  0.6120157065446250
  0.1248183010727928  0.2524437234926964  0.8492144589601907
  0.5268038071862762  0.3841892023620730  0.6595293327152163
  0.2697353954760970  0.2800031517046975  0.5617201295551268
  0.2911076959489307  0.9847552440005174  0.9703333090067119
  0.7301297885061544  0.1871144357228900  0.0262392752321503
  0.8516061013562535  0.6102995646287965  0.9345854537355009
  0.8771065859896652  0.1931887514399833  0.2092002552792778
  0.5199052081946860  0.4187995719095312  0.4681286083344105
  0.5687820771406606  0.3139136580743482  0.3119939587387606
  0.6390176094748483  0.5701460748628691  0.5413043920874117
  0.6970705141107203  0.7323083277851481  0.2901521875198227
  0.4645980836455550  0.7738608473741948  0.2840084455331677
  0.1497522738290726  0.7339617685589914  0.7607122782602360
  0.7615492644639517  0.7680370092130318  0.8668075715504315
  0.6108551158282438  0.7268408115829104  0.1329666530143214
  0.8773365653259759  0.7299099870330465  0.7025615184089844
  0.1040458058891076  0.2193661081154659  0.0181368662957624
  0.8709344257473006  0.9223393653811982  0.9402251042549707
  0.7209721399429370  0.8451912015417875  0.0211066777829245
  0.7214994529856824  0.0620137938055052  0.2828626548684596
  0.2057020219172898  0.5464203603193596  0.6977783964687205
  0.7985782232000531  0.5135529167972237  0.4878675937831716
  0.4039198141231566  0.2496912962415436  0.7548474414220792
  0.9390364521669738  0.0136778768928565  0.0978551203488323
  0.4369254608489896  0.5656642954573101  0.3175604116199366
  0.1218364592913943  0.2069863820807640  0.2150350243078947
  0.0403087647166629  0.7774152092689519  0.4727729377574832
  0.7227953788500372  0.3392605233308643  0.3867803782917250
  0.4221217969387467  0.6949316724535493  0.6808249773662709
  0.6283298237428312  0.9104787994614654  0.3196353070687081
  0.4305600225740775  0.8335654825290817  0.9425679388376693
  0.1634184631254811  0.8308487340431370  0.0443705078709371
  0.7995767212097959  0.1817141228624308  0.4847575615862709
  0.6965832036480393  0.8511106737690000  0.4794405853224362
  0.0521977225928154  0.2159387246520410  0.6602531802696916
  0.6814803260161213  0.5738327221508541  0.8352839588464533
  0.2737534746178767  0.2952483057435487  0.0040260619668544
  0.4780161143807433  0.6464999382490433  0.8670568485959009
  0.0639122467233975  0.6366040096731780  0.9270660639595647
  0.5386761869220180  0.9921238593099844  0.1347904742955350
  0.4517894212629159  0.3938753981681486  0.0067976245432817
  0.8853139417801899  0.7484144208977952  0.0239846903505736
  0.6364950751014646  0.1659677062425402  0.4084936003194173
  0.2412364313755617  0.5785379181854466  0.8827122205184850
  0.2459883435384285  0.4626282615339719  0.5437635958906597
  0.4980223180820289  0.1053962632288545  0.8539953314049313
  0.4151394634220011  0.5227029401297756  0.6073948425610567
  0.2153190751269420  0.8829646405679981  0.8111732641690850
  0.0243998474602733  0.0639893206667708  0.9202319069352924
  0.2582432116072297  0.5277089773010388  0.3657011386235780
  0.9240046395415149  0.1878323179859933  0.0274375013012218
  0.2117273793102896  0.3510608353817943  0.7028065517420856
  0.3145948677090047  0.1721740456821692  0.2655743296478690
  0.3117339615414636  0.7307203047165700  0.8174722429024115
  0.8594085618810325  0.7070962250123074  0.4130644262814798
  0.0775723900882781  0.5452341253668820  0.2110277271160186
  0.9510934459722833  0.5763598002334334  0.0794318646300454
  0.1878539315892525  0.2442201545132363  0.3939158215410217
  0.2185643738096488  0.1649068186317990  0.7193636513806538
  0.9564371102808096  0.3421834275988545  0.8826524332101826
  0.8355507415810024  0.3658878241318178  0.2325007889964184
  0.5537348679609480  0.9886910682385945  0.4672193891885996
  0.6779849426032101  0.5620299816180605  0.0170989253811200
  0.4037904483135080  0.9676290580138911  0.8017304991713914
  0.5016544012303612  0.5602526075617433  0.0291267350325626
  0.6274625296610878  0.3063026521329064  0.5396045485094803
  0.6035718654676856  0.7452980619747862  0.6142291695818329
  0.2798265491989866  0.5711850217784615  0.1905041519413544
  0.0885960149462548  0.3364646508052189  0.5219158072337748
  0.7451053236425835  0.8648502090852617  0.6850412782644639
  0.4414838866390909  0.6482558653385340  0.1631072226298471
  0.1660189329501520  0.6530113943185185  0.0712461319875146
  0.6060679089090755  0.7211643194676327  0.9454635259221646
  0.7126848395827636  0.2550388847219551  0.6879390518295168
  0.4594286640785086  0.8855321068514002  0.6435375390871414
  0.3598486545178190  0.3588437287525466  0.3827647981435618
  0.1550474225777307  0.6786150965715976  0.5765183890704435
  0.8498251780825044  0.1571792315439708  0.6544322592954046
  0.9953791674462096  0.3642379174305361  0.2541472166007281
  0.9271940670957974  0.3847994811693312  0.0670106603805962
  0.1172468718532897  0.3806729301891352  0.1007958196372627
  0.4483321902036650  0.1284312303151580  0.4042928402444801
  0.9638726705896516  0.6283390664240329  0.5190153984566450
  0.9839557499079561  0.0589490213247643  0.7257744422590306
  0.0172222095753654  0.5924862484059119  0.6959754379371788
  0.7174762697890102  0.3879057295537649  0.0897304923557982
  0.4400432667481695  0.0490565250756845  0.6067079577231596
 
  0.00000000E+00  0.00000000E+00  0.00000000E+00
  0.00000000E+00  0.00000000E+00  0.00000000E+00
  0.00000000E+00  0.00000000E+00  0.00000000E+00
  0.00000000E+00  0.00000000E+00  0.00000000E+00
  0.00000000E+00  0.00000000E+00  0.00000000E+00
  0.00000000E+00  0.00000000E+00  0.00000000E+00
  0.00000000E+00  0.00000000E+00  0.00000000E+00
  0.00000000E+00  0.00000000E+00  0.00000000E+00
  0.00000000E+00  0.00000000E+00  0.00000000E+00
  0.00000000E+00  0.00000000E+00  0.00000000E+00
  0.00000000E+00  0.00000000E+00  0.00000000E+00
  0.00000000E+00  0.00000000E+00  0.00000000E+00
  0.00000000E+00  0.00000000E+00  0.00000000E+00
  0.00000000E+00  0.00000000E+00  0.00000000E+00
  0.00000000E+00  0.00000000E+00  0.00000000E+00
  0.00000000E+00  0.00000000E+00  0.00000000E+00
  0.00000000E+00  0.00000000E+00  0.00000000E+00
  0.00000000E+00  0.00000000E+00  0.00000000E+00
  0.00000000E+00  0.00000000E+00  0.00000000E+00
  0.00000000E+00  0.00000000E+00  0.00000000E+00
  0.00000000E+00  0.00000000E+00  0.00000000E+00
  0.00000000E+00  0.00000000E+00  0.00000000E+00
  0.00000000E+00  0.00000000E+00  0.00000000E+00
  0.00000000E+00  0.00000000E+00  0.00000000E+00
  0.00000000E+00  0.00000000E+00  0.00000000E+00
  0.00000000E+00  0.00000000E+00  0.00000000E+00
  0.00000000E+00  0.00000000E+00  0.00000000E+00
  0.00000000E+00  0.00000000E+00  0.00000000E+00
  0.00000000E+00  0.00000000E+00  0.00000000E+00
  0.00000000E+00  0.00000000E+00  0.00000000E+00
  0.00000000E+00  0.00000000E+00  0.00000000E+00
  0.00000000E+00  0.00000000E+00  0.00000000E+00
  0.00000000E+00  0.00000000E+00  0.00000000E+00
  0.00000000E+00  0.00000000E+00  0.00000000E+00
  0.00000000E+00  0.00000000E+00  0.00000000E+00
  0.00000000E+00  0.00000000E+00  0.00000000E+00
  0.00000000E+00  0.00000000E+00  0.00000000E+00
  0.00000000E+00  0.00000000E+00  0.00000000E+00
  0.00000000E+00  0.00000000E+00  0.00000000E+00
  0.00000000E+00  0.00000000E+00  0.00000000E+00
  0.00000000E+00  0.00000000E+00  0.00000000E+00
  0.00000000E+00  0.00000000E+00  0.00000000E+00
  0.00000000E+00  0.00000000E+00  0.00000000E+00
  0.00000000E+00  0.00000000E+00  0.00000000E+00
  0.00000000E+00  0.00000000E+00  0.00000000E+00
  0.00000000E+00  0.00000000E+00  0.00000000E+00
  0.00000000E+00  0.00000000E+00  0.00000000E+00
  0.00000000E+00  0.00000000E+00  0.00000000E+00
  0.00000000E+00  0.00000000E+00  0.00000000E+00
  0.00000000E+00  0.00000000E+00  0.00000000E+00
  0.00000000E+00  0.00000000E+00  0.00000000E+00
  0.00000000E+00  0.00000000E+00  0.00000000E+00
  0.00000000E+00  0.00000000E+00  0.00000000E+00
  0.00000000E+00  0.00000000E+00  0.00000000E+00
  0.00000000E+00  0.00000000E+00  0.00000000E+00
  0.00000000E+00  0.00000000E+00  0.00000000E+00
  0.00000000E+00  0.00000000E+00  0.00000000E+00
  0.00000000E+00  0.00000000E+00  0.00000000E+00
  0.00000000E+00  0.00000000E+00  0.00000000E+00
  0.00000000E+00  0.00000000E+00  0.00000000E+00
  0.00000000E+00  0.00000000E+00  0.00000000E+00
  0.00000000E+00  0.00000000E+00  0.00000000E+00
  0.00000000E+00  0.00000000E+00  0.00000000E+00
  0.00000000E+00  0.00000000E+00  0.00000000E+00
  0.00000000E+00  0.00000000E+00  0.00000000E+00
  0.00000000E+00  0.00000000E+00  0.00000000E+00
  0.00000000E+00  0.00000000E+00  0.00000000E+00
  0.00000000E+00  0.00000000E+00  0.00000000E+00
  0.00000000E+00  0.00000000E+00  0.00000000E+00
  0.00000000E+00  0.00000000E+00  0.00000000E+00
  0.00000000E+00  0.00000000E+00  0.00000000E+00
  0.00000000E+00  0.00000000E+00  0.00000000E+00
  0.00000000E+00  0.00000000E+00  0.00000000E+00
  0.00000000E+00  0.00000000E+00  0.00000000E+00
  0.00000000E+00  0.00000000E+00  0.00000000E+00
  0.00000000E+00  0.00000000E+00  0.00000000E+00
  0.00000000E+00  0.00000000E+00  0.00000000E+00
  0.00000000E+00  0.00000000E+00  0.00000000E+00
  0.00000000E+00  0.00000000E+00  0.00000000E+00
  0.00000000E+00  0.00000000E+00  0.00000000E+00
  0.00000000E+00  0.00000000E+00  0.00000000E+00
  0.00000000E+00  0.00000000E+00  0.00000000E+00
  0.00000000E+00  0.00000000E+00  0.00000000E+00
  0.00000000E+00  0.00000000E+00  0.00000000E+00
  0.00000000E+00  0.00000000E+00  0.00000000E+00
  0.00000000E+00  0.00000000E+00  0.00000000E+00
  0.00000000E+00  0.00000000E+00  0.00000000E+00
  0.00000000E+00  0.00000000E+00  0.00000000E+00
  0.00000000E+00  0.00000000E+00  0.00000000E+00
  0.00000000E+00  0.00000000E+00  0.00000000E+00
  0.00000000E+00  0.00000000E+00  0.00000000E+00
  0.00000000E+00  0.00000000E+00  0.00000000E+00
  0.00000000E+00  0.00000000E+00  0.00000000E+00
  0.00000000E+00  0.00000000E+00  0.00000000E+00
  0.00000000E+00  0.00000000E+00  0.00000000E+00
  0.00000000E+00  0.00000000E+00  0.00000000E+00
  0.00000000E+00  0.00000000E+00  0.00000000E+00
  0.00000000E+00  0.00000000E+00  0.00000000E+00
  0.00000000E+00  0.00000000E+00  0.00000000E+00
  0.00000000E+00  0.00000000E+00  0.00000000E+00
  0.00000000E+00  0.00000000E+00  0.00000000E+00
  0.00000000E+00  0.00000000E+00  0.00000000E+00
  0.00000000E+00  0.00000000E+00  0.00000000E+00
  0.00000000E+00  0.00000000E+00  0.00000000E+00
  0.00000000E+00  0.00000000E+00  0.00000000E+00
  0.00000000E+00  0.00000000E+00  0.00000000E+00
  0.00000000E+00  0.00000000E+00  0.00000000E+00
  0.00000000E+00  0.00000000E+00  0.00000000E+00
  0.00000000E+00  0.00000000E+00  0.00000000E+00
  0.00000000E+00  0.00000000E+00  0.00000000E+00
  0.00000000E+00  0.00000000E+00  0.00000000E+00
  0.00000000E+00  0.00000000E+00  0.00000000E+00
  0.00000000E+00  0.00000000E+00  0.00000000E+00
  0.00000000E+00  0.00000000E+00  0.00000000E+00
  0.00000000E+00  0.00000000E+00  0.00000000E+00
  0.00000000E+00  0.00000000E+00  0.00000000E+00
  0.00000000E+00  0.00000000E+00  0.00000000E+00
  0.00000000E+00  0.00000000E+00  0.00000000E+00
  0.00000000E+00  0.00000000E+00  0.00000000E+00
  0.00000000E+00  0.00000000E+00  0.00000000E+00
  0.00000000E+00  0.00000000E+00  0.00000000E+00
  0.00000000E+00  0.00000000E+00  0.00000000E+00
  0.00000000E+00  0.00000000E+00  0.00000000E+00
  0.00000000E+00  0.00000000E+00  0.00000000E+00
  0.00000000E+00  0.00000000E+00  0.00000000E+00
  0.00000000E+00  0.00000000E+00  0.00000000E+00
  0.00000000E+00  0.00000000E+00  0.00000000E+00
  0.00000000E+00  0.00000000E+00  0.00000000E+00
  0.00000000E+00  0.00000000E+00  0.00000000E+00
  0.00000000E+00  0.00000000E+00  0.00000000E+00
  0.00000000E+00  0.00000000E+00  0.00000000E+00
  0.00000000E+00  0.00000000E+00  0.00000000E+00
  0.00000000E+00  0.00000000E+00  0.00000000E+00
  0.00000000E+00  0.00000000E+00  0.00000000E+00
  0.00000000E+00  0.00000000E+00  0.00000000E+00
  0.00000000E+00  0.00000000E+00  0.00000000E+00
  0.00000000E+00  0.00000000E+00  0.00000000E+00
  0.00000000E+00  0.00000000E+00  0.00000000E+00
  0.00000000E+00  0.00000000E+00  0.00000000E+00
  0.00000000E+00  0.00000000E+00  0.00000000E+00
  0.00000000E+00  0.00000000E+00  0.00000000E+00
  0.00000000E+00  0.00000000E+00  0.00000000E+00
  0.00000000E+00  0.00000000E+00  0.00000000E+00
  0.00000000E+00  0.00000000E+00  0.00000000E+00
  0.00000000E+00  0.00000000E+00  0.00000000E+00
  0.00000000E+00  0.00000000E+00  0.00000000E+00
  0.00000000E+00  0.00000000E+00  0.00000000E+00
  0.00000000E+00  0.00000000E+00  0.00000000E+00
  0.00000000E+00  0.00000000E+00  0.00000000E+00
  0.00000000E+00  0.00000000E+00  0.00000000E+00
  0.00000000E+00  0.00000000E+00  0.00000000E+00
  0.00000000E+00  0.00000000E+00  0.00000000E+00
  0.00000000E+00  0.00000000E+00  0.00000000E+00
  0.00000000E+00  0.00000000E+00  0.00000000E+00
  0.00000000E+00  0.00000000E+00  0.00000000E+00
  0.00000000E+00  0.00000000E+00  0.00000000E+00
  0.00000000E+00  0.00000000E+00  0.00000000E+00
  0.00000000E+00  0.00000000E+00  0.00000000E+00
  0.00000000E+00  0.00000000E+00  0.00000000E+00
  0.00000000E+00  0.00000000E+00  0.00000000E+00
  0.00000000E+00  0.00000000E+00  0.00000000E+00
  0.00000000E+00  0.00000000E+00  0.00000000E+00
  0.00000000E+00  0.00000000E+00  0.00000000E+00
  0.00000000E+00  0.00000000E+00  0.00000000E+00
  0.00000000E+00  0.00000000E+00  0.00000000E+00
  0.00000000E+00  0.00000000E+00  0.00000000E+00
  0.00000000E+00  0.00000000E+00  0.00000000E+00
  0.00000000E+00  0.00000000E+00  0.00000000E+00
  0.00000000E+00  0.00000000E+00  0.00000000E+00
  0.00000000E+00  0.00000000E+00  0.00000000E+00
  0.00000000E+00  0.00000000E+00  0.00000000E+00
  0.00000000E+00  0.00000000E+00  0.00000000E+00
  0.00000000E+00  0.00000000E+00  0.00000000E+00
  0.00000000E+00  0.00000000E+00  0.00000000E+00
  0.00000000E+00  0.00000000E+00  0.00000000E+00
  0.00000000E+00  0.00000000E+00  0.00000000E+00
  0.00000000E+00  0.00000000E+00  0.00000000E+00
  0.00000000E+00  0.00000000E+00  0.00000000E+00
  0.00000000E+00  0.00000000E+00  0.00000000E+00
  0.00000000E+00  0.00000000E+00  0.00000000E+00
  0.00000000E+00  0.00000000E+00  0.00000000E+00
  0.00000000E+00  0.00000000E+00  0.00000000E+00
  0.00000000E+00  0.00000000E+00  0.00000000E+00
  0.00000000E+00  0.00000000E+00  0.00000000E+00
  0.00000000E+00  0.00000000E+00  0.00000000E+00
  0.00000000E+00  0.00000000E+00  0.00000000E+00
  0.00000000E+00  0.00000000E+00  0.00000000E+00
  0.00000000E+00  0.00000000E+00  0.00000000E+00
  0.00000000E+00  0.00000000E+00  0.00000000E+00
  0.00000000E+00  0.00000000E+00  0.00000000E+00
  0.00000000E+00  0.00000000E+00  0.00000000E+00
  0.00000000E+00  0.00000000E+00  0.00000000E+00
  0.00000000E+00  0.00000000E+00  0.00000000E+00
  0.00000000E+00  0.00000000E+00  0.00000000E+00
  0.00000000E+00  0.00000000E+00  0.00000000E+00
  0.00000000E+00  0.00000000E+00  0.00000000E+00
  0.00000000E+00  0.00000000E+00  0.00000000E+00
  0.00000000E+00  0.00000000E+00  0.00000000E+00
  0.00000000E+00  0.00000000E+00  0.00000000E+00
  0.00000000E+00  0.00000000E+00  0.00000000E+00
  0.00000000E+00  0.00000000E+00  0.00000000E+00
  0.00000000E+00  0.00000000E+00  0.00000000E+00
  0.00000000E+00  0.00000000E+00  0.00000000E+00
  0.00000000E+00  0.00000000E+00  0.00000000E+00
  0.00000000E+00  0.00000000E+00  0.00000000E+00
  0.00000000E+00  0.00000000E+00  0.00000000E+00
  0.00000000E+00  0.00000000E+00  0.00000000E+00
  0.00000000E+00  0.00000000E+00  0.00000000E+00
  0.00000000E+00  0.00000000E+00  0.00000000E+00
  0.00000000E+00  0.00000000E+00  0.00000000E+00
  0.00000000E+00  0.00000000E+00  0.00000000E+00
  0.00000000E+00  0.00000000E+00  0.00000000E+00
  0.00000000E+00  0.00000000E+00  0.00000000E+00
  0.00000000E+00  0.00000000E+00  0.00000000E+00
  0.00000000E+00  0.00000000E+00  0.00000000E+00
  0.00000000E+00  0.00000000E+00  0.00000000E+00
  0.00000000E+00  0.00000000E+00  0.00000000E+00
  0.00000000E+00  0.00000000E+00  0.00000000E+00
  0.00000000E+00  0.00000000E+00  0.00000000E+00
  0.00000000E+00  0.00000000E+00  0.00000000E+00
  0.00000000E+00  0.00000000E+00  0.00000000E+00
  0.00000000E+00  0.00000000E+00  0.00000000E+00
  0.00000000E+00  0.00000000E+00  0.00000000E+00
  0.00000000E+00  0.00000000E+00  0.00000000E+00
  0.00000000E+00  0.00000000E+00  0.00000000E+00
  0.00000000E+00  0.00000000E+00  0.00000000E+00
  0.00000000E+00  0.00000000E+00  0.00000000E+00
  0.00000000E+00  0.00000000E+00  0.00000000E+00
  0.00000000E+00  0.00000000E+00  0.00000000E+00
  0.00000000E+00  0.00000000E+00  0.00000000E+00
  0.00000000E+00  0.00000000E+00  0.00000000E+00
  0.00000000E+00  0.00000000E+00  0.00000000E+00