Amorphous Sb2Se3                        
  0.913000000000000     
    20.9867606951059749    0.0000000000000000    0.0000000000000000
     0.0000000000000000   20.9867606951059749    0.0000000000000000
     0.0000000000000000    0.0000000000000000   20.9867606951059749
   Sb   Se
   120   180
Direct
  0.1967628141680101  0.5966383233991550  0.1785714508170155
  0.1849999527164267  0.5513514075720377  0.4894982775352945
  0.5456571049468821  0.0202230209442612  0.1699526909834003
  0.5781885838229599  0.2501029200780217  0.0369397880923662
  0.3513177680819097  0.8651210965224817  0.5768814310427834
  0.7597068171732546  0.9003643699405927  0.3597790937607203
  0.5998382213103709  0.4463457037385284  0.3421897122343770
  0.9560991529943157  0.7496365737454238  0.2319264123841057
  0.9953823507047902  0.0157855106275766  0.6420680144449912
  0.5076596938151330  0.6905970914581582  0.0844868271504173
  0.9399938778729691  0.5887149806411988  0.3522030671678720
  0.4941524483451053  0.5685747314101320  0.5135974667620398
  0.7808378664810804  0.9417062876964435  0.6574068435029268
  0.7491681133232156  0.0485239340949088  0.2331516421849356
  0.4926929185017226  0.5231845471236342  0.1752599571645399
  0.2743394229932323  0.2487364959021151  0.9320445418066025
  0.8853948763550108  0.6454559501134165  0.5069230133335644
  0.9938844067400457  0.8964137329452577  0.8207074253813983
  0.6345104787407794  0.6493271690505931  0.2248087290641584
  0.4841318119623471  0.3363102371522730  0.1341414008728173
  0.6749347827864633  0.3169117179076760  0.8648455544730674
  0.5825835803878902  0.4455460589221198  0.9023888052189486
  0.3911849178891996  0.5373142295234509  0.9112482532267162
  0.9522828673334752  0.3902758182189490  0.1919343235414049
  0.8000395305727054  0.4781541952870573  0.9254927018819784
  0.7164683112577064  0.1043929018356025  0.6238513571543635
  0.5480459052644313  0.7883057582971310  0.3120003609500397
  0.4468957777640652  0.3327032455020802  0.9496009498190393
  0.3207776407923054  0.3975939614118860  0.5070803709245874
  0.7191786857555684  0.2184227026248743  0.1042049063232578
  0.7982613295867921  0.7898645787762301  0.8645332026175826
  0.7743029945694674  0.4255461190788745  0.1291060695296501
  0.7505995475505196  0.4392635129484111  0.5105594961753027
  0.3733859803614268  0.7733661364413632  0.2371644106480547
  0.1358155448045016  0.8910384042787698  0.5454675081694229
  0.3495133140165446  0.4888952958986039  0.0913225484322370
  0.7144906833768339  0.6131521291472998  0.3887488243581939
  0.0893076409954889  0.4762755741751627  0.2121654786814212
  0.6553431239244384  0.2919568352667142  0.5745604832499546
  0.6500394763317334  0.0441401456756439  0.4747097364163404
  0.5743648799956257  0.9262335409842635  0.8854518356876345
  0.4846027819871197  0.5455657638074856  0.3249006176752791
  0.6240956948161114  0.8331255360842313  0.7178074272844749
  0.0488503924237793  0.3324126024448634  0.6468544744490701
  0.8379349222819390  0.2555891013775996  0.9213602918883838
  0.1151950003710752  0.3899977816568047  0.4006119414097495
  0.8571649457029769  0.2678582170681603  0.6032270962369847
  0.3967818786106720  0.9513868724132185  0.3157588577604908
  0.0735104995770689  0.7231720928608072  0.4350148563942135
  0.9682699320684826  0.6696935071942246  0.8265783042538245
  0.3091784932581882  0.6306238371340636  0.7397213535737933
  0.2186833173383897  0.1848850674527954  0.7140582262342792
  0.9640165666289706  0.5370563663447052  0.6823581352767166
  0.5236820382428391  0.3041719610986632  0.4639428405266872
  0.0782391386524786  0.1939131563295498  0.0156682527591275
  0.9106464025101357  0.7991067667638961  0.6784936411279159
  0.9289818422679963  0.2879737355318218  0.0364473332060393
  0.7709579511350211  0.9802323955729885  0.0484301271070486
 -0.0020195969694100  0.7109908054590871  0.0156564379841452
  0.5640114726498804  0.1568961476173672  0.6266508116323810
  0.9643583872094464  0.8713154536845646  0.4558819160002362
  0.5769741926071814  0.3374620992779541  0.7470102011731115
  0.0675479659197654  0.9418318945589255  0.0003683147463556
  0.2116998874296219  0.8478782653691636  0.7379257177489360
  0.6507872761804642  0.6113141719929824  0.8283898494320864
  0.1560646940926987  0.8030724766914915  0.1264098059463823
  0.4656761402827158  0.3977660002395840  0.6447469387612494
  0.6175078428719990  0.9801561475640228  0.3365228297050247
  0.2551444121435517  0.0363113660527505  0.5418352972970416
  0.4851561515659953  0.6710925764115595  0.8170730557545606
  0.7107037597460304  0.1404901661304061  0.9330968564554495
  0.4917395296991846  0.1519696863969599  0.3436494655864794
  0.3961722521975504  0.8017302645928686  0.9475966626722975
  0.0225977615201411  0.5187852493410752  0.9257627918968603
  0.2284103068381729  0.0294249663240175  0.9582274493389585
  0.1966574620938226  0.3861739972468269  0.0231614527801610
  0.1432941151414645  0.0729879390538394  0.1551370998379636
  0.6136966410809578 -0.0010047517657043  0.6996523708518317
  0.3607022059483857  0.0788115969363362  0.8383660567503092
  0.1994789194003935  0.9812717627112229  0.3338038360236348
  0.3413312867220822  0.7064811931533703  0.5406208079082134
  0.8367599138113773  0.3936747139975194  0.3360584730433577
  0.5020283776449874  0.0764990870518040  0.9693633490639995
  0.2121998486861137  0.5755023092777346  0.9140162133100916
  0.9033227521424754  0.5720810288542558  0.1000061541844652
  0.5853255018387277  0.6884190161557902  0.5303640254659524
  0.6719129798971692  0.2357969325587094  0.3219831201813547
  0.8504170448093131  0.2106340764631589  0.3755713514598529
  0.9761870708919373  0.1907041108623839  0.2072838171969239
  0.9599353085243700  0.4236212246069995  0.5105288349010180
  0.6193641549513977  0.8486747541413585  0.0287143461055944
  0.3973179490244110  0.2541505946821432  0.7535733588089466
  0.4172576364824738  0.9299001589716198  0.7654342263979441
  0.6613809149986932  0.8276266645303788  0.5321550960601713
  0.9947451381719395  0.1978797938691690  0.6955326215384118
  0.9572211270190335  0.3571661816183845  0.8112944271304326
  0.9374665527879503  0.9392398413620959  0.1640881933607986
  0.2139607033686348  0.2182293709650860  0.4537953481433006
  0.8444226172134213  0.0535846344501281  0.4983530276151523
  0.9376005875035859  0.0770276421772749  0.9504387467992811
  0.1202986511568463  0.0308821725359211  0.7951309081955298
  0.2487331033866070  0.7998263664212407  0.3761321441615536
  0.0736501941596541  0.1557429998492468  0.5718929349133676
  0.6972619424002146  0.5498354333457607  0.6188127670655565
  0.7664464886819004  0.8056377229278144  0.1622070793256759
  0.5359170559341228  0.9536691146936268  0.5514763349654523
  0.3480461537060910  0.2783355667447802  0.2964536708538079
  0.8522815995871060  0.1238663588793821  0.7940286548266979
  0.1230542231170204  0.6749770122174800  0.6610450147821828
  0.5383026200323986  0.5277798623063505  0.6698470071080066
  0.3543100612628520 -0.0001791778773514  0.1138220467741995
  0.4229600773802710  0.1364313810744585  0.5087246588539416
  0.0221809590307373  0.0882738232218317  0.3804889750212354
  0.2826893046214061  0.4744500125194794  0.3166327729116019
  0.2248674768769738  0.3937543544966093  0.1922751387106115
  0.4154516568891885  0.6663675077119411  0.4159958719827453
  0.6983814587876997  0.2279044924126478  0.7326080052821369
  0.1627467864038545  0.4760549878106923  0.6882214836305142
  0.1350919476552359  0.6698513297061535  0.2992292022138365
  0.3414111638767476  0.1791974037184092  0.1301329473243538
  0.6357510861833914  0.5257777065093595  0.4607345902966037
  0.4674119153396208  0.4331925387143675  0.4579577376393356
  0.0809323838911576  0.2701971351775343  0.1308980506064969
  0.4481720907304661  0.2211324247513184  0.2133398626898490
  0.8512303490179166  0.1625985528780971  0.0315899366339501
  0.5783711801076199  0.8700769797474238  0.4222868982108227
  0.0111882282278301  0.6170382770643539  0.2365727226597128
  0.8329393666783589  0.2540433703596603  0.7476630950672427
  0.7445447243289177  0.3532142973741667  0.0063211918476656
  0.9622692436086042  0.2092790767219815  0.8783734918314544
  0.0567945913163147  0.5362948582652453  0.0659013653267082
  0.4251345322509796  0.8163440393005241  0.0818362185552280
  0.0631282074271786  0.5033719362123346  0.5898263065218976
  0.5460690064702592  0.1951621402764678  0.7580883338991408
  0.8590496188626600  0.0519239052661502  0.1514922964468247
  0.0038505639023594  0.9658699480360277  0.3010357314091294
  0.3175321778083419  0.3004031772632998  0.6254793273432466
  0.6887366315798662  0.7901531835387798  0.2962643492519669
  0.9382276860850683  0.9335871547433928  0.9474483065516849
  0.1547676001073755  0.0643938461600023  0.6428445265260048
  0.7532323333938811  0.3607018575595604  0.6410646221679758
  0.3641108592909583  0.1247896059310947  0.7100730561842512
  0.6626558144188170  0.7600690440771873  0.8358635837975683
  0.0331242400436324  0.7631791643318392  0.7475512209865216
  0.0826470109469188  0.5704938862417183  0.7575633377350051
  0.7554473352779714  0.1999142590063646  0.5298899389976554
  0.9813664612021507  0.4483510313284134  0.3674924566601581
  0.4034079019591247  0.8105645200295776  0.3705974631013463
  0.6214087912880493  0.2619940753789331  0.1884153873194966
  0.3342990294227562  0.5610704820129946  0.2129256349588340
  0.6024716082853659  0.5837555308781560  0.1064790467935770
  0.2649521644170178  0.9804835019956911  0.8147728925497693
  0.1927625386442260  0.7059640231720178  0.7795054297843235
  0.0913339360514459  0.6532415225183571  0.9153636767481386
  0.5805465523964753  0.1992935764359421  0.9097124342886135
  0.3855596909613014  0.6099604286895589  0.0368218058566376
  0.3325226793442773  0.0736409735020765  0.3997020876263334
  0.4877245387299267  0.9631041813536985  0.0562059226790228
  0.6982750459295350  0.7307389043596715  0.0470256968673130
  0.2909432354090890  0.9530828885701476  0.6636630662225612
  0.4206044505305229  0.6264699830780440  0.6173735798469154
  0.7216897435605346  0.3613094292454178  0.2732905020394583
  0.3013926896203790  0.1656857649613184  0.5650906119401711
  0.7876854239900484  0.5824682189364043  0.8243678220390075
  0.8546667466215309  0.7937517977262298  0.5165182758072333
  0.9298204157454053  0.1635935305992771  0.4855622003458906
  0.7466687296142438  0.6542348133967066  0.5365035690000772
  0.8317344507399532  0.6888804169121133  0.2941181555500524
  0.5396734328915830  0.7534310458493740  0.9588015122294401
  0.0237162037259289  0.8361829585916469  0.0893852550206226
  0.4102140386361772  0.9542602320548627  0.4937976709363233
  0.4760037292208271  0.7657188649981881  0.5062154229181445
  0.6769999640536335  0.3375235594476123  0.4453550119380087
  0.1055991197352084  0.9553900260842069  0.2284813544138252
  0.1555943663044909  0.4496854771564839  0.9054320571357212
  0.8874628011835018  0.7128016733629943  0.1041690764380193
  0.4749590701770264  0.0519841733348716  0.6306899459180640
  0.1875115115303937  0.4136830472877570  0.5414323529055092
  0.2742227947855910  0.6978093020748872  0.0146103164371763
  0.0077862264893286  0.0467174306468077  0.0868939160609217
  0.8465719759590861  0.7056284260414345  0.7565000636884984
  0.4234663738080141  0.9348738041601816  0.9137025780678251
  0.2896627266732883  0.6788475139181198  0.3079829432263221
  0.3534223066752065  0.0854500072620459 -0.0041277532349111
  0.6352970518240290  0.0301000444726046  0.9713209274184468
  0.1958622366757242  0.9617308966735532  0.0835579452528944
  0.6724821298599530  0.5368360867583695  0.9511265170666198
  0.4854355554365969  0.8927767499701467  0.2270908418466912
  0.2306981906672108  0.5865318444802341  0.6214254573649443
  0.3193696903295548  0.5344275931144847  0.4516561667934155
  0.8553633631620010  0.9013731161459002  0.7673215671576340
  0.3255375283659410  0.3950185594197807  0.9249280137822933
  0.3132515222828572  0.8689633055097014  0.1003998748344523
  0.6055494741067998  0.1146267042664386  0.2763461600638452
  0.3555331800058552  0.2968758902969291  0.0611348433237725
  0.7805463037305044  0.3925792508316082  0.8190992885461534
  0.8625119295172538  0.4878565962889421  0.2342278866175025
  0.8830924679925526  0.9718005710671118  0.3921619091172547
  0.6247824208585838  0.3923122020284980  0.0324325296004171
  0.2091721439271596  0.1529105607158912  0.0444147627810282
  0.0827617040770033  0.2355787098854804  0.3926273482712728
  0.4809010658508141  0.8649603368349738  0.6412052082376044
  0.0961236185082739  0.1836505676714484  0.7843062314616026
  0.2616127301797040  0.2975221342868285  0.7939286970887107
  0.6802443733483172  0.0864021594432922  0.1178598551191898
  0.3387792623174712  0.8138973489142468  0.7925693599095107
  0.4229211056923542  0.4176919730873017  0.3365042771638143
  0.7284455649762773  0.8868270060862850  0.9473956413334055
  0.4982237087326093  0.0174898687585388  0.3915528796216360
  0.1663186818346062  0.2544389518330866  0.6016004149090424
  0.5786862480162662  0.1678131901458279  0.4607677078430523
  0.2755412174096167  0.7082533812816099  0.1410525431410230
  0.5392462141385651  0.2964288814433700  0.3269745177200837
  0.7410870991476388  0.9407978108602738  0.5079117211618441
  0.2136591962838453  0.7845928417141255  0.6166570258400265
  0.4872591043929690  0.4475551725050511  0.0288973551287672
  0.9229747310243137  0.4922979740818940  0.8224919763733273
  0.5802577631814946  0.4214097542056480  0.1969026913608721
  0.7071364989584069  0.1070724977869272  0.7957064678409422
  0.9205072523207949  0.3896669474503392  0.6617968679970687
  0.0952736931789388  0.1509994521982869  0.2734203486883932
  0.3989055454537960  0.7447383226057042  0.7036240970714257
  0.8104179385964732  0.0328631312090456  0.9074165249438244
  0.3829099226890445  0.3958430277397119  0.2051168712252132
  0.8076350173275659  0.5361648027212214  0.7037617941063131
  0.1224418912446286  0.8943168570791431  0.8691580082843683
  0.1159588666011982  0.8688260017142257  0.4038892096552758
  0.1596849979612565  0.0878529955318994  0.4536868614353772
  0.7751791801598420  0.6861784086753071  0.9583779117484680
  0.5208284542276925  0.5877514105653285  0.9276850504674180
  0.5932323993598844  0.7780400288936710  0.1524420603030038
  0.4622266837785093  0.2426231616376623  0.5987404784969422
  0.5287019414867510  0.0317859687293885  0.8040159020438931
  0.2666176876869386  0.9121572094676231  0.4625748484009133
  0.0321420613048413  0.2943646131762916  0.5000895505891608
  0.9097208049813029  0.5979024102435497  0.9630357322164719
  0.8517265401324687  0.0873354205624517  0.6583205231768998
  0.7802750601869128  0.1839783329983744  0.2408967963760425
  0.6853490549571507  0.6638655451956955  0.6976231928010052
  0.1032483505788170  0.7955071276776738  0.2586480373391569
  0.2064357472973654  0.6932651865192131  0.4775179226765145
  0.9443688892643645  0.7812512607772509  0.9075462385667434
  0.6889600267924973  0.5286428216772480  0.2741582478351958
  0.4686673785509984  0.6738271231387014  0.2308184777316218
  0.6896003381805620  0.9364115815858103  0.7983173387609184
  0.1134404425609442  0.3466406365676167  0.2641833489053735
  0.9451525567127689  0.7446225442674849  0.3752361322532365
  0.0924750232627819  0.3687561349569745  0.7731664121588804
  0.8523615793867658  0.3389331556044496  0.4775633966092076
  0.2681945353255326  0.8674654111371187  0.9334019297411751
  0.2638791121450927  0.0566253159621575  0.2225687946630178
  0.9000711624290647  0.9331353305532344  0.5835909693316048
  0.4254581873842208  0.0625220191990671  0.2309895425563226
  0.5653088625552951  0.6960516556580728  0.6784369560087249
  0.5042643696957227  0.1402974949622325  0.0903377032213136
  0.8572688043545587  0.8673378402988460  0.2615263351329702
  0.2698987805975939  0.1621644441592408  0.3354291947291803
  0.8578024172406734  0.2920207247082332  0.1583765876281863
  0.1041629656631356  0.6764853204258928  0.1079175664777512
  0.8673855981103904  0.5177909576700120  0.5685237430133638
  0.2500359717105524  0.3483527882801298  0.3840525411302795
  0.1488834942227160  0.5202121165541029  0.3444027022276606
  0.2427707724717922  0.2487695039671850  0.2033445133371594
  0.2196708593074665  0.5258383208982412  0.0535584051012750
  0.0351914367407145  0.9898925127938759  0.5055054402020700
  0.9087215998562359  0.1075858798997575  0.3032397319912653
  0.0308526535973183  0.5941241741568964  0.4611433252851352
  0.1849431718138572  0.7815853734649603  0.9720910677973857
  0.1345592353835959  0.2851294550473759  0.9298884829920501
  0.9549221573255319  0.6676076698407274  0.6217382999607804
  0.4643782562450124  0.3827738028747074  0.8132454587960970
 -0.0002123413390028  0.3765207592950066  0.9400772729226894
  0.5869282038861452  0.4189454711437315  0.5745964430499526
  0.9780244647550785  0.0359995467532081  0.7912776472703030
  0.0705439070521477  0.9092584701917680  0.6870072720054270
  0.2352938809915199  0.1371467024478213  0.8593943495640992
  0.7550344236821066  0.8060142812700061  0.6431013301127652
  0.3937256780015936  0.2566244479022823  0.4387884051627677
  0.7719728878873776  0.6448165518859306  0.1927843738917235
  0.5113915781815925  0.8320812725905982  0.8034495852710473
  0.4375438408628902  0.5508145401576526  0.7695078693181570
  0.2643595384256929  0.5110351241964391  0.7986009111507484
  0.4125765489255171  0.2079942704595162  0.8863560104195172
  0.7620724644319742  0.7779339155691791  0.4304792333897389
  0.2650324464466919  0.8824426945459093  0.2599358616061254
  0.6330614164145034  0.4781134856427313  0.7604354544870251
  0.0897622541449770  0.0677253888183265  0.9278720252365605
  0.8556420049958265  0.8697149452125916  0.0690519853395002
  0.6890825813407411  0.9229205230132324  0.1516487765925225
  0.7549483310334320  0.0946538964304845  0.3944215574901913
  0.3068769526151944  0.4014409957535412  0.7032463538719904
  0.9570195888769207  0.2893714938972413  0.3058854960110880
  0.5780484765146197  0.6683808309000948  0.3851627344840104
  0.7653541276072823  0.5528296288792678  0.0735234456885021
  0.0360874703614893  0.7915146837870126  0.5581767788129287
  0.8968695444149299  0.4308509274709912  0.0604223642725286
  0.8140787599872699  0.5120917085905684  0.4076743700274142
  0.0681774675993564  0.4073507747109815  0.0819200659767999
  0.3550801210562151  0.4850729374001996  0.6163860314197203
  0.3488062359804062  0.6679369677835888  0.8723370793863592
 
  0.00000000E+00  0.00000000E+00  0.00000000E+00
  0.00000000E+00  0.00000000E+00  0.00000000E+00
  0.00000000E+00  0.00000000E+00  0.00000000E+00
  0.00000000E+00  0.00000000E+00  0.00000000E+00
  0.00000000E+00  0.00000000E+00  0.00000000E+00
  0.00000000E+00  0.00000000E+00  0.00000000E+00
  0.00000000E+00  0.00000000E+00  0.00000000E+00
  0.00000000E+00  0.00000000E+00  0.00000000E+00
  0.00000000E+00  0.00000000E+00  0.00000000E+00
  0.00000000E+00  0.00000000E+00  0.00000000E+00
  0.00000000E+00  0.00000000E+00  0.00000000E+00
  0.00000000E+00  0.00000000E+00  0.00000000E+00
  0.00000000E+00  0.00000000E+00  0.00000000E+00
  0.00000000E+00  0.00000000E+00  0.00000000E+00
  0.00000000E+00  0.00000000E+00  0.00000000E+00
  0.00000000E+00  0.00000000E+00  0.00000000E+00
  0.00000000E+00  0.00000000E+00  0.00000000E+00
  0.00000000E+00  0.00000000E+00  0.00000000E+00
  0.00000000E+00  0.00000000E+00  0.00000000E+00
  0.00000000E+00  0.00000000E+00  0.00000000E+00
  0.00000000E+00  0.00000000E+00  0.00000000E+00
  0.00000000E+00  0.00000000E+00  0.00000000E+00
  0.00000000E+00  0.00000000E+00  0.00000000E+00
  0.00000000E+00  0.00000000E+00  0.00000000E+00
  0.00000000E+00  0.00000000E+00  0.00000000E+00
  0.00000000E+00  0.00000000E+00  0.00000000E+00
  0.00000000E+00  0.00000000E+00  0.00000000E+00
  0.00000000E+00  0.00000000E+00  0.00000000E+00
  0.00000000E+00  0.00000000E+00  0.00000000E+00
  0.00000000E+00  0.00000000E+00  0.00000000E+00
  0.00000000E+00  0.00000000E+00  0.00000000E+00
  0.00000000E+00  0.00000000E+00  0.00000000E+00
  0.00000000E+00  0.00000000E+00  0.00000000E+00
  0.00000000E+00  0.00000000E+00  0.00000000E+00
  0.00000000E+00  0.00000000E+00  0.00000000E+00
  0.00000000E+00  0.00000000E+00  0.00000000E+00
  0.00000000E+00  0.00000000E+00  0.00000000E+00
  0.00000000E+00  0.00000000E+00  0.00000000E+00
  0.00000000E+00  0.00000000E+00  0.00000000E+00
  0.00000000E+00  0.00000000E+00  0.00000000E+00
  0.00000000E+00  0.00000000E+00  0.00000000E+00
  0.00000000E+00  0.00000000E+00  0.00000000E+00
  0.00000000E+00  0.00000000E+00  0.00000000E+00
  0.00000000E+00  0.00000000E+00  0.00000000E+00
  0.00000000E+00  0.00000000E+00  0.00000000E+00
  0.00000000E+00  0.00000000E+00  0.00000000E+00
  0.00000000E+00  0.00000000E+00  0.00000000E+00
  0.00000000E+00  0.00000000E+00  0.00000000E+00
  0.00000000E+00  0.00000000E+00  0.00000000E+00
  0.00000000E+00  0.00000000E+00  0.00000000E+00
  0.00000000E+00  0.00000000E+00  0.00000000E+00
  0.00000000E+00  0.00000000E+00  0.00000000E+00
  0.00000000E+00  0.00000000E+00  0.00000000E+00
  0.00000000E+00  0.00000000E+00  0.00000000E+00
  0.00000000E+00  0.00000000E+00  0.00000000E+00
  0.00000000E+00  0.00000000E+00  0.00000000E+00
  0.00000000E+00  0.00000000E+00  0.00000000E+00
  0.00000000E+00  0.00000000E+00  0.00000000E+00
  0.00000000E+00  0.00000000E+00  0.00000000E+00
  0.00000000E+00  0.00000000E+00  0.00000000E+00
  0.00000000E+00  0.00000000E+00  0.00000000E+00
  0.00000000E+00  0.00000000E+00  0.00000000E+00
  0.00000000E+00  0.00000000E+00  0.00000000E+00
  0.00000000E+00  0.00000000E+00  0.00000000E+00
  0.00000000E+00  0.00000000E+00  0.00000000E+00
  0.00000000E+00  0.00000000E+00  0.00000000E+00
  0.00000000E+00  0.00000000E+00  0.00000000E+00
  0.00000000E+00  0.00000000E+00  0.00000000E+00
  0.00000000E+00  0.00000000E+00  0.00000000E+00
  0.00000000E+00  0.00000000E+00  0.00000000E+00
  0.00000000E+00  0.00000000E+00  0.00000000E+00
  0.00000000E+00  0.00000000E+00  0.00000000E+00
  0.00000000E+00  0.00000000E+00  0.00000000E+00
  0.00000000E+00  0.00000000E+00  0.00000000E+00
  0.00000000E+00  0.00000000E+00  0.00000000E+00
  0.00000000E+00  0.00000000E+00  0.00000000E+00
  0.00000000E+00  0.00000000E+00  0.00000000E+00
  0.00000000E+00  0.00000000E+00  0.00000000E+00
  0.00000000E+00  0.00000000E+00  0.00000000E+00
  0.00000000E+00  0.00000000E+00  0.00000000E+00
  0.00000000E+00  0.00000000E+00  0.00000000E+00
  0.00000000E+00  0.00000000E+00  0.00000000E+00
  0.00000000E+00  0.00000000E+00  0.00000000E+00
  0.00000000E+00  0.00000000E+00  0.00000000E+00
  0.00000000E+00  0.00000000E+00  0.00000000E+00
  0.00000000E+00  0.00000000E+00  0.00000000E+00
  0.00000000E+00  0.00000000E+00  0.00000000E+00
  0.00000000E+00  0.00000000E+00  0.00000000E+00
  0.00000000E+00  0.00000000E+00  0.00000000E+00
  0.00000000E+00  0.00000000E+00  0.00000000E+00
  0.00000000E+00  0.00000000E+00  0.00000000E+00
  0.00000000E+00  0.00000000E+00  0.00000000E+00
  0.00000000E+00  0.00000000E+00  0.00000000E+00
  0.00000000E+00  0.00000000E+00  0.00000000E+00
  0.00000000E+00  0.00000000E+00  0.00000000E+00
  0.00000000E+00  0.00000000E+00  0.00000000E+00
  0.00000000E+00  0.00000000E+00  0.00000000E+00
  0.00000000E+00  0.00000000E+00  0.00000000E+00
  0.00000000E+00  0.00000000E+00  0.00000000E+00
  0.00000000E+00  0.00000000E+00  0.00000000E+00
  0.00000000E+00  0.00000000E+00  0.00000000E+00
  0.00000000E+00  0.00000000E+00  0.00000000E+00
  0.00000000E+00  0.00000000E+00  0.00000000E+00
  0.00000000E+00  0.00000000E+00  0.00000000E+00
  0.00000000E+00  0.00000000E+00  0.00000000E+00
  0.00000000E+00  0.00000000E+00  0.00000000E+00
  0.00000000E+00  0.00000000E+00  0.00000000E+00
  0.00000000E+00  0.00000000E+00  0.00000000E+00
  0.00000000E+00  0.00000000E+00  0.00000000E+00
  0.00000000E+00  0.00000000E+00  0.00000000E+00
  0.00000000E+00  0.00000000E+00  0.00000000E+00
  0.00000000E+00  0.00000000E+00  0.00000000E+00
  0.00000000E+00  0.00000000E+00  0.00000000E+00
  0.00000000E+00  0.00000000E+00  0.00000000E+00
  0.00000000E+00  0.00000000E+00  0.00000000E+00
  0.00000000E+00  0.00000000E+00  0.00000000E+00
  0.00000000E+00  0.00000000E+00  0.00000000E+00
  0.00000000E+00  0.00000000E+00  0.00000000E+00
  0.00000000E+00  0.00000000E+00  0.00000000E+00
  0.00000000E+00  0.00000000E+00  0.00000000E+00
  0.00000000E+00  0.00000000E+00  0.00000000E+00
  0.00000000E+00  0.00000000E+00  0.00000000E+00
  0.00000000E+00  0.00000000E+00  0.00000000E+00
  0.00000000E+00  0.00000000E+00  0.00000000E+00
  0.00000000E+00  0.00000000E+00  0.00000000E+00
  0.00000000E+00  0.00000000E+00  0.00000000E+00
  0.00000000E+00  0.00000000E+00  0.00000000E+00
  0.00000000E+00  0.00000000E+00  0.00000000E+00
  0.00000000E+00  0.00000000E+00  0.00000000E+00
  0.00000000E+00  0.00000000E+00  0.00000000E+00
  0.00000000E+00  0.00000000E+00  0.00000000E+00
  0.00000000E+00  0.00000000E+00  0.00000000E+00
  0.00000000E+00  0.00000000E+00  0.00000000E+00
  0.00000000E+00  0.00000000E+00  0.00000000E+00
  0.00000000E+00  0.00000000E+00  0.00000000E+00
  0.00000000E+00  0.00000000E+00  0.00000000E+00
  0.00000000E+00  0.00000000E+00  0.00000000E+00
  0.00000000E+00  0.00000000E+00  0.00000000E+00
  0.00000000E+00  0.00000000E+00  0.00000000E+00
  0.00000000E+00  0.00000000E+00  0.00000000E+00
  0.00000000E+00  0.00000000E+00  0.00000000E+00
  0.00000000E+00  0.00000000E+00  0.00000000E+00
  0.00000000E+00  0.00000000E+00  0.00000000E+00
  0.00000000E+00  0.00000000E+00  0.00000000E+00
  0.00000000E+00  0.00000000E+00  0.00000000E+00
  0.00000000E+00  0.00000000E+00  0.00000000E+00
  0.00000000E+00  0.00000000E+00  0.00000000E+00
  0.00000000E+00  0.00000000E+00  0.00000000E+00
  0.00000000E+00  0.00000000E+00  0.00000000E+00
  0.00000000E+00  0.00000000E+00  0.00000000E+00
  0.00000000E+00  0.00000000E+00  0.00000000E+00
  0.00000000E+00  0.00000000E+00  0.00000000E+00
  0.00000000E+00  0.00000000E+00  0.00000000E+00
  0.00000000E+00  0.00000000E+00  0.00000000E+00
  0.00000000E+00  0.00000000E+00  0.00000000E+00
  0.00000000E+00  0.00000000E+00  0.00000000E+00
  0.00000000E+00  0.00000000E+00  0.00000000E+00
  0.00000000E+00  0.00000000E+00  0.00000000E+00
  0.00000000E+00  0.00000000E+00  0.00000000E+00
  0.00000000E+00  0.00000000E+00  0.00000000E+00
  0.00000000E+00  0.00000000E+00  0.00000000E+00
  0.00000000E+00  0.00000000E+00  0.00000000E+00
  0.00000000E+00  0.00000000E+00  0.00000000E+00
  0.00000000E+00  0.00000000E+00  0.00000000E+00
  0.00000000E+00  0.00000000E+00  0.00000000E+00
  0.00000000E+00  0.00000000E+00  0.00000000E+00
  0.00000000E+00  0.00000000E+00  0.00000000E+00
  0.00000000E+00  0.00000000E+00  0.00000000E+00
  0.00000000E+00  0.00000000E+00  0.00000000E+00
  0.00000000E+00  0.00000000E+00  0.00000000E+00
  0.00000000E+00  0.00000000E+00  0.00000000E+00
  0.00000000E+00  0.00000000E+00  0.00000000E+00
  0.00000000E+00  0.00000000E+00  0.00000000E+00
  0.00000000E+00  0.00000000E+00  0.00000000E+00
  0.00000000E+00  0.00000000E+00  0.00000000E+00
  0.00000000E+00  0.00000000E+00  0.00000000E+00
  0.00000000E+00  0.00000000E+00  0.00000000E+00
  0.00000000E+00  0.00000000E+00  0.00000000E+00
  0.00000000E+00  0.00000000E+00  0.00000000E+00
  0.00000000E+00  0.00000000E+00  0.00000000E+00
  0.00000000E+00  0.00000000E+00  0.00000000E+00
  0.00000000E+00  0.00000000E+00  0.00000000E+00
  0.00000000E+00  0.00000000E+00  0.00000000E+00
  0.00000000E+00  0.00000000E+00  0.00000000E+00
  0.00000000E+00  0.00000000E+00  0.00000000E+00
  0.00000000E+00  0.00000000E+00  0.00000000E+00
  0.00000000E+00  0.00000000E+00  0.00000000E+00
  0.00000000E+00  0.00000000E+00  0.00000000E+00
  0.00000000E+00  0.00000000E+00  0.00000000E+00
  0.00000000E+00  0.00000000E+00  0.00000000E+00
  0.00000000E+00  0.00000000E+00  0.00000000E+00
  0.00000000E+00  0.00000000E+00  0.00000000E+00
  0.00000000E+00  0.00000000E+00  0.00000000E+00
  0.00000000E+00  0.00000000E+00  0.00000000E+00
  0.00000000E+00  0.00000000E+00  0.00000000E+00
  0.00000000E+00  0.00000000E+00  0.00000000E+00
  0.00000000E+00  0.00000000E+00  0.00000000E+00
  0.00000000E+00  0.00000000E+00  0.00000000E+00
  0.00000000E+00  0.00000000E+00  0.00000000E+00
  0.00000000E+00  0.00000000E+00  0.00000000E+00
  0.00000000E+00  0.00000000E+00  0.00000000E+00
  0.00000000E+00  0.00000000E+00  0.00000000E+00
  0.00000000E+00  0.00000000E+00  0.00000000E+00
  0.00000000E+00  0.00000000E+00  0.00000000E+00
  0.00000000E+00  0.00000000E+00  0.00000000E+00
  0.00000000E+00  0.00000000E+00  0.00000000E+00
  0.00000000E+00  0.00000000E+00  0.00000000E+00
  0.00000000E+00  0.00000000E+00  0.00000000E+00
  0.00000000E+00  0.00000000E+00  0.00000000E+00
  0.00000000E+00  0.00000000E+00  0.00000000E+00
  0.00000000E+00  0.00000000E+00  0.00000000E+00
  0.00000000E+00  0.00000000E+00  0.00000000E+00
  0.00000000E+00  0.00000000E+00  0.00000000E+00
  0.00000000E+00  0.00000000E+00  0.00000000E+00
  0.00000000E+00  0.00000000E+00  0.00000000E+00
  0.00000000E+00  0.00000000E+00  0.00000000E+00
  0.00000000E+00  0.00000000E+00  0.00000000E+00
  0.00000000E+00  0.00000000E+00  0.00000000E+00
  0.00000000E+00  0.00000000E+00  0.00000000E+00
  0.00000000E+00  0.00000000E+00  0.00000000E+00
  0.00000000E+00  0.00000000E+00  0.00000000E+00
  0.00000000E+00  0.00000000E+00  0.00000000E+00
  0.00000000E+00  0.00000000E+00  0.00000000E+00
  0.00000000E+00  0.00000000E+00  0.00000000E+00
  0.00000000E+00  0.00000000E+00  0.00000000E+00
  0.00000000E+00  0.00000000E+00  0.00000000E+00
  0.00000000E+00  0.00000000E+00  0.00000000E+00
  0.00000000E+00  0.00000000E+00  0.00000000E+00
  0.00000000E+00  0.00000000E+00  0.00000000E+00
  0.00000000E+00  0.00000000E+00  0.00000000E+00
  0.00000000E+00  0.00000000E+00  0.00000000E+00
  0.00000000E+00  0.00000000E+00  0.00000000E+00