Amorphous Sb                            
   1.00000000000000     
    20.1278869700586895    0.0000000000000000    0.0000000000000000
     0.0000000000000000   20.1278869700586895    0.0000000000000000
     0.0000000000000000    0.0000000000000000   20.1278869700586895
   Ge   Se
   150   150
Direct
  0.5161058710429871  0.6905696042000521  0.7891691582372370
  0.2115453803270172  0.4268062798594869  0.8027914354934997
  0.3861064379150465  0.3155238186343093  0.6076228728069544
  0.8252009582975567  0.0285484333490092  0.6505442904738130
  0.8992239297158058  0.6255977683503104  0.6643723881022047
  0.2218435420384554  0.7104288604227073  0.9272663227914619
  0.1198774746873602  0.1634964339250644  0.3632738770356994
  0.3301047047898106  0.6312528968119409  0.8064900461415739
  0.3537402782429362  0.8502329288293883  0.2209619773105249
  0.3686885633571163  0.0167870467535672  0.4209111318830157
  0.0101706626965661  0.0325432883070801  0.4551146446061475
  0.6065022910422627  0.3342487798804291  0.8501774126893714
  0.6039693286959817  0.4390568583951897  0.5887952125075008
  0.2553134031923758  0.0166961631543574  0.8611674067259533
  0.6800611954524600  0.9526121499501812  0.3950753644604629
  0.0401433597164164  0.7747915000128426  0.0833016839007017
  0.0467544006109350  0.7639829159434304  0.3336281893847882
  0.8172847148396770  0.3960121590818181  0.3591303896045503
  0.1074891637837749  0.4554977549076033  0.9664047153024283
  0.0577993156923018  0.9146810065306855  0.5041490799502973
  0.1499532793065380  0.8304230704883864  0.2010004962384875
  0.4308464120814534  0.7591371514678662  0.9585419277327417
  0.9827549047419946  0.1593289527315170  0.9360875050907950
  0.0337939101249842  0.0757895968483005  0.1292461674684700
  0.5523533625566730  0.3338897738256799  0.1879335035748420
  0.3751723156523948  0.1381954021045319  0.5831946933173618
  0.4367968869677015  0.7536343614127345  0.5225421839750548
  0.7998718928658415  0.9197703494631603  0.9995192396519975
  0.7583561983448253  0.5501587677813742  0.6035952408639697
  0.9517316939407539  0.7711961483861581  0.5852842633846106
  0.0835969615682840  0.3530265444303048  0.7483526051927358
  0.0347196996694464  0.1002224123481859  0.2564599818169791
  0.9012834006809528  0.4897317475950352  0.4837444863598369
  0.3985108307824798  0.4534785739748497  0.2783857006770488
  0.0339523866718535  0.5443808754100492  0.5863925852552273
  0.7494603951343454  0.6804168359946680  0.1859684300704226
  0.4473270203712839  0.4716090859711301  0.9196690906794237
  0.2729030342670527  0.0489099734927917  0.2287566433245104
  0.2518291060024131  0.3729374251561620  0.1329660357076446
  0.7449009746520978  0.3796881601631453  0.7721613898482752
  0.8405444496478536  0.8269906053054995  0.3786080145874975
  0.9198428158669139  0.1863917067282914  0.5605977483895727
  0.5948564199385802  0.8522814415306187  0.5249211526955518
  0.3745094861478542  0.9829455352921531  0.0944510874891011
  0.3503499677877153  0.6493855309384166  0.2139112165243846
  0.3987455407241973  0.4519894587713799  0.5038971829716201
  0.9026679380817376  0.7727091008905734  0.1780844890018798
  0.0364362121599465  0.3511085369759213  0.4071152458260637
  0.9902301484135876  0.7383970459286620  0.8026319088074401
  0.5515050754438869  0.0732769676472732  0.2962865982606857
  0.2600126301258420  0.4366003745217371  0.9520505952802698
  0.0520066631733945  0.2817446727487755  0.1523920161506273
  0.6279631328248092  0.7542890484814213  0.8075552317354918
  0.5772828093856731  0.2903093803156436  0.7320513027368004
  0.0532821857586007  0.5793579490147407  0.3525328222861155
  0.0323683921906866  0.9232136871534010  0.2187125993315166
  0.1901972274782264  0.5801406773960671  0.4538179995349045
  0.9516306587772482  0.3286957572328819  0.5886740439207255
  0.0988074024737801  0.0601037783803208  0.8241805207220463
  0.5191452235211880  0.4504030723319999  0.3358235798678856
  0.6884454235234906  0.1041366610511635  0.1535020740871789
  0.5322447605802593  0.6766075877585449  0.2036595622976629
  0.9245414089953866  0.6567992091828160  0.3271695556451746
  0.8586613077568390  0.0218222238083242  0.8372617079190324
  0.5612530777793603  0.8207238277440631  0.0052428482011438
  0.0692049486507402  0.3363428731152280  0.9311929792866126
  0.8229084915091515  0.8627070085141372  0.5337639789576544
  0.7402765987144768  0.7498872705209492  0.6822556938512850
  0.8235466982981292  0.2314137402227985  0.1552191881920804
  0.8345845611784887  0.3227307589619030  0.0368392146589400
  0.9494749157238704  0.4091746142551749  0.7436799819772124
  0.4078209039247140  0.1618527461618073  0.1647499753683302
  0.3595668150486203  0.5527557019956139  0.4334930218337364
  0.4902583067976684  0.8392842145719739  0.3714506965236237
  0.3296274837871009  0.4467647030325918  0.6576686736023196
  0.6845654763287733  0.9365916775276465  0.0925727187058707
  0.2475929057160981  0.2480976724274658  0.1760904284175568
  0.8716254586547530  0.0495549048208286  0.0652943768769361
  0.2601557389882864  0.8570356870584451  0.9272253439484806
  0.3584502312993204  0.2596475629938089  0.0274922136527038
  0.6461585959791152  0.9924269622159990  0.8835682090770995
  0.9684242093259015  0.5917158054408751  0.8425773394423146
  0.7938060217635557  0.4842246648940491  0.0645256014214534
  0.7657514497809798  0.5224971149946147  0.3532769345246329
  0.3518793649352989  0.0792054638965199  0.7088141787159996
  0.5986425627301722  0.1384366792031058  0.0282776469632884
  0.5459208082694360  0.6536662307264516  0.6147901949603388
  0.7570135011099731  0.3349587077366144  0.5183041248292223
  0.6551503487181963  0.5664134307146984  0.1670786977197090
  0.5219668628034100  0.2339047389485491  0.3491538077619711
  0.6095956742638154  0.1145909355537093  0.8979488978208486
  0.1111457849426350  0.1205573757989260  0.5789833190132705
  0.3011992878843400  0.5953132028588261  0.5988964465079475
  0.7586222734168000  0.0476857551858416  0.4833425598877724
  0.6653361271835028  0.9308348163258046  0.6143774697924403
  0.6850548601330271  0.7020125627276113  0.5151826584556187
  0.4230957753249781  0.9620519820066469  0.9341164171802175
  0.1627336901611523  0.4655984890904227  0.6474584302283904
  0.1590456341354663  0.7599544531936921  0.4685873079313190
  0.2044961706410147  0.1306097572951491  0.8370496571935604
  0.1088976138942581  0.4275801657921113  0.2348354186232679
  0.5304965787555248  0.2895578194825828  0.9422536257559010
  0.2368934128158823  0.5105293808387696  0.0837496819164121
  0.8739104693015916  0.0618457266395789  0.1996543435486793
  0.4413628708147793  0.8439814682764224  0.7109345954399076
  0.7233673542891417  0.7184558048031306  0.9740260953002561
  0.9880925092058737  0.4724904569538916  0.0118253697495520
  0.0588251527722724  0.6539613727697358  0.0362334377916583
  0.6912434510849518  0.1723832662543462  0.7263571959535122
  0.7104326129199641  0.9239882649519877  0.7940907631142755
  0.1115409445119653  0.8906612782958353  0.6825730624362856
  0.1613129026295433  0.9604142854211231  0.0612487382462573
  0.1564674639788701  0.9601953132947463  0.3646751392713678
  0.7431093940579802  0.1493880206248326  0.3127230094833267
  0.7431281707584636  0.8140538966504921  0.2938126232646885
  0.7337604458805913  0.6465055930639614  0.3995673633636457
  0.4102587886014064  0.2862611701749803  0.3015012829155502
  0.6820910427115520  0.5915410195017018  0.7313756695556780
  0.3080424957622470  0.2293284211295978  0.4572852845464233
  0.0831333548610023  0.9359386469750753  0.7973326833399933
  0.9209855623604672  0.4462602956756869  0.2034318095930847
  0.8360424129223943  0.2162341241073200  0.3787626459165552
  0.8044281216239125  0.6277066677943554  0.8207042995421332
  0.9539188701766738  0.9065516066020517  0.9497595494280826
  0.2170838749978567  0.4211790462456435  0.4020484703157936
  0.2279165853463026  0.7027994074855572  0.6747527317938943
  0.3810073405487750  0.9469835987897294  0.5424236867120208
  0.5525619581409061  0.8579483377118110  0.7804872497492323
  0.1582003027664657  0.1519340620421255  0.9852892109156716
  0.2788814273906908  0.8125563443921935  0.0611834670954510
  0.5504060394949256  0.5880092078192589  0.4283430780439599
  0.8954557698938546  0.7356871756584469  0.8966055997521128
  0.4609011305851637  0.1842630988611525  0.9300408800833633
  0.4449810237697904  0.5087373403053347  0.0961312320310878
  0.0553381871873189  0.7135873364073917  0.6326156149847694
  0.1758706490792035  0.6343793687526335  0.2024657640306601
  0.3004458110454989  0.2737837224803857  0.8057366116269293
  0.5405766651425319  0.0733048172026020  0.4830591572412389
  0.3624038728437200  0.7078554806912249  0.3440770015957403
  0.3104585736709186  0.8544094933509261  0.7213673106251230
  0.7220812314808579  0.3976255739884449  0.2202963229653126
  0.6031508891333914  0.4540255815605276  0.0339859527775499
  0.1797397975811732  0.9804005175725904  0.6147427386211050
  0.9101735867467181  0.2297446267647007  0.7567473927069964
  0.5804487707318086  0.2060241141654455  0.5548228879054555
  0.0920861067535014  0.2320229508017942  0.5103975183257909
  0.1371311533830409  0.6031598024905287  0.8268217420235291
  0.5336259899835543  0.8666806912341487  0.1784765220204061
  0.4370868971932164  0.4109726319579922  0.7455191388184665
  0.9081138777391488  0.4398786951524951  0.9158850591549520
  0.8651212337972075  0.1043416722505127  0.9174565050554009
  0.8586680129146378  0.9814682192690708  0.5129362299700466
  0.0748455993518996  0.7283991148832847  0.1979488930502790
  0.9416652484784199  0.4596903823048766  0.6243055546074843
  0.3257971903424235  0.7088010081010137  0.0064425975568691
  0.1254000976772860  0.0084191395236168  0.2477307920507067
  0.5742557425155355  0.4623179176941392  0.1600741422185003
  0.7052782684864511  0.0508100931234054  0.6028641316969237
  0.6072427836238612  0.2596094292133714  0.0305652229577269
  0.1311603343335158  0.0747504243535271  0.4624255493294537
  0.9306857238972968  0.8254411623836306  0.2886431271213106
  0.7602897089339637  0.0389396980717878  0.7699179497028040
  0.7932293946754586  0.7029506567836652  0.5803434739670787
  0.2924282489286759  0.7901086027926884  0.6165048892567027
  0.8716216084291928  0.6536145813319909  0.2111641982673307
  0.4691721797694825  0.1155679598507855  0.0287167940940170
  0.2870332893562798  0.1683552102469201  0.0900383494671221
  0.3781673908210081  0.8162147377168888  0.4293256458025591
  0.9467814096956683  0.0034401879716785  0.7557103181458082
  0.7085077336867996  0.2182033712739496  0.2147938575771172
  0.7096714395082043  0.0116591738921371  0.9893165724396988
  0.5657313736669316  0.1792509228456153  0.6818436550544276
  0.1490652279413913  0.0925203732033950  0.0955560630716794
  0.8802821529968162  0.4939834836666914  0.8084401676833606
  0.2042362608272688  0.3821462919159516  0.2835624744486544
  0.3259126722742879  0.3954715073070811  0.8499601452745087
  0.2693563121496899  0.7576384043168932  0.1806905721858485
  0.2813425274982124  0.9738967488945046  0.3344847423776438
  0.3396423002082144  0.5178234963489460  0.0125511603239801
  0.4014521566267049  0.0406884756013090  0.2073165523122084
  0.4546971877899936  0.2291682694627045  0.5380172603243367
  0.4231822836119497  0.3542718812415671  0.1981377510532857
  0.9516703420533800  0.0049194275737254  0.2799696723851323
  0.4171595540413018  0.8601521177568627  0.1126897460693343
  0.0988297740338698  0.4858190167243406  0.4219024458653217
  0.0664811566783941  0.4980953969614549  0.8530829397944812
  0.5306975502227194  0.4356528152038529  0.8278725068305552
  0.3029071828357274  0.9696345656141607  0.6500530661780882
  0.5295450922319738  0.1836576016292748  0.2342545746546191
  0.8951371058092924  0.5348315637133494  0.3526006160549527
  0.6076077920511413  0.5346065303838836  0.3298638853654296
  0.3415643673630474  0.2024212036054893  0.9123701344488299
  0.1791049698772520  0.9035229652021132  0.5179664769390719
  0.0148566610580309  0.2157845173184261  0.4135128207593976
  0.5408155228899285  0.9191495086578294  0.8926891636806097
  0.6068716151688086  0.9571923336365827  0.7265762389721860
  0.6954715117715468  0.4660944182539437  0.6842361430493504
  0.1570334309805628  0.8351767204797990  0.3273981349527341
  0.9132328189256954  0.3654711067890714  0.4408798668962774
  0.5456270641329453  0.7531244518002054  0.4464020271554594
  0.8508740782359037  0.3380408747405350  0.7114265319087696
  0.3144534731910560  0.6514296379444384  0.4870165020060301
  0.6767604663784380  0.2027110471424566  0.8491292877995953
  0.3016531039577174  0.1018021356696979  0.4858846981381449
  0.7783703659018069  0.8068726371716413  0.1747020290033427
  0.7626569642733535  0.5186864226295075  0.2156548913994756
  0.1469896032319693  0.6694439408979381  0.3692087238955140
  0.0314729718137789  0.8491732700080528  0.8675216227379945
  0.7958363801790339  0.4135334411451423  0.9518130692049802
  0.9921693424765839  0.0766577776424455  0.5725639086868433
  0.2618364098483508  0.9465364049821544  0.1501874431808609
  0.5577704203796098  0.5837690592129547  0.7196981849043352
  0.0073013856198291  0.8947139364829706  0.6185156419079382
  0.1288245976496452  0.2821189958368566  0.8420123373843849
  0.5187981775308874  0.3695430643134037  0.6555339960816872
  0.2829164902560862  0.2500570437358592  0.5775476989967222
  0.2670249443017869  0.9768759552193751  0.9770159925144943
  0.7812221715146732  0.1385026396409403  0.0757651948051116
  0.8741142306570509  0.6179819227260037  0.9303520956062480
  0.8989381500126847  0.1742882660345595  0.2374949145668137
  0.5178494452582498  0.4661731624369454  0.4618256685181870
  0.5810857825081954  0.3465414896243150  0.3096693339069885
  0.6441997998336648  0.5857890540897860  0.5538312329811919
  0.6871049710009915  0.7021584023286794  0.2975214354582568
  0.4482561320916383  0.7611003830964256  0.2658342344140304
  0.1209349824097103  0.7730338968194248  0.7201367162635518
  0.7769336321372697  0.7509388681337146  0.8621808331777664
  0.5866588724541654  0.7628110088706888  0.1277605298990539
  0.9030269051509040  0.7514921226962774  0.7061049845432651
  0.0764453197700369  0.2476158285091572  0.0165123327699740
  0.8445526004097383  0.9089277048649087  0.8777800931380111
  0.6975022687121885  0.8438337626486221  0.9946951865476109
  0.7626748277357461  0.0421549945599494  0.2513988023594298
  0.2478816861952898  0.5235557517021681  0.7260193114748720
  0.7737202020605314  0.4702982255057874  0.4975222560442802
  0.4084599991131185  0.2850424534041181  0.7373909250659216
  0.0085204990562469  0.9598611521606398  0.1010953954155295
  0.4377354244836926  0.6028638410053849  0.3537419653606996
  0.1372192577003657  0.2173892295354227  0.2182700904575544
  0.0359397104801795  0.7972486102505146  0.4651794433133920
  0.7417254292769825  0.3033360669319810  0.3934401477873675
  0.4374256375660898  0.7214111481904099  0.7000404250328324
  0.6491038247177788  0.8870814203124420  0.2892575853496544
  0.3823342756110139  0.8514782063285025  0.8852241914273957
  0.1517158560729927  0.8173341805139812  0.0368513133778490
  0.8126640103460505  0.1666872229771239  0.4943259730624666
  0.7146842238507058  0.8477058666556422  0.4654389323661000
  0.0132377680020764  0.2630444479298354  0.6855833466788993
  0.6994196612265863  0.5713609056290680  0.8502190879078202
  0.2519828837538696  0.3268974396956973  0.0143381248855239
  0.4322862275599009  0.6573693908507907  0.8850311440067332
  0.0686382413923074  0.6709492906940967  0.9142347300033715
  0.5644604607846631  0.9446482680268179  0.0834940496735863
  0.4584218852593635  0.3708538871560834  0.9950206426933637
  0.9091547137055432  0.7991824956916571  0.9986677204414740
  0.6389640954200831  0.1280253471609307  0.3726923748724180
  0.2412236955812427  0.5844112387392809  0.8952777159753341
  0.2481275889063531  0.4841098360721063  0.5550016207764492
  0.5038719856006715  0.1201316927205567  0.8397409757134621
  0.4122162047451358  0.5336674367903388  0.6065999041388884
  0.2061641066834498  0.9105299438693184  0.8175476189763754
  0.0650146532811343  0.0623244705711683  0.9416735434994034
  0.2648282375962838  0.5322386880421115  0.3600594388285445
  0.9553651654130617  0.1451061725867764  0.0625695045112051
  0.2070240596304946  0.3530474798268396  0.6958781122900964
  0.3230567921139051  0.2041551517363559  0.2668506549096724
  0.2709869940645905  0.7397326968455157  0.8081289796145047
  0.8430683050844719  0.7047125625836868  0.4105625346902735
  0.0800192765898427  0.5445886830754595  0.2292742260613581
  0.9711828529021550  0.5758771941617326  0.0701180258486339
  0.1832970080370224  0.2546897142602893  0.4278840049609288
  0.2482879405074489  0.1432084880162299  0.7229105586679657
  0.9519242880646225  0.3286063366373875  0.8901912972238475
  0.8427767341023999  0.3521412731056539  0.2430896536631774
  0.5604600940476535  0.9549995374783196  0.4386429623756175
  0.6885702069389019  0.5517952427532193  0.0443384258118871
  0.3705088005619238  0.0149749562324692  0.8278036255328480
  0.5194537450925676  0.5437548445339045  0.0002859638266604
  0.6297964363291982  0.3319296750103670  0.5248790946637129
  0.6190002356509826  0.7587876427978135  0.6335034204267808
  0.2832370521969456  0.5457998292424442  0.1927557588167029
  0.0673070330536120  0.3490692139426274  0.5380733360358689
  0.7719771069403273  0.8791961254260771  0.6544025799071218
  0.4374340304329861  0.6377027472247314  0.1262765253148184
  0.1742092037764586  0.6268844583517234  0.0739956858195221
  0.6053035297746360  0.7189850328386105  0.9279192686275320
  0.6937661540589511  0.2967000581911124  0.6908928544739560
  0.4686193220552120  0.8655639539144657  0.5885555219272838
  0.3582897021835162  0.3752209362421121  0.3702960313347674
  0.1464690158641149  0.6718067620955877  0.5646052362486791
  0.8501629624281888  0.1622942513717515  0.6620505374165043
  0.0076148601545705  0.3699752864505732  0.2617230752549922
  0.9389997566080446  0.3850411791229923  0.0863926846153755
  0.1244658863567542  0.3847360373710100  0.1215859622507045
  0.4626329136748188  0.1030899571486099  0.3861954137612484
  0.9448796359961358  0.6282876199347590  0.5455428889598515
  0.0069046902887617  0.1044689307716739  0.7563291380272736
  0.0299630888932752  0.6102395105644206  0.6976293197657618
  0.7338405497872862  0.3767535287842036  0.0958547197070152
  0.4606562915530640  0.0393370103913634  0.5741219966044904
 
 -0.26901744E-04 -0.56161621E-04 -0.48229838E-04
  0.18868039E-05 -0.53438160E-05 -0.97506095E-06
  0.39823121E-06 -0.10379842E-05  0.12779216E-05
  0.33401537E-05  0.25473503E-05  0.37991835E-05
  0.21376705E-05 -0.28001786E-05 -0.41870653E-06
 -0.21763392E-04  0.63715139E-07 -0.32449412E-04
 -0.24223875E-06 -0.28559678E-05  0.19922487E-05
  0.37479184E-05  0.59244986E-06 -0.60770592E-05
 -0.15940787E-04 -0.24282690E-04  0.18865364E-04
  0.26869813E-05  0.14969859E-05 -0.32089287E-06
 -0.63693219E-06 -0.26526652E-05 -0.26116915E-06
 -0.57177195E-05 -0.58059113E-05  0.55002091E-05
 -0.49310088E-06 -0.78746278E-05  0.18250325E-05
 -0.90612659E-05 -0.38486683E-05 -0.84765462E-05
 -0.55492546E-06  0.44380120E-05  0.64044392E-06
  0.47352832E-05 -0.29633382E-04  0.10750055E-04
  0.29011260E-05  0.34694370E-05  0.11102801E-04
  0.16014588E-06 -0.11767121E-04 -0.32921341E-05
 -0.69419337E-06 -0.54074473E-06  0.37188561E-05
 -0.51950599E-06  0.10377441E-05  0.24537974E-05
  0.12820483E-04 -0.12232046E-05  0.16880912E-04
  0.15182967E-04  0.33205353E-04 -0.15082752E-05
 -0.24555239E-05 -0.33177013E-05  0.52526474E-07
 -0.38344978E-05 -0.17751759E-05  0.37869846E-05
  0.26061595E-05 -0.33670689E-05 -0.89270820E-05
  0.41883243E-06 -0.24284495E-05  0.13002531E-05
 -0.45186319E-05 -0.17701275E-05  0.51014999E-05
 -0.41500756E-05  0.42851942E-05  0.58376584E-06
  0.41663988E-05  0.19432300E-05  0.50322020E-05
  0.30948081E-05  0.82986903E-06  0.26320577E-05
 -0.91059245E-06  0.13880450E-05  0.17870860E-05
  0.48441822E-06  0.18442739E-06  0.89777303E-06
  0.19292640E-05  0.49025629E-05  0.24019517E-05
  0.12400489E-05 -0.51004663E-06  0.63194653E-06
 -0.66455465E-06 -0.85435072E-06  0.16315495E-05
  0.13611499E-05  0.36839176E-06 -0.33145316E-05
  0.34156183E-05 -0.80385271E-05  0.96064520E-07
  0.66475045E-05  0.24921391E-06  0.78858965E-05
 -0.43796615E-06 -0.16764691E-06 -0.18548082E-05
 -0.28995197E-05 -0.22177139E-05 -0.27048195E-07
  0.32016401E-05  0.11363410E-05  0.17800209E-05
 -0.62870127E-06 -0.16968468E-05  0.27257869E-05
 -0.33276288E-05  0.21473001E-05  0.12639402E-05
  0.71269221E-06 -0.68670339E-06 -0.64815142E-05
 -0.10576170E-04  0.12864863E-04  0.21682035E-04
 -0.29297018E-06  0.91770994E-06  0.10648321E-05
 -0.14230221E-05  0.95476015E-06  0.66935140E-05
  0.10788631E-04 -0.97154101E-06 -0.96763850E-06
  0.39421352E-05  0.28097978E-05 -0.28175743E-05
 -0.43750370E-06  0.27165384E-05 -0.27847796E-05
 -0.58408796E-06 -0.52344317E-05 -0.27009190E-05
  0.95045161E-07 -0.75342522E-06 -0.41276077E-06
 -0.38732752E-05 -0.24807070E-04  0.11248324E-04
  0.26467949E-05  0.13995810E-06  0.32376735E-05
  0.33405723E-05  0.24652764E-05  0.11067039E-05
 -0.19281390E-06  0.63152933E-05  0.60372966E-06
  0.29791174E-05  0.30876477E-05  0.17704236E-05
  0.24314084E-05  0.12138387E-05  0.66320625E-05
  0.35508458E-06 -0.32386391E-05 -0.19060398E-05
 -0.21616250E-05 -0.22310267E-05  0.17552274E-05
 -0.13586005E-04 -0.15238793E-05 -0.76142780E-05
 -0.66838456E-05 -0.30081840E-05  0.89533688E-06
  0.58024248E-05 -0.74552542E-05 -0.20436891E-05
 -0.20378737E-05  0.43942365E-06 -0.33910502E-05
  0.68094490E-05  0.13311837E-05  0.13838808E-05
  0.40484771E-07 -0.69259883E-06 -0.19257298E-05
  0.47886316E-05  0.26931030E-05  0.57032740E-05
  0.76826350E-07 -0.28250862E-05  0.14756500E-05
  0.11884037E-07 -0.64414419E-05  0.25332042E-05
  0.28273892E-06  0.26294483E-05 -0.97417894E-06
  0.21800818E-05 -0.45201597E-05 -0.42256463E-05
  0.38351072E-05  0.45265470E-05 -0.53403555E-05
  0.31442201E-06  0.12311853E-05 -0.27154291E-05
 -0.37085481E-05  0.12811727E-05 -0.22521176E-05
  0.63628908E-05 -0.56043566E-06 -0.44321071E-06
  0.66398073E-06  0.47333561E-06 -0.56846433E-06
  0.18173876E-05 -0.47678048E-06 -0.17965016E-05
  0.58398650E-06 -0.26551092E-05 -0.53105177E-06
  0.12677190E-04 -0.39016228E-05  0.34924030E-04
  0.36071685E-05  0.97663780E-06 -0.79925409E-05
  0.28153855E-05  0.14324916E-04 -0.12430308E-04
 -0.42327617E-05 -0.87351080E-05 -0.25144973E-05
 -0.31527394E-05 -0.20162118E-05 -0.72027446E-05
  0.82329139E-05 -0.20870157E-04 -0.12306458E-04
  0.33955254E-06  0.25417302E-05 -0.20687055E-05
 -0.36922222E-04 -0.40717109E-04  0.13203070E-04
 -0.26141196E-05  0.10662800E-04 -0.74896244E-05
 -0.28899148E-05  0.38914692E-06  0.38110439E-05
 -0.70589289E-05 -0.11850193E-05 -0.26894058E-05
 -0.19130886E-05  0.24686145E-05 -0.49392198E-06
 -0.21727549E-04  0.55574890E-05  0.29594608E-04
  0.27189155E-05 -0.30807043E-05  0.40862750E-05
  0.46838073E-06  0.39365818E-06 -0.81061582E-06
 -0.12537512E-05 -0.31246330E-05  0.19944603E-05
  0.22493708E-05  0.25589367E-05 -0.44916250E-05
  0.13820081E-04 -0.46233156E-05  0.53001501E-05
  0.21923216E-05  0.43181925E-05  0.33014070E-06
  0.67060965E-06  0.16479855E-05 -0.32159764E-06
 -0.80729014E-06 -0.30164179E-05  0.42156403E-05
 -0.25047661E-06 -0.44806572E-05 -0.30669998E-05
 -0.30489646E-05 -0.18423726E-05  0.20487620E-05
  0.19880183E-04 -0.92271489E-05  0.13646171E-04
  0.39793055E-06 -0.52383527E-05  0.24161565E-05
  0.22845436E-05  0.11731620E-05  0.28740116E-06
 -0.52013413E-06 -0.10917848E-04  0.55312459E-06
  0.43705259E-07  0.16356924E-05  0.35833745E-05
 -0.13323297E-05 -0.16860913E-05 -0.30899673E-05
 -0.29783994E-05 -0.96930488E-05  0.36077154E-06
  0.37470533E-05  0.23750138E-05  0.54967632E-05
 -0.18199401E-05  0.18149118E-05  0.26149909E-05
  0.20652291E-05  0.26246719E-05  0.17911301E-05
  0.96295189E-05  0.29523172E-04  0.15429712E-05
  0.18013017E-06  0.17185852E-05  0.18587063E-05
 -0.15624845E-05 -0.30588149E-05 -0.14868695E-06
  0.16555258E-05  0.37609923E-05  0.52085637E-06
  0.22427028E-06  0.16278182E-04  0.17237383E-05
 -0.16833067E-05  0.20279682E-05  0.82898418E-06
  0.16470985E-04 -0.17584726E-05 -0.24208828E-05
 -0.46143393E-06  0.24219543E-05  0.65735903E-06
  0.94545315E-05  0.65010589E-05 -0.76085729E-05
  0.21210394E-06 -0.30929740E-06  0.10206527E-05
  0.43348592E-05 -0.54502359E-05  0.29432660E-05
 -0.10049335E-05  0.41297151E-07 -0.33167027E-05
 -0.33921751E-06  0.34220089E-05 -0.39354710E-05
  0.38135797E-05 -0.24683471E-05  0.40475603E-06
  0.55030559E-05  0.15776785E-05 -0.22770549E-05
 -0.58588926E-06  0.11072233E-05  0.11847498E-05
  0.19105836E-05  0.19979294E-04  0.41932739E-05
 -0.11843629E-06  0.18598293E-05 -0.52077657E-05
 -0.21817952E-04  0.30879517E-04 -0.16117616E-03
 -0.84693563E-05 -0.23427811E-05 -0.18329426E-05
 -0.80727669E-06 -0.67400327E-06 -0.21553191E-05
  0.11013164E-04  0.18768646E-05 -0.43498408E-05
  0.53807762E-05 -0.30646002E-05 -0.38812715E-06
  0.33363884E-05  0.10467983E-05 -0.18737312E-05
  0.15305956E-04  0.28037547E-05  0.40646314E-05
  0.13767104E-05 -0.17419220E-05  0.34264337E-05
  0.68942394E-06  0.51889202E-05  0.32305960E-06
 -0.86329867E-05  0.55608488E-05 -0.11039951E-04
 -0.16195272E-05  0.36837308E-05 -0.93254734E-05
 -0.29087730E-05 -0.31675939E-05 -0.73861980E-05
 -0.51825292E-05 -0.53464707E-05 -0.42899404E-05
  0.29586692E-05  0.14823060E-05  0.10306046E-05
 -0.30925313E-05  0.53386614E-06  0.90356826E-06
 -0.25951984E-07  0.48258074E-06  0.52585348E-05
  0.31614736E-05 -0.70803043E-05 -0.12611853E-05
 -0.38302137E-05  0.15262148E-05 -0.57311560E-05
  0.51935320E-05 -0.25635184E-06 -0.19392450E-05
  0.24716376E-06  0.21691686E-05  0.93508334E-06
 -0.81427335E-06 -0.26788323E-06  0.14277714E-05
 -0.16666299E-06 -0.10056627E-05 -0.53635550E-06
  0.17910513E-07 -0.12668562E-05 -0.54586439E-06
 -0.12933075E-04  0.69460526E-05 -0.19454127E-04
  0.33116719E-06 -0.21773278E-06 -0.81502062E-06
  0.17598965E-05  0.19070198E-04 -0.27295858E-05
 -0.20508320E-06 -0.15766222E-05 -0.42496426E-06
  0.27626937E-06  0.56078656E-05  0.19580518E-05
 -0.18546233E-05 -0.68189007E-06 -0.30098788E-05
 -0.21636757E-04  0.18663004E-04 -0.22513186E-04
  0.83514428E-06 -0.17371112E-06 -0.15613027E-05
 -0.36570572E-05  0.11524961E-05 -0.50138212E-05
  0.46866199E-06 -0.15237816E-05  0.22093401E-05
 -0.18030244E-04  0.12565070E-05 -0.11235650E-04
 -0.85683906E-05  0.11195941E-05  0.42171662E-05
  0.11753559E-05  0.21528012E-05 -0.17732669E-05
  0.56537221E-04  0.10355856E-04 -0.16450204E-05
 -0.62944216E-05 -0.14465082E-06  0.35593706E-05
  0.21823737E-06  0.13406695E-05 -0.31902896E-05
 -0.66472086E-06  0.17059865E-05 -0.20998127E-06
  0.19724688E-05  0.11790899E-05  0.90795623E-06
  0.16789193E-05 -0.56603222E-05  0.24450876E-05
 -0.26169413E-05  0.32719546E-05 -0.44268699E-05
  0.52974412E-05 -0.13695668E-04  0.82116645E-06
  0.43826754E-05  0.13618378E-06  0.73220469E-05
 -0.13497028E-05  0.92608644E-06 -0.35808760E-06
 -0.31731075E-05  0.22467872E-05  0.16205207E-05
  0.12330695E-04 -0.66467002E-04  0.16405352E-03
  0.58135616E-06  0.25231190E-05 -0.25012058E-05
 -0.20728045E-05  0.81834170E-05  0.31379826E-05
 -0.35089681E-05 -0.14595385E-05  0.18600696E-05
 -0.14206767E-05 -0.23264258E-06  0.52117644E-06
 -0.11381083E-05  0.78548067E-06  0.83775887E-06
  0.20098966E-06  0.20235719E-06 -0.15220733E-05
 -0.84411792E-05 -0.21769240E-05 -0.68473358E-05
 -0.27271832E-05  0.12048088E-05 -0.17586432E-05
 -0.25140711E-05  0.31277888E-05  0.15179322E-06
 -0.25827372E-05  0.34620867E-05 -0.16221026E-05
 -0.16046782E-05 -0.31080766E-05 -0.15093543E-05
 -0.15212330E-06 -0.15316024E-05  0.35782599E-06
 -0.78278544E-05  0.21215096E-06 -0.25710273E-05
  0.21560249E-05  0.20519029E-05 -0.24369513E-05
 -0.36120818E-05  0.28523482E-05 -0.16630436E-05
 -0.85086022E-06 -0.18653803E-05  0.87152968E-06
 -0.11727306E-05  0.89753755E-06  0.15041569E-06
 -0.21912784E-05 -0.32427038E-05 -0.45248012E-05
 -0.60395923E-05 -0.60311094E-05  0.60449148E-05
  0.48883759E-05 -0.10373082E-05 -0.51886231E-05
 -0.41277518E-05  0.17643248E-06 -0.53083132E-05
 -0.20824980E-04  0.51926113E-05 -0.60292128E-05
  0.96019248E-05 -0.14325843E-05  0.47127390E-05
  0.36947953E-05 -0.85034968E-06 -0.14566444E-05
 -0.34251586E-06  0.10485526E-05  0.89373324E-06
  0.14552021E-05 -0.84486662E-05 -0.12549420E-04
 -0.20923265E-06 -0.78683179E-06  0.10595325E-05
  0.40806830E-05  0.91729794E-06 -0.37453236E-05
  0.50279343E-05  0.66623758E-05  0.20389467E-04
 -0.39675589E-05 -0.55968035E-06 -0.40832187E-05
 -0.47709406E-06 -0.24288878E-05  0.12652749E-05
  0.59754159E-06  0.23452133E-05  0.32231390E-06
 -0.21619561E-05  0.75951821E-06  0.22947930E-06
 -0.56575488E-05 -0.10108736E-04 -0.85705080E-05
 -0.45561826E-04  0.61929325E-04  0.62111080E-04
 -0.24235942E-05 -0.15472277E-05 -0.48022955E-05
  0.52110236E-07 -0.76803112E-06  0.11617386E-05
  0.80097564E-06  0.29883725E-05 -0.40833466E-05
  0.42518963E-06 -0.68318570E-06  0.12406306E-05
 -0.39206556E-05 -0.10645609E-04 -0.15866804E-05
  0.34092806E-06  0.60732512E-05  0.34037955E-06
  0.91720813E-06  0.21754612E-05  0.15964369E-05
  0.81786934E-06  0.91316406E-06  0.13598838E-06
  0.13605161E-05 -0.11296945E-05  0.13448709E-05
 -0.15484616E-05  0.18179222E-05  0.52965960E-05
  0.19437519E-05  0.11543046E-04 -0.68380016E-05
 -0.77072381E-06 -0.40671155E-05  0.41465172E-05
  0.14546291E-05  0.14679489E-05 -0.22929675E-05
 -0.20999667E-05  0.92898352E-06  0.74323380E-06
  0.15199517E-05  0.10283954E-05  0.21600383E-05
  0.45791636E-06  0.37198310E-05  0.17138356E-05
 -0.62652215E-07  0.24655484E-05  0.15100963E-05
 -0.51549508E-06  0.69776922E-06  0.99530150E-06
  0.16537336E-05  0.36544752E-06  0.49788777E-06
 -0.96184785E-06  0.25378920E-05 -0.76017939E-06