Amorphous Sb                            
   1.00000000000000     
    22.3519198510770423    0.0000000000000000    0.0000000000000000
     0.0000000000000000   22.3519198510770423    0.0000000000000000
     0.0000000000000000    0.0000000000000000   22.3519198510770423
   In   Te
    60   240
Direct
  0.1923606867988183  0.4622397964872769  0.3713355366595975
  0.0263648076454044  0.3889329909943022  0.0312434681677829
  0.9555342253922097  0.0529084542991690  0.7962066169052602
  0.6982630204936418  0.9918135339908059  0.6308458171726167
  0.6558193270822172  0.9300403191891806  0.2398236549501602
  0.7622104991275518  0.5407584105778549  0.7235929905552638
  0.2448678442965413  0.9802039924279889  0.6316987341143541
  0.4059134714400759  0.3610635401095514  0.7669060519051794
  0.5456820144625073  0.2380386946406083  0.0621282104733863
  0.2262704201751692  0.7112395825533248  0.9085878275640950
  0.4847328989828281  0.8384807879052900  0.5463395698276837
  0.9740769537165054  0.7656602136274858  0.7732464475920553
  0.9176391404041528  0.1228577429793046  0.4981540836619481
  0.6780593541029258  0.8131995198203986  0.6152997391999372
  0.6406324512832458  0.5765629516879418  0.2814622860016273
  0.4323850553935231  0.5955011109353655  0.2419086982949114
  0.8263102488241388  0.0455779395426679  0.3450725240029958
  0.1249354539931590  0.4082172155902149  0.7127170489110548
  0.0406843405058821  0.5864816334460616  0.5469988087454396
  0.0302438568523915  0.0571308905692892  0.3650131259406286
  0.4936710244458040  0.5004403217611348  0.0032275250329498
  0.0669408676287961  0.7816544360457572  0.1469284945758746
  0.3242332416426152  0.4234123371958187  0.9108978100521585
  0.4237866797740559  0.2631266600043649  0.6059971150970477
  0.2734618968759871  0.8279708720797244  0.0885440393862511
  0.5800910946396497  0.2174009182166788  0.9411528509623437
  0.1757530446948786  0.2788271720179392  0.3098217422888132
  0.9289273788521336  0.7074962076677352  0.5538588918047677
  0.9867522270600032  0.5650674959214488  0.1435128191943694
  0.1542464645594765  0.8776755950605826  0.3621902376857385
  0.4092650505009646  0.7296349769539345  0.6378751673164530
  0.1771899940645129  0.2606978298455859  0.0998668154811249
  0.9914640218370341  0.1746853427239153  0.0599826937305737
  0.7014526673312224  0.8645807803870901  0.0677663702374355
  0.1884696662389604  0.9327349695645458  0.7843148339016851
  0.7698762602440706  0.5441605478709759  0.1394352088678735
  0.0149523925037333  0.5626601447206253  0.3714316980604435
  0.6994384451898407  0.6828076510599418  0.9166697091870296
  0.8248770751770501  0.8256852585673803  0.3271800891632598
  0.9391965908060034  0.2538051048465931  0.8055039082265167
  0.2981954383313023  0.9747014295953214  0.4339842016979950
  0.1947196732486717  0.5891005100356278  0.1563026614949239
  0.0252135141914813  0.6750886616042119  0.2068196077300077
  0.1754077991661464  0.2639637948468012  0.5306692241629937
  0.4041692761764141  0.1383124368857350  0.8670936312352673
  0.8480964061586429  0.6350723408456642  0.2946501595332416
  0.8611105524526179  0.2061729379437648  0.0077866649534853
  0.5973681513697067  0.7640706027628824  0.4415773375875189
  0.7999035663548261  0.4575322719497436  0.8806435326933589
  0.8547523791120025  0.9364653147749751  0.5639080042984318
  0.1199885173250188  0.1197526387163755  0.2094231005450146
  0.1784138643811460  0.4473358081070460  0.0404682900203317
  0.8720717801159766  0.3776342658098657  0.1712123854171572
  0.2896960173176614  0.4001604544513351  0.2221641307856091
  0.6496984371070877  0.3800046485401785  0.9699612995512240
  0.8003926345051363  0.1357337534171900  0.7135244489806559
  0.3586055239272704  0.4658903971664590  0.4089961953631089
  0.0244930200491911  0.9071832532542675  0.9140320852343329
  0.7190379907119984  0.3110873695468312  0.3718173162539992
  0.6057246679243358  0.1541887091667168  0.7390390149155035
  0.7504479684047766  0.4246426301253848  0.1799505532336583
  0.5395889785597537  0.2127670678707754  0.5893535384657865
  0.0175556511232182  0.8863873615257218  0.7451859465205509
  0.6344446330522522  0.5961904892222305  0.4079364529607359
  0.9221403243269257  0.1301009210363935  0.3691324460800312
  0.8230523413228097  0.1995299253110354  0.5419427058253764
  0.2626073529243966  0.2738896404912715  0.1955151449398655
  0.4237006947104938  0.0429889655105559  0.7704149541463229
  0.2802305363479032  0.1526332808417266  0.0636731494731652
  0.0843016563039029  0.7662766267274576  0.0206760061902638
  0.1937784532300239  0.6947143637615886  0.6455747369217955
  0.5313700112597122  0.4160047758375496  0.6736552906438517
  0.0154177607579308  0.2615788978220706  0.9611641738803471
  0.7080651417481545  0.4369023657944522  0.7877418106125663
  0.4860903333013173  0.2276733916299194  0.1748160291062766
  0.8479636284693711  0.3056245580045213  0.4000343076808247
  0.9525871423223802  0.8166304133194807  0.9687750386534960
  0.3777669521817802  0.1826033510202218  0.6922112209816417
  0.0170733723075845  0.7320353524468364  0.8888870213136921
  0.9641530173993271  0.8669528540846294  0.6307900942189327
  0.8995253296043133  0.6546204314647361  0.8574428499180308
  0.3825132715092992  0.1975657417943057  0.0079376900399361
  0.4113821122056252  0.3886056813552416  0.6377752962565441
  0.7907055924799302  0.2296579424011163  0.8838405866345134
  0.5300025549856826  0.1109454715741307  0.4715833699582060
  0.2015586431679386  0.7188014310830171  0.0332515616997490
  0.7412671097707039  0.6358525228294850  0.2247887439445153
  0.3171917983360761  0.8891692846443734  0.8018379445284578
  0.4008177428774178  0.9892244839220440  0.5321518222626813
  0.1995022487256907  0.9950485053226545  0.3432007757192889
  0.2896227530145190  0.2024578120716588  0.8510175480057709
  0.8690476707068865  0.3373016433982537  0.8870777197903157
  0.1673210004897260  0.4729844394075868  0.4955674293986865
  0.0193850999546633  0.2023809671288398  0.5347662743583700
  0.3858670849859437  0.9722268851418400  0.3368471215572998
  0.4628640757327875  0.1163939057371216  0.0560359959170620
  0.2956329796818978  0.0105962369471297  0.1741786465292155
  0.5747868530417356  0.0073533393135781  0.0110076716926467
  0.9779904162109428  0.5948272639683237  0.9381388411925623
  0.2670032216149117  0.5674857551471206  0.3567406775044019
  0.2597885315558542  0.8022925838765408  0.3636687851484482
  0.1385926324672338  0.6692517967243520  0.8247744425810027
  0.9073433359613761  0.8314919580687828  0.5005769402868698
  0.9059295347881814  0.3412465812570764  0.0529518344913997
  0.7169011242502629  0.2620959547073922  0.0999462809625564
  0.6703204219478558  0.4155804424198860  0.4443637985421287
  0.3264357680985960  0.3433088006977884  0.0110111107464901
  0.3640557852352356  0.7917394144130685  0.9899469203532696
  0.5787348658241432  0.5729522216933940  0.7760602608364678
  0.7970242965561388  0.7739271615843951  0.4414566089106112
  0.7796211406569775  0.8746889451772950  0.8725813636347699
  0.4431453226140566  0.5569254974793075  0.3690476190410488
  0.1943329808435218  0.1495285261598406  0.7420481325186495
  0.5364742788841969  0.3222741597407797  0.2375380935504355
  0.6573521704539297  0.2711656434305392  0.6864886159443011
  0.8731916837364940  0.5799966938534558  0.0720896045912850
  0.0619748737007900  0.5145017087946162  0.0420344167949799
  0.6503832170232146  0.0673234294244271  0.8282019273882125
  0.1628517054593470  0.6231785981766842  0.4900195417642759
  0.4072331343319072  0.7222763924696389  0.2242785824619404
  0.3922469727841832  0.7566528741165892  0.5158637766417093
  0.7563485993376492  0.3331208914741954  0.7279031935090725
  0.0712649099465053  0.2462209064180089  0.4202841984673094
  0.7278534635171564  0.0436506808795265  0.4242189921416319
  0.4088620616729303  0.1115221254855694  0.5051268629741232
  0.7853707568224426  0.9364984837315600  0.9840644096390724
  0.6908189308684901  0.7459471288654046  0.7945041045574233
  0.2573454360829668  0.5789659624432233  0.7960302337947145
  0.9270543878130443  0.0557023687550138  0.0847772860097630
  0.5813482580028001  0.7435716469944512  0.8573019949957609
  0.6265562437418581  0.5666594410820279  0.8914375693289467
  0.7745613967839149  0.0983648846888427  0.8339306768304758
  0.2551560037266759  0.0601472126995397  0.5315808701108502
  0.1507718471504883  0.8964808369982751  0.6667408190143543
  0.3648112641355963  0.5791114584976369  0.7225120548354110
  0.9250068994218087  0.9282465173070658  0.8236146718725365
  0.4576279217116407  0.3626977599434022  0.0328539930071483
  0.5063326429226019  0.6265499653703519  0.9697694036689138
  0.3632507468603617  0.5318069521739817 -0.0001110864667019
  0.7651284478344028  0.4801518288082608  0.5067482149452629
  0.7873380945870043  0.5872417497911595  0.8527527316931044
  0.6958573840628342  0.1201426908815064  0.6403892413918882
  0.4272212093093661  0.4008349469191268  0.2446866529012139
  0.2939988891733142  0.6190972464723313  0.5078867565498727
  0.2762164397220023  0.3570978520858337  0.5967543296079133
  0.5153794546304351  0.1987660824164163  0.8330526027637766
  0.5165174593469811  0.0280494224885391  0.3730158735393908
  0.7982763320318991  0.9683933765164136  0.1958448210336850
  0.1328958691513056  0.1137061598264665  0.5315366203404734
  0.8040453610998799  0.8411990900334667  0.1529332076635877
  0.8504352377471884  0.5993213106784004  0.4166781527800641
  0.5039363484345694  0.4924695929122713  0.5267190173115840
  0.5983056917501950  0.8019467439217811  0.1380595679024391
  0.3276206070437258  0.2488039822402001  0.5170413508098302
  0.6850519878236941  0.9830117426501369  0.1219161871339761
  0.3295928220338034  0.7573453298718757  0.8441925941696058
  0.7174462901336289  0.9040136371448235  0.5350010457446421
  0.7579365526210428  0.0891128371466793  0.2420634017997608
  0.6547685538303871  0.1545839266539544  0.0893728707316566
  0.3068066878640688  0.6948687451277501  0.7111582972606512
  0.5761188439914887  0.7507609351238733  0.5666579647157589
  0.4482170636482088  0.3881343328602913  0.4674994546447611
  0.2142263353739356  0.0873316797163762  0.9765484325353210
  0.9168013478104392  0.1466907956699129  0.8768045896611379
  0.1615613321925601  0.9676883375834172  0.1230157989961935
  0.8574880452859276  0.6984629529786511  0.1190008001279804
  0.4690761956068989  0.0400571526105446  0.9448357059327165
  0.6524776670321436  0.2513563701453079  0.2774110728039851
  0.6270587180546948  0.8891128217808950  0.4204110367462648
  0.7667413364698917  0.7212988695339764  0.0295143865222214
  0.3008323839596351  0.7035038568685416  0.1626984304135766
  0.4916570281625201  0.7273777538295327  0.3847743175650010
  0.0076550645233685  0.9533999580182991  0.4383057911826910
  0.1336799021769630  0.8514383885589177  0.8673954094763721
  0.5316071736943098  0.9065337174506221  0.1696899151862549
  0.2896268526095351  0.9224032779091582  0.2659564940231976
  0.1760954080449801  0.8448217091888317  0.1873639354023096
  0.5639637238211989  0.5029963140595257  0.1138787406644429
  0.2441921774266493  0.1165948501251407  0.2303397842192704
  0.0061254070936811  0.6583128339659196  0.7159368567549990
  0.2658178700979933  0.8600923045788164  0.4845493376164767
  0.3334698918087420  0.9077751722994659  0.9347470765625203
  0.6491353711611486  0.8636312302654570  0.7277567774275490
  0.6699885268286363  0.6396914608049995  0.6934357439568377
  0.4427278748679004  0.4910433810950301  0.1579215846688710
  0.2868392159304708  0.4920721108846572  0.0938742527227726
  0.9087596784052809  0.5188315698143842  0.3099523426519755
  0.9363840142478167  0.1047074690044010  0.2042075087630665
  0.6303686397700459  0.3300309035701024  0.5345674780813683
  0.6590643812379345  0.1136961565922906  0.9649707050550302
  0.1921419300214494  0.3279835012659116  0.9916976989760239
  0.0493867623792799  0.7103515150601892  0.6070465804831129
  0.0156300631696649  0.3685618447211192  0.3905086685369294
  0.5837260588363168  0.1967468601366345  0.3735575199567727
  0.4791412915157407  0.9318961064479521  0.0587280744019542
  0.4467610627892360  0.6060059340349027  0.5149291334211673
  0.2505397860606223  0.4345182633345787  0.6995481069699592
  0.6820423308274821  0.5529499373334159  0.0433471234177215
  0.8751206055793297  0.5970904237941703  0.6964836905197669
  0.1554053899000054  0.7703506762444392  0.7491151288011753
  0.5233181190856644  0.9419599333083046  0.4856180980711668
  0.0586826327831581  0.0278898249870335  0.9329391556622090
  0.5828054176526305  0.9611473437174628  0.6778171437377192
  0.7201686383551106  0.8133447805121522  0.2498528384029877
  0.4202379636563735  0.2620697922072329  0.4284391316895358
  0.5119046492114900  0.1151866449423005  0.2764909538442129
  0.3039721965584178  0.0475463118522153  0.9015408637571299
  0.0413133028721439  0.0234551937733515  0.2407538362622987
  0.1425311683751610  0.8994092192861556  0.4887975045289959
  0.9609887246040292  0.6694916516133806  0.4234599328299432
  0.9838425133452737  0.3337457577322280  0.5865120575046491
  0.2047366106023096  0.5563151308966361  0.6666240754135813
  0.8846862393257917  0.9381500983120917  0.3010007464432823
  0.9291919202959128  0.4792047567207312  0.9237116245817921
  0.6620299409544851  0.9162185014247740  0.8894221650767394
  0.2115867538567095  0.7335272171212760  0.2490934002142845
  0.9901107196689398  0.1599146745435163  0.6696650884414208
  0.6221534473994610  0.8302887341296006  0.9677752749292108
  0.4444519972155203  0.9047851009420227  0.6536061212770106
  0.1445607746299338  0.7527361849387584  0.5075371867226532
  0.1331470968585153  0.1289386638187226  0.3975307762438360
  0.2965193618205674  0.4936731074218388  0.5240803620999358
  0.2853267720596924  0.3747454667883332  0.3550962748795772
  0.8453821847841122  0.7745905295537364  0.7696495876951117
  0.3178582071258910  0.8761639357208236  0.6555821001689428
  0.4994425310830448  0.6714014198099797  0.7888463309355461
  0.9598744849502643  0.4398216638449332  0.6538334076395128
  0.9864423447187848  0.8809523055160775  0.1603830293738669
  0.8095971682648114  0.9522810480892832  0.6876283128083066
  0.6586488705577508  0.6822282252673357  0.0791483260832028
  0.8045454636322695  0.0515513560754731  0.5242426604356223
  0.1713055578884478  0.4491055387239224  0.1831992670219589
  0.5594404183152065  0.4449375083013249  0.9017955116666989
  0.2158334045647642  0.4996785190938260  0.9238638887793448
  0.5480444027689900  0.7489834755588287  0.2737540482270689
  0.3291861433633660  0.6309424803776403  0.8909351276649087
  0.5526106893749413  0.4853631574095167  0.3909376579334997
  0.8459348279638598  0.2774621765085459  0.2486336745469445
  0.4888639313710547  0.3365328310051115  0.9133008229837105
  0.1168008529180123  0.1451362760074575  0.0810704241862684
  0.0812583540275485  0.3442411606261211  0.1439246372154677
  0.8972264050791172  0.0524279177297583  0.6776668781528443
  0.1003414092596396  0.6104367796458150  0.2912357037980207
  0.2639991408632902  0.0398447260324816  0.7461173169627441
  0.0770675685993100  0.5170508170787721  0.6610106828578728
  0.7559218246720418  0.4414835123714845  0.0011332541388187
  0.6722222183569014  0.2905359230451989  0.8803977456538040
  0.2919738616726398  0.3236269070778038  0.8149135649192747
  0.1032018918734068  0.0884948158470539  0.6649177166870173
  0.9678157346649937  0.4544080874001010  0.2125561700375870
  0.0584896728141293  0.2215887623826266  0.2582037168104096
  0.7086249218529158  0.4591300121191831  0.6168064746837336
  0.0007085217747503  0.3897183378014901  0.7734401685924478
  0.5559162592238346  0.6352814102676391  0.2065581468370144
  0.4802092214567965  0.7977935024733501  0.7173021725582218
  0.5267755990789769  0.3213420295160650  0.7614063999657384
  0.0847275367875544  0.0414927162910619  0.8094002633084864
  0.0733749798781258  0.2468151861074556  0.7907946925171300
  0.0319837784366406  0.4765365118533467  0.4680755910367840
  0.5992063000518422  0.4563486151699219  0.2749683393186956
  0.2537878803399469  0.2369742526660923  0.6622346435825267
  0.8846973485673373  0.9000535021538150  0.0551514932410437
  0.0459187626544956  0.9461459530735359  0.0719989521826641
  0.4765500212930733  0.7879051138448366  0.0538176284387517
  0.1005942852048634  0.4067804733351894  0.3013780207698494
  0.8761457331976398  0.2384576850669415  0.6935462343270026
  0.6216292515207785  0.3486368950523147  0.0899953391242841
  0.6959531110393473  0.7125443906328721  0.3808521350496871
  0.4433446618473599  0.6656344146862094  0.0714240191115220
  0.0997784871477803  0.1933845043535056  0.9005707322451939
  0.6260272369786787  0.5532716969850936  0.6083674143440515
  0.6556264225331262  0.0444490068938313  0.3010994917729732
  0.0958049112641808  0.3032908811343870  0.6445606441881822
  0.9257357184829231  0.4914996220420798  0.7976228300204703
  0.3690324905912705  0.2491749476177831  0.3139121596486795
  0.8571240405548826  0.7828961162839448  0.6428380202246091
  0.3886754630736462  0.1269842094734371  0.3013738659228021
  0.1018848402583224  0.7182538338314651  0.3901784420155551
  0.8373016169730598  0.1891228023837506  0.1573766846918621
  0.3652553982260437  0.8873208106102691  0.1622183799278957
  0.3017752480084975  0.5421779828509489  0.2400094669026817
  0.1241624945843791  0.4745952414563377  0.8415540060090562
  0.2279043095825715  0.9273928786779816  0.0181787728490487
  0.7425205332250984  0.5035113049749828  0.3643937598139740
  0.7928784746507824  0.4022642285989155  0.3050545165839177
  0.8441054879324591  0.3214329576470583  0.5243736387861512
  0.6674207230387664  0.2306500411383123  0.4680904682406307
  0.0640570555097501  0.3781195765982197  0.9007954614438256
  0.4027081553992064  0.4760528699570463  0.8238912075854499
  0.5204580222435006  0.9957792953442840  0.8304869549692603
  0.7499965550357086  0.7069132201193883  0.6082757569799675
  0.5517733629657037  0.8850680384013599  0.3136203123849255
  0.0473961240986966  0.8177573455141495  0.3330363821596183
  0.4952119644796098  0.1186434357979985  0.6715114325179994
  0.9767440654704171  0.0126699422067943  0.5444972723012340
  0.9843750209844504  0.2616567577287132  0.1584821917996517
  0.8124115245957999  0.0868032160823017  0.0514428121014863
  0.8936264490099074  0.5826515985092559  0.5747153025222469
  0.9128809674641936  0.7378309651479743  0.2620916556964571
  0.4731957562530015  0.6185545790028822  0.6389629656956213
 
  0.00000000E+00  0.00000000E+00  0.00000000E+00
  0.00000000E+00  0.00000000E+00  0.00000000E+00
  0.00000000E+00  0.00000000E+00  0.00000000E+00
  0.00000000E+00  0.00000000E+00  0.00000000E+00
  0.00000000E+00  0.00000000E+00  0.00000000E+00
  0.00000000E+00  0.00000000E+00  0.00000000E+00
  0.00000000E+00  0.00000000E+00  0.00000000E+00
  0.00000000E+00  0.00000000E+00  0.00000000E+00
  0.00000000E+00  0.00000000E+00  0.00000000E+00
  0.00000000E+00  0.00000000E+00  0.00000000E+00
  0.00000000E+00  0.00000000E+00  0.00000000E+00
  0.00000000E+00  0.00000000E+00  0.00000000E+00
  0.00000000E+00  0.00000000E+00  0.00000000E+00
  0.00000000E+00  0.00000000E+00  0.00000000E+00
  0.00000000E+00  0.00000000E+00  0.00000000E+00
  0.00000000E+00  0.00000000E+00  0.00000000E+00
  0.00000000E+00  0.00000000E+00  0.00000000E+00
  0.00000000E+00  0.00000000E+00  0.00000000E+00
  0.00000000E+00  0.00000000E+00  0.00000000E+00
  0.00000000E+00  0.00000000E+00  0.00000000E+00
  0.00000000E+00  0.00000000E+00  0.00000000E+00
  0.00000000E+00  0.00000000E+00  0.00000000E+00
  0.00000000E+00  0.00000000E+00  0.00000000E+00
  0.00000000E+00  0.00000000E+00  0.00000000E+00
  0.00000000E+00  0.00000000E+00  0.00000000E+00
  0.00000000E+00  0.00000000E+00  0.00000000E+00
  0.00000000E+00  0.00000000E+00  0.00000000E+00
  0.00000000E+00  0.00000000E+00  0.00000000E+00
  0.00000000E+00  0.00000000E+00  0.00000000E+00
  0.00000000E+00  0.00000000E+00  0.00000000E+00
  0.00000000E+00  0.00000000E+00  0.00000000E+00
  0.00000000E+00  0.00000000E+00  0.00000000E+00
  0.00000000E+00  0.00000000E+00  0.00000000E+00
  0.00000000E+00  0.00000000E+00  0.00000000E+00
  0.00000000E+00  0.00000000E+00  0.00000000E+00
  0.00000000E+00  0.00000000E+00  0.00000000E+00
  0.00000000E+00  0.00000000E+00  0.00000000E+00
  0.00000000E+00  0.00000000E+00  0.00000000E+00
  0.00000000E+00  0.00000000E+00  0.00000000E+00
  0.00000000E+00  0.00000000E+00  0.00000000E+00
  0.00000000E+00  0.00000000E+00  0.00000000E+00
  0.00000000E+00  0.00000000E+00  0.00000000E+00
  0.00000000E+00  0.00000000E+00  0.00000000E+00
  0.00000000E+00  0.00000000E+00  0.00000000E+00
  0.00000000E+00  0.00000000E+00  0.00000000E+00
  0.00000000E+00  0.00000000E+00  0.00000000E+00
  0.00000000E+00  0.00000000E+00  0.00000000E+00
  0.00000000E+00  0.00000000E+00  0.00000000E+00
  0.00000000E+00  0.00000000E+00  0.00000000E+00
  0.00000000E+00  0.00000000E+00  0.00000000E+00
  0.00000000E+00  0.00000000E+00  0.00000000E+00
  0.00000000E+00  0.00000000E+00  0.00000000E+00
  0.00000000E+00  0.00000000E+00  0.00000000E+00
  0.00000000E+00  0.00000000E+00  0.00000000E+00
  0.00000000E+00  0.00000000E+00  0.00000000E+00
  0.00000000E+00  0.00000000E+00  0.00000000E+00
  0.00000000E+00  0.00000000E+00  0.00000000E+00
  0.00000000E+00  0.00000000E+00  0.00000000E+00
  0.00000000E+00  0.00000000E+00  0.00000000E+00
  0.00000000E+00  0.00000000E+00  0.00000000E+00
  0.00000000E+00  0.00000000E+00  0.00000000E+00
  0.00000000E+00  0.00000000E+00  0.00000000E+00
  0.00000000E+00  0.00000000E+00  0.00000000E+00
  0.00000000E+00  0.00000000E+00  0.00000000E+00
  0.00000000E+00  0.00000000E+00  0.00000000E+00
  0.00000000E+00  0.00000000E+00  0.00000000E+00
  0.00000000E+00  0.00000000E+00  0.00000000E+00
  0.00000000E+00  0.00000000E+00  0.00000000E+00
  0.00000000E+00  0.00000000E+00  0.00000000E+00
  0.00000000E+00  0.00000000E+00  0.00000000E+00
  0.00000000E+00  0.00000000E+00  0.00000000E+00
  0.00000000E+00  0.00000000E+00  0.00000000E+00
  0.00000000E+00  0.00000000E+00  0.00000000E+00
  0.00000000E+00  0.00000000E+00  0.00000000E+00
  0.00000000E+00  0.00000000E+00  0.00000000E+00
  0.00000000E+00  0.00000000E+00  0.00000000E+00
  0.00000000E+00  0.00000000E+00  0.00000000E+00
  0.00000000E+00  0.00000000E+00  0.00000000E+00
  0.00000000E+00  0.00000000E+00  0.00000000E+00
  0.00000000E+00  0.00000000E+00  0.00000000E+00
  0.00000000E+00  0.00000000E+00  0.00000000E+00
  0.00000000E+00  0.00000000E+00  0.00000000E+00
  0.00000000E+00  0.00000000E+00  0.00000000E+00
  0.00000000E+00  0.00000000E+00  0.00000000E+00
  0.00000000E+00  0.00000000E+00  0.00000000E+00
  0.00000000E+00  0.00000000E+00  0.00000000E+00
  0.00000000E+00  0.00000000E+00  0.00000000E+00
  0.00000000E+00  0.00000000E+00  0.00000000E+00
  0.00000000E+00  0.00000000E+00  0.00000000E+00
  0.00000000E+00  0.00000000E+00  0.00000000E+00
  0.00000000E+00  0.00000000E+00  0.00000000E+00
  0.00000000E+00  0.00000000E+00  0.00000000E+00
  0.00000000E+00  0.00000000E+00  0.00000000E+00
  0.00000000E+00  0.00000000E+00  0.00000000E+00
  0.00000000E+00  0.00000000E+00  0.00000000E+00
  0.00000000E+00  0.00000000E+00  0.00000000E+00
  0.00000000E+00  0.00000000E+00  0.00000000E+00
  0.00000000E+00  0.00000000E+00  0.00000000E+00
  0.00000000E+00  0.00000000E+00  0.00000000E+00
  0.00000000E+00  0.00000000E+00  0.00000000E+00
  0.00000000E+00  0.00000000E+00  0.00000000E+00
  0.00000000E+00  0.00000000E+00  0.00000000E+00
  0.00000000E+00  0.00000000E+00  0.00000000E+00
  0.00000000E+00  0.00000000E+00  0.00000000E+00
  0.00000000E+00  0.00000000E+00  0.00000000E+00
  0.00000000E+00  0.00000000E+00  0.00000000E+00
  0.00000000E+00  0.00000000E+00  0.00000000E+00
  0.00000000E+00  0.00000000E+00  0.00000000E+00
  0.00000000E+00  0.00000000E+00  0.00000000E+00
  0.00000000E+00  0.00000000E+00  0.00000000E+00
  0.00000000E+00  0.00000000E+00  0.00000000E+00
  0.00000000E+00  0.00000000E+00  0.00000000E+00
  0.00000000E+00  0.00000000E+00  0.00000000E+00
  0.00000000E+00  0.00000000E+00  0.00000000E+00
  0.00000000E+00  0.00000000E+00  0.00000000E+00
  0.00000000E+00  0.00000000E+00  0.00000000E+00
  0.00000000E+00  0.00000000E+00  0.00000000E+00
  0.00000000E+00  0.00000000E+00  0.00000000E+00
  0.00000000E+00  0.00000000E+00  0.00000000E+00
  0.00000000E+00  0.00000000E+00  0.00000000E+00
  0.00000000E+00  0.00000000E+00  0.00000000E+00
  0.00000000E+00  0.00000000E+00  0.00000000E+00
  0.00000000E+00  0.00000000E+00  0.00000000E+00
  0.00000000E+00  0.00000000E+00  0.00000000E+00
  0.00000000E+00  0.00000000E+00  0.00000000E+00
  0.00000000E+00  0.00000000E+00  0.00000000E+00
  0.00000000E+00  0.00000000E+00  0.00000000E+00
  0.00000000E+00  0.00000000E+00  0.00000000E+00
  0.00000000E+00  0.00000000E+00  0.00000000E+00
  0.00000000E+00  0.00000000E+00  0.00000000E+00
  0.00000000E+00  0.00000000E+00  0.00000000E+00
  0.00000000E+00  0.00000000E+00  0.00000000E+00
  0.00000000E+00  0.00000000E+00  0.00000000E+00
  0.00000000E+00  0.00000000E+00  0.00000000E+00
  0.00000000E+00  0.00000000E+00  0.00000000E+00
  0.00000000E+00  0.00000000E+00  0.00000000E+00
  0.00000000E+00  0.00000000E+00  0.00000000E+00
  0.00000000E+00  0.00000000E+00  0.00000000E+00
  0.00000000E+00  0.00000000E+00  0.00000000E+00
  0.00000000E+00  0.00000000E+00  0.00000000E+00
  0.00000000E+00  0.00000000E+00  0.00000000E+00
  0.00000000E+00  0.00000000E+00  0.00000000E+00
  0.00000000E+00  0.00000000E+00  0.00000000E+00
  0.00000000E+00  0.00000000E+00  0.00000000E+00
  0.00000000E+00  0.00000000E+00  0.00000000E+00
  0.00000000E+00  0.00000000E+00  0.00000000E+00
  0.00000000E+00  0.00000000E+00  0.00000000E+00
  0.00000000E+00  0.00000000E+00  0.00000000E+00
  0.00000000E+00  0.00000000E+00  0.00000000E+00
  0.00000000E+00  0.00000000E+00  0.00000000E+00
  0.00000000E+00  0.00000000E+00  0.00000000E+00
  0.00000000E+00  0.00000000E+00  0.00000000E+00
  0.00000000E+00  0.00000000E+00  0.00000000E+00
  0.00000000E+00  0.00000000E+00  0.00000000E+00
  0.00000000E+00  0.00000000E+00  0.00000000E+00
  0.00000000E+00  0.00000000E+00  0.00000000E+00
  0.00000000E+00  0.00000000E+00  0.00000000E+00
  0.00000000E+00  0.00000000E+00  0.00000000E+00
  0.00000000E+00  0.00000000E+00  0.00000000E+00
  0.00000000E+00  0.00000000E+00  0.00000000E+00
  0.00000000E+00  0.00000000E+00  0.00000000E+00
  0.00000000E+00  0.00000000E+00  0.00000000E+00
  0.00000000E+00  0.00000000E+00  0.00000000E+00
  0.00000000E+00  0.00000000E+00  0.00000000E+00
  0.00000000E+00  0.00000000E+00  0.00000000E+00
  0.00000000E+00  0.00000000E+00  0.00000000E+00
  0.00000000E+00  0.00000000E+00  0.00000000E+00
  0.00000000E+00  0.00000000E+00  0.00000000E+00
  0.00000000E+00  0.00000000E+00  0.00000000E+00
  0.00000000E+00  0.00000000E+00  0.00000000E+00
  0.00000000E+00  0.00000000E+00  0.00000000E+00
  0.00000000E+00  0.00000000E+00  0.00000000E+00
  0.00000000E+00  0.00000000E+00  0.00000000E+00
  0.00000000E+00  0.00000000E+00  0.00000000E+00
  0.00000000E+00  0.00000000E+00  0.00000000E+00
  0.00000000E+00  0.00000000E+00  0.00000000E+00
  0.00000000E+00  0.00000000E+00  0.00000000E+00
  0.00000000E+00  0.00000000E+00  0.00000000E+00
  0.00000000E+00  0.00000000E+00  0.00000000E+00
  0.00000000E+00  0.00000000E+00  0.00000000E+00
  0.00000000E+00  0.00000000E+00  0.00000000E+00
  0.00000000E+00  0.00000000E+00  0.00000000E+00
  0.00000000E+00  0.00000000E+00  0.00000000E+00
  0.00000000E+00  0.00000000E+00  0.00000000E+00
  0.00000000E+00  0.00000000E+00  0.00000000E+00
  0.00000000E+00  0.00000000E+00  0.00000000E+00
  0.00000000E+00  0.00000000E+00  0.00000000E+00
  0.00000000E+00  0.00000000E+00  0.00000000E+00
  0.00000000E+00  0.00000000E+00  0.00000000E+00
  0.00000000E+00  0.00000000E+00  0.00000000E+00
  0.00000000E+00  0.00000000E+00  0.00000000E+00
  0.00000000E+00  0.00000000E+00  0.00000000E+00
  0.00000000E+00  0.00000000E+00  0.00000000E+00
  0.00000000E+00  0.00000000E+00  0.00000000E+00
  0.00000000E+00  0.00000000E+00  0.00000000E+00
  0.00000000E+00  0.00000000E+00  0.00000000E+00
  0.00000000E+00  0.00000000E+00  0.00000000E+00
  0.00000000E+00  0.00000000E+00  0.00000000E+00
  0.00000000E+00  0.00000000E+00  0.00000000E+00
  0.00000000E+00  0.00000000E+00  0.00000000E+00
  0.00000000E+00  0.00000000E+00  0.00000000E+00
  0.00000000E+00  0.00000000E+00  0.00000000E+00
  0.00000000E+00  0.00000000E+00  0.00000000E+00
  0.00000000E+00  0.00000000E+00  0.00000000E+00
  0.00000000E+00  0.00000000E+00  0.00000000E+00
  0.00000000E+00  0.00000000E+00  0.00000000E+00
  0.00000000E+00  0.00000000E+00  0.00000000E+00
  0.00000000E+00  0.00000000E+00  0.00000000E+00
  0.00000000E+00  0.00000000E+00  0.00000000E+00
  0.00000000E+00  0.00000000E+00  0.00000000E+00
  0.00000000E+00  0.00000000E+00  0.00000000E+00
  0.00000000E+00  0.00000000E+00  0.00000000E+00
  0.00000000E+00  0.00000000E+00  0.00000000E+00
  0.00000000E+00  0.00000000E+00  0.00000000E+00
  0.00000000E+00  0.00000000E+00  0.00000000E+00
  0.00000000E+00  0.00000000E+00  0.00000000E+00
  0.00000000E+00  0.00000000E+00  0.00000000E+00
  0.00000000E+00  0.00000000E+00  0.00000000E+00
  0.00000000E+00  0.00000000E+00  0.00000000E+00
  0.00000000E+00  0.00000000E+00  0.00000000E+00
  0.00000000E+00  0.00000000E+00  0.00000000E+00
  0.00000000E+00  0.00000000E+00  0.00000000E+00
  0.00000000E+00  0.00000000E+00  0.00000000E+00
  0.00000000E+00  0.00000000E+00  0.00000000E+00
  0.00000000E+00  0.00000000E+00  0.00000000E+00
  0.00000000E+00  0.00000000E+00  0.00000000E+00
  0.00000000E+00  0.00000000E+00  0.00000000E+00
  0.00000000E+00  0.00000000E+00  0.00000000E+00
  0.00000000E+00  0.00000000E+00  0.00000000E+00
  0.00000000E+00  0.00000000E+00  0.00000000E+00
  0.00000000E+00  0.00000000E+00  0.00000000E+00
  0.00000000E+00  0.00000000E+00  0.00000000E+00