Ge Sb Te                                
   1.00000000000000     
    22.0344875509870768    0.0000000000000000    0.0000000000000000
     0.0000000000000000   22.0344875509870768    0.0000000000000000
     0.0000000000000000    0.0000000000000000   22.0344875509870768
   Ge   Sb   Te
    66    66   165
Direct
  0.7065777453776558  0.7676460655408052  0.8665684530579940
  0.2950331371076973  0.3495127346522636  0.4725836814145362
  0.3792408742708235  0.2560131053729878  0.7480333400091987
  0.9066275718195134  0.2725268967215070  0.3735004968822104
  0.4094495694475181  0.8624506639236896  0.6859103591590677
  0.4182909627362130  0.2122899553274489  0.5046740534038213
  0.9316773994523250  0.6090343835724584  0.9119755191234388
  0.3430456739740361  0.6753512786361329  0.1588223712795454
  0.6775271346478071  0.5466114154387477  0.1753030792528573
  0.5925171352384998  0.2724833162769172  0.5974589562283711
  0.6812808344074318  0.6911800559188410  0.7302933466453593
  0.4281860390910185  0.1001520017545150  0.2669605477341250
  0.4106709869553404  0.4261647065744530  0.6670853234826445
  0.3540231957959747  0.8896931428522797  0.9536887809399172
  0.0099555355364108  0.7906905282277753  0.1124236237370495
  0.1739140312944248  0.2912068748414763  0.7450891478710945
  0.8053971153950995  0.2359722875250842  0.7953542871540717
  0.9705732738642799  0.2895948507229240  0.7888698601794124
  0.4136080503723398  0.3561473557047691  0.1592114044833171
  0.4523795843671308  0.5490614753062488  0.4713495584429387
  0.0936102604080352  0.8291745358412753  0.2787475501632140
  0.7139333977254492  0.4436138974403641  0.6210178956812694
  0.1993599573104494  0.9282186684533591  0.7955157202600657
  0.6227733070831436  0.4396711068861241  0.3215454166776356
  0.7115479220149358  0.5963457792427604  0.8750932922058149
  0.5161256765425400  0.8454585404338248  0.3371157550576180
  0.8975390050328993  0.4374468347995726  0.0728227122276763
  0.0415641429200305  0.2974316382180041  0.0778237669413066
  0.8105457694792091  0.3436272477666898  0.3446778588443760
  0.5483664646625201  0.7839088709898153  0.1533365351613763
  0.0259373705468977  0.8428807191392501  0.4314671666541248
  0.4870385232857306  0.5226309637355914  0.2358373078751798
  0.7537351391301025  0.0050286587912757  0.4454996124324176
  0.9203768079039675  0.1053343643336927  0.7296201811749462
  0.5482149514560838  0.5531393990904308  0.8100228452883078
  0.9449317962511745  0.1065466241823531  0.4542947052088360
  0.4638750521538186  0.8983167329092098  0.5176154080377935
  0.6786860141458955  0.1173643253884298  0.0900401059643253
  0.3238344235738258  0.0055357902113190  0.5670020096686301
  0.5438737581914193  0.9830973344545206  0.7648204566076119
  0.7497364277306947  0.2296913432524550  0.9896663799929379
  0.1981606525932406  0.5725607927033733  0.2142228550758830
  0.2112215927929959  0.9532283231088630  0.3500060431225523
  0.8866422985332169  0.1125987283844226  0.3506702421650974
  0.7392261303103744  0.6571536195238410  0.6038310617186272
  0.2544288017326032  0.1020964713269471  0.2496060362142115
  0.0025375080456710  0.6386507666215421  0.5621229084663538
  0.4192404501744710  0.5979949681234989  0.9184028885270143
  0.8904261642326335  0.7955307921740884  0.6075704491811118
  0.9818409193091865  0.4221235276917322  0.8889964077992150
  0.6618897235533313  0.2129919080836974  0.7002036546750555
  0.3157925796991951  0.5052659157335138  0.8251139586986808
  0.5092945544725028  0.0592978678264474  0.5649732618081859
  0.7268653022345477  0.5854563839983847  0.3586537670296145
  0.3293052961765530  0.5768963267781869  0.0834050771541973
  0.0620279724142556  0.0155937173554442  0.7940872232993701
  0.7386255490189555  0.8245867933019997  0.4981855790323263
  0.9815813574773975  0.9007244019444438  0.7049941223975890
  0.2887601927640535  0.1960592342867745  0.1732899222006320
  0.4523792599054579  0.7832844560097445  0.0624326025445251
  0.0901007637463727  0.2315460763356469  0.9216043920464684
  0.9261299175277774  0.9488300354343061  0.6092781011892455
  0.7488414379952900  0.7145964608222918  0.1125144806964110
  0.3489011293966096  0.5850443629762214  0.2879910904980493
  0.4712042082066159  0.7145681226416044  0.7513651175551450
  0.1681902791878668  0.9303884697310242  0.5125981561880373
  0.1869029770088711  0.1927225025480377  0.0739207697773305
  0.8604530750477729  0.8237822734144810  0.4606434912208657
  0.5202804548684044  0.4817476635283365  0.5842076436380409
  0.9377658760799724  0.6598219007394757  0.4571427894781154
  0.2008658272591783  0.8480709794234743  0.9765921920689079
  0.6153923804083210  0.9389549323347789  0.2060363638664589
  0.8118274822503985  0.6363831898192258  0.5027077110524767
  0.6680703551132986  0.9425649611557232  0.9166768867248879
  0.8078715161289569  0.4133123750518132  0.8412535551883658
  0.0654496417180967  0.7569151505770119  0.6977514494992261
  0.8463927081399375  0.9760418345077032  0.0071821788791982
  0.4873335156055951  0.8614729284665779  0.8987060029198010
  0.0738018713464420  0.0826018059835731  0.5221852603920683
  0.8194348847653493  0.0262961387548632  0.2085543362066941
  0.2684198365962469  0.9745507042606757  0.7029426950684691
  0.1075991267535916  0.2344627612419926  0.2699761023799302
  0.5963535533244194  0.8814116627263167  0.0870491288067989
  0.9652692091820265  0.0681911682674969  0.6137396248141685
  0.8835278225837958  0.7175302640602270  0.9595021700622837
  0.9258045465369508  0.8751548010908899  0.1574170196100927
  0.1832700968916768  0.7604832123177384  0.4697385035823596
  0.3670615772733218  0.2098432856142007  0.8622048300998353
  0.1997536211257546  0.5053489885352620  0.5925441108798797
  0.1300222258481008  0.4430245113889933  0.2980411948054478
  0.6252504233322943  0.1366972077160088  0.3248275082780518
  0.4888565904706501  0.3365503600949563  0.3659362119974476
  0.2856758077991983  0.5376402019714936  0.4366478683682186
  0.4921087766174833  0.0769355146904794  0.0800717681725129
  0.2366250097793993  0.1349070298864996  0.7570911192201055
  0.6743401945751192  0.1883541736219158  0.4356617078241440
  0.2390457809582121  0.9168983024170142  0.1664117531499303
  0.7890579104224992  0.8991474819066584  0.7633780175000280
  0.0794960794947334  0.4480340302465481  0.5168773543436224
  0.3648379857939923  0.9212183005587580  0.3038640417190170
  0.3372925986783453  0.6311578320928192  0.7630946522638912
  0.7856466025370747  0.3032512677840324  0.1366425439690452
  0.6690366386493839  0.1146641387766648  0.8535349143247287
  0.8294779099175036  0.2257436524442689  0.4669670138679664
  0.3927183777484833  0.4201015622668982  0.8776103482749115
  0.2238103868556583  0.6169629024433312  0.9027285973909487
  0.8054532940643924  0.5144469212460832  0.4509709250148525
  0.4552418390667894  0.4886343844086620  0.0383388329495442
  0.6914061627253424  0.5477138109259203  0.6890694743836441
  0.1569811413377018  0.1033922530144108  0.6223652287498409
  0.9558208167419433  0.4331101339689728  0.4654682503889905
  0.9312747801824754  0.4444586332410209  0.2502666492864182
  0.2945805789927467  0.2337453077632337  0.3394597609346893
  0.0153622356690124  0.1049885559059286  0.0188719567236078
  0.6588382007780168  0.4186069071226043  0.0651933766184702
  0.5407097839253600  0.7594710499680047  0.4714390428748106
  0.0576886532794797  0.7058709731809354  0.8219937069261053
  0.2037171225411128  0.6361402724907789  0.7682667062105664
  0.1435804571535170  0.2814855651355662  0.5608507562301508
  0.7981272545893181  0.3413474042669397  0.6450821136429132
  0.6107320028450408  0.5833463079284313  0.5670866484735531
  0.0566997328810433  0.4955308398131802  0.1275244304832553
  0.5650593446369699  0.2261993016495422  0.9771883296531791
  0.5184845635200935  0.0271945064968840  0.4303156598807600
  0.1159231304286124  0.6792374665026900  0.6034155364847057
  0.8169993968554851  0.5952116956187045  0.6848780561301688
  0.1339776699503678  0.7011614758318925  0.9598185302319522
  0.9400125114094757  0.7419396011004946  0.2925711348511045
  0.4748473425923209  0.2208195045125923  0.6744848968441657
  0.3142573219606146  0.5600994564351622  0.6305727431681144
  0.6010505755031345  0.6062758274750616  0.0310770762654249
  0.3906756396766788  0.2613492533843880  0.0112575372504085
  0.4121011732553670  0.1294773809798919  0.6039887921687087
  0.3327543829892294  0.5191003198493260  0.9649588357630832
  0.7663467203886992  0.0911955390900022  0.3335922679181791
  0.5459544441537328  0.1106277372903205  0.7505016211959968
 -0.0097394265360950  0.8739976204010533  0.9824481919093430
  0.2539040871045893  0.4847249503987822  0.2739367925853669
  0.0962151696816516  0.9459653759496924  0.4035797866217173
  0.1701873879522879  0.5747244316170317  0.4860249028555383
  0.0992260418462576  0.9269952035048323  0.9373758129004186
  0.2785020525134637  0.2483350428186319  0.6793284541368241
  0.2823730921211133  0.8920825256250905  0.6059284820010750
  0.0765724196974114  0.5238472168246734  0.8739531853204194
  0.2652019151826459  0.9534761943637098  0.0151993863469963
  0.1681076651171298  0.6956868396093717  0.0849731162377112
  0.6806544325374573  0.8181550634530977  0.7534168994553710
  0.4770887027767680  0.5332260238718625  0.6977901943532632
  0.6615742971071338  0.4938825562954309  0.8025604802059373
  0.8715561385204801  0.5065930364197214  0.9294251589122086
  0.7817834987920387  0.8777994903922731  0.9017990099119129
  0.8111623199130049  0.4612730451847341  0.2999510240354761
  0.7802829716137916  0.3614253731401141  0.0218353385788231
  0.9263845255919511  0.9328838405511138  0.4874413787956332
  0.7460745094769559  0.1324278047790600  0.7479904166244266
  0.0240739160595944  0.1402938572888313  0.8004928670540213
 -0.0169281198881131  0.4109687152864613  0.7590923643661535
  0.8875321110766772  0.3219189382466117  0.8829023194997964
  0.0427054580311985  0.6014146816100048  0.9756008674471384
  0.7533289026457277  0.6825187837487189  0.9915978234257798
  0.6112879809264720  0.8146153071907178  0.2595043319072889
  0.9777129061919462  0.2314859086075826  0.9894709975044392
  0.8206773012122485  0.8746323499464720  0.3485780643161333
  0.4387790290003621  0.6506487962705775  0.2317898049675074
  0.0928795850826671  0.2063954572236858  0.6882578999715718
  0.7791713847386164  0.6680508307574682  0.2877980142604375
  0.5555925757459076  0.6861182509464625  0.6594017393872305
  0.0448871783762899  0.7250795294210478  0.2147212440708204
  0.3336951786831271  0.6897363269836208  0.8842632496273761
  0.3112767612682650  0.3111704179984156  0.0982763872015455
  0.2369628811951561  0.8501732924284566  0.2815389909614157
  0.3292701887263579  0.4568854486484102  0.5409199445246138
  0.9601535685113076  0.2273495146829457  0.4821033364115446
 -0.0103423301957041  0.3643757814562817  0.3587907349548287
  0.8569653374657717  0.0980623931965904  0.5382994567086022
  0.9173821966070007  0.9843741627285363  0.7719452539573055
  0.5958290187726712  0.7819083064812836  0.5861328207725084
  0.6836373049848304  0.4871908936999547  0.5077507839801086
  0.9338184557315740  0.5370143521796413  0.1503225934766386
  0.9361477152620042  0.5453476827599306  0.3952874922989303
  0.5621132659754663  0.5121800954118280  0.1147738132042331
  0.4962939986791099  0.2044381248524242  0.8586409273096077
  0.4798554378407094  0.2074256682089995  0.0919937144390399
  0.0847828175105421  0.5593710440514504  0.2575864896572183
  0.9346208480625777  0.6870977163890166  0.6494609712768120
  0.5824814956692960  0.0824271996743332  0.1729808610203723
  0.3712208321819417  0.9406418577110908  0.7717212739714460
  0.2238562079850989  0.0432092115223742  0.4995666664537276
  0.0797129260946575  0.1820263503148744  0.1531152582367521
  0.3858730564306870  0.4850067924754423  0.1575453074816858
  0.7900141281772051  0.6087307878581171  0.1725731267924199
  0.0929114285096805  0.0001389793733623  0.6673012818422271
  0.1289529846037181  0.8217433749383350  0.0998846947991555
  0.7543322025803311  0.0954528627398339  0.9546363232833869
  0.6152264217372763  0.6717428445622153  0.8377488403456531
  0.1681377399905571  0.4714245140674359  0.9510041482764209
  0.7249616537038597  0.3260210605389802  0.7533501808308144
  0.4115558119284512  0.8020456827332260  0.2758669977997719
  0.4895023595552187  0.3571809255788894  0.0604066483235915
  0.5139090957093819  0.9854604799067448  0.8860517556188940
  0.1702911491558115  0.1403660676595633  0.3327762152734824
  0.0980882095323430  0.7448027836629055  0.3721487472253865
  0.3336508982594795  0.7776782994879625  0.0089476555299918
  0.3564225493046376  0.6341516988669156  0.4858313755378700
  0.5725824119223736  0.8983768332202648  0.4629577580356619
  0.4510923938851777  0.6312473837099704  0.0356310761622902
  0.7908803111048877  0.6641973298806926  0.8008536369711680
  0.9120970879019761  0.3448651417875948  0.1652545520098716
  0.8798462423662270  0.2433919539268682  0.6962272162124744
  0.7277277166143328  0.6954539990388212  0.4235676265146280
  0.1976212747662558  0.7545747127442146  0.7168237465014234
  0.3103161310223919  0.1553105693726435  0.9936431827125632
  0.6055957084184556  0.0918361940068059  0.6364796196832752
  0.1738302730139373  0.0109754982193799  0.2291887534006839
  0.4194782114512307  0.5120639939597951  0.3561865455625596
  0.3611369437658588  0.7994793129610884  0.1473000442108109
  0.8076719977007160  0.9725524022989936  0.6436770102593792
  0.0533219777758724  0.9615957145743929  0.0619562708374989
  0.8405054815206887  0.1925422609919054  0.0876451354115502
  0.8610931258830964  0.5036304724495725  0.5746648189723624
  0.3588520947171238  0.9657558612615420  0.1822084042828991
  0.2149862577957154  0.3053325874958299  0.2556979510010652
  0.7261277048841955  0.9865045344587492  0.0564552135188324
  0.7128171527950529  0.5325246594686640  0.0306201196456116
  0.0350603020730594  0.3474809182656562  0.5868923319467585
  0.2313543143713353  0.4190047272415972  0.8554806283318045
  0.6612406271248058  0.2437257952124687  0.0792625158862409
  0.6699589777525834  0.9809570921656493  0.7903392798353058
 -0.0242466180659880  0.6077492233115914  0.7994211081053632
  0.8619867944608469  0.4466258481138182  0.7285097525054266
  0.9313658195740651  0.0309177075617635  0.2731360932962909
  0.4686792642204666  0.9055146612375954  0.0388828684308880
  0.6394670104676775  0.2465658123389592  0.2580715525446179
  0.6454604323519312  0.0639309725181286  0.4765084387819302
  0.4415068758676591  0.3091798801865234  0.5826318397635344
  0.3658049525709405  0.7349177517541332  0.6874928589501805
  0.5641857013635079  0.2408331377671878  0.4816917094357997
  0.6636892271440405  0.2455578880689943  0.8846365816091130
  0.0929860055278453  0.8079073477335861  0.5486016228657498
  0.1684059934677024  0.3552396547259546  0.4520474743794965
  0.2555431091511483  0.8661510329879560  0.4477220432324385
  0.5523320008428165  0.6218768046858788  0.4528730337799262
  0.4918712821055530  0.9492089947583281  0.6243414595754956
  0.3866909903000598  0.9725117746100563  0.4603473704623525
  0.7226591613932277  0.9350622231040494  0.5554743828612663
  0.0907432331285557  0.8739584838496021  0.8095800244826039
  0.1058981688406699  0.1963116305936813  0.4700038442746682
  0.6896878731172822  0.3106995896055807  0.3562364799768651
  0.1501922013823644  0.3013662646268970  0.0096967871464974
  0.6264399768813300  0.6836703114390053  0.1344316932812857
  0.5441267733290787  0.4324362244424125  0.4289663633504076
  0.6109795241694691  0.8237322209393108  0.9346877977841855
  0.4961196984159560  0.9645281416406135  0.3003610906564185
  0.7683958768990117  0.7752221616356462  0.6119202356994745
  0.3541272179344905  0.0998064488498602  0.7979365294291992
  0.2421941396593270  0.6848807007849708  0.2381376238561897
  0.5880985718689622  0.0973605461957083  0.9903621606927402
  0.2904366847187533  0.2275209463370233  0.4898177927061863
  0.8612631288662654  0.7694060592406554  0.1945534921495901
  0.0770619973339001  0.3852245819284592  0.1938215602989468
  0.2944105834730986  0.6661260938729681  0.3645251687966895
  0.2684019845487127  0.8508297367786359  0.8611245599868533
  0.7024585671413852  0.9132167984525315  0.3773163491250697
  0.8925595856298442  0.8160543267842877  0.7318793759728834
  0.3312263689388825  0.0754953833664416  0.3429033409813830
  0.7028995033794722  0.4226224317368889  0.1878055662631192
 -0.0005647640895252  0.5230663986629300  0.6063434633838535
  0.5082091867464378  0.8339640302074460  0.7620960954482392
  0.3486452296400944  0.3561888122850628  0.3558347610299022
  0.0770688199874834  0.3411502466588286  0.8506256437879911
  0.2034309963901604  0.5491947100483106  0.0956696904958771
  0.6209801081409273  0.5660229997054825  0.2899110756247142
  0.8005999373196683  0.3562387183541694  0.4672724252890780
  0.4445531020246810  0.3601564784087191  0.7671329950764023
  0.2105027540768593  0.2259557586514041  0.8455244261794316
  0.9071760688370205  0.0275014987459944  0.1105132921912917
  0.7193198336840945  0.2437335137268540  0.5924976383824165
  0.5113136235727291  0.4708485664822570  0.9042472090241249
  0.0135382688604984  0.4172471375694658  0.0255893023904716
  0.9359285271381027  0.1995684168749536  0.2843781000054713
  0.1096535025675631  0.5620382776426723  0.6760293939965892
  0.3293488446568890  0.0957666674749080  0.1066064837587109
  0.4204810975353181  0.7859806442021866  0.5111568215667679
  0.6014580408447275  0.3951394093565237  0.6401670034785382
  0.1402928545050252  0.1117464865559752  0.9839195060630422
  0.8575771829662000  0.8512444403813046  0.0491837206442038
  0.9706742650170471  0.8659896351241115  0.3117877810414967
  0.4944101798465267  0.1462093886312888  0.3657637380982505
  0.7259415706950849  0.8910612121478527  0.1477132780362668
  0.7773216707499231  0.1484491977226146  0.1944953337839744
  0.3909745652831332  0.2206630932850758  0.2440764687439360
  0.9676951972260740  0.7868472566513458  0.8713302772317575
  0.9763416051485199  0.0617320353022827  0.9025314196586143
  0.9608443886440866  0.6869271913943137  0.0621438801094801
  0.1791730155236244  0.0377780925570351  0.8449565832222052
  0.5273471070967430  0.3918562134625927  0.2539963151262619
  0.2953470245812887  0.4560311283074509  0.7088353768352869
 
  0.00000000E+00  0.00000000E+00  0.00000000E+00
  0.00000000E+00  0.00000000E+00  0.00000000E+00
  0.00000000E+00  0.00000000E+00  0.00000000E+00
  0.00000000E+00  0.00000000E+00  0.00000000E+00
  0.00000000E+00  0.00000000E+00  0.00000000E+00
  0.00000000E+00  0.00000000E+00  0.00000000E+00
  0.00000000E+00  0.00000000E+00  0.00000000E+00
  0.00000000E+00  0.00000000E+00  0.00000000E+00
  0.00000000E+00  0.00000000E+00  0.00000000E+00
  0.00000000E+00  0.00000000E+00  0.00000000E+00
  0.00000000E+00  0.00000000E+00  0.00000000E+00
  0.00000000E+00  0.00000000E+00  0.00000000E+00
  0.00000000E+00  0.00000000E+00  0.00000000E+00
  0.00000000E+00  0.00000000E+00  0.00000000E+00
  0.00000000E+00  0.00000000E+00  0.00000000E+00
  0.00000000E+00  0.00000000E+00  0.00000000E+00
  0.00000000E+00  0.00000000E+00  0.00000000E+00
  0.00000000E+00  0.00000000E+00  0.00000000E+00
  0.00000000E+00  0.00000000E+00  0.00000000E+00
  0.00000000E+00  0.00000000E+00  0.00000000E+00
  0.00000000E+00  0.00000000E+00  0.00000000E+00
  0.00000000E+00  0.00000000E+00  0.00000000E+00
  0.00000000E+00  0.00000000E+00  0.00000000E+00
  0.00000000E+00  0.00000000E+00  0.00000000E+00
  0.00000000E+00  0.00000000E+00  0.00000000E+00
  0.00000000E+00  0.00000000E+00  0.00000000E+00
  0.00000000E+00  0.00000000E+00  0.00000000E+00
  0.00000000E+00  0.00000000E+00  0.00000000E+00
  0.00000000E+00  0.00000000E+00  0.00000000E+00
  0.00000000E+00  0.00000000E+00  0.00000000E+00
  0.00000000E+00  0.00000000E+00  0.00000000E+00
  0.00000000E+00  0.00000000E+00  0.00000000E+00
  0.00000000E+00  0.00000000E+00  0.00000000E+00
  0.00000000E+00  0.00000000E+00  0.00000000E+00
  0.00000000E+00  0.00000000E+00  0.00000000E+00
  0.00000000E+00  0.00000000E+00  0.00000000E+00
  0.00000000E+00  0.00000000E+00  0.00000000E+00
  0.00000000E+00  0.00000000E+00  0.00000000E+00
  0.00000000E+00  0.00000000E+00  0.00000000E+00
  0.00000000E+00  0.00000000E+00  0.00000000E+00
  0.00000000E+00  0.00000000E+00  0.00000000E+00
  0.00000000E+00  0.00000000E+00  0.00000000E+00
  0.00000000E+00  0.00000000E+00  0.00000000E+00
  0.00000000E+00  0.00000000E+00  0.00000000E+00
  0.00000000E+00  0.00000000E+00  0.00000000E+00
  0.00000000E+00  0.00000000E+00  0.00000000E+00
  0.00000000E+00  0.00000000E+00  0.00000000E+00
  0.00000000E+00  0.00000000E+00  0.00000000E+00
  0.00000000E+00  0.00000000E+00  0.00000000E+00
  0.00000000E+00  0.00000000E+00  0.00000000E+00
  0.00000000E+00  0.00000000E+00  0.00000000E+00
  0.00000000E+00  0.00000000E+00  0.00000000E+00
  0.00000000E+00  0.00000000E+00  0.00000000E+00
  0.00000000E+00  0.00000000E+00  0.00000000E+00
  0.00000000E+00  0.00000000E+00  0.00000000E+00
  0.00000000E+00  0.00000000E+00  0.00000000E+00
  0.00000000E+00  0.00000000E+00  0.00000000E+00
  0.00000000E+00  0.00000000E+00  0.00000000E+00
  0.00000000E+00  0.00000000E+00  0.00000000E+00
  0.00000000E+00  0.00000000E+00  0.00000000E+00
  0.00000000E+00  0.00000000E+00  0.00000000E+00
  0.00000000E+00  0.00000000E+00  0.00000000E+00
  0.00000000E+00  0.00000000E+00  0.00000000E+00
  0.00000000E+00  0.00000000E+00  0.00000000E+00
  0.00000000E+00  0.00000000E+00  0.00000000E+00
  0.00000000E+00  0.00000000E+00  0.00000000E+00
  0.00000000E+00  0.00000000E+00  0.00000000E+00
  0.00000000E+00  0.00000000E+00  0.00000000E+00
  0.00000000E+00  0.00000000E+00  0.00000000E+00
  0.00000000E+00  0.00000000E+00  0.00000000E+00
  0.00000000E+00  0.00000000E+00  0.00000000E+00
  0.00000000E+00  0.00000000E+00  0.00000000E+00
  0.00000000E+00  0.00000000E+00  0.00000000E+00
  0.00000000E+00  0.00000000E+00  0.00000000E+00
  0.00000000E+00  0.00000000E+00  0.00000000E+00
  0.00000000E+00  0.00000000E+00  0.00000000E+00
  0.00000000E+00  0.00000000E+00  0.00000000E+00
  0.00000000E+00  0.00000000E+00  0.00000000E+00
  0.00000000E+00  0.00000000E+00  0.00000000E+00
  0.00000000E+00  0.00000000E+00  0.00000000E+00
  0.00000000E+00  0.00000000E+00  0.00000000E+00
  0.00000000E+00  0.00000000E+00  0.00000000E+00
  0.00000000E+00  0.00000000E+00  0.00000000E+00
  0.00000000E+00  0.00000000E+00  0.00000000E+00
  0.00000000E+00  0.00000000E+00  0.00000000E+00
  0.00000000E+00  0.00000000E+00  0.00000000E+00
  0.00000000E+00  0.00000000E+00  0.00000000E+00
  0.00000000E+00  0.00000000E+00  0.00000000E+00
  0.00000000E+00  0.00000000E+00  0.00000000E+00
  0.00000000E+00  0.00000000E+00  0.00000000E+00
  0.00000000E+00  0.00000000E+00  0.00000000E+00
  0.00000000E+00  0.00000000E+00  0.00000000E+00
  0.00000000E+00  0.00000000E+00  0.00000000E+00
  0.00000000E+00  0.00000000E+00  0.00000000E+00
  0.00000000E+00  0.00000000E+00  0.00000000E+00
  0.00000000E+00  0.00000000E+00  0.00000000E+00
  0.00000000E+00  0.00000000E+00  0.00000000E+00
  0.00000000E+00  0.00000000E+00  0.00000000E+00
  0.00000000E+00  0.00000000E+00  0.00000000E+00
  0.00000000E+00  0.00000000E+00  0.00000000E+00
  0.00000000E+00  0.00000000E+00  0.00000000E+00
  0.00000000E+00  0.00000000E+00  0.00000000E+00
  0.00000000E+00  0.00000000E+00  0.00000000E+00
  0.00000000E+00  0.00000000E+00  0.00000000E+00
  0.00000000E+00  0.00000000E+00  0.00000000E+00
  0.00000000E+00  0.00000000E+00  0.00000000E+00
  0.00000000E+00  0.00000000E+00  0.00000000E+00
  0.00000000E+00  0.00000000E+00  0.00000000E+00
  0.00000000E+00  0.00000000E+00  0.00000000E+00
  0.00000000E+00  0.00000000E+00  0.00000000E+00
  0.00000000E+00  0.00000000E+00  0.00000000E+00
  0.00000000E+00  0.00000000E+00  0.00000000E+00
  0.00000000E+00  0.00000000E+00  0.00000000E+00
  0.00000000E+00  0.00000000E+00  0.00000000E+00
  0.00000000E+00  0.00000000E+00  0.00000000E+00
  0.00000000E+00  0.00000000E+00  0.00000000E+00
  0.00000000E+00  0.00000000E+00  0.00000000E+00
  0.00000000E+00  0.00000000E+00  0.00000000E+00
  0.00000000E+00  0.00000000E+00  0.00000000E+00
  0.00000000E+00  0.00000000E+00  0.00000000E+00
  0.00000000E+00  0.00000000E+00  0.00000000E+00
  0.00000000E+00  0.00000000E+00  0.00000000E+00
  0.00000000E+00  0.00000000E+00  0.00000000E+00
  0.00000000E+00  0.00000000E+00  0.00000000E+00
  0.00000000E+00  0.00000000E+00  0.00000000E+00
  0.00000000E+00  0.00000000E+00  0.00000000E+00
  0.00000000E+00  0.00000000E+00  0.00000000E+00
  0.00000000E+00  0.00000000E+00  0.00000000E+00
  0.00000000E+00  0.00000000E+00  0.00000000E+00
  0.00000000E+00  0.00000000E+00  0.00000000E+00
  0.00000000E+00  0.00000000E+00  0.00000000E+00
  0.00000000E+00  0.00000000E+00  0.00000000E+00
  0.00000000E+00  0.00000000E+00  0.00000000E+00
  0.00000000E+00  0.00000000E+00  0.00000000E+00
  0.00000000E+00  0.00000000E+00  0.00000000E+00
  0.00000000E+00  0.00000000E+00  0.00000000E+00
  0.00000000E+00  0.00000000E+00  0.00000000E+00
  0.00000000E+00  0.00000000E+00  0.00000000E+00
  0.00000000E+00  0.00000000E+00  0.00000000E+00
  0.00000000E+00  0.00000000E+00  0.00000000E+00
  0.00000000E+00  0.00000000E+00  0.00000000E+00
  0.00000000E+00  0.00000000E+00  0.00000000E+00
  0.00000000E+00  0.00000000E+00  0.00000000E+00
  0.00000000E+00  0.00000000E+00  0.00000000E+00
  0.00000000E+00  0.00000000E+00  0.00000000E+00
  0.00000000E+00  0.00000000E+00  0.00000000E+00
  0.00000000E+00  0.00000000E+00  0.00000000E+00
  0.00000000E+00  0.00000000E+00  0.00000000E+00
  0.00000000E+00  0.00000000E+00  0.00000000E+00
  0.00000000E+00  0.00000000E+00  0.00000000E+00
  0.00000000E+00  0.00000000E+00  0.00000000E+00
  0.00000000E+00  0.00000000E+00  0.00000000E+00
  0.00000000E+00  0.00000000E+00  0.00000000E+00
  0.00000000E+00  0.00000000E+00  0.00000000E+00
  0.00000000E+00  0.00000000E+00  0.00000000E+00
  0.00000000E+00  0.00000000E+00  0.00000000E+00
  0.00000000E+00  0.00000000E+00  0.00000000E+00
  0.00000000E+00  0.00000000E+00  0.00000000E+00
  0.00000000E+00  0.00000000E+00  0.00000000E+00
  0.00000000E+00  0.00000000E+00  0.00000000E+00
  0.00000000E+00  0.00000000E+00  0.00000000E+00
  0.00000000E+00  0.00000000E+00  0.00000000E+00
  0.00000000E+00  0.00000000E+00  0.00000000E+00
  0.00000000E+00  0.00000000E+00  0.00000000E+00
  0.00000000E+00  0.00000000E+00  0.00000000E+00
  0.00000000E+00  0.00000000E+00  0.00000000E+00
  0.00000000E+00  0.00000000E+00  0.00000000E+00
  0.00000000E+00  0.00000000E+00  0.00000000E+00
  0.00000000E+00  0.00000000E+00  0.00000000E+00
  0.00000000E+00  0.00000000E+00  0.00000000E+00
  0.00000000E+00  0.00000000E+00  0.00000000E+00
  0.00000000E+00  0.00000000E+00  0.00000000E+00
  0.00000000E+00  0.00000000E+00  0.00000000E+00
  0.00000000E+00  0.00000000E+00  0.00000000E+00
  0.00000000E+00  0.00000000E+00  0.00000000E+00
  0.00000000E+00  0.00000000E+00  0.00000000E+00
  0.00000000E+00  0.00000000E+00  0.00000000E+00
  0.00000000E+00  0.00000000E+00  0.00000000E+00
  0.00000000E+00  0.00000000E+00  0.00000000E+00
  0.00000000E+00  0.00000000E+00  0.00000000E+00
  0.00000000E+00  0.00000000E+00  0.00000000E+00
  0.00000000E+00  0.00000000E+00  0.00000000E+00
  0.00000000E+00  0.00000000E+00  0.00000000E+00
  0.00000000E+00  0.00000000E+00  0.00000000E+00
  0.00000000E+00  0.00000000E+00  0.00000000E+00
  0.00000000E+00  0.00000000E+00  0.00000000E+00
  0.00000000E+00  0.00000000E+00  0.00000000E+00
  0.00000000E+00  0.00000000E+00  0.00000000E+00
  0.00000000E+00  0.00000000E+00  0.00000000E+00
  0.00000000E+00  0.00000000E+00  0.00000000E+00
  0.00000000E+00  0.00000000E+00  0.00000000E+00
  0.00000000E+00  0.00000000E+00  0.00000000E+00
  0.00000000E+00  0.00000000E+00  0.00000000E+00
  0.00000000E+00  0.00000000E+00  0.00000000E+00
  0.00000000E+00  0.00000000E+00  0.00000000E+00
  0.00000000E+00  0.00000000E+00  0.00000000E+00
  0.00000000E+00  0.00000000E+00  0.00000000E+00
  0.00000000E+00  0.00000000E+00  0.00000000E+00
  0.00000000E+00  0.00000000E+00  0.00000000E+00
  0.00000000E+00  0.00000000E+00  0.00000000E+00
  0.00000000E+00  0.00000000E+00  0.00000000E+00
  0.00000000E+00  0.00000000E+00  0.00000000E+00
  0.00000000E+00  0.00000000E+00  0.00000000E+00
  0.00000000E+00  0.00000000E+00  0.00000000E+00
  0.00000000E+00  0.00000000E+00  0.00000000E+00
  0.00000000E+00  0.00000000E+00  0.00000000E+00
  0.00000000E+00  0.00000000E+00  0.00000000E+00
  0.00000000E+00  0.00000000E+00  0.00000000E+00
  0.00000000E+00  0.00000000E+00  0.00000000E+00
  0.00000000E+00  0.00000000E+00  0.00000000E+00
  0.00000000E+00  0.00000000E+00  0.00000000E+00
  0.00000000E+00  0.00000000E+00  0.00000000E+00
  0.00000000E+00  0.00000000E+00  0.00000000E+00
  0.00000000E+00  0.00000000E+00  0.00000000E+00
  0.00000000E+00  0.00000000E+00  0.00000000E+00
  0.00000000E+00  0.00000000E+00  0.00000000E+00
  0.00000000E+00  0.00000000E+00  0.00000000E+00
  0.00000000E+00  0.00000000E+00  0.00000000E+00
  0.00000000E+00  0.00000000E+00  0.00000000E+00
  0.00000000E+00  0.00000000E+00  0.00000000E+00
  0.00000000E+00  0.00000000E+00  0.00000000E+00
  0.00000000E+00  0.00000000E+00  0.00000000E+00
  0.00000000E+00  0.00000000E+00  0.00000000E+00
  0.00000000E+00  0.00000000E+00  0.00000000E+00
  0.00000000E+00  0.00000000E+00  0.00000000E+00
  0.00000000E+00  0.00000000E+00  0.00000000E+00
  0.00000000E+00  0.00000000E+00  0.00000000E+00
  0.00000000E+00  0.00000000E+00  0.00000000E+00
  0.00000000E+00  0.00000000E+00  0.00000000E+00
  0.00000000E+00  0.00000000E+00  0.00000000E+00
  0.00000000E+00  0.00000000E+00  0.00000000E+00
  0.00000000E+00  0.00000000E+00  0.00000000E+00
  0.00000000E+00  0.00000000E+00  0.00000000E+00
  0.00000000E+00  0.00000000E+00  0.00000000E+00
  0.00000000E+00  0.00000000E+00  0.00000000E+00
  0.00000000E+00  0.00000000E+00  0.00000000E+00