In16 O24                                
   1.00000000000000     
     5.1687331544642054    5.1687331544642054    5.1687331544642054
     5.1687331544642054   -5.1687331544642054   -5.1687331544642054
    -5.1687331544642054    5.1687331544642054   -5.1687331544642054
   In   O 
    16    24
Direct
  0.7500000000000000  0.4645061162540649  0.2145061162540649
  0.2500000000000000  0.5354938837459350  0.7854938837459350
 -0.0000000000000000  0.0000000000000000  0.5000000000000000
  0.5000000000000000  0.5000000000000000  0.5000000000000000
  0.5354938837459350  0.7854938837459350  0.2500000000000000
  0.4645061162540649  0.2145061162540649  0.7500000000000000
  0.7500000000000000  0.9645061162540650  0.7145061162540650
  0.2500000000000000  0.0354938837459350  0.2854938837459351
  0.2854938837459351  0.7500000000000000  0.5354938837459350
  0.0354938837459350  0.2854938837459351  0.2500000000000000
 -0.0000000000000000  0.5000000000000000  0.0000000000000000
  0.5000000000000000  0.0000000000000000  0.0000000000000000
  0.9645061162540650  0.7145061162540650  0.7500000000000000
  0.7145061162540650  0.2500000000000000  0.4645061162540649
  0.2145061162540649  0.2500000000000000  0.9645061162540650
  0.7854938837459350  0.7500000000000000  0.0354938837459350
  0.5444169973195752  0.0071363186534708  0.7720804025750929
  0.5372806786661043  0.7649440839216221  0.9928636813465291
  0.9627193213338957  0.4555830026804250  0.7276634052555178
  0.2649440839216219  0.4928636813465292  0.5372806786661043
  0.4627193213338958  0.2350559160783780  0.0071363186534708
  0.0444169973195750  0.7723365947444822  0.0372806786661042
  0.2276634052555178  0.7720804025750929  0.7649440839216221
  0.9928636813465291  0.0372806786661042  0.2649440839216219
  0.2723365947444822  0.5372806786661043  0.0444169973195750
  0.2350559160783780  0.2723365947444822  0.7279195974249071
  0.5071363186534709  0.2720804025750928  0.5444169973195752
  0.0071363186534708  0.9627193213338957  0.7350559160783779
  0.7649440839216221  0.7276634052555178  0.2720804025750928
  0.9555830026804248  0.2276634052555178  0.9627193213338957
  0.2279195974249072  0.9555830026804248  0.4928636813465292
  0.7279195974249071  0.7350559160783779  0.7723365947444822
  0.7720804025750929  0.0444169973195750  0.5071363186534709
  0.7276634052555178  0.4627193213338958  0.9555830026804248
  0.7350559160783779  0.5071363186534709  0.4627193213338958
  0.0372806786661042  0.5444169973195752  0.2723365947444822
  0.2720804025750928  0.2649440839216219  0.2276634052555178
  0.4928636813465292  0.7279195974249071  0.4555830026804250
  0.7723365947444822  0.2279195974249072  0.2350559160783780
  0.4555830026804250  0.9928636813465291  0.2279195974249072
 
  0.00000000E+00  0.00000000E+00  0.00000000E+00
  0.00000000E+00  0.00000000E+00  0.00000000E+00
  0.00000000E+00  0.00000000E+00  0.00000000E+00
  0.00000000E+00  0.00000000E+00  0.00000000E+00
  0.00000000E+00  0.00000000E+00  0.00000000E+00
  0.00000000E+00  0.00000000E+00  0.00000000E+00
  0.00000000E+00  0.00000000E+00  0.00000000E+00
  0.00000000E+00  0.00000000E+00  0.00000000E+00
  0.00000000E+00  0.00000000E+00  0.00000000E+00
  0.00000000E+00  0.00000000E+00  0.00000000E+00
  0.00000000E+00  0.00000000E+00  0.00000000E+00
  0.00000000E+00  0.00000000E+00  0.00000000E+00
  0.00000000E+00  0.00000000E+00  0.00000000E+00
  0.00000000E+00  0.00000000E+00  0.00000000E+00
  0.00000000E+00  0.00000000E+00  0.00000000E+00
  0.00000000E+00  0.00000000E+00  0.00000000E+00
  0.00000000E+00  0.00000000E+00  0.00000000E+00
  0.00000000E+00  0.00000000E+00  0.00000000E+00
  0.00000000E+00  0.00000000E+00  0.00000000E+00
  0.00000000E+00  0.00000000E+00  0.00000000E+00
  0.00000000E+00  0.00000000E+00  0.00000000E+00
  0.00000000E+00  0.00000000E+00  0.00000000E+00
  0.00000000E+00  0.00000000E+00  0.00000000E+00
  0.00000000E+00  0.00000000E+00  0.00000000E+00
  0.00000000E+00  0.00000000E+00  0.00000000E+00
  0.00000000E+00  0.00000000E+00  0.00000000E+00
  0.00000000E+00  0.00000000E+00  0.00000000E+00
  0.00000000E+00  0.00000000E+00  0.00000000E+00
  0.00000000E+00  0.00000000E+00  0.00000000E+00
  0.00000000E+00  0.00000000E+00  0.00000000E+00
  0.00000000E+00  0.00000000E+00  0.00000000E+00
  0.00000000E+00  0.00000000E+00  0.00000000E+00
  0.00000000E+00  0.00000000E+00  0.00000000E+00
  0.00000000E+00  0.00000000E+00  0.00000000E+00
  0.00000000E+00  0.00000000E+00  0.00000000E+00
  0.00000000E+00  0.00000000E+00  0.00000000E+00
  0.00000000E+00  0.00000000E+00  0.00000000E+00
  0.00000000E+00  0.00000000E+00  0.00000000E+00
  0.00000000E+00  0.00000000E+00  0.00000000E+00
  0.00000000E+00  0.00000000E+00  0.00000000E+00
