Amorphous Sb                            
   1.00000000000000     
    20.9658902478061471    0.0000000000000000    0.0000000000000000
     0.0000000000000000   20.9658902478061471    0.0000000000000000
     0.0000000000000000    0.0000000000000000   20.9658902478061471
   Ge   Te   Se
   150    90    60
Direct
  0.4584446027822288  0.4134954800572956  0.7470904969066684
  0.1881070632823165  0.2615134048001369  0.8915486584860840
  0.7712853341038405  0.7732486350801626  0.5948066141178955
  0.4290798306533197  0.4112698100991105  0.3482647763486862
  0.9485336130920166  0.7212991519717595  0.0478573961314403
  0.1367617611302961  0.4634091464470044  0.7407518873972151
  0.9648054810439224  0.2078883633341900  0.9729721382568789
  0.3838001073811209  0.9081205508188051  0.5712321682930828
  0.8835009177977221  0.6346884166209255  0.4138305160966331
  0.3782568688160362  0.1223856669141080  0.6023368299637727
  0.2325485120535576  0.4343551713566443  0.3950316671430256
  0.3356883819137895  0.7244619654845268  0.2712588435554825
  0.4552226411808148  0.2991388079432233  0.2675172040173074
  0.6611588281706250  0.0673142011325171  0.5395784670565907
  0.9650718151400310  0.4439980638552618  0.8043424909737699
  0.4224950302540268  0.8231746961346208  0.0262876580163996
  0.3720975699151891  0.3457194421727695  0.1424148830792711
  0.4514130288741285  0.5573170913758928  0.8296532633046353
  0.0748996294836539  0.5746290988246177  0.8351708770490163
  0.5776174004366184  0.2188505724995774  0.5956418749648487
  0.0862295843916672  0.0497774453535065  0.7901275835894130
  0.5543728934620115  0.7862592991083341  0.8064930525707518
  0.1538450986244278  0.9973053759055347  0.5860936708197965
  0.0506476998483242  0.9924516196880326  0.0571722773050501
  0.8823738866949713  0.3316591210462832  0.0556932632534876
  0.8674095841141426  0.8792802204155429  0.6630613436000935
  0.6809053520261803  0.7054005058418472  0.1276090210292384
  0.0061456584280955  0.8748934932131001  0.8804451799602127
  0.7557163268257537  0.4645562458132601  0.1874035054241282
  0.0394821369023730  0.0730954781729810  0.4455030869507604
  0.2558746875522196  0.0191744272865261  0.4424373151018643
  0.8177875096807653  0.1449802668188628  0.4104617575290367
  0.4087882705583729  0.6138071507562376  0.3537217602454595
  0.8365736730833199  0.2965831778198302  0.8255452928350409
  0.2594640614481599  0.5888440777147806  0.0290844399569435
  0.0896660306738966  0.2062451442591081  0.6984383529411072
  0.8783350241142076  0.5893649039155013  0.2193539372881729
  0.1974159632640005  0.7367472800965487  0.4204327490773596
  0.9712595617991193  0.9317549501423844  0.9831101808374890
  0.2359802125612702  0.3630295903421392  0.5657740432972316
  0.4760294467812295  0.0061712088825943  0.7512114836311939
  0.4743222137828655  0.9023501210571224  0.9435866525830717
  0.6783765729911649  0.0230570023183440  0.0611259155450668
  0.0537478767515765  0.6300817857681084  0.3128600068198534
  0.5414972631494520  0.9774175537761186  0.4817073248204455
  0.5908582826263444  0.2345156292987723  0.2219538356484482
  0.6025522053042403  0.5010214064775320  0.7282609765944895
  0.3198305768975782  0.0919636304598650  0.8665042624407147
  0.4037730324428307  0.7471371993336652  0.6787108351038930
  0.5685264084421314  0.9831781218795329  0.8816144785011440
  0.8118152275116065  0.5599406747555168  0.5558860583227139
  0.3816645877948707  0.7199255220311119  0.9715582995954778
  0.0859753019481386  0.9188589724857464  0.6907995596089369
  0.6763140103927423  0.6343437109919684  0.9893009291046464
  0.5241226020926999  0.7552368069342081  0.0181797419665132
  0.1942754766316452  0.1885171189905721  0.2933732153201466
  0.2327784687011863  0.9649362443160263  0.9593735732172818
  0.0007475330480630  0.7909049059081862  0.3710682120869493
  0.5077757864074505  0.4496771294546641  0.8765253027681931
  0.9837687956072131  0.4399581397753948  0.3398478312376403
  0.3575478992001330  0.7048075482619267  0.4120316720203973
  0.8207096655474950  0.0940184597916707  0.0212923558234173
  0.4844365978346256  0.0959157439134217  0.1146444192583636
  0.0138582199348666  0.5788261217684874  0.6896724267041819
  0.5064822948264568  0.5675123058041809  0.1934233866045297
  0.3992118391101179  0.0192182887100983  0.1719025083109390
  0.0000544613091932  0.0447062752747146  0.1581273835165539
  0.6993801653587521  0.7990020190349267  0.0455772466423521
  0.3328551231049128  0.2117677269596662  0.0053779946932872
  0.5727784552254399  0.3113839842303152  0.3817491067139413
  0.6683799491832484  0.7240411560665502  0.3100779564244386
  0.7281230470194655  0.6520724815726758  0.5871580173239898
  0.7985600298473934  0.3875240038352039  0.9095965932160285
  0.1881792261104422  0.3184396274199187  0.4050338193008727
  0.3824389358908919  0.4937634563117059  0.5016235688651435
  0.2870394031925263  0.9541835465135888  0.8467145750332393
  0.8275773859346802  0.8460933854431392  0.4258759015315861
  0.9144207168021247  0.3342023419512461  0.2695729890987240
  0.5537744695551309  0.6591510478814182  0.6535007464065465
  0.2836455966128563  0.8259068202660625  0.4276321061198930
  0.9436524365254005  0.8830090042946875  0.7727998018157624
  0.4232803149134339  0.7249478012587570  0.5127633274039655
  0.5916286129451915  0.9951430755457144  0.2191500100405603
  0.5638258069360892  0.6645795382702117  0.2678392540454319
  0.1618917873373904  0.1106560734216811  0.6568254044947749
  0.6639250510139626  0.5388773114212010  0.9104968109290486
  0.4483338077821807  0.7796816219930276  0.3719058478776947
  0.7296264252564197  0.0905010602469026  0.9169039115242991
  0.5161570811941532  0.7947265828789787  0.4743951928936734
  0.3826007045623276  0.8859609907508451  0.3755850068576693
  0.7340215423838248  0.8920133600562687  0.2231778299097514
  0.4014715270921021  0.0065738112764993  0.3360031251177250
  0.0541984430972597  0.2018514665549400  0.8794598492060652
  0.5823833056063996  0.4852367234591106  0.3449964895815703
  0.7054832048126420  0.2385191748374263  0.6524940834529263
  0.7722567598528819  0.7741266620658747  0.9471142246075817
  0.6892194738514967  0.3695721221890270  0.5273882942385156
  0.6058700553350729  0.2609608193113505  0.8477046772481002
  0.2239924100400544  0.8460896561552537  0.8238417950549231
  0.1637645829244732  0.0680828113995959  0.2703942323354282
  0.3459951957368084  0.3862945767174413  0.8153997336687784
  0.1362240264119157  0.7521528465643628  0.8825347871538420
  0.5834880325563822  0.3901746657416456  0.1651022666303178
  0.0871368393627870  0.8729649686229077  0.2066125596729774
  0.4549129363698336  0.8968014874584753  0.4753628413622237
  0.7607168578029030  0.4777922668704688  0.7256146446504511
  0.8304520230853183  0.6887629106284633  0.7263968283951303
  0.9456925015688751  0.8875324178573091  0.1763775611798208
  0.2238675177055342  0.9672441011399444  0.1787182926312187
  0.6327640615582503  0.7961652978582455  0.5207693592054966
  0.7894504051239669  0.9505721086267666  0.8651004248124464
  0.7382716439104138  0.9862152289601910  0.7569942984938375
  0.7991868217985989  0.6217530736787605  0.0223904134299785
  0.5576438784035050  0.5731599838393363  0.0306123146753095
  0.1371917510695367  0.4929323770009963  0.1161163194551731
  0.8159688751093801  0.2238615556611623  0.5289993372572045
  0.9657299907041591  0.8037613501855485  0.6018260047260001
  0.1815599837796711  0.6386966056489094  0.4906102581833537
  0.6978665714036812  0.3842842956453356  0.3876933852056961
  0.6458609201436381  0.9298766827510926  0.6869803258115043
  0.0451761323271126  0.7220727890250361  0.5433305687748849
  0.2778377654912598  0.2118299461746986  0.7350661640245512
  0.0624000395236563  0.3776613831187081  0.5767388504506304
  0.0411235679788694  0.5205568257342212  0.2644525166989907
  0.1336199146928372  0.0415012160039816  0.9830720189840770
  0.3303401036353251  0.2886484603580973  0.2837728965943176
  0.1519799422819178  0.8651033673910684  0.5350351700797987
  0.6236985970553464  0.1452168481440919  0.3837309832706726
  0.1714820365822924  0.3587595681761366  0.2196099425384943
  0.2376929429146523  0.5774796942439004  0.9036943408952736
  0.3939608217088650  0.8382246241743462  0.1478963775059342
  0.5046923018103898  0.0923071037354579  0.3761653446778744
  0.4404513378432426  0.2015585386436402  0.7781568631505262
  0.7836585556794415  0.0615573109904751  0.5783757696858394
  0.9363084139767044  0.4283818371950271  0.1354583679705017
  0.9863961565399245  0.2461372322167626  0.1506859778431471
  0.2908168191922970  0.1212265239689527  0.0765639315331024
  0.6020036479188859  0.0896084081669002  0.8013088647611650
  0.8407487867053425  0.4512322263701834  0.4682273358164072
  0.0843806394401543  0.5917099911536920  0.4247663006435713
  0.3380073386142108  0.4117736612213784  0.9726682037210470
  0.0998936044665028  0.7416608872215915  0.2942250676366859
  0.8136432342899049  0.0125758631464705  0.2542009793667309
  0.2826649057816114  0.9504962525459338  0.7193160620975533
  0.7687454513627926  0.1841504423237228  0.2251659805646231
  0.9393122930026540  0.2529240217913687  0.5361357258260661
  0.0978999347928882  0.7081385648863456  0.0461340249873558
  0.4084400274884638  0.9529197921234687  0.8536737721490136
  0.0917208449546991  0.7885334647206933  0.4543871644609057
  0.8685190088018404  0.9253719858225493  0.3377884231481195
  0.9225093623596338  0.4168157449525561  0.9383826887286743
  0.3257629413429353  0.9383105923352001  0.0993613294036712
  0.4916240832688247  0.6684696142330109  0.9276127281728578
  0.2925933729694304  0.6980832357728736  0.8765367073954633
  0.7151556458007149  0.5137661038773329  0.4303441043673981
  0.4375813869177654  0.5284796598268272  0.0812212427636760
  0.7452385156282739  0.9101650047028897  0.0924413423239939
  0.6981758967645014  0.4964603294493076  0.5753461489211533
  0.8710096235412682  0.6909548316744464  0.9415397892533337
  0.7540351942339901  0.4117229999576110  0.0369432914908923
  0.4067167136896859  0.9041077896481980  0.6981983088213064
  0.1386294584119630  0.2774629081158037  0.5170067251474980
  0.2214990068361125  0.8394502945468764  0.6973829205455213
  0.8421551310300791  0.6884196155500639  0.1267115273601749
  0.3176873244684045  0.7984088082179621  0.5545285967053915
  0.4404889773789828  0.3685448754095990  0.6199024909255082
  0.0536795783146449  0.7521430713618971  0.1704594285914739
  0.0823344882446927  0.4642714303419913  0.4221393726280875
  0.5332321061832128  0.6062773690683723  0.3808947110358108
  0.8175807548661786  0.3379602867742140  0.4029618946780524
  0.4324474713533059  0.8209850426774520  0.8484762017729175
  0.9405155516813648  0.1285269293385208  0.0764318504089502
  0.1369304821160361  0.9038679586961080  0.0881034544966921
  0.1077735996408055  0.1380154526933214  0.1727702655854098
  0.8505050706404905  0.8298648529959755  0.2473573406036214
  0.7008152835476984  0.6575568135523754  0.7083944958219025
  0.2146176520045512  0.6719029822395390  0.3116286978397629
  0.3109181371466551  0.3610788919305098  0.6716227429382522
  0.2574802179975331  0.2343867080784174  0.1930353026514730
 -0.0014204520062796  0.2864091784748957  0.6492649441458356
  0.4447162968224849  0.2401892007067503  0.5728702950561981
  0.4378399378594272  0.3427519689583863  0.9019771362861074
  0.8803845051275646  0.0623767517000733  0.4933422329716991
  0.5175184784213589  0.4185399308463830  0.4458488553011192
  0.1225760589936979  0.9255276459480648  0.8579982598286735
  0.2801227501148587  0.2275463351720572  0.3884318924152341
  0.2685454670243231  0.4760077104534084  0.0890869686053008
  0.9044465423441436  0.8463060037855485  0.0545358859932363
  0.7765073508471134  0.5043476431158470  0.8575082227104066
  0.4588394554222627  0.1933098150580534 -0.0031750438510681
  0.0435131579307388  0.0861596545095841  0.3117738582875066
  0.2559982112681863  0.1852722078032726  0.6074550728418899
  0.2719382293741223  0.5623259234099721  0.5484325090918427
  0.8855351670518585  0.0177329782464667  0.9301001679819463
  0.8592583043871237  0.5117577862227266  0.0398704261018761
  0.6204031514401280  0.1538757580814857  0.9317703530942513
  0.8571698385167255  0.5585817959943191  0.6800568355303760
  0.5954007450748878  0.0466656492680176  0.6732720889829824
  0.6349690566415988  0.2398985566967716  0.4754482580470538
  0.9613872979335617  0.3724574868063443  0.4954335399370183
  0.7185152639772967  0.5469108843313106  0.2897544529711324
  0.6384450891497668  0.3270892925185547  0.0528409973788739
  0.7106098867096657  0.0708859578060227  0.1841256440301583
  0.5544958284970014  0.9819607272968537  0.0900612780954979
  0.2047866660819410  0.7684475144182107  0.9926135995893678
  0.1717690693292919  0.6219838990162624  0.1150005906686924
  0.6187620849890454  0.5163870468074063  0.1364047833197024
  0.9949964480637276  0.9168208622183148  0.3466307656574221
  0.2338442806217681  0.3852178085114004  0.8948115276964016
  0.7162166025526240  0.0612302229363311  0.4132405960382097
  0.9856035623378474  0.6138674293521721  0.5017493463126634
  0.4664596437167153  0.9363649115453049  0.2448185054054955
  0.3280615311323135  0.3774105349141161  0.4737309390784763
  0.7106389224220381  0.2908608822435889  0.7747951723984724
  0.3637383244645108  0.6550697262083701  0.7656665782215072
  0.6994456493149799  0.8103381862423771  0.4047841578984311
  0.6616710206485379  0.2074405002381603  0.1143212317181596
  0.2839383771877446  0.7634268529248615  0.1533170710371706
  0.8556621317746026  0.3875864859705594  0.7343351174169896
  0.4516159850868448  0.1172967059754632  0.8806269045326123
  0.0307500035291574  0.8004674066060549  0.7176605896846147
  0.1660786980686747  0.1523328499256229  0.0441805115809113
  0.5342933062820863  0.1132380363746219  0.2380352079979369
  0.2234568033477564  0.8527282262859827  0.2428881050519296
  0.0222589183207068  0.2051311545071263  0.4509279400929332
  0.5033466220873892  0.0937462071320452  0.5163015001399933
  0.1686975447333888  0.2900502444762185  0.7597262403006406
  0.1701967923372397  0.4732039394456445  0.5801804937408582
  0.4433847250527134  0.2360064568917719  0.1440341811033708
  0.8407768171177008  0.0084115034184461  0.6843945844064134
  0.3004017959249773  0.0040675619256443  0.5695446927584502
  0.9897587841157288  0.5508579183505807  0.1507654039561250
  0.1056651070542102  0.2851985414426956  0.3126684082087415
  0.4636842156491484  0.2341684461606902  0.3771431287739662
  0.4728329655253025  0.3992670446425488  0.0771055113293579
  0.7991287785899474  0.8900397634720580  0.5434024070378394
  0.6133213335497345  0.6655119244463932  0.5328133714750456
  0.5965373070560315  0.3490701226158767  0.6192800228005148
  0.8349953892770273  0.2185080878561261  0.9706046710041589
  0.6978044898990914  0.6981761877901033  0.8799859951082418
  0.9697379342105109  0.6004358682673198  0.8029510443929867
  0.6795433434724683  0.2209864195350489  0.3078211324697104
  0.0112781019214679  0.1599313244390027  0.7735901361340096
  0.9907258442410654  0.9865531943778176  0.7366270813971525
  0.8771725344516196  0.7143425481096379  0.6132156977068275
  0.0157696202519315  0.3617972651610769  0.1983611451021354
  0.3030192144700947  0.2142203772306591  0.8880728906224917
  0.6884600631589405  0.3970733848643856  0.2583308932915640
  0.3619706932902266  0.5111793992500130  0.3829752604740220
  0.0229855233321185  0.7674856773824937  0.9190148901096312
  0.6057775025135704  0.8300123501282228  0.9843900124917184
  0.0864471588587740  0.4643946873401862  0.8592093954863833
  0.1354353558799127  0.5898290698819052  0.7389811301818782
  0.5701374349041363  0.9862427741547214  0.3709752845460135
  0.9706838337349675  0.3291103415415992  0.8579326497021974
  0.5613812877382509  0.1956036996936490  0.7527611611656578
  0.8077900659060331  0.1650742000207517  0.6362911296990339
  0.3501320840926944  0.6568878747673373  0.0670243339116966
  0.4934095504351730  0.7600366161512448  0.2669196593376098
  0.0538255988542354  0.0800609865146589  0.9042267064614314
  0.8950267571728568  0.5122721175232874  0.3807466609478119
  0.3014044189106559  0.3176454365348098  0.0457019434138095
  0.3753368103883528  0.6142353602301366  0.2431346019369203
  0.3439985382214437  0.5023092500020027  0.8437827622056113
  0.1980858008990411  0.9142665574523684  0.4301367348961761
  0.0506312545489788  0.9291847027646967  0.5664759432069344
  0.6614879584396710  0.7945932233993341  0.2121166014352626
  0.3950374671806342  0.1015276836103668  0.7219300794673291
  0.7241402139869670  0.0994259926006469  0.7938895227750340
  0.5990816544109712  0.5778520743742307  0.8225820961833038
  0.8563164772515206  0.1172396044744366  0.2929880013131844
  0.5590275922685037  0.6909305172259287  0.1087686245534070
  0.8673821944584302  0.2720613554981876  0.1669978183211637
  0.2099590929358673  0.1110343985497955  0.7639077504784255
  0.8690228116563087  0.4422023948369526  0.2334435151204399
  0.4958077869376578  0.4610597838740940  0.2564415225076471
  0.0244084424930703  0.4551169493190084  0.6902485644011235
  0.2717487052616815  0.3929489072990008  0.2850123607293256
  0.6879904277218742  0.9731717493776439  0.9265323333041632
  0.3220840124255672  0.0483929875018530  0.2558583815071268
  0.5723024838615094  0.3954474852331696  0.7896780902435702
  0.1510827921609802  0.4882206191482446  0.2380278782865579
  0.6397476639468801  0.9469391608602739  0.5351898542043851
  0.9384569395179416  0.6610550825674777  0.3045188390629754
  0.7684984219852135  0.6615833528554843  0.3001321474405265
  0.1577474228835934  0.0764468229195506  0.4907293522168781
  0.8277900494782428  0.8414332598081744  0.8690160070554835
  0.1246708947617725  0.6336262567013399  0.9227928170277663
  0.4799245630253136  0.5256745034511573  0.7103884694530355
  0.5915240096096880  0.4590158118637649  0.9617801297369226
  0.7707328449967557  0.8203037158068214  0.7036133991433139
  0.5752827168487413  0.9077347476429360  0.7882389448412610
  0.0052555198115750  0.2960331147126110  0.0406427250106016
  0.4345564996678484  0.6510526404576069  0.6043851901113093
  0.8849797375379225  0.9909133530535550  0.1559900458254111
  0.9103139423792225  0.7679687694495200  0.4506428700446323
  0.7771845010115966  0.3198710211828211  0.5953492368298164
  0.5258928101102249  0.7740397296355225  0.6857573279673499
  0.3172879149757444  0.0519301540211595  0.9804897885943694
  0.1378453324220523  0.6700628156665933  0.5926184542946418
 
  0.00000000E+00  0.00000000E+00  0.00000000E+00
  0.00000000E+00  0.00000000E+00  0.00000000E+00
  0.00000000E+00  0.00000000E+00  0.00000000E+00
  0.00000000E+00  0.00000000E+00  0.00000000E+00
  0.00000000E+00  0.00000000E+00  0.00000000E+00
  0.00000000E+00  0.00000000E+00  0.00000000E+00
  0.00000000E+00  0.00000000E+00  0.00000000E+00
  0.00000000E+00  0.00000000E+00  0.00000000E+00
  0.00000000E+00  0.00000000E+00  0.00000000E+00
  0.00000000E+00  0.00000000E+00  0.00000000E+00
  0.00000000E+00  0.00000000E+00  0.00000000E+00
  0.00000000E+00  0.00000000E+00  0.00000000E+00
  0.00000000E+00  0.00000000E+00  0.00000000E+00
  0.00000000E+00  0.00000000E+00  0.00000000E+00
  0.00000000E+00  0.00000000E+00  0.00000000E+00
  0.00000000E+00  0.00000000E+00  0.00000000E+00
  0.00000000E+00  0.00000000E+00  0.00000000E+00
  0.00000000E+00  0.00000000E+00  0.00000000E+00
  0.00000000E+00  0.00000000E+00  0.00000000E+00
  0.00000000E+00  0.00000000E+00  0.00000000E+00
  0.00000000E+00  0.00000000E+00  0.00000000E+00
  0.00000000E+00  0.00000000E+00  0.00000000E+00
  0.00000000E+00  0.00000000E+00  0.00000000E+00
  0.00000000E+00  0.00000000E+00  0.00000000E+00
  0.00000000E+00  0.00000000E+00  0.00000000E+00
  0.00000000E+00  0.00000000E+00  0.00000000E+00
  0.00000000E+00  0.00000000E+00  0.00000000E+00
  0.00000000E+00  0.00000000E+00  0.00000000E+00
  0.00000000E+00  0.00000000E+00  0.00000000E+00
  0.00000000E+00  0.00000000E+00  0.00000000E+00
  0.00000000E+00  0.00000000E+00  0.00000000E+00
  0.00000000E+00  0.00000000E+00  0.00000000E+00
  0.00000000E+00  0.00000000E+00  0.00000000E+00
  0.00000000E+00  0.00000000E+00  0.00000000E+00
  0.00000000E+00  0.00000000E+00  0.00000000E+00
  0.00000000E+00  0.00000000E+00  0.00000000E+00
  0.00000000E+00  0.00000000E+00  0.00000000E+00
  0.00000000E+00  0.00000000E+00  0.00000000E+00
  0.00000000E+00  0.00000000E+00  0.00000000E+00
  0.00000000E+00  0.00000000E+00  0.00000000E+00
  0.00000000E+00  0.00000000E+00  0.00000000E+00
  0.00000000E+00  0.00000000E+00  0.00000000E+00
  0.00000000E+00  0.00000000E+00  0.00000000E+00
  0.00000000E+00  0.00000000E+00  0.00000000E+00
  0.00000000E+00  0.00000000E+00  0.00000000E+00
  0.00000000E+00  0.00000000E+00  0.00000000E+00
  0.00000000E+00  0.00000000E+00  0.00000000E+00
  0.00000000E+00  0.00000000E+00  0.00000000E+00
  0.00000000E+00  0.00000000E+00  0.00000000E+00
  0.00000000E+00  0.00000000E+00  0.00000000E+00
  0.00000000E+00  0.00000000E+00  0.00000000E+00
  0.00000000E+00  0.00000000E+00  0.00000000E+00
  0.00000000E+00  0.00000000E+00  0.00000000E+00
  0.00000000E+00  0.00000000E+00  0.00000000E+00
  0.00000000E+00  0.00000000E+00  0.00000000E+00
  0.00000000E+00  0.00000000E+00  0.00000000E+00
  0.00000000E+00  0.00000000E+00  0.00000000E+00
  0.00000000E+00  0.00000000E+00  0.00000000E+00
  0.00000000E+00  0.00000000E+00  0.00000000E+00
  0.00000000E+00  0.00000000E+00  0.00000000E+00
  0.00000000E+00  0.00000000E+00  0.00000000E+00
  0.00000000E+00  0.00000000E+00  0.00000000E+00
  0.00000000E+00  0.00000000E+00  0.00000000E+00
  0.00000000E+00  0.00000000E+00  0.00000000E+00
  0.00000000E+00  0.00000000E+00  0.00000000E+00
  0.00000000E+00  0.00000000E+00  0.00000000E+00
  0.00000000E+00  0.00000000E+00  0.00000000E+00
  0.00000000E+00  0.00000000E+00  0.00000000E+00
  0.00000000E+00  0.00000000E+00  0.00000000E+00
  0.00000000E+00  0.00000000E+00  0.00000000E+00
  0.00000000E+00  0.00000000E+00  0.00000000E+00
  0.00000000E+00  0.00000000E+00  0.00000000E+00
  0.00000000E+00  0.00000000E+00  0.00000000E+00
  0.00000000E+00  0.00000000E+00  0.00000000E+00
  0.00000000E+00  0.00000000E+00  0.00000000E+00
  0.00000000E+00  0.00000000E+00  0.00000000E+00
  0.00000000E+00  0.00000000E+00  0.00000000E+00
  0.00000000E+00  0.00000000E+00  0.00000000E+00
  0.00000000E+00  0.00000000E+00  0.00000000E+00
  0.00000000E+00  0.00000000E+00  0.00000000E+00
  0.00000000E+00  0.00000000E+00  0.00000000E+00
  0.00000000E+00  0.00000000E+00  0.00000000E+00
  0.00000000E+00  0.00000000E+00  0.00000000E+00
  0.00000000E+00  0.00000000E+00  0.00000000E+00
  0.00000000E+00  0.00000000E+00  0.00000000E+00
  0.00000000E+00  0.00000000E+00  0.00000000E+00
  0.00000000E+00  0.00000000E+00  0.00000000E+00
  0.00000000E+00  0.00000000E+00  0.00000000E+00
  0.00000000E+00  0.00000000E+00  0.00000000E+00
  0.00000000E+00  0.00000000E+00  0.00000000E+00
  0.00000000E+00  0.00000000E+00  0.00000000E+00
  0.00000000E+00  0.00000000E+00  0.00000000E+00
  0.00000000E+00  0.00000000E+00  0.00000000E+00
  0.00000000E+00  0.00000000E+00  0.00000000E+00
  0.00000000E+00  0.00000000E+00  0.00000000E+00
  0.00000000E+00  0.00000000E+00  0.00000000E+00
  0.00000000E+00  0.00000000E+00  0.00000000E+00
  0.00000000E+00  0.00000000E+00  0.00000000E+00
  0.00000000E+00  0.00000000E+00  0.00000000E+00
  0.00000000E+00  0.00000000E+00  0.00000000E+00
  0.00000000E+00  0.00000000E+00  0.00000000E+00
  0.00000000E+00  0.00000000E+00  0.00000000E+00
  0.00000000E+00  0.00000000E+00  0.00000000E+00
  0.00000000E+00  0.00000000E+00  0.00000000E+00
  0.00000000E+00  0.00000000E+00  0.00000000E+00
  0.00000000E+00  0.00000000E+00  0.00000000E+00
  0.00000000E+00  0.00000000E+00  0.00000000E+00
  0.00000000E+00  0.00000000E+00  0.00000000E+00
  0.00000000E+00  0.00000000E+00  0.00000000E+00
  0.00000000E+00  0.00000000E+00  0.00000000E+00
  0.00000000E+00  0.00000000E+00  0.00000000E+00
  0.00000000E+00  0.00000000E+00  0.00000000E+00
  0.00000000E+00  0.00000000E+00  0.00000000E+00
  0.00000000E+00  0.00000000E+00  0.00000000E+00
  0.00000000E+00  0.00000000E+00  0.00000000E+00
  0.00000000E+00  0.00000000E+00  0.00000000E+00
  0.00000000E+00  0.00000000E+00  0.00000000E+00
  0.00000000E+00  0.00000000E+00  0.00000000E+00
  0.00000000E+00  0.00000000E+00  0.00000000E+00
  0.00000000E+00  0.00000000E+00  0.00000000E+00
  0.00000000E+00  0.00000000E+00  0.00000000E+00
  0.00000000E+00  0.00000000E+00  0.00000000E+00
  0.00000000E+00  0.00000000E+00  0.00000000E+00
  0.00000000E+00  0.00000000E+00  0.00000000E+00
  0.00000000E+00  0.00000000E+00  0.00000000E+00
  0.00000000E+00  0.00000000E+00  0.00000000E+00
  0.00000000E+00  0.00000000E+00  0.00000000E+00
  0.00000000E+00  0.00000000E+00  0.00000000E+00
  0.00000000E+00  0.00000000E+00  0.00000000E+00
  0.00000000E+00  0.00000000E+00  0.00000000E+00
  0.00000000E+00  0.00000000E+00  0.00000000E+00
  0.00000000E+00  0.00000000E+00  0.00000000E+00
  0.00000000E+00  0.00000000E+00  0.00000000E+00
  0.00000000E+00  0.00000000E+00  0.00000000E+00
  0.00000000E+00  0.00000000E+00  0.00000000E+00
  0.00000000E+00  0.00000000E+00  0.00000000E+00
  0.00000000E+00  0.00000000E+00  0.00000000E+00
  0.00000000E+00  0.00000000E+00  0.00000000E+00
  0.00000000E+00  0.00000000E+00  0.00000000E+00
  0.00000000E+00  0.00000000E+00  0.00000000E+00
  0.00000000E+00  0.00000000E+00  0.00000000E+00
  0.00000000E+00  0.00000000E+00  0.00000000E+00
  0.00000000E+00  0.00000000E+00  0.00000000E+00
  0.00000000E+00  0.00000000E+00  0.00000000E+00
  0.00000000E+00  0.00000000E+00  0.00000000E+00
  0.00000000E+00  0.00000000E+00  0.00000000E+00
  0.00000000E+00  0.00000000E+00  0.00000000E+00
  0.00000000E+00  0.00000000E+00  0.00000000E+00
  0.00000000E+00  0.00000000E+00  0.00000000E+00
  0.00000000E+00  0.00000000E+00  0.00000000E+00
  0.00000000E+00  0.00000000E+00  0.00000000E+00
  0.00000000E+00  0.00000000E+00  0.00000000E+00
  0.00000000E+00  0.00000000E+00  0.00000000E+00
  0.00000000E+00  0.00000000E+00  0.00000000E+00
  0.00000000E+00  0.00000000E+00  0.00000000E+00
  0.00000000E+00  0.00000000E+00  0.00000000E+00
  0.00000000E+00  0.00000000E+00  0.00000000E+00
  0.00000000E+00  0.00000000E+00  0.00000000E+00
  0.00000000E+00  0.00000000E+00  0.00000000E+00
  0.00000000E+00  0.00000000E+00  0.00000000E+00
  0.00000000E+00  0.00000000E+00  0.00000000E+00
  0.00000000E+00  0.00000000E+00  0.00000000E+00
  0.00000000E+00  0.00000000E+00  0.00000000E+00
  0.00000000E+00  0.00000000E+00  0.00000000E+00
  0.00000000E+00  0.00000000E+00  0.00000000E+00
  0.00000000E+00  0.00000000E+00  0.00000000E+00
  0.00000000E+00  0.00000000E+00  0.00000000E+00
  0.00000000E+00  0.00000000E+00  0.00000000E+00
  0.00000000E+00  0.00000000E+00  0.00000000E+00
  0.00000000E+00  0.00000000E+00  0.00000000E+00
  0.00000000E+00  0.00000000E+00  0.00000000E+00
  0.00000000E+00  0.00000000E+00  0.00000000E+00
  0.00000000E+00  0.00000000E+00  0.00000000E+00
  0.00000000E+00  0.00000000E+00  0.00000000E+00
  0.00000000E+00  0.00000000E+00  0.00000000E+00
  0.00000000E+00  0.00000000E+00  0.00000000E+00
  0.00000000E+00  0.00000000E+00  0.00000000E+00
  0.00000000E+00  0.00000000E+00  0.00000000E+00
  0.00000000E+00  0.00000000E+00  0.00000000E+00
  0.00000000E+00  0.00000000E+00  0.00000000E+00
  0.00000000E+00  0.00000000E+00  0.00000000E+00
  0.00000000E+00  0.00000000E+00  0.00000000E+00
  0.00000000E+00  0.00000000E+00  0.00000000E+00
  0.00000000E+00  0.00000000E+00  0.00000000E+00
  0.00000000E+00  0.00000000E+00  0.00000000E+00
  0.00000000E+00  0.00000000E+00  0.00000000E+00
  0.00000000E+00  0.00000000E+00  0.00000000E+00
  0.00000000E+00  0.00000000E+00  0.00000000E+00
  0.00000000E+00  0.00000000E+00  0.00000000E+00
  0.00000000E+00  0.00000000E+00  0.00000000E+00
  0.00000000E+00  0.00000000E+00  0.00000000E+00
  0.00000000E+00  0.00000000E+00  0.00000000E+00
  0.00000000E+00  0.00000000E+00  0.00000000E+00
  0.00000000E+00  0.00000000E+00  0.00000000E+00
  0.00000000E+00  0.00000000E+00  0.00000000E+00
  0.00000000E+00  0.00000000E+00  0.00000000E+00
  0.00000000E+00  0.00000000E+00  0.00000000E+00
  0.00000000E+00  0.00000000E+00  0.00000000E+00
  0.00000000E+00  0.00000000E+00  0.00000000E+00
  0.00000000E+00  0.00000000E+00  0.00000000E+00
  0.00000000E+00  0.00000000E+00  0.00000000E+00
  0.00000000E+00  0.00000000E+00  0.00000000E+00
  0.00000000E+00  0.00000000E+00  0.00000000E+00
  0.00000000E+00  0.00000000E+00  0.00000000E+00
  0.00000000E+00  0.00000000E+00  0.00000000E+00
  0.00000000E+00  0.00000000E+00  0.00000000E+00
  0.00000000E+00  0.00000000E+00  0.00000000E+00
  0.00000000E+00  0.00000000E+00  0.00000000E+00
  0.00000000E+00  0.00000000E+00  0.00000000E+00
  0.00000000E+00  0.00000000E+00  0.00000000E+00
  0.00000000E+00  0.00000000E+00  0.00000000E+00
  0.00000000E+00  0.00000000E+00  0.00000000E+00
  0.00000000E+00  0.00000000E+00  0.00000000E+00
  0.00000000E+00  0.00000000E+00  0.00000000E+00
  0.00000000E+00  0.00000000E+00  0.00000000E+00
  0.00000000E+00  0.00000000E+00  0.00000000E+00
  0.00000000E+00  0.00000000E+00  0.00000000E+00
  0.00000000E+00  0.00000000E+00  0.00000000E+00
  0.00000000E+00  0.00000000E+00  0.00000000E+00
  0.00000000E+00  0.00000000E+00  0.00000000E+00
  0.00000000E+00  0.00000000E+00  0.00000000E+00
  0.00000000E+00  0.00000000E+00  0.00000000E+00
  0.00000000E+00  0.00000000E+00  0.00000000E+00
  0.00000000E+00  0.00000000E+00  0.00000000E+00
  0.00000000E+00  0.00000000E+00  0.00000000E+00
  0.00000000E+00  0.00000000E+00  0.00000000E+00
  0.00000000E+00  0.00000000E+00  0.00000000E+00
  0.00000000E+00  0.00000000E+00  0.00000000E+00
  0.00000000E+00  0.00000000E+00  0.00000000E+00
  0.00000000E+00  0.00000000E+00  0.00000000E+00
  0.00000000E+00  0.00000000E+00  0.00000000E+00
  0.00000000E+00  0.00000000E+00  0.00000000E+00