Sn3 Te2 Se1
1.0
   2.2141740799999998   -3.8350624600000001    0.0000000000000000
   2.2141740799999998    3.8350624600000001   -0.0000000000000000
   0.0000000000000000    0.0000000000000000   10.7926003000000001
Sn Te Se
3 2 1
direct
   0.0000000000000000   -0.0000000000000000    0.5000000000000000 Sn
   0.3333330000000000    0.6666670000000000    0.1517480900000000 Sn
   0.6666670000000000    0.3333330000000000    0.8482519100000000 Sn
   0.3333330000000000    0.6666670000000000    0.6741914000000000 Te
   0.6666670000000000    0.3333330000000000    0.3258086000000000 Te
   0.0000000000000000   -0.0000000000000000   -0.0000000000000000 Se
