Ge Se                                   
   1.00000000000000     
    20.8706398010253906    0.0000000000000000    0.0000000000000000
     0.0000000000000000   20.8706398010253906    0.0000000000000000
     0.0000000000000000    0.0000000000000000   20.8706398010253906
   Ge   Se
   150   150
Direct
  0.2697299564764572  0.8328552066653613  0.7046011994304794
  0.7701490698461455  0.0401501042440817  0.4845785549553721
  0.0285591517138305  0.7288216044745252  0.8752523713209222
  0.2910052773351146  0.9568005450232684  0.2563333288924430
  0.7822014518481030  0.3947011445591773  0.5612872502020629
  0.0471865735237858  0.1099186166630083  0.7443172657893546
  0.8220215890287306  0.6502752070827114  0.1913132131163587
  0.5827502899455188  0.8163276838302658  0.6956971077234110
  0.3325010216338998  0.2420468118107079  0.8470964275538916
  0.6945478986278143  0.3217218482352323  0.1766981460076136
  0.5046099907694184  0.8503367340674247  0.5056049572520325
  0.4925969194987310  0.1444447566715603  0.9173737060250091
  0.4653764617081514  0.8036068031073530  0.2083055562884463
  0.8458177570565631  0.0319395891689886  0.2762594057094228
  0.1601079417793209  0.7645044027087137  0.4934072111667924
  0.9627160222170743  0.1761922100655237  0.0155272072651073
  0.8076426486847451  0.8583842590200934  0.0729749648593003
  0.4071904904711673  0.2046641679791490  0.4812381098201153
  0.8132938438857894 -0.0036032793668713  0.7514560003307277
  0.9424299252084672  0.1875074001279609  0.2716536449903217
  0.6082909492729816  0.2267857004740035  0.7706064176326810
  0.3281702243777838  0.8099984659236292  0.4987951664976868
  0.7257673342205578  0.2302529797951106  0.7680505673613117
  0.1232268023269429  0.2370542930869984  0.9099708482193281
  0.1811995329114248  0.3427337946975063  0.5637190261887273
  0.5608532232135832  0.5858105523681806  0.8456572163940929
  0.9837132428033514  0.7096339902386318  0.3943297197705367
  0.4173093418972794  0.9638189929837315  0.1236227960175841
  0.0765938225384178  0.8863644523043165  0.8587373742229091
  0.6782448685118742  0.8281907640278878  0.4771272333049819
  0.6517208231137388  0.5534334451676214  0.5721888974156433
  0.3123737406801720  0.4828271891660754  0.0360996911988002
  0.0579164361618820  0.7804106151623579  0.2744607085723918
  0.2300398449951493  0.5291327369979861  0.3314696414170404
  0.4630490854756529  0.0830891868674790  0.2795122040850907
  0.2113493228511723  0.4516244524379361  0.2256997873387263
  0.2189071509368474  0.6704556511977858  0.8151496883889195
  0.8421462222679783  0.5641765685457021  0.6306326367676574
  0.9302125865572212  0.1966353063245069  0.4859229791522423
  0.5867041551087836  0.2406348458785289  0.2785461559650236
  0.2042035569415971  0.1654507612601846  0.4471136750386465
  0.9630243091833953  0.3502187323952197  0.2945201389213701
  0.6916669003712483  0.3433304626681868  0.8994229579857680
  0.2891057634859392  0.8041008639656261  0.9407871358479135
  0.3924165026848594  0.9558447062607029  0.4292228430274361
  0.5775939897531271  0.6506479255434149  0.6087446624387002
  0.3810584055579451  0.3793363130986987  0.5085211185399066
  0.5522696110351971  0.1910323953700939  0.1628949307936363
  0.4843152035824516  0.3273393756214125  0.7975972019582735
  0.1052763124659745  0.0466629844843502  0.9835963225682119
  0.4911220251085928  0.5682266634187169  0.6734252742313461
  0.1726944868625608  0.7928642499385645  0.9789286576163618
  0.2062953994017656  0.3672045688401913  0.9868958905551783
  0.8980848062159816  0.5304541253158063  0.7349464026606705
  0.4986941043107530  0.5867954847406126  0.0134684393857827
  0.3667823086332433  0.4668693993486498  0.7189344685000073
  0.3291639200989023  0.3850419470814994  0.1093908698693657
  0.9095413842920177 -0.0004048166075395  0.0618596602613665
  0.2962435785612936  0.9594356805255985  0.0868156883673507
  0.7448640231090001  0.4924605614949428  0.6276305717603714
  0.8963544483033410  0.9189704925488237  0.3953152377407826
  0.7763428295168319  0.7052497811532682  0.3467906204182136
  0.6377395134497463  0.8585809402217502  0.5914385801008448
  0.6433024750449737  0.4306867966105031  0.4166472933579394
  0.2675357538642523  0.2625936952360669  0.6102807818271391
  0.4155197862812625  0.6653226259426545  0.5658034294400511
  0.2467784163929495  0.8397603711917735  0.2442790233366247
  0.8054795967440826  0.0934465877991059  0.0085192116908684
  0.0967374577349499  0.4855777563129898  0.0150601290316458
  0.1184194390096723  0.4553411100798567  0.6580018043810274
  0.3691818845472339  0.5671343428837734  0.4128341235213790
  0.7757160538166583  0.8153368027620327  0.7308764762802277
  0.8577805546172871  0.2249457794349051  0.8921787395748582
  0.4638189968423548  0.7400125388685912  0.6601373114633801
  0.8518793466404826  0.7718734399215950  0.4831828011792145
  0.0283952694417323  0.8810982990322570  0.0257270024758167
  0.7006026424337746  0.1506260099371730  0.5735341597360180
  0.6665766947776336  0.1343739016493376  0.0499364978679235
  0.3326531487967803  0.4081880699178025  0.8274507407686165
  0.8321641877022637  0.7107936092714450  0.7727454160080743
  0.9515119446560240  0.1681490802442551  0.1366762258284041
  0.8635260337431290  0.4906967031125797  0.9142914080896706
  0.7907818149650448  0.3612007003193166  0.2977753652879909
  0.1233514141304200  0.5892404244525226  0.3409828065358859
  0.2466485383281176  0.1426281868428818  0.1690530370724845
  0.2243906180826180  0.6822178416277183  0.3948996310335930
  0.1078589328401034  0.8949238281337278  0.1547486867016239
  0.0983909206700195  0.9819028326167535  0.3900471692195380
  0.7189067815302270  0.4561145080158409  0.0322660278390438
  0.4086086524645245  0.1990247899798854  0.6539931883680227
  0.1557806390717466  0.0986566230438896  0.6033391653699738
  0.1999614649822550  0.5410951873130405  0.0480210960064473
  0.7258409188912880  0.6234191554055101  0.8758459679529934
  0.6338901518046303  0.4887929742836284  0.9533415546083213
  0.7037210363843541  0.6041062521172320  0.2148912702207949
  0.9783518372333718  0.0728089855196076  0.6000546176897906
  0.5327490379336062  0.2052728495019343  0.6426825234575885
  0.5421713112475488  0.4068466972630708  0.1009249817824270
  0.8826324801219769  0.1646767967792678  0.7456593089251616
  0.4635953139272116  0.3508265351483931  0.3664783925081632
  0.8432978589469808  0.8843825336674258  0.5416146919423700
  0.0004643057962235  0.6842760433257111  0.1706927157677660
  0.2086883303789585  0.9314432007333470  0.4651809237252554
  0.5806497627065031  0.5051219869867853  0.1689314107996562
  0.7552621027918354  0.8689253201166243  0.6235999949243309
  0.7590473238658549  0.1902800605857192  0.3948071525689867
  0.5859998229311771  0.9835107845388151  0.4489117268278744
  0.6334457382486738  0.2776306638379808  0.4639717477118845
  0.1925267561211989  0.5051302009032997  0.7759893682089355
  0.7165354196425068  0.5430608306676974  0.7501003535422681
  0.8664068545005730  0.6122378158633661  0.5180394599644977
  0.4511520346597091  0.7274699500158169  0.9003863981539471
  0.8267134179122324  0.4389939775233331  0.4546711516654864
  0.8921312297814060  0.3396118664728528  0.6137175536594501
  0.2878611550491054  0.1183663792304341  0.3676298269128351
  0.1180255907833021  0.1626276835548340  0.3134620442545341
  0.9318677726459071  0.8626414081839342  0.6785075894990635
  0.4006830499394660  0.8849674245370855  0.7887243364823917
  0.0575368621340663  0.6585225090878521  0.9783318807918793
  0.0792522292126786  0.0367252227461916  0.2049337815963218
  0.0929382350092665  0.2054590907679453  0.5656804738131480
  0.0223020004050643  0.7309444336815851  0.7392816823355141
  0.8775101150768477  0.1705692277886965  0.3778541519405992
  0.3836729757190955  0.5682847952988144  0.1888161129796789
  0.6440820576802483  0.0752451083917024  0.2890543362904556
  0.0429306736503715  0.5273056215017239  0.8096408240045455
  0.2537711795023286  0.9695823387591350  0.9073903396087322
  0.7208003814639767  0.9166233622941964  0.1954495371470463
  0.3491717263691369  0.7525349923042490  0.1337574632459289
  0.5079204252564782  0.5140941216318227  0.4994899632754486
  0.7533674611297266  0.5691295097631267  0.0726508540020777
  0.0279114560848702  0.8607513721413954  0.5247128657304518
  0.3236863105089187  0.6408678367349270  0.6726592325136825
  0.1532182935987932  0.3117330079647594  0.7794474234100631
  0.3666537585871414  0.0972109047351352  0.0020803876216312
  0.8077551068190001  0.2621769599981617  0.0602858526618664
  0.2403564571331814  0.5479619585958750  0.5454087353857029
  0.9296578205104288  0.5445222936641192  0.0479973209390172
  0.0732402776191854  0.5781324213442740  0.1755726744056988
  0.8554544652337298  0.2246348487995021  0.6435532793343787
  0.1784233716045040  0.1417871293202498  0.8540148989027282
  0.5036675120289230  0.0571939434585879  0.0688257947875508
  0.6760114091621408  0.7671204918994431  0.1550263875628878
  0.9697288347732872  0.5054990127064459  0.5944834905421778
  0.2803879713978901  0.1807824678407289  0.7082348886710739
  0.6450868183252686  0.7749279806346353  0.8583533001822529
  0.5309519967807942  0.6491844025761301  0.2404595436865552
  0.2575843868106891  0.0090140516806518  0.7606070607258333
  0.1143874679844413  0.5493995252599280  0.5283121302307476
  0.2744413865547362  0.4508227320454088  0.9253947571299399
  0.0608731920210984  0.6020759892496902  0.4369743417447708
  0.6287263210350716  0.6067544057944786  0.9498072769152655
  0.4254008376850211  0.6636576760379038  0.7403953330920068
  0.2574699236097434  0.0516717693492368  0.0086453450448130
  0.4018053838766350  0.1121512454716074  0.1106867539763770
  0.9828798185243889  0.8299009467926605  0.9190177468847294
  0.8729222064721254  0.3486576882832703  0.3872198760966500
  0.2307508184192863  0.2582117233596903  0.9578231898881491
  0.3742819584058080  0.9916949494737769  0.7457764314810430
  0.3780344779805629  0.3123770421883568  0.6167817606208225
  0.6347004440007182  0.7592734258211118  0.2675785062891078
  0.9514053304481411  0.2280881350800547  0.8107671606709995
  0.6251190112923198  0.5451115932562800  0.4564538423857359
  0.0236132012940871  0.4883133149628801  0.1114091116061228
  0.6546541803593081  0.7431003504786824  0.6324225389727601
  0.9243567854470249  0.0563160790990023  0.7272272606809312
  0.7834884986834022  0.1372557434878891  0.8047491187264971
  0.2694036950136421  0.4901411945754298  0.4386300671642011
  0.8814948130873203  0.2886145348763502  0.2321469474540755
  0.5860130867355208  0.1829401782183191  0.5404593495089438
  0.9636928699760937  0.0509629995984318  0.1581050064779595
  0.1930497719942899  0.5595070920056551  0.1673271285561126
  0.4010345148591756  0.3404438729979751  0.8947827644460103
  0.1480563349291034  0.8686442713424982  0.5570920523225663
  0.4886885030319845  0.5270913664046335  0.2418062600108803
  0.5792782944103791  0.3041095835821184  0.6894176893923110
  0.7954693316749828  0.4011565379934335  0.9629070358250190
  0.6742086079073726  0.1989063103192466  0.1546515864937436
  0.3611325520312109  0.3004773984241632  0.4171222920407637
  0.9491992345653322  0.6051932599495805  0.8062216288882860
  0.9966494069008061  0.9866814772214176  0.9736923620677889
  0.9105223647230769  0.5244363673370257  0.4543073125044530
  0.5700263305153543  0.2696876429925835  0.8697857053907900
  0.8613153495194620  0.1388603968809569  0.5637431956041243
  0.7476741288528195  0.2398275363414764  0.4998292026894934
  0.2860744930492290  0.8494950792923033  0.8259203123973509
  0.0081770803482971  0.1824957291571869  0.6498711009234184
  0.9005170119859177  0.1136688372582135  0.9346948912960027
  0.6869340865025086  0.0990118906490240  0.4115281298367398
  0.3388040512102977  0.9057209125183840  0.9722732457102228
  0.3038059011861108  0.1751928812926551  0.2682079214861688
  0.9129488449082561  0.7389693853745928  0.6832996608893281
  0.2956425674947807  0.1790689602863066  0.5268099315287702
  0.2427707120429870  0.8052572544626367  0.4055315276700217
  0.4008377669896103  0.5469262867268900  0.5979590681807633
  0.5837169548629714  0.8651750467179955  0.4121374854625977
  0.6794085625811414  0.4893323668934684  0.2294132982446081
  0.2093971198178778  0.3686892018324880  0.1052814039710357
  0.0041895779078889  0.9612194951854933  0.4630532110442274
  0.9780305253219678  0.4512597040476005  0.7101162349911930
  0.9635140843379530  0.6638696828981986  0.0574374625269818
  0.6608074288027487  0.6522459091652283  0.3162818898351178
  0.1273344628740053  0.6073915610359967  0.7610493909598863
  0.3054630802618876  0.6220882532788432  0.3197519150988929
  0.8611390511259523  0.8850928094736951  0.7780517508840292
  0.0490346317726862  0.5273741269838710  0.2773637355054472
  0.5968295486100279  0.6920977502102248  0.7949749687763001
  0.0299928011865410  0.1347236570189702  0.4872717361257927
  0.0251743928019226  0.2482301852977158  0.3351850761979990
  0.7279668798454081  0.9774837608126398  0.2940730491300111
  0.7715258254334545  0.6404345218234889  0.6907162244870957
  0.7861598520842736  0.8190487908121010  0.1910762686579567
  0.2698931304331008  0.3328367048810043  0.7579532458853112
  0.5501973988457515  0.0112418232141672  0.3331461275367622
  0.3885661590839148  0.8323449817580136  0.6689526640918220
  0.9455386928949161  0.7011941946958041  0.5151267414640701
  0.1588378208260060  0.1898730179446799  0.7435286892292401
  0.7758605776354756  0.6744555547163140  0.4700660642134510
  0.8456976720475264  0.6191710371008735  0.3030847321720070
  0.4434239159919205  0.0321120683698987  0.9477220315442542
  0.0641452138613727  0.7979622481361750  0.4243549247385991
  0.3313477753354154  0.4517157111457650  0.2114795758475664
  0.0868921726279812  0.7670170432171727  0.1543199371351116
  0.3915357953185988  0.2015030329381045  0.9591521754790457
  0.7699664555402033  0.3265134772460151  0.8067147244411979
  0.7029527764097319  0.2740139570772428  0.3354293928300454
  0.1139581782814148  0.0446605574563488  0.8619543393144514
  0.6679221093338225  0.3816656402426412  0.5265920473195422
  0.1111352786393472  0.3326262985898175  0.6649378000414676
  0.5740894968647419  0.8344848320217104  0.9264894887027683
  0.6156728008987057  0.8702360414365888  0.1846798576693704
  0.5306470459648968  0.7507128030323542  0.9890076344738611
  0.5155468408322125  0.2422651955983368  0.3695215993659611
  0.4536763907902883  0.6026441715853983  0.9025562846499823
  0.7387326147525456  0.2015876633994176  0.9751397625520185
  0.4334675465545491  0.2175998499134724  0.7720453169343839
  0.2635617552607066  0.0743773083694449  0.6498673319011912
  0.6512853828733024  0.3641952323809209  0.0663426293386267
  0.0631051481374754  0.4413373447149770  0.5436456623838309
  0.7372259054329880  0.2450636597971478  0.6515671924414270
  0.3483701598886874  0.7118563177408652  0.9651395996750017
  0.8642030620486815  0.0539437991397390  0.4018014424776174
  0.1688395833801693  0.0530356963672613  0.4890984442437362
  0.0416347803199760  0.8483974881293299  0.7308091185718862
  0.1945789044160211  0.5278487691827911  0.8961255283315259
  0.2302320436603027  0.8596837656953914  0.1195114694512837
  0.4259922218455213  0.8448617030572872  0.1011298119559513
  0.1549891182829380  0.9103896560770233  0.9643297033139403
  0.7753117801440085  0.9845202609321673  0.6391773573999961
  0.2278468055027783  0.7202205885497823  0.7032938601685709
  0.7502813265245599  0.4681591360963117  0.3735644852527253
  0.5905056358084952  0.3504205758012381  0.2326805465307057
  0.5624599956184088  0.4856884658973041  0.6073987663088325
  0.1196501714168236  0.1536268765280491  0.1921296603471434
  0.3841485917245045  0.5715276989764566  0.0637161957228793
  0.4091823331023261  0.9698270547422960  0.2467081888797039
  0.7600692241554722  0.9167260280605658  0.4551720831740165
  0.4834097486792107  0.9743856874327744  0.5125492205297493
  0.3143026290242896  0.9348512881498267  0.5230471673495732
  0.6731708086794710  0.8585170641577916  0.7789475826646456
  0.8487796726303883  0.5390107269831002  0.1424783989945422
  0.4766723091293270  0.4904101309805544  0.7594432074476022
  0.0863460496921652  0.0244410045283674  0.6614169464687546
  0.5524077975208720  0.1737029247104991  0.0280492667450727
  0.6061920623578432  0.6216321264904066  0.1444082866679749
  0.7411063354142340  0.7379841262372396  0.9081574006671548
  0.9157951351823048  0.2821520479344831 -0.0039039374104094
  0.1392286072222967  0.7722622247698395  0.8595537133134419
  0.0395396231705751  0.0683924546160184  0.3178113820960921
  0.5195933315817988  0.6644012758372361  0.5077747998989548
  0.3393263801351000  0.6644244087178125  0.4771775099550746
  0.8116868193023589  0.4812113679990583  0.7972118322075056
  0.8892185043554121  0.7921638133498569  0.3727615164592231
  0.4605864491622021  0.6935910459889908  0.1466777853009666
  0.7606939499350126  0.9685541969207371  0.1019396916695089
  0.0798918160208896  0.1706934004381045  0.0026800284729635
  0.0908735657665092  0.3794382873455187  0.9705496336957267
  0.3522507540886024  0.7788697793969265  0.2539741109285714
  0.0305827183567094  0.5494077479598469  0.9412402614020264
  0.9565920596894988  0.3044162776653160  0.5230972124152505
  0.2328496075007195  0.0205470534514257  0.1770555478336198
  0.2360353183072061  0.4455908530918019  0.6105941371692433
  0.1109809157513983  0.8887295627100571  0.2755426300822662
  0.2870784109096892  0.1025983719035373  0.8389636291326998
  0.1643831146989346  0.6528255557190664  0.0278415953022619
  0.5804128362668808  0.1280139204904742  0.7194376410278771
  0.0448654879480387  0.5988067272255650  0.6074123668344638
  0.5008475859692482  0.3838456668286245  0.4823540591693390
  0.9105609198399388  0.9339012997549722  0.2792126297588269
  0.4183000798743887  0.8289726022244901  0.4210896488359365
  0.5551600502378274  0.0727455375206637  0.1867973948409117
  0.1516174364003341  0.6926718806516139  0.2904414304371031
  0.9252686020753895  0.8865251625620486  0.1001096817830097
  0.3009108231109159  0.5641769005855612  0.7665596274890589
  0.2511194662153442  0.0065028727832957  0.3529833424157411
  0.8337486549042606  0.1532448722777782  0.1141877959759669
  0.8100725822639558  0.5887439105528056  0.9637255737411029
  0.6460889510563753  0.4468363184936756  0.8478310363128574
  0.5243475307950056  0.4648103519107437  0.9902144756444375
  0.3954762002547224  0.1048561579551154  0.4109570445670657
 
  0.00000000E+00  0.00000000E+00  0.00000000E+00
  0.00000000E+00  0.00000000E+00  0.00000000E+00
  0.00000000E+00  0.00000000E+00  0.00000000E+00
  0.00000000E+00  0.00000000E+00  0.00000000E+00
  0.00000000E+00  0.00000000E+00  0.00000000E+00
  0.00000000E+00  0.00000000E+00  0.00000000E+00
  0.00000000E+00  0.00000000E+00  0.00000000E+00
  0.00000000E+00  0.00000000E+00  0.00000000E+00
  0.00000000E+00  0.00000000E+00  0.00000000E+00
  0.00000000E+00  0.00000000E+00  0.00000000E+00
  0.00000000E+00  0.00000000E+00  0.00000000E+00
  0.00000000E+00  0.00000000E+00  0.00000000E+00
  0.00000000E+00  0.00000000E+00  0.00000000E+00
  0.00000000E+00  0.00000000E+00  0.00000000E+00
  0.00000000E+00  0.00000000E+00  0.00000000E+00
  0.00000000E+00  0.00000000E+00  0.00000000E+00
  0.00000000E+00  0.00000000E+00  0.00000000E+00
  0.00000000E+00  0.00000000E+00  0.00000000E+00
  0.00000000E+00  0.00000000E+00  0.00000000E+00
  0.00000000E+00  0.00000000E+00  0.00000000E+00
  0.00000000E+00  0.00000000E+00  0.00000000E+00
  0.00000000E+00  0.00000000E+00  0.00000000E+00
  0.00000000E+00  0.00000000E+00  0.00000000E+00
  0.00000000E+00  0.00000000E+00  0.00000000E+00
  0.00000000E+00  0.00000000E+00  0.00000000E+00
  0.00000000E+00  0.00000000E+00  0.00000000E+00
  0.00000000E+00  0.00000000E+00  0.00000000E+00
  0.00000000E+00  0.00000000E+00  0.00000000E+00
  0.00000000E+00  0.00000000E+00  0.00000000E+00
  0.00000000E+00  0.00000000E+00  0.00000000E+00
  0.00000000E+00  0.00000000E+00  0.00000000E+00
  0.00000000E+00  0.00000000E+00  0.00000000E+00
  0.00000000E+00  0.00000000E+00  0.00000000E+00
  0.00000000E+00  0.00000000E+00  0.00000000E+00
  0.00000000E+00  0.00000000E+00  0.00000000E+00
  0.00000000E+00  0.00000000E+00  0.00000000E+00
  0.00000000E+00  0.00000000E+00  0.00000000E+00
  0.00000000E+00  0.00000000E+00  0.00000000E+00
  0.00000000E+00  0.00000000E+00  0.00000000E+00
  0.00000000E+00  0.00000000E+00  0.00000000E+00
  0.00000000E+00  0.00000000E+00  0.00000000E+00
  0.00000000E+00  0.00000000E+00  0.00000000E+00
  0.00000000E+00  0.00000000E+00  0.00000000E+00
  0.00000000E+00  0.00000000E+00  0.00000000E+00
  0.00000000E+00  0.00000000E+00  0.00000000E+00
  0.00000000E+00  0.00000000E+00  0.00000000E+00
  0.00000000E+00  0.00000000E+00  0.00000000E+00
  0.00000000E+00  0.00000000E+00  0.00000000E+00
  0.00000000E+00  0.00000000E+00  0.00000000E+00
  0.00000000E+00  0.00000000E+00  0.00000000E+00
  0.00000000E+00  0.00000000E+00  0.00000000E+00
  0.00000000E+00  0.00000000E+00  0.00000000E+00
  0.00000000E+00  0.00000000E+00  0.00000000E+00
  0.00000000E+00  0.00000000E+00  0.00000000E+00
  0.00000000E+00  0.00000000E+00  0.00000000E+00
  0.00000000E+00  0.00000000E+00  0.00000000E+00
  0.00000000E+00  0.00000000E+00  0.00000000E+00
  0.00000000E+00  0.00000000E+00  0.00000000E+00
  0.00000000E+00  0.00000000E+00  0.00000000E+00
  0.00000000E+00  0.00000000E+00  0.00000000E+00
  0.00000000E+00  0.00000000E+00  0.00000000E+00
  0.00000000E+00  0.00000000E+00  0.00000000E+00
  0.00000000E+00  0.00000000E+00  0.00000000E+00
  0.00000000E+00  0.00000000E+00  0.00000000E+00
  0.00000000E+00  0.00000000E+00  0.00000000E+00
  0.00000000E+00  0.00000000E+00  0.00000000E+00
  0.00000000E+00  0.00000000E+00  0.00000000E+00
  0.00000000E+00  0.00000000E+00  0.00000000E+00
  0.00000000E+00  0.00000000E+00  0.00000000E+00
  0.00000000E+00  0.00000000E+00  0.00000000E+00
  0.00000000E+00  0.00000000E+00  0.00000000E+00
  0.00000000E+00  0.00000000E+00  0.00000000E+00
  0.00000000E+00  0.00000000E+00  0.00000000E+00
  0.00000000E+00  0.00000000E+00  0.00000000E+00
  0.00000000E+00  0.00000000E+00  0.00000000E+00
  0.00000000E+00  0.00000000E+00  0.00000000E+00
  0.00000000E+00  0.00000000E+00  0.00000000E+00
  0.00000000E+00  0.00000000E+00  0.00000000E+00
  0.00000000E+00  0.00000000E+00  0.00000000E+00
  0.00000000E+00  0.00000000E+00  0.00000000E+00
  0.00000000E+00  0.00000000E+00  0.00000000E+00
  0.00000000E+00  0.00000000E+00  0.00000000E+00
  0.00000000E+00  0.00000000E+00  0.00000000E+00
  0.00000000E+00  0.00000000E+00  0.00000000E+00
  0.00000000E+00  0.00000000E+00  0.00000000E+00
  0.00000000E+00  0.00000000E+00  0.00000000E+00
  0.00000000E+00  0.00000000E+00  0.00000000E+00
  0.00000000E+00  0.00000000E+00  0.00000000E+00
  0.00000000E+00  0.00000000E+00  0.00000000E+00
  0.00000000E+00  0.00000000E+00  0.00000000E+00
  0.00000000E+00  0.00000000E+00  0.00000000E+00
  0.00000000E+00  0.00000000E+00  0.00000000E+00
  0.00000000E+00  0.00000000E+00  0.00000000E+00
  0.00000000E+00  0.00000000E+00  0.00000000E+00
  0.00000000E+00  0.00000000E+00  0.00000000E+00
  0.00000000E+00  0.00000000E+00  0.00000000E+00
  0.00000000E+00  0.00000000E+00  0.00000000E+00
  0.00000000E+00  0.00000000E+00  0.00000000E+00
  0.00000000E+00  0.00000000E+00  0.00000000E+00
  0.00000000E+00  0.00000000E+00  0.00000000E+00
  0.00000000E+00  0.00000000E+00  0.00000000E+00
  0.00000000E+00  0.00000000E+00  0.00000000E+00
  0.00000000E+00  0.00000000E+00  0.00000000E+00
  0.00000000E+00  0.00000000E+00  0.00000000E+00
  0.00000000E+00  0.00000000E+00  0.00000000E+00
  0.00000000E+00  0.00000000E+00  0.00000000E+00
  0.00000000E+00  0.00000000E+00  0.00000000E+00
  0.00000000E+00  0.00000000E+00  0.00000000E+00
  0.00000000E+00  0.00000000E+00  0.00000000E+00
  0.00000000E+00  0.00000000E+00  0.00000000E+00
  0.00000000E+00  0.00000000E+00  0.00000000E+00
  0.00000000E+00  0.00000000E+00  0.00000000E+00
  0.00000000E+00  0.00000000E+00  0.00000000E+00
  0.00000000E+00  0.00000000E+00  0.00000000E+00
  0.00000000E+00  0.00000000E+00  0.00000000E+00
  0.00000000E+00  0.00000000E+00  0.00000000E+00
  0.00000000E+00  0.00000000E+00  0.00000000E+00
  0.00000000E+00  0.00000000E+00  0.00000000E+00
  0.00000000E+00  0.00000000E+00  0.00000000E+00
  0.00000000E+00  0.00000000E+00  0.00000000E+00
  0.00000000E+00  0.00000000E+00  0.00000000E+00
  0.00000000E+00  0.00000000E+00  0.00000000E+00
  0.00000000E+00  0.00000000E+00  0.00000000E+00
  0.00000000E+00  0.00000000E+00  0.00000000E+00
  0.00000000E+00  0.00000000E+00  0.00000000E+00
  0.00000000E+00  0.00000000E+00  0.00000000E+00
  0.00000000E+00  0.00000000E+00  0.00000000E+00
  0.00000000E+00  0.00000000E+00  0.00000000E+00
  0.00000000E+00  0.00000000E+00  0.00000000E+00
  0.00000000E+00  0.00000000E+00  0.00000000E+00
  0.00000000E+00  0.00000000E+00  0.00000000E+00
  0.00000000E+00  0.00000000E+00  0.00000000E+00
  0.00000000E+00  0.00000000E+00  0.00000000E+00
  0.00000000E+00  0.00000000E+00  0.00000000E+00
  0.00000000E+00  0.00000000E+00  0.00000000E+00
  0.00000000E+00  0.00000000E+00  0.00000000E+00
  0.00000000E+00  0.00000000E+00  0.00000000E+00
  0.00000000E+00  0.00000000E+00  0.00000000E+00
  0.00000000E+00  0.00000000E+00  0.00000000E+00
  0.00000000E+00  0.00000000E+00  0.00000000E+00
  0.00000000E+00  0.00000000E+00  0.00000000E+00
  0.00000000E+00  0.00000000E+00  0.00000000E+00
  0.00000000E+00  0.00000000E+00  0.00000000E+00
  0.00000000E+00  0.00000000E+00  0.00000000E+00
  0.00000000E+00  0.00000000E+00  0.00000000E+00
  0.00000000E+00  0.00000000E+00  0.00000000E+00
  0.00000000E+00  0.00000000E+00  0.00000000E+00
  0.00000000E+00  0.00000000E+00  0.00000000E+00
  0.00000000E+00  0.00000000E+00  0.00000000E+00
  0.00000000E+00  0.00000000E+00  0.00000000E+00
  0.00000000E+00  0.00000000E+00  0.00000000E+00
  0.00000000E+00  0.00000000E+00  0.00000000E+00
  0.00000000E+00  0.00000000E+00  0.00000000E+00
  0.00000000E+00  0.00000000E+00  0.00000000E+00
  0.00000000E+00  0.00000000E+00  0.00000000E+00
  0.00000000E+00  0.00000000E+00  0.00000000E+00
  0.00000000E+00  0.00000000E+00  0.00000000E+00
  0.00000000E+00  0.00000000E+00  0.00000000E+00
  0.00000000E+00  0.00000000E+00  0.00000000E+00
  0.00000000E+00  0.00000000E+00  0.00000000E+00
  0.00000000E+00  0.00000000E+00  0.00000000E+00
  0.00000000E+00  0.00000000E+00  0.00000000E+00
  0.00000000E+00  0.00000000E+00  0.00000000E+00
  0.00000000E+00  0.00000000E+00  0.00000000E+00
  0.00000000E+00  0.00000000E+00  0.00000000E+00
  0.00000000E+00  0.00000000E+00  0.00000000E+00
  0.00000000E+00  0.00000000E+00  0.00000000E+00
  0.00000000E+00  0.00000000E+00  0.00000000E+00
  0.00000000E+00  0.00000000E+00  0.00000000E+00
  0.00000000E+00  0.00000000E+00  0.00000000E+00
  0.00000000E+00  0.00000000E+00  0.00000000E+00
  0.00000000E+00  0.00000000E+00  0.00000000E+00
  0.00000000E+00  0.00000000E+00  0.00000000E+00
  0.00000000E+00  0.00000000E+00  0.00000000E+00
  0.00000000E+00  0.00000000E+00  0.00000000E+00
  0.00000000E+00  0.00000000E+00  0.00000000E+00
  0.00000000E+00  0.00000000E+00  0.00000000E+00
  0.00000000E+00  0.00000000E+00  0.00000000E+00
  0.00000000E+00  0.00000000E+00  0.00000000E+00
  0.00000000E+00  0.00000000E+00  0.00000000E+00
  0.00000000E+00  0.00000000E+00  0.00000000E+00
  0.00000000E+00  0.00000000E+00  0.00000000E+00
  0.00000000E+00  0.00000000E+00  0.00000000E+00
  0.00000000E+00  0.00000000E+00  0.00000000E+00
  0.00000000E+00  0.00000000E+00  0.00000000E+00
  0.00000000E+00  0.00000000E+00  0.00000000E+00
  0.00000000E+00  0.00000000E+00  0.00000000E+00
  0.00000000E+00  0.00000000E+00  0.00000000E+00
  0.00000000E+00  0.00000000E+00  0.00000000E+00
  0.00000000E+00  0.00000000E+00  0.00000000E+00
  0.00000000E+00  0.00000000E+00  0.00000000E+00
  0.00000000E+00  0.00000000E+00  0.00000000E+00
  0.00000000E+00  0.00000000E+00  0.00000000E+00
  0.00000000E+00  0.00000000E+00  0.00000000E+00
  0.00000000E+00  0.00000000E+00  0.00000000E+00
  0.00000000E+00  0.00000000E+00  0.00000000E+00
  0.00000000E+00  0.00000000E+00  0.00000000E+00
  0.00000000E+00  0.00000000E+00  0.00000000E+00
  0.00000000E+00  0.00000000E+00  0.00000000E+00
  0.00000000E+00  0.00000000E+00  0.00000000E+00
  0.00000000E+00  0.00000000E+00  0.00000000E+00
  0.00000000E+00  0.00000000E+00  0.00000000E+00
  0.00000000E+00  0.00000000E+00  0.00000000E+00
  0.00000000E+00  0.00000000E+00  0.00000000E+00
  0.00000000E+00  0.00000000E+00  0.00000000E+00
  0.00000000E+00  0.00000000E+00  0.00000000E+00
  0.00000000E+00  0.00000000E+00  0.00000000E+00
  0.00000000E+00  0.00000000E+00  0.00000000E+00
  0.00000000E+00  0.00000000E+00  0.00000000E+00
  0.00000000E+00  0.00000000E+00  0.00000000E+00
  0.00000000E+00  0.00000000E+00  0.00000000E+00
  0.00000000E+00  0.00000000E+00  0.00000000E+00
  0.00000000E+00  0.00000000E+00  0.00000000E+00
  0.00000000E+00  0.00000000E+00  0.00000000E+00
  0.00000000E+00  0.00000000E+00  0.00000000E+00
  0.00000000E+00  0.00000000E+00  0.00000000E+00
  0.00000000E+00  0.00000000E+00  0.00000000E+00
  0.00000000E+00  0.00000000E+00  0.00000000E+00
  0.00000000E+00  0.00000000E+00  0.00000000E+00
  0.00000000E+00  0.00000000E+00  0.00000000E+00
  0.00000000E+00  0.00000000E+00  0.00000000E+00
  0.00000000E+00  0.00000000E+00  0.00000000E+00
  0.00000000E+00  0.00000000E+00  0.00000000E+00
  0.00000000E+00  0.00000000E+00  0.00000000E+00
  0.00000000E+00  0.00000000E+00  0.00000000E+00
  0.00000000E+00  0.00000000E+00  0.00000000E+00
  0.00000000E+00  0.00000000E+00  0.00000000E+00
  0.00000000E+00  0.00000000E+00  0.00000000E+00
  0.00000000E+00  0.00000000E+00  0.00000000E+00
  0.00000000E+00  0.00000000E+00  0.00000000E+00
  0.00000000E+00  0.00000000E+00  0.00000000E+00
  0.00000000E+00  0.00000000E+00  0.00000000E+00