Amorphous Sb                            
  0.943000000000000     
    20.1278869700586931    0.0000000000000000    0.0000000000000000
     0.0000000000000000   20.1278869700586931    0.0000000000000000
     0.0000000000000000    0.0000000000000000   20.1278869700586931
   Ge   Se
   150   150
Direct
  0.5075394701184659  0.6956921021487564  0.7996061376203881
  0.2114180199951808  0.4440805225577474  0.8048208464258533
  0.3825572316178043  0.3339883121706278  0.6160079084355450
  0.8431458906404516  0.0260529318048153  0.6484964298605951
  0.8880911935771566  0.6358987365578432  0.6706629515228039
  0.2118903573498208  0.7094879711962888  0.9450771374534873
  0.1228692057735187  0.1457566431791024  0.3635744344558114
  0.3322816909582121  0.6162917993328634  0.8105419256850062
  0.3420192372159844  0.8766502706860768  0.2327360069428351
  0.3796722341632061  0.0151574471080206  0.4256002140781354
  0.0089873068865635  0.0395792644541799  0.4458124249704996
  0.6341878638322174  0.3393908410563021  0.8534898133060000
  0.6412909582540273  0.4380999234451365  0.5699266422423777
  0.2679289088827501  0.0171958788585529  0.8535588974854837
  0.6656963716944637  0.9476745341631111  0.4100620948344592
  0.0205105283772185  0.7742329252518989  0.0991859142599253
  0.0471356851622658  0.7526017135997048  0.3410748926356256
  0.8235306238965300  0.4120970042072465  0.3534941049687360
  0.1200918119737090  0.4798475002725004  0.9624814067730255
  0.0528686205204453  0.9200350662825016  0.4998311192549602
  0.1474253410784064  0.8372898593448079  0.1974775307380748
  0.4341345767582827  0.7473607609032034  0.9781855595111373
 -0.0130933640589615  0.1844520883229862  0.9318515206488043
  0.0224931071107117  0.0852490878975934  0.1284986799538272
  0.5678329870538182  0.3007730636166284  0.1621821766622187
  0.3801576876095861  0.1515081873666181  0.5905360662273283
  0.4096834590494955  0.7589877390002483  0.5420737262127087
  0.8024251274652806  0.9302656674376688  0.0193357485477064
  0.8056064007756185  0.5465250337551473  0.5895386351953387
  0.9437244320879433  0.7787481678503040  0.5823862511937371
  0.0894033477290914  0.3397622096845307  0.7543794547813446
  0.0259564340586609  0.1008040396514556  0.2651017310445650
  0.8975979963173275  0.4793313945324731  0.4517962660547855
  0.4006169557967396  0.4373243034638643  0.2483280561040590
  0.0327375117990398  0.5508941495204553  0.5736220620145780
  0.7271338284845373  0.7054250180301844  0.1590561732165324
  0.4541406367871698  0.4884280926371017  0.9163399640873159
  0.2703293000488950  0.0487722161679335  0.2429417094208895
  0.2616555287101830  0.3642868820783994  0.1346598073221578
  0.7639737136726125  0.3850318715288827  0.7727581758549087
  0.8406315105183384  0.8222216156850439  0.3876279743150881
  0.9304611340563600  0.1938995025571803  0.5721789173066401
  0.5759844812518740  0.8436776076729193  0.5369001699368479
  0.3793140150890794  0.9816249164765256  0.0978140063313248
  0.3426340136209947  0.6322322850845586  0.2389861697470526
  0.4003848751531509  0.4225862571494270  0.4900784278271633
  0.8953129144730571  0.8165444935985365  0.1632522572396966
  0.0617293426109826  0.3444845766910411  0.4139177308940196
  0.9926534874650276  0.7364391718050209  0.8000933189521204
  0.5437054231320216  0.0634241206248366  0.3088777225418278
  0.2668003683051993  0.4298361510453939  0.9458342473280801
  0.0397712385212103  0.2774210011952082  0.1548811256533100
  0.6463887701811696  0.7175802887617021  0.8424735626978951
  0.5918418242433729  0.3137287758982216  0.7275527260160202
  0.0283730775009639  0.5895179697982538  0.3543320168371219
  0.0242763255655854  0.9193730444241596  0.2171826909771141
  0.1810480120186562  0.5676422192221321  0.4565606929006272
  0.9727736704892780  0.3343819630901991  0.5885723306429356
  0.0950578018822989  0.0629076586413206  0.8309930495109735
  0.5252821000683376  0.4284309204784501  0.3230023652461632
  0.6763074275074474  0.1025236165040256  0.1603325651237828
  0.5331239707762342  0.6623528905515138  0.2211390929008853
  0.9248377227331662  0.6742321174083689  0.2818609952170079
  0.8509335048776120  0.0354897183541460  0.8340287330135048
  0.5549383546247677  0.8260147852843780  0.0213495553458360
  0.0807527447129294  0.3470369472127882  0.9426520646365129
  0.8193684958689190  0.8455593556564451  0.5259262054020737
  0.7296263361001614  0.7487621857339483  0.6894199269844744
  0.8215222283298745  0.2446887492758846  0.1513246434243005
  0.8307238528468407  0.3087025758227935  0.0183265913581581
  0.9649739781250509  0.4252996318140143  0.7311638429559386
  0.4140235036715948  0.1404158046261357  0.1685646375589328
  0.3650776653108504  0.5349316004675451  0.4155635894723427
  0.5080654271193252  0.8156250437677695  0.3745286786298484
  0.3386320917556372  0.4577600979021472  0.6722725092071434
  0.6782880642522360  0.9557745692641783  0.1092044948013483
  0.2504931835542114  0.2345964109824781  0.1767032845265696
  0.8607696240387406  0.0728653984008594  0.0261996174111783
  0.2583111790577167  0.8534937869624398  0.9407017454891727
  0.3754554308962771  0.2475002875508101  0.0251794556772176
  0.6491132581166771  0.9886316972563184  0.8793386901617914
  0.9694334882974052  0.5935127893125309  0.8484662966626095
  0.8002395573862323  0.4786939368852532  0.0594509357641028
  0.7354580783486990  0.5176587825133609  0.3341226995651088
  0.3604739066112113  0.1389257521458941  0.7246469640353964
  0.5950158963862611  0.1279237997734735  0.0263890562185387
  0.5078894522672632  0.6590658950008423  0.6122249887664297
  0.7814392064372184  0.3103026786611542  0.5153286470196782
  0.6370331294293738  0.5736550736423810  0.1423345721740125
  0.5619088715148089  0.2544000109191432  0.4020512406161314
  0.6170160696794718  0.1174664305470187  0.8890689015560637
  0.1097878405517051  0.1112465721293867  0.6068767907554286
  0.3077659743855680  0.5991786627391552  0.5814443320040913
  0.7592813893507417  0.0455857218322116  0.4505416566636971
  0.6519251975632998  0.9316623901596991  0.6079448408573471
  0.6654881631058971  0.6906848705450040  0.4980037921416667
  0.4259512353854259  0.9596567318099700  0.9448708134166451
  0.1479157956917501  0.4680153246021669  0.6343518353715176
  0.1720768514566994  0.7648341340112693  0.4732513784528048
  0.2061271122105697  0.1373079334052494  0.8397815222931122
  0.1138341371355769  0.4186314424121902  0.2430011801155955
  0.5329207342860491  0.2914835796348614  0.9260626749461676
  0.2261513515255255  0.5090403228122943  0.0774957826041368
  0.8708302133076099  0.0637280039526117  0.1871796973076121
  0.4284878789255189  0.8477823302328569  0.7417828870735694
  0.7336891895664309  0.7260519211404790  0.0026349718974586
  0.9909071209893346  0.4704916174023446  0.0095143755549076
  0.0476545722633044  0.6519296231258330  0.0518406539393158
  0.7016656935694063  0.1742349861659730  0.7048470430620498
  0.7084670220482908  0.9097746540012203  0.7881579666497460
  0.1085992560812459  0.8927417147167493  0.6850334677161580
  0.1081269601362357  0.9597139266904783  0.0081448763665125
  0.1368779544034187  0.9586427042022795  0.3724871388644005
  0.7601748627860745  0.1473779841072502  0.3226206615280228
  0.7380137293530991  0.8231912810589882  0.2972288273040955
  0.7298256624564591  0.6399364151370076  0.3875351559002327
  0.4466720439894236  0.2589762988830174  0.2886765212447747
  0.6825052326801145  0.6050290875461017  0.7156395082340695
  0.3287697349044116  0.2245949999984420  0.4419131712620535
  0.0829469485932868  0.9355501571648406  0.8046961392176250
  0.9385958944229629  0.4584569430019671  0.2015934154334705
  0.8680398812009832  0.2180947790010318  0.3842537410500251
  0.8113015681856851  0.6358436537486480  0.8219633898608415
  0.9508789776151562  0.9169115984716920  0.9552249318349648
  0.2310764644397636  0.3937399829008897  0.4088482875023914
  0.2436198021693227  0.6984767375837505  0.6628251306598844
  0.3810620992040184  0.9645866177431237  0.5601485650635639
  0.5641810098022573  0.8406885544641224  0.7755982622959936
  0.1856927603684599  0.1516452559865126  0.9922606496096916
  0.2836011501734375  0.8142731774945727  0.0763314502654304
  0.5283655122667341  0.5634229003737117  0.4473101225118014
  0.9039347620781971  0.7307971085474968  0.9094017894738788
  0.4623630000315340  0.1802653723309207  0.9068920430963492
  0.4374731659834299  0.5031645957781355  0.1131172422119582
  0.0519621858124721  0.7182746688413015  0.6353702235385934
  0.1831327915241531  0.6318428432634283  0.2247466460252323
  0.2921644318340902  0.2860071043361823  0.7950600052015621
  0.5560055452632122  0.0778917939509205  0.4946835272443827
  0.3237465010498519  0.7464903866316344  0.3525877272866382
  0.2943094848574363  0.8572657230950713  0.7095965288597922
  0.7112065462775105  0.4124293299665620  0.2146609578972735
  0.6023936240068155  0.4456870375153032  0.0201492063042891
  0.1787509810900777  0.9873290999398662  0.6231544863069958
  0.9315662645128342  0.2216170819108035  0.7745225564999005
  0.5749534031179222  0.2002769046907740  0.5601196925443389
  0.1334105722491013  0.2266018057693402  0.5239732676946669
  0.1455570144174928  0.6189923874082818  0.8114964208620372
  0.5190616670559429  0.8724977841631485  0.2042722720957172
  0.4779065956976354  0.4775269679443054  0.7536551288519590
  0.9068517778614773  0.4478420019372295  0.9063461976931347
  0.8504037315214372  0.1400919029623877  0.9037028748081684
  0.8573802123086800  0.9683758486337107  0.4826056010686110
  0.0760732696142022  0.7189833604176648  0.2097615411219634
  0.9302900861233120  0.4674030770039357  0.6047903195382974
  0.3215094976727135  0.6982358274399227  0.0238686204832400
  0.1232298384766363  0.0072822045151514  0.2469660922117917
  0.5782968453771493  0.4494209296777614  0.1580315645977013
  0.6877127499471933  0.0510021637630326  0.5681117483110211
  0.6053347922157493  0.2595952763296160  0.0263358321220273
  0.1385132247751797  0.0703546592227264  0.4760624221651578
  0.9332234288236273  0.8284879409712346  0.2953105367974913
  0.7507118150274651  0.0364220689840607  0.7555214215596467
  0.7784460012952759  0.6965155304927407  0.5790910133569050
  0.2871373579861442  0.7980959650314680  0.5840623412464013
  0.8650646916815387  0.6868886926637086  0.1627763780261015
  0.4654636886696967  0.1051698499403162  0.0112715155770765
  0.2890921040772376  0.1519361040636346  0.0807598999467303
  0.3867300944798359  0.8382040089307325  0.4345216993778653
  0.9351173241761002 -0.0143728469565360  0.7515407825455311
  0.7083825109775927  0.2216828158403649  0.2221874597369550
  0.7065144070210664  0.0222328944100343  0.9901953386086164
  0.5610229306239264  0.1933453764343392  0.6878445414822402
  0.1429662192512307  0.0644828375384988  0.0864185118635215
  0.8687811783934519  0.4986421921843494  0.7920975787694333
  0.2123136455550428  0.3564910859523757  0.2832252169443067
  0.3415708614107245  0.4106520068038905  0.8365858593300025
  0.2617403095177922  0.7653216289638010  0.1967499253570357
  0.2708949043210470  0.9702466041739550  0.3520560763787611
  0.3434902771294971  0.5188485119414757  0.0139245071892965
  0.4102475848422344  0.0183819654477501  0.2311987448998830
  0.4542291331847783  0.2496371249533005  0.5344328282901384
  0.4311268961345772  0.3132743167877451  0.1655601947654982
  0.9380985047416320  0.0016317441763021  0.2846134453908531
  0.4118849622252865  0.8499512657680633  0.1137298243190087
  0.0634129510504247  0.4952146452857963  0.4384317433091491
  0.0688884430154242  0.4960772979187429  0.8386779808740763
  0.5697197255811550  0.4605693395415631  0.8477679706107342
  0.3005662262243868  0.9876847961213733  0.6705158755171314
  0.5335480868082433  0.1696215319963957  0.2219574808820209
  0.9032426695191141  0.5398522243633925  0.3090701667204748
  0.6033163002512041  0.5373204267203868  0.3316265596351508
  0.3366182572751013  0.1967420786426411  0.8969407857660943
  0.1807303661877799  0.9071680366572609  0.5198391580337060
  0.0267866639440497  0.2100095628974284  0.4319978330227809
  0.5444450524125195  0.9127566435288598  0.8988578896250694
  0.5939857974407452  0.9620166275730554  0.7212004590281440
  0.7191557707346167  0.4818802926228391  0.6801177359550211
  0.1599707968029365  0.8330028501424797  0.3372089447322318
  0.9299350956184529  0.3465883141094304  0.4588447274383761
  0.5338691689091040  0.7084094425480956  0.4505394776826577
  0.8718621685087193  0.3311471754192156  0.7104744547616711
  0.3315619179950393  0.6529630162166208  0.4599293399486804
  0.6948481972122267  0.2060193581165584  0.8371072680972146
  0.3030776234234184  0.0991600371522249  0.4991856133655513
  0.7603063271535617  0.8366671353311611  0.1704742396138844
  0.7540743854575215  0.5434640208858378  0.2002363250762176
  0.1562852507858364  0.6674242610611921  0.3730604119931230
  0.0356227244877479  0.8447937965325080  0.8805789442447163
  0.7881273216850706  0.4119946200416203  0.9365707645300764
  0.9813208689335110  0.0707855023231534  0.5736780832761972
  0.2579805142565090  0.9471400673855965  0.1528713664183884
  0.5484627796778823  0.5914481597106296  0.7243004108038493
 -0.0017454975904909  0.9055855225106351  0.6216453758864432
  0.1499166040647761  0.2837706751449230  0.8555324560519529
  0.5289094991321228  0.4004006652165809  0.6543221890120764
  0.2812673229539335  0.2691951315168266  0.5620449164983581
  0.2636550424168436  0.9837650055243808  0.9793199228078634
  0.7645268765274487  0.1518433959084134  0.0709586144437254
  0.8633826210342820  0.6110183898934601  0.9442878524152752
  0.9013211941396061  0.1840108952127422  0.2368841434867982
  0.5276063482127236  0.4203303563327382  0.4572327663013376
  0.6072887611730794  0.3316098559298077  0.3034004281047198
  0.6139102392650303  0.5750863324793617  0.5510870290307348
  0.6733472034013011  0.7091634329750135  0.2919647289871996
  0.4387217780929500  0.7498642804795950  0.2793967601250646
  0.1275955135097022  0.7712545910304320  0.7262573998731574
  0.7750411203721408  0.7630424772278159  0.8750406306118048
  0.5832753664448087  0.7678810318140006  0.1486754914013916
  0.8933395838759253  0.7672864652585146  0.7139567440907043
  0.0901469944997982  0.2426400776323270  0.0226423264679428
  0.8320139000954979  0.9205952392396691  0.8861945725865236
  0.6928262015106048  0.8532950064273364  0.0057603039162094
  0.7589493928163011  0.0362411188752213  0.2521732295496460
  0.2258169509907113  0.5488776535903844  0.7190195466104806
  0.7593448287994240  0.4714193854407393  0.4874167083140310
  0.4079713065733151  0.2673045119317199  0.7298560383239926
 -0.0104840987410630  0.9623710044514044  0.0937321655309862
  0.4328743382161994  0.5616942869203475  0.3090147062082008
  0.1324140957054447  0.1980872374030463  0.2140829726314503
  0.0348480148095466  0.7939744515440259  0.4741012402452203
  0.7601810555372100  0.3023168779130320  0.3826816591754786
  0.4125327173914086  0.7169944751756450  0.7122626847063219
  0.6427087567711719  0.9084891200513027  0.2888549662431198
  0.3848578004327959  0.8380494218018720  0.8946417914147098
  0.1346721456447372  0.8234498791694846  0.0517361148992789
  0.8172882594461872  0.1754812325507685  0.5043554503374451
  0.6972838772241210  0.8293847806042116  0.4630882519917687
  0.0445410676437379  0.2289847077321596  0.6965937191515833
  0.6922189002058637  0.5845319674878332  0.8454548322080493
  0.2612929702569087  0.3155630114208904  0.0092862585149393
  0.4362280431243729  0.6420698093750197  0.8939524746891853
  0.0584582642922629  0.6687749642268478  0.9253998613835299
  0.5505105817306150  0.9575066515503556  0.1021116188518483
  0.4570018890538213  0.3732644847649029 -0.0137168135382887
  0.8971665413441055  0.8036069928157897  0.0139693417947362
  0.6381074941057640  0.1397739739015098  0.3804734933192961
  0.2327353771592445  0.5773514263785900  0.9034268741859560
  0.2595757023161678  0.4747597501284831  0.5577125998691275
  0.5121570956537778  0.1120546583376629  0.8148419266386323
  0.4231039337112437  0.5405153416681178  0.5973311969244389
  0.2112734910867708  0.9027936456730292  0.8204223958133239
  0.0212671852133508  0.0554465423968568  0.9338561588561380
  0.2508089780157967  0.5167764843815064  0.3562578946861449
  0.9453516265628893  0.1694306049036361  0.0592701537695913
  0.2108694144354200  0.3606695567126042  0.6939892612104136
  0.3293459109806926  0.1900300813829890  0.2740691949881827
  0.2622932565027367  0.7273760436858793  0.8169158260083000
  0.8483419569317593  0.6893701532707893  0.3930153222519645
  0.0792287076949863  0.5413654860963648  0.2369285859452067
  0.9567676777735573  0.5676171076024282  0.0835875725918916
  0.1981856350798022  0.2453556002855447  0.4091164989268393
  0.2307434405482419  0.1656931708128029  0.7128359943273391
  0.9628749395619884  0.3322794920288371  0.8795287671434754
  0.8429584500027977  0.3682640815859136  0.2339963753040711
  0.5404393161413733  0.9523935462283289  0.4421387439011715
  0.6943729953827846  0.5522177327083414  0.0242884808587193
  0.3900015203315441  0.0005906534230617  0.8240076071012160
  0.5191195616997532  0.5502912111639657  0.0183559132048060
  0.6426049277243011  0.2971484855106686  0.5092730130678765
  0.6010361513839506  0.7637156690567328  0.6485150746908354
  0.2833482786897083  0.5165372002746824  0.1956488110285883
  0.1005674222562751  0.3538549078973583  0.5485124935457877
  0.7656019101543127  0.8813588416545720  0.6481816735414305
  0.4301008330465132  0.6356070329295065  0.1386770162987792
  0.1736834329494053  0.6318311240099614  0.0851008075732934
  0.6054873669405467  0.7043610452861543  0.9662939836585203
  0.7089344873690768  0.3078808237723584  0.6713192119716844
  0.4598088747659375  0.8702808664025272  0.6101246551037679
  0.3611037079160219  0.3635760069758579  0.3762542473966334
  0.1460884016776778  0.6629801356170023  0.5679619925934905
  0.8532240875446178  0.1608451276369751  0.6785840418970419
  0.0063948038578223  0.3618428978300005  0.2760190199379121
  0.9392585579350214  0.3693613592301384  0.0731158999524632
  0.1242126390020236  0.3811447086652201  0.1213128791425059
  0.4596496863903328  0.1213650653501027  0.3947353339510268
  0.9358547803527905  0.6387911215038617  0.5393056864555840
  0.0129138389067679  0.0968980249252017  0.7382933865628681
  0.0217598527081293  0.6101670374957012  0.7040255344031019
  0.7266160791444422  0.3695457060486237  0.0879149500069118
  0.4725874937648755  0.0536349895619409  0.6000791205979071
 
  0.00000000E+00  0.00000000E+00  0.00000000E+00
  0.00000000E+00  0.00000000E+00  0.00000000E+00
  0.00000000E+00  0.00000000E+00  0.00000000E+00
  0.00000000E+00  0.00000000E+00  0.00000000E+00
  0.00000000E+00  0.00000000E+00  0.00000000E+00
  0.00000000E+00  0.00000000E+00  0.00000000E+00
  0.00000000E+00  0.00000000E+00  0.00000000E+00
  0.00000000E+00  0.00000000E+00  0.00000000E+00
  0.00000000E+00  0.00000000E+00  0.00000000E+00
  0.00000000E+00  0.00000000E+00  0.00000000E+00
  0.00000000E+00  0.00000000E+00  0.00000000E+00
  0.00000000E+00  0.00000000E+00  0.00000000E+00
  0.00000000E+00  0.00000000E+00  0.00000000E+00
  0.00000000E+00  0.00000000E+00  0.00000000E+00
  0.00000000E+00  0.00000000E+00  0.00000000E+00
  0.00000000E+00  0.00000000E+00  0.00000000E+00
  0.00000000E+00  0.00000000E+00  0.00000000E+00
  0.00000000E+00  0.00000000E+00  0.00000000E+00
  0.00000000E+00  0.00000000E+00  0.00000000E+00
  0.00000000E+00  0.00000000E+00  0.00000000E+00
  0.00000000E+00  0.00000000E+00  0.00000000E+00
  0.00000000E+00  0.00000000E+00  0.00000000E+00
  0.00000000E+00  0.00000000E+00  0.00000000E+00
  0.00000000E+00  0.00000000E+00  0.00000000E+00
  0.00000000E+00  0.00000000E+00  0.00000000E+00
  0.00000000E+00  0.00000000E+00  0.00000000E+00
  0.00000000E+00  0.00000000E+00  0.00000000E+00
  0.00000000E+00  0.00000000E+00  0.00000000E+00
  0.00000000E+00  0.00000000E+00  0.00000000E+00
  0.00000000E+00  0.00000000E+00  0.00000000E+00
  0.00000000E+00  0.00000000E+00  0.00000000E+00
  0.00000000E+00  0.00000000E+00  0.00000000E+00
  0.00000000E+00  0.00000000E+00  0.00000000E+00
  0.00000000E+00  0.00000000E+00  0.00000000E+00
  0.00000000E+00  0.00000000E+00  0.00000000E+00
  0.00000000E+00  0.00000000E+00  0.00000000E+00
  0.00000000E+00  0.00000000E+00  0.00000000E+00
  0.00000000E+00  0.00000000E+00  0.00000000E+00
  0.00000000E+00  0.00000000E+00  0.00000000E+00
  0.00000000E+00  0.00000000E+00  0.00000000E+00
  0.00000000E+00  0.00000000E+00  0.00000000E+00
  0.00000000E+00  0.00000000E+00  0.00000000E+00
  0.00000000E+00  0.00000000E+00  0.00000000E+00
  0.00000000E+00  0.00000000E+00  0.00000000E+00
  0.00000000E+00  0.00000000E+00  0.00000000E+00
  0.00000000E+00  0.00000000E+00  0.00000000E+00
  0.00000000E+00  0.00000000E+00  0.00000000E+00
  0.00000000E+00  0.00000000E+00  0.00000000E+00
  0.00000000E+00  0.00000000E+00  0.00000000E+00
  0.00000000E+00  0.00000000E+00  0.00000000E+00
  0.00000000E+00  0.00000000E+00  0.00000000E+00
  0.00000000E+00  0.00000000E+00  0.00000000E+00
  0.00000000E+00  0.00000000E+00  0.00000000E+00
  0.00000000E+00  0.00000000E+00  0.00000000E+00
  0.00000000E+00  0.00000000E+00  0.00000000E+00
  0.00000000E+00  0.00000000E+00  0.00000000E+00
  0.00000000E+00  0.00000000E+00  0.00000000E+00
  0.00000000E+00  0.00000000E+00  0.00000000E+00
  0.00000000E+00  0.00000000E+00  0.00000000E+00
  0.00000000E+00  0.00000000E+00  0.00000000E+00
  0.00000000E+00  0.00000000E+00  0.00000000E+00
  0.00000000E+00  0.00000000E+00  0.00000000E+00
  0.00000000E+00  0.00000000E+00  0.00000000E+00
  0.00000000E+00  0.00000000E+00  0.00000000E+00
  0.00000000E+00  0.00000000E+00  0.00000000E+00
  0.00000000E+00  0.00000000E+00  0.00000000E+00
  0.00000000E+00  0.00000000E+00  0.00000000E+00
  0.00000000E+00  0.00000000E+00  0.00000000E+00
  0.00000000E+00  0.00000000E+00  0.00000000E+00
  0.00000000E+00  0.00000000E+00  0.00000000E+00
  0.00000000E+00  0.00000000E+00  0.00000000E+00
  0.00000000E+00  0.00000000E+00  0.00000000E+00
  0.00000000E+00  0.00000000E+00  0.00000000E+00
  0.00000000E+00  0.00000000E+00  0.00000000E+00
  0.00000000E+00  0.00000000E+00  0.00000000E+00
  0.00000000E+00  0.00000000E+00  0.00000000E+00
  0.00000000E+00  0.00000000E+00  0.00000000E+00
  0.00000000E+00  0.00000000E+00  0.00000000E+00
  0.00000000E+00  0.00000000E+00  0.00000000E+00
  0.00000000E+00  0.00000000E+00  0.00000000E+00
  0.00000000E+00  0.00000000E+00  0.00000000E+00
  0.00000000E+00  0.00000000E+00  0.00000000E+00
  0.00000000E+00  0.00000000E+00  0.00000000E+00
  0.00000000E+00  0.00000000E+00  0.00000000E+00
  0.00000000E+00  0.00000000E+00  0.00000000E+00
  0.00000000E+00  0.00000000E+00  0.00000000E+00
  0.00000000E+00  0.00000000E+00  0.00000000E+00
  0.00000000E+00  0.00000000E+00  0.00000000E+00
  0.00000000E+00  0.00000000E+00  0.00000000E+00
  0.00000000E+00  0.00000000E+00  0.00000000E+00
  0.00000000E+00  0.00000000E+00  0.00000000E+00
  0.00000000E+00  0.00000000E+00  0.00000000E+00
  0.00000000E+00  0.00000000E+00  0.00000000E+00
  0.00000000E+00  0.00000000E+00  0.00000000E+00
  0.00000000E+00  0.00000000E+00  0.00000000E+00
  0.00000000E+00  0.00000000E+00  0.00000000E+00
  0.00000000E+00  0.00000000E+00  0.00000000E+00
  0.00000000E+00  0.00000000E+00  0.00000000E+00
  0.00000000E+00  0.00000000E+00  0.00000000E+00
  0.00000000E+00  0.00000000E+00  0.00000000E+00
  0.00000000E+00  0.00000000E+00  0.00000000E+00
  0.00000000E+00  0.00000000E+00  0.00000000E+00
  0.00000000E+00  0.00000000E+00  0.00000000E+00
  0.00000000E+00  0.00000000E+00  0.00000000E+00
  0.00000000E+00  0.00000000E+00  0.00000000E+00
  0.00000000E+00  0.00000000E+00  0.00000000E+00
  0.00000000E+00  0.00000000E+00  0.00000000E+00
  0.00000000E+00  0.00000000E+00  0.00000000E+00
  0.00000000E+00  0.00000000E+00  0.00000000E+00
  0.00000000E+00  0.00000000E+00  0.00000000E+00
  0.00000000E+00  0.00000000E+00  0.00000000E+00
  0.00000000E+00  0.00000000E+00  0.00000000E+00
  0.00000000E+00  0.00000000E+00  0.00000000E+00
  0.00000000E+00  0.00000000E+00  0.00000000E+00
  0.00000000E+00  0.00000000E+00  0.00000000E+00
  0.00000000E+00  0.00000000E+00  0.00000000E+00
  0.00000000E+00  0.00000000E+00  0.00000000E+00
  0.00000000E+00  0.00000000E+00  0.00000000E+00
  0.00000000E+00  0.00000000E+00  0.00000000E+00
  0.00000000E+00  0.00000000E+00  0.00000000E+00
  0.00000000E+00  0.00000000E+00  0.00000000E+00
  0.00000000E+00  0.00000000E+00  0.00000000E+00
  0.00000000E+00  0.00000000E+00  0.00000000E+00
  0.00000000E+00  0.00000000E+00  0.00000000E+00
  0.00000000E+00  0.00000000E+00  0.00000000E+00
  0.00000000E+00  0.00000000E+00  0.00000000E+00
  0.00000000E+00  0.00000000E+00  0.00000000E+00
  0.00000000E+00  0.00000000E+00  0.00000000E+00
  0.00000000E+00  0.00000000E+00  0.00000000E+00
  0.00000000E+00  0.00000000E+00  0.00000000E+00
  0.00000000E+00  0.00000000E+00  0.00000000E+00
  0.00000000E+00  0.00000000E+00  0.00000000E+00
  0.00000000E+00  0.00000000E+00  0.00000000E+00
  0.00000000E+00  0.00000000E+00  0.00000000E+00
  0.00000000E+00  0.00000000E+00  0.00000000E+00
  0.00000000E+00  0.00000000E+00  0.00000000E+00
  0.00000000E+00  0.00000000E+00  0.00000000E+00
  0.00000000E+00  0.00000000E+00  0.00000000E+00
  0.00000000E+00  0.00000000E+00  0.00000000E+00
  0.00000000E+00  0.00000000E+00  0.00000000E+00
  0.00000000E+00  0.00000000E+00  0.00000000E+00
  0.00000000E+00  0.00000000E+00  0.00000000E+00
  0.00000000E+00  0.00000000E+00  0.00000000E+00
  0.00000000E+00  0.00000000E+00  0.00000000E+00
  0.00000000E+00  0.00000000E+00  0.00000000E+00
  0.00000000E+00  0.00000000E+00  0.00000000E+00
  0.00000000E+00  0.00000000E+00  0.00000000E+00
  0.00000000E+00  0.00000000E+00  0.00000000E+00
  0.00000000E+00  0.00000000E+00  0.00000000E+00
  0.00000000E+00  0.00000000E+00  0.00000000E+00
  0.00000000E+00  0.00000000E+00  0.00000000E+00
  0.00000000E+00  0.00000000E+00  0.00000000E+00
  0.00000000E+00  0.00000000E+00  0.00000000E+00
  0.00000000E+00  0.00000000E+00  0.00000000E+00
  0.00000000E+00  0.00000000E+00  0.00000000E+00
  0.00000000E+00  0.00000000E+00  0.00000000E+00
  0.00000000E+00  0.00000000E+00  0.00000000E+00
  0.00000000E+00  0.00000000E+00  0.00000000E+00
  0.00000000E+00  0.00000000E+00  0.00000000E+00
  0.00000000E+00  0.00000000E+00  0.00000000E+00
  0.00000000E+00  0.00000000E+00  0.00000000E+00
  0.00000000E+00  0.00000000E+00  0.00000000E+00
  0.00000000E+00  0.00000000E+00  0.00000000E+00
  0.00000000E+00  0.00000000E+00  0.00000000E+00
  0.00000000E+00  0.00000000E+00  0.00000000E+00
  0.00000000E+00  0.00000000E+00  0.00000000E+00
  0.00000000E+00  0.00000000E+00  0.00000000E+00
  0.00000000E+00  0.00000000E+00  0.00000000E+00
  0.00000000E+00  0.00000000E+00  0.00000000E+00
  0.00000000E+00  0.00000000E+00  0.00000000E+00
  0.00000000E+00  0.00000000E+00  0.00000000E+00
  0.00000000E+00  0.00000000E+00  0.00000000E+00
  0.00000000E+00  0.00000000E+00  0.00000000E+00
  0.00000000E+00  0.00000000E+00  0.00000000E+00
  0.00000000E+00  0.00000000E+00  0.00000000E+00
  0.00000000E+00  0.00000000E+00  0.00000000E+00
  0.00000000E+00  0.00000000E+00  0.00000000E+00
  0.00000000E+00  0.00000000E+00  0.00000000E+00
  0.00000000E+00  0.00000000E+00  0.00000000E+00
  0.00000000E+00  0.00000000E+00  0.00000000E+00
  0.00000000E+00  0.00000000E+00  0.00000000E+00
  0.00000000E+00  0.00000000E+00  0.00000000E+00
  0.00000000E+00  0.00000000E+00  0.00000000E+00
  0.00000000E+00  0.00000000E+00  0.00000000E+00
  0.00000000E+00  0.00000000E+00  0.00000000E+00
  0.00000000E+00  0.00000000E+00  0.00000000E+00
  0.00000000E+00  0.00000000E+00  0.00000000E+00
  0.00000000E+00  0.00000000E+00  0.00000000E+00
  0.00000000E+00  0.00000000E+00  0.00000000E+00
  0.00000000E+00  0.00000000E+00  0.00000000E+00
  0.00000000E+00  0.00000000E+00  0.00000000E+00
  0.00000000E+00  0.00000000E+00  0.00000000E+00
  0.00000000E+00  0.00000000E+00  0.00000000E+00
  0.00000000E+00  0.00000000E+00  0.00000000E+00
  0.00000000E+00  0.00000000E+00  0.00000000E+00
  0.00000000E+00  0.00000000E+00  0.00000000E+00
  0.00000000E+00  0.00000000E+00  0.00000000E+00
  0.00000000E+00  0.00000000E+00  0.00000000E+00
  0.00000000E+00  0.00000000E+00  0.00000000E+00
  0.00000000E+00  0.00000000E+00  0.00000000E+00
  0.00000000E+00  0.00000000E+00  0.00000000E+00
  0.00000000E+00  0.00000000E+00  0.00000000E+00
  0.00000000E+00  0.00000000E+00  0.00000000E+00
  0.00000000E+00  0.00000000E+00  0.00000000E+00
  0.00000000E+00  0.00000000E+00  0.00000000E+00
  0.00000000E+00  0.00000000E+00  0.00000000E+00
  0.00000000E+00  0.00000000E+00  0.00000000E+00
  0.00000000E+00  0.00000000E+00  0.00000000E+00
  0.00000000E+00  0.00000000E+00  0.00000000E+00
  0.00000000E+00  0.00000000E+00  0.00000000E+00
  0.00000000E+00  0.00000000E+00  0.00000000E+00
  0.00000000E+00  0.00000000E+00  0.00000000E+00
  0.00000000E+00  0.00000000E+00  0.00000000E+00
  0.00000000E+00  0.00000000E+00  0.00000000E+00
  0.00000000E+00  0.00000000E+00  0.00000000E+00
  0.00000000E+00  0.00000000E+00  0.00000000E+00
  0.00000000E+00  0.00000000E+00  0.00000000E+00
  0.00000000E+00  0.00000000E+00  0.00000000E+00
  0.00000000E+00  0.00000000E+00  0.00000000E+00
  0.00000000E+00  0.00000000E+00  0.00000000E+00
  0.00000000E+00  0.00000000E+00  0.00000000E+00
  0.00000000E+00  0.00000000E+00  0.00000000E+00
  0.00000000E+00  0.00000000E+00  0.00000000E+00
  0.00000000E+00  0.00000000E+00  0.00000000E+00
  0.00000000E+00  0.00000000E+00  0.00000000E+00
  0.00000000E+00  0.00000000E+00  0.00000000E+00
  0.00000000E+00  0.00000000E+00  0.00000000E+00
  0.00000000E+00  0.00000000E+00  0.00000000E+00
  0.00000000E+00  0.00000000E+00  0.00000000E+00
  0.00000000E+00  0.00000000E+00  0.00000000E+00
  0.00000000E+00  0.00000000E+00  0.00000000E+00
  0.00000000E+00  0.00000000E+00  0.00000000E+00