SYSTEM = M0_rho_a stage3 relax quenched a-GST225 (fixed cell)
ISTART = 0
ICHARG = 2
ENCUT  = 400
PREC   = Normal
EDIFF  = 1E-05
EDIFFG = -0.02
LREAL  = A
ALGO   = Fast
ISMEAR = 0
SIGMA  = 0.05
ISIF   = 2
IBRION = 2
NSW    = 200
POTIM  = 0.5
ISYM   = 0
LWAVE  = .FALSE.
LCHARG = .FALSE.
LVTOT  = .FALSE.
LELF   = .FALSE.
NCORE  = 16
