Ge Se                                   
   1.00000000000000     
    20.2740058898925781    0.0000000000000000    0.0000000000000000
     0.0000000000000000   20.2740058898925781    0.0000000000000000
     0.0000000000000000    0.0000000000000000   20.2740058898925781
   Ge   Se
   150   150
Direct
  0.7163178415590552  0.3131269006469048  0.0954060997019714
  0.2638302858331797  0.6271009194434679  0.7577075895588812
  0.1878023709916463  0.6359330959205155  0.3198405908948827
  0.5200911229273120  0.8342243037303292  0.0524135653163852
  0.5702227900442464  0.4297334096491344  0.1358504472339991
  0.9766160492710354  0.8963071097748972  0.0364831049686546
  0.8511206978340514  0.7821598807908074  0.8255415182112376
  0.3592950479503513  0.8388832829238388  0.3189384163585385
  0.6499983476176491  0.1670032181494029  0.7220972583897320
  0.1733566945158479  0.3487752501038786  0.4605605736921555
  0.0975615998544063  0.4797707474143116  0.7531247477676719
  0.2434100122550466  0.2022498142784276  0.7882560919999018
  0.2446649622817232  0.4552902119441803  0.6206209118350332
  0.8900805722699208  0.4620776109262196  0.3182969873849951
  0.5592582348807544  0.0573892842381946  0.6616942806761025
  0.4336704693841971  0.8813622292892157  0.7077022768441563
  0.8733758077175998  0.5392848677133500  0.0414457628270828
  0.5245154366064083  0.4961239842889485  0.3999305760222412
  0.5130531667636236  0.8759265518592083  0.3014337356294881
  0.6024101640051100  0.1787640413749852  0.1994266553989961
  0.0979193569880729  0.9353583459921206  0.1529741701450819
  0.2494016762713998  0.5990300201854354  0.1411588915727315
  0.3395182320495559  0.6760489612099172  0.0937777381262488
  0.3438893620228620  0.3208271518902162  0.6653650687855932
  0.5458922052420540  0.2059665975143316  0.5180145441043809
  0.2406423749391980  0.1414694689648345  0.0098674612885269
  0.4739102045490929  0.9443254735392704  0.8301806542712946
  0.2413314498255776  0.9005936127388550  0.3088585844214090
  0.3545551404654732  0.0110975127553430  0.7021261354532501
  0.5027492076270933  0.0385124797751266  0.3824274339309757
  0.5372755138364218  0.6922940385125500  0.6759251116946734
  0.1618212931945013  0.1599631073832601  0.4502281330367749
  0.1694373754172167  0.9902063075864362  0.5831578301942102
 -0.0008221458543015  0.0995788310022848  0.2870756154263017
  0.9900287580306204  0.7463985185009435  0.3158816479368080
  0.5670237449020102  0.5238710853467035  0.9706305960414743
  0.3444997413558450  0.4629697924589226  0.7699290744886904
  0.1187104999601803  0.4591153353673246  0.5379719688923780
  0.6183168047259936  0.8917302943258169  0.7185760693833951
  0.5075542439346536  0.0219545734729616  0.9236513225028256
  0.6964648790101938  0.2858826750481574  0.3887538065273375
  0.0501154585594369  0.2043411641528078  0.3334408746874183
  0.7292475927725123  0.2437627467513233  0.5717886673339154
  0.5105428336483261  0.4430702261741780  0.8930253365606902
  0.6416167136546993  0.7972652126860296  0.9291667409208650
  0.7127750332208163  0.8702382846544940  0.2513734542202050
  0.2738475822686582  0.7418629522160003  0.3123109218083324
  0.5201127753476065  0.2626904896890053  0.1205173709153560
  0.7036827137130551  0.5234175892579123  0.3601545131182529
  0.4471872593836928  0.5100895159651431  0.2333728729655674
  0.7864943869392879  0.0567332258798455  0.0245388789832790
  0.6007038537865521  0.9323298177580476  0.5053568165090296
  0.9706380260409750  0.3505950375399222  0.8904698251980282
  0.0389347230036544  0.5624206748575721  0.5207038720797754
  0.3866355206798283  0.2679135000837497  0.8739603165293809
  0.8154294713934632  0.3587971883564089  0.3275560678244224
  0.3095285146757374  0.6843266308444611  0.9195796662661708
  0.0232388037503713  0.8977573854729106  0.5922565630586287
  0.2798688169192303  0.5108399331324571  0.4887010616811053
  0.4464011191819205  0.0250847307205829  0.5492303925166806
  0.7804548038403970  0.7613325179422599  0.1561859671359666
  0.3810942648670622  0.1660932164042855  0.0636984404135160
  0.9356113029944891  0.3813006351753328  0.6481222140460572
  0.8694574749824584  0.9378921174210565  0.1122147376125780
  0.6063273127279198  0.5546380011776891  0.6897644768706398
  0.8079236378394455  0.2997765948317504  0.9308678443205221
  0.0359578960177607  0.7303258352319196  0.4539508913176521
  0.9968338979344361  0.3277792482234506  0.4677567770620679
  0.9723162099682505  0.1007510156799762  0.0062022327916408
  0.6988823258713587  0.0336815592127184  0.1198778254543170
  0.9661786882370482  0.6753388165516376  0.6516550211704446
  0.1124180859165483  0.8557040332623077  0.7873566867457913
  0.3814434696040049  0.2188660040153781  0.4203425496761297
  0.9461018894211031  0.7534294313210059  0.9279070303877340
  0.5290745816487932  0.3452400254098570  0.2773740746447134
  0.2010802698767658  0.9820543498559505  0.7296650706133792
  0.1573706856818639  0.0182535985193044  0.4089270397662425
  0.1477468434794636  0.2758447098632053  0.2803579881727040
  0.2315048434581090  0.3843036957251342  0.1301302804154376
  0.2542010644544351  0.7584386121740122  0.4359976532041306
  0.9485002333877424  0.5552074964919592  0.8982825252380733
  0.5738915396131398  0.7302028336345514  0.1951541963980279
  0.5059647714896229  0.0778385111335017  0.2081312476808020
  0.3677587296804765  0.5684730049175070  0.4071010552200154
  0.4428583681149447  0.4871870805505836  0.6217622791641506
  0.4177350627279124  0.7682812429803303  0.4846307600789515
  0.6616274435186936  0.9952111677043639  0.3841487982348325
  0.6515863035939247  0.6124410255513685  0.0896879593423998
  0.4365688147420326  0.0610830554455584  0.0182857235064391
  0.7249585421802643  0.6911153273030054  0.5280308314071855
  0.1644379598936734  0.4728493220082349  0.3419006336345227
  0.8419543986748841  0.2095818990224677  0.3057743568116363
  0.4651318856968820  0.7149363248192592  0.3482915813266674
  0.9809171636694918  0.0861147599207460  0.7149917405198213
  0.3097939727241562  0.2664454980274678  0.2040191015775673
  0.6647809276580579  0.7082332761761497  0.6949488938239159
  0.1666728456825790  0.0172791741162265  0.0836936663874103
  0.6584110841002725  0.3777189958629448  0.9067423902212827
  0.3395005292037935  0.6357370309664354  0.3053414756777390
  0.4834712438338856  0.2424118424289672  0.3420241937465535
  0.3699300920999248  0.9128359649256357  0.0825764253057298
  0.1598009315324567  0.0704202702199904  0.9303719682193196
  0.0523916141845243  0.2211706133999711  0.8975967786152315
  0.1506702622180515  0.6277299919997505  0.9011040066474897
  0.3437677054819374  0.9939609060634118  0.3735262141840807
  0.4276014248022141  0.3488999771207996  0.4562596234248067
  0.6192259956014428  0.8083978485842364  0.5347759478270465
  0.8292980658396727  0.0486285388539213  0.4087106914090635
  0.1128183521038506  0.3460829245673439  0.1223982232916701
  0.0567295647137113  0.4797278175343505  0.0240026600124430
  0.8353074032187676  0.6722767155579669  0.3510046437843681
  0.3228174762043010  0.9431383564806020  0.8907648770071117
  0.5744351110860034  0.2782301610580504  0.4197868780301892
  0.9643478432623940  0.0845226453204491  0.5381351073833275
 -0.0003972674478063  0.5433969781197210  0.3264197115899135
  0.3644057506012790  0.6841167346981712  0.6344641560954444
  0.6583132602964454  0.3567786859275393  0.7178192366716831
  0.3526879892589966  0.5342828026421990 -0.0025422103097445
  0.8669328805945955  0.8101884465184546  0.4641789240432047
  0.7300031202407375  0.1665148640033556  0.4545764725596410
  0.8199194555035119  0.6676800931445072  0.9211235252889338
  0.1433358212008988  0.6736482146581920  0.1371537341331174
  0.8581237974975724  0.9379503389310275  0.8919604506493920
  0.5652007052472028  0.2340677279535777  0.9563659315210054
  0.7622788457456098  0.8818592562672288  0.4927799479815268
  0.8049903633201658  0.6000125882479170  0.1725959800426984
  0.0061315529953343  0.2969372946587248  0.0044822764894808
  0.8139929601735004  0.1183513912452253  0.9100125331426021
  0.0195455911036090  0.7541496947404674  0.1186439520815985
  0.3974683383017560  0.7500360040924273  0.8495495257707683
  0.6451131786783861  0.5895260787088664  0.2662846399964213
  0.7966812305092557  0.3519287547439039  0.1982598948289260
  0.6546197548466939  0.0970053913856232  0.9325326498272890
  0.7115093983749859  0.5085725117338538  0.5614824703135635
  0.9664523043362820  0.4014535460813815  0.1581228546767796
  0.7306140893453270  0.7591909344089431  0.7907531070996485
  0.1428546648886167  0.8009799201571001  0.4699480352932811
  0.4204749366461739  0.6554560497216405  0.9922328396871596
  0.5979110410493433  0.9422261382556931  0.0840454805669571
  0.2697042493717774  0.8268470175271064  0.6728828441381541
  0.5275931361288881  0.7368525402419255  0.8882044466431984
  0.8104128657645913  0.1229579007770164  0.6173962837521099
  0.8470134498350419  0.3265275247421434  0.4503573133322764
  0.5029291054711911  0.6096529086437312  0.9059660670831776
  0.2212325840404777  0.7573932780270574  0.1975853721901937
  0.9801585001622783  0.2690347094463716  0.1781433488034570
  0.7342740638751576  0.1856727799959717  0.0687524216559982
  0.1351695608556158  0.1292460183291460  0.1374159175053683
  0.9500724692891134  0.5403092482455158  0.6120301806773075
  0.9841225473037797  0.9447859964436355  0.2077867931197484
  0.4532759542619210  0.2572236035391982  0.0142159749179768
  0.7701978415032635  0.3238324389738206  0.6589846833441659
  0.0209253666103067  0.1658093741774026  0.6204365608101228
  0.7736548194448827  0.9667596581826914  0.1949523548081377
  0.3899271495196618  0.6618095975946445  0.7639954648605625
  0.9721979946333671  0.6072502656210054  0.0038885283159814
  0.0171557088366886  0.7700244767478692  0.7343981109542704
  0.6321278394036391  0.2941080451043357  0.2327315751362628
  0.6166502456740292  0.9495685749000964  0.2708530760329488
  0.7967254831415638  0.9319109094621411  0.0019456411425111
  0.9194079639528552  0.0508135500836824  0.9012372662335503
  0.6651148811290581  0.8089788782247177  0.1478255614480893
  0.2894986098162087  0.5640319375845446  0.8963446887303361
  0.5436261421658936  0.3792889243269643  0.4786575863469438
  0.9301255421110789  0.6405770817318155  0.2727999048797192
  0.9708309012332874  0.6320044629348684  0.8086370921262629
  0.8792325988992128  0.7562998031516380  0.6209599079250697
  0.9542513550962930  0.2750479732092310  0.3050109174794762
  0.3636753985034430  0.2335617595145880  0.7552312437814179
  0.0448101633551137  0.3651062513844676  0.5778697152819293
  0.6942928185963249  0.6878204570141476  0.8847212723893922
  0.1340317879800764  0.2055452974587934  0.0446211286836441
  0.1003451696971222  0.6015171202272283  0.7866814754677267
  0.2070577681313156  0.1773482678904687  0.2243091797067178
  0.2478206584659502  0.0163077541504042  0.4946208870687525
  0.7008456324652196  0.5271842794101275  0.1738022370777754
  0.1404809244790358  0.1412470795498312  0.6305294212804744
  0.2600599449521986  0.3767532177619812  0.2447171234338423
  0.8517569131944474  0.2011512807926010  0.4386892239362719
  0.4425147457843159  0.6404582000531057  0.2433170706396120
  0.3359223070408670  0.7748400069610503  0.1650289038591728
  0.8192062194933671  0.5358871217067419  0.3842973723217644
  0.1066381141772783  0.1325071751893125  0.8395477609545028
  0.3842264757833418  0.0331183560908878  0.8212147560738975
  0.5451266567344815  0.3375522957589120  0.8508072410960317
  0.5275906853482958  0.8044314381695972  0.7428083512227271
  0.7393914728066953  0.2585905729924254  0.7562630533423728
  0.9045389965851203  0.0256429668630292  0.6351136561155500
  0.5744230611357665  0.9950458368232558  0.7754269975926802
  0.9682697991078051  0.8805453595639018  0.9129774747854422
  0.7261759711022455  0.0774272462374273  0.6942734921446004
  0.9418262929243175  0.4247144950114843  0.0381175762008359
  0.3243344186501677  0.6812442448369405  0.4957197891189110
  0.9616541314996531  0.5879973079566694  0.4352892031695598
  0.2188558297143696  0.7134646717893445  0.8399559735275633
  0.2495781502175643  0.3842491850910226  0.7264240675252858
  0.8865207186769669  0.0633699202546955  0.0946845818493504
  0.3743451173705342  0.4275139521086327  0.5339763707306933
  0.3254673700441932  0.0100635554443621  0.0047497442695401
  0.6471047263916566  0.5547738863644114  0.4610220593186063
  0.3261513221316300  0.3824569028326785  0.8782999784399111
  0.2614410689311302  0.4197864763759382  0.4046946454892676
  0.6807475223045376  0.8633410599181750  0.8305397115744758
  0.6173683351144779  0.4553561775849965  0.6200092401917044
  0.0747557568257763 -0.0037268607509975  0.7026237647222414
  0.8749647091720869  0.7980198566216575  0.3438922281559954
  0.8484034025259755  0.6607314311650552  0.7949630185226231
  0.7215202781051687  0.6037365956019685  0.6638883164634148
  0.2000374531277087  0.9722388307910763  0.8620520479444181
  0.0357790256074738  0.2944573576931823  0.8054339969221386
  0.7544212214915468  0.0641822072516408  0.5205230406427178
  0.2031242270790874  0.8806397359889019  0.1936804176579981
  0.2174974108403108  0.2521468618611837  0.3839284561645387
  0.3365408118029151  0.8401360116675242  0.7838936716256527
  0.7296509970232247  0.3450636272373485  0.4947420436219347
  0.6229451048701667  0.5046219840189330  0.8049567771244149
  0.9734031192537934  0.4832462687777888  0.7165013169562368
  0.4684383856896143  0.5312545890747549  0.8203150733297353
  0.2414737717273090  0.0238556114638769  0.3054337710336132
  0.9167837496326665  0.7830041706436571  0.0486520012521779
  0.1950341526786268  0.2130535494654276  0.5566300725826802
  0.7186632418618712  0.4337914987923270  0.7989410938054581
  0.4883970549382933  0.8197305129373411  0.1712345123617016
  0.2961278978025026  0.1785167761687316  0.9007512609352928
  0.0761920828835495  0.3853182672966106  0.3855310251935290
  0.1112052822884929  0.3654584312473306 -0.0022107376432969
  0.2551000041435896  0.0941085763210735  0.7141134016385450
  0.6025030973396354  0.3402130008998123  0.0480192739694595
  0.0182265127835357  0.1310603881467758  0.1688596056108072
  0.5449099562003777  0.1292850452285322  0.8757965081943389
  0.0898194016930635  0.8465401643844811  0.0683492467545973
  0.7753209531434065  0.3811427580411809  0.0109658950830532
  0.4363575638641254  0.3953382862017131  0.7097338716368597
  0.0569714243667371 -0.0014549204461048  0.5204905198752854
  0.5331392319422742  0.9423809555554384  0.6116333534631641
  0.1438386820704147  0.5259647527009848  0.6423282787805551
  0.0740377708547615  0.7333400571969604  0.9378080841036016
  0.7124406207658783  0.7882309971656694  0.6149519939349077
  0.4008678263832109  0.4214635063890689  0.9638319111184588
  0.5012997948321906  0.5125965921355533  0.0711301634596178
  0.0337930761893713  0.9891904105779235  0.3133042004743600
  0.4375897749689355  0.9950154898582410  0.2798286226701838
  0.4808987058889321  0.9892159561703316  0.1070247830315498
  0.2426599728072591  0.7049830998277637  0.6570131267980823
  0.5788372623378968  0.7530902741223687  0.3211250490671079
  0.8815424297671198  0.0949309078671046  0.2777048773755725
  0.0245860293724949  0.4628296525225489  0.8861905804191926
  0.8799575620536615  0.2113882349201557  0.9641798218152196
  0.7290357152937764  0.0983523404305868  0.3477743407065775
  0.4639635661051731  0.3652068266898860  0.1725576283588697
  0.6124665310292700  0.2409311835154757  0.6177736802657319
  0.3051842538095406  0.3032159226329659  0.0852732277418151
  0.4076441542332941  0.4651214131427567  0.3442385054671788
  0.5552457388494086  0.1454911282673965  0.3186863560165439
  0.0728903918036889  0.4624272041564388  0.1603205105262873
  0.9672261813276805  0.8187415167288112  0.2128653828226653
  0.0628146575957652  0.6748631422516862  0.5676826954198428
  0.7010092488974278  0.2557052809834114  0.8983377871058076
  0.0925042771452527  0.6418659210043417  0.2464238957598435
  0.3308671718351892  0.8528449189017308  0.4419396570139447
  0.3823917912072847  0.8161651656447140  0.6096963127176188
  0.5319120152128354  0.7130352767466043  0.0158183124599230
  0.4213843127561416  0.1647991900896966  0.1804554565942864
  0.8308431637513924  0.5362221454626547  0.9194115951387646
  0.2492897657848775  0.4988418158562655  0.0688849518525826
  0.0303738205168324  0.9459212866058216  0.8035128972646912
  0.7730089442120085  0.9341741166869132  0.3801551893136813
  0.6157870350408764  0.1469395750418128  0.0425954235153519
  0.4298062875355600  0.2381814833473845  0.5369289560633824
  0.1260190882647555  0.8351128040036614  0.9091306681295626
  0.8617869728738686  0.4634813831542734  0.1948469633035688
  0.3314063992889029  0.5428063386053639  0.6487904445050298
  0.0708528554276293  0.0154462242223334  0.0013277437081850
  0.7492186416294414  0.6843968906728882  0.2560239670415319
  0.5532852422070085  0.7103880638727399  0.5545827389623639
  0.1584154566552632  0.5715172487375370  0.4217592829345515
  0.1392091455574835  0.8822786301756201  0.3766647643766582
  0.2677523707906055  0.5502922224688827  0.2541673273431100
  0.6989569615744963  0.7844486111207591  0.4413162823029114
  0.8702696599578159  0.4601314828819806  0.5759796874513667
  0.3970792325821165  0.0929039711955572  0.4299691538674690
  0.5013760640899795  0.9141101604528138  0.4325612291077456
  0.4784850107446447  0.6175975800758917  0.4297735374953029
  0.6996981139162108  0.4040871943424822  0.3282153655565738
  0.8544592630774061  0.6971433236688386  0.5120225356754338
  0.4349362176040302  0.0949924469744020  0.6551632213587473
  0.0410771337822770  0.2042283241879319  0.4554754717720107
  0.5638772876363461  0.4847861711338258  0.2751250547812818
  0.1455786727611254  0.8587293250353993  0.5782306346972815
  0.7646771156937809  0.6699552008219241  0.0688141576157094
  0.4165594524067780  0.8517390092072373  0.9887778585137044
  0.2494558727347616  0.7129069051416550  0.0194712381606907
  0.6805703294427470  0.5335156155720471  0.9969027331694852
  0.8603855543056412  0.3643308997301178  0.8448220099882441
  0.9162245621939203  0.8292823769149872  0.7289098178031065
  0.8604081525969851  0.2611545154265323  0.1498585224667618
  0.9844116825307048  0.8414963021193198  0.4788541947655691
  0.5549588251051466  0.0851657598041154  0.5153091428203723
  0.6148111837427580  0.9763425818513566  0.9632809140220814
  0.7227163281268355  0.1404850315475709  0.1846324288554747
 
  0.00000000E+00  0.00000000E+00  0.00000000E+00
  0.00000000E+00  0.00000000E+00  0.00000000E+00
  0.00000000E+00  0.00000000E+00  0.00000000E+00
  0.00000000E+00  0.00000000E+00  0.00000000E+00
  0.00000000E+00  0.00000000E+00  0.00000000E+00
  0.00000000E+00  0.00000000E+00  0.00000000E+00
  0.00000000E+00  0.00000000E+00  0.00000000E+00
  0.00000000E+00  0.00000000E+00  0.00000000E+00
  0.00000000E+00  0.00000000E+00  0.00000000E+00
  0.00000000E+00  0.00000000E+00  0.00000000E+00
  0.00000000E+00  0.00000000E+00  0.00000000E+00
  0.00000000E+00  0.00000000E+00  0.00000000E+00
  0.00000000E+00  0.00000000E+00  0.00000000E+00
  0.00000000E+00  0.00000000E+00  0.00000000E+00
  0.00000000E+00  0.00000000E+00  0.00000000E+00
  0.00000000E+00  0.00000000E+00  0.00000000E+00
  0.00000000E+00  0.00000000E+00  0.00000000E+00
  0.00000000E+00  0.00000000E+00  0.00000000E+00
  0.00000000E+00  0.00000000E+00  0.00000000E+00
  0.00000000E+00  0.00000000E+00  0.00000000E+00
  0.00000000E+00  0.00000000E+00  0.00000000E+00
  0.00000000E+00  0.00000000E+00  0.00000000E+00
  0.00000000E+00  0.00000000E+00  0.00000000E+00
  0.00000000E+00  0.00000000E+00  0.00000000E+00
  0.00000000E+00  0.00000000E+00  0.00000000E+00
  0.00000000E+00  0.00000000E+00  0.00000000E+00
  0.00000000E+00  0.00000000E+00  0.00000000E+00
  0.00000000E+00  0.00000000E+00  0.00000000E+00
  0.00000000E+00  0.00000000E+00  0.00000000E+00
  0.00000000E+00  0.00000000E+00  0.00000000E+00
  0.00000000E+00  0.00000000E+00  0.00000000E+00
  0.00000000E+00  0.00000000E+00  0.00000000E+00
  0.00000000E+00  0.00000000E+00  0.00000000E+00
  0.00000000E+00  0.00000000E+00  0.00000000E+00
  0.00000000E+00  0.00000000E+00  0.00000000E+00
  0.00000000E+00  0.00000000E+00  0.00000000E+00
  0.00000000E+00  0.00000000E+00  0.00000000E+00
  0.00000000E+00  0.00000000E+00  0.00000000E+00
  0.00000000E+00  0.00000000E+00  0.00000000E+00
  0.00000000E+00  0.00000000E+00  0.00000000E+00
  0.00000000E+00  0.00000000E+00  0.00000000E+00
  0.00000000E+00  0.00000000E+00  0.00000000E+00
  0.00000000E+00  0.00000000E+00  0.00000000E+00
  0.00000000E+00  0.00000000E+00  0.00000000E+00
  0.00000000E+00  0.00000000E+00  0.00000000E+00
  0.00000000E+00  0.00000000E+00  0.00000000E+00
  0.00000000E+00  0.00000000E+00  0.00000000E+00
  0.00000000E+00  0.00000000E+00  0.00000000E+00
  0.00000000E+00  0.00000000E+00  0.00000000E+00
  0.00000000E+00  0.00000000E+00  0.00000000E+00
  0.00000000E+00  0.00000000E+00  0.00000000E+00
  0.00000000E+00  0.00000000E+00  0.00000000E+00
  0.00000000E+00  0.00000000E+00  0.00000000E+00
  0.00000000E+00  0.00000000E+00  0.00000000E+00
  0.00000000E+00  0.00000000E+00  0.00000000E+00
  0.00000000E+00  0.00000000E+00  0.00000000E+00
  0.00000000E+00  0.00000000E+00  0.00000000E+00
  0.00000000E+00  0.00000000E+00  0.00000000E+00
  0.00000000E+00  0.00000000E+00  0.00000000E+00
  0.00000000E+00  0.00000000E+00  0.00000000E+00
  0.00000000E+00  0.00000000E+00  0.00000000E+00
  0.00000000E+00  0.00000000E+00  0.00000000E+00
  0.00000000E+00  0.00000000E+00  0.00000000E+00
  0.00000000E+00  0.00000000E+00  0.00000000E+00
  0.00000000E+00  0.00000000E+00  0.00000000E+00
  0.00000000E+00  0.00000000E+00  0.00000000E+00
  0.00000000E+00  0.00000000E+00  0.00000000E+00
  0.00000000E+00  0.00000000E+00  0.00000000E+00
  0.00000000E+00  0.00000000E+00  0.00000000E+00
  0.00000000E+00  0.00000000E+00  0.00000000E+00
  0.00000000E+00  0.00000000E+00  0.00000000E+00
  0.00000000E+00  0.00000000E+00  0.00000000E+00
  0.00000000E+00  0.00000000E+00  0.00000000E+00
  0.00000000E+00  0.00000000E+00  0.00000000E+00
  0.00000000E+00  0.00000000E+00  0.00000000E+00
  0.00000000E+00  0.00000000E+00  0.00000000E+00
  0.00000000E+00  0.00000000E+00  0.00000000E+00
  0.00000000E+00  0.00000000E+00  0.00000000E+00
  0.00000000E+00  0.00000000E+00  0.00000000E+00
  0.00000000E+00  0.00000000E+00  0.00000000E+00
  0.00000000E+00  0.00000000E+00  0.00000000E+00
  0.00000000E+00  0.00000000E+00  0.00000000E+00
  0.00000000E+00  0.00000000E+00  0.00000000E+00
  0.00000000E+00  0.00000000E+00  0.00000000E+00
  0.00000000E+00  0.00000000E+00  0.00000000E+00
  0.00000000E+00  0.00000000E+00  0.00000000E+00
  0.00000000E+00  0.00000000E+00  0.00000000E+00
  0.00000000E+00  0.00000000E+00  0.00000000E+00
  0.00000000E+00  0.00000000E+00  0.00000000E+00
  0.00000000E+00  0.00000000E+00  0.00000000E+00
  0.00000000E+00  0.00000000E+00  0.00000000E+00
  0.00000000E+00  0.00000000E+00  0.00000000E+00
  0.00000000E+00  0.00000000E+00  0.00000000E+00
  0.00000000E+00  0.00000000E+00  0.00000000E+00
  0.00000000E+00  0.00000000E+00  0.00000000E+00
  0.00000000E+00  0.00000000E+00  0.00000000E+00
  0.00000000E+00  0.00000000E+00  0.00000000E+00
  0.00000000E+00  0.00000000E+00  0.00000000E+00
  0.00000000E+00  0.00000000E+00  0.00000000E+00
  0.00000000E+00  0.00000000E+00  0.00000000E+00
  0.00000000E+00  0.00000000E+00  0.00000000E+00
  0.00000000E+00  0.00000000E+00  0.00000000E+00
  0.00000000E+00  0.00000000E+00  0.00000000E+00
  0.00000000E+00  0.00000000E+00  0.00000000E+00
  0.00000000E+00  0.00000000E+00  0.00000000E+00
  0.00000000E+00  0.00000000E+00  0.00000000E+00
  0.00000000E+00  0.00000000E+00  0.00000000E+00
  0.00000000E+00  0.00000000E+00  0.00000000E+00
  0.00000000E+00  0.00000000E+00  0.00000000E+00
  0.00000000E+00  0.00000000E+00  0.00000000E+00
  0.00000000E+00  0.00000000E+00  0.00000000E+00
  0.00000000E+00  0.00000000E+00  0.00000000E+00
  0.00000000E+00  0.00000000E+00  0.00000000E+00
  0.00000000E+00  0.00000000E+00  0.00000000E+00
  0.00000000E+00  0.00000000E+00  0.00000000E+00
  0.00000000E+00  0.00000000E+00  0.00000000E+00
  0.00000000E+00  0.00000000E+00  0.00000000E+00
  0.00000000E+00  0.00000000E+00  0.00000000E+00
  0.00000000E+00  0.00000000E+00  0.00000000E+00
  0.00000000E+00  0.00000000E+00  0.00000000E+00
  0.00000000E+00  0.00000000E+00  0.00000000E+00
  0.00000000E+00  0.00000000E+00  0.00000000E+00
  0.00000000E+00  0.00000000E+00  0.00000000E+00
  0.00000000E+00  0.00000000E+00  0.00000000E+00
  0.00000000E+00  0.00000000E+00  0.00000000E+00
  0.00000000E+00  0.00000000E+00  0.00000000E+00
  0.00000000E+00  0.00000000E+00  0.00000000E+00
  0.00000000E+00  0.00000000E+00  0.00000000E+00
  0.00000000E+00  0.00000000E+00  0.00000000E+00
  0.00000000E+00  0.00000000E+00  0.00000000E+00
  0.00000000E+00  0.00000000E+00  0.00000000E+00
  0.00000000E+00  0.00000000E+00  0.00000000E+00
  0.00000000E+00  0.00000000E+00  0.00000000E+00
  0.00000000E+00  0.00000000E+00  0.00000000E+00
  0.00000000E+00  0.00000000E+00  0.00000000E+00
  0.00000000E+00  0.00000000E+00  0.00000000E+00
  0.00000000E+00  0.00000000E+00  0.00000000E+00
  0.00000000E+00  0.00000000E+00  0.00000000E+00
  0.00000000E+00  0.00000000E+00  0.00000000E+00
  0.00000000E+00  0.00000000E+00  0.00000000E+00
  0.00000000E+00  0.00000000E+00  0.00000000E+00
  0.00000000E+00  0.00000000E+00  0.00000000E+00
  0.00000000E+00  0.00000000E+00  0.00000000E+00
  0.00000000E+00  0.00000000E+00  0.00000000E+00
  0.00000000E+00  0.00000000E+00  0.00000000E+00
  0.00000000E+00  0.00000000E+00  0.00000000E+00
  0.00000000E+00  0.00000000E+00  0.00000000E+00
  0.00000000E+00  0.00000000E+00  0.00000000E+00
  0.00000000E+00  0.00000000E+00  0.00000000E+00
  0.00000000E+00  0.00000000E+00  0.00000000E+00
  0.00000000E+00  0.00000000E+00  0.00000000E+00
  0.00000000E+00  0.00000000E+00  0.00000000E+00
  0.00000000E+00  0.00000000E+00  0.00000000E+00
  0.00000000E+00  0.00000000E+00  0.00000000E+00
  0.00000000E+00  0.00000000E+00  0.00000000E+00
  0.00000000E+00  0.00000000E+00  0.00000000E+00
  0.00000000E+00  0.00000000E+00  0.00000000E+00
  0.00000000E+00  0.00000000E+00  0.00000000E+00
  0.00000000E+00  0.00000000E+00  0.00000000E+00
  0.00000000E+00  0.00000000E+00  0.00000000E+00
  0.00000000E+00  0.00000000E+00  0.00000000E+00
  0.00000000E+00  0.00000000E+00  0.00000000E+00
  0.00000000E+00  0.00000000E+00  0.00000000E+00
  0.00000000E+00  0.00000000E+00  0.00000000E+00
  0.00000000E+00  0.00000000E+00  0.00000000E+00
  0.00000000E+00  0.00000000E+00  0.00000000E+00
  0.00000000E+00  0.00000000E+00  0.00000000E+00
  0.00000000E+00  0.00000000E+00  0.00000000E+00
  0.00000000E+00  0.00000000E+00  0.00000000E+00
  0.00000000E+00  0.00000000E+00  0.00000000E+00
  0.00000000E+00  0.00000000E+00  0.00000000E+00
  0.00000000E+00  0.00000000E+00  0.00000000E+00
  0.00000000E+00  0.00000000E+00  0.00000000E+00
  0.00000000E+00  0.00000000E+00  0.00000000E+00
  0.00000000E+00  0.00000000E+00  0.00000000E+00
  0.00000000E+00  0.00000000E+00  0.00000000E+00
  0.00000000E+00  0.00000000E+00  0.00000000E+00
  0.00000000E+00  0.00000000E+00  0.00000000E+00
  0.00000000E+00  0.00000000E+00  0.00000000E+00
  0.00000000E+00  0.00000000E+00  0.00000000E+00
  0.00000000E+00  0.00000000E+00  0.00000000E+00
  0.00000000E+00  0.00000000E+00  0.00000000E+00
  0.00000000E+00  0.00000000E+00  0.00000000E+00
  0.00000000E+00  0.00000000E+00  0.00000000E+00
  0.00000000E+00  0.00000000E+00  0.00000000E+00
  0.00000000E+00  0.00000000E+00  0.00000000E+00
  0.00000000E+00  0.00000000E+00  0.00000000E+00
  0.00000000E+00  0.00000000E+00  0.00000000E+00
  0.00000000E+00  0.00000000E+00  0.00000000E+00
  0.00000000E+00  0.00000000E+00  0.00000000E+00
  0.00000000E+00  0.00000000E+00  0.00000000E+00
  0.00000000E+00  0.00000000E+00  0.00000000E+00
  0.00000000E+00  0.00000000E+00  0.00000000E+00
  0.00000000E+00  0.00000000E+00  0.00000000E+00
  0.00000000E+00  0.00000000E+00  0.00000000E+00
  0.00000000E+00  0.00000000E+00  0.00000000E+00
  0.00000000E+00  0.00000000E+00  0.00000000E+00
  0.00000000E+00  0.00000000E+00  0.00000000E+00
  0.00000000E+00  0.00000000E+00  0.00000000E+00
  0.00000000E+00  0.00000000E+00  0.00000000E+00
  0.00000000E+00  0.00000000E+00  0.00000000E+00
  0.00000000E+00  0.00000000E+00  0.00000000E+00
  0.00000000E+00  0.00000000E+00  0.00000000E+00
  0.00000000E+00  0.00000000E+00  0.00000000E+00
  0.00000000E+00  0.00000000E+00  0.00000000E+00
  0.00000000E+00  0.00000000E+00  0.00000000E+00
  0.00000000E+00  0.00000000E+00  0.00000000E+00
  0.00000000E+00  0.00000000E+00  0.00000000E+00
  0.00000000E+00  0.00000000E+00  0.00000000E+00
  0.00000000E+00  0.00000000E+00  0.00000000E+00
  0.00000000E+00  0.00000000E+00  0.00000000E+00
  0.00000000E+00  0.00000000E+00  0.00000000E+00
  0.00000000E+00  0.00000000E+00  0.00000000E+00
  0.00000000E+00  0.00000000E+00  0.00000000E+00
  0.00000000E+00  0.00000000E+00  0.00000000E+00
  0.00000000E+00  0.00000000E+00  0.00000000E+00
  0.00000000E+00  0.00000000E+00  0.00000000E+00
  0.00000000E+00  0.00000000E+00  0.00000000E+00
  0.00000000E+00  0.00000000E+00  0.00000000E+00
  0.00000000E+00  0.00000000E+00  0.00000000E+00
  0.00000000E+00  0.00000000E+00  0.00000000E+00
  0.00000000E+00  0.00000000E+00  0.00000000E+00
  0.00000000E+00  0.00000000E+00  0.00000000E+00
  0.00000000E+00  0.00000000E+00  0.00000000E+00
  0.00000000E+00  0.00000000E+00  0.00000000E+00
  0.00000000E+00  0.00000000E+00  0.00000000E+00
  0.00000000E+00  0.00000000E+00  0.00000000E+00
  0.00000000E+00  0.00000000E+00  0.00000000E+00
  0.00000000E+00  0.00000000E+00  0.00000000E+00
  0.00000000E+00  0.00000000E+00  0.00000000E+00
  0.00000000E+00  0.00000000E+00  0.00000000E+00
  0.00000000E+00  0.00000000E+00  0.00000000E+00