Ce13 Se26
1.0
   9.6819500000000005    0.0000000000000000    0.0000000000000000
  -1.7411300000000001   10.4948979999999992    0.0000000000000000
  -1.0711679999999999   -2.0878489999999998   12.7222589999999993
Ce Se
13 26
direct
   0.0000000000000000    0.0000000000000000    0.0000000000000000 Ce
   0.2271200000000000    0.6939290000000000    0.9248369999999990 Ce
   0.7728800000000000    0.3060710000000000    0.0751630000000000 Ce
   0.6935920000000000    0.0742230000000000    0.7716890000000000 Ce
   0.3064080000000000    0.9257770000000000    0.2283110000000000 Ce
   0.0739350000000000    0.2274660000000000    0.3052930000000000 Ce
   0.9260649999999990    0.7725339999999991    0.6947070000000000 Ce
   0.1547919999999990    0.4650289999999990    0.6171179999999991 Ce
   0.8452080000000000    0.5349710000000000    0.3828820000000000 Ce
   0.4657150000000000    0.3836350000000000    0.8458310000000000 Ce
   0.5342850000000000    0.6163649999999991    0.1541690000000000 Ce
   0.3835429999999990    0.1545740000000000    0.5354130000000000 Ce
   0.6164569999999990    0.8454260000000000    0.4645869999999990 Ce
   0.9378580000000000    0.7309570000000000    0.9106780000000000 Se
   0.0621419999999990    0.2690430000000000    0.0893220000000000 Se
   0.7114039999999990    0.0344870000000000    0.9878060000000000 Se
   0.2885959999999990    0.9655130000000000    0.0121940000000000 Se
   0.0148919999999990    0.9575190000000000    0.2143960000000000 Se
   0.9851080000000000    0.0424810000000000    0.7856040000000000 Se
   0.6371669999999990    0.8055740000000000    0.6822220000000000 Se
   0.3628329999999990    0.1944260000000000    0.3177780000000000 Se
   0.7862570000000000    0.2636400000000000    0.2892090000000000 Se
   0.2137430000000000    0.7363600000000000    0.7107910000000000 Se
   0.2437389999999990    0.6567590000000000    0.1401790000000000 Se
   0.7562610000000000    0.3432409999999990    0.8598209999999999 Se
   0.8672900000000001    0.5042070000000000    0.6008340000000000 Se
   0.1327100000000000    0.4957930000000000    0.3991659999999990 Se
   0.4859159999999990    0.3473580000000000    0.0618740000000000 Se
   0.5140840000000000    0.6526419999999991    0.9381259999999991 Se
   0.3285500000000000    0.8860910000000000    0.4438220000000000 Se
   0.6714500000000001    0.1139090000000000    0.5561780000000000 Se
   0.1782089999999990    0.4253039999999990    0.8330520000000000 Se
   0.8217909999999991    0.5746960000000000    0.1669479999999990 Se
   0.4066349999999990    0.1149719999999990    0.7511669999999990 Se
   0.5933649999999990    0.8850279999999990    0.2488330000000000 Se
   0.0956760000000000    0.1964350000000000    0.5227490000000000 Se
   0.9043239999999990    0.8035650000000000    0.4772510000000000 Se
   0.5585380000000000    0.5776400000000000    0.3699090000000000 Se
   0.4414619999999990    0.4223600000000000    0.6300910000000000 Se
