Amorphous GeAsSeSi                      
   1.00000000000000     
    20.1500000000000000    0.0000000000000000    0.0000000000000000
     0.0000000000000000   20.1500000000000000    0.0000000000000000
     0.0000000000000000    0.0000000000000000   20.1500000000000000
   Ge   As   Se   Si
    75    75    75    75
Direct
  0.2036209449617219  0.1570169811391336  0.1572349892394199
  0.5804070913785637  0.7581547502930284  0.3355353698385057
  0.2004987616730316  0.9950042805160461  0.8462867280270812
  0.3178553186736239  0.9816135220387057  0.1004614649002277
  0.2973801746343462  0.5965437373108176  0.8874653060326855
  0.9536786036396659  0.0188271845383157  0.7847862100646511
  0.5578225590121335  0.7951628696047898  0.8998737764763897
  0.1035208198376838  0.0901990411560182  0.6908038634997095
  0.6378300054641233  0.1172840930643391  0.8044395409740673
  0.8681757889888503  0.0016187919091745  0.6237018869518788
  0.5706426475722476  0.8618013203560838  0.2565817744932703
  0.4291813547788520  0.7766269825671115  0.3581679033272140
  0.9242429101576765  0.2259952620079881  0.2610772571353325
  0.3411826638298854  0.1752225534338430  0.8215169351284085
  0.8376274930991479  0.0430514697782969  0.5132276212441392
  0.8445209208833646  0.4815173821114380  0.9853257746643107
  0.3372288950451266  0.3674328081675433  0.5339994163661367
  0.2857983955001669  0.4889067527353924  0.0893726184916205
  0.5282105653888309  0.6441479003899395  0.3855743983747498
  0.5637989398784505  0.1383753440584264  0.9243909709523630
  0.0005275491381944  0.7381236714742265  0.8023848788536362
  0.7247033701361090  0.1391223758735526  0.2955906145927263
  0.2630632467162631  0.7838306233607484  0.5835713339685301
  0.8094713815513126  0.1546412985235045  0.6070246936805983
  0.1743416908275733  0.7293262363258368  0.1264561306255632
  0.5134467864637904  0.4472897693433633  0.7560230067917924
  0.0196293564717330  0.0076911016793942  0.5311575825402921
  0.7855871006238827  0.9461637602611829  0.3107138652316242
  0.9802443238130347  0.0376926499404709  0.6618352176268931
  0.3582403295793977  0.3967382966154364  0.2396011935882902
  0.5073139720506351  0.2297351456676936  0.0045758039538894
  0.0904208860870229  0.8890378869632217  0.9158344090053899
  0.4610145809765867  0.7965988304497473  0.8088745755899596
  0.5495138783130816  0.0252401239900368  0.1770497493377718
  0.9607169974389701  0.8369932945943167  0.7332299353563865
  0.8767850520329024  0.5894584584155390  0.8803968553932763
  0.5080950323823589  0.9301748257040776  0.4910981198251205
  0.9370363771216517  0.3213285389857888  0.5442178538800678
  0.4031007705631280  0.4402645114850599  0.8267934637802552
  0.9882327307687760  0.1026519085810055  0.8668405691868022
  0.7022669717657556  0.5573644604986514  0.2061792281568711
  0.1050037917596079  0.3226320658445705  0.6725575419685936
  0.4154676795961352  0.1133046341052962  0.2379915512053211
  0.1962538970974345  0.8173531496555893  0.3248338426437653
  0.5466111478272058  0.4890061765471993  0.4686381302071576
  0.7565524133794534  0.2413711155300074  0.8138178042513873
  0.9297820292207167  0.2149234587792692  0.0558723883460904
  0.9360921325085948  0.7138396024144467  0.4831829654650451
  0.3971854990870106  0.9947744241467794  0.9169687320451156
  0.0714855961360177  0.3136849874322103  0.1455220834675293
  0.4907053875085428  0.5986407785629242  0.8823495811597563
  0.7278820830480283  0.7319360973145256  0.8600960590789380
  0.8227820875159561  0.2571622916819739  0.4567196731238635
  0.5165381846259736  0.2626698670320670  0.7212383813263827
  0.7413164710369444  0.8529781600120108  0.7277978120559807
  0.1802735091529298  0.8981375303766749  0.5285760167890271
  0.2006073611907299  0.0589651222525927  0.2976706237658892
  0.0895700112939206  0.3130363691284884  0.4707468551190909
  0.6621095035413584  0.4085873589040959  0.8652621637998184
  0.4363229556185874  0.5972345945535520  0.0634531590529347
  0.6957376265346511  0.8607011010469410  0.5645045952025919
  0.3557678217880033  0.7200778186926196  0.0267838057446449
  0.9785758208878257  0.2304911591193203  0.9293988204886526
  0.3537003201833438  0.2290458747881187  0.7097978701688962
  0.3360247597951598  0.2648932268431854  0.1960666415272254
  0.8972809214387308  0.6273141252004648  0.3501292742855677
  0.6347544806893334  0.2872165219702034  0.6070227147324143
  0.7880113306967389  0.1203043276061715  0.1852217539217424
  0.1522134446142893  0.2054918791133445  0.5124451831844695
  0.9655175678868263  0.8987447795909685  0.9759065888364281
  0.3887162182277284  0.4024187230429871  0.3626851485099579
  0.3305376571133861  0.9463682382965435  0.4513608886461150
  0.6628655602210660  0.2133709105835612  0.8969086958183631
  0.2655747864594876  0.1804937256996298  0.5798481047590978
  0.4436318621100501  0.6298184418670772  0.7618286902759143
  0.1424544448122695  0.1068923126076994  0.4378449116764624
  0.7589422856093400  0.3371433198354357  0.0468863502285509
  0.8702365810731794  0.1655631489734939  0.8493687424793466
  0.9600533548748473  0.2209593257152211  0.7827507334059771
  0.3987256143805482  0.1775176269443823  0.1399925317612403
  0.2291104057486881  0.4259587061555371  0.1927963614472803
  0.2294760352504044  0.3444576998187958  0.6224994780256391
  0.5546881094360724  0.6510696861995903  0.2186734603404107
  0.4091437978572950  0.3361802454152489  0.7128729911862668
  0.9739958766566996  0.1161768673541743  0.1403596930271145
  0.0983442572002922  0.3385013784263949  0.3074354136996625
  0.3556005278705193  0.7807196072434678  0.6712878060127332
  0.2858358762500439  0.7660000502587380  0.9336982788697087
  0.9226182554019461  0.8164483783141654  0.1757322517417088
  0.2355260508939351  0.2457266304169421  0.6827292994610112
  0.1421583533118474  0.0307100809271033  0.5252144176955078
  0.6158129447761852  0.6815551268850804  0.8855745394372486
  0.1274961079136622  0.8060500246800102  0.0326729356582728
  0.3332118500633561  0.8117778490721265  0.1365138490309112
  0.0193150269652009  0.3795467321936976  0.3902196893252897
  0.3231490148615727  0.6523184237390970  0.7728349446765914
  0.2566272628030041  0.7466229427717250  0.4170678974875631
  0.8697705235746779  0.7417357937360379  0.3102251585775132
  0.9049691099671567  0.3247195107057507  0.6588657027031192
  0.6014416037828040  0.1157194882058664  0.2551309058216588
  0.7613725184973754  0.9376712439926276  0.0345503580960365
  0.8577035434813166  0.7160195190110100  0.6740086393066725
  0.4314451622191673  0.9947348595079000  0.2178502674224640
  0.9689175078555420  0.1125001202123003  0.3101645713132485
  0.9954652236903377  0.6165354125773306  0.4327909089760432
  0.6130807043418279  0.6957656056055039  0.7633845782095925
  0.8736469426881353  0.4719719074709839  0.1222201077629943
  0.6959383546958878  0.8519364105716392  0.8484159448343117
  0.7669433839441420  0.6991826805891854  0.5848649545057714
  0.9660375949205227  0.4131807266497099  0.1942406966122561
  0.8315057896012497  0.7536291914448613  0.9287056792778647
  0.3837822787851999  0.0503277274135710  0.5523746228466122
  0.9139207410543669  0.3212286302719853  0.3540023286048241
  0.6237867839921739  0.6223483409663803  0.1234756942840325
  0.7573833514156942  0.5760672381937200  0.6115957871440395
  0.5873011571457771  0.5036213494990535  0.8282374228489409
  0.2816407146655591  0.4155242065544496  0.7940167454712270
  0.5857945181667995  0.2724064800870022  0.1022977786935426
  0.0953703976103884  0.2065866914135420  0.6269553025339774
  0.7907320018231048  0.2805853522063464  0.1530764842093522
  0.8583707548928917  0.2598228009185654  0.9295143080157037
  0.3227302327341221  0.4585859922196217  0.4519712723944371
  0.4129708726491001  0.9039733175893467  0.0894281821663577
  0.4104312275087323  0.8562256783147032  0.9852949682830645
  0.6898546547116928  0.7681548728887514  0.6482155288652789
  0.5044360836954737  0.2991201342849289  0.5336538077396078
  0.8369199238592061  0.3307802036048345  0.8281227323858072
  0.5049367662660068  0.7262682143937997  0.7171958950270886
  0.5167040382823912  0.0090802815645782  0.6848940143159781
  0.1314340100054645  0.2316619127024193  0.8363140704831792
  0.3948113183295480  0.4926200564840522  0.1634178706331516
  0.5412239748223070  0.5577043368635748  0.2951454627540649
  0.3116651776228692  0.1017172472845846  0.0801337017478040
  0.6005160395215866  0.2964814587929933  0.8284404363662232
  0.3096768976439984  0.9384329136326498  0.8513780934018105
  0.4210452863068876  0.7625558645430447  0.2128623619010190
  0.3326065667812538  0.7687165124345505  0.7973134735856439
  0.9152734305913121  0.1534659797084260  0.6750526601344060
  0.2340921079159319  0.2485471368671671  0.3996716679858112
  0.5793395135865942  0.8310383750323885  0.5457738084191266
  0.8279192524673673  0.9923871321240665  0.8000119594415579
  0.7808394218910070  0.4324069000365438  0.8833680931506820
  0.7774660657435928  0.6760451039274021  0.0813533497728451
  0.4717547790908527  0.2795302107717935  0.2527773009425816
  0.3220032673002512  0.2548259681269113  0.4899409990629943
  0.8348232926718492  0.5150724550559302  0.3097452831982012
  0.3272845081926629  0.9959977008366506  0.6454396176313164
  0.9098857249664936  0.9846493298004927  0.4320687118186428
  0.5578023279359899  0.3709906938418079  0.6683103756964990
  0.9831061253454578  0.2080599113032901  0.5828877664237621
  0.7248023624210339  0.1106854172066174  0.6880157167735039
  0.3708108509196082  0.5848060287728729  0.2440568369847932
  0.1296246254390866  0.5468520707104940  0.9815175204687783
  0.5172653670361710  0.8049950559266950  0.1627710122638111
  0.0773150720397033  0.8990615303656808  0.6100056617171803
  0.5452851981339126  0.5617822381186082  0.0477246511135804
  0.2466923756527115  0.4473833823452212  0.6833347178051511
  0.7039691398623437  0.4222872771394159  0.2089191361549798
  0.1036808342385662  0.1491142483157933  0.2267876822592554
  0.7954284530966546  0.5937529228519042  0.9671393673690876
  0.3816117036654064  0.8870644398764064  0.3472292099127910
  0.6160341405805176  0.4019411891352541  0.9723289975095635
  0.7632284209085214  0.2404715352020611  0.3435232207002893
  0.0840228030225767  0.7383834431538896  0.5313267175334609
  0.0106809192802566  0.8563132317385455  0.3855919929922867
  0.6844001552982633  0.8815059787078401  0.3398354355400530
  0.3912723130103936  0.5245669912403159  0.9274521030197458
  0.5050083625996340  0.4214264939477089  0.3734948385502239
  0.0342091490027400  0.9213776822250430  0.7843221370663429
  0.2290687760406397  0.5021791897561034  0.8511112356035584
  0.1669136536582095  0.2669533306140968  0.0934993414353308
  0.1634488849815318  0.0799706050662685  0.0746321392434697
  0.9541707339132020  0.5694803242434794  0.5771670491523406
  0.3169025348921072  0.1126418475941346  0.3187824089758119
  0.6391077849703339  0.6756991910085699  0.4638151323137452
  0.4884484035956037  0.1443228418119691  0.4086420603658205
  0.4857381986344779  0.8889977043713854  0.6781152987164993
  0.2624209011403423  0.9650113765749383  0.2153752454358925
  0.2180099721748402  0.0766511711493461  0.7478143068098696
  0.0285373589453201  0.0115137659905145  0.9705708946939214
  0.7014861354011043  0.9099395685836376  0.1587807351840524
  0.5679335560807243  0.9451192046902419  0.0026725711859091
  0.0417457901832798  0.1653876184043291  0.4020035813555021
  0.1409745459096969  0.5659598115747088  0.6066538594209262
  0.9494144482392616  0.5060029719344545  0.9263283024570029
  0.4240313523175000  0.4886146604384567  0.5917348177635502
  0.8266377558006489  0.6480196030925148  0.4471955215179216
  0.0088303987519529  0.5014536197590920  0.7412212139023996
  0.4748059696694714  0.5902967174419100  0.4740267250858120
  0.6621569605587886  0.0052268087812690  0.8497127231531207
  0.3045716210306139  0.3737254424384216  0.0375619877769322
  0.4258485967084602  0.3529925272967008  0.9081734975569639
  0.3676166189440515  0.8526854738971968  0.5200008453927490
  0.5077035821521897  0.1289624455934707  0.8154680641959645
  0.0536808544044770  0.3815073096812863  0.5667610511862065
  0.3467724937483849  0.6917533870586368  0.3730738602759078
  0.7420857035552135  0.3164800466577714  0.5363191494885893
  0.2518095454260266  0.6536715654861600  0.0751221159490356
  0.0540966121302328  0.4942058929486663  0.2093725898957889
  0.7465095009781892  0.7105224275549143  0.2005717319044079
  0.2311762488249394  0.9377156512307431  0.0229021961320404
  0.8519125149583247  0.9525298859586488  0.9356464882667694
  0.2240347313121790  0.0915559434967544  0.9238133354135920
  0.9671516270729629  0.6817487593468067  0.0339348159591985
  0.5226193314836518  0.1040462061775089  0.0870586912855074
  0.9931048733427872  0.3215657015913326  0.0553335111644194
  0.0415035188490179  0.7120124065801867  0.2733251818661412
  0.5414161868473372  0.9960290116935258  0.3913935769949305
  0.1287729022651212  0.7309357657444899  0.6886768859747556
  0.7268747528201591  0.0400664696367945  0.4702894422498221
  0.3703882344882796  0.2049176079633548  0.9376590225903179
  0.6589023273396744  0.4992885857411630  0.4129124262416851
  0.8814135952986849  0.8861534656006379  0.5834477633860549
  0.8835700181134709  0.0819770608721698  0.0782154136855836
  0.5841646249393129  0.5631257096666717  0.6403672622591322
  0.4633367641087875  0.7143288111391328  0.9269399070602344
  0.8585045277052307  0.4324154321702895  0.6447804166407871
  0.7134089103488688  0.2968528241424313  0.7027613095748130
  0.6897753497462653  0.9502740247832753  0.6762393015337683
  0.2049026379888367  0.9126321307018397  0.4105360168837691
  0.1927741033196848  0.6451176807450688  0.4235802616302841
  0.2146652652061435  0.4548495398311520  0.4020609593131145
  0.5503291291080922  0.1295061176299303  0.5548775689099912
  0.0673661957625105  0.9537702239835154  0.2501642529592419
  0.1289361621384875  0.7882559780897839  0.8611581973953799
  0.0423027705858098  0.5777513229756900  0.6598304066849907
  0.3993953540716276  0.0703744402369886  0.8242843804374131
  0.1727624267669468  0.3497944247692964  0.3934522494750342
  0.2242571469600390  0.8516056976053847  0.2034950643591180
  0.3425227725247387  0.0939990269837985  0.9643267459780400
  0.4896913515654048  0.2053139226661611  0.6160924995523241
  0.1987284654747264  0.6261681304030732  0.9785390177900992
  0.7002047365028460  0.0441643721853516  0.0293357710899645
  0.7761581907463004  0.7334431335997988  0.3871243027573615
  0.0872082340566710  0.7829215966479779  0.3540057238835475
  0.7251605740207061  0.8349712114870749  0.4368645330083754
  0.3928888936867291  0.1427556685821470  0.6359563851253903
  0.3825776592332267  0.8884693777177445  0.6331674291624110
  0.8656832835957031  0.1462791548452644  0.4739564769557617
  0.8104093209387413  0.8541733038498031  0.8734390001414107
  0.4401012631167236  0.2433895820972691  0.4476244000247927
  0.9802798947202428  0.8432611170611990  0.6168345639471142
  0.1094475083472025  0.8704738414528423  0.1806348560947056
  0.8540398165647207  0.8792629761901841  0.7693594462189159
  0.7482924845896266  0.5764934528151873  0.7356954057913473
  0.0419419569094876  0.9505732735180152  0.1353272430278592
  0.4073879998099774  0.2833704155566079  0.3511178831583767
  0.4857022779435057  0.9342418649894689  0.3085751635160993
  0.6159780202758998  0.0341936854355019  0.9501674177513064
  0.8934767538797903  0.7239354927973295  0.1089289210406201
  0.0552804379503787  0.0480982873449244  0.0816259292856194
  0.9417448037119170  0.9025690825529016  0.1010923870034614
  0.6318530565995158  0.9835046759114453  0.0948231794605454
  0.8506936646192932  0.9757736644471524  0.1063893523875333
  0.5024131245264981  0.1702693832373754  0.2932890933049316
  0.0334583955805601  0.7798529871064027  0.1747279098148244
  0.8787406766538272  0.0882905622507515  0.3774457287102361
  0.6804508585877368  0.2437364148570757  0.0263921208833486
  0.4116682695524996  0.0502117099764616  0.7088724785594054
  0.8889345629377077  0.7079541660480122  0.8408417122596754
  0.0655296081092294  0.1546215247066069  0.7895781007757605
  0.2558337136410331  0.3305156190730757  0.1307887916498107
  0.0462401420103513  0.2482235118285395  0.2441419178710475
  0.3095631871746288  0.2321589984006558  0.3120230150603959
  0.8150366468663104  0.3901066680436316  0.1941256336696564
  0.8221160532707004  0.5431307556378292  0.1997080730223920
  0.1155855974707598  0.4066999717257623  0.2058810197857644
  0.5355131427812688  0.3277115080953057  0.9291428700476366
  0.4972313050468789  0.0226705850277178  0.5692893026023127
  0.0891296814606471  0.6885931066534298  0.4256313459093691
  0.8319601650319043  0.8933068357033174  0.4087086655326780
  0.6786280116375775  0.6791603522987799  0.3491583607671108
  0.8221097423521088  0.5148218818389629  0.8066771567302711
  0.7801542674836641  0.0136739112546276  0.6939507867604388
  0.9796828545135911  0.1267721405097420  0.4950270121373537
  0.9127895485474269  0.8022586474805299  0.4036358893731935
  0.2961410278273151  0.8790530015647240  0.9513929179912206
  0.8032830633205660  0.2709227967322481  0.6314579381986712
  0.9013293801695634  0.5042990903589688  0.7242835937394616
  0.4402182724451112  0.3739115900220546  0.6078980711749811
  0.4412636788300942  0.6481598349359295  0.1831582555275091
  0.7968485450002263  0.6797288805449120  0.7718235624990283
  0.2200234098963067  0.1569302617607806  0.8323165652367155
  0.0283310851160944  0.6831286340003562  0.6931629246102351
  0.1750446208214722  0.7370368378076630  0.9504075651545496
  0.8910784707693596  0.4132541154697744  0.2876963609559907
  0.8408081997608761  0.6506462931113870  0.1814742095645909
  0.7814514816981308  0.9871570586608091  0.1982095933970699
  0.6846644412436693  0.3300423613027147  0.1369390287159546
  0.6364979587811244  0.5795325250271057  0.7414651408033750
  0.8789716024463607  0.5972135605639457  0.6561795370889573
  0.7725604775663706  0.0519741337300851  0.3635479505633112
  0.6551200039185585  0.5665760688460953  0.3212343329497223
  0.6167199916402653  0.7847715578597899  0.4447013028766129
  0.9854490183386059  0.7342604773263836  0.5929672443020642
  0.7085011804858748  0.1469551612102104  0.0895088982513041
  0.0632779727664297  0.7176616501937038  0.0815025237383446
  0.6072921563717435  0.1604815864158161  0.1422898562201251
  0.1740346508694727  0.6772327917015236  0.5972392930811807
  0.4791967612920636  0.5384452647900518  0.6833449617548283
 
  0.30294380E-02  0.32092130E-02  0.60066657E-03
  0.26579338E-02  0.69332932E-03  0.22106857E-02
  0.14523912E-02  0.41244344E-02 -0.11498594E-02
 -0.25830816E-02  0.16057606E-02  0.16360635E-04
  0.10400281E-02 -0.10309187E-02  0.51592268E-03
 -0.33440873E-02  0.14840330E-02  0.50411431E-03
 -0.15680377E-04 -0.13628526E-02 -0.21361193E-02
 -0.30440852E-02  0.16692774E-02  0.33417372E-02
 -0.28546306E-03 -0.50383263E-03 -0.87726210E-03
 -0.18484890E-02 -0.13793355E-02  0.98549010E-04
  0.17264936E-02 -0.87521289E-03  0.13542411E-03
  0.18561332E-02  0.21566160E-02 -0.31925475E-02
 -0.12158062E-02  0.21528954E-02  0.58912622E-03
 -0.13562558E-02  0.52388536E-03 -0.15167810E-02
 -0.13331101E-02  0.71789516E-03  0.13461455E-02
 -0.29506459E-03 -0.21534229E-02  0.28709978E-05
  0.12470405E-02 -0.21733035E-02 -0.20134179E-02
 -0.21821344E-02 -0.15982971E-02  0.26836627E-03
  0.34736815E-03  0.56900797E-03 -0.15239474E-02
 -0.21632221E-02  0.98364603E-03 -0.78538342E-03
 -0.52038381E-03 -0.74269668E-03  0.91620933E-03
 -0.15467156E-02 -0.30714555E-02  0.32101749E-03
 -0.34107496E-02 -0.18043656E-02  0.10098111E-02
  0.15548228E-02  0.28119825E-02  0.26514418E-02
  0.19781111E-02 -0.11929579E-02 -0.67853512E-03
  0.29367825E-03  0.14498277E-02 -0.12441578E-02
 -0.17050996E-02  0.10947336E-02  0.31711477E-02
  0.30840820E-03 -0.60022081E-03  0.50460964E-04
 -0.46830777E-03  0.46106104E-02  0.12824752E-02
  0.12894330E-02 -0.93312737E-03  0.89984879E-03
  0.52583814E-03 -0.96249303E-03  0.12434023E-02
 -0.54237329E-03  0.10996125E-03 -0.41872700E-03
 -0.11259246E-02  0.21658355E-03  0.42608569E-03
 -0.24449999E-02 -0.93603062E-03  0.83393539E-04
  0.10046687E-02  0.21459878E-02  0.65309100E-03
 -0.36353258E-02  0.20965318E-02 -0.20261860E-03
 -0.14313505E-02  0.14083947E-03 -0.87403685E-04
 -0.87694941E-03  0.33957741E-03 -0.74611148E-03
 -0.10002000E-02  0.14038547E-02  0.22842643E-02
  0.29312042E-02  0.17085678E-02  0.13324286E-02
  0.13817837E-02  0.84854423E-03  0.88996808E-03
  0.92804896E-03  0.19194988E-02  0.20723214E-02
 -0.25879811E-02  0.27799015E-02  0.41859171E-02
  0.67045428E-03  0.31295304E-02  0.11371416E-02
 -0.15344655E-02 -0.25914583E-02 -0.24745690E-02
  0.65839803E-03 -0.31133848E-02  0.15450274E-02
  0.19138378E-02  0.53662189E-02  0.13837563E-02
  0.81424003E-03  0.82621054E-03 -0.22951856E-03
 -0.40144121E-02 -0.48765862E-02 -0.13678607E-02
  0.19852066E-02 -0.17611428E-02 -0.34750375E-03
  0.24322942E-02 -0.12845171E-02  0.16983038E-02
  0.92117586E-03 -0.12307035E-02 -0.14538272E-02
 -0.38488871E-03  0.49771620E-03 -0.25221262E-02
  0.47379091E-03  0.49709315E-03  0.17221844E-02
 -0.11264200E-02 -0.16771374E-02  0.70679019E-04
 -0.36011955E-02  0.39632548E-02  0.24348992E-03
 -0.77462338E-03 -0.15892945E-02  0.59660529E-03
 -0.10343805E-02 -0.19273674E-03 -0.11991086E-02
 -0.63748772E-03  0.31077264E-02 -0.11877624E-02
 -0.15861099E-02  0.79376776E-03 -0.43339798E-03
 -0.13154268E-02  0.64439089E-04 -0.23212262E-02
  0.37155908E-02  0.19300394E-02  0.33949477E-02
 -0.43924460E-02  0.66235066E-03 -0.25116316E-02
  0.17777907E-02 -0.20538711E-02  0.21605326E-02
  0.63415480E-03 -0.28433431E-02  0.58677369E-03
  0.14415410E-03  0.12404245E-02  0.22893728E-03
  0.22128896E-04  0.18808968E-02 -0.31375234E-02
 -0.91024713E-03 -0.31860107E-02  0.61812694E-03
  0.31355659E-02  0.46025278E-03  0.13949904E-03
  0.31463425E-02  0.15523343E-02 -0.10066271E-02
 -0.15780664E-02 -0.15248231E-02  0.39352780E-02
  0.72187649E-03  0.92440322E-03  0.35099199E-03
  0.36051662E-02  0.14615487E-02 -0.29526392E-03
  0.19231808E-02  0.19097168E-02 -0.48800196E-03
  0.15296524E-03 -0.27714047E-03 -0.12077169E-02
  0.15171697E-02  0.23435868E-02  0.18178633E-02
  0.22020961E-02 -0.20271287E-02  0.11867934E-03
  0.88012654E-03  0.84347240E-03 -0.11755083E-02
  0.18385528E-03 -0.12485538E-02  0.26243568E-02
  0.41723345E-04  0.67139243E-03  0.26365680E-02
 -0.51586881E-03 -0.41920372E-02  0.22275418E-02
  0.14794959E-02 -0.14979975E-03  0.12027370E-02
 -0.46167054E-03  0.14051566E-02 -0.10378072E-02
 -0.37697394E-02  0.32776815E-02  0.58349199E-03
  0.48894443E-02  0.10666540E-03 -0.83214507E-03
  0.93333569E-03  0.13704014E-02 -0.56644894E-03
 -0.19975926E-02 -0.17143945E-02 -0.15000876E-03
  0.24691641E-02  0.27322103E-03 -0.17554533E-02
  0.16543522E-02  0.43291343E-03 -0.21041348E-02
  0.16569129E-02 -0.49006771E-03 -0.12318898E-02
  0.17145716E-02 -0.74662633E-03 -0.57574008E-03
  0.22988293E-02  0.23382764E-02  0.24231069E-02
 -0.11111936E-02  0.62329315E-03 -0.50373667E-02
  0.14265394E-02  0.28668006E-02 -0.16948912E-02
  0.65158788E-03 -0.62850264E-03  0.25123878E-02
 -0.29612931E-02 -0.64185529E-03 -0.23392646E-03
 -0.93289432E-03 -0.98493561E-03 -0.55365504E-04
  0.39489760E-03 -0.93971883E-03  0.12891608E-02
 -0.14771285E-02  0.27195091E-03 -0.18541930E-02
  0.28692939E-04  0.76710608E-03  0.12171592E-02
  0.13081135E-02 -0.21936842E-02 -0.28095530E-02
 -0.16001575E-02 -0.13447006E-02  0.12457604E-02
 -0.20891341E-02 -0.17473500E-02 -0.92430284E-03
 -0.28736398E-02  0.15254561E-02  0.13040835E-02
  0.17441444E-02  0.24473335E-02  0.36706096E-03
  0.14804925E-03  0.26152731E-03  0.25917605E-04
 -0.34718568E-02  0.17491343E-03  0.17012570E-02
 -0.17516746E-02  0.21144127E-02  0.18366455E-02
  0.40774762E-02 -0.18915154E-02 -0.17196938E-03
  0.17135814E-02  0.11497382E-03 -0.12656515E-02
 -0.15737573E-02  0.69352712E-03 -0.13747321E-03
 -0.31480245E-02 -0.12200149E-02  0.20287442E-02
  0.96766197E-03 -0.14040511E-03  0.24373884E-03
  0.12306209E-02 -0.13128537E-02 -0.32756585E-03
  0.40420241E-02  0.18649324E-02  0.10693556E-02
  0.20709215E-02  0.11749307E-02  0.21251693E-02
 -0.51462104E-03 -0.87332938E-03 -0.50220412E-03
  0.20230530E-02 -0.54110205E-03 -0.66253347E-03
 -0.71718379E-04  0.31935352E-03 -0.77192917E-03
  0.43983362E-03 -0.52048220E-03  0.28960929E-02
 -0.14684311E-03  0.15110610E-02  0.29965135E-03
  0.55334503E-03 -0.50414879E-04 -0.32925653E-02
 -0.17215481E-02  0.47992571E-03 -0.61217203E-02
 -0.85658124E-03 -0.14027913E-02 -0.25572841E-02
  0.24218428E-02 -0.24456913E-02 -0.20914885E-02
 -0.30110222E-03 -0.26912538E-02 -0.81977866E-03
 -0.15218136E-02 -0.48304417E-02 -0.11907619E-02
 -0.74429296E-03  0.28345542E-02 -0.87382894E-03
 -0.64051050E-03 -0.74350164E-03 -0.26867657E-03
  0.13076568E-02 -0.19807030E-02 -0.18770624E-02
 -0.23773540E-02  0.15538520E-02  0.28442382E-02
 -0.12277594E-02  0.21377282E-02  0.62200171E-03
  0.22297162E-03  0.11748520E-02  0.22119853E-02
 -0.48871126E-03 -0.16937902E-02  0.13268703E-03
 -0.15317720E-02  0.22296538E-02 -0.29253612E-02
 -0.23415107E-02 -0.19505741E-03 -0.48518038E-03
  0.32419295E-03  0.84657127E-03 -0.15597009E-02
 -0.62267576E-04 -0.48129488E-03  0.48320769E-03
 -0.35397619E-02  0.23307495E-02  0.23008059E-02
 -0.85316206E-03 -0.69438922E-03 -0.24309525E-02
 -0.23839846E-02 -0.74936728E-03 -0.20017488E-02
  0.74777293E-03  0.18067656E-02  0.43735718E-02
 -0.25615670E-03  0.20685859E-02 -0.86536971E-03
 -0.13238507E-02  0.14973900E-02  0.92671840E-03
 -0.28099227E-02 -0.48988315E-03 -0.21329932E-02
 -0.26783239E-02 -0.19316187E-02  0.10211653E-02
  0.52862528E-03 -0.15597997E-02  0.42216893E-03
 -0.18344464E-02 -0.13625579E-02 -0.13561945E-02
 -0.13087051E-02  0.33413406E-02 -0.81410992E-03
 -0.19461274E-03 -0.29740212E-03  0.22365956E-03
 -0.24112448E-02 -0.42899434E-02 -0.18172910E-02
 -0.74041424E-03 -0.84280634E-03  0.13498663E-02
  0.14937779E-02  0.79185220E-04  0.73940584E-03
 -0.70180526E-04 -0.14408884E-03 -0.29799093E-02
  0.98698849E-04 -0.19912848E-02 -0.18306904E-02
  0.27080328E-02  0.13664111E-02 -0.71036642E-03
 -0.54725483E-02 -0.12530027E-02  0.17070266E-02
 -0.68766159E-03 -0.88493976E-03  0.55742330E-03
 -0.62964067E-03  0.15430583E-03  0.12893044E-02
  0.19782059E-04 -0.12533060E-02 -0.13593300E-02
  0.99538516E-04  0.11364784E-02 -0.28280104E-02
  0.16496311E-02 -0.34640346E-02 -0.22337294E-02
 -0.58519057E-03  0.24044175E-02 -0.13521319E-02
  0.49059611E-03 -0.15527960E-02 -0.25127576E-02
 -0.16996719E-03 -0.11464445E-02 -0.22755084E-02
 -0.18857288E-02  0.96245456E-03 -0.13986332E-03
  0.20227501E-02 -0.31834565E-02 -0.41046104E-02
 -0.11696910E-02 -0.27453885E-02  0.13333792E-02
  0.18077683E-02  0.16135375E-02 -0.78449626E-03
 -0.95090360E-03  0.16919484E-02 -0.68687157E-03
 -0.16357020E-02  0.19133995E-02 -0.17282869E-04
 -0.84849641E-03 -0.15706514E-02  0.36679205E-02
  0.32415054E-03 -0.94840900E-03 -0.17093134E-03
 -0.76559829E-03 -0.16845161E-02  0.42859000E-02
  0.24909901E-02 -0.67306222E-03  0.13972262E-02
 -0.33438855E-04 -0.10743253E-02  0.10634800E-02
  0.18143257E-02  0.16134832E-02 -0.53519348E-03
  0.28900245E-02  0.96599137E-03  0.15384264E-02
  0.45467238E-03  0.44551219E-02  0.27081078E-03
  0.12485979E-02  0.18093691E-02 -0.64116019E-03
 -0.76236864E-03  0.55733564E-03  0.16449819E-02
 -0.16842184E-02  0.18805151E-02 -0.16143114E-02
  0.11328843E-02  0.84549204E-03 -0.73698366E-03
 -0.31275605E-03 -0.15525240E-02  0.94126427E-03
 -0.27758428E-02 -0.10581000E-02  0.10116114E-02
 -0.22634548E-02  0.44895047E-03  0.72976453E-03
 -0.15577569E-03  0.12376121E-02  0.20452239E-02
 -0.25494208E-03  0.14647148E-02 -0.59175238E-03
 -0.17762381E-02 -0.14743411E-02 -0.16250133E-03
  0.87357523E-03 -0.30303220E-02 -0.60987195E-03
 -0.12573664E-02  0.16632197E-02  0.70401096E-03
  0.28242489E-02  0.13841119E-02  0.17261667E-02
 -0.77511831E-03 -0.13027759E-02  0.23293101E-03
  0.18897004E-02 -0.98913334E-03  0.11283843E-02
 -0.48770664E-03 -0.91201997E-03  0.16869769E-03
 -0.47026420E-03 -0.21247069E-03 -0.44604264E-03
  0.93683114E-03 -0.43190755E-02  0.13468234E-02
 -0.45287057E-03 -0.90620388E-03 -0.18158480E-02
 -0.72347780E-03 -0.13530691E-02  0.24108966E-02
 -0.15727939E-03  0.63735442E-03  0.42013394E-03
 -0.31242945E-02  0.63435005E-04 -0.41197756E-03
 -0.21615439E-03  0.17081674E-02 -0.19762062E-02
  0.19906410E-02 -0.55932053E-04  0.68561380E-03
  0.27405459E-02 -0.28656198E-02  0.29738301E-03
  0.18528537E-02  0.22419021E-02 -0.13072297E-02
  0.21195179E-02 -0.63804037E-03 -0.83207249E-03
 -0.12878710E-02  0.14272509E-02 -0.60015845E-03
  0.92857727E-03 -0.96496096E-04 -0.38432669E-03
  0.18027217E-03 -0.33208719E-02 -0.19956369E-02
  0.83023936E-03 -0.45728018E-02 -0.29680869E-03
  0.27947030E-02  0.11578767E-02 -0.13751494E-02
  0.80384949E-03 -0.10570636E-02  0.23925550E-02
  0.14282920E-02  0.55963288E-03  0.15150536E-02
 -0.11567987E-02 -0.23437011E-02 -0.10814546E-02
 -0.72016221E-03 -0.49654160E-03 -0.35238765E-02
 -0.88363906E-03 -0.25182732E-02  0.15051257E-02
 -0.10395612E-02 -0.32824975E-02  0.30128486E-02
 -0.10060715E-03 -0.13576220E-02  0.22291542E-02
 -0.16494659E-02  0.11448098E-02 -0.60320819E-03
  0.53736534E-03 -0.81205965E-03 -0.17467501E-03
 -0.34422288E-04  0.72816744E-03  0.16269536E-02
 -0.64324366E-03 -0.17289765E-02 -0.35442403E-02
 -0.40407304E-05 -0.32743893E-02  0.10217171E-02
  0.35370032E-02  0.20109936E-03 -0.21813901E-02
  0.20241644E-02 -0.21733879E-02  0.15091501E-02
 -0.30350388E-02 -0.14110183E-02  0.12273700E-03
  0.30926445E-02 -0.24460251E-02 -0.12992400E-02
  0.35641852E-02  0.25614455E-03 -0.24823511E-04
  0.38529355E-04 -0.31823510E-02  0.54508378E-02
  0.60274944E-03  0.43506086E-02 -0.22459126E-02
 -0.52489984E-03 -0.27385945E-02  0.21844322E-02
  0.24734437E-02 -0.31320366E-03 -0.36411022E-02