Amorphous GeAsSeSi                      
   1.00000000000000     
    18.7211982475508840    0.0000000000000000    0.0000000000000000
     0.0000000000000000   18.7211982475508840    0.0000000000000000
     0.0000000000000000    0.0000000000000000   18.7211982475508840
   Ge   As   Te   Si   N 
    60    60    60    60    60
Direct
  0.3380168704329591  0.7470643297642141  0.6640497969306338
  0.6963452237029841  0.0547168290946090  0.6223806103430221
  0.1334662226864722  0.3508186157724396  0.5988021017100067
  0.4046731543397470  0.5396591481840431  0.0455638619852863
  0.0692486628080573  0.0215715574363955  0.1693605318355154
  0.3774003354669091  0.3975314275030399  0.3041617915416452
  0.0027689992072766  0.8704777372538999  0.6080079111827956
  0.0371429293213765  0.2321242211059129  0.8137433126703399
  0.3204059636031928  0.8654268051449492  0.1620588123485476
  0.7022422434340285  0.2298710200084173  0.4878503957153129
  0.5219718551596202  0.7921270041941355  0.1686496295930411
  0.9021955209592250  0.6927055524729440  0.3003413916876454
  0.3011537205567336  0.2740492892144459  0.9407376167839487
  0.5115457141665942  0.8833411953373229  0.3631853685286828
  0.0520041229922228  0.5014318454917870  0.7669263886075868
  0.8680910694159323  0.7472804803642532  0.0247638588294379
  0.6910148780448893  0.9025826248600239  0.8089909890610087
  0.9477278026958231  0.2549614926643073  0.4600503091221384
  0.0590739908662599  0.7619042332955814  0.2423515521832513
  0.4146426356986410  0.1950938413311647  0.3230496758972237
  0.2823984777454243  0.0812528488244055  0.1450997153114528
  0.6004668255585202  0.0161093795901408  0.7591945090229046
  0.7420775508720894  0.6915265419655441  0.6530361979577677
  0.2059185450941925  0.8594215258102054  0.8649907566831132
  0.3402663305965561  0.7637170041567103  0.2720574391930199
  0.5101139768230496  0.1729534382321134  0.8849261324579842
  0.4769155668572012  0.3625191038021427  0.9217980537276205
  0.9288398913190292  0.3708906711183317  0.8687184292640211
  0.2879459779117823  0.0515222666147679  0.7504182287709469
  0.9942963733046852  0.3652264765074094  0.3396874691434846
  0.5225344403202570  0.4583702967049277  0.2005559171776952
  0.8281868508105816  0.0216553365425440  0.7096276058412414
  0.4846379708212183  0.3088256346512779  0.2665525913922622
  0.6811535204701826  0.0655559110797910  0.1816325353454786
  0.1041665338539133  0.5954805552698588  0.5149628514082636
  0.7823308034516288  0.3264092717265399  0.3507425447722810
  0.2339292718826798  0.4337596594368165  0.0216829823139548
  0.0387160052272151  0.0095088936406853  0.9128363495042180
  0.6660142817211607  0.7916568724890496  0.6055925851195738
  0.2985375948049480  0.2721747351981421  0.7276338614589761
  0.5660134869380400  0.4541482099681176  0.5272884799959812
  0.8258248220683271  0.2325757217092601  0.6823667505015294
  0.5186273840738593  0.8612589634630652  0.6909148836745374
  0.4741048466464406  0.9795102562706788  0.8551613815170072
  0.6854597859518634  0.7711998562098614  0.8565071963584572
  0.6488138806321331  0.3669579993252086  0.3378056680192358
  0.0748685170582633  0.9032169981854068  0.7532091954329587
  0.7262889924878806  0.5465214394449802  0.3505584545325320
  0.2131764299263921  0.9156980926898726  0.7383884087061929
  0.8204505926348418  0.7795933417186447  0.3878414378013488
  0.9114751087335264  0.4834261663185444  0.2039536721034096
  0.9597683021244237  0.9732186606801747  0.2248208604709063
  0.8375436797996443  0.8406900419640024  0.6710969354926561
  0.0472361989505004  0.4116981972237781  0.5029865999441228
  0.6558249704820014  0.1144524648792853  0.3771209686309760
  0.4891678860624253  0.5005008488428402  0.7891000213555799
  0.4286814809788311  0.1096170886192525  0.1138978119736578
  0.7982042390670117  0.1140973608230738  0.0360705591041324
  0.2340598546883115  0.7256838721619303  0.9000837152588517
  0.4527681043916942  0.8491578531104338  0.9979375253435023
  0.8927431333126492  0.4295144504701369  0.4183869508407909
  0.7248579691267736  0.4061104224689558  0.7871180290062298
  0.9389641981449728  0.2948822826411899  0.6283656241577162
  0.6097279007630476  0.9704770570639027  0.1094944351996787
  0.6301881707692729  0.7602132854025996  0.0937306192700191
  0.7951501377758916  0.4454808377420321  0.2774674611789010
  0.7105114353297921  0.8958184480366143  0.6731778655235274
  0.7263423708801895  0.5796774666177882  0.5698416988520094
  0.4338665355742819  0.7408022940478958  0.0794675860060039
  0.0591482659710891  0.3566519958212879  0.1413474895956597
  0.4978281704088019  0.7578331282447408  0.3002823115470221
  0.0077478476245787  0.0259702010655971  0.7769956858524054
  0.9754115480474610  0.1792589004739114  0.5677150796959509
  0.8428525660257549  0.5851102792075693  0.1360197400494485
  0.1641272977551225  0.3265247501636139  0.0621341053792364
  0.5092183994254071  0.9249538161753321  0.1850029656992973
  0.4094035391740363  0.3306168732804835  0.7868258922302260
  0.6123124296331426  0.1369816045469605  0.5446171354927074
  0.5947159775803286  0.6021199814119456  0.9587132878573854
  0.1700680224353803  0.8471370227115429  0.3092021837967849
  0.4130762569138611  0.9415134021349303  0.0959509028259689
  0.5920654117472992  0.3626987649709505  0.8489214569206283
  0.5538065044732505  0.8717792190558740  0.8209264373401481
  0.2572678615966524  0.6622405027610938  0.5265312720703790
  0.9599953015824170  0.9604908828625511  0.0134329621534661
  0.3359875041900509  0.6685412067496372  0.4187955284228551
  0.6385081828283461  0.3189813801577159  0.2075440504596884
  0.5592432815402262  0.7629445629780349  0.9013455918650592
  0.6104295927557715  0.6868526993568977  0.3314755327520729
  0.3554602207300306  0.4099083012362001  0.0686374468893831
  0.0775271515960583  0.8773914357913455  0.8842618372623789
  0.5492731273348639  0.0596285052600578  0.4512549755620512
  0.5579711328615957  0.0560539166614191  0.9303532639680157
  0.3045098913677649  0.3766052126289097  0.1874381667123259
  0.2481693180877755  0.8405048589582833  0.0483906490009858
  0.4310833599498096  0.2460529039134443  0.9727975807498055
  0.3525131661292704  0.9386641262140714  0.8135617811761833
  0.5911986211242848  0.8501049372360256  0.0005032200499571
  0.8490818323074194  0.9167610874392622  0.9427530957764318
  0.6862545021268431  0.7924936718714477  0.3631518841925470
  0.9881972972954784  0.2765418999953866  0.0557899832889603
  0.3600259034390163  0.6020685396949190  0.5936724675046605
  0.8539999882418527  0.8798687525425706  0.3036713182018573
  0.9076697306068837  0.1490897711259791  0.1809185659386898
  0.9114647752422371  0.2537296910118343  0.3327990068671554
  0.2630972818079229  0.1740095309247920  0.8521430788996440
  0.7419542617807053  0.2434322922891923  0.2448157417747083
  0.5428781852514177  0.6599793197807244  0.0741268287579402
  0.6259357526163924  0.8821389019595074  0.2855781552989924
  0.9427850512119420  0.6746082862350988  0.1188319955583808
  0.7155087127388526  0.6310378281454661  0.0137097802228965
  0.5344078087844082  0.3204745313318043  0.7366385111522860
  0.4371940893372539  0.5817507627385154  0.3927023135119967
  0.4615468912074050  0.4619138129989935  0.4459586183893762
  0.1177056122113882  0.2737361777656844  0.4366505509443925
  0.3528022494083700  0.5312224285311089  0.3007372182392700
  0.4463170715785196  0.2527071811575183  0.1449155388801628
  0.1622351294010045  0.5290435821601847  0.0835679085866943
  0.2591276018926436  0.3725064947764523  0.3677080338818897
  0.2533588952292192  0.3975899473677984  0.8949793151435088
  0.0908109995446509  0.4073505066800251  0.9026181111918419
  0.2421560496400446  0.6789872925197287  0.1852023926736877
  0.5849223865642017  0.5214267653898403  0.6522401424094255
  0.5821971853126726  0.6703299461337693  0.4719514282676300
  0.8103434970573815  0.1454710461225872  0.5656829224215585
  0.3789437982000550  0.8868785557593668  0.6499213440216920
  0.0235356545435224  0.4749121577820290  0.0712011423724874
  0.7732418585712537  0.6544027675671984  0.2339849665720664
  0.1431417684595004  0.2523768139262472  0.2540895859386083
  0.9329966791269015  0.1244231054005311  0.9700210388399597
  0.8315893273626500  0.6090706702388218  0.4665920237970482
  0.1109849667832705  0.3539275133215725  0.7458838489045903
  0.8612123203383888  0.4056174752567969  0.7374262426526528
  0.8428441989599520  0.3307046312330186  0.5180437943036367
  0.8147441648278786  0.3047561186831445  0.9350293127647120
  0.2815438907547261  0.6114954432767519  0.9967194818822378
  0.4485971335389607  0.6428312547894990  0.8041106231459452
  0.1327649211862649  0.4940675251196254  0.4213977193998701
  0.2932540455383119  0.8394733956093177  0.4002848701437927
  0.3894244009664689  0.4746788116559131  0.9081800668636646
  0.8821967345371178  0.0506690788235815  0.3915598115029439
  0.1202547610285762  0.2079074608384417  0.5642449121022963
  0.8843191833609367  0.9182444934820353  0.8026388918034471
  0.6776762490280746  0.6428056754659721  0.7807684927177760
  0.1103468405403092  0.6970560690445566  0.9950508202471084
  0.1827386154515054  0.0160964361918872  0.5937720338138988
  0.3594438695509226  0.0992029241699655  0.9230138462609929
  0.8848829059747132  0.1374976712208067  0.7790123084965686
  0.1178659450948842  0.7024722183006631  0.4175867259162800
  0.9858878712817614  0.5842186599179655  0.9189696545855526
  0.7124903545619077  0.9916948302084805  0.3183670283119113
  0.6451076395391908  0.5280968003121558  0.1506876269275494
  0.3097913034629229  0.0171718677804975  0.3228268732186876
  0.8303759912069921  0.2778935300261196  0.1367576576509890
  0.4578331614510276  0.0713382720780800  0.2578562065984755
  0.7146953815160728  0.9818576186602925  0.4880284502178398
  0.1908877766811159  0.4670860122107214  0.2110576818203498
  0.9428321799092316  0.0000860492941328  0.6119996881090231
  0.8434293925585337  0.0249100869380925  0.1523558941996015
  0.9679797487495989  0.5640712836102537  0.3109702483085286
  0.6990671572902230  0.4505996606439382  0.4764014607772751
  0.5839532025879848  0.4951605123910809  0.3292707792008116
  0.5624010171748353  0.2786575428811773  0.4161633880186884
  0.6735133163901281  0.1476691457457093  0.7585617210418079
  0.8258757329420945  0.8710890291123121  0.5054859289904243
  0.3669182877737072  0.7878180836233284  0.8106388933655708
  0.6379656959227589  0.2406349186657195  0.9119548942993063
  0.2893210476891568  0.9558777809100079  0.9383116826818210
  0.6776951318903599  0.3093413640310345  0.6223790610908395
  0.5406853763733395  0.3880440336090558  0.0495513446907481
  0.1145579259413978  0.1202471657282658  0.7533536050045484
  0.8104857659655664  0.8455410019756044  0.1089496291476522
  0.1073625524620496  0.6178063095352826  0.2415553548464970
  0.7460602120539548  0.0134725551346691  0.9484291950187114
  0.4376648282650706  0.5788607702628852  0.1970434564803654
  0.5864359119889002  0.1541028908076782  0.2532935359483730
  0.4140353177669027  0.7711221282343459  0.4754480547652946
  0.9395037916905977  0.7601653017928669  0.5270105986983822
  0.5437905719778300  0.7300522634542119  0.6496781060722654
  0.6482959687006868  0.1672525473540460  0.0661661075485327
  0.0186660731285571  0.8014548383485547  0.9692851410746428
  0.1516043306534129  0.1514275739216657  0.9199681862207214
  0.3617805268062355  0.5745099563332658  0.7233994664971277
  0.2009494813715946  0.6025455403928461  0.7768924514268036
  0.1950177699578504  0.9455053616941953  0.1030869462922013
  0.4339195654055104  0.9703278820241223  0.5545324388673620
  0.4556112777910641  0.0699713593153604  0.6955709145857583
  0.2169938398011766  0.8025670388730148  0.6723230661573680
  0.8843136767202395  0.4888384050660548  0.9137434638156137
  0.9242321610363788  0.7022396528526116  0.8771944668958227
  0.1933023205672484  0.7946838178849376  0.4957121872949557
  0.7214336766873259  0.4117777213537082  0.1759654977000409
  0.0195124717103354  0.7415182690525839  0.7308943826097050
  0.7028041195633108  0.4533364817116734  0.6744727212169437
  0.5083154856719929  0.1841717442184034  0.5995746549373280
  0.2241580033875010  0.4827750274375830  0.7357561906510526
  0.9448329891739320  0.1341373658161018  0.3064720272694643
  0.2565380082099580  0.2507170779999015  0.3316215926329846
  0.1449808668794219  0.0845345385403746  0.0379144251561812
  0.2033674428293537  0.9583843993784242  0.2592280703951531
  0.7645502973386513  0.5279588315519774  0.9605117779992725
  0.5493325127651474  0.9414582470709902  0.5098853405479957
  0.8486461881276526  0.5321342632987438  0.6825630903962008
  0.0921164946751958  0.0446378454014464  0.3306397708532245
  0.0003676908129862  0.1514826216890768  0.0870240832578659
  0.9663767338938740  0.9374436581985393  0.3535743924869053
  0.0979384679363804  0.1759805116445108  0.3541447033266465
  0.2846840318367256  0.0576204426320714  0.5103716233700624
  0.1261298367081736  0.8935740684930380  0.5642033380900173
  0.7792719537897099  0.4073566133078188  0.0166398106790879
  0.3570681083205827  0.1517953497511186  0.6160622985993882
  0.7737055376125639  0.7158101250767359  0.9370770934486927
  0.8044123401321812  0.6079947217353450  0.8226265346137041
  0.9083569558763713  0.8245081881567273  0.2025205020912750
  0.5624434460785110  0.3260257542473539  0.5469693984732871
  0.2375166826839319  0.1021212755309193  0.4014834776311957
  0.9337367483574965  0.5425629309986633  0.5280481950110030
  0.1472926945842445  0.7185374851093300  0.7381092358171699
  0.9882035439133645  0.7657645126532344  0.3942126529036400
  0.0830229461469330  0.2896315241903835  0.9682079930639489
  0.8942113168250927  0.6872587206949987  0.7227989025771109
  0.5472955857250454  0.0713295211705613  0.0591914253236467
  0.3765400129863181  0.4425114483071013  0.5357046646335348
  0.1662954692356493  0.7603133549448700  0.1040262013166711
  0.5430531299384498  0.1942606317597608  0.7589141711326590
  0.2936427164668558  0.3619072279922904  0.4904188265511493
  0.3222082166760032  0.2016600636494346  0.4732629918912252
  0.3265750569723522  0.2438950210510100  0.1846028295815856
  0.4296578128925148  0.1005862437411693  0.4804897434381985
  0.9892991389455545  0.6014939082658515  0.6323282689848639
  0.3990110771739026  0.2947205373372128  0.5869352040920006
  0.3765358465064637  0.4144662217220798  0.6971043533221177
  0.0462820213071851  0.8681075855119218  0.1187724453251988
  0.6237770737020512  0.4881558291632757  0.0186594787248637
  0.2544259178134993  0.4522957379782113  0.6078730899844942
  0.0926890958691828  0.8928679828653259  0.3958586594485496
  0.1362737005942591  0.5741795320145400  0.6407673264188318
  0.2384444382596271  0.2241253303155517  0.0490555896091109
  0.5665401566241854  0.9716544680742416  0.6321606213228748
  0.6269970167399208  0.8017763879545541  0.4784943959797303
  0.2828481720549547  0.4194658261973245  0.6954268719468359
  0.9470176796130758  0.7267458271877416  0.7919896846645145
  0.7662242409119102  0.5148887648755291  0.6419763853122120
  0.9389601542892834  0.7342100042416320  0.2047765241991897
  0.3571407983421011  0.2383940221499117  0.6477677445685117
  0.1158029690060545  0.0676817649722423  0.9489075748828952
  0.2950184085606793  0.1446632854925767  0.5458066175313405
  0.0065993309526107  0.8561496769575498  0.3859113719150784
  0.0223174857121791  0.8305659063971831  0.7008748099578739
  0.1032948216429048  0.9413828172001075  0.1164837756397716
  0.4956527498326651  0.0366042765539802  0.7719575875805305
  0.0906434822164925  0.7914204398321516  0.1459280529861502
  0.5000591328097812  0.1541926051760214  0.6872450058492987
  0.3983444223822445  0.3848817241996798  0.6095428938981158
  0.2525027630493071  0.1967364834146323  0.4091116094047251
  0.9380400695680819  0.7646757973911633  0.9443239303547131
  0.0347806963183359  0.1179255243008939  0.3165865357329949
  0.3887848538637542  0.1585209622974659  0.4214330459702254
  0.0051203424962125  0.6004279945499036  0.5394857403429825
  0.1488046092626334  0.1005600144899645  0.3796138215472240
  0.0535100960155930  0.5535999718694029  0.6749441136225727
  0.2445303827309075  0.9366696886476902  0.1807201595069117
  0.2111291220067812  0.0333444241902257  0.0763381733427408
  0.3464552074118217  0.2845290381281202  0.5066837001100595
  0.9572903246090831  0.4619185763262550  0.4915073019672533
  0.0763636846054112  0.0987070333075195  0.1015875954856469
  0.2804269209640822  0.5561777783851340  0.7633804461206992
  0.3627575088048616  0.0872149734281962  0.6838424172054616
  0.3204118764972179  0.5069803747319455  0.5701886016805346
  0.7705400588951150  0.3808531414235006  0.1042052674017526
  0.8255002921134391  0.7379810222745036  0.6882932929355903
  0.7049463663873468  0.4589878483713647  0.9835821638383280
  0.8335818797847594  0.6814866163251878  0.8720482058653403
  0.1813822437472368  0.8204511230939744  0.5864173413830898
  0.2744425213768196  0.1920736038942579  0.1268287958619823
  0.9810943341279454  0.8798562467116398  0.1843738542738720
  0.9721744283025089  0.6838177152652491  0.6700640639891731
  0.3745311854669495  0.0243086230330221  0.5044206592655698
  0.1863696073002785  0.6833102019155390  0.8186160150142143
  0.4814567977736459  0.0151399587419974  0.6239505150529538
  0.3212601940116997  0.2172570301508969  0.2749087823900567
  0.4927478282977518  0.2753714890529437  0.5838911550362980
  0.8572343214137277  0.6019870235744449  0.7456394488006808
  0.0274420469039995  0.3258857513078866  0.4409655790721700
  0.1354958849125865  0.8732782970937620  0.4746132135122565
  0.0045071944637769  0.8620559599277939  0.0359538223547418
  0.1559044127823341  0.5203704901313060  0.7905026492515788
  0.0542310672571134  0.9764628435335396  0.3781355196272571
  0.1827577997024221  0.1639261124266085  0.0091087957878102
  0.8382530135594948  0.4788830236795647  0.9962237963872340
  0.8068178703446520  0.5338528981101192  0.8767850530050509
  0.9110828289324786  0.5510530557727478  0.6195400271083216
  0.1727577479093299  0.6401767157331690  0.6930230947252340
  0.4343793340888027  0.1460870004504073  0.5614155164826684
  0.4126022067111492  0.4963851517409594  0.7177007137158071
  0.0965096143595332  0.2244859293941488  0.9036449960422814
  0.1879363366804867  0.4990826998977340  0.6478127160573166
  0.5616640650104472  0.8646622530433490  0.4613101018970838
  0.1340910852960846  0.0204760677102556  0.2507407709464715
  0.2266021590295395  0.3810369092989419  0.5547647664071249
 
  0.00000000E+00  0.00000000E+00  0.00000000E+00
  0.00000000E+00  0.00000000E+00  0.00000000E+00
  0.00000000E+00  0.00000000E+00  0.00000000E+00
  0.00000000E+00  0.00000000E+00  0.00000000E+00
  0.00000000E+00  0.00000000E+00  0.00000000E+00
  0.00000000E+00  0.00000000E+00  0.00000000E+00
  0.00000000E+00  0.00000000E+00  0.00000000E+00
  0.00000000E+00  0.00000000E+00  0.00000000E+00
  0.00000000E+00  0.00000000E+00  0.00000000E+00
  0.00000000E+00  0.00000000E+00  0.00000000E+00
  0.00000000E+00  0.00000000E+00  0.00000000E+00
  0.00000000E+00  0.00000000E+00  0.00000000E+00
  0.00000000E+00  0.00000000E+00  0.00000000E+00
  0.00000000E+00  0.00000000E+00  0.00000000E+00
  0.00000000E+00  0.00000000E+00  0.00000000E+00
  0.00000000E+00  0.00000000E+00  0.00000000E+00
  0.00000000E+00  0.00000000E+00  0.00000000E+00
  0.00000000E+00  0.00000000E+00  0.00000000E+00
  0.00000000E+00  0.00000000E+00  0.00000000E+00
  0.00000000E+00  0.00000000E+00  0.00000000E+00
  0.00000000E+00  0.00000000E+00  0.00000000E+00
  0.00000000E+00  0.00000000E+00  0.00000000E+00
  0.00000000E+00  0.00000000E+00  0.00000000E+00
  0.00000000E+00  0.00000000E+00  0.00000000E+00
  0.00000000E+00  0.00000000E+00  0.00000000E+00
  0.00000000E+00  0.00000000E+00  0.00000000E+00
  0.00000000E+00  0.00000000E+00  0.00000000E+00
  0.00000000E+00  0.00000000E+00  0.00000000E+00
  0.00000000E+00  0.00000000E+00  0.00000000E+00
  0.00000000E+00  0.00000000E+00  0.00000000E+00
  0.00000000E+00  0.00000000E+00  0.00000000E+00
  0.00000000E+00  0.00000000E+00  0.00000000E+00
  0.00000000E+00  0.00000000E+00  0.00000000E+00
  0.00000000E+00  0.00000000E+00  0.00000000E+00
  0.00000000E+00  0.00000000E+00  0.00000000E+00
  0.00000000E+00  0.00000000E+00  0.00000000E+00
  0.00000000E+00  0.00000000E+00  0.00000000E+00
  0.00000000E+00  0.00000000E+00  0.00000000E+00
  0.00000000E+00  0.00000000E+00  0.00000000E+00
  0.00000000E+00  0.00000000E+00  0.00000000E+00
  0.00000000E+00  0.00000000E+00  0.00000000E+00
  0.00000000E+00  0.00000000E+00  0.00000000E+00
  0.00000000E+00  0.00000000E+00  0.00000000E+00
  0.00000000E+00  0.00000000E+00  0.00000000E+00
  0.00000000E+00  0.00000000E+00  0.00000000E+00
  0.00000000E+00  0.00000000E+00  0.00000000E+00
  0.00000000E+00  0.00000000E+00  0.00000000E+00
  0.00000000E+00  0.00000000E+00  0.00000000E+00
  0.00000000E+00  0.00000000E+00  0.00000000E+00
  0.00000000E+00  0.00000000E+00  0.00000000E+00
  0.00000000E+00  0.00000000E+00  0.00000000E+00
  0.00000000E+00  0.00000000E+00  0.00000000E+00
  0.00000000E+00  0.00000000E+00  0.00000000E+00
  0.00000000E+00  0.00000000E+00  0.00000000E+00
  0.00000000E+00  0.00000000E+00  0.00000000E+00
  0.00000000E+00  0.00000000E+00  0.00000000E+00
  0.00000000E+00  0.00000000E+00  0.00000000E+00
  0.00000000E+00  0.00000000E+00  0.00000000E+00
  0.00000000E+00  0.00000000E+00  0.00000000E+00
  0.00000000E+00  0.00000000E+00  0.00000000E+00
  0.00000000E+00  0.00000000E+00  0.00000000E+00
  0.00000000E+00  0.00000000E+00  0.00000000E+00
  0.00000000E+00  0.00000000E+00  0.00000000E+00
  0.00000000E+00  0.00000000E+00  0.00000000E+00
  0.00000000E+00  0.00000000E+00  0.00000000E+00
  0.00000000E+00  0.00000000E+00  0.00000000E+00
  0.00000000E+00  0.00000000E+00  0.00000000E+00
  0.00000000E+00  0.00000000E+00  0.00000000E+00
  0.00000000E+00  0.00000000E+00  0.00000000E+00
  0.00000000E+00  0.00000000E+00  0.00000000E+00
  0.00000000E+00  0.00000000E+00  0.00000000E+00
  0.00000000E+00  0.00000000E+00  0.00000000E+00
  0.00000000E+00  0.00000000E+00  0.00000000E+00
  0.00000000E+00  0.00000000E+00  0.00000000E+00
  0.00000000E+00  0.00000000E+00  0.00000000E+00
  0.00000000E+00  0.00000000E+00  0.00000000E+00
  0.00000000E+00  0.00000000E+00  0.00000000E+00
  0.00000000E+00  0.00000000E+00  0.00000000E+00
  0.00000000E+00  0.00000000E+00  0.00000000E+00
  0.00000000E+00  0.00000000E+00  0.00000000E+00
  0.00000000E+00  0.00000000E+00  0.00000000E+00
  0.00000000E+00  0.00000000E+00  0.00000000E+00
  0.00000000E+00  0.00000000E+00  0.00000000E+00
  0.00000000E+00  0.00000000E+00  0.00000000E+00
  0.00000000E+00  0.00000000E+00  0.00000000E+00
  0.00000000E+00  0.00000000E+00  0.00000000E+00
  0.00000000E+00  0.00000000E+00  0.00000000E+00
  0.00000000E+00  0.00000000E+00  0.00000000E+00
  0.00000000E+00  0.00000000E+00  0.00000000E+00
  0.00000000E+00  0.00000000E+00  0.00000000E+00
  0.00000000E+00  0.00000000E+00  0.00000000E+00
  0.00000000E+00  0.00000000E+00  0.00000000E+00
  0.00000000E+00  0.00000000E+00  0.00000000E+00
  0.00000000E+00  0.00000000E+00  0.00000000E+00
  0.00000000E+00  0.00000000E+00  0.00000000E+00
  0.00000000E+00  0.00000000E+00  0.00000000E+00
  0.00000000E+00  0.00000000E+00  0.00000000E+00
  0.00000000E+00  0.00000000E+00  0.00000000E+00
  0.00000000E+00  0.00000000E+00  0.00000000E+00
  0.00000000E+00  0.00000000E+00  0.00000000E+00
  0.00000000E+00  0.00000000E+00  0.00000000E+00
  0.00000000E+00  0.00000000E+00  0.00000000E+00
  0.00000000E+00  0.00000000E+00  0.00000000E+00
  0.00000000E+00  0.00000000E+00  0.00000000E+00
  0.00000000E+00  0.00000000E+00  0.00000000E+00
  0.00000000E+00  0.00000000E+00  0.00000000E+00
  0.00000000E+00  0.00000000E+00  0.00000000E+00
  0.00000000E+00  0.00000000E+00  0.00000000E+00
  0.00000000E+00  0.00000000E+00  0.00000000E+00
  0.00000000E+00  0.00000000E+00  0.00000000E+00
  0.00000000E+00  0.00000000E+00  0.00000000E+00
  0.00000000E+00  0.00000000E+00  0.00000000E+00
  0.00000000E+00  0.00000000E+00  0.00000000E+00
  0.00000000E+00  0.00000000E+00  0.00000000E+00
  0.00000000E+00  0.00000000E+00  0.00000000E+00
  0.00000000E+00  0.00000000E+00  0.00000000E+00
  0.00000000E+00  0.00000000E+00  0.00000000E+00
  0.00000000E+00  0.00000000E+00  0.00000000E+00
  0.00000000E+00  0.00000000E+00  0.00000000E+00
  0.00000000E+00  0.00000000E+00  0.00000000E+00
  0.00000000E+00  0.00000000E+00  0.00000000E+00
  0.00000000E+00  0.00000000E+00  0.00000000E+00
  0.00000000E+00  0.00000000E+00  0.00000000E+00
  0.00000000E+00  0.00000000E+00  0.00000000E+00
  0.00000000E+00  0.00000000E+00  0.00000000E+00
  0.00000000E+00  0.00000000E+00  0.00000000E+00
  0.00000000E+00  0.00000000E+00  0.00000000E+00
  0.00000000E+00  0.00000000E+00  0.00000000E+00
  0.00000000E+00  0.00000000E+00  0.00000000E+00
  0.00000000E+00  0.00000000E+00  0.00000000E+00
  0.00000000E+00  0.00000000E+00  0.00000000E+00
  0.00000000E+00  0.00000000E+00  0.00000000E+00
  0.00000000E+00  0.00000000E+00  0.00000000E+00
  0.00000000E+00  0.00000000E+00  0.00000000E+00
  0.00000000E+00  0.00000000E+00  0.00000000E+00
  0.00000000E+00  0.00000000E+00  0.00000000E+00
  0.00000000E+00  0.00000000E+00  0.00000000E+00
  0.00000000E+00  0.00000000E+00  0.00000000E+00
  0.00000000E+00  0.00000000E+00  0.00000000E+00
  0.00000000E+00  0.00000000E+00  0.00000000E+00
  0.00000000E+00  0.00000000E+00  0.00000000E+00
  0.00000000E+00  0.00000000E+00  0.00000000E+00
  0.00000000E+00  0.00000000E+00  0.00000000E+00
  0.00000000E+00  0.00000000E+00  0.00000000E+00
  0.00000000E+00  0.00000000E+00  0.00000000E+00
  0.00000000E+00  0.00000000E+00  0.00000000E+00
  0.00000000E+00  0.00000000E+00  0.00000000E+00
  0.00000000E+00  0.00000000E+00  0.00000000E+00
  0.00000000E+00  0.00000000E+00  0.00000000E+00
  0.00000000E+00  0.00000000E+00  0.00000000E+00
  0.00000000E+00  0.00000000E+00  0.00000000E+00
  0.00000000E+00  0.00000000E+00  0.00000000E+00
  0.00000000E+00  0.00000000E+00  0.00000000E+00
  0.00000000E+00  0.00000000E+00  0.00000000E+00
  0.00000000E+00  0.00000000E+00  0.00000000E+00
  0.00000000E+00  0.00000000E+00  0.00000000E+00
  0.00000000E+00  0.00000000E+00  0.00000000E+00
  0.00000000E+00  0.00000000E+00  0.00000000E+00
  0.00000000E+00  0.00000000E+00  0.00000000E+00
  0.00000000E+00  0.00000000E+00  0.00000000E+00
  0.00000000E+00  0.00000000E+00  0.00000000E+00
  0.00000000E+00  0.00000000E+00  0.00000000E+00
  0.00000000E+00  0.00000000E+00  0.00000000E+00
  0.00000000E+00  0.00000000E+00  0.00000000E+00
  0.00000000E+00  0.00000000E+00  0.00000000E+00
  0.00000000E+00  0.00000000E+00  0.00000000E+00
  0.00000000E+00  0.00000000E+00  0.00000000E+00
  0.00000000E+00  0.00000000E+00  0.00000000E+00
  0.00000000E+00  0.00000000E+00  0.00000000E+00
  0.00000000E+00  0.00000000E+00  0.00000000E+00
  0.00000000E+00  0.00000000E+00  0.00000000E+00
  0.00000000E+00  0.00000000E+00  0.00000000E+00
  0.00000000E+00  0.00000000E+00  0.00000000E+00
  0.00000000E+00  0.00000000E+00  0.00000000E+00
  0.00000000E+00  0.00000000E+00  0.00000000E+00
  0.00000000E+00  0.00000000E+00  0.00000000E+00
  0.00000000E+00  0.00000000E+00  0.00000000E+00
  0.00000000E+00  0.00000000E+00  0.00000000E+00
  0.00000000E+00  0.00000000E+00  0.00000000E+00
  0.00000000E+00  0.00000000E+00  0.00000000E+00
  0.00000000E+00  0.00000000E+00  0.00000000E+00
  0.00000000E+00  0.00000000E+00  0.00000000E+00
  0.00000000E+00  0.00000000E+00  0.00000000E+00
  0.00000000E+00  0.00000000E+00  0.00000000E+00
  0.00000000E+00  0.00000000E+00  0.00000000E+00
  0.00000000E+00  0.00000000E+00  0.00000000E+00
  0.00000000E+00  0.00000000E+00  0.00000000E+00
  0.00000000E+00  0.00000000E+00  0.00000000E+00
  0.00000000E+00  0.00000000E+00  0.00000000E+00
  0.00000000E+00  0.00000000E+00  0.00000000E+00
  0.00000000E+00  0.00000000E+00  0.00000000E+00
  0.00000000E+00  0.00000000E+00  0.00000000E+00
  0.00000000E+00  0.00000000E+00  0.00000000E+00
  0.00000000E+00  0.00000000E+00  0.00000000E+00
  0.00000000E+00  0.00000000E+00  0.00000000E+00
  0.00000000E+00  0.00000000E+00  0.00000000E+00
  0.00000000E+00  0.00000000E+00  0.00000000E+00
  0.00000000E+00  0.00000000E+00  0.00000000E+00
  0.00000000E+00  0.00000000E+00  0.00000000E+00
  0.00000000E+00  0.00000000E+00  0.00000000E+00
  0.00000000E+00  0.00000000E+00  0.00000000E+00
  0.00000000E+00  0.00000000E+00  0.00000000E+00
  0.00000000E+00  0.00000000E+00  0.00000000E+00
  0.00000000E+00  0.00000000E+00  0.00000000E+00
  0.00000000E+00  0.00000000E+00  0.00000000E+00
  0.00000000E+00  0.00000000E+00  0.00000000E+00
  0.00000000E+00  0.00000000E+00  0.00000000E+00
  0.00000000E+00  0.00000000E+00  0.00000000E+00
  0.00000000E+00  0.00000000E+00  0.00000000E+00
  0.00000000E+00  0.00000000E+00  0.00000000E+00
  0.00000000E+00  0.00000000E+00  0.00000000E+00
  0.00000000E+00  0.00000000E+00  0.00000000E+00
  0.00000000E+00  0.00000000E+00  0.00000000E+00
  0.00000000E+00  0.00000000E+00  0.00000000E+00
  0.00000000E+00  0.00000000E+00  0.00000000E+00
  0.00000000E+00  0.00000000E+00  0.00000000E+00
  0.00000000E+00  0.00000000E+00  0.00000000E+00
  0.00000000E+00  0.00000000E+00  0.00000000E+00
  0.00000000E+00  0.00000000E+00  0.00000000E+00
  0.00000000E+00  0.00000000E+00  0.00000000E+00
  0.00000000E+00  0.00000000E+00  0.00000000E+00
  0.00000000E+00  0.00000000E+00  0.00000000E+00
  0.00000000E+00  0.00000000E+00  0.00000000E+00
  0.00000000E+00  0.00000000E+00  0.00000000E+00
  0.00000000E+00  0.00000000E+00  0.00000000E+00
  0.00000000E+00  0.00000000E+00  0.00000000E+00
  0.00000000E+00  0.00000000E+00  0.00000000E+00
  0.00000000E+00  0.00000000E+00  0.00000000E+00
  0.00000000E+00  0.00000000E+00  0.00000000E+00
  0.00000000E+00  0.00000000E+00  0.00000000E+00
  0.00000000E+00  0.00000000E+00  0.00000000E+00