Amorphous SiAsTe                        
   1.00000000000000     
    20.3891714401205597    0.0000000000000000    0.0000000000000000
     0.0000000000000000   20.3891714401205597    0.0000000000000000
     0.0000000000000000    0.0000000000000000   20.3891714401205597
   Si   AS   Te
   135    30   135
Direct
  0.6316190807686937  0.4897035576970694  0.7591229037888709
  0.7390143316163886  0.4630014190202800  0.6420584040586235
  0.5422311457503994  0.7567325086460812  0.8949969679147571
  0.5467478974447033  0.0163161031166226  0.8883664775439684
  0.4452092572102728  0.9996803126243066  0.3952676140273326
  0.4082812587348457  0.0765576202545049  0.0151096776149515
  0.3963038392436715  0.2739880658219960  0.7559703413661509
  0.6353376000748625  0.1480842538523959  0.2284096500853749
  0.0157140710254211  0.6430750998267527  0.7541839219978641
  0.2640659557245257  0.9129494262734923  0.4950660383172618
  0.7493127652328866  0.4165464073836276  0.9602154479327822
  0.9844628317169679  0.5098879103406233  0.6305952656717793
  0.4482563944584683  0.0635832452546623  0.8465279801814916
  0.0215564630960117  0.1213075505305525  0.9404322234063258
  0.6204986194746951  0.3857171899695615  0.8136471655704653
  0.7278653520143408  0.3269519023105047  0.1586077078280042
  0.9297329174619762  0.8048361022360382  0.8015972541279552
  0.8536293330242586  0.7185465498189672  0.3507217138680190
  0.3720000144832269  0.6435866020025642  0.3604885293840212
  0.9986096202066079  0.8798599293667593  0.7479938979295113
  0.4156814629346783  0.5526312795515338  0.5046768939667672
  0.8689233209643561  0.9417211732709490  0.7110693069357552
  0.0948965788810838  0.6773485591065054  0.2133566187305007
  0.5733788039798426  0.6819051182159939  0.1449514195271817
  0.5642359904353569  0.2891965898338000  0.0848897370728849
  0.5182669356280627  0.6611741994695919  0.9535706530721910
  0.6887078540736482  0.3653281041445169  0.0500118926321989
  0.1307188424974939  0.3764743825592589  0.0777953662725466
  0.2198657657303684  0.7106786295195775  0.9999974157823601
  0.6686412744990591  0.4939795680902677  0.2819614897393308
  0.3283566067670662  0.8073992720824918  0.9046923622469762
  0.4966603306172672  0.5933167031854509  0.8621813769625177
  0.8810912865099638  0.7627223847736886  0.7066724637372346
  0.9315793987170409  0.7618817053360587  0.4793456503279998
  0.9897405303574729  0.0654912236254290  0.2045840912366117
  0.9388597858060592  0.7618193987545254  0.2872186322186536
  0.6311229492966248  0.4342536446772627  0.4723526903773561
  0.2655930979464642  0.0211990607070547  0.5410815871862198
  0.3667810086159449  0.7027170845353226  0.9286349558312708
  0.4171353966470051  0.8787989967384604  0.8923555471839109
  0.9342059646182292  0.0505138555076385  0.1054480200530676
  0.9310692319767568  0.3731815393231841  0.1693731857408167
  0.8357202529313739  0.9389148552340956  0.4052589729333533
  0.6378773548632282  0.0510853962323168  0.8247672852420465
  0.5604757775806206  0.8322578134989556  0.9779284839699542
  0.6115144593032014  0.1676151467397062  0.6513975809605412
  0.9993790447019393  0.5367732484329366  0.1401458016838077
  0.8512558712863196  0.7708409925135626  0.0699959156548218
  0.9733676556775421  0.2821781879499241  0.5207794763320805
  0.9521031606679387  0.0186800289481468  0.6823479673523707
  0.4567077803235975  0.6502742043056813  0.1301494122006730
  0.5828352989047119  0.7289606967818756  0.5667998520122950
  0.7503827502861000  0.8612986649917502  0.4273790470332983
  0.9345743513247555  0.3384445238142106  0.9628075744534570
  0.2236356543053404  0.8093473563167635  0.2049706721198490
  0.6655683228258269  0.8483676600358407  0.2129225445408593
  0.4789731992952682  0.9925490470306926  0.0480607023196100
  0.5388192424881808  0.0343605596393743  0.3307317792583362
  0.5800026312138158  0.0550273984620873  0.0556642936421952
  0.5585722275851808  0.5818029297870737  0.7632281299014423
  0.5514575078533497  0.1115487216969839  0.9564403190412989
  0.5095968271406193  0.5436134656975042  0.5730963287426363
  0.5036580607357166  0.9284115463551501  0.9549717003606730
  0.5465949473394147  0.2641057029745753  0.6447865111738054
  0.6143076152682312  0.3319594243985051  0.7082255087418972
  0.5205510343533888  0.0012106147819964  0.2230929701197653
  0.3351265631518245  0.1792968789710372  0.1750969751226918
  0.9284744478493110  0.9365207372010858  0.8984189622824772
  0.8598399373851819  0.9882688845896581  0.3002575310516420
  0.8769891795256228  0.7185254307647284  0.8587149772688392
  0.7724719384345278  0.6102191715084260  0.4343225198054768
  0.9474761415902364  0.6777023761388392  0.6649674401350509
  0.8273974723126543  0.3589182515132094  0.5279424342215435
  0.3380243413177766  0.1754021082358079  0.7438815676699235
  0.0860382712437797  0.5624368392791723  0.2163995946373163
  0.4772626131201818  0.8130122953490115  0.8169162369004610
  0.6490023939271552  0.2370709862973825  0.1523642198713517
  0.0229315510103305  0.9496967074161731  0.8356408035605654
  0.0399657480691999  0.9064779608840681  0.2911492667370510
  0.5651734423656620  0.5265030236233983  0.0526571559809952
  0.1063538817867169  0.6901523425277460  0.9993363998019689
  0.3754274096480046  0.9407492550518342  0.3246249231310685
  0.1519255655031202  0.3016390598262788  0.8144321716456204
  0.8942457631187111  0.2447314551208777  0.8166603055359047
  0.0241616556355595  0.4036817023666757  0.2433534400574260
  0.9410998449760086  0.6679098021712093  0.4096450091332855
  0.6838987364160545  0.9638873523591016  0.2147494164969572
  0.9764812760043569  0.0021859721429962  0.3017745266404930
  0.8598380554855254  0.8939773881563937  0.8166272789155400
  0.4830648432135121  0.5334995507217286  0.6898554996159874
  0.1281263946590272  0.0982475221392818  0.7947917365293620
  0.1902280759363961  0.5104047177373374  0.2048613484849966
  0.5928417240753987  0.6914099099931121  0.7434370933727195
  0.1102292693434279  0.7138152328066099  0.7522358149212707
  0.5972536534028734  0.8277496121798791  0.3007263716310788
  0.3353927992429746  0.9720724321577876  0.2178990939451069
  0.2561775784540643  0.2816048092209158  0.8632586940860776
  0.0662700609651310  0.0760209722008085  0.1163704891656181
  0.6576728514778907  0.7664021816630111  0.1311390193195052
  0.9691387859846330  0.3211788151426873  0.0732700944021829
  0.1216376492632634  0.0859934027433837  0.2995714597082113
  0.3683856106860048  0.5224214923696096  0.7095753478024989
  0.6280027000734592  0.4338263424233233  0.6567331962157681
  0.9856232896366848  0.3997355920359169  0.5952712909486522
  0.8211289535043065  0.7728149397734185  0.4493886174115289
  0.1189502302291032  0.3204604014048940  0.3883149662162850
  0.0458950731355685  0.7257353587583069  0.3068156496218037
  0.7999107903932625  0.9388599669094546  0.2114244489668096
  0.5121213973049805  0.7694896682008832  0.7161433997608100
  0.4176993427290370  0.4926320640902730  0.4020489019809972
  0.2367763452891722  0.9143476730849613  0.2563206489471668
  0.6137218383419096  0.0475478846069493  0.1689037393745636
  0.0696485799171214  0.7231114104994489  0.1073191431654692
  0.8246376722578788  0.0580889211401612  0.8589786743565995
  0.6648543630834922  0.6905082363680037  0.3555152622586419
  0.7714387863288863  0.5429073860435096  0.2636484097850413
  0.4283605969307445  0.0078966064572228  0.1540287473433395
  0.7676731844316933  0.6469262125126107  0.3214754636453634
  0.7407263379111626  0.9950651781025286  0.8081426128732616
  0.2691963433017577  0.0981958832015835  0.4542428491167243
  0.0778138105697010  0.2424325058020784  0.6695190803566149
  0.5496156994136925  0.3375172754971842  0.8934731798611963
  0.5942956404184443  0.6167230682697848  0.5399061160418626
  0.9518813615709618  0.7172826062027866  0.1098769816864262
  0.2444443675852668  0.5232005946448268  0.5413767546491357
  0.6552290446440381  0.7991942321609429  0.3983977725515331
  0.5691968828838938  0.2543486222058959  0.5285292604303251
  0.9026591804993487  0.4825479005698057  0.1805081248357610
  0.2043424882580140  0.0486250132814305  0.3728928758063077
  0.4354537011996982  0.6961412517748897  0.0243122493550985
  0.6056353814036868  0.5048028067899182  0.3799917792907621
  0.9478078031273114  0.0610625209603555  0.5220557285014849
  0.8349020517232120  0.0953718874624201  0.2601706183244588
  0.2035729206029231  0.0782793233574139  0.6284147809962093
  0.0869981561546993  0.2080482965258952  0.7807143723504311
  0.0281424099310570  0.0810550190452091  0.3759815607904429
  0.1311901331676992  0.0788512098433927  0.9136457492387819
  0.4272876662265546  0.1213089464970878  0.1215279285054081
  0.4220856848279979  0.6827054947326445  0.8242068714954840
  0.9916195286037421  0.3455409187399923  0.8543196524962937
  0.9694874441588084  0.2882228015446344  0.6402040345614139
  0.3220093968429723  0.6167587737499360  0.5398587747838164
  0.5028434340192831  0.5471481463098797  0.3383391617164762
  0.0163874173051255  0.0539131756463220  0.7780270442369712
  0.4546742967322004  0.3865334814242445  0.3639801965263487
  0.4393328969835579  0.1509094810483376  0.9291215994055122
  0.6278799506571247  0.2821424988632728  0.9847190448288146
  0.9161807516542737  0.0462487372031717  0.9363271535282891
  0.9869042555677154  0.1649470688446044  0.8319160718904399
  0.0778822088053133  0.2681080925199595  0.0769980037225437
  0.2850456250050399  0.6232750036213304  0.9569972660225403
  0.2628345489412780  0.9452357464399910  0.3684263547672373
  0.8378338288461862  0.3013394180531890  0.2041983182960792
  0.0535087637579181  0.6439830541030460  0.3899846807703611
  0.6497826247196272  0.5994326374382695  0.4343664533666853
  0.9343455087031671  0.3893173981248594  0.4885331995174909
  0.3660294442819207  0.8515055988218734  0.4915595018406620
  0.3170742146428651  0.5372481517183445  0.3599646241087626
  0.3452435650581762  0.3530638226009444  0.8274924100031598
  0.4523623705295563  0.9410888146029492  0.4994822006639339
  0.6633909336920212  0.7332792000253434  0.6570149975561961
  0.5549955752567399  0.4339626371149734  0.5627713595523218
  0.9896324107589436  0.1443757444651936  0.0554384447706795
  0.1797467765699778  0.7257406970763611  0.8449851068648471
  0.5845450742701317  0.8245731488500212  0.4918682430128243
  0.8277739050823243  0.3738741373004544  0.6528719786900226
  0.9599551307974536  0.8553542528113525  0.2065199065032957
  0.1567335021046574  0.3395343286809975  0.6933218279246063
  0.6986579119467891  0.1745967110689506  0.0593749222063025
  0.6762478184658747  0.8093618186573224  0.0154281667415361
  0.3164402259937802  0.5041365214938480  0.2341188194488666
  0.1687044274782039  0.4370925448861556  0.3805537537973791
  0.8125428968796058  0.7038967920134880  0.9675348242796034
  0.5865020229841704  0.4117841868453880  0.1149895830815524
  0.8895881294683576  0.5687732132591918  0.4663811103727866
  0.4640328002223697  0.2689008943473965  0.4643433047290628
  0.6524480006516100  0.9762917665919062  0.3405343036648105
  0.1965247249052382  0.5473058816993017  0.0853457266971418
  0.8294686382190193  0.8970498218714340  0.0912807485475042
  0.2786729960676126  0.3899932665175072  0.4518771446975123
  0.0528484249692127  0.5157458851180010  0.7395832255675145
  0.6201335755006170  0.1395977372040491  0.5291682339354793
  0.4445980159536234  0.5310558396981619  0.0903430184937264
  0.0216999448842188  0.9680652975640740  0.0624650228976122
  0.1694467103249764  0.8392215542380299  0.5195172740788507
  0.3295332680024501  0.8106137718854498  0.1405171526410385
  0.8605305714866276  0.2403462288396199  0.9399151812995470
  0.2601714771506067  0.1885234921687768  0.6471710491801588
  0.1277275200489214  0.9491610365073555  0.9018069686148280
  0.3780608368483556  0.3380141244344088  0.1468571462590376
  0.6671357918965697  0.3723371364382615  0.2639429212746336
  0.8745576281553156  0.4865745523818603  0.3038854811553264
  0.4974146972256932  0.8798689233437500  0.2448045430571781
  0.7374722791790873  0.1602149250013696  0.3028883564372080
  0.8107954106006972  0.0649302347704790  0.1374425231237737
  0.7315892248873297  0.3404447144941116  0.8622690600479572
  0.1881158055535082  0.1048843016619969  0.1239975252334204
  0.4377154188941361  0.1016354452794488  0.7268866991393281
  0.0796710212578802  0.2402512127460241  0.9493790274915881
  0.7532507654440792  0.6991545771029237  0.5220363520543998
  0.8254792144208309  0.0157883730895207  0.5018311394904913
  0.7563872675803509  0.5088243667228554  0.7607642392003342
  0.5523124439575611  0.1596476829334250  0.3251410144393603
  0.1284672783206702  0.9754884151177592  0.2248111055391178
  0.1518714254844369  0.3853788311966184  0.2024163297373178
  0.2893580250849013  0.6970785683397338  0.4413801239355095
  0.2071540802977978  0.5963954454571265  0.8470418112860401
  0.4704816682921233  0.4502488171132413  0.2506976489361676
  0.4202240484724129  0.1593992304001617  0.5405851529395491
  0.3852811483055163  0.0156578874962463  0.5837906158533386
  0.3776715690582364  0.8941612796413523  0.7158388878987196
  0.7048576076983792  0.2460793234996785  0.6784610319082347
  0.8592034520581819  0.8509973127656139  0.6229677899709145
  0.7903025162660100  0.5206530419458488  0.1402102845772220
  0.1961458569658063  0.5534272405307163  0.6641899230469619
  0.9570980167091534  0.6097392750179935  0.0436690678102494
  0.0112222978831085  0.3121146964688037  0.3277831694511093
  0.8684120146227059  0.4449129900720834  0.9828078060049776
  0.5957863210312482  0.8566098701413623  0.6749539268475075
  0.2519602349522287  0.9777597666180782  0.0876174251275259
  0.8093285510291039  0.1541672045043398  0.7829752153309499
  0.5725344486954640  0.9028678257836305  0.8053504637464144
  0.0150668883018596  0.7246599608683013  0.5697146264193620
  0.4023127985062800  0.5150540656637048  0.8733823140302377
  0.1126703310256190  0.8238043098222221  0.3503895063090425
  0.1686729595053649  0.6871930200394871  0.6453637553441212
  0.5048810187847934  0.2435053173667185  0.8149176918165466
  0.2711675302829164  0.1570904904806056  0.8466728088032269
  0.1090112381526893  0.8328060237608383  0.7138790571465776
  0.9513374547422444  0.6199807897551892  0.8591889115963056
  0.7843391660747017  0.0480181775007722  0.9766961651086632
  0.5880504150769781  0.4839990591105376  0.9320983291115184
  0.1298189971326522  0.8326040914296584  0.1224209110958228
  0.6530081545502071  0.7215465602198563  0.8491833747729771
  0.2961522600354414  0.0397712694195036  0.9748563081347754
  0.4625387127920604  0.7224317944316923  0.6112666090943648
  0.3483552398129817  0.4655841864531283  0.5943235456683311
  0.5598214052531461  0.7051431450921797  0.2847256062770356
  0.0538316554353955  0.5555682319798265  0.5378659196176585
  0.2422811113150800  0.4058472786843410  0.0261578323630900
  0.2107988513885672  0.6962908084528294  0.2598834438507822
  0.6866813164339405  0.8980427013249042  0.5316637747411193
  0.6467973111860701  0.1600943782370479  0.8869026860780309
  0.7851354852580315  0.2576551971454677  0.4695024364057048
  0.9514984870962024  0.8424388209526583  0.9796936047682223
  0.6793807964207090  0.5911770260025904  0.6279503806660145
  0.4844972326853494  0.8029838456949534  0.0716864509247230
  0.3090533503883321  0.0870440503384060  0.2646531867793200
  0.3800625592808160  0.8221319306431027  0.3652502632602079
  0.4561644714441755  0.4080516533927820  0.9484937515179865
  0.1191982286990410  0.1886307503885334  0.2233070888068838
  0.7646899800652065  0.6998046521388162  0.1378193038142612
  0.3894937746123617  0.1127059956044576  0.4090310132129105
  0.2776101954330983  0.4441732166050798  0.7613784531392227
  0.9488587713734447  0.8728640869043218  0.4147555758722916
  0.3416164906387422  0.3238691944870808  0.3446460441241328
  0.1056665468973748  0.5760958905398326  0.9417764065170431
  0.4454005260655194  0.2730472125078123  0.0452599174857156
  0.6586901859802552  0.9812460910328653  0.9933496730823421
  0.5958503493166347  0.0546096891270480  0.7039031970351814
  0.2845691921785303  0.8065188423192922  0.7857345010239811
  0.7750994716998747  0.8275866646708963  0.2705022364367835
  0.0973340961160929  0.2658660661743752  0.5003109108892403
  0.8780907220256111  0.2333057355259456  0.1016196006443266
  0.7410503757749183  0.8770380121688248  0.8475846623178072
  0.4743121676092770  0.6546627284225366  0.4377568408831749
  0.7576161240786305  0.9985128793061619  0.6854685491997401
  0.1073468710128012  0.9955520713761103  0.4381361159868291
  0.6422410588555962  0.3138919038077859  0.4432388441398203
  0.9370876765138334  0.4479675053804897  0.7922811024978955
  0.9394954932165405  0.1649351223399975  0.2650313952780579
  0.7934577959580693  0.6956585619042812  0.7645586707844245
  0.3919161956637893  0.6967515549990679  0.2395577357399574
  0.2603122607124817  0.8749265177007359  0.6252183548140167
  0.9072896137871922  0.1219631961398235  0.6278510884958237
  0.1005852475922921  0.4236294667939973  0.5462746649826400
  0.8798699939533563  0.5728110882277662  0.6534254848951520
  0.9118812261171101  0.1922625956909272  0.4614377113870205
  0.2003023205230079  0.2307536412486613  0.3487342686979531
  0.4927036362733404  0.4171433174469925  0.7358060375730915
  0.3252680168395159  0.6377130334105772  0.7408746365024754
  0.2403591292441334  0.8333114087364990  0.9867874705954307
  0.2692120752767124  0.2741550701899129  0.9870535237487346
  0.7538718011849852  0.4633320290557634  0.5029307971281654
  0.6202140331533741  0.6422807547523988  0.0241652949719295
  0.2560780053746115  0.2187211426416624  0.4795799186214964
  0.0372129745134089  0.5205641627555408  0.3226011226262315
  0.0658602036850198  0.7713652703271023  0.9097406607098719
  0.9241992173618030  0.6559296784938908  0.2151477813177607
  0.1095675410906978  0.3987507202069906  0.8829210479428866
  0.0208962113039277  0.9684621984294779  0.5939251248259083
  0.4232762476236189  0.2901659982072431  0.6334044533750927
  0.4283330691863085  0.2494064130495417  0.2383414247284179
  0.0853610463128405  0.1249953342179424  0.6099623584656442
  0.0366652026890861  0.4542474616695813  0.0478790727669320
  0.3542947772487182  0.9744423396850408  0.8360528644586651
  0.2814063003350711  0.6704588879527762  0.1041482638721192
  0.6254290500878881  0.5623634904815944  0.1756487244328895
  0.7206783373879091  0.5338634214678706  0.9331187646436732
  0.1982036071713367  0.0107371709662161  0.7334260067481395
 
  0.00000000E+00  0.00000000E+00  0.00000000E+00
  0.00000000E+00  0.00000000E+00  0.00000000E+00
  0.00000000E+00  0.00000000E+00  0.00000000E+00
  0.00000000E+00  0.00000000E+00  0.00000000E+00
  0.00000000E+00  0.00000000E+00  0.00000000E+00
  0.00000000E+00  0.00000000E+00  0.00000000E+00
  0.00000000E+00  0.00000000E+00  0.00000000E+00
  0.00000000E+00  0.00000000E+00  0.00000000E+00
  0.00000000E+00  0.00000000E+00  0.00000000E+00
  0.00000000E+00  0.00000000E+00  0.00000000E+00
  0.00000000E+00  0.00000000E+00  0.00000000E+00
  0.00000000E+00  0.00000000E+00  0.00000000E+00
  0.00000000E+00  0.00000000E+00  0.00000000E+00
  0.00000000E+00  0.00000000E+00  0.00000000E+00
  0.00000000E+00  0.00000000E+00  0.00000000E+00
  0.00000000E+00  0.00000000E+00  0.00000000E+00
  0.00000000E+00  0.00000000E+00  0.00000000E+00
  0.00000000E+00  0.00000000E+00  0.00000000E+00
  0.00000000E+00  0.00000000E+00  0.00000000E+00
  0.00000000E+00  0.00000000E+00  0.00000000E+00
  0.00000000E+00  0.00000000E+00  0.00000000E+00
  0.00000000E+00  0.00000000E+00  0.00000000E+00
  0.00000000E+00  0.00000000E+00  0.00000000E+00
  0.00000000E+00  0.00000000E+00  0.00000000E+00
  0.00000000E+00  0.00000000E+00  0.00000000E+00
  0.00000000E+00  0.00000000E+00  0.00000000E+00
  0.00000000E+00  0.00000000E+00  0.00000000E+00
  0.00000000E+00  0.00000000E+00  0.00000000E+00
  0.00000000E+00  0.00000000E+00  0.00000000E+00
  0.00000000E+00  0.00000000E+00  0.00000000E+00
  0.00000000E+00  0.00000000E+00  0.00000000E+00
  0.00000000E+00  0.00000000E+00  0.00000000E+00
  0.00000000E+00  0.00000000E+00  0.00000000E+00
  0.00000000E+00  0.00000000E+00  0.00000000E+00
  0.00000000E+00  0.00000000E+00  0.00000000E+00
  0.00000000E+00  0.00000000E+00  0.00000000E+00
  0.00000000E+00  0.00000000E+00  0.00000000E+00
  0.00000000E+00  0.00000000E+00  0.00000000E+00
  0.00000000E+00  0.00000000E+00  0.00000000E+00
  0.00000000E+00  0.00000000E+00  0.00000000E+00
  0.00000000E+00  0.00000000E+00  0.00000000E+00
  0.00000000E+00  0.00000000E+00  0.00000000E+00
  0.00000000E+00  0.00000000E+00  0.00000000E+00
  0.00000000E+00  0.00000000E+00  0.00000000E+00
  0.00000000E+00  0.00000000E+00  0.00000000E+00
  0.00000000E+00  0.00000000E+00  0.00000000E+00
  0.00000000E+00  0.00000000E+00  0.00000000E+00
  0.00000000E+00  0.00000000E+00  0.00000000E+00
  0.00000000E+00  0.00000000E+00  0.00000000E+00
  0.00000000E+00  0.00000000E+00  0.00000000E+00
  0.00000000E+00  0.00000000E+00  0.00000000E+00
  0.00000000E+00  0.00000000E+00  0.00000000E+00
  0.00000000E+00  0.00000000E+00  0.00000000E+00
  0.00000000E+00  0.00000000E+00  0.00000000E+00
  0.00000000E+00  0.00000000E+00  0.00000000E+00
  0.00000000E+00  0.00000000E+00  0.00000000E+00
  0.00000000E+00  0.00000000E+00  0.00000000E+00
  0.00000000E+00  0.00000000E+00  0.00000000E+00
  0.00000000E+00  0.00000000E+00  0.00000000E+00
  0.00000000E+00  0.00000000E+00  0.00000000E+00
  0.00000000E+00  0.00000000E+00  0.00000000E+00
  0.00000000E+00  0.00000000E+00  0.00000000E+00
  0.00000000E+00  0.00000000E+00  0.00000000E+00
  0.00000000E+00  0.00000000E+00  0.00000000E+00
  0.00000000E+00  0.00000000E+00  0.00000000E+00
  0.00000000E+00  0.00000000E+00  0.00000000E+00
  0.00000000E+00  0.00000000E+00  0.00000000E+00
  0.00000000E+00  0.00000000E+00  0.00000000E+00
  0.00000000E+00  0.00000000E+00  0.00000000E+00
  0.00000000E+00  0.00000000E+00  0.00000000E+00
  0.00000000E+00  0.00000000E+00  0.00000000E+00
  0.00000000E+00  0.00000000E+00  0.00000000E+00
  0.00000000E+00  0.00000000E+00  0.00000000E+00
  0.00000000E+00  0.00000000E+00  0.00000000E+00
  0.00000000E+00  0.00000000E+00  0.00000000E+00
  0.00000000E+00  0.00000000E+00  0.00000000E+00
  0.00000000E+00  0.00000000E+00  0.00000000E+00
  0.00000000E+00  0.00000000E+00  0.00000000E+00
  0.00000000E+00  0.00000000E+00  0.00000000E+00
  0.00000000E+00  0.00000000E+00  0.00000000E+00
  0.00000000E+00  0.00000000E+00  0.00000000E+00
  0.00000000E+00  0.00000000E+00  0.00000000E+00
  0.00000000E+00  0.00000000E+00  0.00000000E+00
  0.00000000E+00  0.00000000E+00  0.00000000E+00
  0.00000000E+00  0.00000000E+00  0.00000000E+00
  0.00000000E+00  0.00000000E+00  0.00000000E+00
  0.00000000E+00  0.00000000E+00  0.00000000E+00
  0.00000000E+00  0.00000000E+00  0.00000000E+00
  0.00000000E+00  0.00000000E+00  0.00000000E+00
  0.00000000E+00  0.00000000E+00  0.00000000E+00
  0.00000000E+00  0.00000000E+00  0.00000000E+00
  0.00000000E+00  0.00000000E+00  0.00000000E+00
  0.00000000E+00  0.00000000E+00  0.00000000E+00
  0.00000000E+00  0.00000000E+00  0.00000000E+00
  0.00000000E+00  0.00000000E+00  0.00000000E+00
  0.00000000E+00  0.00000000E+00  0.00000000E+00
  0.00000000E+00  0.00000000E+00  0.00000000E+00
  0.00000000E+00  0.00000000E+00  0.00000000E+00
  0.00000000E+00  0.00000000E+00  0.00000000E+00
  0.00000000E+00  0.00000000E+00  0.00000000E+00
  0.00000000E+00  0.00000000E+00  0.00000000E+00
  0.00000000E+00  0.00000000E+00  0.00000000E+00
  0.00000000E+00  0.00000000E+00  0.00000000E+00
  0.00000000E+00  0.00000000E+00  0.00000000E+00
  0.00000000E+00  0.00000000E+00  0.00000000E+00
  0.00000000E+00  0.00000000E+00  0.00000000E+00
  0.00000000E+00  0.00000000E+00  0.00000000E+00
  0.00000000E+00  0.00000000E+00  0.00000000E+00
  0.00000000E+00  0.00000000E+00  0.00000000E+00
  0.00000000E+00  0.00000000E+00  0.00000000E+00
  0.00000000E+00  0.00000000E+00  0.00000000E+00
  0.00000000E+00  0.00000000E+00  0.00000000E+00
  0.00000000E+00  0.00000000E+00  0.00000000E+00
  0.00000000E+00  0.00000000E+00  0.00000000E+00
  0.00000000E+00  0.00000000E+00  0.00000000E+00
  0.00000000E+00  0.00000000E+00  0.00000000E+00
  0.00000000E+00  0.00000000E+00  0.00000000E+00
  0.00000000E+00  0.00000000E+00  0.00000000E+00
  0.00000000E+00  0.00000000E+00  0.00000000E+00
  0.00000000E+00  0.00000000E+00  0.00000000E+00
  0.00000000E+00  0.00000000E+00  0.00000000E+00
  0.00000000E+00  0.00000000E+00  0.00000000E+00
  0.00000000E+00  0.00000000E+00  0.00000000E+00
  0.00000000E+00  0.00000000E+00  0.00000000E+00
  0.00000000E+00  0.00000000E+00  0.00000000E+00
  0.00000000E+00  0.00000000E+00  0.00000000E+00
  0.00000000E+00  0.00000000E+00  0.00000000E+00
  0.00000000E+00  0.00000000E+00  0.00000000E+00
  0.00000000E+00  0.00000000E+00  0.00000000E+00
  0.00000000E+00  0.00000000E+00  0.00000000E+00
  0.00000000E+00  0.00000000E+00  0.00000000E+00
  0.00000000E+00  0.00000000E+00  0.00000000E+00
  0.00000000E+00  0.00000000E+00  0.00000000E+00
  0.00000000E+00  0.00000000E+00  0.00000000E+00
  0.00000000E+00  0.00000000E+00  0.00000000E+00
  0.00000000E+00  0.00000000E+00  0.00000000E+00
  0.00000000E+00  0.00000000E+00  0.00000000E+00
  0.00000000E+00  0.00000000E+00  0.00000000E+00
  0.00000000E+00  0.00000000E+00  0.00000000E+00
  0.00000000E+00  0.00000000E+00  0.00000000E+00
  0.00000000E+00  0.00000000E+00  0.00000000E+00
  0.00000000E+00  0.00000000E+00  0.00000000E+00
  0.00000000E+00  0.00000000E+00  0.00000000E+00
  0.00000000E+00  0.00000000E+00  0.00000000E+00
  0.00000000E+00  0.00000000E+00  0.00000000E+00
  0.00000000E+00  0.00000000E+00  0.00000000E+00
  0.00000000E+00  0.00000000E+00  0.00000000E+00
  0.00000000E+00  0.00000000E+00  0.00000000E+00
  0.00000000E+00  0.00000000E+00  0.00000000E+00
  0.00000000E+00  0.00000000E+00  0.00000000E+00
  0.00000000E+00  0.00000000E+00  0.00000000E+00
  0.00000000E+00  0.00000000E+00  0.00000000E+00
  0.00000000E+00  0.00000000E+00  0.00000000E+00
  0.00000000E+00  0.00000000E+00  0.00000000E+00
  0.00000000E+00  0.00000000E+00  0.00000000E+00
  0.00000000E+00  0.00000000E+00  0.00000000E+00
  0.00000000E+00  0.00000000E+00  0.00000000E+00
  0.00000000E+00  0.00000000E+00  0.00000000E+00
  0.00000000E+00  0.00000000E+00  0.00000000E+00
  0.00000000E+00  0.00000000E+00  0.00000000E+00
  0.00000000E+00  0.00000000E+00  0.00000000E+00
  0.00000000E+00  0.00000000E+00  0.00000000E+00
  0.00000000E+00  0.00000000E+00  0.00000000E+00
  0.00000000E+00  0.00000000E+00  0.00000000E+00
  0.00000000E+00  0.00000000E+00  0.00000000E+00
  0.00000000E+00  0.00000000E+00  0.00000000E+00
  0.00000000E+00  0.00000000E+00  0.00000000E+00
  0.00000000E+00  0.00000000E+00  0.00000000E+00
  0.00000000E+00  0.00000000E+00  0.00000000E+00
  0.00000000E+00  0.00000000E+00  0.00000000E+00
  0.00000000E+00  0.00000000E+00  0.00000000E+00
  0.00000000E+00  0.00000000E+00  0.00000000E+00
  0.00000000E+00  0.00000000E+00  0.00000000E+00
  0.00000000E+00  0.00000000E+00  0.00000000E+00
  0.00000000E+00  0.00000000E+00  0.00000000E+00
  0.00000000E+00  0.00000000E+00  0.00000000E+00
  0.00000000E+00  0.00000000E+00  0.00000000E+00
  0.00000000E+00  0.00000000E+00  0.00000000E+00
  0.00000000E+00  0.00000000E+00  0.00000000E+00
  0.00000000E+00  0.00000000E+00  0.00000000E+00
  0.00000000E+00  0.00000000E+00  0.00000000E+00
  0.00000000E+00  0.00000000E+00  0.00000000E+00
  0.00000000E+00  0.00000000E+00  0.00000000E+00
  0.00000000E+00  0.00000000E+00  0.00000000E+00
  0.00000000E+00  0.00000000E+00  0.00000000E+00
  0.00000000E+00  0.00000000E+00  0.00000000E+00
  0.00000000E+00  0.00000000E+00  0.00000000E+00
  0.00000000E+00  0.00000000E+00  0.00000000E+00
  0.00000000E+00  0.00000000E+00  0.00000000E+00
  0.00000000E+00  0.00000000E+00  0.00000000E+00
  0.00000000E+00  0.00000000E+00  0.00000000E+00
  0.00000000E+00  0.00000000E+00  0.00000000E+00
  0.00000000E+00  0.00000000E+00  0.00000000E+00
  0.00000000E+00  0.00000000E+00  0.00000000E+00
  0.00000000E+00  0.00000000E+00  0.00000000E+00
  0.00000000E+00  0.00000000E+00  0.00000000E+00
  0.00000000E+00  0.00000000E+00  0.00000000E+00
  0.00000000E+00  0.00000000E+00  0.00000000E+00
  0.00000000E+00  0.00000000E+00  0.00000000E+00
  0.00000000E+00  0.00000000E+00  0.00000000E+00
  0.00000000E+00  0.00000000E+00  0.00000000E+00
  0.00000000E+00  0.00000000E+00  0.00000000E+00
  0.00000000E+00  0.00000000E+00  0.00000000E+00
  0.00000000E+00  0.00000000E+00  0.00000000E+00
  0.00000000E+00  0.00000000E+00  0.00000000E+00
  0.00000000E+00  0.00000000E+00  0.00000000E+00
  0.00000000E+00  0.00000000E+00  0.00000000E+00
  0.00000000E+00  0.00000000E+00  0.00000000E+00
  0.00000000E+00  0.00000000E+00  0.00000000E+00
  0.00000000E+00  0.00000000E+00  0.00000000E+00
  0.00000000E+00  0.00000000E+00  0.00000000E+00
  0.00000000E+00  0.00000000E+00  0.00000000E+00
  0.00000000E+00  0.00000000E+00  0.00000000E+00
  0.00000000E+00  0.00000000E+00  0.00000000E+00
  0.00000000E+00  0.00000000E+00  0.00000000E+00
  0.00000000E+00  0.00000000E+00  0.00000000E+00
  0.00000000E+00  0.00000000E+00  0.00000000E+00
  0.00000000E+00  0.00000000E+00  0.00000000E+00
  0.00000000E+00  0.00000000E+00  0.00000000E+00
  0.00000000E+00  0.00000000E+00  0.00000000E+00
  0.00000000E+00  0.00000000E+00  0.00000000E+00
  0.00000000E+00  0.00000000E+00  0.00000000E+00
  0.00000000E+00  0.00000000E+00  0.00000000E+00
  0.00000000E+00  0.00000000E+00  0.00000000E+00
  0.00000000E+00  0.00000000E+00  0.00000000E+00
  0.00000000E+00  0.00000000E+00  0.00000000E+00
  0.00000000E+00  0.00000000E+00  0.00000000E+00
  0.00000000E+00  0.00000000E+00  0.00000000E+00
  0.00000000E+00  0.00000000E+00  0.00000000E+00
  0.00000000E+00  0.00000000E+00  0.00000000E+00
  0.00000000E+00  0.00000000E+00  0.00000000E+00
  0.00000000E+00  0.00000000E+00  0.00000000E+00