Sb                                      
   1.00000000000000     
    19.6273007964999984    0.0000000000000000    0.0000000000000000
     0.0000000000000000   19.6273007964999984    0.0000000000000000
     0.0000000000000000    0.0000000000000000   19.6273007964999984
   Sb   Te
    66   132
Direct
  0.0900950939903140  0.1679287530951896  0.3809856073040834
  0.2863156008660823  0.1590327028280427  0.6850290222895765
  0.1208277484818581  0.3884767242710581  0.0033736393117323
  0.2300979744694729  0.7986846283234783  0.8067202621009599
  0.9099486901632119  0.0512388400192876  0.7629913557410575
  0.3223701214840133  0.9426201418751532  0.4318929378908365
  0.3561636734053479  0.7151998714741623  0.6960192935892309
  0.6998705927091109  0.4288298020052679  0.4169073217845849
  0.3682800432481983  0.7467966130540020  0.3667092085136545
  0.8946981165590984  0.2322208933535919  0.2821511693363945
  0.2224991882111880  0.0605859648766938  0.2306351606476156
  0.5543846181787231  0.2762956171797839  0.6594792739916784
  0.0495935499065396  0.0545903490789215  0.9198598226285455
  0.6309254514782978  0.0585805275772273  0.9114440555259691
  0.6577378383099415  0.1434430414468295  0.3494213736810110
  0.2609821546310158  0.5580673095808493  0.3455854056874088
  0.0571234665126141  0.9464091244808515  0.5865672825630810
  0.8484101026596562  0.1347240285584732  0.9125316501588898
  0.1579098344307681  0.3677469744857476  0.7219859974878204
  0.6494380878762342  0.0669040025534429  0.6747915510943230
  0.4497752496499601  0.3998719581528931  0.3828732269254047
  0.5209866835086601  0.6588309027455992  0.0105795956873180
  0.6216670140215612  0.0799280558894466  0.2200360583725995
  0.8296512184419527  0.2957195846147798  0.0888690766304805
  0.9741477197998165  0.5303409187476262  0.9334292343191990
  0.5237646923007020  0.6076204402580601  0.3857429703501865
  0.2299503367994689  0.2464506064575502  0.8783685659868965
  0.5438852630811439  0.6950441345577900  0.6356783476343324
  0.7187193937546539  0.2608010701923362  0.7141577109065338
  0.3026196521724458  0.8639918906549866  0.9733332154141223
  0.6521161241902291  0.6388332524079274  0.9404008577364422
  0.9181089930992954  0.5176655706977158  0.1831581347578108
  0.2442490541813598  0.2713765845928151  0.1278623053285131
  0.0784364789740906  0.2801546749902855  0.2216091905320070
  0.1607655747779049  0.7696449210701743  0.1107361280898047
  0.0887031285227948  0.7878075943967033  0.3261033661392645
  0.1468632121112208  0.6001332554804506  0.0228714051431425
  0.5187572965178333  0.6874227548384653  0.7845390774637124
  0.1544154320959024  0.4018909184546118  0.4487733689184310
  0.5065526930615647  0.2916702046578976  0.2527113973830382
  0.6354139616494550  0.7243811554148394  0.2091352924243495
  0.4423577455822425  0.4917602043076883  0.1869904195263743
  0.1441606607618553  0.7148610265362194  0.6321480520298053
  0.8214232486731987  0.3839920496838118  0.8775034114102525
  0.6285017129782275  0.3263549703728543  0.8705561944010825
  0.2504736635879183  0.8724651870200191  0.1674057503342041
  0.9624414039312299  0.2587850209119935  0.6521074228512020
  0.9233087368959048  0.4681343828236351  0.6957241846216036
  0.4251549936645418  0.0828634971309299  0.5859016911812489
  0.7309833273190307  0.5993717882113856  0.1447734838175592
  0.6533382437223665  0.7447644901651884  0.4791818921036537
  0.1528322447671542  0.4575178966288007  0.3106411341536770
  0.3020729697052218  0.6553813489656761  0.9330203510258741
  0.6531027934516089  0.5955264876401145  0.6578860616172335
  0.9015176641937686  0.3826482082235216  0.4484684244209305
  0.4013640122886812  0.2127963195651148  0.5150130254065104
  0.0445316125426771  0.5976202528712378  0.1927855176466409
  0.9312412320924111  0.7686377842759811  0.7322119509764988
  0.0401309858073517  0.9840036920022115  0.7897152835019909
  0.5932839491574597  0.9011417057724316  0.7709622938090774
  0.4100090547121482  0.4481117469093334  0.9629722299976819
  0.5418651295578627  0.4729798479965979  0.5693925588428925
  0.7828059324727974  0.7763612770375232  0.7783832796083487
  0.8626615800084494  0.9316431394539251  0.8863872630881033
  0.7863706866014084  0.4706649141295642  0.0829443673131536
  0.6916514781007592  0.8550438743469471  0.2572308109997223
  0.9089656493826865  0.5102154185450090  0.3307085173114075
  0.0219266951603743  0.1422791588900409  0.2515878061839274
  0.2390718820444420  0.3755688909325983  0.6027634818897596
  0.0685942981044789  0.1913160388411725  0.5742378132839576
  0.4280184192159240  0.9105778998123952  0.7771832894144026
  0.9285353968028360  0.0159621706122337  0.9928432145831891
  0.5141899116592299  0.8016728368500026  0.2170860908328791
  0.5994863032414486  0.4538108635681937  0.9365759302119443
  0.0017605234217370  0.9513897581140895  0.4500026302760176
  0.8145844362806116  0.1772691423976269  0.1722456040592277
  0.9701457600364307  0.5426822901294628  0.5099001741920048
  0.9422859496193610  0.0686726106010482  0.6191642269016526
  0.3970476047812213  0.9693874462297742  0.9339183233459138
  0.3359833145610125  0.4238506375578268  0.2954419097090621
  0.2240994727807575  0.2019874143088671  0.2627291042112816
  0.2845460656851841  0.0660499133448766  0.3625433825370976
  0.9136122699436982  0.8210045968680788  0.3166432371802372
  0.4247230931871186  0.8873594925822559  0.6330403526035440
  0.5402218051155074  0.3845600812946870  0.7611130420126599
  0.3378855240062180  0.0524311264019275  0.1428853833556047
  0.9137157694976636  0.2467580718196984  0.9794996674020808
  0.2458027159436611  0.6469407848362110  0.7573964105543354
  0.2033665418374682  0.9407695198085122  0.8672137119346033
  0.1147890108857794  0.9137042870262704  0.9790910567744717
  0.6153340292011507  0.7638836281182506  0.8703789148465617
  0.7407897981791152  0.4421816001072827  0.7711896029586285
  0.7390351080139297  0.3950520887401154  0.2090631691393057
  0.3164016148870203  0.4716279506255461  0.8507894710822157
  0.0431177828013105  0.8493083015794909  0.1371295334810299
  0.8172929188024440  0.8023001965264811  0.9390369136541850
  0.5118262728925203  0.2609340269606264  0.9330258330242742
  0.0981234313214472  0.9167162555075237  0.2537070238094756
  0.4483706781441015  0.0084616224753375  0.4644260730067487
  0.7214562204011656  0.9516925871209096  0.5865962881652962
  0.1137349101508534  0.8236599558566127  0.7212406466922587
  0.6843244528383536  0.2768677075998269  0.0279782185676396
  0.8097129921937594  0.0102346548390386  0.2672018669394518
  0.9266681310243925  0.6883887270065685  0.8740228408780908
  0.7902961185663031  0.7937138817475216  0.4935376065453951
  0.8157353547199548  0.5279385705219326  0.9406821177592519
  0.2212511741590859  0.9756264728952146  0.0661672530578628
  0.5235640593325002  0.1057211883963660  0.9950343242545685
  0.5566323629156997  0.5683263311732318  0.1180339234155952
  0.5126518985938162  0.0283097751524011  0.7786203680664556
  0.8028349815086457  0.1210639415650832  0.3634044107896628
  0.2675048463326846  0.3189389828586897  0.4107154083482030
  0.1922713503492304  0.8145606984042431  0.4233060105544837
  0.4980962762287859  0.0957721057042704  0.2950500893378205
  0.2563813032617119  0.2119334814661329  0.5137400258023277
  0.5489797017053419  0.4694099702525421  0.3011648558481923
  0.8060205034341266  0.4824566264931462  0.4979967196193513
  0.1562806417349236  0.2135105753632800  0.7312860256397187
  0.0221952303959512  0.3877671461328802  0.6207412669474834
  0.0210046257666647  0.5822391508278031  0.7100959676386296
  0.6450454283323879  0.2356290784810113  0.2335612059941212
  0.7517041109695555  0.9162157786196374  0.7494662975409341
  0.0077363076080772  0.6393943177064330  0.0396936466817124
  0.2745047251809893  0.8882828263049234  0.6522309538313493
  0.8881002781333720  0.6784008333967648  0.3343871951744362
  0.8403679918103322  0.5989760139159443  0.8012793511628189
  0.3991629618345272  0.8821209532640850  0.3227820503716003
  0.4352583134463615  0.1775936373542137  0.1979908620300463
  0.3825212958494433  0.7680241054237911  0.8929051903399596
  0.4744374596350553  0.7304520534347603  0.4673268072795764
  0.0977244497644705  0.3096286298725630  0.8812469560887166
  0.5629213740719550  0.1272663456611340  0.5721869612297823
  0.9390072702103396  0.8383138633137577  0.5970102232168202
  0.4493725955391596  0.5803975224735822  0.9085808483355535
  0.9570759412079184  0.4079726065184772  0.8248038289937512
  0.3397355888129212  0.6594616415453558  0.0779914625028724
  0.1975523035082389  0.6610266417555763  0.4437741017685752
  0.6303872069286314  0.5576433072297959  0.4883800786459531
  0.7634024582829895  0.9663180781101843  0.0803936379426986
  0.4387324253066254  0.6715804966392227  0.2621439683580249
  0.6468444098400354  0.4178123745415760  0.0681804740539604
  0.4354754472552074  0.5976010056642664  0.6607557712324805
  0.0705706085767019  0.8027398224392002  0.5302909417810397
  0.5747619202593128  0.8611758850624298  0.4429949889806295
  0.9783487089590182  0.4165019702669852  0.0268588407366366
  0.4501334444362897  0.2562637040961633  0.7986283827710352
  0.7958880529835497  0.3672230918563670  0.6476523258927713
  0.5091770170483656  0.9626962352894637  0.0238018288169926
  0.3289228311584296  0.5036667820926013  0.0728579213278948
  0.7279779960674446  0.1261708084440514  0.0000394295341977
  0.7438623707314420  0.7122122178026871  0.6410600683414032
  0.0967558286091759  0.5479067351593514  0.5928028315543727
  0.9453433727839240  0.3407086133875978  0.1902664373585594
  0.1445370654258369  0.5066500557586124  0.1406037420044299
  0.8642264181968073  0.6544038897921070  0.1679743977097772
  0.9851626960370083  0.8631681936693596  0.8489459282275860
  0.2151223538061799  0.0310726144029587  0.6924974739954166
  0.3226440328074105  0.1774788791045552  0.0523462665838963
  0.9050988602526715  0.6682304518041349  0.4819541858661722
  0.8539473631638899  0.9939736192107702  0.5292875766229983
  0.3664835251314997  0.8112765883344153  0.1002683407345231
  0.9528440477690765  0.9833536024677798  0.2743594455854463
  0.9896967862899189  0.1581565678393275  0.8238923862420364
  0.8324843784184850  0.2437747600669198  0.8006610252542998
  0.7526828107487376  0.5057819609915697  0.2979497958529507
  0.2925554296892869  0.3463504253980147  0.7872360702235781
  0.1790392027506229  0.0289277077309436  0.5430606274411502
  0.5958652469377981  0.9265104330738154  0.1749475612901037
  0.6057479842190290  0.5714199551417991  0.7948512002968400
  0.1253919854614054  0.0087738412961258  0.3980624325200850
  0.8027775707492353  0.8932650233804509  0.3880156532447145
  0.8128902218462386  0.8697940138148823  0.1753293156936522
  0.5823697225753719  0.8737841304396099  0.6308807317807705
  0.4258696406384246  0.5025225474614814  0.4859772372721523
  0.3004719378134055  0.3174130753606974  0.9876121265410660
  0.7019762063696078  0.7166726896239268  0.0587251981797010
  0.7016119824379174  0.8877087430572885  0.9794742231921916
  0.2777764578683275  0.7584560758208170  0.5779310839498564
  0.3573688043021832  0.1372064370011898  0.8103375465682632
  0.6238830963459918  0.1553456816451160  0.8015473946911413
  0.2474884808720148  0.5210733012607491  0.4839827680521367
  0.1264716606029950  0.5124891694743852  0.9082592782871259
  0.9780919981816538  0.1483478151247581  0.4705560040013097
  0.6727810576848583  0.9708637099048332  0.4490257149947254
  0.6584607171957586  0.6699090994775787  0.3512604025099080
  0.1812023923641064  0.7095937198441575  0.2426466646659691
  0.1132686392403954  0.2445943137968811  0.0726091815937338
  0.4091155712113093  0.2941856499217081  0.6358220618958583
  0.0420835302838185  0.3147982872597623  0.3689531887373434
  0.4719654743204558  0.3600618422519446  0.1300542091434949
  0.7928814143311769  0.3130584761009629  0.3789961421017125
  0.8640193667000347  0.2705031451941480  0.5463060451577775
  0.7477884432865451  0.1562706173845072  0.6171974182001634
  0.5905694156240031  0.3438026568699684  0.5283018690128003
  0.0537358645867059  0.5591078981936164  0.3420895357566565
  0.1762975177928183  0.7399511174054965  0.9310123265424082
  0.2325554748768042  0.5047172778135405  0.6749133403626288
  0.8785394647474334  0.6437046150167518  0.6572743175707316
 
  0.00000000E+00  0.00000000E+00  0.00000000E+00
  0.00000000E+00  0.00000000E+00  0.00000000E+00
  0.00000000E+00  0.00000000E+00  0.00000000E+00
  0.00000000E+00  0.00000000E+00  0.00000000E+00
  0.00000000E+00  0.00000000E+00  0.00000000E+00
  0.00000000E+00  0.00000000E+00  0.00000000E+00
  0.00000000E+00  0.00000000E+00  0.00000000E+00
  0.00000000E+00  0.00000000E+00  0.00000000E+00
  0.00000000E+00  0.00000000E+00  0.00000000E+00
  0.00000000E+00  0.00000000E+00  0.00000000E+00
  0.00000000E+00  0.00000000E+00  0.00000000E+00
  0.00000000E+00  0.00000000E+00  0.00000000E+00
  0.00000000E+00  0.00000000E+00  0.00000000E+00
  0.00000000E+00  0.00000000E+00  0.00000000E+00
  0.00000000E+00  0.00000000E+00  0.00000000E+00
  0.00000000E+00  0.00000000E+00  0.00000000E+00
  0.00000000E+00  0.00000000E+00  0.00000000E+00
  0.00000000E+00  0.00000000E+00  0.00000000E+00
  0.00000000E+00  0.00000000E+00  0.00000000E+00
  0.00000000E+00  0.00000000E+00  0.00000000E+00
  0.00000000E+00  0.00000000E+00  0.00000000E+00
  0.00000000E+00  0.00000000E+00  0.00000000E+00
  0.00000000E+00  0.00000000E+00  0.00000000E+00
  0.00000000E+00  0.00000000E+00  0.00000000E+00
  0.00000000E+00  0.00000000E+00  0.00000000E+00
  0.00000000E+00  0.00000000E+00  0.00000000E+00
  0.00000000E+00  0.00000000E+00  0.00000000E+00
  0.00000000E+00  0.00000000E+00  0.00000000E+00
  0.00000000E+00  0.00000000E+00  0.00000000E+00
  0.00000000E+00  0.00000000E+00  0.00000000E+00
  0.00000000E+00  0.00000000E+00  0.00000000E+00
  0.00000000E+00  0.00000000E+00  0.00000000E+00
  0.00000000E+00  0.00000000E+00  0.00000000E+00
  0.00000000E+00  0.00000000E+00  0.00000000E+00
  0.00000000E+00  0.00000000E+00  0.00000000E+00
  0.00000000E+00  0.00000000E+00  0.00000000E+00
  0.00000000E+00  0.00000000E+00  0.00000000E+00
  0.00000000E+00  0.00000000E+00  0.00000000E+00
  0.00000000E+00  0.00000000E+00  0.00000000E+00
  0.00000000E+00  0.00000000E+00  0.00000000E+00
  0.00000000E+00  0.00000000E+00  0.00000000E+00
  0.00000000E+00  0.00000000E+00  0.00000000E+00
  0.00000000E+00  0.00000000E+00  0.00000000E+00
  0.00000000E+00  0.00000000E+00  0.00000000E+00
  0.00000000E+00  0.00000000E+00  0.00000000E+00
  0.00000000E+00  0.00000000E+00  0.00000000E+00
  0.00000000E+00  0.00000000E+00  0.00000000E+00
  0.00000000E+00  0.00000000E+00  0.00000000E+00
  0.00000000E+00  0.00000000E+00  0.00000000E+00
  0.00000000E+00  0.00000000E+00  0.00000000E+00
  0.00000000E+00  0.00000000E+00  0.00000000E+00
  0.00000000E+00  0.00000000E+00  0.00000000E+00
  0.00000000E+00  0.00000000E+00  0.00000000E+00
  0.00000000E+00  0.00000000E+00  0.00000000E+00
  0.00000000E+00  0.00000000E+00  0.00000000E+00
  0.00000000E+00  0.00000000E+00  0.00000000E+00
  0.00000000E+00  0.00000000E+00  0.00000000E+00
  0.00000000E+00  0.00000000E+00  0.00000000E+00
  0.00000000E+00  0.00000000E+00  0.00000000E+00
  0.00000000E+00  0.00000000E+00  0.00000000E+00
  0.00000000E+00  0.00000000E+00  0.00000000E+00
  0.00000000E+00  0.00000000E+00  0.00000000E+00
  0.00000000E+00  0.00000000E+00  0.00000000E+00
  0.00000000E+00  0.00000000E+00  0.00000000E+00
  0.00000000E+00  0.00000000E+00  0.00000000E+00
  0.00000000E+00  0.00000000E+00  0.00000000E+00
  0.00000000E+00  0.00000000E+00  0.00000000E+00
  0.00000000E+00  0.00000000E+00  0.00000000E+00
  0.00000000E+00  0.00000000E+00  0.00000000E+00
  0.00000000E+00  0.00000000E+00  0.00000000E+00
  0.00000000E+00  0.00000000E+00  0.00000000E+00
  0.00000000E+00  0.00000000E+00  0.00000000E+00
  0.00000000E+00  0.00000000E+00  0.00000000E+00
  0.00000000E+00  0.00000000E+00  0.00000000E+00
  0.00000000E+00  0.00000000E+00  0.00000000E+00
  0.00000000E+00  0.00000000E+00  0.00000000E+00
  0.00000000E+00  0.00000000E+00  0.00000000E+00
  0.00000000E+00  0.00000000E+00  0.00000000E+00
  0.00000000E+00  0.00000000E+00  0.00000000E+00
  0.00000000E+00  0.00000000E+00  0.00000000E+00
  0.00000000E+00  0.00000000E+00  0.00000000E+00
  0.00000000E+00  0.00000000E+00  0.00000000E+00
  0.00000000E+00  0.00000000E+00  0.00000000E+00
  0.00000000E+00  0.00000000E+00  0.00000000E+00
  0.00000000E+00  0.00000000E+00  0.00000000E+00
  0.00000000E+00  0.00000000E+00  0.00000000E+00
  0.00000000E+00  0.00000000E+00  0.00000000E+00
  0.00000000E+00  0.00000000E+00  0.00000000E+00
  0.00000000E+00  0.00000000E+00  0.00000000E+00
  0.00000000E+00  0.00000000E+00  0.00000000E+00
  0.00000000E+00  0.00000000E+00  0.00000000E+00
  0.00000000E+00  0.00000000E+00  0.00000000E+00
  0.00000000E+00  0.00000000E+00  0.00000000E+00
  0.00000000E+00  0.00000000E+00  0.00000000E+00
  0.00000000E+00  0.00000000E+00  0.00000000E+00
  0.00000000E+00  0.00000000E+00  0.00000000E+00
  0.00000000E+00  0.00000000E+00  0.00000000E+00
  0.00000000E+00  0.00000000E+00  0.00000000E+00
  0.00000000E+00  0.00000000E+00  0.00000000E+00
  0.00000000E+00  0.00000000E+00  0.00000000E+00
  0.00000000E+00  0.00000000E+00  0.00000000E+00
  0.00000000E+00  0.00000000E+00  0.00000000E+00
  0.00000000E+00  0.00000000E+00  0.00000000E+00
  0.00000000E+00  0.00000000E+00  0.00000000E+00
  0.00000000E+00  0.00000000E+00  0.00000000E+00
  0.00000000E+00  0.00000000E+00  0.00000000E+00
  0.00000000E+00  0.00000000E+00  0.00000000E+00
  0.00000000E+00  0.00000000E+00  0.00000000E+00
  0.00000000E+00  0.00000000E+00  0.00000000E+00
  0.00000000E+00  0.00000000E+00  0.00000000E+00
  0.00000000E+00  0.00000000E+00  0.00000000E+00
  0.00000000E+00  0.00000000E+00  0.00000000E+00
  0.00000000E+00  0.00000000E+00  0.00000000E+00
  0.00000000E+00  0.00000000E+00  0.00000000E+00
  0.00000000E+00  0.00000000E+00  0.00000000E+00
  0.00000000E+00  0.00000000E+00  0.00000000E+00
  0.00000000E+00  0.00000000E+00  0.00000000E+00
  0.00000000E+00  0.00000000E+00  0.00000000E+00
  0.00000000E+00  0.00000000E+00  0.00000000E+00
  0.00000000E+00  0.00000000E+00  0.00000000E+00
  0.00000000E+00  0.00000000E+00  0.00000000E+00
  0.00000000E+00  0.00000000E+00  0.00000000E+00
  0.00000000E+00  0.00000000E+00  0.00000000E+00
  0.00000000E+00  0.00000000E+00  0.00000000E+00
  0.00000000E+00  0.00000000E+00  0.00000000E+00
  0.00000000E+00  0.00000000E+00  0.00000000E+00
  0.00000000E+00  0.00000000E+00  0.00000000E+00
  0.00000000E+00  0.00000000E+00  0.00000000E+00
  0.00000000E+00  0.00000000E+00  0.00000000E+00
  0.00000000E+00  0.00000000E+00  0.00000000E+00
  0.00000000E+00  0.00000000E+00  0.00000000E+00
  0.00000000E+00  0.00000000E+00  0.00000000E+00
  0.00000000E+00  0.00000000E+00  0.00000000E+00
  0.00000000E+00  0.00000000E+00  0.00000000E+00
  0.00000000E+00  0.00000000E+00  0.00000000E+00
  0.00000000E+00  0.00000000E+00  0.00000000E+00
  0.00000000E+00  0.00000000E+00  0.00000000E+00
  0.00000000E+00  0.00000000E+00  0.00000000E+00
  0.00000000E+00  0.00000000E+00  0.00000000E+00
  0.00000000E+00  0.00000000E+00  0.00000000E+00
  0.00000000E+00  0.00000000E+00  0.00000000E+00
  0.00000000E+00  0.00000000E+00  0.00000000E+00
  0.00000000E+00  0.00000000E+00  0.00000000E+00
  0.00000000E+00  0.00000000E+00  0.00000000E+00
  0.00000000E+00  0.00000000E+00  0.00000000E+00
  0.00000000E+00  0.00000000E+00  0.00000000E+00
  0.00000000E+00  0.00000000E+00  0.00000000E+00
  0.00000000E+00  0.00000000E+00  0.00000000E+00
  0.00000000E+00  0.00000000E+00  0.00000000E+00
  0.00000000E+00  0.00000000E+00  0.00000000E+00
  0.00000000E+00  0.00000000E+00  0.00000000E+00
  0.00000000E+00  0.00000000E+00  0.00000000E+00
  0.00000000E+00  0.00000000E+00  0.00000000E+00
  0.00000000E+00  0.00000000E+00  0.00000000E+00
  0.00000000E+00  0.00000000E+00  0.00000000E+00
  0.00000000E+00  0.00000000E+00  0.00000000E+00
  0.00000000E+00  0.00000000E+00  0.00000000E+00
  0.00000000E+00  0.00000000E+00  0.00000000E+00
  0.00000000E+00  0.00000000E+00  0.00000000E+00
  0.00000000E+00  0.00000000E+00  0.00000000E+00
  0.00000000E+00  0.00000000E+00  0.00000000E+00
  0.00000000E+00  0.00000000E+00  0.00000000E+00
  0.00000000E+00  0.00000000E+00  0.00000000E+00
  0.00000000E+00  0.00000000E+00  0.00000000E+00
  0.00000000E+00  0.00000000E+00  0.00000000E+00
  0.00000000E+00  0.00000000E+00  0.00000000E+00
  0.00000000E+00  0.00000000E+00  0.00000000E+00
  0.00000000E+00  0.00000000E+00  0.00000000E+00
  0.00000000E+00  0.00000000E+00  0.00000000E+00
  0.00000000E+00  0.00000000E+00  0.00000000E+00
  0.00000000E+00  0.00000000E+00  0.00000000E+00
  0.00000000E+00  0.00000000E+00  0.00000000E+00
  0.00000000E+00  0.00000000E+00  0.00000000E+00
  0.00000000E+00  0.00000000E+00  0.00000000E+00
  0.00000000E+00  0.00000000E+00  0.00000000E+00
  0.00000000E+00  0.00000000E+00  0.00000000E+00
  0.00000000E+00  0.00000000E+00  0.00000000E+00
  0.00000000E+00  0.00000000E+00  0.00000000E+00
  0.00000000E+00  0.00000000E+00  0.00000000E+00
  0.00000000E+00  0.00000000E+00  0.00000000E+00
  0.00000000E+00  0.00000000E+00  0.00000000E+00
  0.00000000E+00  0.00000000E+00  0.00000000E+00
  0.00000000E+00  0.00000000E+00  0.00000000E+00
  0.00000000E+00  0.00000000E+00  0.00000000E+00
  0.00000000E+00  0.00000000E+00  0.00000000E+00
  0.00000000E+00  0.00000000E+00  0.00000000E+00
  0.00000000E+00  0.00000000E+00  0.00000000E+00
  0.00000000E+00  0.00000000E+00  0.00000000E+00
  0.00000000E+00  0.00000000E+00  0.00000000E+00
  0.00000000E+00  0.00000000E+00  0.00000000E+00
  0.00000000E+00  0.00000000E+00  0.00000000E+00
  0.00000000E+00  0.00000000E+00  0.00000000E+00
  0.00000000E+00  0.00000000E+00  0.00000000E+00
  0.00000000E+00  0.00000000E+00  0.00000000E+00
  0.00000000E+00  0.00000000E+00  0.00000000E+00
  0.00000000E+00  0.00000000E+00  0.00000000E+00
  0.00000000E+00  0.00000000E+00  0.00000000E+00
  0.00000000E+00  0.00000000E+00  0.00000000E+00
