Amorphous Sb2Se3                        
  0.800000000000000     
    20.9867606951059784    0.0000000000000000    0.0000000000000000
     0.0000000000000000   20.9867606951059784    0.0000000000000000
     0.0000000000000000    0.0000000000000000   20.9867606951059784
   Sb   Se
   120   180
Direct
  0.2774778594229659  0.6045594619960922  0.1760898215256128
  0.1861164840895729  0.4856462301611285  0.4214726472988641
  0.5608699659782013  0.9415149312193528  0.1430833893670697
  0.6599788831292795  0.2816428165426904  0.0400420106239908
  0.3827867246301460  0.8277038285082703  0.5548654468009192
  0.7918412481713782  0.8685599556375738  0.3703514803033981
  0.6922507908507911  0.4601244067067901  0.3462064637794621
  0.0580441494369352  0.8032157774205718  0.2967509618418407
  0.9248789905844046  0.0497016055832859  0.6463944194638079
  0.4601615598247787  0.6761012323975248  0.0802570173893461
  0.8795125661233260  0.5401453416631224  0.3408028730530346
  0.4845515189181102  0.5536316027109445  0.5504347140936201
  0.8325862358535155  0.9685307617047689  0.7593567020022521
  0.7257965802461923  0.0197294236398981  0.3161900542662333
  0.5084553114182890  0.4738616641531084  0.3090091728054104
  0.3681199204405690  0.2648901911042759  0.9242696046553015
  0.9160819991695791  0.5960677438932309  0.5000488516606492
  0.9832988901478255  0.8802088176188806  0.7752759407961808
  0.5887749740351642  0.7536477102468876  0.2307593650818474
  0.5494261659438627  0.3458070223127899  0.1731947075537454
  0.7059873084090587  0.3219777226924468  0.8103724932710709
  0.6643900182777742  0.5289967007132371  0.9282699202285534
  0.3682487865506124  0.5415308515810018  0.8800511063817402
  0.0056799109769996  0.3003185804033350  0.1590205075123361
  0.8420460922861587  0.5264923401364126  0.9928595809366739
  0.6282538638770180  0.1214669085259947  0.5762966464653839
  0.6145750791933545  0.7443145539020086  0.4011734959551728
  0.5825821667919088  0.3761285933867712  0.9224641259341920
  0.2619705107849869  0.3615957447315497  0.5055635267198204
  0.7736768396444234  0.1658967138323472  0.1211197780093968
  0.8981132434879537  0.7191513307034464 -0.0042756755057392
  0.7414265655467788  0.4141641147267045  0.1020642882372256
  0.6998782648662113  0.5106540378573023  0.5775768246839890
  0.3575412487031551  0.9057026278449311  0.2363562353152502
  0.0811321776796488  0.9113721973833048  0.5512821769678611
  0.4645090851419983  0.4987734354363229  0.1439326350045924
  0.7482052760767317  0.6362797967969130  0.4127232737152134
  0.0660296257774640  0.4838939479811438  0.1370216554569660
  0.6227622075337265  0.3094345236235583  0.6121742304515180
  0.5552263465967483  0.0497689919148396  0.4186579498677756
  0.6829412499439508  0.9449635812015648  0.9121648438400837
  0.4296798405994680  0.5927563893187718  0.4001002157961884
  0.5812378642339826  0.7831207095148851  0.7603530772499116
  0.0470862677175912  0.2903441706439403  0.6148227948012266
  0.9671159652822819  0.3254677120326925  0.9913713341213704
  0.0726364575287469  0.3829805547710653  0.3451637982794171
  0.7962670703294540  0.2231173882893319  0.6706453516122431
  0.4266962305684431  0.0584676676090059  0.2326883453491589
  0.0069940961969587  0.6727288317230877  0.3791850511656254
 -0.0136386003650153  0.6920821322638642  0.7809487518821059
  0.2593842840444223  0.6374507006588115  0.7241357943003007
  0.2507772432876068  0.1802870050205460  0.7101186107872652
  0.0120926338111749  0.4988258262229900  0.6385720035420231
  0.4299511410664336  0.3040421073307165  0.4640932914788994
  0.0877725125048543  0.2102324321919744  0.0239616497361940
  0.8583819208445812  0.7835521728249021  0.7115985630748345
  0.1128336398758673  0.3661344995947435  0.8910980978018597
  0.8480384059720922  0.0153449577546968  0.0659247931962855
  0.0842511547378751  0.6461132218987963  0.9340585142505458
  0.4962517790947895  0.2105658379529163  0.6528627399300492
  0.0370437910093114  0.7535213329032774  0.5154462931006170
  0.6723332959939237  0.4723832689242879  0.7695480796292451
  0.9913149648966583  0.9421872321939263  0.9514425192030079
  0.1795059396523379  0.8637061723530700  0.7242292699707211
  0.5149728942225507  0.6641951258345848  0.8768568162522509
  0.1596967759548066  0.7796577791788455  0.1399055105201928
  0.3955491861102348  0.3550313472069638  0.7375294270668548
  0.6322438008256871  0.9082368102978943  0.3953257682624283
  0.2828191706552514  0.1195737665783398  0.5213371324416960
  0.4228291720944083  0.8195168541058639  0.8050476870224630
  0.8227322284007582  0.2557473355372043  0.9735164850559734
  0.4633744945119392  0.1723172678530932  0.3529559957978712
  0.3097509661965916  0.8396370420325385  0.9862248693803245
  0.1254012481108904  0.5204506364251460  0.8252037742854468
  0.2309192524520643 -0.0123851612902820  0.9443634889815229
  0.2687747124306905  0.3283605896488934  0.0372587662386407
  0.1597117951895108  0.0393499714798236  0.1088804864612486
  0.6349115306077898  0.9474253305852894  0.7030395029999045
  0.4057609522737574  0.0218107303249119  0.7930998094026599
  0.0881283391020989  0.9529561993246575  0.3897850493762229
  0.3078052660037425  0.7139827035953841  0.4609628425604523
  0.7387513851833536  0.3009362009063580  0.3707168671107420
  0.5495878973161262  0.0805098833813032  0.8751423464300214
  0.1860775627337411  0.5207135258968998  0.0031629353951710
  0.8613778497279498  0.5519593667448308  0.1763230760629240
  0.6262260086407719  0.6716276940621935  0.5629591231894352
  0.6221166772694269  0.1907790308980567  0.2951311899734826
  0.8608315993116681  0.2002276831577022  0.4137030193324954
  0.9206697727968424  0.1161388463150320  0.2224023466540902
  0.9518331969663471  0.4277038836033066  0.5010631468729458
  0.6218738718694468  0.7907671441311614  0.9278611710253654
  0.4061829862885000  0.1943900660354581  0.7829432566659364
  0.3046738741044656  0.9520490899418547  0.6532631023205548
  0.5937799945766099  0.8343515895757404  0.5868883487265231
  0.9554324693943687  0.1926426702749184  0.7331863191872829
  0.9909673642422148  0.3630359694521772  0.7767607917877474
  0.0018063593642807  0.8755227309857404  0.1450369233951318
  0.1467643344811184  0.2583877032338712  0.4250374253090707
  0.8127276059615006  0.0705827708085786  0.5107604025855991
  0.9271850723600324  0.1094210895059299  0.9367710626705010
  0.1174657838251153  0.1221170470697943  0.8309002341840513
  0.1675568186309458  0.8029102529360941  0.4210892442064538
  0.0566585227673932  0.1378243341717088  0.5249838992787442
  0.5541629623922866  0.6209280529224922  0.7026786734087132
  0.7913597456378019  0.8399731793833505  0.1673464267064558
  0.5144010353080825 -0.0029707912034023  0.5728591299704654
  0.3259515887846694  0.2275937271729089  0.2552016402346642
  0.8188124371746260  0.1333585792830976  0.8130419043662076
  0.1864875670956899  0.6965280070582639  0.5829155176935181
  0.4224374724109742  0.5151131100528378  0.7124661217613187
  0.3517461082090935  0.0184313663055003  0.0789373014491218
  0.4476938064552040  0.1413405410215784  0.5143779171364311
 -0.0088366142379790  0.1105174248528094  0.3740996606142641
  0.3465111477772987  0.4554911513464112  0.2536859644285214
  0.1626145124145380  0.3421416374262809  0.2071624796177523
  0.4518190636999924  0.7571787096447861  0.3543310021811050
  0.6458659678209914  0.1899167629250762  0.7335509185004138
  0.2078056685924335  0.5077979947738320  0.6156893290066549
  0.1468988632175891  0.6613843384327817  0.2626454236885978
  0.3785309553143072  0.1908275397356956  0.0914388103270377
  0.6127969301769063  0.5600531991021532  0.4512514584701413
  0.5238093450027032  0.4268269931992808  0.4636447451882452
  0.0684377995311693  0.1552766215299723  0.1662116529998621
  0.4917606947585659  0.2072219948375158  0.1958200781880609
  0.9312316978011742  0.1738033581203420  0.0717493216975333
  0.5035826600079931  0.8717940371394025  0.4673217415799535
  0.0100358969420416  0.5838309525864317  0.2450940345175779
  0.8545258888294929  0.2866656471642138  0.8205622511482528
  0.7563763156310092  0.3948937880730979  0.9447722188661273
  0.0083626871890136  0.2263721733635356  0.8797528477740386
  0.0366578089479184  0.4852440667621154  0.9640408204446290
  0.4254803232446380  0.8793897148410887  0.0969793002402594
  0.0931251274379659  0.5801766443638553  0.5328099145554299
  0.5524480777946501  0.3494843313675641  0.7577643126853085
  0.8409461261721627  0.9780290616781988  0.2115346187864236
  0.9816917290808397  0.9665267562276264  0.2743238292003584
  0.2522095992613717  0.3517497019210529  0.6608405004340585
  0.7369137496870517  0.7456073841111284  0.2942962421669970
  0.8905251767931982  0.8675079124522092  0.0469100689995808
  0.0815756658566816  0.1327517508710525  0.6737549234089194
  0.7469744489031783  0.3759683210298115  0.6583601044576135
  0.3700925259719008  0.0902551191280003  0.6569456191489480
  0.8130142550239287  0.7117563943600854  0.8395535771470635
  0.0608106166819226  0.7864577572008398  0.6676536982379647
  0.1094157202581242  0.6108382304314410  0.7058079171787958
  0.7316746657124484  0.2261538381681705  0.5325139352817618
  0.8889418710763707  0.3786356862779673  0.3675304723943600
  0.3398201658153409  0.8549140782213636  0.3966966533761274
  0.6178149667533734  0.1602877090097711  0.1376562674626300
  0.4243173431207927  0.6186520019386188  0.2337514478291575
  0.5808269247137655  0.6101414825245626  0.1585185119601684
  0.2097449768002956  0.0292200424409220  0.7478211825797622
  0.1427079889584386  0.7357040377418781  0.7996398922901083
  0.2358808304302722  0.6181033552417566  0.8848134183083172
  0.6830661276938517  0.2023080629428523  0.9005286984143148
  0.3920970174263622  0.4287077301234044  0.0266206840793252
  0.3177613994711679  0.0920973446761202  0.3683982150940848
  0.5351954905373356  0.9389926735829113 -0.0119822385408768
  0.6957667424109373  0.7250756981926625  0.1170554802428973
  0.1803602503941628  0.0294089443078892  0.5878433063729283
  0.3661531274888607  0.6432501517378234  0.6063591732664071
  0.6997817106852247  0.3015132034957986  0.2115903890897971
  0.3462026058874254  0.2496239379126328  0.6021493990302421
  0.7570564699533692  0.6546245894769119  0.9706761492796043
  0.8783215995710449  0.7699223594831114  0.5594629381068877
  0.9107787488904650  0.1917784851272552  0.5679172348921505
  0.7852684853827380  0.6457775790080202  0.5641863059049941
  0.8764382364281126  0.6912728984048618  0.2847820711582863
  0.3753796227892970  0.6865263657310005  0.9531505614849711
  0.0401534455512052  0.7549055110593377  0.0436993584998390
  0.3706305500652632  0.9834214947574664  0.5188823104656493
  0.4874611483197787  0.7045193684131826  0.4992948383633532
  0.6582299897627623  0.3862284534790251  0.4877474605324774
  0.1345921567368390  0.9294675065951804  0.2155939124723945
  0.2599749096502940  0.4242863912481521  0.9137164785125239
  0.9942637382600433  0.7090426859633630  0.1760958528692742
  0.5352625156602525  0.0721471348992924  0.7140410233646856
  0.1062548941172371  0.3997093134824098  0.5279956754863108
  0.3300298753767091  0.5717417022176886  0.0404023649687045
 -0.0014438303192309  0.0231822503343630  0.1044782128096239
  0.9385643536085005  0.6083856973180090  0.8986645699355338
  0.3945956685778100  0.9687609051671103  0.9403398221314809
  0.3052341807619353  0.7129434836753652  0.3003841105231843
  0.4137727149724995  0.1195231274368469  0.9488828833773507
  0.7596119059315340  0.1019391987527331  0.9731455470238498
  0.1173256286007401  0.9016278570569949  0.0322669565063644
  0.5993922610624114  0.6499440301044376  0.0071673447206145
  0.5090729763493262  0.8936706146712595  0.2904668759040485
  0.2920374830201406  0.5678704926507991  0.5035324435998978
  0.2881982140600789  0.5661186858106394  0.3375445555006103
  0.8634871279735145  0.8386365122381209  0.8804432070562229
  0.4285965745692777  0.3969904096776489  0.8790817300266008
  0.2546623751160323  0.9066356735296501  0.1163286356298561
  0.5767810619300260  0.0448607330553169  0.2637630063593107
  0.5391651199375918  0.1907872049467171  0.0026175243833454
  0.8315704314269338  0.4385552721215715  0.7692944351596084
  0.8050982136101467  0.4211672348072061  0.2448413241244326
  0.8392316493441597  0.9196192071407339  0.5113461050277022
  0.5942210238547613  0.4540118287365380  0.0558501806150995
  0.2546478042291334  0.1302912961120958  0.0110652655094036
  0.0304165609645857  0.2400605848693874  0.3048617456534624
  0.4568057186957177  0.9097258457493042  0.6823254715316874
  0.1221867341442942  0.2643036479653679  0.7563704940848667
  0.2625257443519279  0.3099518044738034  0.8062071777288201
  0.7008746103430394  0.0308466956230244  0.1560498435718502
  0.2962034532579493  0.9115590602329635  0.8205928023784339
  0.4362622687471271  0.3259165116266429  0.3099662282417458
  0.7566308468686488  0.8044904433756758  0.9906150983101024
  0.4226994773491467  0.9855136906950880  0.3759528984481743
  0.1823265701408564  0.2272392265244693  0.5729895551456977
  0.5724452723252934  0.2373014184313796  0.4670401589828623
  0.3142397070478190  0.7439559441092960  0.1244707792109214
  0.5840230081351733  0.3355611974236829  0.3345153145340909
  0.6770858308139034  0.9719940693133738  0.5277598544820169
  0.2203320883276766  0.8468906829107664  0.5646322031552332
  0.4784445587880145  0.3142910187849877  0.0291155690928522
  0.8035421731543549  0.5570237870428181  0.8398083727796402
  0.6353685578777015  0.4716982432489932  0.2075132874559568
  0.6873672999347539  0.0524542309358583  0.8064420234967938
  0.9099284053313997  0.3534337533495498  0.6444243433550834
  0.1027246077207321  0.0654735081652194  0.2729789872345069
  0.3117370550303863  0.7838725498755549  0.6891604036741812
  0.8335442821709560  0.9770370011595054  0.9121050404961092
  0.3738963438648429  0.3366726180062531  0.1578638848079837
  0.6674419826385356  0.6685792576584652  0.8390805168899066
  0.1143968679289445  0.9408079942931179  0.8485984155245367
  0.9646075459450891  0.8637756513250346  0.4267881333178828
  0.1612468046798462  0.0984938534521878  0.4212071126942843
  0.9683072244312217  0.5938892471599798  0.0649800296274796
  0.4896857105873182  0.5379365788866763  0.9851285159062555
  0.5743546463731580  0.7993191555429389  0.0812700224538067
  0.4721611230556073  0.3592224967882148  0.5992954282792368
  0.5447735246504071  0.9296091626018852  0.8299925342077052
  0.2354996651788692  0.9542755384537440  0.4555461594774253
  0.9894747378084721  0.2844128939878593  0.4572129500278337
  0.9757994748332257  0.5199190700385420  0.7829494171584981
  0.7546132055922993  0.0700130880848606  0.6539849482898409
  0.7760990482023437  0.1551057145035907  0.2769554963517348
  0.7091056419037419  0.7485069264761899  0.6734403488948589
  0.2275251447190278  0.8246625759537394  0.2766482988148331
  0.1612742919006197  0.6438602437306326  0.4105480330059958
  0.0120383954041020  0.7909025345788209  0.9020034528556179
  0.7252575442477004  0.5936082005370967  0.2604811683181115
  0.4379922926159631  0.7709326187520338  0.2038621438540980
  0.7235807212134310  0.8510338424409104  0.7992438803638050
  0.9673544821635396  0.4239013221989274  0.2441928518388026
  0.8655214734147813  0.7396154860453431  0.4210644284729324
  0.1239446365454204  0.4106467691920552  0.7067911326634931
  0.8151950963834891  0.3428637222511184  0.5140310563618620
  0.1591937478908394  0.8185946230188050  0.9175435104090653
  0.2717520613661935  0.0805200597552282  0.2037268665771296
  0.9382710261376129  0.8935518697196078  0.6204591375125217
  0.4942889841112742  0.0678094641787942  0.0889024458695536
  0.4748067791584605  0.7460634734318408  0.6497921360864448
  0.6269162200267442  0.0595893719936032  0.0112275351804351
  0.9060884872423158  0.8356723727209646  0.2732089554299774
  0.1763015605826794  0.2003005899768188  0.2851489464074353
  0.8443133522867479  0.3030072901835814  0.1260761565858181
  0.1321436289137709  0.6203118186082742  0.1070926597897349
  0.8536780407486019  0.5019561851022272  0.6293234262728159
  0.2554759914201708  0.3608326369835022  0.3265577554287858
  0.1556193064678741  0.5006536330997209  0.2643691884941820
  0.2148081266862678  0.2186836388065122  0.1299299340197497
  0.2489394104516914  0.4532418182365699  0.1313095587337311
  0.9757866164306931  0.0144319958208473  0.5036609128041835
  0.8683555878859721  0.0130117083119806  0.3747552026109083
  0.0278929267571426  0.5166291134779616  0.3976229315121406
  0.2159935097295620  0.7144517842426387  0.0100797079251806
  0.1965204332117587  0.2383424005286445  0.9220989451613589
  0.8599902434618094  0.6233102848974472  0.7097121475883689
  0.5355201989956976  0.5160409564329786  0.8278026070178024
  0.9113961854039290  0.4258195821951949  0.8966509425158163
  0.5724507062878034  0.4670314110054984  0.6503912013166965
  0.9790677809116550  0.0428011210985094  0.8080453022808197
  0.0668544570144101  0.9808853829527168  0.6872140100977214
  0.2837348375313871  0.1084217758152686  0.8519835166873153
  0.7683753124282038  0.8956177758384322  0.6352487908177108
  0.2996378564771754  0.2325215862608085  0.4160879063826471
  0.6690348038877557  0.8863206962158588  0.2412247303978882
  0.4655169750616049  0.8078929019769258  0.9526353138818503
  0.4025757165994716  0.6596878301683534  0.7750054448892126
  0.2759695297799530  0.4838265116793871  0.7611222976153577
  0.5354460977337389  0.2379103959951639  0.8565022271384009
  0.7230103805710679  0.7954700477960498  0.5016567018544318
  0.2407989815526544  0.9845226450565623  0.3121351225713143
  0.7108069059602712  0.6027153707281446  0.7075267969288255
  0.0883778928156176  0.0682989783402226  0.9687808192805545
  0.8401471590176045  0.6987211532867025  0.1358183300425125
  0.7116725827827167  0.9203182496993547  0.0629857696331933
  0.6908758727559281  0.1227113521399353  0.4208336232478947
  0.3638564015920975  0.4559841324978625  0.5825050344157403
  0.8871013057496931  0.2635092440263463  0.2682286781425794
  0.5717561559804424  0.6162352768365439  0.3159745646506794
  0.7248399833265179  0.5682959831809894  0.0962240117178233
 -0.0259147199161554  0.6532604047772748  0.6266650511684655
  0.9141604143198360  0.4320179824487165  0.0884672904563090
  0.7956084595788936  0.4872694496056812  0.4583431287615796
  0.1191612394180820  0.3630466725707636  0.0507812318162466
  0.3697390640672615  0.4440988191381235  0.4194255923080761
  0.2886183323226179  0.7572470426278901  0.8479087318809193
 
  0.00000000E+00  0.00000000E+00  0.00000000E+00
  0.00000000E+00  0.00000000E+00  0.00000000E+00
  0.00000000E+00  0.00000000E+00  0.00000000E+00
  0.00000000E+00  0.00000000E+00  0.00000000E+00
  0.00000000E+00  0.00000000E+00  0.00000000E+00
  0.00000000E+00  0.00000000E+00  0.00000000E+00
  0.00000000E+00  0.00000000E+00  0.00000000E+00
  0.00000000E+00  0.00000000E+00  0.00000000E+00
  0.00000000E+00  0.00000000E+00  0.00000000E+00
  0.00000000E+00  0.00000000E+00  0.00000000E+00
  0.00000000E+00  0.00000000E+00  0.00000000E+00
  0.00000000E+00  0.00000000E+00  0.00000000E+00
  0.00000000E+00  0.00000000E+00  0.00000000E+00
  0.00000000E+00  0.00000000E+00  0.00000000E+00
  0.00000000E+00  0.00000000E+00  0.00000000E+00
  0.00000000E+00  0.00000000E+00  0.00000000E+00
  0.00000000E+00  0.00000000E+00  0.00000000E+00
  0.00000000E+00  0.00000000E+00  0.00000000E+00
  0.00000000E+00  0.00000000E+00  0.00000000E+00
  0.00000000E+00  0.00000000E+00  0.00000000E+00
  0.00000000E+00  0.00000000E+00  0.00000000E+00
  0.00000000E+00  0.00000000E+00  0.00000000E+00
  0.00000000E+00  0.00000000E+00  0.00000000E+00
  0.00000000E+00  0.00000000E+00  0.00000000E+00
  0.00000000E+00  0.00000000E+00  0.00000000E+00
  0.00000000E+00  0.00000000E+00  0.00000000E+00
  0.00000000E+00  0.00000000E+00  0.00000000E+00
  0.00000000E+00  0.00000000E+00  0.00000000E+00
  0.00000000E+00  0.00000000E+00  0.00000000E+00
  0.00000000E+00  0.00000000E+00  0.00000000E+00
  0.00000000E+00  0.00000000E+00  0.00000000E+00
  0.00000000E+00  0.00000000E+00  0.00000000E+00
  0.00000000E+00  0.00000000E+00  0.00000000E+00
  0.00000000E+00  0.00000000E+00  0.00000000E+00
  0.00000000E+00  0.00000000E+00  0.00000000E+00
  0.00000000E+00  0.00000000E+00  0.00000000E+00
  0.00000000E+00  0.00000000E+00  0.00000000E+00
  0.00000000E+00  0.00000000E+00  0.00000000E+00
  0.00000000E+00  0.00000000E+00  0.00000000E+00
  0.00000000E+00  0.00000000E+00  0.00000000E+00
  0.00000000E+00  0.00000000E+00  0.00000000E+00
  0.00000000E+00  0.00000000E+00  0.00000000E+00
  0.00000000E+00  0.00000000E+00  0.00000000E+00
  0.00000000E+00  0.00000000E+00  0.00000000E+00
  0.00000000E+00  0.00000000E+00  0.00000000E+00
  0.00000000E+00  0.00000000E+00  0.00000000E+00
  0.00000000E+00  0.00000000E+00  0.00000000E+00
  0.00000000E+00  0.00000000E+00  0.00000000E+00
  0.00000000E+00  0.00000000E+00  0.00000000E+00
  0.00000000E+00  0.00000000E+00  0.00000000E+00
  0.00000000E+00  0.00000000E+00  0.00000000E+00
  0.00000000E+00  0.00000000E+00  0.00000000E+00
  0.00000000E+00  0.00000000E+00  0.00000000E+00
  0.00000000E+00  0.00000000E+00  0.00000000E+00
  0.00000000E+00  0.00000000E+00  0.00000000E+00
  0.00000000E+00  0.00000000E+00  0.00000000E+00
  0.00000000E+00  0.00000000E+00  0.00000000E+00
  0.00000000E+00  0.00000000E+00  0.00000000E+00
  0.00000000E+00  0.00000000E+00  0.00000000E+00
  0.00000000E+00  0.00000000E+00  0.00000000E+00
  0.00000000E+00  0.00000000E+00  0.00000000E+00
  0.00000000E+00  0.00000000E+00  0.00000000E+00
  0.00000000E+00  0.00000000E+00  0.00000000E+00
  0.00000000E+00  0.00000000E+00  0.00000000E+00
  0.00000000E+00  0.00000000E+00  0.00000000E+00
  0.00000000E+00  0.00000000E+00  0.00000000E+00
  0.00000000E+00  0.00000000E+00  0.00000000E+00
  0.00000000E+00  0.00000000E+00  0.00000000E+00
  0.00000000E+00  0.00000000E+00  0.00000000E+00
  0.00000000E+00  0.00000000E+00  0.00000000E+00
  0.00000000E+00  0.00000000E+00  0.00000000E+00
  0.00000000E+00  0.00000000E+00  0.00000000E+00
  0.00000000E+00  0.00000000E+00  0.00000000E+00
  0.00000000E+00  0.00000000E+00  0.00000000E+00
  0.00000000E+00  0.00000000E+00  0.00000000E+00
  0.00000000E+00  0.00000000E+00  0.00000000E+00
  0.00000000E+00  0.00000000E+00  0.00000000E+00
  0.00000000E+00  0.00000000E+00  0.00000000E+00
  0.00000000E+00  0.00000000E+00  0.00000000E+00
  0.00000000E+00  0.00000000E+00  0.00000000E+00
  0.00000000E+00  0.00000000E+00  0.00000000E+00
  0.00000000E+00  0.00000000E+00  0.00000000E+00
  0.00000000E+00  0.00000000E+00  0.00000000E+00
  0.00000000E+00  0.00000000E+00  0.00000000E+00
  0.00000000E+00  0.00000000E+00  0.00000000E+00
  0.00000000E+00  0.00000000E+00  0.00000000E+00
  0.00000000E+00  0.00000000E+00  0.00000000E+00
  0.00000000E+00  0.00000000E+00  0.00000000E+00
  0.00000000E+00  0.00000000E+00  0.00000000E+00
  0.00000000E+00  0.00000000E+00  0.00000000E+00
  0.00000000E+00  0.00000000E+00  0.00000000E+00
  0.00000000E+00  0.00000000E+00  0.00000000E+00
  0.00000000E+00  0.00000000E+00  0.00000000E+00
  0.00000000E+00  0.00000000E+00  0.00000000E+00
  0.00000000E+00  0.00000000E+00  0.00000000E+00
  0.00000000E+00  0.00000000E+00  0.00000000E+00
  0.00000000E+00  0.00000000E+00  0.00000000E+00
  0.00000000E+00  0.00000000E+00  0.00000000E+00
  0.00000000E+00  0.00000000E+00  0.00000000E+00
  0.00000000E+00  0.00000000E+00  0.00000000E+00
  0.00000000E+00  0.00000000E+00  0.00000000E+00
  0.00000000E+00  0.00000000E+00  0.00000000E+00
  0.00000000E+00  0.00000000E+00  0.00000000E+00
  0.00000000E+00  0.00000000E+00  0.00000000E+00
  0.00000000E+00  0.00000000E+00  0.00000000E+00
  0.00000000E+00  0.00000000E+00  0.00000000E+00
  0.00000000E+00  0.00000000E+00  0.00000000E+00
  0.00000000E+00  0.00000000E+00  0.00000000E+00
  0.00000000E+00  0.00000000E+00  0.00000000E+00
  0.00000000E+00  0.00000000E+00  0.00000000E+00
  0.00000000E+00  0.00000000E+00  0.00000000E+00
  0.00000000E+00  0.00000000E+00  0.00000000E+00
  0.00000000E+00  0.00000000E+00  0.00000000E+00
  0.00000000E+00  0.00000000E+00  0.00000000E+00
  0.00000000E+00  0.00000000E+00  0.00000000E+00
  0.00000000E+00  0.00000000E+00  0.00000000E+00
  0.00000000E+00  0.00000000E+00  0.00000000E+00
  0.00000000E+00  0.00000000E+00  0.00000000E+00
  0.00000000E+00  0.00000000E+00  0.00000000E+00
  0.00000000E+00  0.00000000E+00  0.00000000E+00
  0.00000000E+00  0.00000000E+00  0.00000000E+00
  0.00000000E+00  0.00000000E+00  0.00000000E+00
  0.00000000E+00  0.00000000E+00  0.00000000E+00
  0.00000000E+00  0.00000000E+00  0.00000000E+00
  0.00000000E+00  0.00000000E+00  0.00000000E+00
  0.00000000E+00  0.00000000E+00  0.00000000E+00
  0.00000000E+00  0.00000000E+00  0.00000000E+00
  0.00000000E+00  0.00000000E+00  0.00000000E+00
  0.00000000E+00  0.00000000E+00  0.00000000E+00
  0.00000000E+00  0.00000000E+00  0.00000000E+00
  0.00000000E+00  0.00000000E+00  0.00000000E+00
  0.00000000E+00  0.00000000E+00  0.00000000E+00
  0.00000000E+00  0.00000000E+00  0.00000000E+00
  0.00000000E+00  0.00000000E+00  0.00000000E+00
  0.00000000E+00  0.00000000E+00  0.00000000E+00
  0.00000000E+00  0.00000000E+00  0.00000000E+00
  0.00000000E+00  0.00000000E+00  0.00000000E+00
  0.00000000E+00  0.00000000E+00  0.00000000E+00
  0.00000000E+00  0.00000000E+00  0.00000000E+00
  0.00000000E+00  0.00000000E+00  0.00000000E+00
  0.00000000E+00  0.00000000E+00  0.00000000E+00
  0.00000000E+00  0.00000000E+00  0.00000000E+00
  0.00000000E+00  0.00000000E+00  0.00000000E+00
  0.00000000E+00  0.00000000E+00  0.00000000E+00
  0.00000000E+00  0.00000000E+00  0.00000000E+00
  0.00000000E+00  0.00000000E+00  0.00000000E+00
  0.00000000E+00  0.00000000E+00  0.00000000E+00
  0.00000000E+00  0.00000000E+00  0.00000000E+00
  0.00000000E+00  0.00000000E+00  0.00000000E+00
  0.00000000E+00  0.00000000E+00  0.00000000E+00
  0.00000000E+00  0.00000000E+00  0.00000000E+00
  0.00000000E+00  0.00000000E+00  0.00000000E+00
  0.00000000E+00  0.00000000E+00  0.00000000E+00
  0.00000000E+00  0.00000000E+00  0.00000000E+00
  0.00000000E+00  0.00000000E+00  0.00000000E+00
  0.00000000E+00  0.00000000E+00  0.00000000E+00
  0.00000000E+00  0.00000000E+00  0.00000000E+00
  0.00000000E+00  0.00000000E+00  0.00000000E+00
  0.00000000E+00  0.00000000E+00  0.00000000E+00
  0.00000000E+00  0.00000000E+00  0.00000000E+00
  0.00000000E+00  0.00000000E+00  0.00000000E+00
  0.00000000E+00  0.00000000E+00  0.00000000E+00
  0.00000000E+00  0.00000000E+00  0.00000000E+00
  0.00000000E+00  0.00000000E+00  0.00000000E+00
  0.00000000E+00  0.00000000E+00  0.00000000E+00
  0.00000000E+00  0.00000000E+00  0.00000000E+00
  0.00000000E+00  0.00000000E+00  0.00000000E+00
  0.00000000E+00  0.00000000E+00  0.00000000E+00
  0.00000000E+00  0.00000000E+00  0.00000000E+00
  0.00000000E+00  0.00000000E+00  0.00000000E+00
  0.00000000E+00  0.00000000E+00  0.00000000E+00
  0.00000000E+00  0.00000000E+00  0.00000000E+00
  0.00000000E+00  0.00000000E+00  0.00000000E+00
  0.00000000E+00  0.00000000E+00  0.00000000E+00
  0.00000000E+00  0.00000000E+00  0.00000000E+00
  0.00000000E+00  0.00000000E+00  0.00000000E+00
  0.00000000E+00  0.00000000E+00  0.00000000E+00
  0.00000000E+00  0.00000000E+00  0.00000000E+00
  0.00000000E+00  0.00000000E+00  0.00000000E+00
  0.00000000E+00  0.00000000E+00  0.00000000E+00
  0.00000000E+00  0.00000000E+00  0.00000000E+00
  0.00000000E+00  0.00000000E+00  0.00000000E+00
  0.00000000E+00  0.00000000E+00  0.00000000E+00
  0.00000000E+00  0.00000000E+00  0.00000000E+00
  0.00000000E+00  0.00000000E+00  0.00000000E+00
  0.00000000E+00  0.00000000E+00  0.00000000E+00
  0.00000000E+00  0.00000000E+00  0.00000000E+00
  0.00000000E+00  0.00000000E+00  0.00000000E+00
  0.00000000E+00  0.00000000E+00  0.00000000E+00
  0.00000000E+00  0.00000000E+00  0.00000000E+00
  0.00000000E+00  0.00000000E+00  0.00000000E+00
  0.00000000E+00  0.00000000E+00  0.00000000E+00
  0.00000000E+00  0.00000000E+00  0.00000000E+00
  0.00000000E+00  0.00000000E+00  0.00000000E+00
  0.00000000E+00  0.00000000E+00  0.00000000E+00
  0.00000000E+00  0.00000000E+00  0.00000000E+00
  0.00000000E+00  0.00000000E+00  0.00000000E+00
  0.00000000E+00  0.00000000E+00  0.00000000E+00
  0.00000000E+00  0.00000000E+00  0.00000000E+00
  0.00000000E+00  0.00000000E+00  0.00000000E+00
  0.00000000E+00  0.00000000E+00  0.00000000E+00
  0.00000000E+00  0.00000000E+00  0.00000000E+00
  0.00000000E+00  0.00000000E+00  0.00000000E+00
  0.00000000E+00  0.00000000E+00  0.00000000E+00
  0.00000000E+00  0.00000000E+00  0.00000000E+00
  0.00000000E+00  0.00000000E+00  0.00000000E+00
  0.00000000E+00  0.00000000E+00  0.00000000E+00
  0.00000000E+00  0.00000000E+00  0.00000000E+00
  0.00000000E+00  0.00000000E+00  0.00000000E+00
  0.00000000E+00  0.00000000E+00  0.00000000E+00
  0.00000000E+00  0.00000000E+00  0.00000000E+00
  0.00000000E+00  0.00000000E+00  0.00000000E+00
  0.00000000E+00  0.00000000E+00  0.00000000E+00
  0.00000000E+00  0.00000000E+00  0.00000000E+00
  0.00000000E+00  0.00000000E+00  0.00000000E+00
  0.00000000E+00  0.00000000E+00  0.00000000E+00
  0.00000000E+00  0.00000000E+00  0.00000000E+00
  0.00000000E+00  0.00000000E+00  0.00000000E+00
  0.00000000E+00  0.00000000E+00  0.00000000E+00
  0.00000000E+00  0.00000000E+00  0.00000000E+00
  0.00000000E+00  0.00000000E+00  0.00000000E+00
  0.00000000E+00  0.00000000E+00  0.00000000E+00
  0.00000000E+00  0.00000000E+00  0.00000000E+00
  0.00000000E+00  0.00000000E+00  0.00000000E+00
  0.00000000E+00  0.00000000E+00  0.00000000E+00
  0.00000000E+00  0.00000000E+00  0.00000000E+00
  0.00000000E+00  0.00000000E+00  0.00000000E+00
  0.00000000E+00  0.00000000E+00  0.00000000E+00
  0.00000000E+00  0.00000000E+00  0.00000000E+00
  0.00000000E+00  0.00000000E+00  0.00000000E+00
  0.00000000E+00  0.00000000E+00  0.00000000E+00
  0.00000000E+00  0.00000000E+00  0.00000000E+00