Amorphous Sb                            
   1.00000000000000     
    21.2291714401205631    0.0000000000000000    0.0000000000000000
     0.0000000000000000   21.2291714401205631    0.0000000000000000
     0.0000000000000000    0.0000000000000000   21.2291714401205631
   Si   Te
   150   150
Direct
  0.7336860667952381  0.7156537270034842  0.9230815427214329
  0.9404044754715194  0.3178977961286546  0.4802699155474386
  0.9042727391013873  0.7342342547009196  0.4440130600751825
  0.6981475929493787  0.8530319083333535  0.0327916054233733
  0.3966434140028620  0.0109932321702864  0.2740447801815588
  0.6471138975460234  0.5941882176247502  0.6596483867819802
  0.5139789278662565  0.7880339797635221  0.7798030517144843
  0.1801917485725737  0.1825499045836102  0.6791121696401295
  0.8408992075066798  0.3224447494077749  0.5282914343305540
  0.7898650987468310  0.0468033441160744  0.5684029095670546
  0.3929347672209508  0.3899674871941852  0.9322723245704873
  0.5792085007506350  0.1621654632823616  0.7393430828725776
  0.1416938488902029  0.1405460808007706  0.5248054144619220
  0.3914035673919081  0.1850466443432734  0.1549179374453374
  0.8380713001580609  0.2186857898652446  0.0888094515982983
  0.7850950830024905  0.1223321117386822  0.0595724913900876
  0.1969724310539177  0.6230529658067846  0.1101094631305771
  0.4971293082176066  0.6073444860967968  0.5035938080940066
  0.2790669037775042  0.7492019939596926  0.0820529916049961
  0.8942216039096342  0.3690409513225814  0.0892382460661631
  0.6795291970911406  0.1387264574619736  0.3877929462461470
  0.7885282626341196  0.7862730468039509  0.6486699378617446
  0.0396814679126131  0.6931755978426832  0.8109222518660725
  0.7024704897526752  0.9627488291724480  0.0452339461997876
  0.3383540948784119  0.3217330636039213  0.7395075465135919
  0.5395295475195154  0.7183870710730392  0.9657569567592996
  0.4873924400103640  0.8910768537516602  0.3419121941780370
  0.3195774955606627  0.2853682550651844  0.2896258955314711
  0.5537362033875778  0.3870622374488394  0.0622559378264839
  0.9450493359161077  0.8839539934754155  0.1373493226249412
  0.1333839749299033  0.9503162193358557  0.8222311561174539
  0.2183039719774917  0.2019480692026249  0.5758299549117254
  0.9630501770473440  0.2081425025498645  0.4674140810187462
  0.8171543846372983  0.5161357758191292  0.1868019571935735
  0.0288004799995333  0.1875785313476043  0.3773779622324381
  0.2914283272106509  0.3442225258599906  0.1255787952619531
  0.1806391336270394  0.6251315964655570  0.2858371715341190
  0.5383319206925201  0.1000241211715830  0.1680946717505342
  0.4090725783159708  0.9000802659229830  0.2622533579600784
  0.8905618950763540  0.9700136530246343  0.0753544778010194
  0.0606445211944836  0.8792298626223870  0.6029997504081354
  0.2329992856964792  0.3465042082126483  0.3314944287772187
  0.6550908234395594  0.5675850089305634  0.4608289475492793
  0.6432592743308865  0.9403407725713082  0.5860581520392325
  0.4456690581061625  0.8657986521544561  0.1641614212835810
  0.6580182485598700  0.1745968664839591  0.2116164054137701
  0.7477727673712369  0.1135689962136996  0.8714982768383420
  0.4766283946152166  0.7208490302179801  0.0600994189170448
  0.0621493666305430  0.6332022175274477  0.7213142188456497
  0.6456153107184236  0.0803743821082936  0.4771581637422446
  0.1434837708663159  0.7125292234365420  0.1566258334710988
  0.6667763977067760  0.0649086299042296  0.8129552779783805
  0.5105844622591194  0.6516993398065373  0.7344156360866260
  0.0329592612062733  0.1516377585499988  0.5466531214310187
  0.1844395630523548  0.0827296324423200  0.9763957654505477
  0.6155619302506007  0.1142629413276680  0.2977936315725965
  0.5223514737310930  0.2415319566910799  0.0713996203879255
  0.2459561678905110  0.0014591788555845  0.5201122358347634
  0.5929405342129371  0.4827338596486757  0.0141920812416331
  0.6594049654577067  0.0875843223513871  0.7041113394613505
  0.4563385029000797  0.3335501539072390  0.0842687768360163
  0.2540584912132743  0.5376152019635478  0.4270515419262372
  0.6985234369251390  0.1066906524397531  0.1309808627327302
  0.1789625269771527  0.5180128502952344  0.2541002926313007
  0.3216442508411529  0.1612583658334578  0.5641680356139391
  0.9095558638629602  0.5525075055179789  0.0369742024542146
  0.0884246713693073  0.7880873242554339  0.7677070420350358
  0.9276572939174270  0.2715854015864750  0.0463435389977431
  0.3914466389191401  0.6165843219915728  0.5392474696899932
  0.0963057798472476  0.9742615999040242  0.5491955945024682
  0.3587065815797529  0.5398174682594805  0.4658278059182518
  0.0115023874608934  0.3575359716975849  0.5544726229234747
  0.7581058689059598  0.1146953537455006  0.6523393590824532
  0.0135814429354671  0.4701288333924171  0.5290233969133037
  0.3043245799901793  0.2480311055038691  0.1867849485042091
  0.8153997156438673  0.7179348099419665  0.9998503639767826
  0.7979220809011753  0.6225689746482571  0.3596906146003038
  0.7596972889725317  0.2164074913986072  0.6058350662246870
  0.8487680996726195  0.9592278256767522  0.5982290180399512
  0.8538805055924902  0.4741392546191715  0.0895721422697608
  0.5373324427560459  0.9114394624513698  0.1213374119700331
  0.4362787723917540  0.3735664260616020  0.1882337537747761
  0.3963555674082957  0.2251537171006672  0.7152072386655440
  0.4849191126747105  0.0028621186355906  0.3457889271146035
  0.5930754099207640  0.3552908384003625  0.1615057885502350
  0.1704803545834118  0.0469752217903579  0.5848896177571422
  0.7014644319612964  0.5286722768224922  0.2951476454788747
  0.7458900727520592  0.2285114395590807  0.2586254419415849
  0.1973941956929223  0.9958324972876481  0.9051497435296594
  0.3970327651465752  0.6933800969779730  0.6884106426242228
  0.1821461514596132  0.0714910260884933  0.6940461143733874
  0.2362182696835575  0.7683909565965296  0.1861598974575844
  0.7549059007655980  0.6619947762394054  0.8238608093999247
  0.6110564008866787  0.9834971357081581  0.6854160095082831
  0.5732616718218662  0.2435443948537704  0.1734575865832139
  0.3820765330602949  0.5898426304301049  0.6466156003300413
  0.0124226012445626  0.3949144805090252  0.6595255006592750
  0.0553836266780152  0.1553667015601247  0.0076584399166769
  0.8218700550273790  0.6169073947625436  0.0457025000564850
  0.7116479113427419  0.4869587975691014  0.1935276530002206
  0.4981194936733646  0.3433517290001266  0.9249364958017900
  0.1217050198997693  0.7226641719353804  0.6818889681775082
  0.0079397258426148  0.0414149844628661  0.5394707384202061
  0.7626149086467531  0.5218982772065498  0.0386272582396520
  0.0955189424195743  0.3457309770227413  0.0779695140369634
  0.9701355211406393  0.8452384750426940  0.5500740860857370
  0.2725929301339476  0.6804144130599105  0.2490779473158072
  0.4789702122617666  0.2166493786146392  0.2250260329648840
  0.2863346778974819  0.3978823455829462  0.6659174136883940
  0.6843184316057469  0.9639984677889850  0.8556283531171595
  0.2267342769740027  0.2710690293164201  0.4171175136465508
  0.5801275140410621  0.0042878270363413  0.2882262243627063
  0.9799613554628965  0.7146484716973800  0.0691608628741973
  0.7998087485484894  0.0124397512755885  0.0218220776942868
  0.5647397427855669  0.9215925264478665  0.5102400940453060
  0.1142898893624709  0.5289410873110464  0.8722083538207941
  0.5006807585259943  0.2843246394651937  0.8301948737556551
  0.0140993842892793  0.8410962265626525  0.7017768972330214
  0.3620463804289363  0.1701151410102859  0.0450401688654301
  0.6853285084027874  0.9985181024102341  0.1495240041292939
  0.8479213533855844  0.0611642914248646  0.4725723691492433
  0.7507365425678771  0.4010319936529514  0.6538603785255802
  0.3140992176500559  0.7434884797147023  0.6356993118117809
  0.1168088742118176  0.4212444100584982  0.6264348222189622
  0.5556257277473133  0.5736759350949224  0.5936177652910809
  0.2031894224409777  0.4710865860869839  0.5019014634989927
  0.2674683245417093  0.3947355431820411  0.5552932808624804
  0.8423373439913496  0.2410292505349722  0.1996994364875880
  0.2265941404933856  0.8645387520791085  0.2431034511326358
  0.0774478492957471  0.7661641976926211  0.0814053068667204
  0.2166414426201610  0.2994093201725448  0.5254494752195604
  0.9490910659826640  0.0186799940669127  0.4498438019595361
  0.3769835479700815  0.7692236401340775  0.0329051571571900
  0.7079574866045721  0.9981534625784848  0.5145948146194229
  0.8784014082843915  0.8936055297412424  0.5140970244289282
  0.4274324969280169  0.3039941183689656  0.2742989663764676
  0.8530433551162730  0.1689112481613835  0.4472632862337074
  0.5787972848914565  0.9966233918381440  0.1791419724967809
  0.4366669819085170  0.4447846720478649  0.8440516789054856
  0.3556279199167805  0.3395274511784350  0.0305860439764184
  0.8504060593470388  0.9986715271015769  0.2571568545529294
  0.1199473903274371  0.3512534624900190  0.5383274661749343
  0.2387284379026821  0.8159860781118221  0.9997410815890522
  0.9103570533294691  0.9188942815473338  0.4104799614032221
  0.1446848263648357  0.3444394354267376  0.2610992912408998
  0.5050405398650556  0.5523461554555374  0.9972736258189865
  0.4323391449473629  0.7042992944092613  0.7942094008967369
  0.2225104487058961  0.6741861554092042  0.0165010787714111
  0.7787530508029739  0.2351214821959723  0.4987646848445376
  0.1798687894010506  0.3274705764719452  0.1530059674698490
  0.1880929260162216  0.8567915684227838  0.7694275472193223
  0.1718373916570965  0.6220518812387923  0.4056536962539054
  0.9208199740087148  0.1771010225990402  0.2637006713406543
  0.8700554526571995  0.6082492654545046  0.8627167283629912
  0.4615982451128425  0.5435899755072814  0.4048784739421405
  0.1389595934805327  0.1819696168267264  0.9261543457636386
  0.3442296917273892  0.1241128739071393  0.6755297067365321
  0.0553659916359433  0.1968906175284894  0.6600359028204350
  0.7384690034501887  0.6533935599987110  0.6190039657363793
  0.4546289009668907  0.8071897504654537  0.4188190080960912
  0.1250513451673848  0.4106040755851361  0.4328697552110395
  0.0763337451246753  0.6696026539776921  0.2465084997238914
  0.3026561055809882  0.0658826386857753  0.0193306187535579
  0.0834310430513048  0.0386104519181886  0.7557043822872023
  0.8118530199625228  0.9056984482473793  0.6970710195007382
  0.7174565415074480  0.1727297245618988  0.9680897631113949
  0.2033624130393293  0.9294881023677024  0.0059797143259984
  0.3670433317079551  0.4215353066347183  0.4935239020645573
  0.9397503124529631  0.9139791391780955  0.2545504845181423
  0.4575072078546151  0.7497043604145375  0.1788697841166811
  0.5547056469525325  0.4423568548819556  0.8834823705726584
  0.6562014667482015  0.5482310420650839  0.1073091024771626
  0.8241147863876384  0.5080305701792046  0.3112628634598205
  0.6693599266242981  0.4795389653081727  0.7034004447820462
  0.1951536157115447  0.2069169087854098  0.1603551912541705
  0.3533869954675117  0.6542514645096810  0.3285514978868287
  0.6361442426641768  0.8957702216901681  0.7664263245567983
  0.0552045598276501  0.8846530770656924  0.0842232920536970
  0.4608498506495246  0.8723914867323243  0.5375055689619588
  0.1178973930397657  0.5318753825031916  0.5684926877092117
  0.6816113203165342  0.3008491774246652  0.6415718056890601
  0.7127746672859622  0.3678814142599861  0.1795289688071534
  0.3113941981651644  0.6232562582314151  0.1488090680247788
  0.7900812582504162  0.7986404681499708  0.0862137599488994
  0.9403603147949444  0.4882199285432703  0.6272606119807937
  0.4689238560631557  0.1663024525277182  0.9912758379995903
  0.7943390972389058  0.1424150939728494  0.3359869133633022
  0.0694692166475214  0.4159854086720004  0.8867106770740020
  0.0456015565463963  0.6224714312762265  0.9089379390729508
  0.2145844335451101  0.5145462250966560  0.9368123990240069
  0.6151136856458148  0.2556224221355844  0.8088205450401094
  0.9612033512313498  0.3803551956536170  0.3811034678330747
  0.3748765067025301  0.8876776782896211  0.0681944194438503
  0.5070570314146595  0.1571583113800168  0.3281572093490737
  0.5321252192684190  0.4378265738708709  0.2250014872341678
  0.9680429466094251  0.9894765384312402  0.9878849144219477
  0.0477862347466765  0.2622824262341233  0.2788554352349104
  0.5969929152113257  0.2981524830082446  0.9895101921968082
  0.4178046227603510  0.0626048463373495  0.1609077691507242
  0.2348277654323185  0.6852209318006325  0.7056045392450070
  0.8880428185744516  0.0609603457414664  0.1550341840374043
  0.4867065210868849  0.3495927958450162  0.3700071130387997
  0.8549023333876253  0.1085031588991550  0.7246842075230577
  0.3182149461550383  0.8498069150388794  0.3205095558446591
  0.1307465046911091  0.5406483745309881  0.7524161321056831
  0.2966069680578230  0.2461516269967322  0.9836309288555595
  0.1564523309404374  0.9673783526955962  0.4423041758698268
  0.3387493250573878  0.4423731913005991  0.1774300524791398
  0.3413486772300561  0.0678657478012079  0.4896694690232132
  0.1535722473438566  0.3601206280476033  0.9743552639007902
  0.4837723693035724  0.5352152808971236  0.6855146008421862
  0.8305598244278450  0.4061073447552137  0.7393566578650447
  0.4459329148430682  0.8915892262022354  0.7717283079993459
  0.8793396901226048  0.3540314447083397  0.2090850155512900
  0.9289685586204163  0.7658932296546656  0.1648139639356771
  0.9965004782071767  0.3406644263329281  0.7588024911581440
  0.0366636764975771  0.2368069168392394  0.0996023582721821
  0.0117086161960450  0.4267854022924928  0.0957860437601043
  0.4934743649013931  0.9471311052384053  0.0152777265878544
  0.3843991315692243  0.2659574462764626  0.5490558195752260
  0.8734122013563800  0.2595193113117822  0.6261751057853021
  0.7587874048700421  0.9261542729403518  0.2101496631823308
  0.3298853164266335  0.8613622629633663  0.6458464845489279
  0.9310641596050186  0.6422678028264669  0.5111520774006270
  0.6082414481705889  0.8874366505742419  0.3160717385253716
  0.7890147414031494  0.4291169699810272  0.5415644994901704
  0.6169334028342921  0.4838920208919948  0.5398922146829060
  0.2666503198878584  0.9941202743765299  0.7373289731163661
  0.8105475814436618  0.7954049370391987  0.4923057127201434
  0.8789532801001193  0.4863210682870857  0.9423913178163391
  0.9289021963901223  0.7449666925975841  0.9645404527803778
  0.6483994328952618  0.6732083085820649  0.9976735349498724
  0.3211845843777839  0.7116899040228784  0.5192211621450540
  0.7079354290808662  0.8339881581946215  0.9140018147162454
  0.2992932813856881  0.3614725314788531  0.8500690954393120
  0.6208784292792815  0.6281275007640306  0.7748557096096303
  0.0083284772514656  0.5976780157764263  0.0864697249591927
  0.5032123594416998  0.7119132483134173  0.6279805750527925
  0.0082540893171995  0.0688842353246733  0.3550675708117857
  0.2758306059615337  0.6302043452310173  0.9203473511603527
  0.9973502579981587  0.8147142376572186  0.4339330487822257
  0.9436321977629872  0.7645048154287231  0.6357844785404424
  0.7847334329524270  0.3124023787746582  0.0374592867610503
  0.5477223968564681  0.0816884450831657  0.8235147109694865
  0.9468528515287679  0.9060934818667099  0.7790253898055216
  0.7037946830878928  0.3216200809074528  0.3217361157193449
  0.5890499975594227  0.6691521868158272  0.4575118219961672
  0.2997137251295272  0.0386687448930675  0.8589411877777989
  0.6227809311143682  0.9988611295834570  0.9599042321788513
  0.6086286556206653  0.8163093144105559  0.1058280064547571
  0.2595808355966221  0.8853736813643057  0.5341069053929554
  0.7731408802057365  0.6047308673243889  0.4776948821408324
  0.6437539671525497  0.8533451593014749  0.4498337935440724
  0.4867356689603612  0.6081984115878983  0.1025029847138384
  0.2498442632671692  0.9694976164447853  0.1832263982388392
  0.4045395788891434  0.4860806954435717  0.0067586859296390
  0.3277220482836095  0.7870425615887093  0.9226082207487972
  0.6721878246250199  0.2517133331434658  0.4381281787528785
  0.2817707654123197  0.0422965624244321  0.2878217872367392
  0.5197051521686885  0.8172113264660487  0.9019928138431151
  0.9223627381857088  0.7200768289558060  0.7933353238746125
  0.7800203149131084  0.5438201617478263  0.7798017576484703
  0.1687151199721879  0.5085617035415262  0.1338854828342216
  0.8052023992068967  0.0063458363669611  0.8967954659184884
  0.6649788025786619  0.8222574294411340  0.5915769226640100
  0.1278680242543271  0.7789620839934660  0.5760686842011283
  0.4897107359976041  0.9621897943539666  0.6692379008023185
  0.1311637612249024  0.8483616221212631  0.3030478259797417
  0.5984262235208434  0.1128157465545874  0.0605040655399447
  0.9577928796224318  0.2665386647787159  0.9334521891071943
  0.9494764287868406  0.1243097865142012  0.9602959436632280
  0.3847497955658570  0.5433707289269410  0.8157509798666144
  0.2836504717610774  0.5220083461177306  0.6711023474948298
  0.4177125965409942  0.1976206159298227  0.8307000966029313
  0.7756428436400101  0.9807517770001913  0.4131748847597771
  0.9470701363272891  0.6035466432211514  0.7010623375849857
  0.6327969249567083  0.4818951509581867  0.3773077640320811
  0.8782101112308498  0.7056684717563756  0.3298483841146328
  0.2748990384800695  0.4689010179879513  0.3255464969961865
  0.5033504837490643  0.2130036990568077  0.6571922628781294
  0.9532413914209461  0.0031284895533738  0.6395895338036518
  0.3200566320532375  0.2039201030910830  0.3779255122044953
  0.2314603251347800  0.2399289357568833  0.7713381735915167
  0.4900481914754611  0.2618505262015077  0.4675780130920947
  0.1358912772078915  0.7518149796143750  0.9728870002065849
  0.1790580675229136  0.3765313062424730  0.7162820011594405
  0.4611629468537051  0.3691852596829098  0.7486459115712523
  0.0422769826037642  0.8897469622572388  0.8731351874248189
  0.8063255955268162  0.6343965345490814  0.1636833775100852
  0.0852202294559783  0.4490923189567428  0.2793828303264245
  0.1503164160465877  0.1695400444398067  0.4035062487884630
  0.6972088013346619  0.4682457945547956  0.9535037769015939
  0.4766842567481721  0.6323000326672149  0.9087776514857036
  0.8122697924534557  0.1943288816889320  0.8149221202654369
  0.1106451055679044  0.0670052913325657  0.0686978344465756
  0.5310953865022369  0.0322324556352076  0.4608860529944597
  0.6961244946566635  0.6478927190430106  0.3016370940482483
  0.9505089285537809  0.5073204554111672  0.4351027426930712
  0.7659021426802305  0.7705615762710379  0.7721075945480406
  0.6248593761640037  0.1531122446578093  0.5662942647032914
 
  0.00000000E+00  0.00000000E+00  0.00000000E+00
  0.00000000E+00  0.00000000E+00  0.00000000E+00
  0.00000000E+00  0.00000000E+00  0.00000000E+00
  0.00000000E+00  0.00000000E+00  0.00000000E+00
  0.00000000E+00  0.00000000E+00  0.00000000E+00
  0.00000000E+00  0.00000000E+00  0.00000000E+00
  0.00000000E+00  0.00000000E+00  0.00000000E+00
  0.00000000E+00  0.00000000E+00  0.00000000E+00
  0.00000000E+00  0.00000000E+00  0.00000000E+00
  0.00000000E+00  0.00000000E+00  0.00000000E+00
  0.00000000E+00  0.00000000E+00  0.00000000E+00
  0.00000000E+00  0.00000000E+00  0.00000000E+00
  0.00000000E+00  0.00000000E+00  0.00000000E+00
  0.00000000E+00  0.00000000E+00  0.00000000E+00
  0.00000000E+00  0.00000000E+00  0.00000000E+00
  0.00000000E+00  0.00000000E+00  0.00000000E+00
  0.00000000E+00  0.00000000E+00  0.00000000E+00
  0.00000000E+00  0.00000000E+00  0.00000000E+00
  0.00000000E+00  0.00000000E+00  0.00000000E+00
  0.00000000E+00  0.00000000E+00  0.00000000E+00
  0.00000000E+00  0.00000000E+00  0.00000000E+00
  0.00000000E+00  0.00000000E+00  0.00000000E+00
  0.00000000E+00  0.00000000E+00  0.00000000E+00
  0.00000000E+00  0.00000000E+00  0.00000000E+00
  0.00000000E+00  0.00000000E+00  0.00000000E+00
  0.00000000E+00  0.00000000E+00  0.00000000E+00
  0.00000000E+00  0.00000000E+00  0.00000000E+00
  0.00000000E+00  0.00000000E+00  0.00000000E+00
  0.00000000E+00  0.00000000E+00  0.00000000E+00
  0.00000000E+00  0.00000000E+00  0.00000000E+00
  0.00000000E+00  0.00000000E+00  0.00000000E+00
  0.00000000E+00  0.00000000E+00  0.00000000E+00
  0.00000000E+00  0.00000000E+00  0.00000000E+00
  0.00000000E+00  0.00000000E+00  0.00000000E+00
  0.00000000E+00  0.00000000E+00  0.00000000E+00
  0.00000000E+00  0.00000000E+00  0.00000000E+00
  0.00000000E+00  0.00000000E+00  0.00000000E+00
  0.00000000E+00  0.00000000E+00  0.00000000E+00
  0.00000000E+00  0.00000000E+00  0.00000000E+00
  0.00000000E+00  0.00000000E+00  0.00000000E+00
  0.00000000E+00  0.00000000E+00  0.00000000E+00
  0.00000000E+00  0.00000000E+00  0.00000000E+00
  0.00000000E+00  0.00000000E+00  0.00000000E+00
  0.00000000E+00  0.00000000E+00  0.00000000E+00
  0.00000000E+00  0.00000000E+00  0.00000000E+00
  0.00000000E+00  0.00000000E+00  0.00000000E+00
  0.00000000E+00  0.00000000E+00  0.00000000E+00
  0.00000000E+00  0.00000000E+00  0.00000000E+00
  0.00000000E+00  0.00000000E+00  0.00000000E+00
  0.00000000E+00  0.00000000E+00  0.00000000E+00
  0.00000000E+00  0.00000000E+00  0.00000000E+00
  0.00000000E+00  0.00000000E+00  0.00000000E+00
  0.00000000E+00  0.00000000E+00  0.00000000E+00
  0.00000000E+00  0.00000000E+00  0.00000000E+00
  0.00000000E+00  0.00000000E+00  0.00000000E+00
  0.00000000E+00  0.00000000E+00  0.00000000E+00
  0.00000000E+00  0.00000000E+00  0.00000000E+00
  0.00000000E+00  0.00000000E+00  0.00000000E+00
  0.00000000E+00  0.00000000E+00  0.00000000E+00
  0.00000000E+00  0.00000000E+00  0.00000000E+00
  0.00000000E+00  0.00000000E+00  0.00000000E+00
  0.00000000E+00  0.00000000E+00  0.00000000E+00
  0.00000000E+00  0.00000000E+00  0.00000000E+00
  0.00000000E+00  0.00000000E+00  0.00000000E+00
  0.00000000E+00  0.00000000E+00  0.00000000E+00
  0.00000000E+00  0.00000000E+00  0.00000000E+00
  0.00000000E+00  0.00000000E+00  0.00000000E+00
  0.00000000E+00  0.00000000E+00  0.00000000E+00
  0.00000000E+00  0.00000000E+00  0.00000000E+00
  0.00000000E+00  0.00000000E+00  0.00000000E+00
  0.00000000E+00  0.00000000E+00  0.00000000E+00
  0.00000000E+00  0.00000000E+00  0.00000000E+00
  0.00000000E+00  0.00000000E+00  0.00000000E+00
  0.00000000E+00  0.00000000E+00  0.00000000E+00
  0.00000000E+00  0.00000000E+00  0.00000000E+00
  0.00000000E+00  0.00000000E+00  0.00000000E+00
  0.00000000E+00  0.00000000E+00  0.00000000E+00
  0.00000000E+00  0.00000000E+00  0.00000000E+00
  0.00000000E+00  0.00000000E+00  0.00000000E+00
  0.00000000E+00  0.00000000E+00  0.00000000E+00
  0.00000000E+00  0.00000000E+00  0.00000000E+00
  0.00000000E+00  0.00000000E+00  0.00000000E+00
  0.00000000E+00  0.00000000E+00  0.00000000E+00
  0.00000000E+00  0.00000000E+00  0.00000000E+00
  0.00000000E+00  0.00000000E+00  0.00000000E+00
  0.00000000E+00  0.00000000E+00  0.00000000E+00
  0.00000000E+00  0.00000000E+00  0.00000000E+00
  0.00000000E+00  0.00000000E+00  0.00000000E+00
  0.00000000E+00  0.00000000E+00  0.00000000E+00
  0.00000000E+00  0.00000000E+00  0.00000000E+00
  0.00000000E+00  0.00000000E+00  0.00000000E+00
  0.00000000E+00  0.00000000E+00  0.00000000E+00
  0.00000000E+00  0.00000000E+00  0.00000000E+00
  0.00000000E+00  0.00000000E+00  0.00000000E+00
  0.00000000E+00  0.00000000E+00  0.00000000E+00
  0.00000000E+00  0.00000000E+00  0.00000000E+00
  0.00000000E+00  0.00000000E+00  0.00000000E+00
  0.00000000E+00  0.00000000E+00  0.00000000E+00
  0.00000000E+00  0.00000000E+00  0.00000000E+00
  0.00000000E+00  0.00000000E+00  0.00000000E+00
  0.00000000E+00  0.00000000E+00  0.00000000E+00
  0.00000000E+00  0.00000000E+00  0.00000000E+00
  0.00000000E+00  0.00000000E+00  0.00000000E+00
  0.00000000E+00  0.00000000E+00  0.00000000E+00
  0.00000000E+00  0.00000000E+00  0.00000000E+00
  0.00000000E+00  0.00000000E+00  0.00000000E+00
  0.00000000E+00  0.00000000E+00  0.00000000E+00
  0.00000000E+00  0.00000000E+00  0.00000000E+00
  0.00000000E+00  0.00000000E+00  0.00000000E+00
  0.00000000E+00  0.00000000E+00  0.00000000E+00
  0.00000000E+00  0.00000000E+00  0.00000000E+00
  0.00000000E+00  0.00000000E+00  0.00000000E+00
  0.00000000E+00  0.00000000E+00  0.00000000E+00
  0.00000000E+00  0.00000000E+00  0.00000000E+00
  0.00000000E+00  0.00000000E+00  0.00000000E+00
  0.00000000E+00  0.00000000E+00  0.00000000E+00
  0.00000000E+00  0.00000000E+00  0.00000000E+00
  0.00000000E+00  0.00000000E+00  0.00000000E+00
  0.00000000E+00  0.00000000E+00  0.00000000E+00
  0.00000000E+00  0.00000000E+00  0.00000000E+00
  0.00000000E+00  0.00000000E+00  0.00000000E+00
  0.00000000E+00  0.00000000E+00  0.00000000E+00
  0.00000000E+00  0.00000000E+00  0.00000000E+00
  0.00000000E+00  0.00000000E+00  0.00000000E+00
  0.00000000E+00  0.00000000E+00  0.00000000E+00
  0.00000000E+00  0.00000000E+00  0.00000000E+00
  0.00000000E+00  0.00000000E+00  0.00000000E+00
  0.00000000E+00  0.00000000E+00  0.00000000E+00
  0.00000000E+00  0.00000000E+00  0.00000000E+00
  0.00000000E+00  0.00000000E+00  0.00000000E+00
  0.00000000E+00  0.00000000E+00  0.00000000E+00
  0.00000000E+00  0.00000000E+00  0.00000000E+00
  0.00000000E+00  0.00000000E+00  0.00000000E+00
  0.00000000E+00  0.00000000E+00  0.00000000E+00
  0.00000000E+00  0.00000000E+00  0.00000000E+00
  0.00000000E+00  0.00000000E+00  0.00000000E+00
  0.00000000E+00  0.00000000E+00  0.00000000E+00
  0.00000000E+00  0.00000000E+00  0.00000000E+00
  0.00000000E+00  0.00000000E+00  0.00000000E+00
  0.00000000E+00  0.00000000E+00  0.00000000E+00
  0.00000000E+00  0.00000000E+00  0.00000000E+00
  0.00000000E+00  0.00000000E+00  0.00000000E+00
  0.00000000E+00  0.00000000E+00  0.00000000E+00
  0.00000000E+00  0.00000000E+00  0.00000000E+00
  0.00000000E+00  0.00000000E+00  0.00000000E+00
  0.00000000E+00  0.00000000E+00  0.00000000E+00
  0.00000000E+00  0.00000000E+00  0.00000000E+00
  0.00000000E+00  0.00000000E+00  0.00000000E+00
  0.00000000E+00  0.00000000E+00  0.00000000E+00
  0.00000000E+00  0.00000000E+00  0.00000000E+00
  0.00000000E+00  0.00000000E+00  0.00000000E+00
  0.00000000E+00  0.00000000E+00  0.00000000E+00
  0.00000000E+00  0.00000000E+00  0.00000000E+00
  0.00000000E+00  0.00000000E+00  0.00000000E+00
  0.00000000E+00  0.00000000E+00  0.00000000E+00
  0.00000000E+00  0.00000000E+00  0.00000000E+00
  0.00000000E+00  0.00000000E+00  0.00000000E+00
  0.00000000E+00  0.00000000E+00  0.00000000E+00
  0.00000000E+00  0.00000000E+00  0.00000000E+00
  0.00000000E+00  0.00000000E+00  0.00000000E+00
  0.00000000E+00  0.00000000E+00  0.00000000E+00
  0.00000000E+00  0.00000000E+00  0.00000000E+00
  0.00000000E+00  0.00000000E+00  0.00000000E+00
  0.00000000E+00  0.00000000E+00  0.00000000E+00
  0.00000000E+00  0.00000000E+00  0.00000000E+00
  0.00000000E+00  0.00000000E+00  0.00000000E+00
  0.00000000E+00  0.00000000E+00  0.00000000E+00
  0.00000000E+00  0.00000000E+00  0.00000000E+00
  0.00000000E+00  0.00000000E+00  0.00000000E+00
  0.00000000E+00  0.00000000E+00  0.00000000E+00
  0.00000000E+00  0.00000000E+00  0.00000000E+00
  0.00000000E+00  0.00000000E+00  0.00000000E+00
  0.00000000E+00  0.00000000E+00  0.00000000E+00
  0.00000000E+00  0.00000000E+00  0.00000000E+00
  0.00000000E+00  0.00000000E+00  0.00000000E+00
  0.00000000E+00  0.00000000E+00  0.00000000E+00
  0.00000000E+00  0.00000000E+00  0.00000000E+00
  0.00000000E+00  0.00000000E+00  0.00000000E+00
  0.00000000E+00  0.00000000E+00  0.00000000E+00
  0.00000000E+00  0.00000000E+00  0.00000000E+00
  0.00000000E+00  0.00000000E+00  0.00000000E+00
  0.00000000E+00  0.00000000E+00  0.00000000E+00
  0.00000000E+00  0.00000000E+00  0.00000000E+00
  0.00000000E+00  0.00000000E+00  0.00000000E+00
  0.00000000E+00  0.00000000E+00  0.00000000E+00
  0.00000000E+00  0.00000000E+00  0.00000000E+00
  0.00000000E+00  0.00000000E+00  0.00000000E+00
  0.00000000E+00  0.00000000E+00  0.00000000E+00
  0.00000000E+00  0.00000000E+00  0.00000000E+00
  0.00000000E+00  0.00000000E+00  0.00000000E+00
  0.00000000E+00  0.00000000E+00  0.00000000E+00
  0.00000000E+00  0.00000000E+00  0.00000000E+00
  0.00000000E+00  0.00000000E+00  0.00000000E+00
  0.00000000E+00  0.00000000E+00  0.00000000E+00
  0.00000000E+00  0.00000000E+00  0.00000000E+00
  0.00000000E+00  0.00000000E+00  0.00000000E+00
  0.00000000E+00  0.00000000E+00  0.00000000E+00
  0.00000000E+00  0.00000000E+00  0.00000000E+00
  0.00000000E+00  0.00000000E+00  0.00000000E+00
  0.00000000E+00  0.00000000E+00  0.00000000E+00
  0.00000000E+00  0.00000000E+00  0.00000000E+00
  0.00000000E+00  0.00000000E+00  0.00000000E+00
  0.00000000E+00  0.00000000E+00  0.00000000E+00
  0.00000000E+00  0.00000000E+00  0.00000000E+00
  0.00000000E+00  0.00000000E+00  0.00000000E+00
  0.00000000E+00  0.00000000E+00  0.00000000E+00
  0.00000000E+00  0.00000000E+00  0.00000000E+00
  0.00000000E+00  0.00000000E+00  0.00000000E+00
  0.00000000E+00  0.00000000E+00  0.00000000E+00
  0.00000000E+00  0.00000000E+00  0.00000000E+00
  0.00000000E+00  0.00000000E+00  0.00000000E+00
  0.00000000E+00  0.00000000E+00  0.00000000E+00
  0.00000000E+00  0.00000000E+00  0.00000000E+00
  0.00000000E+00  0.00000000E+00  0.00000000E+00
  0.00000000E+00  0.00000000E+00  0.00000000E+00
  0.00000000E+00  0.00000000E+00  0.00000000E+00
  0.00000000E+00  0.00000000E+00  0.00000000E+00
  0.00000000E+00  0.00000000E+00  0.00000000E+00
  0.00000000E+00  0.00000000E+00  0.00000000E+00
  0.00000000E+00  0.00000000E+00  0.00000000E+00
  0.00000000E+00  0.00000000E+00  0.00000000E+00
  0.00000000E+00  0.00000000E+00  0.00000000E+00
  0.00000000E+00  0.00000000E+00  0.00000000E+00
  0.00000000E+00  0.00000000E+00  0.00000000E+00
  0.00000000E+00  0.00000000E+00  0.00000000E+00
  0.00000000E+00  0.00000000E+00  0.00000000E+00
  0.00000000E+00  0.00000000E+00  0.00000000E+00
  0.00000000E+00  0.00000000E+00  0.00000000E+00
  0.00000000E+00  0.00000000E+00  0.00000000E+00
  0.00000000E+00  0.00000000E+00  0.00000000E+00
  0.00000000E+00  0.00000000E+00  0.00000000E+00
  0.00000000E+00  0.00000000E+00  0.00000000E+00