Sb                                      
   1.00000000000000     
    18.8173007964999996    0.0000000000000000    0.0000000000000000
     0.0000000000000000   18.8173007964999996    0.0000000000000000
     0.0000000000000000    0.0000000000000000   18.8173007964999996
   Sb
   216
Selective dynamics
Direct
  0.0009219529731993  0.0919352052721935  0.5357102436042392   T   T   T
  0.6404397399273514  0.8046249424684386  0.2741820488262642   T   T   T
  0.0046160175342360  0.9320259057632788  0.9960280478509295   T   T   T
  0.2438882143669864  0.3709472557376977  0.9491695375169109   T   T   T
  0.8562713269334420  0.9429557510978119  0.8284117406380290   T   T   T
  0.1972059684443326  0.0063116924389776  0.9587731933709915   T   T   T
  0.9543499621836027  0.1914522812198332  0.4158710752412053   T   T   T
  0.7585733553108409  0.3249746840643328  0.7226250518906666   T   T   T
  0.3681921375034065  0.6829313135699370  0.0697263017243064   T   T   T
  0.1774760148343862  0.2134526068782766  0.1794053069338966   T   T   T
  0.3179974637786279  0.9270099511678693  0.3742066964438113   T   T   T
  0.5603426233671784  0.2010722824455649  0.4417853912700801   T   T   T
  0.4622490665153384  0.1082381865215844  0.3277093933477953   T   T   T
  0.4316130786855651  0.8167090325148375  0.9688574727498089   T   T   T
  0.2318733142332556  0.2183769012527780  0.5774513595940679   T   T   T
  0.8364880934299685  0.2295719673320256  0.0928945996735384   T   T   T
  0.4079571186069448  0.2189879029052224  0.1529914003561630   T   T   T
  0.1452429618233619  0.0606891913130200  0.1314043294908540   T   T   T
  0.8339574450979140  0.1931063016585037  0.8435025891396160   T   T   T
  0.2951782511682002  0.1106681275023600  0.1290592302168124   T   T   T
  0.7775854674852626  0.8352676809338686  0.7411749327960789   T   T   T
  0.7044128178247279  0.9572826970404579  0.6500852009367935   T   T   T
  0.7704802323843480  0.0753137288180788  0.4506435740338999   T   T   T
  0.6022000334549708  0.9700834530335697  0.1851836339344574   T   T   T
  0.0020091335200103  0.4202541625715372  0.0246508967928077   T   T   T
  0.4387235277170826  0.4905517047134502  0.9658347123489736   T   T   T
  0.8411296435623096  0.4573230069242179  0.0654570976389760   T   T   T
  0.8140005817331933  0.9488606255969418  0.2702590088925275   T   T   T
  0.9037832635644542  0.3358536405467509  0.9269369421532684   T   T   T
  0.8956221703363632  0.8120766464402472  0.6410625419441783   T   T   T
  0.0354625894393505  0.4357306374354842  0.2710792823119899   T   T   T
  0.9673934177027493  0.3182204487333221  0.1996276994341065   T   T   T
  0.7083171964972431  0.7162424698545694  0.6536775057183367   T   T   T
  0.3698068374974502  0.4175523212712167  0.8214375244135751   T   T   T
  0.1418007814168044  0.3389524408692017  0.0625635115303069   T   T   T
  0.6664866285959943  0.5167277975327894  0.0434199361128373   T   T   T
  0.1708371405017631  0.1422912481677740  0.7308414163968932   T   T   T
  0.1865733473099972  0.6662509148927971  0.1225575414860783   T   T   T
  0.3882965230778991  0.6138350538109052  0.8751255101860813   T   T   T
  0.5592362571449102  0.9486619068778239  0.4579971191474546   T   T   T
  0.8125357022579385  0.3890551992635750  0.2050353864813719   T   T   T
  0.2398693780718496  0.2422909133737660  0.8411085058785427   T   T   T
  0.1205467711085756  0.8492558428047670  0.9600524823987190   T   T   T
  0.1350997920973744  0.3447488452955128  0.3742737720425570   T   T   T
  0.2231328089926763  0.4798731946432344  0.7908297980024719   T   T   T
  0.8500392630645711  0.5026859907527120  0.2974006667981274   T   T   T
  0.0302709187506816  0.8659431143404579  0.2704677201748046   T   T   T
  0.9588629170102034  0.9468136671255950  0.7099588326267225   T   T   T
  0.7562916318604056  0.7754661828320708  0.1395124690978105   T   T   T
  0.9925364025378639  0.7014931586406390  0.9964579119074864   T   T   T
  0.9857195377620469  0.7691191784992579  0.4571701560917376   T   T   T
  0.2051180689097338  0.6911919427742290  0.7669775214092999   T   T   T
  0.1144845408043601  0.7883384812600489  0.3717951644233077   T   T   T
  0.4030223263671159  0.0017565586662783  0.1168926099070569   T   T   T
  0.7416565272781362  0.6469740572952875  0.9523322585876127   T   T   T
  0.0165004557318396  0.7932325458684563  0.7863688080311138   T   T   T
  0.7637318777651757  0.0373654787017533  0.1345149017680558   T   T   T
  0.5146234061679740  0.5970280900641745  0.0528654497178011   T   T   T
  0.3987852413989883  0.7898626514379430  0.7926353425590893   T   T   T
  0.1682838103640399  0.8953983016578949  0.4637885005566191   T   T   T
  0.5615911345651554  0.7095716935852459  0.1847324283463492   T   T   T
  0.0588297661811633  0.6542548757699962  0.2660424465170065   T   T   T
  0.4453850122113224  0.9459519943346747  0.2606638938282451   T   T   T
  0.0698807503869752  0.5689488309275763  0.0457818538823872   T   T   T
  0.3629440394192798  0.0912156598219948  0.4585164565872630   T   T   T
  0.9695240966562957  0.7451793176864576  0.1833194658794547   T   T   T
  0.3914875024636802  0.2450230966333271  0.3141439979573032   T   T   T
  0.8492417092920318  0.6718958923539432  0.0766025600961733   T   T   T
  0.8927963544349075  0.3210108729006931  0.6409600552959984   T   T   T
  0.8316198575911024  0.1980961411550147  0.5258727149154029   T   T   T
  0.3343192707820258  0.9106991844183252  0.6440082124381160   T   T   T
  0.2762969218486437  0.1231493586678145  0.2842583744165347   T   T   T
  0.5387063046376380  0.3755010442128624  0.9264184387891583   T   T   T
  0.0526120808448668  0.8937006581823854  0.5624304539240127   T   T   T
  0.3172315915526974  0.1342962510573976  0.6690472258414308   T   T   T
  0.7751951259665120  0.5561082038669970  0.4610066889396577   T   T   T
  0.2722982074517082  0.1622662893172324  0.9691325850326687   T   T   T
  0.2549175015978697  0.8043641696003855  0.5701258010916693   T   T   T
  0.2711810790939648  0.0309387005540465  0.8302167457623821   T   T   T
  0.4356870786832256  0.9835178614214063  0.5490757340636063   T   T   T
  0.6503739329921268  0.7810397447040629  0.0013966807269240   T   T   T
  0.2956216150702358  0.8977976957323228  0.0592656868522924   T   T   T
  0.3573910093732543  0.2876001064383885  0.0040016891067141   T   T   T
  0.1332718246142018  0.5692051893561385  0.6678220992641890   T   T   T
  0.3739605185588618  0.5538254504336779  0.7323543464469671   T   T   T
  0.3621422175929760  0.3794332260368321  0.1452021271041178   T   T   T
  0.4135620682515397  0.9437960501850209  0.7898753991477734   T   T   T
  0.9975932173440666  0.2428833655026691  0.0504037900056289   T   T   T
  0.8997288478627110  0.8479932557540533  0.3550813972490948   T   T   T
  0.9305321043338459  0.9137966087157142  0.1312189428265124   T   T   T
  0.5148130687200946  0.0639225607932472  0.6509440023504914   T   T   T
  0.8893694097735679  0.0549252138305809  0.3367105555714344   T   T   T
  0.0884646676118738  0.2437803886910425  0.9042311222945739   T   T   T
  0.4412482275892995  0.2064518433190488  0.5383480648743060   T   T   T
  0.2464482063320815  0.3341500048702696  0.2497535289821914   T   T   T
  0.1913266508771206  0.9085405346243638  0.1770617741117444   T   T   T
  0.9021285429370769  0.5658414458906073  0.9191553409963330   T   T   T
  0.2806915196573882  0.3626882021793856  0.6015301981107823   T   T   T
  0.7086159627905239  0.6934595231299989  0.3603298706958299   T   T   T
  0.1525262483546600  0.4520652074917809  0.1788773741651400   T   T   T
  0.4340163027341010  0.1069413538916295  0.8079712260657731   T   T   T
  0.3249700376008942  0.6972406196019695  0.6698537599910287   T   T   T
  0.5351738261516995  0.6958376515150028  0.9315168465349880   T   T   T
  0.8133998836481960  0.4134489036868228  0.5170348914749218   T   T   T
  0.0913458795811078  0.6943776833757853  0.8822761473008457   T   T   T
  0.2587071973495876  0.5798108654805638  0.5784396597502306   T   T   T
  0.3734237133129790  0.7922063858594161  0.4683625011712719   T   T   T
  0.6672672497800285  0.1471304942789639  0.3069779503610439   T   T   T
  0.8357780289167014  0.7308118377646760  0.5106868505759318   T   T   T
  0.2948966742697099  0.4858645960592978  0.0425295106614193   T   T   T
  0.5405991552431872  0.3369533575209297  0.0686948817992978   T   T   T
  0.8028735859219651  0.1533916358027547  0.2432853690141846   T   T   T
  0.6053218561476541  0.0133403760806598  0.0313505365201491   T   T   T
  0.8051963847462745  0.8990832782573729  0.0437176589539350   T   T   T
  0.5342133019633883  0.8393059964799237  0.1036299692711822   T   T   T
  0.2588646582469643  0.8047639735258748  0.2888167439274912   T   T   T
  0.1402434517389979  0.0949021125330075  0.4393119439425862   T   T   T
  0.4835717508946373  0.1761553572102684  0.0177319851007589   T   T   T
  0.9453240849198387  0.9614061674458999  0.4562353194153160   T   T   T
  0.2608623810117975  0.5646710395410982  0.2782955845124674   T   T   T
  0.9490816710184459  0.6440468720432837  0.3747405515530592   T   T   T
  0.1183561109172589  0.7865301328226522  0.6713830882920793   T   T   T
  0.2563819374436355  0.8171679071961686  0.8405036066855524   T   T   T
  0.6083052333019996  0.0658237638947705  0.8260466853479307   T   T   T
  0.2532124275303622  0.7213647234049130  0.9832261503283640   T   T   T
  0.6366490156698028  0.8560578874274544  0.8597482045335072   T   T   T
  0.2425454518846405  0.0301252716770287  0.5486275317221095   T   T   T
  0.6559025284951692  0.2901179735271610  0.8576358311135940   T   T   T
  0.6200666613971709  0.0881585779074361  0.5401816313766780   T   T   T
  0.8197426383810639  0.9584410783942937  0.5370808332826439   T   T   T
  0.8400894097297719  0.7267189519187008  0.2740162687620796   T   T   T
  0.7466280720582069  0.8521883644710064  0.4470533479189422   T   T   T
  0.7648626365349745  0.5691081729096864  0.1570357658517059   T   T   T
  0.7368976390607952  0.0906224701065273  0.7468431032811448   T   T   T
  0.8559688613084361  0.2862884029549615  0.3232183058903336   T   T   T
  0.0724915454281735  0.9441498382279646  0.8300969418163727   T   T   T
  0.2292605266358931  0.2182359945049451  0.4208242248657434   T   T   T
  0.1087026724602681  0.0108197552793883  0.6465697935536119   T   T   T
  0.3463744747690175  0.2948224167446061  0.7235709906617463   T   T   T
  0.0230613236183428  0.0697439379009672  0.2370361396219377   T   T   T
  0.8433877528196573  0.4491668581577303  0.8287685618055854   T   T   T
  0.1986022746605461  0.9196369974825142  0.7337570937607072   T   T   T
  0.9347714160815878  0.4186281191882081  0.4197511942653435   T   T   T
  0.4000232841961964  0.0701083237686382  0.9541566963476651   T   T   T
  0.5723340644209977  0.2149743084765701  0.7458207386500562   T   T   T
  0.6265058871560000  0.1744104594895788  0.9649183388515271   T   T   T
  0.7405747918967350  0.2914906178168821  0.4389850402271855   T   T   T
  0.5647972350558559  0.1301053215468554  0.1900939116665999   T   T   T
  0.8408133670386622  0.6887292255921169  0.8487086460090112   T   T   T
  0.6856371407148126  0.4348235290037246  0.6568525151300069   T   T   T
  0.0321893129619121  0.1138478680079866  0.8221327138081110   T   T   T
  0.7670816344634522  0.3344891397366336  0.0001256940663208   T   T   T
  0.0791598379940480  0.4402581014440682  0.5896963692438356   T   T   T
  0.0088288474923210  0.3073651239371785  0.5058439084885050   T   T   T
  0.0578258224274999  0.2075489010104400  0.2719756614667751   T   T   T
  0.6575285111304943  0.2466454099057705  0.1204831595952601   T   T   T
  0.6449202220733663  0.3374161438192255  0.2567094177149821   T   T   T
  0.6764780239228367  0.9831869946662283  0.3373259527620682   T   T   T
  0.7507315248584104  0.5926614500516567  0.7297988532892632   T   T   T
  0.7131456557796089  0.4634994393641252  0.3509610157967377   T   T   T
  0.0203944411901974  0.5681831243335961  0.8138602126477742   T   T   T
  0.1034504534127124  0.4649671671426877  0.8949702257293838   T   T   T
  0.1031569978829677  0.7941364214632599  0.1106260428797523   T   T   T
  0.9911252854754844  0.5355156897122498  0.4826461844980779   T   T   T
  0.6468410122412255  0.5734368162339075  0.2732434641417808   T   T   T
  0.4787872135360660  0.8131381640512144  0.6429299761253514   T   T   T
  0.1194019171252924  0.5425928532373930  0.3966493200009045   T   T   T
  0.4962573776083891  0.3232469716325765  0.6732638954473827   T   T   T
  0.4304100957307118  0.2573785996166296  0.8682881448082237   T   T   T
  0.4409782915058156  0.6796799371464664  0.2830135385605040   T   T   T
  0.8540019398854712  0.5580179957264920  0.6159366968099610   T   T   T
  0.6281962597668060  0.5810745529489786  0.8468984785180478   T   T   T
  0.9240185332579126  0.0686226266011254  0.1134866861571765   T   T   T
  0.6949089442995807  0.1938223148365014  0.6440444956496993   T   T   T
  0.9882833516548112  0.5623617378024075  0.1731727104498492   T   T   T
  0.0326737899810788  0.3482335574649311  0.8083617524727827   T   T   T
  0.6911526784197771  0.4515777091115907  0.8810065120731778   T   T   T
  0.9054733824799448  0.8337010650778666  0.9210646643567201   T   T   T
  0.5782766789620166  0.4571284814595032  0.1687189931537177   T   T   T
  0.5720196314584776  0.7018845934105836  0.7370818782913771   T   T   T
  0.6169984107379957  0.8493753511048630  0.5566016672112898   T   T   T
  0.3115395766222288  0.6733915723677742  0.3747228476968592   T   T   T
  0.2106920691003095  0.4330941788976239  0.4770646445527055   T   T   T
  0.3823614330330531  0.8122596791701775  0.1624860521009911   T   T   T
  0.0478526966718667  0.6833035678641222  0.5826293091689017   T   T   T
  0.1841531719413274  0.0137799133669995  0.3242763359892759   T   T   T
  0.0816014627260141  0.2249589561714502  0.6237212151873022   T   T   T
  0.0558879850050024  0.0749826247718004  0.0016840405210677   T   T   T
  0.9348751078790117  0.6665572076654274  0.7045930170474437   T   T   T
  0.1538094170984793  0.3585141183597647  0.7000555548496807   T   T   T
  0.7686077742174912  0.1268027531429944  0.9944994894161053   T   T   T
  0.5259980591088692  0.9442958089416444  0.9220777757488977   T   T   T
  0.5629374052773570  0.4419617214831696  0.7551155473964716   T   T   T
  0.3882952129239010  0.5665876714642599  0.1840580869971308   T   T   T
  0.1789069874730169  0.6675186672108668  0.4716185194515937   T   T   T
  0.9093817982760503  0.0773244017300421  0.9090244069938245   T   T   T
  0.6210452759792154  0.3227401950187211  0.5556794833136525   T   T   T
  0.9456593650600091  0.4590275968551668  0.6872965554145882   T   T   T
  0.7167429256233075  0.9795166198811333  0.9012748675828441   T   T   T
  0.5100480933550465  0.8230931063298107  0.3676089972614018   T   T   T
  0.9511775576888984  0.2018009611437006  0.7259176935589524   T   T   T
  0.2406098490373410  0.5861786203315050  0.9224632232953376   T   T   T
  0.8825414626130742  0.0746990338782885  0.6574664570852063   T   T   T
  0.5622225936742852  0.9301783607166642  0.7245217078031552   T   T   T
  0.3821100000000000  0.3312500100000000  0.4725500100000000   F   F   F
  0.3148300000000000  0.4477800100000000  0.3506600000000000   F   F   F
  0.5166500200000000  0.3312600000000000  0.3506600000000000   F   F   F
  0.3821100000000000  0.5643000000000000  0.4725500100000000   F   F   F
  0.4493800100000000  0.4477800100000000  0.2697300000000000   F   F   F
  0.5166500200000000  0.5643100100000000  0.6753600199999999   F   F   F
  0.4493800100000000  0.4477800100000000  0.5534700200000000   F   F   F
  0.5166500200000000  0.5643100100000000  0.3506600000000000   F   F   F
  0.5839300200000000  0.6808199900000000  0.4725500100000000   F   F   F
  0.4493800100000000  0.6808300000000000  0.5534700200000000   F   F   F
  0.6512000000000000  0.5643000000000000  0.5534700200000000   F   F   F
  0.5839300200000000  0.4477700000000000  0.4725500100000000   F   F   F
 
  0.29316037E-03  0.14558350E-02  0.86767292E-03
  0.14689170E-02 -0.17980928E-02 -0.17865133E-02
  0.61812353E-03 -0.11308918E-02  0.13761979E-02
 -0.28431346E-02 -0.24370861E-02  0.89221390E-03
 -0.25481558E-02 -0.17733393E-02  0.11355281E-02
  0.96983360E-03 -0.43756164E-03 -0.40380549E-03
  0.27821140E-02 -0.13703534E-02  0.68697194E-03
 -0.85215214E-03  0.16234899E-02 -0.17923571E-02
 -0.12806393E-02 -0.57159132E-02  0.37748907E-03
 -0.45729295E-03  0.14862740E-02  0.36506706E-05
  0.67263447E-03  0.17070860E-04  0.18816858E-02
 -0.13276482E-02 -0.23842684E-02  0.28059221E-03
  0.17031850E-02  0.85571772E-03  0.10588956E-02
  0.19766930E-02  0.19297846E-02 -0.90708107E-03
 -0.31592523E-02 -0.41700764E-03 -0.93396398E-03
  0.32935261E-02  0.35064338E-03 -0.86853312E-04
  0.25253742E-02 -0.24164920E-02  0.57134539E-03
  0.31037702E-02  0.59773997E-03  0.76591799E-03
  0.25483734E-02  0.23317164E-02  0.13766997E-03
 -0.18125536E-02  0.14312253E-02 -0.30431355E-02
 -0.92407834E-03 -0.56514549E-03  0.16959916E-03
  0.20358967E-02 -0.13428506E-02  0.29086841E-02
  0.72275666E-04  0.11377555E-02  0.48738774E-03
  0.16006958E-02  0.70442409E-03 -0.16714448E-03
  0.17821410E-02 -0.31044721E-02  0.50484564E-03
 -0.43423937E-03 -0.59659991E-03  0.26086969E-02
  0.13658725E-02 -0.22361174E-02  0.38110691E-03
 -0.23845458E-02  0.88052411E-05 -0.23092101E-02
  0.71972404E-03 -0.22089868E-02 -0.12137614E-02
  0.17853826E-02 -0.69979298E-03 -0.35566589E-02
 -0.30970150E-02 -0.85311940E-03 -0.12849086E-02
 -0.31201478E-02 -0.11161120E-02  0.32082793E-03
  0.26141407E-02 -0.17530274E-02  0.62215734E-03
  0.62831874E-03 -0.63736085E-03  0.16684352E-02
  0.10433121E-02  0.70389855E-04 -0.42737827E-02
  0.58771611E-03  0.12806742E-02 -0.16907461E-02
 -0.13526212E-02  0.43833359E-03  0.28011942E-02
 -0.12025587E-02  0.21486372E-03 -0.53476108E-03
 -0.26250187E-03  0.94600356E-03  0.15437146E-02
  0.87141855E-04  0.16005689E-02 -0.22675817E-02
  0.11307014E-02 -0.18552564E-03  0.38394255E-02
 -0.21627303E-03 -0.82234452E-03  0.23371806E-02
  0.57680414E-03  0.21048663E-02 -0.20665646E-02
  0.55375309E-03  0.15712120E-02  0.26116447E-02
 -0.15596175E-02  0.15085909E-02 -0.13465961E-02
 -0.19153378E-02  0.43288674E-03 -0.12645170E-04
  0.16172492E-02  0.17837588E-02  0.24638714E-02
 -0.35724311E-02 -0.15140469E-02 -0.20123441E-03
  0.60722738E-04  0.27235733E-02  0.61899704E-03
 -0.10420620E-03 -0.79750507E-03 -0.26176246E-03
  0.39757753E-03  0.56872337E-03  0.18005640E-02
  0.46199706E-02 -0.15502806E-02  0.39537282E-02
 -0.16187012E-02 -0.28217180E-02  0.64096787E-03
  0.90954783E-03  0.56504260E-03  0.80172347E-03
  0.46944395E-03 -0.71622529E-03 -0.18762892E-02
  0.83757958E-03 -0.59296691E-03 -0.19538169E-02
 -0.51307906E-02 -0.10118958E-02  0.45732075E-02
  0.65911238E-03  0.16377625E-02 -0.51142100E-03
 -0.11527244E-02  0.88528394E-03  0.44762469E-03
 -0.23842757E-03 -0.70239459E-03 -0.38931207E-03
 -0.20485991E-02  0.94728290E-03 -0.16588577E-02
 -0.12485582E-03 -0.75635658E-03  0.21075527E-02
 -0.14215837E-02 -0.20623697E-02  0.96029205E-03
  0.17153692E-02  0.19009660E-03  0.12114686E-02
  0.67371598E-03 -0.12334991E-02  0.29691221E-02
  0.73348623E-03  0.91229850E-03 -0.77965062E-03
  0.17779415E-02 -0.25570472E-03 -0.78687373E-03
 -0.67522421E-03 -0.94023219E-03 -0.14970162E-02
  0.25751217E-02 -0.13468203E-02 -0.30947421E-02
 -0.54318303E-03  0.74288254E-03  0.10600692E-02
 -0.40438911E-03 -0.95037202E-04 -0.13370623E-02
 -0.75532134E-03  0.81627305E-03  0.21346865E-02
  0.14278451E-03  0.50104862E-03  0.14867270E-02
  0.19291211E-02  0.30262950E-02  0.33335863E-02
  0.74075655E-03  0.22683094E-03 -0.22427031E-02
 -0.43404403E-03  0.41423939E-04  0.19410402E-02
  0.32496809E-03 -0.37742388E-02  0.13089249E-02
  0.84871796E-03 -0.10961556E-02 -0.72609710E-03
  0.69641382E-03 -0.38559525E-03  0.16994208E-02
  0.19515172E-02 -0.80094339E-03  0.28581816E-03
 -0.26671565E-03 -0.98677244E-03  0.20291982E-03
  0.14209224E-02  0.99993378E-03  0.39097633E-03
  0.27157485E-03  0.13484962E-02 -0.93483126E-03
 -0.22978483E-02  0.56992493E-03  0.15330677E-03
  0.60467188E-03 -0.98741902E-03  0.15567675E-02
  0.29489025E-02  0.21505328E-02 -0.36064331E-03
  0.16222858E-03 -0.70511633E-03  0.22551839E-02
 -0.19963166E-02 -0.28974383E-02  0.22341300E-02
  0.12943364E-02 -0.80830935E-03  0.43587041E-03
  0.12302439E-02  0.17780748E-03 -0.31950232E-02
  0.76054074E-04  0.75323907E-03 -0.21186946E-03
  0.26268047E-02 -0.38885011E-02 -0.27938777E-02
  0.67934971E-03 -0.85149763E-03 -0.33520996E-02
 -0.56667154E-03  0.11275140E-02 -0.17632019E-02
  0.80854717E-03  0.19378982E-02  0.13183610E-02
  0.63095075E-03  0.25980796E-03  0.32106507E-04
 -0.19826225E-03  0.90703894E-03 -0.81141836E-03
  0.14911861E-02 -0.20624186E-02 -0.14435050E-02
  0.18654171E-02  0.68495128E-03 -0.40105514E-03
  0.25203263E-02  0.49370402E-03  0.18755975E-02
  0.14225473E-02  0.96694941E-03 -0.37406695E-02
  0.38323822E-02 -0.21246647E-02 -0.45222476E-03
 -0.26939297E-02  0.84223557E-03 -0.20768226E-02
  0.15619570E-03 -0.14026072E-02 -0.12722452E-03
  0.30265398E-03  0.17529943E-02  0.86572052E-03
  0.12436372E-02  0.12231865E-02  0.32544718E-03
  0.11696702E-02  0.55381796E-03  0.32260294E-02
 -0.24625398E-02  0.33015020E-02  0.47852460E-03
  0.12446439E-02 -0.43828009E-04 -0.22569241E-02
 -0.36072694E-02 -0.64959419E-04 -0.30075435E-02
 -0.26900243E-02 -0.61834122E-03  0.96350130E-03
  0.21948420E-02  0.69722906E-03  0.83689561E-03
 -0.14293889E-02  0.47283415E-03 -0.77551617E-03
 -0.19932835E-04  0.29656667E-02  0.22984690E-02
 -0.23580862E-03 -0.14774696E-02 -0.12380739E-02
  0.98133770E-03 -0.25083609E-02  0.22297189E-02
  0.25409318E-02 -0.71108507E-04 -0.10026965E-03
  0.18627188E-02 -0.10437262E-02  0.16868486E-02
 -0.19547716E-03 -0.49270880E-03 -0.20280487E-02
  0.83205675E-03 -0.28169040E-03 -0.12324388E-02
 -0.15349503E-02  0.33922553E-03 -0.64041283E-03
  0.10749024E-02 -0.41578144E-03  0.74969375E-03
  0.35754167E-02  0.23337587E-03  0.82213187E-03
  0.18373141E-03 -0.14940169E-03 -0.28506128E-02
  0.88199238E-03  0.87422748E-03 -0.11677954E-02
 -0.67672972E-03 -0.77637943E-05  0.10301782E-02
  0.82143025E-03 -0.15922101E-02  0.86918515E-03
 -0.13939805E-02 -0.35945872E-03  0.62193281E-03
  0.10096333E-02  0.11611875E-02 -0.21013099E-02
 -0.10127743E-02  0.86362228E-03  0.35724669E-03
  0.15738471E-02  0.35723229E-03  0.77943992E-04
 -0.17967897E-02 -0.12076560E-02 -0.38231830E-02
  0.11493440E-02 -0.17954880E-02 -0.31721518E-02
  0.48941279E-03 -0.17705610E-03 -0.56612717E-03
  0.13422952E-02 -0.41913311E-03 -0.12354060E-02
 -0.10590857E-02 -0.17792043E-03  0.80903170E-03
 -0.12498503E-02  0.38841376E-03 -0.28261996E-02
  0.25435010E-02  0.30637208E-02  0.58073989E-03
  0.18112415E-02  0.23678291E-02  0.91296855E-03
  0.77579410E-03 -0.31036305E-02  0.42411939E-03
  0.18816355E-02  0.89564644E-03 -0.16785316E-02
  0.14184529E-02  0.32568130E-03 -0.18218387E-02
 -0.10281396E-03 -0.69419051E-03  0.11576261E-02
  0.12818061E-02 -0.33738519E-03  0.58912605E-03
  0.28264787E-02  0.60720502E-03  0.13717784E-02
  0.32917783E-02  0.47956489E-02  0.13353622E-03
  0.13250455E-02  0.16150074E-02  0.11873725E-02
 -0.19708753E-02  0.15738296E-02  0.16036801E-02
  0.16817361E-02 -0.95127105E-03 -0.13002721E-02
 -0.75948650E-03  0.20654472E-02 -0.46008335E-02
 -0.46105661E-03 -0.48408120E-03 -0.19361473E-02
  0.15585855E-02  0.79323708E-03  0.19394469E-02
  0.14782122E-03 -0.14840488E-02  0.83320466E-03
 -0.87528983E-03  0.30970953E-02 -0.22172048E-03
  0.16412213E-03 -0.30248794E-02  0.16332847E-02
 -0.23411874E-02 -0.14878754E-02  0.10571849E-02
 -0.29439091E-02 -0.17421599E-02  0.22562582E-02
 -0.13981845E-02  0.93047129E-03 -0.87334081E-03
 -0.17137863E-02  0.26570900E-02  0.19012938E-02
 -0.52054701E-03 -0.35075133E-03 -0.13497180E-03
 -0.46297603E-03  0.16260256E-02 -0.14025761E-02
  0.14000954E-02 -0.24357589E-02  0.15462211E-02
  0.12671649E-03  0.55795142E-03  0.29115618E-03
  0.95857985E-03  0.68847605E-03  0.16282092E-02
  0.26962004E-02 -0.26992302E-02  0.14066945E-02
 -0.16445881E-02 -0.76275494E-04 -0.43505807E-03
  0.30855255E-02  0.14607331E-03 -0.65655024E-04
  0.90901917E-03 -0.14230151E-02  0.20727817E-02
  0.12472683E-02 -0.21902361E-03  0.43327410E-03
 -0.88651282E-03 -0.57272009E-04  0.19788436E-02
  0.16768564E-02 -0.32981288E-02  0.18065860E-02
 -0.35135763E-02 -0.78785006E-03 -0.99460822E-03
  0.14054595E-02 -0.23574389E-02 -0.33076525E-03
 -0.12804247E-02 -0.24713671E-02  0.12456462E-02
  0.63853160E-03 -0.26234571E-02 -0.14675423E-02
  0.14266143E-02  0.32829470E-02  0.42844477E-03
  0.24165434E-02  0.27441356E-02 -0.58059706E-04
 -0.15835673E-02 -0.76237269E-03 -0.13764510E-02
 -0.20473088E-03  0.15753304E-02 -0.23264352E-03
  0.18363461E-02  0.92990796E-03  0.12575300E-02
  0.99327704E-03  0.43558463E-04  0.14040348E-02
  0.31118421E-03 -0.36667463E-02  0.13490518E-02
  0.30603937E-03  0.23255235E-03 -0.18614138E-02
  0.12201312E-02 -0.13689437E-02 -0.91643053E-03
 -0.79237363E-03  0.76305268E-03 -0.13655031E-02
 -0.16937815E-02 -0.18257832E-02  0.15800093E-03
 -0.94409225E-05  0.20838599E-03 -0.75097606E-03
 -0.38713911E-03 -0.19702318E-04  0.27209168E-02
  0.23042596E-02 -0.63672046E-03 -0.13087381E-02
  0.10545694E-02  0.95417938E-03 -0.17839400E-02
 -0.15166906E-02 -0.19588433E-02  0.23182398E-02
  0.55876197E-03  0.99303814E-03 -0.23168091E-02
 -0.20604290E-02 -0.79161678E-04  0.17244879E-02
 -0.16553283E-02 -0.65032185E-03 -0.19734043E-02
 -0.33677772E-03  0.20597144E-03 -0.31510340E-03
 -0.42835742E-03  0.27307062E-03 -0.22119571E-02
  0.76453881E-03 -0.95412652E-04  0.43944294E-03
  0.69439362E-03  0.12049630E-02  0.29447471E-02
 -0.71152757E-03 -0.16280324E-02 -0.12265813E-02
  0.22760800E-02  0.12982967E-02 -0.21047786E-02
  0.16534924E-02 -0.19146023E-02  0.33121118E-02
 -0.11995814E-02 -0.17789668E-02 -0.44214692E-03
 -0.62326507E-03 -0.25262750E-02 -0.24127163E-03
 -0.18755043E-02  0.24388101E-03  0.32839619E-02
  0.00000000E+00  0.00000000E+00  0.00000000E+00
  0.00000000E+00  0.00000000E+00  0.00000000E+00
  0.00000000E+00  0.00000000E+00  0.00000000E+00
  0.00000000E+00  0.00000000E+00  0.00000000E+00
  0.00000000E+00  0.00000000E+00  0.00000000E+00
  0.00000000E+00  0.00000000E+00  0.00000000E+00
  0.00000000E+00  0.00000000E+00  0.00000000E+00
  0.00000000E+00  0.00000000E+00  0.00000000E+00
  0.00000000E+00  0.00000000E+00  0.00000000E+00
  0.00000000E+00  0.00000000E+00  0.00000000E+00
  0.00000000E+00  0.00000000E+00  0.00000000E+00
  0.00000000E+00  0.00000000E+00  0.00000000E+00
 
           1
   4.00000000000000     
  0.10000000E+01  0.00000000E+00  0.00000000E+00  0.00000000E+00
  0.98427017E-03  0.92244673E-01  0.53589469E+00
  0.64075199E+00  0.80424272E+00  0.27380229E+00
  0.47474123E-02  0.93178551E+00  0.99632059E+00
  0.24328385E+00  0.37042920E+00  0.94935920E+00
  0.85572966E+00  0.94257879E+00  0.82865312E+00
  0.19741213E+00  0.62186798E-02  0.95868736E+00
  0.95494136E+00  0.19116098E+00  0.41601711E+00
  0.75839221E+00  0.32531979E+00  0.72224405E+00
  0.36791991E+00  0.68171628E+00  0.69806545E-01
  0.17737881E+00  0.21376854E+00  0.17940608E+00
  0.31814045E+00  0.92701358E+00  0.37460669E+00
  0.56006040E+00  0.20056546E+00  0.44184504E+00
  0.46261111E+00  0.10842009E+00  0.32793448E+00
  0.43203326E+00  0.81711925E+00  0.96866465E+00
  0.23120175E+00  0.21828826E+00  0.57725283E+00
  0.83718820E+00  0.22964650E+00  0.92876137E-01
  0.40849394E+00  0.21847423E+00  0.15311285E+00
  0.14590273E+00  0.60816253E-01  0.13156714E+00
  0.83449915E+00  0.19360196E+00  0.84353185E+00
  0.29479296E+00  0.11097236E+00  0.12841235E+00
  0.77738904E+00  0.83514755E+00  0.74121098E+00
  0.70484559E+00  0.95699725E+00  0.65070350E+00
  0.77049560E+00  0.75555582E-01  0.45074718E+00
  0.60254029E+00  0.97023319E+00  0.18514810E+00
  0.23879638E-02  0.41959424E+00  0.24758212E-01
  0.43863122E+00  0.49042489E+00  0.96638924E+00
  0.84141999E+00  0.45684767E+00  0.65538110E-01
  0.81349370E+00  0.94886250E+00  0.26976814E+00
  0.90393626E+00  0.33538408E+00  0.92667893E+00
  0.89600169E+00  0.81192789E+00  0.64030650E+00
  0.34804256E-01  0.43554929E+00  0.27080615E+00
  0.96673017E+00  0.31798320E+00  0.19969590E+00
  0.70887289E+00  0.71586983E+00  0.65380976E+00
  0.36994040E+00  0.41741684E+00  0.82179218E+00
  0.14202256E+00  0.33896740E+00  0.61655032E-01
  0.66661156E+00  0.51700003E+00  0.43060534E-01
  0.17054961E+00  0.14238442E+00  0.73143687E+00
  0.18631772E+00  0.66629659E+00  0.12244387E+00
  0.38824072E+00  0.61403615E+00  0.87545366E+00
  0.55925478E+00  0.94900214E+00  0.45751510E+00
  0.81277606E+00  0.38901576E+00  0.20585153E+00
  0.23982340E+00  0.24211611E+00  0.84160532E+00
  0.12066938E+00  0.84970327E+00  0.95961319E+00
  0.13521750E+00  0.34508284E+00  0.37482893E+00
  0.22280128E+00  0.48019388E+00  0.79054355E+00
  0.84963212E+00  0.50277801E+00  0.29739798E+00
  0.30614698E-01  0.86632229E+00  0.27099147E+00
  0.95810352E+00  0.94649183E+00  0.70991606E+00
  0.75630454E+00  0.77604513E+00  0.13964405E+00
  0.99251425E+00  0.70132363E+00  0.99640227E+00
  0.98580405E+00  0.76924007E+00  0.45755290E+00
  0.20610014E+00  0.69086240E+00  0.76781797E+00
  0.11414045E+00  0.78773867E+00  0.37193142E+00
  0.40321567E+00  0.18766700E-02  0.11706303E+00
  0.74175632E+00  0.64682181E+00  0.95193342E+00
  0.16678500E-01  0.79310650E+00  0.78595348E+00
  0.76264122E+00  0.37150380E-01  0.13548703E+00
  0.51476351E+00  0.59737623E+00  0.52756737E-01
  0.39854021E+00  0.79005084E+00  0.79273049E+00
  0.16823313E+00  0.89524899E+00  0.46370574E+00
  0.56115566E+00  0.70977306E+00  0.18437980E+00
  0.58803226E-01  0.65409410E+00  0.26649045E+00
  0.44508283E+00  0.94551360E+00  0.26086802E+00
  0.70245387E-01  0.56898924E+00  0.46039376E-01
  0.36308725E+00  0.90953455E-01  0.45914760E+00