Amorphous Sb                            
   1.00000000000000     
    20.1278869700586895    0.0000000000000000    0.0000000000000000
     0.0000000000000000   20.1278869700586895    0.0000000000000000
     0.0000000000000000    0.0000000000000000   20.1278869700586895
   Ge   Se
   150   150
Direct
  0.5489806930082066  0.7111299498010273  0.7791832202203259
  0.2010574664722524  0.4246902531323387  0.8053954188462056
  0.3721548005361036  0.3156397216114255  0.6120857438353438
  0.8215569839229275  0.0311177543970101  0.6288623495841683
  0.9000652824762052  0.6289978856481268  0.6566237914488761
  0.2309387756124240  0.6975008558372969  0.9667448166603650
  0.1220316555444342  0.1584313216897804  0.3566108556075028
  0.3832939702549948  0.6350304606760560  0.7773687846279475
  0.3395786335528003  0.8747320804215785  0.2144911316273782
  0.3596761677070340  0.0147267416834014  0.4241641581524933
  0.0129641280310796  0.0310744846800153  0.4470007788076077
  0.6201161072133370  0.3527167755199352  0.8627705721564396
  0.6588369495441508  0.4510372241963195  0.5889622987922242
  0.2646710594182937 -0.0004309283592111  0.8356401015544119
  0.6681573096550923  0.9483730175936835  0.4142540735484539
  0.0221455718681312  0.7612950676740563  0.1065896060730528
  0.0648041165906160  0.7524156016803617  0.3328633712358630
  0.7962211290039030  0.4160576732819685  0.3635953129758319
  0.1577171531349024  0.5140605961978854  0.9576458244681545
  0.0580447627386073  0.9203027270933957  0.5060716471684743
  0.1564305906467078  0.8318552107318511  0.1906969562116783
  0.4512696738898967  0.7493635680282961  0.9601194473954909
  0.9859537833503513  0.1807623106610170  0.9485554448164590
  0.0126551796472651  0.0717976081323494  0.1335676703292067
  0.5548357669693745  0.2986641854162517  0.1928628509589036
  0.3712090687504975  0.1361492876148931  0.5852315481890819
  0.3850593886882407  0.7624894489327015  0.5582719014738666
  0.7783094623878232  0.9316738205789742  0.0292241593011540
  0.8244222490485773  0.5196351902466523  0.5614027229740891
  0.9571525730493586  0.7787765431607417  0.5727493581730084
  0.0767839061232757  0.3207540411566944  0.7630991052601157
  0.0150011408204543  0.0915838854646732  0.2649219251194532
  0.8865991410361368  0.4768709211980797  0.4304567413370560
  0.4086500628329184  0.4419309953652508  0.2669916223110812
  0.0385589592440615  0.5616344307089817  0.5748483557260531
  0.7474855677420214  0.7132747813611587  0.1544632742067113
  0.4518385896828855  0.4855493546454485  0.9277368380659861
  0.2635024428611947  0.0470320620477796  0.2239535771844067
  0.2462885472435728  0.3582373885590200  0.1220465231776537
  0.7710021038420060  0.3950488675852383  0.7623646705640770
  0.8418986313991210  0.8011481452027138  0.3858852795141020
  0.9314783438352778  0.1922922246034875  0.5500073687030231
  0.5488201835304437  0.8422373588222068  0.5463381585186682
  0.3598407903216264  0.9853476780271833  0.0848972300015982
  0.3677598178837858  0.6510237217262351  0.2538582432329521
  0.3963438717765394  0.4291901032723439  0.4855208535730937
  0.8983117078552375  0.8038299381916214  0.1677682513716633
  0.0643642696192046  0.3585566936413021  0.4086881198817786
  0.9780768367389453  0.7449223994292015  0.8033919255141636
  0.5332478196577423  0.0750934855031681  0.3062269610274818
  0.2629398578341440  0.4317035490969328  0.9437599167442057
  0.0437298744614903  0.2714785739379663  0.1425460164137179
  0.6596832510978381  0.6746814228176613  0.8705046224811439
  0.5845084368865653  0.3322547310665228  0.7415159187568223
  0.0440667701985774  0.5802811441079760  0.3378369913691838
  0.0209393304287034  0.9177267399357293  0.2245241509567083
  0.1851356281190499  0.5704072325378284  0.4611457797607072
  0.9629273052617268  0.3394108617615265  0.5645235991206768
  0.0878786254958559  0.0647982386479893  0.8187847264255963
  0.5243978317065978  0.4301572876856773  0.3337734963012100
  0.6844322036344425  0.1170229665360376  0.1000134366831666
  0.5309089764612683  0.6945635450867500  0.2488016079062289
  0.9283191935814860  0.6761340292692767  0.2844157260872160
  0.8520630413117620  0.0199169447221775  0.8306403283402526
  0.5696509693982166  0.8582339657555486  0.0645461149944486
  0.0980594474051191  0.3266602965953630  0.9376073139040785
  0.8224902052746850  0.8598453632028248  0.5248691280433594
  0.7615097769365204  0.7566754026860041  0.6844045576587544
  0.8048447354717196  0.2490021044289360  0.1415557282149539
  0.8885711889515922  0.3096823310654785  0.9857510557425849
  0.9592750492333258  0.4189369889989525  0.7198068433342817
  0.3949440734488343  0.1579748260120672  0.1589026613676847
  0.3614575324584642  0.5349905961748153  0.4205510120602483
  0.4413630273463051  0.8314517065374372  0.3986694508437942
  0.3403802585127131  0.4384565627767371  0.6645438439435515
  0.7106587083114955  0.9946591893921894  0.1403695130295036
  0.2357781660346974  0.2332787043514403  0.1629699148612685
  0.8453855403696229  0.0750920320573150  0.0130964017982981
  0.2616569153342974  0.8514995256982691  0.9270513384807232
  0.3400963014840886  0.2457461438320203  0.0172721724862153
  0.6545214565141478 -0.0001668294082196  0.8780796886557222
  0.9963418862094849  0.6135485213567420  0.8580483360804728
  0.8075439729088454  0.4548478610734806  0.0636475591759187
  0.7259147735061241  0.5197627501070973  0.3290583556088821
  0.3487058623374757  0.1365068444870795  0.7140290712823569
  0.5962873189178171  0.1539368859503727  0.0154248969426526
  0.5254041826149956  0.6485697383362428  0.6182426617573421
  0.7531865810953678  0.2843352073588842  0.5114463088551825
  0.6507733479300809  0.5645554762336662  0.1418195243738611
  0.5495281438709690  0.2425473606368351  0.4044262699675364
  0.6175106479773990  0.1213516894140798  0.8921763986605592
  0.1126096479271995  0.1143895582276366  0.5773302004216242
  0.2995817409069025  0.5852999299265725  0.6038150688441463
  0.7591221747118460  0.0485813359554822  0.4564744527165542
  0.6677961363286705  0.9195363830970152  0.5973755251730340
  0.6703642509230644  0.7010588595702751  0.5250274366366287
  0.4456618978486803  0.0245214765413823  0.9122228693438095
  0.1523545242650386  0.4604952309897927  0.6469570396660737
  0.1642468347619260  0.7760405083879961  0.4739284883091383
  0.2057964323014048  0.1188582910751556  0.8336371296678239
  0.1155076587764177  0.4153678289189386  0.2327285307009380
  0.5275345282136336  0.3035981574953681  0.9357003146814189
  0.2370954529515647  0.4986986848426425  0.0933566110738498
  0.8539942998800646  0.0518179507135651  0.2030138393924944
  0.4210417565431063  0.8791756284526661  0.7937561902112175
  0.7371481299944529  0.7374118373825725  0.0036660280118585
  0.0214611986134000  0.4622651848829898  0.0065532569508560
  0.0612333286176980  0.6535482116349294  0.0461502060477282
  0.6817175860404528  0.1946967025239020  0.7221580925087308
  0.7089761388886067  0.9282939044976668  0.7758737106555686
  0.1081677547604259  0.8970289922157759  0.6875389556515867
  0.0713722003947093  0.9448750692580965  0.0237793802504124
  0.1489747104252994  0.9557695451154899  0.3669837521771519
  0.7428068313020789  0.1495278922496448  0.2952578947950301
  0.7424452757624523  0.8040686547897178  0.2992077798658922
  0.7299481770839863  0.6399149767501394  0.3834270190337392
  0.4233571056016081  0.2534342086843464  0.2948629930450299
  0.7085571981085164  0.6040008166384129  0.7259569755363393
  0.3147137619998936  0.2263247892805730  0.4502577139573329
  0.0459165954906199  0.9474005892494499  0.7876917637608687
  0.9341257311316781  0.4492081593438016  0.2155212069868096
  0.8791542530647176  0.2439252107853714  0.3677452850158515
  0.8320207156370045  0.6127081471584395  0.8210559840629544
  0.9410057038986804  0.9094656248854520  0.9525407099798132
  0.2363817873197749  0.4035447865365991  0.3906829709963932
  0.2155971685261209  0.6987388864679480  0.6819283864452554
  0.3619133928518502  0.9577544884009993  0.5562710253467005
  0.5523355007009522  0.8678981455576733  0.8044815870559724
  0.1544657695311403  0.1217964224120313  0.9892741071347423
  0.3048594277711356  0.8130800697239771  0.0634839722160386
  0.5493953039852455  0.5660961950469270  0.4456397478600644
  0.8880130505278427  0.7356868647998526  0.9018735596164101
  0.4596661835791166  0.1944762108511306  0.9253964412018720
  0.4618791303304856  0.5129375725502588  0.1301541159990444
  0.0535038624840079  0.7210482554868396  0.6348869477722264
  0.2034039180627290  0.6208576685499939  0.2101306902726804
  0.2751442069121462  0.2696097058821829  0.7950676560898124
  0.5303793727361450  0.0799350064750568  0.4758175440558107
  0.3026486638905577  0.7035148072707024  0.3870041089446385
  0.3166532140023684  0.8212733013010782  0.7479984479026339
  0.7199083171545291  0.3980095637303957  0.2143628778765060
  0.5975887052728812  0.4483496390739233  0.0327744640424876
  0.1750376809199571  0.9903624301190660  0.6205595396795647
  0.9112716103815464  0.2191022717270802  0.7435310321461818
  0.5645684283893526  0.1905210839716758  0.5748051019214586
  0.1087887473125064  0.2315676475886338  0.5079104469291565
  0.1528854998860889  0.6099254501444871  0.8112936710255559
  0.5475855056504410  0.8810668274884526  0.2313364666365966
  0.4913444271263465  0.4995362703292084  0.7627710154556859
  0.9266543263236585  0.4478862207162376  0.9113573277566994
  0.8608935189823635  0.1197811878634480  0.8940481479730068
  0.8541794148448717  0.9745484755255721  0.4859389969257786
  0.0893077126164050  0.7220641447142071  0.2085712040267139
  0.9414222761824071  0.4708583299875433  0.6013091768894927
  0.3492749985412023  0.7007788225734038  0.0188408460663116
  0.1106862531188931  0.0044459272283106  0.2509209903303827
  0.5784238343643948  0.4579611223907762  0.1626493121349290
  0.7050282245394849  0.0460718655606562  0.5741100645524903
  0.5964886128803807  0.2726077497385519  0.0308426823022752
  0.1330840404307301  0.0746274332276888  0.4577784375629738
  0.9322053034036937  0.8102840858260252  0.2959774988789109
  0.7604833678981462  0.0432323637956454  0.7523584232014484
  0.7843338271687667  0.6998110884997103  0.5767239688453150
  0.2736748371138086  0.8015394461300540  0.6363694795698518
  0.8707704466572711  0.6796250771930877  0.1681635148670576
  0.4790769569087864  0.1227096513194127  0.0253489017571365
  0.2672097991571444  0.1549438424559753  0.0722235288260077
  0.3219103352123917  0.8119895644261088  0.4506341847865206
  0.9364901304430833  0.9921317696117314  0.7458216483738210
  0.6918926422749511  0.2060779186079596  0.1918779338858936
  0.7050804324387979  0.0235792071806161  0.9874635634456461
  0.5562931774266872  0.2191184840880875  0.7015839221814002
  0.1256639504929640  0.0480312663049387  0.0890527188829810
  0.8934444215247561  0.4954728501245521  0.7992918495650497
  0.2142310335131505  0.3656526157609393  0.2727902281091789
  0.3209506704671735  0.4022141603732671  0.8400302987134461
  0.2707915836344009  0.7688885943315099  0.1781443745439991
  0.2715508505803593  0.9763389060910744  0.3334731830931454
  0.3346570113597442  0.4955665304256614  0.0184589114818808
  0.3919838214858154  0.0371262581421144  0.2005425010574219
  0.4445255666524637  0.2327127015901731  0.5449456611175887
  0.4305642869375365  0.3321058796487409  0.1960000938946211
  0.9347681076632995  0.9945239785547608  0.2844509338038622
  0.4130530475042618  0.8669395912627981  0.1066958412006905
  0.0779414390840235  0.5068797919180511  0.4307491237977735
  0.0786195914387060  0.5113024221839017  0.8538343634167151
  0.5636047708668225  0.4679312106816038  0.8620048106082080
  0.2907500949373359  0.9910308836299017  0.6572149974407857
  0.5062707465413443  0.1783573950225055  0.2259216335177545
  0.9262024155924879  0.5269841688392407  0.3198730314868247
  0.6021412487293311  0.5305941968650412  0.3268979443021796
  0.3397179899020219  0.1897065946373242  0.9022853724635364
  0.1790800111528510  0.9140808102385409  0.5234280986038272
  0.0280192463634829  0.2250252703827614  0.4105115125027584
  0.5465986662759584  0.9429380694071479  0.9097455226053877
  0.5958995566993506  0.9529580071259396  0.7245909203815363
  0.7489682964709357  0.4941428665226049  0.6743431264221859
  0.1632846149907509  0.8326576545102292  0.3327165182447253
  0.9383151923018955  0.3627017823020394  0.4390099267144239
  0.5016264982277044  0.7500072479925578  0.4736093782816139
  0.8643240017908189  0.3400947613052643  0.6963323910469131
  0.3398138333866638  0.6337830795589721  0.4882861931934011
  0.6768727293124558  0.2160238542820073  0.8476083647104090
  0.2944191130822954  0.1039648898696719  0.4924932231797355
  0.7703554668735705  0.8363756314479747  0.1837514710415212
  0.7541351902162602  0.5223312442982215  0.2077562154093152
  0.1715347983450417  0.6761576623550759  0.3871736923891240
  0.0182043579139407  0.8575931355849002  0.8647604125429467
  0.8134940832189148  0.4057289060400173  0.9439355440221571
  0.9909590104253297  0.0775290728642790  0.5635689506362277
  0.2536175045051443  0.9451040935680644  0.1431795512759212
  0.5785527466582895  0.5932060930065158  0.7241951081937571
  0.0057844970990259  0.9020192120042011  0.6177011671264724
  0.1253606913417962  0.2433969296818157  0.8486610872136606
  0.5203980643357270  0.4126961780830403  0.6789139037723464
  0.2728991856632860  0.2656578260833009  0.5624436014267971
  0.2518429149632808  0.9750089293253875  0.9547780700438467
  0.7711531154952171  0.1771359707528478  0.0358865645528692
  0.8890946848837362  0.6155118217016743  0.9369190849665553
  0.8735306578369019  0.1651481178985384  0.2519997651973341
  0.5207454280262903  0.4397124419576751  0.4590424461228138
  0.5929440119995811  0.3291033506748007  0.3162703465315610
  0.6401237750727731  0.5689124246467149  0.5372686182591819
  0.6940791317977887  0.6931254011855816  0.2757088740787879
  0.4308780540216373  0.7671211823587933  0.2859669372656016
  0.1135609652616194  0.7756669173761825  0.7281362014832702
  0.7667312158206460  0.7491319467109370  0.8727017195346879
  0.5915851797246547  0.7819529328779845  0.1686538304474753
  0.8954981937819433  0.7526276346732561  0.7011640437414032
  0.0860059794730030  0.2304483900570490  0.0210885032681068
  0.8301754142493480  0.9180646379374516  0.8895391724389777
  0.6854474555586973  0.8514787943140524  0.0044967331137108
  0.7409306216488549  0.0244658851591093  0.2613508002270216
  0.2227986291281285  0.5270546208351775  0.7339025989368394
  0.7582802157156717  0.4211630514427849  0.5127918603881280
  0.3832165622600471  0.2602109838255589  0.7256712519987468
  0.9745150329763351  0.9557346799635514  0.1095058502828826
  0.4356652750301002  0.5733653477189085  0.3336525573356441
  0.1276966248155660  0.1994279123905766  0.2048139003006884
  0.0362368985019029  0.8039896091326373  0.4666476211997007
  0.7593903345129619  0.2990659485132030  0.3835193202263298
  0.4432792884188947  0.7153478475194400  0.6984083555226422
  0.6380685172808692  0.8633856076616152  0.3246338806200158
  0.3916083747795140  0.8542076796388596  0.9119657825624254
  0.1173210880454013  0.8282386636127523  0.0596506705184627
  0.8431338010307474  0.1680541492538734  0.4634219031221216
  0.7020779320558292  0.8491954532048337  0.4864375655731628
  0.0279465432366432  0.2296819553495282  0.6882592807928970
  0.7198749174622208  0.5613648074141823  0.8466578052965574
  0.2379090230776109  0.3215572665533780  0.9972871073503007
  0.4700103397412235  0.6606161760293536  0.8694467809102158
  0.0731348647053447  0.6845118740361582  0.9279469916006282
  0.5883220748364145  0.9633339442340166  0.1376068247261005
  0.4476347298859741  0.3747925395113884  0.9878248647712292
  0.9018379339469748  0.8009501910588394  0.0032121034641243
  0.6203025469683856  0.1412676489217788  0.3705269765367027
  0.2440050650378348  0.5895607797727679  0.8981832876775447
  0.2550005833401433  0.4685466342775697  0.5712186443674385
  0.5036648694079200  0.1171530039782026  0.8409784501843192
  0.4103045933917944  0.5282311233375315  0.6147850725366014
  0.2251330694965673  0.8854751318975216  0.8023478973111069
  0.0397716081771486  0.0676577569027457  0.9304473721025159
  0.2539243107849787  0.5267584318922550  0.3611722954306485
  0.9426061066238551  0.1476291843562678  0.0647511433638545
  0.1909759384504154  0.3464143125612678  0.7011898684350694
  0.3119093264076161  0.1942932520523292  0.2557679950184615
  0.2909941868371577  0.7201693397843210  0.8096076003109999
  0.8505926471239341  0.6746768325817171  0.3864591616543436
  0.0989183122704897  0.5348809250607363  0.2287460746560699
  0.9872207829972788  0.5616147046024463  0.0702171073262586
  0.1924367648342668  0.2487982786316663  0.4146966782060377
  0.2260801342547462  0.1632156425448472  0.7191813014208418
  0.9670236411779460  0.3316785043793296  0.8849861161702189
  0.8425549535224610  0.3696593470094948  0.2559010118186953
  0.5467318765594901  0.9608103656248045  0.4340126875821481
  0.7027019719570682  0.5255746146326010  0.0335011986578898
  0.3859106350101361  0.9963950342509499  0.7977729109029367
  0.5171745119492228  0.5473658953847672  0.0212990696242746
  0.6204999675988356  0.2833805343565536  0.5071347316343927
  0.6058048248053383  0.7499461305569491  0.6283135351959551
  0.2974172711694995  0.5376969648311770  0.1918672001254195
  0.0878431654380377  0.3509071067759791  0.5421003859509478
  0.7793740553974855  0.8845639599668698  0.6517408239559060
  0.4560788539235481  0.6399040227960580  0.1618993317838064
  0.1817162357566294  0.6270369757486539  0.0769227461541789
  0.6278753477892828  0.6822785660509931  0.9857270073332415
  0.6953933610853785  0.3201704582947789  0.6866816076497955
  0.4361582374196951  0.8686376097789638  0.6093776992691652
  0.3621207086615180  0.3744809314475805  0.3713041458547344
  0.1461070082224185  0.6799339593188199  0.5674743609225840
  0.8486972003084421  0.1679121636027597  0.6417824761630569
  0.0145663498193113  0.3639112519748655  0.2700345361510872
  0.9517767766969590  0.3785803780267897  0.0703531200697531
  0.1206378321288796  0.3738742026704563  0.1180617965029362
  0.4415369178032212  0.1102191265494378  0.3876411015807452
  0.9477608186289962  0.6430172999794405  0.5383337185981978
  0.0043408250405954  0.1070780722637001  0.7348229447688527
  0.0256784414339955  0.6163068644873997  0.6952503454669936
  0.7353830147916794  0.3559605926221093  0.0968032210250052
  0.4536576663798772  0.0440809464761735  0.5789416972624544
 
  0.00000000E+00  0.00000000E+00  0.00000000E+00
  0.00000000E+00  0.00000000E+00  0.00000000E+00
  0.00000000E+00  0.00000000E+00  0.00000000E+00
  0.00000000E+00  0.00000000E+00  0.00000000E+00
  0.00000000E+00  0.00000000E+00  0.00000000E+00
  0.00000000E+00  0.00000000E+00  0.00000000E+00
  0.00000000E+00  0.00000000E+00  0.00000000E+00
  0.00000000E+00  0.00000000E+00  0.00000000E+00
  0.00000000E+00  0.00000000E+00  0.00000000E+00
  0.00000000E+00  0.00000000E+00  0.00000000E+00
  0.00000000E+00  0.00000000E+00  0.00000000E+00
  0.00000000E+00  0.00000000E+00  0.00000000E+00
  0.00000000E+00  0.00000000E+00  0.00000000E+00
  0.00000000E+00  0.00000000E+00  0.00000000E+00
  0.00000000E+00  0.00000000E+00  0.00000000E+00
  0.00000000E+00  0.00000000E+00  0.00000000E+00
  0.00000000E+00  0.00000000E+00  0.00000000E+00
  0.00000000E+00  0.00000000E+00  0.00000000E+00
  0.00000000E+00  0.00000000E+00  0.00000000E+00
  0.00000000E+00  0.00000000E+00  0.00000000E+00
  0.00000000E+00  0.00000000E+00  0.00000000E+00
  0.00000000E+00  0.00000000E+00  0.00000000E+00
  0.00000000E+00  0.00000000E+00  0.00000000E+00
  0.00000000E+00  0.00000000E+00  0.00000000E+00
  0.00000000E+00  0.00000000E+00  0.00000000E+00
  0.00000000E+00  0.00000000E+00  0.00000000E+00
  0.00000000E+00  0.00000000E+00  0.00000000E+00
  0.00000000E+00  0.00000000E+00  0.00000000E+00
  0.00000000E+00  0.00000000E+00  0.00000000E+00
  0.00000000E+00  0.00000000E+00  0.00000000E+00
  0.00000000E+00  0.00000000E+00  0.00000000E+00
  0.00000000E+00  0.00000000E+00  0.00000000E+00
  0.00000000E+00  0.00000000E+00  0.00000000E+00
  0.00000000E+00  0.00000000E+00  0.00000000E+00
  0.00000000E+00  0.00000000E+00  0.00000000E+00
  0.00000000E+00  0.00000000E+00  0.00000000E+00
  0.00000000E+00  0.00000000E+00  0.00000000E+00
  0.00000000E+00  0.00000000E+00  0.00000000E+00
  0.00000000E+00  0.00000000E+00  0.00000000E+00
  0.00000000E+00  0.00000000E+00  0.00000000E+00
  0.00000000E+00  0.00000000E+00  0.00000000E+00
  0.00000000E+00  0.00000000E+00  0.00000000E+00
  0.00000000E+00  0.00000000E+00  0.00000000E+00
  0.00000000E+00  0.00000000E+00  0.00000000E+00
  0.00000000E+00  0.00000000E+00  0.00000000E+00
  0.00000000E+00  0.00000000E+00  0.00000000E+00
  0.00000000E+00  0.00000000E+00  0.00000000E+00
  0.00000000E+00  0.00000000E+00  0.00000000E+00
  0.00000000E+00  0.00000000E+00  0.00000000E+00
  0.00000000E+00  0.00000000E+00  0.00000000E+00
  0.00000000E+00  0.00000000E+00  0.00000000E+00
  0.00000000E+00  0.00000000E+00  0.00000000E+00
  0.00000000E+00  0.00000000E+00  0.00000000E+00
  0.00000000E+00  0.00000000E+00  0.00000000E+00
  0.00000000E+00  0.00000000E+00  0.00000000E+00
  0.00000000E+00  0.00000000E+00  0.00000000E+00
  0.00000000E+00  0.00000000E+00  0.00000000E+00
  0.00000000E+00  0.00000000E+00  0.00000000E+00
  0.00000000E+00  0.00000000E+00  0.00000000E+00
  0.00000000E+00  0.00000000E+00  0.00000000E+00
  0.00000000E+00  0.00000000E+00  0.00000000E+00
  0.00000000E+00  0.00000000E+00  0.00000000E+00
  0.00000000E+00  0.00000000E+00  0.00000000E+00
  0.00000000E+00  0.00000000E+00  0.00000000E+00
  0.00000000E+00  0.00000000E+00  0.00000000E+00
  0.00000000E+00  0.00000000E+00  0.00000000E+00
  0.00000000E+00  0.00000000E+00  0.00000000E+00
  0.00000000E+00  0.00000000E+00  0.00000000E+00
  0.00000000E+00  0.00000000E+00  0.00000000E+00
  0.00000000E+00  0.00000000E+00  0.00000000E+00
  0.00000000E+00  0.00000000E+00  0.00000000E+00
  0.00000000E+00  0.00000000E+00  0.00000000E+00
  0.00000000E+00  0.00000000E+00  0.00000000E+00
  0.00000000E+00  0.00000000E+00  0.00000000E+00
  0.00000000E+00  0.00000000E+00  0.00000000E+00
  0.00000000E+00  0.00000000E+00  0.00000000E+00
  0.00000000E+00  0.00000000E+00  0.00000000E+00
  0.00000000E+00  0.00000000E+00  0.00000000E+00
  0.00000000E+00  0.00000000E+00  0.00000000E+00
  0.00000000E+00  0.00000000E+00  0.00000000E+00
  0.00000000E+00  0.00000000E+00  0.00000000E+00
  0.00000000E+00  0.00000000E+00  0.00000000E+00
  0.00000000E+00  0.00000000E+00  0.00000000E+00
  0.00000000E+00  0.00000000E+00  0.00000000E+00
  0.00000000E+00  0.00000000E+00  0.00000000E+00
  0.00000000E+00  0.00000000E+00  0.00000000E+00
  0.00000000E+00  0.00000000E+00  0.00000000E+00
  0.00000000E+00  0.00000000E+00  0.00000000E+00
  0.00000000E+00  0.00000000E+00  0.00000000E+00
  0.00000000E+00  0.00000000E+00  0.00000000E+00
  0.00000000E+00  0.00000000E+00  0.00000000E+00
  0.00000000E+00  0.00000000E+00  0.00000000E+00
  0.00000000E+00  0.00000000E+00  0.00000000E+00
  0.00000000E+00  0.00000000E+00  0.00000000E+00
  0.00000000E+00  0.00000000E+00  0.00000000E+00
  0.00000000E+00  0.00000000E+00  0.00000000E+00
  0.00000000E+00  0.00000000E+00  0.00000000E+00
  0.00000000E+00  0.00000000E+00  0.00000000E+00
  0.00000000E+00  0.00000000E+00  0.00000000E+00
  0.00000000E+00  0.00000000E+00  0.00000000E+00
  0.00000000E+00  0.00000000E+00  0.00000000E+00
  0.00000000E+00  0.00000000E+00  0.00000000E+00
  0.00000000E+00  0.00000000E+00  0.00000000E+00
  0.00000000E+00  0.00000000E+00  0.00000000E+00
  0.00000000E+00  0.00000000E+00  0.00000000E+00
  0.00000000E+00  0.00000000E+00  0.00000000E+00
  0.00000000E+00  0.00000000E+00  0.00000000E+00
  0.00000000E+00  0.00000000E+00  0.00000000E+00
  0.00000000E+00  0.00000000E+00  0.00000000E+00
  0.00000000E+00  0.00000000E+00  0.00000000E+00
  0.00000000E+00  0.00000000E+00  0.00000000E+00
  0.00000000E+00  0.00000000E+00  0.00000000E+00
  0.00000000E+00  0.00000000E+00  0.00000000E+00
  0.00000000E+00  0.00000000E+00  0.00000000E+00
  0.00000000E+00  0.00000000E+00  0.00000000E+00
  0.00000000E+00  0.00000000E+00  0.00000000E+00
  0.00000000E+00  0.00000000E+00  0.00000000E+00
  0.00000000E+00  0.00000000E+00  0.00000000E+00
  0.00000000E+00  0.00000000E+00  0.00000000E+00
  0.00000000E+00  0.00000000E+00  0.00000000E+00
  0.00000000E+00  0.00000000E+00  0.00000000E+00
  0.00000000E+00  0.00000000E+00  0.00000000E+00
  0.00000000E+00  0.00000000E+00  0.00000000E+00
  0.00000000E+00  0.00000000E+00  0.00000000E+00
  0.00000000E+00  0.00000000E+00  0.00000000E+00
  0.00000000E+00  0.00000000E+00  0.00000000E+00
  0.00000000E+00  0.00000000E+00  0.00000000E+00
  0.00000000E+00  0.00000000E+00  0.00000000E+00
  0.00000000E+00  0.00000000E+00  0.00000000E+00
  0.00000000E+00  0.00000000E+00  0.00000000E+00
  0.00000000E+00  0.00000000E+00  0.00000000E+00
  0.00000000E+00  0.00000000E+00  0.00000000E+00
  0.00000000E+00  0.00000000E+00  0.00000000E+00
  0.00000000E+00  0.00000000E+00  0.00000000E+00
  0.00000000E+00  0.00000000E+00  0.00000000E+00
  0.00000000E+00  0.00000000E+00  0.00000000E+00
  0.00000000E+00  0.00000000E+00  0.00000000E+00
  0.00000000E+00  0.00000000E+00  0.00000000E+00
  0.00000000E+00  0.00000000E+00  0.00000000E+00
  0.00000000E+00  0.00000000E+00  0.00000000E+00
  0.00000000E+00  0.00000000E+00  0.00000000E+00
  0.00000000E+00  0.00000000E+00  0.00000000E+00
  0.00000000E+00  0.00000000E+00  0.00000000E+00
  0.00000000E+00  0.00000000E+00  0.00000000E+00
  0.00000000E+00  0.00000000E+00  0.00000000E+00
  0.00000000E+00  0.00000000E+00  0.00000000E+00
  0.00000000E+00  0.00000000E+00  0.00000000E+00
  0.00000000E+00  0.00000000E+00  0.00000000E+00
  0.00000000E+00  0.00000000E+00  0.00000000E+00
  0.00000000E+00  0.00000000E+00  0.00000000E+00
  0.00000000E+00  0.00000000E+00  0.00000000E+00
  0.00000000E+00  0.00000000E+00  0.00000000E+00
  0.00000000E+00  0.00000000E+00  0.00000000E+00
  0.00000000E+00  0.00000000E+00  0.00000000E+00
  0.00000000E+00  0.00000000E+00  0.00000000E+00
  0.00000000E+00  0.00000000E+00  0.00000000E+00
  0.00000000E+00  0.00000000E+00  0.00000000E+00
  0.00000000E+00  0.00000000E+00  0.00000000E+00
  0.00000000E+00  0.00000000E+00  0.00000000E+00
  0.00000000E+00  0.00000000E+00  0.00000000E+00
  0.00000000E+00  0.00000000E+00  0.00000000E+00
  0.00000000E+00  0.00000000E+00  0.00000000E+00
  0.00000000E+00  0.00000000E+00  0.00000000E+00
  0.00000000E+00  0.00000000E+00  0.00000000E+00
  0.00000000E+00  0.00000000E+00  0.00000000E+00
  0.00000000E+00  0.00000000E+00  0.00000000E+00
  0.00000000E+00  0.00000000E+00  0.00000000E+00
  0.00000000E+00  0.00000000E+00  0.00000000E+00
  0.00000000E+00  0.00000000E+00  0.00000000E+00
  0.00000000E+00  0.00000000E+00  0.00000000E+00
  0.00000000E+00  0.00000000E+00  0.00000000E+00
  0.00000000E+00  0.00000000E+00  0.00000000E+00
  0.00000000E+00  0.00000000E+00  0.00000000E+00
  0.00000000E+00  0.00000000E+00  0.00000000E+00
  0.00000000E+00  0.00000000E+00  0.00000000E+00
  0.00000000E+00  0.00000000E+00  0.00000000E+00
  0.00000000E+00  0.00000000E+00  0.00000000E+00
  0.00000000E+00  0.00000000E+00  0.00000000E+00
  0.00000000E+00  0.00000000E+00  0.00000000E+00
  0.00000000E+00  0.00000000E+00  0.00000000E+00
  0.00000000E+00  0.00000000E+00  0.00000000E+00
  0.00000000E+00  0.00000000E+00  0.00000000E+00
  0.00000000E+00  0.00000000E+00  0.00000000E+00
  0.00000000E+00  0.00000000E+00  0.00000000E+00
  0.00000000E+00  0.00000000E+00  0.00000000E+00
  0.00000000E+00  0.00000000E+00  0.00000000E+00
  0.00000000E+00  0.00000000E+00  0.00000000E+00
  0.00000000E+00  0.00000000E+00  0.00000000E+00
  0.00000000E+00  0.00000000E+00  0.00000000E+00
  0.00000000E+00  0.00000000E+00  0.00000000E+00
  0.00000000E+00  0.00000000E+00  0.00000000E+00
  0.00000000E+00  0.00000000E+00  0.00000000E+00
  0.00000000E+00  0.00000000E+00  0.00000000E+00
  0.00000000E+00  0.00000000E+00  0.00000000E+00
  0.00000000E+00  0.00000000E+00  0.00000000E+00
  0.00000000E+00  0.00000000E+00  0.00000000E+00
  0.00000000E+00  0.00000000E+00  0.00000000E+00
  0.00000000E+00  0.00000000E+00  0.00000000E+00
  0.00000000E+00  0.00000000E+00  0.00000000E+00
  0.00000000E+00  0.00000000E+00  0.00000000E+00
  0.00000000E+00  0.00000000E+00  0.00000000E+00
  0.00000000E+00  0.00000000E+00  0.00000000E+00
  0.00000000E+00  0.00000000E+00  0.00000000E+00
  0.00000000E+00  0.00000000E+00  0.00000000E+00
  0.00000000E+00  0.00000000E+00  0.00000000E+00
  0.00000000E+00  0.00000000E+00  0.00000000E+00
  0.00000000E+00  0.00000000E+00  0.00000000E+00
  0.00000000E+00  0.00000000E+00  0.00000000E+00
  0.00000000E+00  0.00000000E+00  0.00000000E+00
  0.00000000E+00  0.00000000E+00  0.00000000E+00
  0.00000000E+00  0.00000000E+00  0.00000000E+00
  0.00000000E+00  0.00000000E+00  0.00000000E+00
  0.00000000E+00  0.00000000E+00  0.00000000E+00
  0.00000000E+00  0.00000000E+00  0.00000000E+00
  0.00000000E+00  0.00000000E+00  0.00000000E+00
  0.00000000E+00  0.00000000E+00  0.00000000E+00
  0.00000000E+00  0.00000000E+00  0.00000000E+00
  0.00000000E+00  0.00000000E+00  0.00000000E+00
  0.00000000E+00  0.00000000E+00  0.00000000E+00
  0.00000000E+00  0.00000000E+00  0.00000000E+00
  0.00000000E+00  0.00000000E+00  0.00000000E+00
  0.00000000E+00  0.00000000E+00  0.00000000E+00
  0.00000000E+00  0.00000000E+00  0.00000000E+00
  0.00000000E+00  0.00000000E+00  0.00000000E+00
  0.00000000E+00  0.00000000E+00  0.00000000E+00
  0.00000000E+00  0.00000000E+00  0.00000000E+00
  0.00000000E+00  0.00000000E+00  0.00000000E+00
  0.00000000E+00  0.00000000E+00  0.00000000E+00
  0.00000000E+00  0.00000000E+00  0.00000000E+00
  0.00000000E+00  0.00000000E+00  0.00000000E+00
  0.00000000E+00  0.00000000E+00  0.00000000E+00
  0.00000000E+00  0.00000000E+00  0.00000000E+00