Amorphous Sb                            
   1.00000000000000     
    20.5671579077798057    0.0000000000000000    0.0000000000000000
     0.0000000000000000   20.5671579077798057    0.0000000000000000
     0.0000000000000000    0.0000000000000000   20.5671579077798057
   Si   Sb
    45   255
Direct
  0.7440627097252674  0.1445470977180393  0.8659230779530125
  0.8865417376039715  0.7443506954676053  0.8811544521733918
  0.9313433885630007  0.0048980608246305  0.2977451756114121
  0.3982128958578351  0.3764406482652741  0.7578578398224949
  0.7109523087546078  0.7897401909844222  0.7888915436445083
  0.6626747728168627  0.2143633206384874  0.9161457440187389
  0.4671299406845490  0.5990665766079168  0.9848504741623437
  0.8587906240841832  0.2584413665579110  0.4987132710847449
  0.4820933675050253  0.3924522130591894  0.4177889454112206
  0.1081425857465024  0.9256919188495758  0.8038427723577193
  0.2197753884013519  0.3525061101336001  0.1519553675407928
  0.2306684412248832  0.6977070548609760  0.5282355075795001
  0.3539927510412764  0.8072730043425397  0.3006109335182096
  0.7567671041943657  0.3302652628291400  0.6266289110357416
  0.1905579150585408  0.4106791955693291  0.6907446812642696
  0.1367176038006809  0.2507901833911806  0.3082626664349639
  0.5979165174574920  0.1634884073711387  0.0004741862399472
  0.0063048701593876  0.5080634215130153  0.3137692308170072
  0.0216638783439809  0.3437153631640035  0.9353430012328569
  0.3913841021852421  0.3090161842516808  0.1901243796348744
  0.0475462966045498  0.7112640698493293  0.3188538429523301
  0.6151134448452489  0.3889488952804132  0.8380520787252396
  0.5317438313431996  0.5173236991493283  0.7249448613840630
  0.9808290649852719  0.6180094590563627  0.2964049664051145
  0.1018335996883152  0.8321049084271139  0.8711917040714076
  0.8270563771255393  0.5314436367939847  0.5059329963298770
  0.9013030582258919  0.3402140733379776  0.9365564457471750
  0.8284984209959138  0.0634661079878704  0.8434581699870053
  0.2987067069997131  0.8296553583191100  0.8229733560278710
  0.6607994289533269  0.7234921621476643  0.2193382370343762
  0.9393457716689563  0.6321859534302324  0.1909702408972486
  0.1949701535698732  0.7742684299991333  0.8341068853532954
  0.8923550375861006  0.7845986665355483  0.0527211118921108
  0.1752411748842627  0.0608827546358739  0.1697622023689283
  0.7370098015300460  0.6828744404831769  0.1493962191578768
  0.0713407252747839  0.3475705814747457  0.3185235165014956
  0.2899704175977795  0.0718927284864554  0.8709880321268062
  0.3171777381147613  0.9252579816231365  0.8915102255861154
  0.5255539296931767  0.1438813495587118  0.3815856292375866
  0.3794590136873635  0.2647706378193966  0.0820527137599298
  0.4964966828797728  0.7776290317734937  0.1166096463322006
  0.6541360843737690  0.6271992507575328  0.7036625129071603
  0.2873568832646270  0.7513196702507169  0.6188991448940662
  0.5018347643551516  0.1281897243551078  0.9416308863126396
  0.5064007715717000  0.7302550549881787  0.8563055754353128
  0.9827525157606464  0.2508409198524663  0.4556987868924979
  0.5833828788196346  0.3934451966390572  0.7032082726279189
  0.7580845057299034  0.8113335205541263  0.4981350077606190
  0.3568447286759794  0.5707454654250602  0.9149090913427608
  0.3711719563663005  0.9143334485718351  0.3775318178138269
  0.7643674381907777  0.9178316481370089  0.9827143216463320
  0.3031288899265540  0.2250086564505245  0.2518529072973266
  0.3605333369322971  0.0163572274653763  0.4792797164532366
  0.3921915034196934  0.5799883821179876  0.5007354463075026
  0.1878356627282284  0.4738187118184103  0.4056534280440839
  0.5341578042604280  0.9862203986771026  0.1054299093065300
  0.8696348293326679  0.0295948324940220  0.9690938766799151
  0.5880539850589742  0.5724633162756002  0.9210086862393997
  0.7710025659111382  0.9728177441879444  0.7606243199221714
  0.8907253317639715  0.4052855668021509  0.0480123673299758
  0.3915826286979137  0.0492774536022365  0.2817440933491486
  0.6706152937363771  0.2989877689389059  0.1066290967266679
  0.0474572202020734  0.2594177484485856  0.8322554762621869
  0.4192290808577923  0.5179723148573125  0.2548351803099340
  0.2407961595403280  0.4538206608903183  0.5432278526846710
  0.0775766632864764  0.2826542150102688  0.0322615069545075
  0.0353482844018936  0.9896192611063733  0.2180186100067464
  0.3539947467382412  0.3680363939554416  0.4332976445076607
  0.2863001288518796  0.1760263367087862  0.6450065166836667
  0.7385906793581026  0.3045599438243158  0.9807514644035384
  0.5099910339274618  0.6033624373976804  0.4370838264280384
  0.0196495262513197  0.1634892808122689  0.7132097464042408
  0.5667791151421715  0.0936441564012135  0.5756553360340426
  0.3854366284418805  0.1482987255192625  0.1399663225552119
  0.4407689631113730  0.4429215753114566  0.9732649984536695
  0.4952169673045581  0.9263443645367194  0.9611702962929229
  0.5401593130001516  0.1366124957368732  0.2539423826321559
  0.3928142016830305  0.9641807426894968  0.6743207928312239
  0.8455078594868642  0.6011604001858915  0.3193932680864809
  0.1936696384781412  0.2608463869418173  0.9488417427393758
  0.5928649975024476  0.4410745259598123  0.9820730738175082
  0.2258130090633874  0.9543998555742395  0.7513619308762868
  0.7528111567776666  0.5849010277062980  0.8790304629475052
  0.7281378072465872  0.4515831561718071  0.6924460642960250
  0.9545231957797436  0.1288275595850703  0.8780135776077577
  0.9034183847566690  0.8602617551696409  0.5151364334109942
  0.1986273856349608  0.9747357909677900  0.4534500879065667
  0.2118130589885285  0.3012953632288267  0.4975520875064148
  0.5950202502601879  0.5554962620090986  0.2757712769373597
  0.1006578456602149  0.5968726545656260  0.7482961714692747
  0.8436675144102811  0.9555406952123963  0.6363117622347191
  0.5576644054307441  0.1239188230437152  0.7379891823128270
  0.5096646654622198  0.9457832264103028  0.3363652936876134
  0.7598738336258221  0.7927556752734400  0.0768399976474920
  0.6742850974094134  0.1856320762890387  0.2742895279744768
  0.1889805648741041  0.8243737891387571  0.4774828447651127
  0.9842990177979983  0.3531614081987530  0.1443516316663281
  0.7822858231974641  0.6010072721705465  0.0293432454903334
  0.9236019127876257  0.9601935145868497  0.8379402066342804
  0.0918637835681339  0.1117504827069114  0.2685457726591190
  0.6027138024831865  0.0056586754166895  0.2334745006525322
  0.9761153436467245  0.5120248895568904  0.0043686794946156
  0.5131420139188982  0.7294356047539335  0.9828514788045950
  0.8075119129983636  0.1095628026669742  0.4216358249967808
  0.3137197995038654  0.1621056967105850  0.9605746637391184
  0.5584715696322953  0.7853590820992524  0.3478980234586206
  0.2672916891752988  0.5498484599134247  0.2218047508198305
  0.3976170030775885  0.9628635482692730  0.1672486392724745
  0.6408138086374781  0.3423722183931831  0.2688194261469264
  0.8548329877514224  0.5286216428449148  0.7150698457683814
  0.6590696658794943  0.8982034846071451  0.3628735187119535
  0.3301948937303833  0.6876915725766878  0.2424164381237328
  0.0707562549530400  0.7939645179203806  0.9981603907373978
  0.9124080756404380  0.4440532262751096  0.2379396421293657
  0.3727064128975929  0.6509018997478274  0.6377173646529154
  0.1963202661325391  0.1385453080452379  0.7994770690595664
  0.6440799519962602  0.0524737328170623  0.0419959137652959
  0.1233993863304039  0.0535896635441867  0.7121588884442140
  0.2217424026628545  0.4643116213968723  0.8812496588311818
  0.5746292376865727  0.2348590262594221  0.5993984318854821
  0.8269020755569536  0.2832567836606265  0.1451241418308701
  0.0456711350202603  0.7313271935553868  0.6133575271280820
  0.4880395903996255  0.4450842753243680  0.8355085175380014
  0.2723022488711238  0.2688020667721491  0.7924687305020299
  0.0845725603346377  0.3656886893977451  0.4490792817927711
  0.8515582345032419  0.0727965626193417  0.2121314547021151
  0.7619669845219796  0.7888350559921692  0.3591699796788045
  0.1740413763136435  0.2327600595446527  0.1870432259882261
  0.9403567818666596  0.8556445932947616  0.9589281040716336
  0.0647430427821557  0.0203922879967140  0.5561140699749063
  0.8029179519917069  0.9622162126492992  0.4574908625190103
  0.1613133787181768  0.2537744055919187  0.6245931174611764
  0.6452584461490766  0.8496941991437319  0.2231618802066556
  0.0549128869222747  0.6659930297144927  0.9282894547793713
  0.2919081912679581  0.3425222533745512  0.6630261552222178
  0.1085803189674983  0.4262726344456505  0.5948110254893113
  0.3157646829017882  0.6663318012771251  0.7707428963497049
  0.4184202669527912  0.0581346254351370  0.0122548648286753
  0.0899188400817794  0.0982942470836890  0.0699244542053263
  0.2901094514860915  0.9879032310519690  0.0511074131082199
  0.8693283720963374  0.8233857454988965  0.6914195482397528
  0.0040489057648418  0.9329737289764045  0.3920493441030634
  0.2035630888717997  0.7358329162858137  0.1726349691160576
  0.9218060791017265  0.4251976087885527  0.6305166486796822
  0.7484376244451229  0.3614786683774196  0.8125933943026636
  0.0191234203546060  0.8652289817863056  0.7147715488292695
  0.7324406511809293  0.1721193990026375  0.1312841919500745
  0.0599666539496329  0.7863736306047820  0.2024373204884873
  0.1196197107318024  0.1410751699654363  0.9251157965011507
  0.3906837913837045  0.4441390531617486  0.5628351396546214
  0.3976485621388595  0.4993130747184702  0.6945230949059791
  0.8127175005703426  0.6752624499206500  0.7942484507432138
  0.9450674917097855  0.9530815701995696  0.0755704824364784
  0.2503918539751866  0.1262867159358247  0.0879632162575254
  0.5567685593644491  0.6750561240011460  0.1679729662092979
  0.7081064914023312  0.6645824849451334  0.4984076452917691
  0.0382216080922137  0.7443195415881112  0.4422940769919377
  0.4050973692218179  0.1503625840972168  0.7328578807550720
  0.2160186443793701  0.9835265082344470  0.9275516858412900
  0.4125198069311585  0.2130321733825503  0.3705490699324780
  0.7799300039469206  0.8810174002973599  0.1840457726947834
  0.5130830361544449  0.6966938531450069  0.7056330671182649
  0.1840960733835009  0.9335960806925788  0.1294275367417482
  0.9335274025011632  0.2149689765616111  0.9955567270774037
  0.6314440565960326  0.6640884235094365  0.0236770635982827
  0.9711427711312437  0.4554942847568866  0.4259625295567012
  0.6919275642656237  0.9430635396251716  0.6147831168932590
  0.3610408253629859  0.7405239147225647  0.1076936186026809
  0.2448297067345508  0.5845472414822056  0.5987852156499625
  0.5592790529576781  0.9805602035216384  0.6678543445722246
  0.6250334214253587  0.8805237083682123  0.5060402708139079
  0.4619499572818256  0.8487887420939138  0.2352345172340811
  0.2959653232084487  0.8609596783427330  0.1979874015680900
  0.8874755590382640  0.2111016069015142  0.2629033987253627
  0.3312531497963601  0.5044410676396792  0.3840467648011209
  0.4743934999314933  0.7779019502532987  0.5833616847545237
  0.2604039369984181  0.1117051460310919  0.4302389156058317
  0.2520114495623646  0.0864989758044009  0.2846641563285375
  0.3877570404662301  0.0071321906020296  0.8249339658925896
  0.0469426224743238  0.0054725835695618  0.8910347730226016
  0.8294513296974760  0.9210953664535605  0.3250140628559300
  0.7333864981363173  0.7965630220483715  0.6636049699722771
  0.9710639928616904  0.9959753889182431  0.6857038710069279
  0.1644373614113584  0.6487107564736032  0.3136029073779479
  0.2990262252862140  0.6605703036652061  0.4163286334646601
  0.0405608111464707  0.1751864022150920  0.5639216111774208
  0.1598715351784461  0.3545385638943047  0.8103912502955924
  0.3516585455530095  0.2164245229772636  0.5163613371515060
  0.4733404288214317  0.6461536394391275  0.2947481406275365
  0.5803839851883780  0.7325998256387710  0.4886294833516128
  0.1897027200101809  0.5596318253849334  0.0289121194596858
  0.0808000108571772  0.0588465180461390  0.4201224879873299
  0.2295270302721757  0.5259321938603777  0.7453519159038307
  0.8658015706533515  0.1383254053260953  0.7282121539480616
  0.1390346583874975  0.4109974857192027  0.0738281936980398
  0.6276215683377909  0.6923894142822201  0.8168908522701729
  0.9192588943463648  0.7993381219542586  0.3778860221749060
  0.0777923341186189  0.9667730795497816  0.0276396322085485
  0.5304294223328850  0.2808430032676565  0.4581267383305461
  0.8412630146697946  0.6547028315239456  0.4464168828256561
  0.9239887580651386  0.0261656471005439  0.5017841659021768
  0.3280210220817339  0.8177337154305852  0.5119087709866110
  0.7331167728791543  0.0806695439343956  0.5792655197450832
  0.6065453911612128  0.8587425287909292  0.0836798634739949
  0.2746917989004218  0.9486398080912987  0.5859417796298998
  0.0361885244268825  0.4935258024780412  0.1352842670369645
  0.5043346143438966  0.0403314528028385  0.4499346919458394
  0.5458985268434264  0.2314078705770494  0.1001847066806728
  0.6469326139204882  0.1737755999131474  0.4129636170994326
  0.2421502059830489  0.3223217052275016  0.3424580062113031
  0.7657557969550913  0.0081504726548703  0.1116478811575078
  0.0115922953753441  0.2055288350070329  0.1870618190948339
  0.2838486908524573  0.3422870657095670  0.0422256793336173
  0.8365410772781846  0.7180827754621731  0.2274993697515024
  0.4486506909918176  0.6206776237914207  0.8119651020134692
  0.7842000254114619  0.3708743302027294  0.2643751198706598
  0.8663111896781780  0.5346777173199372  0.1412244725848347
  0.9339493134350667  0.3531824430914078  0.7874677263618934
  0.1828058573289017  0.6536400017827587  0.8768792102078612
  0.0174688402090888  0.3042998402103287  0.6561643876339883
  0.9430731382419798  0.1151186232373315  0.3736314112828218
  0.1063893498417200  0.8894756778773759  0.3019933579974050
  0.0978982386797830  0.5740340206740773  0.6049472238026562
  0.3236291417110153  0.5043579987095633  0.0978764742391467
  0.5335801502653885  0.4706842115321559  0.5088334076790546
  0.8098570993940311  0.8514661422471259  0.8560710529123544
  0.5840196940863286  0.2552595280947574  0.8288322185432322
  0.0235480689577546  0.6812883836365015  0.1047036634244597
  0.8741175193924167  0.2770327024657093  0.6738492946136305
  0.6665638708533044  0.3509363909895409  0.4170224239337052
  0.4216249010638827  0.7478853662231797  0.4119114509969919
  0.0536820787184259  0.8740779156673392  0.5191896888037421
  0.2751633013220365  0.6799055037611776  0.9872782713368161
  0.5342740883634981  0.0431854117626445  0.8623707735490953
  0.4729758977117931  0.2821285356237693  0.7111779050302290
  0.0732524057807202  0.4625600080072377  0.9176368577784429
  0.4300052472071491  0.6033016829288887  0.1135832207675822
  0.7232430524458965  0.7314240182988266  0.9490166645908862
  0.5238991388519163  0.4297668545000202  0.3014345726592312
  0.1398468102183020  0.1951811589560676  0.4342154325382659
  0.3338167448775829  0.3682021632682881  0.8758704214019196
  0.7217887777766355  0.2247265037899960  0.5383015880261292
  0.0051994741106945  0.7586615680765977  0.8271012386612090
  0.4486104529437986  0.3079023205700605  0.5755608118632424
  0.3035770493623549  0.3934207961970840  0.2389375133681814
  0.1457161977846686  0.6050465096666257  0.4515556332548806
  0.1187369505429939  0.4569400686124291  0.2678122920780505
  0.6925191056247023  0.4438746280994604  0.1421219017406258
  0.8409218158274225  0.4566209746787371  0.8796385575952828
  0.1678386347415501  0.7467563027394452  0.7064209686210300
  0.9896538301748077  0.6030425286549492  0.4467546834281387
  0.9721368559064618  0.6681818315894531  0.7152615988484959
  0.4617416244721093  0.9169217887731832  0.5509649297964015
  0.9025320296781808  0.7186442132547203  0.5814067847518793
  0.3749811083041095  0.7588917228968509  0.9043483696134270
  0.4315735268695916  0.2251876903443401  0.8920350589871594
  0.7643761917157570  0.6406381165945818  0.6441014250692699
  0.5709046754821576  0.5112320143634452  0.1203196438593299
  0.8250443898983727  0.3852840330107478  0.5281998688215076
  0.6484541318552273  0.5197911365453758  0.7880121054756375
  0.7076339046995441  0.5084418333999391  0.5572756412052968
  0.7956516354130092  0.1659936337510171  0.0004612981118468
  0.4746213290353857  0.2988186501152766  0.0069139948401053
  0.7417082637240998  0.4509194199019576  0.9979972819241161
  0.9420490779996085  0.3339606873626474  0.3374158573531637
  0.6832624958537618  0.0336155338647707  0.9015556907320932
  0.9463195797266981  0.5580292211530340  0.5814680880483813
  0.5652915799480603  0.5942496469188790  0.6181311385847210
  0.6394578110574405  0.9094104525224574  0.7950316005239165
  0.3670736061207556  0.8245588537523134  0.7123174423442481
  0.6610202457140371  0.5030790253668085  0.4233635903670449
  0.4901353074641667  0.8493385352932927  0.8061810377531899
  0.7980293071445935  0.2584023279122589  0.3852542365552382
  0.4899560498989196  0.2842408957215865  0.2745921387622946
  0.7390071842486312  0.0383406422320647  0.3016139317897275
  0.8016154132612355  0.4687805926221685  0.3930957648994961
  0.1457242454375109  0.6066289652047534  0.1471243900097209
  0.1507106143862669  0.8864217965447224  0.6451179483469632
  0.6760147389832685  0.2559316355262533  0.7141170844500464
  0.6302454393306541  0.8624588929646363  0.9365944994425922
  0.7394573578610985  0.5643821113114197  0.2085093963427111
  0.8709630299855780  0.1513694714814845  0.5731572020212761
  0.4587560436294394  0.4258131874300399  0.1344960400663457
  0.6732423415650447  0.6782657956943364  0.3382033850154254
  0.9498387142030761  0.1144365301042890  0.1007767504343541
  0.6566684002129252  0.0330625956772795  0.4584991628037496
  0.0352587220510824  0.4717432158492101  0.7729657274462742
  0.3717398126109104  0.8683125414078663  0.0012542377057558
  0.9285530624029950  0.8451747649639298  0.1688937708954246
  0.8391919821519721  0.2337965392622635  0.8400163792485587
  0.2444229973476704  0.9489023365286358  0.3110795516183405
  0.9331931685277088  0.5540672191596597  0.8398797893435622
  0.2083365614717984  0.0754966220259024  0.5936305762986929
  0.7039198463341055  0.1189928485741272  0.7327045244196211
  0.5771661063367125  0.8246363377774566  0.6798985633462096
  0.9058472324010485  0.6670967914838158  0.9945638132250730
  0.2111555536683464  0.8006447882904234  0.0430142826884398
  0.4133156393662382  0.1043702206982199  0.6018053351559290
  0.6317890517541007  0.3671316135254550  0.5705005197070346
  0.2173100147046579  0.7802830975890291  0.3421077592164242
 
 -0.51475137E-02  0.47845539E-02  0.39579902E-02
 -0.13194493E-02 -0.16629248E-02  0.38241057E-02
  0.12013466E-02 -0.13919188E-03 -0.17893377E-02
 -0.31840265E-03  0.32672458E-02 -0.40186076E-02
  0.17994313E-02  0.24883878E-03 -0.42709710E-02
  0.22186897E-02  0.16971974E-02 -0.27077928E-02
 -0.20008368E-02 -0.26602532E-02 -0.23052337E-02
 -0.58117722E-03  0.84924153E-03  0.19235703E-02
  0.29193461E-02 -0.49755376E-03  0.86714929E-03
 -0.28078719E-02  0.30474303E-02 -0.46816422E-02
  0.19256112E-02 -0.35908223E-03 -0.45317240E-02
  0.12459934E-02 -0.23925213E-02 -0.40831413E-03
 -0.33621225E-02 -0.13407528E-02 -0.44670655E-02
  0.58599828E-02 -0.26426131E-02 -0.34924620E-03
 -0.28869195E-02  0.31411625E-02  0.69849650E-02
  0.21497054E-02 -0.11584822E-03 -0.81724370E-03
 -0.20436503E-02 -0.48898107E-02  0.19105477E-02
  0.72150183E-02  0.30740268E-02 -0.11234339E-02
  0.17095645E-03  0.28825581E-02  0.27088413E-02
 -0.18230784E-02  0.38771457E-02 -0.15206606E-02
  0.69601805E-03 -0.34164814E-02  0.29580212E-02
 -0.23815459E-02  0.23661047E-02  0.21142387E-02
 -0.50934866E-03 -0.11178489E-02 -0.35357673E-02
 -0.60354624E-02  0.46180008E-02 -0.20982754E-02
 -0.20768126E-02 -0.56536842E-02  0.16232826E-02
  0.42078132E-02  0.26124527E-03 -0.28881665E-02
  0.14698990E-02 -0.25771717E-02  0.21535094E-02
  0.65044497E-04  0.46869624E-02  0.77416175E-03
 -0.45517540E-02 -0.11675852E-03  0.24912037E-03
  0.10302215E-03  0.28357082E-02  0.65591503E-03
 -0.32189739E-03 -0.11651065E-02 -0.37603928E-03
 -0.29230146E-02 -0.74404105E-03  0.81801563E-03
  0.18396080E-02 -0.59626614E-03 -0.12385406E-02
 -0.60414667E-02 -0.10373124E-02 -0.46513795E-02
 -0.25159840E-02  0.76234441E-03 -0.35724509E-02
 -0.15967250E-02 -0.35487900E-02 -0.11521506E-02
 -0.48461497E-03 -0.24516250E-02 -0.21244640E-02
 -0.15178378E-02 -0.14291192E-02 -0.21924218E-02
 -0.44975266E-02  0.14077082E-03 -0.36465276E-02
  0.15063708E-03  0.13173843E-02  0.55518175E-02
 -0.16761909E-02 -0.27191472E-03  0.98043243E-03
 -0.24479079E-02 -0.29642543E-02 -0.17659051E-02
 -0.34648259E-02 -0.43355215E-03 -0.31572453E-02
  0.16511422E-02 -0.36820439E-02  0.33302197E-02
  0.12230735E-02  0.92773359E-03 -0.37490723E-03
  0.56973799E-03 -0.20699177E-02  0.18634527E-03
  0.70221067E-03  0.11855620E-02  0.29942224E-02
  0.31472166E-03 -0.33732047E-02  0.10399609E-02
 -0.68776774E-03 -0.14786471E-02  0.62295816E-03
  0.26040326E-02  0.15035517E-02 -0.12702872E-02
  0.61610791E-03  0.24287093E-03 -0.42035982E-03
 -0.15993088E-03  0.95677941E-03 -0.87497233E-03
  0.12779786E-02  0.16741798E-02 -0.32784240E-05
 -0.98311555E-04  0.31564245E-03  0.13367643E-02
 -0.14110604E-02  0.21328237E-02  0.12497099E-03
 -0.17003513E-02  0.11395360E-02  0.85331038E-03
  0.11341738E-02 -0.19667001E-02 -0.14346499E-02
 -0.51300153E-03 -0.19846182E-02  0.84093569E-04
  0.19949681E-03  0.28804133E-02 -0.43310946E-03
  0.14126666E-02 -0.89055519E-03 -0.21010332E-02
 -0.11437551E-02 -0.30505332E-03  0.25776524E-03
  0.10707218E-02 -0.48978417E-04 -0.20617268E-02
 -0.67339052E-03 -0.19809016E-02 -0.77736467E-03
 -0.10508801E-02  0.12989380E-02  0.64281830E-03
  0.80205113E-03  0.15077108E-02  0.54335611E-04
  0.20664697E-02 -0.15265761E-02 -0.25838478E-02
  0.31992364E-02 -0.36459205E-04 -0.83318224E-03
 -0.11798380E-02  0.10927545E-02  0.22211287E-02
 -0.38743594E-03 -0.23440397E-02  0.20459916E-02
 -0.19982228E-02  0.92166178E-03  0.15209559E-02
  0.21613009E-02  0.10756707E-02 -0.19776521E-02
  0.71930337E-03  0.94789790E-03  0.18224506E-02
 -0.16926229E-02  0.55768966E-03  0.14538203E-02
 -0.79394209E-03  0.11768198E-02 -0.17936884E-03
  0.70527629E-03  0.42335463E-03 -0.14898718E-02
 -0.15332453E-02 -0.41918679E-03  0.12065380E-03
  0.95751867E-03  0.12224775E-03  0.29154447E-03
 -0.93394747E-03  0.64636668E-04  0.37830003E-03
 -0.67641855E-03  0.49314778E-03  0.54630551E-03
 -0.22142556E-04  0.19946655E-03  0.31040990E-02
  0.29814349E-03  0.51404502E-03  0.90844497E-03
  0.35877277E-02 -0.11937649E-02  0.55333972E-03
 -0.46997391E-04 -0.89273955E-03  0.15927050E-02
  0.16117384E-03 -0.93077273E-04  0.10246205E-02
 -0.21189280E-02 -0.98274797E-03  0.34824758E-02
 -0.14291711E-02  0.10530840E-02 -0.15055075E-02
  0.22325262E-03  0.59274559E-03 -0.12464829E-02
 -0.81425931E-04 -0.15386178E-02 -0.21460835E-02
 -0.28180781E-03  0.97060055E-03 -0.38928721E-03
 -0.24047174E-03 -0.13179595E-02  0.47562381E-03
  0.24326831E-02  0.14189536E-02 -0.39343432E-03
  0.37998836E-02  0.10507103E-02  0.15846074E-03
  0.28811771E-02 -0.19467229E-02 -0.11910876E-02
  0.26931749E-02  0.17905897E-02 -0.81426085E-03
  0.19274611E-02 -0.27408758E-02 -0.16377183E-02
  0.12433750E-02  0.95192977E-03  0.95649517E-03
 -0.23987691E-02 -0.39166438E-03 -0.58399719E-03
  0.25742257E-02  0.77141761E-04  0.85870802E-03
  0.20161050E-02 -0.37571917E-02  0.94376372E-04
 -0.10800874E-02 -0.30128282E-02 -0.18010091E-02
  0.14929927E-02  0.20370028E-02 -0.24949242E-02
 -0.19532335E-02 -0.15572814E-02  0.79401898E-03
  0.11445254E-02 -0.20346964E-02  0.20345273E-02
 -0.27317277E-02  0.13013058E-02  0.57122893E-03
 -0.91112855E-03  0.10530249E-02 -0.30897995E-02
 -0.15858348E-02  0.80702679E-03 -0.16602024E-02
  0.13890960E-02  0.28812546E-02  0.18536484E-02
  0.17198310E-02 -0.37544271E-03  0.68315836E-03
  0.12125941E-02  0.60475221E-03  0.17851165E-02
 -0.29299577E-02  0.51952846E-03 -0.17857981E-03
 -0.13859867E-02  0.22048927E-04  0.18905446E-03
  0.24489320E-04 -0.10853568E-02 -0.75014706E-03
  0.20917355E-02  0.14647823E-02  0.10797711E-02
 -0.62135588E-03  0.76713807E-03  0.82006578E-03
 -0.91079227E-03  0.12164982E-02 -0.63308979E-03
  0.45278495E-03 -0.14512478E-02 -0.36359165E-03
 -0.17565389E-02  0.20014163E-02 -0.19099225E-02
  0.95027924E-03  0.45396386E-03 -0.24178762E-03
 -0.90912591E-03  0.12777667E-02 -0.45221172E-04
  0.10893239E-02 -0.14294158E-02  0.21541994E-02
  0.87490469E-04  0.63087381E-03 -0.85959739E-03
  0.33828180E-03 -0.22773001E-02  0.10132011E-02
  0.35606539E-02  0.23636233E-02  0.12409656E-03
 -0.33179300E-03  0.32152777E-02 -0.84739417E-03
  0.92188373E-03  0.13085460E-02  0.16170045E-02
  0.40371846E-04  0.77441988E-03 -0.34988000E-03
  0.39096894E-03  0.10078398E-02 -0.30013535E-02
  0.49271441E-03 -0.97984089E-03  0.13676033E-02
  0.46173932E-03  0.18373222E-03 -0.26943620E-03
 -0.80416352E-03 -0.67954843E-03 -0.17298531E-02
  0.97289300E-03 -0.14219324E-02 -0.16093798E-03
  0.15248196E-02 -0.13456081E-02 -0.19643086E-02
  0.14764322E-02  0.27051330E-02 -0.50810108E-03
 -0.15140876E-02 -0.21137470E-02  0.19520095E-02
  0.13661290E-03  0.15569413E-02 -0.70963603E-03
 -0.26609566E-02  0.23391447E-02 -0.84453452E-03
 -0.12842878E-02  0.12118110E-02  0.11629826E-02
  0.21436627E-03  0.15652989E-02  0.92884785E-04
  0.10816758E-02 -0.20705427E-02  0.23264181E-03
  0.72691296E-03  0.10375753E-02  0.18150801E-02
 -0.12771611E-02  0.89803908E-03 -0.54011843E-03
 -0.21124174E-02 -0.36378253E-02  0.31635058E-02
  0.12622789E-02  0.28868998E-03  0.19796438E-02
  0.22488894E-02 -0.24161505E-02  0.42836758E-02
  0.17674630E-02  0.12315611E-02  0.14745896E-02
 -0.33197394E-02 -0.41720035E-03 -0.14226282E-03
 -0.20208915E-02  0.68367281E-03 -0.20362862E-03
  0.14898674E-02 -0.18754178E-02  0.38498998E-03
  0.13094622E-02  0.15300678E-02  0.45204522E-03
  0.12088771E-02 -0.15919393E-02  0.36180731E-03
  0.34915864E-03  0.13624371E-02  0.11547724E-03
  0.22354929E-03 -0.97957358E-03  0.35769176E-02
  0.72748422E-03 -0.23212977E-02 -0.14818653E-02
 -0.14582146E-02  0.16216577E-02 -0.17309180E-02
  0.15071834E-02  0.26397202E-02  0.10024173E-02
  0.10138457E-04 -0.24187533E-02  0.94890092E-03
  0.17869661E-03  0.13786691E-02 -0.14588031E-02
 -0.16330064E-02 -0.14552851E-02 -0.18342509E-02
 -0.14597866E-02 -0.37842768E-04 -0.28246490E-02
  0.19918909E-03  0.11694515E-02  0.16652416E-02
  0.20366336E-02  0.12707195E-03 -0.97405550E-03
 -0.12271468E-02 -0.20055283E-02 -0.86406223E-03
  0.84546746E-03  0.84658742E-03  0.88594139E-04
 -0.59112300E-03  0.84596603E-03  0.30521516E-03
 -0.68145577E-03  0.15732721E-02 -0.25629056E-02
  0.67302701E-04  0.71462372E-04  0.47407033E-03
  0.47345172E-03  0.18968724E-02  0.39026363E-03
  0.18674269E-03  0.20731738E-02  0.36552876E-03
 -0.20788288E-02 -0.63202823E-03  0.94941998E-04
 -0.93435211E-03 -0.40200338E-05 -0.17703430E-03
 -0.91431914E-03  0.18190543E-04  0.27242517E-02
  0.65003365E-03 -0.41333685E-03 -0.81684938E-03
 -0.11607864E-02  0.15628441E-02  0.41025826E-03
  0.22835620E-03 -0.10068399E-02  0.59017025E-03
 -0.12031321E-02  0.24316718E-03  0.95887426E-03
 -0.11670113E-02 -0.16158626E-02 -0.24885548E-02
  0.70450975E-03 -0.75298118E-03  0.42057853E-03
 -0.12060819E-02  0.18799433E-02  0.24627910E-02
 -0.23184359E-03  0.10296869E-02  0.12231412E-02
 -0.44455749E-03  0.55218714E-03 -0.53343517E-03
  0.13588127E-02  0.12324550E-02  0.11483477E-02
 -0.25733789E-03  0.28447659E-03  0.82982213E-03
  0.11522914E-02 -0.25054010E-02  0.62640179E-04
 -0.11233254E-02  0.12808821E-02 -0.18461281E-02
 -0.54837488E-03  0.59701042E-03  0.18509144E-02
 -0.10005478E-02  0.10374113E-03 -0.21240331E-02
 -0.11072096E-02 -0.22174174E-03 -0.15508003E-02
 -0.26056783E-02  0.18441450E-03 -0.52689001E-03
  0.14454561E-02 -0.53870165E-03 -0.60945626E-03
  0.39169051E-03  0.82758194E-03 -0.30692895E-03
  0.63570077E-03  0.26053233E-02 -0.19068185E-02
 -0.15624792E-02 -0.18077366E-02 -0.32252842E-02
 -0.18151073E-02 -0.70519348E-03 -0.11389474E-02
 -0.69647891E-03  0.27710139E-03 -0.23272626E-02
 -0.69636107E-03  0.60518658E-03  0.20090340E-02
  0.86472357E-03  0.79172701E-03 -0.84760291E-03
  0.17751602E-02  0.17354111E-02 -0.75365332E-03
  0.21990296E-02 -0.51551417E-03 -0.26499642E-02
 -0.90706112E-03  0.78909601E-03 -0.82516779E-03
 -0.16851033E-02 -0.83587607E-03  0.11460503E-02
 -0.13327279E-02 -0.17309297E-02 -0.18386999E-02
  0.12072697E-02 -0.24442515E-02 -0.23576353E-02
 -0.16957709E-03 -0.10854245E-02 -0.29986020E-02
 -0.36199137E-03  0.13739974E-02  0.82284778E-03
 -0.15843174E-02 -0.19675225E-03  0.27312440E-02
 -0.27500004E-02 -0.15441586E-02  0.36384756E-04
  0.99041155E-04 -0.22647936E-02  0.24539794E-02
 -0.99787161E-03  0.20642241E-02 -0.29656324E-03
 -0.25670382E-03 -0.41720186E-02  0.10012086E-02
 -0.16743863E-02 -0.19353900E-05 -0.65747285E-03
  0.30752291E-03 -0.16577436E-02 -0.11388571E-02
 -0.10084366E-02 -0.41110757E-05 -0.93228038E-03
  0.17770922E-02 -0.12861681E-02  0.31392356E-03
  0.10868974E-02  0.20705094E-02 -0.16191948E-02
  0.27109271E-03  0.75264265E-03  0.68304237E-03
 -0.22187115E-02  0.16916602E-02  0.10003966E-02
 -0.14077961E-02  0.17242351E-02  0.21448477E-02
 -0.27492652E-03 -0.10725859E-02  0.69929957E-03
 -0.17701743E-02 -0.16264515E-02 -0.23653090E-03
 -0.28085536E-03  0.24923029E-02 -0.10182245E-03
 -0.18603624E-02 -0.50078974E-04  0.79328137E-03
  0.11078487E-02  0.12859813E-03  0.11949966E-02
  0.15814388E-03 -0.16948285E-02 -0.96177298E-03
 -0.15751044E-02 -0.84250324E-03  0.57598739E-03
  0.15308008E-02  0.11409344E-02  0.49268254E-03
  0.85021210E-03  0.14298239E-02 -0.10836229E-02
 -0.10859647E-03  0.16188522E-02  0.38325885E-03
 -0.84646096E-03 -0.25632822E-02  0.16636869E-02
  0.61056591E-03 -0.14953127E-02 -0.56849009E-03
 -0.12328966E-02 -0.12350259E-02  0.29570967E-02
 -0.86388181E-03  0.34513162E-03  0.15175058E-02
 -0.17966299E-02  0.26518652E-02 -0.16757944E-03