Ge Se                                   
   1.00000000000000     
    20.9434040516576303    0.0000000000000000    0.0000000000000000
     0.0000000000000000   20.9434040516576339    0.0000000000000000
     0.0000000000000000    0.0000000000000000   20.9434040516576339
   Ge   Se
   149   151
Direct
  0.4031831870851695  0.9182513996866012  0.6423954889986271
  0.3858427943873947  0.1643360308139464  0.6632247313252982
  0.9060150903850335  0.6085711842512790  0.4183059985747711
  0.8510014408693009  0.1515198033789150  0.7707275709065204
  0.7046047991836142  0.8317126969203598  0.6391616819039148
  0.1719129027515917 -0.0157879316126712  0.9121482105841394
  0.6066857303521640  0.6587855442140736  0.1666409098791957
  0.7291524219229015  0.6236861877508122  0.9532143107649648
  0.4423018280182248  0.9233387189549197  0.4565743059499394
  0.9721041121778343  0.3225082202398171  0.9866280098804410
  0.7196690502327953  0.7420229666405480  0.0837047890323528
  0.5513048271513801  0.2035202341830841  0.5721376195940365
  0.0782134262717912  0.6547567346394215  0.4918922048206671
  0.4497872070509554  0.1419049006061119  0.9202699187013027
  0.5869200674872580  0.6046639325141546  0.4330010584441060
  0.8251610334368737  0.6413858688063984  0.1981386766412460
  0.1728819648748970  0.5038218098859866  0.4508562765172079
  0.9241178417978514  0.8919482933931580  0.5099699497579777
  0.9073710239583092  0.8475849488207522  0.2734525816402477
  0.4025222717774726  0.9071144680668309  0.1704357819888831
  0.5205272167126330  0.5130346390381338  0.8318052051079246
  0.6217665522763650  0.1922020472120770  0.8518758384673387
  0.5467917181162113  0.5776873700223574  0.0244229032890710
  0.5859696241332294  0.0253247830599290  0.4558740317194958
  0.1026418365615524  0.9700445998943589  0.6953550987645306
  0.9657708974983545  0.6773899735734235  0.2339302265381687
  0.9284051004453472  0.0155226895123972  0.3528744069989164
  0.2097740014496501  0.1735375044532898  0.1974438570466231
  0.1078323340610608  0.3530329032801576  0.5446495639139342
  0.1926849853901704  0.8937264756258514  0.8268892928776341
  0.8671498852572874  0.4775423335019904  0.6952777807314662
  0.9957433589302797  0.7441475784147097  0.8825035312465306
  0.8483384843482570  0.1511661396827171  0.2087948688842516
 -0.0145555131450809  0.7461171549888358  0.0766894847051762
  0.8615675167135365 -0.0014976463600207  0.5448056054649307
  0.9426722162679934  0.0322058216671932  0.0820311204780183
  0.0441156770365114  0.3285923680679323  0.8021436925186354
  0.5617533735850500  0.5919549489940985  0.5507027917999917
  0.2013648430496840 -0.0392027522499258  0.5527954489701045
  0.6645610845419441  0.4730435394277102  0.9590344616901441
 -0.0017852082122847  0.9815315307360171  0.6209261493007586
  0.2331983482732709  0.0619495557225604  0.6562859325812513
  0.1980721187702369  0.3861559432484112  0.1904315162131565
  0.2441789363234891  0.9093973849953793  0.2442001184299190
  0.5867460170676692  0.1502813712369679  0.4688210037639433
  0.4354316362779279  0.7869223982812589  0.0587762843961539
  0.2267787903450416  0.2427484100877360  0.8090764984757337
  0.7548400854020058  0.9749913824897140  0.2102475250529569
  0.9505628118448557  0.0473358613650968  0.4752877541711574
  0.4567143209580313  0.6797797259401215  0.3917870013770401
  0.1490073616322374  0.5387882092878813  0.6078784742292044
  0.0508861644326886  0.4871658667073244  0.4044243713177949
  0.6293899044034413  0.6283086894849158  0.6515982871738570
  0.6796889094502840  0.2842728590758820  0.1092929254561249
  0.1279193859944282  0.7680905764285240  0.3251527326112132
  0.8711605770610078  0.8972995673890340  0.7051992822533119
  0.3510442244220517  0.2862190168089506  0.1734690673024451
  0.4335431723267170  0.6709698206018680  0.2326234992701406
  0.7181448986682264  0.0303986168561226  0.6829468038017941
  0.0472019963021713  0.7776970540315421  0.2352641056561213
  0.1403913038446294  0.1954313551539032  0.5817308807609548
  0.1580587022369027  0.6570538300408456  0.1894622715953152
  0.8648531119537718  0.2430829657778648  0.1241040069075156
  0.5872640238846675  0.9502313360416438  0.2947605791771381
  0.1302547434655956  0.6190711228716084  0.8634795955486940
  0.2873639958542397  0.1371040688237543  0.0283385546987736
  0.4566193819627413  0.8413114960866667  0.7440030709136002
  0.5642191253430839  0.5735996482139619  0.3102198141357372
  0.4696984822070699  0.5432631392085492  0.6161716995065692
  0.6757787503794559  0.9294324339223268  0.8999552961960814
  0.7565819841230585  0.4869487147424419  0.6318049904757908
  0.6586122319482287  0.8713675118748904  0.0885528166405063
  0.2780151151266415  0.8364025898882199 -0.0132739854475033
  0.7495754052867725  0.0920327889143496  0.2579230825016168
  0.1891250166081545  0.7986920982631179  0.6748147088160417
  0.7188968200255634  0.2999952825391862  0.2691306708414510
  0.0908213825501846  0.9178968264611104  0.1399712930561138
  0.7934125477704151  0.3472616450441105  0.8861014440135040
  0.2743028542600714  0.6558526253695547  0.1131999674375859
  0.5705291674606621  0.0103393832165990  0.7513372663054675
  0.5855540580433957  0.3827173735807379  0.9856663669206229
  0.0483226902298099  0.3259359840913160  0.1994917692472379
  0.4385988879644230  0.2950365906037872  0.4278521380966436
  0.7220905202976101  0.4616030193063608  0.1840477234949243
  0.8376767358872904  0.0993268750820807  0.0136834569655558
  0.3075912631077107  0.3362166973264027  0.2991398346398610
  0.1710480852988744  0.5079722529663682  0.8083470848676274
  0.3151118362107142  0.8930898310670516  0.4608060305371116
  0.7547418134143309  0.0289627918257585  0.4946886039644665
  0.8245158961441804  0.8042502686541046  0.4941871052408980
  0.1965201648493773  0.3213667514691607  0.9559441560624193
  0.0806258090691155  0.4880470809914624  0.1514837069402640
  0.7578639337518199  0.1590473376128093  0.4778610989928892
  0.7431003644898757  0.3175258815746779  0.3924595971074386
  0.4883405882949035  0.4088590713809940  0.1282067699794173
  0.4067937607874957  0.6479389468620771  0.5847579410673557
  0.8756523757611131  0.7275829283979205  0.0160173225997867
  0.3606655182423644  0.5156166479863755  0.8750100332099625
  0.8250469156406511  0.4254920794167645  0.4920410563718688
  0.8124772329592743  0.2051579098330231  0.9506088575688333
  0.5181374004063647  0.3018547634046789  0.7321861498639117
  0.4527581793315045  0.0453456827638963  0.7758488816770256
  0.2834916228603898  0.6803817294469043  0.7898906734805964
  0.6312920770909431  0.0849717126453383  0.9144545306133298
  0.2012394853834784  0.2659889867118022  0.1120098439643808
  0.2936808032379536  0.6601117588027046  0.6341194045281304
  0.9664612063857935  0.1363257181873142  0.6229844493165673
  0.5592067545665019  0.8398651801773693  0.5390774273834738
  0.7466902441308813  0.4744855061169801  0.8203528417730064
  0.5451608608419414  0.3560334768797012  0.2847472052914168
  0.7579090203522251  0.5391560422654720  0.3279448301943499
  0.5600207131707674  0.6987394857750364  0.9985511406489086
  0.9709961013531954  0.3190316743129668  0.4255644968142929
  0.4104389151880061  0.1158546174058568  0.4529050437488045
  0.8965936323013592  0.2080637013822542  0.3314162040247426
  0.4941171803926637  0.3143064208364254  0.5652891745130715
  0.2243291499961409  0.3643132038539539  0.7761770774499490
  0.5524106333294523  0.9055953236871467  0.1446421038439852
  0.2794125429231918  0.7217470600839699  0.2584985370798899
  0.3195298675230626  0.6779267182906743  0.9507456570326936
  0.7060174170625398  0.1524350649687414  0.6556566829738344
  0.3907887254458490  0.8916635610770480  0.8685242299755864
  0.0238911786080075  0.1463748199300598  0.4716420368446334
  0.5991695214361169  0.2149097491800406  0.0231330376128716
  0.9646926792767023  0.7585818572474455  0.3801117431240283
  0.7430668555104347  0.9716960606907938  0.3833541715615993
  0.6474719366579212  0.0748482035476188  0.1341768800772455
  0.5107818269053507  0.4789500520262654  0.9560722084004653
  0.7159876264788884  0.7086395055013824  0.3311436247091222
  0.8416759758144807  0.2513253794571811  0.6381068915148356
  0.5104962956538223  0.4744888738870111  0.4237381696208053
  0.0421487325118948  0.9193416072519066  0.7940155334694762
  0.2363063645345074  0.5197982737371646  0.7027868627962249
  0.4016760179104914  0.7144985742758854  0.8640991858604761
  0.2533859958606097  0.1092721231528210  0.4476517763085419
  0.8916161480313726  0.4069640230679658  0.8359367399497570
  0.0263494585425745  0.1388405264259368  0.1346155642712718
  0.4424790340340677  0.4211417039627178  0.6813451729761218
  0.5198117846454152  0.7392767909603675  0.6933876791108062
  0.3325365185612710  0.5294969243319633  0.5089304183225194
  0.8382583506014897  0.3883012312162463  0.3321538136906720
 -0.0420567036299123  0.6089787118083961  0.9242546697887677
  0.6684472731607504  0.7547830180969192  0.4849699258500548
  0.3719461171204461  0.5309838477033433  0.0888740406526157
  0.9275298750454992  0.5013612163345296  0.5872611942872342
  0.0709688003678274  0.8473072218658684  0.9556707379022987
  0.8661253924363150  0.8124669537147122  0.1388378117387677
  0.0768872545930069  0.8108465377520400  0.5516970262403742
  0.5123080669673781  0.2429768120319177  0.2427617445392172
  0.2900221077870394  0.4139614745552206  0.6957352452190930
  0.0944253510166094  0.4297577871333166  0.2556682865074094
  0.4674250997827021  0.3985374159002991  0.7972952137081520
  0.1165347544412294  0.3506389995455781  0.0984710175723873
  0.6465371103994524  0.0417930724147823  0.3492190205025891
  0.7778843115471803  0.1535073912913279  0.1032303412055356
  0.3780089672458007  0.0116841767856309  0.2105830102901400
  0.4750187059702384  0.0232893912364830  0.4001031665238183
  0.7082789793943569  0.5815506932736316  0.2229614619683502
  0.3813983819256779  0.7464602975480037  0.3210639720822794
 -0.0318494307951314  0.4218996249246449  0.0498150849707579
  0.8220174136803471  0.5407299302524347  0.5428090586070962
  0.3256024332922798  0.9605819801776989  0.5593759235289891
  0.3074426178360595  0.7633538300700933  0.6972296559827884
  0.4833012429873558  0.7719087352777865  0.9451825140786129
  0.7155414793611167  0.9804839814998780  0.0982974556359385
  0.6099466661769343  0.3922840068641996  0.1043759488443705
  0.6876653720184059  0.8932931344840385  0.2576824950183503
  0.6596267793925099  0.4044251602931017  0.2822312608402187
  0.8023269500162757  0.8215653106367313  0.0327705556269931
  0.8253177531510090  0.6432345615805872  0.3283937835799480
  0.2463386204746527  0.5398977508160325  0.0662504457799007
  0.2233085954088636  0.7301891469973349 -0.0094711170774760
  0.6926438022976198  0.2402776738870227  0.9404332320941231
  0.8842516315842374  0.9068599943277573  0.3757528274936835
  0.6969525696371082  0.6450157557122905  0.4380936855753741
  0.8347944180496183  0.2472598096059397  0.4330683953218215
  0.9538064294059284  0.1482156885648709  0.0343785790143331
  0.1703175994224597  0.6605515715317802  0.7580228859966262
  0.9401532020873312  0.2125938754623322  0.7128146602625079
  0.1981362800385093  0.8353936058583272  0.5527997495984920
  0.6128197011200769  0.4983305554063213  0.4890739847853787
  0.5701286178477571 -0.0095275848615147  0.8720746770277280
  0.5468694767191781  0.7549492063918697  0.1002646200942665
  0.6477282820851517  0.5380194512611300  0.8616417315486055
  0.2653212413300310  0.1278251317333337  0.3272899920142729
 -0.0034053947722906  0.4013963986877583  0.8919640365470727
  0.6787840151091477 -0.0023501694730685  0.5767343817741208
  0.4391229924325459  0.1578228566348240  0.8011208728683844
  0.7594230513179151  0.2247931517759081  0.7316219947723340
  0.9111244313199691  0.7188222413831112  0.4811636216933197
  0.8539949426554807  0.1429686029258807  0.5839040225708095
  0.1770290325291146  0.9044583402414077  0.0034988697427947
  0.5904412708465614  0.1663117048385014  0.6769684789384027
  0.1686728894204383  0.9830070612604755  0.2058630567402143
  0.7827056237387264  0.3266767480038169  0.1721738930652381
  0.3831598556780595  0.6472787375622518  0.0484491237636153
  0.1231453894520976  0.2636680624830831  0.8716534548352149
  0.0119157429808354  0.2294732575602584  0.5515221351704708
  0.7234691114201086  0.5789180922431751  0.7006475424790276
  0.2858742058997722  0.4884710024268937  0.3983796354307582
  0.3603301124340979  0.2164695573952793  0.9652554079604054
  0.4352599180753523  0.4646608359050147  0.5189534964222811
  0.3686216462120055  0.6424543744683885  0.4721809884261171
  0.8165669669414610  0.0688827816814584  0.3579319572496186
  0.0324271568667231  0.9660447217755017  0.5074476234851046
  0.4692388558392251  0.2855732945437559  0.1362723766616480
  0.2881381389599385  0.3420773504656403  0.0850597433507312
  0.0816039133071040  0.3727520953285653  0.4235955967042088
  0.5559529497154623  0.0154918244735945  0.1906812798741408
  0.2257470616268876  0.2341941052436452  0.3028084720136450
  0.3763099022987360  0.0276280787740653  0.6889655194520025
  0.3535705564130936  0.0009147167491798  0.8317486965783616
  0.9138760108963959  0.3882089097529274  0.5651424623546916
  0.1327637784108905  0.1059306904322410  0.4923150921328048
  0.5276619776976555  0.8475682505036414  0.4263679397893635
  0.8733912807215940  0.2338957367729687  0.8559087171736277
  0.5307392072231791  0.2345483839754905  0.9226139339873580
  0.4958435099514952  0.1849924697089238  0.4009520981782758
  0.7783629567511831  0.7534582254763542  0.2020140268358082
  0.6029841434689954  0.9032290223456163  0.9913841883104256
  0.0467812960319310  0.6123538369719573  0.1725290613865025
  0.5740369687689160  0.6909713548745007  0.2783686740963388
  0.2658607608011550  0.1743709673512222  0.6453437788737725
  0.0779163447999348  0.7032296469543527  0.5993573501783096
  0.9478813287764100  0.3734720875770697  0.1513343496705934
  0.4813354936825908  0.4402968323106465  0.2429640606925584
  0.1364182632723569  0.0773761123557153  0.7232072509908694
  0.6407581149071918  0.7399277948533143  0.6975670549437938
  0.0138330192691080  0.6383886722149479  0.8197242943492988
  0.9425364234555523  0.0770209048993531  0.1990649185712904
  0.8768190740420687  0.7010139222459384  0.9012232750966065
  0.1043948088778727  0.8181329988276536  0.8034810488973477
  0.9002317329887246  0.4582906709183249  0.4036872411340435
  0.2148179620438433  0.9175961553799853  0.7116298065545210
  0.6652602626654834  0.5611465465196253  0.0396078135398187
  0.6430897475140009  0.2293528479463623  0.2120404179087280
  0.3079307081556136  0.3785413820386244  0.4181700066372721
  0.4556543005197718  0.1277654641338288  0.5663946168745478
  0.5578285370250626  0.3799440193867062  0.6453419928329257
  0.1337837573419471  0.7713808796455466  0.1589926470850224
  0.0200597451930915  0.8909664122412080  0.2485451743190459
  0.0636536094743810  0.0290101977612148  0.0892928368369509
  0.3966806974293899  0.4641643934498363  0.9835225853943801
  0.4442765810743514  0.5833930022071487  0.3199558758597945
  0.8597097392062187  0.9252040552579325  0.1854588021231806
  0.7795889060891391  0.4662201243031779  0.9391683505293695
  0.2351016098731887  0.4287355038883701  0.8750534590048392
  0.7537672223341974  0.7404817627103760  0.5704432398890448
  0.4163864670510061  0.2925260206020765  0.6574302162808586
  0.1924886927632019  0.2765618593168924  0.5161022211724857
  0.9561623752474117  0.8639319318559594  0.6310864502088018
  0.0721046854070013  0.7950620261180064  0.4268148850867262
  0.2023292241094094  0.5065377777603713  0.1716716255132774
  0.3025201253441278  0.8504123784855273  0.1605204195486077
  0.3247899802768236  0.6098616642724958  0.2146807215448428
  0.1925749146881516  0.6047320340558890  0.5122174995879991
  0.5227185852761677  0.5741891568013708  0.1382541544928098
  0.8018570049316529  0.6446768292182981  0.0574455932291499
  0.5585795201090116  0.8930479156971799  0.7239633262644577
  0.2849129100949689  0.8279445620576433  0.8606610124577307
  0.1796529132878335  0.6638436244067740  0.3160363303911677
  0.2680240026343795  0.5784687174381784  0.9218989713333324
  0.9326774922482138  0.3212788226313182  0.3009917808439500
  0.6638648535881457  0.7258361074098092  0.9544613495196109
  0.4921483885554709  0.7363925633313633  0.5781982475703483
  0.5838122773172897  0.0945169493618093  0.0250115434718849
  0.3036945359095540  0.2939173916504374  0.8973028212418426
  0.1959145738515595  0.4419748510951668  0.5481127334773391
  0.7435922095456141  0.8083444187573350  0.4041248491111299
  0.2341695853147383 -0.0159414344975994  0.4327458414433021
  0.2244842703276757  0.8341721722465250  0.3317583678179319
  0.7886117483892083  0.8234281176677762  0.7282077775168926
  0.6721348582098153  0.1968612556555729  0.4020512296144648
  0.0142047075453546  0.2086745255177338  0.3722807235564152
  0.9847669577005531  0.8601774151915673  0.0382878070316290
  0.8278402909716359  0.4740712243393042  0.2497388387364298
  0.3343276845101422  0.5862995601665021  0.7243884760571889
  0.8419668292994089  0.3133641455864270  0.9935413444101767
  0.0016202277133604  0.6446904468563142  0.3476533610481529
  0.4843003970490439  0.8496282661464155  0.2263720727160266
  0.4014566308822020  0.2653959263108224  0.3147968581556307
  0.8418806098508205  0.0067077942565374  0.6657616045274815
  0.7349475320439024  0.0385462858770951  0.9212689041402455
  0.9267428978020201  0.9040697995950806  0.8070768630638478
  0.1864897082869851  0.2017788883049229  0.0142653228741120
  0.3243407921347852  0.9720889231111134  0.3019967074243564
  0.0179611379397160  0.5396971017872279  0.5147005492788530
  0.0510345941278437 -0.0378855462756960  0.9047061282415805
  0.5284696977304438  0.6215291985983027  0.7166132603655093
  0.4928052630940483  0.9445225926351771  0.5644283235181972
  0.4475065721331933  0.6067681594382097  0.8867649798799044
  0.3212929206365045  0.1693527317520585  0.1461571119734190
  0.9136599363789878  0.3765694805833258  0.7253521917811631
  0.7129245649169179  0.2264169834102500  0.5647110655863320
  0.1172757877161792  0.4111412001727462  0.7470832539235903
  0.0398146637014855  0.6866841326888627  0.9819674362732841
  0.4583490028832071  0.9167002430463546  0.0679608064162531
  0.5430521650774800  0.3560804690446738  0.4052058753849755
  0.8661689842975525  0.5232935278358664  0.8061454404924419
  0.3598494865081988 -0.0219884764223577  0.9454381948800051
 
  0.00000000E+00  0.00000000E+00  0.00000000E+00
  0.00000000E+00  0.00000000E+00  0.00000000E+00
  0.00000000E+00  0.00000000E+00  0.00000000E+00
  0.00000000E+00  0.00000000E+00  0.00000000E+00
  0.00000000E+00  0.00000000E+00  0.00000000E+00
  0.00000000E+00  0.00000000E+00  0.00000000E+00
  0.00000000E+00  0.00000000E+00  0.00000000E+00
  0.00000000E+00  0.00000000E+00  0.00000000E+00
  0.00000000E+00  0.00000000E+00  0.00000000E+00
  0.00000000E+00  0.00000000E+00  0.00000000E+00
  0.00000000E+00  0.00000000E+00  0.00000000E+00
  0.00000000E+00  0.00000000E+00  0.00000000E+00
  0.00000000E+00  0.00000000E+00  0.00000000E+00
  0.00000000E+00  0.00000000E+00  0.00000000E+00
  0.00000000E+00  0.00000000E+00  0.00000000E+00
  0.00000000E+00  0.00000000E+00  0.00000000E+00
  0.00000000E+00  0.00000000E+00  0.00000000E+00
  0.00000000E+00  0.00000000E+00  0.00000000E+00
  0.00000000E+00  0.00000000E+00  0.00000000E+00
  0.00000000E+00  0.00000000E+00  0.00000000E+00
  0.00000000E+00  0.00000000E+00  0.00000000E+00
  0.00000000E+00  0.00000000E+00  0.00000000E+00
  0.00000000E+00  0.00000000E+00  0.00000000E+00
  0.00000000E+00  0.00000000E+00  0.00000000E+00
  0.00000000E+00  0.00000000E+00  0.00000000E+00
  0.00000000E+00  0.00000000E+00  0.00000000E+00
  0.00000000E+00  0.00000000E+00  0.00000000E+00
  0.00000000E+00  0.00000000E+00  0.00000000E+00
  0.00000000E+00  0.00000000E+00  0.00000000E+00
  0.00000000E+00  0.00000000E+00  0.00000000E+00
  0.00000000E+00  0.00000000E+00  0.00000000E+00
  0.00000000E+00  0.00000000E+00  0.00000000E+00
  0.00000000E+00  0.00000000E+00  0.00000000E+00
  0.00000000E+00  0.00000000E+00  0.00000000E+00
  0.00000000E+00  0.00000000E+00  0.00000000E+00
  0.00000000E+00  0.00000000E+00  0.00000000E+00
  0.00000000E+00  0.00000000E+00  0.00000000E+00
  0.00000000E+00  0.00000000E+00  0.00000000E+00
  0.00000000E+00  0.00000000E+00  0.00000000E+00
  0.00000000E+00  0.00000000E+00  0.00000000E+00
  0.00000000E+00  0.00000000E+00  0.00000000E+00
  0.00000000E+00  0.00000000E+00  0.00000000E+00
  0.00000000E+00  0.00000000E+00  0.00000000E+00
  0.00000000E+00  0.00000000E+00  0.00000000E+00
  0.00000000E+00  0.00000000E+00  0.00000000E+00
  0.00000000E+00  0.00000000E+00  0.00000000E+00
  0.00000000E+00  0.00000000E+00  0.00000000E+00
  0.00000000E+00  0.00000000E+00  0.00000000E+00
  0.00000000E+00  0.00000000E+00  0.00000000E+00
  0.00000000E+00  0.00000000E+00  0.00000000E+00
  0.00000000E+00  0.00000000E+00  0.00000000E+00
  0.00000000E+00  0.00000000E+00  0.00000000E+00
  0.00000000E+00  0.00000000E+00  0.00000000E+00
  0.00000000E+00  0.00000000E+00  0.00000000E+00
  0.00000000E+00  0.00000000E+00  0.00000000E+00
  0.00000000E+00  0.00000000E+00  0.00000000E+00
  0.00000000E+00  0.00000000E+00  0.00000000E+00
  0.00000000E+00  0.00000000E+00  0.00000000E+00
  0.00000000E+00  0.00000000E+00  0.00000000E+00
  0.00000000E+00  0.00000000E+00  0.00000000E+00
  0.00000000E+00  0.00000000E+00  0.00000000E+00
  0.00000000E+00  0.00000000E+00  0.00000000E+00
  0.00000000E+00  0.00000000E+00  0.00000000E+00
  0.00000000E+00  0.00000000E+00  0.00000000E+00
  0.00000000E+00  0.00000000E+00  0.00000000E+00
  0.00000000E+00  0.00000000E+00  0.00000000E+00
  0.00000000E+00  0.00000000E+00  0.00000000E+00
  0.00000000E+00  0.00000000E+00  0.00000000E+00
  0.00000000E+00  0.00000000E+00  0.00000000E+00
  0.00000000E+00  0.00000000E+00  0.00000000E+00
  0.00000000E+00  0.00000000E+00  0.00000000E+00
  0.00000000E+00  0.00000000E+00  0.00000000E+00
  0.00000000E+00  0.00000000E+00  0.00000000E+00
  0.00000000E+00  0.00000000E+00  0.00000000E+00
  0.00000000E+00  0.00000000E+00  0.00000000E+00
  0.00000000E+00  0.00000000E+00  0.00000000E+00
  0.00000000E+00  0.00000000E+00  0.00000000E+00
  0.00000000E+00  0.00000000E+00  0.00000000E+00
  0.00000000E+00  0.00000000E+00  0.00000000E+00
  0.00000000E+00  0.00000000E+00  0.00000000E+00
  0.00000000E+00  0.00000000E+00  0.00000000E+00
  0.00000000E+00  0.00000000E+00  0.00000000E+00
  0.00000000E+00  0.00000000E+00  0.00000000E+00
  0.00000000E+00  0.00000000E+00  0.00000000E+00
  0.00000000E+00  0.00000000E+00  0.00000000E+00
  0.00000000E+00  0.00000000E+00  0.00000000E+00
  0.00000000E+00  0.00000000E+00  0.00000000E+00
  0.00000000E+00  0.00000000E+00  0.00000000E+00
  0.00000000E+00  0.00000000E+00  0.00000000E+00
  0.00000000E+00  0.00000000E+00  0.00000000E+00
  0.00000000E+00  0.00000000E+00  0.00000000E+00
  0.00000000E+00  0.00000000E+00  0.00000000E+00
  0.00000000E+00  0.00000000E+00  0.00000000E+00
  0.00000000E+00  0.00000000E+00  0.00000000E+00
  0.00000000E+00  0.00000000E+00  0.00000000E+00
  0.00000000E+00  0.00000000E+00  0.00000000E+00
  0.00000000E+00  0.00000000E+00  0.00000000E+00
  0.00000000E+00  0.00000000E+00  0.00000000E+00
  0.00000000E+00  0.00000000E+00  0.00000000E+00
  0.00000000E+00  0.00000000E+00  0.00000000E+00
  0.00000000E+00  0.00000000E+00  0.00000000E+00
  0.00000000E+00  0.00000000E+00  0.00000000E+00
  0.00000000E+00  0.00000000E+00  0.00000000E+00
  0.00000000E+00  0.00000000E+00  0.00000000E+00
  0.00000000E+00  0.00000000E+00  0.00000000E+00
  0.00000000E+00  0.00000000E+00  0.00000000E+00
  0.00000000E+00  0.00000000E+00  0.00000000E+00
  0.00000000E+00  0.00000000E+00  0.00000000E+00
  0.00000000E+00  0.00000000E+00  0.00000000E+00
  0.00000000E+00  0.00000000E+00  0.00000000E+00
  0.00000000E+00  0.00000000E+00  0.00000000E+00
  0.00000000E+00  0.00000000E+00  0.00000000E+00
  0.00000000E+00  0.00000000E+00  0.00000000E+00
  0.00000000E+00  0.00000000E+00  0.00000000E+00
  0.00000000E+00  0.00000000E+00  0.00000000E+00
  0.00000000E+00  0.00000000E+00  0.00000000E+00
  0.00000000E+00  0.00000000E+00  0.00000000E+00
  0.00000000E+00  0.00000000E+00  0.00000000E+00
  0.00000000E+00  0.00000000E+00  0.00000000E+00
  0.00000000E+00  0.00000000E+00  0.00000000E+00
  0.00000000E+00  0.00000000E+00  0.00000000E+00
  0.00000000E+00  0.00000000E+00  0.00000000E+00
  0.00000000E+00  0.00000000E+00  0.00000000E+00
  0.00000000E+00  0.00000000E+00  0.00000000E+00
  0.00000000E+00  0.00000000E+00  0.00000000E+00
  0.00000000E+00  0.00000000E+00  0.00000000E+00
  0.00000000E+00  0.00000000E+00  0.00000000E+00
  0.00000000E+00  0.00000000E+00  0.00000000E+00
  0.00000000E+00  0.00000000E+00  0.00000000E+00
  0.00000000E+00  0.00000000E+00  0.00000000E+00
  0.00000000E+00  0.00000000E+00  0.00000000E+00
  0.00000000E+00  0.00000000E+00  0.00000000E+00
  0.00000000E+00  0.00000000E+00  0.00000000E+00
  0.00000000E+00  0.00000000E+00  0.00000000E+00
  0.00000000E+00  0.00000000E+00  0.00000000E+00
  0.00000000E+00  0.00000000E+00  0.00000000E+00
  0.00000000E+00  0.00000000E+00  0.00000000E+00
  0.00000000E+00  0.00000000E+00  0.00000000E+00
  0.00000000E+00  0.00000000E+00  0.00000000E+00
  0.00000000E+00  0.00000000E+00  0.00000000E+00
  0.00000000E+00  0.00000000E+00  0.00000000E+00
  0.00000000E+00  0.00000000E+00  0.00000000E+00
  0.00000000E+00  0.00000000E+00  0.00000000E+00
  0.00000000E+00  0.00000000E+00  0.00000000E+00
  0.00000000E+00  0.00000000E+00  0.00000000E+00
  0.00000000E+00  0.00000000E+00  0.00000000E+00
  0.00000000E+00  0.00000000E+00  0.00000000E+00
  0.00000000E+00  0.00000000E+00  0.00000000E+00
  0.00000000E+00  0.00000000E+00  0.00000000E+00
  0.00000000E+00  0.00000000E+00  0.00000000E+00
  0.00000000E+00  0.00000000E+00  0.00000000E+00
  0.00000000E+00  0.00000000E+00  0.00000000E+00
  0.00000000E+00  0.00000000E+00  0.00000000E+00
  0.00000000E+00  0.00000000E+00  0.00000000E+00
  0.00000000E+00  0.00000000E+00  0.00000000E+00
  0.00000000E+00  0.00000000E+00  0.00000000E+00
  0.00000000E+00  0.00000000E+00  0.00000000E+00
  0.00000000E+00  0.00000000E+00  0.00000000E+00
  0.00000000E+00  0.00000000E+00  0.00000000E+00
  0.00000000E+00  0.00000000E+00  0.00000000E+00
  0.00000000E+00  0.00000000E+00  0.00000000E+00
  0.00000000E+00  0.00000000E+00  0.00000000E+00
  0.00000000E+00  0.00000000E+00  0.00000000E+00
  0.00000000E+00  0.00000000E+00  0.00000000E+00
  0.00000000E+00  0.00000000E+00  0.00000000E+00
  0.00000000E+00  0.00000000E+00  0.00000000E+00
  0.00000000E+00  0.00000000E+00  0.00000000E+00
  0.00000000E+00  0.00000000E+00  0.00000000E+00
  0.00000000E+00  0.00000000E+00  0.00000000E+00
  0.00000000E+00  0.00000000E+00  0.00000000E+00
  0.00000000E+00  0.00000000E+00  0.00000000E+00
  0.00000000E+00  0.00000000E+00  0.00000000E+00
  0.00000000E+00  0.00000000E+00  0.00000000E+00
  0.00000000E+00  0.00000000E+00  0.00000000E+00
  0.00000000E+00  0.00000000E+00  0.00000000E+00
  0.00000000E+00  0.00000000E+00  0.00000000E+00
  0.00000000E+00  0.00000000E+00  0.00000000E+00
  0.00000000E+00  0.00000000E+00  0.00000000E+00
  0.00000000E+00  0.00000000E+00  0.00000000E+00
  0.00000000E+00  0.00000000E+00  0.00000000E+00
  0.00000000E+00  0.00000000E+00  0.00000000E+00
  0.00000000E+00  0.00000000E+00  0.00000000E+00
  0.00000000E+00  0.00000000E+00  0.00000000E+00
  0.00000000E+00  0.00000000E+00  0.00000000E+00
  0.00000000E+00  0.00000000E+00  0.00000000E+00
  0.00000000E+00  0.00000000E+00  0.00000000E+00
  0.00000000E+00  0.00000000E+00  0.00000000E+00
  0.00000000E+00  0.00000000E+00  0.00000000E+00
  0.00000000E+00  0.00000000E+00  0.00000000E+00
  0.00000000E+00  0.00000000E+00  0.00000000E+00
  0.00000000E+00  0.00000000E+00  0.00000000E+00
  0.00000000E+00  0.00000000E+00  0.00000000E+00
  0.00000000E+00  0.00000000E+00  0.00000000E+00
  0.00000000E+00  0.00000000E+00  0.00000000E+00
  0.00000000E+00  0.00000000E+00  0.00000000E+00
  0.00000000E+00  0.00000000E+00  0.00000000E+00
  0.00000000E+00  0.00000000E+00  0.00000000E+00
  0.00000000E+00  0.00000000E+00  0.00000000E+00
  0.00000000E+00  0.00000000E+00  0.00000000E+00
  0.00000000E+00  0.00000000E+00  0.00000000E+00
  0.00000000E+00  0.00000000E+00  0.00000000E+00
  0.00000000E+00  0.00000000E+00  0.00000000E+00
  0.00000000E+00  0.00000000E+00  0.00000000E+00
  0.00000000E+00  0.00000000E+00  0.00000000E+00
  0.00000000E+00  0.00000000E+00  0.00000000E+00
  0.00000000E+00  0.00000000E+00  0.00000000E+00
  0.00000000E+00  0.00000000E+00  0.00000000E+00
  0.00000000E+00  0.00000000E+00  0.00000000E+00
  0.00000000E+00  0.00000000E+00  0.00000000E+00
  0.00000000E+00  0.00000000E+00  0.00000000E+00
  0.00000000E+00  0.00000000E+00  0.00000000E+00
  0.00000000E+00  0.00000000E+00  0.00000000E+00
  0.00000000E+00  0.00000000E+00  0.00000000E+00
  0.00000000E+00  0.00000000E+00  0.00000000E+00
  0.00000000E+00  0.00000000E+00  0.00000000E+00
  0.00000000E+00  0.00000000E+00  0.00000000E+00
  0.00000000E+00  0.00000000E+00  0.00000000E+00
  0.00000000E+00  0.00000000E+00  0.00000000E+00
  0.00000000E+00  0.00000000E+00  0.00000000E+00
  0.00000000E+00  0.00000000E+00  0.00000000E+00
  0.00000000E+00  0.00000000E+00  0.00000000E+00
  0.00000000E+00  0.00000000E+00  0.00000000E+00
  0.00000000E+00  0.00000000E+00  0.00000000E+00
  0.00000000E+00  0.00000000E+00  0.00000000E+00
  0.00000000E+00  0.00000000E+00  0.00000000E+00
  0.00000000E+00  0.00000000E+00  0.00000000E+00
  0.00000000E+00  0.00000000E+00  0.00000000E+00
  0.00000000E+00  0.00000000E+00  0.00000000E+00
  0.00000000E+00  0.00000000E+00  0.00000000E+00
  0.00000000E+00  0.00000000E+00  0.00000000E+00
  0.00000000E+00  0.00000000E+00  0.00000000E+00
  0.00000000E+00  0.00000000E+00  0.00000000E+00