Amorphous GeAsSeSi                      
   1.00000000000000     
    19.2005447068223916    0.0000000000000000    0.0000000000000000
     0.0000000000000000   19.2005447068223916    0.0000000000000000
     0.0000000000000000    0.0000000000000000   19.2005447068223916
   Ge   As   Se
    96    48    96
Direct
  0.4266097290274825  0.5023172886977844  0.6629871158546132
  0.4160528541216061  0.2643340351268140  0.6527982897890083
  0.1498363709381261  0.0848373613659113  0.2351245818039454
  0.8327081069965420  0.3496740005577857  0.6549815262948870
  0.8083067085737028  0.5598643474543886  0.7142707509425559
  0.5590238332695802  0.4167284396909639  0.3451319852719472
  0.2878611266985716  0.2352308770828760  0.2051510930601388
  0.9757452565576827  0.6114078710415929  0.8475945695181762
  0.4232066024353902  0.9655850772365667  0.7364260082784244
  0.3680684256051797  0.3977323392988315  0.3326756047028786
  0.3421532691336201  0.8710171653990649  0.5109626731148444
  0.2013540626645602  0.5008301768991955  0.5193454164801664
  0.1232948484548972  0.9399371167179059  0.9783041533136989
  0.1095635407443863  0.1475083007748326  0.8211356403322668
  0.9960996935372060  0.6750996701942371  0.4600263004558514
  0.5404088112824805  0.2384960380233156  0.9768468418949353
  0.3453695381342655  0.6183056339373413  0.0476798168247052
  0.0927610489108610  0.4170307715530425  0.5800295468166796
  0.4682556145473157  0.4578860378253062  0.0809792664284560
  0.2635359365740459  0.7069846030522783  0.8841699203183575
  0.2635626293614032  0.9060599814487554  0.7168364305157124
  0.1864788893711536  0.9870040050187198  0.5725865217670748
  0.1832261275732810  0.8025590345263764  0.2459424200310277
  0.0745274976439710  0.7666464953309038  0.8207581275479521
  0.0532732597370772  0.9285711165710274  0.2405511238140884
  0.9351506265903424  0.4992370319443802  0.5390205830524128
  0.0857365153578340  0.3694823502711000  0.7719302048208374
  0.9493412870371315  0.2285754707802803  0.5397874257170993
  0.2163895457599805  0.1344348532461899  0.3466870302868341
 -0.0007426165783767  0.2141630989017289  0.2801662912470775
  0.5098625061461174  0.9338549307077308  0.6061020474831061
  0.2913199143484564  0.3448678663183819  0.9169753372038378
  0.7197585906625934  0.0281398851718259  0.5272536690511435
  0.9309851257825988  0.9331699983807110  0.5374533226861782
  0.2374336445771444  0.9850142306177921  0.0608468693200893
  0.7089936886854664  0.7756184658943732  0.5774708191050609
  0.4817997983362595  0.2917015279528922  0.4592449946057471
  0.7975351112790264  0.9229703492415388  0.5535056715577872
  0.3072802156220234  0.3555649469734001  0.7652394979093837
  0.3302831992381408  0.6908481687499912  0.4955968969194519
  0.3858557876654182  0.6011715734348689  0.8227700745918723
  0.9139671260838287  0.7784527565692013  0.6490075083055820
  0.8548082360463310  0.8556160693951719  0.1650082839470210
  0.5393763268676888  0.1997948827138120  0.5845231476995374
  0.7735213683381816  0.5004862981333974  0.0690667492141166
  0.7192395352738395  0.7108207009166994  0.8511606340314460
  0.4078051885869700  0.9851261148174245  0.0913051090421473
  0.5910643568782576  0.0190529567764896  0.8763260935714130
  0.0480180246998933  0.7912263907960031  0.4193329621577784
  0.9734195669529851  0.3959227303062073  0.9950229980115468
  0.9758512979139427  0.5667646918727167  0.0710417180374107
  0.3686840356634045  0.0520177832638915  0.1990396560787235
  0.5496542965864999  0.7745673124373755  0.7497821441073342
  0.4994141945333730  0.7667642226466456  0.2200506121967140
  0.8214138126037368  0.5494496056006202  0.3422449048334550
  0.2459010939355343  0.3053537122952710  0.6062460007399550
  0.8845052539097137  0.0196832870345353  0.3565794667454016
  0.1752751227049090  0.7166640477757099  0.1290535213973368
  0.6255641276870955  0.2286780410792527  0.7472096660090750
  0.3207322679484001  0.9248548789103342  0.9221141502948306
  0.4920618752138676  0.1878341521728001  0.7694847451687599
  0.9759236007185923  0.4042147095948143  0.2273529994811411
  0.9385164194984831  0.3988409911784903  0.4126036679965501
  0.6407161807678035  0.2125381420344177  0.3384018676380305
  0.2440373116451260  0.8888083681850428  0.3943299637530924
  0.7832949927067382  0.7625515684637382  0.9590197536882590
  0.1331497985117637  0.6257257668040205  0.6922231590714959
  0.2054124456210229  0.5962682638593703  0.8029913447965579
  0.1286699687843941  0.1246237809317149  0.4466866569895134
  0.2050117251853927  0.7049587482919096  0.4386637421785243
  0.4964269227703922  0.9104958266475877  0.0274284694293286
  0.5094805097566091  0.1696791373358359  0.1875803735610247
  0.8441190681646998  0.2703590559899512  0.8025077318805334
  0.1094425098625721  0.2445468782256751  0.9191417076094227
  0.7510316766513170  0.0210401115195495  0.2195779992193383
  0.7744229728555376  0.3852350388948148  0.7733126363822332
  0.6341925557972768  0.0928681854737134  0.0675536855511143
  0.0578379877689032  0.5736025554139486  0.5266548851870774
  0.5871280282877976  0.6414113002589120  0.7319213945981020
  0.4970835693363788  0.7718078075244107  0.5300754123988431
  0.9077824715805239  0.7327295767066653  0.9502785522938174
  0.0165590842252512  0.7930451620460589  0.9955570714074420
  0.9740928372650849  0.2756698974675159  0.0554213125899001
  0.0096508933341872  0.5851592500614001  0.7196353419411586
  0.4318139910180070  0.0648624049133392  0.3609676766435327
  0.0649344744817243  0.1026190220060126  0.0180854133255469
  0.3038359437860796  0.8049054609329799  0.0216778216429044
  0.3204719614755301  0.1321630969493726  0.5402227450551120
  0.9548250884985163  0.9552947658758264  0.0543991186764382
  0.9161132762371503  0.6680428063458836  0.2439836166601049
  0.6053075494389574  0.6436270186554920  0.3567090105289251
  0.2549320247299043  0.7283377017627395  0.7378064510584784
  0.7861582306028607  0.3638321091629306  0.5310280560223979
  0.5515419226044723  0.4190790252133507  0.6215044102202465
  0.9687797991970518  0.2520382280939570  0.8581069316420470
  0.0792379757217770  0.4841318698439718  0.3093823854937796
  0.3990889932156142  0.1707307584717075  0.8621369886925917
  0.0778078739384829 -0.0006754211312267  0.0956027155580783
  0.1785940355035196  0.5774334003990783  0.0717911624347655
  0.6093321821442419  0.2996111196516654  0.6348354467315005
  0.1733966515610408  0.6243509222682884  0.5681430873255997
  0.3095859209366578  0.3860194443803598  0.4579598102892187
  0.2652017195186258  0.4223662861979758  0.6564664776517166
  0.5221808945389773  0.1363445864671272  0.8913902334795065
  0.7649708558261935  0.2975446128025037  0.1090769668590915
  0.0813431485576620  0.5198400974919630  0.0052709535247929
  0.0206916121421031  0.6523838088779206  0.1621521595135046
  0.6658537048913179  0.5970582013520345  0.6308146194470007
  0.6612441670175107  0.5051299116917680  0.4739704015856558
  0.2544377086194869  0.4705065882224191  0.0642178340353132
  0.9319435158384770  0.8511130810841766  0.4365972639828652
  0.9843879127019101  0.4545855310527689  0.7340445513333445
  0.6137999481470849  0.6231406603256222  0.5114448368051913
  0.5784917355798647  0.8751408013284896  0.2158707634772900
  0.4398726532101330  0.8589387507315579  0.9204258624557300
  0.1481261128167197  0.4534102670758471  0.6957510023943407
  0.9463812148917128  0.0891611945630829  0.9615615891258514
  0.9243370448913830  0.1152755610442165  0.4637460934935607
  0.7827180391639481  0.3260020452728232  0.9773315431952270
  0.3926656748085269  0.3003513308376179  0.0629886469379232
  0.2581488654258708  0.5633000254523137  0.9687528888054376
  0.0851549594623445  0.0001511040738509  0.4394382821624442
  0.6212097315329562  0.1083011271284009  0.6415088700978544
  0.4368052159779565  0.4991104894048091  0.4876769027489956
  0.5336926030288459  0.5737768848504623  0.0593578323506419
  0.0024083738888557  0.0409979706389077  0.5319721152286667
  0.4842056642076482  0.6151425711271883  0.5288636721425403
  0.0939188257413073  0.2256983365830179  0.0498836034235038
  0.7439745361139829  0.7268516887636440  0.2489934316169495
  0.2663277150615881  0.2851562444740576  0.0509937508694056
  0.9582148866961910  0.3972765267162112  0.6219484480336354
  0.6711599514639488  0.3117339743819525  0.4913843037688237
  0.9295253987404449  0.7357106172198634  0.8208760721228754
  0.5717908817170191  0.4000113974958708  0.4869564866210592
  0.4037423672781865  0.1595475686901055  0.2610976573794359
  0.3438608960306868  0.2756455019302586  0.5254478230742478
  0.5893918469087635  0.2670372544698047  0.2206498252175810
  0.7460585836311394  0.8706029034753553  0.0845586880810520
  0.4993744278926344  0.5881859199733367  0.1819448230841445
  0.7513269263773994  0.1476422328562156  0.3858120364867351
  0.8592847889047054  0.7823842506967121  0.2743267177229387
  0.6905932902158409  0.2448678533543614  0.9221976861134464
  0.2002911600138088  0.3490086681605777  0.3908151676527030
  0.0204431388563350  0.1954102775987497  0.4281229894345984
  0.7847202643880397  0.8878058912339565  0.9626049922606166
  0.8197855404300288  0.5927736209248090  0.2145080125517629
  0.5009298706841259  0.5497392127755688  0.7652585410913054
  0.1561907807017528  0.9734465720722244  0.6956528510353122
  0.5909947120185711  0.0227344847112717  0.5462276467871366
  0.0280971229904844  0.3348339084207727  0.3361570207664504
  0.2941610381439939  0.2345503861593768  0.7080480871535547
  0.8650424298854963  0.2921858979811288  0.4540363032702948
  0.3794931841805659  0.9665336897872835  0.2887301762684503
  0.0569898111587272  0.7918650825917798  0.2930309906630822
  0.5427897958679381  0.4698101559924239  0.1891915187529104
  0.7340587784557914  0.4384074938665364  0.9612552816234753
  0.7648385182347847  0.1779525662545232  0.8459898472620373
  0.7334200603566071  0.7420145484482961  0.0720706935876566
  0.8288022249846233  0.1246583821683531  0.2871316757197302
  0.5606281109922039  0.1870271231395877  0.4443255289415822
  0.1289672739082620  0.2941679430776131  0.5625512119637209
  0.1291870682970944  0.5547654491203975  0.4172978585949011
  0.7002077244112471  0.8574219505638464  0.2394499074847306
  0.4758649982619564  0.0797658669909747  0.6966956702754575
  0.1087429589573829  0.5890116947304531  0.2243580239250607
  0.8111455354160562  0.4838508729757630  0.4948700484428206
  0.3466555127835410  0.0367151855204889  0.9917024257950122
  0.7338602404015820  0.4076454594193500  0.1535264236646298
  0.2744816804038966  0.7734985407879812  0.3346632250896476
  0.2479047352153526  0.2240022325735516  0.9370009821947488
  0.5672967543351954  0.0599619750012182  0.1773519905019115
  0.8903753550127675  0.1906695992891505  0.0055932787851635
  0.3109732047902113  0.0777628522951875  0.4210803595308383
  0.2744205281163350  0.2526336199840463  0.3430628710659469
  0.8763097927177304  0.9726018320843537  0.2149933457953245
  0.2031961269343596  0.4328507914496500  0.2964922693838329
  0.3176650271314561 -0.0035062533210830  0.8118792864030099
  0.3763323206679340  0.7691972283458582  0.5942710244740728
  0.0358432232221129  0.2593327542052394  0.7416138780921151
  0.7890904940004374  0.8501563739429898  0.6566994156953316
  0.1739410919118995  0.8060960860947277  0.0323231465153392
  0.3193829657446964  0.8950585304756158  0.1221728226901069
  0.2032216945009575  0.8137105980369678  0.8333845256776871
  0.7317584682464738  0.8516186312496279  0.4739151898409276
  0.4485651132008391  0.5053474766209083  0.3619858386943478
  0.9732654546229853  0.8348905040027815  0.1168963610962594
  0.3548244756945388  0.5218100356673846  0.1322278118904394
  0.4685402872138276  0.8970135928945595  0.4819294147645132
  0.1838643127553233  0.9305623341727797  0.2687238874825657
  0.4322180265345184  0.3782930235532636  0.7272118553810891
  0.9781975879744057  0.1215054040886216  0.8390107980093081
  0.3187354876302197  0.9681498599068633  0.5960465628122812
  0.3574134169839279  0.3429758536101842  0.1808205502701937
  0.9532328374243060  0.6107559436603248  0.3541703028533743
 -0.0052909345010069  0.9075336930471194  0.9345643571690188
  0.8898759828763975  0.6122031499991892  0.9906818315092306
  0.8658106748438118  0.4254822777926044  0.3066572463292980
  0.4395806726322372  0.6809244489215757  0.4261981941038992
  0.8174811050572536  0.6838226564167244  0.7699469025736275
  0.8732750842775762  0.4704371664040657  0.7993665871012191
  0.6588587928427369  0.8099718041381530  0.8079802437226096
  0.9803427380877668  0.8873774888805948  0.6403540387244097
  0.6596328526683513  0.5207789397514371  0.3463277416494979
  0.6702592311808894  0.4709038101773486  0.6399076897900557
  0.4557938175597891  0.6526271595846390 -0.0009171605549809
  0.0205688323551381  0.0280609829061465  0.3287377179166865
  0.7218118467560015  0.0243785673215095  0.3993854654964865
  0.9111797487360710  0.5970318503071307  0.6354414955947536
  0.6529991936266740  0.6057830907103571  0.8368469557440953
  0.0826941228398653  0.4119300008449330  0.0689922139485449
  0.3126661857415317  0.7131968107735164  0.1257405600816551
  0.0997050446373113  0.6527230334819931  0.8792447974172580
  0.0867379160084382  0.7457707453991055  0.6922277593156603
  0.7210356120958439  0.7028800047742323  0.3701179564356368
  0.1543728513104830  0.8243770255691319  0.4829558850342798
  0.9056754684242690  0.4605770918453825  0.0951056124652001
  0.1193598166997391  0.2111656057859242  0.2244672992445072
  0.3256762393542446  0.5630184691455097  0.5256351785689790
  0.9324102375078478  0.2855328415050014  0.1771856423485093
  0.4223173507771701  0.2887061782267762  0.9068562288554028
  0.7288384287878612  0.1435221091004242  0.5722697375483807
  0.8975088713539939  0.7507860201404065  0.5083450382978775
  0.6036351946214291  0.9669038525947704 -0.0050465849952916
  0.6474909989865306  0.2367506210871230  0.1120062277845467
  0.5081518278014315  0.9248972897224956  0.8343669746872667
  0.6889519644661364  0.3281422824658386  0.3614679875108734
  0.8463642869800529  0.2277670269295065  0.6798067134166033
  0.2544198241543997  0.0867285592685723  0.1474278285732426
  0.3211146142457573  0.5715219053013422  0.7150899678756166
  0.4666227100189114  0.3062636945472652  0.3330582512212343
  0.1223072377324022  0.3714057467066210  0.8929172986509020
  0.4534176653627380  0.1798521365897666  0.0711784474138513
  0.6350270513141523  0.3230771101854942  0.8383092580934829
  0.5892550374956053  0.8276211081142809  0.6301846421815341
  0.7530850927583919  0.0469745850812619  0.0935419180921212
  0.5940629011870646  0.6710789187094819  0.2202317852110184
  0.1472837484812108  0.0690681022499394  0.9275197714519924
  0.5517135918622557  0.8171002181835282  0.1037829571236685
  0.1898030003797296  0.1263139513896253  0.5625737659769000
  0.3709139346466394  0.7368749621290924  0.8099070956128449
 
  0.00000000E+00  0.00000000E+00  0.00000000E+00
  0.00000000E+00  0.00000000E+00  0.00000000E+00
  0.00000000E+00  0.00000000E+00  0.00000000E+00
  0.00000000E+00  0.00000000E+00  0.00000000E+00
  0.00000000E+00  0.00000000E+00  0.00000000E+00
  0.00000000E+00  0.00000000E+00  0.00000000E+00
  0.00000000E+00  0.00000000E+00  0.00000000E+00
  0.00000000E+00  0.00000000E+00  0.00000000E+00
  0.00000000E+00  0.00000000E+00  0.00000000E+00
  0.00000000E+00  0.00000000E+00  0.00000000E+00
  0.00000000E+00  0.00000000E+00  0.00000000E+00
  0.00000000E+00  0.00000000E+00  0.00000000E+00
  0.00000000E+00  0.00000000E+00  0.00000000E+00
  0.00000000E+00  0.00000000E+00  0.00000000E+00
  0.00000000E+00  0.00000000E+00  0.00000000E+00
  0.00000000E+00  0.00000000E+00  0.00000000E+00
  0.00000000E+00  0.00000000E+00  0.00000000E+00
  0.00000000E+00  0.00000000E+00  0.00000000E+00
  0.00000000E+00  0.00000000E+00  0.00000000E+00
  0.00000000E+00  0.00000000E+00  0.00000000E+00
  0.00000000E+00  0.00000000E+00  0.00000000E+00
  0.00000000E+00  0.00000000E+00  0.00000000E+00
  0.00000000E+00  0.00000000E+00  0.00000000E+00
  0.00000000E+00  0.00000000E+00  0.00000000E+00
  0.00000000E+00  0.00000000E+00  0.00000000E+00
  0.00000000E+00  0.00000000E+00  0.00000000E+00
  0.00000000E+00  0.00000000E+00  0.00000000E+00
  0.00000000E+00  0.00000000E+00  0.00000000E+00
  0.00000000E+00  0.00000000E+00  0.00000000E+00
  0.00000000E+00  0.00000000E+00  0.00000000E+00
  0.00000000E+00  0.00000000E+00  0.00000000E+00
  0.00000000E+00  0.00000000E+00  0.00000000E+00
  0.00000000E+00  0.00000000E+00  0.00000000E+00
  0.00000000E+00  0.00000000E+00  0.00000000E+00
  0.00000000E+00  0.00000000E+00  0.00000000E+00
  0.00000000E+00  0.00000000E+00  0.00000000E+00
  0.00000000E+00  0.00000000E+00  0.00000000E+00
  0.00000000E+00  0.00000000E+00  0.00000000E+00
  0.00000000E+00  0.00000000E+00  0.00000000E+00
  0.00000000E+00  0.00000000E+00  0.00000000E+00
  0.00000000E+00  0.00000000E+00  0.00000000E+00
  0.00000000E+00  0.00000000E+00  0.00000000E+00
  0.00000000E+00  0.00000000E+00  0.00000000E+00
  0.00000000E+00  0.00000000E+00  0.00000000E+00
  0.00000000E+00  0.00000000E+00  0.00000000E+00
  0.00000000E+00  0.00000000E+00  0.00000000E+00
  0.00000000E+00  0.00000000E+00  0.00000000E+00
  0.00000000E+00  0.00000000E+00  0.00000000E+00
  0.00000000E+00  0.00000000E+00  0.00000000E+00
  0.00000000E+00  0.00000000E+00  0.00000000E+00
  0.00000000E+00  0.00000000E+00  0.00000000E+00
  0.00000000E+00  0.00000000E+00  0.00000000E+00
  0.00000000E+00  0.00000000E+00  0.00000000E+00
  0.00000000E+00  0.00000000E+00  0.00000000E+00
  0.00000000E+00  0.00000000E+00  0.00000000E+00
  0.00000000E+00  0.00000000E+00  0.00000000E+00
  0.00000000E+00  0.00000000E+00  0.00000000E+00
  0.00000000E+00  0.00000000E+00  0.00000000E+00
  0.00000000E+00  0.00000000E+00  0.00000000E+00
  0.00000000E+00  0.00000000E+00  0.00000000E+00
  0.00000000E+00  0.00000000E+00  0.00000000E+00
  0.00000000E+00  0.00000000E+00  0.00000000E+00
  0.00000000E+00  0.00000000E+00  0.00000000E+00
  0.00000000E+00  0.00000000E+00  0.00000000E+00
  0.00000000E+00  0.00000000E+00  0.00000000E+00
  0.00000000E+00  0.00000000E+00  0.00000000E+00
  0.00000000E+00  0.00000000E+00  0.00000000E+00
  0.00000000E+00  0.00000000E+00  0.00000000E+00
  0.00000000E+00  0.00000000E+00  0.00000000E+00
  0.00000000E+00  0.00000000E+00  0.00000000E+00
  0.00000000E+00  0.00000000E+00  0.00000000E+00
  0.00000000E+00  0.00000000E+00  0.00000000E+00
  0.00000000E+00  0.00000000E+00  0.00000000E+00
  0.00000000E+00  0.00000000E+00  0.00000000E+00
  0.00000000E+00  0.00000000E+00  0.00000000E+00
  0.00000000E+00  0.00000000E+00  0.00000000E+00
  0.00000000E+00  0.00000000E+00  0.00000000E+00
  0.00000000E+00  0.00000000E+00  0.00000000E+00
  0.00000000E+00  0.00000000E+00  0.00000000E+00
  0.00000000E+00  0.00000000E+00  0.00000000E+00
  0.00000000E+00  0.00000000E+00  0.00000000E+00
  0.00000000E+00  0.00000000E+00  0.00000000E+00
  0.00000000E+00  0.00000000E+00  0.00000000E+00
  0.00000000E+00  0.00000000E+00  0.00000000E+00
  0.00000000E+00  0.00000000E+00  0.00000000E+00
  0.00000000E+00  0.00000000E+00  0.00000000E+00
  0.00000000E+00  0.00000000E+00  0.00000000E+00
  0.00000000E+00  0.00000000E+00  0.00000000E+00
  0.00000000E+00  0.00000000E+00  0.00000000E+00
  0.00000000E+00  0.00000000E+00  0.00000000E+00
  0.00000000E+00  0.00000000E+00  0.00000000E+00
  0.00000000E+00  0.00000000E+00  0.00000000E+00
  0.00000000E+00  0.00000000E+00  0.00000000E+00
  0.00000000E+00  0.00000000E+00  0.00000000E+00
  0.00000000E+00  0.00000000E+00  0.00000000E+00
  0.00000000E+00  0.00000000E+00  0.00000000E+00
  0.00000000E+00  0.00000000E+00  0.00000000E+00
  0.00000000E+00  0.00000000E+00  0.00000000E+00
  0.00000000E+00  0.00000000E+00  0.00000000E+00
  0.00000000E+00  0.00000000E+00  0.00000000E+00
  0.00000000E+00  0.00000000E+00  0.00000000E+00
  0.00000000E+00  0.00000000E+00  0.00000000E+00
  0.00000000E+00  0.00000000E+00  0.00000000E+00
  0.00000000E+00  0.00000000E+00  0.00000000E+00
  0.00000000E+00  0.00000000E+00  0.00000000E+00
  0.00000000E+00  0.00000000E+00  0.00000000E+00
  0.00000000E+00  0.00000000E+00  0.00000000E+00
  0.00000000E+00  0.00000000E+00  0.00000000E+00
  0.00000000E+00  0.00000000E+00  0.00000000E+00
  0.00000000E+00  0.00000000E+00  0.00000000E+00
  0.00000000E+00  0.00000000E+00  0.00000000E+00
  0.00000000E+00  0.00000000E+00  0.00000000E+00
  0.00000000E+00  0.00000000E+00  0.00000000E+00
  0.00000000E+00  0.00000000E+00  0.00000000E+00
  0.00000000E+00  0.00000000E+00  0.00000000E+00
  0.00000000E+00  0.00000000E+00  0.00000000E+00
  0.00000000E+00  0.00000000E+00  0.00000000E+00
  0.00000000E+00  0.00000000E+00  0.00000000E+00
  0.00000000E+00  0.00000000E+00  0.00000000E+00
  0.00000000E+00  0.00000000E+00  0.00000000E+00
  0.00000000E+00  0.00000000E+00  0.00000000E+00
  0.00000000E+00  0.00000000E+00  0.00000000E+00
  0.00000000E+00  0.00000000E+00  0.00000000E+00
  0.00000000E+00  0.00000000E+00  0.00000000E+00
  0.00000000E+00  0.00000000E+00  0.00000000E+00
  0.00000000E+00  0.00000000E+00  0.00000000E+00
  0.00000000E+00  0.00000000E+00  0.00000000E+00
  0.00000000E+00  0.00000000E+00  0.00000000E+00
  0.00000000E+00  0.00000000E+00  0.00000000E+00
  0.00000000E+00  0.00000000E+00  0.00000000E+00
  0.00000000E+00  0.00000000E+00  0.00000000E+00
  0.00000000E+00  0.00000000E+00  0.00000000E+00
  0.00000000E+00  0.00000000E+00  0.00000000E+00
  0.00000000E+00  0.00000000E+00  0.00000000E+00
  0.00000000E+00  0.00000000E+00  0.00000000E+00
  0.00000000E+00  0.00000000E+00  0.00000000E+00
  0.00000000E+00  0.00000000E+00  0.00000000E+00
  0.00000000E+00  0.00000000E+00  0.00000000E+00
  0.00000000E+00  0.00000000E+00  0.00000000E+00
  0.00000000E+00  0.00000000E+00  0.00000000E+00
  0.00000000E+00  0.00000000E+00  0.00000000E+00
  0.00000000E+00  0.00000000E+00  0.00000000E+00
  0.00000000E+00  0.00000000E+00  0.00000000E+00
  0.00000000E+00  0.00000000E+00  0.00000000E+00
  0.00000000E+00  0.00000000E+00  0.00000000E+00
  0.00000000E+00  0.00000000E+00  0.00000000E+00
  0.00000000E+00  0.00000000E+00  0.00000000E+00
  0.00000000E+00  0.00000000E+00  0.00000000E+00
  0.00000000E+00  0.00000000E+00  0.00000000E+00
  0.00000000E+00  0.00000000E+00  0.00000000E+00
  0.00000000E+00  0.00000000E+00  0.00000000E+00
  0.00000000E+00  0.00000000E+00  0.00000000E+00
  0.00000000E+00  0.00000000E+00  0.00000000E+00
  0.00000000E+00  0.00000000E+00  0.00000000E+00
  0.00000000E+00  0.00000000E+00  0.00000000E+00
  0.00000000E+00  0.00000000E+00  0.00000000E+00
  0.00000000E+00  0.00000000E+00  0.00000000E+00
  0.00000000E+00  0.00000000E+00  0.00000000E+00
  0.00000000E+00  0.00000000E+00  0.00000000E+00
  0.00000000E+00  0.00000000E+00  0.00000000E+00
  0.00000000E+00  0.00000000E+00  0.00000000E+00
  0.00000000E+00  0.00000000E+00  0.00000000E+00
  0.00000000E+00  0.00000000E+00  0.00000000E+00
  0.00000000E+00  0.00000000E+00  0.00000000E+00
  0.00000000E+00  0.00000000E+00  0.00000000E+00
  0.00000000E+00  0.00000000E+00  0.00000000E+00
  0.00000000E+00  0.00000000E+00  0.00000000E+00
  0.00000000E+00  0.00000000E+00  0.00000000E+00
  0.00000000E+00  0.00000000E+00  0.00000000E+00
  0.00000000E+00  0.00000000E+00  0.00000000E+00
  0.00000000E+00  0.00000000E+00  0.00000000E+00
  0.00000000E+00  0.00000000E+00  0.00000000E+00
  0.00000000E+00  0.00000000E+00  0.00000000E+00
  0.00000000E+00  0.00000000E+00  0.00000000E+00
  0.00000000E+00  0.00000000E+00  0.00000000E+00
  0.00000000E+00  0.00000000E+00  0.00000000E+00
  0.00000000E+00  0.00000000E+00  0.00000000E+00
  0.00000000E+00  0.00000000E+00  0.00000000E+00
  0.00000000E+00  0.00000000E+00  0.00000000E+00
  0.00000000E+00  0.00000000E+00  0.00000000E+00
  0.00000000E+00  0.00000000E+00  0.00000000E+00
  0.00000000E+00  0.00000000E+00  0.00000000E+00
  0.00000000E+00  0.00000000E+00  0.00000000E+00
  0.00000000E+00  0.00000000E+00  0.00000000E+00
  0.00000000E+00  0.00000000E+00  0.00000000E+00
  0.00000000E+00  0.00000000E+00  0.00000000E+00
  0.00000000E+00  0.00000000E+00  0.00000000E+00
  0.00000000E+00  0.00000000E+00  0.00000000E+00
  0.00000000E+00  0.00000000E+00  0.00000000E+00
  0.00000000E+00  0.00000000E+00  0.00000000E+00
  0.00000000E+00  0.00000000E+00  0.00000000E+00
  0.00000000E+00  0.00000000E+00  0.00000000E+00
  0.00000000E+00  0.00000000E+00  0.00000000E+00
  0.00000000E+00  0.00000000E+00  0.00000000E+00
  0.00000000E+00  0.00000000E+00  0.00000000E+00
  0.00000000E+00  0.00000000E+00  0.00000000E+00
  0.00000000E+00  0.00000000E+00  0.00000000E+00
  0.00000000E+00  0.00000000E+00  0.00000000E+00
  0.00000000E+00  0.00000000E+00  0.00000000E+00
  0.00000000E+00  0.00000000E+00  0.00000000E+00
  0.00000000E+00  0.00000000E+00  0.00000000E+00
  0.00000000E+00  0.00000000E+00  0.00000000E+00
  0.00000000E+00  0.00000000E+00  0.00000000E+00
  0.00000000E+00  0.00000000E+00  0.00000000E+00
  0.00000000E+00  0.00000000E+00  0.00000000E+00
  0.00000000E+00  0.00000000E+00  0.00000000E+00
  0.00000000E+00  0.00000000E+00  0.00000000E+00
  0.00000000E+00  0.00000000E+00  0.00000000E+00
  0.00000000E+00  0.00000000E+00  0.00000000E+00
  0.00000000E+00  0.00000000E+00  0.00000000E+00
  0.00000000E+00  0.00000000E+00  0.00000000E+00
  0.00000000E+00  0.00000000E+00  0.00000000E+00
  0.00000000E+00  0.00000000E+00  0.00000000E+00
  0.00000000E+00  0.00000000E+00  0.00000000E+00
  0.00000000E+00  0.00000000E+00  0.00000000E+00
  0.00000000E+00  0.00000000E+00  0.00000000E+00
  0.00000000E+00  0.00000000E+00  0.00000000E+00
  0.00000000E+00  0.00000000E+00  0.00000000E+00
  0.00000000E+00  0.00000000E+00  0.00000000E+00
  0.00000000E+00  0.00000000E+00  0.00000000E+00
  0.00000000E+00  0.00000000E+00  0.00000000E+00
  0.00000000E+00  0.00000000E+00  0.00000000E+00
  0.00000000E+00  0.00000000E+00  0.00000000E+00
  0.00000000E+00  0.00000000E+00  0.00000000E+00
  0.00000000E+00  0.00000000E+00  0.00000000E+00
  0.00000000E+00  0.00000000E+00  0.00000000E+00
  0.00000000E+00  0.00000000E+00  0.00000000E+00
  0.00000000E+00  0.00000000E+00  0.00000000E+00
  0.00000000E+00  0.00000000E+00  0.00000000E+00
  0.00000000E+00  0.00000000E+00  0.00000000E+00
  0.00000000E+00  0.00000000E+00  0.00000000E+00
  0.00000000E+00  0.00000000E+00  0.00000000E+00
  0.00000000E+00  0.00000000E+00  0.00000000E+00
  0.00000000E+00  0.00000000E+00  0.00000000E+00
  0.00000000E+00  0.00000000E+00  0.00000000E+00
  0.00000000E+00  0.00000000E+00  0.00000000E+00
  0.00000000E+00  0.00000000E+00  0.00000000E+00
  0.00000000E+00  0.00000000E+00  0.00000000E+00
  0.00000000E+00  0.00000000E+00  0.00000000E+00
  0.00000000E+00  0.00000000E+00  0.00000000E+00
