GaS-N                                   
   1.00000000000000     
    18.1325844232941087    0.2628096024392369    0.0471810173289061
     0.2632720428842935   18.0762091499052993   -0.0638391075307147
     0.0471217168883920   -0.0643296768109957   17.9584598017087593
   Ga   S    N 
   128   127    45
Direct
  0.9842262975601678  0.6805389347402565  0.2181161180429144
  0.3413044894028877  0.1881328517545209  0.0514708209793394
  0.7796674687271488  0.7632413398480179  0.4978995257019038
  0.6761091224062766  0.0850647229324049  0.9111953116430316
  0.4856214384401801  0.2331982629749574  0.9648291623673968
  0.3607327784383308  0.7825519499477526  0.9955875726198313
  0.6073475954595857  0.6472332265767465  0.7987705032559219
  0.6508300297134691  0.2452591765510650  0.4608143411969184
  0.7191497568945221  0.5838235787639116  0.5062856306072450
  0.0959597004075464  0.7740068920388621  0.9269401364181614
  0.5379481448554357  0.9919825857722869  0.8389952096051184
  0.5730627477539725  0.3982065171730812  0.3873936326094099
  0.9257914526536509  0.5221275493665298  0.9183948360940291
  0.9208620796745568  0.3422770290853095  0.5019311657285707
  0.1862799018351262  0.7414144593652302  0.5389435482714128
  0.2074111551417043  0.9707267231877994  0.7505423406770394
  0.4399061003075871  0.0741530293582806  0.9092924091931783
  0.6787107129399571  0.4256423554175381  0.6118891558784409
  0.2838124481006260  0.5033062699278659  0.8762996690071824
  0.5151295742038896  0.4774148990298280  0.2163332114471987
  0.7973857260661297  0.2461106486172574  0.8072023440825286
  0.1005536611744106  0.4462709353183829  0.6321679623309866
  0.1728662295763327  0.1783799277575705  0.7506670873629895
  0.0328686742656466  0.0315383011177012  0.5473636223266187
  0.2967781313299836  0.3953461838457662  0.6320966723744843
  0.8584218272199108  0.8102512457732951  0.1384713787769360
  0.6489163552035184  0.3036853333461947  0.8932739291358025
  0.8635126385310916  0.6640131390410323  0.5837475245977135
  0.5631816283434494  0.3953135501074461  0.0301377694178089
  0.7758361112322507  0.9185158276200101  0.9389225154184920
  0.7325787298930670  0.9501951029055979  0.8114838490664232
  0.7336241791985967  0.4248153051252814  0.7955299336383562
  0.7648529917730656  0.1260171215246320  0.3347752517610494
  0.6572658422394621  0.8024747265762870  0.7547711087356967
  0.8369066324553367  0.3761359107359951  0.1523004405177434
  0.4658674519615468  0.6179006204375379  0.9390592299400968
  0.9403846955803071  0.3058778329629392  0.3228964234851732
  0.0488733679949927  0.8002815965218929  0.1147373230361555
  0.7866074390529653  0.1824944723493249  0.6181469623768241
  0.9023707459694973  0.9685660234918090  0.4441380527803986
  0.3321759220936841  0.4775987864962800  0.1272180493836456
  0.1886407783754641  0.4348427978201762  0.2669311348121362
  0.6787902769223029  0.7077786648342667  0.1012128818904028
  0.8013370398459604  0.6743411670537298  0.3077219277709592
  0.9897678548573482  0.3205786365142487  0.0108509184727684
  0.8546318058198817  0.4732867105766830  0.5809147788704185
  0.9477761269416498  0.7667518759910101  0.4158373321614627
  0.4922744767792667  0.8274478976992673  0.1315844264898805
  0.9407322241385199  0.6479628613827466  0.7800659133007884
  0.9080613648987130  0.7361932348874692  0.9643949542738924
  0.7510916197227532  0.6790112315117827  0.8937712045016526
  0.7472394031197771  0.3321637123397170  0.3315348442833282
  0.2586902208018504  0.0208053017770917  0.0313292142713828
  0.5087710905823660  0.0978370124414620  0.4018165278005688
  0.4680129818031284  0.7550996320577881  0.3922555952231444
  0.6211586913990204  0.8513002890257307  0.4828489449475284
  0.0838706751211125  0.1223963554131076  0.3394065002805131
  0.5411829817859947  0.5570098258253618  0.6317787493371235
  0.2256448538940011  0.4562173977464273  0.4699012839023449
  0.1487309361554276  0.9184694430674629  0.2122362427791032
  0.4244595525327279  0.6291497289565801  0.4821007013553866
  0.9404934544367182  0.9445711323664975  0.7400433394940685
  0.0592124009114440  0.4041182896085319  0.4070188650299599
  0.3641891754628757  0.1801733970193865  0.6057818356462982
  0.4205331635297801  0.5768004039198795  0.1080262717349722
  0.2440723620869195  0.6776707575502714  0.9654344317653830
  0.0402672432745928  0.0375384621147732  0.8195037848603450
  0.2167781679434323  0.3520948461726252  0.7772740516402952
  0.6034893546456784  0.4559250137734150  0.7912388379300704
  0.8754225318871579  0.0424329523026535  0.0795785818521535
  0.9929536119422835  0.4920200315708209  0.1951004854478195
  0.1645120637936406  0.9250614153306224  0.0388805972567295
  0.1802927383843394  0.1354128950625390  0.6207336097151723
  0.2048556393588432  0.9203535148399730  0.5760599063369396
  0.1103935801363987  0.2621451109682530  0.1775240348643370
  0.4084602668504632  0.3793916972894952  0.9599500996086018
  0.5848349691156292  0.7907414475217862  0.9469446263919520
  0.6830614892619078  0.0321036218249402  0.1102325194608414
  0.6141454615529602  0.1628458409019176  0.2301620993501962
  0.3853976185939715  0.6688066873106795  0.8436497053115241
  0.1397453007713539  0.6538722972825803  0.8270586955927782
  0.7988141928238739  0.4005992461057432  0.0001125053923501
  0.8720828596803448  0.4551073139489245  0.4085004903126035
  0.0611062413216091  0.0891200131014873  0.1372559206334291
  0.9673842567084694  0.8523520187653033  0.2594797445148507
  0.2780454930426809  0.7937732819702410  0.8230394731329665
  0.0135718138097738  0.1916806806682019  0.6319359648602514
  0.6654342312216117  0.5340069540816185  0.9697486189751220
  0.2582921589344820  0.8736980826176767  0.4285041416464289
  0.5683320693875417  0.9595578369781234  0.6352176281044950
  0.7188173706296052  0.4044819701699257  0.4867386639205830
  0.2750525825594369  0.0736075829804923  0.4465110080064186
  0.0648646767061104  0.1784898052963839  0.4678853106107212
  0.6211695154509290  0.3664951323814624  0.2144057468865828
  0.4425807961842652  0.6385679042475120  0.2732009041937727
  0.0890390423242203  0.6055895789863827  0.0129664886624203
  0.8036129293756857  0.0010686467406196  0.2255664802742484
  0.0622334294666842  0.4820142445415473  0.0741001414022418
  0.5190695931031212  0.7472719503415597  0.6648740106856103
  0.3673138690044043  0.3424407645469467  0.4794608187158176
  0.1405832332655242  0.5335043615673707  0.7691860074256250
  0.2170343196423626  0.2536552558456769  0.3501852962359002
  0.3994730650065674  0.4992849666070793  0.5106429281626295
  0.6968413746759832  0.0412003886012175  0.5483392708961415
  0.3001721298962391  0.7085101118541794  0.3932049916087015
  0.6733580284983430  0.5125492692230305  0.3293088971924925
  0.6025620095385997  0.6140952008494898  0.1663032395016953
  0.5408456164753389  0.1308678736090190  0.5992010223502001
  0.3195467665083480  0.8470362284195179  0.2869418393814460
  0.1235010218471624  0.7761266627405757  0.7156844696177510
  0.3474705593125277  0.7829006945543048  0.5583450602769883
  0.6284674857084697  0.9778151226306374  0.3119627989424751
  0.4636789509830225  0.9125121792176093  0.4456001709620047
  0.9826360945290754  0.2110739845941602  0.8312536492219109
  0.3799016513678116  0.0290668713869498  0.5264966821423936
  0.6200056300572294  0.0806402818578496  0.7344526167752078
  0.9653496679160789  0.7998396968481175  0.5698059563381983
  0.0133265917394203  0.1251032763447509  0.9749101483091664
  0.4803348324486518  0.0973260904363097  0.0857771164377229
  0.2061598996527142  0.6444568839537711  0.2278624361462227
  0.6508397473374670  0.2693896606761372  0.7180902891298887
  0.2794284626518070  0.6753753580730600  0.7155822815648476
  0.4307783075528769  0.3011077804079236  0.1253045924519776
  0.4190723596905474  0.9075424078321889  0.9928534833958148
  0.8740886931688426  0.0691321560478106  0.8769071029864043
  0.7768978960749395  0.8595911143020804  0.6516537671822352
  0.1529548824326135  0.7352326377881369  0.3256336583261996
  0.4357389135727868  0.0509765789706343  0.7023376368006857
  0.6681644192148183  0.9838033076985290  0.9941043382040243
  0.0801487299740831  0.7215083354613027  0.6083824457038338
  0.7005620380330851  0.6891640486386915  0.4400063218033662
  0.4109383971014595  0.4012296159190737  0.2101429338542689
  0.3800365158462947  0.1583741352865111  0.3906967842950388
  0.3657288021203982  0.9986095407538830  0.3579107767251677
  0.3932412632372201  0.2713344951737097  0.8875446800509063
  0.9076369654282342  0.5850541180796393  0.2186197058110420
  0.2535743561216639  0.7563559307980446  0.0716689394960033
  0.4135516957971385  0.1778180913134372  0.1651698871787134
  0.3085829632941585  0.9050685039929953  0.7789841967470761
  0.4014010224922293  0.3010036817378348  0.5939010879520378
  0.8337998549218829  0.0167426958273632  0.7658801223156152
  0.0217450082882586  0.6851725721204706  0.3441957962584429
  0.3458144060002408  0.2665543882994848  0.3735493583398087
  0.1742485982167639  0.4446092673278091  0.8591957992907513
  0.4311375151244677  0.7741035612932804  0.2696371562709466
  0.4452665095271774  0.4148934531338871  0.4110310588919959
  0.6693373738699057  0.5586320248318302  0.6264071897119502
  0.7648149922863102  0.9209123616794591  0.5329228231449482
  0.2846934071177931  0.5595061903630376  0.9890947414551930
  0.2106334475975336  0.5152925882474635  0.1715546661823873
  0.1249688348935020  0.8978583221087080  0.6793980401899006
  0.5719805236401753  0.9719739666851901  0.4981416200323502
  0.5958130873532514  0.8353995585053420  0.6113758370147612
  0.4144788065614013  0.8998492258060036  0.5633314267996118
  0.7294903223144079  0.1582730263317685  0.7338812322515131
  0.0651000556501855  0.0196253192719752  0.0276132264188132
  0.4009300349570240  0.7924278660773394  0.6907034142591453
  0.4448427228450831  0.6911444906548135  0.0480903191377500
  0.5259072351501457  0.5576627704674607  0.7658762335346824
  0.8122635745086139  0.8094114728381733  0.0166390602017955
  0.6038309508354305  0.1344243902561076  0.1021644689956188
  0.5844069077602931  0.3774868251964391  0.6844198304092090
  0.8076277887780365  0.4720520545134322  0.8963599524569446
  0.9051088101599759  0.8399832617688252  0.6786040629427270
  0.2134939301461088  0.3105323408010164  0.2344280040467141
  0.5216782055885109  0.6640591912581743  0.5661339977120372
  0.0229052648235999  0.8538990802542226  0.4757936349502362
  0.8676532331650338  0.2981441313866082  0.0444092241830804
  0.3256090129053507  0.5739938412676852  0.7778985028484109
  0.9988523419914423  0.8178388612076872  0.9949431801647100
  0.1320499962260446  0.2958548022170703  0.4399184388349291
  0.1800215851200179  0.8625416910899848  0.9236065147674017
  0.6908713688285639  0.2585401174876937  0.5819535922825556
  0.3252890738161756  0.6104727420769408  0.3107722973935103
  0.6940745585469822  0.7960989756913438  0.8815359324275864
  0.8862229224049659  0.9800372477026195  0.9702045012421836
  0.0886570903164082  0.8539069526803286  0.3047643408487608
  0.8366976469780812  0.2485912899508117  0.3662359215150247
  0.3427004601964564 -0.0060042734580610  0.9338124023061584
  0.7919406353254367  0.4503308537942212  0.3080543903668871
  0.2733788068753830  0.9347706412638777  0.2094572194637399
  0.4673924131230910  0.9705172232050872  0.0957434168410435
  0.5022054572114167  0.8735378884788686  0.8910661011707659
  0.9456637353293953  0.3706317130038247  0.2127550060495633
  0.2851442692843956  0.6687913355976040  0.5911415086806626
  0.6548013863830332  0.0846624131331192  0.4283804447193859
  0.7721346819796976  0.1583399638242218  0.1652283515811179
  0.1072979927195846  0.4833088006821839  0.4989374736081027
  0.0634605875688264  0.0249985979057588  0.2486657706852311
  0.8253021154012617  0.4830442161801746  0.0908345066358057
  0.0763799773201920  0.4806217058056799  0.3050283262143405
  0.5440616821229872  0.1884635223744499  0.7181382374049099
  0.5311355607600091  0.1993273303004970  0.4892501878667321
  0.2997509815271477  0.6980837151099610  0.1602198147711540
  0.6209837181204882  0.8186847580875075  0.0639823636784936
  0.0595779197569985  0.2523075757604599  0.7361432353408009
  0.3859647649673824  0.3908506428725071  0.7931270022298069
  0.4784867555858793  0.5044680648339358  0.0042854880936538
  0.5138901977075334  0.6359157628430645  0.3806697067864686
  0.9695289021553293  0.4130631642669347  0.5972204275552917
  0.7834439153685676  0.1520519677519764  0.9187427047208689
  0.2739910347693073  0.4352173155963475  0.3583457610562865
  0.4530459691114083  0.4735409755177907  0.6207277619117697
  0.8150369302221303  0.0817524314491644  0.5512375725219203
  0.0913102638627915  0.6759158875136626  0.1351290429495351
  0.8624359389560929  0.7299609400462754  0.8454302261258051
  0.2136760183445771  0.2494937144308391  0.8455275212430537
  0.6856998764670226  0.3380564402815784  0.0116064390446372
  0.0106015760242111  0.0360639193806842  0.6910445142520107
  0.3464798802271835  0.2016932394330003  0.7306569839298185
  0.5535237381164144  0.2717338746886047  0.2600863021462713
  0.2032458840657148  0.5197094587133343  0.6568854348544350
  0.7610559561223323  0.7562904416565535  0.1918752110863634
  0.8997949939840698  0.9341330475526956  0.1651862137640916
  0.8959194139192127  0.2988855811981433  0.8582852757595665
  0.9496683689738091  0.6168259198098983  0.6587093421342809
  0.5842145717834951  0.6615253713844637  0.9284404785788640
  0.3547135572552947  0.1013293761328614  0.7870902343480031
  0.8746203062926230  0.8464360522345901  0.3442709662571646
  0.2134183848553028  0.1278214674300814  0.3345648916957242
  0.0608667522917212  0.2358586195709241  0.9413256146714164
  0.9491220665638782  0.6199164846612675  0.0012834370892319
  0.7582694177807828  0.7326850652265008  0.6267188343183419
  0.0087418185329482  0.9195115410919231  0.8413935713305678
  0.5382346641748583  0.0692896393325704  0.2780356116245778
  0.9474618559852657  0.1438061324087608  0.0908710518217559
  0.3035381771237117  0.3739926070546082  0.0402528060270895
  0.6510967862458701  0.4981529844363123  0.1219268465688455
  0.7530695225127599  0.6364094832339463  0.0131158328882639
  0.9135490114353421  0.1574472684092193  0.7013583676693727
  0.5868046514945502  0.8566038850107233  0.3243195989851159
  0.9754615714038154  0.4789985004094473  0.7656899502250254
  0.0096600758272473  0.4350825904333006  0.9585164511938628
  0.1776242757109765  0.9746985413064277  0.4585958000064202
  0.1806280304572302  0.3376202421925237  0.6502858166804718
  0.5878708074062654  0.4931355144042672  0.4706540818868841
  0.6686082850732856  0.6242696983377186  0.2780699224175090
  0.1865136454092519  0.6649894669576509  0.4368403742799596
  0.7927330887906257  0.4166348994174356  0.6799496114142358
  0.5487039551936860  0.3846284375346540  0.8831744125352911
  0.2173858820294634  0.1277140729060781  0.1448543416110072
  0.0943368284652137  0.3480838254909299  0.0836266029813891
  0.8694483482030969  0.0561523455516588  0.3152697930097816
  0.8864857992174697  0.5742586457518596  0.4494335028618630
  0.1626342331383802  0.0644451179060720  0.8293487662201818
  0.0367244064335529  0.7403282226252227  0.8068151339334229
  0.2578194193567342  0.1831140943571230  0.5322847146282851
  0.8599628015660901  0.2639963160952331  0.6817097140529463
  0.2533413537589820  0.0200991765344119  0.6387268299684048
  0.9486674297238678  0.2204265760876783  0.5188083874104167
  0.7275203372058745  0.6093659005831690  0.7936487401662433
  0.0262115198691234  0.2207647498114597  0.2701672408291386
  0.6927450831963713  0.9406652005409679  0.2034492455652464
  0.7361758105992093  0.3125594550589038  0.2015673271641712
  0.5936335065152987  0.1896800563594122  0.9027339028493726
  0.1145823818239101  0.8799419040192804  0.1200279012845680
  0.3689794008542489  0.4351473395029504  0.8679246069387607
  0.3159895347261991  0.7333928154080082  0.9060348820723477
  0.5810759642124460  0.4324988357510068  0.1336093033771101
  0.4352500480815800  0.0927363609414087  0.6014756237615033
  0.6810097998968884  0.5042748764028651  0.4414812525351436
  0.6219008154256545  0.0551348880514984  0.6270031294187128
  0.2485987832141575  0.8299544127600207  0.5309608701253551
  0.4956935614957643  0.5834034526985006  0.1928493066179152
  0.7840223044584310  0.0656603500989544  0.1346144021122839
  0.1386089450487887  0.6731122925473348  0.9385896195459147
  0.0560512360131412  0.4804288451961908  0.7297865235201169
  0.8899237027749097  0.7434367361578081  0.5100245259823835
  0.7194405084355338  0.1441464528688329  0.2393015106504871
  0.8290476865521987  0.5712812940823920  0.5315144645769461
  0.9732382231004454  0.1091335133164262  0.8727715422932857
  0.0847287421710189  0.1354413564181079  0.5680701387721798
  0.9567173934780598  0.3782709887875864  0.4033340756219436
  0.3153013111759459  0.3882512107325918  0.7426019726018414
  0.5950346072273789  0.4450920264580771  0.2906791517402622
  0.9586714882582769  0.7800956618147212  0.1773053213355801
  0.3112935059759093  0.4310410285909493  0.5281413575708700
  0.9650641406662568  0.5509285823274291  0.8220257485838374
  0.4357821301928118  0.1427563633552001  0.9958719231088310
  0.2026840590266059  0.7295374920933677  0.7729760724067843
  0.8292460449367035  0.4054360902474580  0.4958278752075960
  0.2489895428607583  0.7959724705221939  0.3503618435616088
  0.6446143172115433  0.0241957488269645  0.8257466886472262
  0.4862371994097441  0.3220436094771144  0.0319373661167949
  0.7113574633664754  0.3131928944421752  0.8059024049731861
  0.1325768596950386  0.1655708463893741  0.1362339239828728
  0.7284413740509115  0.8563756950737323  0.4770532805757043
  0.6682029597053424  0.3388653174237822  0.4098457320117138
  0.3557421592347789  0.9075484935094784  0.3799620587165996
  0.2594136929376753  0.1220886269293503  0.0595657244816775
  0.5213911076933564  0.9957615281804352  0.7287260224044558
  0.6986206228116421  0.0300935369887549  0.3712303369801637
  0.3834816914890619  0.7325091928194281  0.4613491644006754
  0.5386767076799182  0.8358264470090996  0.4089016185322080
  0.4356256581976408  0.0158091322199942  0.4195698690244052
  0.5798767025050264  0.7368486669868118  0.7501758646785968
  0.3622825968706022  0.7359643834516161  0.7541880605643024
  0.6936003361403055  0.1624230180100150  0.4093527810985372
  0.3315865530746995  0.2951679274867723  0.0809811144992141
  0.7078854374553913  0.8884134678926432  0.7281069978681494
 
  0.00000000E+00  0.00000000E+00  0.00000000E+00
  0.00000000E+00  0.00000000E+00  0.00000000E+00
  0.00000000E+00  0.00000000E+00  0.00000000E+00
  0.00000000E+00  0.00000000E+00  0.00000000E+00
  0.00000000E+00  0.00000000E+00  0.00000000E+00
  0.00000000E+00  0.00000000E+00  0.00000000E+00
  0.00000000E+00  0.00000000E+00  0.00000000E+00
  0.00000000E+00  0.00000000E+00  0.00000000E+00
  0.00000000E+00  0.00000000E+00  0.00000000E+00
  0.00000000E+00  0.00000000E+00  0.00000000E+00
  0.00000000E+00  0.00000000E+00  0.00000000E+00
  0.00000000E+00  0.00000000E+00  0.00000000E+00
  0.00000000E+00  0.00000000E+00  0.00000000E+00
  0.00000000E+00  0.00000000E+00  0.00000000E+00
  0.00000000E+00  0.00000000E+00  0.00000000E+00
  0.00000000E+00  0.00000000E+00  0.00000000E+00
  0.00000000E+00  0.00000000E+00  0.00000000E+00
  0.00000000E+00  0.00000000E+00  0.00000000E+00
  0.00000000E+00  0.00000000E+00  0.00000000E+00
  0.00000000E+00  0.00000000E+00  0.00000000E+00
  0.00000000E+00  0.00000000E+00  0.00000000E+00
  0.00000000E+00  0.00000000E+00  0.00000000E+00
  0.00000000E+00  0.00000000E+00  0.00000000E+00
  0.00000000E+00  0.00000000E+00  0.00000000E+00
  0.00000000E+00  0.00000000E+00  0.00000000E+00
  0.00000000E+00  0.00000000E+00  0.00000000E+00
  0.00000000E+00  0.00000000E+00  0.00000000E+00
  0.00000000E+00  0.00000000E+00  0.00000000E+00
  0.00000000E+00  0.00000000E+00  0.00000000E+00
  0.00000000E+00  0.00000000E+00  0.00000000E+00
  0.00000000E+00  0.00000000E+00  0.00000000E+00
  0.00000000E+00  0.00000000E+00  0.00000000E+00
  0.00000000E+00  0.00000000E+00  0.00000000E+00
  0.00000000E+00  0.00000000E+00  0.00000000E+00
  0.00000000E+00  0.00000000E+00  0.00000000E+00
  0.00000000E+00  0.00000000E+00  0.00000000E+00
  0.00000000E+00  0.00000000E+00  0.00000000E+00
  0.00000000E+00  0.00000000E+00  0.00000000E+00
  0.00000000E+00  0.00000000E+00  0.00000000E+00
  0.00000000E+00  0.00000000E+00  0.00000000E+00
  0.00000000E+00  0.00000000E+00  0.00000000E+00
  0.00000000E+00  0.00000000E+00  0.00000000E+00
  0.00000000E+00  0.00000000E+00  0.00000000E+00
  0.00000000E+00  0.00000000E+00  0.00000000E+00
  0.00000000E+00  0.00000000E+00  0.00000000E+00
  0.00000000E+00  0.00000000E+00  0.00000000E+00
  0.00000000E+00  0.00000000E+00  0.00000000E+00
  0.00000000E+00  0.00000000E+00  0.00000000E+00
  0.00000000E+00  0.00000000E+00  0.00000000E+00
  0.00000000E+00  0.00000000E+00  0.00000000E+00
  0.00000000E+00  0.00000000E+00  0.00000000E+00
  0.00000000E+00  0.00000000E+00  0.00000000E+00
  0.00000000E+00  0.00000000E+00  0.00000000E+00
  0.00000000E+00  0.00000000E+00  0.00000000E+00
  0.00000000E+00  0.00000000E+00  0.00000000E+00
  0.00000000E+00  0.00000000E+00  0.00000000E+00
  0.00000000E+00  0.00000000E+00  0.00000000E+00
  0.00000000E+00  0.00000000E+00  0.00000000E+00
  0.00000000E+00  0.00000000E+00  0.00000000E+00
  0.00000000E+00  0.00000000E+00  0.00000000E+00
  0.00000000E+00  0.00000000E+00  0.00000000E+00
  0.00000000E+00  0.00000000E+00  0.00000000E+00
  0.00000000E+00  0.00000000E+00  0.00000000E+00
  0.00000000E+00  0.00000000E+00  0.00000000E+00
  0.00000000E+00  0.00000000E+00  0.00000000E+00
  0.00000000E+00  0.00000000E+00  0.00000000E+00
  0.00000000E+00  0.00000000E+00  0.00000000E+00
  0.00000000E+00  0.00000000E+00  0.00000000E+00
  0.00000000E+00  0.00000000E+00  0.00000000E+00
  0.00000000E+00  0.00000000E+00  0.00000000E+00
  0.00000000E+00  0.00000000E+00  0.00000000E+00
  0.00000000E+00  0.00000000E+00  0.00000000E+00
  0.00000000E+00  0.00000000E+00  0.00000000E+00
  0.00000000E+00  0.00000000E+00  0.00000000E+00
  0.00000000E+00  0.00000000E+00  0.00000000E+00
  0.00000000E+00  0.00000000E+00  0.00000000E+00
  0.00000000E+00  0.00000000E+00  0.00000000E+00
  0.00000000E+00  0.00000000E+00  0.00000000E+00
  0.00000000E+00  0.00000000E+00  0.00000000E+00
  0.00000000E+00  0.00000000E+00  0.00000000E+00
  0.00000000E+00  0.00000000E+00  0.00000000E+00
  0.00000000E+00  0.00000000E+00  0.00000000E+00
  0.00000000E+00  0.00000000E+00  0.00000000E+00
  0.00000000E+00  0.00000000E+00  0.00000000E+00
  0.00000000E+00  0.00000000E+00  0.00000000E+00
  0.00000000E+00  0.00000000E+00  0.00000000E+00
  0.00000000E+00  0.00000000E+00  0.00000000E+00
  0.00000000E+00  0.00000000E+00  0.00000000E+00
  0.00000000E+00  0.00000000E+00  0.00000000E+00
  0.00000000E+00  0.00000000E+00  0.00000000E+00
  0.00000000E+00  0.00000000E+00  0.00000000E+00
  0.00000000E+00  0.00000000E+00  0.00000000E+00
  0.00000000E+00  0.00000000E+00  0.00000000E+00
  0.00000000E+00  0.00000000E+00  0.00000000E+00
  0.00000000E+00  0.00000000E+00  0.00000000E+00
  0.00000000E+00  0.00000000E+00  0.00000000E+00
  0.00000000E+00  0.00000000E+00  0.00000000E+00
  0.00000000E+00  0.00000000E+00  0.00000000E+00
  0.00000000E+00  0.00000000E+00  0.00000000E+00
  0.00000000E+00  0.00000000E+00  0.00000000E+00
  0.00000000E+00  0.00000000E+00  0.00000000E+00
  0.00000000E+00  0.00000000E+00  0.00000000E+00
  0.00000000E+00  0.00000000E+00  0.00000000E+00
  0.00000000E+00  0.00000000E+00  0.00000000E+00
  0.00000000E+00  0.00000000E+00  0.00000000E+00
  0.00000000E+00  0.00000000E+00  0.00000000E+00
  0.00000000E+00  0.00000000E+00  0.00000000E+00
  0.00000000E+00  0.00000000E+00  0.00000000E+00
  0.00000000E+00  0.00000000E+00  0.00000000E+00
  0.00000000E+00  0.00000000E+00  0.00000000E+00
  0.00000000E+00  0.00000000E+00  0.00000000E+00
  0.00000000E+00  0.00000000E+00  0.00000000E+00
  0.00000000E+00  0.00000000E+00  0.00000000E+00
  0.00000000E+00  0.00000000E+00  0.00000000E+00
  0.00000000E+00  0.00000000E+00  0.00000000E+00
  0.00000000E+00  0.00000000E+00  0.00000000E+00
  0.00000000E+00  0.00000000E+00  0.00000000E+00
  0.00000000E+00  0.00000000E+00  0.00000000E+00
  0.00000000E+00  0.00000000E+00  0.00000000E+00
  0.00000000E+00  0.00000000E+00  0.00000000E+00
  0.00000000E+00  0.00000000E+00  0.00000000E+00
  0.00000000E+00  0.00000000E+00  0.00000000E+00
  0.00000000E+00  0.00000000E+00  0.00000000E+00
  0.00000000E+00  0.00000000E+00  0.00000000E+00
  0.00000000E+00  0.00000000E+00  0.00000000E+00
  0.00000000E+00  0.00000000E+00  0.00000000E+00
  0.00000000E+00  0.00000000E+00  0.00000000E+00
  0.00000000E+00  0.00000000E+00  0.00000000E+00
  0.00000000E+00  0.00000000E+00  0.00000000E+00
  0.00000000E+00  0.00000000E+00  0.00000000E+00
  0.00000000E+00  0.00000000E+00  0.00000000E+00
  0.00000000E+00  0.00000000E+00  0.00000000E+00
  0.00000000E+00  0.00000000E+00  0.00000000E+00
  0.00000000E+00  0.00000000E+00  0.00000000E+00
  0.00000000E+00  0.00000000E+00  0.00000000E+00
  0.00000000E+00  0.00000000E+00  0.00000000E+00
  0.00000000E+00  0.00000000E+00  0.00000000E+00
  0.00000000E+00  0.00000000E+00  0.00000000E+00
  0.00000000E+00  0.00000000E+00  0.00000000E+00
  0.00000000E+00  0.00000000E+00  0.00000000E+00
  0.00000000E+00  0.00000000E+00  0.00000000E+00
  0.00000000E+00  0.00000000E+00  0.00000000E+00
  0.00000000E+00  0.00000000E+00  0.00000000E+00
  0.00000000E+00  0.00000000E+00  0.00000000E+00
  0.00000000E+00  0.00000000E+00  0.00000000E+00
  0.00000000E+00  0.00000000E+00  0.00000000E+00
  0.00000000E+00  0.00000000E+00  0.00000000E+00
  0.00000000E+00  0.00000000E+00  0.00000000E+00
  0.00000000E+00  0.00000000E+00  0.00000000E+00
  0.00000000E+00  0.00000000E+00  0.00000000E+00
  0.00000000E+00  0.00000000E+00  0.00000000E+00
  0.00000000E+00  0.00000000E+00  0.00000000E+00
  0.00000000E+00  0.00000000E+00  0.00000000E+00
  0.00000000E+00  0.00000000E+00  0.00000000E+00
  0.00000000E+00  0.00000000E+00  0.00000000E+00
  0.00000000E+00  0.00000000E+00  0.00000000E+00
  0.00000000E+00  0.00000000E+00  0.00000000E+00
  0.00000000E+00  0.00000000E+00  0.00000000E+00
  0.00000000E+00  0.00000000E+00  0.00000000E+00
  0.00000000E+00  0.00000000E+00  0.00000000E+00
  0.00000000E+00  0.00000000E+00  0.00000000E+00
  0.00000000E+00  0.00000000E+00  0.00000000E+00
  0.00000000E+00  0.00000000E+00  0.00000000E+00
  0.00000000E+00  0.00000000E+00  0.00000000E+00
  0.00000000E+00  0.00000000E+00  0.00000000E+00
  0.00000000E+00  0.00000000E+00  0.00000000E+00
  0.00000000E+00  0.00000000E+00  0.00000000E+00
  0.00000000E+00  0.00000000E+00  0.00000000E+00
  0.00000000E+00  0.00000000E+00  0.00000000E+00
  0.00000000E+00  0.00000000E+00  0.00000000E+00
  0.00000000E+00  0.00000000E+00  0.00000000E+00
  0.00000000E+00  0.00000000E+00  0.00000000E+00
  0.00000000E+00  0.00000000E+00  0.00000000E+00
  0.00000000E+00  0.00000000E+00  0.00000000E+00
  0.00000000E+00  0.00000000E+00  0.00000000E+00
  0.00000000E+00  0.00000000E+00  0.00000000E+00
  0.00000000E+00  0.00000000E+00  0.00000000E+00
  0.00000000E+00  0.00000000E+00  0.00000000E+00
  0.00000000E+00  0.00000000E+00  0.00000000E+00
  0.00000000E+00  0.00000000E+00  0.00000000E+00
  0.00000000E+00  0.00000000E+00  0.00000000E+00
  0.00000000E+00  0.00000000E+00  0.00000000E+00
  0.00000000E+00  0.00000000E+00  0.00000000E+00
  0.00000000E+00  0.00000000E+00  0.00000000E+00
  0.00000000E+00  0.00000000E+00  0.00000000E+00
  0.00000000E+00  0.00000000E+00  0.00000000E+00
  0.00000000E+00  0.00000000E+00  0.00000000E+00
  0.00000000E+00  0.00000000E+00  0.00000000E+00
  0.00000000E+00  0.00000000E+00  0.00000000E+00
  0.00000000E+00  0.00000000E+00  0.00000000E+00
  0.00000000E+00  0.00000000E+00  0.00000000E+00
  0.00000000E+00  0.00000000E+00  0.00000000E+00
  0.00000000E+00  0.00000000E+00  0.00000000E+00
  0.00000000E+00  0.00000000E+00  0.00000000E+00
  0.00000000E+00  0.00000000E+00  0.00000000E+00
  0.00000000E+00  0.00000000E+00  0.00000000E+00
  0.00000000E+00  0.00000000E+00  0.00000000E+00
  0.00000000E+00  0.00000000E+00  0.00000000E+00
  0.00000000E+00  0.00000000E+00  0.00000000E+00
  0.00000000E+00  0.00000000E+00  0.00000000E+00
  0.00000000E+00  0.00000000E+00  0.00000000E+00
  0.00000000E+00  0.00000000E+00  0.00000000E+00
  0.00000000E+00  0.00000000E+00  0.00000000E+00
  0.00000000E+00  0.00000000E+00  0.00000000E+00
  0.00000000E+00  0.00000000E+00  0.00000000E+00
  0.00000000E+00  0.00000000E+00  0.00000000E+00
  0.00000000E+00  0.00000000E+00  0.00000000E+00
  0.00000000E+00  0.00000000E+00  0.00000000E+00
  0.00000000E+00  0.00000000E+00  0.00000000E+00
  0.00000000E+00  0.00000000E+00  0.00000000E+00
  0.00000000E+00  0.00000000E+00  0.00000000E+00
  0.00000000E+00  0.00000000E+00  0.00000000E+00
  0.00000000E+00  0.00000000E+00  0.00000000E+00
  0.00000000E+00  0.00000000E+00  0.00000000E+00
  0.00000000E+00  0.00000000E+00  0.00000000E+00
  0.00000000E+00  0.00000000E+00  0.00000000E+00
  0.00000000E+00  0.00000000E+00  0.00000000E+00
  0.00000000E+00  0.00000000E+00  0.00000000E+00
  0.00000000E+00  0.00000000E+00  0.00000000E+00
  0.00000000E+00  0.00000000E+00  0.00000000E+00
  0.00000000E+00  0.00000000E+00  0.00000000E+00
  0.00000000E+00  0.00000000E+00  0.00000000E+00
  0.00000000E+00  0.00000000E+00  0.00000000E+00
  0.00000000E+00  0.00000000E+00  0.00000000E+00
  0.00000000E+00  0.00000000E+00  0.00000000E+00
  0.00000000E+00  0.00000000E+00  0.00000000E+00
  0.00000000E+00  0.00000000E+00  0.00000000E+00
  0.00000000E+00  0.00000000E+00  0.00000000E+00
  0.00000000E+00  0.00000000E+00  0.00000000E+00
  0.00000000E+00  0.00000000E+00  0.00000000E+00
  0.00000000E+00  0.00000000E+00  0.00000000E+00
  0.00000000E+00  0.00000000E+00  0.00000000E+00