Sb                                      
   1.00000000000000     
    17.9173007964999975    0.0000000000000000    0.0000000000000000
     0.0000000000000000   17.9173007964999975    0.0000000000000000
     0.0000000000000000    0.0000000000000000   17.9173007964999975
   Cd   Se
   100   100
Direct
  0.0988980268063702  0.1534416383926105  0.6580179444608977
  0.3989780512001379  0.4957673182634085  0.4543465383867024
  0.7260951460697413  0.8037763827310505  0.2879351591497928
  0.3092592983280598  0.6890118864198902  0.5573583023090719
  0.7408539643232764  0.5331328005476298  0.5508510694199246
  0.7105974936799575  0.5828883586614623  0.9462483143990633
  0.0121944635438671  0.4611590974518394  0.0803704447579239
  0.3273446961733013  0.2858982654036403  0.7976228224693723
  0.4800094641980841  0.8900435928328299  0.2540033845242257
  0.0257439889769359  0.0433189262692818  0.2752518246956631
  0.4774908035056608  0.6462238257791709  0.2527797608110936
  0.3815102486700879  0.7371770004935840  0.7711558115443795
  0.3402209766949589  0.6981986535898731  0.1577439617802357
  0.3864825554917820  0.1543440358027920  0.1770971023423907
  0.1843197398122301  0.1137648321372201  0.1503922500146358
  0.3598581548132736  0.3133998763935325  0.0152971698124521
  0.2526779025110123  0.5032563063837900  0.0746701460708413
  0.3591593607984941  0.9549465364740933  0.1016528831890119
  0.8504270085415814  0.6343108085572917  0.1655269529009605
  0.5339396939463176  0.4476039725961406  0.0680171295207996
  0.7951185714065642  0.0765566905991889  0.6070860028335234
  0.9105004903615067  0.1704113292819623  0.4454774244435051
  0.7935520091730393  0.0718213771298794  0.2610089809102651
  0.1314463105409035  0.1056004103508091  0.8687373275212674
  0.6218122839812038  0.6365837112911552  0.1543802063167265
  0.6814942133363687  0.2463250570217497  0.1439947892327909
  0.4817981184901906  0.7679550957137848  0.0429762826220371
  0.5225022903251170  0.9108809104349598  0.8946811915765069
  0.3474068241808718  0.1139677607561962  0.4089380641137104
  0.1621577613253145  0.7590150605320797  0.7251324961542480
  0.9332879287242543  0.4550307620260765  0.3029081119928687
  0.1351302102577883  0.3915905315010436  0.2552036981374596
  0.8953707540156932  0.9450716250718968  0.4667087248403303
  0.0719676788408366  0.8812334149686297  0.8997042324255589
  0.5962128425075042  0.4335996398418385  0.2991229183645726
  0.9712347408876604  0.5355623869600348  0.5558476527716715
  0.3639931425501923  0.1261461380065121  0.9330387651441235
  0.3688132867900958  0.2941228781308647  0.5506045118301398
  0.0392284896944361  0.6554192691886688  0.4069794466614940
  0.3192755629636463  0.9520243034648658  0.8479330964517873
  0.7951343289465882  0.9561813145322410  0.9210439841285799
  0.1147719681709173  0.8953094640302511  0.0940949573426253
  0.3662249311708903  0.4514840010416396  0.2430400133447009
  0.0628949961996871  0.3304273204361283  0.7568785183350805
  0.1765420601264211  0.5011271423125783  0.4307029211176334
 -0.0575497814568628  0.3095630368895554  0.9284315940540291
 -0.0003436488491715  0.8202995386612059  0.2957060245242768
  0.7579690602956091  0.2699035947262460  0.6442478931711660
  0.0457123490627618  0.3173562076824057  0.4434913709144976
  0.1372105125665384  0.1080819398812285  0.4752318946627384
  0.2328249280333274  0.2639845701208328  0.3586841382706771
  0.3325150983054994  0.5452512779347884  0.8726767035669858
  0.6700651342349371  0.0493785988308239  0.7503499948907880
  0.7142178841065704  0.5909893291774830  0.3681458035470947
  0.1496250162531359  0.4498187675413688  0.8884534807959111
  0.9455719420072657  0.2540454468014468  0.2290428008234980
  0.1687876824777589  0.2766512419386832  0.0228096407992354
  0.8787123713523270  0.7454654066453231  0.9089864507800395
  0.6750698074389568  0.8079820152320535  0.7974088521654470
  0.4202779395058931  0.5063612267668421  0.6724622694836047
  0.7126747418652020  0.3459371625222154  0.9287537545160679
  0.2630067622565786  0.7283454739173090  0.3624946291622754
  0.6829375046860596  0.9616548223798315  0.3581641321440303
 -0.0274696675824891  0.7166197797144461  0.6375005617679300
  0.6104649357573507  0.9794261851869537  0.1088850323531702
  0.0313827951896124  0.6956520098701958  0.8155863700210284
  0.7667687802319277  0.3256284572340335  0.4071621146707486
  0.5352745460712561  0.1191263358075788  0.2982501480628100
  0.2962077502790741  0.9417980872388811  0.5207722368957290
  0.1134360379593182  0.6045448447378045  0.7152002186684672
  0.5759637377456620  0.1859937211525731  0.9524142431306547
  0.0070416092359072  0.6614525324671184  0.9774322485600297
  0.8427377867369835  0.7283187213630536  0.4838062533753599
  0.8618258981541209  0.8716162482414311  0.1544938447687534
  0.1111621016672073  0.6145810477253735  0.2102074619972676
  0.8827202445563241  0.8959159058805992  0.6959756723726129
  0.6386577935451765  0.1456690884775199  0.4967533319127373
  0.4817120924572106  0.8496133472535697  0.6361580669564516
  0.1368654198746677 -0.0415896449923333  0.7102455138839361
  0.7679649149510737  0.4124536143496639  0.1939273427251756
  0.3305437798104984  0.0948625228204127  0.6721229839750299
  0.1912344230412058  0.3861419161903291  0.6219422116896658
  0.7928747234824203  0.1532190026472715  0.0247886327126415
  0.5785994540880819  0.6534186001787062  0.5988956348748400
  0.2459205899897861  0.7266717740068146  0.9706631364044179
  0.9270484010680652  0.5552736848736869  0.8674749952319820
  0.2321610732673585 -0.0035206704744156  0.3080397326888640
  0.5812188177879316  0.3875044989264938  0.5324827631070571
  0.7506892197890482  0.4461878470910097  0.7560673671276466
  0.5377681102197484  0.4257473137505550  0.8412415812327155
  0.5488457721868012  0.2211282327409032  0.7321063929836203
  0.7954586911165834  0.6434984729633533  0.7126912324890811
  0.0034280807558290  0.0899902703643383  0.0288806857389648
  0.1001612613387384  0.8129084696824317  0.5117124789808244
  0.9113589635501406  0.1378101053272078  0.8061906770615983
  0.5103106059209670  0.7553206159862658  0.4039022441821729
  0.5214186997806902  0.6417030033736911  0.8637911370534338
  0.6869206562479663  0.8094889699196196  0.0217128982623302
  0.6900779261390680  0.8833998140325507  0.5647380119516732
  0.4880500522338805  0.0009018689937419  0.4737806823815479
  0.1480371413285282  0.3979672757641530  0.1089673727822787
  0.4958910864830299  0.2471274625881960  0.2255382682707484
  0.1984025196006425  0.8724392753445669  0.8161848479100753
  0.2609623361960514  0.2017920692877288  0.4899129671696366
  0.2423342809666701  0.8076187162539583  0.4897986989047092
  0.9721857203473733  0.8193641199151439  0.4403609309221687
  0.4015419711380783  0.2255979031612341  0.6809327130841293
  0.9065787487725059  0.6043324340092850  0.4341918298317217
  0.7798456717404405  0.1521563899003916  0.7355005397406319
  0.5709723098671087  0.8366806504683409  0.1420803532604759
  0.3385432093379837  0.8088839416530264  0.0635735362393099
  0.7989408790382255  0.4785641927403975  0.8934888098539967
  0.0802802619104744  0.6426689526895750  0.5642294453712344
  0.6787109071991526  0.4427114090275722  0.4324060590068702
  0.6736743481925398  0.1059906508231090  0.3498604966130334
  0.0868989858342175  0.4309183709912248  0.5241303902121669
  0.0303036471118466  0.1936627983135765  0.5306920276704838
  0.7003489134698017  0.6642644648003988  0.4946979968191135
  0.8225445491940031  0.2971732241254271  0.0087889451327218
  0.6124838636724109  0.2612383749619553  0.5999874788018076
  0.2072306185789690  0.0375989008482334  0.6052578418651293
  0.6195311242421392  0.7953463009972113  0.6576992499066208
  0.3956862036882040  0.4346059072281234  0.8003828048037052
  0.2607358500495295  0.4083790957897715  0.3392631822525667
  0.6367814141176749  0.4878931320277256  0.1649725210291717
  0.6525027317060245  0.0253520036444431  0.5940727693781588
  0.5772302277829062  0.7671980922227520  0.9194765060565532
  0.7562499596970798  0.6934065687387952  0.8476070582770365
  0.2728522319390900  0.6645683811685655  0.6966815171604225
  0.9942018802490576  0.6063251231483482  0.1155919430305228
  0.9312566857534992  0.2837033978469339  0.7840623370508071
  0.4308565482167822  0.8770323173117708  0.7790868904164034
  0.8273870189383070  0.1788961281690040  0.1724835105947145
  0.1098892808468585 -0.0014574747129901 -0.0202528185089255
  0.8354703231813111  0.8454132924459918  0.0121005351589065
  0.1844609710738411  0.2632692913872456  0.7072361965767942
  0.4081071415128329 -0.0128357714767861  0.9654358054108287
  0.0399147354461756  0.1409836196767907  0.1640790155266424
  0.5577584732344798  0.1062609878439184  0.8233938579405156
  0.0606641658683582  0.2101976825570644  0.9525697455487911
  0.1105124192770145  0.7743841079174411  0.0053137359184974
  0.5702174791458591  0.5278665090077158  0.9415245663157157
  0.2083416570640653  0.5707405169660773  0.9520340492654289
  0.6055213776824218  0.3180526849862476  0.0305391496047517
  0.4086108883691545  0.3018154594831515  0.3142407355085439
  0.8101905777972717  0.5353956932235662  0.2711734326648538
  0.5517177857702398  0.8986185435565744  0.3868864913838600
  0.3931076026648698  0.7660332919553583  0.2936205249931077
  0.6857571299459482  0.3137084658742973  0.2751463266765234
  0.2585731453463171  0.5850027564552519  0.1987396074091309
  0.9191906537900321  0.0017246242850152  0.5993875476019287
  0.0008503255303831  0.9191764210632644  0.1878971563908368
  0.1349565530620931  0.4633400690209172  0.7408306358494147
  0.0891452656391422  0.2635327542732056  0.3136455119254516
  0.7361590280790609  0.6672533990967596  0.0686562068551169
  0.4918245387172399  0.1435975651739223  0.4392653673393435
  0.1112154410438953 -0.0046281028218578  0.3872995879726479
  0.0629032551645045  0.8426919574113666  0.6495871113199605
  0.4565232075027619  0.7322597353200415  0.5380530539019761
  0.0384004843925986  0.0657397475047520  0.7590878752198822
  0.2863970909975036  0.5996580334606979  0.4389971648425606
  0.4743680689080513  0.0258974608009655  0.1844400498775203
  0.2732102803102900  0.0933364767813836  0.8175727880056332
  0.4172041979816075  0.9795963712230330  0.6009687785753567
  0.4554324659548304  0.3458561091554173  0.4333716379676304
  0.9581016351299751  0.8335285969770292  0.8190831919045271
  0.8624705090470561  0.7565330969583908  0.2504068075987069
  0.6815076116945233  0.5543163740041873  0.6838734417738049
  0.3528531382462226 -0.0325319610652393  0.3847671933050635
  0.4767964824819342  0.6293427813712218  0.1045583101756594
  0.6484337840842903  0.9499097190177497  0.9646165139378839
  0.4845100716155483  0.6365148683558206  0.7227067842310897
  0.9024853645004012  0.0513764322956708  0.3605796309482802
  0.7661322181598624  0.8662882915014809  0.4393105788890893
  0.0085412277528760  0.4456394499470930  0.9331451537492121
  0.8347445941888806  0.7671053384306515  0.6304526502362078
  0.2484491222053749  0.3423402140842464  0.9133528823628074
  0.6499734307940332  0.1221652993434907  0.0674851166074274
  0.5117684587371195  0.5145998380931122  0.5548067738043957
  0.8826028961080961  0.0732590377981042  0.9404798205026087
  0.6429188320196658  0.3373019426465679  0.7957564404818792
  0.9342757293023747  0.5852162920041766  0.7187803173734690
  0.6220719588722696  0.6953697384910164  0.3018245423154101
  0.0686269128651378  0.5141549580042892  0.3170348807603406
  0.8549171832940655  0.4412439237893322  0.5486051760322865
  0.7581443977586803  0.9306825040731738  0.7798734810348952
  0.3219267529156937  0.4337323659151018  0.5775688192350982
  0.2253474634468416  0.9686029372162729  0.1630891737020579
  0.2740228368602869  0.1470874531077590  0.2726040171426577
  0.9159944284581588  0.3881942234416464  0.1668307096214603
  0.4404490145937785  0.2496648308629817  0.9100044000977497
  0.3750308596539910  0.6806092612267416  0.9093560146478946
  0.9084262621010486  0.3157509374450043  0.3692585713855445
  0.8555379213364515  0.3782734702226347  0.6688175961609255
  0.7349529805769508  0.9406580763073820  0.2085793142980485
  0.3869100187629709  0.4304023734978510  0.0970605439331887
  0.2912940717510903  0.1782768137267930  0.0599991763960530
  0.7816196809962325  0.2066652754745020  0.5065022198893556
  0.4726953270318623  0.5176883907099610  0.3218958578867834
  0.1210314054554905  0.7288328075878059  0.3068531640687440
 
  0.00000000E+00  0.00000000E+00  0.00000000E+00
  0.00000000E+00  0.00000000E+00  0.00000000E+00
  0.00000000E+00  0.00000000E+00  0.00000000E+00
  0.00000000E+00  0.00000000E+00  0.00000000E+00
  0.00000000E+00  0.00000000E+00  0.00000000E+00
  0.00000000E+00  0.00000000E+00  0.00000000E+00
  0.00000000E+00  0.00000000E+00  0.00000000E+00
  0.00000000E+00  0.00000000E+00  0.00000000E+00
  0.00000000E+00  0.00000000E+00  0.00000000E+00
  0.00000000E+00  0.00000000E+00  0.00000000E+00
  0.00000000E+00  0.00000000E+00  0.00000000E+00
  0.00000000E+00  0.00000000E+00  0.00000000E+00
  0.00000000E+00  0.00000000E+00  0.00000000E+00
  0.00000000E+00  0.00000000E+00  0.00000000E+00
  0.00000000E+00  0.00000000E+00  0.00000000E+00
  0.00000000E+00  0.00000000E+00  0.00000000E+00
  0.00000000E+00  0.00000000E+00  0.00000000E+00
  0.00000000E+00  0.00000000E+00  0.00000000E+00
  0.00000000E+00  0.00000000E+00  0.00000000E+00
  0.00000000E+00  0.00000000E+00  0.00000000E+00
  0.00000000E+00  0.00000000E+00  0.00000000E+00
  0.00000000E+00  0.00000000E+00  0.00000000E+00
  0.00000000E+00  0.00000000E+00  0.00000000E+00
  0.00000000E+00  0.00000000E+00  0.00000000E+00
  0.00000000E+00  0.00000000E+00  0.00000000E+00
  0.00000000E+00  0.00000000E+00  0.00000000E+00
  0.00000000E+00  0.00000000E+00  0.00000000E+00
  0.00000000E+00  0.00000000E+00  0.00000000E+00
  0.00000000E+00  0.00000000E+00  0.00000000E+00
  0.00000000E+00  0.00000000E+00  0.00000000E+00
  0.00000000E+00  0.00000000E+00  0.00000000E+00
  0.00000000E+00  0.00000000E+00  0.00000000E+00
  0.00000000E+00  0.00000000E+00  0.00000000E+00
  0.00000000E+00  0.00000000E+00  0.00000000E+00
  0.00000000E+00  0.00000000E+00  0.00000000E+00
  0.00000000E+00  0.00000000E+00  0.00000000E+00
  0.00000000E+00  0.00000000E+00  0.00000000E+00
  0.00000000E+00  0.00000000E+00  0.00000000E+00
  0.00000000E+00  0.00000000E+00  0.00000000E+00
  0.00000000E+00  0.00000000E+00  0.00000000E+00
  0.00000000E+00  0.00000000E+00  0.00000000E+00
  0.00000000E+00  0.00000000E+00  0.00000000E+00
  0.00000000E+00  0.00000000E+00  0.00000000E+00
  0.00000000E+00  0.00000000E+00  0.00000000E+00
  0.00000000E+00  0.00000000E+00  0.00000000E+00
  0.00000000E+00  0.00000000E+00  0.00000000E+00
  0.00000000E+00  0.00000000E+00  0.00000000E+00
  0.00000000E+00  0.00000000E+00  0.00000000E+00
  0.00000000E+00  0.00000000E+00  0.00000000E+00
  0.00000000E+00  0.00000000E+00  0.00000000E+00
  0.00000000E+00  0.00000000E+00  0.00000000E+00
  0.00000000E+00  0.00000000E+00  0.00000000E+00
  0.00000000E+00  0.00000000E+00  0.00000000E+00
  0.00000000E+00  0.00000000E+00  0.00000000E+00
  0.00000000E+00  0.00000000E+00  0.00000000E+00
  0.00000000E+00  0.00000000E+00  0.00000000E+00
  0.00000000E+00  0.00000000E+00  0.00000000E+00
  0.00000000E+00  0.00000000E+00  0.00000000E+00
  0.00000000E+00  0.00000000E+00  0.00000000E+00
  0.00000000E+00  0.00000000E+00  0.00000000E+00
  0.00000000E+00  0.00000000E+00  0.00000000E+00
  0.00000000E+00  0.00000000E+00  0.00000000E+00
  0.00000000E+00  0.00000000E+00  0.00000000E+00
  0.00000000E+00  0.00000000E+00  0.00000000E+00
  0.00000000E+00  0.00000000E+00  0.00000000E+00
  0.00000000E+00  0.00000000E+00  0.00000000E+00
  0.00000000E+00  0.00000000E+00  0.00000000E+00
  0.00000000E+00  0.00000000E+00  0.00000000E+00
  0.00000000E+00  0.00000000E+00  0.00000000E+00
  0.00000000E+00  0.00000000E+00  0.00000000E+00
  0.00000000E+00  0.00000000E+00  0.00000000E+00
  0.00000000E+00  0.00000000E+00  0.00000000E+00
  0.00000000E+00  0.00000000E+00  0.00000000E+00
  0.00000000E+00  0.00000000E+00  0.00000000E+00
  0.00000000E+00  0.00000000E+00  0.00000000E+00
  0.00000000E+00  0.00000000E+00  0.00000000E+00
  0.00000000E+00  0.00000000E+00  0.00000000E+00
  0.00000000E+00  0.00000000E+00  0.00000000E+00
  0.00000000E+00  0.00000000E+00  0.00000000E+00
  0.00000000E+00  0.00000000E+00  0.00000000E+00
  0.00000000E+00  0.00000000E+00  0.00000000E+00
  0.00000000E+00  0.00000000E+00  0.00000000E+00
  0.00000000E+00  0.00000000E+00  0.00000000E+00
  0.00000000E+00  0.00000000E+00  0.00000000E+00
  0.00000000E+00  0.00000000E+00  0.00000000E+00
  0.00000000E+00  0.00000000E+00  0.00000000E+00
  0.00000000E+00  0.00000000E+00  0.00000000E+00
  0.00000000E+00  0.00000000E+00  0.00000000E+00
  0.00000000E+00  0.00000000E+00  0.00000000E+00
  0.00000000E+00  0.00000000E+00  0.00000000E+00
  0.00000000E+00  0.00000000E+00  0.00000000E+00
  0.00000000E+00  0.00000000E+00  0.00000000E+00
  0.00000000E+00  0.00000000E+00  0.00000000E+00
  0.00000000E+00  0.00000000E+00  0.00000000E+00
  0.00000000E+00  0.00000000E+00  0.00000000E+00
  0.00000000E+00  0.00000000E+00  0.00000000E+00
  0.00000000E+00  0.00000000E+00  0.00000000E+00
  0.00000000E+00  0.00000000E+00  0.00000000E+00
  0.00000000E+00  0.00000000E+00  0.00000000E+00
  0.00000000E+00  0.00000000E+00  0.00000000E+00
  0.00000000E+00  0.00000000E+00  0.00000000E+00
  0.00000000E+00  0.00000000E+00  0.00000000E+00
  0.00000000E+00  0.00000000E+00  0.00000000E+00
  0.00000000E+00  0.00000000E+00  0.00000000E+00
  0.00000000E+00  0.00000000E+00  0.00000000E+00
  0.00000000E+00  0.00000000E+00  0.00000000E+00
  0.00000000E+00  0.00000000E+00  0.00000000E+00
  0.00000000E+00  0.00000000E+00  0.00000000E+00
  0.00000000E+00  0.00000000E+00  0.00000000E+00
  0.00000000E+00  0.00000000E+00  0.00000000E+00
  0.00000000E+00  0.00000000E+00  0.00000000E+00
  0.00000000E+00  0.00000000E+00  0.00000000E+00
  0.00000000E+00  0.00000000E+00  0.00000000E+00
  0.00000000E+00  0.00000000E+00  0.00000000E+00
  0.00000000E+00  0.00000000E+00  0.00000000E+00
  0.00000000E+00  0.00000000E+00  0.00000000E+00
  0.00000000E+00  0.00000000E+00  0.00000000E+00
  0.00000000E+00  0.00000000E+00  0.00000000E+00
  0.00000000E+00  0.00000000E+00  0.00000000E+00
  0.00000000E+00  0.00000000E+00  0.00000000E+00
  0.00000000E+00  0.00000000E+00  0.00000000E+00
  0.00000000E+00  0.00000000E+00  0.00000000E+00
  0.00000000E+00  0.00000000E+00  0.00000000E+00
  0.00000000E+00  0.00000000E+00  0.00000000E+00
  0.00000000E+00  0.00000000E+00  0.00000000E+00
  0.00000000E+00  0.00000000E+00  0.00000000E+00
  0.00000000E+00  0.00000000E+00  0.00000000E+00
  0.00000000E+00  0.00000000E+00  0.00000000E+00
  0.00000000E+00  0.00000000E+00  0.00000000E+00
  0.00000000E+00  0.00000000E+00  0.00000000E+00
  0.00000000E+00  0.00000000E+00  0.00000000E+00
  0.00000000E+00  0.00000000E+00  0.00000000E+00
  0.00000000E+00  0.00000000E+00  0.00000000E+00
  0.00000000E+00  0.00000000E+00  0.00000000E+00
  0.00000000E+00  0.00000000E+00  0.00000000E+00
  0.00000000E+00  0.00000000E+00  0.00000000E+00
  0.00000000E+00  0.00000000E+00  0.00000000E+00
  0.00000000E+00  0.00000000E+00  0.00000000E+00
  0.00000000E+00  0.00000000E+00  0.00000000E+00
  0.00000000E+00  0.00000000E+00  0.00000000E+00
  0.00000000E+00  0.00000000E+00  0.00000000E+00
  0.00000000E+00  0.00000000E+00  0.00000000E+00
  0.00000000E+00  0.00000000E+00  0.00000000E+00
  0.00000000E+00  0.00000000E+00  0.00000000E+00
  0.00000000E+00  0.00000000E+00  0.00000000E+00
  0.00000000E+00  0.00000000E+00  0.00000000E+00
  0.00000000E+00  0.00000000E+00  0.00000000E+00
  0.00000000E+00  0.00000000E+00  0.00000000E+00
  0.00000000E+00  0.00000000E+00  0.00000000E+00
  0.00000000E+00  0.00000000E+00  0.00000000E+00
  0.00000000E+00  0.00000000E+00  0.00000000E+00
  0.00000000E+00  0.00000000E+00  0.00000000E+00
  0.00000000E+00  0.00000000E+00  0.00000000E+00
  0.00000000E+00  0.00000000E+00  0.00000000E+00
  0.00000000E+00  0.00000000E+00  0.00000000E+00
  0.00000000E+00  0.00000000E+00  0.00000000E+00
  0.00000000E+00  0.00000000E+00  0.00000000E+00
  0.00000000E+00  0.00000000E+00  0.00000000E+00
  0.00000000E+00  0.00000000E+00  0.00000000E+00
  0.00000000E+00  0.00000000E+00  0.00000000E+00
  0.00000000E+00  0.00000000E+00  0.00000000E+00
  0.00000000E+00  0.00000000E+00  0.00000000E+00
  0.00000000E+00  0.00000000E+00  0.00000000E+00
  0.00000000E+00  0.00000000E+00  0.00000000E+00
  0.00000000E+00  0.00000000E+00  0.00000000E+00
  0.00000000E+00  0.00000000E+00  0.00000000E+00
  0.00000000E+00  0.00000000E+00  0.00000000E+00
  0.00000000E+00  0.00000000E+00  0.00000000E+00
  0.00000000E+00  0.00000000E+00  0.00000000E+00
  0.00000000E+00  0.00000000E+00  0.00000000E+00
  0.00000000E+00  0.00000000E+00  0.00000000E+00
  0.00000000E+00  0.00000000E+00  0.00000000E+00
  0.00000000E+00  0.00000000E+00  0.00000000E+00
  0.00000000E+00  0.00000000E+00  0.00000000E+00
  0.00000000E+00  0.00000000E+00  0.00000000E+00
  0.00000000E+00  0.00000000E+00  0.00000000E+00
  0.00000000E+00  0.00000000E+00  0.00000000E+00
  0.00000000E+00  0.00000000E+00  0.00000000E+00
  0.00000000E+00  0.00000000E+00  0.00000000E+00
  0.00000000E+00  0.00000000E+00  0.00000000E+00
  0.00000000E+00  0.00000000E+00  0.00000000E+00
  0.00000000E+00  0.00000000E+00  0.00000000E+00
  0.00000000E+00  0.00000000E+00  0.00000000E+00
  0.00000000E+00  0.00000000E+00  0.00000000E+00
  0.00000000E+00  0.00000000E+00  0.00000000E+00
  0.00000000E+00  0.00000000E+00  0.00000000E+00
  0.00000000E+00  0.00000000E+00  0.00000000E+00
  0.00000000E+00  0.00000000E+00  0.00000000E+00
  0.00000000E+00  0.00000000E+00  0.00000000E+00
  0.00000000E+00  0.00000000E+00  0.00000000E+00
  0.00000000E+00  0.00000000E+00  0.00000000E+00
  0.00000000E+00  0.00000000E+00  0.00000000E+00
  0.00000000E+00  0.00000000E+00  0.00000000E+00
  0.00000000E+00  0.00000000E+00  0.00000000E+00
  0.00000000E+00  0.00000000E+00  0.00000000E+00
  0.00000000E+00  0.00000000E+00  0.00000000E+00
  0.00000000E+00  0.00000000E+00  0.00000000E+00
  0.00000000E+00  0.00000000E+00  0.00000000E+00
  0.00000000E+00  0.00000000E+00  0.00000000E+00
  0.00000000E+00  0.00000000E+00  0.00000000E+00
