Amorphous Sb                            
   1.00000000000000     
    16.0128869700586911    0.0000000000000000    0.0000000000000000
     0.0000000000000000   16.0128869700586911    0.0000000000000000
     0.0000000000000000    0.0000000000000000   16.0128869700586911
   In   Ga   O 
    96    24   180
Direct
  0.1601294667690505  0.4892499665074283  0.5283871730033448
  0.5234210206166401  0.0504452880828150  0.1421275498816534
  0.9185993486164948  0.1217725186031066  0.2456743916223857
  0.4961093876074056  0.4115278568531804  0.9896282958207125
  0.0043477899025624  0.9891171473809832  0.5849574390358487
  0.0100651936148199  0.9311056674162860  0.2669198907706342
  0.4205417330985341  0.9223011664542816  0.3007831408419221
  0.6516907411481914  0.6041422669350834  0.2300730467511981
  0.7514991384550186  0.1192409946553600  0.1147868080994383
  0.8233359789721185  0.3160293514600415  0.3433434157482760
  0.1275682203158947  0.7314062233891826  0.6160255615654271
  0.3233985385610447  0.0653820714753342  0.8242607673544770
  0.2062727777617346  0.2443002642760346  0.0355638701674117
  0.8274275896239390  0.0898835222510909  0.7062228260052436
  0.7804690410799295  0.2819783116873849  0.5825271695162456
  0.6484135425467071  0.2243112269624279  0.7872688695437838
  0.9355703835003800  0.9815590480076274  0.0332455865917842
  0.2553560706083819  0.6083116116897951  0.2351356031869327
  0.5664235439296950  0.8227684074115550  0.1920472731092649
  0.7903867120126824  0.9034473695328694  0.6118422336138560
  0.7694326583008654  0.7115019199736875  0.7026110317611223
  0.9679132923367560  0.6038968816482221  0.6297467923752699
  0.8302387805053666  0.2681229251025269  0.8477301879407472
  0.3139383404348618  0.3973341921159618  0.9001349373587457
  0.9622485380707657  0.2112304892993946  0.0610215362882810
  0.4548052531754814  0.2614145753267543  0.7698554941411792
  0.9798134969869849  0.6708294047242087  0.8360037185909089
  0.6645610862451219  0.4307371970062604  0.8465782877667239
  0.5625485775897234  0.6910054460930128  0.4020927876402196
  0.1856604965003602  0.7955062274501458  0.3023934667779699
  0.8454060471385685  0.9429771302052158  0.4018450546041625
  0.4025188535996502  0.1906612230350051  0.9909452265802676
  0.5353193149608706  0.0989130115031024  0.3662932873976208
  0.3227171448239429  0.0202632875567372  0.1016496967195695
  0.9197343319390949  0.4411966234920350  0.1696082504816749
  0.4695896512423557  0.5157830517140533  0.3888218913523312
  0.7824425095226338  0.9278506174992069  0.1931630050106869
  0.9667956617172438  0.8388206360759050  0.7178242255275722
  0.6603185038673411  0.9072606021959195  0.0079714788596403
  0.1316156403912351  0.9146961169964084  0.1032607941400798
  0.0931440149737218  0.6536261805963113  0.4299607325776553
  0.2139335767004212  0.2265728833129743  0.8158577539722630
  0.0744776307653252  0.4815130439937740  0.3033940167592322
  0.3276334315921591  0.7192607763650989  0.6638484475479439
  0.2095797357468650  0.2955695138289191  0.4312393916996239
  0.3749748344793175  0.7523895846945069  0.0863610034731370
  0.5556677274062161  0.9566128509448903  0.6160823199845797
  0.0976903643671398  0.4134276266116128  0.8487175152545750
  0.3235093953663909  0.2074317066412456  0.2208348032257755
  0.5423492327081494  0.6462823530336251  0.9941755514812043
  0.1107506604731253  0.2875844264237935  0.2497717441075689
  0.5582065690291003  0.1922670074235473  0.5942185680816027
  0.5346709342612177  0.0653030024090829  0.8465121839176143
  0.0228152630194747  0.2343628218384615  0.8478252898396257
  0.6166719570840197  0.2766284976266108  0.4191546159450091
  0.6850855667826280  0.4769238925235689  0.4435557238950322
  0.7066439525252947  0.5202159238562278  0.0252428668859251
  0.7958316914592654  0.4884929061242511  0.6296737615785197
  0.3358597402070919  0.0896100698282356  0.4342725904924344
  0.0058426974845146  0.8330599436111928  0.4775868778173036
  0.7529062508094444  0.0725645589047235  0.9189225138223118
  0.0232704822859635  0.6421070893420163  0.2031633497542858
  0.0069267635032678  0.0363219741268769  0.7987447388614006
  0.2307340991703447  0.7167819717669645  0.8398569828346073
  0.3092182467806860  0.6359118873536117  0.4459858915648668
  0.1155350123960257  0.4691465023032251  0.0973635859071441
  0.3268686550878350  0.2043071476842762  0.6036044893532033
  0.8535250609866537  0.5390681775654647  0.3580080769969075
  0.0812485351159545  0.1026102987539812  0.4154680631526611
  0.4897781945619796  0.3920083360400524  0.2254676391261895
  0.4158078467874747  0.2919053490473382  0.3959241211923704
  0.4229058998021417  0.8898332174589136  0.7633579043583251
  0.8316935798748407  0.8794126046070158  0.8659147553187367
  0.1108813870131711  0.1033332392643685  0.1655075452133281
  0.1929798020130875  0.9163191545603047  0.7324203193153682
  0.3598014128624107  0.4252860048820754  0.5617252275866312
  0.6099983954002288  0.3934314893665754  0.6544738729902813
  0.9799357514459240  0.4138843250793957  0.4979050441495217
  0.3211224043502787  0.3990984886909106  0.1105200993623032
  0.2721217091680459  0.8980105845618468  0.9387095326381121
  0.5043935433775989  0.5954493461329753  0.5769885699487803
  0.0696071978527163  0.8567704014837673  0.9073619856723363
  0.6347049659488185  0.7792700274026964  0.5636002270292352
  0.6433853998701665  0.2434213921093373  0.9996364643184799
  0.7027176786219570  0.0653622131545572  0.5115346874374398
  0.6424678398106816  0.8990504576029390  0.3889340731382365
  0.7668837410806367  0.7446752711404767  0.0854142189483563
  0.5616297607148886  0.6848378919063326  0.7516369403994910
  0.4278010433656158  0.8269037849052595  0.5012198050815074
  0.8390264283050989  0.7523786589128727  0.2933537784793862
  0.1961408528218687  0.9199575654336651  0.4698247223206998
  0.6245225180522127  0.8778093143931165  0.7999686501184210
  0.7891741086298175  0.6716833738515582  0.4939502017943052
  0.4492269552119426  0.5179948534049874  0.7657771212529074
  0.7534954692210977  0.6813599406773706  0.8979998317778644
  0.1488914985420618  0.0736548683764275  0.9396993812300037
  0.9310725390848947  0.3665506383528295  0.6981789309020100
  0.8362276024995126  0.3811458271646416  0.0101487738592597
  0.4290366355084361  0.7383356470829743  0.8833352111970334
  0.4042582732581881  0.7244036089451459  0.2910070455237083
  0.9202095042612134  0.5807207884183999  0.0230149694074491
  0.1763726043328872  0.0984337139640709  0.6443271364072241
  0.4659832890575842  0.5712238673672486  0.1570352214487448
  0.5815538302551584  0.2240822936769150  0.2234021402817044
  0.2659087381564054  0.3820043785903754  0.7122022281667143
  0.9771923493649423  0.1714577224544341  0.6393114735259831
  0.2192823099234739  0.0179875827961004  0.2994950789227195
  0.3337137726706090  0.9735197630510294  0.6038241532089933
  0.8946071541856702  0.1548863270845335  0.4655191143788003
  0.4645700126512427  0.9350709354302944  0.9921243180167294
  0.1347001219659177  0.5817722275018758  0.9217341824195984
  0.1289995377117935  0.2934156056756459  0.6153044531452968
  0.2807022734412847  0.4342086248322448  0.3253907270506012
  0.9541496346356296  0.7799182015827558  0.0903521615379048
  0.7350982251888453  0.1094131218197699  0.3227662265345417
  0.3092515605648320  0.5960117736673869  0.9824354189100855
  0.7082758415414253  0.3886570552673860  0.1674495684567054
  0.1653570734811722  0.7199020580696859  0.0668634863145860
  0.8575341912154721  0.5052075826266325  0.8424903496753030
  0.1963158400529811  0.5463501269202766  0.7492537424711637
  0.6271145145086773  0.1374240833593734  0.9050520260082189
  0.5631727315052917  0.9188480868107692  0.2832417659341147
  0.4724096660154582  0.3870153907825822  0.4857209241982985
  0.0654830748335012  0.9631406596725203  0.4667077955754720
  0.5624394452037890  0.9430258381505701  0.9189474106448333
  0.2268867745239379  0.4414826123024322  0.8112819905467377
  0.5065014516256254  0.1995042813961464  0.4544275709699483
  0.0101808404454180  0.8648185316884823  0.0287130376218572
  0.4572098224444713  0.4585547558362598  0.1084145517713557
  0.1002461007615198  0.8497164776298707  0.2160600878672136
  0.6772345684045692  0.7411025148701935  0.8045358622274934
  0.2669019919371688  0.4185213197003562  0.4616633930588192
  0.7744456206074675  0.7722492544264492  0.5811459216081059
  0.6991259367204742  0.3051785515649310  0.8822238477806245
  0.5138056336121520  0.2793556254223763  0.9836940792193688
  0.2733413567777750  0.3262895178187969  0.6062866490366162
  0.4020246535559884  0.4196427126301424  0.3366284605091540
  0.3622137035192797  0.8883468793303633  0.0410319524512538
  0.0176047984933125  0.6982303220038955  0.5324032886060465
  0.2936725803456370  0.4780936537621620  0.2122391723216583
  0.8461167680961144  0.3956012327857488  0.8951846575936715
  0.2044476472247293  0.9884029672169953  0.6113550286325957
  0.4117929002701819  0.6191637727484688  0.0435379418552172
  0.0143083096910823  0.2001843153739014  0.1899883920815265
  0.1652058117360118  0.3874458334848537  0.3266882323682834
  0.3914576205366044  0.9510011770819675  0.8849850352979004
  0.2502161832946050  0.5884137273123301  0.8681875352418404
  0.6495823406523774  0.8700393257543838  0.6639715946110019
  0.3250424550514618  0.9700486806067224  0.7237913085603336
  0.9217980118387185  0.3382390966322443  0.0754887068972740
  0.4124486957321516  0.9931720419378637  0.1923049603570200
  0.0418833406492296  0.3950512527264691  0.2025052270657960
  0.4365663177781199  0.6443770986489495  0.3772993865186161
  0.5745291404695589  0.0674213693896243  0.5550670641462586
  0.8742034722386098  0.6718220030247206  0.3919456676874823
  0.2159055390493150  0.9905365660008707  0.0206043717543516
  0.9613015510798441  0.1386179781743482  0.3684058760849607
  0.8818417417809390  0.6943290226067041  0.0296050700472255
  0.0634728589360648  0.9149047277667656  0.7745673515022087
  0.7507434973894825  0.5381459001403810  0.8907652949949424
  0.7277385001671818  0.0444225975778965  0.2221498968178419
  0.7038320003440430  0.4627548327990914  0.7267732353006178
  0.6863907563808084  0.8434264842953282  0.1295364850115383
  0.0976544316284848  0.6948393126151149  0.8970674079824293
  0.3273449024104433  0.3056129088431543  0.9963974322602418
  0.5244987091994916  0.2985601626639136  0.3154253512055024
  0.0107271167064143  0.2830236048862179  0.6393976377151007
  0.7649110552864472  0.1864834247178012  0.0012209526523197
  0.4000671966724954  0.3052774972876992  0.1680392586340594
  0.3230929863070668  0.7214105219112357  0.9481749172035322
  0.2146320761069558  0.9953005614303695  0.8472825016715598
  0.3519780126624684  0.7711331775891530  0.7900036308502562
  0.0280628271449701  0.9979968975024064  0.1355627949426682
  0.9899274319967398  0.3538966976267799  0.8021994633865595
  0.5128579749513538  0.7986167273253527  0.8050303907006363
  0.3050709123752057  0.4796031855796660  0.0028309427482787
  0.8333292307078971  0.3018560746629733  0.7189864512304165
  0.8115630664354785  0.3839832727216549  0.2254954763428500
  0.8737134600261102  0.9997743336775449  0.9118335339776271
  0.2154702269247939  0.4822695322761731  0.6511653162969884
  0.5974593862373890  0.4881293757806610  0.9517260431302149
  0.8451495465825342  0.6586372202774455  0.8042747539776930
  0.1959322956397129  0.6131712009780886  0.0253992372309304
  0.6832726412231144  0.2019628308918058  0.5115679084570421
  0.4857203208354277  0.7714453527022488  0.9857033831508702
  0.0980106455667746  0.4793705354098201  0.9656722499607473
  0.6064502386390185  0.3297764064960784  0.1739008171419559
  0.3426280204338626  0.7282350214521219  0.5353766722531419
  0.6518865494566319  0.0376848026773693  0.3848384049519337
  0.9366461228623517  0.7458040691817815  0.2041172792851919
  0.5268505972557794  0.5213167054896720  0.2587285659953863
  0.6427815133801230  0.6689649781054231  0.6482626511653961
  0.1900733944514878  0.3602801032615771  0.1022729390170537
  0.6811391577888437  0.7388842876530920  0.4411181984540184
  0.5566810225779059  0.3656373887951063  0.5182023217382393
  0.3640050906696223  0.0810855869488891  0.5674764303836969
  0.7238645856932874  0.3643539825529187  0.0480908064124504
  0.2255505608512862  0.8136866207635414  0.6506606378690208
  0.3963981932851227  0.5445486126182172  0.5104787577384046
  0.7980100212603737  0.5375846689097993  0.4882634665396052
  0.2075924328475007  0.0486744812095412  0.4249504387401031
  0.7635363890093751  0.8663453639894486  0.3141989359882792
  0.2105371972215118  0.0070036355861973  0.1784932556748420
  0.5329167066624213  0.9718234223025305  0.7508151572415676
  0.9504142282713869  0.5418020390832228  0.2651271643432653
  0.7355432918140787  0.9284688476638753  0.4845945414420518
  0.4951725863936231  0.6334755172924830  0.8616160192552774
  0.7201837746130111  0.9531991622283484  0.8502554858269916
  0.9935772381879474  0.5386540512562079  0.1028743286496806
  0.1081470691495203  0.3589233244498967  0.5164198707071604
  0.1324324705712129  0.5542872452549084  0.2016237252563750
  0.4974662984582179  0.1402269324847379  0.2398891327051889
  0.4395323633576031  0.0146807652823108  0.3965686786513850
  0.3230860379153147  0.2220809827161541  0.4690819309312798
  0.2510041463123880  0.5501501874522597  0.3589830214459175
  0.8390151143586045  0.4967196696702635  0.0553238756347922
  0.6847030783151502  0.6552648386256699  0.0091576908621117
  0.8089129878219726  0.1949699394323610  0.2709736057830144
  0.3177006764292882  0.1565622637163368  0.0904035223949409
  0.8313251152162624  0.8362220207539537  0.7299367696284074
  0.3740982741222866  0.4370176565705483  0.6942983680978787
  0.9015067420270986  0.9176324957471572  0.5268108317582416
  0.8532041332192943  0.2646180123409649  0.4624075971058235
  0.8639645553227492  0.8715359064731316  0.1032970751742832
  0.0398041111191947  0.9952254680132108  0.9289230063642525
  0.6453604206801131  0.1872336446083020  0.3182975292609869
  0.9247993183743664  0.2170352378487751  0.9319527517968111
  0.3277069569965028  0.3026944441781871  0.7977078719321070
  0.7391131501037146  0.0241240541098926  0.6356676054787755
  0.0618714294872713  0.5200107411765705  0.4293282889518346
  0.5180489345630387  0.7189145702266316  0.5282311702742075
  0.6602945593922451  0.2652472682284568  0.6588926307573643
  0.0515207497925659  0.7054540011484141  0.0886526511422074
  0.2880052358617545  0.7148866261351190  0.3285792658004309
  0.0907849365413855  0.5452336546203699  0.8056254880904038
  0.4426042488515383  0.8105210906280234  0.3697472243184137
  0.0628103227729524  0.0791207783985099  0.6710532829357090
  0.2137162629292746  0.6594186155381182  0.7128802711637681
  0.1050574616484998  0.1354244618135167  0.8263791522712369
  0.7017819581848752  0.3656212829486277  0.3731731233977261
  0.5403520921085175  0.5065263520113674  0.6689580133841591
  0.3236173712390900  0.9166753970565514  0.5009615684473052
  0.1371186586309068  0.2948992752204716  0.9082534894775033
  0.5614190627890433  0.3471261983178837  0.7804499894645913
  0.1590768284654744  0.3151649243440414  0.7280879966167366
  0.4462172848467237  0.2557912346630069  0.6365840827788471
  0.9939601082249695  0.1181986310258121  0.5276045031311821
  0.8592217626640828  0.1652251449606012  0.5976669959374256
  0.4256311363207792  0.1484935508491443  0.8599692325179191
  0.1346118917413650  0.7999017139977773  0.4372007033770923
  0.1919212311689211  0.2099021241184921  0.1795526046301385
  0.1749976750450958  0.8251332608025662  0.0119417949898293
  0.7394182160031267  0.0070482465718712  0.0395125758274494
  0.3851273926992002  0.6408081719099565  0.2055098391475588
  0.5447374796066179  0.1566499105823355  0.7397015903659134
  0.0951900855370140  0.0375722630426826  0.2932806782150919
  0.5611566614111362  0.6339207879339387  0.1239027647702801
  0.6783643301507903  0.5000954738791786  0.1509400663175582
  0.8892482520957307  0.9895311624744348  0.2709711819200331
  0.7612875717740192  0.6852103534314127  0.2036854620257576
  0.9132100608226198  0.4162050907297735  0.3812918132711717
  0.4338284435863122  0.4489000628062728  0.8775276079207867
  0.8903013102067848  0.1024943435085231  0.1068819289696803
  0.0324653275005458  0.4979471655455115  0.5939898500974334
  0.2562622070768703  0.9085468226232430  0.3319665175745945
  0.2610889607447747  0.1554676856968968  0.9222971776976239
  0.5771145786114081  0.5583520480513890  0.4601787642931948
  0.7664845117042506  0.1509447490634322  0.8064136585798074
  0.7102968235932376  0.4061270679098390  0.5609276628422385
  0.5614986800401440  0.8795615460997206  0.4990257750268010
  0.8952189751300405  0.4868221064913276  0.7311337929404358
  0.8364347796270458  0.6205473784916422  0.6223989720832040
  0.1874664816097749  0.6278407344389659  0.5222519597654828
  0.9182687373654997  0.9841163258167286  0.6990901182544630
  0.8836982840607240  0.3909428803727328  0.5882884293536842
  0.3006953461942211  0.2975277020297254  0.3219901602428543
  0.2475464830415992  0.7281184680251297  0.1520105060386627
  0.4318284615985492  0.8036328527421492  0.1999866094217345
  0.9417572882992979  0.1527117433362914  0.7588760065598238
  0.3055438559744061  0.1019969857595744  0.3005129784751599
  0.9517680502448489  0.8071820627944875  0.8551689130945055
  0.4345929445861039  0.8926679415007914  0.6246648273184479
  0.1039811465802357  0.6838910319576014  0.3044224793453940
  0.2638966005223764  0.1418346220831081  0.7183404760088056
  0.9401702853173498  0.5636941703763962  0.9083985916681812
  0.0158911548045128  0.7032232358093726  0.7082577970792385
  0.0950210410783746  0.1596603934704365  0.0353077694533468
  0.5836971075846961  0.7142923346258025  0.2744769090203001
  0.8085069985188067  0.0786984792020095  0.4218068776787766
  0.1748941756233853  0.1909085890678936  0.5718759906554340
  0.7536500886758086  0.8101193135309951  0.9576367726447900
  0.5470125030401038  0.9258334961301331  0.0871214466601898
  0.7220645435171527  0.5509456769688420  0.3338662947398915
  0.1204755715901002  0.2221899778559280  0.3690507480363440
  0.1920915729893372  0.8387302342274572  0.8464392337309392
  0.4394501117941176  0.6405065180715237  0.6931090580772660
  0.6184393121160899  0.1609636238746365  0.1187182867212409
  0.0446680708356557  0.8539438734268264  0.6090215128795075
  0.4466089734095109  0.0570233419016691  0.0264673401352265
  0.9412024511200240  0.8514816980451116  0.3606348993794404
 
  0.00000000E+00  0.00000000E+00  0.00000000E+00
  0.00000000E+00  0.00000000E+00  0.00000000E+00
  0.00000000E+00  0.00000000E+00  0.00000000E+00
  0.00000000E+00  0.00000000E+00  0.00000000E+00
  0.00000000E+00  0.00000000E+00  0.00000000E+00
  0.00000000E+00  0.00000000E+00  0.00000000E+00
  0.00000000E+00  0.00000000E+00  0.00000000E+00
  0.00000000E+00  0.00000000E+00  0.00000000E+00
  0.00000000E+00  0.00000000E+00  0.00000000E+00
  0.00000000E+00  0.00000000E+00  0.00000000E+00
  0.00000000E+00  0.00000000E+00  0.00000000E+00
  0.00000000E+00  0.00000000E+00  0.00000000E+00
  0.00000000E+00  0.00000000E+00  0.00000000E+00
  0.00000000E+00  0.00000000E+00  0.00000000E+00
  0.00000000E+00  0.00000000E+00  0.00000000E+00
  0.00000000E+00  0.00000000E+00  0.00000000E+00
  0.00000000E+00  0.00000000E+00  0.00000000E+00
  0.00000000E+00  0.00000000E+00  0.00000000E+00
  0.00000000E+00  0.00000000E+00  0.00000000E+00
  0.00000000E+00  0.00000000E+00  0.00000000E+00
  0.00000000E+00  0.00000000E+00  0.00000000E+00
  0.00000000E+00  0.00000000E+00  0.00000000E+00
  0.00000000E+00  0.00000000E+00  0.00000000E+00
  0.00000000E+00  0.00000000E+00  0.00000000E+00
  0.00000000E+00  0.00000000E+00  0.00000000E+00
  0.00000000E+00  0.00000000E+00  0.00000000E+00
  0.00000000E+00  0.00000000E+00  0.00000000E+00
  0.00000000E+00  0.00000000E+00  0.00000000E+00
  0.00000000E+00  0.00000000E+00  0.00000000E+00
  0.00000000E+00  0.00000000E+00  0.00000000E+00
  0.00000000E+00  0.00000000E+00  0.00000000E+00
  0.00000000E+00  0.00000000E+00  0.00000000E+00
  0.00000000E+00  0.00000000E+00  0.00000000E+00
  0.00000000E+00  0.00000000E+00  0.00000000E+00
  0.00000000E+00  0.00000000E+00  0.00000000E+00
  0.00000000E+00  0.00000000E+00  0.00000000E+00
  0.00000000E+00  0.00000000E+00  0.00000000E+00
  0.00000000E+00  0.00000000E+00  0.00000000E+00
  0.00000000E+00  0.00000000E+00  0.00000000E+00
  0.00000000E+00  0.00000000E+00  0.00000000E+00
  0.00000000E+00  0.00000000E+00  0.00000000E+00
  0.00000000E+00  0.00000000E+00  0.00000000E+00
  0.00000000E+00  0.00000000E+00  0.00000000E+00
  0.00000000E+00  0.00000000E+00  0.00000000E+00
  0.00000000E+00  0.00000000E+00  0.00000000E+00
  0.00000000E+00  0.00000000E+00  0.00000000E+00
  0.00000000E+00  0.00000000E+00  0.00000000E+00
  0.00000000E+00  0.00000000E+00  0.00000000E+00
  0.00000000E+00  0.00000000E+00  0.00000000E+00
  0.00000000E+00  0.00000000E+00  0.00000000E+00
  0.00000000E+00  0.00000000E+00  0.00000000E+00
  0.00000000E+00  0.00000000E+00  0.00000000E+00
  0.00000000E+00  0.00000000E+00  0.00000000E+00
  0.00000000E+00  0.00000000E+00  0.00000000E+00
  0.00000000E+00  0.00000000E+00  0.00000000E+00
  0.00000000E+00  0.00000000E+00  0.00000000E+00
  0.00000000E+00  0.00000000E+00  0.00000000E+00
  0.00000000E+00  0.00000000E+00  0.00000000E+00
  0.00000000E+00  0.00000000E+00  0.00000000E+00
  0.00000000E+00  0.00000000E+00  0.00000000E+00
  0.00000000E+00  0.00000000E+00  0.00000000E+00
  0.00000000E+00  0.00000000E+00  0.00000000E+00
  0.00000000E+00  0.00000000E+00  0.00000000E+00
  0.00000000E+00  0.00000000E+00  0.00000000E+00
  0.00000000E+00  0.00000000E+00  0.00000000E+00
  0.00000000E+00  0.00000000E+00  0.00000000E+00
  0.00000000E+00  0.00000000E+00  0.00000000E+00
  0.00000000E+00  0.00000000E+00  0.00000000E+00
  0.00000000E+00  0.00000000E+00  0.00000000E+00
  0.00000000E+00  0.00000000E+00  0.00000000E+00
  0.00000000E+00  0.00000000E+00  0.00000000E+00
  0.00000000E+00  0.00000000E+00  0.00000000E+00
  0.00000000E+00  0.00000000E+00  0.00000000E+00
  0.00000000E+00  0.00000000E+00  0.00000000E+00
  0.00000000E+00  0.00000000E+00  0.00000000E+00
  0.00000000E+00  0.00000000E+00  0.00000000E+00
  0.00000000E+00  0.00000000E+00  0.00000000E+00
  0.00000000E+00  0.00000000E+00  0.00000000E+00
  0.00000000E+00  0.00000000E+00  0.00000000E+00
  0.00000000E+00  0.00000000E+00  0.00000000E+00
  0.00000000E+00  0.00000000E+00  0.00000000E+00
  0.00000000E+00  0.00000000E+00  0.00000000E+00
  0.00000000E+00  0.00000000E+00  0.00000000E+00
  0.00000000E+00  0.00000000E+00  0.00000000E+00
  0.00000000E+00  0.00000000E+00  0.00000000E+00
  0.00000000E+00  0.00000000E+00  0.00000000E+00
  0.00000000E+00  0.00000000E+00  0.00000000E+00
  0.00000000E+00  0.00000000E+00  0.00000000E+00
  0.00000000E+00  0.00000000E+00  0.00000000E+00
  0.00000000E+00  0.00000000E+00  0.00000000E+00
  0.00000000E+00  0.00000000E+00  0.00000000E+00
  0.00000000E+00  0.00000000E+00  0.00000000E+00
  0.00000000E+00  0.00000000E+00  0.00000000E+00
  0.00000000E+00  0.00000000E+00  0.00000000E+00
  0.00000000E+00  0.00000000E+00  0.00000000E+00
  0.00000000E+00  0.00000000E+00  0.00000000E+00
  0.00000000E+00  0.00000000E+00  0.00000000E+00
  0.00000000E+00  0.00000000E+00  0.00000000E+00
  0.00000000E+00  0.00000000E+00  0.00000000E+00
  0.00000000E+00  0.00000000E+00  0.00000000E+00
  0.00000000E+00  0.00000000E+00  0.00000000E+00
  0.00000000E+00  0.00000000E+00  0.00000000E+00
  0.00000000E+00  0.00000000E+00  0.00000000E+00
  0.00000000E+00  0.00000000E+00  0.00000000E+00
  0.00000000E+00  0.00000000E+00  0.00000000E+00
  0.00000000E+00  0.00000000E+00  0.00000000E+00
  0.00000000E+00  0.00000000E+00  0.00000000E+00
  0.00000000E+00  0.00000000E+00  0.00000000E+00
  0.00000000E+00  0.00000000E+00  0.00000000E+00
  0.00000000E+00  0.00000000E+00  0.00000000E+00
  0.00000000E+00  0.00000000E+00  0.00000000E+00
  0.00000000E+00  0.00000000E+00  0.00000000E+00
  0.00000000E+00  0.00000000E+00  0.00000000E+00
  0.00000000E+00  0.00000000E+00  0.00000000E+00
  0.00000000E+00  0.00000000E+00  0.00000000E+00
  0.00000000E+00  0.00000000E+00  0.00000000E+00
  0.00000000E+00  0.00000000E+00  0.00000000E+00
  0.00000000E+00  0.00000000E+00  0.00000000E+00
  0.00000000E+00  0.00000000E+00  0.00000000E+00
  0.00000000E+00  0.00000000E+00  0.00000000E+00
  0.00000000E+00  0.00000000E+00  0.00000000E+00
  0.00000000E+00  0.00000000E+00  0.00000000E+00
  0.00000000E+00  0.00000000E+00  0.00000000E+00
  0.00000000E+00  0.00000000E+00  0.00000000E+00
  0.00000000E+00  0.00000000E+00  0.00000000E+00
  0.00000000E+00  0.00000000E+00  0.00000000E+00
  0.00000000E+00  0.00000000E+00  0.00000000E+00
  0.00000000E+00  0.00000000E+00  0.00000000E+00
  0.00000000E+00  0.00000000E+00  0.00000000E+00
  0.00000000E+00  0.00000000E+00  0.00000000E+00
  0.00000000E+00  0.00000000E+00  0.00000000E+00
  0.00000000E+00  0.00000000E+00  0.00000000E+00
  0.00000000E+00  0.00000000E+00  0.00000000E+00
  0.00000000E+00  0.00000000E+00  0.00000000E+00
  0.00000000E+00  0.00000000E+00  0.00000000E+00
  0.00000000E+00  0.00000000E+00  0.00000000E+00
  0.00000000E+00  0.00000000E+00  0.00000000E+00
  0.00000000E+00  0.00000000E+00  0.00000000E+00
  0.00000000E+00  0.00000000E+00  0.00000000E+00
  0.00000000E+00  0.00000000E+00  0.00000000E+00
  0.00000000E+00  0.00000000E+00  0.00000000E+00
  0.00000000E+00  0.00000000E+00  0.00000000E+00
  0.00000000E+00  0.00000000E+00  0.00000000E+00
  0.00000000E+00  0.00000000E+00  0.00000000E+00
  0.00000000E+00  0.00000000E+00  0.00000000E+00
  0.00000000E+00  0.00000000E+00  0.00000000E+00
  0.00000000E+00  0.00000000E+00  0.00000000E+00
  0.00000000E+00  0.00000000E+00  0.00000000E+00
  0.00000000E+00  0.00000000E+00  0.00000000E+00
  0.00000000E+00  0.00000000E+00  0.00000000E+00
  0.00000000E+00  0.00000000E+00  0.00000000E+00
  0.00000000E+00  0.00000000E+00  0.00000000E+00
  0.00000000E+00  0.00000000E+00  0.00000000E+00
  0.00000000E+00  0.00000000E+00  0.00000000E+00
  0.00000000E+00  0.00000000E+00  0.00000000E+00
  0.00000000E+00  0.00000000E+00  0.00000000E+00
  0.00000000E+00  0.00000000E+00  0.00000000E+00
  0.00000000E+00  0.00000000E+00  0.00000000E+00
  0.00000000E+00  0.00000000E+00  0.00000000E+00
  0.00000000E+00  0.00000000E+00  0.00000000E+00
  0.00000000E+00  0.00000000E+00  0.00000000E+00
  0.00000000E+00  0.00000000E+00  0.00000000E+00
  0.00000000E+00  0.00000000E+00  0.00000000E+00
  0.00000000E+00  0.00000000E+00  0.00000000E+00
  0.00000000E+00  0.00000000E+00  0.00000000E+00
  0.00000000E+00  0.00000000E+00  0.00000000E+00
  0.00000000E+00  0.00000000E+00  0.00000000E+00
  0.00000000E+00  0.00000000E+00  0.00000000E+00
  0.00000000E+00  0.00000000E+00  0.00000000E+00
  0.00000000E+00  0.00000000E+00  0.00000000E+00
  0.00000000E+00  0.00000000E+00  0.00000000E+00
  0.00000000E+00  0.00000000E+00  0.00000000E+00
  0.00000000E+00  0.00000000E+00  0.00000000E+00
  0.00000000E+00  0.00000000E+00  0.00000000E+00
  0.00000000E+00  0.00000000E+00  0.00000000E+00
  0.00000000E+00  0.00000000E+00  0.00000000E+00
  0.00000000E+00  0.00000000E+00  0.00000000E+00
  0.00000000E+00  0.00000000E+00  0.00000000E+00
  0.00000000E+00  0.00000000E+00  0.00000000E+00
  0.00000000E+00  0.00000000E+00  0.00000000E+00
  0.00000000E+00  0.00000000E+00  0.00000000E+00
  0.00000000E+00  0.00000000E+00  0.00000000E+00
  0.00000000E+00  0.00000000E+00  0.00000000E+00
  0.00000000E+00  0.00000000E+00  0.00000000E+00
  0.00000000E+00  0.00000000E+00  0.00000000E+00
  0.00000000E+00  0.00000000E+00  0.00000000E+00
  0.00000000E+00  0.00000000E+00  0.00000000E+00
  0.00000000E+00  0.00000000E+00  0.00000000E+00
  0.00000000E+00  0.00000000E+00  0.00000000E+00
  0.00000000E+00  0.00000000E+00  0.00000000E+00
  0.00000000E+00  0.00000000E+00  0.00000000E+00
  0.00000000E+00  0.00000000E+00  0.00000000E+00
  0.00000000E+00  0.00000000E+00  0.00000000E+00
  0.00000000E+00  0.00000000E+00  0.00000000E+00
  0.00000000E+00  0.00000000E+00  0.00000000E+00
  0.00000000E+00  0.00000000E+00  0.00000000E+00
  0.00000000E+00  0.00000000E+00  0.00000000E+00
  0.00000000E+00  0.00000000E+00  0.00000000E+00
  0.00000000E+00  0.00000000E+00  0.00000000E+00
  0.00000000E+00  0.00000000E+00  0.00000000E+00
  0.00000000E+00  0.00000000E+00  0.00000000E+00
  0.00000000E+00  0.00000000E+00  0.00000000E+00
  0.00000000E+00  0.00000000E+00  0.00000000E+00
  0.00000000E+00  0.00000000E+00  0.00000000E+00
  0.00000000E+00  0.00000000E+00  0.00000000E+00
  0.00000000E+00  0.00000000E+00  0.00000000E+00
  0.00000000E+00  0.00000000E+00  0.00000000E+00
  0.00000000E+00  0.00000000E+00  0.00000000E+00
  0.00000000E+00  0.00000000E+00  0.00000000E+00
  0.00000000E+00  0.00000000E+00  0.00000000E+00
  0.00000000E+00  0.00000000E+00  0.00000000E+00
  0.00000000E+00  0.00000000E+00  0.00000000E+00
  0.00000000E+00  0.00000000E+00  0.00000000E+00
  0.00000000E+00  0.00000000E+00  0.00000000E+00
  0.00000000E+00  0.00000000E+00  0.00000000E+00
  0.00000000E+00  0.00000000E+00  0.00000000E+00
  0.00000000E+00  0.00000000E+00  0.00000000E+00
  0.00000000E+00  0.00000000E+00  0.00000000E+00
  0.00000000E+00  0.00000000E+00  0.00000000E+00
  0.00000000E+00  0.00000000E+00  0.00000000E+00
  0.00000000E+00  0.00000000E+00  0.00000000E+00
  0.00000000E+00  0.00000000E+00  0.00000000E+00
  0.00000000E+00  0.00000000E+00  0.00000000E+00
  0.00000000E+00  0.00000000E+00  0.00000000E+00
  0.00000000E+00  0.00000000E+00  0.00000000E+00
  0.00000000E+00  0.00000000E+00  0.00000000E+00
  0.00000000E+00  0.00000000E+00  0.00000000E+00
  0.00000000E+00  0.00000000E+00  0.00000000E+00
  0.00000000E+00  0.00000000E+00  0.00000000E+00
  0.00000000E+00  0.00000000E+00  0.00000000E+00
  0.00000000E+00  0.00000000E+00  0.00000000E+00
  0.00000000E+00  0.00000000E+00  0.00000000E+00