In2O3 structure 31 - random placement wi
   1.00000000000000     
     8.0473707993047867   -0.0221282694680168    0.0836576770573287
    -0.0217641236769007    8.1292080997056342   -0.0126357641316256
     0.0831278848171485   -0.0108822973202209    7.9080256671830913
   In   Ga   O 
    14     2    24
Direct
  0.0349879308169463  0.3699609719877230  0.4679529279587982
  0.3238280368454483  0.6321565307562551  0.2429192099917259
  0.2894353407779775  0.1085461387139830  0.7148162652261263
  0.7925977794752939  0.6061942723529512  0.7350452054965544
  0.0626017730302380  0.8841748649278642  0.4943602772283242
  0.5258461739619875  0.3767272767309819  0.4553841339026832
  0.8026564354651384  0.6226441795402309  0.2384331076396720
  0.3227885624457372  0.6109731780430181  0.7388293693645664
  0.5570547631154525  0.8913410718439323  0.9938560744155041
  0.0625197764318344  0.9149313420863052  0.0105113701647852
  0.7768393830355294  0.0996864951318344  0.7088488806532354
  0.0157628404804200  0.3490194642785340  0.9528311697775464
  0.5259751101019461  0.3748824806802986  0.9644616313093550
  0.7721163156010888  0.1114325256531501  0.2255242174439402
  0.5563194725828637  0.8893743157251990  0.4926698317627185
  0.2972089127466546  0.1045943459303302  0.2281172758497760
  0.4019313826149684  0.3314758163451899  0.2090698520159862
  0.2665571872261623  0.3525994610481789  0.8355808178610502
  0.4419243207066401  0.6475351733776122  0.9952078084371152
  0.6726738949765476  0.1471538408413977  0.9638467750708202
  0.0289083318503103  0.9991737287002778  0.7526441846087053
  0.1807320256135867  0.1432145568182577  0.4535346310191812
  0.7858585752255465  0.3587797457081905  0.3412725351472332
  0.5144805083366961  0.9955797935526647  0.2666496904101621
  0.1874912584088122  0.8631764852804906  0.2505818136240094
  0.0842774395037509  0.6621475707678286  0.9117637762134407
  0.6609907044432717  0.8418656247178049  0.7340617305565118
  0.8082116264099639  0.9800287266671006  0.4590607834552287
  0.5668533976854135  0.6655708414564145  0.3748947452568814
  0.0354465859145776  0.1615920199566077  0.1369126298394931
  0.7767097884015044  0.4930686202482022  0.9938142505948164
  0.9045475676778665  0.3421619932497109  0.7050887073142817
  0.8110424822001292  0.8565846405425006  0.1053874557767855
  0.9410610877526580  0.6379961152739355  0.4914060491655974
  0.3258358636598615  0.8468412985573721  0.6073145713938217
  0.2700667911012999  0.5014759836647968  0.4815819000659047
  0.3194945333835122  0.0232166419004471  0.9782345001998323
  0.0863254458269509  0.5773858967409922  0.0836425874023234
  0.5319701103651155  0.1363152600132480  0.5895862605152757
  0.5595593363273466  0.4799275214568937  0.7050270623440937
 
  0.00000000E+00  0.00000000E+00  0.00000000E+00
  0.00000000E+00  0.00000000E+00  0.00000000E+00
  0.00000000E+00  0.00000000E+00  0.00000000E+00
  0.00000000E+00  0.00000000E+00  0.00000000E+00
  0.00000000E+00  0.00000000E+00  0.00000000E+00
  0.00000000E+00  0.00000000E+00  0.00000000E+00
  0.00000000E+00  0.00000000E+00  0.00000000E+00
  0.00000000E+00  0.00000000E+00  0.00000000E+00
  0.00000000E+00  0.00000000E+00  0.00000000E+00
  0.00000000E+00  0.00000000E+00  0.00000000E+00
  0.00000000E+00  0.00000000E+00  0.00000000E+00
  0.00000000E+00  0.00000000E+00  0.00000000E+00
  0.00000000E+00  0.00000000E+00  0.00000000E+00
  0.00000000E+00  0.00000000E+00  0.00000000E+00
  0.00000000E+00  0.00000000E+00  0.00000000E+00
  0.00000000E+00  0.00000000E+00  0.00000000E+00
  0.00000000E+00  0.00000000E+00  0.00000000E+00
  0.00000000E+00  0.00000000E+00  0.00000000E+00
  0.00000000E+00  0.00000000E+00  0.00000000E+00
  0.00000000E+00  0.00000000E+00  0.00000000E+00
  0.00000000E+00  0.00000000E+00  0.00000000E+00
  0.00000000E+00  0.00000000E+00  0.00000000E+00
  0.00000000E+00  0.00000000E+00  0.00000000E+00
  0.00000000E+00  0.00000000E+00  0.00000000E+00
  0.00000000E+00  0.00000000E+00  0.00000000E+00
  0.00000000E+00  0.00000000E+00  0.00000000E+00
  0.00000000E+00  0.00000000E+00  0.00000000E+00
  0.00000000E+00  0.00000000E+00  0.00000000E+00
  0.00000000E+00  0.00000000E+00  0.00000000E+00
  0.00000000E+00  0.00000000E+00  0.00000000E+00
  0.00000000E+00  0.00000000E+00  0.00000000E+00
  0.00000000E+00  0.00000000E+00  0.00000000E+00
  0.00000000E+00  0.00000000E+00  0.00000000E+00
  0.00000000E+00  0.00000000E+00  0.00000000E+00
  0.00000000E+00  0.00000000E+00  0.00000000E+00
  0.00000000E+00  0.00000000E+00  0.00000000E+00
  0.00000000E+00  0.00000000E+00  0.00000000E+00
  0.00000000E+00  0.00000000E+00  0.00000000E+00
  0.00000000E+00  0.00000000E+00  0.00000000E+00
  0.00000000E+00  0.00000000E+00  0.00000000E+00
