Amorphous Sb                            
   1.00000000000000     
    23.2282823540567733    0.0000000000000000    0.0000000000000000
     0.0000000000000000   23.2282823540567733    0.0000000000000000
     0.0000000000000000    0.0000000000000000   23.2282823540567733
   Te
   300
Direct
  0.5441704557299315  0.6581788226337458  0.4293766964982315
  0.7669482450065351  0.2306128196806546  0.4888696058487711
  0.9775997881965419  0.9358968524086539  0.1766191433060576
  0.1564462815225407  0.4309952379232336  0.9317553503411985
  0.4172625017768094  0.8347995583088995  0.8865029834604984
  0.7258085427394573  0.6047782534179708  0.6076755349923706
  0.6336495461723691  0.1027680834831419  0.7861728288464286
  0.9027353236131939  0.4363007885785560  0.7915256428989424
  0.4966451925210124  0.1237251886814928  0.8856799348289278
  0.8156828215207995  0.8538379759457912  0.3913123658927063
  0.8539176180869542  0.6922642274413451  0.1208423258644658
  0.1911583587954819  0.6547516318424996  0.7958023282935418
  0.2884705320832030  0.1413569049845828  0.5048940441590964
  0.3639336315534197  0.1498860386926740  0.3726967153564020
  0.5293760472198346  0.3913787273481989  0.4358732025065220
  0.5550644302741389  0.8967501383742407  0.4158963623823753
  0.5375556063187196  0.0176912285101989  0.4214011193825730
  0.4940673741640442  0.8333534929154557  0.2776155586450775
  0.7772171103116253  0.6337518964212668  0.2609650424350822
  0.1359510553260778  0.8066661945607265  0.8812213652432284
  0.5570163963588551  0.7295955201080289  0.2532974784572053
  0.4727231596550774  0.4363055032469247  0.2971286112574446
  0.0634147318553299  0.7117970574076518  0.2736979999849607
  0.3942684882463640  0.0584837226626362  0.8754541302457768
  0.6687472864127925  0.4733775166354309  0.8337855547582947
  0.2449767529829649  0.7125031466472663  0.5833907227850604
  0.5780962614926144  0.3401528565478709  0.1493219547044237
  0.6897382512094959  0.1847338515429386  0.0140930825090503
  0.9183619516067731  0.9353976404949405  0.4501696933699385
  0.9750577934045157  0.3709292049316817  0.8632963186649759
  0.5337284843665147  0.1722936740751736  0.4209489111230072
 -0.0033275514539669  0.6996465334550547  0.0010861286519984
  0.8421635013271078  0.8035204399442866  0.0781072301415627
  0.4982877956365309  0.6360543896394354  0.7811166914639917
  0.0821167622608233  0.9351418636845934  0.1209961101735819
  0.9803460197852725  0.6692862964269236  0.6167536644539425
  0.9665243010267917  0.8858286172715980  0.8845142373501633
  0.3096878151080689  0.6512920384494509  0.0338016342910518
  0.8372654816637168  0.0194217178161449  0.8493710875937572
  0.0755988093528821  0.2348505042310454  0.7315187566936057
  0.3055939915620491  0.3635657027802900  0.7923673882629830
  0.0305325278021500  0.1089976387251315  0.7057632834100090
  0.2092087664939977  0.2591148620901894  0.3960479719947784
  0.5475915626764393  0.2938969219812035  0.8133024326411833
  0.2016642311737644  0.5125426574287550  0.2992768785496117
  0.7927633355010291  0.6689634824560818  0.9126830397089235
  0.3741666631520538  0.9152608184522911  0.3364982619989630
  0.7166485509018999  0.1216208477082556  0.6983079982582996
  0.7197958470563872  0.0237172485479239  0.2012835412865055
  0.4664332067626609  0.3354971397767862  0.9686708843718516
  0.8184419622523800  0.2313596096941413  0.8471903190374566
  0.0172117150564981  0.4533286621348926  0.9468642596936175
  0.1271347713204413  0.4644248652625297  0.6308706546641318
  0.0696738419361279  0.2206399194856220  0.1749197799450632
  0.3684704510834043  0.4660367820410386  0.2422219499686747
  0.9698672019807935  0.2321134305060474  0.7931178288723283
  0.2586734146407333  0.4091178509204201  0.0893664468487139
  0.5853499708391078  0.5509001736541254  0.8777021572986493
  0.7340285380619889  0.4302571833485541  0.4428062881093238
  0.5671792426508988  0.2773478928100592  0.9952182534156986
  0.1126621885874724  0.6655118905622111  0.7008506646730538
  0.4093169686447053  0.4397639701646293  0.5650998489033517
  0.2791973309026494  0.8447280428192090  0.4889561406912304
  0.1501408636910160  0.7424452697639482  0.0010773483202475
  0.7598934262437114  0.5361302060937390  0.7875888729916288
  0.0972704047223927  0.9317655545923231  0.4054944667451901
  0.5722693895331408  0.2287344358125480  0.6407872492905257
  0.9290658884954132  0.8185707372416376  0.3089660943968681
  0.7403616632423775  0.7968384488486318 -0.0019408668391577
  0.6842309212645852  0.7908730763751339  0.7042060914665694
  0.3302837611415689  0.9952082925523954  0.1684351542198072
  0.1866844255255330  0.2697745680354139  0.6317102956660293
  0.0304561210737622  0.8298914889861591  0.2336993067144399
  0.8181685030794191  0.8618623557836371  0.1962931840884805
  0.4153447690867727  0.8221523091285449  0.5725534099081148
  0.2191972195762530  0.9679885208752089  0.5635238113238862
  0.8728402254063232  0.3215161847927579  0.1417404020700904
  0.8548179463061424  0.3266608122351958  0.9594946087304234
  0.1065171981686615  0.0905734267131602  0.3037657349403833
  0.7006144040910586  0.8406352203782074  0.1877615610709561
  0.6783230348561670  0.2930237384933937  0.5466711642364182
  0.9581083205363654  0.2896687964394928  0.3556681326136403
  0.7198432543779771  0.0653776128545530  0.5264062240850504
  0.3413989297193595  0.0917618046119732  0.2623650383751556
  0.6404553325751330  0.6240490434303523  0.5019817082304090
  0.6395455433724161  0.3139335162253264  0.2561203600908704
  0.8030949548473645  0.2626021452338275  0.0504017692268196
  0.8113878939175879  0.5014812077405035  0.1446465978385724
  0.9486257003078957  0.4593617624887949  0.5595816262026860
  0.6343086887188950  0.4197973045344373  0.3178829312175951
  0.1597287095525566  0.2477085551881753  0.2856798356911416
  0.8930297459350369  0.2276898909854750  0.6595391714903734
  0.0139930283684720  0.1901285148129305  0.8981216193030580
  0.3272256964660049  0.2664970832107533  0.3779212972827407
  0.9718944089586086  0.2970703990564985  0.5982548451621439
  0.3942848766049317  0.7752190076612785  0.0514507748277804
  0.6982910870821312  0.2855636534318753  0.6637487338571160
  0.6837947862152914  0.4703268072124299  0.0773646263742217
  0.6050387062865412  0.2209849447494045  0.8922813909048035
  0.7393012276421815  0.9081672745736179  0.4756968630296285
  0.8027787038113859  0.0763355179575073  0.1240754699582097
  0.0415664551454824  0.1890078814073046  0.5518757706879904
  0.0439830851377616  0.9147279173291354  0.0074133542219697
  0.5375030456302732  0.1162457773281173  0.5785764648108962
  0.3216187321541386  0.8461852889671951  0.9761181894306949
  0.6057838122200587  0.4226789693964715  0.5248440509306314
  0.2822937310987889  0.7298443074093448  0.4446404052387185
  0.4675077787219830  0.6850266331676933  0.5202460117504903
  0.3861626226694464  0.7228853169120133  0.1880442796404987
 -0.0000853711066505  0.3224592751768822  0.0383869147236397
  0.9759905242112360  0.0689539161210186  0.1602409292913634
  0.0482793092229588  0.1026251943791859  0.0198402025416806
  0.5349461807727302  0.8110006917105168  0.5979097695152250
  0.7704408421477890  0.1220680817999757  0.3196354498000679
  0.3706362735415575  0.1293661828720513  0.6567962105765418
  0.0936553711227845  0.3299782490529411  0.1133490839756148
  0.5504397132981433  0.4877951488228256  0.1746544364653438
  0.1005934611998045  0.0379061075400687  0.6396832943545508
  0.6687918428937925  0.9069521413613818  0.3480450600397508
  0.7733609282426460  0.8652130138282229  0.7335551591100522
  0.1204259728187624  0.5132909306013240  0.8146224973245906
  0.0636698356684062  0.7042192213144434  0.8420818940943251
  0.3079515472409018  0.2940580779072972  0.2135652658070389
  0.7962537171787935  0.3568047704256258  0.6989334398026542
  0.4047619586728643  0.8800015405237157  0.6822754011892282
  0.6940282629778309  0.2815646002082875  0.3886787991121192
  0.7822433502312267  0.8704723519930155  0.5836613905675803
  0.2947793799850808  0.4503172690125523  0.6449127460097144
  0.5523663576188375  0.0356986822725613  0.0425387925700284
  0.5221730583144721  0.1877079582292708  0.7416620752185692
  0.2886525668899397  0.8530570903481463  0.6997568305756021
  0.0499485445774472  0.5316369236652568  0.7139697885455519
  0.4266581329591194  0.0307456942166020  0.3261399194988467
  0.9503107273915807  0.9718076790815872  0.6360709360203955
  0.8753241487680991  0.1437751631777097  0.0207075249001614
  0.4426727163195452  0.5528278326196150  0.6694077362225828
  0.5896820738683505  0.8417887460255863  0.7684113459764482
  0.6229007751724404 -0.0207037121638399  0.7750435293685249
  0.8420950347595341  0.6903652442599705  0.7335106550810980
  0.3403713069705896  0.7043341108877087  0.7329622597398311
  0.0701095803861958  0.4115225943221076  0.2769912557791548
  0.0647246175394226  0.2910971683664319  0.9375456039228910
  0.9926474233986721  0.3231900913467591  0.2450682998675434
  0.8800485724436596  0.0741894165568767  0.2354467565832523
  0.1668117173378886  0.7948525149404505  0.2223378164765177
  0.3498686301924754  0.6608092011356723  0.6193971033959316
  0.8359622714921504  0.5609951970049102  0.8747973905634365
  0.1881703415855546  0.1085946718997891  0.3908706275134147
  0.1407823314969560  0.1566760461379989  0.0940049415032778
  0.9110007240660428  0.7849708466098980  0.7524650840557677
  0.5086770418367959  0.0896105747524710  0.1813137753928458
  0.9556853579709471  0.7580141302484027  0.8634059864700935
 -0.0090449007928338  0.4557106825189882  0.4453476394893216
  0.2452766606564822  0.8880950548728759  0.1827462037270375
  0.3229459712723471  0.0362437379775827  0.5493090367104392
  0.9817488523558375  0.4292688479492814  0.7016200054181859
  0.5228910083837097  0.6978895773322576  0.8840009579155671
  0.7430102433581692  0.0675540806855516  0.0121607898870437
  0.3934687803410004  0.8855341600577489  0.4602225482460034
  0.8329043891072522  0.3874402610439540  0.3879355679138972
  0.9733944756514684  0.7353587309348734  0.5178971631125450
  0.8972404433777795  0.4310775931238795  0.1004495539574295
  0.1454601940644539  0.4451207380502883  0.0546191305736826
  0.4214590797881667  0.6586991083880229  0.9669166658902421
  0.8995457346451013  0.6306231096448995  0.0312140264307797
  0.6544080664680585  0.1856890806347693  0.1291706517943451
  0.1510683735090785  0.0021740504242430  0.2325263527370731
  0.7966064163738230  0.9199694770168576  0.9014363486895194
  0.1055390654762065  0.0090894491281886  0.9616372239128547
  0.2978950513427657  0.2949381584162651  0.9602226064633363
  0.7396330720275812  0.7462365910678561  0.2847221906364902
  0.1008336837382631  0.7489333489993816  0.3878023126968673
  0.5651298674213164  0.9036967242200504  0.1994843543541126
  0.1759228928797367  0.3584792841342135  0.2405881623724630
  0.5023538518740543  0.9132193618391062  0.8550001783720069
  0.0230367883236093  0.5637221829078196  0.5751150883451379
  0.9367092741608581  0.1758442372920467  0.2905807488925991
  0.9880389395462397  0.0909761579159913  0.3865589863237280
  0.4832132011658203  0.0140874312000384  0.5277975590755193
  0.2458219772428067 -0.0193588372884619  0.8302876512260295
  0.4100305814111546  0.5432351301647202  0.9332820626070875
  0.9108455400396909  0.3465747632503695  0.5044124330086595
  0.1530450329984900  0.7889627171669363  0.5081871154592473
  0.9515245012653165  0.0142737418402490  0.8911166523163839
  0.5183132039159460  0.4544731976136828  0.6880260611225847
  0.6351303639178718  0.0522524496775665  0.6137979443194244
  0.4860283698145180  0.2660404190783271  0.1549910826280897
  0.4674477677133720  0.4033507683586507  0.7807676466408773
  0.2073806694512320 -0.0092278047620776  0.4194918773176261
  0.7692093495174638  0.5912938911498310  0.3725800335350140
  0.2546914150407319  0.1208018846534274 -0.0436168892806840
  0.2254739763763249  0.7699739938113623  0.8058695473136180
  0.2269636284886104  0.2768093108794255  0.8246573705491260
  0.8319571894435998  0.9842521425609070  0.6132670097053609
  0.8191620879710645  0.5259911292316555  0.5839066350118474
  0.8135901529955892  0.0499116484504935  0.4144725604869637
  0.6499424672110840  0.1691279011625170  0.3807164891118330
  0.2138715487921901  0.8355245547756953  0.0451134619589609
  0.5828961404718479  0.4362434559252553  0.0194085006462649
  0.2651401271019905  0.5508887237828104  0.4126677744097382
  0.3133844596079620  0.1523469291657067  0.0876697383490172
  0.7866214446287959  0.9348706915213674  0.3003821574105934
  0.7608050965759432  0.3281167885262267  0.2082225691080581
  0.2922913331945293  0.5530833117601904  0.8747113983471722
  0.7631207761149145  0.2081795973044811  0.1800774591908151
  0.4601986559400844  0.9570018028467747  0.0378343002405336
  0.5190192308898265  0.1675636682007452  0.0890100273475971
  0.1354925847776022  0.4969636649811646  0.1934072219208029
  0.7595853925436222  0.5023137033228887  0.9885281635054887
  0.0203330091673183  0.0059880688256789  0.4750008110009387
  0.0850443730976582  0.9173963900221016  0.7386533965773886
  0.2496496979153880  0.9464862234911289  0.2947875999076488
  0.4417806417180722  0.8304473217414338  0.1615936917511792
  0.2468504026172938  0.2484336025372815  0.1206937000279993
  0.6253781590265238  0.8509902713641617  0.5087748221207902
  0.3574819121726666  0.3560573731846828  0.4984837180206085
  0.4847610905295615  0.1588059971485983  0.3087170159206657
  0.7451303673472198  0.7022305068215766  0.8066152534759184
  0.9307732615131854  0.0305944192226554  0.0146603960089236
  0.9549100190347907  0.6776558560222028  0.3201330335143712
  0.2940260542985748  0.2267068759762592  0.5901686048625272
  0.8575461859299434  0.7144078157585186  0.4892041697244645
  0.2792409134206832  0.4347930277421620  0.9153487675259754
  0.3582619690381273  0.0176382818198604  0.0520465828279117
  0.8237474214228112  0.1466249868424639  0.7599853873068495
  0.0915177404270543  0.8270365753061847  0.6640716714726032
  0.3845188405006821  0.2835213416234652  0.0461749210266448
  0.2005094645445650  0.4268334162863533  0.7228506291259977
  0.4614136533727099  0.0549945859173303  0.6894888525029066
  0.4471758152468493  0.5135248604589199  0.1170098913398211
  0.2133631973604705  0.9059280179124449  0.9234635393608375
  0.8974754077095313  0.1166316348087307  0.4636415117012805
  0.2293283021910286  0.0732074337389079  0.1411151164960788
  0.3519134833017078  0.5166702648737059  0.7360167903565544
  0.6049418484436495  0.9836702549688100  0.2805185622813141
  0.1203970352483047  0.3284192106785372  0.8040495170953951
  0.5959143139477023  0.1369605168544540  0.2580762975873145
  0.7610550273636848  0.4258093739357379  0.5615837797093942
  0.6870946717197191  0.5135535905882713  0.2627067971935013
  0.0114517554222055  0.5679090404696542  0.3170012835730308
  0.9075487017951676  0.4788248487229142  0.3482003396649574
  0.1778420430878980  0.8385866729923489  0.3418935405722448
  0.7946593503738700  0.1480513636149292  0.5787814038831628
  0.5594394009333272  0.5302151759596877  0.5652260552521371
  0.3525311883203585  0.3338715715700268  0.6810267988025951
  0.3752530380822247  0.3808863527396258  0.1536934174817342
  0.5730585035020216  0.7869332438154352  0.0971589947123154
  0.4045770474361571 -0.0113810940624634  0.7754615643556939
  0.4416403343959094  0.5126522138427623  0.4700725532329551
  0.0360761649349454  0.5578357267041326  0.8890755662342464
  0.1893559434035190  0.5163524007448053  0.4973806748991461
  0.5053923968807819  0.8137837230266557 -0.0044458246394552
  0.8761134252769751  0.6117111333705267  0.4206742687109267
  0.6652470567897153  0.7240232488530809  0.0532521330385464
  0.2308954848398080  0.9578862377498318  0.6861139258876716
  0.3338563335229966  0.1937205488318194  0.9025402301071610
  0.7677895923300418  0.4027114604331116  0.9214037594922538
  0.5574601916308601  0.9099162284362767  0.6713363449014732
  0.5954849139692348  0.8838509987403382  0.9359947348439489
  0.6388536602594397  0.6625756783462051  0.8995607304662649
  0.4542166342945063  0.7393177475751634  0.7369384724349478
  0.9288282271643462  0.1095605767653247  0.6361543914324159
  0.3093533478704957  0.5241911129482972  0.0503540927625869
  0.6389503824265538  0.5397186632778574  0.6576398184449830
  0.5755028433640746  0.5806871329724586  0.2445444765567587
  0.1217384296266397  0.0972096892780464  0.5337543112395930
  0.8097680457629910  0.4572231917058167  0.2584640855387897
  0.5165761157852009  0.5387261407507800  0.0136031478859605
  0.1234724219721968  0.7076781172434329  0.1238306717979037
  0.5011424011564218  0.5393191987019522  0.3463205127530901
  0.2537172918630498  0.6501146719219166  0.1827817654167758
  0.4090683888649487  0.7089639045783191  0.3031335809671090
  0.3757909561819882  0.6154590177458874  0.4739070287491413
  0.9657341948043524  0.9283133895066698  0.7618262686545983
  0.8364644475183109  0.2225774186543569  0.3405853444863784
  0.2300763413728501  0.6389325290768133  0.9428398856439458
  0.7467514221777890  0.3139700711372150  0.7992150374089126
  0.0296509703365693  0.5730974360577716  0.4390663878885234
  0.7012686527029828  0.7643488506736547  0.5726315338788066
  0.1214556142757850  0.2777973272405689  0.5334277844827785
  0.9907221744606266  0.8449424797485837  0.4123763830515732
  0.7210922000744288  0.7080574852645247  0.4623858154893429
  0.0137926388251013  0.7583793063108885  0.1054047050563677
  0.5786532641267281  0.0459429276787822  0.9254440441523754
  0.9613536961804635  0.1826520748378707  0.1035415407740375
  0.1902835558372565  0.0820560029269914  0.8610729262874206
  0.6803255236796167  0.9420659899690792  0.1228153859715848
  0.4604852042329340  0.2988366409735904  0.4643618989328234
  0.2549780288901020  0.5271713458855226  0.1606144985490315
  0.8133999799699735  0.9589873607094317  0.0138343781967397
  0.3987754542713959  0.2215151490102807  0.7364993669117992
  0.6673100058047510  0.8023358013116099  0.8808824792137010
  0.2321185412768650  0.6329826616367483  0.3030483439677978
  0.0929357053609205  0.8824641714453894  0.5547655154756110
  0.1756979926847828  0.6163933077761335  0.6098009292329845
  0.7392162517686853  0.9809513471338138  0.7077000002056630
  0.5440656345058985  0.4108956359994110  0.8774613931679297
  0.6352110440353844  0.7248525422129756  0.3460715617359502
  0.2083939284181387  0.4056488142669522  0.5471419909990389
  0.2990019370618317  0.7576892094902531  0.3269802100367249
 
  0.00000000E+00  0.00000000E+00  0.00000000E+00
  0.00000000E+00  0.00000000E+00  0.00000000E+00
  0.00000000E+00  0.00000000E+00  0.00000000E+00
  0.00000000E+00  0.00000000E+00  0.00000000E+00
  0.00000000E+00  0.00000000E+00  0.00000000E+00
  0.00000000E+00  0.00000000E+00  0.00000000E+00
  0.00000000E+00  0.00000000E+00  0.00000000E+00
  0.00000000E+00  0.00000000E+00  0.00000000E+00
  0.00000000E+00  0.00000000E+00  0.00000000E+00
  0.00000000E+00  0.00000000E+00  0.00000000E+00
  0.00000000E+00  0.00000000E+00  0.00000000E+00
  0.00000000E+00  0.00000000E+00  0.00000000E+00
  0.00000000E+00  0.00000000E+00  0.00000000E+00
  0.00000000E+00  0.00000000E+00  0.00000000E+00
  0.00000000E+00  0.00000000E+00  0.00000000E+00
  0.00000000E+00  0.00000000E+00  0.00000000E+00
  0.00000000E+00  0.00000000E+00  0.00000000E+00
  0.00000000E+00  0.00000000E+00  0.00000000E+00
  0.00000000E+00  0.00000000E+00  0.00000000E+00
  0.00000000E+00  0.00000000E+00  0.00000000E+00
  0.00000000E+00  0.00000000E+00  0.00000000E+00
  0.00000000E+00  0.00000000E+00  0.00000000E+00
  0.00000000E+00  0.00000000E+00  0.00000000E+00
  0.00000000E+00  0.00000000E+00  0.00000000E+00
  0.00000000E+00  0.00000000E+00  0.00000000E+00
  0.00000000E+00  0.00000000E+00  0.00000000E+00
  0.00000000E+00  0.00000000E+00  0.00000000E+00
  0.00000000E+00  0.00000000E+00  0.00000000E+00
  0.00000000E+00  0.00000000E+00  0.00000000E+00
  0.00000000E+00  0.00000000E+00  0.00000000E+00
  0.00000000E+00  0.00000000E+00  0.00000000E+00
  0.00000000E+00  0.00000000E+00  0.00000000E+00
  0.00000000E+00  0.00000000E+00  0.00000000E+00
  0.00000000E+00  0.00000000E+00  0.00000000E+00
  0.00000000E+00  0.00000000E+00  0.00000000E+00
  0.00000000E+00  0.00000000E+00  0.00000000E+00
  0.00000000E+00  0.00000000E+00  0.00000000E+00
  0.00000000E+00  0.00000000E+00  0.00000000E+00
  0.00000000E+00  0.00000000E+00  0.00000000E+00
  0.00000000E+00  0.00000000E+00  0.00000000E+00
  0.00000000E+00  0.00000000E+00  0.00000000E+00
  0.00000000E+00  0.00000000E+00  0.00000000E+00
  0.00000000E+00  0.00000000E+00  0.00000000E+00
  0.00000000E+00  0.00000000E+00  0.00000000E+00
  0.00000000E+00  0.00000000E+00  0.00000000E+00
  0.00000000E+00  0.00000000E+00  0.00000000E+00
  0.00000000E+00  0.00000000E+00  0.00000000E+00
  0.00000000E+00  0.00000000E+00  0.00000000E+00
  0.00000000E+00  0.00000000E+00  0.00000000E+00
  0.00000000E+00  0.00000000E+00  0.00000000E+00
  0.00000000E+00  0.00000000E+00  0.00000000E+00
  0.00000000E+00  0.00000000E+00  0.00000000E+00
  0.00000000E+00  0.00000000E+00  0.00000000E+00
  0.00000000E+00  0.00000000E+00  0.00000000E+00
  0.00000000E+00  0.00000000E+00  0.00000000E+00
  0.00000000E+00  0.00000000E+00  0.00000000E+00
  0.00000000E+00  0.00000000E+00  0.00000000E+00
  0.00000000E+00  0.00000000E+00  0.00000000E+00
  0.00000000E+00  0.00000000E+00  0.00000000E+00
  0.00000000E+00  0.00000000E+00  0.00000000E+00
  0.00000000E+00  0.00000000E+00  0.00000000E+00
  0.00000000E+00  0.00000000E+00  0.00000000E+00
  0.00000000E+00  0.00000000E+00  0.00000000E+00
  0.00000000E+00  0.00000000E+00  0.00000000E+00
  0.00000000E+00  0.00000000E+00  0.00000000E+00
  0.00000000E+00  0.00000000E+00  0.00000000E+00
  0.00000000E+00  0.00000000E+00  0.00000000E+00
  0.00000000E+00  0.00000000E+00  0.00000000E+00
  0.00000000E+00  0.00000000E+00  0.00000000E+00
  0.00000000E+00  0.00000000E+00  0.00000000E+00
  0.00000000E+00  0.00000000E+00  0.00000000E+00
  0.00000000E+00  0.00000000E+00  0.00000000E+00
  0.00000000E+00  0.00000000E+00  0.00000000E+00
  0.00000000E+00  0.00000000E+00  0.00000000E+00
  0.00000000E+00  0.00000000E+00  0.00000000E+00
  0.00000000E+00  0.00000000E+00  0.00000000E+00
  0.00000000E+00  0.00000000E+00  0.00000000E+00
  0.00000000E+00  0.00000000E+00  0.00000000E+00
  0.00000000E+00  0.00000000E+00  0.00000000E+00
  0.00000000E+00  0.00000000E+00  0.00000000E+00
  0.00000000E+00  0.00000000E+00  0.00000000E+00
  0.00000000E+00  0.00000000E+00  0.00000000E+00
  0.00000000E+00  0.00000000E+00  0.00000000E+00
  0.00000000E+00  0.00000000E+00  0.00000000E+00
  0.00000000E+00  0.00000000E+00  0.00000000E+00
  0.00000000E+00  0.00000000E+00  0.00000000E+00
  0.00000000E+00  0.00000000E+00  0.00000000E+00
  0.00000000E+00  0.00000000E+00  0.00000000E+00
  0.00000000E+00  0.00000000E+00  0.00000000E+00
  0.00000000E+00  0.00000000E+00  0.00000000E+00
  0.00000000E+00  0.00000000E+00  0.00000000E+00
  0.00000000E+00  0.00000000E+00  0.00000000E+00
  0.00000000E+00  0.00000000E+00  0.00000000E+00
  0.00000000E+00  0.00000000E+00  0.00000000E+00
  0.00000000E+00  0.00000000E+00  0.00000000E+00
  0.00000000E+00  0.00000000E+00  0.00000000E+00
  0.00000000E+00  0.00000000E+00  0.00000000E+00
  0.00000000E+00  0.00000000E+00  0.00000000E+00
  0.00000000E+00  0.00000000E+00  0.00000000E+00
  0.00000000E+00  0.00000000E+00  0.00000000E+00
  0.00000000E+00  0.00000000E+00  0.00000000E+00
  0.00000000E+00  0.00000000E+00  0.00000000E+00
  0.00000000E+00  0.00000000E+00  0.00000000E+00
  0.00000000E+00  0.00000000E+00  0.00000000E+00
  0.00000000E+00  0.00000000E+00  0.00000000E+00
  0.00000000E+00  0.00000000E+00  0.00000000E+00
  0.00000000E+00  0.00000000E+00  0.00000000E+00
  0.00000000E+00  0.00000000E+00  0.00000000E+00
  0.00000000E+00  0.00000000E+00  0.00000000E+00
  0.00000000E+00  0.00000000E+00  0.00000000E+00
  0.00000000E+00  0.00000000E+00  0.00000000E+00
  0.00000000E+00  0.00000000E+00  0.00000000E+00
  0.00000000E+00  0.00000000E+00  0.00000000E+00
  0.00000000E+00  0.00000000E+00  0.00000000E+00
  0.00000000E+00  0.00000000E+00  0.00000000E+00
  0.00000000E+00  0.00000000E+00  0.00000000E+00
  0.00000000E+00  0.00000000E+00  0.00000000E+00
  0.00000000E+00  0.00000000E+00  0.00000000E+00
  0.00000000E+00  0.00000000E+00  0.00000000E+00
  0.00000000E+00  0.00000000E+00  0.00000000E+00
  0.00000000E+00  0.00000000E+00  0.00000000E+00
  0.00000000E+00  0.00000000E+00  0.00000000E+00
  0.00000000E+00  0.00000000E+00  0.00000000E+00
  0.00000000E+00  0.00000000E+00  0.00000000E+00
  0.00000000E+00  0.00000000E+00  0.00000000E+00
  0.00000000E+00  0.00000000E+00  0.00000000E+00
  0.00000000E+00  0.00000000E+00  0.00000000E+00
  0.00000000E+00  0.00000000E+00  0.00000000E+00
  0.00000000E+00  0.00000000E+00  0.00000000E+00
  0.00000000E+00  0.00000000E+00  0.00000000E+00
  0.00000000E+00  0.00000000E+00  0.00000000E+00
  0.00000000E+00  0.00000000E+00  0.00000000E+00
  0.00000000E+00  0.00000000E+00  0.00000000E+00
  0.00000000E+00  0.00000000E+00  0.00000000E+00
  0.00000000E+00  0.00000000E+00  0.00000000E+00
  0.00000000E+00  0.00000000E+00  0.00000000E+00
  0.00000000E+00  0.00000000E+00  0.00000000E+00
  0.00000000E+00  0.00000000E+00  0.00000000E+00
  0.00000000E+00  0.00000000E+00  0.00000000E+00
  0.00000000E+00  0.00000000E+00  0.00000000E+00
  0.00000000E+00  0.00000000E+00  0.00000000E+00
  0.00000000E+00  0.00000000E+00  0.00000000E+00
  0.00000000E+00  0.00000000E+00  0.00000000E+00
  0.00000000E+00  0.00000000E+00  0.00000000E+00
  0.00000000E+00  0.00000000E+00  0.00000000E+00
  0.00000000E+00  0.00000000E+00  0.00000000E+00
  0.00000000E+00  0.00000000E+00  0.00000000E+00
  0.00000000E+00  0.00000000E+00  0.00000000E+00
  0.00000000E+00  0.00000000E+00  0.00000000E+00
  0.00000000E+00  0.00000000E+00  0.00000000E+00
  0.00000000E+00  0.00000000E+00  0.00000000E+00
  0.00000000E+00  0.00000000E+00  0.00000000E+00
  0.00000000E+00  0.00000000E+00  0.00000000E+00
  0.00000000E+00  0.00000000E+00  0.00000000E+00
  0.00000000E+00  0.00000000E+00  0.00000000E+00
  0.00000000E+00  0.00000000E+00  0.00000000E+00
  0.00000000E+00  0.00000000E+00  0.00000000E+00
  0.00000000E+00  0.00000000E+00  0.00000000E+00
  0.00000000E+00  0.00000000E+00  0.00000000E+00
  0.00000000E+00  0.00000000E+00  0.00000000E+00
  0.00000000E+00  0.00000000E+00  0.00000000E+00
  0.00000000E+00  0.00000000E+00  0.00000000E+00
  0.00000000E+00  0.00000000E+00  0.00000000E+00
  0.00000000E+00  0.00000000E+00  0.00000000E+00
  0.00000000E+00  0.00000000E+00  0.00000000E+00
  0.00000000E+00  0.00000000E+00  0.00000000E+00
  0.00000000E+00  0.00000000E+00  0.00000000E+00
  0.00000000E+00  0.00000000E+00  0.00000000E+00
  0.00000000E+00  0.00000000E+00  0.00000000E+00
  0.00000000E+00  0.00000000E+00  0.00000000E+00
  0.00000000E+00  0.00000000E+00  0.00000000E+00
  0.00000000E+00  0.00000000E+00  0.00000000E+00
  0.00000000E+00  0.00000000E+00  0.00000000E+00
  0.00000000E+00  0.00000000E+00  0.00000000E+00
  0.00000000E+00  0.00000000E+00  0.00000000E+00
  0.00000000E+00  0.00000000E+00  0.00000000E+00
  0.00000000E+00  0.00000000E+00  0.00000000E+00
  0.00000000E+00  0.00000000E+00  0.00000000E+00
  0.00000000E+00  0.00000000E+00  0.00000000E+00
  0.00000000E+00  0.00000000E+00  0.00000000E+00
  0.00000000E+00  0.00000000E+00  0.00000000E+00
  0.00000000E+00  0.00000000E+00  0.00000000E+00
  0.00000000E+00  0.00000000E+00  0.00000000E+00
  0.00000000E+00  0.00000000E+00  0.00000000E+00
  0.00000000E+00  0.00000000E+00  0.00000000E+00
  0.00000000E+00  0.00000000E+00  0.00000000E+00
  0.00000000E+00  0.00000000E+00  0.00000000E+00
  0.00000000E+00  0.00000000E+00  0.00000000E+00
  0.00000000E+00  0.00000000E+00  0.00000000E+00
  0.00000000E+00  0.00000000E+00  0.00000000E+00
  0.00000000E+00  0.00000000E+00  0.00000000E+00
  0.00000000E+00  0.00000000E+00  0.00000000E+00
  0.00000000E+00  0.00000000E+00  0.00000000E+00
  0.00000000E+00  0.00000000E+00  0.00000000E+00
  0.00000000E+00  0.00000000E+00  0.00000000E+00
  0.00000000E+00  0.00000000E+00  0.00000000E+00
  0.00000000E+00  0.00000000E+00  0.00000000E+00
  0.00000000E+00  0.00000000E+00  0.00000000E+00
  0.00000000E+00  0.00000000E+00  0.00000000E+00
  0.00000000E+00  0.00000000E+00  0.00000000E+00
  0.00000000E+00  0.00000000E+00  0.00000000E+00
  0.00000000E+00  0.00000000E+00  0.00000000E+00
  0.00000000E+00  0.00000000E+00  0.00000000E+00
  0.00000000E+00  0.00000000E+00  0.00000000E+00
  0.00000000E+00  0.00000000E+00  0.00000000E+00
  0.00000000E+00  0.00000000E+00  0.00000000E+00
  0.00000000E+00  0.00000000E+00  0.00000000E+00
  0.00000000E+00  0.00000000E+00  0.00000000E+00
  0.00000000E+00  0.00000000E+00  0.00000000E+00
  0.00000000E+00  0.00000000E+00  0.00000000E+00
  0.00000000E+00  0.00000000E+00  0.00000000E+00
  0.00000000E+00  0.00000000E+00  0.00000000E+00
  0.00000000E+00  0.00000000E+00  0.00000000E+00
  0.00000000E+00  0.00000000E+00  0.00000000E+00
  0.00000000E+00  0.00000000E+00  0.00000000E+00
  0.00000000E+00  0.00000000E+00  0.00000000E+00
  0.00000000E+00  0.00000000E+00  0.00000000E+00
  0.00000000E+00  0.00000000E+00  0.00000000E+00
  0.00000000E+00  0.00000000E+00  0.00000000E+00
  0.00000000E+00  0.00000000E+00  0.00000000E+00
  0.00000000E+00  0.00000000E+00  0.00000000E+00
  0.00000000E+00  0.00000000E+00  0.00000000E+00
  0.00000000E+00  0.00000000E+00  0.00000000E+00
  0.00000000E+00  0.00000000E+00  0.00000000E+00
  0.00000000E+00  0.00000000E+00  0.00000000E+00
  0.00000000E+00  0.00000000E+00  0.00000000E+00
  0.00000000E+00  0.00000000E+00  0.00000000E+00
  0.00000000E+00  0.00000000E+00  0.00000000E+00
  0.00000000E+00  0.00000000E+00  0.00000000E+00
  0.00000000E+00  0.00000000E+00  0.00000000E+00
  0.00000000E+00  0.00000000E+00  0.00000000E+00
  0.00000000E+00  0.00000000E+00  0.00000000E+00