Amorphous Sb                            
   1.00000000000000     
    22.3970374761353135    0.0000000000000000    0.0000000000000000
     0.0000000000000000   22.3970374761353135    0.0000000000000000
     0.0000000000000000    0.0000000000000000   22.3970374761353135
   In   Te
    90   210
Direct
  0.3484456025637266  0.4476700270721191  0.4634665125717573
  0.3873591785482177  0.1779295796116397  0.9303695060432259
  0.9058731259900549  0.0913035263824458  0.2485591167266586
  0.0007446578525352  0.2227813262350147  0.0768759981869125
  0.6839531560213361  0.8797253476510273  0.1516582553504073
  0.9266527151355921  0.9118817647816903  0.6714339351381182
  0.3174724441843708  0.7189192462521181  0.8305176598995920
  0.7999548526522248  0.9305036616283966  0.5427351894712331
  0.0719143140401470  0.8242514320960741  0.2625142624396991
  0.5534114212210348  0.3639859279956046  0.4034568194070433
  0.4628314326580671  0.0870720034755137  0.5004436045931550
  0.5204464891478460  0.9850832490615010  0.6411345578255727
  0.8500961515327941  0.1880812650519402  0.8658767320610457
  0.6800805326383993  0.1688697844839374  0.1428607311567650
  0.8477119351913508  0.6847627550667129  0.4952712963486657
  0.9879658031804361  0.6336026262147357  0.5841940776546233
  0.8441214200181789  0.1877795326253904  0.9938092385058209
  0.3490296804414201  0.1832817657182033  0.1137455431092058
  0.6835235352558759  0.9219089931641293  0.4104991860658543
  0.8602864013959987  0.9042721332159225  0.9173844616100313
  0.7213915088502590  0.7373288933000764  0.0638620524799094
  0.3931435098413341  0.3749000429931310  0.1740085953366056
  0.9414433451808504  0.1071826362049789  0.7304052374325809
  0.1468397884880293  0.6258586988564548  0.7494325168624431
  0.2641546709512812  0.8407262883915927  0.9814101631367186
  0.4746697343115686  0.7158169516296105  0.4828496914680996
  0.3672089884568103  0.7498484942514463  0.1533197626182709
  0.3549508598417075  0.9136257935112726  0.7112810529120068
  0.5981496306924757  0.4471825922316079  0.7398961144705898
  0.1720336568976941  0.6460782436189575  0.5349062586247353
  0.2334847225325623  0.9488589821840658  0.2944839946025359
  0.6251073544102704  0.5648780990054493  0.8579896149177675
  0.5056158668992161  0.9503513412247099  0.2005653982752677
  0.5163600631404884  0.7072839263651509  0.2349074475263580
  0.4645839505280367  0.5825360838966409  0.2778217585425908
  0.3518658695238853  0.3576910617074296  0.7103765965470177
  0.7189872975165161  0.2614384175342851  0.7344762475580685
  0.5282800663855789  0.0553451757599098  0.0363903647248066
  0.5214226053875204  0.9622388516764708  0.8492658537448353
  0.9371266547246931  0.5952770611739078  0.0689403000270984
  0.6413364595571114  0.0269147380608720  0.3367376891299854
  0.2310970264835804  0.8656380794454991  0.5352516822868361
  0.1240917984557702  0.1267893862758457  0.8388314789335890
  0.4668365282440337  0.8612831902917824  0.3552765681555997
  0.3742689013178340  0.0183899171517993  0.3408126719602450
  0.6176569543749511  0.2315062610316729  0.3070864947773797
  0.2726492473686889  0.1900526652708008  0.4943265445809391
  0.8894442713488938  0.3667615982895818  0.1145928309877049
  0.3117166308929299  0.6714410025277884  0.4667890683403609
  0.6818106924700044  0.8502591234573825  0.8406843673160045
  0.5259079523099933  0.3101010209178343  0.9068270057381620
  0.9830077552317308  0.0239011975868549  0.9332363273401646
  0.3639399596822686  0.5447066131507078  0.7628104610701879
  0.5781918717278483  0.4544162406368268  0.9589160067986321
  0.9200127006375520  0.6995328390656711  0.2120493503588186
  0.9985296779120857  0.3614608121694698  0.5035557592639247
  0.8079605940917997  0.5871136126757687  0.8653750499125346
  0.1096252322596690  0.2959289597847100  0.9535668967058138
  0.0585888286805003  0.4722005623527568  0.0722457007317275
  0.0613803731446228  0.0512844498364891  0.4412873164714732
  0.5618909699146007  0.2976731174704623  0.0854017487549433
  0.0813457599883964  0.0144844568069315  0.2847448350806840
  0.8306988107933414  0.0267617435644046  0.3985354346911075
  0.2939411787226273  0.7005746955093556  0.6306828515427386
  0.6046205559794405  0.7025929288716881  0.7334749665956014
  0.6492320218968025  0.6983991627784718  0.9698372450841733
  0.2472283753744005  0.5707877991140499  0.8827615188078912
  0.2291759762343890  0.4278647557993031  0.1714370672275010
  0.4444628234507994  0.1841900101283786  0.7448942553776168
  0.1014919301002066  0.2465563021438208  0.6273502532671317
  0.7809875509230009  0.3549802728886698  0.9127691068523730
  0.6021200354100184  0.1881693068442440  0.5031257435626169
  0.0247496043497129  0.7167572621910825  0.4034435732156543
  0.6549983739386736  0.6692655791281187  0.5299706331665073
  0.5860094587529459  0.8670555958344642  0.0104408512579111
  0.1854484662560241  0.1447528545408764  0.2632252890232193
  0.8696117045113444  0.4242510814607608  0.4286585043734484
  0.6729364434108108  0.5642421583005233  0.3602040579884709
  0.9697042441695657  0.2488618966143041  0.4479800018979372
  0.1531581752632537  0.9237333495554557  0.8363626417515826
  0.7734832341632846  0.5771088030565943  0.2073240388371269
  0.7241826095735974  0.9840763576829343  0.6883986506537486
  0.6388428590550373  0.4869365470568220  0.0929905527763765
  0.8702096031903758  0.0108637603990374  0.1067140953185514
  0.5825707794030955  0.3855565037551510  0.2443549210348951
  0.5039405546664300  0.5406678175339746  0.4759429135480496
  0.9797771054528334  0.2707441912295290  0.6847482668775212
  0.8008829371772134  0.2066424159912534  0.4908067991299746
  0.8492371749952807  0.6656067515459290  0.7025038477765422
  0.2516935368315431  0.7612677751898916  0.2619274987031267
  0.7730640539446695  0.1688492075065874  0.6663269862981022
  0.9282109860298612  0.1027867046511850  0.3763970604406587
  0.3433159014325501  0.7801455086152477  0.5364737920549384
  0.7052945777903780  0.6642812906467584  0.8493803247110138
  0.3596028870183710  0.6471649728854298  0.9331797790955064
  0.0537549888558168  0.3764702880690000  0.7102174574924667
  0.1224957722284469  0.4314236955291458  0.9384977764124516
  0.6383266846973752  0.1089827742446590  0.7138150876828384
  0.4861192085776191  0.0943055688109199  0.9215307069171692
  0.3829200363563901  0.9974521693238987  0.8022434051558237
  0.0184166242321091  0.5979106871450725  0.9480343028562107
  0.7981855175226047  0.7993066944426716  0.8738751561603746
  0.2460301397858766  0.3864616492250428  0.8731811226702550
  0.4620138028577113  0.3600926484371140  0.3169972513444862
  0.2864515996892619  0.0689293726056802  0.7596437793613615
  0.0650247426471685  0.7179931034106829  0.9446407657913389
  0.9403807204818366  0.4735129104713124  0.0390414272031002
  0.8347035667584729  0.0517526589957728  0.5509896381216214
  0.0906820104953089  0.1505466226660990  0.5411881979164522
  0.5530491197315701  0.1128018429970959  0.1444792659897408
  0.1288021970824698  0.2122480615360760  0.0994809338999666
  0.9681139317831325  0.8226390192119610  0.1788210311448237
  0.5170999206870548  0.0666118442157991  0.7432857309500007
  0.8573577605538553  0.8353373455018123  0.6006167087730262
  0.4345534487718093  0.9906996643058688  0.0950673050441154
  0.7538685934677187  0.5013375915357976  0.9505316251129002
  0.3364644167440674  0.6689688272333143  0.2578533769623124
  0.1612746551996209  0.7411097948208466  0.4532735306477768
  0.0056490487179561  0.5363321268035052  0.7927146110300139
  0.0784485799598772  0.5590447380691832  0.5249878370463397
  0.3950835777562416  0.9996650709982725  0.6040907599796377
  0.4654976249882090  0.6766140070211597  0.1141234978450996
  0.8397160046803935  0.1854716543735809  0.2031748129572372
  0.7373413425873855  0.0964227216909988  0.4598604766200574
  0.3376070647267802  0.4769367754731014  0.8831216748360502
  0.5778622669602728  0.5943429976769055  0.9734640801835335
  0.6955798699775332  0.2545278404403015  0.5548326428245233
  0.0238706597053712  0.9642247161265727  0.8237104002434665
  0.9340756681548291  0.4398074608929491  0.3179307987111815
  0.6795024479457353  0.6229652421477971  0.1457558474936131
  0.9835826034369231  0.8607236967998374  0.8954882628345721
  0.9180353640847070  0.6440820448038095  0.8731302892068472
  0.2240473867179694  0.5211913266843323  0.9998961892778683
  0.8185001580802179  0.1006121182848287  0.7662216111888388
  0.9508347328795551  0.7753136363045374  0.7926833327374322
  0.1902976509449924  0.6880979190213823  0.8540515624461168
  0.3329984218761743  0.2843357457535834  0.2384906686982277
  0.3393475963948894  0.9482627577549887  0.2193072066618996
  0.1007421427797251  0.3704717309435326  0.5874576122207559
  0.6161210558076911  0.0305003258426817  0.5696943370445839
  0.6718721041739372  0.1079406442422013  0.8336020088330870
  0.5564375321936158  0.8107582349343061  0.4270833105611268
  0.1217942403482909  0.3633669250991746  0.1128977553291819
  0.0988866422808398  0.8485163255168592  0.5757592799841449
  0.0165933588176306  0.7546585330172629  0.0525295484906402
  0.4118002067446409  0.6953101021511878  0.3785138530526208
  0.1941391706351917  0.7099169094714458  0.1326605277356867
  0.4153372982936397  0.2691072360721758  0.6411292133952414
  0.6598738945660658  0.9707833148326070  0.8208633646257568
  0.7942592429215810  0.3026301823457667  0.0446858235830195
  0.8857051190218582  0.7002884164000185  0.0137771672476644
  0.1913467389494901  0.5436069343898686  0.1925548791407353
  0.6687335969690849  0.3400297966714083  0.3553555467195477
  0.0613659780894950  0.0744497908015830  0.7386500399488488
  0.9215804443985238  0.1815649550571736  0.5388094346032644
  0.7349463608596628  0.1250567701973965  0.9990708384867290
  0.5908647132206879  0.7886601602956081  0.9014733078037063
  0.5543512309540467  0.1155693040661199  0.4060849832923196
  0.0630990480748547  0.5300778872870793  0.2080572598861472
  0.5445943073256032  0.7081864454813740  0.5875363335767192
  0.1573787114147658  0.2001211078918805  0.4323111638356396
  0.4281136232740369  0.5673580148036489  0.1430154093768942
  0.7551070583107707  0.3881253440538499  0.7170243447576713
  0.9643025437520100  0.2201284111087453  0.7992725330828746
  0.0718952757592207  0.8478770238198615  0.3891764448348807
  0.2366121785329688  0.2319709528695161  0.3334008510864304
  0.2491479309451040  0.0881599317278795  0.1754184843109249
  0.7669836135089720  0.5175687919948359  0.0688846376690496
  0.2739007154707126  0.3892236835749014  0.2839422799744358
  0.1364380489124224  0.7084332326962912  0.2733470856606434
  0.3071333295728342  0.8474775595691514  0.8188164798990498
  0.3537304833418340  0.3315085855672773  0.8330921368390866
  0.4762241863246734  0.2068180787759443  0.0765361905569636
  0.4181881933275317  0.2938934031739283  0.9806344766632253
  0.5524212580969576  0.2180496167237964  0.8140177917680874
  0.8598370044083345  0.6064418231765278  0.3886296466603183
  0.7235503261866586  0.2333735487697819  0.8544551815244636
  0.6937392928581678  0.1319394112922501  0.2818326132685224
  0.9149296508522216  0.7177851564404791  0.3387138941112939
  0.1373294442225279  0.9346845848579828  0.2111139781481242
  0.9628379128018121  0.9951062036724170  0.1913374718767155
  0.6742038950290380  0.4462389433012256  0.8478695114429028
  0.7308850549169480  0.4645604093065647  0.2462162624837281
  0.8430593234157221  0.9287988619778793  0.7659843304957580
  0.3498295014464959  0.0087041060420853  0.9651719516331079
  0.2164420941451278  0.2388201005760976  0.6831759857564980
  0.3789205152929439  0.4956125469985951  0.5889731973629899
  0.9419920744173680  0.2630751349489334  0.1909698373597516
  0.8520334323148766  0.2906722855245387  0.4085091510722148
  0.6441449295415438  0.2946328989983460  0.1836256287501741
  0.3755708998949173  0.9078391752879762  0.4309618808532271
  0.8598128263690304  0.0309427386722532  0.9072192761797723
  0.5825522713875536  0.6312698185007740  0.4293920931792797
  0.1784406681421048  0.3384903774580482  0.4568729122065920
  0.0229947787959813  0.4094793833779822  0.8521955182992651
  0.3594391617679594  0.1164409229058098  0.4357554749352915
  0.9820883166491181  0.2992662367151990  0.9808068454407608
  0.1483219188602439  0.8423989464798238  0.9354215177313875
  0.2928034469241517  0.3181727923745916  0.5172669533405068
  0.9652307841473299  0.7383917322740277  0.5093850201420819
  0.3710561204974231  0.1155563386000612  0.2181689133547683
  0.4650725730331601  0.5999456266069707  0.5840965185078627
  0.1858757497076000  0.8554335591636427  0.7340652147407298
  0.6898113165280232  0.8315262335777210  0.7130437528000203
  0.9285623917245851  0.1188576382752398  0.0503067124252971
  0.0332727328026394  0.5011548462035050  0.6716168403115297
  0.3668515788584912  0.3361183069128025  0.4140925018614973
  0.5054219125480200  0.2811310575834189  0.4828619589129181
  0.7440614487230436  0.0487806216740037  0.1037916079161555
  0.5950417236985512  0.2921624483765055  0.7174226129373579
  0.8848589540550721  0.8947916762559489  0.0452654165739890
  0.1295025279067429  0.8085145120051231  0.0989981822086798
  0.4598243819851344  0.8287568821584854  0.2321329954568332
  0.0974803295164267  0.9670018308617515  0.5645792386111287
  0.1461121309009996  0.0383594752941194  0.0038075672468752
  0.5008897310631605  0.4254402013949666  0.8456227882869949
  0.9538070020450673  0.0206339387993384  0.6190512741186598
  0.6516801238993185  0.7126745498335763  0.2429184194872962
  0.4027506508631957  0.5456380565030954  0.4085740514421517
  0.8046168836849157  0.5442109291277275  0.7429704939401561
  0.3569596973836718  0.1175981718653706  0.6382058789254448
  0.8991669471664578  0.5724473378332585  0.1957957141890332
  0.2506937443477262  0.9612371746988269  0.0363967718130295
  0.6737055196384141  0.9159614498983681  0.5374704022075335
  0.0063316611379178  0.9285065970021044  0.0206982413350965
  0.8635170275824030  0.6021859223655837  0.5896452435324936
  0.8402871424753601  0.4021997652634398  0.2399278892579129
  0.8893820767033120  0.3028441077902947  0.5936870884482056
  0.7287534271165753  0.8636979655309248  0.0334615513935258
  0.0416188826173745  0.6451914102634041  0.1398333476029288
  0.0223930108052722  0.8285214108742842  0.7022707371268492
  0.6262474330635553  0.9833954048492158  0.1934515491991966
  0.4342916290854696  0.8339224382441465  0.6594823068010396
  0.2170347371944197  0.5143026307207192  0.3363447780036576
  0.1857965441201918  0.0491953230312805  0.3557885435261015
  0.0561301108420033  0.1348000073211069  0.2544428507090703
  0.3836539918549795  0.8648718185487815  0.9244998012901005
  0.2558942958432726  0.8471680407310394  0.3706919950278947
  0.2099453661300146  0.6266712534913323  0.3928975153214603
  0.6511592173785749  0.3872177746929368  0.6381652137065883
  0.4911570784048782  0.9575795947656432  0.4799583542484515
  0.1678795516847318  0.7082087318590994  0.6553401158215973
  0.8486210389625414  0.4240937980478960  0.6147851232386992
  0.3538638325268333  0.4882646579650906  0.2319663562239575
  0.0394991332033283  0.2596147892339716  0.3410407044238991
  0.2541325052126287  0.5120169774330252  0.6950243786711569
  0.8162736376455947  0.8097218682360775  0.7351559060511413
  0.2201946298750238  0.1268303756505295  0.5973931454196746
  0.2641824197201779  0.2699647883794971  0.0753578116610552
  0.0232718332834526  0.6386964043134651  0.7105747220797337
  0.5305014703414320  0.1480230215423298  0.6047548454639755
  0.9993910751230134  0.9499730175458624  0.3612263904990058
  0.8572910251788884  0.9086055395050948  0.2480329013531527
  0.1232966043420717  0.5830883014598008  0.0369336012151399
  0.1707539631047119  0.5063610536686285  0.7835260639140380
  0.2974231464437650  0.1279904523286186  0.0124238872305619
  0.4530990000886209  0.8769089247033296  0.0476118014956243
  0.6463341286920389  0.8289886584169270  0.3342435504223372
  0.8805812429693267  0.4278031077469698  0.7550735339657429
  0.6259222265693778  0.3122675000145575  0.9841469269893860
  0.7400958366955260  0.7527485609527329  0.5009085796582614
  0.2311161757563397  0.3744263136491696  0.6761934615188313
  0.0335858388696582  0.3789617450083252  0.1969393161759923
  0.8165309995831368  0.9013713807994255  0.4250002656473920
  0.2109511007424679  0.0106871263727252  0.5212009273819564
  0.2924247706490902  0.7289253635229487  0.0468012668592422
  0.2232124547977808  0.4670218697893295  0.4614635017511479
  0.2155814203826818  0.0422524757777753  0.8611003966273325
  0.5007827376297345  0.3636117515665582  0.5807084503195417
  0.5128467733352789  0.4046669367311631  0.1255046211095088
  0.0545022779716285  0.1298188731905867  0.9431291978713137
  0.7486029997412840  0.6574411753440492  0.3191799944023862
  0.4957391693228512  0.2337745040893881  0.3442006566617658
  0.8902863067896336  0.4517289149232128  0.8907058324996323
  0.7148076598667051  0.6303037065246756  0.6946328766131521
  0.3087175924491667  0.3882689340574227  0.0768161137425014
  0.5933516650066561  0.5212406820586053  0.2684241678613445
  0.4397022441338385  0.4577728506044522  0.7063672524685611
  0.6976488916526155  0.5665044424915860  0.5851305850513892
  0.8338899221084682  0.7548464391417905  0.1254119727947773
  0.2834260241101036  0.5929817462681013  0.5628030448758317
  0.5081960241069994  0.9847468797237597  0.3248172398864070
  0.2758378169406142  0.8548596179501596  0.1668949099074614
  0.5352979070370465  0.8826055186083446  0.7179777004688453
  0.1265280869709916  0.0880919487936363  0.1196522703433465
  0.9394201436910821  0.4734851054889364  0.5246153901306644
  0.3290498844474168  0.2046856944413906  0.8122558733000352
  0.2468201996186515  0.9400871531330612  0.6589982808355014
  0.7652066503799372  0.5126680343144558  0.4476624699170812
  0.0385971159611986  0.5803466879139240  0.4083336500087581
  0.5931077390251326  0.7892707501995236  0.1128147514648723
  0.7882182030780698  0.0168807921609478  0.2563084922403179
  0.5753477602050241  0.4446545727869118  0.5011019862959405
  0.0543654091978778  0.3784230337155942  0.3757792313623605
  0.5499970651832680  0.5711382849802261  0.7535647076197970
  0.6075236663635706  0.9810322245789537  0.9702259958622704
  0.4446107673458201  0.5896776503368224  0.8646939637162564
  0.7614920605105849  0.8204748175123259  0.2434125684526940
  0.3756480918952988  0.6704843769413754  0.7222825044812733
  0.1715154719646408  0.2412102839306205  0.8542677067796890
 
  0.28320087E-03  0.11146815E-02 -0.12086010E-02
  0.22965196E-03 -0.19273599E-02 -0.11543969E-02
  0.71149013E-03  0.31690867E-03 -0.38941243E-03
 -0.19234927E-02  0.17917269E-03  0.29850406E-03
 -0.56019876E-03  0.24399548E-03  0.14805964E-02
 -0.11669406E-02  0.11817488E-03  0.82688040E-03
 -0.10305260E-02 -0.21200632E-02  0.67410973E-03
  0.10091724E-02 -0.89782815E-03  0.11027323E-03
 -0.29768476E-02  0.11067100E-02 -0.10259088E-02
 -0.13479639E-02 -0.13865391E-02 -0.15879855E-02
 -0.26272700E-02  0.16001713E-03  0.19272950E-03
  0.17353839E-02 -0.10498092E-02  0.15314903E-02
 -0.56477551E-03  0.62522588E-03  0.20868606E-02
  0.10746283E-02  0.67158371E-03 -0.42957533E-03
 -0.11707884E-03  0.15317478E-03 -0.21327176E-02
  0.43044817E-03  0.98667530E-03  0.72455603E-03
 -0.27683396E-02 -0.19560015E-02  0.12353405E-03
  0.15284900E-02  0.36623355E-03  0.17476985E-02
  0.42986144E-03  0.16753431E-02 -0.22444249E-02
 -0.16560183E-03  0.61050260E-03 -0.15798084E-02
 -0.12213497E-02  0.19362020E-02 -0.99934671E-03
  0.13233040E-03  0.22849574E-02 -0.21378779E-02
  0.10118237E-03 -0.70792415E-03  0.25476616E-03
 -0.50122979E-03  0.24120626E-03  0.11670260E-02
 -0.27317126E-02 -0.24535056E-02 -0.17560405E-03
  0.56818712E-03  0.55591435E-03 -0.22651182E-02
  0.19472651E-03  0.18118920E-02 -0.92787724E-03
  0.16564072E-02 -0.16083856E-02 -0.28667530E-02
  0.43969967E-03 -0.17990751E-02  0.17146368E-02
 -0.39658079E-03 -0.14634790E-02 -0.36057676E-02
  0.23469460E-02 -0.82337991E-03  0.19862019E-02
  0.28634871E-04 -0.22281713E-03  0.11189883E-02
 -0.26746062E-03  0.43796573E-03  0.15513305E-02
 -0.44080795E-03  0.12725681E-02  0.18482616E-02
 -0.15839020E-02  0.59766865E-03 -0.64179998E-03
 -0.19194551E-02 -0.10885125E-02 -0.67933333E-03
 -0.37402946E-03 -0.12470886E-02  0.97326950E-04
 -0.20964989E-02 -0.10633469E-02 -0.15450659E-02
  0.12529414E-03 -0.25939351E-03 -0.84385702E-04
 -0.24608381E-02 -0.13643778E-02 -0.76126567E-03
 -0.12321076E-02 -0.93111062E-03 -0.17956844E-02
 -0.45836182E-03  0.88968784E-03 -0.60137682E-03
 -0.94770215E-03 -0.13845178E-02 -0.24003657E-02
  0.18840880E-02 -0.40093739E-03  0.36817676E-04
  0.18848615E-02 -0.20593782E-02  0.16633028E-02
 -0.32962519E-02 -0.13752889E-02  0.86578514E-03
  0.14754275E-02  0.98805387E-03 -0.82628053E-03
  0.42432946E-03 -0.20064316E-03 -0.83283308E-03
 -0.11548767E-02 -0.39439623E-03  0.76319940E-03
  0.91737193E-03 -0.13239509E-02 -0.11307375E-03
  0.10307292E-02 -0.18544496E-03  0.17177669E-02
 -0.44480151E-03  0.11678028E-02  0.19199277E-02
  0.20904276E-02 -0.55393458E-04 -0.11018812E-02
  0.11957559E-02  0.80079058E-03  0.22207356E-02
  0.13612522E-02 -0.32354556E-03 -0.40940794E-03
  0.12949337E-02 -0.18089681E-02  0.23559291E-02
 -0.39235697E-02  0.16421621E-02 -0.13496215E-02
  0.26963391E-04 -0.68568082E-04  0.21916891E-02
  0.57848189E-03  0.16380889E-02  0.28403950E-02
  0.29277824E-02  0.16687338E-02 -0.64814715E-03
  0.22401817E-02  0.11737483E-03 -0.59147517E-02
 -0.25561094E-03  0.93506749E-03 -0.87364181E-03
 -0.90162650E-03  0.12850148E-02  0.99653421E-03
 -0.24742978E-02 -0.10096371E-02 -0.17948983E-02
 -0.40894470E-03 -0.30936651E-03  0.68385252E-03
  0.53579485E-03 -0.61078488E-03 -0.10046645E-02
  0.18673907E-02  0.14196442E-02 -0.17595837E-02
 -0.14843753E-02  0.20387116E-02  0.25183007E-02
 -0.10478922E-02  0.77935268E-03  0.31868196E-03
  0.48157146E-03 -0.57064772E-03 -0.32733010E-02
  0.83590127E-03 -0.22219939E-03 -0.20994436E-03
  0.88069758E-03  0.54532267E-03  0.11293946E-02
  0.38383150E-02  0.82620730E-03 -0.22727046E-02
  0.14582673E-02  0.13820263E-02  0.10686854E-02
  0.71817894E-03  0.10271475E-03  0.42077095E-04
  0.74778836E-03  0.48804380E-03 -0.25951385E-03
  0.24146342E-02 -0.75718701E-04  0.63429715E-04
 -0.20112683E-02  0.21311964E-02 -0.27282987E-02
 -0.15874282E-02 -0.15126115E-02  0.15759680E-03
  0.18173413E-02  0.54386721E-03  0.65568379E-03
 -0.17815545E-02 -0.25917826E-02  0.97617881E-03
  0.87928254E-03 -0.18023509E-02 -0.59948900E-03
  0.17985908E-02  0.58986551E-03  0.38909407E-03
 -0.16691310E-02 -0.89316844E-03  0.43205063E-03
  0.92796260E-03  0.61799560E-03 -0.70172401E-03
 -0.16769430E-02 -0.36769118E-03  0.37931680E-03
  0.30865390E-02  0.99178096E-04 -0.12636316E-02
  0.21779783E-02  0.14783528E-02  0.40171184E-03
 -0.25871072E-03  0.39248818E-03 -0.19572091E-02
 -0.14070546E-03  0.70460193E-03 -0.93054086E-03
 -0.18594822E-02  0.12996564E-02 -0.10419579E-02
 -0.76705825E-03 -0.17857274E-02 -0.86653423E-03
 -0.18279594E-03 -0.82004649E-03 -0.13305702E-02
  0.12803501E-02 -0.11895783E-02 -0.20215071E-02
 -0.16609028E-02 -0.78457915E-03  0.11344828E-02
  0.18842576E-02 -0.14163244E-02  0.20933396E-02
  0.94989740E-03  0.99470679E-03  0.14070246E-05
 -0.12151666E-02 -0.16307627E-02 -0.27474732E-02
 -0.45618362E-03 -0.12579153E-02 -0.10399816E-02
  0.21516746E-02 -0.31784370E-02  0.15632314E-02
  0.82319006E-03  0.33667638E-03 -0.12170780E-02
 -0.10465338E-02  0.61725379E-03  0.98130929E-03
  0.10062815E-02  0.50078229E-03  0.22277050E-02
 -0.38118218E-02  0.12004816E-02  0.19617779E-02
  0.31055857E-03 -0.17039097E-02  0.76991021E-03
  0.38033231E-03  0.51792484E-03  0.12609091E-02
 -0.14051329E-02 -0.37073274E-03 -0.41870749E-02
  0.27253486E-03  0.36398106E-03 -0.80395161E-03
  0.43999361E-03  0.13687865E-02  0.71670329E-03
 -0.93677531E-03  0.16151074E-02 -0.12127602E-02
 -0.17289382E-03 -0.58539262E-03 -0.23492090E-03
 -0.11818565E-02  0.79747740E-03 -0.13556031E-02
  0.23172561E-02 -0.40464524E-03  0.61131576E-03
  0.84375816E-03 -0.27216736E-02  0.17408846E-02
  0.45509220E-03 -0.20486721E-03  0.78027923E-03
 -0.19591702E-02 -0.55572237E-03  0.16636864E-02
  0.59181245E-03 -0.26268604E-02  0.29812210E-03
 -0.16040815E-02 -0.17403874E-02 -0.23646572E-02
 -0.13231469E-02  0.66802935E-03 -0.15842056E-02
  0.84796874E-04  0.43154232E-03  0.90325109E-03
 -0.15145968E-02 -0.48216539E-03  0.16809065E-02
  0.10968924E-02 -0.43314416E-03 -0.12482686E-02
 -0.44519722E-02  0.20713364E-03 -0.78346965E-03
  0.15614439E-02  0.34769545E-03 -0.95326762E-03
  0.12895913E-03 -0.12186886E-02  0.11264956E-02
 -0.15876946E-02  0.18814977E-03 -0.13306212E-02
  0.14814499E-03  0.25054184E-04 -0.83760118E-03
 -0.22301156E-02 -0.10491006E-02  0.29427484E-02
 -0.23929915E-02 -0.70806651E-03 -0.82187841E-03
 -0.47881644E-03  0.56431718E-03 -0.54026321E-04
  0.23124882E-03  0.16274371E-04 -0.30154649E-03
  0.36940931E-03 -0.16497483E-03  0.21289353E-02
  0.17125531E-02  0.19388621E-02  0.11368806E-03
 -0.28004680E-03  0.10749238E-02  0.26025773E-02
 -0.16089185E-02 -0.82409841E-03  0.21117837E-02
 -0.15851474E-02  0.31289008E-02  0.90457928E-03
  0.24754174E-03 -0.16100463E-02  0.12817475E-02
  0.19227843E-02  0.13079180E-02 -0.54657315E-03
 -0.67683068E-03  0.21284357E-02  0.21655358E-03
  0.19662587E-02 -0.12578952E-02 -0.10155885E-02
 -0.24373046E-02 -0.13417020E-02 -0.10512058E-02
  0.12032277E-02 -0.88403347E-03 -0.11507214E-02
  0.18136026E-02 -0.47040477E-03  0.17561943E-02
  0.17826294E-02 -0.51214738E-03  0.18707350E-02
 -0.23915853E-02  0.26476097E-03 -0.18198884E-02
  0.11332921E-02  0.16292956E-02  0.45771926E-03
  0.18555941E-03  0.16638216E-02  0.54713850E-03
 -0.82971240E-03  0.82438720E-03 -0.12531219E-02
  0.13795135E-02 -0.25632003E-03  0.93040428E-03
 -0.17053181E-02 -0.68161874E-04  0.19245221E-02
 -0.23699629E-02  0.92982915E-03 -0.99561201E-03
  0.31229480E-03  0.14855061E-02 -0.28070291E-02
  0.50372806E-03 -0.49307931E-03 -0.16441852E-02
  0.33331423E-03 -0.40411979E-03  0.29771093E-02
 -0.38648793E-03  0.56092494E-03 -0.10718553E-02
  0.28084130E-05 -0.12534846E-02 -0.37897718E-03
 -0.22411232E-03 -0.89296028E-03  0.71877644E-03
  0.29374194E-03 -0.17877224E-02  0.20150822E-02
 -0.15534267E-02  0.85169635E-03  0.22256982E-02
 -0.36263190E-03 -0.17120375E-03 -0.35527594E-03
 -0.38471032E-03  0.25117560E-02 -0.12471853E-02
  0.13876515E-02 -0.21318506E-02  0.66333198E-03
  0.21216303E-02 -0.23217549E-02 -0.18739315E-03
  0.82084505E-03 -0.13484600E-02 -0.57110747E-03
 -0.76194733E-03 -0.28818517E-03 -0.53567665E-04
  0.36925307E-03 -0.20178166E-02 -0.59334910E-03
  0.34447905E-03 -0.12263681E-02  0.73706542E-03
  0.13911118E-03 -0.66046608E-03  0.13186987E-03
 -0.61796830E-03 -0.19442738E-03 -0.25063663E-03
  0.23325889E-03  0.36091082E-02 -0.29199428E-02
 -0.20422684E-03 -0.51486803E-03 -0.13338087E-03
  0.70257240E-03  0.21799981E-03  0.46476825E-03
  0.30403822E-02 -0.12139322E-02  0.27048877E-02
  0.14594284E-03  0.63758194E-03  0.59273210E-03
  0.41485150E-03  0.18501122E-03 -0.22875070E-02
 -0.44105194E-03 -0.23637006E-03 -0.19224383E-02
 -0.21739931E-03 -0.10664796E-02 -0.99570426E-03
 -0.19662151E-02 -0.83742025E-05  0.34931276E-03
 -0.44972739E-03  0.18242432E-03 -0.35163776E-03
  0.11074175E-03  0.91428827E-03  0.44063362E-03
 -0.10067550E-02 -0.25899890E-02 -0.44221652E-04
  0.94447598E-03 -0.90063650E-03  0.44769261E-02
 -0.88211347E-03  0.61197168E-03 -0.74038536E-03
 -0.32701219E-02  0.87972202E-03  0.85320870E-03
 -0.31559291E-02  0.14321794E-02  0.13509836E-02
  0.11477739E-02 -0.56917459E-03 -0.15895814E-02
 -0.12370261E-03  0.91580308E-03  0.15079708E-02
  0.12517196E-02 -0.21159363E-02 -0.35684103E-03
 -0.12007472E-02  0.10257361E-03 -0.16746482E-02
  0.10932499E-02 -0.99502707E-03  0.23994062E-02
  0.12920623E-02  0.17438009E-02 -0.13881223E-02
  0.13546807E-02  0.11897886E-02 -0.54405290E-03
  0.10251799E-02 -0.26328704E-02  0.12974859E-02
  0.73994523E-03 -0.53770914E-03 -0.16812283E-02
 -0.52343436E-03  0.20544387E-03  0.11262312E-02
 -0.31200637E-05  0.62088894E-03  0.52854977E-03
  0.26653875E-04 -0.32996855E-02 -0.30788880E-03
 -0.25279713E-03 -0.22862535E-02 -0.56585107E-03
  0.66947070E-03  0.81632239E-03  0.13463404E-05
 -0.23455729E-03  0.44340170E-03  0.31318696E-02
  0.13895034E-02  0.97770949E-03 -0.13756288E-02
 -0.10836101E-02  0.13022281E-02 -0.21232730E-03
 -0.16236611E-02 -0.21426462E-02  0.21853019E-02
 -0.39934663E-02 -0.36118166E-03 -0.10774328E-02
 -0.45543084E-03 -0.86653143E-03  0.59805458E-03
  0.22201518E-03 -0.13297545E-02 -0.18710969E-02
 -0.90952803E-04 -0.19694465E-02 -0.30643105E-03
  0.36458720E-03  0.17473412E-02 -0.16807595E-02
  0.21882566E-03  0.12673962E-02 -0.12801297E-02
 -0.34463984E-03  0.94194258E-03 -0.30724556E-03
  0.33415398E-03 -0.30548446E-03 -0.23588687E-03
 -0.21531844E-02 -0.35190205E-03 -0.18355335E-02
  0.68566221E-03  0.12488889E-02 -0.10868716E-02
 -0.12628707E-02  0.51860210E-03 -0.55410810E-03
 -0.60459254E-03  0.62202382E-03 -0.75080998E-03
 -0.91121974E-03  0.31931316E-03  0.14186131E-03
  0.46494689E-03 -0.40896440E-03  0.20491396E-02
  0.12465247E-02  0.62043703E-03  0.13822205E-03
  0.10846706E-02 -0.81182775E-04  0.95471916E-03
  0.32225740E-02  0.12276277E-02  0.14692942E-02
 -0.83734764E-03 -0.20032550E-02  0.12483840E-02
 -0.74754688E-03 -0.47020664E-03 -0.15534657E-02
  0.26727600E-03 -0.36621462E-03 -0.20329953E-02
 -0.24463153E-03 -0.14282567E-02 -0.10787755E-02
 -0.13492160E-02 -0.90467855E-04 -0.52501698E-03
  0.17140665E-02 -0.12240069E-02 -0.31766527E-02
  0.38432413E-04  0.13878013E-02  0.12694860E-03
 -0.81774446E-03  0.20960933E-02 -0.84004146E-04
  0.20060135E-03  0.93203586E-03  0.32004742E-03
 -0.54054858E-04  0.12600084E-02 -0.15392551E-02
 -0.28523475E-03 -0.34318231E-02 -0.85828161E-03
 -0.74911357E-03 -0.93279708E-03  0.13096811E-02