Amorphous Sb                            
   1.00000000000000     
    20.1278869700586895    0.0000000000000000    0.0000000000000000
     0.0000000000000000   20.1278869700586895    0.0000000000000000
     0.0000000000000000    0.0000000000000000   20.1278869700586895
   Ge   Ga  Se
   135  15  150
Direct
  0.4907165499032189  0.7014533232011502  0.7917958812991657
  0.2109015387440536  0.4208890609079887  0.8046608082335709
  0.3592582267811650  0.3065551957630959  0.6194237217469052
  0.8230400493714853  0.0310660719906721  0.6327275534654504
  0.9054112216614953  0.5859304312010920  0.6440497155037903
  0.2070764437777441  0.6861839825548230  0.9668463128300573
  0.1219527463975822  0.1672194484735172  0.3467314628897142
  0.3251757733230249  0.6234517477750856  0.8089097684436553
  0.3509562625818816  0.8739766253859145  0.2279014415106033
  0.3719790678855546  0.0189495389036409  0.4235748708361555
  0.9943350988666850  0.0849085406507228  0.4257600174052953
  0.6113984602825937  0.3388487632048935  0.8460886316695309
  0.6411808749445100  0.4418204017116736  0.6062643639682292
  0.2602996742593788  0.0088095469820715  0.8383186212377751
  0.6610799297794188  0.9311061633251683  0.4220571852532444
  0.0392541120345129  0.7826166353825386  0.0889886515031222
  0.0470575473977419  0.7522187234644804  0.3431534101379086
  0.8115147317468541  0.3972831654587097  0.3689871845158166
  0.1089686747993923  0.4633664832388718  0.9648144998550521
  0.0523249331439217  0.9026814174765434  0.4789851851574269
  0.1452969159667106  0.8320780924339317  0.2098587614483733
  0.4143334876609330  0.7533064575321688  0.9724894925085508
  0.0025322426605499  0.1764528897059137  0.9336042850847193
  0.0331506969469899  0.0671743478679190  0.1194738027531699
  0.5478108027956665  0.3074811242036759  0.1904619021863425
  0.3713619564237263  0.1345281970530579  0.5813323514853792
  0.3927139712073853  0.7693400758068023  0.5528826899659691
  0.8028704814364360  0.9152832248237814  0.0120212906486188
  0.7339592036019340  0.5913784137581217  0.6658046366096997
  0.9371969104684013  0.7951165412642069  0.6007749727398277
  0.0621692450965980  0.3540538926838792  0.7326115161168616
  0.0290274850811940  0.0941436183241606  0.2467288345527692
  0.8598841317362229  0.4775828580723740  0.5128897454693444
  0.4067405990825037  0.4460096609825968  0.2812673048040963
  0.0341946128661732  0.5264690263541212  0.5819468831452852
  0.7732490323770733  0.6900604182928518  0.1868035733324191
  0.4515351139212598  0.4709393736655443  0.9213267324724583
  0.2685614787012653  0.0421528711279180  0.2422899267325889
  0.2534077386983782  0.3641245989801263  0.1257384767609437
  0.7379745594231579  0.3733951025973639  0.7799366261036198
  0.8459765092826501  0.8094901724712216  0.4034787110048157
  0.9169929990222698  0.1898771107050408  0.5411499021211199
  0.5528524912188360  0.8510856644384930  0.5399334343970708
  0.3793368406381319  0.9867505210827261  0.1090017316651029
  0.3705265271109610  0.6743440628125796  0.2041721213362706
  0.4217778761494557  0.4478168069425408  0.5078274958471951
  0.9199071234091676  0.7907783940251605  0.2008509014320197
  0.0337055811812519  0.3732936308914887  0.4067762233166476
  0.9968531060647621  0.7517438495346767  0.7885080096443815
  0.5451570710224019  0.0723610941941359  0.3066058222521946
  0.2614073875096707  0.4283185975514456  0.9449980819045081
  0.0492367448802753  0.2824876919632686  0.1269613491260486
  0.6063629818330085  0.7632396456017858  0.8115492478359769
  0.5713586646092352  0.3060135992215507  0.7298420709935414
  0.0678731670329853  0.5774299810444390  0.3514607237755314
  0.0300404093652133  0.9194875119227319  0.2124569010648116
  0.2100419029822618  0.5754304451292356  0.4568746594980198
  0.9506264721647426  0.3136289097924703  0.5889744760660349
  0.1034331494726501  0.0535044495599379  0.8131833743517092
  0.5307766548425690  0.4429605035876776  0.3313786249538495
  0.6929627085856254  0.1029808507067926  0.1053252507941664
  0.5658187436799693  0.6885896478384907  0.1737443156875784
  0.9349058962401529  0.6534868319603433  0.3377159236510323
  0.8635401067931241  0.0193446675617253  0.8279910078158323
  0.6274414938085400  0.8439946677870509  0.0117390876080918
  0.0640883000476364  0.3460275370083679  0.9298828724510315
  0.8168445347220583  0.8546569202468746  0.5338922230667293
  0.7241585955261485  0.7676772267216947  0.6878350319387749
  0.8184525778204801  0.2307714610160261  0.1425106649889685
  0.8302440926832517  0.3406856149325961  0.0380906894036031
  0.9437010126567742  0.3770914857779744  0.7811554198375248
  0.4017049312158818  0.1587862432473770  0.1761053278282390
  0.3739422207164722  0.5441129222321166  0.4355411040095518
  0.4469107729469357  0.8293693488852014  0.3955559528763359
  0.3302004165153178  0.4259173931412974  0.6691628339502174
  0.6968617416444189  0.9821822999599732  0.1588069371831367
  0.2428577871248550  0.2390889668196223  0.1647927737345327
  0.8682431743941592  0.0626355062882595  0.0151058990865920
  0.2219610888679853  0.8136327218653889  0.8954642300967706
  0.3593478919729307  0.2520609077877296  0.0290595721651385
  0.6569807294854684  0.9879033576920619  0.8833445124275912
  0.9830928940936445  0.6004024192380371  0.8403332615247692
  0.7917560998461610  0.5004103068523733  0.0697438277172822
  0.7934551547674147  0.5270295459305032  0.3473075540639243
  0.3355072060638236  0.1235064423610837  0.7061112819848887
  0.6075227860207733  0.1445155661879056  0.0189188906308573
  0.5284886682594347  0.6378824014673796  0.6184234160988638
  0.7322048836372730  0.2950082427464338  0.5221258075298039
  0.6503706357646877  0.5767179256605175  0.1778281547977869
  0.5410125936933738  0.2297826074842675  0.3617754295622007
  0.6212594149970059  0.1092629749044178  0.8956783603421528
  0.1143865158943882  0.1171062490810755  0.5633640708543126
  0.3207740282657170  0.5894289065277292  0.6068258455267568
  0.7498922676166089  0.0366892246954365  0.4610033152002089
  0.6553063863544679  0.9395442995375589  0.6029108708927140
  0.6663434865560731  0.7073389353993988  0.5330880451856146
  0.4486515025403648  0.0126763017148761  0.9095467875013057
  0.1667117220698415  0.4580152056452178  0.6435391786342848
  0.1664491736074325  0.7481731017956861  0.4674784827935028
  0.2081879782868583  0.1263173068864205  0.8175632462351317
  0.1173991013271163  0.4256464694049171  0.2318095229743520
  0.5392345752025847  0.2951318074989544  0.9403096119521948
  0.2553036241647675  0.5050887817018221  0.1033532261503183
  0.8586612599253343  0.0471095815475238  0.1849082873453582
  0.4060524649519479  0.8638917105393276  0.8156084656513656
  0.7226517799472347  0.6888336588053576  0.9456230824650476
  0.9880392183657420  0.4827467888004549  0.0143665320811905
  0.0470503759201151  0.6636623927021716  0.0360225421864300
  0.6776390278006161  0.1749188834455353  0.7154194748823102
  0.7156634871772525  0.9301565631386595  0.7788747931047624
  0.1129124887691404  0.8883793002715876  0.6641586529212518
  0.1160970458594903  0.9497461116867143  0.0079356576697478
  0.1498885534643932  0.9556535375038209  0.3757587337275012
  0.7397402323875113  0.1506063691900863  0.2959417270348794
  0.7546468890307878  0.8077584498966743  0.3124016542912926
  0.7321929205214417  0.6332498003005185  0.4029011753110581
  0.4106718393502078  0.2747065282337289  0.3077265084380869
  0.6560786398359681  0.6515123279747925  0.7602170315016750
  0.3073800290547553  0.2303011369868528  0.4504566359075142
  0.0902549815395801  0.9297842448730762  0.7835513831653174
  0.9263540531037364  0.4646634977684201  0.2240519286872100
  0.8374746685599632  0.2205013186491058  0.3520271378417874
  0.8090741691478769  0.6298878469682805  0.8088291159328733
  0.9590568723862845  0.9087144899506541  0.9425378418639099
  0.2364332543104837  0.4111646307353922  0.3958085052734859
  0.2078879705795771  0.6972246553872878  0.6658459203601765
  0.3749006736276641  0.9532251385150587  0.5433610164537441
  0.5410970591497275  0.8767026293118079  0.7692571903907961
  0.1846268436360390  0.1116533204696637  0.9787870295632217
  0.2842403100286219  0.8157731292011690  0.0752725165609434
  0.5633459007833181  0.5840517822520610  0.4172882813755550
  0.9008893185171019  0.7419319092515764  0.8878201459817561
  0.4706009565444234  0.1874909674777570  0.9329122591546906
  0.4566758890661617  0.5319834059463275  0.0982507177998642
  0.0320300020804680  0.6979962201644767  0.6012561009843580
  0.1837320647643068  0.6416013598222747  0.1905050350648949
  0.2924033364835097  0.2706028380302428  0.8136412495461300
  0.5480691289854391  0.0656633375154243  0.4929693907117425
  0.4196710254277676  0.7083128803133221  0.3218983393087669
  0.3326256569943524  0.7980721932168180  0.7294668920843250
  0.7333604648009526  0.4128049564508771  0.2304238350587582
  0.6067200005625679  0.4697332907005318  0.0349024738648112
  0.1769920497259818  0.9836173370677344  0.5952318881137018
  0.9093452799741257  0.2037332603849364  0.7401156923352374
  0.5567400611942759  0.1966324109028221  0.5563523261183718
  0.0977634665484715  0.2340162284824174  0.4994546023366624
  0.1454751656119058  0.5984139218738065  0.8149887076589550
  0.5355409187773787  0.8767879996666110  0.2072676671098961
  0.4657135234694536  0.4670477370615060  0.7515130198467972
  0.9030418232513284  0.4593668899002523  0.9202581801157095
  0.8738877617807717  0.1141393224250749  0.8968271607105009
  0.8475063701034031  0.9670847472334714  0.4927366085280909
  0.0793047608750541  0.7256011823614728  0.1980989871532373
  0.9280622164807184  0.4581027455532123  0.6209035493200830
  0.3172136184234731  0.6976341026012776  0.0303835287492547
  0.1186306976469567  0.0034098483311737  0.2486288051769563
  0.5664476090686961  0.4821956312334308  0.1580758260841719
  0.7062123962099562  0.0568723464908842  0.5821768514799359
  0.6185231856086233  0.2639573358637222  0.0257218305987124
  0.1264087605577231  0.0778142862621962  0.4426578403343555
  0.9415468059467642  0.8273432090126889  0.3198801754963725
  0.7681178154103705  0.0446732913396133  0.7580063932887242
  0.7769503974707135  0.7023326799503735  0.5946359683489817
  0.2702967323137742  0.8007531373035732  0.6245312129415268
  0.8950374574382636  0.6666996908609235  0.2170604984177942
  0.4889663156931547  0.1192405600812094  0.0330250144087856
  0.2877211300032627  0.1576777272545016  0.0838736478025979
  0.3416688895141746  0.8390509724053317  0.4619238032172888
  0.9508114075649345  0.9882397635680320  0.7480446416191526
  0.7001595764714494  0.2031564195426157  0.1905249983606723
  0.6961875585482886  0.9864804780811696  0.9989881872285196
  0.5509663223709538  0.1927310952159900  0.6860933083415404
  0.1503422847438429  0.0477438081155483  0.0846895104599099
  0.8890119019343103  0.4848311811315114  0.8014275596437272
  0.2172564317754961  0.3800272815693475  0.2738607880488217
  0.3336067715447157  0.3916118619977453  0.8431012421235309
  0.2760520613413746  0.7656802803068032  0.1940404699939151
  0.2754089373492121  0.9697489376096513  0.3470449308997061
  0.3400549023608832  0.4974700836318107  0.0172695308312285
  0.4002728722477116  0.0407434110621168  0.2253135996938340
  0.4340233275753249  0.2376652244850064  0.5431666489676914
  0.4236082875030007  0.3440465999778368  0.2026487261596444
  0.9449616291152125  0.0005487244600744  0.2675399161980749
  0.4282603578537305  0.8685777171430189  0.1255446483177778
  0.1045289973571997  0.4805050708610779  0.4217632951945234
  0.0707386267881773  0.4971740300623253  0.8488639970526037
  0.5510006090832889  0.4499752085785573  0.8429072531193995
  0.2925292994792912  0.9807891722975199  0.6350145855610521
  0.5202574060830329  0.1833646873941959  0.2393778809425697
  0.9172304553015280  0.5288101583206029  0.3499717783142771
  0.6207375146163585  0.5261327678821814  0.3209430547373273
  0.3511983805443109  0.1954009884076982  0.9133084479065872
  0.1772253523303817  0.9009238458103184  0.5028480949880318
  0.0158208782941429  0.2139675095081799  0.4039536746869885
  0.5445615819891998  0.9266579360928375  0.8888814660691509
  0.6108524673207611  0.9731504593682700  0.7205461460606770
  0.6889628637220184  0.4716557633256215  0.7190681485680059
  0.1513371196246212  0.8290908017383529  0.3343950578864678
  0.9055002137296668  0.3766768084680763  0.4471178966345093
  0.5071874125348614  0.7512643701663251  0.4733651731684958
  0.8538054768383461  0.3201904141820364  0.7249346339812490
  0.3239566831139484  0.6418196495352575  0.4902211860141392
  0.6729882448898223  0.2024389029067919  0.8402471171806027
  0.2985029145250593  0.1029012717176627  0.4855279968055228
  0.7950029051791958  0.8195745388386655  0.1961405629147208
  0.7851008899218215  0.5290765186161224  0.2237940897908501
  0.1675223992636532  0.6591860198145980  0.3702132890490049
  0.0429349180733425  0.8487352951370681  0.8638759079908809
  0.7898096483948933  0.4352103668365075  0.9559232561324578
  0.9890019421657286  0.0870336476342928  0.5527712799086899
  0.2690790506481946  0.9423368585264171  0.1592946511113240
  0.5423074835190178  0.5976730691417700  0.7399026422350659
  0.0064524710408378  0.9025607859448073  0.6000342092727706
  0.1054739254580070  0.2904999310330325  0.8312503541488780
  0.5085004738175627  0.3882333134566025  0.6664996800643550
  0.2618601054994372  0.2586010856715006  0.5630194673702533
  0.2473699174701238  0.0012820083644911  0.9596567725154230
  0.7855009105343882  0.1567970939954435  0.0413364462636707
  0.8769583784411665  0.6208160240139833  0.9191696626896473
  0.8903494718509606  0.1627505368774536  0.2181750644799649
  0.5380069793192703  0.4629852909310799  0.4562528691596626
  0.5932805479108936  0.3409837531402928  0.3013402079828893
  0.6373702542316337  0.5744191067226581  0.5825041505409558
  0.7040584957315801  0.6939291137943826  0.2962299318151693
  0.5311791056965447  0.7331852544095057  0.2825377715362407
  0.1060492999457381  0.7704644539180734  0.7003049937696346
  0.7814688928181539  0.7508415730432816  0.8469816666064887
  0.6110318808519324  0.8009310054074774  0.1371529393529585
  0.9055018340087102  0.8004850412945927  0.7190070717139676
  0.0877078280529204  0.2518977852196187  0.0038215570363533
  0.8426707505356603  0.9131081192914863  0.8810152135095848
  0.7453679898561916  0.8066597154981778  0.0209094266163703
  0.7582778133499701  0.0330399042518721  0.2656932907301126
  0.2254204465554821  0.5281657582767494  0.7346518208781703
  0.7451393937101614  0.4228488315051919  0.5265577488481696
  0.3831518367511606  0.2447501673856607  0.7284370883107911
  0.0009030028360968  0.9515798509463309  0.0920427568699438
  0.4505793065840891  0.5873492750414044  0.3507279496854707
  0.1292550745478565  0.2067309612013020  0.1904160569148772
  0.0407071536521286  0.7751805385515098  0.4700392339205450
  0.7401047304129662  0.3013372168909427  0.3902794238576064
  0.4109735363575382  0.7068544925506828  0.6996728011826647
  0.6627456734795345  0.8848046102361948  0.3072490038123803
  0.3423390628249194  0.8489979056379582  0.9234590370637221
  0.1544579200855836  0.8255858991047518  0.0469705846210715
  0.8444835746223944  0.1404163963848504  0.4522368416821649
  0.7038414793499186  0.8264053105977780  0.4795287849506806
  0.0152137886965988  0.2476274616092269  0.6771368118595547
  0.6996507432275152  0.5896512497145991  0.8580533696885553
  0.2531394741561144  0.3178764357507617  0.0069825968911061
  0.4232989047330165  0.6576916517826348  0.8860161976530634
  0.0617568068133494  0.6727762308302871  0.9156820449652443
  0.5766179360403356  0.9933607601778931  0.1689867358730339
  0.4655684751613336  0.3709259205210174  0.9966087240154451
  0.9191475575218959  0.8021628920975132  0.9940798032448726
  0.6401297267718320  0.1383897836274599  0.3690244702995855
  0.2397594007537265  0.5817686173868992  0.8986306246401767
  0.2696140304210033  0.4750766520450895  0.5664721340640071
  0.5065929319140636  0.1091120793202407  0.8452729684628864
  0.4356156325650034  0.5344901226136471  0.6037602052693600
  0.2142628009830148  0.9012646423892008  0.7964577813733413
  0.0630668462022683  0.0643745985666442  0.9273971767362355
  0.2794616710657465  0.5254780171641258  0.3601285193021937
  0.9621143875323099  0.1443055692253878  0.0507172170239159
  0.2240898187086060  0.3536620376615787  0.6952429683385759
  0.3128858808491941  0.2018796840001897  0.2643269252292555
  0.2554507421904972  0.7303810840652858  0.8016766460613098
  0.8444822082686656  0.6850494317051954  0.4235119925752073
  0.0957745614509875  0.5448166970402823  0.2277563293067075
  0.9614293762281889  0.5849824508057679  0.0711451854082767
  0.1837386702620591  0.2585536294457569  0.4118529363359755
  0.2160603092756901  0.1540398749309375  0.6997762153247677
  0.9396077433562127  0.3387255383026400  0.9024902988864696
  0.8517074852389968  0.3618440608482913  0.2570523366762671
  0.5347930111790546  0.9405054263243287  0.4335280283203957
  0.6862939532676009  0.5697929155206509  0.0509954774840935
  0.3798250151010478  0.9848502778162853  0.8007741377960045
  0.5207494182411665  0.5532619889986350  0.9926174210497933
  0.6050627714728378  0.3002759052253765  0.5132046084397075
  0.6043148469178306  0.7599411627398638  0.6372884471383244
  0.3097966492082094  0.5679568051886079  0.1978571678665517
  0.0634673903542335  0.3465339952872171  0.5379003155829736
  0.7610175249258120  0.8878794636858345  0.6491147317944339
  0.4569466741507497  0.6637845367270359  0.1162492533277089
  0.1595854171216189  0.6111671028104766  0.0642730606294890
  0.6022925165249760  0.7347643604570635  0.9318271824751250
  0.6882465269413842  0.3016585475954727  0.6854133092062114
  0.4452292275853651  0.8750279862845503  0.6115986334170458
  0.3665972222014986  0.3725851538936951  0.3783411113220296
  0.1434866609099217  0.6564470274010716  0.5581824113872429
  0.8413811065728964  0.1647977688077518  0.6369564191577339
  0.0147375551085744  0.3755626819876170  0.2646212600592790
  0.9349741159320288  0.3992492393801257  0.0875353318253929
  0.1276029203112685  0.3858467279849478  0.1157866677682478
  0.4708836299882151  0.1159593173876914  0.4048496920065716
  0.9576374988378262  0.6134634560636698  0.5300382737261486
  0.0145655374502738  0.0864805431592330  0.7347787628945284
  0.0247832209750172  0.6023437066006352  0.6890817058166476
  0.7332245114394382  0.3922974608831709  0.1057380546457480
  0.4614530831947476  0.0498751947645388  0.5842725291712370
 
  0.00000000E+00  0.00000000E+00  0.00000000E+00
  0.00000000E+00  0.00000000E+00  0.00000000E+00
  0.00000000E+00  0.00000000E+00  0.00000000E+00
  0.00000000E+00  0.00000000E+00  0.00000000E+00
  0.00000000E+00  0.00000000E+00  0.00000000E+00
  0.00000000E+00  0.00000000E+00  0.00000000E+00
  0.00000000E+00  0.00000000E+00  0.00000000E+00
  0.00000000E+00  0.00000000E+00  0.00000000E+00
  0.00000000E+00  0.00000000E+00  0.00000000E+00
  0.00000000E+00  0.00000000E+00  0.00000000E+00
  0.00000000E+00  0.00000000E+00  0.00000000E+00
  0.00000000E+00  0.00000000E+00  0.00000000E+00
  0.00000000E+00  0.00000000E+00  0.00000000E+00
  0.00000000E+00  0.00000000E+00  0.00000000E+00
  0.00000000E+00  0.00000000E+00  0.00000000E+00
  0.00000000E+00  0.00000000E+00  0.00000000E+00
  0.00000000E+00  0.00000000E+00  0.00000000E+00
  0.00000000E+00  0.00000000E+00  0.00000000E+00
  0.00000000E+00  0.00000000E+00  0.00000000E+00
  0.00000000E+00  0.00000000E+00  0.00000000E+00
  0.00000000E+00  0.00000000E+00  0.00000000E+00
  0.00000000E+00  0.00000000E+00  0.00000000E+00
  0.00000000E+00  0.00000000E+00  0.00000000E+00
  0.00000000E+00  0.00000000E+00  0.00000000E+00
  0.00000000E+00  0.00000000E+00  0.00000000E+00
  0.00000000E+00  0.00000000E+00  0.00000000E+00
  0.00000000E+00  0.00000000E+00  0.00000000E+00
  0.00000000E+00  0.00000000E+00  0.00000000E+00
  0.00000000E+00  0.00000000E+00  0.00000000E+00
  0.00000000E+00  0.00000000E+00  0.00000000E+00
  0.00000000E+00  0.00000000E+00  0.00000000E+00
  0.00000000E+00  0.00000000E+00  0.00000000E+00
  0.00000000E+00  0.00000000E+00  0.00000000E+00
  0.00000000E+00  0.00000000E+00  0.00000000E+00
  0.00000000E+00  0.00000000E+00  0.00000000E+00
  0.00000000E+00  0.00000000E+00  0.00000000E+00
  0.00000000E+00  0.00000000E+00  0.00000000E+00
  0.00000000E+00  0.00000000E+00  0.00000000E+00
  0.00000000E+00  0.00000000E+00  0.00000000E+00
  0.00000000E+00  0.00000000E+00  0.00000000E+00
  0.00000000E+00  0.00000000E+00  0.00000000E+00
  0.00000000E+00  0.00000000E+00  0.00000000E+00
  0.00000000E+00  0.00000000E+00  0.00000000E+00
  0.00000000E+00  0.00000000E+00  0.00000000E+00
  0.00000000E+00  0.00000000E+00  0.00000000E+00
  0.00000000E+00  0.00000000E+00  0.00000000E+00
  0.00000000E+00  0.00000000E+00  0.00000000E+00
  0.00000000E+00  0.00000000E+00  0.00000000E+00
  0.00000000E+00  0.00000000E+00  0.00000000E+00
  0.00000000E+00  0.00000000E+00  0.00000000E+00
  0.00000000E+00  0.00000000E+00  0.00000000E+00
  0.00000000E+00  0.00000000E+00  0.00000000E+00
  0.00000000E+00  0.00000000E+00  0.00000000E+00
  0.00000000E+00  0.00000000E+00  0.00000000E+00
  0.00000000E+00  0.00000000E+00  0.00000000E+00
  0.00000000E+00  0.00000000E+00  0.00000000E+00
  0.00000000E+00  0.00000000E+00  0.00000000E+00
  0.00000000E+00  0.00000000E+00  0.00000000E+00
  0.00000000E+00  0.00000000E+00  0.00000000E+00
  0.00000000E+00  0.00000000E+00  0.00000000E+00
  0.00000000E+00  0.00000000E+00  0.00000000E+00
  0.00000000E+00  0.00000000E+00  0.00000000E+00
  0.00000000E+00  0.00000000E+00  0.00000000E+00
  0.00000000E+00  0.00000000E+00  0.00000000E+00
  0.00000000E+00  0.00000000E+00  0.00000000E+00
  0.00000000E+00  0.00000000E+00  0.00000000E+00
  0.00000000E+00  0.00000000E+00  0.00000000E+00
  0.00000000E+00  0.00000000E+00  0.00000000E+00
  0.00000000E+00  0.00000000E+00  0.00000000E+00
  0.00000000E+00  0.00000000E+00  0.00000000E+00
  0.00000000E+00  0.00000000E+00  0.00000000E+00
  0.00000000E+00  0.00000000E+00  0.00000000E+00
  0.00000000E+00  0.00000000E+00  0.00000000E+00
  0.00000000E+00  0.00000000E+00  0.00000000E+00
  0.00000000E+00  0.00000000E+00  0.00000000E+00
  0.00000000E+00  0.00000000E+00  0.00000000E+00
  0.00000000E+00  0.00000000E+00  0.00000000E+00
  0.00000000E+00  0.00000000E+00  0.00000000E+00
  0.00000000E+00  0.00000000E+00  0.00000000E+00
  0.00000000E+00  0.00000000E+00  0.00000000E+00
  0.00000000E+00  0.00000000E+00  0.00000000E+00
  0.00000000E+00  0.00000000E+00  0.00000000E+00
  0.00000000E+00  0.00000000E+00  0.00000000E+00
  0.00000000E+00  0.00000000E+00  0.00000000E+00
  0.00000000E+00  0.00000000E+00  0.00000000E+00
  0.00000000E+00  0.00000000E+00  0.00000000E+00
  0.00000000E+00  0.00000000E+00  0.00000000E+00
  0.00000000E+00  0.00000000E+00  0.00000000E+00
  0.00000000E+00  0.00000000E+00  0.00000000E+00
  0.00000000E+00  0.00000000E+00  0.00000000E+00
  0.00000000E+00  0.00000000E+00  0.00000000E+00
  0.00000000E+00  0.00000000E+00  0.00000000E+00
  0.00000000E+00  0.00000000E+00  0.00000000E+00
  0.00000000E+00  0.00000000E+00  0.00000000E+00
  0.00000000E+00  0.00000000E+00  0.00000000E+00
  0.00000000E+00  0.00000000E+00  0.00000000E+00
  0.00000000E+00  0.00000000E+00  0.00000000E+00
  0.00000000E+00  0.00000000E+00  0.00000000E+00
  0.00000000E+00  0.00000000E+00  0.00000000E+00
  0.00000000E+00  0.00000000E+00  0.00000000E+00
  0.00000000E+00  0.00000000E+00  0.00000000E+00
  0.00000000E+00  0.00000000E+00  0.00000000E+00
  0.00000000E+00  0.00000000E+00  0.00000000E+00
  0.00000000E+00  0.00000000E+00  0.00000000E+00
  0.00000000E+00  0.00000000E+00  0.00000000E+00
  0.00000000E+00  0.00000000E+00  0.00000000E+00
  0.00000000E+00  0.00000000E+00  0.00000000E+00
  0.00000000E+00  0.00000000E+00  0.00000000E+00
  0.00000000E+00  0.00000000E+00  0.00000000E+00
  0.00000000E+00  0.00000000E+00  0.00000000E+00
  0.00000000E+00  0.00000000E+00  0.00000000E+00
  0.00000000E+00  0.00000000E+00  0.00000000E+00
  0.00000000E+00  0.00000000E+00  0.00000000E+00
  0.00000000E+00  0.00000000E+00  0.00000000E+00
  0.00000000E+00  0.00000000E+00  0.00000000E+00
  0.00000000E+00  0.00000000E+00  0.00000000E+00
  0.00000000E+00  0.00000000E+00  0.00000000E+00
  0.00000000E+00  0.00000000E+00  0.00000000E+00
  0.00000000E+00  0.00000000E+00  0.00000000E+00
  0.00000000E+00  0.00000000E+00  0.00000000E+00
  0.00000000E+00  0.00000000E+00  0.00000000E+00
  0.00000000E+00  0.00000000E+00  0.00000000E+00
  0.00000000E+00  0.00000000E+00  0.00000000E+00
  0.00000000E+00  0.00000000E+00  0.00000000E+00
  0.00000000E+00  0.00000000E+00  0.00000000E+00
  0.00000000E+00  0.00000000E+00  0.00000000E+00
  0.00000000E+00  0.00000000E+00  0.00000000E+00
  0.00000000E+00  0.00000000E+00  0.00000000E+00
  0.00000000E+00  0.00000000E+00  0.00000000E+00
  0.00000000E+00  0.00000000E+00  0.00000000E+00
  0.00000000E+00  0.00000000E+00  0.00000000E+00
  0.00000000E+00  0.00000000E+00  0.00000000E+00
  0.00000000E+00  0.00000000E+00  0.00000000E+00
  0.00000000E+00  0.00000000E+00  0.00000000E+00
  0.00000000E+00  0.00000000E+00  0.00000000E+00
  0.00000000E+00  0.00000000E+00  0.00000000E+00
  0.00000000E+00  0.00000000E+00  0.00000000E+00
  0.00000000E+00  0.00000000E+00  0.00000000E+00
  0.00000000E+00  0.00000000E+00  0.00000000E+00
  0.00000000E+00  0.00000000E+00  0.00000000E+00
  0.00000000E+00  0.00000000E+00  0.00000000E+00
  0.00000000E+00  0.00000000E+00  0.00000000E+00
  0.00000000E+00  0.00000000E+00  0.00000000E+00
  0.00000000E+00  0.00000000E+00  0.00000000E+00
  0.00000000E+00  0.00000000E+00  0.00000000E+00
  0.00000000E+00  0.00000000E+00  0.00000000E+00
  0.00000000E+00  0.00000000E+00  0.00000000E+00
  0.00000000E+00  0.00000000E+00  0.00000000E+00
  0.00000000E+00  0.00000000E+00  0.00000000E+00
  0.00000000E+00  0.00000000E+00  0.00000000E+00
  0.00000000E+00  0.00000000E+00  0.00000000E+00
  0.00000000E+00  0.00000000E+00  0.00000000E+00
  0.00000000E+00  0.00000000E+00  0.00000000E+00
  0.00000000E+00  0.00000000E+00  0.00000000E+00
  0.00000000E+00  0.00000000E+00  0.00000000E+00
  0.00000000E+00  0.00000000E+00  0.00000000E+00
  0.00000000E+00  0.00000000E+00  0.00000000E+00
  0.00000000E+00  0.00000000E+00  0.00000000E+00
  0.00000000E+00  0.00000000E+00  0.00000000E+00
  0.00000000E+00  0.00000000E+00  0.00000000E+00
  0.00000000E+00  0.00000000E+00  0.00000000E+00
  0.00000000E+00  0.00000000E+00  0.00000000E+00
  0.00000000E+00  0.00000000E+00  0.00000000E+00
  0.00000000E+00  0.00000000E+00  0.00000000E+00
  0.00000000E+00  0.00000000E+00  0.00000000E+00
  0.00000000E+00  0.00000000E+00  0.00000000E+00
  0.00000000E+00  0.00000000E+00  0.00000000E+00
  0.00000000E+00  0.00000000E+00  0.00000000E+00
  0.00000000E+00  0.00000000E+00  0.00000000E+00
  0.00000000E+00  0.00000000E+00  0.00000000E+00
  0.00000000E+00  0.00000000E+00  0.00000000E+00
  0.00000000E+00  0.00000000E+00  0.00000000E+00
  0.00000000E+00  0.00000000E+00  0.00000000E+00
  0.00000000E+00  0.00000000E+00  0.00000000E+00
  0.00000000E+00  0.00000000E+00  0.00000000E+00
  0.00000000E+00  0.00000000E+00  0.00000000E+00
  0.00000000E+00  0.00000000E+00  0.00000000E+00
  0.00000000E+00  0.00000000E+00  0.00000000E+00
  0.00000000E+00  0.00000000E+00  0.00000000E+00
  0.00000000E+00  0.00000000E+00  0.00000000E+00
  0.00000000E+00  0.00000000E+00  0.00000000E+00
  0.00000000E+00  0.00000000E+00  0.00000000E+00
  0.00000000E+00  0.00000000E+00  0.00000000E+00
  0.00000000E+00  0.00000000E+00  0.00000000E+00
  0.00000000E+00  0.00000000E+00  0.00000000E+00
  0.00000000E+00  0.00000000E+00  0.00000000E+00
  0.00000000E+00  0.00000000E+00  0.00000000E+00
  0.00000000E+00  0.00000000E+00  0.00000000E+00
  0.00000000E+00  0.00000000E+00  0.00000000E+00
  0.00000000E+00  0.00000000E+00  0.00000000E+00
  0.00000000E+00  0.00000000E+00  0.00000000E+00
  0.00000000E+00  0.00000000E+00  0.00000000E+00
  0.00000000E+00  0.00000000E+00  0.00000000E+00
  0.00000000E+00  0.00000000E+00  0.00000000E+00
  0.00000000E+00  0.00000000E+00  0.00000000E+00
  0.00000000E+00  0.00000000E+00  0.00000000E+00
  0.00000000E+00  0.00000000E+00  0.00000000E+00
  0.00000000E+00  0.00000000E+00  0.00000000E+00
  0.00000000E+00  0.00000000E+00  0.00000000E+00
  0.00000000E+00  0.00000000E+00  0.00000000E+00
  0.00000000E+00  0.00000000E+00  0.00000000E+00
  0.00000000E+00  0.00000000E+00  0.00000000E+00
  0.00000000E+00  0.00000000E+00  0.00000000E+00
  0.00000000E+00  0.00000000E+00  0.00000000E+00
  0.00000000E+00  0.00000000E+00  0.00000000E+00
  0.00000000E+00  0.00000000E+00  0.00000000E+00
  0.00000000E+00  0.00000000E+00  0.00000000E+00
  0.00000000E+00  0.00000000E+00  0.00000000E+00
  0.00000000E+00  0.00000000E+00  0.00000000E+00
  0.00000000E+00  0.00000000E+00  0.00000000E+00
  0.00000000E+00  0.00000000E+00  0.00000000E+00
  0.00000000E+00  0.00000000E+00  0.00000000E+00
  0.00000000E+00  0.00000000E+00  0.00000000E+00
  0.00000000E+00  0.00000000E+00  0.00000000E+00
  0.00000000E+00  0.00000000E+00  0.00000000E+00
  0.00000000E+00  0.00000000E+00  0.00000000E+00
  0.00000000E+00  0.00000000E+00  0.00000000E+00
  0.00000000E+00  0.00000000E+00  0.00000000E+00
  0.00000000E+00  0.00000000E+00  0.00000000E+00
  0.00000000E+00  0.00000000E+00  0.00000000E+00
  0.00000000E+00  0.00000000E+00  0.00000000E+00
  0.00000000E+00  0.00000000E+00  0.00000000E+00
  0.00000000E+00  0.00000000E+00  0.00000000E+00
  0.00000000E+00  0.00000000E+00  0.00000000E+00
  0.00000000E+00  0.00000000E+00  0.00000000E+00
  0.00000000E+00  0.00000000E+00  0.00000000E+00
  0.00000000E+00  0.00000000E+00  0.00000000E+00
  0.00000000E+00  0.00000000E+00  0.00000000E+00
  0.00000000E+00  0.00000000E+00  0.00000000E+00
  0.00000000E+00  0.00000000E+00  0.00000000E+00
  0.00000000E+00  0.00000000E+00  0.00000000E+00
  0.00000000E+00  0.00000000E+00  0.00000000E+00