Amorphous Sb                            
   1.00000000000000     
    20.7413969107436458    0.0000000000000000    0.0000000000000000
     0.0000000000000000   20.7413969107436458    0.0000000000000000
     0.0000000000000000    0.0000000000000000   20.7413969107436458
   Ge   Te   Se
   150    75    75
Direct
  0.7701121056800346  0.1349870637527459  0.5253534800083131
  0.7853497313271660  0.4165467086310599  0.6834645844756864
  0.6776481878515526  0.6417572527118054  0.0775636196438896
  0.2685169975448574  0.0240892007661913  0.3752359464714488
  0.8440656029339308  0.8442971868895768  0.8393607588730418
  0.9226179985099989  0.9915647028420054  0.4059663084748379
  0.9381116134336267  0.8018114513311119  0.0750947322272424
  0.3330931021422501  0.8271384184784552  0.9233955315599758
  0.5787511658697326  0.1249470968225310  0.1891044037151985
  0.1207009237538514  0.1914651083797878  0.7036894655523511
  0.3686755296871524  0.3041138755962862  0.3393463460120216
  0.9293313196335689  0.9663561991558964  0.9671865399856898
  0.8585766718934593  0.3304181647225946  0.5839124989128806
  0.5069151094255915  0.1123973320489000  0.8206336810285677
  0.4228455390720498  0.0058614026536503  0.4595582287931919
  0.2879730263852380  0.7143421490673987  0.9526726033506066
  0.3975920092083740  0.9899857996314267  0.1049353910854407
  0.3661373081955617  0.5212102161438565  0.8848619242386704
  0.6869061934755294  0.9341310299850107  0.6306707529284523
  0.3171922631806652  0.6092943847570709  0.6233669964695565
  0.5888087554920745  0.1833316505140701  0.4144139183012356
  0.2456691535649753  0.0664347249491186  0.7739625264209380
  0.3798946284064115  0.3655818762875782  0.4453705631392992
  0.9915633066181968  0.0284321131208145  0.1715785348766659
  0.9536156117566463  0.7758630363733587  0.6570575293380259
  0.6243624281055062  0.8375262096735199  0.1512381651600876
  0.0393120433334531  0.4627435043805974  0.1229884510798271
  0.6446036485068305  0.1079103355473450  0.5154342391056232
  0.5838257722008819  0.4363168174989980  0.0619312413222204
  0.6436594061940468  0.5962044315631232  0.5561422210633964
  0.6485004077431569  0.9247370909130623  0.3194358950857605
  0.5712571833253008  0.3817892461401584  0.5125546272792363
  0.4125202203773100  0.8017116060561733  0.0696447668649540
  0.7157556712557493  0.4431350549848219  0.0798466653507646
  0.6686782258355706  0.0223923432431619  0.8178279034378733
  0.8102351192295600  0.6281413703938128  0.2799265271853812
  0.7250237527960124  0.7509658497317488  0.1445368518687644
  0.7648139643906120  0.2386576986868931  0.6931795170390913
  0.8012014963515242  0.8489078406692911  0.5732629538947194
  0.7817126587747367  0.1269868289228100  0.1463261576962864
  0.8304536234113016  0.0445082984590996  0.7265205908704715
  0.2182343600802525  0.5804169464574827  0.9649708333534761
  0.6381898066579126  0.5797989209813750  0.8655108639657598
  0.1505519853732267  0.6166684777424862  0.1516771808819826
  0.0601368747626765  0.5749990719151512  0.3336629179489847
  0.1212382390977780  0.1393557902012219  0.3605202844463733
  0.0173314450031725  0.1365685462328798  0.4308459944517580
  0.2211687403814580  0.3905225924125730  0.6461345771135427
  0.2649840830294039  0.5964357451548707  0.1015174289309684
  0.6706230331478693  0.5986074930999621  0.3670058222798005
  0.2816575442760012  0.3688108820238369  0.5183613606768276
  0.1326199085756699  0.7619685029428069  0.3781800835083473
  0.1702804855331124  0.8445830798685918  0.0141338741839974
  0.4436053776748423  0.1798927132207666  0.6707549014144973
  0.9330332748642860  0.9406292723693994  0.6934544233241056
  0.3127997294912959  0.2552731951938227  0.5660345004298151
  0.3190868598376824  0.8800855964556789  0.2184391392708136
  0.9816092227318194  0.6733655531970868  0.1889351375168786
  0.3906541795107614  0.3676089665557640  0.9614727155016283
  0.1677602857143157  0.3776915738682405  0.2097103063732675
  0.4829443384613228  0.4384556645870603  0.3028202267479259
  0.6633874476380015  0.8178830451744759  0.9415288144185894
  0.6616636439712664  0.4157374172077652  0.3537063951914092
  0.4588295623782415  0.1002121249611179  0.5557264065309724
  0.1246124404623785  0.3480957269376077  0.7644396496850803
  0.0662403030504706  0.8054217287446690  0.0999249973848038
  0.7722467744310819  0.9642590929362242  0.1236704804393085
  0.4639757924763259  0.3409379117253408  0.1780920623782123
  0.6401589404683889  0.5300669318776485  0.2196462853975589
  0.6339955179301739  0.5364744378064898  0.6729400045898046
  0.5433122263616923  0.7618989101029356  0.9457635737670742
  0.5237499941551249  0.8646329976791947  0.5736366717739969
  0.6054375106323278  0.2763208169072158  0.5724832700834384
  0.4492167514867518  0.1957692878932988  0.2848597531989654
  0.3309644556096103  0.5543781735864997  0.3736867948200526
  0.5242445838620924  0.4872865860417050  0.8424785334530398
  0.4420042059847162  0.4844071053187093  0.1363304399634018
  0.7639776183168365  0.1618158209762015  0.3934179771985526
  0.6624901623202319  0.2670277010164810  0.1490023309528610
  0.0268379765674780  0.2691039163672997  0.5674730728785917
  0.7549403155714245  0.4409201821647031  0.5109370967173632
  0.8352989380844775  0.8690862581638044  0.0501140916132101
  0.8961021133955427  0.8839591073541655  0.2443886964625293
  0.0711546306106072  0.6184419252903339  0.0515166788633294
  0.1752907696335342  0.6549851118255816  0.4696039663805749
  0.1935543448923696  0.2214297104763148  0.2975306711855836
  0.5651048090215980  0.7020083326941560  0.2888714515673385
  0.0910485003047796  0.2282696377539111  0.2028385922675540
  0.7790625274939984  0.9685789559675655  0.4643979315418392
  0.9936185508300852  0.5964527708270779  0.6961508039285604
  0.3947817350529448  0.6686278485282102  0.5301596728368736
  0.3795548446939776  0.8751308895178553  0.3971487620608016
  0.3284703585953679  0.0438981237724150  0.2105488956156449
  0.3879089048902884  0.1398013385079580  0.8490727026797416
  0.8302966470022000  0.8556164844003291  0.4338886648555373
  0.2632494273331503  0.6564816445533310  0.7319494028502334
  0.1440239059643744  0.5697730995305008  0.8688877920507707
  0.5733237782180467  0.2398778008782827  0.8979006237571738
  0.2437740446706513  0.0721022238832489  0.1098728983360502
  0.4118450291033255  0.7360083882768720  0.6901526307262884
  0.9639865644630774  0.1439304713029728  0.3050773699373011
  0.5266488315119275  0.9191138769172653  0.7672904965979725
  0.1556929847942072  0.3198111970652562  0.0454828232741420
  0.0916772997974391  0.7547580720432236  0.7458375017793912
  0.7884849798019289  0.0145010453060337  0.5787126294957758
  0.2828377276682161  0.7339789535126258  0.3826890206742490
  0.4205668616291049  0.0883739720243923  0.0086189623290238
  0.7550848620716835  0.2595572247810267  0.9792730123949198
  0.1240531742698323  0.2892860256148211  0.4751835232981705
  0.2041186328364475  0.5659659951391731  0.3796464889745721
  0.0626417278000062  0.0085067446592220  0.7154687323678246
  0.8563629690009549  0.3857844019754424  0.9359163046152617
  0.3043067019244816  0.1341549342631581  0.4350994095891068
  0.9905589087893105  0.2565926119137529  0.0112720140118228
  0.8382105359919620  0.4055765396332802  0.3519922614246411
  0.2084291174021331  0.9949098912857437  0.2333442616596955
  0.1091193939131898  0.5412886752341564  0.6597006635503107
  0.8752867632995986  0.5185580184136782  0.2048032855185227
  0.4790450007468436  0.3196164754734312  0.0470559637724222
  0.2923964068120739  0.2377197153718171  0.0556621064778682
  0.5285016038871717  0.5596116141628329  0.9892439430239719
  0.0909733018761543  0.1211606329308665  0.8557858541585972
  0.8898707554073511  0.1636312440230370  0.4834914163950899
  0.1569225124887623  0.1967924921226682  0.9455455473917667
  0.6382842654006211  0.4883578978638283  0.9420492083435761
  0.6062555525416045  0.9622638380002400  0.1268895490456003
  0.9024089385616207  0.4651219589217561  0.5592617123048882
  0.7763531553912415  0.6732763885432362  0.8634766302086447
  0.0767261990665773  0.9442883592000086  0.3155556443895975
  0.4629565217786009  0.3202120596340663  0.5167547082791160
  0.9399200540157580  0.1263530098234327  0.5937578112915247
  0.1550573544054714  0.4282345568721837  0.3577237643481084
  0.2089235277470891  0.8698607021207891  0.7736643948929114
  0.0434075945990031  0.7138192121202636  0.9752879163004593
  0.9132503927889317  0.2276888297164064  0.8590751553624472
  0.2565234983625118  0.8773171780352200  0.4583172430782128
  0.6917033917134532  0.1025825284083197  0.9162126818181378
  0.0843547988066788  0.3797157293565334  0.9487281125957239
  0.9650874439482138  0.3677579756113190  0.3397133949199329
  0.2419208901915297  0.7694889088367631  0.1758473765741542
  0.3411544120881089  0.8508697332984738  0.6669448684552179
  0.2884009985790570  0.9936717970641169  0.9101498707376052
  0.9569646762277699  0.4162540163443964  0.8042997949321631
  0.3136902829678263  0.4757699910185238  0.7836493607096244
  0.5245410103876367  0.6467508734177727  0.7909937611551143
  0.1697798626527103  0.7483864328044163  0.5585087368393147
  0.3647714223378316  0.4816513176276587  0.2764959192965506
  0.8369857568241912  0.5555657607559823  0.7927407349719005
  0.8148483372119273  0.2848952424575941  0.2529684764823017
  0.4607772668187522  0.5924101580343972  0.6735135497975193
  0.0029129423480470  0.1295832584368810  0.7478145122841440
  0.5314301376017170  0.5570859733593068  0.2927172689550019
  0.6084938535665003  0.3874758295454157  0.8604126471748685
  0.7252670044744818  0.7851141369400239  0.8256622235263080
  0.5067098060191668  0.5668885598611908  0.5566838756649446
  0.6047994161119590  0.3073283743975637  0.0235954289001938
  0.3710725370790229  0.7854193421363931  0.2935504849349329
  0.1134287906964957  0.7295723421529061  0.2059594236737396
  0.4329186236459535  0.2307920975919657  0.9685355789817507
  0.5684301363969553  0.0499071606804904  0.7305670430295379
  0.7115572963149717  0.5003075664808776  0.7789079652989344
  0.8664458037694658  0.7498093696385908  0.1904750517597478
  0.4088026597643619  0.3107291092049138  0.6437197078415267
  0.5462074210030536  0.1031042448403454  0.3169516182670833
  0.9111893886281734  0.7379215934445469  0.8706692644856062
  0.8847764467672263  0.0345138071108693  0.0671272755259693
  0.3070190274439426  0.7819750085338200  0.5442869937828263
  0.9424271096859940  0.4051794850510930  0.2129068154350762
  0.9070323491309082  0.2488061776924297  0.6727141778913577
  0.0858898736206584  0.4537214526225029  0.8382332780558102
  0.5337613515330091  0.7564699166731259  0.0810018482746244
  0.2610290361801759  0.3656168214904341  0.7670035807141815
  0.5542755967149517  0.5819081746473955  0.1129716733320905
  0.4045357690592866  0.9885674656210952  0.3176966819758320
  0.5826808767795484  0.3890343291947573  0.1930262642394496
  0.4293846033115543  0.4810313368085914  0.4364418015054383
  0.4632677697863201  0.6564464612191827  0.9403977552911087
  0.9607063636129212  0.0372405857372229  0.8606066900937535
  0.7261982226576080  0.7730392047786765  0.4328271706298423
  0.4242720288738440  0.3908598321236738  0.8315357606512137
  0.2603687484576582  0.2539748023105446  0.4057431066498793
  0.8381830987055281  0.0918343507730413  0.8534159311631342
  0.9147097117372809  0.6939881870616702  0.0066722471499929
  0.7393569564211404  0.7355405549514842  0.5818925173617799
  0.7611313509224331  0.8432055162408076  0.3073646946367177
  0.0523979177744351  0.2699129785710355  0.8925974892943955
  0.7440896433757089  0.2600645284798446  0.5464817505113189
  0.1617505846310294  0.9740773395846531  0.1140023024199692
  0.9202465430557041  0.9872763389244597  0.5648995858751533
  0.7104574825673495  0.1947958729804995  0.2618346703004875
  0.8559908239167271  0.6739609883551836  0.5506767218636668
  0.1187261247147333  0.8386619791920964  0.4916824546824401
  0.9822051416738944  0.5727457521730628  0.5625464188116069
  0.8134212468961479  0.6636587619157694  0.4006329804131639
  0.0204052082493931  0.8931880437672461  0.1968814686219105
  0.5625727201963144  0.3342618292795336  0.3920324909126123
  0.3605718861306570  0.4954730982570510  0.6594701029365808
  0.1222852458617254  0.9942917739991231  0.8407184492048501
  0.8750043463274366  0.6776035152177968  0.7325222268813647
  0.6060271180157386  0.8425481435959625  0.6924446794020440
  0.2032346451825759  0.9002248570580136  0.3232690581376474
  0.9121793106670424  0.5026695360272129  0.9033496202715341
  0.7709954214408299  0.5593096696838344  0.0929059780077779
  0.4564568740809563  0.1937314336616325  0.4591184615276731
  0.1683659392849748  0.0756431831241784  0.6592247572855570
  0.6698024398865954  0.8946685870846380  0.4804909582572421
  0.6063897728344116  0.9288681090202076  0.8908962744234472
  0.6291544625292076  0.3051794694747798  0.7011982235910850
  0.0414684207882701  0.6414092617507166  0.8556437199284659
  0.9416631665635578  0.7739773651758668  0.5155149627834845
  0.3311911228218705  0.8914144591706332  0.8131355002979461
  0.1764950384363431  0.7684574343882247  0.9025988975875805
  0.3393296503989305  0.6610215025101169  0.8346241814713338
  0.0544287472714942  0.6717247848616736  0.4276641247507555
  0.2024191367800867  0.5524909571440446  0.5653059634669333
  0.4903675103405902  0.7807922916251187  0.7849800036005021
  0.6902863831609167  0.1667869145203653  0.0601831890866222
  0.9515665407991420  0.8663167302368251  0.3632884779728371
  0.8741455852321920  0.2333797778976816  0.1482415588154069
  0.0270865355383165  0.4666805246181411  0.3967839451778730
  0.9000958592305253  0.0316495188437784  0.2674798451566431
  0.3322204110998541  0.6833405236677095  0.1689193613599684
  0.4333584790984375  0.9434335545483918  0.6325452000940501
  0.1639738963255937  0.1790358518742394  0.0949613976730959
  0.2901507826236482  0.1099710718713069  0.9952857275692963
  0.0372766099303306  0.8674115046460784  0.6940480254584713
  0.3092115251756482  0.1603062925749867  0.2457547598055072
  0.8758780838810054  0.2119109095528771  0.3382016428062684
  0.7386656837163343  0.4301888500645461  0.9628028049995621
  0.7994375471073241  0.5149743558480679  0.6038713835747771
  0.1201440326233012  0.5119399728259566  0.2100524210582577
  0.6977926235314769  0.2163427178217177  0.8660894286742717
  0.9474143603147738  0.5955723831943445  0.2918283304551039
  0.6744144114325863  0.0009881886405481  0.2146477477711954
  0.6851485889170021  0.6533796475704037  0.2490280972201404
  0.8207186337457983  0.9108768483938121  0.9404789927501866
  0.5118924458549827  0.0425186237227564  0.1189861416300459
  0.5189587277447032  0.2172244208664509  0.7626207306549304
  0.8422067882131969  0.3379873226654055  0.8272090410435666
  0.1858801243804962  0.0874641284704438  0.4462865090340529
  0.0057002084661377  0.8781862182266167  0.9838917286713738
  0.5881294669401598  0.6795506301644139  0.4065915990020201
  0.8465666005109256  0.4844657992921100  0.4494187766985078
  0.4275638249994458  0.4926565764087556  0.0108230332397241
  0.7699524163697760  0.3272452658576910  0.1160272618014062
  0.2885544727002625  0.3933771423243684  0.3021899165809572
  0.6026384144699222  0.6533658363226635  0.6973770323550426
  0.6885643829760610  0.9778866755159754  0.0442473081364838
  0.1161164121502694  0.5202992151239201  0.0035400802402989
  0.3304117149849972  0.5082043202085700  0.1657695373907018
  0.0885638860240618  0.3007824490810478  0.3593404230619939
  0.7438525648786936  0.3360380586006926  0.3915983403826431
  0.1685145768012362  0.4032755413759261  0.4820222977047806
  0.4820593567456086  0.2125477055162790  0.1700996179985523
  0.9694067141652809  0.5746856864593326  0.1113301622782998
  0.4504236065594611  0.8550898507690334  0.9609413877755344
  0.2195599065472607  0.6553538479971479  0.3085293642988347
  0.7379503736943818  0.1257435964707838  0.6870519454844839
  0.2450755632305928  0.9210429020814246  0.6643342335228297
  0.0545074747025396  0.6906703439401483  0.6476118699163607
  0.1966333259815016  0.1777535787649995  0.8087041773651222
  0.2165412099696411  0.7579174910473867  0.7096469609088629
  0.0367151722378551  0.0183455468449480  0.4227841630525546
  0.0548773489371115  0.1552566270108215  0.5529641255599316
  0.3875309306193628  0.6554177581021463  0.4009697582400165
  0.9812009306704681  0.1655775431445363  0.1827176857757209
  0.2649704348554636  0.4790093697043432  0.9389341179544601
  0.3055294052962054  0.9914304854917759  0.4909280925837862
  0.0988334416745857  0.4106646802522533  0.6558419181060060
  0.1967559410091795  0.5606123615994747  0.7544491619086813
  0.8845935968860132  0.2116937315052994  0.9733222056539432
  0.2072622710937750  0.7413634739687680  0.0644347360012816
  0.0731121106954404  0.3273008122401393  0.1423692396233989
  0.8582425438291139  0.8412203833271263  0.6888787726187431
  0.4826053092144065  0.7490036917085874  0.5910927033070550
  0.6011814469145875  0.0073328752779034  0.5814538522474706
  0.5620197005763927  0.1150246344009318  0.9250551992079608
  0.3280787972158521  0.1383762725547868  0.5568023126694044
  0.5315310992763287  0.4887876577969976  0.7140056643509638
  0.5813806111495836  0.1653570883640754  0.5977460217378834
  0.7395193344859550  0.0381773111615900  0.3737578146422322
  0.4100439437192662  0.0263608973437144  0.9035564068802415
  0.2038943623359941  0.2629912541004202  0.6169971869287778
  0.1041707588607892  0.0597951588396270  0.2691451592460794
  0.5866125628403935  0.8266809063435687  0.2623920767401273
  0.4319258749987114  0.8871288818616634  0.1589650266725684
  0.3607383880503932  0.1068846405492465  0.7305741042083653
  0.4861676269964477  0.9066144166585346  0.4392334495557222
  0.9749062515905464  0.3815276979313111  0.9996080083503074
  0.2423360266457664  0.3669618827860219  0.1106538929777301
  0.7638510637218516  0.7750680221432091  0.0340478200898033
  0.6522725188784477  0.4993477589870849  0.4626186042447387
  0.2889397179494466  0.9151123509285952  0.0069061375993584
  0.6662919349490508  0.4079197812596718  0.6372000244062761
  0.7420330070186978  0.9587932572456381  0.7554566794889297
  0.2485253495435487  0.2847948746692950  0.9518447752101125
  0.9278418124698788  0.2811284718261859  0.4854120771289558
  0.7812962918663686  0.4932853903665020  0.2816220434424466
  0.9103209794024636  0.4829912161771830  0.7180580081604901
  0.6763810282200424  0.6600067774291816  0.9498781702853591
 
  0.00000000E+00  0.00000000E+00  0.00000000E+00
  0.00000000E+00  0.00000000E+00  0.00000000E+00
  0.00000000E+00  0.00000000E+00  0.00000000E+00
  0.00000000E+00  0.00000000E+00  0.00000000E+00
  0.00000000E+00  0.00000000E+00  0.00000000E+00
  0.00000000E+00  0.00000000E+00  0.00000000E+00
  0.00000000E+00  0.00000000E+00  0.00000000E+00
  0.00000000E+00  0.00000000E+00  0.00000000E+00
  0.00000000E+00  0.00000000E+00  0.00000000E+00
  0.00000000E+00  0.00000000E+00  0.00000000E+00
  0.00000000E+00  0.00000000E+00  0.00000000E+00
  0.00000000E+00  0.00000000E+00  0.00000000E+00
  0.00000000E+00  0.00000000E+00  0.00000000E+00
  0.00000000E+00  0.00000000E+00  0.00000000E+00
  0.00000000E+00  0.00000000E+00  0.00000000E+00
  0.00000000E+00  0.00000000E+00  0.00000000E+00
  0.00000000E+00  0.00000000E+00  0.00000000E+00
  0.00000000E+00  0.00000000E+00  0.00000000E+00
  0.00000000E+00  0.00000000E+00  0.00000000E+00
  0.00000000E+00  0.00000000E+00  0.00000000E+00
  0.00000000E+00  0.00000000E+00  0.00000000E+00
  0.00000000E+00  0.00000000E+00  0.00000000E+00
  0.00000000E+00  0.00000000E+00  0.00000000E+00
  0.00000000E+00  0.00000000E+00  0.00000000E+00
  0.00000000E+00  0.00000000E+00  0.00000000E+00
  0.00000000E+00  0.00000000E+00  0.00000000E+00
  0.00000000E+00  0.00000000E+00  0.00000000E+00
  0.00000000E+00  0.00000000E+00  0.00000000E+00
  0.00000000E+00  0.00000000E+00  0.00000000E+00
  0.00000000E+00  0.00000000E+00  0.00000000E+00
  0.00000000E+00  0.00000000E+00  0.00000000E+00
  0.00000000E+00  0.00000000E+00  0.00000000E+00
  0.00000000E+00  0.00000000E+00  0.00000000E+00
  0.00000000E+00  0.00000000E+00  0.00000000E+00
  0.00000000E+00  0.00000000E+00  0.00000000E+00
  0.00000000E+00  0.00000000E+00  0.00000000E+00
  0.00000000E+00  0.00000000E+00  0.00000000E+00
  0.00000000E+00  0.00000000E+00  0.00000000E+00
  0.00000000E+00  0.00000000E+00  0.00000000E+00
  0.00000000E+00  0.00000000E+00  0.00000000E+00
  0.00000000E+00  0.00000000E+00  0.00000000E+00
  0.00000000E+00  0.00000000E+00  0.00000000E+00
  0.00000000E+00  0.00000000E+00  0.00000000E+00
  0.00000000E+00  0.00000000E+00  0.00000000E+00
  0.00000000E+00  0.00000000E+00  0.00000000E+00
  0.00000000E+00  0.00000000E+00  0.00000000E+00
  0.00000000E+00  0.00000000E+00  0.00000000E+00
  0.00000000E+00  0.00000000E+00  0.00000000E+00
  0.00000000E+00  0.00000000E+00  0.00000000E+00
  0.00000000E+00  0.00000000E+00  0.00000000E+00
  0.00000000E+00  0.00000000E+00  0.00000000E+00
  0.00000000E+00  0.00000000E+00  0.00000000E+00
  0.00000000E+00  0.00000000E+00  0.00000000E+00
  0.00000000E+00  0.00000000E+00  0.00000000E+00
  0.00000000E+00  0.00000000E+00  0.00000000E+00
  0.00000000E+00  0.00000000E+00  0.00000000E+00
  0.00000000E+00  0.00000000E+00  0.00000000E+00
  0.00000000E+00  0.00000000E+00  0.00000000E+00
  0.00000000E+00  0.00000000E+00  0.00000000E+00
  0.00000000E+00  0.00000000E+00  0.00000000E+00
  0.00000000E+00  0.00000000E+00  0.00000000E+00
  0.00000000E+00  0.00000000E+00  0.00000000E+00
  0.00000000E+00  0.00000000E+00  0.00000000E+00
  0.00000000E+00  0.00000000E+00  0.00000000E+00
  0.00000000E+00  0.00000000E+00  0.00000000E+00
  0.00000000E+00  0.00000000E+00  0.00000000E+00
  0.00000000E+00  0.00000000E+00  0.00000000E+00
  0.00000000E+00  0.00000000E+00  0.00000000E+00
  0.00000000E+00  0.00000000E+00  0.00000000E+00
  0.00000000E+00  0.00000000E+00  0.00000000E+00
  0.00000000E+00  0.00000000E+00  0.00000000E+00
  0.00000000E+00  0.00000000E+00  0.00000000E+00
  0.00000000E+00  0.00000000E+00  0.00000000E+00
  0.00000000E+00  0.00000000E+00  0.00000000E+00
  0.00000000E+00  0.00000000E+00  0.00000000E+00
  0.00000000E+00  0.00000000E+00  0.00000000E+00
  0.00000000E+00  0.00000000E+00  0.00000000E+00
  0.00000000E+00  0.00000000E+00  0.00000000E+00
  0.00000000E+00  0.00000000E+00  0.00000000E+00
  0.00000000E+00  0.00000000E+00  0.00000000E+00
  0.00000000E+00  0.00000000E+00  0.00000000E+00
  0.00000000E+00  0.00000000E+00  0.00000000E+00
  0.00000000E+00  0.00000000E+00  0.00000000E+00
  0.00000000E+00  0.00000000E+00  0.00000000E+00
  0.00000000E+00  0.00000000E+00  0.00000000E+00
  0.00000000E+00  0.00000000E+00  0.00000000E+00
  0.00000000E+00  0.00000000E+00  0.00000000E+00
  0.00000000E+00  0.00000000E+00  0.00000000E+00
  0.00000000E+00  0.00000000E+00  0.00000000E+00
  0.00000000E+00  0.00000000E+00  0.00000000E+00
  0.00000000E+00  0.00000000E+00  0.00000000E+00
  0.00000000E+00  0.00000000E+00  0.00000000E+00
  0.00000000E+00  0.00000000E+00  0.00000000E+00
  0.00000000E+00  0.00000000E+00  0.00000000E+00
  0.00000000E+00  0.00000000E+00  0.00000000E+00
  0.00000000E+00  0.00000000E+00  0.00000000E+00
  0.00000000E+00  0.00000000E+00  0.00000000E+00
  0.00000000E+00  0.00000000E+00  0.00000000E+00
  0.00000000E+00  0.00000000E+00  0.00000000E+00
  0.00000000E+00  0.00000000E+00  0.00000000E+00
  0.00000000E+00  0.00000000E+00  0.00000000E+00
  0.00000000E+00  0.00000000E+00  0.00000000E+00
  0.00000000E+00  0.00000000E+00  0.00000000E+00
  0.00000000E+00  0.00000000E+00  0.00000000E+00
  0.00000000E+00  0.00000000E+00  0.00000000E+00
  0.00000000E+00  0.00000000E+00  0.00000000E+00
  0.00000000E+00  0.00000000E+00  0.00000000E+00
  0.00000000E+00  0.00000000E+00  0.00000000E+00
  0.00000000E+00  0.00000000E+00  0.00000000E+00
  0.00000000E+00  0.00000000E+00  0.00000000E+00
  0.00000000E+00  0.00000000E+00  0.00000000E+00
  0.00000000E+00  0.00000000E+00  0.00000000E+00
  0.00000000E+00  0.00000000E+00  0.00000000E+00
  0.00000000E+00  0.00000000E+00  0.00000000E+00
  0.00000000E+00  0.00000000E+00  0.00000000E+00
  0.00000000E+00  0.00000000E+00  0.00000000E+00
  0.00000000E+00  0.00000000E+00  0.00000000E+00
  0.00000000E+00  0.00000000E+00  0.00000000E+00
  0.00000000E+00  0.00000000E+00  0.00000000E+00
  0.00000000E+00  0.00000000E+00  0.00000000E+00
  0.00000000E+00  0.00000000E+00  0.00000000E+00
  0.00000000E+00  0.00000000E+00  0.00000000E+00
  0.00000000E+00  0.00000000E+00  0.00000000E+00
  0.00000000E+00  0.00000000E+00  0.00000000E+00
  0.00000000E+00  0.00000000E+00  0.00000000E+00
  0.00000000E+00  0.00000000E+00  0.00000000E+00
  0.00000000E+00  0.00000000E+00  0.00000000E+00
  0.00000000E+00  0.00000000E+00  0.00000000E+00
  0.00000000E+00  0.00000000E+00  0.00000000E+00
  0.00000000E+00  0.00000000E+00  0.00000000E+00
  0.00000000E+00  0.00000000E+00  0.00000000E+00
  0.00000000E+00  0.00000000E+00  0.00000000E+00
  0.00000000E+00  0.00000000E+00  0.00000000E+00
  0.00000000E+00  0.00000000E+00  0.00000000E+00
  0.00000000E+00  0.00000000E+00  0.00000000E+00
  0.00000000E+00  0.00000000E+00  0.00000000E+00
  0.00000000E+00  0.00000000E+00  0.00000000E+00
  0.00000000E+00  0.00000000E+00  0.00000000E+00
  0.00000000E+00  0.00000000E+00  0.00000000E+00
  0.00000000E+00  0.00000000E+00  0.00000000E+00
  0.00000000E+00  0.00000000E+00  0.00000000E+00
  0.00000000E+00  0.00000000E+00  0.00000000E+00
  0.00000000E+00  0.00000000E+00  0.00000000E+00
  0.00000000E+00  0.00000000E+00  0.00000000E+00
  0.00000000E+00  0.00000000E+00  0.00000000E+00
  0.00000000E+00  0.00000000E+00  0.00000000E+00
  0.00000000E+00  0.00000000E+00  0.00000000E+00
  0.00000000E+00  0.00000000E+00  0.00000000E+00
  0.00000000E+00  0.00000000E+00  0.00000000E+00
  0.00000000E+00  0.00000000E+00  0.00000000E+00
  0.00000000E+00  0.00000000E+00  0.00000000E+00
  0.00000000E+00  0.00000000E+00  0.00000000E+00
  0.00000000E+00  0.00000000E+00  0.00000000E+00
  0.00000000E+00  0.00000000E+00  0.00000000E+00
  0.00000000E+00  0.00000000E+00  0.00000000E+00
  0.00000000E+00  0.00000000E+00  0.00000000E+00
  0.00000000E+00  0.00000000E+00  0.00000000E+00
  0.00000000E+00  0.00000000E+00  0.00000000E+00
  0.00000000E+00  0.00000000E+00  0.00000000E+00
  0.00000000E+00  0.00000000E+00  0.00000000E+00
  0.00000000E+00  0.00000000E+00  0.00000000E+00
  0.00000000E+00  0.00000000E+00  0.00000000E+00
  0.00000000E+00  0.00000000E+00  0.00000000E+00
  0.00000000E+00  0.00000000E+00  0.00000000E+00
  0.00000000E+00  0.00000000E+00  0.00000000E+00
  0.00000000E+00  0.00000000E+00  0.00000000E+00
  0.00000000E+00  0.00000000E+00  0.00000000E+00
  0.00000000E+00  0.00000000E+00  0.00000000E+00
  0.00000000E+00  0.00000000E+00  0.00000000E+00
  0.00000000E+00  0.00000000E+00  0.00000000E+00
  0.00000000E+00  0.00000000E+00  0.00000000E+00
  0.00000000E+00  0.00000000E+00  0.00000000E+00
  0.00000000E+00  0.00000000E+00  0.00000000E+00
  0.00000000E+00  0.00000000E+00  0.00000000E+00
  0.00000000E+00  0.00000000E+00  0.00000000E+00
  0.00000000E+00  0.00000000E+00  0.00000000E+00
  0.00000000E+00  0.00000000E+00  0.00000000E+00
  0.00000000E+00  0.00000000E+00  0.00000000E+00
  0.00000000E+00  0.00000000E+00  0.00000000E+00
  0.00000000E+00  0.00000000E+00  0.00000000E+00
  0.00000000E+00  0.00000000E+00  0.00000000E+00
  0.00000000E+00  0.00000000E+00  0.00000000E+00
  0.00000000E+00  0.00000000E+00  0.00000000E+00
  0.00000000E+00  0.00000000E+00  0.00000000E+00
  0.00000000E+00  0.00000000E+00  0.00000000E+00
  0.00000000E+00  0.00000000E+00  0.00000000E+00
  0.00000000E+00  0.00000000E+00  0.00000000E+00
  0.00000000E+00  0.00000000E+00  0.00000000E+00
  0.00000000E+00  0.00000000E+00  0.00000000E+00
  0.00000000E+00  0.00000000E+00  0.00000000E+00
  0.00000000E+00  0.00000000E+00  0.00000000E+00
  0.00000000E+00  0.00000000E+00  0.00000000E+00
  0.00000000E+00  0.00000000E+00  0.00000000E+00
  0.00000000E+00  0.00000000E+00  0.00000000E+00
  0.00000000E+00  0.00000000E+00  0.00000000E+00
  0.00000000E+00  0.00000000E+00  0.00000000E+00
  0.00000000E+00  0.00000000E+00  0.00000000E+00
  0.00000000E+00  0.00000000E+00  0.00000000E+00
  0.00000000E+00  0.00000000E+00  0.00000000E+00
  0.00000000E+00  0.00000000E+00  0.00000000E+00
  0.00000000E+00  0.00000000E+00  0.00000000E+00
  0.00000000E+00  0.00000000E+00  0.00000000E+00
  0.00000000E+00  0.00000000E+00  0.00000000E+00
  0.00000000E+00  0.00000000E+00  0.00000000E+00
  0.00000000E+00  0.00000000E+00  0.00000000E+00
  0.00000000E+00  0.00000000E+00  0.00000000E+00
  0.00000000E+00  0.00000000E+00  0.00000000E+00
  0.00000000E+00  0.00000000E+00  0.00000000E+00
  0.00000000E+00  0.00000000E+00  0.00000000E+00
  0.00000000E+00  0.00000000E+00  0.00000000E+00
  0.00000000E+00  0.00000000E+00  0.00000000E+00
  0.00000000E+00  0.00000000E+00  0.00000000E+00
  0.00000000E+00  0.00000000E+00  0.00000000E+00
  0.00000000E+00  0.00000000E+00  0.00000000E+00
  0.00000000E+00  0.00000000E+00  0.00000000E+00
  0.00000000E+00  0.00000000E+00  0.00000000E+00
  0.00000000E+00  0.00000000E+00  0.00000000E+00
  0.00000000E+00  0.00000000E+00  0.00000000E+00
  0.00000000E+00  0.00000000E+00  0.00000000E+00
  0.00000000E+00  0.00000000E+00  0.00000000E+00
  0.00000000E+00  0.00000000E+00  0.00000000E+00
  0.00000000E+00  0.00000000E+00  0.00000000E+00
  0.00000000E+00  0.00000000E+00  0.00000000E+00
  0.00000000E+00  0.00000000E+00  0.00000000E+00
  0.00000000E+00  0.00000000E+00  0.00000000E+00
  0.00000000E+00  0.00000000E+00  0.00000000E+00
  0.00000000E+00  0.00000000E+00  0.00000000E+00
  0.00000000E+00  0.00000000E+00  0.00000000E+00
  0.00000000E+00  0.00000000E+00  0.00000000E+00
  0.00000000E+00  0.00000000E+00  0.00000000E+00
  0.00000000E+00  0.00000000E+00  0.00000000E+00
  0.00000000E+00  0.00000000E+00  0.00000000E+00