Amorphous Sb                            
   1.00000000000000     
    19.7867014927297191    0.0000000000000000    0.0000000000000000
     0.0000000000000000   19.7867014927297191    0.0000000000000000
     0.0000000000000000    0.0000000000000000   19.7867014927297191
   Si   Se
   150   150
Direct
  0.0270626388593074  0.2312961308533246  0.9890163894564669
  0.1875713177245301  0.5376923447906417  0.8059549031420908
  0.9397017651813981  0.4452555029021166  0.5770750308185080
  0.9221116450013707  0.0027400290278091  0.0493314942487556
  0.9842095840559318  0.8703998964352417  0.4090674351004223
  0.3527521111967380  0.8319412606211741  0.5680411311082525
  0.5720678041666549  0.1443587485082718  0.9665914618857842
  0.2666561014793453  0.5867479160696699  0.3310002076345063
  0.8053486179266067  0.4062067623792460  0.1719604690116330
  0.5044738048104002  0.2876114433630838  0.6815695542736590
  0.1868062522862447  0.2795299691719780  0.4364199339012103
  0.8332111978528686  0.4533729257786530  0.4144587725092761
  0.2638305697889168  0.5432788128352447  0.1731709824365223
  0.6152505637023992  0.9789426673206975  0.0642734579171991
  0.4389843205006809  0.9346937564018893  0.1363711496579996
  0.5703406347901219  0.6640152331819623  0.5912465580208396
  0.4064692585983093  0.5946607380247113  0.6477099526055979
  0.8127471869587751  0.9806386875142077  0.0074836983292733
  0.0737410142811801  0.7596039766759208  0.6622810153017051
  0.6507093659614425  0.6284192709260487  0.7873582568359430
  0.7580981226630017  0.8318142674191057  0.8218150622825438
  0.3342713396964146  0.3322231188536350  0.4283000776875906
  0.4965417879292550  0.3361984112598795  0.4621498772342061
  0.6487693002367982  0.2426594715999582  0.5010219995655750
  0.7985911353663280  0.3413734786239133  0.3890741728050514
  0.6415574293066637  0.1247770709358373  0.4843870267762844
  0.9638354081669301  0.3817964463381551  0.0986858645378324
  0.2550328786163161  0.5773812764516317  0.0559216830073914
  0.0175122036494696  0.1484460667507164  0.0784376733730836
  0.1865591916169548  0.4602308262900490  0.4810284865116611
  0.5917578181375398  0.7038174797464295  0.2030730892113035
  0.6282199036953384  0.5953424179478730  0.5037744235984064
  0.7266419864375959  0.1686246445588195  0.3483796679810788
  0.8812367281638348  0.7162082965262802  0.3641951984880816
  0.9643390034664612  0.9044177677876813  0.1062176577565694
  0.9136094075400775  0.1396756921620099  0.8285717460419085
  0.6852740728570911  0.8839744329285638  0.6931887074382647
  0.3158651872806164  0.6342684149107614  0.2297810485195267
  0.1356634085463367  0.5621701272454444  0.4404587325300275
  0.9557183433728331  0.3903331069954773  0.7520910808221639
  0.6286766447935208  0.9462614534008030  0.1841919963329574
  0.7203620766074821  0.2829537570685999  0.9492703833204013
  0.3065993915710669  0.4448066916033906  0.4635135686506629
  0.0777321361932723  0.0166662321158032  0.5909134493235457
  0.1230538766973001  0.3018679643551818  0.0183380327008471
  0.9732621431887385  0.8177548994765159  0.8446656818083492
  0.6643039796030262  0.8751716029186982  0.5772012551351582
  0.0486687392261174  0.4447270209612689  0.6236739877057925
  0.6891787473084531  0.5518088861219338  0.8730240701115854
  0.6027393955385369  0.9213260905933007  0.9555608438582127
  0.7892307551849386  0.5182687024685579  0.6103787882653926
  0.7243632702721601  0.0273245487636817  0.0746817086643354
  0.8341430680539815 -0.0343436793079516  0.2103925062299166
  0.1058180384206802  0.0888068505436527  0.8934438522481247
  0.7427162577385586  0.4791927882184316  0.2520783702717571
  0.9825773630436120  0.5694998417803563  0.4457443362506343
  0.9971081941296958  0.7197017563623653  0.9086641610396800
  0.5923996079734327  0.4569637166524663  0.1369776248261098
  0.8630148283044439  0.0627296693678123  0.5533631412232755
  0.3288039599750510  0.5623160736774088  0.9153635191364652
  0.9779779456186238  0.7773844795179291  0.3353661167504756
  0.0656248985953846  0.9486579935250543  0.3692400440453891
  0.3585904622702661  0.9860751726702871  0.3016516656233003
  0.5583107256819433  0.1149138223061608  0.6159993660670898
  0.5949698364567354  0.7771124728333145  0.8846320528511998
  0.1321104783138460  0.0942233248193165  0.7771606812789982
  0.7547754238132153  0.4038787996310688  0.7637563830505067
  0.6522175864045239  0.3394829842491843  0.7577976310493266
  0.5513523717342694  0.0904052342929523  0.7379888025490001
  0.5041082067678072  0.3205595987017379  0.0822322262059383
  0.5732269912461952  0.9916406226403874  0.2830956927552784
  0.6863386328492217  0.9269669518035533  0.8626851591485810
  0.0396917442564112  0.6722691189037365  0.0169408784310177
  0.7401987339145540  0.4437938673054560  0.8733491598135920
  0.0091464601422153  0.4951824799159819  0.7271654075370922
  0.6830686059535537  0.3080696794720849  0.0641512263066482
  0.7678694494318469  0.1706326253363827  0.9522733069495188
  0.3839845540913742  0.2660446960836547  0.6673183489118459
  0.1707112356806683  0.5559259745529560  0.9683706200372121
  0.3337011949690430  0.1787926105143171  0.5988218602668299
  0.3090753317601973  0.8806511187110017  0.2784771194035234
  0.1096146422870259  0.8076456143265686  0.2255188522909662
  0.6766536222381013  0.7440863541624881  0.8069329285510574
  0.1325240497767985  0.0757552153479440  0.5037185863689055
  0.4632081678614627  0.9941028798678386  0.2402330616481445
  0.8439949772139589  0.9490733062019733  0.5082162113078563
  0.1609184083386644  0.9947786179344222  0.9514353919171653
  0.0706475756432968  0.4157861046304583  0.8820135076249379
  0.3439397223508743  0.0414084789034939  0.9009965039798485
  0.8692819756203236  0.2194053736439396  0.7440197573479532
  0.0246466509221833  0.2113328624739603  0.4581185650772822
  0.0389676612802974  0.6620172796428623  0.8150626463512846
  0.1820196124243628  0.0825722419347470  0.0284227131820365
  0.1413573687021435  0.2391756667756461  0.1246890202562313
  0.0211033945618117  0.1748846577333174  0.8742415709303903
  0.8494741442794880  0.3398387938797802  0.7280501499659495
  0.5152461396635862  0.6960489588123195  0.9059672169039947
  0.4670199016445268  0.0898492924131825  0.4029217715441362
  0.9013957126096120  0.2545633376097641  0.5722217449824588
  0.2446058912569252  0.0923417779080067  0.7395882547795212
  0.2252098929239274  0.3811706842900757  0.1352455082031343
  0.6047351261489687  0.6235591625548730  0.0457285462577037
  0.5336075476965799  0.0857625701993139  0.4990080766760209
  0.0717602944238962  0.4048560156522163  0.0549409423559272
  0.4852519994835900  0.9115157227356441  0.9242720637878068
  0.2910310124277571  0.7076492357629801  0.7696819303401525
  0.8477219547493390  0.1753262390399533  0.5002336662834123
  0.0714274434995629  0.4913149130685598  0.9741330541927314
  0.5843619009065198  0.8294707888017356  0.1985854994401605
  0.7577327148623212  0.5853036445849013  0.3176092600947716
  0.1411654731556658  0.6264598740826565  0.8687702163852961
  0.2172099823834338  0.0554279059025108  0.1991215473392350
  0.3126182995181188  0.6794863099277217  0.9327267817594750
  0.8701963257211029  0.9022296278885288  0.3991405863793702
  0.8890242528870638  0.3826232082941268  0.2543050342593461
  0.4048626376843728  0.7762942219667852  0.2259168976280952
  0.3456897606146235  0.8676910967637854  0.1669293221290852
  0.1923296293316212  0.8826394708059958  0.2713476590207806
  0.3848818360805448  0.2337647383637036  0.7866820090646107
  0.2939951109810107  0.0722641934522770  0.3619549526441634
  0.0150596844008342  0.8368606492337539  0.0216176035359057
  0.7727527122718351  0.0039273764517717  0.8957102830794508
  0.6539441082252490  0.7535337896826041  0.5709649246480570
  0.8838476068702191  0.8309423663560571  0.1570243401808434
  0.2222197296281422  0.7383813533720593  0.6786813825734536
  0.9865122072725736  0.7492834265798950  0.7448443680052548
  0.5776863416605724  0.2350930971324520  0.6024106308552464
  0.3936799820678321  0.4821542095572696  0.5396143822120264
  0.4458818220736839  0.9902164878146864  0.0272095178812953
  0.2938555780619644  0.2662761544085022  0.5207615979069457
  0.6074655570445990  0.6643884486569539  0.4096261995437407
  0.0537592078161747  0.9074581237262811  0.1872428525275124
  0.4539608138399286  0.0065835167302349  0.8611528012886099
  0.8617736376015565  0.8652358914379319  0.8730007881798065
  0.7589674721506379  0.5471102154476234  0.4333302994501872
  0.7566585046905278  0.2404194019429193  0.4452362005262528
  0.9441708388085852  0.7369560748947411  0.0333115130095516
  0.5023169191885473  0.7148884626234735  0.4966969485471853
  0.1465657732970825  0.7347299912973836  0.1373132160754926
  0.5437087408852478  0.9711284059895324  0.4612064277906146
  0.1694404359262638  0.9479333419511573  0.1739317224229244
  0.0589404460189218  0.9243318563031624  0.9500603515678386
  0.7388449510618387  0.6031519951912088  0.5400074101988762
 -0.0010635123933927  0.8572362197300221  0.5264923071550096
  0.8598757341210301  0.3599486414879132  0.6111946596922604
  0.3364736383581569  0.6004183096779894  0.7460616843657407
  0.4064892023854521  0.7478818535859806  0.8948154993324631
  0.5489636831584963  0.1032235567785892  0.3113933347421796
  0.4323827869929006  0.2797404485711645  0.9620902582929675
  0.3357730948591173  0.9776383377017521  0.6158105391636143
  0.0703822017779465  0.7217570775190144  0.2957960793721300
  0.7923670316411549  0.8475859102746486  0.7100870598591057
  0.1360584414583806  0.4570355000114854  0.1373741345877950
  0.7125361856035182  0.3848750347256246  0.3194176940793144
  0.7652163726128262  0.7133350373756691  0.5670660716284729
  0.8786954734922059  0.7201774652641216  0.1266288430357822
  0.1146676838478904  0.4491904711385744  0.7750813343267454
  0.2403031217721645  0.4820370743269398  0.8984351802582554
  0.2188135726045924  0.7210875460181603  0.8665995003039429
  0.4265614150980956  0.6617887483339951  0.2059617795200590
  0.6226917529827467  0.7838279011261702  0.7088292902045162
  0.9367047315104434  0.8556488525723966  0.2596526145143500
  0.6748602215079730  0.6776960344088521  0.1214432544658132
  0.8752506235677250  0.4602778085055354  0.0937132203514927
  0.5348278966520222  0.0680312548504906  0.0642087990281918
  0.0461341389104487  0.9970419296292913  0.2644694646663507
  0.2424972877234150  0.7263434742910703  0.2087915348194742
  0.4323937074305576  0.3350395225789159  0.3658752797378421
  0.4696448428824224  0.2434205574360797  0.5231278625218333
  0.6043272475433856  0.7732545324843488  0.4542767599099047
  0.8079845540955167  0.7987057759677200  0.4018418076643480
  0.3549668035110526  0.5214356997155974  0.0198939029743271
  0.6519003704057207  0.4947830485906121  0.4451003056261953
  0.8853394954338376  0.6991130700689286  0.9399629544145272
  0.3038409760821369  0.3377252309909436  0.6175043715142048
  0.1706603339313920  0.9031931712863276  0.3838084171265974
  0.2834910513778672  0.6929142633998261  0.0441481668436843
  0.9171478708309220  0.1006149869764262  0.1133116419674579
  0.2644799205461763  0.2872387951915084  0.3489337167750426
  0.6068414495736988  0.3262526445681977  0.4311036691642613
  0.7286463312145494  0.9234622773839728  0.4945932125811682
  0.5101193671817822  0.3650130187873788  0.9747006060423167
  0.0392491797047518  0.3421679373526014  0.6823233099859215
  0.6697177139417325  0.0821171244386780  0.5912381465452249
  0.3787156551953195  0.5990213163172723  0.5345452294907316
  0.3433831826718783  0.7795905934925612  0.3271269092438953
  0.5051936173556724  0.3905967542166688  0.1744573214317113
  0.7779822320336366  0.1655758831842854  0.6842471092697201
  0.2132448416442973  0.6465978627368721  0.4174715006124864
  0.8826597235869157  0.4874023633580888  0.3101082283454779
  0.9828296351991113  0.3074681110235006  0.5065088303769735
  0.7985003292546528  0.3711260563881454  0.9447174992477992
  0.0527429349869775  0.5555230777511151  0.3550655774923590
  0.4769182229723381  0.1118337441082657  0.2199499159661005
  0.1375650786009386  0.6589096439272384  0.6680460102778832
  0.3619370648680806  0.3122767272366519  0.8721269760909741
  0.7248316591449742  0.0263543814169589  0.1950413001248299
  0.1960347656602306  0.1008558221279132  0.3036722193507840
  0.0989167337357859  0.9083121598419445  0.5563815803484243
  0.0666280925970692  0.8883327635097646  0.8399175205418185
  0.9458459272470076  0.4542603508922686  0.4581562955396611
  0.2848224624166639  0.9183574243624915  0.5283806930222478
  0.6553497742842156  0.9763504611578543  0.7570001782548916
  0.3295974796680999  0.0371264098661774  0.1936189640566417
  0.8297616064381588  0.9859094315951492  0.3311758906862426
  0.5003614523899396  0.2085233635088976  0.7733964793131423
  0.1829298854723347  0.5433519280071151  0.2599229418099432
  0.8877967249035430  0.2968942930087804  0.3299008035787263
  0.9299291690632709  0.2891823816253732  0.0340149105043514
  0.1222057113914036  0.7812408972994178  0.0283612489291148
  0.1630768403671516  0.4436972706911695  0.5956041196577129
  0.6780711928387830  0.2729538249691666  0.6677776541171491
  0.9645142538280309  0.3707501576286667  0.8667377626219972
  0.7666550936698487  0.2971599477683021  0.1470495534534511
  0.0614782342790687  0.5846314092211325  0.5295250053264252
  0.6071265070380827  0.9243286873681245  0.3726860440972726
  0.0945239228456800  0.2051433754778393  0.7826072534381486
  0.5344052651683940  0.5365903220166588  0.0766637061256127
  0.6172529715265892  0.1969259281703891  0.3068604041915367
  0.0355298556110540  0.7497485978854793  0.5515554492135930
  0.2465867903020794  0.0799123640845720  0.4744250813907488
  0.9555688500493648  0.2084772321384454  0.6651193481170922
  0.0808414047707208  0.0491758831932081  0.0758434256856466
  0.5261872450817850  0.8505473409643983  0.8263460956479862
  0.8034427357893489  0.1539521324036810  0.2701516123311259
  0.6230041622076645  0.4567008001530394  0.8787258729459566
  0.0480156094592517  0.0473966015183269  0.4281526171141547
  0.5520587145210145  0.9030802381473421  0.5576311188745147
  0.7762867169997795  0.8630994991824291  0.1786130641554445
  0.8249954883148536  0.0542293541715094  0.6650021596147699
  0.5048360543313781  0.6803469570773288  0.0202136936028459
  0.2511185757312894  0.5296390320361902  0.7109182238114339
  0.9040384182562647  0.5505119976398157  0.6128051714871435
  0.0995569754571234  0.2264706195372541  0.3715182173911387
  0.4952824901965894  0.8320390841415715  0.2796604908235523
  0.7143372350522719  0.0714372788940093  0.4117579553978170
  0.8320103849862898  0.8644028934783031  0.9897133756821085
  0.4931311615611425  0.6491113160225623  0.3968267837300728
  0.4818461661739853  0.6771160750787283  0.6720238922634612
  0.2411803560020339  0.3388192202112604  0.0302603257053883
  0.6405391162527022  0.5960204741970913  0.6745273871760518
  0.3746464321497713  0.7848175074722626  0.7877892107076774
  0.8966249286415957  0.6468878760452045  0.4594289452486605
  0.6323142609986417  0.5125451121543551  0.2288784593833116
  0.5607515814973475  0.0521101800447374  0.8866661150320683
  0.3989417856975849  0.2713156319497226  0.0753782337148381
  0.1823496344203612  0.1656704910215451  0.9477108858779925
  0.3729751058892604  0.1571402829686489  0.3818763260245271
  0.7368597992609283  0.1434762564808230  0.0621862225361655
  0.3188902054286198  0.4400073755921171  0.1734534347895928
  0.3457852993027848  0.0580682803432971  0.0158424697538941
  0.4081284999999970  0.8917126632162465  0.6511581810367053
  0.7744786900878511  0.5126980789446224  0.7265529555911552
  0.5409717151035782  0.6110293658361857  0.8308081281381854
  0.9299424479717255  0.1549054140243625  0.4170446212166855
  0.4532645425809536  0.0235601071942458  0.7449408299377233
  0.6731922634329622  0.6758157230068664  0.3116923492049822
  0.1474928144790508  0.3334655409174929  0.8973550133943247
  0.4116992279265082  0.4769669392969515  0.6559047987036253
  0.3999353296731628  0.5418798265920072  0.8276085650939162
  0.8606450298127468  0.9737729436796879  0.8252040658535476
  0.1268073464092340  0.3816453091483741  0.4231741370895509
  0.6944609029017619  0.6213927422083482  0.9680498657850538
  0.7239225861915640  0.1066733179209737  0.8657273778991509
  0.2454418671793788  0.8857607566156624  0.1024131371434909
  0.4298035046431261  0.9768571324610734  0.4216116717296455
  0.0962378532726304  0.1806225517857245  0.5444996606748117
  0.1610055393324539  0.8335621071825347  0.6955906114130213
  0.9944593577622753  0.3704071130357737  0.2108227432159095
  0.8821043895035425  0.1591336414196127  0.9436222475052667
  0.1015852937794186  0.6290168080117476  0.1105557832160236
  0.8991606405851321  0.8767209437839178  0.5831863824259986
  0.3112406619339975  0.1422678400362898  0.8279490801567709
  0.9731624928975551  0.5658916218611335  0.8115303192202912
  0.5173980060806934  0.8493031704247579  0.1019735346476507
  0.8920825913408129  0.7056804652389287  0.7101409765820001
  0.6685286849073503  0.4236683012170000  0.0569539700811280
  0.7688146194359233  0.4141324187197222  0.5585106058882110
  0.2295816302472128  0.1473471878822313  0.1183503228154945
  0.5904647970537944  0.2440437508366219  0.1006478458909690
  0.0492394640723609  0.1974088281084645  0.1796435340081101
  0.2304425388865272  0.1667704372756101  0.6527907369788863
  0.5453319348905016  0.3848313771897405  0.7354495789817918
  0.9681806426720567  0.0515203807855790  0.6096684950737448
  0.4606148672199463  0.1733359778498881  0.9309410079706859
  0.4001922830414772  0.8392700253236846  0.9675726836710686
  0.8452837473025496  0.6515671773561907  0.2737754998768168
  0.2521050980680958  0.9680309488279606  0.8783013761757487
  0.3918652750490814  0.0770781930964010  0.5829626946539517
  0.2734110383465858  0.9832106411395430  0.7133433748426846
  0.4166318998583010  0.7956462765615757  0.4772639751430047
  0.4994237295639521  0.4454497356688377  0.5047037146012607
  0.1960895810951534  0.2966384447973660  0.2092189601501788
  0.9842781124155583  0.5646587816995837  0.9936077178243442
  0.2902951200572524  0.7338249067842341  0.5844000599780936
  0.3444359893285049  0.5078851133877585  0.3697998355614248
  0.9747873725523712  0.0055894645782202  0.9437690810955338
  0.0860459713867661  0.0088852758004914  0.7110802382765463
  0.6431430289796408  0.8132127141178764  0.9841141896498456
  0.6423951767661629  0.2739037786482209  0.8612969243754881
 
  0.00000000E+00  0.00000000E+00  0.00000000E+00
  0.00000000E+00  0.00000000E+00  0.00000000E+00
  0.00000000E+00  0.00000000E+00  0.00000000E+00
  0.00000000E+00  0.00000000E+00  0.00000000E+00
  0.00000000E+00  0.00000000E+00  0.00000000E+00
  0.00000000E+00  0.00000000E+00  0.00000000E+00
  0.00000000E+00  0.00000000E+00  0.00000000E+00
  0.00000000E+00  0.00000000E+00  0.00000000E+00
  0.00000000E+00  0.00000000E+00  0.00000000E+00
  0.00000000E+00  0.00000000E+00  0.00000000E+00
  0.00000000E+00  0.00000000E+00  0.00000000E+00
  0.00000000E+00  0.00000000E+00  0.00000000E+00
  0.00000000E+00  0.00000000E+00  0.00000000E+00
  0.00000000E+00  0.00000000E+00  0.00000000E+00
  0.00000000E+00  0.00000000E+00  0.00000000E+00
  0.00000000E+00  0.00000000E+00  0.00000000E+00
  0.00000000E+00  0.00000000E+00  0.00000000E+00
  0.00000000E+00  0.00000000E+00  0.00000000E+00
  0.00000000E+00  0.00000000E+00  0.00000000E+00
  0.00000000E+00  0.00000000E+00  0.00000000E+00
  0.00000000E+00  0.00000000E+00  0.00000000E+00
  0.00000000E+00  0.00000000E+00  0.00000000E+00
  0.00000000E+00  0.00000000E+00  0.00000000E+00
  0.00000000E+00  0.00000000E+00  0.00000000E+00
  0.00000000E+00  0.00000000E+00  0.00000000E+00
  0.00000000E+00  0.00000000E+00  0.00000000E+00
  0.00000000E+00  0.00000000E+00  0.00000000E+00
  0.00000000E+00  0.00000000E+00  0.00000000E+00
  0.00000000E+00  0.00000000E+00  0.00000000E+00
  0.00000000E+00  0.00000000E+00  0.00000000E+00
  0.00000000E+00  0.00000000E+00  0.00000000E+00
  0.00000000E+00  0.00000000E+00  0.00000000E+00
  0.00000000E+00  0.00000000E+00  0.00000000E+00
  0.00000000E+00  0.00000000E+00  0.00000000E+00
  0.00000000E+00  0.00000000E+00  0.00000000E+00
  0.00000000E+00  0.00000000E+00  0.00000000E+00
  0.00000000E+00  0.00000000E+00  0.00000000E+00
  0.00000000E+00  0.00000000E+00  0.00000000E+00
  0.00000000E+00  0.00000000E+00  0.00000000E+00
  0.00000000E+00  0.00000000E+00  0.00000000E+00
  0.00000000E+00  0.00000000E+00  0.00000000E+00
  0.00000000E+00  0.00000000E+00  0.00000000E+00
  0.00000000E+00  0.00000000E+00  0.00000000E+00
  0.00000000E+00  0.00000000E+00  0.00000000E+00
  0.00000000E+00  0.00000000E+00  0.00000000E+00
  0.00000000E+00  0.00000000E+00  0.00000000E+00
  0.00000000E+00  0.00000000E+00  0.00000000E+00
  0.00000000E+00  0.00000000E+00  0.00000000E+00
  0.00000000E+00  0.00000000E+00  0.00000000E+00
  0.00000000E+00  0.00000000E+00  0.00000000E+00
  0.00000000E+00  0.00000000E+00  0.00000000E+00
  0.00000000E+00  0.00000000E+00  0.00000000E+00
  0.00000000E+00  0.00000000E+00  0.00000000E+00
  0.00000000E+00  0.00000000E+00  0.00000000E+00
  0.00000000E+00  0.00000000E+00  0.00000000E+00
  0.00000000E+00  0.00000000E+00  0.00000000E+00
  0.00000000E+00  0.00000000E+00  0.00000000E+00
  0.00000000E+00  0.00000000E+00  0.00000000E+00
  0.00000000E+00  0.00000000E+00  0.00000000E+00
  0.00000000E+00  0.00000000E+00  0.00000000E+00
  0.00000000E+00  0.00000000E+00  0.00000000E+00
  0.00000000E+00  0.00000000E+00  0.00000000E+00
  0.00000000E+00  0.00000000E+00  0.00000000E+00
  0.00000000E+00  0.00000000E+00  0.00000000E+00
  0.00000000E+00  0.00000000E+00  0.00000000E+00
  0.00000000E+00  0.00000000E+00  0.00000000E+00
  0.00000000E+00  0.00000000E+00  0.00000000E+00
  0.00000000E+00  0.00000000E+00  0.00000000E+00
  0.00000000E+00  0.00000000E+00  0.00000000E+00
  0.00000000E+00  0.00000000E+00  0.00000000E+00
  0.00000000E+00  0.00000000E+00  0.00000000E+00
  0.00000000E+00  0.00000000E+00  0.00000000E+00
  0.00000000E+00  0.00000000E+00  0.00000000E+00
  0.00000000E+00  0.00000000E+00  0.00000000E+00
  0.00000000E+00  0.00000000E+00  0.00000000E+00
  0.00000000E+00  0.00000000E+00  0.00000000E+00
  0.00000000E+00  0.00000000E+00  0.00000000E+00
  0.00000000E+00  0.00000000E+00  0.00000000E+00
  0.00000000E+00  0.00000000E+00  0.00000000E+00
  0.00000000E+00  0.00000000E+00  0.00000000E+00
  0.00000000E+00  0.00000000E+00  0.00000000E+00
  0.00000000E+00  0.00000000E+00  0.00000000E+00
  0.00000000E+00  0.00000000E+00  0.00000000E+00
  0.00000000E+00  0.00000000E+00  0.00000000E+00
  0.00000000E+00  0.00000000E+00  0.00000000E+00
  0.00000000E+00  0.00000000E+00  0.00000000E+00
  0.00000000E+00  0.00000000E+00  0.00000000E+00
  0.00000000E+00  0.00000000E+00  0.00000000E+00
  0.00000000E+00  0.00000000E+00  0.00000000E+00
  0.00000000E+00  0.00000000E+00  0.00000000E+00
  0.00000000E+00  0.00000000E+00  0.00000000E+00
  0.00000000E+00  0.00000000E+00  0.00000000E+00
  0.00000000E+00  0.00000000E+00  0.00000000E+00
  0.00000000E+00  0.00000000E+00  0.00000000E+00
  0.00000000E+00  0.00000000E+00  0.00000000E+00
  0.00000000E+00  0.00000000E+00  0.00000000E+00
  0.00000000E+00  0.00000000E+00  0.00000000E+00
  0.00000000E+00  0.00000000E+00  0.00000000E+00
  0.00000000E+00  0.00000000E+00  0.00000000E+00
  0.00000000E+00  0.00000000E+00  0.00000000E+00
  0.00000000E+00  0.00000000E+00  0.00000000E+00
  0.00000000E+00  0.00000000E+00  0.00000000E+00
  0.00000000E+00  0.00000000E+00  0.00000000E+00
  0.00000000E+00  0.00000000E+00  0.00000000E+00
  0.00000000E+00  0.00000000E+00  0.00000000E+00
  0.00000000E+00  0.00000000E+00  0.00000000E+00
  0.00000000E+00  0.00000000E+00  0.00000000E+00
  0.00000000E+00  0.00000000E+00  0.00000000E+00
  0.00000000E+00  0.00000000E+00  0.00000000E+00
  0.00000000E+00  0.00000000E+00  0.00000000E+00
  0.00000000E+00  0.00000000E+00  0.00000000E+00
  0.00000000E+00  0.00000000E+00  0.00000000E+00
  0.00000000E+00  0.00000000E+00  0.00000000E+00
  0.00000000E+00  0.00000000E+00  0.00000000E+00
  0.00000000E+00  0.00000000E+00  0.00000000E+00
  0.00000000E+00  0.00000000E+00  0.00000000E+00
  0.00000000E+00  0.00000000E+00  0.00000000E+00
  0.00000000E+00  0.00000000E+00  0.00000000E+00
  0.00000000E+00  0.00000000E+00  0.00000000E+00
  0.00000000E+00  0.00000000E+00  0.00000000E+00
  0.00000000E+00  0.00000000E+00  0.00000000E+00
  0.00000000E+00  0.00000000E+00  0.00000000E+00
  0.00000000E+00  0.00000000E+00  0.00000000E+00
  0.00000000E+00  0.00000000E+00  0.00000000E+00
  0.00000000E+00  0.00000000E+00  0.00000000E+00
  0.00000000E+00  0.00000000E+00  0.00000000E+00
  0.00000000E+00  0.00000000E+00  0.00000000E+00
  0.00000000E+00  0.00000000E+00  0.00000000E+00
  0.00000000E+00  0.00000000E+00  0.00000000E+00
  0.00000000E+00  0.00000000E+00  0.00000000E+00
  0.00000000E+00  0.00000000E+00  0.00000000E+00
  0.00000000E+00  0.00000000E+00  0.00000000E+00
  0.00000000E+00  0.00000000E+00  0.00000000E+00
  0.00000000E+00  0.00000000E+00  0.00000000E+00
  0.00000000E+00  0.00000000E+00  0.00000000E+00
  0.00000000E+00  0.00000000E+00  0.00000000E+00
  0.00000000E+00  0.00000000E+00  0.00000000E+00
  0.00000000E+00  0.00000000E+00  0.00000000E+00
  0.00000000E+00  0.00000000E+00  0.00000000E+00
  0.00000000E+00  0.00000000E+00  0.00000000E+00
  0.00000000E+00  0.00000000E+00  0.00000000E+00
  0.00000000E+00  0.00000000E+00  0.00000000E+00
  0.00000000E+00  0.00000000E+00  0.00000000E+00
  0.00000000E+00  0.00000000E+00  0.00000000E+00
  0.00000000E+00  0.00000000E+00  0.00000000E+00
  0.00000000E+00  0.00000000E+00  0.00000000E+00
  0.00000000E+00  0.00000000E+00  0.00000000E+00
  0.00000000E+00  0.00000000E+00  0.00000000E+00
  0.00000000E+00  0.00000000E+00  0.00000000E+00
  0.00000000E+00  0.00000000E+00  0.00000000E+00
  0.00000000E+00  0.00000000E+00  0.00000000E+00
  0.00000000E+00  0.00000000E+00  0.00000000E+00
  0.00000000E+00  0.00000000E+00  0.00000000E+00
  0.00000000E+00  0.00000000E+00  0.00000000E+00
  0.00000000E+00  0.00000000E+00  0.00000000E+00
  0.00000000E+00  0.00000000E+00  0.00000000E+00
  0.00000000E+00  0.00000000E+00  0.00000000E+00
  0.00000000E+00  0.00000000E+00  0.00000000E+00
  0.00000000E+00  0.00000000E+00  0.00000000E+00
  0.00000000E+00  0.00000000E+00  0.00000000E+00
  0.00000000E+00  0.00000000E+00  0.00000000E+00
  0.00000000E+00  0.00000000E+00  0.00000000E+00
  0.00000000E+00  0.00000000E+00  0.00000000E+00
  0.00000000E+00  0.00000000E+00  0.00000000E+00
  0.00000000E+00  0.00000000E+00  0.00000000E+00
  0.00000000E+00  0.00000000E+00  0.00000000E+00
  0.00000000E+00  0.00000000E+00  0.00000000E+00
  0.00000000E+00  0.00000000E+00  0.00000000E+00
  0.00000000E+00  0.00000000E+00  0.00000000E+00
  0.00000000E+00  0.00000000E+00  0.00000000E+00
  0.00000000E+00  0.00000000E+00  0.00000000E+00
  0.00000000E+00  0.00000000E+00  0.00000000E+00
  0.00000000E+00  0.00000000E+00  0.00000000E+00
  0.00000000E+00  0.00000000E+00  0.00000000E+00
  0.00000000E+00  0.00000000E+00  0.00000000E+00
  0.00000000E+00  0.00000000E+00  0.00000000E+00
  0.00000000E+00  0.00000000E+00  0.00000000E+00
  0.00000000E+00  0.00000000E+00  0.00000000E+00
  0.00000000E+00  0.00000000E+00  0.00000000E+00
  0.00000000E+00  0.00000000E+00  0.00000000E+00
  0.00000000E+00  0.00000000E+00  0.00000000E+00
  0.00000000E+00  0.00000000E+00  0.00000000E+00
  0.00000000E+00  0.00000000E+00  0.00000000E+00
  0.00000000E+00  0.00000000E+00  0.00000000E+00
  0.00000000E+00  0.00000000E+00  0.00000000E+00
  0.00000000E+00  0.00000000E+00  0.00000000E+00
  0.00000000E+00  0.00000000E+00  0.00000000E+00
  0.00000000E+00  0.00000000E+00  0.00000000E+00
  0.00000000E+00  0.00000000E+00  0.00000000E+00
  0.00000000E+00  0.00000000E+00  0.00000000E+00
  0.00000000E+00  0.00000000E+00  0.00000000E+00
  0.00000000E+00  0.00000000E+00  0.00000000E+00
  0.00000000E+00  0.00000000E+00  0.00000000E+00
  0.00000000E+00  0.00000000E+00  0.00000000E+00
  0.00000000E+00  0.00000000E+00  0.00000000E+00
  0.00000000E+00  0.00000000E+00  0.00000000E+00
  0.00000000E+00  0.00000000E+00  0.00000000E+00
  0.00000000E+00  0.00000000E+00  0.00000000E+00
  0.00000000E+00  0.00000000E+00  0.00000000E+00
  0.00000000E+00  0.00000000E+00  0.00000000E+00
  0.00000000E+00  0.00000000E+00  0.00000000E+00
  0.00000000E+00  0.00000000E+00  0.00000000E+00
  0.00000000E+00  0.00000000E+00  0.00000000E+00
  0.00000000E+00  0.00000000E+00  0.00000000E+00
  0.00000000E+00  0.00000000E+00  0.00000000E+00
  0.00000000E+00  0.00000000E+00  0.00000000E+00
  0.00000000E+00  0.00000000E+00  0.00000000E+00
  0.00000000E+00  0.00000000E+00  0.00000000E+00
  0.00000000E+00  0.00000000E+00  0.00000000E+00
  0.00000000E+00  0.00000000E+00  0.00000000E+00
  0.00000000E+00  0.00000000E+00  0.00000000E+00
  0.00000000E+00  0.00000000E+00  0.00000000E+00
  0.00000000E+00  0.00000000E+00  0.00000000E+00
  0.00000000E+00  0.00000000E+00  0.00000000E+00
  0.00000000E+00  0.00000000E+00  0.00000000E+00
  0.00000000E+00  0.00000000E+00  0.00000000E+00
  0.00000000E+00  0.00000000E+00  0.00000000E+00
  0.00000000E+00  0.00000000E+00  0.00000000E+00
  0.00000000E+00  0.00000000E+00  0.00000000E+00
  0.00000000E+00  0.00000000E+00  0.00000000E+00
  0.00000000E+00  0.00000000E+00  0.00000000E+00
  0.00000000E+00  0.00000000E+00  0.00000000E+00
  0.00000000E+00  0.00000000E+00  0.00000000E+00
  0.00000000E+00  0.00000000E+00  0.00000000E+00
  0.00000000E+00  0.00000000E+00  0.00000000E+00
  0.00000000E+00  0.00000000E+00  0.00000000E+00
  0.00000000E+00  0.00000000E+00  0.00000000E+00
  0.00000000E+00  0.00000000E+00  0.00000000E+00
  0.00000000E+00  0.00000000E+00  0.00000000E+00
  0.00000000E+00  0.00000000E+00  0.00000000E+00
  0.00000000E+00  0.00000000E+00  0.00000000E+00
  0.00000000E+00  0.00000000E+00  0.00000000E+00