Ge Se                                   
   1.00000000000000     
    23.1002241342168837    0.0000000000000000    0.0000000000000000
     0.0000000000000000   23.1002241342168837    0.0000000000000000
     0.0000000000000000    0.0000000000000000   23.1002241342168837
   Ge   Se
    30   270
Direct
  0.5367726849519382  0.1362214378732620  0.6755086292490118
  0.2969135055378300  0.3772815961502488  0.6333276125014919
  0.4066597116489761  0.1161783038389084  0.0082018244889700
  0.2118898062375205  0.1176003462961219  0.5650788438908502
  0.6611542029022865 -0.0198151991875141  0.0594751026528786
  0.6145035222115679  0.1928093317905184  0.8250373625138342
  0.4667541821925841  0.8676727329817933  0.8600349759745778
  0.6078912011019769  0.9580397367417405  0.9017912687862929
  0.7156726682515751  0.7638911777056522  0.2108440431584663
  0.8960692742987133  0.8811230706858796  0.4316627048805899
  0.8184881912597075  0.8452427518717430  0.6562655168421155
  0.3983543036013373  0.7619433843264894  0.5519568692144033
  0.7081039439826404  0.8350406725742832  0.4246805631253511
  0.4666697097415943  0.9350952434297191  0.1029086750415111
  0.0788845468946040  0.7826689923485410  0.4388355106326338
  0.2073274450413180  0.2716129418807299  0.4670737747221884
  0.2850581289871450  0.3782588852902738  0.3741620137811606
  0.5225650520654466  0.6889085381431579  0.4719829324858766
  0.9753457251222735  0.8062947928604765  0.3311831747147733
  0.9114465743236472  0.5591269294719812  0.2726411705980014
  0.2832189910014046  0.1730896467100544  0.2126338524656216
  0.8530244154429257  0.6686844211749674  0.1593198064115334
  0.3770318001377091  0.2797469850662359  0.5617503274749325
  0.3217040635885394  0.0128978504845389  0.6220073805120414
  0.1808789571665771  0.2371125235051985  0.3512099169835552
  0.8539682912673768  0.7679402719211271  0.5072301154552613
  0.5329020141561696  0.8363009094635895  0.4809562806816730
  0.4280033203356347  0.9627540749193044  0.4374756696195800
  0.3811114050061288 -0.0044219211005915  0.8808853762032546
  0.6779481315459378  0.7629983912477645  0.6896944745357508
  0.5814669333663463  0.7529917807726729  0.7252337762525923
  0.1912603530270013  0.4580485140656289  0.9528874579253063
  0.8807245843785265  0.9165200204313169  0.2887481206458959
  0.5928710666693625  0.3284016276881676  0.9777499425022401
  0.7384015632100625  0.7072673713958993  0.3507769490597381
  0.2162076315461030  0.5276179310659821  0.4128212673207946
  0.9508818458259892  0.5382183630752928 -0.0495667809025922
  0.1450332779842886  0.9957220732952846  0.5134189642411379
  0.4538499158202524  0.4198603976299740  0.8818136139324937
  0.3997181196694768  0.6382815982163715  0.7364343939973216
  0.2064807230437095  0.1046128260801168  0.0961995314455509
  0.6649536714834973  0.4605231702864954  0.1873767527531448
  0.0402147665961166  0.9098154206051350  0.0015671945823815
  0.5969022117385790  0.6131957708717471  0.1515584382924068
  0.0218939851527723  0.8094748520315892  0.5504059125014661
  0.8317356073857615  0.0419520213715310  0.4299809285608316
  0.6698192784064130  0.2058621253621031  0.4376141666845393
  0.2413166842436176  0.5806343320833205  0.0180251146277679
  0.1593565613974386  0.1230200045183534  0.8730776990297302
  0.6988273595039683  0.8655533441940118  0.2329850360567152
  0.1118851443091214  0.1408599042259063  0.5425224458139509
  0.6738248614727051  0.6567299758922545  0.0975720993039025
  0.7958075322995715  0.5847827768233517  0.1295103283400778
  0.5279985926458919  0.6440895165948528  0.9220461657336564
  0.7554180860583859  0.5328450133648612  0.3230357799704059
  0.9949161604661478  0.0220385695534703  0.1410759688013271
  0.7762069126629448  0.1456287173419079  0.7118166453108528
  0.0267751336007296  0.7195687775336534  0.2985615220096967
  0.1130276097900977  0.5438013025677001  0.2160090925342714
  0.2813002003526217  0.1228154063122284  0.4866499504095587
  0.9013097140563050  0.8821745711020442  0.8874441087810976
  0.9794547360868813  0.5967014095421129  0.0279043065142371
  0.9524815135186319  0.6658292618689045  0.5514355195940797
  0.4952604751329937  0.7186761980563092  0.8549045695690538
  0.3028671310179024  0.4760805162229834  0.4125965651550208
  0.1115551676350562  0.2342178023594920  0.5848767495011438
  0.5297927698098565  0.5751404609283696  0.0848338970797922
  0.0387290130795653  0.1633494709567015  0.0654306834101743
  0.5846055936749996  0.0509215553689785  0.6360740390841344
  0.4780783495627450  0.1825269358583461  0.6012415250721197
  0.9236430327577143  0.8472888923819293  0.5397864382974977
  0.1615156887980608  0.4975286075127630  0.4967614743677326
  0.7638060897058366  0.0876174232039715  0.0944087908425140
  0.4696095432293323  0.1177670251409299  0.7504570518371151
  0.6700064638568261  0.8887983707545666  0.8519738522809838
  0.8703828512154138  0.7598471955176983  0.7151814973409861
  0.2843681488934838  0.9212556948120468  0.6720877253250094
  0.6920873236857291  0.3206912866926279  0.8253900805498972
  0.4232996461525266  0.8398734481162242  0.0941521398777686
  0.6661925826758917  0.8076297248872012  0.9136966336415019
  0.6980570592643947  0.7281641836280064  0.4427139097341067
  0.4446516792217764  0.9618785102633965  0.6498926308586720
  0.1150034231063476  0.5248954639917495  0.8242690970487935
  0.9571467669721695  0.2044125871394103  0.5125125451136122
  0.4523923162320269  0.0863240174174369  0.1490119723935956
  0.5358061687813296  0.1821431164103182  0.5156534604111392
  0.3758295955618902  0.8467249924508623  0.2502300321589386
 -0.0019715071147280  0.8678592050873066  0.8473125759342206
  0.6241213646316424  0.1924196818086157  0.7124563276152081
 -0.0133095264740229  0.8732762334447594  0.7464747293799929
  0.8095659783558231  0.0565380154405715  0.5318820607897808
  0.8993706431476092  0.6204846490423783  0.4772777047964878
  0.3822634653654471  0.0132834687259563 -0.0043781886662275
  0.7630462226418107  0.7970407223537010  0.9498653874207529
  0.7973584191945591  0.1926674005041160  0.8005854178248012
  0.1560606388764075  0.2789566967861005  0.8163685657947586
  0.6078033812468158 -0.0337609943285677  0.3195983360063359
  0.2029050887138862  0.0194611800137043  0.6036333540074790
  0.9153445631863013  0.6767778811277168  0.0031828705724775
  0.3982999930105548  0.6556144837300190  0.1455244347198908
  0.7471526244226110  0.4699219911252047  0.4022809050973650
  0.2755199957913122  0.2269563257955723  0.3001384796485710
  0.9673922979534266  0.1378527986257720  0.4349560836562872
  0.3862882208576689  0.4304179437071634  0.2410737676731395
  0.7015356463731109  0.5084675389628470  0.9069116058794946
  0.9936910910396072  0.3444882080860827  0.2890737630454766
  0.8540834705988257  0.0702859306811677  0.0502497297302673
  0.6056556932143811  0.0030506434614567  0.1451923429830172
  0.9111899690625334  0.8538110122614253  0.9804113634173336
  0.4991048749956800  0.8302569315498486  0.3342379460680052
  0.4791757323013435  0.4565930078648278  0.4755733506236810
  0.5444924182503815  0.0980061720139960  0.8301855411070341
  0.4006830378863883  0.2696605112339376  0.6723429580987665
  0.9724235534474072  0.5048121847600495  0.6742966115818657
  0.1205573283351058  0.7474639639839146  0.3282427748800905
  0.9477135356589761  0.8542974675309549  0.2416302720672412
  0.6820197411275837  0.1635780309262491  0.5299013753672684
  0.1419071914666353  0.8296985736071510  0.2664520956265052
  0.6825841424208134  0.3069538448473611  0.4486498667137286
  0.3446775102612415  0.3114815260610432  0.4323045775885193
  0.8788611405277204  0.4750849864466761  0.2194039542003005
  0.9401568663835627  0.6363851408584389  0.2082730013803469
  0.9579319262453388  0.2965680619579660  0.4674157089627906
  0.6325808489671521  0.4304663422784800  0.6102501696066144
  0.2205258187055410  0.7378514109430546 -0.0325308979011565
  0.5567868565542239  0.9138767607216983  0.1534223474579965
  0.7211753457206241  0.3511520245240629  0.0815033360713237
  0.0325799283786701  0.8692211157482832  0.3888311512661858
  0.8567623414158169  0.4047741062381588  0.0018161497040144
  0.9111484667554345  0.0135815368831168  0.2816112784622907
  0.8753725831756163  0.4718032148884206  0.6720310902703389
  0.9442644998672279  0.1969233647169890  0.0890068975032979
  0.2690059693835040  0.0064741499078966  0.8937860094495925
  0.1631372695704627  0.8971103961767186  0.8349270042262675
  0.2277831431372914  0.4590864174164014  0.5639062735967573
  0.3719928878091532  0.8882991190783838  0.8974763991703961
  0.0512361919063065  0.3407175329132418  0.7228348223386756
  0.1102180805968183  0.2380968195033286  0.2707616776206219
  0.0554718184096978  0.9761768548445685  0.5577695287789932
  0.4031863721774441  0.4682009265943929  0.5418428792004305
  0.1288859899465971  0.9596765228305293 -0.0185780994234339
  0.0594855717366457  0.0703940528311972  0.2750341958234342
  0.2663264358987050  0.0750694746385093  0.6959798901658010
  0.6862057297699284  0.5956765841080182  0.9572335547312069
  0.7004852160140570  0.6743204092067061  0.7434171789953683
  0.8437962698922031  0.3501217715344650  0.9155375540849729
  0.3794945215233526  0.1452325879338597  0.1046323977379775
  0.9285570196026236  0.2947990807182516  0.9017583765926299
  0.9731425048731260  0.6037755133409205  0.8042471970239623
  0.2347270842794623  0.5329180270923538  0.7116803211839740
  0.4153088489163649  0.4428889822561070  0.9722383325651052
  0.4973994921593697  0.1687197178572969  0.8995829742307596
  0.3044917925194402  0.3780634023517843  0.2620616463736205
  0.1518013895418470  0.7406697023677041  0.5980383732266958
  0.7656831844005897  0.9143851481210382  0.1730630729379529
  0.2423859936540816  0.6027409180373298  0.1206484808162593
  0.7178041707615981  0.5334069314812255  0.4776634877609303
  0.5146162051170812  0.9598036888497677  0.8515754449337750
  0.8126221268344841  0.7411694934154860  0.6251428818553115
  0.3814125943936599  0.6549739255849393  0.5553762706698470
 -0.0042135741988475  0.0228063327414391  0.3401274528611616
  0.0574901037803741  0.8878906437468150  0.6084687954442726
  0.5075024024342640  0.4231163103809792  0.1632427999593438
  0.8554096563056529  0.5011508510033604 -0.0327611125048230
  0.4947506402061855  0.2990856232635303  0.9950735823494167
  0.3521679311768999  0.1772684482804063  0.9425054975020896
  0.0571959203905724  0.0068769511643913  0.8088241719139436
  0.5928066808344519  0.9217947089537502  0.0013107162605135
  0.1119116609195739  0.3002677952595577  0.5062230862059993
  0.3437782726687817  0.6301177678643614  0.8200318710012614
  0.3572146901030112  0.7538395995233031  0.4288145562075462
  0.5763082887852375  0.4511195800482795  0.2354474114859995
  0.5358417264608600  0.2689518860452876  0.8210864321578542
  0.2483279892315466  0.7483254218047271  0.8697222539055247
  0.4130548899754680  0.6683059321151651  0.4505351550807208
  0.0332867140651677  0.2636090200166353  0.3362504038166929
  0.2443046989906520 -0.0294650267446382  0.8030820044964754
  0.0759823678814812  0.0020276686694478  0.2015696338164947
  0.0640984797774699  0.7847807723697747  0.1171720546412391
  0.5141896174426448  0.7542237276269882  0.5562679926430558
  0.5325893285754554  0.8454348989332041  0.7102613684084340
  0.1741779988837110  0.6472167604252640 -0.0178370195449907
  0.0012616967753652  0.1420143314052835  0.6609140795121725
  0.4697013766850811  0.3363142604444995  0.2004261981565363
 -0.0040130005578372  0.5457678995035972  0.3343579471173138
  0.5375975863050193  0.2633630837383840  0.1620246451783357
  0.0832892976036996  0.5090305939879844  0.1265193127534699
  0.7800309631236303  0.6370713035368745  0.9736913427796148
  0.6572783398307187  0.2814670234927397  0.0424884628743783
  0.5537276912673308  0.5895011679568285  0.7230319392919978
  0.5241775134286962  0.9239103131482647  0.3684896323823409
  0.8592055446577749  0.3235864103506341  0.4573616253082915
  0.4318165221791468  0.3287452626254382  0.3799282741063981
  0.4029507845758769 -0.0060853929979640  0.1607582450767929
  0.3420608398558482  0.8558676511794929  0.1543220426621469
  0.8998254946889352  0.7310301558844449  0.0867677711388836
  0.2683502912632235 -0.0220061850956720  0.4070524986405393
  0.7343753798911740 -0.0939255809795719  0.0764557798866948
  0.0573932757096411  0.4846269104309472  0.2816592342478224
  0.0044140474620560  0.3525523413039290  0.6363661131024417
 -0.0025924822682969  0.4030118819057432  0.7894718789604154
  0.8173103171727902  0.7427547105474815  0.2245445618585304
  0.7316265951881742  0.6127658241357018  0.6667140004480689
  0.5914695322807563  0.3468865414899468  0.4731113520576962
  0.3090633337004721  0.7276009340390596  0.3405978073153013
  0.5666887016644909  0.5315395418021315  0.8065510235972926
  0.6632253248002493  0.6395174225045505  0.5962459286703552
  0.3526102925509915  0.9315253439443582  0.5132840543088787
  0.8346181715158184  0.5964162879507825  0.3348431887809178
  0.7981469384875751  0.8622857441555158  0.4907002432906409
  0.5060201416514335  0.5339572042897064  0.6507434063572349
  0.8199332384263104  0.2762378946159161  0.3758498330307963
  0.8736758781396248  0.5179077087426111  0.1270469982247005
  0.4332655394776358  0.3637813689619227  0.0406050203300215
  0.4848377191690605 -0.0259052619581868  0.0064422012855460
  0.1831974845212913  0.8874740623314487  0.9313575144802685
  0.3340977713241229  0.6757612786212933  0.6634682588696166
  0.9484620644387695  0.0616323172265090  0.6942196242838121
  0.3887747362538769  0.3719869155991811  0.8136040552168661
  0.1971472392571724  0.3556100305054040  0.9545192177431673
  0.3269330761168391  0.9143029448987350  0.7650792336970952
  0.5573437482581822  0.7663672954148174  0.3957104627147548
  0.3480538236829696  0.7231647365592456  0.8659945123341883
  0.6789013301147357 -0.0233301129315503  0.3974012003672896
  0.7093033148082294  0.5342265070464381  0.8077787097387750
  0.5592921474491791  0.3050948888520919  0.7282723449309403
  0.6702950027486408  0.7567937665774391  0.1168996647020780
  0.5108405445751759  0.1848026479792003  0.2134157566545680
  0.6952008745320913  0.0702843037566346  0.0179240521071599
  0.5814454486907157  0.3494065348103362  0.5749153676205216
  0.2965853031943841  0.2211499208874869  0.0169299769934453
  0.1539992104001351  0.3879935710376418  0.2012254152217602
  0.3198022446634928  0.3136269308774375  0.7202265299337082
  0.2101413897869843  0.8011937741214296  0.2001579156800616
  0.6311742763495308  0.9645211251489348  0.4835070333260159
  0.5019508054931786  0.0221979495649784  0.5837078840137715
  0.1668622457262139  0.8363297755628653  0.4687798807610777
  0.8846591237259472  0.1618657438509243  0.0148391947910890
  0.0453697806305081  0.8851885888426451  0.1010514706332617
  0.9689607297884930  0.0572290217521851  0.7945131985953342
  0.6853080429149864  0.1041501963943614  0.7276615267214084
  0.0717905245228641  0.6163787134300152  0.8300292103372662
  0.8874762878985933  0.7824278555685606  0.3822678635591140
  0.6397419458375008  0.3685499675051299  0.7535419368393416
  0.2365823520705273  0.3138878811596289  0.8698772433714598
  0.4081178195829101  0.3808386195090504  0.6035149997767731
  0.0045217887490104  0.3614757287801726  0.8811427006302747
  0.2046450304623619  0.1745213590996018  0.0226859906722449
  0.2339529564490483  0.0744405757360787  0.4095466627666456
  0.2810651495656797  0.5289747979439799  0.6208602168794660
  0.6621673896380021  0.7055985058566890  0.2792074709701055
  0.2639570961046788  0.1652503377777598  0.6422513603257286
  0.4455022205741597  0.0696327871760123  0.4268886537242961
  0.1331381331568449  0.0737279447948532  0.7872863723954298
  0.3794895995163815  0.7454280532692782  0.2693514242388827
  0.3574713048946298 -0.0175967544779665  0.3571497757353982
  0.1073827053048530  0.2114604945694044  0.8752109081788965
  0.4941725669323973  0.5616664874362642  0.8743507131298446
  0.2445028701059893  0.4452035936546304  0.7650810437942348
  0.7091123918485192  0.3675984366108936  0.1816819731799695
  0.6918497227024785  0.7389523943266397  0.5849956790094765
  0.9192762801779106  0.2858507456132016  0.6425112174239116
  0.4243646567036639  0.8911221804329909  0.5758393482209516
  0.6367888425102993  0.0555100486701108  0.8942179095267243
  0.3571205837943787  0.7747383027954574  0.6512269844460388
  0.4381063558503656  0.4306343890103511  0.3828569571349393
  0.1850572821835543  0.3504598166147690  0.3860710784278779
  0.5100882317620837  0.1309128479523544  0.9926828482245612
  0.6396178729735488  0.8606101917071988  0.5116219075588797
  0.3256719350462867  0.4552714196409665  0.8258378994328858
  0.2102470914638726  0.7559951033715113  0.5148035493765724
  0.9492302206471900  0.2192402914728422  0.7092541778533251
  0.1143444826693280  0.6444615106007299  0.5891040460146224
  0.4560020724710526  0.6430195468741585  0.0621496636000390
  0.7939985917148742  0.7114882243738199  0.9037926605949731
  0.5211918944420203  0.7978721968074034  0.9170047328191382
  0.8794979727252287  0.5226175646184215  0.5016798749237834
  0.9683780609264335  0.6036513300301122  0.7017499845156032
  0.2227364228423981  0.4461987360869373  0.2502164501167457
  0.9728866977257967  0.7771560473668920  0.7141482505924365
  0.7837172083329002  0.2919721657763528  0.7841207526285667
  0.0981365963137587  0.4815302673942030  0.9173544747318982
  0.1836128359218557  0.1544676799579389  0.1842634198327888
  0.7235298404844470  0.8524671869706235  0.7091531012685687
  0.8512980531416707  0.4600145989958190  0.7706398648894298
  0.8709937943637419  0.1297075018134255  0.3995716951597181
  0.2694702662767198  0.2883045607155005  0.5727580652320416
  0.0481886020858637  0.6394485586738122  0.5143624476911416
  0.8097066929600275  0.5508679736700335  0.7950044879607457
  0.5365602323921785  0.0889649207111609  0.4725392147565374
  0.3339011779943628  0.5749158934626648  0.1521009421676951
  0.4487252430171744  0.8259552097076914  0.7636305863930011
  0.9111067198576499  0.3056106449941996  0.2414352982694529
  0.1519746900904512  0.4305365225684946  0.1096544544343277
  0.0268892767020299  0.0623956346643583  0.0532642271786083
  0.1608962859035227  0.7586874257775602  0.1152363300201608
  0.8315028114875828  0.3392747434687837  0.2954593391905532
  0.7843605054087122  0.1529599886013679  0.5428329236434422
  0.5809980666373072  0.5151113226915724  0.5834132366840784
  0.7901059093602997  0.5157129223049171  0.5491614542331202
 
  0.00000000E+00  0.00000000E+00  0.00000000E+00
  0.00000000E+00  0.00000000E+00  0.00000000E+00
  0.00000000E+00  0.00000000E+00  0.00000000E+00
  0.00000000E+00  0.00000000E+00  0.00000000E+00
  0.00000000E+00  0.00000000E+00  0.00000000E+00
  0.00000000E+00  0.00000000E+00  0.00000000E+00
  0.00000000E+00  0.00000000E+00  0.00000000E+00
  0.00000000E+00  0.00000000E+00  0.00000000E+00
  0.00000000E+00  0.00000000E+00  0.00000000E+00
  0.00000000E+00  0.00000000E+00  0.00000000E+00
  0.00000000E+00  0.00000000E+00  0.00000000E+00
  0.00000000E+00  0.00000000E+00  0.00000000E+00
  0.00000000E+00  0.00000000E+00  0.00000000E+00
  0.00000000E+00  0.00000000E+00  0.00000000E+00
  0.00000000E+00  0.00000000E+00  0.00000000E+00
  0.00000000E+00  0.00000000E+00  0.00000000E+00
  0.00000000E+00  0.00000000E+00  0.00000000E+00
  0.00000000E+00  0.00000000E+00  0.00000000E+00
  0.00000000E+00  0.00000000E+00  0.00000000E+00
  0.00000000E+00  0.00000000E+00  0.00000000E+00
  0.00000000E+00  0.00000000E+00  0.00000000E+00
  0.00000000E+00  0.00000000E+00  0.00000000E+00
  0.00000000E+00  0.00000000E+00  0.00000000E+00
  0.00000000E+00  0.00000000E+00  0.00000000E+00
  0.00000000E+00  0.00000000E+00  0.00000000E+00
  0.00000000E+00  0.00000000E+00  0.00000000E+00
  0.00000000E+00  0.00000000E+00  0.00000000E+00
  0.00000000E+00  0.00000000E+00  0.00000000E+00
  0.00000000E+00  0.00000000E+00  0.00000000E+00
  0.00000000E+00  0.00000000E+00  0.00000000E+00
  0.00000000E+00  0.00000000E+00  0.00000000E+00
  0.00000000E+00  0.00000000E+00  0.00000000E+00
  0.00000000E+00  0.00000000E+00  0.00000000E+00
  0.00000000E+00  0.00000000E+00  0.00000000E+00
  0.00000000E+00  0.00000000E+00  0.00000000E+00
  0.00000000E+00  0.00000000E+00  0.00000000E+00
  0.00000000E+00  0.00000000E+00  0.00000000E+00
  0.00000000E+00  0.00000000E+00  0.00000000E+00
  0.00000000E+00  0.00000000E+00  0.00000000E+00
  0.00000000E+00  0.00000000E+00  0.00000000E+00
  0.00000000E+00  0.00000000E+00  0.00000000E+00
  0.00000000E+00  0.00000000E+00  0.00000000E+00
  0.00000000E+00  0.00000000E+00  0.00000000E+00
  0.00000000E+00  0.00000000E+00  0.00000000E+00
  0.00000000E+00  0.00000000E+00  0.00000000E+00
  0.00000000E+00  0.00000000E+00  0.00000000E+00
  0.00000000E+00  0.00000000E+00  0.00000000E+00
  0.00000000E+00  0.00000000E+00  0.00000000E+00
  0.00000000E+00  0.00000000E+00  0.00000000E+00
  0.00000000E+00  0.00000000E+00  0.00000000E+00
  0.00000000E+00  0.00000000E+00  0.00000000E+00
  0.00000000E+00  0.00000000E+00  0.00000000E+00
  0.00000000E+00  0.00000000E+00  0.00000000E+00
  0.00000000E+00  0.00000000E+00  0.00000000E+00
  0.00000000E+00  0.00000000E+00  0.00000000E+00
  0.00000000E+00  0.00000000E+00  0.00000000E+00
  0.00000000E+00  0.00000000E+00  0.00000000E+00
  0.00000000E+00  0.00000000E+00  0.00000000E+00
  0.00000000E+00  0.00000000E+00  0.00000000E+00
  0.00000000E+00  0.00000000E+00  0.00000000E+00
  0.00000000E+00  0.00000000E+00  0.00000000E+00
  0.00000000E+00  0.00000000E+00  0.00000000E+00
  0.00000000E+00  0.00000000E+00  0.00000000E+00
  0.00000000E+00  0.00000000E+00  0.00000000E+00
  0.00000000E+00  0.00000000E+00  0.00000000E+00
  0.00000000E+00  0.00000000E+00  0.00000000E+00
  0.00000000E+00  0.00000000E+00  0.00000000E+00
  0.00000000E+00  0.00000000E+00  0.00000000E+00
  0.00000000E+00  0.00000000E+00  0.00000000E+00
  0.00000000E+00  0.00000000E+00  0.00000000E+00
  0.00000000E+00  0.00000000E+00  0.00000000E+00
  0.00000000E+00  0.00000000E+00  0.00000000E+00
  0.00000000E+00  0.00000000E+00  0.00000000E+00
  0.00000000E+00  0.00000000E+00  0.00000000E+00
  0.00000000E+00  0.00000000E+00  0.00000000E+00
  0.00000000E+00  0.00000000E+00  0.00000000E+00
  0.00000000E+00  0.00000000E+00  0.00000000E+00
  0.00000000E+00  0.00000000E+00  0.00000000E+00
  0.00000000E+00  0.00000000E+00  0.00000000E+00
  0.00000000E+00  0.00000000E+00  0.00000000E+00
  0.00000000E+00  0.00000000E+00  0.00000000E+00
  0.00000000E+00  0.00000000E+00  0.00000000E+00
  0.00000000E+00  0.00000000E+00  0.00000000E+00
  0.00000000E+00  0.00000000E+00  0.00000000E+00
  0.00000000E+00  0.00000000E+00  0.00000000E+00
  0.00000000E+00  0.00000000E+00  0.00000000E+00
  0.00000000E+00  0.00000000E+00  0.00000000E+00
  0.00000000E+00  0.00000000E+00  0.00000000E+00
  0.00000000E+00  0.00000000E+00  0.00000000E+00
  0.00000000E+00  0.00000000E+00  0.00000000E+00
  0.00000000E+00  0.00000000E+00  0.00000000E+00
  0.00000000E+00  0.00000000E+00  0.00000000E+00
  0.00000000E+00  0.00000000E+00  0.00000000E+00
  0.00000000E+00  0.00000000E+00  0.00000000E+00
  0.00000000E+00  0.00000000E+00  0.00000000E+00
  0.00000000E+00  0.00000000E+00  0.00000000E+00
  0.00000000E+00  0.00000000E+00  0.00000000E+00
  0.00000000E+00  0.00000000E+00  0.00000000E+00
  0.00000000E+00  0.00000000E+00  0.00000000E+00
  0.00000000E+00  0.00000000E+00  0.00000000E+00
  0.00000000E+00  0.00000000E+00  0.00000000E+00
  0.00000000E+00  0.00000000E+00  0.00000000E+00
  0.00000000E+00  0.00000000E+00  0.00000000E+00
  0.00000000E+00  0.00000000E+00  0.00000000E+00
  0.00000000E+00  0.00000000E+00  0.00000000E+00
  0.00000000E+00  0.00000000E+00  0.00000000E+00
  0.00000000E+00  0.00000000E+00  0.00000000E+00
  0.00000000E+00  0.00000000E+00  0.00000000E+00
  0.00000000E+00  0.00000000E+00  0.00000000E+00
  0.00000000E+00  0.00000000E+00  0.00000000E+00
  0.00000000E+00  0.00000000E+00  0.00000000E+00
  0.00000000E+00  0.00000000E+00  0.00000000E+00
  0.00000000E+00  0.00000000E+00  0.00000000E+00
  0.00000000E+00  0.00000000E+00  0.00000000E+00
  0.00000000E+00  0.00000000E+00  0.00000000E+00
  0.00000000E+00  0.00000000E+00  0.00000000E+00
  0.00000000E+00  0.00000000E+00  0.00000000E+00
  0.00000000E+00  0.00000000E+00  0.00000000E+00
  0.00000000E+00  0.00000000E+00  0.00000000E+00
  0.00000000E+00  0.00000000E+00  0.00000000E+00
  0.00000000E+00  0.00000000E+00  0.00000000E+00
  0.00000000E+00  0.00000000E+00  0.00000000E+00
  0.00000000E+00  0.00000000E+00  0.00000000E+00
  0.00000000E+00  0.00000000E+00  0.00000000E+00
  0.00000000E+00  0.00000000E+00  0.00000000E+00
  0.00000000E+00  0.00000000E+00  0.00000000E+00
  0.00000000E+00  0.00000000E+00  0.00000000E+00
  0.00000000E+00  0.00000000E+00  0.00000000E+00
  0.00000000E+00  0.00000000E+00  0.00000000E+00
  0.00000000E+00  0.00000000E+00  0.00000000E+00
  0.00000000E+00  0.00000000E+00  0.00000000E+00
  0.00000000E+00  0.00000000E+00  0.00000000E+00
  0.00000000E+00  0.00000000E+00  0.00000000E+00
  0.00000000E+00  0.00000000E+00  0.00000000E+00
  0.00000000E+00  0.00000000E+00  0.00000000E+00
  0.00000000E+00  0.00000000E+00  0.00000000E+00
  0.00000000E+00  0.00000000E+00  0.00000000E+00
  0.00000000E+00  0.00000000E+00  0.00000000E+00
  0.00000000E+00  0.00000000E+00  0.00000000E+00
  0.00000000E+00  0.00000000E+00  0.00000000E+00
  0.00000000E+00  0.00000000E+00  0.00000000E+00
  0.00000000E+00  0.00000000E+00  0.00000000E+00
  0.00000000E+00  0.00000000E+00  0.00000000E+00
  0.00000000E+00  0.00000000E+00  0.00000000E+00
  0.00000000E+00  0.00000000E+00  0.00000000E+00
  0.00000000E+00  0.00000000E+00  0.00000000E+00
  0.00000000E+00  0.00000000E+00  0.00000000E+00
  0.00000000E+00  0.00000000E+00  0.00000000E+00
  0.00000000E+00  0.00000000E+00  0.00000000E+00
  0.00000000E+00  0.00000000E+00  0.00000000E+00
  0.00000000E+00  0.00000000E+00  0.00000000E+00
  0.00000000E+00  0.00000000E+00  0.00000000E+00
  0.00000000E+00  0.00000000E+00  0.00000000E+00
  0.00000000E+00  0.00000000E+00  0.00000000E+00
  0.00000000E+00  0.00000000E+00  0.00000000E+00
  0.00000000E+00  0.00000000E+00  0.00000000E+00
  0.00000000E+00  0.00000000E+00  0.00000000E+00
  0.00000000E+00  0.00000000E+00  0.00000000E+00
  0.00000000E+00  0.00000000E+00  0.00000000E+00
  0.00000000E+00  0.00000000E+00  0.00000000E+00
  0.00000000E+00  0.00000000E+00  0.00000000E+00
  0.00000000E+00  0.00000000E+00  0.00000000E+00
  0.00000000E+00  0.00000000E+00  0.00000000E+00
  0.00000000E+00  0.00000000E+00  0.00000000E+00
  0.00000000E+00  0.00000000E+00  0.00000000E+00
  0.00000000E+00  0.00000000E+00  0.00000000E+00
  0.00000000E+00  0.00000000E+00  0.00000000E+00
  0.00000000E+00  0.00000000E+00  0.00000000E+00
  0.00000000E+00  0.00000000E+00  0.00000000E+00
  0.00000000E+00  0.00000000E+00  0.00000000E+00
  0.00000000E+00  0.00000000E+00  0.00000000E+00
  0.00000000E+00  0.00000000E+00  0.00000000E+00
  0.00000000E+00  0.00000000E+00  0.00000000E+00
  0.00000000E+00  0.00000000E+00  0.00000000E+00
  0.00000000E+00  0.00000000E+00  0.00000000E+00
  0.00000000E+00  0.00000000E+00  0.00000000E+00
  0.00000000E+00  0.00000000E+00  0.00000000E+00
  0.00000000E+00  0.00000000E+00  0.00000000E+00
  0.00000000E+00  0.00000000E+00  0.00000000E+00
  0.00000000E+00  0.00000000E+00  0.00000000E+00
  0.00000000E+00  0.00000000E+00  0.00000000E+00
  0.00000000E+00  0.00000000E+00  0.00000000E+00
  0.00000000E+00  0.00000000E+00  0.00000000E+00
  0.00000000E+00  0.00000000E+00  0.00000000E+00
  0.00000000E+00  0.00000000E+00  0.00000000E+00
  0.00000000E+00  0.00000000E+00  0.00000000E+00
  0.00000000E+00  0.00000000E+00  0.00000000E+00
  0.00000000E+00  0.00000000E+00  0.00000000E+00
  0.00000000E+00  0.00000000E+00  0.00000000E+00
  0.00000000E+00  0.00000000E+00  0.00000000E+00
  0.00000000E+00  0.00000000E+00  0.00000000E+00
  0.00000000E+00  0.00000000E+00  0.00000000E+00
  0.00000000E+00  0.00000000E+00  0.00000000E+00
  0.00000000E+00  0.00000000E+00  0.00000000E+00
  0.00000000E+00  0.00000000E+00  0.00000000E+00
  0.00000000E+00  0.00000000E+00  0.00000000E+00
  0.00000000E+00  0.00000000E+00  0.00000000E+00
  0.00000000E+00  0.00000000E+00  0.00000000E+00
  0.00000000E+00  0.00000000E+00  0.00000000E+00
  0.00000000E+00  0.00000000E+00  0.00000000E+00
  0.00000000E+00  0.00000000E+00  0.00000000E+00
  0.00000000E+00  0.00000000E+00  0.00000000E+00
  0.00000000E+00  0.00000000E+00  0.00000000E+00
  0.00000000E+00  0.00000000E+00  0.00000000E+00
  0.00000000E+00  0.00000000E+00  0.00000000E+00
  0.00000000E+00  0.00000000E+00  0.00000000E+00
  0.00000000E+00  0.00000000E+00  0.00000000E+00
  0.00000000E+00  0.00000000E+00  0.00000000E+00
  0.00000000E+00  0.00000000E+00  0.00000000E+00
  0.00000000E+00  0.00000000E+00  0.00000000E+00
  0.00000000E+00  0.00000000E+00  0.00000000E+00
  0.00000000E+00  0.00000000E+00  0.00000000E+00
  0.00000000E+00  0.00000000E+00  0.00000000E+00
  0.00000000E+00  0.00000000E+00  0.00000000E+00
  0.00000000E+00  0.00000000E+00  0.00000000E+00
  0.00000000E+00  0.00000000E+00  0.00000000E+00
  0.00000000E+00  0.00000000E+00  0.00000000E+00
  0.00000000E+00  0.00000000E+00  0.00000000E+00
  0.00000000E+00  0.00000000E+00  0.00000000E+00
  0.00000000E+00  0.00000000E+00  0.00000000E+00
  0.00000000E+00  0.00000000E+00  0.00000000E+00
  0.00000000E+00  0.00000000E+00  0.00000000E+00
  0.00000000E+00  0.00000000E+00  0.00000000E+00
  0.00000000E+00  0.00000000E+00  0.00000000E+00
  0.00000000E+00  0.00000000E+00  0.00000000E+00
  0.00000000E+00  0.00000000E+00  0.00000000E+00
  0.00000000E+00  0.00000000E+00  0.00000000E+00
  0.00000000E+00  0.00000000E+00  0.00000000E+00
  0.00000000E+00  0.00000000E+00  0.00000000E+00
  0.00000000E+00  0.00000000E+00  0.00000000E+00
  0.00000000E+00  0.00000000E+00  0.00000000E+00
  0.00000000E+00  0.00000000E+00  0.00000000E+00