Amorphous Sb                            
   1.00000000000000     
    20.0678869700586908    0.0000000000000000    0.0000000000000000
     0.0000000000000000   20.0678869700586908    0.0000000000000000
     0.0000000000000000    0.0000000000000000   20.0678869700586908
   Ge   Se
   150   150
Direct
  0.6022319537295012  0.7490068589175147  0.8767860050700188
  0.3320128464648848  0.6439826046477918  0.7911629253152587
  0.4086878489129772  0.3012896550753550  0.5012311033748702
  0.7845796586983866  0.9708356670915180  0.5801170112319104
  0.8967080252142285  0.3918572264472147  0.7249064529792593
  0.1240668469837785  0.8170528786379393  0.9702249972439548
  0.0350155102888680  0.0096780723446196  0.3845209895220683
  0.4811784507540418  0.6156798628611733  0.6987269944547835
  0.3961529855195368  0.7478253420640607  0.2080694372275274
  0.2957948165062044  0.1567300302078611  0.4476733081182198
  0.1183581234153075  0.8093968425400725  0.4620828062284865
  0.9746702592389050  0.2976341714186419  0.7759108607681269
  0.6921237173126048  0.2697152803486267  0.5873767914518269
  0.2201842156503622  0.1015620907909635  0.8483513421587027
  0.7739936988256139  0.0731602729852226  0.3544827710454728
  0.8781745983244295  0.6505559331112932  0.3183224653042671
  0.0647727297555767  0.6438674089669586  0.3120697961126020
  0.8783070834122154  0.3363946871216649  0.3201142222592996
  0.2833182324723365  0.5239223284945411  0.9436825106641770
  0.9473160002189784  0.8453446658800372  0.3818848415598963
  0.3143919756997356  0.7703693321743583  0.0343339190501466
  0.4519325828602099  0.6834191258274592  0.9448401291320532
  0.0652630180670278  0.1953252409383038  0.9900627190397532
  0.9697720170607810  0.1419810243860032  0.1405318883037300
  0.7229557422648072  0.2813991073919926  0.1411410844682998
  0.5520563830348900  0.2820821764906236  0.5077675607957755
  0.4481318331064671  0.6483616445396869  0.5587066104377362
  0.7247212968947710  0.8945430591259427  0.0061136395912429
  0.6341353133801810  0.6386428072444580  0.5935342556940405
  0.8803461943914854  0.6895306129810379  0.4484071726874793
  0.2875894414275876  0.2357115507030017  0.8441581066776371
  0.1801897299397447  0.0639429764103097  0.2958381534106714
  0.8476333618423482  0.5052324267594877  0.4390652038453814
  0.2416396677078463  0.4605623795835297  0.2772197469978057
  0.0325940039880801  0.5553241141193810  0.5740796080673676
  0.5643230437424958  0.7280383197655493  0.1187144479531303
  0.3989877844958077  0.1981443377092951  0.0066598321868970
  0.3367652166921531  0.2044156663971305  0.1801293623737609
  0.1922442382818274  0.1823442121420887  0.0203514696379289
  0.7248376831094953  0.5443485282110072  0.7257828799978239
  0.7970098249919424  0.8923799596365398  0.3022079495516456
  0.9083802364712497  0.0506060387712781  0.6500787618006113
  0.4392842669124289  0.0424425836099299  0.6560980333812249
  0.4269465522396189  0.1343266612349339  0.3159862097916484
  0.2426081930584654  0.7052119074949320  0.2429709758475718
  0.3715653955101363  0.5155808890887186  0.3256436548034908
  0.9102273103733243  0.6658732659185673  0.0720017787977565
  0.1244662906613319  0.1739221017363163  0.4602276458478283
  0.8417126855629848  0.7618631150704145  0.8049858046226877
  0.6132445133825276  0.1183599000301112  0.2147157168697808
  0.1052945736617530  0.5984316144322175  0.7382146463607965
  0.1535587642066788  0.2627418733948493  0.1615468170676168
  0.5772542904420722  0.9110966491130170  0.7154539595224173
  0.5635332750469753  0.4020995362978032  0.7913727449262085
  0.7258007900531910  0.5783444594049688  0.4308590147128069
  0.0946926796102873  0.9670682415176238  0.1685256520582538
  0.1159916654128125  0.6333336239491230  0.5085692585163631
  0.0018176220581495  0.3648123532826302  0.5738797951651284
  0.2748437728130209  0.1544933203601614  0.6514176079310622
  0.5979940444806980  0.5318845581374266  0.2031954095508145
  0.6966243004968564  0.9793254934876111  0.1976767782382369
  0.4492902196950156  0.5652082396976258  0.1209365206714263
  0.7931834424001147  0.6439057015301735  0.1518199549279977
  0.8046391243398739  0.1493162151606401  0.6871630199621399
  0.5035256725305302  0.0127482325755408  0.1552499884548325
  0.9880987694347384  0.4043118254790260  0.0577764182785279
  0.9071399464505452  0.8096444563419877  0.5010021186071753
  0.7816768730419719  0.7099553097847608  0.9414944695591236
  0.8034345436764380  0.1355277516112099  0.0995411738556924
  0.8660075926352987  0.2980746238533246  0.9613381405291973
  0.3540193863255787  0.3671918644725328  0.6936366488517934
  0.4002646995763631  0.3200450795808340  0.3347008531533049
  0.2623785138744998  0.5785324027228025  0.3970471469842072
  0.5700847001074834  0.9961413733948177  0.3964102341072970
  0.5360339000267247  0.3011691566913556  0.6714172225258530
  0.6311695896785168  0.0367800520231963  0.0580014186004952
  0.1822206566604727  0.3089413906877424  0.3588155580725073
  0.8841438035816583  0.7940927733607712  0.9421691473324973
  0.1135650695059420  0.8452088221576810  0.8235419685504829
  0.2922008005631792  0.3325454030148238  0.1466851951369734
  0.5451476070129637  0.8766586546211835  0.0187573660392601
  0.1009518198807003  0.5176613684208312  0.0150261039401073
  0.7624746337608648  0.4568244010022648  0.0861723888642597
  0.5898642169543529  0.5518717362920055  0.4343304546635636
  0.2566624776523017  0.9636567263606476  0.5842761942361819
  0.6499397816232771  0.1333676868933047  0.9743326339543565
  0.5766023758243055  0.7651024868521024  0.7146541135078588
  0.9160448495490079  0.2774914857076238  0.5995180393149868
  0.6209026998667625  0.6392417477803238  0.0460364469878805
  0.5916886782113878  0.3147337420595686  0.2848283807774922
  0.5512357026333579  0.1995377379038786  0.9288683880446879
  0.1062946298718296  0.0425127464585258  0.5964675230670305
  0.4766788534828079  0.5740564767518032  0.3745713941731870
  0.8718848594150620  0.2132023791564264  0.5039472721035896
  0.6551467362625781  0.8375787105363414  0.5603046858626751
  0.4821412400025982  0.8859260019411352  0.5133966346517445
  0.2701397676136227  0.9371714001209420  0.9455099530739346
  0.2768650858691152  0.5572287269363903  0.6330729691106650
  0.2229956945661400  0.7077198671069851  0.5238072207258836
  0.2871217658910725  0.2497860203187862  0.9724060647528667
  0.0998128857724341  0.3857462861517171  0.2036870513041907
  0.6581119497182136  0.3264377478877812  0.9529412512416985
  0.1235392283406671  0.5618752531660604  0.1443492490128437
  0.9031891082523077  0.9862222071977059  0.1517451294738583
  0.4009213324412189  0.8799674142010072  0.7344654115317056
  0.6187790274703642  0.8464074434873410  0.1205981170692899
  0.0737595671522962  0.3155084825940381  0.9346369420256618
  0.0367290155274327  0.7300020783206109  0.2289511028162529
  0.6695082270891802  0.1726726490054462  0.7856851638104143
  0.7728803882610731  0.9087006686261837  0.7017138663332422
  0.9465527897017905  0.8781894120476511  0.7155247882713854
  0.9839409779381676  0.8486594002025694  0.0562267725225590
  0.3177205433841495  0.8075515081529457  0.5293449279794271
  0.9346979836318391  0.1231722101589684  0.4369559167467835
  0.6820853091304525  0.7365588685257659  0.3032623482378212
  0.5923729018655380  0.7505372964556908  0.4907632591053993
  0.4337145292654884  0.4197563179670549  0.2585129007037381
  0.8090841661047540  0.6474102538102335  0.5981528294865266
  0.1949722104192882  0.2559587480384421  0.5895984770995510
  0.0050897313334849  0.0421653610809303  0.8498718523330014
  0.7030939050419468  0.4500188526561824  0.3649748737221907
  0.0062972836872039  0.1991654864377320  0.2809005657328929
  0.9846764156269734  0.5622568679732540  0.8938016417496322
  0.9826295753022575  0.0421943952077522  0.9884360094110319
  0.1987243981246366  0.4484674013914100  0.5204445174912036
  0.3237661738892979  0.7090994697388275  0.6796754158316181
  0.3515695961358857  0.7605546600303169  0.4111542715816819
  0.3410703106114703  0.9736178007048919  0.7981508654717389
  0.1809246021046024  0.2581650317579660  0.7733420419365320
  0.2194049811926188  0.9728009339732062  0.0594693206664956
  0.4863316408743139  0.6004495853821676  0.2470927253576472
  0.7480060974225259  0.6286422153865946  0.0323438628555945
  0.4088689336768275  0.2032146110788885  0.8033851147160144
  0.4725114600726957  0.3950789517305056  0.9633055664506758
  0.9850394839111463  0.7186542491438970  0.8094792070242446
  0.1657222789953309  0.7838343853159547  0.0946699745770196
  0.3201883416145117  0.3567342189446364  0.8686479660435436
  0.6722251186769761  0.1451365445837332  0.4088773317014154
  0.3318589946569733  0.9512709417706855  0.3289200204240169
  0.2224599448128651  0.8339190450009550  0.6482120515812919
  0.8705223233951148  0.3295916480121237  0.4437064557808361
  0.7404896025921858  0.4564784492714329  0.8469505964895465
  0.0262811383113235  0.9102952865033276  0.6176660624245507
  0.0918426706629207  0.1647694425632972  0.7254632239873610
  0.4926626611766878  0.0944608795616688  0.5232380660539132
  0.4191121002920606  0.4377290968721327  0.4962057962543048
  0.1450112656886158  0.6706436270537741  0.9221036211234165
  0.4237925531121218  0.8826342247573254  0.1644341756185352
  0.3845631977216694  0.5335427726025468  0.8175939933220531
  0.8866828836929671  0.5019865644929048  0.1931880846903602
  0.9017243455698747  0.1139227442581040  0.8411395206526799
  0.8903871787088683  0.9507628700813449  0.3492058449291849
  0.9786489876560615  0.5650871977816014  0.3248925422879899
  0.0006650273131906  0.4408298255081915  0.6675291868354452
  0.2466088785010764  0.8137062839672451  0.9312564366743231
  0.0650393063202117  0.8817047792797426  0.3706893609228153
  0.3898001698808339  0.4073591896016236  0.1445002191084514
  0.6561991279532197  0.0878451484323816  0.6966039488555462
  0.7292141213702715  0.2127849043434090  0.0268642810886707
  0.2638774255739124  0.9025437094331461  0.4742783844134862
  0.7952956396147431  0.7822695182806753  0.3479089112761176
  0.6769469177967564  0.9839537160080934  0.7545956855783688
  0.6914803773614021  0.7885305698014856  0.6686939665896006
  0.3025463298762016  0.6093944467585740  0.5181783761788468
  0.7388870419299812  0.5297333030792086  0.1813086049299935
  0.4457409820094351  0.1343715236452395  0.9090722996360541
  0.4001784402241087  0.1254218529031410  0.1016497789117100
  0.4533622867291328 -0.0020825372226101  0.4510815957585483
  0.8739974135735314  0.9733870104307900  0.7505780344383981
  0.7380131559516135  0.0977922531547029  0.2353766215836305
  0.6204294164574375  0.9560585637873574  0.9571919319837228
  0.5746061988184581  0.2436312349304262  0.8176431119462403
  0.2119939195630523  0.1515697514230465  0.1352166827946406
  0.1299608165945411  0.3536904217647805  0.8337531162073613
  0.2841646694842709  0.3341290197014033  0.2766450032460425
  0.4709626573176927  0.4951907055183386  0.7436143929679201
  0.2343239250783869  0.6829786076395297  0.0819218649239063
  0.3041224820330461  0.1450243703959868  0.2871953478158601
  0.4475823942747619  0.6916501866465169  0.7970296622904696
  0.3852589922632278  0.9915366712771451  0.2109181315785214
  0.5818388193235157  0.2011465002873861  0.6055334750864131
  0.3096568736141228  0.3704648587347964  0.9898130324402631
  0.9296010645388264  0.7652139580350803  0.2779726022790431
  0.4491888325697856  0.9455832522649398  0.0544279244933719
  0.1276682061448337  0.4196175416241822  0.3222893371859670
  0.1135015042603658  0.5467579028792418  0.8926459751597163
  0.7671151665634264  0.3378547120894447  0.8862244244016744
  0.1836759089776885  0.0812525628023467  0.6947667951624074
  0.4492344188362245  0.2407599507236150  0.2511601744415580
  0.7096634936744569  0.3631817022844210  0.2685563973322229
  0.5699458631939547  0.5310908713578784  0.0796717933573522
  0.2803531532647880  0.4665614017374866  0.8239071369945115
  0.2010572481266349  0.7046193096857837  0.6491315959845163
  0.0561647815481385  0.1510684806778952  0.5627089222660785
  0.3836854603195692  0.9645484267606799  0.9093257751535871
  0.4981972785380585  0.9973842361752969  0.7560956531994786
  0.7302515592721966  0.5462129517295106  0.5990473566560766
  0.2190558019226089  0.9445310176118490  0.2820599561100739
  0.9579827691358364  0.4144201649932434  0.4694126102816517
  0.5626694165870888  0.8524007454918390  0.4237090081700453
  0.7368977525130013  0.2524338308229222  0.7268827862871703
  0.2436492406473401  0.7125722484959216  0.3740501525327796
  0.7174865164628683  0.1111672503092623  0.8765679126901109
  0.1475650024630552  0.0523535976526725  0.4243526731225886
  0.7068908850043739  0.7292464048661954  0.1789352677613049
  0.7194531452728554  0.6174221256138078  0.3154620080451644
  0.0546103733607808  0.7015489151856791  0.4212225999153597
  0.1137395727776303  0.9361848432536620  0.0000102721348820
  0.9626703568699799  0.3712363093637329  0.9137795076082121
  0.9068755172981076  0.9637994529050179  0.5569491437400645
  0.2638669141937705  0.8586004063731422  0.1147106212402474
  0.7638588539685947  0.6677184532764623  0.8285949254185293
  0.0237244352925445  0.7947736897904134  0.5497212200567747
  0.4143531067444507  0.2754975625565270  0.6268202814982752
  0.6779750734160406  0.4262117627021700  0.7375195513903429
  0.2800457959003905  0.2751974100806472  0.4950470675657574
  0.0562680351068003  0.0644535086102780  0.0880225359024740
  0.7559616122458156  0.0274661258242254  0.0570518931328931
  0.7787503651378790  0.5207700399968509  0.9866039403423602
  0.0497209388907029  0.0419130487413414  0.2623967440557181
  0.5874322731640792  0.4308184866952450  0.4111409231402918
  0.5492594620671191  0.4122923015264539  0.2084332803284242
  0.4535128490986627  0.6856102645210304  0.4249673574556543
  0.5242710659754758  0.7181141705439202  0.2383147931696054
  0.3852761241788437  0.8275387363914175  0.3151239772630094
  0.9887564046080416  0.8559180233844662  0.8307346128977675
  0.6789740108932768  0.7758181285328600  0.9755305009018630
  0.4507325276036083  0.6860950631850077  0.0786348760744358
  0.9806519718521636  0.6834756063669095  0.9324491531423007
  0.9096843089640271  0.1394787772060496  0.0254775849983396
  0.8055013322359079  0.9041928513204252  0.9057063730638012
  0.5437405213575656  0.8988724798655564  0.2073770659519214
  0.8031711247958934  0.9069762920479482  0.1804117514426669
  0.1196526426894649  0.7143767675044553  0.8043782073901951
  0.7718561623166487  0.4016715126628947  0.4656669902332485
  0.4397800216483649  0.3462129930581953  0.8511111178630063
  0.9891569065032818  0.8955275635800031  0.1758710202117686
  0.3595820293738092  0.6233022398880297  0.2363652888499642
  0.1335400966291266  0.2232019202577850  0.2791470649063844
  0.8534254132436565  0.4541264145824782  0.3062275666453573
  0.8684085256798769  0.1548376146033617  0.3333200880967224
  0.5129836270219061  0.7556111602228228  0.5939717404711166
  0.6881162796417987  0.9344815914739435  0.3180540539083929
  0.5000575549736642  0.8124075921630889  0.9240284110251465
  0.1382575534861970  0.7959947805637729  0.2192845677007774
  0.0140135195542695  0.2165498916639345  0.4086712886315810
  0.7537754429075576  0.8821947129348323  0.5053491440991725
  0.2269080297743097  0.3360494553879744  0.6837421668400669
  0.8432732453518563  0.4897707942923965  0.7752478501110571
  0.1191763857916234  0.3940661151508753  0.0199616720955045
  0.6034792497560111  0.6312572914438600  0.7187474564752305
  0.9744100300767308  0.5264141642593284  0.0164112062583310
  0.6079768571275980  0.2414841298271787  0.1780119162792622
  0.5039060324446034  0.2712932700123772  0.0153776873265141
  0.8714709804276666  0.7856966753751773  0.0747262264600429
  0.5756342525033753  0.1270757604069241  0.3333600615446823
  0.2766626435657141  0.6477225172530652  0.9034208410434733
  0.5860964402014046  0.3741127748376122  0.5833910144135696
  0.3553045543981785  0.0916904042428202  0.7435445715298532
  0.5421889440522299  0.5579532008695004  0.5523399048795880
  0.1241625622704779  0.8843736783104633  0.7030772372839771
  0.0951379533088327  0.1349693947415894  0.8538336245356789
  0.1457911840076499  0.5378128625193382  0.4361667122196631
  0.9067194562455139  0.9490702762169795  0.0261325953510458
  0.3360680558543114  0.4467398777066368  0.5959422791790124
  0.6635348141880514  0.2628676302545478  0.4480847030451616
  0.2911253052623389  0.8115223911112912  0.7499061657567763
  0.7583339642592773  0.6892401520805382  0.4877199729159122
  0.9697068927301153  0.3174396162190662  0.2475553772525224
  0.0220416336943866  0.4805862163392662  0.1688489558371987
  0.1129836130358814  0.3425314133290076  0.5265793592111649
  0.2550576821847276  0.0921976557671545  0.9686132577485552
  0.9318809813619094  0.2258580248189872  0.8746465231551291
  0.0375509275056150  0.2483948884793095  0.1044235244099347
  0.6220325063469244  0.0675051991682248  0.4922046316384184
  0.5707892747137445  0.6349834269352242  0.9322509883866652
  0.2186243085335086  0.9712257767120717  0.8361115683641558
  0.5920381293687460  0.4315626380416479  0.9123113769643048
  0.7748213711151672  0.1633104646415638  0.5613758820210477
  0.5825774306430178  0.9362242801886311  0.5906416591200916
  0.1712932234383094  0.5998712069417965  0.2692270641909901
  0.1606208642972606  0.5103757242987723  0.6250430238779734
  0.8676355824198475  0.7885136703668651  0.6851290389962091
  0.4124697719494180  0.5314423493317001  0.9355124554159101
  0.0276910057682801  0.6801612093013619  0.1195662788393580
  0.7451226188480831  0.8503596984653735  0.8153198252365850
  0.8304664608039851  0.3586436352504020  0.6278939822564081
  0.3787431174125598  0.9324165468727017  0.6224398149233422
  0.3236871456120735  0.4413541203089910  0.4196904892702244
  0.0218309693369138  0.6494678541410887  0.6580313040383196
  0.9277465722680772  0.2073541728594434  0.6955677142070106
  0.7797452923609332  0.2656046238358239  0.3003772904318798
  0.8580753919504657  0.3954444087532938  0.1245495193214427
  0.2036969932536402  0.4546232649170285  0.1567432231093759
  0.4249228528793444  0.1793351939677456  0.4405828298177381
  0.9042232303954499  0.5930454102142587  0.5283284720504386
  0.0245783518801842  0.0340592541685823  0.6960269840339478
  0.9810852702113185  0.5852375929493029  0.7606610425954405
  0.6691756887630733  0.3801591009626346  0.0735492130422266
  0.3099466318105630  0.0832117325486141  0.5561210252765278
 
  0.00000000E+00  0.00000000E+00  0.00000000E+00
  0.00000000E+00  0.00000000E+00  0.00000000E+00
  0.00000000E+00  0.00000000E+00  0.00000000E+00
  0.00000000E+00  0.00000000E+00  0.00000000E+00
  0.00000000E+00  0.00000000E+00  0.00000000E+00
  0.00000000E+00  0.00000000E+00  0.00000000E+00
  0.00000000E+00  0.00000000E+00  0.00000000E+00
  0.00000000E+00  0.00000000E+00  0.00000000E+00
  0.00000000E+00  0.00000000E+00  0.00000000E+00
  0.00000000E+00  0.00000000E+00  0.00000000E+00
  0.00000000E+00  0.00000000E+00  0.00000000E+00
  0.00000000E+00  0.00000000E+00  0.00000000E+00
  0.00000000E+00  0.00000000E+00  0.00000000E+00
  0.00000000E+00  0.00000000E+00  0.00000000E+00
  0.00000000E+00  0.00000000E+00  0.00000000E+00
  0.00000000E+00  0.00000000E+00  0.00000000E+00
  0.00000000E+00  0.00000000E+00  0.00000000E+00
  0.00000000E+00  0.00000000E+00  0.00000000E+00
  0.00000000E+00  0.00000000E+00  0.00000000E+00
  0.00000000E+00  0.00000000E+00  0.00000000E+00
  0.00000000E+00  0.00000000E+00  0.00000000E+00
  0.00000000E+00  0.00000000E+00  0.00000000E+00
  0.00000000E+00  0.00000000E+00  0.00000000E+00
  0.00000000E+00  0.00000000E+00  0.00000000E+00
  0.00000000E+00  0.00000000E+00  0.00000000E+00
  0.00000000E+00  0.00000000E+00  0.00000000E+00
  0.00000000E+00  0.00000000E+00  0.00000000E+00
  0.00000000E+00  0.00000000E+00  0.00000000E+00
  0.00000000E+00  0.00000000E+00  0.00000000E+00
  0.00000000E+00  0.00000000E+00  0.00000000E+00
  0.00000000E+00  0.00000000E+00  0.00000000E+00
  0.00000000E+00  0.00000000E+00  0.00000000E+00
  0.00000000E+00  0.00000000E+00  0.00000000E+00
  0.00000000E+00  0.00000000E+00  0.00000000E+00
  0.00000000E+00  0.00000000E+00  0.00000000E+00
  0.00000000E+00  0.00000000E+00  0.00000000E+00
  0.00000000E+00  0.00000000E+00  0.00000000E+00
  0.00000000E+00  0.00000000E+00  0.00000000E+00
  0.00000000E+00  0.00000000E+00  0.00000000E+00
  0.00000000E+00  0.00000000E+00  0.00000000E+00
  0.00000000E+00  0.00000000E+00  0.00000000E+00
  0.00000000E+00  0.00000000E+00  0.00000000E+00
  0.00000000E+00  0.00000000E+00  0.00000000E+00
  0.00000000E+00  0.00000000E+00  0.00000000E+00
  0.00000000E+00  0.00000000E+00  0.00000000E+00
  0.00000000E+00  0.00000000E+00  0.00000000E+00
  0.00000000E+00  0.00000000E+00  0.00000000E+00
  0.00000000E+00  0.00000000E+00  0.00000000E+00
  0.00000000E+00  0.00000000E+00  0.00000000E+00
  0.00000000E+00  0.00000000E+00  0.00000000E+00
  0.00000000E+00  0.00000000E+00  0.00000000E+00
  0.00000000E+00  0.00000000E+00  0.00000000E+00
  0.00000000E+00  0.00000000E+00  0.00000000E+00
  0.00000000E+00  0.00000000E+00  0.00000000E+00
  0.00000000E+00  0.00000000E+00  0.00000000E+00
  0.00000000E+00  0.00000000E+00  0.00000000E+00
  0.00000000E+00  0.00000000E+00  0.00000000E+00
  0.00000000E+00  0.00000000E+00  0.00000000E+00
  0.00000000E+00  0.00000000E+00  0.00000000E+00
  0.00000000E+00  0.00000000E+00  0.00000000E+00
  0.00000000E+00  0.00000000E+00  0.00000000E+00
  0.00000000E+00  0.00000000E+00  0.00000000E+00
  0.00000000E+00  0.00000000E+00  0.00000000E+00
  0.00000000E+00  0.00000000E+00  0.00000000E+00
  0.00000000E+00  0.00000000E+00  0.00000000E+00
  0.00000000E+00  0.00000000E+00  0.00000000E+00
  0.00000000E+00  0.00000000E+00  0.00000000E+00
  0.00000000E+00  0.00000000E+00  0.00000000E+00
  0.00000000E+00  0.00000000E+00  0.00000000E+00
  0.00000000E+00  0.00000000E+00  0.00000000E+00
  0.00000000E+00  0.00000000E+00  0.00000000E+00
  0.00000000E+00  0.00000000E+00  0.00000000E+00
  0.00000000E+00  0.00000000E+00  0.00000000E+00
  0.00000000E+00  0.00000000E+00  0.00000000E+00
  0.00000000E+00  0.00000000E+00  0.00000000E+00
  0.00000000E+00  0.00000000E+00  0.00000000E+00
  0.00000000E+00  0.00000000E+00  0.00000000E+00
  0.00000000E+00  0.00000000E+00  0.00000000E+00
  0.00000000E+00  0.00000000E+00  0.00000000E+00
  0.00000000E+00  0.00000000E+00  0.00000000E+00
  0.00000000E+00  0.00000000E+00  0.00000000E+00
  0.00000000E+00  0.00000000E+00  0.00000000E+00
  0.00000000E+00  0.00000000E+00  0.00000000E+00
  0.00000000E+00  0.00000000E+00  0.00000000E+00
  0.00000000E+00  0.00000000E+00  0.00000000E+00
  0.00000000E+00  0.00000000E+00  0.00000000E+00
  0.00000000E+00  0.00000000E+00  0.00000000E+00
  0.00000000E+00  0.00000000E+00  0.00000000E+00
  0.00000000E+00  0.00000000E+00  0.00000000E+00
  0.00000000E+00  0.00000000E+00  0.00000000E+00
  0.00000000E+00  0.00000000E+00  0.00000000E+00
  0.00000000E+00  0.00000000E+00  0.00000000E+00
  0.00000000E+00  0.00000000E+00  0.00000000E+00
  0.00000000E+00  0.00000000E+00  0.00000000E+00
  0.00000000E+00  0.00000000E+00  0.00000000E+00
  0.00000000E+00  0.00000000E+00  0.00000000E+00
  0.00000000E+00  0.00000000E+00  0.00000000E+00
  0.00000000E+00  0.00000000E+00  0.00000000E+00
  0.00000000E+00  0.00000000E+00  0.00000000E+00
  0.00000000E+00  0.00000000E+00  0.00000000E+00
  0.00000000E+00  0.00000000E+00  0.00000000E+00
  0.00000000E+00  0.00000000E+00  0.00000000E+00
  0.00000000E+00  0.00000000E+00  0.00000000E+00
  0.00000000E+00  0.00000000E+00  0.00000000E+00
  0.00000000E+00  0.00000000E+00  0.00000000E+00
  0.00000000E+00  0.00000000E+00  0.00000000E+00
  0.00000000E+00  0.00000000E+00  0.00000000E+00
  0.00000000E+00  0.00000000E+00  0.00000000E+00
  0.00000000E+00  0.00000000E+00  0.00000000E+00
  0.00000000E+00  0.00000000E+00  0.00000000E+00
  0.00000000E+00  0.00000000E+00  0.00000000E+00
  0.00000000E+00  0.00000000E+00  0.00000000E+00
  0.00000000E+00  0.00000000E+00  0.00000000E+00
  0.00000000E+00  0.00000000E+00  0.00000000E+00
  0.00000000E+00  0.00000000E+00  0.00000000E+00
  0.00000000E+00  0.00000000E+00  0.00000000E+00
  0.00000000E+00  0.00000000E+00  0.00000000E+00
  0.00000000E+00  0.00000000E+00  0.00000000E+00
  0.00000000E+00  0.00000000E+00  0.00000000E+00
  0.00000000E+00  0.00000000E+00  0.00000000E+00
  0.00000000E+00  0.00000000E+00  0.00000000E+00
  0.00000000E+00  0.00000000E+00  0.00000000E+00
  0.00000000E+00  0.00000000E+00  0.00000000E+00
  0.00000000E+00  0.00000000E+00  0.00000000E+00
  0.00000000E+00  0.00000000E+00  0.00000000E+00
  0.00000000E+00  0.00000000E+00  0.00000000E+00
  0.00000000E+00  0.00000000E+00  0.00000000E+00
  0.00000000E+00  0.00000000E+00  0.00000000E+00
  0.00000000E+00  0.00000000E+00  0.00000000E+00
  0.00000000E+00  0.00000000E+00  0.00000000E+00
  0.00000000E+00  0.00000000E+00  0.00000000E+00
  0.00000000E+00  0.00000000E+00  0.00000000E+00
  0.00000000E+00  0.00000000E+00  0.00000000E+00
  0.00000000E+00  0.00000000E+00  0.00000000E+00
  0.00000000E+00  0.00000000E+00  0.00000000E+00
  0.00000000E+00  0.00000000E+00  0.00000000E+00
  0.00000000E+00  0.00000000E+00  0.00000000E+00
  0.00000000E+00  0.00000000E+00  0.00000000E+00
  0.00000000E+00  0.00000000E+00  0.00000000E+00
  0.00000000E+00  0.00000000E+00  0.00000000E+00
  0.00000000E+00  0.00000000E+00  0.00000000E+00
  0.00000000E+00  0.00000000E+00  0.00000000E+00
  0.00000000E+00  0.00000000E+00  0.00000000E+00
  0.00000000E+00  0.00000000E+00  0.00000000E+00
  0.00000000E+00  0.00000000E+00  0.00000000E+00
  0.00000000E+00  0.00000000E+00  0.00000000E+00
  0.00000000E+00  0.00000000E+00  0.00000000E+00
  0.00000000E+00  0.00000000E+00  0.00000000E+00
  0.00000000E+00  0.00000000E+00  0.00000000E+00
  0.00000000E+00  0.00000000E+00  0.00000000E+00
  0.00000000E+00  0.00000000E+00  0.00000000E+00
  0.00000000E+00  0.00000000E+00  0.00000000E+00
  0.00000000E+00  0.00000000E+00  0.00000000E+00
  0.00000000E+00  0.00000000E+00  0.00000000E+00
  0.00000000E+00  0.00000000E+00  0.00000000E+00
  0.00000000E+00  0.00000000E+00  0.00000000E+00
  0.00000000E+00  0.00000000E+00  0.00000000E+00
  0.00000000E+00  0.00000000E+00  0.00000000E+00
  0.00000000E+00  0.00000000E+00  0.00000000E+00
  0.00000000E+00  0.00000000E+00  0.00000000E+00
  0.00000000E+00  0.00000000E+00  0.00000000E+00
  0.00000000E+00  0.00000000E+00  0.00000000E+00
  0.00000000E+00  0.00000000E+00  0.00000000E+00
  0.00000000E+00  0.00000000E+00  0.00000000E+00
  0.00000000E+00  0.00000000E+00  0.00000000E+00
  0.00000000E+00  0.00000000E+00  0.00000000E+00
  0.00000000E+00  0.00000000E+00  0.00000000E+00
  0.00000000E+00  0.00000000E+00  0.00000000E+00
  0.00000000E+00  0.00000000E+00  0.00000000E+00
  0.00000000E+00  0.00000000E+00  0.00000000E+00
  0.00000000E+00  0.00000000E+00  0.00000000E+00
  0.00000000E+00  0.00000000E+00  0.00000000E+00
  0.00000000E+00  0.00000000E+00  0.00000000E+00
  0.00000000E+00  0.00000000E+00  0.00000000E+00
  0.00000000E+00  0.00000000E+00  0.00000000E+00
  0.00000000E+00  0.00000000E+00  0.00000000E+00
  0.00000000E+00  0.00000000E+00  0.00000000E+00
  0.00000000E+00  0.00000000E+00  0.00000000E+00
  0.00000000E+00  0.00000000E+00  0.00000000E+00
  0.00000000E+00  0.00000000E+00  0.00000000E+00
  0.00000000E+00  0.00000000E+00  0.00000000E+00
  0.00000000E+00  0.00000000E+00  0.00000000E+00
  0.00000000E+00  0.00000000E+00  0.00000000E+00
  0.00000000E+00  0.00000000E+00  0.00000000E+00
  0.00000000E+00  0.00000000E+00  0.00000000E+00
  0.00000000E+00  0.00000000E+00  0.00000000E+00
  0.00000000E+00  0.00000000E+00  0.00000000E+00
  0.00000000E+00  0.00000000E+00  0.00000000E+00
  0.00000000E+00  0.00000000E+00  0.00000000E+00
  0.00000000E+00  0.00000000E+00  0.00000000E+00
  0.00000000E+00  0.00000000E+00  0.00000000E+00
  0.00000000E+00  0.00000000E+00  0.00000000E+00
  0.00000000E+00  0.00000000E+00  0.00000000E+00
  0.00000000E+00  0.00000000E+00  0.00000000E+00
  0.00000000E+00  0.00000000E+00  0.00000000E+00
  0.00000000E+00  0.00000000E+00  0.00000000E+00
  0.00000000E+00  0.00000000E+00  0.00000000E+00
  0.00000000E+00  0.00000000E+00  0.00000000E+00
  0.00000000E+00  0.00000000E+00  0.00000000E+00
  0.00000000E+00  0.00000000E+00  0.00000000E+00
  0.00000000E+00  0.00000000E+00  0.00000000E+00
  0.00000000E+00  0.00000000E+00  0.00000000E+00
  0.00000000E+00  0.00000000E+00  0.00000000E+00
  0.00000000E+00  0.00000000E+00  0.00000000E+00
  0.00000000E+00  0.00000000E+00  0.00000000E+00
  0.00000000E+00  0.00000000E+00  0.00000000E+00
  0.00000000E+00  0.00000000E+00  0.00000000E+00
  0.00000000E+00  0.00000000E+00  0.00000000E+00
  0.00000000E+00  0.00000000E+00  0.00000000E+00
  0.00000000E+00  0.00000000E+00  0.00000000E+00
  0.00000000E+00  0.00000000E+00  0.00000000E+00
  0.00000000E+00  0.00000000E+00  0.00000000E+00
  0.00000000E+00  0.00000000E+00  0.00000000E+00
  0.00000000E+00  0.00000000E+00  0.00000000E+00
  0.00000000E+00  0.00000000E+00  0.00000000E+00
  0.00000000E+00  0.00000000E+00  0.00000000E+00
  0.00000000E+00  0.00000000E+00  0.00000000E+00
  0.00000000E+00  0.00000000E+00  0.00000000E+00
  0.00000000E+00  0.00000000E+00  0.00000000E+00
  0.00000000E+00  0.00000000E+00  0.00000000E+00
  0.00000000E+00  0.00000000E+00  0.00000000E+00
  0.00000000E+00  0.00000000E+00  0.00000000E+00
  0.00000000E+00  0.00000000E+00  0.00000000E+00
  0.00000000E+00  0.00000000E+00  0.00000000E+00
  0.00000000E+00  0.00000000E+00  0.00000000E+00
  0.00000000E+00  0.00000000E+00  0.00000000E+00
  0.00000000E+00  0.00000000E+00  0.00000000E+00
  0.00000000E+00  0.00000000E+00  0.00000000E+00
  0.00000000E+00  0.00000000E+00  0.00000000E+00
  0.00000000E+00  0.00000000E+00  0.00000000E+00
  0.00000000E+00  0.00000000E+00  0.00000000E+00
  0.00000000E+00  0.00000000E+00  0.00000000E+00