AIST                                    
   1.05000000000000     
    21.7666543877800116    0.0000000000000000    0.0000000000000000
     0.0000000000000000   21.7670216467637587    0.0000000000000000
     0.0000000000000000    0.0000000000000000   21.7613986770381906
   Ag   In   Sb   Te
    15    15   180    90
Direct
  0.7095415825512357  0.5065690352980854  0.5148085351345505
  0.9003565518630443  0.3808640642183552  0.7928397817860364
  0.2790521719950487  0.5092398812212154  0.4933672939890115
  0.1014511135440190  0.8388793557786154  0.9380542802387942
  0.5239512559473501  0.4256784369646792  0.0966604513061041
  0.2015528393658617  0.3653092651675912  0.1164315846801007
  0.7151764146764064  0.6804159553319764  0.8266864005713823
  0.5848354526736325  0.1924562054831740  0.7713855394680167
  0.0757493779004724  0.7366547659136651  0.5376645845704092
  0.1418956470507087  0.9714519630274632  0.2156969908876100
  0.8952918724902710  0.6371214262021531  0.3573316711963858
  0.3320906262836504  0.5070256789880373  0.6106945111104262
  0.6880072839819904  0.3288022865821835  0.6418105926554212
  0.0274008279743807  0.7383317351042789  0.7894717152325458
  0.2932211952170525  0.8040525592468534  0.4394522774074323
  0.6713756392913461  0.9298791676879570  0.9127216024763692
  0.2233589956307442  0.0522027937869447  0.6901423190865513
  0.6595914863840069  0.8718662127064317  0.2784138722174878
  0.4085683302930931  0.0011736164973296  0.6305869509702792
  0.9416788176960604  0.7997442467704320  0.6201540458566891
  0.3780547504942907  0.4908139611693971  0.0541689815386188
  0.3267083505869667  0.1406740887125131  0.5174494942380188
  0.1821550955422525  0.1634562256037065  0.1612721384218666
  0.7003104571320780  0.5896486226942724  0.0913934396964455
  0.7893455239356579  0.1385720260193171  0.7151554321845738
  0.5408422751674400  0.6650208942540712  0.9415549764707251
  0.0309808469352082  0.3827521336224863  0.8734594459864630
  0.6740761056553100  0.6264991468758990  0.4862691055728367
  0.1389965477474711  0.7453068122882250  0.4251694878977583
  0.4465899547839896  0.9537931754322733  0.8115892006153536
  0.4549687184196787  0.3257736049352529  0.7940238505688655
  0.8394509099300992  0.9303663989061979  0.7958775125243638
  0.8708014633662819 -0.0259495597932851  0.6776724585949576
  0.6721073787940445  0.4184874496163648  0.9978100566890495
  0.4638171111163673  0.1583005906169290  0.8226408365772775
  0.6625892106136070  0.1678287975429611  0.2884244801335136
  0.0116565016283364  0.0437211844408497  0.2922399382688894
  0.8713062335041175  0.2654458635834352  0.2040153257941630
  0.0989333414679879  0.9023839955537394  0.7963041287147675
  0.5786693827814606  0.5712190751458893  0.8656159512173139
  0.5921895041295031  0.7960716056778121  0.7384043903598835
  0.5186383186393759  0.5554076332247838  0.6306207563377112
  0.2710473646147683  0.6531599697799251  0.2626629555182642
  0.0993028753307943  0.1356657527654312  0.7625029111212156
  0.4316924625412272  0.2320612124201774  0.4298981732231101
  0.5655758728005431  0.1285228995807355  0.3638230980308121
  0.5000158167653732  0.7384112535444680  0.0398272342414406
  0.8626430634442932  0.5703439194067147  0.7232831837085439
  0.5704783742261084  0.0941413115150339  0.8590236816384337
  0.1957856099990689  0.2607391840210775  0.7060970140950128
  0.6076838070030056  0.2880191407795673  0.3390642968610355
  0.8279848637480596  0.9217029667447423  0.0235366639743242
  0.6410519258986901  0.2926491279387592  0.0086634625768579
  0.6265825538255870  0.4890739736678320  0.6157640263559832
  0.9362174953576100  0.5539496169380960  0.9287803714910392
  0.5881652556424187  0.1469812276955977  0.9757004111455466
  0.0902527933486811  0.6222808928681022  0.4901604421461364
  0.1316449961679754  0.4397533383762501  0.7301806069075388
  0.7115977179335675  0.9321215350480498  0.0768988218343505
  0.1437220679337111  0.4396430294882169  0.8577552491637308
  0.4849960849979992  0.1531727209739428  0.6946328809551410
  0.7991225855407007  0.4014695191109854  0.9773653610273787
  0.1857344682483261  0.0542892738712909  0.8117381046345364
  0.4068107903986600  0.9631890470472997  0.1160546011778938
  0.1750392981164003  0.3094678190736132  0.5115720884588056
  0.4289150605968853  0.5751670590362788  0.1935334963338158
  0.2608487433469998  0.3707449529467406  0.7217039874387405
  0.9651078300879554  0.6100115919668871  0.0824748195497946
  0.0620607121940770  0.0110797379379489  0.8916990654717896
  0.2521198066447232  0.5171508162421239  0.0990486776746176
  0.0481753099606386  0.5370366307180344  0.7348138976407128
  0.0887473886449530  0.0274582027006465  0.4396434529723655
  0.2500113532358699  0.2431528656332592  0.5906997564986854
  0.8643211244249114  0.0620664923373535  0.8826545558211525
  0.9343199926219055  0.7607830012148599  0.4028874525642923
  0.2734975571589865  0.0996773576385930  0.2472492857979584
  0.2477005101303794  0.0171690464664412  0.9627315967671122
  0.8366159132993838  0.7078533375619159 -0.0114718474603524
  0.2833820917402485  0.0037397286941381  0.0855927252802844
  0.4833744963117312  0.2312713890608029  0.1072473254581622
  0.5953068481369269  0.7780807597961787  0.1176427846075326
  0.8010472088194248  0.5946353579627169  0.8335732584374830
  0.4177653415071115  0.7769664820083174  0.7458538378972003
  0.2210513967698750  0.5293728007922494  0.7075873313346003
  0.6293928933689104  0.6758446510105197  0.7231652576704244
  0.3583578218541783  0.9858227000577936  0.3896331643219230
  0.9903405932614842  0.8573742928674613  0.8526184681123662
  0.6667667597509063  0.4637693408761194  0.2892385916069543
  0.9959973581094296  0.0632492961291876  0.7911370356560162
  0.9846236759940059  0.5122617515613750  0.6277789311680381
  0.4805863543825776  0.8097931020801098  0.3643082186170810
  0.7834060685440921  0.0622329522761342  0.4115468478555845
  0.8666030770459138  0.8007985273847268  0.8077161612351180
  0.7565939154696850  0.5085499214764890  0.9212874145939134
  0.3763132026170454  0.6333125506834942  0.0903144110679810
  0.1006697272815323  0.4776721377805071  0.0056549524198896
  0.5476162671783048  0.7058172683922059  0.2111203764258040
  0.0583911401527090  0.5273433212613408  0.3452832185143606
  0.5576128767859931  0.0528767850040196  0.0548556315454269
  0.4413061560240654  0.4501388385237762  0.6359132661218618
  0.2969259164162726  0.7262705725133883  0.9101670933671138
  0.6959153308020898  0.5361535038228987  0.7121988084763435
  0.5837116735217787  0.0037452042824317  0.3894893781264844
  0.8854942724110620  0.1663783575492261  0.1159470379379440
  0.0978226813051323  0.3384729528412523  0.6100851878591333
  0.8026167991278956  0.6915710921299978  0.5175135922565101
  0.5595041659034876  0.1380201204401295  0.1514761934131617
  0.2636212025306737  0.0087913601432240  0.4731307929858520
  0.3407824362146927  0.6258548463498356  0.6254710058983992
  0.9395105560510140  0.6278198864952718  0.2430602777103659
  0.8078573852480551  0.5675127475408881  0.5461720052254226
  0.2354886850968185  0.6340236156739227  0.5546039444104245
  0.5191416831907509  0.6277679348697994  0.7694780831636459
  0.4667456575278022  0.4119918600006479  0.4531478935100374
  0.3237735516853434  0.7984797122302653  0.0622999204102481
  0.5017862052522680  0.4780472131986813  0.9036805029401007
  0.7589986449296672  0.2436782088964369  0.5848595235614645
  0.3378469666371660  0.5473621509121077  0.2827141593414573
  0.2636251581977900  0.8996437306509535  0.8051822891110521
  0.7322480888622354  0.8462609071366317  0.1678425180760664
  0.3101635442972686  0.3264347125904440  0.8304368883008075
  0.5814926650480250  0.5084562632344327  0.3751245778767970
  0.2535997788621133  0.6909622372773707  0.7932565217815135
  0.8915887418007766  0.2631638625270861  0.8970854873503259
  0.4777036478790804  0.2052582144869185  0.9821347592411503
  0.2230577013095215  0.5080752288509033  0.9754839558174436
  0.3278531425042626  0.9813506842121306  0.2602488143030066
  0.3755977454879726  0.8491577756924653  0.8415859589608035
  0.2410035562671937  0.8387804706223557  0.6949163543560980
  0.8601157567556287  0.2866704124380224  0.6484396341971563
  0.5137244797410687  0.3482095744855947  0.6052014243421449
  0.9448697662073950  0.7335851875609509  0.0509068450519753
  0.3633456601821544  0.6897166071453358  0.4213952462536117
  0.4242857510414782  0.5910935158882041  0.3646289031228760
  0.8979157530823846  0.1569236776530007  0.9691220992610282
  0.0888644672475055  0.2070412056419771  0.2929066540198049
  0.7241541557846412  0.5528974604532629  0.3613869828872605
  0.2428422408559777  0.6542449362587093  0.3895431038676740
  0.0157797620502606  0.3458569567889829  0.0473303844962856
  0.0463998435575705  0.5941670068324038  0.9813129769818258
  0.6874694346337051  0.8169803485425381  0.8205042046088881
  0.2506600458609669  0.6471645174058556  0.0978573211315686
  0.9074915690588444  0.1770901151374272  0.6922563615572555
  0.1625253279143245  0.9250246329146490  0.4640444279687315
  0.8579901843551933  0.8622954366741156  0.1758078200637700
  0.9538846151410291  0.9564335262671290  0.9309311324170053
  0.4568521470757535  0.9055956726908633  0.2829354291121087
  0.3864076598443627  0.8948417880899240  0.0106497326134608
  0.8843100617813435  0.4482418221314335  0.2805054432773080
  0.0470221595662522  0.3126632092277539  0.2312833398968596
  0.5548052993003485  0.0225505706955447  0.5129102093906395
  0.7246896332846275  0.6384148247143847  0.2656344980160589
  0.1623611162426691  0.6343516151455232  0.6599131792038915
  0.2433043744687059  0.3823701853467392 -0.0042957325885411
  0.6852079022759280  0.8011304497272883 -0.0117768620958496
  0.9612774552807621  0.2105116451577411  0.8031632131276153
  0.7485610115349548  0.1803988359939045  0.3838805371406323
  0.3803571565516300  0.5193179401697203  0.9024301286183299
  0.5010870954565855  0.5913536095471896  0.5101104594834140
  0.3730217663766598  0.6571057356907835  0.7610089881758210
  0.7728329368077002  0.4391262204583246  0.1834944920647711
  0.1431096431334010  0.0494861946032827  0.1133441215173640
  0.7195121078382370  0.7400497337623115  0.0967792108783225
 -0.0136119119370121  0.5101448319403706  0.2425820526964765
  0.7853422631030935  0.3660355476569425  0.7695578314203581
  0.3756507047103722  0.2309619139080291  0.3061093652727918
  0.5480474337244597  0.2837439621755101  0.4531384865650405
  0.5327069127513477  0.3155623235828028  0.9472142386573602
  0.3265987947712306  0.3468567211694039  0.6130831556535485
  0.8941866281222409  0.6696043691050040  0.8798344605701152
  0.9432106108363137  0.1458795178641915  0.4022887614217985
  0.0533409323456745  0.4056064140437134  0.3862885693043427
  0.5131757353074758  0.7443448653084128  0.8236089191395863
  0.1197797663563878  0.1972382250613548  0.4788331141797427
  0.1949819809756537  0.3279330993334107  0.8874285944823936
  0.4051433511886502  0.7475280182206899  0.1495365655142744
  0.8622581601323969  0.4426408805486696  0.0812159231489755
  0.3774780491325155  0.1587150924484427  0.1943895970897218
  0.9273310548876155  0.2893171055742436  0.5373360147715498
  0.8019287232680191  0.8234696568487432  0.9409458265585143
  0.4996914853253318  0.8734328401683855  0.1680748261013985
  0.4157649415402953  0.6824380247726844  0.5394020722532800
  0.2788512942600159  0.9023960814821185  0.5440114013963179
  0.3140118298709597  0.3170832036717243  0.1431173173734415
  0.2984434313530399  0.1459479601799838  0.3643839436335667
  0.0432671622861012  0.7587405056814730  0.3363667059843771
  0.3291295617460955  0.1099880360378063  0.9284185964709544
  0.5965860041843312  0.3896685736260990  0.6893026608958601
  0.0151594935035034  0.0516908587619186  0.0958106924852041
  0.4772058181637251  0.4461746913505309  0.7581437145510055
  0.7418071273713431  0.0514510668698326  0.1200518702339298
  0.7675247202106256  0.6229483667268040  0.6530310168572683
  0.6939357902942174  0.2253637660967158  0.7074177818725648
  0.8013791792569038  0.0038667383025781  0.2998789952594374
  0.7042043268852193  0.3688239846849123  0.3660621431713411
  0.5669293469754675  0.9532907477561189  0.2408885370354191
  0.0085653574524065  0.9335416672080987  0.0452192817315476
  0.4398224895692592  0.2754158120257889  0.6795921994450453
  0.1762401504066681  0.1139690069792376  0.0070390316713616
  0.0436374058731767  0.6259877608414773  0.6079977123330638
  0.4014454203757805  0.5218964445785579  0.4702370936106641
  0.5740805820218757  0.2970527636894356  0.8277282108070845
  0.4796064876962390  0.4456830454943452  0.3311756766900611
  0.2296213367683037  0.1610135653323360  0.8645361912901420
  0.7616946747117561  0.8973233090677007  0.3557887590467258
  0.0279283904371363  0.2433683094021769  0.4004966427561102
  0.2350801950610411  0.8869341917164243  0.1017446264942569
  0.1164220541717762  0.7966802356824124  0.7265813586012665
  0.2971715693458737  0.2135683758761807  0.7699935808874556
  0.9804854668001696  0.9599184868356579  0.4482027442154427
  0.5510126573031138  0.8988480005803673  0.5338529628422936
  0.2164519960729404  0.6567393510670878  0.9754996152283311
  0.7163656540214344  0.9348244894388673  0.7784204780894104
  0.8839486599289964  0.7407787274423099  0.1612561282536775
  0.2380848466638617  0.4330957476607739  0.5779680031156231
  0.6378191316332086  0.4256454883362083  0.4576427462679649
  0.3608675696367413  0.4923332701599840  0.7827960986611022
  0.0358424366687036  0.2746134221427000  0.9488106454611198
  0.7934622157591974  0.1790578393537605  0.0329346458671442
  0.0116143932762544  0.9589720384233742  0.7240348283710601
  0.7969729779865162  0.6982817895722125  0.3946995698175479
  0.7621235454787018  0.0316613730373342  0.6569336173939175
  0.4311823541148713  0.0427959690530384  0.5134637620144608
  0.6172736594061552  0.5993426318913333  0.2120140390193013
  0.2171315117535571  0.5763721731421720  0.8255948446808145
  0.0403686180759357  0.4307055934384686  0.5489462921609729
  0.8988083237982492  0.3059758608346426  0.0815601213633946
  0.1328435117221851  0.0563525811228762  0.3080839276389439
  0.0267354423129955  0.7499238318363276  0.9108559070157638
  0.2051418610845289  0.2265957565905003  0.3830111496411210
  0.9613485076516167  0.4918013663462135  0.8137268397595814
  0.1987268379759153  0.8511216734171834  0.3718163500149950
 -0.0140081328842079  0.5841638869121871  0.4316237118300221
  0.3533867209145302  0.7448217033047128  0.2660078300865533
  0.7573450942223769  0.1267752844731506  0.8410147278865975
  0.8439736974111275  0.5186118595474145  0.3753419757454522
  0.3919713034300840  0.8746506659773393  0.4377750727367646
  0.7032671186688360  0.4226839069859733  0.8461278659455350
  0.2321638660966375  0.5332600349886457  0.3860057300867709
  0.2848719863828347  0.3081747902868768  0.2607509485300495
  0.0022845667633121  0.3215354456793732  0.7630842263212195
  0.4352485819889156  0.0590037617240061  0.0394581010527389
  0.7562791272376970  0.3073439600583172  0.2055306605793303
  0.3677684016716537  0.3355558445095000  0.4525157435327296
  0.5052611475993777  0.5214089532449862  0.0211067457597878
  0.3657159329679859  0.3861510073771072 -0.0249842485549017
  0.1298784359871112  0.4689411483115786  0.1279153783484918
  0.3753520578236975  0.0630313682003668  0.8214953881290187
  0.1962571328176047  0.8130395454377323  0.8646178911477230
  0.7973751910307385  0.4652608162296081  0.6877686564231261
  0.2231518243596453  0.7576256897861554  0.5336981589618776
  0.7996752164076504  0.5775388420922045  0.1883213249295412
  0.7659754828564866  0.7574316502974993  0.7447548808855188
  0.4757591476775655  0.0794772487710875  0.2228977058050992
  0.8610979278560724  0.0415558000331484  0.1444503622035740
  0.9906892917415092  0.1513754448139033  0.2329986656483549
  0.2870117983883194  0.2035658389298778  0.0964153771309976
  0.9304087784314761  0.7085688530086108  0.5268459745835138
  0.0280000033793631  0.0043985636908818  0.5505377747773887
  0.0182135408648599  0.9666190385799995  0.1928087144648785
  0.4034109341784496  0.6483258877925248  0.8923622154317743
  0.4998089784252672  0.8475195037425050 -0.0177841885480726
  0.8828445383796777  0.1767823612788022  0.5063399948654236
  0.0556709016677997  0.1116012903333695  0.9644558010055634
  0.1250534102505386  0.1144436430521763  0.6428749233065878
  0.5768537053812641  0.3166990673766776  0.1139807721384037
  0.7680365475267406  0.2463078796895475  0.8670852453377500
  0.3679735919067111  0.8838768669924431  0.6308748797180670
  0.6903499511705831  0.9924093245257551  0.4541757131451573
  0.6739455954347167  0.6860190077632632  0.9395316018725456
  0.4265148815114409  0.4519148894693281  0.1688273430934558
  0.7749197546518863  0.0142051495824794  0.9588345809817302
  0.8491088862279826  0.8791815821443647  0.6009375288509775
  0.5271403577465290  0.3484729787422345  0.2677259082816378
  0.0634925975579845  0.8307989662552098  0.6156544155509042
  0.0579366306533577  0.6614491764336387  0.2620576331073228
  0.7481219979800138  0.3599814547452216  0.5409553158095145
  0.1930660302209703  0.9377923611783147  0.6337219382857836
  0.5819074361642625  0.8492356789464307  0.4286172236697232
  0.2377462160795104  0.8990907569538990  0.2274170000773786
  0.5386899155498517  0.9786387752033076  0.8966807622388118
  0.6032196009957201  0.7587333047560114  0.3099401971236885
  0.1232951926977329  0.9349707319102400  0.0017461517287760
  0.5042421470347095  0.9963693020161917  0.7086948550669707
  0.6964876118428152  0.0424139701476913  0.2423235681617029
  0.0276114057264999  0.2346285449573249  0.5862591747393784
  0.8531989044030426  0.1688743405361142  0.3128998516223996
  0.8528622989472714  0.5672147595001634  0.0400669815157019
  0.9451771361144607  0.3593630882473876  0.3448447117894907
  0.3316920319898412  0.0985820920455274  0.6515712699317328
  0.1297740596553798  0.3869729253056881  0.2875828913509806
  0.6630773674284234  0.4536411726293854  0.1179236840042009
  0.8636685106857590  0.8472319367297755  0.2996756619365545
  0.9507157622065761  0.4235786816906038  0.9692094850140857
  0.6099247599948706  0.6658333781815141  0.6001864237107692
  0.6020523915088577  0.1730453350684265  0.4741278962344409
  0.6120031173329323  0.1389904665467889  0.6648816177327912
  0.1173607214098227  0.2733972779700467  0.1350056014612882
  0.0243881667606464  0.8417403695584706  0.4579322475695011
  0.9289425355757863  0.7249133697815374  0.7215800337463559
 
  0.00000000E+00  0.00000000E+00  0.00000000E+00
  0.00000000E+00  0.00000000E+00  0.00000000E+00
  0.00000000E+00  0.00000000E+00  0.00000000E+00
  0.00000000E+00  0.00000000E+00  0.00000000E+00
  0.00000000E+00  0.00000000E+00  0.00000000E+00
  0.00000000E+00  0.00000000E+00  0.00000000E+00
  0.00000000E+00  0.00000000E+00  0.00000000E+00
  0.00000000E+00  0.00000000E+00  0.00000000E+00
  0.00000000E+00  0.00000000E+00  0.00000000E+00
  0.00000000E+00  0.00000000E+00  0.00000000E+00
  0.00000000E+00  0.00000000E+00  0.00000000E+00
  0.00000000E+00  0.00000000E+00  0.00000000E+00
  0.00000000E+00  0.00000000E+00  0.00000000E+00
  0.00000000E+00  0.00000000E+00  0.00000000E+00
  0.00000000E+00  0.00000000E+00  0.00000000E+00
  0.00000000E+00  0.00000000E+00  0.00000000E+00
  0.00000000E+00  0.00000000E+00  0.00000000E+00
  0.00000000E+00  0.00000000E+00  0.00000000E+00
  0.00000000E+00  0.00000000E+00  0.00000000E+00
  0.00000000E+00  0.00000000E+00  0.00000000E+00
  0.00000000E+00  0.00000000E+00  0.00000000E+00
  0.00000000E+00  0.00000000E+00  0.00000000E+00
  0.00000000E+00  0.00000000E+00  0.00000000E+00
  0.00000000E+00  0.00000000E+00  0.00000000E+00
  0.00000000E+00  0.00000000E+00  0.00000000E+00
  0.00000000E+00  0.00000000E+00  0.00000000E+00
  0.00000000E+00  0.00000000E+00  0.00000000E+00
  0.00000000E+00  0.00000000E+00  0.00000000E+00
  0.00000000E+00  0.00000000E+00  0.00000000E+00
  0.00000000E+00  0.00000000E+00  0.00000000E+00
  0.00000000E+00  0.00000000E+00  0.00000000E+00
  0.00000000E+00  0.00000000E+00  0.00000000E+00
  0.00000000E+00  0.00000000E+00  0.00000000E+00
  0.00000000E+00  0.00000000E+00  0.00000000E+00
  0.00000000E+00  0.00000000E+00  0.00000000E+00
  0.00000000E+00  0.00000000E+00  0.00000000E+00
  0.00000000E+00  0.00000000E+00  0.00000000E+00
  0.00000000E+00  0.00000000E+00  0.00000000E+00
  0.00000000E+00  0.00000000E+00  0.00000000E+00
  0.00000000E+00  0.00000000E+00  0.00000000E+00
  0.00000000E+00  0.00000000E+00  0.00000000E+00
  0.00000000E+00  0.00000000E+00  0.00000000E+00
  0.00000000E+00  0.00000000E+00  0.00000000E+00
  0.00000000E+00  0.00000000E+00  0.00000000E+00
  0.00000000E+00  0.00000000E+00  0.00000000E+00
  0.00000000E+00  0.00000000E+00  0.00000000E+00
  0.00000000E+00  0.00000000E+00  0.00000000E+00
  0.00000000E+00  0.00000000E+00  0.00000000E+00
  0.00000000E+00  0.00000000E+00  0.00000000E+00
  0.00000000E+00  0.00000000E+00  0.00000000E+00
  0.00000000E+00  0.00000000E+00  0.00000000E+00
  0.00000000E+00  0.00000000E+00  0.00000000E+00
  0.00000000E+00  0.00000000E+00  0.00000000E+00
  0.00000000E+00  0.00000000E+00  0.00000000E+00
  0.00000000E+00  0.00000000E+00  0.00000000E+00
  0.00000000E+00  0.00000000E+00  0.00000000E+00
  0.00000000E+00  0.00000000E+00  0.00000000E+00
  0.00000000E+00  0.00000000E+00  0.00000000E+00
  0.00000000E+00  0.00000000E+00  0.00000000E+00
  0.00000000E+00  0.00000000E+00  0.00000000E+00
  0.00000000E+00  0.00000000E+00  0.00000000E+00
  0.00000000E+00  0.00000000E+00  0.00000000E+00
  0.00000000E+00  0.00000000E+00  0.00000000E+00
  0.00000000E+00  0.00000000E+00  0.00000000E+00
  0.00000000E+00  0.00000000E+00  0.00000000E+00
  0.00000000E+00  0.00000000E+00  0.00000000E+00
  0.00000000E+00  0.00000000E+00  0.00000000E+00
  0.00000000E+00  0.00000000E+00  0.00000000E+00
  0.00000000E+00  0.00000000E+00  0.00000000E+00
  0.00000000E+00  0.00000000E+00  0.00000000E+00
  0.00000000E+00  0.00000000E+00  0.00000000E+00
  0.00000000E+00  0.00000000E+00  0.00000000E+00
  0.00000000E+00  0.00000000E+00  0.00000000E+00
  0.00000000E+00  0.00000000E+00  0.00000000E+00
  0.00000000E+00  0.00000000E+00  0.00000000E+00
  0.00000000E+00  0.00000000E+00  0.00000000E+00
  0.00000000E+00  0.00000000E+00  0.00000000E+00
  0.00000000E+00  0.00000000E+00  0.00000000E+00
  0.00000000E+00  0.00000000E+00  0.00000000E+00
  0.00000000E+00  0.00000000E+00  0.00000000E+00
  0.00000000E+00  0.00000000E+00  0.00000000E+00
  0.00000000E+00  0.00000000E+00  0.00000000E+00
  0.00000000E+00  0.00000000E+00  0.00000000E+00
  0.00000000E+00  0.00000000E+00  0.00000000E+00
  0.00000000E+00  0.00000000E+00  0.00000000E+00
  0.00000000E+00  0.00000000E+00  0.00000000E+00
  0.00000000E+00  0.00000000E+00  0.00000000E+00
  0.00000000E+00  0.00000000E+00  0.00000000E+00
  0.00000000E+00  0.00000000E+00  0.00000000E+00
  0.00000000E+00  0.00000000E+00  0.00000000E+00
  0.00000000E+00  0.00000000E+00  0.00000000E+00
  0.00000000E+00  0.00000000E+00  0.00000000E+00
  0.00000000E+00  0.00000000E+00  0.00000000E+00
  0.00000000E+00  0.00000000E+00  0.00000000E+00
  0.00000000E+00  0.00000000E+00  0.00000000E+00
  0.00000000E+00  0.00000000E+00  0.00000000E+00
  0.00000000E+00  0.00000000E+00  0.00000000E+00
  0.00000000E+00  0.00000000E+00  0.00000000E+00
  0.00000000E+00  0.00000000E+00  0.00000000E+00
  0.00000000E+00  0.00000000E+00  0.00000000E+00
  0.00000000E+00  0.00000000E+00  0.00000000E+00
  0.00000000E+00  0.00000000E+00  0.00000000E+00
  0.00000000E+00  0.00000000E+00  0.00000000E+00
  0.00000000E+00  0.00000000E+00  0.00000000E+00
  0.00000000E+00  0.00000000E+00  0.00000000E+00
  0.00000000E+00  0.00000000E+00  0.00000000E+00
  0.00000000E+00  0.00000000E+00  0.00000000E+00
  0.00000000E+00  0.00000000E+00  0.00000000E+00
  0.00000000E+00  0.00000000E+00  0.00000000E+00
  0.00000000E+00  0.00000000E+00  0.00000000E+00
  0.00000000E+00  0.00000000E+00  0.00000000E+00
  0.00000000E+00  0.00000000E+00  0.00000000E+00
  0.00000000E+00  0.00000000E+00  0.00000000E+00
  0.00000000E+00  0.00000000E+00  0.00000000E+00
  0.00000000E+00  0.00000000E+00  0.00000000E+00
  0.00000000E+00  0.00000000E+00  0.00000000E+00
  0.00000000E+00  0.00000000E+00  0.00000000E+00
  0.00000000E+00  0.00000000E+00  0.00000000E+00
  0.00000000E+00  0.00000000E+00  0.00000000E+00
  0.00000000E+00  0.00000000E+00  0.00000000E+00
  0.00000000E+00  0.00000000E+00  0.00000000E+00
  0.00000000E+00  0.00000000E+00  0.00000000E+00
  0.00000000E+00  0.00000000E+00  0.00000000E+00
  0.00000000E+00  0.00000000E+00  0.00000000E+00
  0.00000000E+00  0.00000000E+00  0.00000000E+00
  0.00000000E+00  0.00000000E+00  0.00000000E+00
  0.00000000E+00  0.00000000E+00  0.00000000E+00
  0.00000000E+00  0.00000000E+00  0.00000000E+00
  0.00000000E+00  0.00000000E+00  0.00000000E+00
  0.00000000E+00  0.00000000E+00  0.00000000E+00
  0.00000000E+00  0.00000000E+00  0.00000000E+00
  0.00000000E+00  0.00000000E+00  0.00000000E+00
  0.00000000E+00  0.00000000E+00  0.00000000E+00
  0.00000000E+00  0.00000000E+00  0.00000000E+00
  0.00000000E+00  0.00000000E+00  0.00000000E+00
  0.00000000E+00  0.00000000E+00  0.00000000E+00
  0.00000000E+00  0.00000000E+00  0.00000000E+00
  0.00000000E+00  0.00000000E+00  0.00000000E+00
  0.00000000E+00  0.00000000E+00  0.00000000E+00
  0.00000000E+00  0.00000000E+00  0.00000000E+00
  0.00000000E+00  0.00000000E+00  0.00000000E+00
  0.00000000E+00  0.00000000E+00  0.00000000E+00
  0.00000000E+00  0.00000000E+00  0.00000000E+00
  0.00000000E+00  0.00000000E+00  0.00000000E+00
  0.00000000E+00  0.00000000E+00  0.00000000E+00
  0.00000000E+00  0.00000000E+00  0.00000000E+00
  0.00000000E+00  0.00000000E+00  0.00000000E+00
  0.00000000E+00  0.00000000E+00  0.00000000E+00
  0.00000000E+00  0.00000000E+00  0.00000000E+00
  0.00000000E+00  0.00000000E+00  0.00000000E+00
  0.00000000E+00  0.00000000E+00  0.00000000E+00
  0.00000000E+00  0.00000000E+00  0.00000000E+00
  0.00000000E+00  0.00000000E+00  0.00000000E+00
  0.00000000E+00  0.00000000E+00  0.00000000E+00
  0.00000000E+00  0.00000000E+00  0.00000000E+00
  0.00000000E+00  0.00000000E+00  0.00000000E+00
  0.00000000E+00  0.00000000E+00  0.00000000E+00
  0.00000000E+00  0.00000000E+00  0.00000000E+00
  0.00000000E+00  0.00000000E+00  0.00000000E+00
  0.00000000E+00  0.00000000E+00  0.00000000E+00
  0.00000000E+00  0.00000000E+00  0.00000000E+00
  0.00000000E+00  0.00000000E+00  0.00000000E+00
  0.00000000E+00  0.00000000E+00  0.00000000E+00
  0.00000000E+00  0.00000000E+00  0.00000000E+00
  0.00000000E+00  0.00000000E+00  0.00000000E+00
  0.00000000E+00  0.00000000E+00  0.00000000E+00
  0.00000000E+00  0.00000000E+00  0.00000000E+00
  0.00000000E+00  0.00000000E+00  0.00000000E+00
  0.00000000E+00  0.00000000E+00  0.00000000E+00
  0.00000000E+00  0.00000000E+00  0.00000000E+00
  0.00000000E+00  0.00000000E+00  0.00000000E+00
  0.00000000E+00  0.00000000E+00  0.00000000E+00
  0.00000000E+00  0.00000000E+00  0.00000000E+00
  0.00000000E+00  0.00000000E+00  0.00000000E+00
  0.00000000E+00  0.00000000E+00  0.00000000E+00
  0.00000000E+00  0.00000000E+00  0.00000000E+00
  0.00000000E+00  0.00000000E+00  0.00000000E+00
  0.00000000E+00  0.00000000E+00  0.00000000E+00
  0.00000000E+00  0.00000000E+00  0.00000000E+00
  0.00000000E+00  0.00000000E+00  0.00000000E+00
  0.00000000E+00  0.00000000E+00  0.00000000E+00
  0.00000000E+00  0.00000000E+00  0.00000000E+00
  0.00000000E+00  0.00000000E+00  0.00000000E+00
  0.00000000E+00  0.00000000E+00  0.00000000E+00
  0.00000000E+00  0.00000000E+00  0.00000000E+00
  0.00000000E+00  0.00000000E+00  0.00000000E+00
  0.00000000E+00  0.00000000E+00  0.00000000E+00
  0.00000000E+00  0.00000000E+00  0.00000000E+00
  0.00000000E+00  0.00000000E+00  0.00000000E+00
  0.00000000E+00  0.00000000E+00  0.00000000E+00
  0.00000000E+00  0.00000000E+00  0.00000000E+00
  0.00000000E+00  0.00000000E+00  0.00000000E+00
  0.00000000E+00  0.00000000E+00  0.00000000E+00
  0.00000000E+00  0.00000000E+00  0.00000000E+00
  0.00000000E+00  0.00000000E+00  0.00000000E+00
  0.00000000E+00  0.00000000E+00  0.00000000E+00
  0.00000000E+00  0.00000000E+00  0.00000000E+00
  0.00000000E+00  0.00000000E+00  0.00000000E+00
  0.00000000E+00  0.00000000E+00  0.00000000E+00
  0.00000000E+00  0.00000000E+00  0.00000000E+00
  0.00000000E+00  0.00000000E+00  0.00000000E+00
  0.00000000E+00  0.00000000E+00  0.00000000E+00
  0.00000000E+00  0.00000000E+00  0.00000000E+00
  0.00000000E+00  0.00000000E+00  0.00000000E+00
  0.00000000E+00  0.00000000E+00  0.00000000E+00
  0.00000000E+00  0.00000000E+00  0.00000000E+00
  0.00000000E+00  0.00000000E+00  0.00000000E+00
  0.00000000E+00  0.00000000E+00  0.00000000E+00
  0.00000000E+00  0.00000000E+00  0.00000000E+00
  0.00000000E+00  0.00000000E+00  0.00000000E+00
  0.00000000E+00  0.00000000E+00  0.00000000E+00
  0.00000000E+00  0.00000000E+00  0.00000000E+00
  0.00000000E+00  0.00000000E+00  0.00000000E+00
  0.00000000E+00  0.00000000E+00  0.00000000E+00
  0.00000000E+00  0.00000000E+00  0.00000000E+00
  0.00000000E+00  0.00000000E+00  0.00000000E+00
  0.00000000E+00  0.00000000E+00  0.00000000E+00
  0.00000000E+00  0.00000000E+00  0.00000000E+00
  0.00000000E+00  0.00000000E+00  0.00000000E+00
  0.00000000E+00  0.00000000E+00  0.00000000E+00
  0.00000000E+00  0.00000000E+00  0.00000000E+00
  0.00000000E+00  0.00000000E+00  0.00000000E+00
  0.00000000E+00  0.00000000E+00  0.00000000E+00
  0.00000000E+00  0.00000000E+00  0.00000000E+00
  0.00000000E+00  0.00000000E+00  0.00000000E+00
  0.00000000E+00  0.00000000E+00  0.00000000E+00
  0.00000000E+00  0.00000000E+00  0.00000000E+00
  0.00000000E+00  0.00000000E+00  0.00000000E+00
  0.00000000E+00  0.00000000E+00  0.00000000E+00
  0.00000000E+00  0.00000000E+00  0.00000000E+00
  0.00000000E+00  0.00000000E+00  0.00000000E+00
  0.00000000E+00  0.00000000E+00  0.00000000E+00