Amorphous Sb2Se3-C                      
   1.00000000000000     
    21.5628422078832074    0.0000000000000000    0.0000000000000000
     0.0000000000000000   21.5628422078832074    0.0000000000000000
     0.0000000000000000    0.0000000000000000   21.5628422078832074
   Sb   Se   C 
   108   162    30
Direct
  0.2557635876997021  0.9305113648728831  0.2728140143621748
  0.0295606905800910  0.5087233756054628  0.4156568579637442
  0.4943515684818939  0.6347723003510539  0.8562386875076839
  0.6946271503613239  0.2505077363137607  0.1503687704790120
  0.9458179236428917  0.7417378768176816  0.6616981735688077
  0.4442687992485792  0.4908334380930158  0.7602920215670826
  0.2081880499875619  0.1981533955331968  0.4293548437261662
  0.4707408534930078  0.2221969223244644  0.6661159789851853
  0.8282995435110133  0.9834879235162156  0.6808124624723807
  0.3775455950419735  0.7431564875954013  0.7990394301206458
  0.1432344469402428  0.5967939184902192  0.8897681488831781
  0.6042249680125498  0.2425631571247477  0.9275815994021092
  0.7160309350761633  0.5289185722866521  0.0248263593323297
  0.3038814507481623  0.1688709581689025  0.1321637493336643
  0.2479436243182266  0.8541453644151119  0.7467675724871966
  0.0270273108825318  0.0643920540606909  0.1054643260459012
  0.2180971375106250  0.7360280917803370  0.1532104963950213
  0.4353519508440863  0.0488154813651991  0.6493922902247673
  0.3168591007458061  0.9181916618698022  0.9753544709507157
  0.1221284437041221  0.1150807592600737  0.2761540608388990
  0.4121947181797663  0.1396715076362202  0.3559666372867830
  0.0959364658592533  0.6433737038783134  0.7335132802380239
  0.3548490616306529  0.0664709335640038  0.2030522416204198
  0.7342381366066193  0.0632935638335836  0.7300592122509765
  0.1170939283827763  0.3807117580057574  0.0814638540575228
  0.1591530190794181  0.1214225041470806  0.0163985643558068
  0.8839793048708118  0.4775181215532076  0.9950971696808776
  0.3947330278703973  0.3333911324578028  0.7869598470482785
  0.7580432243253967  0.4600702071358140  0.3511843479658473
  0.7417070314865000  0.6556239503391306  0.7559934433903722
  0.1815086844222165  0.2143235443854375  0.7452302322831539
  0.3090456159779637  0.3565967874644156  0.4490983739637597
  0.8150573907856221  0.9864370416545265  0.9248690610722784
  0.0178030495585615  0.6112206162680004  0.8368640360015815
  0.3266496391123406  0.6482008957426935  0.2011916484508796
  0.4789274049930794  0.6639303636770130  0.1282395257210645
  0.1757003022775863  0.2519885288406220  0.9214192695975535
  0.8287217660146035  0.6263592135787670  0.9184747535441421
  0.4888274782546282  0.7412255049316202  0.6220170397290948
  0.5586141744809704  0.7752441689100116  0.9712724696554963
  0.7017248678864167  0.7739649372691720  0.9623627250626708
  0.2593586190417911  0.2434290616377682  0.2375797782778827
  0.0476562584627759  0.7683247935981240  0.7477808322786881
  0.3975370772253409  0.4718842519179102  0.3112924546288720
  0.7795315823944564  0.9711532446815585  0.1269840570357189
  0.0196258676919499  0.8890039183464092  0.6576536419560381
  0.0665436293760696  0.8826159220312285  0.4347811219639254
  0.7371977270075760  0.0464287682859356  0.3326286724503741
  0.5933146199587167  0.5433608573609410  0.2497084037003907
  0.1121344564487423  0.1238241054967620  0.6001979418084792
  0.3814603903174357  0.5262683020883715  0.0566066289392804
  0.9630513492661107  0.0449339114692626  0.4370715631320323
  0.9300181057789535  0.8904823856674666  0.1973984684707109
  0.0880826042547364  0.1402081263685300  0.8647744984799739
  0.0597776413584848  0.3020828378259260  0.8204314715871385
  0.4530945452410113  0.9042930192318448  0.8950601622591092
  0.9022267031934722  0.0455222872299220  0.2557745788821816
  0.9872092037541436  0.9537400287156007  0.8946979820647520
  0.6949577428276147  0.9371720919445932  0.8702266782747405
  0.4512945220644323  0.9448009772800519  0.7348369381110359
  0.4207654693162663  0.9962700391736081  0.1020551730551949
  0.3392149958531563  0.1796625824706941  0.9037252588921132
  0.9466408241087030  0.7744510640750529  0.3557309536799533
  0.1858115930440469  0.9824587123282388  0.9027106190100065
  0.5380426758247653  0.9964609131123262  0.4246898806500215
  0.6751688059145049  0.5162742818186393  0.8583889057370295
  0.6110448692422109  0.3976269489120570  0.4029112986919004
  0.1564153853894646  0.3942077895682398  0.2141225530967315
  0.5673327591132379  0.9684382862636345  0.2777665606183668
  0.0785034102273859  0.2201123562002669  0.1293027551312306
  0.3971364424940828  0.7402862961416070  0.2702868481839732
  0.2830678305096397  0.8147057994350773  0.5695310532770967
  0.4986383585859662  0.0843962320965229  0.9693771568746889
  0.6958958503442070  0.3482250886056296  0.0186327933963121
  0.9097912569457960  0.7978207264745110  0.8829692565348348
  0.6100424690786235  0.6287114525770028  0.6049043928004663
  0.8244446913517767  0.5859813382531471  0.6044345285456554
  0.2869719043847800  0.6399965524521989  0.7962289980645505
  0.1878004600062573  0.5347139782212599  0.1068144834226444
  0.9495927677367684  0.6316049890936576  0.5560704490085407
  0.3405986223790188  0.4012712025352794  0.0944383211832324
  0.2282058791906193  0.6467108583387500  0.2921875008816817
  0.2323310101351505  0.8946909771382511  0.4309770370049574
  0.5637876036789006  0.4164338061845771  0.1220755823981424
  0.8604169571452118  0.6873920989210577  0.1918722401113047
  0.0203263174947482  0.2285894048685325  0.9873353694111725
  0.4265219594769096  0.6205032770823125  0.6004469741542833
  0.2230662928258711  0.2903489472638568  0.5972911682011601
  0.1541571006985050  0.0068295165739584  0.7219158543944074
  0.6474486011169127  0.8056058801596365  0.6308320430904690
  0.4529142547865186  0.2514446427451067  0.1966202298504376
  0.1416770512678193  0.0237455867549472  0.4786003526720359
  0.6590825844090759  0.6248172814503660  0.1064633895594058
  0.8568864249397021  0.6258639920834194  0.4380500824132173
  0.4222908983086436  0.7513800870960036  0.4245679089698430
  0.8402657689850702  0.7756232223740152  0.0912075455308528
  0.5974825680422606  0.1196597479350286  0.4358054236634565
  0.0961583478556036  0.3419393866920368  0.4355561077270658
  0.8675950843944696  0.3285500051023341  0.8948263374116391
  0.5510132112752948  0.2807069946255397  0.7618310919480283
  0.5324525923482849  0.8218338226973900  0.2031945575020952
  0.3648495676836396  0.5685992179432325  0.4531361578618917
  0.9094459650770473  0.5025825592331101  0.1840704680771377
  0.7129877806498818  0.1080056308385777  0.9034449852969418
  0.3722714019907337  0.1431112746011040  0.7226154686398374
  0.6297456094494913  0.7497177586216279  0.5094912943705644
  0.7009674952518224  0.3794531041197811  0.7302656124322044
  0.0549084331926280  0.4965657437879613  0.6328393368692611
  0.1166846242722276  0.2715732998236000  0.5331590019139770
  0.1460113822544344  0.6488475003894237  0.1978551806054597
  0.7980337652691413  0.0887363729352458  0.2152673253304535
  0.8904516709417527  0.7073433345246312  0.9820718269753337
  0.9885760059948451  0.1212106165056364  0.2101503051540846
  0.1052717989727755  0.3522179507695070  0.9218635919098681
  0.5550887707540025  0.1837268260107348  0.8336003633081595
  0.7624873096792334  0.0779798092718678  0.0560348649716002
  0.8382803727404037  0.5493397727813243  0.3428443537976570
  0.9360385761803481  0.4268272127215427  0.0910511959016175
  0.8177392247156124  0.8482048211506766  0.1990434170342990
  0.2683248453246603  0.5714431152277610  0.5535844806580973
  0.7895000642334230  0.4112781926841252  0.9498557414626628
  0.5837881781114596  0.3002735982222134  0.4932223492427143
  0.0789429363844904  0.6202509241725288  0.4074846099197532
  0.5512682474385893  0.3623319306938291  0.6214478583540439
  0.1788999534851888  0.6990090512204752  0.8307640639775064
  0.7246971504941745  0.2294093694042649  0.9113743825045654
  0.4447883430697773  0.3845809725934193  0.1633260799853417
  0.8929787719895586  0.8472174954380276  0.6500843663629940
  0.9470895858138839  0.2817667342044525  0.2799160798302365
  0.7581043611083754  0.5892324537342337  0.5042309996052482
  0.7670169642895813  0.9022826113982757  0.0220897494640194
  0.7035253580506237  0.5784675077832532  0.2111210777575473
  0.3175964623900440  0.8337864075678018  0.8500078044643611
  0.4582135412521158  0.1204195887632496  0.2400669809381404
  0.3232934384755889  0.6789634174425535  0.4151540558553472
  0.2460499842304646  0.7666874401753124  0.2694378866311652
  0.9008080118962036  0.9753492293350648  0.1113323596081379
  0.9705331762595267  0.2291777465945228  0.8712323778346835
  0.5696045827827235  0.7382128709672370  0.0972161916159655
  0.1236442882156767  0.6116739892037015  0.5792540742065391
  0.5081637639246102  0.9643441720313396  0.5420308146890491
  0.4121877011486756  0.8136873996433132  0.1742453976457695
  0.9605903480107554  0.1262154291330612  0.0252811125021297
  0.0199568326268261  0.7373269061402534  0.8678063920226388
  0.3744563659960437  0.8678814353497397  0.3617352637852143
  0.2380611046702376  0.4827738111373120  0.2058354457174826
  0.0238641914960991  0.0487215694811035  0.6439552133632716
  0.6830115905766929  0.0055262295020626  0.6122699834886897
  0.5069123135362076  0.1963483141946115  0.4006365264992275
  0.9434319484798893  0.1878124181558790  0.5755416808834978
  0.0714927600509168  0.1798748477545096  0.7004062525435455
  0.5958603776099836  0.7114153253055265  0.6974174425009689
  0.8143601358012450  0.0827495094698241  0.8359532769414264
  0.8180862679218309  0.3567960977670465  0.2265042446029596
  0.3357870278023475  0.4394734423368320  0.7792648656869530
  0.1080993638417860  0.2345772023709952  0.2456160910591267
  0.3955684852220611  0.0986799643347964  0.8327001598416809
  0.5100623290257740  0.0771364407175756  0.0884559977202265
  0.7246234260810219  0.7385462355366834  0.0967354878003867
  0.2791787015059323  0.5925786831984817  0.0511334895493685
  0.7289785837786290  0.5406446992117691  0.7266122525237784
  0.4617726438751039  0.5161028848337206  0.8876797606722261
  0.5339208059871068  0.0326983654334862  0.7739157684908236
  0.9374457134723474  0.8947224907807125  0.8026798534378461
  0.5502421050640870  0.9377293637904032  0.1596920809385692
  0.4449953827502584  0.2315902259739128  0.9459207570366877
  0.4035456069199332  0.5997127461436447  0.7312804323623583
  0.3607385119781597  0.5074810819151612  0.9301452437406085
  0.0972006975997432  0.9246451833876898  0.8433346580433613
  0.5591259465996218  0.8431284516796839  0.4768242042874166
  0.8562750075957430  0.6605198705090107  0.8050108255004258
  0.3665003707282159  0.0390496823554958  0.9990501284747240
  0.3709049556597691  0.2748525029424706  0.2814438394995894
  0.5168608785119850  0.8132481876862848  0.8518499350145388
  0.5062391212028825  0.6844536941787841  0.2449020983362986
  0.4037024066352948  0.8010759744300867  0.5359017948900969
  0.1635107804248802  0.8563034090849668  0.1444312937832693
  0.4243763899427355  0.0277997047448768  0.4014768195302250
  0.5788161894435656  0.1249930052491514  0.6635396333968828
  0.2438812434239283  0.1469678296882743  0.3150597017270393
  0.5622919899366344  0.9209361128945629  0.6826126040820614
  0.6094335577244697  0.1427937187925044  0.9957882239839340
  0.1482663746367880  0.9679418067328781  0.3181613958226340
  0.7121100940820140  0.9296137673494322  0.4620899714464543
  0.3925779073412108  0.3191998802695888  0.6686559950504913
  0.0581802469985096  0.4445963568013014  0.2674058531375095
  0.2405385628285339  0.8171581916888783  0.0188838699032743
  0.9974238551992998  0.9721612693460044  0.5678996534317301
  0.0254867390285622  0.5337163369856598  0.2114449297427490
  0.8215060240166462  0.1027183762048508  0.6582519132966967
  0.5474785127480069  0.5571833280151690  0.1228133554220247
  0.4205242651594439  0.8587149656162806  0.0053469129598219
  0.5282660314430117  0.8621567980543089  0.3216242374096085
  0.7089731933479417  0.6570661549435910  0.9232346326068018
  0.9546815561498483  0.4076790697400789  0.9231090710843528
  0.2026602516910723  0.7876678202580346  0.4605158358111590
  0.4045604741534103  0.4041710069394722  0.5223678961474459
  0.7133599280561372  0.0391012504342956  0.4644841441544650
  0.8336320603496206  0.2824790734258507  0.0846492070099296
  0.0674162963896674  0.4837942269022726  0.7680225738155672
  0.5300632741633891  0.4612613651258687  0.4710858057433597
  0.2603337170257686  0.9504624272494743  0.0807390092305228
  0.8696901069410675  0.2463503970878047  0.9857125399450154
  0.6521989333962790  0.5172813742737951  0.3669635167718936
  0.4598948475967189  0.5572420128507181  0.3604734897041391
  0.7791812415877011  0.9059205689656884  0.5491593011578878
  0.5810068761546978  0.5650114559969024  0.7973636300378681
  0.6054096391373065  0.6725233710625170  0.3681429973298694
  0.9858179859116097  0.8062549718710723  0.1284267302067268
  0.8966710335364061  0.1102622501192433  0.3592548226416676
  0.1787798762825476  0.3310454914738725  0.7040471506280428
  0.5218029359687578  0.5494429008016464  0.6201443321472824
  0.9853767534825383  0.5885089716651181  0.6723211132764211
  0.6866983160235874  0.9437815762840412  0.2888225876977651
  0.7178401885543905  0.8242953748929949  0.8440226616813027
  0.3003674839313585  0.2656849577024452  0.8245930866235585
  0.4973275419741960  0.6540444734364231  0.4900777237429325
  0.7893117662234731  0.6940943249907388  0.6490389717332036
  0.9637792146906066  0.8616842853704707  0.9719866096103096
  0.9687006171081035  0.5131367175799955  0.5237547976778345
  0.4492668838426600  0.3661783582770881  0.3841617345818944
  0.3143391320998395  0.2332325132141655  0.4773212270962547
  0.0704826738376679  0.1048542513187506  0.4200857899216915
  0.7052366250757273  0.4356088490041717  0.1048147440101657
  0.9846018542423683  0.9478719175987161  0.3678442583930390
  0.6588835897132382  0.3948389327660743  0.8420519050617528
  0.5951897242911784  0.4205334389868380  0.2378547526507018
  0.7188918340179123  0.7628583683341459  0.3044170785160016
  0.1525017032764562  0.9065783456472717  0.6546020203942633
  0.3906115775405979  0.5477948218053025  0.1935985556487404
  0.9285307273666419  0.2860963905783941  0.4521344530521185
  0.9796476007465923  0.3986834657744280  0.6739542751906620
  0.8215360326504424  0.7455473751834564  0.4358466705517644
  0.0686131371757440  0.7974414897465060  0.3503559613505018
  0.1682516086186909  0.5107553849387584  0.8061548744379395
  0.6157519760991239  0.4954827677238456  0.9678328436953311
  0.2078398417394904  0.4396685736088906  0.0295176990476035
  0.9742359308142479  0.7320472680551589  0.2129424789693364
  0.0462621396168240  0.7823254209018090  0.6009116107420578
  0.2589006486300531  0.9703542139264028  0.7787695802104180
  0.9539181254003317  0.6555992947548563  0.3393308929994759
  0.3567105091994644  0.6667650763903710  0.8926451699348484
  0.1793211965523030  0.2752548324558706  0.0836080760537775
  0.9192845239359549  0.7737986451061691  0.4775506715870681
  0.1688143248824923  0.0845093149634221  0.1654523691425046
  0.2830676460889089  0.9309208090692289  0.5329100480543817
  0.1243830157341091  0.4549048632224958  0.4701603693958308
  0.2973936553230701  0.4959848038715851  0.3816428503454607
  0.6383620311785178  0.1167879858126836  0.3199551632914210
  0.2156204735451586  0.0775629829428310  0.6420174951804792
  0.3813148855007393  0.3589464227682705  0.9870806027037048
  0.2466029482258127  0.0770569526404893  0.4607251333003825
  0.6020271573427818  0.4383733703814240  0.6832162557766911
  0.1838701939876050  0.5984000877503981  0.4399770443087930
  0.6626929540384089  0.2660496133888831  0.7149445511179566
  0.5940562701280950  0.2941857994876554  0.0970328371796145
  0.5365860956334237  0.6546086852700805  0.9678410547475406
  0.0365512498041107  0.5669634280823150  0.0328912691420298
  0.8896425613486979  0.5980862629663763  0.1128646221694462
  0.3475537640725077  0.8518502077283137  0.6764696770944268
  0.1000080951472884  0.0189456229675895  0.9851131201825072
  0.2041491959738701  0.0952170045589901  0.8540110827446464
  0.0991322834897285  0.7127477857688617  0.0301828372595269
  0.7442706896743171  0.2673215700384575  0.3652097436951694
  0.6573939172807827  0.9287396583254965  0.9866345306969262
  0.5501201406813975  0.9753556394141099  0.9271393737122089
  0.7590856170231233  0.1993027655193629  0.5074302766687904
  0.2475367219055952  0.3971444292369672  0.5506216390254151
  0.1973127672481482  0.3213035862408899  0.3726449317378648
  0.6752811850460319  0.4072212281819231  0.5549208449135619
  0.3881210863742102  0.2266570241000774  0.1230984054536095
  0.7669523130918763  0.0601094722275548  0.9739730445419973
  0.9357152850500654  0.2374260639224645  0.5143163639370605
  0.5504735289204374  0.8868385845172567  0.5540742600445012
  0.7478183133402913  0.4289104216149445  0.4502802829277583
  0.8771666117589166  0.4082045779526972  0.5778387920002794
  0.9174903287575344  0.4027672196885009  0.6187624797650583
  0.0676913561166952  0.6398356064246986  0.0313641466244547
  0.6887592648318808  0.4121121567141125  0.4671108577374976
  0.4626750113215205  0.4083355974323334  0.4582595155643432
  0.1892619765852169  0.5943446822390459  0.5274608082805629
  0.6063673547427304  0.3549638022207105  0.5546983861645308
  0.6624330010388700  0.7171634917587413  0.3350512978654975
  0.8357968279015251  0.4156597869060710  0.5327920338028415
  0.8823509495317249  0.3192231259242367  0.2544809678984636
  0.1478116489519107  0.9452447122948381  0.4067368970520446
  0.5508280572928801  0.6965504406009154  0.5507925854853475
  0.1297124712177246  0.2292003495758185  0.8308575074911535
  0.3971222696001988  0.2509969899891485  0.0682190426240449
  0.7969576278230105  0.4243231225564728  0.4910967514477955
  0.2202753056330125  0.8727704477124197  0.0815794682405678
  0.5686895381646444  0.8669553475991453  0.6114015468442878
  0.7472085447891073  0.2859811671422103  0.0793443319574171
  0.2938149804602838  0.8979344812225948  0.3540896631007707
  0.1062993224325505  0.1834180246502646  0.9566750340312058
  0.1093604499585985  0.1257280502724058  0.1085318709339960
  0.4045887859773830  0.2760762278561690  0.0128982025525963
  0.7517282733908759  0.2344965221699884  0.4369003432835669
  0.7544214071723843  0.9609073392400186  0.6110427814538457
  0.5222839144577177  0.0719598908277734  0.6966638153659642
 
  0.00000000E+00  0.00000000E+00  0.00000000E+00
  0.00000000E+00  0.00000000E+00  0.00000000E+00
  0.00000000E+00  0.00000000E+00  0.00000000E+00
  0.00000000E+00  0.00000000E+00  0.00000000E+00
  0.00000000E+00  0.00000000E+00  0.00000000E+00
  0.00000000E+00  0.00000000E+00  0.00000000E+00
  0.00000000E+00  0.00000000E+00  0.00000000E+00
  0.00000000E+00  0.00000000E+00  0.00000000E+00
  0.00000000E+00  0.00000000E+00  0.00000000E+00
  0.00000000E+00  0.00000000E+00  0.00000000E+00
  0.00000000E+00  0.00000000E+00  0.00000000E+00
  0.00000000E+00  0.00000000E+00  0.00000000E+00
  0.00000000E+00  0.00000000E+00  0.00000000E+00
  0.00000000E+00  0.00000000E+00  0.00000000E+00
  0.00000000E+00  0.00000000E+00  0.00000000E+00
  0.00000000E+00  0.00000000E+00  0.00000000E+00
  0.00000000E+00  0.00000000E+00  0.00000000E+00
  0.00000000E+00  0.00000000E+00  0.00000000E+00
  0.00000000E+00  0.00000000E+00  0.00000000E+00
  0.00000000E+00  0.00000000E+00  0.00000000E+00
  0.00000000E+00  0.00000000E+00  0.00000000E+00
  0.00000000E+00  0.00000000E+00  0.00000000E+00
  0.00000000E+00  0.00000000E+00  0.00000000E+00
  0.00000000E+00  0.00000000E+00  0.00000000E+00
  0.00000000E+00  0.00000000E+00  0.00000000E+00
  0.00000000E+00  0.00000000E+00  0.00000000E+00
  0.00000000E+00  0.00000000E+00  0.00000000E+00
  0.00000000E+00  0.00000000E+00  0.00000000E+00
  0.00000000E+00  0.00000000E+00  0.00000000E+00
  0.00000000E+00  0.00000000E+00  0.00000000E+00
  0.00000000E+00  0.00000000E+00  0.00000000E+00
  0.00000000E+00  0.00000000E+00  0.00000000E+00
  0.00000000E+00  0.00000000E+00  0.00000000E+00
  0.00000000E+00  0.00000000E+00  0.00000000E+00
  0.00000000E+00  0.00000000E+00  0.00000000E+00
  0.00000000E+00  0.00000000E+00  0.00000000E+00
  0.00000000E+00  0.00000000E+00  0.00000000E+00
  0.00000000E+00  0.00000000E+00  0.00000000E+00
  0.00000000E+00  0.00000000E+00  0.00000000E+00
  0.00000000E+00  0.00000000E+00  0.00000000E+00
  0.00000000E+00  0.00000000E+00  0.00000000E+00
  0.00000000E+00  0.00000000E+00  0.00000000E+00
  0.00000000E+00  0.00000000E+00  0.00000000E+00
  0.00000000E+00  0.00000000E+00  0.00000000E+00
  0.00000000E+00  0.00000000E+00  0.00000000E+00
  0.00000000E+00  0.00000000E+00  0.00000000E+00
  0.00000000E+00  0.00000000E+00  0.00000000E+00
  0.00000000E+00  0.00000000E+00  0.00000000E+00
  0.00000000E+00  0.00000000E+00  0.00000000E+00
  0.00000000E+00  0.00000000E+00  0.00000000E+00
  0.00000000E+00  0.00000000E+00  0.00000000E+00
  0.00000000E+00  0.00000000E+00  0.00000000E+00
  0.00000000E+00  0.00000000E+00  0.00000000E+00
  0.00000000E+00  0.00000000E+00  0.00000000E+00
  0.00000000E+00  0.00000000E+00  0.00000000E+00
  0.00000000E+00  0.00000000E+00  0.00000000E+00
  0.00000000E+00  0.00000000E+00  0.00000000E+00
  0.00000000E+00  0.00000000E+00  0.00000000E+00
  0.00000000E+00  0.00000000E+00  0.00000000E+00
  0.00000000E+00  0.00000000E+00  0.00000000E+00
  0.00000000E+00  0.00000000E+00  0.00000000E+00
  0.00000000E+00  0.00000000E+00  0.00000000E+00
  0.00000000E+00  0.00000000E+00  0.00000000E+00
  0.00000000E+00  0.00000000E+00  0.00000000E+00
  0.00000000E+00  0.00000000E+00  0.00000000E+00
  0.00000000E+00  0.00000000E+00  0.00000000E+00
  0.00000000E+00  0.00000000E+00  0.00000000E+00
  0.00000000E+00  0.00000000E+00  0.00000000E+00
  0.00000000E+00  0.00000000E+00  0.00000000E+00
  0.00000000E+00  0.00000000E+00  0.00000000E+00
  0.00000000E+00  0.00000000E+00  0.00000000E+00
  0.00000000E+00  0.00000000E+00  0.00000000E+00
  0.00000000E+00  0.00000000E+00  0.00000000E+00
  0.00000000E+00  0.00000000E+00  0.00000000E+00
  0.00000000E+00  0.00000000E+00  0.00000000E+00
  0.00000000E+00  0.00000000E+00  0.00000000E+00
  0.00000000E+00  0.00000000E+00  0.00000000E+00
  0.00000000E+00  0.00000000E+00  0.00000000E+00
  0.00000000E+00  0.00000000E+00  0.00000000E+00
  0.00000000E+00  0.00000000E+00  0.00000000E+00
  0.00000000E+00  0.00000000E+00  0.00000000E+00
  0.00000000E+00  0.00000000E+00  0.00000000E+00
  0.00000000E+00  0.00000000E+00  0.00000000E+00
  0.00000000E+00  0.00000000E+00  0.00000000E+00
  0.00000000E+00  0.00000000E+00  0.00000000E+00
  0.00000000E+00  0.00000000E+00  0.00000000E+00
  0.00000000E+00  0.00000000E+00  0.00000000E+00
  0.00000000E+00  0.00000000E+00  0.00000000E+00
  0.00000000E+00  0.00000000E+00  0.00000000E+00
  0.00000000E+00  0.00000000E+00  0.00000000E+00
  0.00000000E+00  0.00000000E+00  0.00000000E+00
  0.00000000E+00  0.00000000E+00  0.00000000E+00
  0.00000000E+00  0.00000000E+00  0.00000000E+00
  0.00000000E+00  0.00000000E+00  0.00000000E+00
  0.00000000E+00  0.00000000E+00  0.00000000E+00
  0.00000000E+00  0.00000000E+00  0.00000000E+00
  0.00000000E+00  0.00000000E+00  0.00000000E+00
  0.00000000E+00  0.00000000E+00  0.00000000E+00
  0.00000000E+00  0.00000000E+00  0.00000000E+00
  0.00000000E+00  0.00000000E+00  0.00000000E+00
  0.00000000E+00  0.00000000E+00  0.00000000E+00
  0.00000000E+00  0.00000000E+00  0.00000000E+00
  0.00000000E+00  0.00000000E+00  0.00000000E+00
  0.00000000E+00  0.00000000E+00  0.00000000E+00
  0.00000000E+00  0.00000000E+00  0.00000000E+00
  0.00000000E+00  0.00000000E+00  0.00000000E+00
  0.00000000E+00  0.00000000E+00  0.00000000E+00
  0.00000000E+00  0.00000000E+00  0.00000000E+00
  0.00000000E+00  0.00000000E+00  0.00000000E+00
  0.00000000E+00  0.00000000E+00  0.00000000E+00
  0.00000000E+00  0.00000000E+00  0.00000000E+00
  0.00000000E+00  0.00000000E+00  0.00000000E+00
  0.00000000E+00  0.00000000E+00  0.00000000E+00
  0.00000000E+00  0.00000000E+00  0.00000000E+00
  0.00000000E+00  0.00000000E+00  0.00000000E+00
  0.00000000E+00  0.00000000E+00  0.00000000E+00
  0.00000000E+00  0.00000000E+00  0.00000000E+00
  0.00000000E+00  0.00000000E+00  0.00000000E+00
  0.00000000E+00  0.00000000E+00  0.00000000E+00
  0.00000000E+00  0.00000000E+00  0.00000000E+00
  0.00000000E+00  0.00000000E+00  0.00000000E+00
  0.00000000E+00  0.00000000E+00  0.00000000E+00
  0.00000000E+00  0.00000000E+00  0.00000000E+00
  0.00000000E+00  0.00000000E+00  0.00000000E+00
  0.00000000E+00  0.00000000E+00  0.00000000E+00
  0.00000000E+00  0.00000000E+00  0.00000000E+00
  0.00000000E+00  0.00000000E+00  0.00000000E+00
  0.00000000E+00  0.00000000E+00  0.00000000E+00
  0.00000000E+00  0.00000000E+00  0.00000000E+00
  0.00000000E+00  0.00000000E+00  0.00000000E+00
  0.00000000E+00  0.00000000E+00  0.00000000E+00
  0.00000000E+00  0.00000000E+00  0.00000000E+00
  0.00000000E+00  0.00000000E+00  0.00000000E+00
  0.00000000E+00  0.00000000E+00  0.00000000E+00
  0.00000000E+00  0.00000000E+00  0.00000000E+00
  0.00000000E+00  0.00000000E+00  0.00000000E+00
  0.00000000E+00  0.00000000E+00  0.00000000E+00
  0.00000000E+00  0.00000000E+00  0.00000000E+00
  0.00000000E+00  0.00000000E+00  0.00000000E+00
  0.00000000E+00  0.00000000E+00  0.00000000E+00
  0.00000000E+00  0.00000000E+00  0.00000000E+00
  0.00000000E+00  0.00000000E+00  0.00000000E+00
  0.00000000E+00  0.00000000E+00  0.00000000E+00
  0.00000000E+00  0.00000000E+00  0.00000000E+00
  0.00000000E+00  0.00000000E+00  0.00000000E+00
  0.00000000E+00  0.00000000E+00  0.00000000E+00
  0.00000000E+00  0.00000000E+00  0.00000000E+00
  0.00000000E+00  0.00000000E+00  0.00000000E+00
  0.00000000E+00  0.00000000E+00  0.00000000E+00
  0.00000000E+00  0.00000000E+00  0.00000000E+00
  0.00000000E+00  0.00000000E+00  0.00000000E+00
  0.00000000E+00  0.00000000E+00  0.00000000E+00
  0.00000000E+00  0.00000000E+00  0.00000000E+00
  0.00000000E+00  0.00000000E+00  0.00000000E+00
  0.00000000E+00  0.00000000E+00  0.00000000E+00
  0.00000000E+00  0.00000000E+00  0.00000000E+00
  0.00000000E+00  0.00000000E+00  0.00000000E+00
  0.00000000E+00  0.00000000E+00  0.00000000E+00
  0.00000000E+00  0.00000000E+00  0.00000000E+00
  0.00000000E+00  0.00000000E+00  0.00000000E+00
  0.00000000E+00  0.00000000E+00  0.00000000E+00
  0.00000000E+00  0.00000000E+00  0.00000000E+00
  0.00000000E+00  0.00000000E+00  0.00000000E+00
  0.00000000E+00  0.00000000E+00  0.00000000E+00
  0.00000000E+00  0.00000000E+00  0.00000000E+00
  0.00000000E+00  0.00000000E+00  0.00000000E+00
  0.00000000E+00  0.00000000E+00  0.00000000E+00
  0.00000000E+00  0.00000000E+00  0.00000000E+00
  0.00000000E+00  0.00000000E+00  0.00000000E+00
  0.00000000E+00  0.00000000E+00  0.00000000E+00
  0.00000000E+00  0.00000000E+00  0.00000000E+00
  0.00000000E+00  0.00000000E+00  0.00000000E+00
  0.00000000E+00  0.00000000E+00  0.00000000E+00
  0.00000000E+00  0.00000000E+00  0.00000000E+00
  0.00000000E+00  0.00000000E+00  0.00000000E+00
  0.00000000E+00  0.00000000E+00  0.00000000E+00
  0.00000000E+00  0.00000000E+00  0.00000000E+00
  0.00000000E+00  0.00000000E+00  0.00000000E+00
  0.00000000E+00  0.00000000E+00  0.00000000E+00
  0.00000000E+00  0.00000000E+00  0.00000000E+00
  0.00000000E+00  0.00000000E+00  0.00000000E+00
  0.00000000E+00  0.00000000E+00  0.00000000E+00
  0.00000000E+00  0.00000000E+00  0.00000000E+00
  0.00000000E+00  0.00000000E+00  0.00000000E+00
  0.00000000E+00  0.00000000E+00  0.00000000E+00
  0.00000000E+00  0.00000000E+00  0.00000000E+00
  0.00000000E+00  0.00000000E+00  0.00000000E+00
  0.00000000E+00  0.00000000E+00  0.00000000E+00
  0.00000000E+00  0.00000000E+00  0.00000000E+00
  0.00000000E+00  0.00000000E+00  0.00000000E+00
  0.00000000E+00  0.00000000E+00  0.00000000E+00
  0.00000000E+00  0.00000000E+00  0.00000000E+00
  0.00000000E+00  0.00000000E+00  0.00000000E+00
  0.00000000E+00  0.00000000E+00  0.00000000E+00
  0.00000000E+00  0.00000000E+00  0.00000000E+00
  0.00000000E+00  0.00000000E+00  0.00000000E+00
  0.00000000E+00  0.00000000E+00  0.00000000E+00
  0.00000000E+00  0.00000000E+00  0.00000000E+00
  0.00000000E+00  0.00000000E+00  0.00000000E+00
  0.00000000E+00  0.00000000E+00  0.00000000E+00
  0.00000000E+00  0.00000000E+00  0.00000000E+00
  0.00000000E+00  0.00000000E+00  0.00000000E+00
  0.00000000E+00  0.00000000E+00  0.00000000E+00
  0.00000000E+00  0.00000000E+00  0.00000000E+00
  0.00000000E+00  0.00000000E+00  0.00000000E+00
  0.00000000E+00  0.00000000E+00  0.00000000E+00
  0.00000000E+00  0.00000000E+00  0.00000000E+00
  0.00000000E+00  0.00000000E+00  0.00000000E+00
  0.00000000E+00  0.00000000E+00  0.00000000E+00
  0.00000000E+00  0.00000000E+00  0.00000000E+00
  0.00000000E+00  0.00000000E+00  0.00000000E+00
  0.00000000E+00  0.00000000E+00  0.00000000E+00
  0.00000000E+00  0.00000000E+00  0.00000000E+00
  0.00000000E+00  0.00000000E+00  0.00000000E+00
  0.00000000E+00  0.00000000E+00  0.00000000E+00
  0.00000000E+00  0.00000000E+00  0.00000000E+00
  0.00000000E+00  0.00000000E+00  0.00000000E+00
  0.00000000E+00  0.00000000E+00  0.00000000E+00
  0.00000000E+00  0.00000000E+00  0.00000000E+00
  0.00000000E+00  0.00000000E+00  0.00000000E+00
  0.00000000E+00  0.00000000E+00  0.00000000E+00
  0.00000000E+00  0.00000000E+00  0.00000000E+00
  0.00000000E+00  0.00000000E+00  0.00000000E+00
  0.00000000E+00  0.00000000E+00  0.00000000E+00
  0.00000000E+00  0.00000000E+00  0.00000000E+00
  0.00000000E+00  0.00000000E+00  0.00000000E+00
  0.00000000E+00  0.00000000E+00  0.00000000E+00
  0.00000000E+00  0.00000000E+00  0.00000000E+00
  0.00000000E+00  0.00000000E+00  0.00000000E+00
  0.00000000E+00  0.00000000E+00  0.00000000E+00
  0.00000000E+00  0.00000000E+00  0.00000000E+00
  0.00000000E+00  0.00000000E+00  0.00000000E+00