sm_isp_SD1251043-standardized_unitcell  
   1.00000000000000     
     5.1956617852247557    0.0000000000000000    0.0192617148645689
     0.0000000000000000   10.7546036984679603    0.0000000000000000
    -2.0167440743631824    0.0000000000000000    5.3537740376901031
   P    Cr
    16     4
Direct
  0.2280652569574828  0.4104892116075133  0.3238767630680822
  0.7719347130425148  0.5895108183924824  0.6761232369319177
  0.7719347130425148  0.4104892116075133  0.1761232369319177
  0.2280652569574828  0.5895108183924824  0.8238767630680823
  0.7280652869574852  0.9104891816075176  0.3238767630680822
  0.2719347430425172  0.0895107883924867  0.6761232369319177
  0.2719347430425172  0.9104891816075176  0.1761232369319177
  0.7280652869574852  0.0895107883924867  0.8238767630680823
  0.2730446398509021  0.2185211898122425  0.1909354612189571
  0.7269553601490978  0.7814788251877550  0.8090645387810429
  0.7269553601490978  0.2185211898122425  0.3090645387810427
  0.2730446398509021  0.7814788251877550  0.6909354612189571
  0.7730446398509022  0.7185211748122450  0.1909354612189571
  0.2269553601490980  0.2814788251877552  0.8090645387810429
  0.2269553601490980  0.7185211748122450  0.3090645387810427
  0.7730446398509022  0.2814788251877552  0.6909354612189571
  0.0000000000000000  0.0602191246404626  0.2500000000000000
  0.0000000000000000  0.9397808793595378  0.7500000000000000
  0.5000000000000000  0.5602191206404622  0.2500000000000000
  0.5000000000000000  0.4397808793595377  0.7500000000000000
 
  0.00000000E+00  0.00000000E+00  0.00000000E+00
  0.00000000E+00  0.00000000E+00  0.00000000E+00
  0.00000000E+00  0.00000000E+00  0.00000000E+00
  0.00000000E+00  0.00000000E+00  0.00000000E+00
  0.00000000E+00  0.00000000E+00  0.00000000E+00
  0.00000000E+00  0.00000000E+00  0.00000000E+00
  0.00000000E+00  0.00000000E+00  0.00000000E+00
  0.00000000E+00  0.00000000E+00  0.00000000E+00
  0.00000000E+00  0.00000000E+00  0.00000000E+00
  0.00000000E+00  0.00000000E+00  0.00000000E+00
  0.00000000E+00  0.00000000E+00  0.00000000E+00
  0.00000000E+00  0.00000000E+00  0.00000000E+00
  0.00000000E+00  0.00000000E+00  0.00000000E+00
  0.00000000E+00  0.00000000E+00  0.00000000E+00
  0.00000000E+00  0.00000000E+00  0.00000000E+00
  0.00000000E+00  0.00000000E+00  0.00000000E+00
  0.00000000E+00  0.00000000E+00  0.00000000E+00
  0.00000000E+00  0.00000000E+00  0.00000000E+00
  0.00000000E+00  0.00000000E+00  0.00000000E+00
  0.00000000E+00  0.00000000E+00  0.00000000E+00
