Amorphous Sb                            
   1.00000000000000     
    20.3210324606618116    0.0000000000000000    0.0000000000000000
     0.0000000000000000   20.3210324606618116    0.0000000000000000
     0.0000000000000000    0.0000000000000000   20.3210324606618116
   Sn   S 
   150   150
Direct
  0.8124190301365344  0.0373890043338990  0.1387553751837081
  0.2063169864048505  0.5178805965814903  0.4071590753840788
  0.9331151391232899  0.4052306574112281  0.8695458617403736
  0.2550238946526927  0.4400083578719086  0.5692630360692574
  0.4462462184216001  0.1523668852743203  0.1217275187303632
  0.2085677850969516  0.8077702263472903  0.8334046938204005
  0.6907218214001102  0.7183201127073907  0.9584223313188556
  0.2617983665223098  0.8478581640692339  0.2620160714022416
  0.5574187593275055  0.0191649781862257  0.2384416722214731
  0.6202845042156223  0.9521702315013790  0.5217148329137290
  0.9314431293771864  0.9713995043298752  0.0330225801986546
  0.2412684702188315  0.0174494730718865  0.8182715989030811
  0.7973277454703942  0.9246408336038283  0.4903395630055724
  0.6631473784626288  0.5331842878068977  0.2538844414506820
  0.2246787165769908  0.9732826272119024  0.4548898669828449
  0.4023545693043387  0.6397820810493147  0.9610345942355215
  0.4609162008842638  0.4223873263057422  0.9808028695902699
  0.1230469745173260  0.6403824733181536  0.7149444723866628
  0.3933289988226741  0.0872488046001119  0.5152957775371785
  0.4174249593165873  0.0444214331791792  0.9754122276357755
  0.6128241159988446  0.5271559056836591  0.6329222220095804
  0.9950784346999005  0.9911250456735750  0.7372723823921289
  0.3375787101248886  0.2926972874648877  0.5561869985445723
  0.8552864787666836  0.6065016407146659  0.1293402528848913
  0.4465032417658348  0.3857604313319312  0.1684277880783815
  0.2918864731573793  0.3693958000911701  0.0697499509429045
  0.9097651015034059  0.9497967741174401  0.3448273658885635
  0.1625408327924638  0.7063128081445751  0.0628103725314202
  0.9494635097151696  0.5969105654728170  0.7779580542040250
  0.4912868387964844  0.6389703948346446  0.5081977574836296
  0.4774532187184305  0.5167782528701934  0.3680059212520467
  0.1648415558700646  0.1722981726325068  0.3079533981841098
  0.6972736109943252  0.3686943060370511  0.7706232435733429
  0.3674704686795193  0.2840911855715600  0.8058738041515002
  0.9744664692241473  0.3244174608365100  0.7392173539487920
  0.8350721974832779  0.4159586401986535  0.0585171545770519
  0.1503014458356729  0.9043746754233005  0.9862695981308992
  0.3918421957244548  0.8923795289668384  0.8309025894732671
  0.3128855326342709  0.6297756575506348  0.3404910339115154
  0.9930184729336737  0.1386806946859736  0.1282434544660558
  0.3465696091116327  0.2188353454761753  0.9873744972906578
  0.1343896708725186  0.2520880071284476  0.1160531281391039
  0.2389471279980402  0.5414401304891279  0.0469440932267418
  0.4929301911126904  0.8386590054233568  0.5661629760889714
  0.6810665707101424  0.0480765722535480  0.6843002360745284
  0.1301220247943185  0.0373101362174412  0.6391603026794636
  0.9249839210349817  0.8693781728041604  0.1848196352222635
  0.5786814550690275  0.9764128903020459  0.0344513346332318
  0.8449689629216938  0.0451760462391723  0.6339798265205311
  0.6402436343500836  0.7991318309973593  0.4389743318549469
  0.6090052943746903  0.3664682673755386  0.5140961246236974
  0.1566991450335345  0.4459325576730491  0.2071612685573747
  0.9469650593034755  0.7165298196906995  0.2843316429142296
  0.2176607201258515  0.2007380867198828  0.8636292065665525
  0.0625152200607405  0.9822453618186108  0.8955212924931639
  0.1601785375277245  0.1945470421593802  0.5269920169377142
  0.1745915870549002  0.3480468168364129  0.4143405305193750
  0.0269141219914811  0.9509372480222046  0.4926966443845566
  0.7369095179985463  0.9887335212773550  0.2966450451192206
  0.4818667103236235  0.2913354664130250  0.6693169261271777
  0.6449723550175125  0.4233635154474810  0.1450551886412292
  0.5293703195644746  0.8325580309102859  0.0451304187120906
  0.1332724182361911  0.7603365194512658  0.3865124339850390
  0.2949195501626584  0.2425153073868496  0.2507747483110019
  0.1018345960411274  0.7935674772389828  0.1899366589161610
  0.6336963237974752  0.6020165642877610  0.0586279432836278
  0.5018391807797189  0.0606682458410676  0.6493786246157303
  0.5462336071505397  0.5846940443287005  0.8644139968906213
  0.6670957107543987  0.4499696668867355  0.9501234115168955
  0.5054373016117200  0.7520900980393155  0.8263520190306941
  0.8992383473876792  0.1369482881708140  0.2831633624663579
  0.6688140341113574  0.8424766021551245  0.8043916807977127
  0.8193834217385744  0.5683368847773212  0.9324464960766803
  0.7966649287578004  0.7685197719142480  0.1300985535046377
  0.7834758970156390  0.2719088257965273  0.2514762356131852
  0.2032592341280141  0.0768502096201157  0.0332977315443443
  0.8802546066124580  0.4440798253848667  0.6739118349059985
  0.5521812339246961  0.9708085287996849  0.8010583412316146
  0.6674950845296066  0.0842780561922773  0.0845935053129013
  0.9218414743020316  0.3666362381791097  0.4015285020476370
  0.4735113384610770  0.5684241477127052  0.1654003319916639
  0.1180379086932581  0.3943234022820656  0.8872746586870663
  0.9271349634240139  0.8538221406114653  0.6118457725722937
  0.0360924021717452  0.4162509786554378  0.5408488290947655
  0.3182317276589141  0.4917832135639488  0.8687711040978469
  0.2366999626684535  0.7783828699710571  0.5361062053261124
  0.9824994537847566  0.7985408923884572  0.0046069990461247
  0.1307218172478591  0.4664123180763097  0.7169261367752020
  0.5705490670366514  0.1342817664765583  0.4515821074404974
  0.9451213138709192  0.5981586307830704  0.5782188164062153
  0.5486265580971352  0.6429463201510933  0.7255084747275296
  0.0916585862171791  0.8527188418052831  0.6203030596959169
  0.7363411683675952  0.5831023904841095  0.7640862839706897
  0.8754511826686651  0.2558887218851814  0.0784267087785288
  0.1728773022615873  0.2870279381012983  0.7260277417942520
  0.0600659756358961  0.5797368150346675  0.1768413886124278
  0.0953402891206009  0.9966854028812814  0.1495015053926609
  0.0320883098685662  0.2807704050233013  0.2706267790023067
  0.3405997593830556  0.6400971637363708  0.5322368715800714
  0.2751377350558817  0.5419401078390218  0.6960321152142682
  0.6030382676765078  0.2145846418727571  0.8318403372916361
  0.3260289000845556  0.9320444924386341  0.6360381408348078
  0.3339995889904292  0.7940529298727869  0.9948887333754366
  0.2763170475709499  0.0301900818261911  0.2153479131290142
  0.3898007120608922  0.9165588192533753  0.1373574714962289
  0.8339895975919563  0.9328701327559349  0.8376837525661512
  0.6299174535718707  0.1780673058952160  0.2883301775809546
  0.0544389620035073  0.9808330188572820  0.3133699397013848
  0.3272173175866759  0.7006759914898685  0.1904713632293286
  0.0024276868477077  0.3943408394033573  0.0756306954547519
  0.7663061043818177  0.2050317432400495  0.7212487684653331
  0.4280111264897425  0.2490868975613955  0.3922010685809208
  0.8798149873339531  0.7384459898302163  0.8929902747666948
  0.4982448688316565  0.7480816811642322  0.2314855457770718
  0.0315386266408565  0.8055942000004951  0.8061492361997947
  0.6930768754733747  0.0473250123928347  0.9181716394422773
  0.4930813093574274  0.9413522739644644  0.3667798972060615
  0.6795070251234354  0.7320340268615505  0.6067183601963464
  0.9615699787149635  0.2285383166622077  0.5467245244545444
  0.0466459373695250  0.1635019643306980  0.9459838198987390
  0.8318016251799845  0.5491089171246351  0.3492781747239604
  0.1173311495797203  0.6239901166422527  0.5415173621824040
  0.6716362874829566  0.6074388396017167  0.4074931927098973
  0.7710190651654302  0.5269554054695702  0.5266482836030876
  0.6870071091636011  0.2433207064358094  0.1180480460770649
  0.1396369531794675  0.5899540654605939  0.8957903495475846
  0.3703947774306305  0.7578755431547203  0.7105301176345834
  0.5403372766016246  0.2794056859618742  0.0099639682515946
  0.9685080402744624  0.5854693759272720  0.0025348976101317
  0.4581287911249228  0.4312073814174277  0.7809874043165581
  0.9213100570583513  0.4402205574113473  0.2395823119339091
  0.3251469063109847  0.4338096110619550  0.2955820092480619
  0.9398403521488770  0.7142375872154566  0.4788385453424308
  0.6517850114855422  0.8370309860186181  0.2400855071996850
  0.8047481073078150  0.7668675198130788  0.3677085145266460
  0.7882961308111143  0.2818015387260165  0.5708360093377949
  0.7716990757061607  0.1602809720860870  0.4259463867472879
  0.8624208856912614  0.1188899663644271  0.8674920621697401
  0.4333473877709709  0.4634161833356175  0.5892247815266304
  0.7618376959289936  0.3995120947772232  0.4076269097447473
  0.0277548056863709  0.1518895102363875  0.7498404957166777
  0.5867211621979818  0.3564281879785330  0.3286333562893773
  0.4395757211463728  0.1216885873170067  0.8092363084416065
  0.9940922519509119  0.0900564816057265  0.4499371135148733
  0.3705467974453751  0.7593048837495580  0.4111486278517748
  0.2828802020440792  0.1652538644631454  0.6876799061798837
  0.7305370788445479  0.8912359087327639  0.0049214690626393
  0.3569630372508367  0.0894177119726763  0.3597902253095227
  0.0416563477195541  0.5405760721855173  0.3696054869178760
  0.7759941962092246  0.2776529205858104  0.9148118109077636
  0.0125338591570969  0.6977930347502977  0.1732380819000571
  0.6400244411806656  0.4407130522256978  0.4138549914808154
  0.5826825842601853  0.4850689053074710  0.0540772451059179
  0.3270458586439901  0.4463477575948580  0.1665427895336859
  0.6600638873441681  0.3239235696735627  0.8879434477832305
  0.7781613578872859  0.8386384954633800  0.2340609774398439
  0.2021134006382538  0.4835845284297067  0.9388832574807193
  0.1321261034457518  0.3810671954227148  0.0920162138462694
  0.6487434185067029  0.2606175746488681  0.7192857432493336
  0.1107151763150217  0.7840320387991501  0.9724714157277442
  0.7767024667510716  0.5306115627297864  0.0606998587046014
  0.9371978044436344  0.2203202817394930  0.6771257582125919
  0.5013421872907298  0.3465464062093100  0.4226889892090983
  0.2165955167338388  0.3607856085945723  0.2880719838268678
  0.4730335395733448  0.8318778979404560  0.4367212619695255
  0.5493815586286869  0.4604802952994794  0.8840010391863797
  0.2963642556054557  0.8113477891475227  0.1376101837536470
  0.8191952416531934  0.4051982167290699  0.9333864093704691
  0.5527184361476372  0.0272380843746085  0.9196046423639258
  0.6822681430247194  0.6209359947531496  0.5403480907168312
  0.8784248169255109  0.1282857602659693  0.0729065342256453
  0.2562196590775496  0.0398063351138351  0.6876089107234790
  0.8343563352036583  0.6552396567591066  0.8052862393621453
  0.2183136941913588  0.6185259661168332  0.7952631909638562
  0.4297796043208791  0.0082901012350014  0.7487552642521834
  0.4095846662035079  0.3018041115935564  0.0686308701920372
  0.0531343188510293  0.1064336928197650  0.3398573090538536
  0.4213374413692475  0.5914648681064728  0.8441276227179128
  0.2615439150890312  0.8853355367925227  0.9306963375492514
  0.3881105499474264  0.7663116402110143  0.8721529808766884
  0.7544410083167953  0.8186702784260896  0.8984315292408596
  0.8435866056778861  0.1724909036414901  0.5329825977614030
  0.9272792186585127  0.9976690975008330  0.1967866223549391
  0.8145620152268411  0.6851947392947079  0.9900757886978861
  0.4635930122089765  0.1873427371137137  0.5108383104263782
  0.8285708681297095  0.0184609699115012  0.9363424110286536
  0.9705837509505368  0.0207766571554249  0.6166779558630548
  0.0198978949757067  0.2869011070124943  0.3962559512788669
  0.9983736332063494  0.2435383380948487  0.0425931754155335
  0.9428958740808796  0.8720972276760371  0.7402135439605766
  0.2932996088319742  0.3784879971706578  0.4620817910563382
  0.1425658706555220  0.4899583141668060  0.5370256403760947
  0.8775735055701739  0.0653947201701787  0.3938401244984407
  0.3734146949003888  0.8017776379026471  0.5880704904215059
  0.7121221361425180  0.2887154947977812  0.4669549785471227
  0.8717548550932857  0.7364187814661247  0.6202202598428020
  0.3643341152580189  0.5169471226439859  0.9941403407543106
  0.5345643452122556  0.6400584279570145  0.9757809991124482
  0.4701540115915149  0.8368897128598971  0.7381287945645267
  0.0488235686064654  0.0575943399696695  0.0393221682264421
  0.8482985885900246  0.2366118460669965  0.3567480582187310
  0.2308911751433136  0.0655786096861258  0.3351422599802057
  0.5771281435952370  0.0939085225150150  0.7512390946985047
  0.4425656350734470  0.6927540324726944  0.1297595481174977
  0.3705076496014138  0.9689806215117970  0.3436460060234454
  0.5784304550545263  0.3139672416487249  0.1404952081943843
  0.5158035229534041  0.0156640133260873  0.4753695418840032
  0.2626078771954456  0.2602102770485159  0.1279766041057069
  0.3693725709753647  0.3755607143306591  0.8990651313321438
  0.6501643936621114  0.8937710254130198  0.3562575471673653
  0.0176476504850685  0.8852986274390251  0.0920670865686117
  0.9450303879034235  0.5600290058599144  0.2890845397885621
  0.9556702031474447  0.6946782785597084  0.6627602210082306
  0.5861117626510046  0.1337997165969048  0.1738447712703044
  0.8441011379873394  0.8635055059899702  0.0544191891899522
  0.1952536332907270  0.9395991028305463  0.0949945592822538
  0.6977028426449022  0.5724345536858336  0.8899379539392086
  0.3722876611086371  0.3562562446525717  0.7003047205186061
  0.2164015580290139  0.6362902238547317  0.6259298091937170
  0.7198164794164624  0.3597688419933135  0.0647395292907829
  0.9203469616272267  0.8832291338335860  0.4567992552286201
  0.4967547567455832  0.3023931478707059  0.7990084334244464
  0.8966729857756660  0.3425665110963481  0.5289513918331943
  0.1432642187137704  0.1001875683343760  0.8424796414920684
  0.0138007448063413  0.8317502745698150  0.2816027567650223
  0.1196875015418704  0.9017699567180588  0.8107845518525059
  0.1785046415707907  0.1010043378710459  0.1577456229845304
  0.6364051930091064  0.0602416767226121  0.3364362035931633
  0.9085398790048581  0.2784144532243201  0.2017440367342374
  0.0783629443327674  0.3567109615103953  0.6709011239238736
  0.1191792232234846  0.9184035542722980  0.4040550704732806
  0.1433724253102906  0.0636559631539419  0.5143585434342207
  0.5940758150233102  0.9602481937473015  0.6458983751877345
  0.0925733388628871  0.5958798847523038  0.0514894198242491
  0.9588499189808325  0.5081912135281375  0.1351156883700925
  0.1601091784374051  0.2045907958645277  0.9911816472536696
  0.0430876587815716  0.4096107534555345  0.2684429088572308
  0.4747378408322331  0.0259874345561875  0.0916618393677421
  0.8730328901771988  0.4895361499138309  0.7948292437871569
  0.5491621230875893  0.6369995306409014  0.3980579449664647
  0.5090811815652203  0.1630235624087865  0.3376368417779515
  0.5340574342914159  0.5225468277817913  0.5326557937715218
  0.5462964978922239  0.7182171056669374  0.5918691674185955
  0.4131479433895590  0.1721557139890658  0.6934944266416486
  0.4660195303468823  0.1738324141654961  0.9787814163185977
  0.1235128105814553  0.7699124538409536  0.7174585270183350
  0.9660658870949456  0.8994723012847853  0.9243169850963482
  0.3901513399946299  0.5753591275673980  0.6376222366692543
  0.2129449438653447  0.9010342653040523  0.5786874245809385
  0.8736626833507601  0.0382033883555100  0.7660530686714816
  0.2206436232871878  0.3219423197367209  0.6022425338486335
  0.1914070180560002  0.7380186919362391  0.2670123282953799
  0.2151772620455492  0.2255628502603323  0.4110022903115039
  0.3644055490913757  0.1228689498897106  0.2350813202546314
  0.5321163010381902  0.4562798633139447  0.2654154707642566
  0.6822899818474830  0.7917068583910866  0.0714027564911633
  0.0005298255418548  0.4653556955762739  0.9674006319092039
  0.0225030701360521  0.6733518733568216  0.3815614973494683
  0.6987632337590020  0.4437345501087573  0.5941251876613157
  0.4152192504281987  0.8915635766180504  0.0123585968951958
  0.3155378889004938  0.1146769301507108  0.8622063675761261
  0.2405310041817859  0.5432138134816596  0.2840009596521305
  0.7799982725856222  0.1102675499642389  0.2379316038091289
  0.6873935196938186  0.7202532382536895  0.3474146507517913
  0.6628681796218766  0.9621905414920476  0.1911314514363322
  0.5947219056174777  0.6178684209536298  0.1815054816095440
  0.7635908400081810  0.8034347795800398  0.4881674760694109
  0.2627416515530609  0.8260905460800951  0.4177068908903516
  0.8099070391907222  0.3055162837277143  0.7898088897785031
  0.5765712964317492  0.8291077798305057  0.8922887023214771
  0.6440793136865254  0.1255456691374028  0.5865755550006559
  0.0532155772445727  0.2579080187641183  0.8182421491494054
  0.4276346883548525  0.5995214084126461  0.2827030728875202
  0.3371030256226354  0.5471031974077465  0.4416969095426811
  0.8347118350908301  0.5615871594010082  0.6320551285307296
  0.3307147896320137  0.1102149802544843  0.0569699922815662
  0.3762831531856320  0.7862083724184200  0.2835797285801512
  0.6399301259034174  0.1919213231078173  0.0104056250730511
  0.7484297483653241  0.3891094102799395  0.2833510731893805
  0.5300037184067844  0.4300164561864149  0.6711207043214884
  0.7814337645487758  0.5912481747800075  0.2369187887987859
  0.1039979336106868  0.7659158025065487  0.5300215211285442
  0.2091523958938712  0.3940531493092921  0.7925265028104486
  0.8158526280884023  0.9168636304301374  0.6172587467307336
  0.1900855470220043  0.6445088876383931  0.4388717202711999
  0.0607096936803197  0.4872842928471744  0.8190748239149813
  0.9952398278671584  0.4977598128342771  0.6384244219708157
  0.6654994842949089  0.6903488995062484  0.7346859843312843
  0.1192574727037210  0.1622398659662747  0.6641075523852605
  0.2958993153616895  0.8629378921213540  0.7452392882211247
  0.7370325457242832  0.1495917234206886  0.8410399102448065
  0.8380248154711258  0.6521548051435957  0.4258711104804033
  0.9844633361106175  0.6497827435452141  0.8950376621588092
  0.5027645802753479  0.8644116748479954  0.1709952414368995
  0.6950662363595579  0.0564192063085140  0.5302197182981464
  0.4020989344390763  0.3090384465858094  0.2613689511924756
  0.2877082034715130  0.1692462491202474  0.5578464301971987
  0.7009847229206126  0.9697259838026105  0.8165203425458093
  0.2391725554515639  0.6510616079093565  0.9781355332299715
  0.9643979530443230  0.4889180818832828  0.4547845436062107
 
  0.00000000E+00  0.00000000E+00  0.00000000E+00
  0.00000000E+00  0.00000000E+00  0.00000000E+00
  0.00000000E+00  0.00000000E+00  0.00000000E+00
  0.00000000E+00  0.00000000E+00  0.00000000E+00
  0.00000000E+00  0.00000000E+00  0.00000000E+00
  0.00000000E+00  0.00000000E+00  0.00000000E+00
  0.00000000E+00  0.00000000E+00  0.00000000E+00
  0.00000000E+00  0.00000000E+00  0.00000000E+00
  0.00000000E+00  0.00000000E+00  0.00000000E+00
  0.00000000E+00  0.00000000E+00  0.00000000E+00
  0.00000000E+00  0.00000000E+00  0.00000000E+00
  0.00000000E+00  0.00000000E+00  0.00000000E+00
  0.00000000E+00  0.00000000E+00  0.00000000E+00
  0.00000000E+00  0.00000000E+00  0.00000000E+00
  0.00000000E+00  0.00000000E+00  0.00000000E+00
  0.00000000E+00  0.00000000E+00  0.00000000E+00
  0.00000000E+00  0.00000000E+00  0.00000000E+00
  0.00000000E+00  0.00000000E+00  0.00000000E+00
  0.00000000E+00  0.00000000E+00  0.00000000E+00
  0.00000000E+00  0.00000000E+00  0.00000000E+00
  0.00000000E+00  0.00000000E+00  0.00000000E+00
  0.00000000E+00  0.00000000E+00  0.00000000E+00
  0.00000000E+00  0.00000000E+00  0.00000000E+00
  0.00000000E+00  0.00000000E+00  0.00000000E+00
  0.00000000E+00  0.00000000E+00  0.00000000E+00
  0.00000000E+00  0.00000000E+00  0.00000000E+00
  0.00000000E+00  0.00000000E+00  0.00000000E+00
  0.00000000E+00  0.00000000E+00  0.00000000E+00
  0.00000000E+00  0.00000000E+00  0.00000000E+00
  0.00000000E+00  0.00000000E+00  0.00000000E+00
  0.00000000E+00  0.00000000E+00  0.00000000E+00
  0.00000000E+00  0.00000000E+00  0.00000000E+00
  0.00000000E+00  0.00000000E+00  0.00000000E+00
  0.00000000E+00  0.00000000E+00  0.00000000E+00
  0.00000000E+00  0.00000000E+00  0.00000000E+00
  0.00000000E+00  0.00000000E+00  0.00000000E+00
  0.00000000E+00  0.00000000E+00  0.00000000E+00
  0.00000000E+00  0.00000000E+00  0.00000000E+00
  0.00000000E+00  0.00000000E+00  0.00000000E+00
  0.00000000E+00  0.00000000E+00  0.00000000E+00
  0.00000000E+00  0.00000000E+00  0.00000000E+00
  0.00000000E+00  0.00000000E+00  0.00000000E+00
  0.00000000E+00  0.00000000E+00  0.00000000E+00
  0.00000000E+00  0.00000000E+00  0.00000000E+00
  0.00000000E+00  0.00000000E+00  0.00000000E+00
  0.00000000E+00  0.00000000E+00  0.00000000E+00
  0.00000000E+00  0.00000000E+00  0.00000000E+00
  0.00000000E+00  0.00000000E+00  0.00000000E+00
  0.00000000E+00  0.00000000E+00  0.00000000E+00
  0.00000000E+00  0.00000000E+00  0.00000000E+00
  0.00000000E+00  0.00000000E+00  0.00000000E+00
  0.00000000E+00  0.00000000E+00  0.00000000E+00
  0.00000000E+00  0.00000000E+00  0.00000000E+00
  0.00000000E+00  0.00000000E+00  0.00000000E+00
  0.00000000E+00  0.00000000E+00  0.00000000E+00
  0.00000000E+00  0.00000000E+00  0.00000000E+00
  0.00000000E+00  0.00000000E+00  0.00000000E+00
  0.00000000E+00  0.00000000E+00  0.00000000E+00
  0.00000000E+00  0.00000000E+00  0.00000000E+00
  0.00000000E+00  0.00000000E+00  0.00000000E+00
  0.00000000E+00  0.00000000E+00  0.00000000E+00
  0.00000000E+00  0.00000000E+00  0.00000000E+00
  0.00000000E+00  0.00000000E+00  0.00000000E+00
  0.00000000E+00  0.00000000E+00  0.00000000E+00
  0.00000000E+00  0.00000000E+00  0.00000000E+00
  0.00000000E+00  0.00000000E+00  0.00000000E+00
  0.00000000E+00  0.00000000E+00  0.00000000E+00
  0.00000000E+00  0.00000000E+00  0.00000000E+00
  0.00000000E+00  0.00000000E+00  0.00000000E+00
  0.00000000E+00  0.00000000E+00  0.00000000E+00
  0.00000000E+00  0.00000000E+00  0.00000000E+00
  0.00000000E+00  0.00000000E+00  0.00000000E+00
  0.00000000E+00  0.00000000E+00  0.00000000E+00
  0.00000000E+00  0.00000000E+00  0.00000000E+00
  0.00000000E+00  0.00000000E+00  0.00000000E+00
  0.00000000E+00  0.00000000E+00  0.00000000E+00
  0.00000000E+00  0.00000000E+00  0.00000000E+00
  0.00000000E+00  0.00000000E+00  0.00000000E+00
  0.00000000E+00  0.00000000E+00  0.00000000E+00
  0.00000000E+00  0.00000000E+00  0.00000000E+00
  0.00000000E+00  0.00000000E+00  0.00000000E+00
  0.00000000E+00  0.00000000E+00  0.00000000E+00
  0.00000000E+00  0.00000000E+00  0.00000000E+00
  0.00000000E+00  0.00000000E+00  0.00000000E+00
  0.00000000E+00  0.00000000E+00  0.00000000E+00
  0.00000000E+00  0.00000000E+00  0.00000000E+00
  0.00000000E+00  0.00000000E+00  0.00000000E+00
  0.00000000E+00  0.00000000E+00  0.00000000E+00
  0.00000000E+00  0.00000000E+00  0.00000000E+00
  0.00000000E+00  0.00000000E+00  0.00000000E+00
  0.00000000E+00  0.00000000E+00  0.00000000E+00
  0.00000000E+00  0.00000000E+00  0.00000000E+00
  0.00000000E+00  0.00000000E+00  0.00000000E+00
  0.00000000E+00  0.00000000E+00  0.00000000E+00
  0.00000000E+00  0.00000000E+00  0.00000000E+00
  0.00000000E+00  0.00000000E+00  0.00000000E+00
  0.00000000E+00  0.00000000E+00  0.00000000E+00
  0.00000000E+00  0.00000000E+00  0.00000000E+00
  0.00000000E+00  0.00000000E+00  0.00000000E+00
  0.00000000E+00  0.00000000E+00  0.00000000E+00
  0.00000000E+00  0.00000000E+00  0.00000000E+00
  0.00000000E+00  0.00000000E+00  0.00000000E+00
  0.00000000E+00  0.00000000E+00  0.00000000E+00
  0.00000000E+00  0.00000000E+00  0.00000000E+00
  0.00000000E+00  0.00000000E+00  0.00000000E+00
  0.00000000E+00  0.00000000E+00  0.00000000E+00
  0.00000000E+00  0.00000000E+00  0.00000000E+00
  0.00000000E+00  0.00000000E+00  0.00000000E+00
  0.00000000E+00  0.00000000E+00  0.00000000E+00
  0.00000000E+00  0.00000000E+00  0.00000000E+00
  0.00000000E+00  0.00000000E+00  0.00000000E+00
  0.00000000E+00  0.00000000E+00  0.00000000E+00
  0.00000000E+00  0.00000000E+00  0.00000000E+00
  0.00000000E+00  0.00000000E+00  0.00000000E+00
  0.00000000E+00  0.00000000E+00  0.00000000E+00
  0.00000000E+00  0.00000000E+00  0.00000000E+00
  0.00000000E+00  0.00000000E+00  0.00000000E+00
  0.00000000E+00  0.00000000E+00  0.00000000E+00
  0.00000000E+00  0.00000000E+00  0.00000000E+00
  0.00000000E+00  0.00000000E+00  0.00000000E+00
  0.00000000E+00  0.00000000E+00  0.00000000E+00
  0.00000000E+00  0.00000000E+00  0.00000000E+00
  0.00000000E+00  0.00000000E+00  0.00000000E+00
  0.00000000E+00  0.00000000E+00  0.00000000E+00
  0.00000000E+00  0.00000000E+00  0.00000000E+00
  0.00000000E+00  0.00000000E+00  0.00000000E+00
  0.00000000E+00  0.00000000E+00  0.00000000E+00
  0.00000000E+00  0.00000000E+00  0.00000000E+00
  0.00000000E+00  0.00000000E+00  0.00000000E+00
  0.00000000E+00  0.00000000E+00  0.00000000E+00
  0.00000000E+00  0.00000000E+00  0.00000000E+00
  0.00000000E+00  0.00000000E+00  0.00000000E+00
  0.00000000E+00  0.00000000E+00  0.00000000E+00
  0.00000000E+00  0.00000000E+00  0.00000000E+00
  0.00000000E+00  0.00000000E+00  0.00000000E+00
  0.00000000E+00  0.00000000E+00  0.00000000E+00
  0.00000000E+00  0.00000000E+00  0.00000000E+00
  0.00000000E+00  0.00000000E+00  0.00000000E+00
  0.00000000E+00  0.00000000E+00  0.00000000E+00
  0.00000000E+00  0.00000000E+00  0.00000000E+00
  0.00000000E+00  0.00000000E+00  0.00000000E+00
  0.00000000E+00  0.00000000E+00  0.00000000E+00
  0.00000000E+00  0.00000000E+00  0.00000000E+00
  0.00000000E+00  0.00000000E+00  0.00000000E+00
  0.00000000E+00  0.00000000E+00  0.00000000E+00
  0.00000000E+00  0.00000000E+00  0.00000000E+00
  0.00000000E+00  0.00000000E+00  0.00000000E+00
  0.00000000E+00  0.00000000E+00  0.00000000E+00
  0.00000000E+00  0.00000000E+00  0.00000000E+00
  0.00000000E+00  0.00000000E+00  0.00000000E+00
  0.00000000E+00  0.00000000E+00  0.00000000E+00
  0.00000000E+00  0.00000000E+00  0.00000000E+00
  0.00000000E+00  0.00000000E+00  0.00000000E+00
  0.00000000E+00  0.00000000E+00  0.00000000E+00
  0.00000000E+00  0.00000000E+00  0.00000000E+00
  0.00000000E+00  0.00000000E+00  0.00000000E+00
  0.00000000E+00  0.00000000E+00  0.00000000E+00
  0.00000000E+00  0.00000000E+00  0.00000000E+00
  0.00000000E+00  0.00000000E+00  0.00000000E+00
  0.00000000E+00  0.00000000E+00  0.00000000E+00
  0.00000000E+00  0.00000000E+00  0.00000000E+00
  0.00000000E+00  0.00000000E+00  0.00000000E+00
  0.00000000E+00  0.00000000E+00  0.00000000E+00
  0.00000000E+00  0.00000000E+00  0.00000000E+00
  0.00000000E+00  0.00000000E+00  0.00000000E+00
  0.00000000E+00  0.00000000E+00  0.00000000E+00
  0.00000000E+00  0.00000000E+00  0.00000000E+00
  0.00000000E+00  0.00000000E+00  0.00000000E+00
  0.00000000E+00  0.00000000E+00  0.00000000E+00
  0.00000000E+00  0.00000000E+00  0.00000000E+00
  0.00000000E+00  0.00000000E+00  0.00000000E+00
  0.00000000E+00  0.00000000E+00  0.00000000E+00
  0.00000000E+00  0.00000000E+00  0.00000000E+00
  0.00000000E+00  0.00000000E+00  0.00000000E+00
  0.00000000E+00  0.00000000E+00  0.00000000E+00
  0.00000000E+00  0.00000000E+00  0.00000000E+00
  0.00000000E+00  0.00000000E+00  0.00000000E+00
  0.00000000E+00  0.00000000E+00  0.00000000E+00
  0.00000000E+00  0.00000000E+00  0.00000000E+00
  0.00000000E+00  0.00000000E+00  0.00000000E+00
  0.00000000E+00  0.00000000E+00  0.00000000E+00
  0.00000000E+00  0.00000000E+00  0.00000000E+00
  0.00000000E+00  0.00000000E+00  0.00000000E+00
  0.00000000E+00  0.00000000E+00  0.00000000E+00
  0.00000000E+00  0.00000000E+00  0.00000000E+00
  0.00000000E+00  0.00000000E+00  0.00000000E+00
  0.00000000E+00  0.00000000E+00  0.00000000E+00
  0.00000000E+00  0.00000000E+00  0.00000000E+00
  0.00000000E+00  0.00000000E+00  0.00000000E+00
  0.00000000E+00  0.00000000E+00  0.00000000E+00
  0.00000000E+00  0.00000000E+00  0.00000000E+00
  0.00000000E+00  0.00000000E+00  0.00000000E+00
  0.00000000E+00  0.00000000E+00  0.00000000E+00
  0.00000000E+00  0.00000000E+00  0.00000000E+00
  0.00000000E+00  0.00000000E+00  0.00000000E+00
  0.00000000E+00  0.00000000E+00  0.00000000E+00
  0.00000000E+00  0.00000000E+00  0.00000000E+00
  0.00000000E+00  0.00000000E+00  0.00000000E+00
  0.00000000E+00  0.00000000E+00  0.00000000E+00
  0.00000000E+00  0.00000000E+00  0.00000000E+00
  0.00000000E+00  0.00000000E+00  0.00000000E+00
  0.00000000E+00  0.00000000E+00  0.00000000E+00
  0.00000000E+00  0.00000000E+00  0.00000000E+00
  0.00000000E+00  0.00000000E+00  0.00000000E+00
  0.00000000E+00  0.00000000E+00  0.00000000E+00
  0.00000000E+00  0.00000000E+00  0.00000000E+00
  0.00000000E+00  0.00000000E+00  0.00000000E+00
  0.00000000E+00  0.00000000E+00  0.00000000E+00
  0.00000000E+00  0.00000000E+00  0.00000000E+00
  0.00000000E+00  0.00000000E+00  0.00000000E+00
  0.00000000E+00  0.00000000E+00  0.00000000E+00
  0.00000000E+00  0.00000000E+00  0.00000000E+00
  0.00000000E+00  0.00000000E+00  0.00000000E+00
  0.00000000E+00  0.00000000E+00  0.00000000E+00
  0.00000000E+00  0.00000000E+00  0.00000000E+00
  0.00000000E+00  0.00000000E+00  0.00000000E+00
  0.00000000E+00  0.00000000E+00  0.00000000E+00
  0.00000000E+00  0.00000000E+00  0.00000000E+00
  0.00000000E+00  0.00000000E+00  0.00000000E+00
  0.00000000E+00  0.00000000E+00  0.00000000E+00
  0.00000000E+00  0.00000000E+00  0.00000000E+00
  0.00000000E+00  0.00000000E+00  0.00000000E+00
  0.00000000E+00  0.00000000E+00  0.00000000E+00
  0.00000000E+00  0.00000000E+00  0.00000000E+00
  0.00000000E+00  0.00000000E+00  0.00000000E+00
  0.00000000E+00  0.00000000E+00  0.00000000E+00
  0.00000000E+00  0.00000000E+00  0.00000000E+00
  0.00000000E+00  0.00000000E+00  0.00000000E+00
  0.00000000E+00  0.00000000E+00  0.00000000E+00
  0.00000000E+00  0.00000000E+00  0.00000000E+00
  0.00000000E+00  0.00000000E+00  0.00000000E+00
  0.00000000E+00  0.00000000E+00  0.00000000E+00