Sb Te                                   
   1.00000000000000     
    22.3950580811281021    0.0000000000000000    0.0000000000000000
     0.0000000000000000   22.3950580811281021    0.0000000000000000
     0.0000000000000000    0.0000000000000000   22.3950580811281021
   Sb   Te
   120   180
Direct
  0.7564453083772882  0.7335904155889046  0.8507726082232693
  0.3376109459831713  0.6356949457184974  0.7780334042016381
  0.1505773665421680  0.9697647893814986  0.6242247571108649
  0.7729090810078468  0.9469094034251533  0.7749623692813001
  0.9602515238872955  0.3975812018818111  0.7513640209521090
  0.0985611643355302  0.7151902520029615  0.0818309096520936
  0.0465263770023611  0.8191992240689682  0.5499066156665061
  0.4157410770407821  0.5608840780080315  0.5538294749324651
  0.3092310868404742  0.9286286814917768  0.2786475512560984
  0.2002516884358376  0.0460888016278287  0.0647290701045401
  0.6877687660457354  0.0239789487504357  0.2913675674285077
  0.4406190254019605  0.0811077623279857  0.1063684057271840
  0.5357758037768884  0.5521049975774232  0.7025207548743387
  0.1020881943711456  0.6703790942753401  0.6191529141622705
  0.4694193622850049  0.0302697834382064  0.3634099157346999
  0.9146480727680847  0.8318351211460675  0.1056733479765202
  0.1582044193897499  0.9169152536514666  0.4039414254102635
  0.2592477555167507  0.1851019475424628  0.4968106663976471
  0.1760464746466784  0.3959770365851563 -0.0083192448910008
  0.9183289632601700 -0.0065047989493336  0.1761890036969824
  0.9414841866582579  0.8405880857122034  0.2824007590100777
  0.2390906444345870 -0.0062622158050477  0.7793229452275001
  0.7960326745497007  0.1751293569520957  0.9564763380560037
  0.0074023582653663  0.0724203892568071  0.8796454503612553
  0.5370413799581348  0.3912715302866971  0.0453048395450352
  0.3334766072079136  0.0452206945098171  0.2291164989674022
  0.6435194336462354  0.7909433985415044  0.5009740783433408
  0.8032249837154272  0.6225662354515082  0.7980136124701411
  0.3143463166710846  0.6665359431001363  0.6141604483224706
  0.9950930054501698  0.7844608700145455  0.3897223493853899
  0.2356082954948811  0.6343116979345034  0.9346814708800034
  0.1311435644953501  0.2053455258634545  0.2416730639652774
  0.8725878534307447  0.4882708149285457  0.5465282462958934
  0.3585807685963081  0.1494723507264064  0.0225470747719106
  0.1006629974424140  0.4115313161419299  0.3958620286354330
  0.5804786121503255  0.4884214854871990  0.1268338588103027
  0.4781137691868269  0.6388287900697290  0.8370416967407512
  0.6219611255870346  0.1402812532489864  0.4551428388464414
  0.3653008331239735  0.0825900742830818  0.4219105677571864
 -0.0120542630392521  0.5937026716269006  0.7065758068428148
  0.5375552460971178  0.7081920566009458  0.3532273594017773
  0.0246771487628404  0.2511782760015193  0.7842539973069048
  0.7524434052989164  0.1140784967862627  0.4935712563274823
  0.7795599759458890  0.8658571309700456  0.1556220376027064
  0.2711080982193188  0.0378493540492132  0.3426779477557145
  0.3956017971582959  0.3479502404304931  0.6158776287508458
  0.9384421719210295  0.5643050250413320  0.9932461095994317
  0.9433346567614654  0.2594751516856745  0.4579447827046183
  0.1238990324535514  0.8394781137091039  0.0561772926064336
  0.7475895627219128  0.8812517715731324  0.9774302604292369
  0.2620536364851889  0.3182654880864093  0.0503143376331327
  0.9645344027454695  0.1717935095892596  0.2861311000900640
  0.5999549803806794  0.6893052044721339  0.8262921626198843
  0.4725716386218684  0.3473300372094778  0.7266203932347247
  0.0531925532233154  0.5818435657863946  0.1600503012988179
  0.2108609483185248  0.0590896720606059  0.1938615632773780
  0.2481474049738626  0.4920075758577330  0.3171945773204498
  0.8926960449548236  0.3145581665228063  0.6232149836522911
  0.3106025128703297  0.1080121203668555  0.7757288605508517
  0.3143472476689820  0.4987070877559096  0.4958095438653393
  0.8667953631040310  0.2169593138405691  0.3604328999964703
  0.3882515967198214  0.6837856583523403  0.3063635114984770
  0.8977937890861277  0.7432378485919926  0.2031353685607186
  0.5848800099685513  0.1835423798894809  0.8960999467126564
  0.6135027436392407  0.8957735380616022  0.8531763290734163
  0.1685780410224602  0.1722592673585124  0.0800675297551816
  0.8525683886997083  0.0851559739757229  0.6674239819558812
  0.7031803595734903  0.9743483225623173  0.5969818691052572
  0.0307088063191551  0.0603561260528689  0.1800496526995609
  0.0380020310966326  0.1199682379916116 -0.0008805899115316
  0.0686532874320561  0.1969828115017275  0.6112415526595150
  0.2828489800920485  0.3066216033662453  0.2678630670240000
  0.2234058420405014  0.2265943367576697  0.6168963062101545
  0.3450295120762686  0.8711510548269334  0.4217913916081946
  0.2394068049214990  0.8140372504731076  0.6930721587491462
  0.6486788509717339  0.9488892167260309  0.7371442713056641
  0.2555969719053740  0.9452206271346862  0.9508463585328167
  0.6609383514001832  0.0111280841278747  0.0241315666277288
  0.4386767346072092  0.7853392496597492  0.8459887384744040
  0.4417423070266268  0.9501595216312231  0.9821515111835450
  0.7348127456534056  0.1769246846391850  0.7583473863367336
  0.0554107497445398  0.3202596123294741  0.8901245112693761
  0.8503115436452844  0.3397343338489160  0.5011051259489588
  0.5901279105477863  0.5392385433035354  0.5852840437994127
  0.2800585049793126  0.3837373143016141  0.7582085826331184
  0.6274836967686857  0.8823743273827002  0.0301818042299492
  0.5701674105733376  0.6611596196647701  0.5374034312495241
  0.0890140465206523  0.2948825183238905  0.5267554331779978
  0.4356610855858295  0.3264829926494134  0.9100724600436408
  0.7669945207289244  0.1239690907549484  0.2692666551774185
  0.6349724465187185  0.0228323756160751  0.1688852883383984
  0.8515733602630642  0.3226779257308735  0.8809688595781499
  0.8176446949085320  0.6817489200903130  0.4963470033412791
  0.7032388806382638  0.4382823133852209  0.8226274928795310
  0.5684976914802429  0.1585237420714218  0.5871886631447266
  0.6555682828260094  0.8272771598051207  0.6765041346346168
  0.4091599829213412  0.9081305313799376  0.8010937837766943
  0.8849440455634625  0.5900867101682841  0.6285973632219370
  0.8994787254947875  0.9697362086890008  0.3053219788512621
  0.1245185958316737  0.0373429038635792  0.7359299211125985
  0.1077348989247212  0.6163608866374287  0.3468761212438331
  0.6019718063037921  0.2017225338577648  0.0480071116517486
  0.3905840448307342  0.7833841651880945  0.0784686281510615
  0.6426237025405116  0.2300697066102736  0.2443894071395045
  0.4238391932128749  0.0577755823184346  0.6278650584453335
  0.4888310543002887  0.6222615745109386  0.9650064299746156
  0.9539572357456885  0.3785940708497209  0.2269147602759202
  0.9734296647408910  0.4079868881494775  0.4389107123477095
  0.7148112442303861  0.2953643036997208  0.4168542104953164
  0.8729135841216176  0.7422654079296180  0.9169026064419923
  0.1479484968658700  0.7080729400001446  0.4324772466615285
  0.0684003150611017  0.9748202498975006  0.2712729272597240
  0.0795581506811289  0.1155481923683872  0.5091272484778158
  0.6815091074007417  0.3620642458681572  0.5798556521811352
  0.6212279031466761  0.5631045061875057  0.0280320813472308
  0.6040818236813268  0.5599779498606747  0.3920068589214470
  0.5875326111211248  0.2628200742539116  0.4284584117345778
  0.9849226938874032  0.7291540131411828  0.6477769339508901
  0.4467482348527108  0.8159624561396311  0.6063142390175724
  0.0774405413167788  0.9701587727001421  0.8395305476270029
  0.7818745216615534  0.2982539019555204  0.2071761381162006
  0.8459544225520204  0.1011536622789302  0.1727270578184709
  0.7416014345834241  0.8390618857907741  0.5820204107936379
  0.0369395708646053  0.8443053408179482  0.9654746320473584
  0.3967801359785380  0.3865082800509697  0.3971884266214742
 -0.0612764258280700  0.6586134361860555  0.5313912413815282
  0.1392697153222573  0.7997584919472949  0.3447526682516390
  0.5521815776054749  0.0417221101536081  0.6372879314533195
  0.4002906062253055  0.4204442254926102  0.8019291455819065
  0.3706085786866374  0.9739983329387336  0.0920235973486223
  0.4969639989108156  0.4633278965198310  0.5376527765094592
 -0.0273054608570143  0.7380676654839652  0.0345477427749018
  0.7210712390065612  0.2386800739456278  0.8723926701186995
  0.4234893467459870  0.3407991753846240  0.1144590302527173
  0.7718634594989789  0.5587645401956521  0.5038681514864013
  0.0605299171991818  0.7035372401457025  0.2045020503663222
  0.3746805008694765  0.5887166151858203  0.0116790372663667
  0.4306920878051615  0.0842064975153033  0.7526155490012927
  0.1813286987849070  0.5703849574733091  0.1696081742766289
  0.1258595199164046  0.5279475997485030  0.4404301445039208
  0.8151193130167042  0.5400138166688894  0.3581121817643513
  0.2328781503174511  0.7213300192423562  0.1083746782127420
  0.2448774436174629  0.7654901253443126  0.5746422348755794
  0.7582763509163379  0.4716162416559710  0.6331703357976795
  0.5968202294083540  0.1195625958998346  0.7813715777820849
  0.1519345327987116  0.2765425079363279  0.7545215957887108
  0.1241364028662980  0.6098526644163540  0.8828997152606741
  0.5349025436904306  0.7714303051062495  0.1813208161353868
  0.2009367814868414  0.2340776489618088  0.9748769756895046
  0.8308865633650437  0.2889008262745861  0.0034912792309791
  0.7253356775758873  0.5114979681193966  0.0798147275295984
  0.8335493207829349  0.0875186197657273  0.3726581575140656
  0.7493303378368202  0.6262833477578562  0.1356579673909756
  0.2408526628993609  0.6003580461601499  0.5242536333998163
  0.4635958645171202  0.8747815068566089  0.1349476072091392
  0.1772394409441766  0.9367975370886862  0.2156444446975395
  0.5526097029495296  0.4040983026326823  0.2758161406663617
  0.6752438176931630  0.2963354860446301  0.7142959201228415
  0.6337001249980495  0.3203043717082564  0.0925949485601909
  0.8836337569943755  0.0553252148522432  0.5282488860021096
  0.9161313749899710  0.2615823305301663  0.1861170610226428
  0.8120085919542940  0.0700704937944012  0.7944150555627648
  0.6565980602699800  0.6793619667615317  0.3847618955911555
  0.4318627187778747  0.9139108781699946  0.3244308738904049
  0.7961003530443864  0.7808099584619517  0.0382292639772282
  0.3524826117479704  0.0229929618791636  0.9218260604914624
  0.4587483332943135  0.1451837852005191  0.9090767326413823
  0.4901190675715561  0.6948112750060998  0.6312950780244760
  0.9835090762550708  0.0660340806170917  0.6921348492439209
  0.6998880523663048  0.3439561538736799  0.2924615877095275
  0.9622484194519996  0.9626055509243029  0.9811930789886264
  0.4034576667295592  0.2683223008923338  0.4467804245854736
  0.0326456186286951  0.2582912335214853  0.1296303123551916
  0.8342313477740763  0.4267345678197632  0.2072341693602871
  0.2932659109307705  0.4413544516994577  0.2072022925753319
  0.3090598663224119  0.5413847118559834  0.8712641957700159
  0.5336369859161348  0.8188069521822416  0.4220132125920108
  0.3824196119909388  0.9573826227065704  0.5108017662530301
  0.3629855025201942  0.8442818064616385  0.9643955017361021
  0.5215477475532502 -0.0103613103248190  0.2053544370233963
  0.5225762690937334  0.4203167484214801  0.4008563383425335
  0.5349099881542133  0.5718981467291006  0.2865313508670061
  0.9404914293794618  0.1991325246374825  0.5778758334021670
  0.6359243311338423  0.6858483413890791  0.1161730249100224
  0.1051960866465143  0.4335098981996107  0.2712591200030004
  0.0922302055514861  0.5400651733552466 -0.0128101189838091
  0.4114032153031763  0.5275592372249612  0.6793031161669503
  0.1367557152715700  0.6897484555847877  0.7415832437948398
  0.5225582267120356  0.0634204409681854  0.0092681020845219
  0.9886279549142576  0.3989345109061468  0.6226653704407413
  0.4874216793438308  0.6281144196948001  0.4418044288936066
  0.7161449952539175  0.3757046067591911 -0.0063212909087891
  0.0477581829442545  0.9262709957419809  0.4645754603071400
 -0.0063013538229132  0.0740302508195844  0.3734190351137661
  0.5085416019645703  0.9685411742005604  0.8561272901297421
  0.6706134346535488  0.0096593107382028  0.8954084870554455
  0.5713482054045583  0.4284660072150019  0.7131534042362340
  0.2734847341321383  0.6891425168132564  0.4201065716314083
  0.2393077283055393  0.1918280358793225  0.3106497847415466
  0.9437643151260241  0.5301975566130477  0.4417948844284485
  0.7803342220423211  0.3897822536715030  0.7257170300054322
  0.2921161531756294  0.7682800943379836  0.3153317912907503
  0.5620447944691708  0.3056536048894253  0.8754551195671416
  0.5714006035358333  0.1476600023022815  0.1615746460434894
  0.6137413213562627  0.7350377934923265  0.9446439298972228
  0.6479456678078754  0.6030979967825830  0.2211300714794756
  0.9861641654367291  0.6613157579112845  0.3531565085910683
  0.0263019438176679  0.7638272326942472  0.7705266509211572
  0.8856755667495919  0.4764792189658915  0.0674684639999584
  0.8756265470275226  0.9319329392337528  0.4966098987419175
  0.2087350955422092  0.6761622001811521  0.2396287920602125
  0.5091003520195139  0.5243185365899004  0.8856342504831188
  0.7106292919998746  0.1079758492690152  0.6179093486621253
  0.3998266038246536  0.2315350792496733  0.8339287835436239
  0.1396704568676999  0.3886237945501830  0.7005223941165215
  0.0282191678860534  0.0153676654275796  0.5821224524514851
  0.2432688796278341  0.8809938981414532  0.8398551686233158
  0.7191993977112572  0.1524445372365364  0.0595891256483627
  0.0684315101713038  0.5472058857364718  0.6179822463472597
  0.8964332253252186  0.3583311512514867  0.3492996125264093
  0.6625641518754858  0.8557543957503921  0.3965789312932254
  0.4021491443059780  0.1867017655419792  0.3524302905926456
  0.7698267403877286  0.6833391554012083  0.6742111725739363
  0.8648648259823394  0.8024079049558651  0.4016176991361655
  0.4998969406002305  0.9882004222661087  0.4794735352677912
  0.2789340121462819  0.7214050409992976  0.8507195819774864
  0.9535307236223681  0.6796989800849370  0.8297997858940788
  0.8987724503545020  0.5085680283897698  0.7565536221611606
  0.9305714449269326  0.8571145798887141  0.5817015758097202
  0.9205569167642057  0.0813745118993609  0.0300069662529341
  0.9514396260947338  0.9602814762252172  0.7859236754165203
  0.7831917572881955  0.7956058336823493  0.7422786755164171
  0.7731952359073606  0.7493522301762116  0.2181324294432914
  0.2379026254629187  0.6060190397559521  0.6989648912514236
  0.6993423905886275  0.4130290785084514  0.4609017869379619
  0.3322418936232216  0.2579445523620250  0.6808193987523129
  0.0816403778416438 -0.0011015205796455  0.0781110925921569
  0.3577773371700924  0.5278484409414177  0.3789832237792698
  0.3073221442847047  0.3802393934253853  0.9477352883996674
  0.7169610227198852  0.9931080300530086  0.4710695903715074
  0.8562706360232782  0.2140130650538847  0.7358763312458833
  0.4788205367928240  0.9093771671254424  0.6946699997658564
  0.6985038442895227  0.5105433553359759  0.3093951575193264
  0.2315243308477928  0.8951923451056708  0.5036743550024807
  0.2930436206456105  0.8264066500191544  0.1460907020090852
  0.1952014555755398  0.3492299961696568  0.5743195611181354
  0.8284806318146863  0.6799420016024899  0.3703549558041617
  0.9537573190591460  0.3969791292581071  0.9028608211217358
  0.6902692499708383  0.5609858168044934  0.7957688503318935
  0.1844764427940669  0.0402863345181906  0.9001215425063414
  0.5017718329875631  0.7947371311777293  0.9595538993443485
  0.3875247506273201  0.4578345688113584  0.0429083731285356
  0.7854910948161505  0.9748834267641237  0.0554027872347651
  0.4455561315783039  0.2506994629856085  0.0246126084687629
  0.8335919753291366  0.6195962728972678  0.9365677672397005
  0.5283943450194302  0.2855262563725340  0.2434572768896306
  0.2133222228058538  0.7736948403470478  0.9887609977035371
  0.4128890513277547  0.7712865982637467  0.4626288635408331
  0.5686952998290445  0.2182963532219568  0.7084802623324394
  0.3030200834775966  0.4318108462501772  0.6407258298831748
  0.0206313055426902  0.8668245596820104  0.1814012407748475
  0.0959131941257046  0.1584078513087296  0.8345612931474027
  0.1994198727809908  0.0730698592798242  0.5198452378462789
  0.7928329422423375  0.4471062108205827  0.9133259174032038
  0.9811329440074587  0.3790345590929601  0.0879844196507388
  0.1791450543718540  0.3150954617482010  0.1946853455938314
  0.3642078618192213  0.7657994543191488  0.7105803980212501
  0.7797595425221634  0.9237337629603390  0.2760268737902314
  0.0483597197065057  0.2591136141785277  0.3241075496374447
  0.0070192740152034  0.5175022246190752  0.2668669764693423
  0.1164619303151828  0.0715331354332471  0.3423781327226045
  0.1019259046121152  0.8579210396899651  0.6613700511090093
  0.2162294568246526  0.4866160988039983  0.8065122655930718
  0.0907723815781519  0.4395079725930540  0.0938148724373757
  0.7592132244887996  0.2606007411794150  0.5540698968766483
  0.6189201895990127  0.4523606138278424  0.9510690990434314
  0.2799136785605036  0.9327994775351700  0.6647469383654105
  0.4482402327090121  0.5196762000854557  0.1408943262225341
  0.5657765094055685  0.3032339331768822  0.5465498650480880
  0.6449262042223131  0.6778275204908106  0.6622115213066680
  0.2100433967282016  0.5136209332989382  0.0253415293780403
  0.0710342205916362  0.4362900235102787  0.8012425284129602
  0.8208926772308638  0.9561304214954138  0.6554904667262348
  0.4356686948047754  0.6951477123500069  0.1872145240012835
  0.2894525631695426  0.1759030761428514  0.1295354919765476
  0.5469056531615766  0.7939818987316540  0.7748997222379072
  0.9168626328781071  0.2059680850624534  0.8644184727939180
  0.6023788371343887  0.1306114297225524  0.3266440018289536
  0.5720568256678762  0.8671885335824897  0.5795636621962885
  0.2489306702157815  0.3738889617840932  0.3734610768777973
  0.4421873848260465  0.1702167730109462  0.5702056615196689
  0.1551957796745809  0.2306964554276860  0.4365381277950824
 -0.0136386170790371  0.2371050540077749  0.9714971748956469
  0.3154700832925271  0.6057202047559762  0.2344122399052818
  0.6514240344880340  0.8839923614755736  0.1568094967143511
  0.8640779074417440  0.5531495083622098  0.2400414728274141
  0.8958857476650336  0.9075665552520019  0.8883889715098784
  0.9221478217556103  0.6344066425195153  0.0981341801197121
  0.4192224956714199  0.4366027175433349  0.2337376494369331
  0.2704065701655698  0.0988358768936758  0.6567376559138965
 
  0.00000000E+00  0.00000000E+00  0.00000000E+00
  0.00000000E+00  0.00000000E+00  0.00000000E+00
  0.00000000E+00  0.00000000E+00  0.00000000E+00
  0.00000000E+00  0.00000000E+00  0.00000000E+00
  0.00000000E+00  0.00000000E+00  0.00000000E+00
  0.00000000E+00  0.00000000E+00  0.00000000E+00
  0.00000000E+00  0.00000000E+00  0.00000000E+00
  0.00000000E+00  0.00000000E+00  0.00000000E+00
  0.00000000E+00  0.00000000E+00  0.00000000E+00
  0.00000000E+00  0.00000000E+00  0.00000000E+00
  0.00000000E+00  0.00000000E+00  0.00000000E+00
  0.00000000E+00  0.00000000E+00  0.00000000E+00
  0.00000000E+00  0.00000000E+00  0.00000000E+00
  0.00000000E+00  0.00000000E+00  0.00000000E+00
  0.00000000E+00  0.00000000E+00  0.00000000E+00
  0.00000000E+00  0.00000000E+00  0.00000000E+00
  0.00000000E+00  0.00000000E+00  0.00000000E+00
  0.00000000E+00  0.00000000E+00  0.00000000E+00
  0.00000000E+00  0.00000000E+00  0.00000000E+00
  0.00000000E+00  0.00000000E+00  0.00000000E+00
  0.00000000E+00  0.00000000E+00  0.00000000E+00
  0.00000000E+00  0.00000000E+00  0.00000000E+00
  0.00000000E+00  0.00000000E+00  0.00000000E+00
  0.00000000E+00  0.00000000E+00  0.00000000E+00
  0.00000000E+00  0.00000000E+00  0.00000000E+00
  0.00000000E+00  0.00000000E+00  0.00000000E+00
  0.00000000E+00  0.00000000E+00  0.00000000E+00
  0.00000000E+00  0.00000000E+00  0.00000000E+00
  0.00000000E+00  0.00000000E+00  0.00000000E+00
  0.00000000E+00  0.00000000E+00  0.00000000E+00
  0.00000000E+00  0.00000000E+00  0.00000000E+00
  0.00000000E+00  0.00000000E+00  0.00000000E+00
  0.00000000E+00  0.00000000E+00  0.00000000E+00
  0.00000000E+00  0.00000000E+00  0.00000000E+00
  0.00000000E+00  0.00000000E+00  0.00000000E+00
  0.00000000E+00  0.00000000E+00  0.00000000E+00
  0.00000000E+00  0.00000000E+00  0.00000000E+00
  0.00000000E+00  0.00000000E+00  0.00000000E+00
  0.00000000E+00  0.00000000E+00  0.00000000E+00
  0.00000000E+00  0.00000000E+00  0.00000000E+00
  0.00000000E+00  0.00000000E+00  0.00000000E+00
  0.00000000E+00  0.00000000E+00  0.00000000E+00
  0.00000000E+00  0.00000000E+00  0.00000000E+00
  0.00000000E+00  0.00000000E+00  0.00000000E+00
  0.00000000E+00  0.00000000E+00  0.00000000E+00
  0.00000000E+00  0.00000000E+00  0.00000000E+00
  0.00000000E+00  0.00000000E+00  0.00000000E+00
  0.00000000E+00  0.00000000E+00  0.00000000E+00
  0.00000000E+00  0.00000000E+00  0.00000000E+00
  0.00000000E+00  0.00000000E+00  0.00000000E+00
  0.00000000E+00  0.00000000E+00  0.00000000E+00
  0.00000000E+00  0.00000000E+00  0.00000000E+00
  0.00000000E+00  0.00000000E+00  0.00000000E+00
  0.00000000E+00  0.00000000E+00  0.00000000E+00
  0.00000000E+00  0.00000000E+00  0.00000000E+00
  0.00000000E+00  0.00000000E+00  0.00000000E+00
  0.00000000E+00  0.00000000E+00  0.00000000E+00
  0.00000000E+00  0.00000000E+00  0.00000000E+00
  0.00000000E+00  0.00000000E+00  0.00000000E+00
  0.00000000E+00  0.00000000E+00  0.00000000E+00
  0.00000000E+00  0.00000000E+00  0.00000000E+00
  0.00000000E+00  0.00000000E+00  0.00000000E+00
  0.00000000E+00  0.00000000E+00  0.00000000E+00
  0.00000000E+00  0.00000000E+00  0.00000000E+00
  0.00000000E+00  0.00000000E+00  0.00000000E+00
  0.00000000E+00  0.00000000E+00  0.00000000E+00
  0.00000000E+00  0.00000000E+00  0.00000000E+00
  0.00000000E+00  0.00000000E+00  0.00000000E+00
  0.00000000E+00  0.00000000E+00  0.00000000E+00
  0.00000000E+00  0.00000000E+00  0.00000000E+00
  0.00000000E+00  0.00000000E+00  0.00000000E+00
  0.00000000E+00  0.00000000E+00  0.00000000E+00
  0.00000000E+00  0.00000000E+00  0.00000000E+00
  0.00000000E+00  0.00000000E+00  0.00000000E+00
  0.00000000E+00  0.00000000E+00  0.00000000E+00
  0.00000000E+00  0.00000000E+00  0.00000000E+00
  0.00000000E+00  0.00000000E+00  0.00000000E+00
  0.00000000E+00  0.00000000E+00  0.00000000E+00
  0.00000000E+00  0.00000000E+00  0.00000000E+00
  0.00000000E+00  0.00000000E+00  0.00000000E+00
  0.00000000E+00  0.00000000E+00  0.00000000E+00
  0.00000000E+00  0.00000000E+00  0.00000000E+00
  0.00000000E+00  0.00000000E+00  0.00000000E+00
  0.00000000E+00  0.00000000E+00  0.00000000E+00
  0.00000000E+00  0.00000000E+00  0.00000000E+00
  0.00000000E+00  0.00000000E+00  0.00000000E+00
  0.00000000E+00  0.00000000E+00  0.00000000E+00
  0.00000000E+00  0.00000000E+00  0.00000000E+00
  0.00000000E+00  0.00000000E+00  0.00000000E+00
  0.00000000E+00  0.00000000E+00  0.00000000E+00
  0.00000000E+00  0.00000000E+00  0.00000000E+00
  0.00000000E+00  0.00000000E+00  0.00000000E+00
  0.00000000E+00  0.00000000E+00  0.00000000E+00
  0.00000000E+00  0.00000000E+00  0.00000000E+00
  0.00000000E+00  0.00000000E+00  0.00000000E+00
  0.00000000E+00  0.00000000E+00  0.00000000E+00
  0.00000000E+00  0.00000000E+00  0.00000000E+00
  0.00000000E+00  0.00000000E+00  0.00000000E+00
  0.00000000E+00  0.00000000E+00  0.00000000E+00
  0.00000000E+00  0.00000000E+00  0.00000000E+00
  0.00000000E+00  0.00000000E+00  0.00000000E+00
  0.00000000E+00  0.00000000E+00  0.00000000E+00
  0.00000000E+00  0.00000000E+00  0.00000000E+00
  0.00000000E+00  0.00000000E+00  0.00000000E+00
  0.00000000E+00  0.00000000E+00  0.00000000E+00
  0.00000000E+00  0.00000000E+00  0.00000000E+00
  0.00000000E+00  0.00000000E+00  0.00000000E+00
  0.00000000E+00  0.00000000E+00  0.00000000E+00
  0.00000000E+00  0.00000000E+00  0.00000000E+00
  0.00000000E+00  0.00000000E+00  0.00000000E+00
  0.00000000E+00  0.00000000E+00  0.00000000E+00
  0.00000000E+00  0.00000000E+00  0.00000000E+00
  0.00000000E+00  0.00000000E+00  0.00000000E+00
  0.00000000E+00  0.00000000E+00  0.00000000E+00
  0.00000000E+00  0.00000000E+00  0.00000000E+00
  0.00000000E+00  0.00000000E+00  0.00000000E+00
  0.00000000E+00  0.00000000E+00  0.00000000E+00
  0.00000000E+00  0.00000000E+00  0.00000000E+00
  0.00000000E+00  0.00000000E+00  0.00000000E+00
  0.00000000E+00  0.00000000E+00  0.00000000E+00
  0.00000000E+00  0.00000000E+00  0.00000000E+00
  0.00000000E+00  0.00000000E+00  0.00000000E+00
  0.00000000E+00  0.00000000E+00  0.00000000E+00
  0.00000000E+00  0.00000000E+00  0.00000000E+00
  0.00000000E+00  0.00000000E+00  0.00000000E+00
  0.00000000E+00  0.00000000E+00  0.00000000E+00
  0.00000000E+00  0.00000000E+00  0.00000000E+00
  0.00000000E+00  0.00000000E+00  0.00000000E+00
  0.00000000E+00  0.00000000E+00  0.00000000E+00
  0.00000000E+00  0.00000000E+00  0.00000000E+00
  0.00000000E+00  0.00000000E+00  0.00000000E+00
  0.00000000E+00  0.00000000E+00  0.00000000E+00
  0.00000000E+00  0.00000000E+00  0.00000000E+00
  0.00000000E+00  0.00000000E+00  0.00000000E+00
  0.00000000E+00  0.00000000E+00  0.00000000E+00
  0.00000000E+00  0.00000000E+00  0.00000000E+00
  0.00000000E+00  0.00000000E+00  0.00000000E+00
  0.00000000E+00  0.00000000E+00  0.00000000E+00
  0.00000000E+00  0.00000000E+00  0.00000000E+00
  0.00000000E+00  0.00000000E+00  0.00000000E+00
  0.00000000E+00  0.00000000E+00  0.00000000E+00
  0.00000000E+00  0.00000000E+00  0.00000000E+00
  0.00000000E+00  0.00000000E+00  0.00000000E+00
  0.00000000E+00  0.00000000E+00  0.00000000E+00
  0.00000000E+00  0.00000000E+00  0.00000000E+00
  0.00000000E+00  0.00000000E+00  0.00000000E+00
  0.00000000E+00  0.00000000E+00  0.00000000E+00
  0.00000000E+00  0.00000000E+00  0.00000000E+00
  0.00000000E+00  0.00000000E+00  0.00000000E+00
  0.00000000E+00  0.00000000E+00  0.00000000E+00
  0.00000000E+00  0.00000000E+00  0.00000000E+00
  0.00000000E+00  0.00000000E+00  0.00000000E+00
  0.00000000E+00  0.00000000E+00  0.00000000E+00
  0.00000000E+00  0.00000000E+00  0.00000000E+00
  0.00000000E+00  0.00000000E+00  0.00000000E+00
  0.00000000E+00  0.00000000E+00  0.00000000E+00
  0.00000000E+00  0.00000000E+00  0.00000000E+00
  0.00000000E+00  0.00000000E+00  0.00000000E+00
  0.00000000E+00  0.00000000E+00  0.00000000E+00
  0.00000000E+00  0.00000000E+00  0.00000000E+00
  0.00000000E+00  0.00000000E+00  0.00000000E+00
  0.00000000E+00  0.00000000E+00  0.00000000E+00
  0.00000000E+00  0.00000000E+00  0.00000000E+00
  0.00000000E+00  0.00000000E+00  0.00000000E+00
  0.00000000E+00  0.00000000E+00  0.00000000E+00
  0.00000000E+00  0.00000000E+00  0.00000000E+00
  0.00000000E+00  0.00000000E+00  0.00000000E+00
  0.00000000E+00  0.00000000E+00  0.00000000E+00
  0.00000000E+00  0.00000000E+00  0.00000000E+00
  0.00000000E+00  0.00000000E+00  0.00000000E+00
  0.00000000E+00  0.00000000E+00  0.00000000E+00
  0.00000000E+00  0.00000000E+00  0.00000000E+00
  0.00000000E+00  0.00000000E+00  0.00000000E+00
  0.00000000E+00  0.00000000E+00  0.00000000E+00
  0.00000000E+00  0.00000000E+00  0.00000000E+00
  0.00000000E+00  0.00000000E+00  0.00000000E+00
  0.00000000E+00  0.00000000E+00  0.00000000E+00
  0.00000000E+00  0.00000000E+00  0.00000000E+00
  0.00000000E+00  0.00000000E+00  0.00000000E+00
  0.00000000E+00  0.00000000E+00  0.00000000E+00
  0.00000000E+00  0.00000000E+00  0.00000000E+00
  0.00000000E+00  0.00000000E+00  0.00000000E+00
  0.00000000E+00  0.00000000E+00  0.00000000E+00
  0.00000000E+00  0.00000000E+00  0.00000000E+00
  0.00000000E+00  0.00000000E+00  0.00000000E+00
  0.00000000E+00  0.00000000E+00  0.00000000E+00
  0.00000000E+00  0.00000000E+00  0.00000000E+00
  0.00000000E+00  0.00000000E+00  0.00000000E+00
  0.00000000E+00  0.00000000E+00  0.00000000E+00
  0.00000000E+00  0.00000000E+00  0.00000000E+00
  0.00000000E+00  0.00000000E+00  0.00000000E+00
  0.00000000E+00  0.00000000E+00  0.00000000E+00
  0.00000000E+00  0.00000000E+00  0.00000000E+00
  0.00000000E+00  0.00000000E+00  0.00000000E+00
  0.00000000E+00  0.00000000E+00  0.00000000E+00
  0.00000000E+00  0.00000000E+00  0.00000000E+00
  0.00000000E+00  0.00000000E+00  0.00000000E+00
  0.00000000E+00  0.00000000E+00  0.00000000E+00
  0.00000000E+00  0.00000000E+00  0.00000000E+00
  0.00000000E+00  0.00000000E+00  0.00000000E+00
  0.00000000E+00  0.00000000E+00  0.00000000E+00
  0.00000000E+00  0.00000000E+00  0.00000000E+00
  0.00000000E+00  0.00000000E+00  0.00000000E+00
  0.00000000E+00  0.00000000E+00  0.00000000E+00
  0.00000000E+00  0.00000000E+00  0.00000000E+00
  0.00000000E+00  0.00000000E+00  0.00000000E+00
  0.00000000E+00  0.00000000E+00  0.00000000E+00
  0.00000000E+00  0.00000000E+00  0.00000000E+00
  0.00000000E+00  0.00000000E+00  0.00000000E+00
  0.00000000E+00  0.00000000E+00  0.00000000E+00
  0.00000000E+00  0.00000000E+00  0.00000000E+00
  0.00000000E+00  0.00000000E+00  0.00000000E+00
  0.00000000E+00  0.00000000E+00  0.00000000E+00
  0.00000000E+00  0.00000000E+00  0.00000000E+00
  0.00000000E+00  0.00000000E+00  0.00000000E+00
  0.00000000E+00  0.00000000E+00  0.00000000E+00
  0.00000000E+00  0.00000000E+00  0.00000000E+00
  0.00000000E+00  0.00000000E+00  0.00000000E+00
  0.00000000E+00  0.00000000E+00  0.00000000E+00
  0.00000000E+00  0.00000000E+00  0.00000000E+00
  0.00000000E+00  0.00000000E+00  0.00000000E+00
  0.00000000E+00  0.00000000E+00  0.00000000E+00
  0.00000000E+00  0.00000000E+00  0.00000000E+00
  0.00000000E+00  0.00000000E+00  0.00000000E+00
  0.00000000E+00  0.00000000E+00  0.00000000E+00
  0.00000000E+00  0.00000000E+00  0.00000000E+00
  0.00000000E+00  0.00000000E+00  0.00000000E+00
  0.00000000E+00  0.00000000E+00  0.00000000E+00
  0.00000000E+00  0.00000000E+00  0.00000000E+00
  0.00000000E+00  0.00000000E+00  0.00000000E+00
  0.00000000E+00  0.00000000E+00  0.00000000E+00
  0.00000000E+00  0.00000000E+00  0.00000000E+00