Ge2 Sb2 Te5                             
   1.00000000000000     
     2.1537511410564156   -3.7304064031691535    0.0000000000000000
     2.1537511410564156    3.7304064031691535    0.0000000000000001
     0.0000000000000001   -0.0000000000000003   17.3007772951383387
   Ge   Sb   Te
     2     2     5
Direct
  0.0000000000000000  0.0000000000000000  0.3402039250650341
  0.0000000000000000  0.0000000000000000  0.6597960749349655
  0.3333333333333357  0.6666666666666643  0.1158106548572702
  0.6666666666666643  0.3333333333333357  0.8841893451427303
  0.0000000000000000  0.0000000000000000  0.0000000000000000
  0.3333333333333357  0.6666666666666643  0.7860082127570516
  0.6666666666666643  0.3333333333333357  0.2139917872429554
  0.3333333333333357  0.6666666666666643  0.4195705311193541
  0.6666666666666643  0.3333333333333357  0.5804294688806461
 
  0.00000000E+00  0.00000000E+00  0.00000000E+00
  0.00000000E+00  0.00000000E+00  0.00000000E+00
  0.00000000E+00  0.00000000E+00  0.00000000E+00
  0.00000000E+00  0.00000000E+00  0.00000000E+00
  0.00000000E+00  0.00000000E+00  0.00000000E+00
  0.00000000E+00  0.00000000E+00  0.00000000E+00
  0.00000000E+00  0.00000000E+00  0.00000000E+00
  0.00000000E+00  0.00000000E+00  0.00000000E+00
  0.00000000E+00  0.00000000E+00  0.00000000E+00
