Sb                                      
   1.00000000000000     
    17.0273007965000005    0.0000000000000000    0.0000000000000000
     0.0000000000000000   17.0273007965000005    0.0000000000000000
     0.0000000000000000    0.0000000000000000   17.0273007965000005
   Si   S 
    66   132
Direct
  0.7560645860476102  0.5040086536970361  0.8970302040104428
  0.9081417648414494  0.6304363156909685  0.3234251619748950
  0.2900194907764682  0.6250711312307891  0.0062843117903315
  0.5011256413336853  0.9343272076879998  0.2267200966974426
  0.6487176625309202  0.2911412332514625  0.6236803171453740
  0.1708539419764109  0.3695991961704222  0.5871006242657176
  0.8320925703119774  0.4002241575683062  0.5865279681414454
  0.1987779591781144  0.4985488165348591  0.2765134729710432
  0.9486053009797789  0.2617777827414005  0.9011279557799152
  0.1777099562058126  0.1807943580024690  0.3659090388954932
  0.6606856292004860  0.4877561389243578  0.5917459126549212
  0.1429906887746303  0.0101471846416548  0.7246767269233978
  0.7093955806095191  0.8779516908249370  0.4424812392097716
  0.7329529092103471  0.3782167655900996  0.7452722187342056
  0.5163101775117657  0.1537484447114204  0.8002545662310433
  0.7001698981026072  0.4888104246900201  0.1079796830903178
  0.9491551165626124  0.7229173807682738  0.2270368070441266
  0.9402057745965626  0.7158058742711390  0.0234293126583523
  0.4724165525607214  0.2887712247443584  0.4630271525753306
  0.5667234791506218  0.1570061364590506  0.4193467048167759
  0.7651586611883141  0.8349778077346128  0.0520570729911064
  0.9714447470398644  0.3872252137427625  0.5048441800942852
  0.3089190542375625  0.6249947227744911  0.1477900145117793
  0.9147878842271505  0.3904770591398851  0.3042477047811646
  0.4861331965856081  0.8267435549980341  0.6881756483044200
  0.6615264990643037  0.0804590477457566  0.4907426325479670
  0.7186235510426141  0.8082596379337467  0.6332617079239955
  0.2736753376376045  0.0047538141618303  0.6764988747475160
  0.5341791172816296  0.3546318439139539  0.1110718942145776
  0.8232485612384711  0.8101459572472182  0.3537064992004228
  0.3918343123976535  0.9312668588110953  0.1419292986925319
  0.9271844879386180  0.4622595773327763  0.1614768378287015
  0.2180576671031405  0.2779248532989748  0.2788554858502473
  0.1061782314368672  0.3467300712583929  0.7919945460243887
  0.2235560063476508  0.9083960805583108  0.4790251924952058
  0.7274269236676699  0.0341296359150913  0.0129403318060773
  0.0748217812845812  0.7913181726108310  0.5190404453880463
  0.0049771223460175  0.0631184415628954  0.0576223170929487
  0.1259344728322897  0.6384704285902820  0.3868916249819086
  0.2347930681730845  0.0434423936289325  0.1216667905985481
  0.4867635917788844  0.2695644194903699  0.9174721776263286
  0.0551246045886232  0.6527347690135566  0.8996881809851883
  0.8883200458592879  0.0983628938511875  0.8915879293370788
  0.5602605706382320  0.0519292954731030  0.6779620903598806
  0.9751510934026780  0.4514409257440872  0.9581496326739570
  0.0187896697379147  0.6289732409133942  0.5586557534279315
  0.8912722956757655  0.5307320604136454  0.8779012783031509
  0.4269550583629350  0.5057608630983434  0.2183409935950136
  0.5377795134708119  0.5763840640802762  0.3555329865088803
  0.0585131985875916  0.5163435442878289  0.8650700249989114
  0.1452979861017742  0.6825239576268674  0.2554091891186928
  0.4538414614929137  0.8838053388079667 -0.0002295082444882
  0.4855950463374590  0.4029487285681377  0.2888986617712204
  0.3668420664339494  0.3940771022207160  0.6480878464232206
  0.9865967912937720  0.9805228156467155  0.7545353125492450
  0.2328551556861350  0.7161557577897486  0.8356906233766662
  0.5855099514085882  0.9075790721110747  0.0371305496759456
  0.2133708591619667  0.2058737832807700  0.1104800379090008
  0.9257239310585464  0.0831785976540795  0.2009074146149044
  0.3766878762664192  0.4235119593270901  0.8109322196667758
  0.8084447645060491  0.1046847766627663  0.3428227876403015
  0.6555997429262741  0.7038961871771749  0.7453943744143116
  0.3127842628863128  0.5349400562625548  0.8736744091587726
  0.7970112815399644  0.4902491104309889  0.2107758745095251
  0.7897474348001047  0.1012623617806408  0.1904424375175668
  0.3833881402906104  0.8705627523249648  0.7808915843726176
  0.1537062033592722  0.8607449179688708  0.3756865513057031
  0.1417326766099353  0.6777544472374636  0.5076457495708179
  0.9037790371292973  0.6579267373499114  0.1272248241538815
  0.5650743374991508  0.6426446262233835  0.6850065854276401
  0.4189421073014964  0.1697899826667401  0.8802013980738653
  0.2636006481986294  0.7155467848137412  0.2258497327333123
  0.9192028875858207  0.3091810119824200  0.5885005254462539
  0.8601465943689707  0.7077520803711279  0.4147100699989180
  0.1482453522843701  0.4669562016671733  0.7912642431282277
  0.5850654256062154  0.2524390272519356  0.8412133559358747
  0.2189979833649434  0.5295551569885498  0.9618784500287321
  0.6764145352579292  0.7826054954340129  0.5196412347836568
  0.2669563653817950  0.4530595737479090  0.5953550046766791
  0.4566356987807820  0.3273989454516946  0.5856792680176406
  0.4129600090730517  0.3719831655394143  0.3895080225878689
  0.4123196027934345  0.9978702626326698  0.0356623091524130
  0.4777324152993971  0.0538758075411391  0.2691071421387398
  0.4375974899296434  0.3869303659995799  0.9149308380948459
  0.4695575358332876  0.4590518803564229  0.0981136419700983
  0.8096330183670594  0.9052460244484101  0.7556921984876549
  0.7778109761308489  0.2024516665354222  0.2687607002477297
  0.0157393911903797  0.1603181911553851  0.9064619804065401
  0.7493482993090779  0.0152246558781935  0.2761259805223838
  0.9799114892554881  0.3453599819393566  0.8081983258729255
  0.3253923713498065  0.8534599837931688  0.4217346349052213
  0.5762988346622134  0.1208889420462068  0.2962856961882042
  0.5921762375469120  0.4711548739188794  0.3076195354215842
  0.2505149335128619  0.7366192024060584  0.9598038910213547
  0.7644373708108340  0.7009812298026836  0.6822526867582582
  0.0811168987462089  0.4432633627135550  0.5356152167065711
  0.9733390622034308  0.3251959262828391  0.3929324311969889
  0.0880580564985386  0.9546392340512861  0.8240035344286630
  0.4795745259077074  0.7490492213610125  0.2809145523224242
 -0.0054087422341149 -0.0143162392595913  0.1587036714721257
  0.5206140372189068  0.3010056511871139  0.2247002083662749
  0.4483551204612853  0.1634390678122103  0.4631907267289695
  0.7319515679430321  0.7485087175011395  0.1370100677335678
  0.3978590595025450  0.5906735131459523  0.9513541609279086
  0.6689594405880065  0.0896124295023954  0.6169101689522531
  0.9807002559639911  0.7506484266385125  0.5878114758014640
  0.0652697541639404  0.7194504595111778  0.0083071374097345
  0.6541353348998991  0.6816534417337613  0.0609620783614861
  0.8840874178172889  0.8300108284265916  0.2447192510331835
  0.2647531976969963  0.8194058562136188  0.7714871046976113
  0.2804086085792952  0.2936153159025149  0.1712175133571391
  0.1496012162552662  0.0588977625589362  0.3629347598750767
  0.4580067082321317  0.8414414036298888  0.8814161483083121
  0.4989198114232589  0.8591108880183908  0.3301738157354419
  0.7746545880830429  0.9506185638529775  0.0985186903298836
  0.6637175933730110  0.6754004488425978  0.8681167058777913
  0.1340206321425865  0.2149998176120103  0.4809429596392613
  0.4308439027620503  0.4826604341681376  0.7120261162934911
  0.2180468994509970  0.5509952666199054  0.3884691040777726
  0.0061286045608410  0.6006968553293245  0.4158391382480137
  0.9718818166525066  0.5055748730675338  0.2759569550522779
  0.1153450451278581  0.0548654325364717  0.9948896975801441
  0.9166488208356636  0.0158352138061950  0.9823214950678927
  0.9235853398427244  0.8703560122504055  0.7694213068930320
  0.2846617891042244  0.6160951807628464  0.7800306806041934
  0.4806623128131551  0.7074023969030954  0.7450520927957418
  0.4322888745698040  0.6233635627409305  0.1550439274388541
  0.7007904308540143  0.8204939734185914  0.3311106417031577
  0.1710135512560145  0.9620172219932726  0.0520109616670171
  0.1175523939067327  0.2645263396138987  0.0519604713761556
  0.0668641458132120  0.7674910378156355  0.2073956850689921
  0.4376767922258081  0.6852327557574442  0.5520196292072382
  0.8332495751810638  0.9028597077690144  0.4409024745423146
  0.9466609084409646  0.3386947206727912  0.0017560597888389
  0.1317028521620032  0.2936216771812489  0.6800305270791261
  0.5999833419502810  0.8907001996385121  0.1629024441246946
  0.5033701653326588  0.2517146821227723  0.0420196702013231
  0.9208835298709387  0.6579294935118943  0.9061627077081194
  0.2953023684580803  0.4988366153356512  0.1882923193262068
  0.7492110200894457  0.2624717556489896  0.7073431466509910
  0.1822804267890848  0.1239619978252617  0.7664537513937594
  0.0377401477671836  0.8398685204423317  0.4114472272436422
  0.6166762450976234  0.5860814830214963  0.1211275879094827
  0.6274611898397240  0.8273181622876277  0.7273673037418573
  0.2941969704091280  0.1307940673750666  0.0510552009501832
  0.0029833201731961  0.5063066080045991  0.0696843794728148
  0.9357027525085314  0.0900702921275640  0.3290781256413489
  0.1804392969570835  0.2787228961619003  0.8697783960460326
  0.4816781292071900  0.1516552403146626  0.6797647523602894
  0.3210408574234043  0.9526021162453856  0.5763722581271559
  0.9658477442831065  0.5389357048396688  0.7771294913148474
  0.2588149319902565  0.1313636111125905  0.6697563090487548
  0.8879293352458225  0.4816341529939874  0.5069654961256269
  0.8166189809687475  0.4591455864609031  0.6968165194178561
  0.6240729161844509  0.9693119429287215  0.4448087478847876
  0.1534011457499093  0.3857888185169873  0.3041339274662154
  0.7904205836324667  0.4032701548288702  0.3050709526460183
  0.3890847266168829  0.8166058352369865  0.0856086525157006
  0.4756432221155276  0.7992141059446567  0.5642812855171051
  0.7410776804046866  0.1402609149433995  0.0823854341059093
  0.3279474138556649  0.3262368187091029  0.7476248306244950
  0.5931838268348674  0.2817445504572371  0.4271135638766310
  0.4154240135302810  0.5658387244837789  0.3412424682384471
  0.1777496711043962  0.3382785099022246  0.9766206956371964
  0.9094969922315976  0.0775068616101669  0.7670283625646833
  0.6710825067814058  0.8384152065502669  0.9684021388588762
  0.7375455157654506  0.3824073627144133  0.8721229499826850
  0.2230861023140851  0.0332510372740174  0.4636855299785758
  0.7918955459012523  0.5980672652339962  0.2781146120853063
  0.2953242607190389  0.9748685863486238  0.2087340704338132
  0.6182976918092752  0.4068334824918419  0.6974383393013643
  0.3047973993052508  0.7342396754817664  0.4242392255323854
  0.3191030133862450  0.6962907848856350  0.5390045308180318
  0.0437390904426041  0.0087230780625432  0.6452712064349908
  0.2256739431535831  0.2911908744572184  0.5085072642491256
  0.5856412587349278  0.5908997928755867  0.4704101503767244
  0.9717208109690126  0.1693161639451972  0.1181100572352144
  0.7940992948146894  0.9064010910474686  0.6338282628630869
  0.7226443474355836  0.3720208011817082  0.5324195280585972
  0.1596052563918699  0.1213965839694063  0.1863972903375799
  0.9501293853287495  0.3417122620496098  0.1936577292324249
  0.5803970163571283  0.6796781897375288  0.2939572980746064
  0.6515260295148022  0.5542801517554847  0.8504654836917662
  0.2980262973787084  0.2185583289604155  0.3562216196389588
  0.1622230877896649  0.8563328680366120  0.5776991448706533
  0.7633565864575333  0.0407070710618947  0.8951535368990808
  0.1070257297210474  0.7191476335961481  0.8058804591098603
  0.8844091277771979  0.8252198549810863  0.0032329952744233
  0.5479301265409716  0.4863752513962968  0.5258840711237924
  0.6573433714873785  0.3739197073899583  0.0790592595567667
  0.6008795867641421  0.0275949252164435  0.0058678494917747
  0.5848680837816601  0.0479316047515588  0.8014694577172952
  0.7858443886770947  0.5204344021113417  0.0188724678576616
  0.7825943412343569  0.1161900575229551  0.4661297884912396
  0.5212018025345522  0.9474838321816073  0.6262993967122306
  0.8339830165726335  0.2139025852787009  0.8925260744733695
  0.1248169539633480  0.5695257787643833  0.2011030710953309
  0.3541832242726199  0.9919220217346322  0.7775283669215963
 
  0.00000000E+00  0.00000000E+00  0.00000000E+00
  0.00000000E+00  0.00000000E+00  0.00000000E+00
  0.00000000E+00  0.00000000E+00  0.00000000E+00
  0.00000000E+00  0.00000000E+00  0.00000000E+00
  0.00000000E+00  0.00000000E+00  0.00000000E+00
  0.00000000E+00  0.00000000E+00  0.00000000E+00
  0.00000000E+00  0.00000000E+00  0.00000000E+00
  0.00000000E+00  0.00000000E+00  0.00000000E+00
  0.00000000E+00  0.00000000E+00  0.00000000E+00
  0.00000000E+00  0.00000000E+00  0.00000000E+00
  0.00000000E+00  0.00000000E+00  0.00000000E+00
  0.00000000E+00  0.00000000E+00  0.00000000E+00
  0.00000000E+00  0.00000000E+00  0.00000000E+00
  0.00000000E+00  0.00000000E+00  0.00000000E+00
  0.00000000E+00  0.00000000E+00  0.00000000E+00
  0.00000000E+00  0.00000000E+00  0.00000000E+00
  0.00000000E+00  0.00000000E+00  0.00000000E+00
  0.00000000E+00  0.00000000E+00  0.00000000E+00
  0.00000000E+00  0.00000000E+00  0.00000000E+00
  0.00000000E+00  0.00000000E+00  0.00000000E+00
  0.00000000E+00  0.00000000E+00  0.00000000E+00
  0.00000000E+00  0.00000000E+00  0.00000000E+00
  0.00000000E+00  0.00000000E+00  0.00000000E+00
  0.00000000E+00  0.00000000E+00  0.00000000E+00
  0.00000000E+00  0.00000000E+00  0.00000000E+00
  0.00000000E+00  0.00000000E+00  0.00000000E+00
  0.00000000E+00  0.00000000E+00  0.00000000E+00
  0.00000000E+00  0.00000000E+00  0.00000000E+00
  0.00000000E+00  0.00000000E+00  0.00000000E+00
  0.00000000E+00  0.00000000E+00  0.00000000E+00
  0.00000000E+00  0.00000000E+00  0.00000000E+00
  0.00000000E+00  0.00000000E+00  0.00000000E+00
  0.00000000E+00  0.00000000E+00  0.00000000E+00
  0.00000000E+00  0.00000000E+00  0.00000000E+00
  0.00000000E+00  0.00000000E+00  0.00000000E+00
  0.00000000E+00  0.00000000E+00  0.00000000E+00
  0.00000000E+00  0.00000000E+00  0.00000000E+00
  0.00000000E+00  0.00000000E+00  0.00000000E+00
  0.00000000E+00  0.00000000E+00  0.00000000E+00
  0.00000000E+00  0.00000000E+00  0.00000000E+00
  0.00000000E+00  0.00000000E+00  0.00000000E+00
  0.00000000E+00  0.00000000E+00  0.00000000E+00
  0.00000000E+00  0.00000000E+00  0.00000000E+00
  0.00000000E+00  0.00000000E+00  0.00000000E+00
  0.00000000E+00  0.00000000E+00  0.00000000E+00
  0.00000000E+00  0.00000000E+00  0.00000000E+00
  0.00000000E+00  0.00000000E+00  0.00000000E+00
  0.00000000E+00  0.00000000E+00  0.00000000E+00
  0.00000000E+00  0.00000000E+00  0.00000000E+00
  0.00000000E+00  0.00000000E+00  0.00000000E+00
  0.00000000E+00  0.00000000E+00  0.00000000E+00
  0.00000000E+00  0.00000000E+00  0.00000000E+00
  0.00000000E+00  0.00000000E+00  0.00000000E+00
  0.00000000E+00  0.00000000E+00  0.00000000E+00
  0.00000000E+00  0.00000000E+00  0.00000000E+00
  0.00000000E+00  0.00000000E+00  0.00000000E+00
  0.00000000E+00  0.00000000E+00  0.00000000E+00
  0.00000000E+00  0.00000000E+00  0.00000000E+00
  0.00000000E+00  0.00000000E+00  0.00000000E+00
  0.00000000E+00  0.00000000E+00  0.00000000E+00
  0.00000000E+00  0.00000000E+00  0.00000000E+00
  0.00000000E+00  0.00000000E+00  0.00000000E+00
  0.00000000E+00  0.00000000E+00  0.00000000E+00
  0.00000000E+00  0.00000000E+00  0.00000000E+00
  0.00000000E+00  0.00000000E+00  0.00000000E+00
  0.00000000E+00  0.00000000E+00  0.00000000E+00
  0.00000000E+00  0.00000000E+00  0.00000000E+00
  0.00000000E+00  0.00000000E+00  0.00000000E+00
  0.00000000E+00  0.00000000E+00  0.00000000E+00
  0.00000000E+00  0.00000000E+00  0.00000000E+00
  0.00000000E+00  0.00000000E+00  0.00000000E+00
  0.00000000E+00  0.00000000E+00  0.00000000E+00
  0.00000000E+00  0.00000000E+00  0.00000000E+00
  0.00000000E+00  0.00000000E+00  0.00000000E+00
  0.00000000E+00  0.00000000E+00  0.00000000E+00
  0.00000000E+00  0.00000000E+00  0.00000000E+00
  0.00000000E+00  0.00000000E+00  0.00000000E+00
  0.00000000E+00  0.00000000E+00  0.00000000E+00
  0.00000000E+00  0.00000000E+00  0.00000000E+00
  0.00000000E+00  0.00000000E+00  0.00000000E+00
  0.00000000E+00  0.00000000E+00  0.00000000E+00
  0.00000000E+00  0.00000000E+00  0.00000000E+00
  0.00000000E+00  0.00000000E+00  0.00000000E+00
  0.00000000E+00  0.00000000E+00  0.00000000E+00
  0.00000000E+00  0.00000000E+00  0.00000000E+00
  0.00000000E+00  0.00000000E+00  0.00000000E+00
  0.00000000E+00  0.00000000E+00  0.00000000E+00
  0.00000000E+00  0.00000000E+00  0.00000000E+00
  0.00000000E+00  0.00000000E+00  0.00000000E+00
  0.00000000E+00  0.00000000E+00  0.00000000E+00
  0.00000000E+00  0.00000000E+00  0.00000000E+00
  0.00000000E+00  0.00000000E+00  0.00000000E+00
  0.00000000E+00  0.00000000E+00  0.00000000E+00
  0.00000000E+00  0.00000000E+00  0.00000000E+00
  0.00000000E+00  0.00000000E+00  0.00000000E+00
  0.00000000E+00  0.00000000E+00  0.00000000E+00
  0.00000000E+00  0.00000000E+00  0.00000000E+00
  0.00000000E+00  0.00000000E+00  0.00000000E+00
  0.00000000E+00  0.00000000E+00  0.00000000E+00
  0.00000000E+00  0.00000000E+00  0.00000000E+00
  0.00000000E+00  0.00000000E+00  0.00000000E+00
  0.00000000E+00  0.00000000E+00  0.00000000E+00
  0.00000000E+00  0.00000000E+00  0.00000000E+00
  0.00000000E+00  0.00000000E+00  0.00000000E+00
  0.00000000E+00  0.00000000E+00  0.00000000E+00
  0.00000000E+00  0.00000000E+00  0.00000000E+00
  0.00000000E+00  0.00000000E+00  0.00000000E+00
  0.00000000E+00  0.00000000E+00  0.00000000E+00
  0.00000000E+00  0.00000000E+00  0.00000000E+00
  0.00000000E+00  0.00000000E+00  0.00000000E+00
  0.00000000E+00  0.00000000E+00  0.00000000E+00
  0.00000000E+00  0.00000000E+00  0.00000000E+00
  0.00000000E+00  0.00000000E+00  0.00000000E+00
  0.00000000E+00  0.00000000E+00  0.00000000E+00
  0.00000000E+00  0.00000000E+00  0.00000000E+00
  0.00000000E+00  0.00000000E+00  0.00000000E+00
  0.00000000E+00  0.00000000E+00  0.00000000E+00
  0.00000000E+00  0.00000000E+00  0.00000000E+00
  0.00000000E+00  0.00000000E+00  0.00000000E+00
  0.00000000E+00  0.00000000E+00  0.00000000E+00
  0.00000000E+00  0.00000000E+00  0.00000000E+00
  0.00000000E+00  0.00000000E+00  0.00000000E+00
  0.00000000E+00  0.00000000E+00  0.00000000E+00
  0.00000000E+00  0.00000000E+00  0.00000000E+00
  0.00000000E+00  0.00000000E+00  0.00000000E+00
  0.00000000E+00  0.00000000E+00  0.00000000E+00
  0.00000000E+00  0.00000000E+00  0.00000000E+00
  0.00000000E+00  0.00000000E+00  0.00000000E+00
  0.00000000E+00  0.00000000E+00  0.00000000E+00
  0.00000000E+00  0.00000000E+00  0.00000000E+00
  0.00000000E+00  0.00000000E+00  0.00000000E+00
  0.00000000E+00  0.00000000E+00  0.00000000E+00
  0.00000000E+00  0.00000000E+00  0.00000000E+00
  0.00000000E+00  0.00000000E+00  0.00000000E+00
  0.00000000E+00  0.00000000E+00  0.00000000E+00
  0.00000000E+00  0.00000000E+00  0.00000000E+00
  0.00000000E+00  0.00000000E+00  0.00000000E+00
  0.00000000E+00  0.00000000E+00  0.00000000E+00
  0.00000000E+00  0.00000000E+00  0.00000000E+00
  0.00000000E+00  0.00000000E+00  0.00000000E+00
  0.00000000E+00  0.00000000E+00  0.00000000E+00
  0.00000000E+00  0.00000000E+00  0.00000000E+00
  0.00000000E+00  0.00000000E+00  0.00000000E+00
  0.00000000E+00  0.00000000E+00  0.00000000E+00
  0.00000000E+00  0.00000000E+00  0.00000000E+00
  0.00000000E+00  0.00000000E+00  0.00000000E+00
  0.00000000E+00  0.00000000E+00  0.00000000E+00
  0.00000000E+00  0.00000000E+00  0.00000000E+00
  0.00000000E+00  0.00000000E+00  0.00000000E+00
  0.00000000E+00  0.00000000E+00  0.00000000E+00
  0.00000000E+00  0.00000000E+00  0.00000000E+00
  0.00000000E+00  0.00000000E+00  0.00000000E+00
  0.00000000E+00  0.00000000E+00  0.00000000E+00
  0.00000000E+00  0.00000000E+00  0.00000000E+00
  0.00000000E+00  0.00000000E+00  0.00000000E+00
  0.00000000E+00  0.00000000E+00  0.00000000E+00
  0.00000000E+00  0.00000000E+00  0.00000000E+00
  0.00000000E+00  0.00000000E+00  0.00000000E+00
  0.00000000E+00  0.00000000E+00  0.00000000E+00
  0.00000000E+00  0.00000000E+00  0.00000000E+00
  0.00000000E+00  0.00000000E+00  0.00000000E+00
  0.00000000E+00  0.00000000E+00  0.00000000E+00
  0.00000000E+00  0.00000000E+00  0.00000000E+00
  0.00000000E+00  0.00000000E+00  0.00000000E+00
  0.00000000E+00  0.00000000E+00  0.00000000E+00
  0.00000000E+00  0.00000000E+00  0.00000000E+00
  0.00000000E+00  0.00000000E+00  0.00000000E+00
  0.00000000E+00  0.00000000E+00  0.00000000E+00
  0.00000000E+00  0.00000000E+00  0.00000000E+00
  0.00000000E+00  0.00000000E+00  0.00000000E+00
  0.00000000E+00  0.00000000E+00  0.00000000E+00
  0.00000000E+00  0.00000000E+00  0.00000000E+00
  0.00000000E+00  0.00000000E+00  0.00000000E+00
  0.00000000E+00  0.00000000E+00  0.00000000E+00
  0.00000000E+00  0.00000000E+00  0.00000000E+00
  0.00000000E+00  0.00000000E+00  0.00000000E+00
  0.00000000E+00  0.00000000E+00  0.00000000E+00
  0.00000000E+00  0.00000000E+00  0.00000000E+00
  0.00000000E+00  0.00000000E+00  0.00000000E+00
  0.00000000E+00  0.00000000E+00  0.00000000E+00
  0.00000000E+00  0.00000000E+00  0.00000000E+00
  0.00000000E+00  0.00000000E+00  0.00000000E+00
  0.00000000E+00  0.00000000E+00  0.00000000E+00
  0.00000000E+00  0.00000000E+00  0.00000000E+00
  0.00000000E+00  0.00000000E+00  0.00000000E+00
  0.00000000E+00  0.00000000E+00  0.00000000E+00
  0.00000000E+00  0.00000000E+00  0.00000000E+00
  0.00000000E+00  0.00000000E+00  0.00000000E+00
  0.00000000E+00  0.00000000E+00  0.00000000E+00
  0.00000000E+00  0.00000000E+00  0.00000000E+00
  0.00000000E+00  0.00000000E+00  0.00000000E+00
  0.00000000E+00  0.00000000E+00  0.00000000E+00
  0.00000000E+00  0.00000000E+00  0.00000000E+00
  0.00000000E+00  0.00000000E+00  0.00000000E+00
  0.00000000E+00  0.00000000E+00  0.00000000E+00
  0.00000000E+00  0.00000000E+00  0.00000000E+00
  0.00000000E+00  0.00000000E+00  0.00000000E+00
  0.00000000E+00  0.00000000E+00  0.00000000E+00
