In2O3 structure 35 - random placement wi
   1.00000000000000     
     8.0330752070065579   -0.0268989613856252    0.0720881316065204
    -0.0271114175519211    8.1932989024288982   -0.0070714488687282
     0.0720931957185586   -0.0074656607302412    8.1196094533436067
   In   O 
    16    24
Direct
  0.1780268535231648  0.9907769259535636  0.4505984310652348
  0.2384598560733083  0.4308306742828601  0.5003506262371835
  0.7241832373266743  0.4564235462400944 -0.0041909096216966
  0.9710361972229681  0.7312552859739073  0.7536218227935463
  0.4537968636988392  0.2242553892724303  0.7280510703027522
  0.9457943881119677  0.2294160605284924  0.7224940166609952
  0.7280001831752110  0.4545582420758792  0.4973520028075720
  0.4633727532321147  0.7210390897497250  0.2440818159848496
  0.2237505532073107  0.4487805011202601  0.9981295247330154
  0.7055456623312445  0.9606944806514711  0.4694289719947965
  0.4654613721522216  0.7148592331187408  0.7595417537732998
  0.6871197346212812  0.9547738765266329  0.9686921422731417
  0.4521077370518750  0.2261523611396718  0.2139081441257972
  0.1902047435556715  0.9585445938009799  0.9679003705284560
  0.9682809416230385  0.7319485935324829  0.2303873017393662
  0.9404345047706915  0.2350352129139933  0.2145991421856112
  0.3127302076139348  0.7693322480341561  0.5221582501415107
  0.0688879936683515  0.9880109326496211  0.7024135564280941
  0.6914922391316413  0.3442607255586123  0.2544591712392313
  0.4842542140566216  0.4867268727605859  0.6185071880318948
  0.3393700433539477  0.4840619210568178  0.2526030133969354
  0.5906535210552769  0.6912321454844701  0.0050602309740954
  0.4373252479427530  0.9850170098881823  0.8512124725307872
  0.1959030609567504  0.3290557080879405  0.7560591191673263
  0.9336105382396976  0.8502730022135958  0.9957811085785632
  0.1438659016943642  0.6826823297140268  0.5181861203501632
  0.2197402409963139  0.6891498839486875  0.8778434808599299
  0.9365663605207049  0.9928651427475563  0.3383847864565047
  0.2216396720546300  0.8448554686656186  0.2150275363828908
 -0.0122575901031366  0.3383949568555079  0.4622428520106654
  0.1912730448728116  0.1893875010362485  0.1089543739732262
  0.8456476583425439  0.4943502544018414  0.7477984611510272
  0.4811613973045120  0.3412170792810073  0.9659655461667174
  0.9752959733337203  0.4939484501797853  0.1109525453053490
  0.3558291487098110  0.1812005089009945  0.4681913765765865
  0.8230487163781841  0.1923109586352783  0.9652197118822000
  0.5683119872883547  0.9803230675762943  0.2298004194504445
  0.7251796090693517  0.6968130031081208  0.3703567550810218
  0.6972163812083747  0.1917919461511801  0.6049743263395299
  0.7118932680131816  0.8362591936720948  0.7062321849233405
 
  0.00000000E+00  0.00000000E+00  0.00000000E+00
  0.00000000E+00  0.00000000E+00  0.00000000E+00
  0.00000000E+00  0.00000000E+00  0.00000000E+00
  0.00000000E+00  0.00000000E+00  0.00000000E+00
  0.00000000E+00  0.00000000E+00  0.00000000E+00
  0.00000000E+00  0.00000000E+00  0.00000000E+00
  0.00000000E+00  0.00000000E+00  0.00000000E+00
  0.00000000E+00  0.00000000E+00  0.00000000E+00
  0.00000000E+00  0.00000000E+00  0.00000000E+00
  0.00000000E+00  0.00000000E+00  0.00000000E+00
  0.00000000E+00  0.00000000E+00  0.00000000E+00
  0.00000000E+00  0.00000000E+00  0.00000000E+00
  0.00000000E+00  0.00000000E+00  0.00000000E+00
  0.00000000E+00  0.00000000E+00  0.00000000E+00
  0.00000000E+00  0.00000000E+00  0.00000000E+00
  0.00000000E+00  0.00000000E+00  0.00000000E+00
  0.00000000E+00  0.00000000E+00  0.00000000E+00
  0.00000000E+00  0.00000000E+00  0.00000000E+00
  0.00000000E+00  0.00000000E+00  0.00000000E+00
  0.00000000E+00  0.00000000E+00  0.00000000E+00
  0.00000000E+00  0.00000000E+00  0.00000000E+00
  0.00000000E+00  0.00000000E+00  0.00000000E+00
  0.00000000E+00  0.00000000E+00  0.00000000E+00
  0.00000000E+00  0.00000000E+00  0.00000000E+00
  0.00000000E+00  0.00000000E+00  0.00000000E+00
  0.00000000E+00  0.00000000E+00  0.00000000E+00
  0.00000000E+00  0.00000000E+00  0.00000000E+00
  0.00000000E+00  0.00000000E+00  0.00000000E+00
  0.00000000E+00  0.00000000E+00  0.00000000E+00
  0.00000000E+00  0.00000000E+00  0.00000000E+00
  0.00000000E+00  0.00000000E+00  0.00000000E+00
  0.00000000E+00  0.00000000E+00  0.00000000E+00
  0.00000000E+00  0.00000000E+00  0.00000000E+00
  0.00000000E+00  0.00000000E+00  0.00000000E+00
  0.00000000E+00  0.00000000E+00  0.00000000E+00
  0.00000000E+00  0.00000000E+00  0.00000000E+00
  0.00000000E+00  0.00000000E+00  0.00000000E+00
  0.00000000E+00  0.00000000E+00  0.00000000E+00
  0.00000000E+00  0.00000000E+00  0.00000000E+00
  0.00000000E+00  0.00000000E+00  0.00000000E+00
