Ge2 Sb2 Te5                             
   1.00000000000000     
     2.1466434250267028   -3.7180954778799196   -0.0000000000000000
     2.1466434250267028    3.7180954778799196    0.0000000000000000
    -0.0000000000000001    0.0000000000000003   17.5183719773111228
   Ge   Sb   Te
     2     2     5
Direct
  0.3333333333333357  0.6666666666666643  0.9008575704271782
  0.6666666666666643  0.3333333333333357  0.0991424295728149
  0.0000000000000000 -0.0000000000000000  0.6883280774841860
 -0.0000000000000000  0.0000000000000000  0.3116719225158142
  0.0000000000000000  0.0000000000000000 -0.0000000000000000
  0.6666666666666643  0.3333333333333357  0.8040813637742396
  0.3333333333333357  0.6666666666666643  0.1959186362257606
  0.3333333333333357  0.6666666666666643  0.5903649719563436
  0.6666666666666643  0.3333333333333357  0.4096350280436565
 
  0.00000000E+00  0.00000000E+00  0.00000000E+00
  0.00000000E+00  0.00000000E+00  0.00000000E+00
  0.00000000E+00  0.00000000E+00  0.00000000E+00
  0.00000000E+00  0.00000000E+00  0.00000000E+00
  0.00000000E+00  0.00000000E+00  0.00000000E+00
  0.00000000E+00  0.00000000E+00  0.00000000E+00
  0.00000000E+00  0.00000000E+00  0.00000000E+00
  0.00000000E+00  0.00000000E+00  0.00000000E+00
  0.00000000E+00  0.00000000E+00  0.00000000E+00
