Ge2 Sb2 Te5                             
   1.00000000000000     
     2.1503800867921390   -3.7245675659083561    0.0000000000000001
     2.1503800867921390    3.7245675659083561    0.0000000000000000
    -0.0000000000000003   -0.0000000000000002   17.5743784974313861
   Ge   Sb   Te
     2     2     5
Direct
  0.3333333333333357  0.6666666666666643  0.9008473780819263
  0.6666666666666643  0.3333333333333357  0.0991526219180738
  0.0000000000000000  0.0000000000000000  0.6901486098748284
  0.0000000000000000  0.0000000000000000  0.3098513901251711
  0.0000000000000000  0.0000000000000000  0.0000000000000000
  0.6666666666666643  0.3333333333333357  0.8067228101124297
  0.3333333333333357  0.6666666666666643  0.1932771898875702
  0.3333333333333357  0.6666666666666643  0.5945735376045175
  0.6666666666666643  0.3333333333333357  0.4054264623954831
 
  0.00000000E+00  0.00000000E+00  0.00000000E+00
  0.00000000E+00  0.00000000E+00  0.00000000E+00
  0.00000000E+00  0.00000000E+00  0.00000000E+00
  0.00000000E+00  0.00000000E+00  0.00000000E+00
  0.00000000E+00  0.00000000E+00  0.00000000E+00
  0.00000000E+00  0.00000000E+00  0.00000000E+00
  0.00000000E+00  0.00000000E+00  0.00000000E+00
  0.00000000E+00  0.00000000E+00  0.00000000E+00
  0.00000000E+00  0.00000000E+00  0.00000000E+00
