Bond                                    
   1.00000000000000     
     5.8729596664733075    0.0000000000000000    0.0000000000000000
    -0.0000000000000001    2.9659984219290689    0.0000000000000000
     0.0000000000000001    0.0000000000000000    2.9659984219290689
   Al   Sb
     1     1
Direct
  0.2500000000000000  0.5000000000000000  0.5000000000000000
  0.7500000000000000  0.5000000000000000  0.5000000000000000
 
  0.00000000E+00  0.00000000E+00  0.00000000E+00
  0.00000000E+00  0.00000000E+00  0.00000000E+00
