Amorphous Sb                            
   1.00000000000000     
    20.1278869700586895    0.0000000000000000    0.0000000000000000
     0.0000000000000000   20.1278869700586895    0.0000000000000000
     0.0000000000000000    0.0000000000000000   20.1278869700586895
   Ge   Se
   150   150
Direct
  0.5032351275943723  0.6675212387905728  0.7685844846262753
  0.1913493504825084  0.4205574440440307  0.8004987911428519
  0.3936978801451732  0.3184297066801324  0.6269924841097375
  0.8427144785052796  0.0204635879404928  0.6444637169498857
  0.9058170890985920  0.6050157741055109  0.6409931433213178
  0.2010837202186163  0.6680945292240037  0.9682061008870795
  0.1813800136789619  0.1585343977553258  0.3735231756671910
  0.3139035596021235  0.6288372030969905  0.7881121482985269
  0.3526014397199250  0.9585598810112179  0.3011528481627154
  0.3788606405648783  0.0387444451783341  0.4505734695567682
  0.0330817169827058  0.0447728223843359  0.4661365494603292
  0.6299833158972186  0.3498134148924053  0.8541410882111288
  0.6505278899918936  0.4635490205332968  0.6163921140276736
  0.2527721189344178  0.9959591981205180  0.9092170006163403
  0.6859780709494284  0.9923909938452633  0.3902594303497888
  0.1132014959732558  0.8528810561220500  0.1792863803718551
  0.0110551393478311  0.7668402419884490  0.2934160143350055
  0.8223702688648041  0.4271010714062181  0.3605598062764895
  0.0946870977445649  0.4524056523106956  0.9605011567485043
  0.0510059944708167  0.9112105493513016  0.5194151388096345
  0.2693202183619923  0.8123716997945798  0.2230349630265373
  0.4633915691975530  0.6649777956758787  0.9624652077257585
  0.9713025947594717  0.1400804293734940  0.9482987831308292
  0.0356692971800448  0.0738906229807057  0.1553410137860718
  0.5436994171687922  0.3186406377025267  0.1631481130379732
  0.3843536042659084  0.1516462282654136  0.6247164967358422
  0.4220134292302457  0.7716293449838039  0.5335573959538837
  0.7888554978133530  0.8939199818885735  0.0155476446788008
  0.7301521879082966  0.5791135263440554  0.5906307968689577
  0.9505420110644622  0.7730029806458535  0.5791361993621719
  0.0641962408758713  0.3231781319112747  0.7447363892443180
  0.0260135549900832  0.1219773787948936  0.2781641039132696
  0.9034423103990074  0.5235132965476565  0.4662404090223200
  0.4015034321868035  0.4679904783955054  0.2515520793785195
  0.0516414956122926  0.5590871977640725  0.5422053068649795
  0.6944104247751691  0.7489674979459497  0.1242080698637728
  0.4501034473234876  0.4413612749669149  0.9148406199956717
  0.2026757199617380  0.0642944555588733  0.2117708312296168
  0.2590541089793200  0.3640150434552822  0.1556905705882962
  0.7856038634356720  0.3528853992949045  0.7428201921530432
  0.8144802297124238  0.8217786756886912  0.3740074577662917
  0.9479761239507065  0.1899304419892782  0.5886607143712744
  0.6142690671294502  0.8110533185353663  0.5309209632101050
  0.3779353441362899  0.9855587469832409  0.1262751305122464
  0.3425289113754947  0.6991916962147019  0.1216104214706671
  0.3812944457665141  0.4199669704715674  0.4511337030199578
  0.8656621437187733  0.8164867563622912  0.1597107596614905
  0.0432069026341399  0.3405790606630123  0.3814216672374637
  0.0086578473702107  0.7340040161031648  0.8288178446886590
  0.5493315103062973  0.0618984243650814  0.3518044542039588
  0.2515850421211469  0.4243985713023786  0.9350254004057201
  0.0505411488961555  0.2643617406902710  0.1255797846233577
  0.6142800644920746  0.7286625128612515  0.7983463227370129
  0.6276754091701056  0.2912594348064779  0.7253229280486605
  0.0472779202880273  0.5626621582078434  0.3264048694116592
  0.9985880925644381  0.9249130801112251  0.2649638355291977
  0.2093416861294937  0.6520104291039173  0.4010314049919910
  0.9675807809815274  0.3470126132465561  0.5436841826518615
  0.0863845622116547  0.0288871456065177  0.8712631896529344
  0.5181444502031491  0.4452106086321460  0.3078435538926724
  0.6858221547332116  0.1284406370951647  0.1710947463988430
  0.5193195542511780  0.6900714901210750  0.2272612646593950
  0.9160658757102991  0.6896479431889450  0.2842674908180107
  0.8591766934665946  0.0105512463502500  0.8434411753521904
  0.5699169946235747  0.8266659593459891  0.9866206795449578
  0.0658925220697567  0.3258926692090322  0.9356802845644916
  0.8409796671455789  0.8792399620918377  0.5035934980484478
  0.7746355075024579  0.7518279574102287  0.6723768334976886
  0.8223509244856529  0.2534442292493484  0.1714867751366276
  0.8181293168636335  0.3139961435466508  0.0403318711486986
  0.9699840862908211  0.4138070131878261  0.7073480493391121
  0.4131297582148575  0.1325501841612481  0.1848537024448765
  0.3367320361658759  0.5416155814408850  0.4095249300413529
  0.4823771607428686  0.8556230885418690  0.3839562482371022
  0.3482379958170806  0.4404617889875991  0.6455824211064091
  0.6505667766445067  0.0204807042886732  0.0797986454939064
  0.2404400704709260  0.2281894404419500  0.1589112141338675
  0.8590663623966044  0.0581671200823981  0.0856423252032054
  0.3196637407003747  0.7718976643157278  0.9482876497203508
  0.3815289997898682  0.2536982621490073  0.0293861181324562
  0.6548270141437075  0.9801770761611747  0.8651428366527625
  0.9711448675968612  0.5761130539134638  0.8181061388162856
  0.7856686647082154  0.4756683120056689  0.0605112655481092
  0.7208239196223595  0.5237650161807659  0.3262796347707407
  0.3352341283908188  0.0857310972168678  0.7716850670492875
  0.6053107655403497  0.1144936807812372  0.0044605177861014
  0.5219622304122122  0.6508468839411399  0.5981310202507647
  0.7752347320252997  0.3915934967058838  0.5367290275663359
  0.6260394439023000  0.5798677729300229  0.1461419724359166
  0.5208240743083078  0.2361032863286329  0.3404284628376393
  0.6020344519206619  0.1015324393438286  0.8759629966812225
  0.1238909307865600  0.1430162660997363  0.6051920941195686
  0.3101781322784334  0.5897914869752080  0.5872027357165955
  0.7936492344191864  0.0730871745314669  0.4791536825857122
  0.6836410364727616  0.9324217284319246  0.5874161167645227
  0.6788311068748003  0.7001658402142268  0.4850817830433172
  0.4098102114791691  0.9298332244261817  0.9922010290017094
  0.1487899357960424  0.4695396568297142  0.6249351844661504
  0.1639688808641267  0.7674358820931200  0.4740646652500175
  0.1831857668963728  0.1049173875774713  0.8899713361682590
  0.0953764504963863  0.4099493759255571  0.2321166867103281
  0.5581243729927872  0.2797222914168308  0.9362888118357677
  0.2366461059383890  0.5114029328311921  0.1060826289817435
  0.8598287331511275  0.0788576367020874  0.2149778890802052
  0.4369851336894146  0.8289717862029823  0.7160149734718567
  0.7211332622749718  0.6664426922158739  0.9263771478058128
  0.9767686118248161  0.4703133177531593  0.0005118273172113
  0.9960700856796952  0.6751297045744018  0.0398174775417126
  0.6826282267319326  0.1475833164639591  0.7262571781842815
  0.7072277351312951  0.9072813228833964  0.7737615729423067
  0.1075206365574160  0.8832434042738337  0.7013127678069050
  0.0747330910425506  0.9379881001530749  0.0689896209574092
  0.1984605660089773  0.9813015559806965  0.4012726110218507
  0.7416368932506632  0.1775348131741100  0.3242673484713700
  0.7140846034928308  0.8283669200799167  0.2880785096611311
  0.7209395177206562  0.6543518132619439  0.3663568783377060
  0.4032470609915615  0.2894217374295421  0.2822816753159999
  0.6621714971715704  0.6257565963382840  0.7258074314670722
  0.3305519691373607  0.2350936566484416  0.4969264584971434
  0.0832262754681177  0.9082764270235353  0.8277428460489866
  0.9242774830633945  0.4467967446514071  0.1812567356224799
  0.8419481249318954  0.2556298624435498  0.3934709629041472
  0.8032366168564098  0.6255436240842146  0.7898635383392175
  0.9330295916679566  0.8744525269974495  0.9811641268597776
  0.1979506973661413  0.4365449337117064  0.4084756808994665
  0.2359010067664672  0.7283739773226784  0.6798705225427927
  0.3848312465980042  0.9707017684837072  0.5748778129227889
  0.5566586426388738  0.8407809481756083  0.7795300538417854
  0.2197973832886281  0.2195702470937273  0.9760045513905111
  0.2071404753505703  0.8329085914301646  0.9737875896889966
  0.5001650864060084  0.5744331200246058  0.4288260809010095
  0.8927607317678649  0.7206714673601022  0.8863602464269358
  0.4747288228239268  0.1790838068983480  0.9166839695916943
  0.4411675297510074  0.5170234874252331  0.1002277420829678
  0.0635583453971808  0.7047458578379284  0.6256792528907332
  0.1654813094958960  0.6684949378149786  0.1637161739274132
  0.3216535364518072  0.2902105967684536  0.8043762348095911
  0.5385281554550787  0.1012660999614795  0.5200347598625370
  0.3819850893038927  0.7210913042578934  0.3756603993558098
  0.3328017986684969  0.8933470827801764  0.7700567726392148
  0.7041314870175776  0.3975236029616636  0.2167824231538202
  0.6117760323554702  0.4582148479881021  0.0136788100669747
  0.2073233746175218  0.9501223305295630  0.6417852052832840
  0.9550338993903530  0.1868901045879528  0.7633906479436050
  0.5812309277904871  0.2371805291329159  0.5679506422267178
  0.1157050418539885  0.2246678789763779  0.5021416681073857
  0.1246840751302606  0.5886393092048030  0.8181685151370340
  0.5246023486916970  0.8912213446657793  0.1692275781148850
  0.4679685727401317  0.4201211568053503  0.7353328039755478
  0.9047948642399987  0.4180533787807795  0.9095594802266680
  0.8589110031081377  0.1212430199921911  0.8940635773251402
  0.8868728897487984  0.9924746894812905  0.4988295657387813
  0.0283507352289476  0.7645566412697524  0.1699466882042476
  0.9500519550996316  0.4715732048861261  0.5790586763103134
  0.3243986450724400  0.6623276001441925  0.9988613302609817
  0.1160176056218316  0.0261802172531298  0.2959655502641502
  0.5724240405259040  0.4630396138303898  0.1392831619762095
  0.7286549007076946  0.0563487495337249  0.5926875708794026
  0.6292656650437209  0.2322189642839153  0.0312126371264406
  0.1652721183720971  0.0769758725699921  0.4788747522494003
  0.8886465811415198  0.8561076854154068  0.2760188134262543
  0.7742948623546194  0.0164712976609978  0.7618201818020301
  0.7844746034623639  0.6939681582211504  0.5621086756473507
  0.2776611038619249  0.8423764602342594  0.6590040611118503
  0.8561083630264080  0.6960471201235412  0.1787107670721683
  0.4792389814260622  0.1116901053081285  0.0131098562260570
  0.2809393185583565  0.1545546465105915  0.0650660475881972
  0.3598689933537033  0.8321500557386162  0.4393411602191160
  0.9538236847991860  0.9815501489505413  0.7645102644656665
  0.7000619272718113  0.2454504136348347  0.2299594091362010
  0.7183891277950306  0.9864353522791094  0.9735837318239985
  0.5647406424935145  0.1951427746014638  0.6882177900526323
  0.1405466122786992  0.0469091068902270  0.0990338004752472
  0.8857172618177769  0.4658762960171973  0.7972370058998505
  0.1807726991468111  0.3632955681134259  0.3033912054592436
  0.3324224598884662  0.4120730844042710  0.8294709337035239
  0.2772792367451808  0.7079689648768924  0.3152155085234267
  0.2940479037685196  0.0597716467926602  0.3557265864941906
  0.3283423654409982  0.4946629916527805  0.0159789061697347
  0.4376778152382969  0.0242467823528049  0.2409799221638992
  0.4621924069456371  0.2490732913740800  0.5514511475020533
  0.4234933740195854  0.3507587874357452  0.1682338658271565
  0.9337560685541971  0.0295219318985702  0.3056718095010170
  0.4083457215050919  0.8599341633999872  0.1136000318792689
  0.0720888276412154  0.4835554497352401  0.4088180683913256
  0.0560586738176028  0.4773325247680805  0.8454866257642932
  0.5505299656250174  0.4438862250919069  0.8405452436495998
  0.3360773541144140  0.9921367987835241  0.6901925577715748
  0.5257971638399883  0.1847433158042365  0.2273699774755090
  0.9329612470257265  0.5661422305695085  0.3018196474538999
  0.5866993079208516  0.5449585718686871  0.3254992099155843
  0.3556389352165497  0.2153513998969186  0.9082705600603136
  0.1724366756101367  0.8805305533717491  0.5340683229435581
  0.0500184073473247  0.1824295518807054  0.4048678101749816
  0.5493171030801096  0.9093531634949269  0.8829883113969745
  0.6109883174418808  0.9390617798013549  0.7102703462745747
  0.7615657169907650  0.4416812565499152  0.6648981396151427
  0.1673534545728506  0.8406632083766971  0.2884475782717320
  0.9192508804956457  0.3579319170554444  0.4239249017207183
  0.5268210786492968  0.7575725851405146  0.4578959676555140
  0.8975332608511296  0.3231410604768138  0.6856086609447962
  0.3261360388865528  0.6443394095768037  0.4774404997967879
  0.6788150057040750  0.1882708648098327  0.8434480504774516
  0.3135667454452327  0.1098882522925273  0.5357143759714508
  0.7420675663614511  0.8577761410179144  0.1744087624459550
  0.7287527468950242  0.5345008428278938  0.1925280635828761
  0.0898213174323699  0.6703563896460850  0.3386507185297296
  0.0315090065212716  0.8280803137282338  0.9109513282672381
  0.7914641339309982  0.4046173523914457  0.9474210900624961
  0.0158329192816640  0.0866098240855167  0.5825567173978091
  0.2779897384100952  0.9502896916278120  0.1983778600734177
  0.5488659773269506  0.5752554574493828  0.6986936821014414
  0.9972119456564913  0.8812467326787149  0.6338630413802231
  0.1363120104786796  0.2845779364500230  0.8445005727828554
  0.5606025432537988  0.3845099747667342  0.6574503873676152
  0.2850399999900372  0.2629005232395121  0.6120861819059020
  0.2760815632204768  0.9398081311724219  0.0175641589085018
  0.7741982787360563  0.1514803318053137  0.0897525568583602
  0.8681493961170202  0.6027799377268864  0.8961457014545836
  0.8874934468973982  0.1909648930679413  0.2552144563280376
  0.4971798114147026  0.4368476577017286  0.4297136667398823
  0.5845689644302665  0.3495362439565813  0.2853128928279393
  0.6212376144000674  0.6010274712980027  0.5257867402470821
  0.6568597562572438  0.7174434715497757  0.2880475795168305
  0.4419094717230226  0.7830473757756543  0.2781522235249400
  0.1230630605131951  0.7570454968614998  0.7269474790421260
  0.7786910460903668  0.7438568085826117  0.8308377828384159
  0.5717380786072979  0.7718320930469962  0.1433069006214519
  0.9107540305806370  0.7365149706073918  0.6907532969995149
  0.0912216379797665  0.2301612258377767  0.0104317287349819
  0.8430487580801667  0.8953148749604324  0.8947835130746037
  0.6965270106419286  0.8103356955966766  0.0145235611059951
  0.7470033982917272  0.0657950118497442  0.2672544389616143
  0.2079342386254490  0.5317699645972560  0.7210357195155328
  0.7782172361864128  0.5153342636972644  0.4876393802896400
  0.4362098356098268  0.2938686544525255  0.7450713801491169
  0.9679699703617908  0.9617066255379288  0.1422569535164846
  0.4097591510036014  0.5824414152550363  0.3253463759949291
  0.1317378919939168  0.1909529331408833  0.1986378601275574
  0.0395502172310299  0.7991515958629900  0.4624827576277566
  0.7428811182946902  0.3335546861816937  0.4010229948460754
  0.4112012986737530  0.7082216092726376  0.6967750627843350
  0.6274441051486733  0.9162345608906280  0.3076916133838903
  0.4272126343986704  0.8161466092689116  0.9187349957278074
  0.2039341421220300  0.7822583736485954  0.1075926589096222
  0.8496525740696592  0.1819503552343881  0.5019637103932282
  0.7203383995818379  0.8958481740566344  0.4736093812807596
  0.0635944258290814  0.2085908812541789  0.6942869705631485
  0.6907685549583921  0.5787962733816185  0.8344526627065428
  0.2755280920282773  0.3231247378456976  0.0269083553652383
  0.4286424597722803  0.6012471005938528  0.8488928252575439
  0.0435606190923475  0.6548748105007870  0.9123227595244855
  0.5631160925641961  0.9359093639061590  0.0551913560207986
  0.4788898313577672  0.3558489021710237  0.0071724759757482
  0.8904893358722614  0.7489385962134931  0.0078663446369113
  0.6287086955550761  0.1643943274664852  0.3877733134217191
  0.2290941160120767  0.5691100939897668  0.8849180948921991
  0.2618476962881685  0.4661396653702570  0.5522123949305686
  0.4984099264312524  0.1081117181623255  0.8189182911956331
  0.4204545255695080  0.5212482087565528  0.5904269383195040
  0.2038781054307311  0.8855823204099822  0.8426813796546019
  0.0048270366708734  0.0199887982559783  0.9539012427737180
  0.2379564868614893  0.5360308615829804  0.3427124303810736
  0.9520260301296116  0.1464036856947191  0.0866928752267147
  0.1649903635041611  0.3564212497883614  0.6843370050185450
  0.3192125682602390  0.1977969989460074  0.2576285681783331
  0.2851416392547782  0.7428764619417751  0.8282354316484963
  0.8332700510199175  0.6984188589943958  0.3832553072502233
  0.0804287311990329  0.5247096511399172  0.2120934159066067
  0.9239696265496766  0.5636413825048934  0.0452264055662944
  0.2184758039905697  0.2566807626191017  0.4428999364964438
  0.2122366534009303  0.0918409410890780  0.7729892772230098
  0.9549719002705870  0.3063925444550748  0.8993907446491483
  0.8336262104663481  0.3760644549877332  0.2436264839240140
  0.5716674874363002  0.9924702377092256  0.4587508742074414
  0.6896225035821684  0.5582183239609564  0.0332660572576272
  0.3721795428606620  0.9985286987039941  0.8713114092612898
  0.5092259871116291  0.5347086453914386  0.9908883552261805
  0.6511347892112428  0.3937917524084248  0.5181731043739716
  0.5908779320064388  0.7530485845778189  0.6382798708316010
  0.2814807996054364  0.6030537104830974  0.1741296862216924
  0.0897606882534500  0.3462745088605984  0.5132195069771063
  0.7900109961551763  0.8776897549527474  0.6367362193711048
  0.4510253210513064  0.6407549230388531  0.1196319519759808
  0.1427232462733022  0.5943721162537005  0.0551124749125121
  0.5944874641083878  0.7003834727326289  0.9160465196488021
  0.7267560222288117  0.2573240227676761  0.6719844856049695
  0.4690997413431235  0.8732793616341994  0.5994461985441401
  0.3363932093905451  0.3910497836560348  0.3318893618442028
  0.1740693473429633  0.6764505083345363  0.5766868374408337
  0.8760027982489785  0.1379017031467702  0.6851913739407565
  0.9885092279349302  0.3594726387110386  0.2561606912910534
  0.9297636754614251  0.3767741971891893  0.0734761187420998
  0.1284222340518661  0.3672527154523515  0.1222148979641407
  0.4574484970047032  0.1307479391567790  0.4115126689914105
  0.9462265087411055  0.6319021861835865  0.5187839893031572
  0.0195103469868035  0.0735837277934892  0.7780860364566776
  0.0353699027490346  0.5940835293232082  0.6711532900527980
  0.7192286442653938  0.3743265089842878  0.0904864088581740
  0.4771853681202070  0.0532955385805732  0.6113595600145790
 
 -0.17346050E-02 -0.40725085E-02  0.69303238E-04
 -0.49631237E-03 -0.26510533E-02 -0.27767192E-02
  0.41988965E-02  0.14895078E-02  0.24994839E-02
  0.16745021E-02 -0.35476440E-03 -0.35550193E-02
  0.27035999E-02  0.11918056E-02 -0.33294398E-02
  0.23202753E-02  0.11996612E-02  0.32430583E-04
 -0.30704279E-03 -0.13806779E-02 -0.14659524E-02
 -0.18259196E-02 -0.11298662E-02  0.77801440E-03
  0.27725211E-02  0.85056565E-03 -0.23983114E-02
 -0.45788968E-02 -0.81715186E-03  0.19718901E-02
 -0.98061464E-03 -0.86699412E-03 -0.76394144E-03
  0.72262681E-03  0.89064904E-03  0.28196632E-02
 -0.20293542E-02  0.50235612E-03  0.12851384E-02
  0.21682487E-02  0.22036619E-03  0.37331086E-02
 -0.99242838E-03 -0.20349332E-02 -0.11296944E-02
 -0.95351564E-03 -0.47647771E-02  0.25205331E-03
  0.24252142E-02 -0.43644387E-02  0.29978978E-04
 -0.51975959E-03  0.17314528E-02  0.21856662E-02
  0.65047729E-03  0.36850438E-02  0.66507929E-03
  0.84890645E-03  0.20519597E-02  0.12019825E-02
 -0.33204821E-02 -0.24742060E-02  0.17245855E-02
  0.13195649E-02 -0.15679261E-05  0.67689585E-05
  0.19868866E-02 -0.24481331E-02  0.60691162E-03
 -0.20567740E-02 -0.20178104E-02  0.30497724E-03
 -0.23460336E-02 -0.20929019E-02  0.53911783E-03
 -0.11326056E-02 -0.12378199E-03  0.22463252E-02
 -0.12700395E-02 -0.24954124E-02  0.62552130E-03
 -0.14546540E-02 -0.20139472E-03  0.13161257E-02
  0.20791910E-02 -0.83679537E-03 -0.22655962E-02
  0.32556045E-02 -0.94890164E-03  0.78197557E-03
 -0.78245365E-03 -0.17456951E-02  0.19971627E-03
  0.18115696E-02  0.50953032E-03 -0.32219107E-02
  0.17688203E-02  0.18874912E-02  0.22856230E-02
  0.29519193E-02 -0.60986776E-03  0.24597870E-02
  0.93615478E-03 -0.34833185E-03  0.11913885E-02
 -0.21876314E-02 -0.26179213E-02  0.21887509E-02
 -0.10765297E-02 -0.11093836E-02  0.22686405E-02
  0.33952073E-02  0.12616815E-03 -0.11079021E-02
  0.38380892E-02 -0.57602357E-03  0.25129833E-03
 -0.55370126E-03 -0.41125752E-02  0.68470717E-03
  0.41876109E-03  0.20721252E-02  0.51632505E-03
  0.29736716E-03 -0.14867609E-02 -0.17622328E-02
 -0.12580452E-02 -0.13268532E-02  0.26158622E-03
  0.26664256E-03  0.20332366E-02 -0.96761791E-03
 -0.64457295E-02  0.24116079E-02 -0.20381087E-02
 -0.19920447E-02  0.16831268E-02 -0.22060602E-03
 -0.14406931E-02 -0.13268123E-02  0.31554038E-02
 -0.13639888E-02  0.28026876E-02 -0.16311877E-02
  0.99797143E-03 -0.37375262E-03  0.14522127E-02
 -0.37158993E-02 -0.20283714E-02 -0.66009275E-03
 -0.13415511E-02  0.26672062E-02 -0.17262221E-03
 -0.28855535E-02 -0.24051045E-02 -0.99177863E-04
 -0.35085712E-02  0.16091254E-02  0.64255863E-03
  0.17904139E-03  0.10620700E-02  0.26766676E-02
 -0.86337140E-03 -0.23639663E-02 -0.31220438E-03
  0.46991839E-03 -0.31739623E-03 -0.17049589E-04
  0.39794322E-04 -0.15260375E-02 -0.10071467E-02
 -0.23850391E-02  0.12548477E-02 -0.71508132E-05
  0.55709057E-03 -0.17235971E-02 -0.73918046E-03
  0.20195669E-02 -0.19885833E-02  0.88077993E-03
 -0.41185404E-02  0.15530755E-02 -0.29419186E-02
 -0.93426451E-03 -0.26385493E-02  0.14910124E-02
  0.13184492E-02 -0.16134736E-02 -0.50640761E-02
 -0.13726483E-02  0.16073708E-02  0.82094203E-03
  0.10106919E-02  0.43107466E-02 -0.20538765E-02
 -0.44383012E-03  0.76925005E-03 -0.23440130E-02
  0.20544833E-02 -0.16384397E-03 -0.28034265E-02
 -0.13995812E-03 -0.12204372E-02  0.66160002E-03
 -0.11335400E-02  0.16216068E-02  0.10495588E-02
 -0.82087944E-03 -0.42257863E-03 -0.18541726E-02
  0.21613501E-02 -0.21479587E-02 -0.22613469E-02
 -0.12176173E-02  0.37949800E-03 -0.21951840E-02
 -0.16706542E-03  0.72852208E-04  0.95128923E-03
 -0.29574657E-03  0.41970167E-03 -0.20953810E-03
  0.15305623E-02  0.74105834E-03 -0.14492909E-02
 -0.80918090E-03 -0.14988359E-02  0.26236808E-02
 -0.10807981E-02  0.99243597E-03 -0.94786079E-03
 -0.80692092E-03 -0.17310481E-02 -0.12249421E-03
  0.45069837E-03  0.35063376E-02  0.93048584E-03
  0.83322854E-03  0.42351894E-02  0.19965699E-03
  0.33748613E-02 -0.16673299E-02 -0.14418258E-03
 -0.22693474E-02  0.18311519E-02 -0.15072753E-02
 -0.84100542E-04  0.33650693E-02  0.24011265E-02
 -0.88753476E-03  0.95514901E-03  0.52281267E-05
  0.25570194E-02 -0.40914911E-02  0.14677969E-02
 -0.78339191E-03  0.12501213E-02  0.28877149E-02
 -0.30913866E-02  0.48964655E-02  0.31666348E-03
 -0.10858343E-02  0.43776022E-03  0.25003902E-02
  0.97872907E-03 -0.25960053E-02 -0.58416061E-03
 -0.10765825E-02  0.12733177E-02 -0.26202836E-02
 -0.11641278E-02  0.38843347E-02 -0.19622790E-02
  0.25556624E-02 -0.12961534E-02 -0.87193807E-04
 -0.71216117E-03 -0.16468490E-02 -0.17700839E-02
 -0.37669469E-02  0.28588113E-02  0.14300190E-02
  0.12012458E-03 -0.31653857E-03  0.18179862E-02
 -0.17310732E-04  0.88162696E-03 -0.12675003E-02
 -0.19162999E-03  0.49128974E-02  0.10003078E-02
 -0.11481856E-02  0.11659602E-02 -0.24206984E-03
 -0.21134997E-02  0.46823708E-02  0.22297733E-02
 -0.72289192E-04 -0.18941901E-03  0.24743333E-02
  0.48451958E-02 -0.13248601E-03 -0.20242869E-02
  0.29492868E-03  0.26079609E-04 -0.68060614E-03
  0.16207868E-02  0.67938490E-03 -0.14282596E-02
  0.15354142E-03 -0.41059329E-02 -0.33516270E-02
  0.11147941E-02  0.11210838E-02 -0.49265767E-03
  0.17813937E-02 -0.13966013E-02  0.10077108E-02
 -0.11080856E-02 -0.21409638E-02  0.92272910E-03
 -0.18083277E-02  0.34434358E-03  0.21746422E-02
 -0.42720313E-02  0.82130346E-03  0.10375323E-02
 -0.59544969E-04  0.21780427E-02  0.14312361E-02
  0.15128106E-02 -0.12274442E-02  0.24887495E-02
  0.19174892E-02 -0.32936153E-02 -0.39110405E-03
  0.15685182E-02  0.10072019E-02 -0.37090435E-03
  0.84752493E-03  0.19425524E-02  0.18674503E-02
 -0.11876622E-02  0.25039841E-03 -0.23732125E-02
  0.10486495E-02  0.63266216E-03  0.26038770E-02
 -0.14497327E-02  0.25990916E-02 -0.68780020E-03
  0.12385843E-02  0.48120904E-03 -0.22773513E-03
 -0.19561647E-02  0.19629633E-02  0.53307388E-03
  0.24160194E-02  0.13701513E-02 -0.29978623E-02
  0.12547810E-03  0.21231898E-02  0.10111119E-02
 -0.11243176E-02 -0.26824657E-03 -0.59943254E-03
  0.69699189E-03 -0.16326059E-02  0.89028144E-03
 -0.16240161E-02 -0.12367444E-02 -0.66663247E-03
  0.14374697E-02 -0.64617645E-03  0.17710991E-03
 -0.35116715E-02  0.12103341E-02  0.21258657E-03
 -0.87610743E-03 -0.92842782E-03  0.92988716E-03
  0.20238783E-02 -0.89165667E-03 -0.21703836E-02
  0.30644498E-02 -0.66986586E-03  0.11102730E-02
 -0.10493200E-02  0.19438742E-03 -0.13979667E-02
  0.10711353E-02  0.10170586E-02 -0.22043782E-03
 -0.39190834E-02 -0.83170711E-03 -0.15980543E-02
  0.14305425E-02 -0.53193855E-03  0.11254404E-02
  0.97687046E-03  0.22104224E-03 -0.24067620E-02
  0.97159875E-03  0.25976689E-02  0.16632854E-02
  0.23993354E-02 -0.20567178E-02  0.13798120E-02
  0.34640900E-02 -0.32790893E-02 -0.15989255E-02
 -0.93012501E-03  0.52824742E-03  0.28110271E-03
 -0.18519979E-03  0.28428005E-02 -0.27667501E-03
 -0.15181200E-03  0.17970150E-02  0.96237280E-03
  0.18494683E-02 -0.12568979E-02 -0.54973919E-03
  0.62152250E-03 -0.24060203E-02  0.23795027E-02
 -0.23914525E-02  0.30816045E-02 -0.57097214E-03
  0.69034425E-03  0.10052233E-02  0.16206130E-02
 -0.50954209E-02  0.83383405E-03  0.10744809E-02
 -0.16895031E-02  0.28874670E-03 -0.41123514E-03
 -0.11352530E-02 -0.36196677E-03 -0.20022285E-02
  0.34186530E-02 -0.10143088E-02 -0.51895606E-02
  0.15103201E-02 -0.17405384E-02 -0.11842869E-02
 -0.35524320E-03 -0.15303454E-03  0.10235791E-02
  0.28828660E-02 -0.40509496E-04 -0.13901093E-02
  0.28080106E-03  0.23592253E-02  0.24710335E-02
  0.22354496E-02 -0.16663874E-02  0.43260142E-03
  0.81591675E-03  0.19009381E-02  0.14798307E-03
  0.59397087E-03  0.83697578E-03  0.56304364E-03
  0.72420775E-03  0.12605708E-02 -0.29816056E-04
 -0.13488083E-02 -0.16678717E-02  0.39284660E-02
 -0.13507929E-02 -0.16353381E-02 -0.54090599E-03
 -0.15780493E-03 -0.68335223E-03 -0.63590188E-04
  0.98210295E-03  0.34125649E-02  0.11892276E-02
 -0.87417595E-03  0.16311548E-02 -0.71644281E-03
  0.78949068E-03 -0.14036563E-02 -0.74824067E-03
  0.17488543E-02 -0.11543294E-02  0.17867873E-03
  0.97013620E-03  0.25979413E-02 -0.12015491E-03
  0.17454350E-02 -0.48758181E-02 -0.20041491E-03
  0.11912532E-02  0.20211733E-02  0.36196284E-03
  0.80033530E-04 -0.32060592E-02 -0.17502042E-02
 -0.14720984E-02  0.56552494E-03  0.98279658E-03
  0.75041616E-03 -0.28468233E-03 -0.14623772E-02
  0.21103791E-02  0.20359045E-02  0.16865406E-02
  0.12858186E-02 -0.23953061E-02 -0.23109816E-03
 -0.25033116E-02 -0.13619453E-02 -0.35465468E-03
 -0.30818428E-02 -0.17203721E-02  0.11846316E-02
  0.23493567E-02  0.70814078E-03 -0.17255596E-02
 -0.29605617E-03  0.60248550E-03  0.23359862E-03
  0.17234197E-02  0.72862998E-03  0.10290479E-02
  0.45969625E-02  0.28624706E-02  0.10771557E-02
 -0.28328612E-02 -0.82542716E-03 -0.25365590E-02
  0.19617547E-02  0.71015663E-03  0.11231663E-03
  0.22887141E-02 -0.11039597E-02  0.25652354E-02
 -0.16691332E-02  0.13069103E-02  0.78789923E-03
 -0.13390916E-02  0.16240236E-02 -0.36317717E-03
  0.21299127E-02  0.25791391E-03  0.59643949E-04
 -0.20505152E-02  0.26558314E-02 -0.38977507E-02
 -0.13100073E-02  0.81628107E-03 -0.21884134E-02
 -0.15554391E-03 -0.45547405E-03 -0.59969230E-03
 -0.14701542E-02  0.11061864E-02 -0.26971731E-02
  0.19788441E-02  0.53964689E-03  0.16893523E-02
 -0.30703151E-02  0.69789045E-03  0.11643448E-02
 -0.16244177E-02  0.13309921E-02 -0.92720252E-03
  0.17640110E-02  0.12409858E-02 -0.11529973E-02
 -0.55027310E-03  0.97918981E-03  0.35508807E-02
  0.18894429E-02  0.23500288E-02 -0.14328472E-02
 -0.34230627E-02 -0.44517359E-03  0.45152264E-03
  0.40727561E-02 -0.11506268E-02  0.26274048E-02
  0.72205973E-03  0.19609008E-02  0.25348099E-02
  0.11670249E-03  0.86728217E-03 -0.86466380E-03
 -0.46906625E-02  0.87170707E-03  0.19380051E-02
 -0.18287490E-03 -0.17034886E-02  0.81887044E-03
 -0.26032517E-02 -0.68862838E-03  0.31413267E-03
 -0.20096340E-02 -0.15665383E-02  0.12622942E-02
 -0.34390421E-03 -0.37098869E-03 -0.70936525E-03
  0.24495467E-03 -0.21385623E-02  0.96263989E-03
 -0.18924063E-02  0.21346225E-02 -0.15677318E-03
  0.63653838E-03  0.18521817E-03  0.26161968E-02
  0.25613086E-02 -0.29070141E-02  0.13364616E-02
  0.10945764E-02 -0.11814159E-02 -0.19373007E-02
 -0.34665688E-02 -0.39027500E-03 -0.11430545E-02
  0.60905478E-03  0.15393187E-03 -0.12970397E-02
  0.57242692E-03 -0.54896851E-03 -0.36449307E-03
 -0.13292370E-02  0.24270928E-03 -0.22944730E-02
  0.21178446E-02 -0.38405621E-02  0.92655425E-03
 -0.15518879E-02 -0.18259897E-03  0.31838114E-02
  0.27175077E-02 -0.40908112E-03 -0.69210383E-03
  0.10590578E-02  0.62654646E-03  0.12067481E-03
  0.41977507E-03  0.16075528E-02 -0.37166052E-03
  0.58808014E-03  0.20327676E-02  0.99866349E-03
  0.32416919E-02  0.37709221E-02 -0.61280000E-03
 -0.34294742E-03 -0.82234677E-04 -0.11208891E-02
 -0.21695722E-02  0.24359522E-03  0.36914414E-03
  0.18263817E-02  0.22085838E-02  0.12970464E-02
 -0.25476832E-02 -0.58975301E-03  0.27142194E-03
  0.51719365E-03  0.17216777E-02 -0.20283849E-02
  0.53838528E-05 -0.99472091E-03  0.27130019E-02
  0.36283779E-02  0.44749789E-03 -0.24861724E-02
  0.12430504E-02 -0.56464644E-03  0.44286538E-03
  0.12656151E-02 -0.17116609E-02 -0.47321355E-03
 -0.56886458E-03  0.78266756E-03  0.62601688E-03
  0.15124411E-02 -0.71614797E-03  0.91679454E-04
 -0.67165247E-03  0.16860619E-02  0.16117372E-02
 -0.18864035E-04 -0.11570304E-02  0.20577386E-02
  0.13810934E-03 -0.30133162E-02 -0.32021322E-02