Amorphous Sb                            
   1.00000000000000     
    21.4085642626252941    0.0000000000000000    0.0000000000000000
     0.0000000000000000   21.4085642626252941    0.0000000000000000
     0.0000000000000000    0.0000000000000000   21.4085642626252941
   Pb   Se
   150   150
Direct
  0.1294741931551378  0.2786445609338608  0.5245900140869256
  0.5161927446097920  0.6907460795407064  0.0990470013272278
  0.1266387133013241  0.6853546713745012  0.1051230528043640
  0.8626394773550782  0.5259930522887396  0.2660015415353066
  0.1224665440797888  0.6789408294697784  0.7436296339253324
  0.0920875072847720  0.3179376922617813  0.2483741639948863
  0.7178527659027620  0.4901472211001023  0.1812946513334884
  0.8523381276691937  0.6791686492919072  0.0296284211081180
  0.5456432778085102  0.1352885889680719  0.1857443990209438
  0.7047338382148471  0.3418419127084718  0.0475086704868170
  0.0196011214967928  0.7959042902510362  0.9825521225526321
  0.2425299846124553  0.0794842986984810  0.3037027302629189
  0.4735976769678173  0.9633734414287020  0.0938680553693123
  0.4505721018165169  0.5894497747081694  0.4908391768104616
  0.6752403903811133  0.2610832159062074  0.4680008040683558
  0.8322191699917577  0.6015462784182875  0.5358635680541581
  0.4571850195671863  0.3828486577460480  0.5074781768825740
  0.3685668409747948  0.1571451794594081  0.1915008762467826
  0.6425420565716853  0.2583623266366895  0.2725062098866061
  0.8459365534281857  0.2067984636556139  0.5576700508298288
  0.3214527500240337  0.5303225902129102  0.7936093915369375
  0.9091156793312339  0.5359476057358658  0.7502564630921073
 -0.0038776947590877  0.3583343633934965  0.7797556399920480
  0.3909600841580509  0.8180642695593799  0.3206808887235748
  0.8744859735445454  0.2606944833065324  0.9719198807629222
  0.8841467191038830  0.9430279557160030  0.1008229093435701
  0.0501095453605324  0.0475611295494404  0.6940857616300384
  0.9171789729745050  0.7905864809913002  0.7739657454420465
  0.3527071408470566  0.7768266661729085  0.5090014546909079
  0.2319323068482857  0.5230441577202297  0.4943613945822043
  0.5956721328359426  0.7504321893293274  0.9436286703844776
  0.2941671975947927  0.1540564174362631  0.8275012236831855
  0.9482135017270481  0.3147348315501010  0.1157057514329286
  0.8688404776255112  0.9769513819174312  0.6876075805055547
  0.7636061542770837  0.7014938316967506  0.2990790360255753
  0.9252232331196916  0.2803768637248175  0.3817253291039623
  0.7674564065735342  0.2760722541295103  0.8193975755982844
  0.1358946535194066  0.7895803350812608  0.2511396939819858
  0.8478180971915489  0.4912523957126170  0.0693328153672982
  0.1127320844998314  0.6067359920723721  0.9545658017941051
  0.3673482176169947  0.7937181193714073  0.9640970353988980
  0.0658345340896596  0.4192751944866133  0.4209285450987508
  0.7287542301965315  0.9681490080237797  0.8316036269412606
  0.2992733119341940  0.6408456150196163  0.6246333574785482
  0.1668505425894901  0.2892367401223627  0.7514100199874002
  0.6626353595435479  0.9466108354231026  0.0378243475769873
  0.3436479665189502  0.2140734725347432 -0.0007344581395817
  0.7514497898120137  0.7568507709709852  0.8702879233917009
  0.1967873387430178  0.3505557702487563  0.0687225877999542
  0.8503220420363514  0.0628594592948846  0.5046498897823452
  0.8684067936366701  0.0728529920789880  0.9142735439638855
  0.7103152359422327  0.7848056936725398  0.1371321021992195
  0.2938567272940029  0.9067213831435116  0.7252457827319251
  0.4607629910871339  0.6390291898555666  0.2868128325791672
  0.8781603491154056  0.4390585316502971  0.8849541152712526
  0.3317171838950290  0.9773224766149440  0.4980530033422856
  0.1581284919922224  0.5135198209384707  0.6718066163155103
  0.4108516031554913  0.1592072071823288  0.6883187316220309
  0.4974375815538961  0.4969438852504682  0.8753134925583981
  0.1935227315162277  0.0038415311887031  0.8635847321210240
  0.1867555686060281  0.9258317287147786  0.3673032206721151
  0.5658307785584736  0.8507335197329940  0.7717311789620329
  0.8289759296318110  0.3368772030042307  0.2321774033938328
  0.5387317695164690  0.9220349448829731  0.9198754611342187
  0.3955321610539556  0.2152993299188022  0.5333277324173534
  0.2807435350863924  0.6180534869271015  0.9503475364414987
  0.5627727189862348  0.2358386238669931  0.7138914021295000
  0.5333965605260681  0.7888331507340680  0.5606200547644761
  0.4527661576955718  0.6577902175007327  0.8811111369427950
  0.0741968631656525  0.9951297634068234  0.2128230336218709
  0.3274624411680237  0.7518930051088693  0.1325213004432574
  0.3491952445340914  0.3965477144691733  0.0318342678673601
  0.8498499683329451  0.1351903455816387  0.2905157626342557
  0.3629440387796172  0.5381878308581024  0.1524403726015400
  0.0266899172950973  0.0092230069996419  0.5101773919611536
  0.8989286344382114  0.7699988880620805  0.3990805590290316
  0.9637515865941222  0.8076551641739603  0.5741534077378179
  0.6683279827608315  0.5738605373850603  0.4290886290144590
  0.0413147784777759  0.0380731420433721  0.9533440483615471
  0.4120323222773727  0.9918192566394614  0.8231215790724508
  0.0202958113329360  0.6346022729999832  0.3786523364843545
  0.9264193498243672  0.9364500530801134  0.3298792921272973
  0.3523657593327427  0.3247177295892829  0.8292170045207244
  0.5629610772643945  0.0778490513692353  0.7832452554884564
  0.5720755470998734  0.4124117556912985  0.7054119597452425
  0.6033137272709197  0.8553764586639342  0.2868526296452448
  0.9520583458777895  0.6237341434595947  0.8957753820800970
  0.3035645277101502 -0.0034830183297864  0.0150429960070516
  0.5146721844756337  0.2981304050707466  0.0757431490183106
  0.5398203027131777  0.3971142606931068  0.2475556671355600
  0.4780973583111007  0.9855003363860185  0.6107717681527165
  0.2264423345938940  0.1384274190988314  0.6658959894896200
  0.1474968561179610  0.2261841415376115  0.9406530579025022
  0.3250582661013945  0.9465246604276911  0.2083446852790128
  0.6923998640518225  0.1228077505172489  0.0014775008064699
  0.7291995321177360  0.5765426376739274  0.7573083757137462
  0.8875207855051530  0.4424689683453454  0.4884044956441848
  0.7650680834981981  0.3781413384552808  0.6130038307601936
  0.4358375503466605  0.0594491299790666  0.3529852631736983
  0.8756451890354101  0.9027993017853666  0.9027875287593949
  0.4152592960960476  0.4636059260458733  0.3489186822742362
  0.0643166533570417  0.4201438209441826  0.9795791332721979
  0.9345565101604650  0.7121907472815839  0.2001798026166627
  0.6731138773201751  0.0310926673163556  0.6047257122748675
  0.6983464438651836  0.1052344582467053  0.3632406485149222
  0.0248410286428010  0.1983920118348256  0.8469348283828962
  0.2030143246980253  0.7967678401216975  0.8901524622592503
  0.7766311302164747  0.7233423173338870  0.6849015106089420
  0.4905683083426760  0.2529964884453844  0.3718615858868008
  0.0127590110335711  0.6032199262545102  0.5911141699339660
  0.0435475924640654  0.1333588148591120  0.3452226202373437
  0.5235138829964635  0.1183362032752596  0.9799008266249111
  0.6844543909383268  0.5962106346499573  0.9399304275946208
  0.2063265640857865  0.0749556309132574  0.5135345965658519
  0.1822517200760749  0.8756589564332642  0.0677322878704546
  0.1721349286557217  0.7018983890865488  0.4869112207866681
  0.0794538897064455  0.8572987558966845  0.8010835426066298
  0.4139234763669027  0.4647488098540176  0.6713239533512056
  0.6164024303935970  0.5802274390086802  0.2503551450710214
  0.3551348064318169  0.3463265631343947  0.2106709023616851
  0.5487007315122004  0.3031578248766271  0.8879258192042228
  0.2637337775262265  0.6693928001161835  0.3417528034301253
  0.5580045262679156  0.6170773331821033  0.6792448108169487
  0.0128466631407671  0.1406395737462732  0.1309214361292404
  0.7426788932796859  0.9121848882701808  0.4240093079828177
  0.2305699688534555  0.4209703692380202  0.3121093906786970
 -0.0023207285273590  0.5514079674361454  0.1103881754213626
  0.2108905704078298  0.4458021889536568  0.8913045199337831
  0.2796019518654593  0.3596430560651881  0.5647956671804077
  0.9020160193194336  0.1657288393438736  0.7345219506499227
  0.5404769694905235  0.9360225759255993  0.4329942949184318
  0.1845523702476544  0.1361695515050772  0.0959291230236168
  0.7031479995437219  0.8707305457879234  0.6528370316638288
  0.9905914716993253  0.2128275834481344  0.5665914612687084
  0.6886751486269540  0.4445862108739101  0.8658580438165839
  0.1249079490636880  0.8731602552131693  0.6236769320105540
  0.4160743716550298  0.7548247795302648  0.7293840455759266
  0.7504726626780537  0.4024037198060597  0.3831793389681267
  0.7586578026641771  0.9684994975550667  0.2451503268285361
  0.5577549783975110  0.1145422261515093  0.4896239793193734
  0.7224981389551915  0.1497223430563452  0.6847757536988225
  0.6942030999258197  0.7275397400229021  0.5412132614993689
  0.5773206172592894  0.4971158747326429  0.0715119592421656
  0.2507904352135526  0.2489893215437664  0.3975037004132587
  0.1642562167840919  0.5418572451616120  0.2009936480666670
  0.0235308597865266  0.4154173635279541  0.6220721020862754
  0.0564693610843450  0.8466233343822537  0.4156857852593047
  0.6065996926812931  0.4356815163133869  0.5087122641589439
  0.8358970782861954  0.1196124323061364  0.1154937193521190
  0.5723082136133812  0.7079998653151799  0.3906728363614162
  0.7787483174623746  0.3596125870148712  0.9300035195592414
  0.7841352029948251  0.1759541671359870  0.9149395728653026
  0.5725954590881139  0.4191095091306650  0.9530148435927028
  0.6650240248530053  0.8613458024447527  0.8999798540540235
  0.8535567902845216  0.7318249573010317  0.5764321204733611
  0.8000460976995143  0.3177809433182915  0.4963720217349140
  0.9119131171063457  0.2763322953597886  0.8406493482153397
  0.0600392417686946  0.2883400762101078  0.3725892834362256
  0.2286512491056479  0.1071814929840728  0.9612854260611252
  0.7231223864727495  0.7084623250106936 -0.0019283836397490
  0.7122397262726153  0.4822921724488314  0.0425165900074162
  0.7551295535541197  0.2403362876621386  0.3435384845305026
  0.1037577596157179  0.4482719295974775  0.2812258607553545
  0.2241698628448850  0.2952690955815094  0.2709243454276677
  0.6464353606397116  0.6797657861929467  0.8358968145199376
  0.5195591963882021  0.5363396303295749  0.3841463087887306
  0.5477610253183365  0.1139375605744574  0.6506571580995854
  0.5585348107782165  0.1338866563007307  0.3504275370593027
  0.3969326023369374  0.6811060157610893  0.0356011526617245
  0.4117057745901835  0.3406168677738042  0.6221532743943466
  0.5962747923325467  0.7619158919996502  0.6777655768653230
  0.7351064323501386  0.5331296307344696  0.3181735447304552
  0.5475836866591550  0.8657325160939785  0.0357715726883077
  0.2627948009031782  0.4432765946075403  0.1712734175408800
  0.3027289776698044  0.6472300379607944  0.4885666050304476
  0.6451637191324679  0.3412971278775376  0.7948859739977934
  0.6508475159509624  0.1762655322669233  0.7932176133093440
  0.5794017285445233  0.6638503614139485  0.5171591651746200
  0.9385774171928402  0.9002414580821407  0.4614174135208720
  0.2044455245385163  0.5750831955417985  0.8396731457373330
  0.1934332241162501  0.3823531749493501  0.4503844759475809
  0.6635062400238994  0.9075154467585999  0.1693174474018272
  0.0474284827504769  0.9959363996221118  0.3506128983960252
  0.4277641428214748  0.3140035091951044  0.9671189513776207
  0.8817115523082520  0.4167756651162993  0.3554090615386497
  0.9385621160577238  0.3956163062604410  0.0045949360715494
  0.0280631917870236  0.7296727090040949  0.4793120216363104
  0.6299970271953620  0.0365378794336395  0.9146004065812773
  0.8140618345526413  0.2794536005204541  0.1066755669581353
  0.3331242381203564  0.0576857058565470  0.7354884820307863
  0.6178270844150001  0.8257088108680366  0.4311549295473669
  0.5188750383765689  0.5089838547497423  0.5920087899386876
  0.4403042768458187  0.7261075843104960  0.4059684340703784
  0.1311100938789371  0.9053891175376253  0.9375266346577853
  0.4489187016798538  0.0523031143449888  0.2166803790631604
  0.8554094539874012  0.8079796701541828  0.0819734726426885
  0.3662732537435616  0.4795837242095736  0.4700688441035217
  0.4401969752081924  0.6202357360224210  0.7496419036096915
  0.9523381537956752  0.5604924343541453  0.4637539865601744
  0.5291667839034526  0.2418254394212400  0.5049458917975762
  0.3132840436116664  0.9742400120579151  0.3663364510912572
  0.3441772395881329  0.1615710537292648  0.3320444368936776
  0.5593347741436910  0.6038569390894469  0.9924750691063789
  0.0979450111938971  0.3449464270296420  0.8638192765961492
  0.7910577888862395  0.4545396882636234  0.7678343560750563
  0.5973695543952326  0.5233931869988944  0.7756445062542313
  0.9899440386445620  0.8102867930812361  0.3045460125480347
  0.8975158247696421  0.6554075369787012  0.3149161863808261
  0.5874639762472111  0.0551967075262753  0.0805359751946572
  0.5939776748787560  0.9325226845341990  0.5683285589479351
  0.6584013625491897  0.9699987828907787  0.3369939237127940
  0.4350548057983094  0.7520384307218262  0.2131393712056403
  0.4590139176031880  0.1770500465818167  0.0848827187336640
  0.6400369466362921  0.3398271823006933  0.5922641293756572
  0.7985317338214756  0.8629638849286864  0.7572570409212244
  0.9875786920813669  0.3496697978747555  0.5137571892074876
  0.5951528671412779  0.3458765422341166  0.3646209673273023
  0.3489867237086897  0.5618104780090930  0.2852111841437874
  0.9259351630161300  0.2439584290358476  0.2469225654413439
  0.1541076981707736  0.3561266504083963  0.6324011408086002
  0.4371289112843946  0.4261635364406441  0.1311256848450880
  0.9273539806938979  0.0513464254295765  0.1952483179425696
  0.8007997465534979  0.0722635958453139  0.7600883547863093
  0.2612708756354149  0.8130584673601463  0.6156523649763548
  0.4149044251775773  0.0795563877521050  0.5029345522410934
  0.2994117227409593  0.2735164825524162  0.1112215621924320
  0.6433258787227760  0.9647486099061565  0.7312739537739441
  0.8288195564530352  0.8128913618549324  0.1953834628002938
  0.0386826164298896  0.5166174333522330  0.8916262247473070
  0.6987877103322946  0.1285551208526058  0.4991452962302371
  0.2606840140737564  0.4085430405931788  0.7770272519733393
  0.0856741825669767  0.7261155078062489  0.8816289777586714
  0.2524406292018018  0.2227657583038677  0.5492762640558245
  0.7991092770974942  0.2581026600752045  0.6785588661573524
  0.9611918110663780  0.9166551088702188  0.8020552087773787
  0.9748950648616763  0.0813548826844879  0.8166724710384317
  0.6538191745004722  0.3678571759822705  0.1849268935870075
  0.7430404915072547  0.1023734370465160  0.2118386193073946
  0.7971450291966882  0.8320028526762081  0.3292273934139772
  0.2897070944035311  0.0567977808515601  0.1402407617406179
  0.4885248971908466  0.2772549277415522  0.2232174068471084
  0.4618118437133201  0.3971970106756235  0.7913851309689182
  0.3276745702690605  0.7066163785901847  0.8645725429486751
  0.8469875236199965  0.6105504536387911  0.1473462807529695
  0.4705070617333280  0.1867839586352111  0.8028506492243168
  0.1157628642745908  0.1230755799439611  0.2247395590740177
  0.1232926082666552  0.5158141515400830  0.0743700590344429
  0.9247840351561702  0.4235841581657083  0.1839478219778649
  0.1614043667033219  0.6010254276333995  0.3943510019224216
  0.0403274615181936  0.5770517794909887  0.7259212718030131
  0.2767142455397765  0.7692765309467686  0.7187124069956620
  0.1518576557283471  0.9502403344083260  0.5038523697093525
  0.2328980882123736  0.7606021576243206  0.0136085390700085
  0.4452303408417183  0.9051596690650114  0.7227753701809074
  0.0042050556507571  0.9400810238172919  0.6239358959820895
  0.3484567130075521  0.5000756697339207  0.9242035107704387
  0.8445415078229377  0.5565448845267252  0.9430575086767284
  0.9082134139789658  0.5142073023404425  0.6213660298791045
  0.3050401027463273  0.2437838750673421  0.7258915082903208
  0.0933753982641259  0.5016516637161647  0.5526979431650562
  0.3724424758541931  0.3074354124259724  0.4362694298806983
  0.1672728167922206  0.1437720035798386  0.7881513389629464
  0.9568330139534410  0.1389897496899284  0.9908978577480922
  0.7836483005376017  0.9562351018945031  0.5803910821243977
  0.9005537926561048  0.7717324723796696  0.9123542054932877
  0.1662534156505376  0.1314626080610805  0.4020109881428927
  0.8468054426819487  0.6544476870899895  0.7746884523470282
  0.2902117247187939  0.5049619399909078  0.6226369232418513
  0.1922732763989701  0.9133012364905562  0.2208057384336557
 -0.0002527659023367  0.6587290379302070  0.0215176533516687
  0.4821214373317357  0.7897457603123298  0.8720451571464608
  0.1649561360325174  0.6397889906622787  0.6184889116075409
  0.4822309125426418  0.9110989718134238  0.3102254715556545
  0.3507062406567342  0.8853994979018394  0.0917464411819473
  0.6129646250926761  0.2382268182203748 -0.0058554844530006
  0.2215432245286446  0.6897789805802380  0.2082238139232877
  0.1584727574978013  0.9488066038912990  0.7305528667206996
  0.5008234227152585  0.5794336190997331  0.1672952273680807
  0.0415707117421731  0.7767317399145433  0.6929279808739774
  0.7543210562452813  0.6749106753718350  0.4357103795650683
  0.2545481203158328  0.3067577081753856  0.9430877741401480
  0.6403540636037892  0.7137376391493571  0.2336003581062276
  0.0785017337287639  0.8085691387704061  0.1194532424229617
  0.4351295573456702  0.8950667443596004  0.5118036366413021
  0.4300008515346935  0.0142029555041670  0.9755086507424935
  0.7386553981388203  0.4800038439832381  0.4992059031299992
  0.3048042420584587  0.9246080274249600  0.8656333759969155
  0.2046594509395909  0.7911248949889361  0.3802165065533293
  0.4262696121582611  0.7157758825879683  0.5996437856102519
  0.9436065670907907  0.1556066708413639  0.4507554966360492
  0.7947417339292441  0.0177438148819658  0.0337013076178251
  0.7162968387632666  0.6168273561435010  0.6246751683258807
  0.0336290472687275  0.2462687758848040  0.7184517695553304
  0.1086625977914789  0.1186286148542419  0.5897869581605913
  0.9340461813281604  0.0930022956295297  0.6231070446033606
  0.0900798567202540  0.0436049065372196  0.0780497800836022
  0.1026254927687472  0.2555277836240659  0.0656730140562924
  0.0490233130555005  0.6291034865612659  0.2046726787639164
  0.8180166029242174  0.0219069937680435  0.3786727881198246
  0.9652303741963426  0.9366110827633604  0.9953327480449374
 
  0.00000000E+00  0.00000000E+00  0.00000000E+00
  0.00000000E+00  0.00000000E+00  0.00000000E+00
  0.00000000E+00  0.00000000E+00  0.00000000E+00
  0.00000000E+00  0.00000000E+00  0.00000000E+00
  0.00000000E+00  0.00000000E+00  0.00000000E+00
  0.00000000E+00  0.00000000E+00  0.00000000E+00
  0.00000000E+00  0.00000000E+00  0.00000000E+00
  0.00000000E+00  0.00000000E+00  0.00000000E+00
  0.00000000E+00  0.00000000E+00  0.00000000E+00
  0.00000000E+00  0.00000000E+00  0.00000000E+00
  0.00000000E+00  0.00000000E+00  0.00000000E+00
  0.00000000E+00  0.00000000E+00  0.00000000E+00
  0.00000000E+00  0.00000000E+00  0.00000000E+00
  0.00000000E+00  0.00000000E+00  0.00000000E+00
  0.00000000E+00  0.00000000E+00  0.00000000E+00
  0.00000000E+00  0.00000000E+00  0.00000000E+00
  0.00000000E+00  0.00000000E+00  0.00000000E+00
  0.00000000E+00  0.00000000E+00  0.00000000E+00
  0.00000000E+00  0.00000000E+00  0.00000000E+00
  0.00000000E+00  0.00000000E+00  0.00000000E+00
  0.00000000E+00  0.00000000E+00  0.00000000E+00
  0.00000000E+00  0.00000000E+00  0.00000000E+00
  0.00000000E+00  0.00000000E+00  0.00000000E+00
  0.00000000E+00  0.00000000E+00  0.00000000E+00
  0.00000000E+00  0.00000000E+00  0.00000000E+00
  0.00000000E+00  0.00000000E+00  0.00000000E+00
  0.00000000E+00  0.00000000E+00  0.00000000E+00
  0.00000000E+00  0.00000000E+00  0.00000000E+00
  0.00000000E+00  0.00000000E+00  0.00000000E+00
  0.00000000E+00  0.00000000E+00  0.00000000E+00
  0.00000000E+00  0.00000000E+00  0.00000000E+00
  0.00000000E+00  0.00000000E+00  0.00000000E+00
  0.00000000E+00  0.00000000E+00  0.00000000E+00
  0.00000000E+00  0.00000000E+00  0.00000000E+00
  0.00000000E+00  0.00000000E+00  0.00000000E+00
  0.00000000E+00  0.00000000E+00  0.00000000E+00
  0.00000000E+00  0.00000000E+00  0.00000000E+00
  0.00000000E+00  0.00000000E+00  0.00000000E+00
  0.00000000E+00  0.00000000E+00  0.00000000E+00
  0.00000000E+00  0.00000000E+00  0.00000000E+00
  0.00000000E+00  0.00000000E+00  0.00000000E+00
  0.00000000E+00  0.00000000E+00  0.00000000E+00
  0.00000000E+00  0.00000000E+00  0.00000000E+00
  0.00000000E+00  0.00000000E+00  0.00000000E+00
  0.00000000E+00  0.00000000E+00  0.00000000E+00
  0.00000000E+00  0.00000000E+00  0.00000000E+00
  0.00000000E+00  0.00000000E+00  0.00000000E+00
  0.00000000E+00  0.00000000E+00  0.00000000E+00
  0.00000000E+00  0.00000000E+00  0.00000000E+00
  0.00000000E+00  0.00000000E+00  0.00000000E+00
  0.00000000E+00  0.00000000E+00  0.00000000E+00
  0.00000000E+00  0.00000000E+00  0.00000000E+00
  0.00000000E+00  0.00000000E+00  0.00000000E+00
  0.00000000E+00  0.00000000E+00  0.00000000E+00
  0.00000000E+00  0.00000000E+00  0.00000000E+00
  0.00000000E+00  0.00000000E+00  0.00000000E+00
  0.00000000E+00  0.00000000E+00  0.00000000E+00
  0.00000000E+00  0.00000000E+00  0.00000000E+00
  0.00000000E+00  0.00000000E+00  0.00000000E+00
  0.00000000E+00  0.00000000E+00  0.00000000E+00
  0.00000000E+00  0.00000000E+00  0.00000000E+00
  0.00000000E+00  0.00000000E+00  0.00000000E+00
  0.00000000E+00  0.00000000E+00  0.00000000E+00
  0.00000000E+00  0.00000000E+00  0.00000000E+00
  0.00000000E+00  0.00000000E+00  0.00000000E+00
  0.00000000E+00  0.00000000E+00  0.00000000E+00
  0.00000000E+00  0.00000000E+00  0.00000000E+00
  0.00000000E+00  0.00000000E+00  0.00000000E+00
  0.00000000E+00  0.00000000E+00  0.00000000E+00
  0.00000000E+00  0.00000000E+00  0.00000000E+00
  0.00000000E+00  0.00000000E+00  0.00000000E+00
  0.00000000E+00  0.00000000E+00  0.00000000E+00
  0.00000000E+00  0.00000000E+00  0.00000000E+00
  0.00000000E+00  0.00000000E+00  0.00000000E+00
  0.00000000E+00  0.00000000E+00  0.00000000E+00
  0.00000000E+00  0.00000000E+00  0.00000000E+00
  0.00000000E+00  0.00000000E+00  0.00000000E+00
  0.00000000E+00  0.00000000E+00  0.00000000E+00
  0.00000000E+00  0.00000000E+00  0.00000000E+00
  0.00000000E+00  0.00000000E+00  0.00000000E+00
  0.00000000E+00  0.00000000E+00  0.00000000E+00
  0.00000000E+00  0.00000000E+00  0.00000000E+00
  0.00000000E+00  0.00000000E+00  0.00000000E+00
  0.00000000E+00  0.00000000E+00  0.00000000E+00
  0.00000000E+00  0.00000000E+00  0.00000000E+00
  0.00000000E+00  0.00000000E+00  0.00000000E+00
  0.00000000E+00  0.00000000E+00  0.00000000E+00
  0.00000000E+00  0.00000000E+00  0.00000000E+00
  0.00000000E+00  0.00000000E+00  0.00000000E+00
  0.00000000E+00  0.00000000E+00  0.00000000E+00
  0.00000000E+00  0.00000000E+00  0.00000000E+00
  0.00000000E+00  0.00000000E+00  0.00000000E+00
  0.00000000E+00  0.00000000E+00  0.00000000E+00
  0.00000000E+00  0.00000000E+00  0.00000000E+00
  0.00000000E+00  0.00000000E+00  0.00000000E+00
  0.00000000E+00  0.00000000E+00  0.00000000E+00
  0.00000000E+00  0.00000000E+00  0.00000000E+00
  0.00000000E+00  0.00000000E+00  0.00000000E+00
  0.00000000E+00  0.00000000E+00  0.00000000E+00
  0.00000000E+00  0.00000000E+00  0.00000000E+00
  0.00000000E+00  0.00000000E+00  0.00000000E+00
  0.00000000E+00  0.00000000E+00  0.00000000E+00
  0.00000000E+00  0.00000000E+00  0.00000000E+00
  0.00000000E+00  0.00000000E+00  0.00000000E+00
  0.00000000E+00  0.00000000E+00  0.00000000E+00
  0.00000000E+00  0.00000000E+00  0.00000000E+00
  0.00000000E+00  0.00000000E+00  0.00000000E+00
  0.00000000E+00  0.00000000E+00  0.00000000E+00
  0.00000000E+00  0.00000000E+00  0.00000000E+00
  0.00000000E+00  0.00000000E+00  0.00000000E+00
  0.00000000E+00  0.00000000E+00  0.00000000E+00
  0.00000000E+00  0.00000000E+00  0.00000000E+00
  0.00000000E+00  0.00000000E+00  0.00000000E+00
  0.00000000E+00  0.00000000E+00  0.00000000E+00
  0.00000000E+00  0.00000000E+00  0.00000000E+00
  0.00000000E+00  0.00000000E+00  0.00000000E+00
  0.00000000E+00  0.00000000E+00  0.00000000E+00
  0.00000000E+00  0.00000000E+00  0.00000000E+00
  0.00000000E+00  0.00000000E+00  0.00000000E+00
  0.00000000E+00  0.00000000E+00  0.00000000E+00
  0.00000000E+00  0.00000000E+00  0.00000000E+00
  0.00000000E+00  0.00000000E+00  0.00000000E+00
  0.00000000E+00  0.00000000E+00  0.00000000E+00
  0.00000000E+00  0.00000000E+00  0.00000000E+00
  0.00000000E+00  0.00000000E+00  0.00000000E+00
  0.00000000E+00  0.00000000E+00  0.00000000E+00
  0.00000000E+00  0.00000000E+00  0.00000000E+00
  0.00000000E+00  0.00000000E+00  0.00000000E+00
  0.00000000E+00  0.00000000E+00  0.00000000E+00
  0.00000000E+00  0.00000000E+00  0.00000000E+00
  0.00000000E+00  0.00000000E+00  0.00000000E+00
  0.00000000E+00  0.00000000E+00  0.00000000E+00
  0.00000000E+00  0.00000000E+00  0.00000000E+00
  0.00000000E+00  0.00000000E+00  0.00000000E+00
  0.00000000E+00  0.00000000E+00  0.00000000E+00
  0.00000000E+00  0.00000000E+00  0.00000000E+00
  0.00000000E+00  0.00000000E+00  0.00000000E+00
  0.00000000E+00  0.00000000E+00  0.00000000E+00
  0.00000000E+00  0.00000000E+00  0.00000000E+00
  0.00000000E+00  0.00000000E+00  0.00000000E+00
  0.00000000E+00  0.00000000E+00  0.00000000E+00
  0.00000000E+00  0.00000000E+00  0.00000000E+00
  0.00000000E+00  0.00000000E+00  0.00000000E+00
  0.00000000E+00  0.00000000E+00  0.00000000E+00
  0.00000000E+00  0.00000000E+00  0.00000000E+00
  0.00000000E+00  0.00000000E+00  0.00000000E+00
  0.00000000E+00  0.00000000E+00  0.00000000E+00
  0.00000000E+00  0.00000000E+00  0.00000000E+00
  0.00000000E+00  0.00000000E+00  0.00000000E+00
  0.00000000E+00  0.00000000E+00  0.00000000E+00
  0.00000000E+00  0.00000000E+00  0.00000000E+00
  0.00000000E+00  0.00000000E+00  0.00000000E+00
  0.00000000E+00  0.00000000E+00  0.00000000E+00
  0.00000000E+00  0.00000000E+00  0.00000000E+00
  0.00000000E+00  0.00000000E+00  0.00000000E+00
  0.00000000E+00  0.00000000E+00  0.00000000E+00
  0.00000000E+00  0.00000000E+00  0.00000000E+00
  0.00000000E+00  0.00000000E+00  0.00000000E+00
  0.00000000E+00  0.00000000E+00  0.00000000E+00
  0.00000000E+00  0.00000000E+00  0.00000000E+00
  0.00000000E+00  0.00000000E+00  0.00000000E+00
  0.00000000E+00  0.00000000E+00  0.00000000E+00
  0.00000000E+00  0.00000000E+00  0.00000000E+00
  0.00000000E+00  0.00000000E+00  0.00000000E+00
  0.00000000E+00  0.00000000E+00  0.00000000E+00
  0.00000000E+00  0.00000000E+00  0.00000000E+00
  0.00000000E+00  0.00000000E+00  0.00000000E+00
  0.00000000E+00  0.00000000E+00  0.00000000E+00
  0.00000000E+00  0.00000000E+00  0.00000000E+00
  0.00000000E+00  0.00000000E+00  0.00000000E+00
  0.00000000E+00  0.00000000E+00  0.00000000E+00
  0.00000000E+00  0.00000000E+00  0.00000000E+00
  0.00000000E+00  0.00000000E+00  0.00000000E+00
  0.00000000E+00  0.00000000E+00  0.00000000E+00
  0.00000000E+00  0.00000000E+00  0.00000000E+00
  0.00000000E+00  0.00000000E+00  0.00000000E+00
  0.00000000E+00  0.00000000E+00  0.00000000E+00
  0.00000000E+00  0.00000000E+00  0.00000000E+00
  0.00000000E+00  0.00000000E+00  0.00000000E+00
  0.00000000E+00  0.00000000E+00  0.00000000E+00
  0.00000000E+00  0.00000000E+00  0.00000000E+00
  0.00000000E+00  0.00000000E+00  0.00000000E+00
  0.00000000E+00  0.00000000E+00  0.00000000E+00
  0.00000000E+00  0.00000000E+00  0.00000000E+00
  0.00000000E+00  0.00000000E+00  0.00000000E+00
  0.00000000E+00  0.00000000E+00  0.00000000E+00
  0.00000000E+00  0.00000000E+00  0.00000000E+00
  0.00000000E+00  0.00000000E+00  0.00000000E+00
  0.00000000E+00  0.00000000E+00  0.00000000E+00
  0.00000000E+00  0.00000000E+00  0.00000000E+00
  0.00000000E+00  0.00000000E+00  0.00000000E+00
  0.00000000E+00  0.00000000E+00  0.00000000E+00
  0.00000000E+00  0.00000000E+00  0.00000000E+00
  0.00000000E+00  0.00000000E+00  0.00000000E+00
  0.00000000E+00  0.00000000E+00  0.00000000E+00
  0.00000000E+00  0.00000000E+00  0.00000000E+00
  0.00000000E+00  0.00000000E+00  0.00000000E+00
  0.00000000E+00  0.00000000E+00  0.00000000E+00
  0.00000000E+00  0.00000000E+00  0.00000000E+00
  0.00000000E+00  0.00000000E+00  0.00000000E+00
  0.00000000E+00  0.00000000E+00  0.00000000E+00
  0.00000000E+00  0.00000000E+00  0.00000000E+00
  0.00000000E+00  0.00000000E+00  0.00000000E+00
  0.00000000E+00  0.00000000E+00  0.00000000E+00
  0.00000000E+00  0.00000000E+00  0.00000000E+00
  0.00000000E+00  0.00000000E+00  0.00000000E+00
  0.00000000E+00  0.00000000E+00  0.00000000E+00
  0.00000000E+00  0.00000000E+00  0.00000000E+00
  0.00000000E+00  0.00000000E+00  0.00000000E+00
  0.00000000E+00  0.00000000E+00  0.00000000E+00
  0.00000000E+00  0.00000000E+00  0.00000000E+00
  0.00000000E+00  0.00000000E+00  0.00000000E+00
  0.00000000E+00  0.00000000E+00  0.00000000E+00
  0.00000000E+00  0.00000000E+00  0.00000000E+00
  0.00000000E+00  0.00000000E+00  0.00000000E+00
  0.00000000E+00  0.00000000E+00  0.00000000E+00
  0.00000000E+00  0.00000000E+00  0.00000000E+00
  0.00000000E+00  0.00000000E+00  0.00000000E+00
  0.00000000E+00  0.00000000E+00  0.00000000E+00
  0.00000000E+00  0.00000000E+00  0.00000000E+00
  0.00000000E+00  0.00000000E+00  0.00000000E+00
  0.00000000E+00  0.00000000E+00  0.00000000E+00
  0.00000000E+00  0.00000000E+00  0.00000000E+00
  0.00000000E+00  0.00000000E+00  0.00000000E+00
  0.00000000E+00  0.00000000E+00  0.00000000E+00
  0.00000000E+00  0.00000000E+00  0.00000000E+00
  0.00000000E+00  0.00000000E+00  0.00000000E+00
  0.00000000E+00  0.00000000E+00  0.00000000E+00
  0.00000000E+00  0.00000000E+00  0.00000000E+00
  0.00000000E+00  0.00000000E+00  0.00000000E+00
  0.00000000E+00  0.00000000E+00  0.00000000E+00
  0.00000000E+00  0.00000000E+00  0.00000000E+00