Amorphous Sb                            
   1.00000000000000     
    19.9267014927297197    0.0000000000000000    0.0000000000000000
     0.0000000000000000   19.9267014927297197    0.0000000000000000
     0.0000000000000000    0.0000000000000000   19.9267014927297197
   Si   Se
   150   150
Direct
  0.1396797365568438  0.3907306954414136  0.2403182855179150
  0.7536352448989571  0.9518488453933568  0.9896490022298581
  0.2757797993489123  0.4472782124102306  0.5490321200716038
  0.8024182045644827  0.4560253592605068  0.0264952570131753
  0.3307597321059087  0.2061572776660888  0.3244240642078147
  0.1193860366556313  0.3718020575354737  0.0673815522699474
  0.4353807826330814  0.3392415045363733  0.4979721931841249
  0.2483810037660855  0.1413598407405926  0.1700306215571390
  0.6727924220458652  0.1851122351123476  0.2243478661535551
  0.5466209663689716  0.7846119320640269  0.0159650302846681
  0.3157801586838677  0.9232883644903400  0.0046786502295557
  0.7587688851672654  0.8114777878075637  0.4739071454037561
  0.8382466469751925  0.3393933989923509  0.1662672343784289
  0.2588392321816231  0.8389841789700531  0.1643958929099421
  0.7286252454041292  0.7975273292743342  0.9002906104339502
  0.8025901327444467  0.7021393656494225  0.3398669547305598
  0.4326084601312418  0.6046732881008040  0.2653491635504788
  0.9458185630439855  0.3985990254642110  0.9439844813592354
  0.6696680506707807  0.5133597485261159  0.1218366529860795
  0.6466346882049600  0.6512128908415237  0.7687227520839313
  0.1870476892404582  0.1857207572418647  0.7941205212728708
  0.9603287906532614  0.1086617589682374  0.4321044736560309
  0.7977690400443745  0.9643948008088742  0.2129358221196332
  0.9528715240297320  0.3417723811897163  0.6059093558993192
  0.7492642178262194  0.3146030946848709  0.5733399694561366
  0.5832390701991654  0.4090368793921584  0.8316730882832264
  0.9560468546746406  0.7359070809811029  0.6215622507951081
  0.3627852173835918  0.0189622442215740  0.8726782785502568
  0.6400771916751345  0.4473810438946997  0.9515003557180367
  0.3422431740166424  0.5061514774496937  0.4730704550891650
  0.7647893538923919  0.5296253704731146  0.4128588615196854
  0.3184596584634935  0.6738562327377525  0.5133398054182453
  0.6030443704011405  0.0114848132310026  0.2814259087840548
  0.8894818204867178  0.7342798515399453  0.4190681367985548
  0.5745644384328707  0.4977214522067817  0.6723881774923710
  0.9717930531181627  0.4432683472154041  0.1369233153646045
  0.9081834112087949  0.6949168866142941  0.8924234802420454
  0.1508564067414284  0.8775166881818869  0.1400058663876926
  0.3037910208064215  0.3775741784829620  0.3448409766340957
  0.5014620612734615  0.4101809118293115  0.2268231824651299
  0.2837509010716606  0.2484281686671215  0.8161874188042056
  0.6406014635388498  0.2166845396082988  0.7034333687841606
  0.9186248213126184  0.6544402725763752  0.2050588108049113
  0.3174018063165399  0.2349194317548258  0.2058348442458868
  0.9849134215582196  0.8554085592610249  0.1973531430649738
  0.8484088550841523  0.4539238041085233  0.1347847974878115
  0.2587251320154653  0.6388520159377220  0.6080223303688223
 -0.0007577826310001  0.3678044900832118  0.0487288918607099
  0.1401335194398216  0.4578889276795043  0.3395343301273049
  0.1476189682554254  0.8418101636882110  0.4248242046116750
  0.8580415486651437  0.7958994401760009  0.6602140474159597
  0.9640588512888393  0.2883501616408539  0.4989289018563228
  0.9723439695915275  0.0754026805976168  0.7968899679989790
  0.7196075311948400  0.7804128908921377  0.0204245574555741
  0.7049483227592587  0.5240558305723353  0.0114395047958893
  0.6506390914655266  0.6975306951593324  0.8851618544545785
  0.8093366451079392  0.6497489889972702  0.1551437404331921
  0.5856095019885226  0.2417891972979930  0.5921209797089948
  0.9789374047172142  0.0056404425548337  0.4906727350342656
  0.0510595757168126  0.7240050521306256  0.6939955403037580
  0.7141308812267554  0.6308612167873930  0.9649881203946251
  0.0579191221107520  0.1442842413999195  0.3757066784795957
  0.9581919760498494  0.8259426634658372  0.4540419175744339
  0.0195958411937797  0.6152959787841057  0.7300460586683235
  0.2710433953603901  0.0763392783926103  0.9212642015758106
  0.0621627140073158  0.2223680924335759  0.7227001045227766
  0.3741406411651116  0.4977180081604495  0.1088792434036709
  0.6418637675995567  0.8744633184471364  0.1370725917901891
  0.4743201989118304  0.0294107359795846  0.7457561241790690
  0.6204851731124850  0.9647581460979585  0.8586307756047357
  0.3873482159683123  0.3018224734468170  0.3801666535910152
  0.0394151968455903  0.4191316864736530  0.3988324863997534
  0.8867797626796154  0.6209594674842599  0.3167386145116764
  0.2938413463498546  0.5270232159422020  0.6347064393989396
  0.2500878489711323  0.6339653548591445  0.9025107716450070
  0.2384077550333692  0.6349467625851341  0.2717501701737687
  0.8276085183637747  0.7186322365369440  0.5205884242505368
  0.8228915739997381  0.5484250637407317  0.6868243479223431
  0.0193439773191362  0.3673531503392895  0.2200393871753839
  0.4698728737473981  0.5194428251857666  0.1875505263034373
  0.5688065971863588  0.9060829588877156  0.0500577799876752
  0.6277017771226868  0.7162891925760176  0.0628811060027591
  0.7754962927788867  0.7312416507703621  0.7210499681108963
  0.9124607119581191  0.5787744149748832  0.8545756432611070
  0.6468425929918968  0.0762052227588624  0.1945043818001355
  0.3360035840643052  0.0892124322736313  0.3537042536649525
  0.3319125865991245  0.7601544855007880  0.4342078723781745
  0.6161183402244157  0.2587625455232745  0.1483453393622186
  0.4527715393607316  0.3281072297892791  0.0467135980204685
  0.7062862958953010  0.1347507641916863  0.6396180128501395
  0.1970731973148639  0.1757177806894564  0.0644434279440987
  0.8707788991914652  0.5561580941674544  0.5775998003660389
  0.4299808321481585  0.8872220275329502  0.6438008932437935
  0.8779738936830322  0.1222945617732025  0.3447411562004458
  0.6653789234551627  0.3303833439895018  0.9625624437164645
  0.0912435002627780  0.4795094421149335  0.8297807994800193
  0.6328288985544862  0.9759376896949292  0.9763638575646129
  0.6129372978270692  0.0736903663904519  0.5945214795199992
  0.5304629611273669  0.5045610550490131  0.5608107996896488
  0.5658859726171322  0.0782752224276188  0.1077413802592256
  0.0549494296318937  0.5263917835501503  0.1194484711241117
  0.8213024484869458  0.3775440492131719  0.5001694440016557
  0.6565668932030788  0.7526337878306323  0.4579854549368275
  0.6656954260048500  0.1518509012269228  0.8498479981410259
  0.9059210215303347  0.0182665810526654  0.9183877930428660
  0.5686806057481512  0.8875222810153367  0.5131912012982439
  0.2869082019716048  0.1756333533045775  0.9848622263940676
  0.3762961491705654  0.9761991819310559  0.7009650779628727
  0.9115340702185571  0.4442171203643546  0.5505715177057533
  0.7821525165129793  0.3437494647688976  0.9916575388458623
  0.9842983587375613  0.7679439281122288  0.7762730570186424
  0.2463965023764059  0.3274615468990612  0.2483243530569702
  0.6502577978607538  0.3303950034717641  0.2369048635756034
  0.9439668705699831  0.2800384219281170  0.1832340407537806
  0.6922579891877954  0.5848127579365694  0.5876438141412038
  0.1528690658099591  0.4584362501935138  0.1456754855681133
  0.7200128275693247  0.6614951780351044  0.4175075078766498
  0.4613194772756512  0.6471089258072091  0.9716807127273909
  0.7336323442392385  0.6251374249537507  0.6928762110044501
  0.4030339097431459  0.6878169563597133  0.7307502388176114
  0.5700864137269176  0.2019401938923327  0.8041488918451888
  0.7877712707842838  0.2036616645194378  0.2523722244808329
  0.2694534058168125  0.8435750166594510  0.2826994529025194
  0.0678739334846422  0.0115960122330225  0.9018726578343752
  0.2140744600057864  0.7754143676211419  0.0118598311551837
  0.5851335259668861  0.8945452507194852  0.3928697369089496
  0.5840770870357299  0.2995265711654068  0.8778764849831843
  0.7852938751706489  0.3517972630416528  0.6787746245307217
  0.1988361844646158  0.0473374608532424  0.2321908050402111
  0.9192541918936664  0.1739022469214767  0.2414678495155206
  0.7897324062760155  0.6886763760515747  0.0393386667579818
  0.3087799755633193  0.0152236290520204  0.2648242454124879
  0.2106612841682194  0.8598731989348631  0.5284052785542644
  0.7023270692854516  0.8988008453707579  0.4215552210900556
  0.7804551808305941  0.6018481972887655  0.5090011189918435
  0.3679523941922415  0.6626792265357798  0.8924172002663538
  0.2660595422987715  0.6072960781038821  0.7873971183934209
  0.4905107657268027  0.7194554236922859  0.3532370379783003
  0.2673443314739543  0.7343171482474935  0.1131275866035441
  0.1612684771083443  0.0599976570012726  0.4349834288149985
  0.8062592326318609  0.7291836147380992  0.8398472850576744
  0.2677951353199974  0.7351003191850622  0.3378113051928243
  0.8304948925585540 -0.0060657464042005  0.5877235046544529
  0.1390211266867693  0.5222468114674357  0.6372105480278516
  0.1350258819966687  0.4875960326977492  0.9393000702699444
  0.4225333951750627  0.5463089759766870  0.5544234467517639
  0.3781647731535816  0.6857793603555805  0.1199089955656939
  0.7411343736955378  0.0076760879188769  0.4044739616042572
  0.4077676476001877  0.2318839294707237  0.1094661438506199
  0.9127465456957606  0.9887359673091941  0.1855831786354684
  0.2465319283790220  0.5229129472894002  0.9374522728018588
  0.2305615040271439  0.0024928247527613  0.0013806995256634
  0.5350387355168981  0.4792921468331399  0.9122347638754683
  0.8836522402340053  0.2898392357433418  0.6818861820532195
  0.2186815129061399  0.2414685485200976  0.3275080899473636
  0.9011565224137206  0.6931963047600174  0.0102884981967526
  0.7091470236454829  0.3014968803094386  0.7505597283538672
  0.3936401814926942  0.4236997243906676  0.0182234798735494
  0.7467341086629565  0.7098097415941331  0.2329749818535949
  0.4444143525120364  0.7908984239703036  0.4282198307476797
  0.9053035976266082  0.9278815778766949  0.4451941780578227
  0.7846288767867687  0.1837221687123613  0.3687938661112329
  0.4433425518201063  0.7188511799967559  0.2440845698652216
  0.1436137762962981  0.5772292861544674  0.3199493884952431
  0.8263244419477173  0.0414957749160606  0.0032470035769350
  0.9530766993428093  0.9144668302033303  0.1032967956697194
  0.9788051993642387  0.9351655128109572  0.9379992947094640
  0.9641714678445916  0.1600373497549743  0.7179988394869296
  0.4275773092940425  0.6606034093927324  0.5497028286955590
  0.7867626268937851  0.0566868994729344  0.6769535924280844
  0.3467154051636927  0.8985890643804441  0.1151247489764514
  0.3750057917959103  0.5725736104784305  0.8137760749822043
  0.1449866472674009  0.6262451049712445  0.5893062717950150
  0.5394525411239876  0.7399189959950712  0.9040921141413414
  0.5356213182975770  0.3725710584711358  0.1184558723104023
  0.4645848932647541  0.7867850093674351  0.6686246360716903
  0.8640077841828230  0.3200401882160548  0.9134727396058564
  0.4018028059477737  0.5076275983406104  0.6635704411839117
  0.0679793459597450  0.3196765441834555  0.4536455041163353
  0.6076863549727543  0.7690246788239102  0.1675043571591328
  0.3763453378678883  0.2271769202947422  0.7539887557465005
  0.8664534925776979  0.0292888007603425  0.8099203636488579
  0.3626362078994995  0.9146036715017244  0.2936486828991020
  0.7710016078216722  0.3259565205320141  0.2640075363801250
  0.8447428664878279  0.4428526195936078  0.7286779593772423
  0.2943421565853233  0.2766761963276873  0.9269951719954338
  0.0262041608783207  0.2180957969026714  0.2975137296682754
  0.7801625932752850  0.6118264269956408  0.8643262431551439
  0.4296900485132915  0.7527193436402082  0.0277271605712573
  0.9832833421313784  0.1104989405787851  0.9099718025926392
  0.1375269295552207  0.1696192258436580  0.4570081983009213
  0.6591396942215229  0.7542604317021918  0.7094297501585789
  0.1266884860032805  0.8518596294090723  0.0288116064792205
  0.7488895100331376  0.0511535762351184  0.1465512135585502
  0.6259878690774791  0.2466517477183050  0.0348059256339356
  0.4784209792327927  0.2886503787057699  0.9372978455644436
  0.0861566300917276  0.8027980874490166  0.2005595887609903
  0.1653763290302823  0.2774989670307302  0.1214655409871645
  0.7806691785915457  0.8356079516090624  0.3562930383836668
  0.9107351888170930  0.8519280665652509  0.7516337981662622
  0.9556575010805332  0.6353556138091160  0.5592669468203055
  0.6447248438809792  0.9639458065181683  0.5670661645530393
  0.2692848196357281  0.4400126684036778  0.1212521042379812
  0.5204054960443404  0.4207036965353989  0.4772312413276522
  0.0970230793020901  0.9882075826429724  0.5057016440175093
  0.6388376323354615  0.3333018773687280  0.5450474587438269
  0.2337101036702760  0.9276197795744902  0.6229428407959234
  0.0589287197146870  0.3178109136235129  0.6516157689468657
  0.7545205158657399  0.8738962871390332  0.0882115520621415
  0.6707841909681099  0.5723380807017299  0.3609742616836761
  0.9992899141607325  0.4044369543322385  0.8420809611389178
  0.5120971671005423  0.1827798354965380  0.1565405750966614
  0.3098818919803888  0.8668439014258598  0.4694284620173165
  0.4401031179370365  0.3200203888363809  0.2696182273830122
  0.5891771105568790  0.7768104838971157  0.5501227787125474
  0.0020261442262941  0.7661347325730605  0.8882660321780360
  0.2759172597736683  0.0442620204671216  0.4481190398213926
  0.0256408807838050  0.6341528469658787  0.1623838917558527
  0.2901748106263847  0.8279200025396635  0.9428945952867025
  0.1118670253120325  0.0470799353828116  0.3273280186269420
  0.3251531731885956  0.5602265585990971  0.2546965621300141
  0.9724490412611554  0.2567727362481728  0.0729584382599457
  0.9648650502551213  0.4132712533894040  0.3109683065505348
  0.5169699001305172  0.0965171693294591  0.6599233520026357
  0.1326061904564935  0.9938955061875343  0.1522444497528593
  0.3919855883627698  0.1491054869773356  0.0291710764248656
  0.1594640452791356  0.1739665175201762  0.6825001200263636
  0.6404093510769004  0.0629119403010342  0.3797388227855061
  0.2201346224293385  0.5066647187074168  0.7289553016241291
  0.7916799412131974  0.0598543198294230  0.4957739055093475
  0.0157058270588815  0.8072501329031816  0.5519264975252227
  0.3292097292127693  0.3440161488910832  0.5555865368898422
  0.1798615741903370  0.7884065121252675  0.6077488108697714
  0.0421911263532011  0.8347975184367742  0.3766048847210410
  0.9072950143254177  0.7717757846760537  0.2253030734645205
  0.8547977040266928  0.5123487553884878  0.3431178620117698
  0.1159860163418205  0.1280229568167441  0.0092913014036715
  0.6394522097316758  0.9050517053367050  0.2520312325011015
  0.4156009076131991  0.9605042795485016  0.9583769600007419
  0.6920618327723913  0.4027046412585566  0.1224119257577398
  0.3853906043209786  0.7562431814677001  0.8255355248072277
  0.1786199820926155  0.7290548586278077  0.4128222042784457
  0.8968476550016303  0.5014364784362860  0.9724689752086659
  0.3230424577109098  0.9390505769630613  0.7961830852377290
  0.6540145145169888  0.8579153183939068  0.8308095065619437
  0.4488788379010760  0.0764968908749873  0.3839358496991518
  0.2141976184231037  0.4062273741611320  0.4130654094814752
  0.1819325193194879  0.9013939855579047  0.3298697979799787
  0.6883120389551202  0.0435335862140461  0.8101675326264671
  0.9453885514869329  0.0112131118237749  0.6019921802023206
  0.3398315258363093  0.0659187016468069  0.1628382533956824
  0.3094030661801362  0.3333832371813454  0.7451186693717805
  0.3508990367568777  0.5950745787104786  0.0473432516037380
  0.5916219107071561  0.5987148179723529  0.5297651932266451
  0.0324286812716834  0.5103424723015985  0.6760516455261155
  0.5000901964574413  0.9816510447978681  0.1146219378096485
  0.8275958774546788  0.0132607638158358  0.3225969067804983
  0.7897913638092428  0.2713595490405560  0.0856963742487699
  0.6126340931970367  0.0880736218521307  0.0017603628998325
  0.5651102142969929  0.5687532280288549  0.1348149704534977
  0.5241722409036729  0.9381040010371384  0.7959635422425481
  0.9526701197509788  0.0968635938120181  0.1594393510574577
  0.9004132254805138  0.6273922905747779  0.7352923507464149
  0.1637668015752155  0.3776173391177989  0.9621644854256989
  0.7919769426073999  0.8815095770447444  0.6079872678859964
  0.6191221131973738  0.2423888083149535  0.3104242190897092
  0.4649196158651807  0.9341666917453297  0.5461818240783958
  0.1934106765944509  0.6594900622822248  0.1667383232824205
  0.6021752940524600  0.4268858559367487  0.2822011405967195
  0.0553203918864384  0.0034139673789599  0.7775674780634836
  0.6849432667866672  0.4793997906011794  0.6396008360297812
  0.0940737468855715  0.2445415098058552  0.8318130677088563
  0.1604697496059647  0.4327559549354867  0.5665333133291844
  0.8812217518788948  0.3156896831019071  0.4238002349776465
  0.4710540254010099  0.2736576651930056  0.5898001642507897
  0.6934618359693407  0.4454123560891365  0.8454058916118585
  0.9590734402770088  0.1758566767875937  0.5271000676279789
  0.9905653591346510  0.4910754151493355  0.4759977123615368
  0.9720880169284369  0.6589042702542903  0.3840143310465035
  0.0644139474920579  0.5520458479468359  0.0066450491429575
  0.5848257584648551  0.1517494407401764  0.5139885686745956
  0.2717983048040378  0.6977481407146011  0.7094286368501607
  0.5350401540920195  0.4041100507413003  0.7263639563143756
  0.4873956286180381  0.0301867297785960  0.2758568101633987
  0.3114749698699180  0.0286496456176063  0.6225598150523739
  0.8110774948463798  0.8882606624982915  0.9158511620421362
  0.5489947864673528  0.5933516418159586  0.7364667539010685
  0.0492114844834848  0.5931560557053045  0.8399440859378773
  0.7310233542724590  0.4239425039586638  0.4429494270906332
  0.1625152405114361  0.6991262543103739  0.9398912859124192
  0.4364768937453328  0.1001096930096309  0.8300390543082604
  0.2758134119914084  0.5936667433300495  0.4409932210239834
  0.4855328094240662  0.6052548257072292  0.3709324027594432
  0.7725954318192797  0.5388934832517283  0.1890530563887180
  0.7469591369230137  0.1871152240504960  0.9110468211856777
  0.3888253632154510  0.4569110560068642  0.3786764067621284
  0.9697717298303742  0.9384309730915479  0.2751659185083753
  0.2023288146420240  0.0769209391562344  0.8277815361528064
  0.5993939060012041  0.7738174282361087  0.3553655052569745
  0.7719182555438812  0.2008357072487694  0.5666801242544283
 
  0.00000000E+00  0.00000000E+00  0.00000000E+00
  0.00000000E+00  0.00000000E+00  0.00000000E+00
  0.00000000E+00  0.00000000E+00  0.00000000E+00
  0.00000000E+00  0.00000000E+00  0.00000000E+00
  0.00000000E+00  0.00000000E+00  0.00000000E+00
  0.00000000E+00  0.00000000E+00  0.00000000E+00
  0.00000000E+00  0.00000000E+00  0.00000000E+00
  0.00000000E+00  0.00000000E+00  0.00000000E+00
  0.00000000E+00  0.00000000E+00  0.00000000E+00
  0.00000000E+00  0.00000000E+00  0.00000000E+00
  0.00000000E+00  0.00000000E+00  0.00000000E+00
  0.00000000E+00  0.00000000E+00  0.00000000E+00
  0.00000000E+00  0.00000000E+00  0.00000000E+00
  0.00000000E+00  0.00000000E+00  0.00000000E+00
  0.00000000E+00  0.00000000E+00  0.00000000E+00
  0.00000000E+00  0.00000000E+00  0.00000000E+00
  0.00000000E+00  0.00000000E+00  0.00000000E+00
  0.00000000E+00  0.00000000E+00  0.00000000E+00
  0.00000000E+00  0.00000000E+00  0.00000000E+00
  0.00000000E+00  0.00000000E+00  0.00000000E+00
  0.00000000E+00  0.00000000E+00  0.00000000E+00
  0.00000000E+00  0.00000000E+00  0.00000000E+00
  0.00000000E+00  0.00000000E+00  0.00000000E+00
  0.00000000E+00  0.00000000E+00  0.00000000E+00
  0.00000000E+00  0.00000000E+00  0.00000000E+00
  0.00000000E+00  0.00000000E+00  0.00000000E+00
  0.00000000E+00  0.00000000E+00  0.00000000E+00
  0.00000000E+00  0.00000000E+00  0.00000000E+00
  0.00000000E+00  0.00000000E+00  0.00000000E+00
  0.00000000E+00  0.00000000E+00  0.00000000E+00
  0.00000000E+00  0.00000000E+00  0.00000000E+00
  0.00000000E+00  0.00000000E+00  0.00000000E+00
  0.00000000E+00  0.00000000E+00  0.00000000E+00
  0.00000000E+00  0.00000000E+00  0.00000000E+00
  0.00000000E+00  0.00000000E+00  0.00000000E+00
  0.00000000E+00  0.00000000E+00  0.00000000E+00
  0.00000000E+00  0.00000000E+00  0.00000000E+00
  0.00000000E+00  0.00000000E+00  0.00000000E+00
  0.00000000E+00  0.00000000E+00  0.00000000E+00
  0.00000000E+00  0.00000000E+00  0.00000000E+00
  0.00000000E+00  0.00000000E+00  0.00000000E+00
  0.00000000E+00  0.00000000E+00  0.00000000E+00
  0.00000000E+00  0.00000000E+00  0.00000000E+00
  0.00000000E+00  0.00000000E+00  0.00000000E+00
  0.00000000E+00  0.00000000E+00  0.00000000E+00
  0.00000000E+00  0.00000000E+00  0.00000000E+00
  0.00000000E+00  0.00000000E+00  0.00000000E+00
  0.00000000E+00  0.00000000E+00  0.00000000E+00
  0.00000000E+00  0.00000000E+00  0.00000000E+00
  0.00000000E+00  0.00000000E+00  0.00000000E+00
  0.00000000E+00  0.00000000E+00  0.00000000E+00
  0.00000000E+00  0.00000000E+00  0.00000000E+00
  0.00000000E+00  0.00000000E+00  0.00000000E+00
  0.00000000E+00  0.00000000E+00  0.00000000E+00
  0.00000000E+00  0.00000000E+00  0.00000000E+00
  0.00000000E+00  0.00000000E+00  0.00000000E+00
  0.00000000E+00  0.00000000E+00  0.00000000E+00
  0.00000000E+00  0.00000000E+00  0.00000000E+00
  0.00000000E+00  0.00000000E+00  0.00000000E+00
  0.00000000E+00  0.00000000E+00  0.00000000E+00
  0.00000000E+00  0.00000000E+00  0.00000000E+00
  0.00000000E+00  0.00000000E+00  0.00000000E+00
  0.00000000E+00  0.00000000E+00  0.00000000E+00
  0.00000000E+00  0.00000000E+00  0.00000000E+00
  0.00000000E+00  0.00000000E+00  0.00000000E+00
  0.00000000E+00  0.00000000E+00  0.00000000E+00
  0.00000000E+00  0.00000000E+00  0.00000000E+00
  0.00000000E+00  0.00000000E+00  0.00000000E+00
  0.00000000E+00  0.00000000E+00  0.00000000E+00
  0.00000000E+00  0.00000000E+00  0.00000000E+00
  0.00000000E+00  0.00000000E+00  0.00000000E+00
  0.00000000E+00  0.00000000E+00  0.00000000E+00
  0.00000000E+00  0.00000000E+00  0.00000000E+00
  0.00000000E+00  0.00000000E+00  0.00000000E+00
  0.00000000E+00  0.00000000E+00  0.00000000E+00
  0.00000000E+00  0.00000000E+00  0.00000000E+00
  0.00000000E+00  0.00000000E+00  0.00000000E+00
  0.00000000E+00  0.00000000E+00  0.00000000E+00
  0.00000000E+00  0.00000000E+00  0.00000000E+00
  0.00000000E+00  0.00000000E+00  0.00000000E+00
  0.00000000E+00  0.00000000E+00  0.00000000E+00
  0.00000000E+00  0.00000000E+00  0.00000000E+00
  0.00000000E+00  0.00000000E+00  0.00000000E+00
  0.00000000E+00  0.00000000E+00  0.00000000E+00
  0.00000000E+00  0.00000000E+00  0.00000000E+00
  0.00000000E+00  0.00000000E+00  0.00000000E+00
  0.00000000E+00  0.00000000E+00  0.00000000E+00
  0.00000000E+00  0.00000000E+00  0.00000000E+00
  0.00000000E+00  0.00000000E+00  0.00000000E+00
  0.00000000E+00  0.00000000E+00  0.00000000E+00
  0.00000000E+00  0.00000000E+00  0.00000000E+00
  0.00000000E+00  0.00000000E+00  0.00000000E+00
  0.00000000E+00  0.00000000E+00  0.00000000E+00
  0.00000000E+00  0.00000000E+00  0.00000000E+00
  0.00000000E+00  0.00000000E+00  0.00000000E+00
  0.00000000E+00  0.00000000E+00  0.00000000E+00
  0.00000000E+00  0.00000000E+00  0.00000000E+00
  0.00000000E+00  0.00000000E+00  0.00000000E+00
  0.00000000E+00  0.00000000E+00  0.00000000E+00
  0.00000000E+00  0.00000000E+00  0.00000000E+00
  0.00000000E+00  0.00000000E+00  0.00000000E+00
  0.00000000E+00  0.00000000E+00  0.00000000E+00
  0.00000000E+00  0.00000000E+00  0.00000000E+00
  0.00000000E+00  0.00000000E+00  0.00000000E+00
  0.00000000E+00  0.00000000E+00  0.00000000E+00
  0.00000000E+00  0.00000000E+00  0.00000000E+00
  0.00000000E+00  0.00000000E+00  0.00000000E+00
  0.00000000E+00  0.00000000E+00  0.00000000E+00
  0.00000000E+00  0.00000000E+00  0.00000000E+00
  0.00000000E+00  0.00000000E+00  0.00000000E+00
  0.00000000E+00  0.00000000E+00  0.00000000E+00
  0.00000000E+00  0.00000000E+00  0.00000000E+00
  0.00000000E+00  0.00000000E+00  0.00000000E+00
  0.00000000E+00  0.00000000E+00  0.00000000E+00
  0.00000000E+00  0.00000000E+00  0.00000000E+00
  0.00000000E+00  0.00000000E+00  0.00000000E+00
  0.00000000E+00  0.00000000E+00  0.00000000E+00
  0.00000000E+00  0.00000000E+00  0.00000000E+00
  0.00000000E+00  0.00000000E+00  0.00000000E+00
  0.00000000E+00  0.00000000E+00  0.00000000E+00
  0.00000000E+00  0.00000000E+00  0.00000000E+00
  0.00000000E+00  0.00000000E+00  0.00000000E+00
  0.00000000E+00  0.00000000E+00  0.00000000E+00
  0.00000000E+00  0.00000000E+00  0.00000000E+00
  0.00000000E+00  0.00000000E+00  0.00000000E+00
  0.00000000E+00  0.00000000E+00  0.00000000E+00
  0.00000000E+00  0.00000000E+00  0.00000000E+00
  0.00000000E+00  0.00000000E+00  0.00000000E+00
  0.00000000E+00  0.00000000E+00  0.00000000E+00
  0.00000000E+00  0.00000000E+00  0.00000000E+00
  0.00000000E+00  0.00000000E+00  0.00000000E+00
  0.00000000E+00  0.00000000E+00  0.00000000E+00
  0.00000000E+00  0.00000000E+00  0.00000000E+00
  0.00000000E+00  0.00000000E+00  0.00000000E+00
  0.00000000E+00  0.00000000E+00  0.00000000E+00
  0.00000000E+00  0.00000000E+00  0.00000000E+00
  0.00000000E+00  0.00000000E+00  0.00000000E+00
  0.00000000E+00  0.00000000E+00  0.00000000E+00
  0.00000000E+00  0.00000000E+00  0.00000000E+00
  0.00000000E+00  0.00000000E+00  0.00000000E+00
  0.00000000E+00  0.00000000E+00  0.00000000E+00
  0.00000000E+00  0.00000000E+00  0.00000000E+00
  0.00000000E+00  0.00000000E+00  0.00000000E+00
  0.00000000E+00  0.00000000E+00  0.00000000E+00
  0.00000000E+00  0.00000000E+00  0.00000000E+00
  0.00000000E+00  0.00000000E+00  0.00000000E+00
  0.00000000E+00  0.00000000E+00  0.00000000E+00
  0.00000000E+00  0.00000000E+00  0.00000000E+00
  0.00000000E+00  0.00000000E+00  0.00000000E+00
  0.00000000E+00  0.00000000E+00  0.00000000E+00
  0.00000000E+00  0.00000000E+00  0.00000000E+00
  0.00000000E+00  0.00000000E+00  0.00000000E+00
  0.00000000E+00  0.00000000E+00  0.00000000E+00
  0.00000000E+00  0.00000000E+00  0.00000000E+00
  0.00000000E+00  0.00000000E+00  0.00000000E+00
  0.00000000E+00  0.00000000E+00  0.00000000E+00
  0.00000000E+00  0.00000000E+00  0.00000000E+00
  0.00000000E+00  0.00000000E+00  0.00000000E+00
  0.00000000E+00  0.00000000E+00  0.00000000E+00
  0.00000000E+00  0.00000000E+00  0.00000000E+00
  0.00000000E+00  0.00000000E+00  0.00000000E+00
  0.00000000E+00  0.00000000E+00  0.00000000E+00
  0.00000000E+00  0.00000000E+00  0.00000000E+00
  0.00000000E+00  0.00000000E+00  0.00000000E+00
  0.00000000E+00  0.00000000E+00  0.00000000E+00
  0.00000000E+00  0.00000000E+00  0.00000000E+00
  0.00000000E+00  0.00000000E+00  0.00000000E+00
  0.00000000E+00  0.00000000E+00  0.00000000E+00
  0.00000000E+00  0.00000000E+00  0.00000000E+00
  0.00000000E+00  0.00000000E+00  0.00000000E+00
  0.00000000E+00  0.00000000E+00  0.00000000E+00
  0.00000000E+00  0.00000000E+00  0.00000000E+00
  0.00000000E+00  0.00000000E+00  0.00000000E+00
  0.00000000E+00  0.00000000E+00  0.00000000E+00
  0.00000000E+00  0.00000000E+00  0.00000000E+00
  0.00000000E+00  0.00000000E+00  0.00000000E+00
  0.00000000E+00  0.00000000E+00  0.00000000E+00
  0.00000000E+00  0.00000000E+00  0.00000000E+00
  0.00000000E+00  0.00000000E+00  0.00000000E+00
  0.00000000E+00  0.00000000E+00  0.00000000E+00
  0.00000000E+00  0.00000000E+00  0.00000000E+00
  0.00000000E+00  0.00000000E+00  0.00000000E+00
  0.00000000E+00  0.00000000E+00  0.00000000E+00
  0.00000000E+00  0.00000000E+00  0.00000000E+00
  0.00000000E+00  0.00000000E+00  0.00000000E+00
  0.00000000E+00  0.00000000E+00  0.00000000E+00
  0.00000000E+00  0.00000000E+00  0.00000000E+00
  0.00000000E+00  0.00000000E+00  0.00000000E+00
  0.00000000E+00  0.00000000E+00  0.00000000E+00
  0.00000000E+00  0.00000000E+00  0.00000000E+00
  0.00000000E+00  0.00000000E+00  0.00000000E+00
  0.00000000E+00  0.00000000E+00  0.00000000E+00
  0.00000000E+00  0.00000000E+00  0.00000000E+00
  0.00000000E+00  0.00000000E+00  0.00000000E+00
  0.00000000E+00  0.00000000E+00  0.00000000E+00
  0.00000000E+00  0.00000000E+00  0.00000000E+00
  0.00000000E+00  0.00000000E+00  0.00000000E+00
  0.00000000E+00  0.00000000E+00  0.00000000E+00
  0.00000000E+00  0.00000000E+00  0.00000000E+00
  0.00000000E+00  0.00000000E+00  0.00000000E+00
  0.00000000E+00  0.00000000E+00  0.00000000E+00
  0.00000000E+00  0.00000000E+00  0.00000000E+00
  0.00000000E+00  0.00000000E+00  0.00000000E+00
  0.00000000E+00  0.00000000E+00  0.00000000E+00
  0.00000000E+00  0.00000000E+00  0.00000000E+00
  0.00000000E+00  0.00000000E+00  0.00000000E+00
  0.00000000E+00  0.00000000E+00  0.00000000E+00
  0.00000000E+00  0.00000000E+00  0.00000000E+00
  0.00000000E+00  0.00000000E+00  0.00000000E+00
  0.00000000E+00  0.00000000E+00  0.00000000E+00
  0.00000000E+00  0.00000000E+00  0.00000000E+00
  0.00000000E+00  0.00000000E+00  0.00000000E+00
  0.00000000E+00  0.00000000E+00  0.00000000E+00
  0.00000000E+00  0.00000000E+00  0.00000000E+00
  0.00000000E+00  0.00000000E+00  0.00000000E+00
  0.00000000E+00  0.00000000E+00  0.00000000E+00
  0.00000000E+00  0.00000000E+00  0.00000000E+00
  0.00000000E+00  0.00000000E+00  0.00000000E+00
  0.00000000E+00  0.00000000E+00  0.00000000E+00
  0.00000000E+00  0.00000000E+00  0.00000000E+00
  0.00000000E+00  0.00000000E+00  0.00000000E+00
  0.00000000E+00  0.00000000E+00  0.00000000E+00
  0.00000000E+00  0.00000000E+00  0.00000000E+00
  0.00000000E+00  0.00000000E+00  0.00000000E+00
  0.00000000E+00  0.00000000E+00  0.00000000E+00
  0.00000000E+00  0.00000000E+00  0.00000000E+00
  0.00000000E+00  0.00000000E+00  0.00000000E+00
  0.00000000E+00  0.00000000E+00  0.00000000E+00
  0.00000000E+00  0.00000000E+00  0.00000000E+00
  0.00000000E+00  0.00000000E+00  0.00000000E+00
  0.00000000E+00  0.00000000E+00  0.00000000E+00
  0.00000000E+00  0.00000000E+00  0.00000000E+00