Ge Se                                   
   1.00000000000000     
    20.2740058898925781    0.0000000000000000    0.0000000000000000
     0.0000000000000000   20.2740058898925781    0.0000000000000000
     0.0000000000000000    0.0000000000000000   20.2740058898925781
   Ge   Se
   150   150
Direct
  0.3343708947672302  0.7475200078834303 -0.0018744980066809
  0.0699449606461754  0.9181737341675544  0.3072501964843885
  0.8993934179482573  0.1387014580213534  0.4153882775337631
  0.9239254032063785  0.7865850845710221  0.8598442843491435
  0.8064124111340027  0.8043915487748684  0.0197703347733575
  0.5700637008374924  0.2542555259463909  0.4509083605341517
  0.7112202462593302  0.9902546234498527  0.5732745952110215
  0.0235272885932728  0.7665433676736075  0.1133573491729762
  0.8748116933509036  0.6264843650328890  0.3702709301709460
  0.9386699692130798  0.3126084468985540  0.3587288051474654
  0.7617494049610413  0.1364607614919335  0.7982887660281065
  0.6746292637953247  0.2224848001699023  0.1336969618340570
  0.6058837536005605  0.1611193153647503  0.5274183546957163
  0.4631910239838528  0.4299912577838740  0.6983220909141049
  0.1173082578027338  0.4806909181575810  0.8539110275691790
  0.2102738810904841  0.5654697858857305  0.9798260899213441
  0.3097825692076123  0.0901098616455038  0.8025638071335367
  0.2520398823671291  0.1303586472012379  0.2694731720472852
  0.7823855748236463  0.2619019951326869  0.4984418651502867
  0.9420277278270550  0.1847639106641505  0.8795894634835828
  0.9138426323416100  0.8465572628195391  0.1924497812070918
  0.2503888043380227  0.1728708597845304  0.6375133241150559
  0.4085828664292196  0.0100350314578846  0.6515921807657243
  0.3671681675416307  0.5792406272991076  0.2732980774851649
  0.3235011064894685  0.4698465494001368  0.8544385276456300
  0.7254713133703591  0.5993724937889607  0.6481316505758510
  0.4770632505595863  0.3900754901329139  0.4054285059939379
  0.0872595027726712  0.4810057590092681  0.5199984298109379
  0.6061407953126025  0.8662453763707424  0.6414352130225851
  0.5203551933962789  0.8807462172324659  0.9049017635897205
  0.0227523241481424  0.3663222350679830  0.1799136880594218
  0.6705596575299423  0.9600866017618505  0.4461566522548806
  0.2245979084284275  0.7877245797437681  0.1613590325113212
  0.5866356407149702  0.7798236836239799  0.8595357493773318
  0.7152865188593285  0.6136726601627467  0.8160976637083296
  0.7431168736829173  0.5627291287581533  0.4512520548662841
  0.7093246944432940  0.5440514582737994  0.9227068717001716
  0.7447427719869995  0.7302172170345754  0.8555771694771184
  0.3412821460529080  0.8217290054216930  0.6267065430719000
  0.5531101570289908  0.7708962151846959  0.0672542891340112
  0.7825722086815312  0.0752563240111324  0.4031597250408949
  0.1165518937654996  0.8211009037553600  0.6909213315386533
  0.7818442548853691  0.0509165600285792  0.9519112916082751
  0.9002581923481701  0.2511825368653691  0.2116553111167092
  0.0495152784003405  0.0841872456295434  0.7226839376554298
  0.8281664279352055  0.2359914149445226  0.0344639819138441
  0.7466881441096013  0.9964394364119714  0.1211071475943789
  0.0085255711878986  0.9182752421338186  0.7680431862923234
  0.8933112440608262 -0.0277880480724224  0.9437507477935057
  0.6845625213830593  0.7849967043901172  0.3400019346396442
  0.7402049426084116  0.7602907955997451  0.7296035143962487
  0.1522875952609930  0.4619453267354960  0.2161053942023308
  0.1499655599523324  0.7521467612243221  0.3831154761833390
  0.9286623998742192  0.6810249245029233  0.1998730655628920
  0.5084740031877506  0.9507932696932703  0.0905452201754132
  0.6609142702996906  0.4759172309153552  0.7625658352710127
  0.9147751706623525  0.0805119306068792  0.6537659124759390
  0.6665315791543798  0.1453982820217160  0.9547668585620583
  0.0012820608030261  0.7757635673613869  0.6635508680335271
  0.5912372007034832  0.0868006142607846  0.2182411982612529
  0.2031812836437443  0.5846749765671311  0.3264293903322276
  0.9819596151291018  0.8937551357010920  0.0016902212476439
  0.4493055697657211  0.9075357710181406  0.7983450368273686
  0.5995613632702350  0.7901454658549222  0.5047911173800387
  0.1950945630297626  0.5605933839279913  0.6510810754044342
  0.0799811287300287  0.6433229117475914  0.7951741307924516
  0.7950639590287495  0.0331688329905604  0.7294771225076921
  0.4676388182783166  0.1607460200610651  0.2164338695146980
  0.2994985682153840  0.4850394436834521  0.6689893775163965
  0.1554182283422558  0.7471830751062266  0.2564884579186900
  0.6241697704053449  0.6422761232236057  0.3547363765843554
  0.3317868079006838  0.9241887179860482  0.9536003857904621
  0.8045997549850705  0.9473015900522685  0.3228815383839170
  0.6409788631578324  0.9648918569325664  0.2069172222545311
  0.0461577584427761  0.7615013388281038  0.8951708595578899
  0.2719879417169635  0.6840260782381704  0.6615463017404954
  0.5281475112791324  0.0626285892772072  0.5184467693836156
  0.3223563201928922  0.1598869483409492  0.1344278658675630
  0.6554236580742049  0.4468549435093374  0.0368243957895803
  0.4513964559849868  0.3570538891288351  0.5875393437786429
  0.6137543811325140 -0.0017132831048583  0.7984603171910136
  0.9393804482960711  0.1005262831231367  0.7828948963596991
  0.4166320922697608  0.2022415952149429  0.5721973939544897
  0.0819498161391994  0.0945416939759166  0.9513030362777914
  0.0130125167769464  0.5102156927314270  0.0008811413352612
  0.1499697329034191  0.3185122320582963  0.1329252926234274
  0.9546728959851301  0.4112897979412612  0.8576048583010267
  0.3287662574565445  0.1184282120972970  0.9852335133875817
  0.6618301491417315  0.3731903335219079  0.6034469281144328
  0.9358011946525006  0.3661299139353699  0.4763039455566788
  0.1684099247693154  0.3572228067986048  0.3478479463521701
  0.0506220320606362  0.1498734786385550  0.5318450431688309
  0.0349993077755609  0.6002325461911482  0.4859335671215569
  0.0321421140189313  0.1672844355382866  0.0995009624063490
  0.6131680810366387  0.3679035230390869  0.4880456052004382
  0.3786241912094050  0.7863291320529633  0.8355739029686714
  0.8344839140931848  0.4347128469839454  0.0224214904250538
  0.2105186180364844  0.0318010868880398  0.0687564061185469
 -0.0009183825524971  0.1435914520785136  0.3391980015493649
  0.8279834323573863  0.5737130625459888  0.1268621843551845
  0.4512359305318852  0.3795281441324655  0.1497679500712283
  0.5185781590982449  0.4813301675460102  0.3016935911557875
  0.7498205574917006  0.5325971147678790  0.2967332572482079
  0.0654613615953835  0.0003884928282892  0.4648949284241332
  0.0050387158235004  0.5363253577478341  0.1801045854379340
  0.1450768126027968  0.0346460227061892  0.8534999446451340
  0.2313264891343578  0.7029997750227234  0.0700630583686187
  0.1001383235168228  0.6375262491017138  0.5970292314525164
  0.4874527615863807  0.0991085589290356  0.0510110824958886
  0.5722140730785512  0.2198813252342478  0.3302087049274370
  0.6864752475020703  0.9543341630506492  0.9941576053796363
  0.1888673013688527  0.6082389410306538  0.1411621474949594
  0.1980032574999603  0.1748893965927212  0.0611668435037823
  0.0387966010477809  0.7762793549106694  0.4653338256690630
  0.5641108979026327  0.6421362359562856  0.1831129314323805
  0.5820578072185258  0.3189883782225968  0.8135601073963880
  0.4087512491305135  0.3356560239724455  0.7613846056602044
  0.7228710149817820  0.1668469795009473  0.5846168679700273
  0.3246582050353048  0.8974412770118291  0.2542577565501342
  0.5340827011280769  0.5942408152670771  0.0381573023424038
  0.7453102930262999  0.6701268052469718  0.2436966056739410
  0.8726844779020025  0.6348771062354599  0.9725312564664396
  0.1698321362070144  0.0919218731374626  0.6907277716689052
  0.1973511572853776  0.9091906755064008  0.1247898807435139
  0.3646738018766836  0.4512009023525362  0.3902108394242119
  0.2175781667257617  0.1126413389734838  0.4391861003792021
  0.2898663922762795  0.2993283221317033  0.7536059724427013
  0.8894635008169020  0.8068716481552299  0.4048342603483192
  0.1866592480113297  0.3245718277596243  0.9565646471414498
  0.3011142825613771  0.8831221326956371  0.3784514498129523
  0.7017615799887615  0.4381873743438924  0.4323968077059070
  0.3519675466255769  0.1925410152495899  0.3668727222270965
  0.2360943455251549  0.3707242134369254  0.5231085061932151
  0.3984189722919150  0.9486109621031671  0.1592816271537344
  0.5425970569404432  0.2316574806952920  0.0810862084948582
  0.7226597726840754  0.8791933706425085  0.6968477569690336
  0.2820936250716714  0.2781997699526491  0.8765246879325238
  0.0202553025550649  0.4480231194745091  0.7044146924655874
  0.8182783330312069  0.7813323827733465  0.5607369388801748
  0.9175747845095132  0.0232014074509131  0.1698977280596720
  0.9162208632442862  0.3338952360518339  0.6849872325827104
  0.1578980969357230  0.8473000020050745  0.0082472058109585
  0.1875529299262292  0.8416004264515938  0.4909520862360914
  0.4660995906857183  0.8616553216300150  0.4953069620623207
  0.4633305926201441  0.6377204735470920  0.8787092170043719
  0.1520651077554502  0.9346470023479674  0.6222473003168196
  0.5561925257780769  0.0992390143544310  0.7178646168026181
  0.6118236336832225  0.3629668733607244  0.1804329665732074
  0.8847296925774540  0.6127444723705662  0.5378670105649026
  0.7698977647365736  0.3061991303801184  0.7060446584060811
  0.8154120031453201  0.0835393690529463  0.0626780173649766
  0.7763875560883853  0.3457955300925957  0.4086643072066976
  0.4509524074030569  0.2724029820786334  0.4620618936485321
  0.6545368154513241  0.1009779891370255  0.1140458767795980
  0.5610005224493110  0.8816841268660881  0.1783433503840825
  0.3172263540959632  0.9041209961557133  0.0779973367484639
  0.4701173408239555  0.8554773544605880  0.0157876967259399
  0.5855448625728138  0.9845164526401946  0.9241412464119678
  0.2947502610240943  0.7908654972387275  0.7337445499838697
  0.5351864007440290  0.4339671390318942  0.7948519710803164
  0.1008868291137639  0.5879420857006773  0.9181872428510078
  0.8194979886263293  0.1980690689209505  0.7069738624236911
  0.3576774794124709  0.1804286348341156  0.8805451594888337
  0.1859930344212256  0.5835853715058407  0.7700871790726365
  0.2716116172086964  0.7720638228587330  0.4221686476619920
  0.9149739644217205  0.9860360501099503  0.8193290570965457
  0.5444190927433663  0.9592934295400551  0.4527823888566592
  0.7089566172550302  0.8469668962574242  0.4713916527283545
  0.5376182389573176  0.4690168863398227  0.1782455184988534
  0.9069810708886349  0.2361818478663445  0.5016603294388510
  0.3512485693206513  0.1559779055316170  0.6995760965319335
  0.9668741992108869  0.1290860329423237  0.2209190864847193
  0.5706158036531431  0.8864259647849284  0.7637045177312232
  0.1188814462765404  0.7287026241280157  0.0261020042446743
  0.9273762708607686  0.5370650122811265  0.4400528427062864
  0.4442806057994224  0.8805061459027498  0.6274931491257452
  0.0065665712010969  0.9850518807807500  0.6599837014145442
  0.2080224780861603  0.2798545378781773  0.6705009052030995
  0.0615621706002768  0.3713208734462674  0.4775050375691612
  0.8276992342515103  0.8269857247318747  0.2895000838808550
  0.7912986979148418  0.5314352786467633  0.5617815107584234
  0.0361296587770374  0.8933105008420195  0.1098093652062370
  0.5238124881922035  0.2982472598411254  0.2502226564945472
  0.8347920423282980  0.8599564267482782  0.9031172036425237
  0.4349047714634882  0.5458569068522290  0.9814037500078866
  0.9632987964354623  0.0627291169619004  0.5038468890983864
  0.3648839485841673  0.5397671273100973  0.0780518016178284
  0.3828073474711031  0.9362846929499993  0.4443459756779746
  0.5697463072414060  0.7532767112274324  0.3879285366512680
  0.6502111304570946  0.2932336600883818  0.6970176657991305
  0.6534755806793907  0.1754700127760490  0.8319379015037475
  0.8921577721465797  0.5128904945768255  0.9379156765246507
  0.2744732510173046  0.1949767162707447  0.5234307831280653
  0.2210006988813781  0.3564249871465213  0.2291124909668988
  0.3453203270121039  0.4254363114509271  0.5703190096011027
  0.0496276094606772  0.4039979314504439  0.9390592100203629
  0.6288657904092750  0.7461521819463811  0.6756067276356119
  0.1334707112050812  0.7646660889928331  0.7966443810586625
  0.5425575968994807  0.6959347141009335  0.9597469088365266
  0.9159595391648195  0.3709967767486519  0.2530548378635482
  0.8066046820922578  0.6888413593224495  0.4691173227157534
  0.5507192671202832  0.3552487925835139  0.0629259558955747
  0.4201148176684277  0.0398114013847514  0.9671373611436199
  0.8199246656345692  0.1677347402408775  0.9018789600660120
  0.2061606236648380  0.4915406988443422  0.5061257919804624
  0.9195588312085723  0.8311121683036997  0.7368867577922180
  0.0202614690303959  0.3411154866612629  0.7585184223560644
  0.5347627218377974  0.0118304281267606  0.6293404250113840
  0.6333620747925536  0.6828571481244877  0.5596981441150457
  0.6610486390600701  0.4488188762958521  0.3174945697121992
  0.1075476339429410  0.6392332040679951  0.2254312629317329
  0.7031080620116655  0.2519060007481876  0.0123365159867865
  0.3538431997411324  0.7188136211393796  0.5742917739862486
  0.8019940670719360  0.0320143650764978  0.2293332158129182
  0.0749739415246181  0.8822092917182958  0.9179636610754545
  0.1892904093015788  0.1430710802749974  0.8083963482921586
  0.7936887840554405  0.2695995198477489  0.1534380765245741
  0.5164004475778096  0.4391241324668821  0.5137945788775065
  0.7847119123917998  0.3523876728374806  0.5918865972418217
  0.6089406462009315  0.5897839761947665  0.7710047611786683
  0.9626137173960015  0.4455402043968332  0.1073196823424424
  0.4712570980218356  0.7114851033838474  0.1380090563614579
  0.8768133655346602  0.3317800114326213  0.9699242112496411
  0.4137644911994208  0.0925744595803316  0.5137505113065653
  0.3973532276188215  0.5310791158408129  0.7180761680093082
  0.6762862304706037  0.9160790794819225  0.3145529803397396
  0.9691300741322922  0.6216237082405274  0.0958049014703289
  0.3788350996450862  0.3589341950002989  0.8800938613571881
  0.5469153201301723  0.1792439537707859  0.9663897775324901
  0.4860042441517503  0.1364422602307538  0.3378131650665963
  0.2182960822520004  0.2116393713717414  0.3583366935187504
  0.8628744788098474  0.6817232632181673  0.8457095586560893
  0.0052753966161412  0.1723420848882492  0.6495084541964737
  0.6868292721714007  0.0724703662369168  0.6679074709227413
  0.3581651560348964  0.4241715719365655  0.0813305500840058
  0.3429224380105508  0.6769675381646673  0.8930420627603372
  0.3299828036244774  0.7838553450445587  0.2170528698656349
  0.6352589534947538  0.4817686174359632  0.6397803033365307
  0.6662850981904822  0.1592635996919504  0.2863752986784825
  0.4885261029923089  0.2490014176470917  0.7766926596484051
  0.0532352851501036  0.8090833120616372  0.2479071176246945
  0.3147288101643146  0.0723997883372901  0.3601583436029243
  0.2131446228331737  0.9844751947214665  0.7184614985703299
  0.8520575555306660  0.2312676502696431  0.3288318749510508
  0.2868167588117000  0.3596825517275528  0.4027445821912687
  0.9350203354027397  0.4450918261735368  0.6256486343799790
  0.4460524739791735  0.0307289713693830  0.7752143518137150
  0.4143356389589604  0.2080660813255333  0.0599007426039029
  0.1216868474492850  0.4553995096840491  0.6393760793477797
  0.0902249268677363  0.0363498266899045  0.0562382342826733
  0.2531497390099569  0.2892423239416903  0.0586920408118502
  0.2337199214586946  0.4463387023446859  0.9394736152181858
  0.7855303605660783  0.5461134783725925  0.7468777117950161
  0.8383826479969909  0.9017197974215589  0.0986057869439319
  0.1436994826773800  0.5193091101834385  0.0752880776596949
  0.4849591666163767  0.7354193156261606  0.7931535118226368
  0.1934868576083156  0.9315397274098743  0.4039890505214918
  0.1672265963740766  0.7412350375497772  0.6085880264730120
  0.3214076020640262  0.5646491419189607  0.3907295321043983
  0.0075370082872365  0.6549926027377491  0.6758527304363970
  0.1395366781030835  0.0627528700600222  0.5587300270991300
  0.7524169582397872  0.6164495616912034  0.0085479380888425
  0.7310940716509644  0.9508463326476637  0.7997842109402410
  0.1356564055568203  0.1985942659203865  0.1685165393868736
  0.2502345098994609  0.4171380986794835  0.7617248506055898
  0.1479017013168768  0.6368375576516213  0.4315478567957132
  0.3543917126136830  0.2249868071363876  0.2370806450833268
  0.9492924724494991  0.7765183872747806  0.0064810164292454
  0.8054925219946404  0.9287164066040422  0.6245106412681176
  0.9474611224069661  0.9472568655443706  0.2645602929343656
  0.5383491698642404  0.1995179400195257  0.6190792814975431
  0.0438025279923744  0.2541190428125856  0.3362851362640735
  0.1331213128006591  0.4816904640713088  0.3392488834390880
  0.6454381600160976  0.7383630671203576  0.2195118113907716
  0.9622650827476288  0.0981864690283799  0.9649381466943487
  0.7915141244137627  0.0771442203666501  0.5270694542503932
  0.6814336868446018  0.8392157696926132 -0.0099371404190481
  0.2403776943268408  0.0194643441914947  0.9433071521689164
  0.3909547572604676  0.4547345154375300  0.2702214576974930
  0.9972940269030856  0.5194450249863972  0.7954069340099663
  0.6222829991388787  0.5917477712727952  0.4697833439170193
  0.9699469432223562  0.2780478894399677  0.1081349763131566
  0.9675907324796054  0.7150771811092452  0.3726412172629509
  0.7330991024479986  0.4249971469496129  0.9401118857867822
  0.2223254351605328  0.9554674617714360  0.2366256285725033
  0.2546586092807410  0.8206619282108010  0.9310411913405385
  0.2678697233958997  0.9007992475659365  0.5715439663284801
  0.7086386484317035  0.5617829291510823  0.1848300755709291
  0.5937027613199019  0.5162793979524407  0.9541914353677682
  0.9465642156395910  0.8068110646062493  0.5606380134399600
  0.2629248639932379  0.5350496905565665  0.2030218530289699
  0.0888512472914922  0.0688372983635177  0.3599092994363867
  0.8169029109301417  0.7009830961837639  0.1433775686550925
  0.8331366568986376  0.3732355014903275  0.7763233349953323
  0.8963193906734317  0.5620088501412606  0.2459601172436177
  0.0972251960767675  0.2107597088671639  0.9880305041939470
  0.9975236970320921  0.8836576563883517  0.4122872147700479
  0.3794955503791999  0.0647129324147167  0.1941473249871951
  0.8187080321441258  0.7002212092646659  0.6589055890812633
  0.5133673858985088  0.6083077728243049  0.3011155783963583
 
  0.00000000E+00  0.00000000E+00  0.00000000E+00
  0.00000000E+00  0.00000000E+00  0.00000000E+00
  0.00000000E+00  0.00000000E+00  0.00000000E+00
  0.00000000E+00  0.00000000E+00  0.00000000E+00
  0.00000000E+00  0.00000000E+00  0.00000000E+00
  0.00000000E+00  0.00000000E+00  0.00000000E+00
  0.00000000E+00  0.00000000E+00  0.00000000E+00
  0.00000000E+00  0.00000000E+00  0.00000000E+00
  0.00000000E+00  0.00000000E+00  0.00000000E+00
  0.00000000E+00  0.00000000E+00  0.00000000E+00
  0.00000000E+00  0.00000000E+00  0.00000000E+00
  0.00000000E+00  0.00000000E+00  0.00000000E+00
  0.00000000E+00  0.00000000E+00  0.00000000E+00
  0.00000000E+00  0.00000000E+00  0.00000000E+00
  0.00000000E+00  0.00000000E+00  0.00000000E+00
  0.00000000E+00  0.00000000E+00  0.00000000E+00
  0.00000000E+00  0.00000000E+00  0.00000000E+00
  0.00000000E+00  0.00000000E+00  0.00000000E+00
  0.00000000E+00  0.00000000E+00  0.00000000E+00
  0.00000000E+00  0.00000000E+00  0.00000000E+00
  0.00000000E+00  0.00000000E+00  0.00000000E+00
  0.00000000E+00  0.00000000E+00  0.00000000E+00
  0.00000000E+00  0.00000000E+00  0.00000000E+00
  0.00000000E+00  0.00000000E+00  0.00000000E+00
  0.00000000E+00  0.00000000E+00  0.00000000E+00
  0.00000000E+00  0.00000000E+00  0.00000000E+00
  0.00000000E+00  0.00000000E+00  0.00000000E+00
  0.00000000E+00  0.00000000E+00  0.00000000E+00
  0.00000000E+00  0.00000000E+00  0.00000000E+00
  0.00000000E+00  0.00000000E+00  0.00000000E+00
  0.00000000E+00  0.00000000E+00  0.00000000E+00
  0.00000000E+00  0.00000000E+00  0.00000000E+00
  0.00000000E+00  0.00000000E+00  0.00000000E+00
  0.00000000E+00  0.00000000E+00  0.00000000E+00
  0.00000000E+00  0.00000000E+00  0.00000000E+00
  0.00000000E+00  0.00000000E+00  0.00000000E+00
  0.00000000E+00  0.00000000E+00  0.00000000E+00
  0.00000000E+00  0.00000000E+00  0.00000000E+00
  0.00000000E+00  0.00000000E+00  0.00000000E+00
  0.00000000E+00  0.00000000E+00  0.00000000E+00
  0.00000000E+00  0.00000000E+00  0.00000000E+00
  0.00000000E+00  0.00000000E+00  0.00000000E+00
  0.00000000E+00  0.00000000E+00  0.00000000E+00
  0.00000000E+00  0.00000000E+00  0.00000000E+00
  0.00000000E+00  0.00000000E+00  0.00000000E+00
  0.00000000E+00  0.00000000E+00  0.00000000E+00
  0.00000000E+00  0.00000000E+00  0.00000000E+00
  0.00000000E+00  0.00000000E+00  0.00000000E+00
  0.00000000E+00  0.00000000E+00  0.00000000E+00
  0.00000000E+00  0.00000000E+00  0.00000000E+00
  0.00000000E+00  0.00000000E+00  0.00000000E+00
  0.00000000E+00  0.00000000E+00  0.00000000E+00
  0.00000000E+00  0.00000000E+00  0.00000000E+00
  0.00000000E+00  0.00000000E+00  0.00000000E+00
  0.00000000E+00  0.00000000E+00  0.00000000E+00
  0.00000000E+00  0.00000000E+00  0.00000000E+00
  0.00000000E+00  0.00000000E+00  0.00000000E+00
  0.00000000E+00  0.00000000E+00  0.00000000E+00
  0.00000000E+00  0.00000000E+00  0.00000000E+00
  0.00000000E+00  0.00000000E+00  0.00000000E+00
  0.00000000E+00  0.00000000E+00  0.00000000E+00
  0.00000000E+00  0.00000000E+00  0.00000000E+00
  0.00000000E+00  0.00000000E+00  0.00000000E+00
  0.00000000E+00  0.00000000E+00  0.00000000E+00
  0.00000000E+00  0.00000000E+00  0.00000000E+00
  0.00000000E+00  0.00000000E+00  0.00000000E+00
  0.00000000E+00  0.00000000E+00  0.00000000E+00
  0.00000000E+00  0.00000000E+00  0.00000000E+00
  0.00000000E+00  0.00000000E+00  0.00000000E+00
  0.00000000E+00  0.00000000E+00  0.00000000E+00
  0.00000000E+00  0.00000000E+00  0.00000000E+00
  0.00000000E+00  0.00000000E+00  0.00000000E+00
  0.00000000E+00  0.00000000E+00  0.00000000E+00
  0.00000000E+00  0.00000000E+00  0.00000000E+00
  0.00000000E+00  0.00000000E+00  0.00000000E+00
  0.00000000E+00  0.00000000E+00  0.00000000E+00
  0.00000000E+00  0.00000000E+00  0.00000000E+00
  0.00000000E+00  0.00000000E+00  0.00000000E+00
  0.00000000E+00  0.00000000E+00  0.00000000E+00
  0.00000000E+00  0.00000000E+00  0.00000000E+00
  0.00000000E+00  0.00000000E+00  0.00000000E+00
  0.00000000E+00  0.00000000E+00  0.00000000E+00
  0.00000000E+00  0.00000000E+00  0.00000000E+00
  0.00000000E+00  0.00000000E+00  0.00000000E+00
  0.00000000E+00  0.00000000E+00  0.00000000E+00
  0.00000000E+00  0.00000000E+00  0.00000000E+00
  0.00000000E+00  0.00000000E+00  0.00000000E+00
  0.00000000E+00  0.00000000E+00  0.00000000E+00
  0.00000000E+00  0.00000000E+00  0.00000000E+00
  0.00000000E+00  0.00000000E+00  0.00000000E+00
  0.00000000E+00  0.00000000E+00  0.00000000E+00
  0.00000000E+00  0.00000000E+00  0.00000000E+00
  0.00000000E+00  0.00000000E+00  0.00000000E+00
  0.00000000E+00  0.00000000E+00  0.00000000E+00
  0.00000000E+00  0.00000000E+00  0.00000000E+00
  0.00000000E+00  0.00000000E+00  0.00000000E+00
  0.00000000E+00  0.00000000E+00  0.00000000E+00
  0.00000000E+00  0.00000000E+00  0.00000000E+00
  0.00000000E+00  0.00000000E+00  0.00000000E+00
  0.00000000E+00  0.00000000E+00  0.00000000E+00
  0.00000000E+00  0.00000000E+00  0.00000000E+00
  0.00000000E+00  0.00000000E+00  0.00000000E+00
  0.00000000E+00  0.00000000E+00  0.00000000E+00
  0.00000000E+00  0.00000000E+00  0.00000000E+00
  0.00000000E+00  0.00000000E+00  0.00000000E+00
  0.00000000E+00  0.00000000E+00  0.00000000E+00
  0.00000000E+00  0.00000000E+00  0.00000000E+00
  0.00000000E+00  0.00000000E+00  0.00000000E+00
  0.00000000E+00  0.00000000E+00  0.00000000E+00
  0.00000000E+00  0.00000000E+00  0.00000000E+00
  0.00000000E+00  0.00000000E+00  0.00000000E+00
  0.00000000E+00  0.00000000E+00  0.00000000E+00
  0.00000000E+00  0.00000000E+00  0.00000000E+00
  0.00000000E+00  0.00000000E+00  0.00000000E+00
  0.00000000E+00  0.00000000E+00  0.00000000E+00
  0.00000000E+00  0.00000000E+00  0.00000000E+00
  0.00000000E+00  0.00000000E+00  0.00000000E+00
  0.00000000E+00  0.00000000E+00  0.00000000E+00
  0.00000000E+00  0.00000000E+00  0.00000000E+00
  0.00000000E+00  0.00000000E+00  0.00000000E+00
  0.00000000E+00  0.00000000E+00  0.00000000E+00
  0.00000000E+00  0.00000000E+00  0.00000000E+00
  0.00000000E+00  0.00000000E+00  0.00000000E+00
  0.00000000E+00  0.00000000E+00  0.00000000E+00
  0.00000000E+00  0.00000000E+00  0.00000000E+00
  0.00000000E+00  0.00000000E+00  0.00000000E+00
  0.00000000E+00  0.00000000E+00  0.00000000E+00
  0.00000000E+00  0.00000000E+00  0.00000000E+00
  0.00000000E+00  0.00000000E+00  0.00000000E+00
  0.00000000E+00  0.00000000E+00  0.00000000E+00
  0.00000000E+00  0.00000000E+00  0.00000000E+00
  0.00000000E+00  0.00000000E+00  0.00000000E+00
  0.00000000E+00  0.00000000E+00  0.00000000E+00
  0.00000000E+00  0.00000000E+00  0.00000000E+00
  0.00000000E+00  0.00000000E+00  0.00000000E+00
  0.00000000E+00  0.00000000E+00  0.00000000E+00
  0.00000000E+00  0.00000000E+00  0.00000000E+00
  0.00000000E+00  0.00000000E+00  0.00000000E+00
  0.00000000E+00  0.00000000E+00  0.00000000E+00
  0.00000000E+00  0.00000000E+00  0.00000000E+00
  0.00000000E+00  0.00000000E+00  0.00000000E+00
  0.00000000E+00  0.00000000E+00  0.00000000E+00
  0.00000000E+00  0.00000000E+00  0.00000000E+00
  0.00000000E+00  0.00000000E+00  0.00000000E+00
  0.00000000E+00  0.00000000E+00  0.00000000E+00
  0.00000000E+00  0.00000000E+00  0.00000000E+00
  0.00000000E+00  0.00000000E+00  0.00000000E+00
  0.00000000E+00  0.00000000E+00  0.00000000E+00
  0.00000000E+00  0.00000000E+00  0.00000000E+00
  0.00000000E+00  0.00000000E+00  0.00000000E+00
  0.00000000E+00  0.00000000E+00  0.00000000E+00
  0.00000000E+00  0.00000000E+00  0.00000000E+00
  0.00000000E+00  0.00000000E+00  0.00000000E+00
  0.00000000E+00  0.00000000E+00  0.00000000E+00
  0.00000000E+00  0.00000000E+00  0.00000000E+00
  0.00000000E+00  0.00000000E+00  0.00000000E+00
  0.00000000E+00  0.00000000E+00  0.00000000E+00
  0.00000000E+00  0.00000000E+00  0.00000000E+00
  0.00000000E+00  0.00000000E+00  0.00000000E+00
  0.00000000E+00  0.00000000E+00  0.00000000E+00
  0.00000000E+00  0.00000000E+00  0.00000000E+00
  0.00000000E+00  0.00000000E+00  0.00000000E+00
  0.00000000E+00  0.00000000E+00  0.00000000E+00
  0.00000000E+00  0.00000000E+00  0.00000000E+00
  0.00000000E+00  0.00000000E+00  0.00000000E+00
  0.00000000E+00  0.00000000E+00  0.00000000E+00
  0.00000000E+00  0.00000000E+00  0.00000000E+00
  0.00000000E+00  0.00000000E+00  0.00000000E+00
  0.00000000E+00  0.00000000E+00  0.00000000E+00
  0.00000000E+00  0.00000000E+00  0.00000000E+00
  0.00000000E+00  0.00000000E+00  0.00000000E+00
  0.00000000E+00  0.00000000E+00  0.00000000E+00
  0.00000000E+00  0.00000000E+00  0.00000000E+00
  0.00000000E+00  0.00000000E+00  0.00000000E+00
  0.00000000E+00  0.00000000E+00  0.00000000E+00
  0.00000000E+00  0.00000000E+00  0.00000000E+00
  0.00000000E+00  0.00000000E+00  0.00000000E+00
  0.00000000E+00  0.00000000E+00  0.00000000E+00
  0.00000000E+00  0.00000000E+00  0.00000000E+00
  0.00000000E+00  0.00000000E+00  0.00000000E+00
  0.00000000E+00  0.00000000E+00  0.00000000E+00
  0.00000000E+00  0.00000000E+00  0.00000000E+00
  0.00000000E+00  0.00000000E+00  0.00000000E+00
  0.00000000E+00  0.00000000E+00  0.00000000E+00
  0.00000000E+00  0.00000000E+00  0.00000000E+00
  0.00000000E+00  0.00000000E+00  0.00000000E+00
  0.00000000E+00  0.00000000E+00  0.00000000E+00
  0.00000000E+00  0.00000000E+00  0.00000000E+00
  0.00000000E+00  0.00000000E+00  0.00000000E+00
  0.00000000E+00  0.00000000E+00  0.00000000E+00
  0.00000000E+00  0.00000000E+00  0.00000000E+00
  0.00000000E+00  0.00000000E+00  0.00000000E+00
  0.00000000E+00  0.00000000E+00  0.00000000E+00
  0.00000000E+00  0.00000000E+00  0.00000000E+00
  0.00000000E+00  0.00000000E+00  0.00000000E+00
  0.00000000E+00  0.00000000E+00  0.00000000E+00
  0.00000000E+00  0.00000000E+00  0.00000000E+00
  0.00000000E+00  0.00000000E+00  0.00000000E+00
  0.00000000E+00  0.00000000E+00  0.00000000E+00
  0.00000000E+00  0.00000000E+00  0.00000000E+00
  0.00000000E+00  0.00000000E+00  0.00000000E+00
  0.00000000E+00  0.00000000E+00  0.00000000E+00
  0.00000000E+00  0.00000000E+00  0.00000000E+00
  0.00000000E+00  0.00000000E+00  0.00000000E+00
  0.00000000E+00  0.00000000E+00  0.00000000E+00
  0.00000000E+00  0.00000000E+00  0.00000000E+00
  0.00000000E+00  0.00000000E+00  0.00000000E+00
  0.00000000E+00  0.00000000E+00  0.00000000E+00
  0.00000000E+00  0.00000000E+00  0.00000000E+00
  0.00000000E+00  0.00000000E+00  0.00000000E+00
  0.00000000E+00  0.00000000E+00  0.00000000E+00
  0.00000000E+00  0.00000000E+00  0.00000000E+00
  0.00000000E+00  0.00000000E+00  0.00000000E+00
  0.00000000E+00  0.00000000E+00  0.00000000E+00
  0.00000000E+00  0.00000000E+00  0.00000000E+00
  0.00000000E+00  0.00000000E+00  0.00000000E+00
  0.00000000E+00  0.00000000E+00  0.00000000E+00
  0.00000000E+00  0.00000000E+00  0.00000000E+00
  0.00000000E+00  0.00000000E+00  0.00000000E+00
  0.00000000E+00  0.00000000E+00  0.00000000E+00
  0.00000000E+00  0.00000000E+00  0.00000000E+00
  0.00000000E+00  0.00000000E+00  0.00000000E+00
  0.00000000E+00  0.00000000E+00  0.00000000E+00
  0.00000000E+00  0.00000000E+00  0.00000000E+00
  0.00000000E+00  0.00000000E+00  0.00000000E+00
  0.00000000E+00  0.00000000E+00  0.00000000E+00
  0.00000000E+00  0.00000000E+00  0.00000000E+00
  0.00000000E+00  0.00000000E+00  0.00000000E+00
  0.00000000E+00  0.00000000E+00  0.00000000E+00
  0.00000000E+00  0.00000000E+00  0.00000000E+00
  0.00000000E+00  0.00000000E+00  0.00000000E+00
  0.00000000E+00  0.00000000E+00  0.00000000E+00