Ge Se                                   
   1.00000000000000     
    21.4870997737882838    0.0000000000000000    0.0000000000000000
     0.0000000000000000   21.4870997737882874    0.0000000000000000
     0.0000000000000000    0.0000000000000000   21.4870997737882874
   Ge   Se
   100   200
Direct
  0.1252501957133885  0.6151652624505684  0.6302710264105980
  0.2523293995136349  0.7116699136240057  0.0274876643296845
  0.7685680641011118  0.6758884301705801  0.3506703735859746
  0.8051583494121833  0.8519744344419730  0.2332392940859205
  0.0268978777095484  0.8451747182789185  0.5118231408485097
  0.4192080730697780  0.7946166216831946  0.6879790226653565
  0.4616129267660106  0.6490458621286914  0.8478469154725923
  0.2634226981979076  0.3113298940496668  0.6258114847043369
  0.9006355503033707  0.7617013748828139  0.4152977319287904
  0.7092314585164774  0.7178105330132819  0.5161313541073490
  0.8253085369302062  0.3072686889564788  0.1823142630207462
  0.0425951468486292  0.4540682644707578  0.4240258528404752
  0.3411213821736013  0.1781836695895060  0.3131024295065984
  0.1914907774244291  0.5557621937137972  0.2200062902821037
  0.5458384580733924  0.7672986356161310  0.5852979535746542
  0.4211098987891333  0.3493021371192907  0.1395309705178115
  0.1075970522042353  0.3324981246472991  0.0286503196465969
  0.9616866056699481  0.1250092125977094  0.7777353769010524
  0.7662782950140725  0.5997565660002250  0.8199745921576364
  0.5204167311979704  0.2572702215408129  0.0298241926090840
  0.7999524298628884  0.3425566055630422  0.7402258965294287
  0.7868428921532392  0.8123556607241370  0.9116611306543714
  0.0654785311155090  0.6637840939040631  0.3317453067416039
  0.1008103544651453  0.6386039538010395  0.1770762601831527
  0.1073305778046398  0.7878363001731129  0.0326717295987774
  0.6109626748975047  0.9835779273209381  0.1925558052948066
  0.2371104501741522  0.4467031633929778  0.9578863951324040
  0.2024285745195029  0.7989126499405764  0.8744605489384409
  0.4700117532689789  0.9701738278628873 -0.0232045077646796
  0.6822193433653351  0.5312413447921703  0.0189536164752701
  0.7993125841452942  0.6233774151942636  0.9382946851006024
  0.1953377108332790  0.6332193493611257  0.7891019825847102
  0.8224576841547515  0.4013436726914267  0.4183335465930449
  0.6941899791332430  0.4295925917737112  0.5307958252660181
  0.5704622151251234  0.1417449538820564  0.2722214950610313
  0.9880597008984364  0.4430866033098655  0.6054069951464018
  0.0695222086840122  0.7096351940149436  0.9485156122309790
  0.3281177093985617  0.6627254083307175  0.7457509401821766
  0.3473581101574152  0.4980611481956805  0.9784613787066015
  0.0545446775181691  0.5968639062688444  0.4738099944471397
  0.7727532271849614  0.2306615182017098  0.8798994944870118
  0.6110371751818288  0.6254228352321309  0.2949577381927990
  0.1232009419509790  0.1095223577321905  0.7271448209933532
  0.8855409471178306  0.4956930578997868  0.7300667299507279
  0.0595220782781212  0.7619838589121948  0.7466016472029409
  0.7520957487497246  0.5875990017725011  0.6450845022534349
  0.8759820158666807  0.1773205361342763  0.1013497225457913
  0.3707665462425919  0.7334440233623836  0.5322636362395898
  0.3608777003072290  0.5099051913115332  0.1841622951451723
  0.0701498080590391  0.0119153716101801  0.8667293332773021
  0.9486014550156722  0.0313228526987415  0.9329587034501950
  0.0832902142476011  0.4253781249315981  0.2205347835476538
  0.5934572736228835  0.8704207418922116  0.9756509148688717
  0.6208761333901701  0.8577533846386917  0.0896745675555626
  0.3463583465104699  0.6337299504736994  0.0516219090766926
  0.4337240862705254  0.6150267628855264  0.2643288447739739
 -0.0010816644003640  0.4380154586513944  0.9158753811033771
  0.5900997769471835  0.9788602904154355  0.3901162866967794
  0.6941814111256560  0.0014957710992386  0.5944353407789257
  0.5414431968469035  0.1641602077526182  0.5011046067128759
  0.2615580867885856  0.1157905938246982  0.6770444453051150
  0.6432730152208403  0.2926725404285960  0.1607939389503080
  0.4628537169566347  0.2981525902161433  0.2901852646116505
  0.5741057269300051  0.4869830685586177  0.8370938953680109
  0.3904698856570882  0.8518434324501650  0.2254803005315972
  0.9346851697579264  0.8602794941728282  0.6803147117084334
  0.1064598212994236  0.4904017422617840  0.8866018190059424
  0.0133281191843791  0.0680787577967853  0.5432946949483157
  0.4905801309927291  0.8264069190079499  0.8419986781729654
  0.0812958977090421  0.3072950161097646  0.6617808679915106
  0.9470150332205721  0.7900938929762590  0.0880746993257471
  0.0196010871017579  0.3843717879794167  0.7759950379692822
  0.9358495173755847  0.6229755794647586  0.0039161036953722
  0.3195505285418120  0.1726147908396974  0.0008531498084436
  0.6368836924139160  0.9419890109124694  0.8479549570495875
  0.2629979995760680  0.5407040555928271  0.5881356733240997
  0.6566147364077783  0.8993669975972463  0.5397664630118952
  0.0854972363281862  0.5249827273539382  0.0708861724423765
  0.3888077555274667  0.0893031895923254  0.5905888723941466
  0.7052724219503272  0.0440174618181675  0.3673113673663118
  0.7839801731775602  0.0005967550681316  0.7163696502147299
  0.4153173907531799  0.3716104456131025  0.7472612330219568
  0.0172919298705924  0.6549347310345980  0.8449149086265921
  0.3595277983883320  0.0059676157563257  0.2825590054296453
  0.6144805851639957  0.1849785016792847  0.8971601875552512
  0.7914298314764598  0.8653047619567922  0.6510410549067031
  0.8574538027967812  0.5475289551765622  0.0794044069196041
  0.3529062736150543  0.2525781360593110  0.1665218956315355
  0.2194725865413094  0.0656736909365223  0.4803474393116465
  0.2118675289151269  0.5168112501411825  0.4207272829868994
  0.3773228327928516  0.8233335796440224  0.4030469796847038
  0.4737777961851912  0.9960268040716848  0.3292358024511845
  0.8900491792459417  0.3380699479921349  0.8556540278557271
  0.9448883091846156  0.7076227673099792  0.7401777126723111
  0.9554332555958692  0.9772404647207527  0.4784565942766298
  0.5678643285062730  0.6988302838514368  0.1493305525414508
  0.8665573360345603  0.6698640014521541  0.1862502996561594
  0.4983005616475786  0.6850528060979595  0.4171248930344504
  0.7780674151081836  0.8424663425291599  0.0421292427917494
  0.5085396444934150  0.4903189915951142  0.9785278117912163
  0.7157096303345231  0.4251201443280130  0.4139137461157110
  0.0292425363040165  0.3426495934419753  0.4172255625137165
  0.8972473937700783  0.2147906767065811 -0.0042514611104014
  0.0786762471763434  0.4896560298498773  0.5252160154995074
  0.9043638143311784  0.0812765516571086  0.6854093933311668
  0.2622282515149127  0.4079631805142792  0.6812925315273847
  0.1889842899534857  0.8599426067508281  0.9782708543569373
  0.4722280481665658  0.8854336602176383  0.3031156081941661
  0.1622080618714240  0.5350260752836264 -0.0201160372434214
  0.0468915635213697  0.9209978884584523  0.4337078946846769
  0.5375184809164172  0.4027474543099250  0.3712321079694723
  0.7063160158709827  0.5826485369143247  0.3388409192728459
  0.3317733396831014  0.7346153928554265  0.6429663388725734
  0.9157219510693745  0.3769607588994203  0.7116568402022687
  0.5751763208007378  0.0476942865457827  0.5033313991512065
  0.9635559528859745  0.7258589558693539  0.1789046599833879
  0.8125335628284835  0.9766031808584418  0.6042249186427991
  0.3689004111570007  0.6621217547305315  0.9145045035153961
  0.0817588569095803  0.1103343572003629  0.3853604541167260
  0.3475196014947790  0.2860493734503669  0.7760626429030475
  0.6105614802886854  0.6800567208915360  0.5532569768754613
  0.7921817172918625  0.3974065403574241  0.8415412951317015
  0.8164225219011998  0.8347071822712396  0.7906743265247828
  0.7500375269788802  0.2468761061067319  0.4489905884010947
  0.5123558228036001  0.0444261203554741  0.2288137647887581
  0.2251703457127670  0.3154601392444796  0.4507249084239439
  0.4262176008195157  0.4208713223176967  0.9159218874284887
  0.0055996926134702  0.2855736841019830  0.5810676733137863
  0.7990715636728591  0.6490380880479261  0.1008780897388305
  0.8674841395856731  0.3997625402049725  0.3152263230367521
  0.3422077489571748 -0.0014828664867360  0.9496069260757831
  0.0380935936705365  0.8560159338636882  0.0898194224624719
  0.5108412027669745  0.2177366672243164  0.9244146641052902
  0.3210678768010890  0.9621622566858169  0.4426721136200753
  0.4801182613917792  0.9487662395362064  0.6011515655096414
  0.0863354099444072  0.3071556206655855  0.5041343980189293
  0.6060016128938743  0.1734404878732172  0.1566411615273691
  0.4662143299708437  0.5394288795325215  0.1758354221703413
  0.1996933772128011  0.4361691491813140  0.8510529661584734
  0.8049839014914207  0.4010746831999394  0.5696403672116181
  0.7512279292511875  0.1088074255031413  0.7241802278678031
  0.2882681780695368  0.8191253869226912  0.0079583099157811
  0.6233465303505116  0.9126274383080464  0.2910898844593404
  0.8279423534612133  0.2940092161500256 -0.0398449988829104
  0.8184928483444183  0.6358938094203291  0.7221642354696018
  0.5055492754542713  0.7233985882104798  0.6781182298860546
  0.2285184474480262  0.2020874856224205  0.4268299584233850
  0.4117676127286177  0.9075054702527768  0.6760995313446548
  0.1895193988043614  0.6919311885902637  0.9302717949613867
  0.1190356352617402  0.4955656931567039  0.3524230096928208
  0.3866129753021627  0.6286593336960770  0.4873542214519218
  0.7948669384203847  0.1908887652985305  0.3633869177606564
 -0.0517186561984277  0.5061831412616564  0.3907227318378114
  0.2385476606684430  0.9558156560073831  0.5138130715503163
  0.3611655584643953  0.0554390412689021  0.6921478152174581
  0.6407005118547282  0.1123652615598207  0.7290556754591324
  0.1090582869037862  0.2248218449472621  0.0580952047026840
  0.6992231398086269  0.9255991056857626  0.7058432726632949
  0.0120092903003187  0.5803251735112851  0.2584745681225214
  0.5911214511430304  0.7364245263844246  0.3118649294730936
  0.2729605523935815  0.9419193882148494  0.3382394895585208
  0.3999848384216338  0.7111271804959318  0.3655547617628242
  0.8857782819955867  0.4711137195038815  0.4793458707487682
  0.5361963645904675  0.5788912895666806  0.9011868322464709
  0.0459675808024122  0.6363434291125009  0.0424032237961347
  0.5990526545185998  0.8546134333990677  0.6269172754617363
  0.3726158579241539  0.1743672613186876  0.4200551704719014
  0.5021167899538957  0.4613343461226154  0.6142530309131152
  0.6809770743253752  0.0742399176064387  0.4821940673830853
  0.1689240073354616  0.2515897174249490  0.6157649019845407
  0.6097792740749934  0.3888411722452729  0.2901738831583752
  0.7079606430724598  0.6946258500955222  0.8404483984413833
  0.2897307625044950  0.1348616805477163  0.5577778011356702
  0.2612821041144748  0.5735445188733412  0.3234611836749604
  0.8985511477611965  0.8654981948121043  0.3002311430594806
  0.4639191190428562  0.7986389174122851  0.5136480592008752
  0.8458057391198756  0.2396526175177587  0.7937632037233712
  0.5393017392101931  0.9096380540927099  0.7899014726268593
  0.8470622779708339  0.9607488473685996  0.8020525144248791
  0.3438275969584544  0.2446769028016383  0.6745631066544080
  0.5965494877336731  0.9805874559726738  0.9556687515116045
  0.3713049043716294  0.4197466322214391  0.6527471658413884
  0.9232728880345570  0.8065418702223938  0.8065531381880414
  0.7864121179218658  0.1251073458979190  0.1486498766772902
  0.1687689351191975  0.0324480373632716  0.6458370811477046
  0.5161519892950314  0.3274945776614004  0.7232829646455899
  0.5167892483890351  0.2922695542243813  0.3882206973741475
  0.0148905116666476  0.7372101262033405  0.4651956393381494
  0.7753063270949797  0.4710822937489657  0.1593363628263983
  0.1763094617064863  0.7375807926246937  0.1077987151742166
  0.3612687738646974  0.3496885511349250  0.3091188185044407
  0.7606084409623250  0.1249180004404727  0.9173306639294585
  0.7770824357552103  0.6302916230291238  0.5401706958373473
  0.8267577197963111  0.0217107350263180  0.1629505967230963
  0.0513930772285590  0.3345606100642562  0.9331354828806179
  0.9096852888123755  0.0282652748311518  0.2359892252953908
  0.6754644833895266  0.3169443536673907  0.5585843052479279
  0.0376830120844593  0.6605997962915164  0.5700451551281795
  0.5052932581089302  0.7319523134049725  0.2383885033018554
  0.6462542735242666  0.5876459551681269  0.6874811126106222
  0.9231143674638385  0.7554395538110741  0.6376496859148421
  0.8198109948582475  0.9122865669754163  0.9574524489387347
  0.4288314695592539  0.6059625872434736  0.7501620821238797
  0.9606607529219673  0.1444437498048890  0.6118013523029336
  0.0383579382541013  0.0997047916735791  0.9302334856455245
  0.1178245059448517  0.7250798393715198  0.2497208727670262
  0.2901620447682260  0.2749271092535258  0.2692255752552538
  0.3880936004534345  0.8009882196291869  0.7970349759591774
  0.7477034929963611  0.8241137109002792  0.5405537173912031
  0.3613041089529150  0.0666780671576557  0.0347623257950489
  0.4329483588521938  0.1953370846612886  0.2449688260907191
  0.6572862118139935  0.8295652500921682  0.8915899174250571
  0.1721889529125324  0.6283117060932204  0.4534694853132377
  0.5081956400488001  0.1709894069516577  0.1032939652582406
 -0.0020712974707726  0.9343834596161104  0.9026564920257104
  0.6172127464361831  0.4523045042916838  0.9426637033904004
  0.7044682351618056  0.7508510240773079  0.4049117192626940
  0.7116829440983178  0.9212059767274333  0.0997949736910719
  0.8958230711452231  0.0250492298348651  0.0325076591028946
  0.4222986933400690  0.0035192193431281  0.5236614258878639
  0.4673471083768654  0.1678875809126371  0.5895195480514115
  0.3163534264389498  0.5679611152072052  0.8889287148264695
  0.2613787358613193  0.5725004312866575  0.7060180898427135
  0.8600400432654001  0.4035583708418989  0.1340942649627569
  0.5366011000098325  0.9032759194537628  0.1428820712999274
  0.9586939183136777  0.1014129724430015  0.0833173622189120
  0.6790321978921171  0.0972617588496316  0.2723539387792447
  0.6763699448903565  0.1501064728775457  0.9838797173260672
  0.2923081362020607  0.7895001477665308  0.4816540286811775
  0.5396402753755065  0.4176706970181500  0.5143042900061483
  0.7833592739783397  0.7280330967279629  0.2470285153529220
  0.0399589375211702  0.3717622705700019  0.1159392908611980
  0.0041435229805173  0.1441829359066487  0.4569183684715503
  0.2842471044330394  0.0927718421993444  0.2718936302630762
  0.4136244437028697  0.4633708251145739  0.8127074650122594
  0.5654958597509774  0.4216337046336062  0.6937371313676802
  0.8647832132421113  0.8614683877968869  0.1219165269110128
  0.9314615958315862  0.7435439692032296  0.9868308921442434
  0.8087603088872553  0.0863707902303853  0.3985447214491232
  0.4238443563878938  0.3154079751482240  0.0291469525100230
  0.4270222209660203  0.0066441145370101  0.8774953135791030
  0.7850872355055077  0.4766631750373176  0.6574903427355049
  0.6851307295376269  0.6489558762235942  0.9408412254683083
  0.5658800071959453  0.3133129572653887  0.5330344015745029
  0.0865885035700914  0.8096855105613843  0.8485995719041767
  0.1091847310455383  0.8346314748726777  0.5889875417518567
  0.5190782198426324  0.5800415963728056  0.3437040318123485
  0.3298791639826313  0.4192689778923355  0.1265456445119159
  0.6722511721911516  0.2700301050185547  0.8507742447632979
  0.9197204854913004  0.2473048826879407  0.1778754094729087
  0.9030130701012581  0.5738600066406405  0.2319200584619399
  0.6799742516533372  0.5270677496794131  0.7752336741573006
  0.7273217284619837  0.9377434436816119  0.3230006288055293
  0.0391085849342505  0.0321734267608860  0.7595856904805038
  0.5932540766774201  0.8792117609845951  0.4489543499474468
  0.0539722029620946  0.2725124903557401  0.7619525876754093
  0.1318441031416498  0.0946972253453257  0.5608328448899274
  0.0927155389625430  0.5719814015929051  0.8013248014395205
  0.5433659413661798  0.7270027431141366  0.8489963455808479
  0.1548661299282276  0.7095129614706497  0.7039883098191422
  0.7833895808408416  0.3295719917030546  0.2837385405323007
  0.2883617091716007  0.1809750438026284  0.1174244829494752
  0.8618537035916035  0.6489919479881446  0.4020285601584575
  0.9471497764850176  0.5823614685022931  0.8948942158984364
  0.1434693158024501  0.1949939293177489  0.3549960463641804
  0.2207571197512306  0.1131233058620160 -0.0045046915130821
  0.3516939036843949  0.9523944329794807  0.1861753857992383
  0.4812448132469478  0.1532511053619325  0.3974988618172333
  0.7514653139059391  0.2584920064545963  0.1155974766176823
  0.1784475007296438 -0.0124842946325080  0.8575486948100707
  0.4796618527756064  0.8460689533652708  0.9545251836499751
  0.0632935626481103  0.8657295388327408  0.6843465942088192
  0.1528673145371091  0.1918306475044457 -0.0393494825627143
  0.4022137646010275  0.7267630290260405  0.0961902213849400
  0.3785987923479913  0.5635326143964188  0.5779857057131117
  0.6868565191590761  0.4431161084394287  0.0999845380472605
  0.3068779779554546  0.3283147592122216  0.5201093720923838
  0.6159349591218881  0.6027106649625120  0.1849402034449252
  0.6123244683700234  0.3138694047830636  0.0496201343458277
  0.0841052590946996  0.3105979956857240  0.2011752340431183
  0.2895541688108183  0.5951852739655252  0.1630046229030325
  0.7938790307582735  0.5132970662673842  0.9828019512102909
 -0.0068799061265390  0.4706104643252955  0.0277218863129607
  0.5017782713113010  0.6970667885278965  0.0580452333466701
  0.5993443112304728  0.0936331692126352  0.8287155964480573
  0.3523835713801283  0.5125256421778875  0.3018094502940776
  0.8377845659117964  0.3069934178028069  0.4818592930529634
  0.2172127741987844  0.3600380496405080  0.0263192034528889
  0.8794389799976498  0.0686159483645791  0.8453651441745316
  0.0882724784971170  0.4180466504038034  0.6773143373607891
  0.2032792712773383  0.0843418895489269  0.8098097831678778
  0.5230016513853623  0.3612876624903661  0.2154794892764680
  0.2173680202888119  0.6490710182507082  0.5549110294421503
  0.2973743957523136  0.8368603654302673  0.3102306217006477
  0.1956828486036702  0.4469017667791986  0.1980264701521701
  0.9316891709911923  0.8855630697578573  0.5520398034135875
 -0.0015998878152752  0.7622267661557560  0.3487137540576794
  0.6586829531263896  0.7557037924609634  0.1198216183601066
  0.8754868941893993  0.9729503799758801  0.3247932770796242
  0.9632018189053470  0.5416240193866201  0.6584024541548512
 
  0.00000000E+00  0.00000000E+00  0.00000000E+00
  0.00000000E+00  0.00000000E+00  0.00000000E+00
  0.00000000E+00  0.00000000E+00  0.00000000E+00
  0.00000000E+00  0.00000000E+00  0.00000000E+00
  0.00000000E+00  0.00000000E+00  0.00000000E+00
  0.00000000E+00  0.00000000E+00  0.00000000E+00
  0.00000000E+00  0.00000000E+00  0.00000000E+00
  0.00000000E+00  0.00000000E+00  0.00000000E+00
  0.00000000E+00  0.00000000E+00  0.00000000E+00
  0.00000000E+00  0.00000000E+00  0.00000000E+00
  0.00000000E+00  0.00000000E+00  0.00000000E+00
  0.00000000E+00  0.00000000E+00  0.00000000E+00
  0.00000000E+00  0.00000000E+00  0.00000000E+00
  0.00000000E+00  0.00000000E+00  0.00000000E+00
  0.00000000E+00  0.00000000E+00  0.00000000E+00
  0.00000000E+00  0.00000000E+00  0.00000000E+00
  0.00000000E+00  0.00000000E+00  0.00000000E+00
  0.00000000E+00  0.00000000E+00  0.00000000E+00
  0.00000000E+00  0.00000000E+00  0.00000000E+00
  0.00000000E+00  0.00000000E+00  0.00000000E+00
  0.00000000E+00  0.00000000E+00  0.00000000E+00
  0.00000000E+00  0.00000000E+00  0.00000000E+00
  0.00000000E+00  0.00000000E+00  0.00000000E+00
  0.00000000E+00  0.00000000E+00  0.00000000E+00
  0.00000000E+00  0.00000000E+00  0.00000000E+00
  0.00000000E+00  0.00000000E+00  0.00000000E+00
  0.00000000E+00  0.00000000E+00  0.00000000E+00
  0.00000000E+00  0.00000000E+00  0.00000000E+00
  0.00000000E+00  0.00000000E+00  0.00000000E+00
  0.00000000E+00  0.00000000E+00  0.00000000E+00
  0.00000000E+00  0.00000000E+00  0.00000000E+00
  0.00000000E+00  0.00000000E+00  0.00000000E+00
  0.00000000E+00  0.00000000E+00  0.00000000E+00
  0.00000000E+00  0.00000000E+00  0.00000000E+00
  0.00000000E+00  0.00000000E+00  0.00000000E+00
  0.00000000E+00  0.00000000E+00  0.00000000E+00
  0.00000000E+00  0.00000000E+00  0.00000000E+00
  0.00000000E+00  0.00000000E+00  0.00000000E+00
  0.00000000E+00  0.00000000E+00  0.00000000E+00
  0.00000000E+00  0.00000000E+00  0.00000000E+00
  0.00000000E+00  0.00000000E+00  0.00000000E+00
  0.00000000E+00  0.00000000E+00  0.00000000E+00
  0.00000000E+00  0.00000000E+00  0.00000000E+00
  0.00000000E+00  0.00000000E+00  0.00000000E+00
  0.00000000E+00  0.00000000E+00  0.00000000E+00
  0.00000000E+00  0.00000000E+00  0.00000000E+00
  0.00000000E+00  0.00000000E+00  0.00000000E+00
  0.00000000E+00  0.00000000E+00  0.00000000E+00
  0.00000000E+00  0.00000000E+00  0.00000000E+00
  0.00000000E+00  0.00000000E+00  0.00000000E+00
  0.00000000E+00  0.00000000E+00  0.00000000E+00
  0.00000000E+00  0.00000000E+00  0.00000000E+00
  0.00000000E+00  0.00000000E+00  0.00000000E+00
  0.00000000E+00  0.00000000E+00  0.00000000E+00
  0.00000000E+00  0.00000000E+00  0.00000000E+00
  0.00000000E+00  0.00000000E+00  0.00000000E+00
  0.00000000E+00  0.00000000E+00  0.00000000E+00
  0.00000000E+00  0.00000000E+00  0.00000000E+00
  0.00000000E+00  0.00000000E+00  0.00000000E+00
  0.00000000E+00  0.00000000E+00  0.00000000E+00
  0.00000000E+00  0.00000000E+00  0.00000000E+00
  0.00000000E+00  0.00000000E+00  0.00000000E+00
  0.00000000E+00  0.00000000E+00  0.00000000E+00
  0.00000000E+00  0.00000000E+00  0.00000000E+00
  0.00000000E+00  0.00000000E+00  0.00000000E+00
  0.00000000E+00  0.00000000E+00  0.00000000E+00
  0.00000000E+00  0.00000000E+00  0.00000000E+00
  0.00000000E+00  0.00000000E+00  0.00000000E+00
  0.00000000E+00  0.00000000E+00  0.00000000E+00
  0.00000000E+00  0.00000000E+00  0.00000000E+00
  0.00000000E+00  0.00000000E+00  0.00000000E+00
  0.00000000E+00  0.00000000E+00  0.00000000E+00
  0.00000000E+00  0.00000000E+00  0.00000000E+00
  0.00000000E+00  0.00000000E+00  0.00000000E+00
  0.00000000E+00  0.00000000E+00  0.00000000E+00
  0.00000000E+00  0.00000000E+00  0.00000000E+00
  0.00000000E+00  0.00000000E+00  0.00000000E+00
  0.00000000E+00  0.00000000E+00  0.00000000E+00
  0.00000000E+00  0.00000000E+00  0.00000000E+00
  0.00000000E+00  0.00000000E+00  0.00000000E+00
  0.00000000E+00  0.00000000E+00  0.00000000E+00
  0.00000000E+00  0.00000000E+00  0.00000000E+00
  0.00000000E+00  0.00000000E+00  0.00000000E+00
  0.00000000E+00  0.00000000E+00  0.00000000E+00
  0.00000000E+00  0.00000000E+00  0.00000000E+00
  0.00000000E+00  0.00000000E+00  0.00000000E+00
  0.00000000E+00  0.00000000E+00  0.00000000E+00
  0.00000000E+00  0.00000000E+00  0.00000000E+00
  0.00000000E+00  0.00000000E+00  0.00000000E+00
  0.00000000E+00  0.00000000E+00  0.00000000E+00
  0.00000000E+00  0.00000000E+00  0.00000000E+00
  0.00000000E+00  0.00000000E+00  0.00000000E+00
  0.00000000E+00  0.00000000E+00  0.00000000E+00
  0.00000000E+00  0.00000000E+00  0.00000000E+00
  0.00000000E+00  0.00000000E+00  0.00000000E+00
  0.00000000E+00  0.00000000E+00  0.00000000E+00
  0.00000000E+00  0.00000000E+00  0.00000000E+00
  0.00000000E+00  0.00000000E+00  0.00000000E+00
  0.00000000E+00  0.00000000E+00  0.00000000E+00
  0.00000000E+00  0.00000000E+00  0.00000000E+00
  0.00000000E+00  0.00000000E+00  0.00000000E+00
  0.00000000E+00  0.00000000E+00  0.00000000E+00
  0.00000000E+00  0.00000000E+00  0.00000000E+00
  0.00000000E+00  0.00000000E+00  0.00000000E+00
  0.00000000E+00  0.00000000E+00  0.00000000E+00
  0.00000000E+00  0.00000000E+00  0.00000000E+00
  0.00000000E+00  0.00000000E+00  0.00000000E+00
  0.00000000E+00  0.00000000E+00  0.00000000E+00
  0.00000000E+00  0.00000000E+00  0.00000000E+00
  0.00000000E+00  0.00000000E+00  0.00000000E+00
  0.00000000E+00  0.00000000E+00  0.00000000E+00
  0.00000000E+00  0.00000000E+00  0.00000000E+00
  0.00000000E+00  0.00000000E+00  0.00000000E+00
  0.00000000E+00  0.00000000E+00  0.00000000E+00
  0.00000000E+00  0.00000000E+00  0.00000000E+00
  0.00000000E+00  0.00000000E+00  0.00000000E+00
  0.00000000E+00  0.00000000E+00  0.00000000E+00
  0.00000000E+00  0.00000000E+00  0.00000000E+00
  0.00000000E+00  0.00000000E+00  0.00000000E+00
  0.00000000E+00  0.00000000E+00  0.00000000E+00
  0.00000000E+00  0.00000000E+00  0.00000000E+00
  0.00000000E+00  0.00000000E+00  0.00000000E+00
  0.00000000E+00  0.00000000E+00  0.00000000E+00
  0.00000000E+00  0.00000000E+00  0.00000000E+00
  0.00000000E+00  0.00000000E+00  0.00000000E+00
  0.00000000E+00  0.00000000E+00  0.00000000E+00
  0.00000000E+00  0.00000000E+00  0.00000000E+00
  0.00000000E+00  0.00000000E+00  0.00000000E+00
  0.00000000E+00  0.00000000E+00  0.00000000E+00
  0.00000000E+00  0.00000000E+00  0.00000000E+00
  0.00000000E+00  0.00000000E+00  0.00000000E+00
  0.00000000E+00  0.00000000E+00  0.00000000E+00
  0.00000000E+00  0.00000000E+00  0.00000000E+00
  0.00000000E+00  0.00000000E+00  0.00000000E+00
  0.00000000E+00  0.00000000E+00  0.00000000E+00
  0.00000000E+00  0.00000000E+00  0.00000000E+00
  0.00000000E+00  0.00000000E+00  0.00000000E+00
  0.00000000E+00  0.00000000E+00  0.00000000E+00
  0.00000000E+00  0.00000000E+00  0.00000000E+00
  0.00000000E+00  0.00000000E+00  0.00000000E+00
  0.00000000E+00  0.00000000E+00  0.00000000E+00
  0.00000000E+00  0.00000000E+00  0.00000000E+00
  0.00000000E+00  0.00000000E+00  0.00000000E+00
  0.00000000E+00  0.00000000E+00  0.00000000E+00
  0.00000000E+00  0.00000000E+00  0.00000000E+00
  0.00000000E+00  0.00000000E+00  0.00000000E+00
  0.00000000E+00  0.00000000E+00  0.00000000E+00
  0.00000000E+00  0.00000000E+00  0.00000000E+00
  0.00000000E+00  0.00000000E+00  0.00000000E+00
  0.00000000E+00  0.00000000E+00  0.00000000E+00
  0.00000000E+00  0.00000000E+00  0.00000000E+00
  0.00000000E+00  0.00000000E+00  0.00000000E+00
  0.00000000E+00  0.00000000E+00  0.00000000E+00
  0.00000000E+00  0.00000000E+00  0.00000000E+00
  0.00000000E+00  0.00000000E+00  0.00000000E+00
  0.00000000E+00  0.00000000E+00  0.00000000E+00
  0.00000000E+00  0.00000000E+00  0.00000000E+00
  0.00000000E+00  0.00000000E+00  0.00000000E+00
  0.00000000E+00  0.00000000E+00  0.00000000E+00
  0.00000000E+00  0.00000000E+00  0.00000000E+00
  0.00000000E+00  0.00000000E+00  0.00000000E+00
  0.00000000E+00  0.00000000E+00  0.00000000E+00
  0.00000000E+00  0.00000000E+00  0.00000000E+00
  0.00000000E+00  0.00000000E+00  0.00000000E+00
  0.00000000E+00  0.00000000E+00  0.00000000E+00
  0.00000000E+00  0.00000000E+00  0.00000000E+00
  0.00000000E+00  0.00000000E+00  0.00000000E+00
  0.00000000E+00  0.00000000E+00  0.00000000E+00
  0.00000000E+00  0.00000000E+00  0.00000000E+00
  0.00000000E+00  0.00000000E+00  0.00000000E+00
  0.00000000E+00  0.00000000E+00  0.00000000E+00
  0.00000000E+00  0.00000000E+00  0.00000000E+00
  0.00000000E+00  0.00000000E+00  0.00000000E+00
  0.00000000E+00  0.00000000E+00  0.00000000E+00
  0.00000000E+00  0.00000000E+00  0.00000000E+00
  0.00000000E+00  0.00000000E+00  0.00000000E+00
  0.00000000E+00  0.00000000E+00  0.00000000E+00
  0.00000000E+00  0.00000000E+00  0.00000000E+00
  0.00000000E+00  0.00000000E+00  0.00000000E+00
  0.00000000E+00  0.00000000E+00  0.00000000E+00
  0.00000000E+00  0.00000000E+00  0.00000000E+00
  0.00000000E+00  0.00000000E+00  0.00000000E+00
  0.00000000E+00  0.00000000E+00  0.00000000E+00
  0.00000000E+00  0.00000000E+00  0.00000000E+00
  0.00000000E+00  0.00000000E+00  0.00000000E+00
  0.00000000E+00  0.00000000E+00  0.00000000E+00
  0.00000000E+00  0.00000000E+00  0.00000000E+00
  0.00000000E+00  0.00000000E+00  0.00000000E+00
  0.00000000E+00  0.00000000E+00  0.00000000E+00
  0.00000000E+00  0.00000000E+00  0.00000000E+00
  0.00000000E+00  0.00000000E+00  0.00000000E+00
  0.00000000E+00  0.00000000E+00  0.00000000E+00
  0.00000000E+00  0.00000000E+00  0.00000000E+00
  0.00000000E+00  0.00000000E+00  0.00000000E+00
  0.00000000E+00  0.00000000E+00  0.00000000E+00
  0.00000000E+00  0.00000000E+00  0.00000000E+00
  0.00000000E+00  0.00000000E+00  0.00000000E+00
  0.00000000E+00  0.00000000E+00  0.00000000E+00
  0.00000000E+00  0.00000000E+00  0.00000000E+00
  0.00000000E+00  0.00000000E+00  0.00000000E+00
  0.00000000E+00  0.00000000E+00  0.00000000E+00
  0.00000000E+00  0.00000000E+00  0.00000000E+00
  0.00000000E+00  0.00000000E+00  0.00000000E+00
  0.00000000E+00  0.00000000E+00  0.00000000E+00
  0.00000000E+00  0.00000000E+00  0.00000000E+00
  0.00000000E+00  0.00000000E+00  0.00000000E+00
  0.00000000E+00  0.00000000E+00  0.00000000E+00
  0.00000000E+00  0.00000000E+00  0.00000000E+00
  0.00000000E+00  0.00000000E+00  0.00000000E+00
  0.00000000E+00  0.00000000E+00  0.00000000E+00
  0.00000000E+00  0.00000000E+00  0.00000000E+00
  0.00000000E+00  0.00000000E+00  0.00000000E+00
  0.00000000E+00  0.00000000E+00  0.00000000E+00
  0.00000000E+00  0.00000000E+00  0.00000000E+00
  0.00000000E+00  0.00000000E+00  0.00000000E+00
  0.00000000E+00  0.00000000E+00  0.00000000E+00
  0.00000000E+00  0.00000000E+00  0.00000000E+00
  0.00000000E+00  0.00000000E+00  0.00000000E+00
  0.00000000E+00  0.00000000E+00  0.00000000E+00
  0.00000000E+00  0.00000000E+00  0.00000000E+00
  0.00000000E+00  0.00000000E+00  0.00000000E+00
  0.00000000E+00  0.00000000E+00  0.00000000E+00
  0.00000000E+00  0.00000000E+00  0.00000000E+00
  0.00000000E+00  0.00000000E+00  0.00000000E+00
  0.00000000E+00  0.00000000E+00  0.00000000E+00
  0.00000000E+00  0.00000000E+00  0.00000000E+00
  0.00000000E+00  0.00000000E+00  0.00000000E+00
  0.00000000E+00  0.00000000E+00  0.00000000E+00
  0.00000000E+00  0.00000000E+00  0.00000000E+00
  0.00000000E+00  0.00000000E+00  0.00000000E+00
  0.00000000E+00  0.00000000E+00  0.00000000E+00
  0.00000000E+00  0.00000000E+00  0.00000000E+00