GeSe+Se                                 
   1.00000000000000     
    22.7877998352000013    0.0000000000000000    0.0000000000000000
     0.0000000000000000    7.9437999724999999    0.0000000000000000
     0.0000000000000000    0.0000000000000000    8.6430997849000004
   Ge   Se
    33    32
Selective dynamics
Direct
  0.5720099810000008  0.3750000000000000  0.7578999999999994   F   F   F
  0.0665699990000022  0.1250000000000000  0.0581200009999989   F   F   F
  0.9334300160000026  0.8750000000000000  0.9418799879999966   F   F   F
  0.1834300009999978  0.8750000000000000  0.3081200120000034   F   F   F
  0.3165700139999998  0.1250000000000000  0.1918800030000014   F   F   F
  0.9334300160000026  0.3750000000000000  0.9418799879999966   F   F   F
  0.1834300009999978  0.3750000000000000  0.3081200120000034   F   F   F
  0.0665699990000022  0.1250000000000000  0.5581200120000034   F   F   F
  0.9334300160000026  0.8750000000000000  0.4418799879999966   F   F   F
  0.1834300009999978  0.8750000000000000  0.8081200120000034   F   F   F
  0.3165700139999998  0.1250000000000000  0.6918799879999966   F   F   F
  0.9334300160000026  0.3750000000000000  0.4418799879999966   F   F   F
  0.1834300009999978  0.3750000000000000  0.8081200120000034   F   F   F
  0.0665699990000022  0.6250000000000000  0.0581200009999989   F   F   F
  0.3165700139999998  0.6250000000000000  0.1918800030000014   F   F   F
  0.0665699990000022  0.6250000000000000  0.5581200120000034   F   F   F
  0.3165700139999998  0.6250000000000000  0.6918799879999966   F   F   F
  0.5665699839999974  0.1250000000000000  0.0581200009999989   F   F   F
  0.4334299860000002  0.8750000000000000  0.9418799879999966   F   F   F
  0.6834300160000026  0.8750000000000000  0.3081200120000034   F   F   F
  0.8165699839999974  0.1250000000000000  0.1918800030000014   F   F   F
  0.4334299860000002  0.3750000000000000  0.9418799879999966   F   F   F
  0.6834300160000026  0.3750000000000000  0.3081200120000034   F   F   F
  0.5665699839999974  0.1250000000000000  0.5581200120000034   F   F   F
  0.4334299860000002  0.8750000000000000  0.4418799879999966   F   F   F
  0.6834300160000026  0.8750000000000000  0.8081200120000034   F   F   F
  0.8165699839999974  0.1250000000000000  0.6918799879999966   F   F   F
  0.4334299860000002  0.3750000000000000  0.4418799879999966   F   F   F
  0.6834300160000026  0.3750000000000000  0.8081200120000034   F   F   F
  0.5665699839999974  0.6250000000000000  0.0581200009999989   F   F   F
  0.8165699839999974  0.6250000000000000  0.1918800030000014   F   F   F
  0.5665699839999974  0.6250000000000000  0.5581200120000034   F   F   F
  0.8165699839999974  0.6250000000000000  0.6918799879999966   F   F   F
  0.0720100030000026  0.3750000000000000  0.2578999999999994   F   F   F
  0.9279900189999992  0.6250000000000000  0.7421000000000006   F   F   F
  0.1779900040000015  0.6250000000000000  0.5078999999999994   F   F   F
  0.3220100099999996  0.3750000000000000  0.9921000000000006   F   F   F
  0.0720100030000026  0.8750000000000000  0.2578999999999994   F   F   F
  0.3220100099999996  0.8750000000000000  0.9921000000000006   F   F   F
  0.0720100030000026  0.3750000000000000  0.7578999999999994   F   F   F
  0.9279900189999992  0.6250000000000000  0.2421000000000006   F   F   F
  0.1779900040000015  0.6250000000000000  0.0078999999999994   F   F   F
  0.3220100099999996  0.3750000000000000  0.4921000000000006   F   F   F
  0.0720100030000026  0.8750000000000000  0.7578999999999994   F   F   F
  0.3220100099999996  0.8750000000000000  0.4921000000000006   F   F   F
  0.9279900189999992  0.1250000000000000  0.7421000000000006   F   F   F
  0.1779900040000015  0.1250000000000000  0.5078999999999994   F   F   F
  0.9279900189999992  0.1250000000000000  0.2421000000000006   F   F   F
  0.1779900040000015  0.1250000000000000  0.0078999999999994   F   F   F
  0.5720099810000008  0.3750000000000000  0.2578999999999994   F   F   F
  0.4279899900000004  0.6250000000000000  0.7421000000000006   F   F   F
  0.6779900189999992  0.6250000000000000  0.5078999999999994   F   F   F
  0.8220099810000008  0.3750000000000000  0.9921000000000006   F   F   F
  0.5720099810000008  0.8750000000000000  0.2578999999999994   F   F   F
  0.8220099810000008  0.8750000000000000  0.9921000000000006   F   F   F
  0.4279899900000004  0.6250000000000000  0.2421000000000006   F   F   F
  0.6779900189999992  0.6250000000000000  0.0078999999999994   F   F   F
  0.8220099810000008  0.3750000000000000  0.4921000000000006   F   F   F
  0.5720099810000008  0.8750000000000000  0.7578999999999994   F   F   F
  0.8220099810000008  0.8750000000000000  0.4921000000000006   F   F   F
  0.4279899900000004  0.1250000000000000  0.7421000000000006   F   F   F
  0.6779900189999992  0.1250000000000000  0.5078999999999994   F   F   F
  0.4279899900000004  0.1250000000000000  0.2421000000000006   F   F   F
  0.6779900189999992  0.1250000000000000  0.0078999999999994   F   F   F
  0.4861684532256491  0.3750024838244670  0.6599572937340885   T   T   T
 
  0.00000000E+00  0.00000000E+00  0.00000000E+00
  0.00000000E+00  0.00000000E+00  0.00000000E+00
  0.00000000E+00  0.00000000E+00  0.00000000E+00
  0.00000000E+00  0.00000000E+00  0.00000000E+00
  0.00000000E+00  0.00000000E+00  0.00000000E+00
  0.00000000E+00  0.00000000E+00  0.00000000E+00
  0.00000000E+00  0.00000000E+00  0.00000000E+00
  0.00000000E+00  0.00000000E+00  0.00000000E+00
  0.00000000E+00  0.00000000E+00  0.00000000E+00
  0.00000000E+00  0.00000000E+00  0.00000000E+00
  0.00000000E+00  0.00000000E+00  0.00000000E+00
  0.00000000E+00  0.00000000E+00  0.00000000E+00
  0.00000000E+00  0.00000000E+00  0.00000000E+00
  0.00000000E+00  0.00000000E+00  0.00000000E+00
  0.00000000E+00  0.00000000E+00  0.00000000E+00
  0.00000000E+00  0.00000000E+00  0.00000000E+00
  0.00000000E+00  0.00000000E+00  0.00000000E+00
  0.00000000E+00  0.00000000E+00  0.00000000E+00
  0.00000000E+00  0.00000000E+00  0.00000000E+00
  0.00000000E+00  0.00000000E+00  0.00000000E+00
  0.00000000E+00  0.00000000E+00  0.00000000E+00
  0.00000000E+00  0.00000000E+00  0.00000000E+00
  0.00000000E+00  0.00000000E+00  0.00000000E+00
  0.00000000E+00  0.00000000E+00  0.00000000E+00
  0.00000000E+00  0.00000000E+00  0.00000000E+00
  0.00000000E+00  0.00000000E+00  0.00000000E+00
  0.00000000E+00  0.00000000E+00  0.00000000E+00
  0.00000000E+00  0.00000000E+00  0.00000000E+00
  0.00000000E+00  0.00000000E+00  0.00000000E+00
  0.00000000E+00  0.00000000E+00  0.00000000E+00
  0.00000000E+00  0.00000000E+00  0.00000000E+00
  0.00000000E+00  0.00000000E+00  0.00000000E+00
  0.00000000E+00  0.00000000E+00  0.00000000E+00
  0.00000000E+00  0.00000000E+00  0.00000000E+00
  0.00000000E+00  0.00000000E+00  0.00000000E+00
  0.00000000E+00  0.00000000E+00  0.00000000E+00
  0.00000000E+00  0.00000000E+00  0.00000000E+00
  0.00000000E+00  0.00000000E+00  0.00000000E+00
  0.00000000E+00  0.00000000E+00  0.00000000E+00
  0.00000000E+00  0.00000000E+00  0.00000000E+00
  0.00000000E+00  0.00000000E+00  0.00000000E+00
  0.00000000E+00  0.00000000E+00  0.00000000E+00
  0.00000000E+00  0.00000000E+00  0.00000000E+00
  0.00000000E+00  0.00000000E+00  0.00000000E+00
  0.00000000E+00  0.00000000E+00  0.00000000E+00
  0.00000000E+00  0.00000000E+00  0.00000000E+00
  0.00000000E+00  0.00000000E+00  0.00000000E+00
  0.00000000E+00  0.00000000E+00  0.00000000E+00
  0.00000000E+00  0.00000000E+00  0.00000000E+00
  0.00000000E+00  0.00000000E+00  0.00000000E+00
  0.00000000E+00  0.00000000E+00  0.00000000E+00
  0.00000000E+00  0.00000000E+00  0.00000000E+00
  0.00000000E+00  0.00000000E+00  0.00000000E+00
  0.00000000E+00  0.00000000E+00  0.00000000E+00
  0.00000000E+00  0.00000000E+00  0.00000000E+00
  0.00000000E+00  0.00000000E+00  0.00000000E+00
  0.00000000E+00  0.00000000E+00  0.00000000E+00
  0.00000000E+00  0.00000000E+00  0.00000000E+00
  0.00000000E+00  0.00000000E+00  0.00000000E+00
  0.00000000E+00  0.00000000E+00  0.00000000E+00
  0.00000000E+00  0.00000000E+00  0.00000000E+00
  0.00000000E+00  0.00000000E+00  0.00000000E+00
  0.00000000E+00  0.00000000E+00  0.00000000E+00
  0.00000000E+00  0.00000000E+00  0.00000000E+00
  0.00000000E+00  0.00000000E+00  0.00000000E+00
