Ge3 Te3                                 
   1.00000000000000     
     5.6195957182743976    0.0000000000000000    0.0000000000000000
    -2.8097978591371988    4.8667126510050958    0.0000000000000000
     0.0000000000000000    0.0000000000000000    5.4863836596345328
   Ge   Te
     3     3
Direct
  0.0000000000000000  0.0000000000000000 -0.0105211573025502
  0.6666666870000029  0.3333333429999996  0.3228121886974531
  0.3333333429999996  0.6666666870000029  0.6561455026974538
  0.0000000000000000  0.0000000000000000  0.4895211563025460
  0.6666666870000029  0.3333333429999996  0.8228544693025502
  0.3333333429999996  0.6666666870000029  0.1561878283025510
 
  0.00000000E+00  0.00000000E+00  0.00000000E+00
  0.00000000E+00  0.00000000E+00  0.00000000E+00
  0.00000000E+00  0.00000000E+00  0.00000000E+00
  0.00000000E+00  0.00000000E+00  0.00000000E+00
  0.00000000E+00  0.00000000E+00  0.00000000E+00
  0.00000000E+00  0.00000000E+00  0.00000000E+00
