Bi12 Se9                                
   1.00000000000000     
     2.1598896290722158   -3.7410385762941751    0.0000000000000001
     2.1598896290722158    3.7410385762941751   -0.0000000000000001
     0.0000000000000000    0.0000000000000003   41.2394732434883835
   Bi   Se
    12     9
Direct
  0.0000000000000000  0.0000000000000000  0.1454769709235790
  0.6666666666666643  0.3333333333333357  0.1878563624097567
  0.6666666666666643  0.3333333333333357  0.4788103042569148
  0.3333333333333357  0.6666666666666643  0.5211896957430858
  0.3333333333333357  0.6666666666666643  0.8121436375902428
  0.0000000000000000  0.0000000000000000  0.8545230290764215
  0.0000000000000000  0.0000000000000000  0.2881875575743102
  0.6666666666666643  0.3333333333333357  0.0451457757590256
  0.6666666666666643  0.3333333333333357  0.6215208909076386
  0.3333333333333357  0.6666666666666643  0.3784791090923612
  0.3333333333333357  0.6666666666666643  0.9548542242409743
  0.0000000000000000  0.0000000000000000  0.7118124424256900
  0.0000000000000000  0.0000000000000000  0.0000000000000000
  0.3333333333333357  0.6666666666666643  0.0820450635858428
  0.3333333333333357  0.6666666666666643  0.2512882697474929
  0.6666666666666643  0.3333333333333357  0.3333333333333357
  0.0000000000000000  0.0000000000000000  0.4153783969191785
  0.0000000000000000  0.0000000000000000  0.5846216030808212
  0.3333333333333357  0.6666666666666643  0.6666666666666643
  0.6666666666666643  0.3333333333333357  0.7487117302525074
  0.6666666666666643  0.3333333333333357  0.9179549364141569
 
  0.00000000E+00  0.00000000E+00  0.00000000E+00
  0.00000000E+00  0.00000000E+00  0.00000000E+00
  0.00000000E+00  0.00000000E+00  0.00000000E+00
  0.00000000E+00  0.00000000E+00  0.00000000E+00
  0.00000000E+00  0.00000000E+00  0.00000000E+00
  0.00000000E+00  0.00000000E+00  0.00000000E+00
  0.00000000E+00  0.00000000E+00  0.00000000E+00
  0.00000000E+00  0.00000000E+00  0.00000000E+00
  0.00000000E+00  0.00000000E+00  0.00000000E+00
  0.00000000E+00  0.00000000E+00  0.00000000E+00
  0.00000000E+00  0.00000000E+00  0.00000000E+00
  0.00000000E+00  0.00000000E+00  0.00000000E+00
  0.00000000E+00  0.00000000E+00  0.00000000E+00
  0.00000000E+00  0.00000000E+00  0.00000000E+00
  0.00000000E+00  0.00000000E+00  0.00000000E+00
  0.00000000E+00  0.00000000E+00  0.00000000E+00
  0.00000000E+00  0.00000000E+00  0.00000000E+00
  0.00000000E+00  0.00000000E+00  0.00000000E+00
  0.00000000E+00  0.00000000E+00  0.00000000E+00
  0.00000000E+00  0.00000000E+00  0.00000000E+00
  0.00000000E+00  0.00000000E+00  0.00000000E+00
