Sb                                      
   1.00000000000000     
    18.9085750815908753    0.0000000000000000    0.0000000000000000
     0.0000000000000000   18.9085750815908753    0.0000000000000000
     0.0000000000000000    0.0000000000000000   18.9085750815908753
   Sb   Sn
   195    21
Direct
  0.0820450490000000  0.9415236600000000  0.6930870500000000
  0.5820220699999999  0.7693410700000000  0.3257126400000000
  0.0763747470000000  0.0811353230000000  0.9971742099999999
  0.8963093200000000  0.9372075800000000  0.8481322900000000
  0.9146209400000000  0.1026783100000000  0.6830376800000000
  0.7280414400000000  0.0819039180000000  0.8442799100000000
  0.4228489800000000  0.6089227300000000  0.0017259908000000
  0.4055966400000000  0.0776420100000000  0.3479535100000000
  0.2327719600000000  0.7550624700000000  0.3424107600000000
  0.7390060700000000  0.7604613000000000  0.1801664500000000
  0.2598618100000000  0.2621002900000000  0.5100903000000000
  0.7615773800000000  0.2668216200000000  0.3264233000000000
  0.5886781100000000  0.7581685600000000  0.6660314100000000
  0.4218600600000000  0.2670550300000000  0.0089685729000000
  0.4128930300000000  0.9326935000000000  0.0057866154000000
  0.2316557900000000  0.0975794730000000  0.8501408100000000
  0.4153755000000000  0.0974763440000000  0.1761741900000000
  0.7388309700000000  0.7569733600000000  0.8618854100000000
  0.7321320900000000  0.0878269730000000  0.6818537000000000
  0.9047750100000000  0.2553023700000000  0.6751566400000000
  0.5573254300000000  0.7507146600000000  0.1546319300000000
  0.0899111270000000  0.2526162600000000  0.9999485800000000
  0.4311999800000000  0.5703102300000000  0.1673633800000000
  0.7464885600000000  0.5922678600000000  0.9993118400000000
  0.7455054600000000  0.0765045590000000  0.3462527400000000
  0.8995839200000000  0.4251880100000000  0.8378214700000000
  0.9086238000000000  0.7556463100000000  0.6897715300000000
  0.9236116700000000  0.6040923200000000  0.1599254100000000
  0.0657757660000000  0.4423272300000000  0.1614508400000000
  0.7498682900000000  0.5943922200000000  0.8375706400000000
  0.2512112100000000  0.6081238100000000  0.8585128600000000
  0.0806209740000000  0.2612779100000000  0.1659169300000000
  0.5874040300000000  0.4252001700000000  0.1794220200000000
  0.2524644500000000  0.0931581700000000  0.6781558200000000
  0.2316736600000000  0.7605526200000000  0.0066361426000000
  0.4097127000000000  0.4186990700000000  0.0202136770000000
  0.7498662800000000  0.9222653400000000  0.3458505500000000
  0.9220885599999999  0.2497912700000000  0.3466444400000000
  0.0754765170000000  0.2512524600000000  0.8254193900000000
  0.0891146690000000  0.7676245100000000  0.8459101900000000
  0.0944156550000000  0.4286355700000000  0.3455805000000000
  0.2415818200000000  0.5870504500000000  0.6938595600000000
  0.7532204100000000  0.4207187800000000  0.4946876600000000
  0.0818637860000000  0.7784798800000000  0.1855404300000000
  0.9047694600000000  0.9111465000000000  0.6855869800000000
  0.8971019700000000  0.7564266200000000  0.1916795900000000
  0.0744591700000000  0.9210232500000000  0.3396960500000000
  0.0854257390000000  0.5771140100000000  0.8446266600000000
  0.2341058500000000  0.7632806200000000  0.1866787700000000
  0.5778578000000000  0.0971884520000000  0.0018933609000000
  0.9138930199999999  0.6057545100000000  0.0055156965000000
  0.0764104050000000  0.7728703900000000  0.5104531100000000
  0.7360370500000000  0.9102492100000000  0.1836078300000000
  0.5767992800000000  0.5878946800000000  0.0010214680000000
  0.2429612500000000  0.7412121100000000  0.5161780200000000
  0.5860524400000000  0.5962110700000000  0.1607369600000000
  0.9068299700000000  0.9270439900000000  0.1934174600000000
  0.4230726300000000  0.9296539500000000  0.3341296600000000
  0.0692879140000000  0.9348369399999999  0.1871729200000000
  0.4216896900000000  0.2509443100000000  0.3401648300000000
  0.7476129400000000  0.1049382900000000  0.1773294100000000
  0.9177559100000000  0.2698995000000000  0.8300483700000000
  0.7500004300000001  0.9280780000000000  0.6812161400000000
  0.2411252200000000  0.9181883500000000  0.3543963200000000
  0.4257055600000000  0.4341326600000000  0.8365214200000000
  0.0641425690000000  0.7661004700000000  0.3604572300000000
  0.4145117400000000  0.0863713990000000  0.5151295400000000
  0.7429070000000000  0.5885227800000000  0.5000063400000000
  0.4042881300000000  0.2569906900000000  0.8489218600000000
  0.2513927100000000  0.9338996000000001  0.1780837900000000
  0.7453019800000000  0.0922299050000000  0.5234288900000000
  0.7653852000000000  0.5873868200000000  0.1669155100000000
  0.5730935500000000  0.9206424300000000  0.3407731800000000
  0.2506413800000000  0.2530898100000000  0.1678585500000000
  0.2633418700000000  0.5851907600000000  0.5032947200000000
  0.5842526800000000  0.6012486700000000  0.8337934200000000
  0.2413797100000000  0.4182660900000000  0.1774526500000000
  0.5638239300000000  0.9364219700000000  0.8337310800000000
  0.9199106900000000  0.2658015000000000  0.0065925821000000
  0.0778321120000000  0.1078257800000000  0.4983711900000000
  0.9084193800000000  0.0880718960000000  0.1867163500000000
  0.7436536100000000  0.9297729400000000  0.5050718100000000
  0.0742878880000000  0.2578239800000000  0.5023144700000000
  0.2448290800000000  0.2443422500000000  0.0071030283000000
  0.4069637700000000  0.2389671000000000  0.5113919900000000
  0.2513094400000000  0.2536665700000000  0.3482488000000000
  0.2310062600000000  0.9166823700000000  0.0210826590000000
  0.0928165280000000  0.4133297800000000  0.0043091550000000
  0.2399146300000000  0.2488995000000000  0.6860326100000000
  0.9218741700000000  0.5926476000000001  0.3444490700000000
  0.2571948700000000  0.4358046900000000  0.3292303800000000
  0.5680268600000000  0.9232649100000000  0.6698868400000000
  0.4189864700000000  0.7490076600000000  0.6861156700000000
  0.7458068100000000  0.7333547200000000  0.6731070700000000
  0.7533406400000000  0.2560334100000000  0.6695965500000000
  0.0569368240000000  0.9183851400000000  0.8658133700000000
  0.2592542900000000  0.4220600800000000  0.6787774300000000
  0.4104338000000000  0.9096060900000000  0.5073331700000000
  0.4348973600000000  0.4144203900000000  0.1758448400000000
  0.9090918900000000  0.7467213300000000  0.5168390400000000
  0.2513811200000000  0.4225982700000000  0.0083886932000000
  0.5902878000000000  0.2651917600000000  0.0097015608000000
  0.7485069300000000  0.2496786500000000  0.5171397800000000
  0.5759440800000000  0.0935398480000000  0.1697866800000000
  0.9155570200000001  0.7686763500000000  0.0290608430000000
  0.5769915400000000  0.9201325400000000  0.1759271100000000
  0.0760268110000000  0.0885618010000000  0.3447270800000000
  0.5803780200000000  0.2592019700000000  0.8342981600000000
  0.2492166300000000  0.9272004200000000  0.5100396400000000
  0.0835603760000000  0.6004289500000000  0.1695432300000000
  0.4236963900000000  0.2531507200000000  0.1709903700000000
  0.3863968800000000  0.9220225100000000  0.8439310600000000
  0.7470438000000000  0.9273536999999999  0.0270896150000000
  0.3915503900000000  0.7645519400000000  0.0208072020000000
  0.5909122800000000  0.7479074100000001  0.0011283192000000
  0.2383310900000000  0.1019056200000000  0.5217999800000001
  0.7534828500000000  0.4416080300000000  0.1649452300000000
  0.9017854199999999  0.0863004990000000  0.5267564400000000
  0.0807251830000000  0.9323076000000000  0.5283026100000000
  0.7561135900000000  0.5982276300000000  0.3283518100000000
  0.9101439099999999  0.9334167900000000  0.3621051100000000
  0.9272169600000000  0.4435944200000000  0.9904650600000000
  0.7197233400000000  0.9231692700000000  0.8400099300000000
  0.0898370530000000  0.2735977900000000  0.3277721100000000
  0.2311974900000000  0.9274599900000000  0.8424375300000000
  0.2321757800000000  0.9193587900000000  0.6897108900000000
  0.4122202600000000  0.2540038100000000  0.6711134200000000
  0.0791908440000000  0.9265575500000000  0.0123354080000000
  0.7367290500000000  0.4255068400000000  0.8249835100000000
  0.4070157200000000  0.9323479300000000  0.6692344099999999
  0.9249530000000000  0.4320398600000000  0.3353022300000000
  0.4097856800000000  0.0853981510000000  0.0208435030000000
  0.5502643699999999  0.0907745030000000  0.8474662200000000
  0.9133197400000000  0.2547881200000000  0.5047104600000000
  0.5832511800000000  0.0884553820000000  0.5051708800000000
  0.9028649100000000  0.7663559599999999  0.8601247800000000
  0.7399785800000001  0.4123181100000000  0.6781135200000000
  0.0588329810000000  0.1011085700000000  0.6820495000000000
  0.7411409300000000  0.2656528600000000  0.8481648800000000
  0.0983418420000000  0.4296873600000000  0.5038230600000000
  0.9211781100000000  0.0923197090000000  0.3498392400000000
  0.9333526300000000  0.2621133100000000  0.1683163000000000
  0.6006791400000000  0.2721628600000000  0.1668992000000000
  0.7660112300000000  0.2552587300000000  0.1782933200000000
  0.9268829300000000  0.5952283000000000  0.8335553300000000
  0.5724158100000000  0.2620392300000000  0.3401901400000000
  0.9088053100000000  0.5811614500000000  0.6743517400000000
  0.2525296600000000  0.5714098800000000  0.0276302800000000
  0.0669045500000000  0.7539466500000001  0.0282196000000000
  0.0831261540000000  0.6063375500000000  0.6739347800000000
  0.7535197700000000  0.4265906400000000  0.3406983100000000
  0.4094386000000000  0.7642489600000000  0.8452313299999999
  0.0872955940000000  0.6012937100000000  0.3484491600000000
  0.9226395200000000  0.5896072999999999  0.5032274300000000
  0.5718130100000000  0.4270981700000000  0.8372966300000000
  0.5784513600000000  0.1004495500000000  0.6710114300000000
  0.9159749000000000  0.4209205800000000  0.1678906800000000
  0.2407424200000000  0.4308128500000000  0.8567741800000001
  0.2487767500000000  0.0893815970000000  0.0071656494000000
  0.9151250500000000  0.9196085500000000  0.5221084600000000
  0.5733017000000000  0.7484864400000000  0.5051327200000000
  0.2474616900000000  0.5928607400000000  0.3388032600000000
  0.2493470300000000  0.4243594000000000  0.5214251200000000
  0.4110282100000000  0.9241027000000001  0.1776736700000000
  0.0830242080000000  0.5895928400000000  0.5225050800000000
  0.2439008800000000  0.0823566790000000  0.1891375200000000
  0.0890413170000000  0.2726904800000000  0.6683476100000000
  0.4032546100000000  0.0947705520000000  0.8483355299999999
  0.0811449210000000  0.7586496000000000  0.6876122300000000
  0.2607381400000000  0.2773418200000000  0.8413493100000000
  0.7486492900000000  0.2605403800000000  0.9995100600000000
  0.5633891500000000  0.7677668300000000  0.8377172600000000
  0.7494769800000000  0.4423682300000000  0.0092474266000000
  0.2389961300000000  0.5989870600000000  0.1753031600000000
  0.4108707800000000  0.7627285100000000  0.5021964700000000
  0.0706780050000000  0.0874419940000000  0.8363632300000000
  0.5627144300000000  0.2563462700000000  0.6690673300000000
  0.9108877500000000  0.4301266000000000  0.6646176300000000
  0.9179112100000000  0.0977632480000000  0.0043567743000000
  0.4087710100000000  0.7521606800000000  0.3386292600000000
  0.0723358970000000  0.4218890000000000  0.6795241000000000
  0.2449534700000000  0.7646201900000000  0.8559775700000000
  0.8952872100000000  0.1022186900000000  0.8456000100000000
  0.4098299700000000  0.4105500000000000  0.3493199900000000
  0.4210000000000000  0.5906100300000000  0.3288600100000000
  0.5893000400000000  0.4294100100000000  0.3294600000000000
  0.4098299700000000  0.5795900200000000  0.5097299800000000
  0.5778700100000000  0.5859400000000000  0.3337799900000000
  0.4100900300000000  0.4120700100000000  0.6862800100000001
  0.4212600000000000  0.4230700100000000  0.5054100200000000
  0.5893000400000000  0.5984500000000000  0.4898800000000000
  0.5781300100000000  0.5874400100000000  0.6707500199999999
  0.4212600000000000  0.5921099800000000  0.6658300200000000
  0.5895600300000000  0.4309099900000000  0.6664199800000000
  0.5781300100000000  0.4183900100000000  0.5103300200000001
  0.0830941250000000  0.0984797950000000  0.1788919600000000
  0.5800991800000000  0.9180224600000000  0.0138105090000000
  0.5918497400000000  0.2657987300000000  0.4973856100000000
  0.5786566100000000  0.0969083590000000  0.3284644400000000
  0.7451573200000000  0.7656684200000000  0.0268464250000000
  0.4068319700000000  0.5950156800000000  0.8373708800000000
  0.0853687830000000  0.5884928800000000  0.0098127044000000
  0.5796361900000000  0.9249675200000000  0.5066417900000000
  0.9231990300000000  0.4090299700000000  0.5132630000000000
  0.4051834100000000  0.0911285330000000  0.6839289400000000
  0.4035363800000000  0.7665710100000001  0.1733298400000000
  0.9019219200000000  0.7819177600000000  0.3616762200000000
  0.2647304400000000  0.7572858800000000  0.6720484100000000
  0.7412548400000000  0.7523789000000000  0.3444228000000000
  0.2502540000000000  0.0920962650000000  0.3321988600000000
  0.7438667700000000  0.0902835930000000  0.0176962480000000
  0.0772702260000000  0.4281730100000000  0.8363261500000000
  0.9077516100000000  0.9379738300000000  0.0188799810000000
  0.7498764999999999  0.5861797800000000  0.6618095300000000
  0.5810763700000000  0.4315682700000000  0.9916501000000000
  0.7552146400000000  0.7675634099999999  0.5191621600000000
 
  0.00000000E+00  0.00000000E+00  0.00000000E+00
  0.00000000E+00  0.00000000E+00  0.00000000E+00
  0.00000000E+00  0.00000000E+00  0.00000000E+00
  0.00000000E+00  0.00000000E+00  0.00000000E+00
  0.00000000E+00  0.00000000E+00  0.00000000E+00
  0.00000000E+00  0.00000000E+00  0.00000000E+00
  0.00000000E+00  0.00000000E+00  0.00000000E+00
  0.00000000E+00  0.00000000E+00  0.00000000E+00
  0.00000000E+00  0.00000000E+00  0.00000000E+00
  0.00000000E+00  0.00000000E+00  0.00000000E+00
  0.00000000E+00  0.00000000E+00  0.00000000E+00
  0.00000000E+00  0.00000000E+00  0.00000000E+00
  0.00000000E+00  0.00000000E+00  0.00000000E+00
  0.00000000E+00  0.00000000E+00  0.00000000E+00
  0.00000000E+00  0.00000000E+00  0.00000000E+00
  0.00000000E+00  0.00000000E+00  0.00000000E+00
  0.00000000E+00  0.00000000E+00  0.00000000E+00
  0.00000000E+00  0.00000000E+00  0.00000000E+00
  0.00000000E+00  0.00000000E+00  0.00000000E+00
  0.00000000E+00  0.00000000E+00  0.00000000E+00
  0.00000000E+00  0.00000000E+00  0.00000000E+00
  0.00000000E+00  0.00000000E+00  0.00000000E+00
  0.00000000E+00  0.00000000E+00  0.00000000E+00
  0.00000000E+00  0.00000000E+00  0.00000000E+00
  0.00000000E+00  0.00000000E+00  0.00000000E+00
  0.00000000E+00  0.00000000E+00  0.00000000E+00
  0.00000000E+00  0.00000000E+00  0.00000000E+00
  0.00000000E+00  0.00000000E+00  0.00000000E+00
  0.00000000E+00  0.00000000E+00  0.00000000E+00
  0.00000000E+00  0.00000000E+00  0.00000000E+00
  0.00000000E+00  0.00000000E+00  0.00000000E+00
  0.00000000E+00  0.00000000E+00  0.00000000E+00
  0.00000000E+00  0.00000000E+00  0.00000000E+00
  0.00000000E+00  0.00000000E+00  0.00000000E+00
  0.00000000E+00  0.00000000E+00  0.00000000E+00
  0.00000000E+00  0.00000000E+00  0.00000000E+00
  0.00000000E+00  0.00000000E+00  0.00000000E+00
  0.00000000E+00  0.00000000E+00  0.00000000E+00
  0.00000000E+00  0.00000000E+00  0.00000000E+00
  0.00000000E+00  0.00000000E+00  0.00000000E+00
  0.00000000E+00  0.00000000E+00  0.00000000E+00
  0.00000000E+00  0.00000000E+00  0.00000000E+00
  0.00000000E+00  0.00000000E+00  0.00000000E+00
  0.00000000E+00  0.00000000E+00  0.00000000E+00
  0.00000000E+00  0.00000000E+00  0.00000000E+00
  0.00000000E+00  0.00000000E+00  0.00000000E+00
  0.00000000E+00  0.00000000E+00  0.00000000E+00
  0.00000000E+00  0.00000000E+00  0.00000000E+00
  0.00000000E+00  0.00000000E+00  0.00000000E+00
  0.00000000E+00  0.00000000E+00  0.00000000E+00
  0.00000000E+00  0.00000000E+00  0.00000000E+00
  0.00000000E+00  0.00000000E+00  0.00000000E+00
  0.00000000E+00  0.00000000E+00  0.00000000E+00
  0.00000000E+00  0.00000000E+00  0.00000000E+00
  0.00000000E+00  0.00000000E+00  0.00000000E+00
  0.00000000E+00  0.00000000E+00  0.00000000E+00
  0.00000000E+00  0.00000000E+00  0.00000000E+00
  0.00000000E+00  0.00000000E+00  0.00000000E+00
  0.00000000E+00  0.00000000E+00  0.00000000E+00
  0.00000000E+00  0.00000000E+00  0.00000000E+00
  0.00000000E+00  0.00000000E+00  0.00000000E+00
  0.00000000E+00  0.00000000E+00  0.00000000E+00
  0.00000000E+00  0.00000000E+00  0.00000000E+00
  0.00000000E+00  0.00000000E+00  0.00000000E+00
  0.00000000E+00  0.00000000E+00  0.00000000E+00
  0.00000000E+00  0.00000000E+00  0.00000000E+00
  0.00000000E+00  0.00000000E+00  0.00000000E+00
  0.00000000E+00  0.00000000E+00  0.00000000E+00
  0.00000000E+00  0.00000000E+00  0.00000000E+00
  0.00000000E+00  0.00000000E+00  0.00000000E+00
  0.00000000E+00  0.00000000E+00  0.00000000E+00
  0.00000000E+00  0.00000000E+00  0.00000000E+00
  0.00000000E+00  0.00000000E+00  0.00000000E+00
  0.00000000E+00  0.00000000E+00  0.00000000E+00
  0.00000000E+00  0.00000000E+00  0.00000000E+00
  0.00000000E+00  0.00000000E+00  0.00000000E+00
  0.00000000E+00  0.00000000E+00  0.00000000E+00
  0.00000000E+00  0.00000000E+00  0.00000000E+00
  0.00000000E+00  0.00000000E+00  0.00000000E+00
  0.00000000E+00  0.00000000E+00  0.00000000E+00
  0.00000000E+00  0.00000000E+00  0.00000000E+00
  0.00000000E+00  0.00000000E+00  0.00000000E+00
  0.00000000E+00  0.00000000E+00  0.00000000E+00
  0.00000000E+00  0.00000000E+00  0.00000000E+00
  0.00000000E+00  0.00000000E+00  0.00000000E+00
  0.00000000E+00  0.00000000E+00  0.00000000E+00
  0.00000000E+00  0.00000000E+00  0.00000000E+00
  0.00000000E+00  0.00000000E+00  0.00000000E+00
  0.00000000E+00  0.00000000E+00  0.00000000E+00
  0.00000000E+00  0.00000000E+00  0.00000000E+00
  0.00000000E+00  0.00000000E+00  0.00000000E+00
  0.00000000E+00  0.00000000E+00  0.00000000E+00
  0.00000000E+00  0.00000000E+00  0.00000000E+00
  0.00000000E+00  0.00000000E+00  0.00000000E+00
  0.00000000E+00  0.00000000E+00  0.00000000E+00
  0.00000000E+00  0.00000000E+00  0.00000000E+00
  0.00000000E+00  0.00000000E+00  0.00000000E+00
  0.00000000E+00  0.00000000E+00  0.00000000E+00
  0.00000000E+00  0.00000000E+00  0.00000000E+00
  0.00000000E+00  0.00000000E+00  0.00000000E+00
  0.00000000E+00  0.00000000E+00  0.00000000E+00
  0.00000000E+00  0.00000000E+00  0.00000000E+00
  0.00000000E+00  0.00000000E+00  0.00000000E+00
  0.00000000E+00  0.00000000E+00  0.00000000E+00
  0.00000000E+00  0.00000000E+00  0.00000000E+00
  0.00000000E+00  0.00000000E+00  0.00000000E+00
  0.00000000E+00  0.00000000E+00  0.00000000E+00
  0.00000000E+00  0.00000000E+00  0.00000000E+00
  0.00000000E+00  0.00000000E+00  0.00000000E+00
  0.00000000E+00  0.00000000E+00  0.00000000E+00
  0.00000000E+00  0.00000000E+00  0.00000000E+00
  0.00000000E+00  0.00000000E+00  0.00000000E+00
  0.00000000E+00  0.00000000E+00  0.00000000E+00
  0.00000000E+00  0.00000000E+00  0.00000000E+00
  0.00000000E+00  0.00000000E+00  0.00000000E+00
  0.00000000E+00  0.00000000E+00  0.00000000E+00
  0.00000000E+00  0.00000000E+00  0.00000000E+00
  0.00000000E+00  0.00000000E+00  0.00000000E+00
  0.00000000E+00  0.00000000E+00  0.00000000E+00
  0.00000000E+00  0.00000000E+00  0.00000000E+00
  0.00000000E+00  0.00000000E+00  0.00000000E+00
  0.00000000E+00  0.00000000E+00  0.00000000E+00
  0.00000000E+00  0.00000000E+00  0.00000000E+00
  0.00000000E+00  0.00000000E+00  0.00000000E+00
  0.00000000E+00  0.00000000E+00  0.00000000E+00
  0.00000000E+00  0.00000000E+00  0.00000000E+00
  0.00000000E+00  0.00000000E+00  0.00000000E+00
  0.00000000E+00  0.00000000E+00  0.00000000E+00
  0.00000000E+00  0.00000000E+00  0.00000000E+00
  0.00000000E+00  0.00000000E+00  0.00000000E+00
  0.00000000E+00  0.00000000E+00  0.00000000E+00
  0.00000000E+00  0.00000000E+00  0.00000000E+00
  0.00000000E+00  0.00000000E+00  0.00000000E+00
  0.00000000E+00  0.00000000E+00  0.00000000E+00
  0.00000000E+00  0.00000000E+00  0.00000000E+00
  0.00000000E+00  0.00000000E+00  0.00000000E+00
  0.00000000E+00  0.00000000E+00  0.00000000E+00
  0.00000000E+00  0.00000000E+00  0.00000000E+00
  0.00000000E+00  0.00000000E+00  0.00000000E+00
  0.00000000E+00  0.00000000E+00  0.00000000E+00
  0.00000000E+00  0.00000000E+00  0.00000000E+00
  0.00000000E+00  0.00000000E+00  0.00000000E+00
  0.00000000E+00  0.00000000E+00  0.00000000E+00
  0.00000000E+00  0.00000000E+00  0.00000000E+00
  0.00000000E+00  0.00000000E+00  0.00000000E+00
  0.00000000E+00  0.00000000E+00  0.00000000E+00
  0.00000000E+00  0.00000000E+00  0.00000000E+00
  0.00000000E+00  0.00000000E+00  0.00000000E+00
  0.00000000E+00  0.00000000E+00  0.00000000E+00
  0.00000000E+00  0.00000000E+00  0.00000000E+00
  0.00000000E+00  0.00000000E+00  0.00000000E+00
  0.00000000E+00  0.00000000E+00  0.00000000E+00
  0.00000000E+00  0.00000000E+00  0.00000000E+00
  0.00000000E+00  0.00000000E+00  0.00000000E+00
  0.00000000E+00  0.00000000E+00  0.00000000E+00
  0.00000000E+00  0.00000000E+00  0.00000000E+00
  0.00000000E+00  0.00000000E+00  0.00000000E+00
  0.00000000E+00  0.00000000E+00  0.00000000E+00
  0.00000000E+00  0.00000000E+00  0.00000000E+00
  0.00000000E+00  0.00000000E+00  0.00000000E+00
  0.00000000E+00  0.00000000E+00  0.00000000E+00
  0.00000000E+00  0.00000000E+00  0.00000000E+00
  0.00000000E+00  0.00000000E+00  0.00000000E+00
  0.00000000E+00  0.00000000E+00  0.00000000E+00
  0.00000000E+00  0.00000000E+00  0.00000000E+00
  0.00000000E+00  0.00000000E+00  0.00000000E+00
  0.00000000E+00  0.00000000E+00  0.00000000E+00
  0.00000000E+00  0.00000000E+00  0.00000000E+00
  0.00000000E+00  0.00000000E+00  0.00000000E+00
  0.00000000E+00  0.00000000E+00  0.00000000E+00
  0.00000000E+00  0.00000000E+00  0.00000000E+00
  0.00000000E+00  0.00000000E+00  0.00000000E+00
  0.00000000E+00  0.00000000E+00  0.00000000E+00
  0.00000000E+00  0.00000000E+00  0.00000000E+00
  0.00000000E+00  0.00000000E+00  0.00000000E+00
  0.00000000E+00  0.00000000E+00  0.00000000E+00
  0.00000000E+00  0.00000000E+00  0.00000000E+00
  0.00000000E+00  0.00000000E+00  0.00000000E+00
  0.00000000E+00  0.00000000E+00  0.00000000E+00
  0.00000000E+00  0.00000000E+00  0.00000000E+00
  0.00000000E+00  0.00000000E+00  0.00000000E+00
  0.00000000E+00  0.00000000E+00  0.00000000E+00
  0.00000000E+00  0.00000000E+00  0.00000000E+00
  0.00000000E+00  0.00000000E+00  0.00000000E+00
  0.00000000E+00  0.00000000E+00  0.00000000E+00
  0.00000000E+00  0.00000000E+00  0.00000000E+00
  0.00000000E+00  0.00000000E+00  0.00000000E+00
  0.00000000E+00  0.00000000E+00  0.00000000E+00
  0.00000000E+00  0.00000000E+00  0.00000000E+00
  0.00000000E+00  0.00000000E+00  0.00000000E+00
  0.00000000E+00  0.00000000E+00  0.00000000E+00
  0.00000000E+00  0.00000000E+00  0.00000000E+00
  0.00000000E+00  0.00000000E+00  0.00000000E+00
  0.00000000E+00  0.00000000E+00  0.00000000E+00
  0.00000000E+00  0.00000000E+00  0.00000000E+00
  0.00000000E+00  0.00000000E+00  0.00000000E+00
  0.00000000E+00  0.00000000E+00  0.00000000E+00
  0.00000000E+00  0.00000000E+00  0.00000000E+00
  0.00000000E+00  0.00000000E+00  0.00000000E+00
  0.00000000E+00  0.00000000E+00  0.00000000E+00
  0.00000000E+00  0.00000000E+00  0.00000000E+00
  0.00000000E+00  0.00000000E+00  0.00000000E+00
  0.00000000E+00  0.00000000E+00  0.00000000E+00
  0.00000000E+00  0.00000000E+00  0.00000000E+00
  0.00000000E+00  0.00000000E+00  0.00000000E+00
  0.00000000E+00  0.00000000E+00  0.00000000E+00
  0.00000000E+00  0.00000000E+00  0.00000000E+00
  0.00000000E+00  0.00000000E+00  0.00000000E+00
  0.00000000E+00  0.00000000E+00  0.00000000E+00
  0.00000000E+00  0.00000000E+00  0.00000000E+00
  0.00000000E+00  0.00000000E+00  0.00000000E+00
  0.00000000E+00  0.00000000E+00  0.00000000E+00
  0.00000000E+00  0.00000000E+00  0.00000000E+00
  0.00000000E+00  0.00000000E+00  0.00000000E+00
  0.00000000E+00  0.00000000E+00  0.00000000E+00
  0.00000000E+00  0.00000000E+00  0.00000000E+00
 
           1
   4.00000000000000     
  0.10000000E+01  0.00000000E+00  0.00000000E+00  0.00000000E+00
  0.82045049E-01  0.94152366E+00  0.69308705E+00
  0.58202207E+00  0.76934107E+00  0.32571264E+00
  0.76374747E-01  0.81135323E-01  0.99717421E+00
  0.89630932E+00  0.93720758E+00  0.84813229E+00
  0.91462094E+00  0.10267831E+00  0.68303768E+00
  0.72804144E+00  0.81903918E-01  0.84427991E+00
  0.42284898E+00  0.60892273E+00  0.17259908E-02
  0.40559664E+00  0.77642010E-01  0.34795351E+00
  0.23277196E+00  0.75506247E+00  0.34241076E+00
  0.73900607E+00  0.76046130E+00  0.18016645E+00
  0.25986181E+00  0.26210029E+00  0.51009030E+00
  0.76157738E+00  0.26682162E+00  0.32642330E+00
  0.58867811E+00  0.75816856E+00  0.66603141E+00
  0.42186006E+00  0.26705503E+00  0.89685729E-02
  0.41289303E+00  0.93269350E+00  0.57866154E-02
  0.23165579E+00  0.97579473E-01  0.85014081E+00
  0.41537550E+00  0.97476344E-01  0.17617419E+00
  0.73883097E+00  0.75697336E+00  0.86188541E+00
  0.73213209E+00  0.87826973E-01  0.68185370E+00
  0.90477501E+00  0.25530237E+00  0.67515664E+00
  0.55732543E+00  0.75071466E+00  0.15463193E+00
  0.89911127E-01  0.25261626E+00  0.99994858E+00
  0.43119998E+00  0.57031023E+00  0.16736338E+00
  0.74648856E+00  0.59226786E+00  0.99931184E+00
  0.74550546E+00  0.76504559E-01  0.34625274E+00
  0.89958392E+00  0.42518801E+00  0.83782147E+00
  0.90862380E+00  0.75564631E+00  0.68977153E+00
  0.92361167E+00  0.60409232E+00  0.15992541E+00
  0.65775766E-01  0.44232723E+00  0.16145084E+00
  0.74986829E+00  0.59439222E+00  0.83757064E+00
  0.25121121E+00  0.60812381E+00  0.85851286E+00
  0.80620974E-01  0.26127791E+00  0.16591693E+00
  0.58740403E+00  0.42520017E+00  0.17942202E+00
  0.25246445E+00  0.93158170E-01  0.67815582E+00
  0.23167366E+00  0.76055262E+00  0.66361426E-02
  0.40971270E+00  0.41869907E+00  0.20213677E-01
  0.74986628E+00  0.92226534E+00  0.34585055E+00
  0.92208856E+00  0.24979127E+00  0.34664444E+00
  0.75476517E-01  0.25125246E+00  0.82541939E+00
  0.89114669E-01  0.76762451E+00  0.84591019E+00
  0.94415655E-01  0.42863557E+00  0.34558050E+00
  0.24158182E+00  0.58705045E+00  0.69385956E+00
  0.75322041E+00  0.42071878E+00  0.49468766E+00
  0.81863786E-01  0.77847988E+00  0.18554043E+00
  0.90476946E+00  0.91114650E+00  0.68558698E+00
  0.89710197E+00  0.75642662E+00  0.19167959E+00
  0.74459170E-01  0.92102325E+00  0.33969605E+00
  0.85425739E-01  0.57711401E+00  0.84462666E+00
  0.23410585E+00  0.76328062E+00  0.18667877E+00
  0.57785780E+00  0.97188452E-01  0.18933609E-02
  0.91389302E+00  0.60575451E+00  0.55156965E-02
  0.76410405E-01  0.77287039E+00  0.51045311E+00
  0.73603705E+00  0.91024921E+00  0.18360783E+00
  0.57679928E+00  0.58789468E+00  0.10214680E-02
  0.24296125E+00  0.74121211E+00  0.51617802E+00
  0.58605244E+00  0.59621107E+00  0.16073696E+00
  0.90682997E+00  0.92704399E+00  0.19341746E+00
  0.42307263E+00  0.92965395E+00  0.33412966E+00
  0.69287914E-01  0.93483694E+00  0.18717292E+00
  0.42168969E+00  0.25094431E+00  0.34016483E+00
  0.74761294E+00  0.10493829E+00  0.17732941E+00
  0.91775591E+00  0.26989950E+00  0.83004837E+00
  0.75000043E+00  0.92807800E+00  0.68121614E+00
  0.24112522E+00  0.91818835E+00  0.35439632E+00
  0.42570556E+00  0.43413266E+00  0.83652142E+00
  0.64142569E-01  0.76610047E+00  0.36045723E+00
  0.41451174E+00  0.86371399E-01  0.51512954E+00
  0.74290700E+00  0.58852278E+00  0.50000634E+00
  0.40428813E+00  0.25699069E+00  0.84892186E+00
  0.25139271E+00  0.93389960E+00  0.17808379E+00
  0.74530198E+00  0.92229905E-01  0.52342889E+00
  0.76538520E+00  0.58738682E+00  0.16691551E+00
  0.57309355E+00  0.92064243E+00  0.34077318E+00
  0.25064138E+00  0.25308981E+00  0.16785855E+00
  0.26334187E+00  0.58519076E+00  0.50329472E+00
  0.58425268E+00  0.60124867E+00  0.83379342E+00
  0.24137971E+00  0.41826609E+00  0.17745265E+00
  0.56382393E+00  0.93642197E+00  0.83373108E+00
  0.91991069E+00  0.26580150E+00  0.65925821E-02
  0.77832112E-01  0.10782578E+00  0.49837119E+00
  0.90841938E+00  0.88071896E-01  0.18671635E+00
  0.74365361E+00  0.92977294E+00  0.50507181E+00
  0.74287888E-01  0.25782398E+00  0.50231447E+00
  0.24482908E+00  0.24434225E+00  0.71030283E-02
  0.40696377E+00  0.23896710E+00  0.51139199E+00
  0.25130944E+00  0.25366657E+00  0.34824880E+00
  0.23100626E+00  0.91668237E+00  0.21082659E-01
  0.92816528E-01  0.41332978E+00  0.43091550E-02
  0.23991463E+00  0.24889950E+00  0.68603261E+00
  0.92187417E+00  0.59264760E+00  0.34444907E+00
  0.25719487E+00  0.43580469E+00  0.32923038E+00
  0.56802686E+00  0.92326491E+00  0.66988684E+00
  0.41898647E+00  0.74900766E+00  0.68611567E+00
  0.74580681E+00  0.73335472E+00  0.67310707E+00
  0.75334064E+00  0.25603341E+00  0.66959655E+00
  0.56936824E-01  0.91838514E+00  0.86581337E+00
  0.25925429E+00  0.42206008E+00  0.67877743E+00
  0.41043380E+00  0.90960609E+00  0.50733317E+00
  0.43489736E+00  0.41442039E+00  0.17584484E+00
  0.90909189E+00  0.74672133E+00  0.51683904E+00
  0.25138112E+00  0.42259827E+00  0.83886932E-02
  0.59028780E+00  0.26519176E+00  0.97015608E-02
  0.74850693E+00  0.24967865E+00  0.51713978E+00
  0.57594408E+00  0.93539848E-01  0.16978668E+00
  0.91555702E+00  0.76867635E+00  0.29060843E-01
  0.57699154E+00  0.92013254E+00  0.17592711E+00
  0.76026811E-01  0.88561801E-01  0.34472708E+00
  0.58037802E+00  0.25920197E+00  0.83429816E+00
  0.24921663E+00  0.92720042E+00  0.51003964E+00
  0.83560376E-01  0.60042895E+00  0.16954323E+00
  0.42369639E+00  0.25315072E+00  0.17099037E+00
  0.38639688E+00  0.92202251E+00  0.84393106E+00
  0.74704380E+00  0.92735370E+00  0.27089615E-01
  0.39155039E+00  0.76455194E+00  0.20807202E-01
  0.59091228E+00  0.74790741E+00  0.11283192E-02
  0.23833109E+00  0.10190562E+00  0.52179998E+00
  0.75348285E+00  0.44160803E+00  0.16494523E+00
  0.90178542E+00  0.86300499E-01  0.52675644E+00
  0.80725183E-01  0.93230760E+00  0.52830261E+00