Ge Se                                   
   1.00000000000000     
    19.7402305603027344    0.0000000000000000    0.0000000000000000
     0.0000000000000000   19.7402305603027344    0.0000000000000000
     0.0000000000000000    0.0000000000000000   19.7402305603027344
   Ge   Se
   150   150
Direct
  0.4450274776969579  0.6335113069079715  0.4207795115909765
  0.2294369674119627  0.2364716105043895  0.3828258398734666
  0.2587548898116914  0.8577940846153238  0.7438439458252668
  0.8872310184993872  0.0550883075006493  0.7793266062342040
  0.9013950044112069  0.8310110119521853  0.8638922209557077
  0.0527170185717892  0.3978078746822581  0.6898270033650813
  0.0570805682437483  0.6594263751546524  0.6567165729795893
  0.3292106702786251  0.7713505636186281  0.4639148344153883
  0.4226983647050105  0.3916227653656527  0.6565382603325512
  0.0643493299175891  0.0905182543776772  0.9817064788982279
  0.6456178566908022  0.4880398972299796  0.1709850942797484
  0.1007105027841521  0.3516934666568222  0.2888238690788980
  0.8672164699320842  0.8247198103251976  0.1707039721615861
  0.8287442080802127  0.4744473922697170  0.8265539600364578
  0.3155768304474291  0.2849932997805741  0.2054987379431922
  0.3691475109606527  0.5397883672244056  0.7354664206273004
  0.9488911665192593  0.1382628160749153  0.1106163053989019
  0.8842230628936975  0.1716378772327085  0.6388558193396392
  0.0877561569262908  0.8365087015384072  0.7826524433931682
  0.4071472741942287  0.8100390256938178 -0.0000050246327620
  0.0755516521366819  0.6233390139195363  0.7817084579778426
  0.6890590020302789  0.1392359714171167  0.9027962462092599
  0.1325105038493430  0.7081800101063630  0.8708603679683439
  0.1485847953742068  0.8054882444891112  0.1785241172357660
  0.7957950859690844  0.0936297071190172  0.9622199659923081
  0.3645186026420181  0.5365304468381161  0.1613773132818847
  0.3866538551043692  0.2336103936630211  0.4782775178302470
  0.6485475475950555  0.1782898453873756  0.0236000722150003
  0.2500098642736657  0.9176676974623640  0.5353200561239694
  0.6676966544624614  0.5522161660900073  0.8167315136836634
  0.4908193317517759  0.2279453788126776  0.2027869534885381
  0.9689468413832506  0.6689661217419044  0.9165588771366004
  0.2251513935833150  0.1524186077473529  0.5097835671434092
  0.9693716658923097  0.5468334923623274  0.0544791302768651
  0.7549317914001844  0.3941456854755952  0.4817470120528581
  0.7732872006310467  0.2022510704561290  0.3156203458183544
  0.3208174508802226  0.6997627814558409  0.8873136816416168
  0.9177473351962177  0.6023190129809977  0.2221853803964469
  0.9693009232726418  0.0127289690180087  0.2333699484329787
  0.6624406081149289  0.8188759790603383  0.2753477567532787
  0.1825235218221387  0.9857862840314655  0.8644177120855375
  0.5213377178447618  0.6678576379397769 -0.0127712404713575
  0.6982851445440900  0.7467488970396275  0.0504950349316393
  0.0034383308496285  0.2745027979304694  0.1075976476045583
  0.1549055018836914  0.8158547673495303  0.4313867160389647
  0.6550436381249338  0.9183309311520749  0.0901948488714099
  0.6122499086607833  0.9703548342408125  0.8336450251695534
  0.7996867118269172  0.5886400331982433  0.4657483233951190
  0.1221425056402671  0.1526576857435414  0.1924411869955949
  0.1111165510040053  0.8232125414467377  0.5539683810385843
  0.3392576060001951  0.9601131321893042  0.6966477707153964
  0.4075731296964090  0.6629088306683980  0.6127320654819197
  0.9371905830899316  0.7495097924575999  0.7646791113779483
  0.5300165018411795  0.4555795309140891  0.3357497271045357
  0.6654476202242026  0.6648411925248812  0.1945792519058933
  0.3635756974944422  0.7525445082123676  0.7580267107310331
  0.4872469397345635  0.1046947534906661  0.0571775933580558
  0.3224556249573691  0.4537631761773711  0.0166874896548628
  0.8198364634382380  0.8840500825625489  0.5690831696979655
  0.5678032027537431  0.0561521249276947  0.2510643003452435
  0.3861315709158541  0.4099294344072281  0.8170489034466412
  0.1247273026574428  0.0572837200575889  0.4729919561376382
  0.7734827608606379  0.0646406924354540  0.4996892699585112
  0.0188461023796868  0.7880056994602578  0.2905470750828971
  0.5191223345792092  0.7848528853022471  0.1410869069053046
  0.2532207994538896  0.8791163799521786  0.2501306567867929
  0.4979110832744196  0.0278336826303172  0.8100379233418880
  0.6420167167214871  0.9662305043123516  0.6015434894362568
  0.1797876632741386  0.5910336317896954  0.0088696036597817
  0.8541101528606114  0.7176342102085580  0.2480510899497476
  0.4846378839183946  0.5526400103672209  0.6077253029180476
  0.5137221618350205  0.4827899102753471  0.9564805048555717
  0.4200755375481082  0.2024082841363869  0.8530742427305057
  0.6114575150928585  0.5385174046735146  0.5038895574428703
  0.7170614206740638  0.2847000049908057  0.0457542315292277
  0.2957968798034882  0.3528294554016261  0.6883358029031319
  0.8723167922607049  0.8959669581896816  0.0423976801071529
  0.3175930162919139  0.0467943855323168  0.1800811497961484
  0.0962083024352915  0.6848114079403452  0.2806244418208636
  0.8852945958610808  0.2677224605335756  0.9784108758192219
  0.7621557576098554  0.4434513742881152  0.2207048299573454
  0.1711743690975693  0.6973124047395136  0.3830653930742799
  0.5177578407373784  0.4827604955249545  0.7347044730177734
  0.4509764191745236  0.3737355191631433  0.1861872201649195
  0.3994256423273210  0.6216995977430735  0.9596677446855151
  0.8760128003200006  0.2947982338482310  0.7993191027350377
 -0.0113738987697213  0.5017822607228001  0.5492723957624293
  0.6760517401771781  0.7238896789027802  0.5164785839955485
  0.6949915318985268  0.1098301849930349  0.7390203589848525
  0.8517434467746197  0.6827149474029837  0.0583195506325160
  0.8414943010762208  0.0419922152816019  0.3923363910366824
  0.1587268219624277  0.2665071272209546  0.5603915674567002
  0.2301481394404895  0.8711271813861677  0.0272197492228235
  0.5030893184144519  0.7793870695198267  0.8794327505389922
  0.8323160863031180  0.0140849059735427  0.2396898836007381
  0.0567578889111549  0.0505879590445907  0.6690634292155184
  0.8930508916438177  0.8973854406895478  0.3709236657605567
  0.2229277743215966  0.1857355494969592  0.8982795976464423
  0.7041246959394255  0.6004454673017123  0.0131670014856859
  0.0655374763352253  0.9232964629018113  0.9951833455449429
  0.0768249477426275  0.4545353212142050  0.8922890600941649
  0.5373885500154525  0.2772327192135496  0.5788997502549784
  0.8864323464791755  0.9467428938348521  0.7021029191873244
  0.0734239510136794  0.9840487964357070  0.3156458110458331
  0.8590057929682176  0.4888586007093831  0.1415769887130932
  0.7110195300488503  0.8247729608723956  0.7278069154309555
  0.2045314010187794  0.0303431825903720  0.3240954276312287
  0.0295798412011808  0.3776558900760215  0.4556891405343104
  0.5214901475721390  0.8027406051429947  0.6702207516790667
  0.5812317324306983  0.1750916160301329  0.7517705587244882
  0.0027935197546034  0.1645681678031709  0.3755972074116458
  0.6245567782285545  0.1340663748256530  0.3772700899026611
  0.2740835857520392  0.4541680828295228  0.2117545185648421
  0.9499647065221147  0.0242680520456251  0.8909566684837201
  0.3653613003149657  0.0946875465706497  0.5865810075073057
  0.3996167142579076  0.3351924615266308  0.3703733480556465
  0.8022831137015808  0.3371433487214259  0.2883946045899722
  0.7675327681269262  0.8285938818890332  0.8639142276083043
  0.3948832469136527  0.9768291569030078  0.3688097774069379
  0.1101207902476459  0.6094705681820931  0.4639870414216865
  0.3249870751674050  0.1532308036209082  0.7734426142927342
  0.7105698103580338  0.5697773536388812  0.3646668901994852
  0.5354850410877899  0.9843317558035420  0.0151682029699630
  0.6803671343090743  0.9381590799933549  0.3844638835140770
  0.3472195028324638  0.5979255753919650  0.3301339597119628
  0.6962378356385313  0.5709862345309153  0.6310868875025571
  0.6353750550878373  0.3176367240887650  0.3241632553549383
  0.8351667253248199  0.3116750820727001  0.0887517678915198
  0.4595217405370353  0.8902373092922381  0.1722846509842051
  0.5412976833187534  0.3603850564257843  0.7933152145362730
  0.7739599582521505  0.1899958035649252  0.5358911113716811
  0.4147717136129735  0.8774595274664480  0.8518395069467021
  0.3881974184827117  0.2488534985084496  0.0726369317897745
  0.2338638904153240  0.2706361196075335  0.7825031069934085
  0.7163416630230655  0.2717408987583705  0.6550931502772598
  0.1481048550420308  0.3751495657934511  0.0514243713165576
  0.1729134216179198  0.1008212668556972  0.7269545513074495
  0.2229052856044109  0.5636543283970780  0.5944782514459156
  0.2310931813992064  0.1826527122244087  0.0418480107686941
  0.7690999213620747  0.0849842037553893  0.0863678632650422
  0.7686788668424084  0.6757495924761382  0.7631567366787205
  0.4806689708078354  0.1870703938146904  0.6597040987523660
  0.9993672538531191  0.3093003034091746  0.9299183044181462
  0.8554724272906907  0.3717795775733412  0.6310949977507887
  0.0582145317258106  0.2487341593437862  0.8147651873297258
  0.7197260056405604  0.4689546844397261  0.0020438796774672
  0.1494759658082190  0.4316357595034849  0.5123742242803598
  0.5273959567241047  0.8120333681937368  0.4941575246987423
  0.9501142692798764  0.6758363252262343  0.4783955594839066
  0.4203762888296305  0.2864531975355272  0.9495747365245095
  0.0454327148551373  0.3268406843866600  0.5737583298157710
  0.7036256584396907  0.2285288879039092  0.4260930859941313
  0.1325751464203204  0.9554147794040468  0.5555337233857546
  0.4140684434069361  0.6252542407911797  0.2283455202896641
  0.6461477029075814  0.4801326464393098  0.7090413994166459
  0.8364607975894202  0.4256141310718564  0.0262017887945971
  0.9667072810173811  0.6633061502401696  0.1153461948503320
  0.5034605355250892  0.0977592108911309  0.5610540711248344
  0.2168419902070881  0.5352463553181205  0.4689159660741730
  0.0134035059502780  0.7768142416483436  0.6665062248548076
  0.6436710030761508  0.3391233073604648  0.5760486300583255
  0.8242971972108544  0.7005998402718685  0.5094200281861938
  0.1169390261229227  0.8183349458520578  0.0562061835788496
  0.2915578413826501  0.8934452873575407  0.8661318203671847
  0.9901761257495982  0.1381497999427867  0.2466245003365274
  0.7834330310201013  0.4979157886397868  0.5582812921066207
  0.0535448096883991  0.8717511261945731  0.3789511285395906
  0.1198475448063165  0.2739099961973464  0.4367699680551968
  0.1552847943685947  0.9326887602108350  0.7326276770111110
  0.6422160712024547  0.2809348108801921  0.7768816507871078
  0.3188275520392094  0.5863959844183899  0.0534340311180983
  0.7094786794785026  0.4424692805969263  0.8784936661692985
  0.7826207431602403  0.9738749720532452  0.1306861057089045
  0.5246432963160175  0.9085588844683352  0.5700203639789918
  0.4439647733411434  0.8018304852108247  0.4085443630576189
  0.1524677622186431  0.1485889025950535  0.3226043191310760
  0.7381912395294484  0.7090909236414640  0.2997914315782845
  0.2243063387760579  0.6179390048027190  0.8863351505709647
  0.3963458110424035  0.2300035316871189  0.2963544624132033
  0.3275073760769170  0.0701958581041382  0.3076285725194592
  0.7701584283904411  0.2758656352592203  0.9307480868353732
  0.9477899249013941  0.6252007459469038  0.7916387116762240
  0.4137325402933762  0.0731193964558598  0.7122913657362167
  0.9541307453566427  0.1513210611122589  0.5305491703023727
  0.1971288594323036  0.4671812573181661  0.9669151260276245
  0.0145910379413440  0.3861654108364927  0.0338127225118027
  0.2523357295066079  0.8935761364782471  0.4116634266057305
  0.9895545225575174  0.8536018848200058  0.1931803386650290
  0.1083488504372638  0.4958930868039947  0.6153720225389004
  0.0115114483481405  0.0366754529492273  0.4141217644947276
  0.1603337375071179  0.4772525575598508  0.1330089357389548
  0.2340317751790287  0.0795033240484422  0.6137766152667908
  0.1092462031996392  0.1348972552315287  0.8636216378110819
  0.6745579516410365  0.1542448233199618  0.6167346882836880
  0.7777131180576859  0.5938124202159879  0.1234900755904664
  0.9096497898725288  0.3265230471966298  0.4602449841623534
  0.2898769570707613  0.7546360959554417  0.9983562553286696
  0.6970182579738452  0.8478589304964890  0.5972299460230974
  0.3608080286067475  0.2245399460669430  0.6028546410834856
  0.8792963059335700  0.5904309858102584  0.9698913531449175
  0.1479193360198433  0.6739054504688848  0.5709043828696853
  0.0920653849289045  0.4635637097114739  0.2326048517487910
  0.7550034979924473  0.8464247562309476  0.9916918484636025
  0.6093743772856567  0.2072956985223487  0.2662679436530968
  0.5626604726592607  0.7379060634418543  0.2448588703695661
  0.2731004429586514  0.4546650480669261  0.7642098180113873
  0.4464224027290101  0.9869401627390916  0.9175603875364187
  0.4484808020242005  0.2830590061326046  0.7589366117795100
  0.2713393736721835  0.3009276304473334  0.0546860596804072
  0.9507111147910973  0.8116250768727601  0.9745566126536128
  0.6086353984742754  0.8468335179951729  0.8327111981828996
  0.9741342930308611  0.0100284726354786  0.1090502359634599
  0.3473113595444489  0.6450062620096149  0.5048804216265969
  0.7047719858791445  0.9857229303094207  0.7524605491290383
  0.4812310680699551  0.7075298968194452  0.7749819845469298
  0.2601420710988300  0.1666764250149811  0.1731178796320859
  0.9830957045369360  0.9616641530721850  0.6247670105578869
  0.4641428562195550  0.0986413753612466  0.1831287869068634
  0.1405046833341705  0.2254244350330501  0.7063610969630308
  0.3895744059100739  0.5028908708157451  0.9152747399792158
  0.1014747829574527  0.1987107497513928  0.0434018743886584
  0.8135104727734440  0.8913634928170200  0.2715781361501851
  0.2888880112172446  0.7163009474981369  0.3447379304809155
  0.4547527154870034  0.4706847232214068  0.1038415947989169
  0.8339329317820571  0.7534688722325394  0.6932605306824473
  0.7954049524169903  0.0050105387505958  0.6055770217006339
  0.5780690238449129  0.3909396449898835  0.2281163573813018
  0.4019206245209164  0.7861807054133192  0.6238612897093183
  0.6187232548812560  0.5674393084826095  0.2658005254113031
  0.0677965597613505  0.1316356084698635  0.5670155334612139
  0.5717244951920063  0.9352985287842842  0.2001100593411309
  0.0140507565490983  0.6010579006604880  0.3069867494282347
  0.2451214291544438  0.3655466373388572  0.5683221815171310
  0.1466074362927738  0.3316729073981206  0.8561867793832083
  0.2417842280121688  0.5409943302811646  0.2952315022611274
  0.5504162987963982  0.7129137102345048  0.5651766798537744
  0.9090165806622938  0.1444254828188580  0.9768254211185357
  0.8699646663990509  0.1673277886314873  0.3959125778896326
  0.7924258753118754  0.3795680708456988  0.7470535628207196
  0.2318057046831653  0.8130835042137216  0.5940005067991261
  0.6552938640594036  0.0220570855510981  0.4812500813962162
  0.9746479085706076  0.1279928003105744  0.7250448744094053
  0.8968971157212533  0.3386682247657991  0.1927495065751768
  0.5096968920200377  0.0290063874121336  0.3593103073702784
  0.2317237733794366  0.3335306339949512  0.3003664765822418
  0.4030812874968456  0.9246656496403419  0.0705176854223697
  0.5254436679100192  0.3546485381355103  0.9186160691408332
  0.1862393584239976  0.7480461530486224  0.7606718160101820
  0.4586305393285707  0.3642494221163639  0.5399451149740884
  0.9511520914279540  0.3928887922428487  0.8473931140045511
  0.4044510753673884  0.4377006709295667  0.2872560318731744
  0.0550965509201821  0.5766461940629680  0.9537161523637417
  0.3682284619288492  0.4998082392953315  0.6134055715546539
  0.3639429163012040  0.9520438349158711  0.5691444038515298
  0.7336584017062987  0.0555881624220102  0.3191719469808066
  0.5887731368662511  0.5905852964835714  0.0671347535539516
  0.7866452955238903  0.8834575289897499  0.4409236602459532
  0.2904044364705725  0.0811405229315404  0.8693225037256057
  0.3861539326004194  0.8894304966975837  0.2700529933383484
  0.3411381462063452  0.1087642597650205  0.4633284469619720
  0.5289741653192921  0.3377056513859764  0.3962476315591387
  0.9156764028931021  0.5604684724711478  0.4346491723231408
  0.8362795937175689  0.9797568024413347  0.9315677136859002
  0.8571664979359932  0.4072466703178450  0.3833946688825685
  0.6448219340355558  0.3833012235694525  0.0517496183317083
  0.8304553421282777  0.1599034530672301  0.1593241043927580
  0.4391465857192209  0.7128208042044301  0.0830534710361334
  0.5397708973439415  0.5480284054478447  0.8464364913193190
  0.1096698942888959  0.2854500417371090  0.1798094179350535
  0.5361857245597635  0.2202805632402575  0.0457150932647769
  0.7172702322263587  0.8190795359642030  0.1545542410230790
  0.4850577619815917  0.5224320516739523  0.4795863775681667
  0.6575918429942154  0.7046159445938698  0.7269870822115495
  0.1646568551060427  0.0144436074773155  0.0042757808888978
  0.5154810120501724  0.1907130795432326  0.4819954321390360
  0.1418554391834211  0.6800950920952816  0.1703493221740853
  0.6618224935989432  0.4587174613167501  0.4123299318163916
  0.7832925563134391  0.7017311920618404  0.8809668287215890
  0.1064217547266062  0.5048946863572381  0.7798875595086479
  0.6470885993052473  0.0158794312797935  0.9438471519562508
  0.9575681062133073  0.6165037095848301  0.5974223037071159
  0.5314914030702189  0.1438243798123408  0.8660475105437012
  0.3213625472200924  0.3452604656225904  0.9021268321873331
  0.5825838658268673  0.8136142119791225  0.0387548608043055
  0.9421755159964867  0.4605894323992903  0.6660210571060976
  0.9133767503042550  0.7595883731006964  0.3521416797754844
  0.8096787773419579  0.5281117239215373  0.2947443227239592
  0.6202972650610278  0.6399472075786873  0.4276230375889474
  0.6513628935725657  0.0974797191416171  0.1152654077730437
  0.1992941093579711  0.9895154486653929  0.2006891419471167
  0.6311360802559688  0.8136353389629692  0.4296638381951240
  0.9704745402382918  0.9225963553640359  0.8095587233714748
  0.7975957185319188  0.5652102258008611  0.7224121436222113
  0.3095332159017638  0.6486853007307796  0.6967185378025659
  0.4514094814591315  0.9098588807316871  0.7361435251629640
  0.8040713466602827  0.1539312066164623  0.7772555804346095
  0.3730340083611957  0.1339191578293172  0.0169528999626353
  0.1389079782943971  0.8657145479781978  0.9055235907657144
  0.2737616306221788  0.8145277137830078  0.1456491174200328
  0.9334143797786389  0.2823057691537171  0.6835604735441727
 
  0.00000000E+00  0.00000000E+00  0.00000000E+00
  0.00000000E+00  0.00000000E+00  0.00000000E+00
  0.00000000E+00  0.00000000E+00  0.00000000E+00
  0.00000000E+00  0.00000000E+00  0.00000000E+00
  0.00000000E+00  0.00000000E+00  0.00000000E+00
  0.00000000E+00  0.00000000E+00  0.00000000E+00
  0.00000000E+00  0.00000000E+00  0.00000000E+00
  0.00000000E+00  0.00000000E+00  0.00000000E+00
  0.00000000E+00  0.00000000E+00  0.00000000E+00
  0.00000000E+00  0.00000000E+00  0.00000000E+00
  0.00000000E+00  0.00000000E+00  0.00000000E+00
  0.00000000E+00  0.00000000E+00  0.00000000E+00
  0.00000000E+00  0.00000000E+00  0.00000000E+00
  0.00000000E+00  0.00000000E+00  0.00000000E+00
  0.00000000E+00  0.00000000E+00  0.00000000E+00
  0.00000000E+00  0.00000000E+00  0.00000000E+00
  0.00000000E+00  0.00000000E+00  0.00000000E+00
  0.00000000E+00  0.00000000E+00  0.00000000E+00
  0.00000000E+00  0.00000000E+00  0.00000000E+00
  0.00000000E+00  0.00000000E+00  0.00000000E+00
  0.00000000E+00  0.00000000E+00  0.00000000E+00
  0.00000000E+00  0.00000000E+00  0.00000000E+00
  0.00000000E+00  0.00000000E+00  0.00000000E+00
  0.00000000E+00  0.00000000E+00  0.00000000E+00
  0.00000000E+00  0.00000000E+00  0.00000000E+00
  0.00000000E+00  0.00000000E+00  0.00000000E+00
  0.00000000E+00  0.00000000E+00  0.00000000E+00
  0.00000000E+00  0.00000000E+00  0.00000000E+00
  0.00000000E+00  0.00000000E+00  0.00000000E+00
  0.00000000E+00  0.00000000E+00  0.00000000E+00
  0.00000000E+00  0.00000000E+00  0.00000000E+00
  0.00000000E+00  0.00000000E+00  0.00000000E+00
  0.00000000E+00  0.00000000E+00  0.00000000E+00
  0.00000000E+00  0.00000000E+00  0.00000000E+00
  0.00000000E+00  0.00000000E+00  0.00000000E+00
  0.00000000E+00  0.00000000E+00  0.00000000E+00
  0.00000000E+00  0.00000000E+00  0.00000000E+00
  0.00000000E+00  0.00000000E+00  0.00000000E+00
  0.00000000E+00  0.00000000E+00  0.00000000E+00
  0.00000000E+00  0.00000000E+00  0.00000000E+00
  0.00000000E+00  0.00000000E+00  0.00000000E+00
  0.00000000E+00  0.00000000E+00  0.00000000E+00
  0.00000000E+00  0.00000000E+00  0.00000000E+00
  0.00000000E+00  0.00000000E+00  0.00000000E+00
  0.00000000E+00  0.00000000E+00  0.00000000E+00
  0.00000000E+00  0.00000000E+00  0.00000000E+00
  0.00000000E+00  0.00000000E+00  0.00000000E+00
  0.00000000E+00  0.00000000E+00  0.00000000E+00
  0.00000000E+00  0.00000000E+00  0.00000000E+00
  0.00000000E+00  0.00000000E+00  0.00000000E+00
  0.00000000E+00  0.00000000E+00  0.00000000E+00
  0.00000000E+00  0.00000000E+00  0.00000000E+00
  0.00000000E+00  0.00000000E+00  0.00000000E+00
  0.00000000E+00  0.00000000E+00  0.00000000E+00
  0.00000000E+00  0.00000000E+00  0.00000000E+00
  0.00000000E+00  0.00000000E+00  0.00000000E+00
  0.00000000E+00  0.00000000E+00  0.00000000E+00
  0.00000000E+00  0.00000000E+00  0.00000000E+00
  0.00000000E+00  0.00000000E+00  0.00000000E+00
  0.00000000E+00  0.00000000E+00  0.00000000E+00
  0.00000000E+00  0.00000000E+00  0.00000000E+00
  0.00000000E+00  0.00000000E+00  0.00000000E+00
  0.00000000E+00  0.00000000E+00  0.00000000E+00
  0.00000000E+00  0.00000000E+00  0.00000000E+00
  0.00000000E+00  0.00000000E+00  0.00000000E+00
  0.00000000E+00  0.00000000E+00  0.00000000E+00
  0.00000000E+00  0.00000000E+00  0.00000000E+00
  0.00000000E+00  0.00000000E+00  0.00000000E+00
  0.00000000E+00  0.00000000E+00  0.00000000E+00
  0.00000000E+00  0.00000000E+00  0.00000000E+00
  0.00000000E+00  0.00000000E+00  0.00000000E+00
  0.00000000E+00  0.00000000E+00  0.00000000E+00
  0.00000000E+00  0.00000000E+00  0.00000000E+00
  0.00000000E+00  0.00000000E+00  0.00000000E+00
  0.00000000E+00  0.00000000E+00  0.00000000E+00
  0.00000000E+00  0.00000000E+00  0.00000000E+00
  0.00000000E+00  0.00000000E+00  0.00000000E+00
  0.00000000E+00  0.00000000E+00  0.00000000E+00
  0.00000000E+00  0.00000000E+00  0.00000000E+00
  0.00000000E+00  0.00000000E+00  0.00000000E+00
  0.00000000E+00  0.00000000E+00  0.00000000E+00
  0.00000000E+00  0.00000000E+00  0.00000000E+00
  0.00000000E+00  0.00000000E+00  0.00000000E+00
  0.00000000E+00  0.00000000E+00  0.00000000E+00
  0.00000000E+00  0.00000000E+00  0.00000000E+00
  0.00000000E+00  0.00000000E+00  0.00000000E+00
  0.00000000E+00  0.00000000E+00  0.00000000E+00
  0.00000000E+00  0.00000000E+00  0.00000000E+00
  0.00000000E+00  0.00000000E+00  0.00000000E+00
  0.00000000E+00  0.00000000E+00  0.00000000E+00
  0.00000000E+00  0.00000000E+00  0.00000000E+00
  0.00000000E+00  0.00000000E+00  0.00000000E+00
  0.00000000E+00  0.00000000E+00  0.00000000E+00
  0.00000000E+00  0.00000000E+00  0.00000000E+00
  0.00000000E+00  0.00000000E+00  0.00000000E+00
  0.00000000E+00  0.00000000E+00  0.00000000E+00
  0.00000000E+00  0.00000000E+00  0.00000000E+00
  0.00000000E+00  0.00000000E+00  0.00000000E+00
  0.00000000E+00  0.00000000E+00  0.00000000E+00
  0.00000000E+00  0.00000000E+00  0.00000000E+00
  0.00000000E+00  0.00000000E+00  0.00000000E+00
  0.00000000E+00  0.00000000E+00  0.00000000E+00
  0.00000000E+00  0.00000000E+00  0.00000000E+00
  0.00000000E+00  0.00000000E+00  0.00000000E+00
  0.00000000E+00  0.00000000E+00  0.00000000E+00
  0.00000000E+00  0.00000000E+00  0.00000000E+00
  0.00000000E+00  0.00000000E+00  0.00000000E+00
  0.00000000E+00  0.00000000E+00  0.00000000E+00
  0.00000000E+00  0.00000000E+00  0.00000000E+00
  0.00000000E+00  0.00000000E+00  0.00000000E+00
  0.00000000E+00  0.00000000E+00  0.00000000E+00
  0.00000000E+00  0.00000000E+00  0.00000000E+00
  0.00000000E+00  0.00000000E+00  0.00000000E+00
  0.00000000E+00  0.00000000E+00  0.00000000E+00
  0.00000000E+00  0.00000000E+00  0.00000000E+00
  0.00000000E+00  0.00000000E+00  0.00000000E+00
  0.00000000E+00  0.00000000E+00  0.00000000E+00
  0.00000000E+00  0.00000000E+00  0.00000000E+00
  0.00000000E+00  0.00000000E+00  0.00000000E+00
  0.00000000E+00  0.00000000E+00  0.00000000E+00
  0.00000000E+00  0.00000000E+00  0.00000000E+00
  0.00000000E+00  0.00000000E+00  0.00000000E+00
  0.00000000E+00  0.00000000E+00  0.00000000E+00
  0.00000000E+00  0.00000000E+00  0.00000000E+00
  0.00000000E+00  0.00000000E+00  0.00000000E+00
  0.00000000E+00  0.00000000E+00  0.00000000E+00
  0.00000000E+00  0.00000000E+00  0.00000000E+00
  0.00000000E+00  0.00000000E+00  0.00000000E+00
  0.00000000E+00  0.00000000E+00  0.00000000E+00
  0.00000000E+00  0.00000000E+00  0.00000000E+00
  0.00000000E+00  0.00000000E+00  0.00000000E+00
  0.00000000E+00  0.00000000E+00  0.00000000E+00
  0.00000000E+00  0.00000000E+00  0.00000000E+00
  0.00000000E+00  0.00000000E+00  0.00000000E+00
  0.00000000E+00  0.00000000E+00  0.00000000E+00
  0.00000000E+00  0.00000000E+00  0.00000000E+00
  0.00000000E+00  0.00000000E+00  0.00000000E+00
  0.00000000E+00  0.00000000E+00  0.00000000E+00
  0.00000000E+00  0.00000000E+00  0.00000000E+00
  0.00000000E+00  0.00000000E+00  0.00000000E+00
  0.00000000E+00  0.00000000E+00  0.00000000E+00
  0.00000000E+00  0.00000000E+00  0.00000000E+00
  0.00000000E+00  0.00000000E+00  0.00000000E+00
  0.00000000E+00  0.00000000E+00  0.00000000E+00
  0.00000000E+00  0.00000000E+00  0.00000000E+00
  0.00000000E+00  0.00000000E+00  0.00000000E+00
  0.00000000E+00  0.00000000E+00  0.00000000E+00
  0.00000000E+00  0.00000000E+00  0.00000000E+00
  0.00000000E+00  0.00000000E+00  0.00000000E+00
  0.00000000E+00  0.00000000E+00  0.00000000E+00
  0.00000000E+00  0.00000000E+00  0.00000000E+00
  0.00000000E+00  0.00000000E+00  0.00000000E+00
  0.00000000E+00  0.00000000E+00  0.00000000E+00
  0.00000000E+00  0.00000000E+00  0.00000000E+00
  0.00000000E+00  0.00000000E+00  0.00000000E+00
  0.00000000E+00  0.00000000E+00  0.00000000E+00
  0.00000000E+00  0.00000000E+00  0.00000000E+00
  0.00000000E+00  0.00000000E+00  0.00000000E+00
  0.00000000E+00  0.00000000E+00  0.00000000E+00
  0.00000000E+00  0.00000000E+00  0.00000000E+00
  0.00000000E+00  0.00000000E+00  0.00000000E+00
  0.00000000E+00  0.00000000E+00  0.00000000E+00
  0.00000000E+00  0.00000000E+00  0.00000000E+00
  0.00000000E+00  0.00000000E+00  0.00000000E+00
  0.00000000E+00  0.00000000E+00  0.00000000E+00
  0.00000000E+00  0.00000000E+00  0.00000000E+00
  0.00000000E+00  0.00000000E+00  0.00000000E+00
  0.00000000E+00  0.00000000E+00  0.00000000E+00
  0.00000000E+00  0.00000000E+00  0.00000000E+00
  0.00000000E+00  0.00000000E+00  0.00000000E+00
  0.00000000E+00  0.00000000E+00  0.00000000E+00
  0.00000000E+00  0.00000000E+00  0.00000000E+00
  0.00000000E+00  0.00000000E+00  0.00000000E+00
  0.00000000E+00  0.00000000E+00  0.00000000E+00
  0.00000000E+00  0.00000000E+00  0.00000000E+00
  0.00000000E+00  0.00000000E+00  0.00000000E+00
  0.00000000E+00  0.00000000E+00  0.00000000E+00
  0.00000000E+00  0.00000000E+00  0.00000000E+00
  0.00000000E+00  0.00000000E+00  0.00000000E+00
  0.00000000E+00  0.00000000E+00  0.00000000E+00
  0.00000000E+00  0.00000000E+00  0.00000000E+00
  0.00000000E+00  0.00000000E+00  0.00000000E+00
  0.00000000E+00  0.00000000E+00  0.00000000E+00
  0.00000000E+00  0.00000000E+00  0.00000000E+00
  0.00000000E+00  0.00000000E+00  0.00000000E+00
  0.00000000E+00  0.00000000E+00  0.00000000E+00
  0.00000000E+00  0.00000000E+00  0.00000000E+00
  0.00000000E+00  0.00000000E+00  0.00000000E+00
  0.00000000E+00  0.00000000E+00  0.00000000E+00
  0.00000000E+00  0.00000000E+00  0.00000000E+00
  0.00000000E+00  0.00000000E+00  0.00000000E+00
  0.00000000E+00  0.00000000E+00  0.00000000E+00
  0.00000000E+00  0.00000000E+00  0.00000000E+00
  0.00000000E+00  0.00000000E+00  0.00000000E+00
  0.00000000E+00  0.00000000E+00  0.00000000E+00
  0.00000000E+00  0.00000000E+00  0.00000000E+00
  0.00000000E+00  0.00000000E+00  0.00000000E+00
  0.00000000E+00  0.00000000E+00  0.00000000E+00
  0.00000000E+00  0.00000000E+00  0.00000000E+00
  0.00000000E+00  0.00000000E+00  0.00000000E+00
  0.00000000E+00  0.00000000E+00  0.00000000E+00
  0.00000000E+00  0.00000000E+00  0.00000000E+00
  0.00000000E+00  0.00000000E+00  0.00000000E+00
  0.00000000E+00  0.00000000E+00  0.00000000E+00
  0.00000000E+00  0.00000000E+00  0.00000000E+00
  0.00000000E+00  0.00000000E+00  0.00000000E+00
  0.00000000E+00  0.00000000E+00  0.00000000E+00
  0.00000000E+00  0.00000000E+00  0.00000000E+00
  0.00000000E+00  0.00000000E+00  0.00000000E+00
  0.00000000E+00  0.00000000E+00  0.00000000E+00
  0.00000000E+00  0.00000000E+00  0.00000000E+00
  0.00000000E+00  0.00000000E+00  0.00000000E+00
  0.00000000E+00  0.00000000E+00  0.00000000E+00
  0.00000000E+00  0.00000000E+00  0.00000000E+00
  0.00000000E+00  0.00000000E+00  0.00000000E+00
  0.00000000E+00  0.00000000E+00  0.00000000E+00
  0.00000000E+00  0.00000000E+00  0.00000000E+00
  0.00000000E+00  0.00000000E+00  0.00000000E+00
  0.00000000E+00  0.00000000E+00  0.00000000E+00
  0.00000000E+00  0.00000000E+00  0.00000000E+00
  0.00000000E+00  0.00000000E+00  0.00000000E+00
  0.00000000E+00  0.00000000E+00  0.00000000E+00
  0.00000000E+00  0.00000000E+00  0.00000000E+00
  0.00000000E+00  0.00000000E+00  0.00000000E+00
  0.00000000E+00  0.00000000E+00  0.00000000E+00
  0.00000000E+00  0.00000000E+00  0.00000000E+00
  0.00000000E+00  0.00000000E+00  0.00000000E+00
  0.00000000E+00  0.00000000E+00  0.00000000E+00
  0.00000000E+00  0.00000000E+00  0.00000000E+00
  0.00000000E+00  0.00000000E+00  0.00000000E+00
  0.00000000E+00  0.00000000E+00  0.00000000E+00
  0.00000000E+00  0.00000000E+00  0.00000000E+00