Ge Se                                   
   1.00000000000000     
    19.7402305603027344    0.0000000000000000    0.0000000000000000
     0.0000000000000000   19.7402305603027344    0.0000000000000000
     0.0000000000000000    0.0000000000000000   19.7402305603027344
   Ge   Se
   150   150
Direct
  0.1122968993003813  0.9297887280309741  0.8450768733210371
  0.1444747994648759  0.4367956364924478  0.5795380284796778
  0.8971098009991055  0.5486609141001693  0.8729355672320762
  0.4577649348877293  0.0189736895230208  0.4581972892469688
  0.0798658454887252  0.0772825488173118  0.6827668795026779
  0.7041282935091617  0.2946286143186403  0.6261120973064396
  0.1217956332405141  0.4236235081313851  0.3532968876410110
  0.9611670482407774  0.5779095509320464  0.6463622214342283
  0.7963919538319679  0.0731209316805299  0.3207546821945141
  0.5979290829187289  0.1171639113936869  0.0168474865049519
  0.4424847805306221  0.3753747997084317  0.2958238279837983
  0.4732888785119725  0.0432875418618545  0.6855347114792053
  0.0550198384318995  0.7383617997960076  0.9742377313222649
  0.0612779892518899  0.9419046714854424  0.3673295001050146
  0.9789696306853083  0.1704827721713303  0.6522254562097740
  0.1964166674853078  0.7615857595602967  0.0823450052259563
  0.5943533583872956  0.8120763891575719  0.7749186225435561
  0.7792449224855006  0.5282732888726501  0.7533165136226116
  0.8699464226338152  0.2434205739862618  0.6768516157351641
  0.2369724936717973  0.0083826724864010  0.0243958212748903
  0.5026373041678398  0.7819045883847505  0.1493648185259107
  0.6835282004730341  0.7205055250606567  0.6483877139280502
  0.7015663142598100  0.0534326861096585  0.6145965558237951
  0.4293810222392397  0.4727234064003352  0.9587348922938391
  0.2893322370062398  0.9778210355893064  0.9091654595633074
  0.3862809749766859  0.5040352984716393  0.3674023045374509
  0.1120938688567626  0.7801725095333805  0.3689847427907514
  0.0573556256068861  0.6080946422943395  0.0295836465828039
  0.0525227848091772  0.8477869586129713  0.2162137645554873
  0.9080206642199580  0.1106581906581251  0.2058373366950042
  0.0163390366448428  0.3105844820012359  0.4232465561132473
  0.7900273500428323  0.9218286637063948  0.9824630811613319
  0.3226540434390098  0.4709283053155964  0.5642080120395931
  0.7933241835699915  0.7496678138665820  0.9255365577409330
  0.1200373777295466  0.6477117900545554  0.4071643310426772
  0.8535794445171075  0.4155126061622352  0.7916302603582752
 -0.0098797573573080  0.5399396480855518  0.5280471419054527
  0.3406400003140320  0.3321867731784581  0.4397046568216473
  0.1078901473091886  0.2374887800332519  0.2842563212320970
  0.5606842016147281  0.3070177140745041  0.3963524370422302
  0.4445436887914662  0.4660053394934512  0.6615063327645783
  0.6496872710366253  0.8909215761107633  0.5243726039951213
  0.1512382823201107  0.1743677709753016  0.7349499142232575
  0.5673262011826715  0.9484063206247604  0.6628013978598641
  0.1792585614496797  0.6909520655193144  0.7361204827610869
  0.6641315402666854  0.5900762191739465  0.3671257632163613
  0.7687955452120130  0.4813608845585925  0.2881582319306229
  0.1563271205044208  0.8694355317662087  0.6531376860698453
  0.8111114254038744  0.4794219009618932  0.0739445968341258
  0.8351893212932501  0.0303185654550464  0.8859686418741490
  0.0216011068921131  0.9912576026363462  0.1846421262897100
  0.5118106863136485  0.7148681727500135  0.9071553013165817
  0.0087953171961783  0.6196827742872667  0.8235246609143655
  0.3084335838946311  0.5905489709751099  0.0403941902982375
  0.6188708741113501  0.1267471779532966  0.3914418406097739
  0.1572699982055389  0.0001553888560125  0.1900206330632748
  0.1286259461679514  0.5855384860562177  0.5982205842969616
  0.2783451082101660  0.3064333391484076  0.3251137925439535
  0.5637014502392630  0.6095913310277370  0.5995324778392186
  0.2961472266205760  0.1447084862693976  0.3884775038352030
  0.8507003640058123  0.1919527271650284  0.8666465480552283
  0.7901868301005863  0.6117492788594820  0.3304867097958459
  0.2950188187006690  0.7771707162521923  0.1629056764722756
  0.7600070244237195  0.8577143788883266  0.3503305127566220
  0.4505752880485116  0.3648215186985356  0.1189224888314315
  0.2334554659586663  0.0224056246443274  0.5990714751801307
  0.4043368409987779  0.7610977510514279  0.5186171300222701
  0.3093133286413812  0.7935258932231073  0.8164838188582415
  0.2530782110554134  0.9845679992487384  0.3726588805305842
  0.2456581370438637  0.7171670829445368  0.8981572335410842
  0.6116804601700987  0.9185799679491684  0.2025683053642590
  0.7053748530072065  0.2428150844927728  0.2492584183126343
  0.0286870102129228  0.3153070609345439  0.2102356470634340
  0.1096291516228743  0.2957816169916317  0.7163748499018513
  0.4901332965893325  0.1796419024490283  0.1601203487464434
  0.9217388737677935  0.0920323108144893  0.4594260025256394
  0.2897160068844736  0.9891239014829082  0.1985162035575238
  0.9277005838330503  0.7312709890236757  0.9554821877230041
  0.2001918465262759  0.1738000746677308  0.8547726451014475
  0.2683360118620475  0.4583604404372365  0.9332277018727420
  0.9755060074159615  0.8185326665610013  0.4779134408181762
  0.5337751107171714  0.7079045955872283  0.3902708046839679
  0.8385827350547719  0.6634955415691408  0.5277573241543428
  0.5541016434256731  0.5157489808413870  0.9517119931638345
  0.8192574097237637  0.8196348820564006  0.6191092252470454
  0.7020630430297439  0.4395304542718511  0.9320721451907718
  0.4280860755488328  0.8253581525176784  0.8686756042519873
  0.4866855536407504  0.6635211013047475  0.5040087821903269
  0.0250740803307567  0.3095032709353360  0.9142209029219375
  0.9499325517883408  0.8252599880172644  0.6126975112172496
  0.6448323533467331  0.7437784730092338  0.2427301976418035
  0.1403519130461666  0.5667667835263385  0.2211800116035788
  0.3128096671491560  0.3798215817008364  0.6613344257150708
  0.6876672880914537  0.6369526146447875  0.9275455304279875
  0.3045114439257582  0.5998268181042701  0.8091587020233677
  0.1717827015054770  0.2656184293264875  0.9855925391583658
  0.5155268885178675  0.2290974780067182  0.6066394030293509
  0.2242070032494468  0.3520044711166521  0.7512063999416456
  0.1708746916121949  0.9310334909630920  0.4701630209319130
  0.0004291960392295  0.0822600511048121  0.7874344992682704
  0.2593188421802394  0.2848003748837976  0.5936344126112444
  0.0030476298249412  0.3787603942735724  0.7418318166422421
  0.3506393736149766  0.1587064418352057  0.1493032455265661
  0.0181160877714769  0.0515796071725078  0.9660842228435963
  0.7385726252716942  0.3507844267719427  0.7877371654915497
  0.9084540576083557  0.5506209467953357  0.1347504544567208
  0.5409091812142229  0.8769483126450034  0.9988089019640445
  0.5703269174063649  0.4873133819938780  0.2640755507669223
  0.2949958726383393  0.0808206378266767  0.8350149215735498
  0.4882599064510005  0.0721184317657319  0.8777471477326488
  0.0286692784750947  0.3892448215559671  0.0747840252315555
  0.0774189914864659  0.8160553890191510  0.0776549719307230
  0.3512425983858629  0.8767964904933548  0.2301532119196475
  0.7806197327599101  0.1613239680343474  0.0186961907763094
  0.4595400737474004  0.2216118123546386  0.9872600494657084
  0.9790612391636775  0.7041619798540155  0.6446540472944443
  0.4823374769030542  0.0571979661962446  0.2670202923730976
  0.9459222845977164  0.2226397789793755  0.2619510684943746
  0.1188827653039703  0.6729069000845312  0.8788536810746060
  0.3752875342517291  0.8521374249188890  0.3600446286124620
  0.0923644669566814  0.4374096574772539  0.8877483612408545
  0.9298559117316366  0.6323803715512876  0.3921639525000921
  0.8697305505879720  0.7213588152913621  0.2408455194194429
  0.9811730123404369  0.6296507703373186  0.2722630689208879
  0.9302496244355059  0.8530598307569544  0.8846798604976132
  0.8930421759232163  0.2773918467426646  0.0685858936965333
  0.2183355978381623  0.1661657872396369  0.1349561072483798
  0.8250600928992244  0.9345197808329440  0.4688642879630354
  0.8513609848727933  0.2792622836463882  0.3282338429653547
  0.6529579151364703  0.5635871803385902  0.1027483376028007
  0.4978298613675601  0.6240989948432271  0.7183218999165466
  0.3284440026392115  0.3420379175871421  0.9155996095297173
  0.8895417134925464  0.2147948282061321  0.4971057306804317
  0.2323847512181290  0.7297419438413255  0.2640558564486870
  0.6374724516332111  0.1350636319760677  0.7609139544094471
  0.9660276369182865  0.8399085267004139  0.7509396046369350
  0.3636068940524680  0.1634006060149917  0.6993778622760985
  0.5728440911040399  0.8700080679631641  0.3467761351579754
  0.6576784474892328  0.4628356997923983  0.6369215191022072
  0.6823930555809765  0.0020121066714866  0.1280377108312196
  0.3627727827149748  0.4380350260284064  0.2119502084277973
  0.3633426719664947  0.8687283022069683  0.0527123276666823
  0.3443006954694963  0.6101547847802670  0.6184751011645849
  0.2903818335702705  0.6600874301891427  0.4368157568580296
  0.2852060059004500  0.3443281081708151  0.1029277090411236
  0.4235332277284271  0.8878357174769606  0.5036813152224997
  0.3119244518207560  0.5722481379476901  0.1849697757555930
  0.8850662200276734  0.9682546790617101  0.1963887452529614
  0.0117806650028985  0.9796703130685771  0.5934648620084371
  0.8898305774786557  0.7981532048290187  0.0598775734637825
  0.0756558013706468  0.8612959093965872  0.9540582137016107
  0.6275559875108400  0.4484220671089223  0.0321633968722965
  0.9253055266145107  0.6741220927513224  0.1349204971124747
  0.7530201765820831  0.6000341935630598  0.0335322128944013
  0.9199744307367324  0.0751435107202392  0.5895831186294543
  0.7212531519936103  0.4704734151986907  0.1709765690208677
  0.0439131925289176  0.5414692215579134  0.7290765396422875
  0.0045430346648055  0.0995266715073014  0.1264236737044829
  0.1586427394957974  0.9045768443898503  0.2744973040882706
  0.3976524724652035  0.5833501238431664  0.4668001977155752
  0.5376274012238931  0.8390295731362478  0.4680128336204714
  0.9170125469078479  0.9114215020995324  0.0037413458104547
  0.9090733121026964  0.3813116580508095  0.1296911947429634
  0.0489201474962854  0.4388134568781445  0.4946180939872969
  0.6616669138049032  0.4616746093110959  0.3573830426179325
  0.3027126345876506  0.2569831572793578  0.0040410403660173
  0.3662735166988953  0.6766307417547923  0.1328795897748577
  0.7184217253257460  0.8519764061272093  0.2284642466464473
  0.0324545525104980  0.5173485227638285  0.1193586710394424
  0.4532535357896681  0.7796154135102076  0.0261637475238966
  0.1835114455775201  0.0883529530419221  0.3927235889786425
  0.4357976171122223  0.1220146734503799  0.5942871504087746
  0.0530397963762744  0.1475168302934937  0.8794466960797781
  0.4626132803530488  0.9549120010477024  0.3440435049149498
  0.0043946070808198  0.3842422753350483  0.3138744209101785
  0.4881116788634720  0.5094195925119946  0.7772164377429582
  0.2213163541240440  0.4600080073612655  0.8143722897819179
  0.1292138364784096  0.5568658173980666  0.9359565189947288
  0.9826109399044396  0.9792468227584544  0.8568871233842834
  0.4899468054940814  0.0936688891051190  0.0663149320996365
  0.5627251370352198  0.1757066013610818  0.9151096547928362
  0.8472049339774197  0.9509582717835185  0.3146294189219643
  0.1707478720086886  0.2802671469732202  0.1173156157943869
  0.6297514575076244  0.1727262092932870  0.6379269164644231
  0.3516705765338591  0.0864874520241027  0.2593347822658640
  0.7602638168037991  0.7830168915478282  0.7212214352259160
  0.7438906341299218  0.7529485463976520  0.5414425684993103
  0.8249205766733888  0.4442662229941197  0.9290949670347217
  0.4363917357980400  0.2749014158170981  0.3666685530959348
  0.8996478119135159  0.1017207763201820  0.9691449820693367
  0.5648668857709664  0.6292799815145931 -0.0005259250272411
  0.0167509535803443  0.1928012920803635  0.3631695442494761
  0.4708009346386042  0.4838153338272029  0.0786008000305925
  0.7497674417479144  0.6672062005108348  0.2200837827007937
  0.9245532663268170  0.6077919221391465  0.9831496238143317
  0.4516371858827194  0.3481308339460141  0.9205507182514235
  0.1103176500877975  0.7234930862260592  0.2368432441015647
  0.5074787365072212  0.1335277879234524  0.7641579659312528
  0.3841047294021432  0.6741375315247640  0.7395745996530865
  0.9109373699137362  0.5250596979182750  0.2555289779033846
  0.8946013261708999  0.3674717303830994  0.6668506069001815
  0.6105624158563059  0.8347882841963896  0.0999328765761304
  0.6691742073669648  0.1987120817114106  0.0700727657196809
  0.4846776307924263  0.8774039098263338  0.7730869737226820
  0.6577103713457955  0.0080663706766666  0.7317452529151589
  0.5640975816549214  0.7589971437928281  0.6317168199943443
  0.1637150522776140  0.2940761253924178  0.3822596062144814
  0.3821349847533372  0.1400937882558061  0.8961822606193061
  0.2594869697558345  0.7883139678629084  0.6991687388890799
  0.2305157182654689  0.5823657026209474  0.6763037683939346
  0.8072001706530686  0.2823299405570136  0.9839290192276919
  0.6509242229856277  0.7548428858729969  0.3719458718577041
  0.5487981442581611  0.4768734988330459  0.5811878628516830
  0.1942949256473130  0.6371515722951190  0.0761319636103165
  0.3412220238289736  0.0262504641962495  0.0874870529736963
  0.8431560201135321  0.5567363568408296  0.6476664804436447
  0.7904650055964358  0.3586781837789324  0.2577943004991927
  0.5994149513701235  0.0093662505956859  0.5488109685861742
  0.9910740765249820  0.2507078979813701  0.5579318794734764
  0.8353408105115485  0.1971270004918349  0.1431872635417719
  0.5363216024625826  0.3592187158275916  0.2178118503078258
  0.5713869789811530  0.2205246762177701  0.4905581183796725
  0.0727051622146244  0.5557408552349317  0.3344792352479063
  0.0883919557667741  0.8265465601634769  0.7742940948621572
  0.6780966550640474  0.5771752658929531  0.6839301669715737
  0.8040079865140183 -0.0025452906737272  0.1031293695674922
  0.4010212317335725  0.9349691544493405  0.9401841968325657
  0.5898698729640948  0.2175210537705710  0.3027595638948882
  0.4247023094426405  0.3454769801673653  0.6986157339073050
  0.0141873441812905  0.0363468981155437  0.3004893813839909
  0.9366538700568823  0.3031226332079874  0.8227704205516573
  0.0173049840343682  0.6584763677230554  0.4850088048014358
  0.2948529859731632  0.7146021715968591  0.5551631186977906
  0.4142382302400522  0.4031019004738373  0.5082054755342044
  0.1152636379476066  0.0306676604364977  0.5302435200952194
  0.8759352551881753  0.0956168686666937  0.7752725402612820
  0.2492755904722719  0.7860216578939933  0.3730201501387069
  0.6324252052723858  0.3829207275155674  0.7274974065455552
  0.5033502321775556  0.4560933949149448  0.3728274186908284
  0.3456092763724874  0.6469155425819642  0.9281921017113484
  0.4436855314616786  0.8266523519786825  0.6197751693380164
  0.1856899330664470  0.9203044443532398  0.0927660556888682
  0.9830046195429002  0.4263648807686655  0.9574132514173055
  0.7550572318668192  0.2114052483007642  0.3625928274549751
  0.7424377796433180  0.1238455289206243  0.8972222658074960
  0.8926086688374636  0.5259480928737682  0.4529059115366508
  0.3305061271273718  0.0439539966937488  0.4616389360092506
  0.2506463148998836  0.6081678521484539  0.2911749567117921
  0.1047979546716361  0.8261756973729633  0.5004436578688823
  0.2440859938188182  0.8986793105048322  0.8294743311848876
  0.3424374528983182  0.2803003502210024  0.1979153691372028
  0.6724791939521486  0.3288272392761435  0.8899076928663825
  0.6469337005115791  0.6172142346830131  0.4884310220464952
  0.9897778809437756  0.8363100331795018  0.3344778731780892
  0.2925176829011946  0.2710087381421093  0.8169735844253175
  0.7665960255494523  0.8024439078353214  0.0412973368844018
  0.6506358847168927  0.3274466198070035  0.5187393334373216
  0.1685763365871054  0.1106376825206381  0.0329981926854772
  0.1938094200616605  0.5812573591872452  0.4833803936452239
  0.4885640345858759  0.1182964758729316  0.3803534809227900
  0.7908598640941811  0.9388786692429191  0.5940806545288213
  0.4512897456166819  0.9022490222902030  0.1620916117710565
  0.2563048701448959  0.8999355636404505  0.5632208309703824
  0.5781313963153693  0.6816891262077555  0.7970915820478687
  0.2707468162964339  0.4386665902509987  0.3053139607202088
  0.3481875788144161  0.0351621430979128  0.7230188019666473
  0.3638152898447768  0.4887638928646918  0.7978549145375000
  0.7974004413925815  0.2094295990242639  0.5792901006584241
  0.8494774255725631  0.7241869861620724  0.4120340381795244
  0.9588802579101001  0.9475391235078441  0.4751476292768781
  0.7700285812282842  0.2335434397821633  0.7575776202245967
  0.7611873208380175  0.5690835098783287  0.4895928624237538
  0.5614543420832364  0.6204534025726247  0.3017075417295370
  0.6527887854959779  0.0103311518387939  0.0039610328272660
  0.1670530828616409  0.3992748721884612 -0.0108073516813371
  0.8009310460089291  0.6216520532319798  0.8343512107141575
  0.1724524581113090  0.9914422459168376  0.7132725990822583
  0.9396047713741366  0.7115961899095901  0.7637457087815246
  0.1346154119069400  0.3067033230189516  0.5921179188368575
  0.4212229132199022  0.5483737407408562  0.2507116667075253
  0.6651295271266525  0.1131363981938240  0.1886262507050113
  0.9042524633698327  0.8331838989086352  0.1806089879213968
  0.2553485034976444  0.8074133089174734  0.9826891160691124
  0.8056529853077171  0.8589062789821330  0.8613351668103649
  0.7395612284405418  0.4151773311724086  0.5615874681641642
  0.6743229706676720  0.9388528316025585  0.4043208485492034
  0.8837275413368415  0.3266699291678996  0.4379952884719679
  0.6074025926941480  0.8002207744993189  0.9167587711694604
  0.6485738642767070  0.5247198735420096  0.8621894552519194
  0.7958069706011861  0.0597063705836484  0.4535695557519362
  0.4540151519764413  0.7622849125223483  0.3127063749204899
  0.2413088935059622  0.1697177835508412  0.6452091579365654
  0.6695395565256049  0.0419254969660838  0.2922443957056841
  0.1690479815436408  0.4320098202150617  0.2273088981984940
  0.0021786092172138  0.2447617347895392  0.0235812878408396
  0.5343957341502545  0.2731903000565449  0.0785665467479097
  0.1779100235375498  0.1389175295534874  0.2497394409224165
  0.2338915029833208  0.4122072352523423  0.4932359290976057
  0.3202722268970100  0.2267931316264431  0.5035535451571096
  0.1063995173966345  0.7129468057989771  0.6308296615904551
 
  0.00000000E+00  0.00000000E+00  0.00000000E+00
  0.00000000E+00  0.00000000E+00  0.00000000E+00
  0.00000000E+00  0.00000000E+00  0.00000000E+00
  0.00000000E+00  0.00000000E+00  0.00000000E+00
  0.00000000E+00  0.00000000E+00  0.00000000E+00
  0.00000000E+00  0.00000000E+00  0.00000000E+00
  0.00000000E+00  0.00000000E+00  0.00000000E+00
  0.00000000E+00  0.00000000E+00  0.00000000E+00
  0.00000000E+00  0.00000000E+00  0.00000000E+00
  0.00000000E+00  0.00000000E+00  0.00000000E+00
  0.00000000E+00  0.00000000E+00  0.00000000E+00
  0.00000000E+00  0.00000000E+00  0.00000000E+00
  0.00000000E+00  0.00000000E+00  0.00000000E+00
  0.00000000E+00  0.00000000E+00  0.00000000E+00
  0.00000000E+00  0.00000000E+00  0.00000000E+00
  0.00000000E+00  0.00000000E+00  0.00000000E+00
  0.00000000E+00  0.00000000E+00  0.00000000E+00
  0.00000000E+00  0.00000000E+00  0.00000000E+00
  0.00000000E+00  0.00000000E+00  0.00000000E+00
  0.00000000E+00  0.00000000E+00  0.00000000E+00
  0.00000000E+00  0.00000000E+00  0.00000000E+00
  0.00000000E+00  0.00000000E+00  0.00000000E+00
  0.00000000E+00  0.00000000E+00  0.00000000E+00
  0.00000000E+00  0.00000000E+00  0.00000000E+00
  0.00000000E+00  0.00000000E+00  0.00000000E+00
  0.00000000E+00  0.00000000E+00  0.00000000E+00
  0.00000000E+00  0.00000000E+00  0.00000000E+00
  0.00000000E+00  0.00000000E+00  0.00000000E+00
  0.00000000E+00  0.00000000E+00  0.00000000E+00
  0.00000000E+00  0.00000000E+00  0.00000000E+00
  0.00000000E+00  0.00000000E+00  0.00000000E+00
  0.00000000E+00  0.00000000E+00  0.00000000E+00
  0.00000000E+00  0.00000000E+00  0.00000000E+00
  0.00000000E+00  0.00000000E+00  0.00000000E+00
  0.00000000E+00  0.00000000E+00  0.00000000E+00
  0.00000000E+00  0.00000000E+00  0.00000000E+00
  0.00000000E+00  0.00000000E+00  0.00000000E+00
  0.00000000E+00  0.00000000E+00  0.00000000E+00
  0.00000000E+00  0.00000000E+00  0.00000000E+00
  0.00000000E+00  0.00000000E+00  0.00000000E+00
  0.00000000E+00  0.00000000E+00  0.00000000E+00
  0.00000000E+00  0.00000000E+00  0.00000000E+00
  0.00000000E+00  0.00000000E+00  0.00000000E+00
  0.00000000E+00  0.00000000E+00  0.00000000E+00
  0.00000000E+00  0.00000000E+00  0.00000000E+00
  0.00000000E+00  0.00000000E+00  0.00000000E+00
  0.00000000E+00  0.00000000E+00  0.00000000E+00
  0.00000000E+00  0.00000000E+00  0.00000000E+00
  0.00000000E+00  0.00000000E+00  0.00000000E+00
  0.00000000E+00  0.00000000E+00  0.00000000E+00
  0.00000000E+00  0.00000000E+00  0.00000000E+00
  0.00000000E+00  0.00000000E+00  0.00000000E+00
  0.00000000E+00  0.00000000E+00  0.00000000E+00
  0.00000000E+00  0.00000000E+00  0.00000000E+00
  0.00000000E+00  0.00000000E+00  0.00000000E+00
  0.00000000E+00  0.00000000E+00  0.00000000E+00
  0.00000000E+00  0.00000000E+00  0.00000000E+00
  0.00000000E+00  0.00000000E+00  0.00000000E+00
  0.00000000E+00  0.00000000E+00  0.00000000E+00
  0.00000000E+00  0.00000000E+00  0.00000000E+00
  0.00000000E+00  0.00000000E+00  0.00000000E+00
  0.00000000E+00  0.00000000E+00  0.00000000E+00
  0.00000000E+00  0.00000000E+00  0.00000000E+00
  0.00000000E+00  0.00000000E+00  0.00000000E+00
  0.00000000E+00  0.00000000E+00  0.00000000E+00
  0.00000000E+00  0.00000000E+00  0.00000000E+00
  0.00000000E+00  0.00000000E+00  0.00000000E+00
  0.00000000E+00  0.00000000E+00  0.00000000E+00
  0.00000000E+00  0.00000000E+00  0.00000000E+00
  0.00000000E+00  0.00000000E+00  0.00000000E+00
  0.00000000E+00  0.00000000E+00  0.00000000E+00
  0.00000000E+00  0.00000000E+00  0.00000000E+00
  0.00000000E+00  0.00000000E+00  0.00000000E+00
  0.00000000E+00  0.00000000E+00  0.00000000E+00
  0.00000000E+00  0.00000000E+00  0.00000000E+00
  0.00000000E+00  0.00000000E+00  0.00000000E+00
  0.00000000E+00  0.00000000E+00  0.00000000E+00
  0.00000000E+00  0.00000000E+00  0.00000000E+00
  0.00000000E+00  0.00000000E+00  0.00000000E+00
  0.00000000E+00  0.00000000E+00  0.00000000E+00
  0.00000000E+00  0.00000000E+00  0.00000000E+00
  0.00000000E+00  0.00000000E+00  0.00000000E+00
  0.00000000E+00  0.00000000E+00  0.00000000E+00
  0.00000000E+00  0.00000000E+00  0.00000000E+00
  0.00000000E+00  0.00000000E+00  0.00000000E+00
  0.00000000E+00  0.00000000E+00  0.00000000E+00
  0.00000000E+00  0.00000000E+00  0.00000000E+00
  0.00000000E+00  0.00000000E+00  0.00000000E+00
  0.00000000E+00  0.00000000E+00  0.00000000E+00
  0.00000000E+00  0.00000000E+00  0.00000000E+00
  0.00000000E+00  0.00000000E+00  0.00000000E+00
  0.00000000E+00  0.00000000E+00  0.00000000E+00
  0.00000000E+00  0.00000000E+00  0.00000000E+00
  0.00000000E+00  0.00000000E+00  0.00000000E+00
  0.00000000E+00  0.00000000E+00  0.00000000E+00
  0.00000000E+00  0.00000000E+00  0.00000000E+00
  0.00000000E+00  0.00000000E+00  0.00000000E+00
  0.00000000E+00  0.00000000E+00  0.00000000E+00
  0.00000000E+00  0.00000000E+00  0.00000000E+00
  0.00000000E+00  0.00000000E+00  0.00000000E+00
  0.00000000E+00  0.00000000E+00  0.00000000E+00
  0.00000000E+00  0.00000000E+00  0.00000000E+00
  0.00000000E+00  0.00000000E+00  0.00000000E+00
  0.00000000E+00  0.00000000E+00  0.00000000E+00
  0.00000000E+00  0.00000000E+00  0.00000000E+00
  0.00000000E+00  0.00000000E+00  0.00000000E+00
  0.00000000E+00  0.00000000E+00  0.00000000E+00
  0.00000000E+00  0.00000000E+00  0.00000000E+00
  0.00000000E+00  0.00000000E+00  0.00000000E+00
  0.00000000E+00  0.00000000E+00  0.00000000E+00
  0.00000000E+00  0.00000000E+00  0.00000000E+00
  0.00000000E+00  0.00000000E+00  0.00000000E+00
  0.00000000E+00  0.00000000E+00  0.00000000E+00
  0.00000000E+00  0.00000000E+00  0.00000000E+00
  0.00000000E+00  0.00000000E+00  0.00000000E+00
  0.00000000E+00  0.00000000E+00  0.00000000E+00
  0.00000000E+00  0.00000000E+00  0.00000000E+00
  0.00000000E+00  0.00000000E+00  0.00000000E+00
  0.00000000E+00  0.00000000E+00  0.00000000E+00
  0.00000000E+00  0.00000000E+00  0.00000000E+00
  0.00000000E+00  0.00000000E+00  0.00000000E+00
  0.00000000E+00  0.00000000E+00  0.00000000E+00
  0.00000000E+00  0.00000000E+00  0.00000000E+00
  0.00000000E+00  0.00000000E+00  0.00000000E+00
  0.00000000E+00  0.00000000E+00  0.00000000E+00
  0.00000000E+00  0.00000000E+00  0.00000000E+00
  0.00000000E+00  0.00000000E+00  0.00000000E+00
  0.00000000E+00  0.00000000E+00  0.00000000E+00
  0.00000000E+00  0.00000000E+00  0.00000000E+00
  0.00000000E+00  0.00000000E+00  0.00000000E+00
  0.00000000E+00  0.00000000E+00  0.00000000E+00
  0.00000000E+00  0.00000000E+00  0.00000000E+00
  0.00000000E+00  0.00000000E+00  0.00000000E+00
  0.00000000E+00  0.00000000E+00  0.00000000E+00
  0.00000000E+00  0.00000000E+00  0.00000000E+00
  0.00000000E+00  0.00000000E+00  0.00000000E+00
  0.00000000E+00  0.00000000E+00  0.00000000E+00
  0.00000000E+00  0.00000000E+00  0.00000000E+00
  0.00000000E+00  0.00000000E+00  0.00000000E+00
  0.00000000E+00  0.00000000E+00  0.00000000E+00
  0.00000000E+00  0.00000000E+00  0.00000000E+00
  0.00000000E+00  0.00000000E+00  0.00000000E+00
  0.00000000E+00  0.00000000E+00  0.00000000E+00
  0.00000000E+00  0.00000000E+00  0.00000000E+00
  0.00000000E+00  0.00000000E+00  0.00000000E+00
  0.00000000E+00  0.00000000E+00  0.00000000E+00
  0.00000000E+00  0.00000000E+00  0.00000000E+00
  0.00000000E+00  0.00000000E+00  0.00000000E+00
  0.00000000E+00  0.00000000E+00  0.00000000E+00
  0.00000000E+00  0.00000000E+00  0.00000000E+00
  0.00000000E+00  0.00000000E+00  0.00000000E+00
  0.00000000E+00  0.00000000E+00  0.00000000E+00
  0.00000000E+00  0.00000000E+00  0.00000000E+00
  0.00000000E+00  0.00000000E+00  0.00000000E+00
  0.00000000E+00  0.00000000E+00  0.00000000E+00
  0.00000000E+00  0.00000000E+00  0.00000000E+00
  0.00000000E+00  0.00000000E+00  0.00000000E+00
  0.00000000E+00  0.00000000E+00  0.00000000E+00
  0.00000000E+00  0.00000000E+00  0.00000000E+00
  0.00000000E+00  0.00000000E+00  0.00000000E+00
  0.00000000E+00  0.00000000E+00  0.00000000E+00
  0.00000000E+00  0.00000000E+00  0.00000000E+00
  0.00000000E+00  0.00000000E+00  0.00000000E+00
  0.00000000E+00  0.00000000E+00  0.00000000E+00
  0.00000000E+00  0.00000000E+00  0.00000000E+00
  0.00000000E+00  0.00000000E+00  0.00000000E+00
  0.00000000E+00  0.00000000E+00  0.00000000E+00
  0.00000000E+00  0.00000000E+00  0.00000000E+00
  0.00000000E+00  0.00000000E+00  0.00000000E+00
  0.00000000E+00  0.00000000E+00  0.00000000E+00
  0.00000000E+00  0.00000000E+00  0.00000000E+00
  0.00000000E+00  0.00000000E+00  0.00000000E+00
  0.00000000E+00  0.00000000E+00  0.00000000E+00
  0.00000000E+00  0.00000000E+00  0.00000000E+00
  0.00000000E+00  0.00000000E+00  0.00000000E+00
  0.00000000E+00  0.00000000E+00  0.00000000E+00
  0.00000000E+00  0.00000000E+00  0.00000000E+00
  0.00000000E+00  0.00000000E+00  0.00000000E+00
  0.00000000E+00  0.00000000E+00  0.00000000E+00
  0.00000000E+00  0.00000000E+00  0.00000000E+00
  0.00000000E+00  0.00000000E+00  0.00000000E+00
  0.00000000E+00  0.00000000E+00  0.00000000E+00
  0.00000000E+00  0.00000000E+00  0.00000000E+00
  0.00000000E+00  0.00000000E+00  0.00000000E+00
  0.00000000E+00  0.00000000E+00  0.00000000E+00
  0.00000000E+00  0.00000000E+00  0.00000000E+00
  0.00000000E+00  0.00000000E+00  0.00000000E+00
  0.00000000E+00  0.00000000E+00  0.00000000E+00
  0.00000000E+00  0.00000000E+00  0.00000000E+00
  0.00000000E+00  0.00000000E+00  0.00000000E+00
  0.00000000E+00  0.00000000E+00  0.00000000E+00
  0.00000000E+00  0.00000000E+00  0.00000000E+00
  0.00000000E+00  0.00000000E+00  0.00000000E+00
  0.00000000E+00  0.00000000E+00  0.00000000E+00
  0.00000000E+00  0.00000000E+00  0.00000000E+00
  0.00000000E+00  0.00000000E+00  0.00000000E+00
  0.00000000E+00  0.00000000E+00  0.00000000E+00
  0.00000000E+00  0.00000000E+00  0.00000000E+00
  0.00000000E+00  0.00000000E+00  0.00000000E+00
  0.00000000E+00  0.00000000E+00  0.00000000E+00
  0.00000000E+00  0.00000000E+00  0.00000000E+00
  0.00000000E+00  0.00000000E+00  0.00000000E+00
  0.00000000E+00  0.00000000E+00  0.00000000E+00
  0.00000000E+00  0.00000000E+00  0.00000000E+00
  0.00000000E+00  0.00000000E+00  0.00000000E+00
  0.00000000E+00  0.00000000E+00  0.00000000E+00
  0.00000000E+00  0.00000000E+00  0.00000000E+00
  0.00000000E+00  0.00000000E+00  0.00000000E+00
  0.00000000E+00  0.00000000E+00  0.00000000E+00
  0.00000000E+00  0.00000000E+00  0.00000000E+00
  0.00000000E+00  0.00000000E+00  0.00000000E+00
  0.00000000E+00  0.00000000E+00  0.00000000E+00
  0.00000000E+00  0.00000000E+00  0.00000000E+00
  0.00000000E+00  0.00000000E+00  0.00000000E+00
  0.00000000E+00  0.00000000E+00  0.00000000E+00
  0.00000000E+00  0.00000000E+00  0.00000000E+00
  0.00000000E+00  0.00000000E+00  0.00000000E+00
  0.00000000E+00  0.00000000E+00  0.00000000E+00
  0.00000000E+00  0.00000000E+00  0.00000000E+00
  0.00000000E+00  0.00000000E+00  0.00000000E+00
  0.00000000E+00  0.00000000E+00  0.00000000E+00
  0.00000000E+00  0.00000000E+00  0.00000000E+00
  0.00000000E+00  0.00000000E+00  0.00000000E+00
  0.00000000E+00  0.00000000E+00  0.00000000E+00
  0.00000000E+00  0.00000000E+00  0.00000000E+00
  0.00000000E+00  0.00000000E+00  0.00000000E+00
  0.00000000E+00  0.00000000E+00  0.00000000E+00
  0.00000000E+00  0.00000000E+00  0.00000000E+00
  0.00000000E+00  0.00000000E+00  0.00000000E+00
  0.00000000E+00  0.00000000E+00  0.00000000E+00
  0.00000000E+00  0.00000000E+00  0.00000000E+00
  0.00000000E+00  0.00000000E+00  0.00000000E+00