Amorphous Sb                            
   1.00000000000000     
    20.7573636277536231    0.0000000000000000    0.0000000000000000
     0.0000000000000000   20.7573636277536231    0.0000000000000000
     0.0000000000000000    0.0000000000000000   20.7573636277536231
   Ge   Te   Se
   150    75    75
Direct
  0.5222773832035931  0.9310825431472721  0.5110257768573829
  0.9917179680340942  0.2763774816075217  0.8885506696171546
  0.5573874902525890  0.6642460241225591  0.1682859776022857
  0.0990722214172308  0.9763897445604127  0.3779115684480696
  0.7435649346175642  0.7347264889690827  0.9679819651761167
  0.8010404830799853  0.9256463056142094  0.6159447336341101
  0.1804797231239502  0.9567892150477116  0.1167575849139606
  0.1322199801611073  0.5054613367879176  0.7171395770179599
  0.6608338777720419  0.1993585009987429  0.2256538074674483
  0.1430209304924127  0.3764923986540740  0.7283673806392018
  0.4661073998753989  0.1146817433849973  0.4268072618309851
  0.0661792928596497  0.9601978565130462  0.9246280884707423
  0.8332754459241143  0.3490159598553739  0.6035600121728157
  0.6135421238797152  0.3413750819205411  0.6245218393491269
  0.3592344967869404  0.8300089502735380  0.6086479444552481
  0.3135330604815990  0.6426720242268841  0.9728460197627981
  0.3195640866455590  0.0672654985307020  0.7057134498248033
  0.1231492373653183  0.6269253394965725  0.9031646891020055
  0.7839057330718406  0.8983738849192222  0.7722008545734247
  0.3429272412231740  0.6231859694650771  0.4489645036715774
  0.4997461694747952  0.0214058087322749  0.2859470875414653
  0.4910960583338226  0.1577783825370157  0.7377664081060702
  0.6255348448298761  0.4947054390700705  0.2981785495974755
  0.0198767419379149  0.0166439902281950  0.0633155482692417
  0.7422737359144354  0.8475467955935667  0.4034042703194813
  0.3687655614440979  0.9390332157738325  0.2200568227637681
  0.3033229973483216  0.5298917803616698  0.9113920228941155
  0.7226687186518008  0.2573308442590682  0.9565498911560437
  0.6273087426666962  0.4150147807860376  0.9579402067927421
  0.5310946456852541  0.6721061088887804  0.6414168872834624
  0.6139296261341327  0.8280213526233147  0.1688723692160412
  0.6146545918332520  0.5401706307393289  0.5211332002871669
  0.3123220309373392  0.0829701387383215  0.1595990306912866
  0.7509239475990531  0.5120378563634510  0.0474944098208767
  0.7793507261376144  0.9381357899538113  0.9621300182332434
  0.7951131771441053  0.4902003770164458  0.3589846047075541
  0.6194672209144151  0.9109858101035939  0.0574606160603537
  0.7091844309854276  0.3601872453871610  0.7014346315839424
  0.7887106339379375  0.9236644910413065  0.4906680102907990
  0.7601565108229881  0.0538776029064014  0.3292280037262673
  0.8961833741381325  0.9404862651213854  0.6999894805021839
  0.2091962731593367  0.8130698032279972  0.9381988059677098
  0.6220027896689034  0.4240974321012095  0.8353270068384478
  0.0353156729675428  0.5778015687901223  0.0149248846181075
  0.0329389412433630  0.6665228027389041  0.3306189337059386
  0.1508013328527319  0.2216177214699541  0.6721533734352365
  0.7762472554731888  0.1543249175399246  0.6055457335142624
  0.3461960939615176  0.3838781642475122  0.7041087968333845
  0.4673252322508910  0.7617494905646656  0.0369443803566122
  0.7590751941436102  0.3656685595033669  0.4738015040781167
  0.4764144583255114  0.4378485439686649  0.5579312345585520
  0.1371517507800362  0.6067757218093289  0.4069258014815563
  0.9053026058013726  0.8155818767615797  0.8785763713077118
  0.4393993932502258  0.0491331699281028  0.6823050244347120
  0.9146025514669953  0.9961855708948795  0.8417190947367481
  0.4532722178909283  0.2427102570757854  0.6262352695609540
  0.3948703167362685  0.0832572132016588  0.8537834752327504
  0.9360988721932356  0.7287777723870973  0.2712975046002762
  0.2116204690052153  0.4296182734863711  0.0547509884562715
  0.1878224745619777  0.2413299795301236  0.3021241200964770
  0.3859661795513477  0.2094561341084952  0.2919598034512181
  0.6378023189731822  0.9041823454860253  0.8944892030216609
  0.6098076945163832  0.3857255473794894  0.3702725804996558
  0.5605623772896536  0.9970765745349269  0.7600352573639688
  0.1927182713508808  0.3203006091401803  0.8257549087732420
  0.2260638828014399  0.0504757482649547  0.0452042717779780
  0.7637193104478501  0.6089789025236262  0.2330193972248331
  0.6477233563719773  0.3319534105435661  0.1017549912010409
  0.4971555878119111  0.4564660859078293  0.1988560314843799
  0.6888607846868932  0.5737602271490763  0.7063913466815434
  0.4832267874259044  0.8196947240569430  0.8614024784808362
  0.5570978737565191  0.0773181339703713  0.5788074844826094
  0.5972661902391388  0.2486449241820868  0.4225862376240978
  0.5228213069401468  0.0246015692189891  0.0448421066333758
  0.4767422739512656  0.6008124458383013  0.3890638447012647
  0.3805075823353965  0.7416951211770640  0.9268707849960668
  0.4984820627860771  0.2758654268849424  0.0152222743977493
  0.8385812267609840  0.9761122853532970  0.1706658737370327
  0.5329663136936756  0.3977309653632962  0.0345930957053720
  0.9383696672351991  0.4852983651416421  0.6359664420783901
  0.8246759575531686  0.5723515591719972  0.5150159243937956
  0.8931272783422904  0.6501704345712532  0.1039016916412056
  0.0422329990503028  0.0818018765019376  0.2386714655115990
  0.0745064374896526  0.5851757366014256  0.1657767309102991
  0.2147591478148572  0.5377050284241103  0.3291965304127489
  0.2141602743431978  0.4390661861878570  0.2457963090996239
  0.4555119279444371  0.7432170986441882  0.2516467799055527
  0.3097921123115368  0.2756941871721679  0.1204428719262089
  0.8095072939435720  0.7318618187362257  0.6682492441466453
  0.9821526036696316  0.6683705352542934  0.7706139494777008
  0.5495410905521180  0.7527735396100735  0.3522078377515676
  0.2204139978077164  0.8007953749525661  0.4747828931253134
  0.2697319364465096  0.0003999281651761  0.3587501442094599
  0.5451240617598518  0.2748709242520780  0.7122475543887299
  0.6487170036453103  0.8981603002676339  0.2837877291574485
  0.4004508486935435  0.5405997277418183  0.8222160556496573
  0.2153546704152200  0.7974765077714098  0.6475005188337355
  0.5052944711114380  0.3861103043604519  0.8624352272649752
  0.2672582022960783  0.1850096309112458  0.3922397981673775
  0.0618855625944584  0.7236757353765217  0.4980046885204036
  0.9549820209132056  0.0940740089058486  0.3984148463168858
  0.5271110661140185  0.8825846894538325  0.6872950488478617
  0.3371173498746562  0.2479985848434895  0.8901835970525575
  0.0017187971029258  0.7726917927979766  0.6603473462722663
  0.9416625505092372  0.0347945180660300  0.5083856306921822
  0.2995569614444060  0.6870207258623396  0.3490654647497109
  0.4599710920195884  0.1573020429839039  0.0481850789599742
  0.8246967814407958  0.1967809888374020  0.1519880104831282
  0.2142422265701920  0.3597405717796018  0.4401425133528236
  0.1242754269086609  0.2964684849074271  0.1266670972462390
  0.1291975004549616  0.1210754373244004  0.9228839105971716
  0.7907625085900556  0.5997735642845645  0.8800320526166001
  0.2251423022112024  0.0271240412874368  0.5267345973781578
  0.9518092765376323  0.6364665606559781  0.9412189107995628
  0.0686781176310653  0.3242076923792189  0.5822223807452954
  0.1100207913696212  0.8451701399359283  0.2145028535566348
  0.0850350871462495  0.5163015449528147  0.5035500507848520
  0.9323126960181852  0.5634258526321405  0.1888738829061737
  0.4334350230934174  0.3263135217350784  0.3097584214337882
  0.3065798200307262  0.3958350387098683  0.1723896283471091
  0.6716196119335344  0.6099951682406335  0.1524944175413411
  0.1398870022366362  0.2729941505688256  0.9322405475104796
  0.6200222559257003  0.0031450089263285  0.4319384064816295
  0.3477025333898370  0.1734094926293882  0.7680021154579797
  0.5547208026659485  0.5129678269588285  0.0880711218974475
  0.6918700136931798  0.0766096059819377  0.0784717824614137
  0.8451832365107190  0.2735980185644921  0.4513941302319837
  0.0704457888283444  0.9445563264238342  0.7195266004758288
  0.9421813477776380  0.6316230749776062  0.5520643355248441
  0.3005373278956140  0.4267057437678427  0.5056512147678296
  0.9410566525221988  0.1742721926594568  0.5438415051917737
  0.0661696558451151  0.3034088157637209  0.2821284173404447
  0.9332410346185298  0.0415692890046126  0.6386021297830993
  0.2498709115670012  0.8006036668132327  0.1080295705228585
  0.9395744105956744  0.0935926793833602  0.9705938075561121
  0.1801853597879404  0.7111289673395981  0.3541638310851070
  0.8882883075668841  0.2873104785736172  0.0226981121028323
  0.1301676510777292  0.4343315462194972  0.8740349931103593
  0.1197399468086922  0.1351739594982147  0.4790601270801462
  0.2428500319161433  0.6458486105559040  0.1571334220495492
  0.2065096078441199  0.6809488573985765  0.8211804140258114
  0.3573363321171651  0.9618142557715510  0.9890802643064688
  0.8875071877601387  0.4494826102976571  0.8779994784410312
  0.4349501718509474  0.6388981332816075  0.5524894361632738
  0.5391499509769671  0.6929762573428927  0.7695856388959688
  0.9666433329333916  0.5202206954205252  0.4180759964999959
  0.4009377334793713  0.3539134740087582  0.4291755199514452
  0.7766067840097590  0.4708292369547208  0.6960130414710206
  0.8183547268866556  0.2575038349828815  0.3228089242094559
  0.4768324417210367  0.5219003142114446  0.7212046821613463
  0.0475264903041832  0.0663439751268476  0.6917933403397747
  0.6574179217459059  0.4743359796058761  0.1669171585895180
  0.4561087488766740  0.6495777327750195  0.8641021678456967
  0.7668910256355206  0.4765837387099646  0.8271839385895274
  0.2211079526000201  0.6387676097711760  0.5064047900195789
  0.6165222741796210  0.2170063167395136  0.0369763255461973
  0.2964967710672807  0.9037485676315912  0.5044542372429496
  0.1239290486171731  0.7037030322651848  0.2363895738303968
  0.5280898079123201  0.1023721671372820  0.8480236162868190
  0.6077659617197975  0.1582302874429057  0.6727123772837716
  0.5904267153626651  0.5694383597914011  0.7925524026786794
  0.8263435881794524  0.4946341793315157  0.2169145577771102
  0.4960525624076927  0.3070314124695530  0.5107008173736365
  0.4966905069597551  0.8614077421206606  0.2175730518068479
  0.8774580473336315  0.7354443307684088  0.9863276207701064
  0.9354395749079228  0.0699051690259325  0.1508437089388020
  0.2082172900128073  0.5118155805283435  0.5619950233274748
  0.7437785284152347  0.3001801237480798  0.1888225196907790
  0.7937336219440915  0.2639387154471697  0.6981193607356394
  0.3096577226418262  0.3754158517106291  0.8331391631486683
  0.4798243653068004  0.8940377137531565  0.0137156576308086
  0.2718881984273981  0.5726728450786718  0.7880681334157073
  0.3554137730622873  0.7949156961810854  0.3161834469179173
  0.0671324196072908  0.0082711070683813  0.5044267185097809
  0.5534770281731063  0.3450474879922834  0.2548911845393291
  0.5056036172317252  0.4784034160128059  0.4361452733894220
  0.4378589411870841  0.8043863306067113  0.7372903315959569
  0.0439524945126044  0.2939769530555181  0.7172095186448004
  0.5645882469617589  0.7899295722434493  0.5891146811840021
  0.4511959679164667  0.4596522459674039  0.9522801013282396
  0.1664419499079655  0.0788396596841344  0.3298642363195899
  0.9140913427952984  0.9260919232152526  0.9583392061425148
  0.0261494910640107  0.6885975501625508  0.0845370128997693
  0.7365184324419426  0.6791226103330911  0.7665195858247910
  0.8291536739935200  0.7263175601267871  0.1941810153933027
  0.0530087267413649  0.3736169919527185  0.9638246276721083
  0.6770547413446357  0.2771519713046678  0.5268232662563405
  0.3571143876448765  0.1282522953286295  0.9718316130377270
  0.8433732833692407  0.0962021826149976  0.8837057703503678
  0.7057582096775237  0.1846384963188716  0.3508379479503245
  0.8938139025555321  0.5974254443776070  0.6727536729195066
  0.9372660683812655  0.7628555787957573  0.5461037686158985
  0.0918474634452853  0.3929501087396760  0.4392950088354353
  0.6410488037095756  0.7299507634810694  0.2555305491390621
  0.9766033325731650  0.8474165717487658  0.2355803531209224
  0.5081923596536218  0.1580123800820280  0.3037371364883224
  0.3896047328878679  0.5287128241456185  0.6083738444029509
  0.1132845070503011  0.1190268494251009  0.0592182045517992
  0.1399942825018842  0.7207745526716152  0.7210969275786911
  0.7306250538203202  0.0285816229525984  0.6439316422946151
  0.1429699052588508  0.8337561887683429  0.3722643804137720
  0.8605815642981590  0.3154652604850693  0.8940705619283449
  0.7522786900105445  0.8416568952089398  0.0518600281882435
  0.4538347542659674  0.9788448125673267  0.4072038969039463
  0.4316253717025319  0.1230802778660509  0.5722853041244343
  0.4565829661906268  0.8086597358719348  0.5093407412978750
  0.6888285066383913  0.9849441918113160  0.8036689514884899
  0.6538176102322919  0.3019045016721492  0.8043642658690162
  0.1975325071585831  0.6934423697655884  0.0042196982832668
  0.7771122877535943  0.7253974702894068  0.4056949779356507
  0.1958259033593651  0.0030265338649831  0.9234895885569780
  0.1236087003098603  0.8470768778091361  0.0764193912230900
  0.2732769608536411  0.9596832420983077  0.7617576632554912
  0.0175918149765325  0.5417878956206239  0.2916396612917615
  0.3219231491217415  0.5033641143879741  0.3994023288268677
  0.1845390684234420  0.9303760156003695  0.6607192854008630
  0.8868276473532896  0.8560832152883499  0.1260729140278345
  0.8940645490939034  0.7825741820565472  0.3809906304857998
  0.9416037227885108  0.3454826724099095  0.2701043836547897
  0.9136093982710700  0.4016830071859456  0.3888063432051422
  0.8753391969790848  0.1335369428354783  0.3060789907007653
  0.3621330549552507  0.6106674118304467  0.0936891772684223
  0.3390205693704028  0.6961734545997285  0.6177045478011640
  0.2536064482622907  0.3038696531567295  0.9948777800665493
  0.2245430960058648  0.1857928924215959  0.8204644127550625
  0.9020409063254645  0.9326853661890887  0.4626548542891875
  0.3907863787413250  0.1806552054118441  0.1474642043865696
  0.7413462449057436  0.0276277747474341  0.4550295068604726
  0.6409354124431162  0.5295577232528679  0.9879066531311170
  0.8953747868308150  0.3974729194025308  0.6985568514276707
  0.1898482679696955  0.5023376737712434  0.9574245513636416
  0.7261771935065742  0.3690056684652321  0.0124677438406064
  0.8669418601497341  0.5883141754379312  0.3986885502553935
  0.5996389832892001  0.0060797330817289  0.1381488666747686
  0.7497973355381553  0.6357573996918996  0.0656066802759754
  0.0772581929535694  0.9778517269712487  0.1756286981643691
  0.7418707631805708  0.1116096509337350  0.1895329889440280
  0.4658667190666756  0.3965752146787332  0.7443088023259949
  0.0189128344296129  0.0655948771540209  0.8763028083653314
  0.0718980550686246  0.1917856403284636  0.5811797944195974
  0.0612940929234708  0.8923636163831469  0.8219584763810969
  0.6207013557993977  0.8540602926126457  0.3997164599674547
  0.8916989508304429  0.4699855336259290  0.5296943396816289
  0.3073342278996425  0.8439967265890113  0.0058400844860096
  0.0296126705786663  0.1822571250530745  0.4099478459977128
  0.3069015767136510  0.0800048383923292  0.4454909804639968
  0.6424697224695204  0.6330829566508609  0.6094565828546057
  0.7969678987914628  0.0139347047599122  0.0609320090561691
  0.3286379952056570  0.4642297667047833  0.0774264991721385
  0.3900613464416990  0.4280512745110730  0.2532892576450271
  0.2050551758328818  0.2449107429696558  0.4749436950212778
  0.8257448581159432  0.1623234505704828  0.4875854469783526
  0.2518610812545101  0.3451481164119952  0.3238935245022720
  0.3483660494542316  0.0494981486982198  0.2767438095291953
  0.9934224703493306  0.5013569548083731  0.1038221878138489
  0.6304960187820587  0.0012040449496883  0.9751296723493310
  0.2984599275364853  0.6019200463697628  0.2638059096325645
  0.8911591860981710  0.1498764584303712  0.6575394924762042
  0.9965870885362531  0.8951114275048201  0.6398789013809905
  0.9051877680434612  0.7680434181408511  0.7406603778280646
  0.3438704956701112  0.2674752547654969  0.6641709411510248
  0.0313787954038387  0.7107506818799629  0.8863729681455870
  0.9926665539547903  0.0053292965952166  0.3257647700904236
  0.1897104565222404  0.3362135123198417  0.6248390607157309
  0.5234746544499532  0.5528563525783826  0.2747436388096959
  0.0325727205596497  0.2429019497329073  0.1833439658307691
  0.2839625756829057  0.7696562478823742  0.8470092825818183
  0.0592875332740605  0.6354590387455803  0.5809050526833855
  0.0525126160672410  0.4645626485942169  0.6221504663208531
  0.0661919878874149  0.5221413199139928  0.8174717458212368
  0.9810723427126208  0.2117665115447974  0.9924437476325225
  0.3949001777589720  0.0036879681415968  0.1206656127316627
  0.1100155758234847  0.3941269359733212  0.2077922205867082
  0.7378218728179933  0.8378417793596270  0.6745957337269248
  0.7022838443440782  0.5814229440455878  0.3337236223242785
  0.6235734953350384  0.0181944382194365  0.3097918852991354
  0.8032845163020718  0.1964772079503828  0.0290225595439665
  0.2508204784529801  0.1020657560239567  0.6187345287148004
  0.5829012159392186  0.4613998731287591  0.6155927483188782
  0.5870817607331946  0.1231767127033919  0.4665486879071345
  0.7697064115398561  0.9030942717409587  0.3042253541135571
  0.5247231908176196  0.9348218749457951  0.8592390886718912
  0.3787772211005082  0.2300857215854978  0.4174796619050073
  0.2153561935323356  0.2270168196271560  0.1815344796599425
  0.3945888230935983  0.7347906193783629  0.1327923684854011
  0.2496747569400979  0.8972979222738169  0.1940005784599608
  0.4467138459861799  0.9446948435741787  0.6155042079596290
  0.1312033625089375  0.8113438381635057  0.5572412395566880
  0.8496631443855218  0.5202365699092240  0.9721158956557355
  0.1842127768266697  0.5410682048037937  0.1362406986900155
  0.7827832261754019  0.8182173933514078  0.8629949888953097
  0.5727491816275920  0.6603729875638888  0.4270414592771249
  0.3743840207449330  0.9671881517500873  0.8606155413826747
  0.7249308879449448  0.4881045326917698  0.4875404415868971
  0.5920379369594887  0.7670975747821879  0.8452232714423540
  0.4746289399852558  0.2747912025262211  0.8974177529676961
  0.9270466190120630  0.2991216459859033  0.5384575840418303
  0.7302018862181426  0.3628204303003458  0.3553854479773222
  0.9071496309279331  0.5964363331538691  0.8380665766465951
  0.5812539331141823  0.7424973611889057  0.0751068782823299
 
  0.00000000E+00  0.00000000E+00  0.00000000E+00
  0.00000000E+00  0.00000000E+00  0.00000000E+00
  0.00000000E+00  0.00000000E+00  0.00000000E+00
  0.00000000E+00  0.00000000E+00  0.00000000E+00
  0.00000000E+00  0.00000000E+00  0.00000000E+00
  0.00000000E+00  0.00000000E+00  0.00000000E+00
  0.00000000E+00  0.00000000E+00  0.00000000E+00
  0.00000000E+00  0.00000000E+00  0.00000000E+00
  0.00000000E+00  0.00000000E+00  0.00000000E+00
  0.00000000E+00  0.00000000E+00  0.00000000E+00
  0.00000000E+00  0.00000000E+00  0.00000000E+00
  0.00000000E+00  0.00000000E+00  0.00000000E+00
  0.00000000E+00  0.00000000E+00  0.00000000E+00
  0.00000000E+00  0.00000000E+00  0.00000000E+00
  0.00000000E+00  0.00000000E+00  0.00000000E+00
  0.00000000E+00  0.00000000E+00  0.00000000E+00
  0.00000000E+00  0.00000000E+00  0.00000000E+00
  0.00000000E+00  0.00000000E+00  0.00000000E+00
  0.00000000E+00  0.00000000E+00  0.00000000E+00
  0.00000000E+00  0.00000000E+00  0.00000000E+00
  0.00000000E+00  0.00000000E+00  0.00000000E+00
  0.00000000E+00  0.00000000E+00  0.00000000E+00
  0.00000000E+00  0.00000000E+00  0.00000000E+00
  0.00000000E+00  0.00000000E+00  0.00000000E+00
  0.00000000E+00  0.00000000E+00  0.00000000E+00
  0.00000000E+00  0.00000000E+00  0.00000000E+00
  0.00000000E+00  0.00000000E+00  0.00000000E+00
  0.00000000E+00  0.00000000E+00  0.00000000E+00
  0.00000000E+00  0.00000000E+00  0.00000000E+00
  0.00000000E+00  0.00000000E+00  0.00000000E+00
  0.00000000E+00  0.00000000E+00  0.00000000E+00
  0.00000000E+00  0.00000000E+00  0.00000000E+00
  0.00000000E+00  0.00000000E+00  0.00000000E+00
  0.00000000E+00  0.00000000E+00  0.00000000E+00
  0.00000000E+00  0.00000000E+00  0.00000000E+00
  0.00000000E+00  0.00000000E+00  0.00000000E+00
  0.00000000E+00  0.00000000E+00  0.00000000E+00
  0.00000000E+00  0.00000000E+00  0.00000000E+00
  0.00000000E+00  0.00000000E+00  0.00000000E+00
  0.00000000E+00  0.00000000E+00  0.00000000E+00
  0.00000000E+00  0.00000000E+00  0.00000000E+00
  0.00000000E+00  0.00000000E+00  0.00000000E+00
  0.00000000E+00  0.00000000E+00  0.00000000E+00
  0.00000000E+00  0.00000000E+00  0.00000000E+00
  0.00000000E+00  0.00000000E+00  0.00000000E+00
  0.00000000E+00  0.00000000E+00  0.00000000E+00
  0.00000000E+00  0.00000000E+00  0.00000000E+00
  0.00000000E+00  0.00000000E+00  0.00000000E+00
  0.00000000E+00  0.00000000E+00  0.00000000E+00
  0.00000000E+00  0.00000000E+00  0.00000000E+00
  0.00000000E+00  0.00000000E+00  0.00000000E+00
  0.00000000E+00  0.00000000E+00  0.00000000E+00
  0.00000000E+00  0.00000000E+00  0.00000000E+00
  0.00000000E+00  0.00000000E+00  0.00000000E+00
  0.00000000E+00  0.00000000E+00  0.00000000E+00
  0.00000000E+00  0.00000000E+00  0.00000000E+00
  0.00000000E+00  0.00000000E+00  0.00000000E+00
  0.00000000E+00  0.00000000E+00  0.00000000E+00
  0.00000000E+00  0.00000000E+00  0.00000000E+00
  0.00000000E+00  0.00000000E+00  0.00000000E+00
  0.00000000E+00  0.00000000E+00  0.00000000E+00
  0.00000000E+00  0.00000000E+00  0.00000000E+00
  0.00000000E+00  0.00000000E+00  0.00000000E+00
  0.00000000E+00  0.00000000E+00  0.00000000E+00
  0.00000000E+00  0.00000000E+00  0.00000000E+00
  0.00000000E+00  0.00000000E+00  0.00000000E+00
  0.00000000E+00  0.00000000E+00  0.00000000E+00
  0.00000000E+00  0.00000000E+00  0.00000000E+00
  0.00000000E+00  0.00000000E+00  0.00000000E+00
  0.00000000E+00  0.00000000E+00  0.00000000E+00
  0.00000000E+00  0.00000000E+00  0.00000000E+00
  0.00000000E+00  0.00000000E+00  0.00000000E+00
  0.00000000E+00  0.00000000E+00  0.00000000E+00
  0.00000000E+00  0.00000000E+00  0.00000000E+00
  0.00000000E+00  0.00000000E+00  0.00000000E+00
  0.00000000E+00  0.00000000E+00  0.00000000E+00
  0.00000000E+00  0.00000000E+00  0.00000000E+00
  0.00000000E+00  0.00000000E+00  0.00000000E+00
  0.00000000E+00  0.00000000E+00  0.00000000E+00
  0.00000000E+00  0.00000000E+00  0.00000000E+00
  0.00000000E+00  0.00000000E+00  0.00000000E+00
  0.00000000E+00  0.00000000E+00  0.00000000E+00
  0.00000000E+00  0.00000000E+00  0.00000000E+00
  0.00000000E+00  0.00000000E+00  0.00000000E+00
  0.00000000E+00  0.00000000E+00  0.00000000E+00
  0.00000000E+00  0.00000000E+00  0.00000000E+00
  0.00000000E+00  0.00000000E+00  0.00000000E+00
  0.00000000E+00  0.00000000E+00  0.00000000E+00
  0.00000000E+00  0.00000000E+00  0.00000000E+00
  0.00000000E+00  0.00000000E+00  0.00000000E+00
  0.00000000E+00  0.00000000E+00  0.00000000E+00
  0.00000000E+00  0.00000000E+00  0.00000000E+00
  0.00000000E+00  0.00000000E+00  0.00000000E+00
  0.00000000E+00  0.00000000E+00  0.00000000E+00
  0.00000000E+00  0.00000000E+00  0.00000000E+00
  0.00000000E+00  0.00000000E+00  0.00000000E+00
  0.00000000E+00  0.00000000E+00  0.00000000E+00
  0.00000000E+00  0.00000000E+00  0.00000000E+00
  0.00000000E+00  0.00000000E+00  0.00000000E+00
  0.00000000E+00  0.00000000E+00  0.00000000E+00
  0.00000000E+00  0.00000000E+00  0.00000000E+00
  0.00000000E+00  0.00000000E+00  0.00000000E+00
  0.00000000E+00  0.00000000E+00  0.00000000E+00
  0.00000000E+00  0.00000000E+00  0.00000000E+00
  0.00000000E+00  0.00000000E+00  0.00000000E+00
  0.00000000E+00  0.00000000E+00  0.00000000E+00
  0.00000000E+00  0.00000000E+00  0.00000000E+00
  0.00000000E+00  0.00000000E+00  0.00000000E+00
  0.00000000E+00  0.00000000E+00  0.00000000E+00
  0.00000000E+00  0.00000000E+00  0.00000000E+00
  0.00000000E+00  0.00000000E+00  0.00000000E+00
  0.00000000E+00  0.00000000E+00  0.00000000E+00
  0.00000000E+00  0.00000000E+00  0.00000000E+00
  0.00000000E+00  0.00000000E+00  0.00000000E+00
  0.00000000E+00  0.00000000E+00  0.00000000E+00
  0.00000000E+00  0.00000000E+00  0.00000000E+00
  0.00000000E+00  0.00000000E+00  0.00000000E+00
  0.00000000E+00  0.00000000E+00  0.00000000E+00
  0.00000000E+00  0.00000000E+00  0.00000000E+00
  0.00000000E+00  0.00000000E+00  0.00000000E+00
  0.00000000E+00  0.00000000E+00  0.00000000E+00
  0.00000000E+00  0.00000000E+00  0.00000000E+00
  0.00000000E+00  0.00000000E+00  0.00000000E+00
  0.00000000E+00  0.00000000E+00  0.00000000E+00
  0.00000000E+00  0.00000000E+00  0.00000000E+00
  0.00000000E+00  0.00000000E+00  0.00000000E+00
  0.00000000E+00  0.00000000E+00  0.00000000E+00
  0.00000000E+00  0.00000000E+00  0.00000000E+00
  0.00000000E+00  0.00000000E+00  0.00000000E+00
  0.00000000E+00  0.00000000E+00  0.00000000E+00
  0.00000000E+00  0.00000000E+00  0.00000000E+00
  0.00000000E+00  0.00000000E+00  0.00000000E+00
  0.00000000E+00  0.00000000E+00  0.00000000E+00
  0.00000000E+00  0.00000000E+00  0.00000000E+00
  0.00000000E+00  0.00000000E+00  0.00000000E+00
  0.00000000E+00  0.00000000E+00  0.00000000E+00
  0.00000000E+00  0.00000000E+00  0.00000000E+00
  0.00000000E+00  0.00000000E+00  0.00000000E+00
  0.00000000E+00  0.00000000E+00  0.00000000E+00
  0.00000000E+00  0.00000000E+00  0.00000000E+00
  0.00000000E+00  0.00000000E+00  0.00000000E+00
  0.00000000E+00  0.00000000E+00  0.00000000E+00
  0.00000000E+00  0.00000000E+00  0.00000000E+00
  0.00000000E+00  0.00000000E+00  0.00000000E+00
  0.00000000E+00  0.00000000E+00  0.00000000E+00
  0.00000000E+00  0.00000000E+00  0.00000000E+00
  0.00000000E+00  0.00000000E+00  0.00000000E+00
  0.00000000E+00  0.00000000E+00  0.00000000E+00
  0.00000000E+00  0.00000000E+00  0.00000000E+00
  0.00000000E+00  0.00000000E+00  0.00000000E+00
  0.00000000E+00  0.00000000E+00  0.00000000E+00
  0.00000000E+00  0.00000000E+00  0.00000000E+00
  0.00000000E+00  0.00000000E+00  0.00000000E+00
  0.00000000E+00  0.00000000E+00  0.00000000E+00
  0.00000000E+00  0.00000000E+00  0.00000000E+00
  0.00000000E+00  0.00000000E+00  0.00000000E+00
  0.00000000E+00  0.00000000E+00  0.00000000E+00
  0.00000000E+00  0.00000000E+00  0.00000000E+00
  0.00000000E+00  0.00000000E+00  0.00000000E+00
  0.00000000E+00  0.00000000E+00  0.00000000E+00
  0.00000000E+00  0.00000000E+00  0.00000000E+00
  0.00000000E+00  0.00000000E+00  0.00000000E+00
  0.00000000E+00  0.00000000E+00  0.00000000E+00
  0.00000000E+00  0.00000000E+00  0.00000000E+00
  0.00000000E+00  0.00000000E+00  0.00000000E+00
  0.00000000E+00  0.00000000E+00  0.00000000E+00
  0.00000000E+00  0.00000000E+00  0.00000000E+00
  0.00000000E+00  0.00000000E+00  0.00000000E+00
  0.00000000E+00  0.00000000E+00  0.00000000E+00
  0.00000000E+00  0.00000000E+00  0.00000000E+00
  0.00000000E+00  0.00000000E+00  0.00000000E+00
  0.00000000E+00  0.00000000E+00  0.00000000E+00
  0.00000000E+00  0.00000000E+00  0.00000000E+00
  0.00000000E+00  0.00000000E+00  0.00000000E+00
  0.00000000E+00  0.00000000E+00  0.00000000E+00
  0.00000000E+00  0.00000000E+00  0.00000000E+00
  0.00000000E+00  0.00000000E+00  0.00000000E+00
  0.00000000E+00  0.00000000E+00  0.00000000E+00
  0.00000000E+00  0.00000000E+00  0.00000000E+00
  0.00000000E+00  0.00000000E+00  0.00000000E+00
  0.00000000E+00  0.00000000E+00  0.00000000E+00
  0.00000000E+00  0.00000000E+00  0.00000000E+00
  0.00000000E+00  0.00000000E+00  0.00000000E+00
  0.00000000E+00  0.00000000E+00  0.00000000E+00
  0.00000000E+00  0.00000000E+00  0.00000000E+00
  0.00000000E+00  0.00000000E+00  0.00000000E+00
  0.00000000E+00  0.00000000E+00  0.00000000E+00
  0.00000000E+00  0.00000000E+00  0.00000000E+00
  0.00000000E+00  0.00000000E+00  0.00000000E+00
  0.00000000E+00  0.00000000E+00  0.00000000E+00
  0.00000000E+00  0.00000000E+00  0.00000000E+00
  0.00000000E+00  0.00000000E+00  0.00000000E+00
  0.00000000E+00  0.00000000E+00  0.00000000E+00
  0.00000000E+00  0.00000000E+00  0.00000000E+00
  0.00000000E+00  0.00000000E+00  0.00000000E+00
  0.00000000E+00  0.00000000E+00  0.00000000E+00
  0.00000000E+00  0.00000000E+00  0.00000000E+00
  0.00000000E+00  0.00000000E+00  0.00000000E+00
  0.00000000E+00  0.00000000E+00  0.00000000E+00
  0.00000000E+00  0.00000000E+00  0.00000000E+00
  0.00000000E+00  0.00000000E+00  0.00000000E+00
  0.00000000E+00  0.00000000E+00  0.00000000E+00
  0.00000000E+00  0.00000000E+00  0.00000000E+00
  0.00000000E+00  0.00000000E+00  0.00000000E+00
  0.00000000E+00  0.00000000E+00  0.00000000E+00
  0.00000000E+00  0.00000000E+00  0.00000000E+00
  0.00000000E+00  0.00000000E+00  0.00000000E+00
  0.00000000E+00  0.00000000E+00  0.00000000E+00
  0.00000000E+00  0.00000000E+00  0.00000000E+00
  0.00000000E+00  0.00000000E+00  0.00000000E+00
  0.00000000E+00  0.00000000E+00  0.00000000E+00
  0.00000000E+00  0.00000000E+00  0.00000000E+00
  0.00000000E+00  0.00000000E+00  0.00000000E+00
  0.00000000E+00  0.00000000E+00  0.00000000E+00
  0.00000000E+00  0.00000000E+00  0.00000000E+00
  0.00000000E+00  0.00000000E+00  0.00000000E+00
  0.00000000E+00  0.00000000E+00  0.00000000E+00
  0.00000000E+00  0.00000000E+00  0.00000000E+00
  0.00000000E+00  0.00000000E+00  0.00000000E+00
  0.00000000E+00  0.00000000E+00  0.00000000E+00
  0.00000000E+00  0.00000000E+00  0.00000000E+00
  0.00000000E+00  0.00000000E+00  0.00000000E+00
  0.00000000E+00  0.00000000E+00  0.00000000E+00
  0.00000000E+00  0.00000000E+00  0.00000000E+00
  0.00000000E+00  0.00000000E+00  0.00000000E+00
  0.00000000E+00  0.00000000E+00  0.00000000E+00
  0.00000000E+00  0.00000000E+00  0.00000000E+00
  0.00000000E+00  0.00000000E+00  0.00000000E+00
  0.00000000E+00  0.00000000E+00  0.00000000E+00
  0.00000000E+00  0.00000000E+00  0.00000000E+00
  0.00000000E+00  0.00000000E+00  0.00000000E+00
  0.00000000E+00  0.00000000E+00  0.00000000E+00