Sb8 Se12                                
  0.990000000000000     
     4.0647531864362474    0.0000000000000000    0.0000000000000002
    -0.0000000000000007   11.7095760446378758    0.0000000000000007
     0.0000000000000000    0.0000000000000000   11.9740045497812151
   Sb   Se
     8    12
Direct
  0.7500000000000000  0.0380150757486598  0.1479267267066841
  0.2500000000000000  0.9619849242513403  0.8520732732933161
  0.2500000000000000  0.5380150757486597  0.3520732732933159
  0.7500000000000000  0.4619849242513401  0.6479267267066839
  0.2500000000000000  0.3279634717001707  0.0261053418279281
  0.7500000000000000  0.6720365282998223  0.9738946581720719
  0.7500000000000000  0.8279634717001706  0.4738946581720719
  0.2500000000000000  0.1720365282998222  0.5261053418279281
  0.7500000000000000  0.1309953201452494  0.9453975304096319
  0.2500000000000000  0.8690046798547505  0.0546024695903679
  0.2500000000000000  0.6309953201452495  0.5546024695903681
  0.7500000000000000  0.3690046798547507  0.4453975304096321
  0.2500000000000000  0.1940965569121266  0.2138290926881359
  0.7500000000000000  0.8059034430878732  0.7861709073118641
  0.7500000000000000  0.6940965569121268  0.2861709073118641
  0.2500000000000000  0.3059034430878735  0.7138290926881359
  0.7500000000000000  0.0537569594060982  0.6280416195265393
  0.2500000000000000  0.9462430405938945  0.3719583804734606
  0.2500000000000000  0.5537569594061055  0.8719583804734607
  0.7500000000000000  0.4462430405938947  0.1280416195265393
 
  0.00000000E+00  0.00000000E+00  0.00000000E+00
  0.00000000E+00  0.00000000E+00  0.00000000E+00
  0.00000000E+00  0.00000000E+00  0.00000000E+00
  0.00000000E+00  0.00000000E+00  0.00000000E+00
  0.00000000E+00  0.00000000E+00  0.00000000E+00
  0.00000000E+00  0.00000000E+00  0.00000000E+00
  0.00000000E+00  0.00000000E+00  0.00000000E+00
  0.00000000E+00  0.00000000E+00  0.00000000E+00
  0.00000000E+00  0.00000000E+00  0.00000000E+00
  0.00000000E+00  0.00000000E+00  0.00000000E+00
  0.00000000E+00  0.00000000E+00  0.00000000E+00
  0.00000000E+00  0.00000000E+00  0.00000000E+00
  0.00000000E+00  0.00000000E+00  0.00000000E+00
  0.00000000E+00  0.00000000E+00  0.00000000E+00
  0.00000000E+00  0.00000000E+00  0.00000000E+00
  0.00000000E+00  0.00000000E+00  0.00000000E+00
  0.00000000E+00  0.00000000E+00  0.00000000E+00
  0.00000000E+00  0.00000000E+00  0.00000000E+00
  0.00000000E+00  0.00000000E+00  0.00000000E+00
  0.00000000E+00  0.00000000E+00  0.00000000E+00
