Amorphous Sb                            
   1.00000000000000     
    20.5572922372385520    0.0000000000000000    0.0000000000000000
     0.0000000000000000   20.5572922372385520    0.0000000000000000
     0.0000000000000000    0.0000000000000000   20.5572922372385520
   Zn   Te
   150   150
Direct
  0.0690034855830429  0.7930471119928328  0.1702761941477147
  0.5178476324913602  0.9004104382242092  0.0515963014461258
  0.5797385601588285  0.5619792156501299  0.7646712424331393
  0.5745781673707284  0.0564869515468120  0.3517790617945528
  0.1890747590137701  0.9036685802357601  0.5776084876045399
  0.0495798279806855  0.0064559378171724  0.3587295393413851
  0.0789680428118488  0.0916127500351014  0.1370517658413858
  0.6353014216831484  0.9877015465981092  0.8314924936139146
  0.8436284574526692  0.5855881982214217  0.3169247878193163
  0.0827956283355590  0.6548194085643434  0.8542560022255290
  0.5143532459840391  0.6451072739984101  0.6150915312329348
  0.7403851644207808  0.1254508997008896  0.3875962129648622
  0.7911410939680856  0.4158864450775816  0.8843487988218595
  0.2091308973137767  0.5786317416191805  0.3441668413301575
  0.3793236065643776  0.0882069928813354  0.4316577985120914
  0.3939833261672037  0.1860334919381789  0.2841791989007810
  0.6422781381876679  0.6303817275766123  0.2243300700811938
  0.9801446566218652  0.1597517170889155  0.6789735026602726
  0.8157641569277816  0.2832305541459362  0.6541212617925299
  0.5384556227742597  0.1473177942980701  0.8197992774605987
  0.1544200870648353  0.8033872317265597  0.6992083690030023
  0.6566931950416588  0.0801186167971873  0.2453196652438984
  0.9808214556063179  0.4327987224735675  0.5174396224210113
  0.1563069944104992  0.9955893737308379  0.9677392668837885
  0.0932448831389930  0.9939647771081366  0.7296519972158084
  0.4482669114474850  0.1543466266865358  0.9713926755696662
  0.2020001588413074  0.7627158543573541  0.5177148299040399
  0.9984837118345078  0.0881520653240211  0.8937735849827507
  0.2364667808687441  0.7750057106291115  0.9934065549513632
  0.3837916771639436  0.5227592878731812  0.7903375538308809
  0.7866688265982361  0.2957354744120576  0.0429019542428805
  0.5761250871002385  0.3836491262021322  0.6330761445522658
  0.5731789747639050  0.1230539537618602  0.5279853898967434
  0.5463032470118740  0.5674586631926202  0.0398330179323233
  0.4447020268523173  0.7338916687872674  0.9856554410068106
  0.6782284171723715  0.4803077355571572  0.3491355792681947
  0.2819300493381237  0.2952650834071071  0.1199090536364697
  0.2497499776024110  0.5863594785271372  0.5750184588900771
  0.0656897567218512  0.8452591171692587  0.3315090459526067
  0.2599234780737546  0.3621127274888226  0.7866192976332553
  0.5247960826763876  0.6849804118252170  0.2394606813061022
  0.4720908019656845  0.6821177301249002  0.4465324318817018
  0.9678368143714335  0.9659666063836893  0.0104945244400993
  0.8101308810312678  0.6174967815145640  0.1371833846083451
  0.7966490616188615  0.0100225005098778  0.0746024616244051
  0.3036941839469703  0.7367289292143627  0.5979271524938800
  0.7256762834535788  0.8059114383006110  0.7564663488106510
  0.8735308590219923  0.8776431114409881  0.6641431279399072
  0.2780919730474343  0.1259721463254909  0.7895408717508753
  0.1162735509896397  0.2771864512852624  0.8237182856043506
  0.7158263375839258  0.7137501061412035  0.1020492853630354
  0.2943218621158523  0.1750127734430501  0.9688086287352768
  0.9891315193307042  0.5356404831357434  0.2419699805933065
  0.1464569391489106  0.2183427821414316  0.6175236154031215
  0.9033635896897307  0.0570510606131104  0.2331878800625227
  0.6941165250068806  0.4172238691943127  0.6997272109531999
  0.6336240103813836  0.6646181749915501  0.4185886589096618
  0.8684918271674401  0.1421113211179645  0.0537563132723450
  0.8765768690364705  0.2521264194515880  0.8806739487185526
  0.9039233113490643  0.3939958967232982  0.0382862921370762
  0.4856651407501251  0.5758687557742983  0.4987847089836170
  0.5846484639940250  0.0300180217211833  0.6931793614818288
  0.5258134374231633  0.8728512523155908  0.3514244407598099
  0.0480371912183449  0.4499858102192053  0.7897694603084677
  0.7510022574489184  0.1140722167071834  0.6442095733739290
  0.3337866262242506  0.9908663035841726  0.9459190174372637
  0.5139998733236530  0.3908101786153881  0.4182020285477685
  0.4132650283588910  0.9670176415988250  0.2475998002259369
  0.4711556869108586  0.8189132738385839  0.5227393797438253
  0.0982085129048319  0.4878735610845542  0.5003705818790477
  0.7504401309789673  0.7710611840501723  0.2685939314195961
  0.0093536038544869  0.8243047935982473  0.7872478404791702
  0.4110347607274544  0.1158314503911971  0.6513034817900279
  0.9944506482003213  0.4386271432736613  0.1257059448647622
  0.2548266506046853  0.0567399379654002  0.5662058191865601
  0.9092511163631177  0.5126672003503540  0.0713306251610511
  0.8951867891978875  0.2898663840023458  0.2190360139996397
  0.1394175246260648  0.6908839033076429  0.7441426607851823
  0.2106009959970752  0.5547674830568670  0.6708569071296883
  0.5883012703730327  0.2584145798402571  0.6704856132581132
  0.7286908207637188  0.6048665006804896  0.8075407593660614
  0.3023181708846912  0.4319959912687092  0.2931921481628254
  0.0590880689959703  0.1774955987767038  0.2613177106365339
  0.8433805500819780  0.3371422404883067  0.3955867771479210
  0.6428957621095790  0.5239209868545356  0.5248894291816812
  0.2403316729691530  0.8174262581504957  0.2761248212302069
  0.9402483713969653  0.0125648052127074  0.7443695642980390
  0.3823803353223415  0.0489713348879671  0.0777479212729885
  0.4385511897271416  0.8574646773481355  0.8859539895347576
  0.3911801890141804  0.7916259424986668  0.2182370617431456
  0.6669536580810940  0.5585345422832337  0.9074250300474802
  0.6235931377547999  0.6764540818662744  0.8738404863113511
  0.4758781326168653  0.5176591249151604  0.3296581526538447
  0.3962403986951179  0.6753485645278713  0.0964031888919312
  0.6605409567479449  0.8571480477383535  0.9224105229739129
  0.5291297794327023  0.3573299187808711  0.2300148850046233
  0.3447492547179543  0.3880115414354108  0.0456435534645913
  0.2423943364624091  0.2675132430324368  0.3539268048064160
  0.2133380527221009  0.5023579848888201  0.9332221351124030
  0.8043967925051557  0.5855051489120847  0.4679411284655980
  0.9914364357965700  0.6788622428125088  0.5716242126710969
  0.2479296841536864  0.8793564295666151  0.1313194109127471
  0.6359954209267545  0.3986567116946432  0.1278072856277720
  0.8989855287950814  0.6617306874086037  0.8927401459647430
  0.6437426127113762  0.9340780867903627  0.5104223715180085
  0.4106680421331572  0.7773221856099133  0.6950969324269884
  0.7232659741367410  0.1963034894030797  0.8305498437983667
  0.4331501250981401  0.2858026319052491  0.7533982608939432
  0.8560022427213179  0.8281936305981591  0.1128922273364930
  0.6821154228450088  0.8844183842016603  0.1261324693218257
  0.7390370571288004  0.2148676489903933  0.2655616329685146
  0.8617049473700705  0.9609713954399547  0.3649695916570335
  0.1980731767586316  0.6724285380767615  0.4325053812689910
  0.1687500212802076  0.1740561134465101  0.9847122762474064
  0.8601085034537712  0.6958378192861343  0.6827144497635359
  0.0438623911369203  0.6872351163210073  0.3458375569955491
  0.3619316851896868  0.3475954910656848  0.4388051850215945
  0.0517421088702425  0.6180635381819013  0.0478744481618273
  0.2814872901577640  0.2817243280121602  0.6739424458887134
  0.5801902465298450  0.2012798644775880  0.1110655689895081
  0.4968480517677821  0.3247314961947971  0.9996036294065423
  0.1878979077867009  0.6928482011772731  0.6246255078482182
  0.5029039375621436  0.3010240513964244  0.5819053894324990
  0.0215494851525938  0.7738821205200487  0.0044497630221989
  0.1676229823689448  0.4573710954559933  0.1088474209670404
  0.0626333811821151  0.3062648575102513  0.4670454513733335
  0.3156098726571731  0.3183683068110340  0.8762092229369823
  0.0362186752815766  0.6202329110061703  0.7497887024441920
  0.3837799744375661  0.6407898554680878  0.5106333790783846
  0.5391572873485518  0.5677735550986530  0.1988428866650471
  0.0109371588003518  0.5294224303903893  0.5798086788976358
  0.0088014342927048  0.9889552658871702  0.5632130006474271
  0.3923948037908191  0.9556814452529697  0.7311076308571499
  0.8812481108311271  0.5070723470147331  0.6970140351688510
  0.5045362483624607  0.4701439779944134  0.8891511566428785
  0.6480696804155345  0.2995684222715864  0.4824560238780027
  0.1661354979231726  0.1189687701270521  0.4256027952605889
  0.0240689785207487  0.3465337802823322  0.6308600644823099
  0.4108571785549757  0.3083410286996533  0.1216275916359212
  0.2934611448157558  0.6598540065618178  0.8642008363170751
  0.2818829830715153  0.8100853615603777  0.7913150697035196
  0.0427855405481205  0.4253433929309376  0.9363640274067210
  0.2287775416292888  0.7979639420275668  0.4034540012924537
  0.2433960257988440  0.0830761107096528  0.2473331359209590
  0.9461266400085553  0.0917077166385024  0.3842935990933850
  0.8222159754686725  0.9371213174114593  0.5256881807065525
  0.2243199327986238  0.9207122249419391  0.3811866230655843
  0.1108419888681000  0.3221749163124648  0.2447523892884389
  0.0448216093841267  0.2569515569925840  0.0378036334043655
  0.4055176433062180  0.9400965394694415  0.5475004950154845
  0.4417417537555788  0.0703613786747223  0.3248423494029139
  0.6018078646939536  0.4714558411902212  0.9769516331840834
  0.7018167168185381  0.6318546349609881  0.5284191798213398
  0.7524939917175044  0.8882221664796792  0.3333966816446211
  0.7811779244985685  0.0886913157173315  0.2651641057432880
  0.0700995201738237  0.5430526849130247  0.1496228189417499
  0.4407665785297757  0.5578674064707323  0.1121456602806523
  0.2837429815318658  0.5678701170818422  0.4487708966300582
  0.6240867296180521  0.3627682856947434  0.3690873443069045
  0.1961811887476829  0.7501430095974064  0.8609462658455262
  0.6602393204818736  0.6383096554144350  0.7023666874050035
  0.9527526074930072  0.0571630108809801  0.1066649214194458
  0.8319985596129162  0.1884269441920525  0.5654038932287834
  0.4313536380758601  0.4053556021829481  0.3021840741023784
  0.7258280623712376  0.6521679487356796  0.3246040599435236
  0.1062200824273726  0.2218590272746576  0.1453337168012608
  0.8785434279147084  0.1321190982149421  0.9162252109840487
  0.2781434017064302  0.2095501142105573  0.2246706432990249
  0.2820987990741765  0.7605396831423368  0.1698471728381729
  0.5973504208572020  0.9532881622141937  0.2627224792329757
  0.6861142671604200  0.5919760554636274  0.1072840209109873
  0.4644499377993954  0.8807281974634703  0.6575208630811050
  0.3033864921402947  0.5588022561125554  0.2480507969111490
  0.3332344108101806  0.9211637820739058  0.8348176403643166
  0.2753392743510170  0.4112786363838513  0.6705314917499948
  0.9083247364375954  0.8993799452370296  0.7862582092397422
  0.6389727961842665  0.9353963847821619  0.0279303228436988
  0.1199694060198311  0.8890298023889636  0.7893876805692248
  0.7746528858541092  0.4849407791713599  0.7699234336265912
  0.5603262456066284  0.8765718512051519  0.8435811103426091
  0.8859825512095237  0.5941396616207402  0.6031905259607157
  0.6269047279244766  0.1403728310108590  0.6539521122421813
  0.8410411013054647  0.8211753408235707  0.9817617832078913
  0.9189855536077673  0.6432248773275134  0.0155302692308855
  0.1278153784891557  0.7321218845218901  0.0654970338057747
  0.3018976904217626  0.0584234420419110  0.6839557524611662
  0.3968627204792787  0.8633999934137468  0.3205832269037350
  0.7760446622095050  0.7861872455190270  0.6432122624523453
  0.7987682145483290  0.4827121497216342  0.3914004799166882
  0.0442908746842944  0.0981158952256481  0.7727401937062006
  0.7793866046168592  0.5110180334138170  0.9636412644239024
  0.4496658242906067  0.0612167479679365  0.5388884810032197
  0.9653694818593909  0.3640999590009044  0.4141358882674769
  0.6224328828303861  0.1812797968185617  0.3165459907098956
  0.2895157630315777  0.9413442097000299  0.5030644846718152
  0.2320997910103034  0.2870820539637167  0.9933765423230025
  0.7560326186739249  0.4252255704951974  0.0644800048854651
  0.5132049011488981  0.4038836202589443  0.1105539885722849
  0.4500635329933962  0.0251996612233815  0.9653303511050960
  0.4913437369504583  0.2396828791153236  0.2038611805840595
  0.6093320242024373  0.7477427169237723  0.7707902873032012
  0.5201647741267447  0.9276296558877392  0.4634950706617099
  0.3180638930849825  0.9899925039511930  0.1730687184258770
  0.3927825250669185  0.7378422050993927  0.8199690678392345
  0.0485932910848387  0.0912758157058320  0.4633573074392360
  0.5629957076969035  0.2199128809273704  0.9905934296567803
  0.7719873723896784  0.9850482950475080  0.6317258390069447
  0.8965865041051649  0.3937305713955721  0.6206913564151176
  0.5466548353643772  0.2694460583914747  0.8027821318942910
  0.2483511095362784  0.3925765201723042  0.3999537913066652
  0.1263145771470891  0.3753702062215137  0.5606781256130203
  0.0947064187969827  0.5178219800433328  0.6865285698557735
  0.0035651411593973  0.5609259049337022  0.3680500103147921
  0.0628774163557305  0.2025932665357555  0.9260720022209995
  0.0179276470878662  0.3303308928751497  0.7510909123403714
  0.8444626876057546  0.9602223653424662  0.9647347816105757
  0.2376355623366764  0.0756303741389510  0.9031117078628339
  0.2719901043459454  0.0452455949176738  0.3656210826327562
  0.4810746313007498  0.0599426022026867  0.7512584736010492
  0.9915704224186523  0.7630018086632222  0.2652473418170670
  0.9228709100164133  0.3662542955408830  0.9184489849115323
  0.1435675848103373  0.8904630198887997  0.2229238337996424
  0.3622046571555355  0.7755524083859848  0.4772256106924923
  0.1199983211209333  0.4883813358371407  0.3672020405859742
  0.5086296451014601  0.9833912438862319  0.1604727189015010
  0.2453831146905829  0.9033856089448606  0.0056738903875503
  0.8394932766401341  0.0473815516652152  0.4474347209222445
  0.9406118232921462  0.8784663686140662  0.5508633109940765
  0.9831761215748783  0.8565815588523307  0.0889927300639159
  0.1219877546964562  0.2459764610236925  0.3590504505059856
  0.1050586554134781  0.9155014215006413  0.4286042696429333
  0.4153268846833783  0.8477353730838497  0.0130413503178535
  0.6428086265625217  0.9320715424999721  0.6429382372114149
  0.5741029802103871  0.5456655740064669  0.4016566942559874
  0.7130918063882734  0.2936391021582464  0.7219627040830919
  0.5449951456868946  0.7419003099559520  0.3633664304903116
  0.2718707985169544  0.8465977424634005  0.6710602214074121
  0.4367554894732837  0.3939346693517120  0.5255733330355673
  0.6136510426753422  0.4736950534946138  0.2316003739449702
  0.8604875657031649  0.5261742576719610  0.2065179492308725
  0.8166237108682364  0.7019812735069590  0.8052536441713524
  0.1642406813843481  0.6979639616645614  0.3094280515986474
  0.2596218124878884  0.5462550567981835  0.8141236670209411
  0.9906736487973468  0.3815787165867707  0.2377693200142823
  0.9809367929561007  0.7313356659073215  0.6921261955912534
  0.4038468420749494  0.6319549535576836  0.3003056099933619
  0.3211137077172506  0.6816638637623114  0.9910256787559927
  0.7397342217260241  0.8606839910539223  0.4689851640785662
  0.9517048311127846  0.5367440704248944  0.8119465760912501
  0.6467410948831865  0.0533770118548303  0.4559514262632875
  0.4190930658968014  0.4164629984267582  0.7166366481822384
  0.0440600185061860  0.9672044579944817  0.9155697203114899
  0.3599643949727288  0.2274060375618222  0.4058900355208936
  0.9314635945039795  0.1774315239603702  0.2845091150470056
  0.2742620491755363  0.5010690321978437  0.0423042723543705
  0.8036695290186104  0.1143426483550896  0.7600985768209512
  0.6422166935065188  0.1071053229327030  0.8803857485404215
  0.6929439478741258  0.2730407372171906  0.1385073539935094
  0.0781707736053044  0.3840799869433190  0.0467829710021470
  0.7593973361817483  0.2387776741973653  0.4582431274923857
  0.8959904126027255  0.2270501793892665  0.7483811729542501
  0.6539919127010158  0.7810494925434002  0.1862550432512725
  0.3743595291092358  0.1734347321016145  0.0714221101053328
  0.2344572061230119  0.1791049394662079  0.5279419219051298
  0.9810079312783773  0.7364341746252721  0.4543404556805902
  0.5739531362691732  0.4371520275389303  0.7578114602927020
  0.8599530434849258  0.6832080301556810  0.4032404241615110
  0.8457608613835844  0.7292979690274589  0.1905000403588385
  0.7423817834034416  0.9143692769585731  0.8338636140791889
  0.7423903471015320  0.1143469060320088  0.0418992008459261
  0.3924835438152927  0.6517240172597220  0.6502003099498080
  0.1043955407147597  0.8108220767410750  0.5785004626889365
  0.6849049024927479  0.4083510637265283  0.5613822659248728
  0.0962070950760476  0.5632379100324506  0.9410465883518191
  0.1053758270781552  0.6162184985859164  0.5219811198809253
  0.3719112999403503  0.1979139881999888  0.8467981454149365
  0.2160766307070228  0.3789285189555960  0.1990923726494199
  0.1906155783251697  0.2137954902674231  0.7376588615478977
  0.0316224710869343  0.2238106368011030  0.5763989266335672
  0.1252012642381178  0.0065660863825723  0.6076804150083709
  0.1091442581370208  0.0542222454015882  0.2531789316203639
  0.5694812478951125  0.7412490635744443  0.5460270476140524
  0.5639237160459655  0.6925335796481090  0.9853695344178800
  0.9158837693897328  0.0620899939506891  0.6204815428132873
  0.4806320785011383  0.5851551943122465  0.8429289760856135
  0.7918773093297735  0.3261375472428110  0.2668537221620478
  0.9118744299364810  0.2637310370084407  0.0870987370744212
  0.4814919714212134  0.7563595303896120  0.1409561648831343
  0.7526392241224336  0.2894875552795544  0.9167316194815958
  0.9553546547895426  0.9565187016778632  0.2842689599909868
  0.7344284637748006  0.7433046469535036  0.9767744598341778
  0.1489387646514521  0.4046058399391413  0.8628375288587219
  0.4123612474295391  0.3858664799645077  0.9338343597345798
  0.3911256722559519  0.2410296913786683  0.6386291811336039
  0.5320271104777796  0.5216905301238132  0.6037491816382178
  0.6284865684669606  0.0857945533143821  0.1187017496848715
  0.7961011300109350  0.9251167754675870  0.1631240161127489
  0.9974634141033164  0.7470597685678619  0.8875280962824580
  0.5441045535295790  0.2305300317297811  0.4807916023447367
  0.1819943307242993  0.0710565522422436  0.0688812328435896
 
 -0.56016905E-03  0.32161120E-03 -0.27101987E-02
  0.10719171E-03  0.11789508E-03 -0.26487962E-03
  0.15541108E-03 -0.12570061E-02 -0.16537122E-02
 -0.12540169E-02  0.98272946E-03 -0.21705231E-02
  0.10510012E-02 -0.12525756E-02  0.92756249E-04
 -0.35711210E-03 -0.11984562E-02 -0.23316236E-02
  0.14842084E-02  0.11024829E-03 -0.13522188E-02
 -0.18784384E-02 -0.10260566E-04 -0.11468971E-03
 -0.93388514E-03  0.84423253E-03 -0.29038298E-03
 -0.15596798E-02  0.45914960E-02  0.18984143E-02
  0.23977739E-02  0.13779891E-02 -0.24143483E-02
 -0.33429587E-02 -0.10223102E-02 -0.19991035E-02
  0.36549633E-02  0.11017377E-03 -0.11701027E-02
  0.26797512E-02  0.35802649E-02  0.51172080E-03
  0.14217395E-02  0.66091011E-03  0.81894669E-03
  0.24133801E-03 -0.14178601E-02 -0.27518560E-02
  0.26373923E-02 -0.14656948E-02  0.26667622E-03
 -0.25664425E-02  0.17229328E-04  0.16099467E-02
  0.91405801E-03  0.25455140E-02 -0.12088797E-02
 -0.12042987E-02  0.80821039E-04  0.71922432E-03
 -0.11892570E-02 -0.14606451E-02  0.24669042E-02
 -0.32603027E-02 -0.22582337E-02  0.33619445E-03
 -0.38967760E-02 -0.27207861E-02 -0.15596901E-02
  0.22535816E-02 -0.72322893E-03  0.19966477E-02
 -0.11653502E-02 -0.57021302E-03  0.11243644E-02
  0.64131377E-03  0.68527969E-03 -0.15326656E-02
 -0.33251299E-02  0.23110307E-04 -0.25324516E-02
  0.29850830E-02 -0.64719233E-03 -0.38937099E-02
 -0.90305727E-03 -0.20641892E-02 -0.12751427E-02
  0.34315045E-03  0.30958681E-02  0.12584315E-02
  0.23814488E-02 -0.20067746E-02  0.28927694E-03
  0.46976991E-02 -0.32979846E-02 -0.12434557E-02
  0.20262144E-02  0.12991344E-02 -0.17735457E-02
 -0.72402912E-03 -0.21748098E-02 -0.25947343E-02
  0.85793252E-03 -0.79256328E-03  0.30761447E-02
  0.46484563E-03  0.17890832E-02  0.56623244E-03
 -0.51222437E-02 -0.86737992E-03 -0.23694846E-02
 -0.31057742E-03  0.13296603E-02 -0.14493652E-03
 -0.16194890E-02 -0.13523672E-02  0.50975207E-04
  0.63054429E-03  0.54758159E-02  0.11572341E-02
  0.18328790E-02 -0.15827404E-02  0.23712065E-03
  0.29441627E-02  0.28625809E-02 -0.10143130E-02
  0.48681271E-04  0.15531604E-02  0.67732255E-03
 -0.26384825E-02 -0.88223935E-03 -0.56799168E-04
  0.65081150E-03  0.24441684E-03  0.56714497E-03
 -0.38605718E-02  0.15278496E-02 -0.13386302E-02
  0.31881200E-02 -0.28224906E-02  0.34238893E-03
  0.22642607E-02  0.26400735E-02  0.14158446E-02
 -0.35502734E-02 -0.69562139E-04 -0.40215239E-03
  0.19336417E-02  0.15000206E-04 -0.21721779E-02
  0.53845795E-04 -0.33766627E-02 -0.21708363E-02
 -0.16459963E-03  0.10529119E-03  0.31197685E-03
  0.94245641E-03  0.10368636E-02 -0.13287542E-02
  0.13219518E-02  0.35784298E-03 -0.13204379E-02
  0.13903162E-02  0.43167922E-02 -0.28866874E-03
 -0.25052522E-02 -0.28394155E-02 -0.11963500E-02
  0.62506391E-03 -0.15180350E-02  0.65791068E-03
  0.22288351E-02  0.24688301E-03 -0.10000150E-02
 -0.30735339E-02  0.16353089E-02 -0.12878472E-04
  0.36090965E-03 -0.14518995E-02  0.52162250E-03
 -0.56081257E-03 -0.83116533E-03  0.20308202E-02
 -0.66979950E-03 -0.15028436E-03 -0.18774672E-02
  0.14820857E-02  0.10388995E-02  0.94109202E-03
 -0.31054257E-03  0.16828779E-02  0.85770797E-03
  0.17133978E-02 -0.32817624E-02 -0.34801852E-04
 -0.56542436E-03  0.36336406E-02 -0.27116441E-02
  0.14943526E-02  0.22173016E-02 -0.31861930E-03
  0.21320757E-02  0.47439690E-03 -0.23258651E-02
 -0.18569230E-02  0.57548126E-03  0.29607793E-02
 -0.34061027E-02  0.22616760E-03  0.26749776E-03
  0.13361597E-03 -0.13509581E-02 -0.16117429E-02
  0.26444428E-02  0.45908357E-03 -0.26269527E-02
  0.35429455E-02  0.77698745E-03 -0.91828853E-03
  0.40813594E-03 -0.12803893E-02 -0.25352390E-02
 -0.21829633E-02 -0.17199422E-02 -0.24946399E-03
  0.88631526E-03 -0.97988682E-03 -0.78455600E-03
  0.11109201E-02  0.27893635E-02  0.53818800E-02
  0.33410130E-03  0.28504102E-02 -0.19311892E-02
  0.86464719E-03 -0.20276554E-02  0.21759156E-02
 -0.17068117E-02  0.28305734E-02  0.94465808E-03
  0.33444604E-02  0.40490159E-03  0.37384164E-02
 -0.67445305E-03 -0.21050571E-02  0.10168714E-02
 -0.15682031E-02 -0.17773736E-02  0.40369341E-03
  0.23768103E-03  0.89983634E-03 -0.13166960E-02
 -0.37345695E-03  0.70640434E-03 -0.11852732E-02
  0.36633199E-02  0.20915921E-02  0.26994125E-02
  0.30424371E-03 -0.76962129E-03 -0.27220876E-03
 -0.15040981E-02 -0.22132032E-02  0.33118008E-02
  0.38281119E-02  0.45424152E-03  0.20194740E-02
 -0.73639133E-05 -0.26849969E-02 -0.10981303E-03
  0.27959732E-03 -0.21468127E-02  0.17603671E-03
 -0.10624271E-02  0.29361842E-02  0.27979216E-02
 -0.34813425E-03  0.29845493E-02  0.16724502E-02
  0.12272106E-02 -0.31133571E-02  0.31097047E-02
  0.43778397E-03 -0.18913671E-02 -0.10282897E-02
 -0.86792358E-03 -0.27055501E-02 -0.26631236E-02
  0.10628374E-02  0.12265031E-02  0.41237051E-03
 -0.36807552E-03 -0.10181287E-02 -0.54246898E-02
 -0.23856515E-02  0.13244599E-02 -0.18685727E-02
 -0.10929982E-02  0.18632022E-02 -0.81070164E-03
 -0.12918952E-02 -0.72969465E-03  0.53606421E-03
 -0.32975262E-02 -0.32364460E-03  0.21159715E-02
  0.12542345E-02  0.92606791E-03  0.22213217E-02
 -0.29393555E-02 -0.45227272E-03 -0.15984937E-02
  0.13638415E-02 -0.99383465E-03  0.20604856E-02
  0.30236237E-02  0.15329558E-02  0.18933254E-02
  0.10982082E-02  0.88465737E-03 -0.21290173E-02
  0.16434134E-02 -0.57082025E-03  0.74785162E-03
  0.12158525E-02  0.15507368E-02  0.14510053E-02
  0.11734188E-02  0.77731814E-03 -0.20798204E-02
 -0.15797134E-02 -0.52103212E-03  0.35095533E-03
  0.55455061E-03  0.49669780E-03  0.21932066E-02
 -0.15555862E-03  0.55311156E-04  0.25307458E-04
  0.22260154E-02 -0.27336466E-02  0.23549062E-02
 -0.66235915E-03  0.19322420E-02 -0.13038635E-03
  0.57345776E-03  0.14580039E-02  0.18813451E-02
 -0.20348486E-02  0.78512179E-03 -0.20166371E-02
 -0.36762773E-02  0.18237593E-02  0.22149873E-02
  0.46376622E-02 -0.23903380E-02 -0.13289181E-02
 -0.15076568E-02  0.54800931E-03 -0.10448281E-02
 -0.25111031E-04 -0.35515614E-02  0.10544216E-03
  0.17364831E-02  0.92981265E-03 -0.19798171E-02
 -0.17353252E-02 -0.25946783E-02 -0.14758450E-02
  0.78101821E-03  0.16442328E-02  0.18315846E-02
  0.42448183E-03  0.14749771E-02 -0.19781291E-02
  0.60636240E-02  0.36756149E-03  0.22929581E-03
  0.46463419E-03 -0.19443794E-02 -0.25067377E-02
 -0.11593302E-02  0.24280513E-02 -0.35075949E-03
  0.18381853E-02 -0.27319265E-03  0.74248333E-03
  0.13577083E-02  0.17371188E-02  0.89552713E-03
 -0.22108133E-02  0.37627492E-03  0.55747329E-03
 -0.92062255E-03 -0.11136004E-03  0.89059788E-03
 -0.84776357E-03  0.15582027E-02  0.96796689E-04
 -0.18993891E-02 -0.12514724E-02 -0.14169883E-02
  0.34139934E-02  0.10532798E-02  0.11207939E-02
 -0.13980921E-02 -0.72536865E-03 -0.28635858E-03
  0.83653732E-03  0.25715146E-02 -0.12611724E-02
 -0.29930559E-02 -0.97853105E-03  0.61449734E-02
 -0.37683825E-02  0.20776444E-02  0.88970862E-03
 -0.11428447E-02 -0.25331097E-04 -0.12604150E-02
  0.54057052E-03  0.33159625E-02 -0.13760125E-02
  0.63758481E-03 -0.73390384E-03 -0.56602205E-03
  0.11545915E-02 -0.70464799E-03  0.12525827E-02
 -0.17681883E-02 -0.81323096E-03 -0.12531374E-02
  0.12053467E-02 -0.19439283E-02 -0.17605622E-02
  0.17844681E-02  0.12116400E-02 -0.54799707E-03
  0.76276350E-03  0.44307667E-02 -0.39981547E-03
 -0.33586585E-02  0.17905670E-03 -0.13354969E-02
  0.12932771E-02 -0.49128923E-02 -0.94099910E-03
  0.12566303E-02 -0.18663648E-02 -0.17198062E-02
  0.68049990E-04  0.12957511E-02 -0.18037512E-02
 -0.30160863E-02 -0.98227543E-03 -0.16360833E-03
  0.61405789E-03  0.66665516E-03 -0.11619784E-02
 -0.11709833E-02  0.40358166E-04 -0.34275120E-02
 -0.14761507E-02  0.98243653E-03  0.13120301E-02
 -0.84597376E-05 -0.95196599E-03 -0.66874103E-03
  0.43875344E-03  0.97174078E-03 -0.13279097E-02
  0.42632380E-03 -0.19886655E-02  0.71017737E-03
 -0.27414446E-02 -0.10197353E-02 -0.34478472E-03
 -0.19818238E-02 -0.22195113E-02  0.58847994E-03
 -0.72992128E-04 -0.18983783E-02 -0.73285722E-03
 -0.98715336E-03 -0.18906396E-02 -0.12677638E-02
  0.17152724E-02 -0.20055113E-02  0.20587781E-03
  0.13343829E-02  0.42660931E-03  0.12572780E-02
 -0.75384180E-03  0.49785821E-03  0.27610219E-02
 -0.88771721E-03  0.20325495E-03  0.59344284E-03
 -0.94374380E-03 -0.22921907E-02 -0.47718012E-03
  0.94778751E-03  0.14651829E-02  0.17040737E-04
  0.62262388E-03 -0.13658881E-02  0.79491246E-04
 -0.24803310E-03 -0.25204612E-02  0.26712432E-03
 -0.87065951E-03  0.24147289E-02 -0.26454538E-02
  0.92750769E-04 -0.12177701E-02  0.63621284E-03
  0.12797726E-02 -0.13498784E-02 -0.32935759E-03
 -0.76348710E-03 -0.11551623E-02  0.58405059E-03
 -0.23957634E-02  0.33745440E-03 -0.20396325E-02
  0.64299283E-03  0.27709347E-03  0.23951147E-03
  0.98366417E-03  0.29788331E-03  0.18255782E-02
  0.31853691E-04  0.44049377E-03  0.18021628E-02
  0.20364029E-02 -0.17128470E-02 -0.47034274E-03
 -0.15188001E-02 -0.23469673E-02 -0.31472764E-02
  0.77676198E-03  0.18912336E-02  0.85026472E-03
 -0.11017055E-02 -0.17244162E-02  0.39767932E-03
  0.51478023E-03  0.44952857E-03  0.36485303E-03
 -0.16264089E-02  0.34013038E-03 -0.20284724E-02
 -0.43482562E-04  0.21765068E-02  0.30172209E-03
 -0.12715041E-02  0.12213816E-02  0.71097554E-03
 -0.34577921E-02  0.11834082E-02  0.16701619E-03
  0.10930902E-02  0.22023026E-03 -0.61985419E-03
  0.20291141E-02  0.81296929E-03  0.60593920E-03
  0.24065478E-02 -0.94806125E-03  0.25144787E-02
  0.71402061E-03  0.76259371E-05  0.19014846E-03
  0.11022122E-02  0.24936499E-02  0.12583462E-02
  0.19420804E-02 -0.81518012E-03 -0.44622406E-03
  0.18406691E-02  0.10772996E-02  0.45233027E-03
  0.49554256E-02 -0.97971906E-03 -0.12546310E-02
 -0.10501825E-02 -0.17240446E-02  0.14268399E-02
  0.34812878E-03 -0.20178519E-02  0.21331252E-02
 -0.12174140E-02 -0.15332620E-02  0.32670619E-02
 -0.18639423E-02  0.61565838E-03 -0.81040496E-03
 -0.95454543E-03  0.44805532E-03  0.22320855E-03
  0.24723106E-02 -0.16611236E-02 -0.28919200E-03
  0.13137376E-03  0.69877442E-03 -0.30006322E-02
  0.50769081E-05  0.29663643E-03  0.11973639E-02
 -0.12469208E-03  0.23565934E-02 -0.54766731E-03
  0.12627768E-02 -0.93144325E-03 -0.14727952E-02
  0.98333842E-03 -0.22675667E-02 -0.63918417E-03
 -0.32566177E-03 -0.17011645E-02 -0.32259552E-03
 -0.39365522E-03  0.10979013E-03  0.85713716E-04
 -0.18260754E-02  0.89266041E-03  0.17989771E-02
  0.12488840E-02  0.14563098E-03  0.18161042E-02
 -0.18819008E-02  0.34068355E-03 -0.72815185E-03
 -0.12189052E-02  0.64819578E-03  0.18848440E-02
  0.18003630E-03 -0.61879335E-03  0.12331198E-02
  0.13456169E-02 -0.36943665E-03 -0.18925771E-03
  0.18821251E-02  0.13546494E-02 -0.70180510E-03
 -0.10581911E-02 -0.12357055E-02 -0.66643942E-03
  0.11535425E-02 -0.16282493E-03  0.58103225E-03
  0.12457651E-02  0.20404703E-02 -0.18656302E-03
  0.12161654E-02 -0.12636322E-02 -0.16282817E-02
 -0.16301062E-02  0.13270271E-03  0.13634365E-02
  0.22473816E-02 -0.11089639E-03 -0.16606768E-02
  0.50343133E-03  0.48327626E-02  0.15981977E-02
  0.19270772E-02 -0.61650633E-03  0.89419035E-03
  0.30111418E-03  0.40217682E-03 -0.49725348E-03
 -0.17404024E-02 -0.73024686E-03 -0.70860104E-03
  0.19809898E-03 -0.24458664E-02  0.42358714E-03
 -0.35397133E-03 -0.84349064E-04  0.60079005E-03
 -0.16563781E-02  0.50010703E-03 -0.11035422E-02
 -0.17247012E-02 -0.14072764E-04 -0.60640834E-03
  0.31134500E-03  0.20161990E-02  0.20055461E-02
  0.21011737E-03 -0.88843077E-03 -0.16914482E-02
 -0.19814412E-02  0.47491991E-03 -0.18301653E-02