In2O3 structure 44 - random placement wi
   1.00000000000000     
     7.9425739544507614    0.0032591823393928    0.0970582740789659
     0.0036443000064847    8.0097801516726950    0.0040397894069867
     0.0966192728981110    0.0044388132200106    7.9164171202532110
   In   Ga   O 
    14     2    24
Direct
  0.6396164249780227  0.5223623375661504  0.2106799988921821
  0.8841645531683326  0.7958994300439386  0.9616652743251635
  0.3888735976332569  0.7980182590846425  0.4567854045935036
  0.1336133074336061  0.5201443813950490  0.2131285747262410
  0.8841734534839745  0.8022838539007751  0.4579041817894165
  0.6398743029783205  0.5209847783818944  0.7066157221574656
  0.9116078518118798  0.2886049340107562  0.9960786028766080
  0.4183649159220550  0.2908466477243721  0.4880217667774716
  0.4223558909759149  0.2908388674914875  0.9894621951295761
  0.1644862972924628  0.0276820536607971  0.2414553971772051
  0.1325589139475341  0.5162427843692683  0.7055400431571712
  0.6709620142763271  0.0292114241530612  0.7335439211900479
  0.3853403659509382  0.7947979191344814  0.9586633596254117
  0.1617074497122246  0.0263913424345787  0.7393335498383919
  0.9143520196859640  0.2973546410776464  0.4806037649305850
  0.6554501761707527  0.0173982713960754  0.2392749946779418
  0.3819314903814899  0.4050059081785022  0.7420056227985228
  0.4303850725327294  0.9151228161530014  0.2000593151699803
  0.0141459702920486  0.2566471749959618  0.7354131542837621
  0.9180209356938249  0.9085119236654364  0.7073639103108391
  0.8798490127716576  0.4053314115826012  0.2564190360738365
  0.1336737101659438  0.7605654869700302  0.3428515516132506
  0.1701332416874877  0.2590609343090406  0.0979037623400743
  0.9160025979196362  0.0751468236918456  0.3608911626698230
  0.6309226586318388  0.9247277028827767  0.4794433739186914
  0.7651966739842422  0.7672751560639384  0.2089797458770875
  0.0184904840210152  0.5575346354087856  0.9588164375191397
  0.7658629781937805  0.0557863707858672  0.0112971104227242
  0.6325741104851232  0.7595975644379820  0.8376264683870858
  0.6727394327374228  0.4100797222750359  0.9546488522755041
  0.1596718239399166  0.3898808178230908  0.4528033954906405
  0.2678951822045406  0.7556414426319833  0.7052432618786000
  0.2818011787771084  0.0565124324107131  0.4926038600721725
  0.1296184859490381  0.9122548727029951  0.9955766280870506
  0.5410830271117533  0.2425866548707774  0.2425794740184060
  0.8850814639926767  0.5568621218560708  0.5831669766033443
  0.6859218234545850  0.2649540987772170  0.5924861218061395
  0.4205314198201933  0.0593962078306589  0.8456514311527954
  0.3844747987737662  0.5567987422519067  0.0983993456027008
  0.5178007391294273  0.5587681274068856  0.4551226190687387
 
  0.00000000E+00  0.00000000E+00  0.00000000E+00
  0.00000000E+00  0.00000000E+00  0.00000000E+00
  0.00000000E+00  0.00000000E+00  0.00000000E+00
  0.00000000E+00  0.00000000E+00  0.00000000E+00
  0.00000000E+00  0.00000000E+00  0.00000000E+00
  0.00000000E+00  0.00000000E+00  0.00000000E+00
  0.00000000E+00  0.00000000E+00  0.00000000E+00
  0.00000000E+00  0.00000000E+00  0.00000000E+00
  0.00000000E+00  0.00000000E+00  0.00000000E+00
  0.00000000E+00  0.00000000E+00  0.00000000E+00
  0.00000000E+00  0.00000000E+00  0.00000000E+00
  0.00000000E+00  0.00000000E+00  0.00000000E+00
  0.00000000E+00  0.00000000E+00  0.00000000E+00
  0.00000000E+00  0.00000000E+00  0.00000000E+00
  0.00000000E+00  0.00000000E+00  0.00000000E+00
  0.00000000E+00  0.00000000E+00  0.00000000E+00
  0.00000000E+00  0.00000000E+00  0.00000000E+00
  0.00000000E+00  0.00000000E+00  0.00000000E+00
  0.00000000E+00  0.00000000E+00  0.00000000E+00
  0.00000000E+00  0.00000000E+00  0.00000000E+00
  0.00000000E+00  0.00000000E+00  0.00000000E+00
  0.00000000E+00  0.00000000E+00  0.00000000E+00
  0.00000000E+00  0.00000000E+00  0.00000000E+00
  0.00000000E+00  0.00000000E+00  0.00000000E+00
  0.00000000E+00  0.00000000E+00  0.00000000E+00
  0.00000000E+00  0.00000000E+00  0.00000000E+00
  0.00000000E+00  0.00000000E+00  0.00000000E+00
  0.00000000E+00  0.00000000E+00  0.00000000E+00
  0.00000000E+00  0.00000000E+00  0.00000000E+00
  0.00000000E+00  0.00000000E+00  0.00000000E+00
  0.00000000E+00  0.00000000E+00  0.00000000E+00
  0.00000000E+00  0.00000000E+00  0.00000000E+00
  0.00000000E+00  0.00000000E+00  0.00000000E+00
  0.00000000E+00  0.00000000E+00  0.00000000E+00
  0.00000000E+00  0.00000000E+00  0.00000000E+00
  0.00000000E+00  0.00000000E+00  0.00000000E+00
  0.00000000E+00  0.00000000E+00  0.00000000E+00
  0.00000000E+00  0.00000000E+00  0.00000000E+00
  0.00000000E+00  0.00000000E+00  0.00000000E+00
  0.00000000E+00  0.00000000E+00  0.00000000E+00
