Amorphous Sb2Se3                        
  0.884000000000000     
    20.9867606951059820    0.0000000000000000    0.0000000000000000
     0.0000000000000000   20.9867606951059820    0.0000000000000000
     0.0000000000000000    0.0000000000000000   20.9867606951059820
   Sb   Se
   120   180
Direct
  0.2608746794553201  0.6106033303967082  0.1651999617786462
  0.1391802411531368  0.5116087984009511  0.4078536415648171
  0.5204251623371653  0.8715221197301886  0.2249572354463735
  0.6029894938081752  0.2570998228630750  0.0358214067024782
  0.2671829916652370  0.7937935741544898  0.6255847247829244
  0.6670393665708786  0.9168130752519874  0.3210674914215300
  0.6582563616481304  0.4363227525124204  0.3234718298545953
  0.0173302432490409  0.7412370873578792  0.2163759265654175
  0.9892332399938191  0.0347603729800530  0.5732091674726146
  0.4482004025073069  0.7004347278633164  0.1046939628010475
  0.9363608005525446  0.5480275544483697  0.2913047198942144
  0.4961957877955321  0.5912427628428623  0.5326260854177998
  0.7800170117700572  0.9293564738102870  0.7458151886506285
  0.7279503346326333  0.0560422593770671  0.2984710812466952
  0.5359290771018139  0.5428950058832035  0.3155845545386708
  0.3163142713639269  0.2755660277168475  0.9386191410353841
  0.8568852608554207  0.6651205257776442  0.4982716750209653
  0.9753404276677671  0.9237477285949796  0.7347204038717221
  0.5916756648222160  0.6590166768821668  0.2235724029055977
  0.5315014344839589  0.3093685967106923  0.1942463371169824
  0.6764780186664726  0.3513036375476146  0.8600918425501147
  0.6819713822647517  0.5056437667578265  0.9324936115520333
  0.3567289926042476  0.5203865083819972  0.9010157318857468
  0.9824579482145470  0.2877653838769458  0.0840337570828511
  0.8372960721228769  0.4489759494421997  0.9304835530453032
  0.6961762110379234  0.1272105319370821  0.5973740343686066
  0.6157999484484109  0.8707587284510887  0.4551758774763776
  0.5106401042911084  0.3523837589302016  0.8893762456255186
  0.3402128700835638  0.3972745256306903  0.4683189084296915
  0.7064764515386113  0.1323910738801204  0.0701210914879032
  0.9029119158341209  0.7683557722983825  0.0148504870402747
  0.7337365192071894  0.3877301212476235  0.1354836056820554
  0.7901447941318879  0.4210074615680379  0.5226006696539498
  0.2796255150230129  0.8448758443042489  0.2582462685162487
  0.1450221682292817  0.9769076316915875  0.5112796470860841
  0.4716238036632168  0.5143507603190932  0.1546907215238211
  0.7512113630588861  0.6216490491487191  0.3697002512264498
  0.9595067488353095  0.4896983713684173  0.1359229190109116
  0.6428848615977685  0.3612271432129460  0.6070973504611822
  0.6089155716014391  0.0209269287588654  0.4935598641925484
  0.5204729137216969  0.9293285404945340  0.9333589544121763
  0.4231315928289475  0.6219726190586361  0.3956194622582449
  0.6164266305423263  0.8009028177295642  0.8062059592862650
  0.0594789005480941  0.3503072426419179  0.5199863382620675
  0.8460860899664159  0.2260876982191894  0.9933366328346108
  0.1402972279325177  0.4256682067315938  0.2755704466229494
  0.8857055091129719  0.1987809831435770  0.5402143864521561
  0.3530612152956183  0.9985087018148010  0.2619061055943274
  0.0184344502135370  0.7355219741770269  0.3840517551714216
  0.0375515444294053  0.6456197091175923  0.7895342058940831
  0.2965651975704227  0.5834401418364910  0.6812585964638267
  0.1906836077494324  0.2372328961069781  0.6665986153768760
  0.9894267774133700  0.4873722365914888  0.6688928733126589
  0.5163601595547032  0.3195388723467247  0.4764311525339762
  0.0534017060766043  0.1388054817183305  0.0396333271468059
  0.8670865412474608  0.7417552167728968  0.7707226156440968
  0.0138225726426916  0.2342953513898212  0.9145870296471081
  0.7889629018786687  0.0051442498250119  0.0312496751598717
  0.0237249354096843  0.6409925654320345  0.0056228727794331
  0.5691082280488079  0.2337122664990286  0.6489990857928657
  0.9710727058757368  0.8230600565187299  0.5499894994868816
  0.6309493950027945  0.4433533686046473  0.7448744105410424
  0.0616347141346578  0.9219875150236193  0.9741729465152745
  0.1263146306023144  0.8125913793997827  0.7965388671034330
  0.5459906995071740  0.6430450650613777  0.8388209080478689
  0.1764668023680556  0.8032092382595761  0.0948520714909048
  0.4132182939123862  0.4304190675239435  0.6784007535630154
  0.5267999185679175  0.9944963881020168  0.3651033971314657
  0.2733201180359164  0.0217475837418956  0.6374042822211219
  0.3989633609560965  0.7217309073322635  0.7694353609518990
  0.7340034152081630  0.1615869100464713  0.8939288533534134
  0.5024399054015761  0.1447336529167819  0.3768206940752625
  0.3421612427574697  0.8413616599447308  0.9716142800293656
  0.0971289530479268  0.4138666545277476  0.8286479320998118
  0.2327858142606554  0.0462961322115822  0.9494837239341283
  0.3239317432109702  0.4129275206728156  0.0491798668014850
  0.1825829687777251  0.0899760475880036  0.1635377915819559
  0.6216508698004608  0.0055337339811790  0.7541541713447687
  0.3524896504249807  0.0978104453529088  0.8070359909357229
  0.1866949461795908  0.0153808596110697  0.3118293337037564
  0.3243164996867680  0.7017467065742666  0.5029495765472509
  0.8761244942920362  0.3759485617697602  0.2967425303348220
  0.5019208075692961  0.1266730633178491  0.9529545692032255
  0.1953439238463372  0.5486429415940803  0.0170218789769503
  0.7957866795581644  0.6467168962427133  0.1641955128101750
  0.6714507577755089  0.6850380841195953  0.5049475441963576
  0.6926198665910355  0.2449227676987211  0.4135244020560363
  0.8274010735067748  0.1908086388147119  0.3276937754820238
  0.9637060237715435  0.1164918399907704  0.1950261025770315
  0.9417883468991421  0.4662225254868203  0.4800280176865138
  0.5813163594903862  0.7824066960836848  0.9690843179087891
  0.3688436197260062  0.2855677924220472  0.7371769884938948
  0.3535973068186261  0.9099408259695154  0.7809905068787337
  0.6261177764024171  0.8436486557088625  0.6158905596713382
  0.0100112281674582  0.2005911219640433  0.6468407498205431
  0.9460606013858891  0.3635958277822260  0.7728527847556926
  0.9443424249913930  0.9304332165140747  0.1674196284219203
  0.2260994091653526  0.2384575903226418  0.4249214440623671
  0.7898537660874766  0.9563636663884797  0.4895841189025816
  0.9313207373122157  0.0415212627923299  0.8939352085983722
  0.1299239383970438  0.1110236395413860  0.7665650153614388
  0.2043730363040197  0.7950685046325437  0.4381119049993357
  0.0317552200349939  0.1356896395548826  0.4436861008111670
  0.6932409385737611  0.5211218069558549  0.6023370145670308
  0.6762983317010023  0.9081768499652921  0.1622237781895406
  0.5312967306859414  0.0646649127725841  0.6345577058447494
  0.3788967360248519  0.2665705740487584  0.2798077423324242
  0.8377344884461810  0.0911510486405697  0.7353818686246985
  0.1131144430486556  0.6624102593831828  0.6365917048986968
  0.5610586483487371  0.5724869419241985  0.6738249535012127
  0.4226809216794307  0.0270915806938154  0.0753878272728026
  0.4352484118941201  0.1292267410757806  0.5282825883670759
  0.0403886070430680  0.9962117325739167  0.3601277230326543
  0.3142371510525987  0.4826883647099653  0.2756743032649053
  0.1980660649984975  0.2875348129338913  0.2171086246625698
  0.4933061433026251  0.7663425910247745  0.3984388675403143
  0.7344162605591958  0.2884452270417773  0.7235010100529438
  0.2038652088800235  0.4463839419107534  0.6103516006889717
  0.2196128047172222  0.6422448318785552  0.3182933259479408
  0.3869089439718636  0.2228796935850110  0.1187058898333566
  0.6333066843791629  0.5445402663976517  0.4771041867705960
  0.4743845601096182  0.4558831573806850  0.4387885467642861
  0.0844067188833487  0.2165089694368669  0.1694126265275376
  0.4804745746018551  0.1682615569010179  0.2419681566661533
  0.9056504300439007  0.0985601666442435  0.0310387866405862
  0.4943585755080082  0.9309640143866335  0.5660138656695385
  0.0699913163925715  0.6097530881356085  0.2869207573090500
  0.8729832363341715  0.2249026403461570  0.6938998572025172
  0.7276475892458300  0.3288935300568696 -0.0000446576469674
  0.8925580136650436  0.1754980900290857  0.8539918892262367
  0.0601783891952672  0.5015737445154606  0.0247466464718543
  0.4557007470019927  0.8508472874915463  0.0959299590566353
  0.0627809196425890  0.5114739627558718  0.5482274982493476
  0.5256412427610946  0.3398671479465610  0.7462145555233884
  0.8017816965860972  0.9763417036381271  0.1732358108504600
  0.0370649329822539  0.8834952452880956  0.2700940988284700
  0.2888238069334177  0.3206063108746999  0.5960286340931907
  0.7337798883232182  0.7698745572673585  0.3532108758200942
  0.9191291011396883  0.9281316592669970  0.0063970824086776
  0.1414940758988138  0.0827940539390713  0.6202824275917634
  0.8216780227556199  0.3940437118854103  0.6725973254931666
  0.3206491026070144  0.1618325455372443  0.6850963524800621
  0.7464253113744389  0.7477828759730807  0.8803230500736468
  0.0084330762012791  0.7826768884433525  0.7107330572554897
  0.1157357385557792  0.5286749856588178  0.7212354306618119
  0.7491818740296670  0.2604518679468606  0.5656575729588875
  0.0161366425400836  0.4305597484166076  0.3540647207500355
  0.3971154540588400  0.8225518554035117  0.4953632478487897
  0.6571149426490931  0.2522097448010067  0.1703348621713533
  0.3880725961152502  0.6033793984179266  0.2415762714984026
  0.5674164122462192  0.6008840135612096  0.0921188177620053
  0.2334185084670216  0.0151144384707839  0.7975629932819477
  0.2251057045429856  0.6990955405486740  0.7306250030979703
  0.1342477466774790  0.6289487976797037  0.9076370889286127
  0.5934942624081909  0.2231928283663834  0.8839394296552173
  0.3633032454978034  0.5722114676094665  0.0638720975810029
  0.3578907379611078  0.0829939732912265  0.3728306932569528
  0.5677525605315319  0.9772076563593960  0.0580462800927005
  0.7063248501540640  0.7153219410029147  0.0652903816076195
  0.2156119052080731  0.8941801964537592  0.7073405441015184
  0.3989882909787103  0.6668177110034450  0.6194240712545660
  0.7456751311091075  0.3211136795424447  0.2823900324063316
  0.2970445278799230  0.1215879997938529  0.5288991513525768
  0.8074037219497119  0.6550169681569521  0.9859025276459549
  0.8532350137686061  0.7607243883164574  0.6075843642622903
  0.8909732707558825  0.1025440659257823  0.4202620522434892
  0.7464636514243036  0.6498312506779894  0.6214306282406005
  0.8643290402155064  0.6714705176852995  0.2943828321892665
  0.4530910167997041  0.7201424273372363  0.9599549088411943
  0.0340627660835653  0.8268869638852280  0.0908991117893457
  0.4087360393070917  0.0116071586703841  0.6896546856942992
  0.5364795108200199  0.7335733380767705  0.5353716893383625
  0.6574786431427525  0.3846115531094734  0.4599288416906818
  0.1528204958630864  0.9158488111809995  0.2044036885483588
  0.2236146785348041  0.4331825706721711  0.9398336819383125
  0.9441091328632323  0.6512977836348980  0.1340354877764453
  0.5013697234862979  0.1552099946791034  0.7454088839240519
  0.1916028801432021  0.3948807080867228  0.4716050907737513
  0.2849269633649391  0.7006181749726842  0.0019956121184482
  0.0596355970944585  0.0191425434392244  0.1146995459001402
  0.9248581473305063  0.6726297347341279  0.8767713896075534
  0.3728574526538865  0.9777746444829981  0.9308160067578950
  0.3256261343687883  0.7337901759129144  0.3459738380203640
  0.3496072747295965  0.1398410370482150  0.9933592222444941
  0.6401132389882880  0.0702404225170491  0.9575394568973998
  0.2139825265007301  0.9736521102375451  0.0830346790447925
  0.6327985923723510  0.6447965426042356  0.9514538103511836
  0.4198198659342218  0.8825452946936050  0.3252770492234541
  0.2133083076588435  0.6004969772587105  0.5578325950638907
  0.2946203766999203  0.5360352971054174  0.4115050777538066
  0.8902760195905322  0.8729860456561427  0.8370858945226372
  0.3773029749607353  0.3877970499483554  0.8512035710246937
  0.3316658982821079  0.9142762284182121  0.1110024500955993
  0.6352805600000507  0.1615702785975006  0.3082543979121210
  0.4478372042449297  0.2986002238532432  0.0145695693962244
  0.8178496160670340  0.3230135210855969  0.8477182184887476
  0.8273188666726411  0.4840791985137740  0.2052410498567168
  0.8071823026253016  0.9210185024403515  0.3520130905046454
  0.6020883341122913  0.4089315675453422  0.0177438802629148
  0.1933302531441389  0.1564079129420611  0.0386578815903807
  0.1140563268829781  0.2840297961662051  0.3498716753592361
  0.5417350370671982  0.8925833994562682  0.7198396589023034
  0.0575547166053531  0.2514503531735564  0.7821577650831237
  0.2324350624956230  0.2999671692576514  0.7960960039922673
  0.6394231668253888  0.0540140808947017  0.1736313063759390
  0.2928049837065967  0.7969803166064802  0.8400894139559922
  0.4406823875635249  0.4223593316001208  0.3158332445744164
  0.7970100063892758  0.8454938601426741  0.9447997859910766
  0.4224677802940250  0.9911799540738186  0.4671894182885910
  0.1208277360683514  0.2235326049148238  0.5341561491659699
  0.5868382407658739  0.1913083194913784  0.4981440245507741
  0.3082713390729673  0.7452150394163071  0.1483385114743220
  0.5693974089750200  0.3152351682664687  0.3340289160931300
  0.6982868511385589  0.9703291130070272  0.6243556935949767
  0.1364227877591467  0.7871681172584633  0.5716804374480154
  0.4768685394855661  0.4510184041740349  0.0136623973537667
  0.8960923735068445  0.5031244747376757  0.8084134625804423
  0.6012997047638402  0.4374066290630080  0.1857074484165002
  0.6946338201193542  0.1420897561813259  0.7460550829244349
  0.9423961721248795  0.3322230870950167  0.5971312566045089
  0.0693960199932588  0.1274420475874243  0.2963259701061189
  0.4000254226711626  0.8271640804457990  0.6716768915491642
  0.7883748950843257  0.0246113469542706  0.8826286344914009
  0.3887127962569776  0.3920289669132105  0.1772419762218284
  0.7608410813340940  0.5987853434205730  0.8361490769669140
  0.0853725256623667  0.9465355585210191  0.8246993848349200
  0.0747400602312968  0.8597525295488765  0.4336289510164926
  0.1808073734594248  0.0952415565493599  0.4319041929301172
  0.8916264657072578  0.5580549595785076  0.0103193988539197
  0.4811351703239873  0.5776190297297358  0.9679166030647629
  0.5911447672520671  0.7770137902873593  0.1087114412550255
  0.4412437502044507  0.2714789696825040  0.5964309088890191
  0.5064201772778806  0.0372686661203803  0.8344035416413985
  0.2830926432979908  0.9176541985008059  0.5384231174781057
  0.9858703939579603  0.2771932222501980  0.4150502564065672
  0.0143468980150167  0.5262312998499510  0.8690519521835500
  0.8336477156379953  0.0734250585589101  0.5914244074345478
  0.8103063282020493  0.1409869699177784  0.1825331181987930
  0.6661803865862094  0.6427652843376965  0.7595416411520898
  0.1601061538984716  0.7667573473170628  0.2839368341348905
  0.1401327414424992  0.6655727984168590  0.4396012666237661
  0.0338137692184942  0.7929362983737660  0.9152817169782828
  0.6990077200207809  0.5636753130486889  0.2450885393419504
  0.4706164018547684  0.7369674263611422  0.2471521136525524
  0.6577940287166230  0.9228120467119125  0.8723426829880533
  0.0115568700171685  0.3715400459724880  0.1945988222246829
  0.8924674607855325  0.7879998491204454  0.4248438048674239
  0.1043746063670467  0.3599982921720218  0.6648922838727014
  0.8531445275765659  0.3014548940463153  0.4276638428654012
  0.2077122817750825  0.8937958989015445  0.9353466658992070
  0.3282758336058842  0.1003312890034298  0.1648271605340869
  0.8676520559413049  0.9145686528190087  0.6358583481605686
  0.4849444477223575  0.0133360110405172  0.2096065823200259
  0.5456202177939414  0.7197475936942622  0.6932596605973982
  0.5192371483712445  0.1469792833529275  0.0966716188928357
  0.8906467746040463  0.8207913188706728  0.2377743327926971
  0.2631909806781266  0.1774609664827744  0.2917252753789500
  0.8347920203476824  0.2606552717307100  0.1387600299756940
  0.1279993486029813  0.6715794515671556  0.1147492156975845
  0.8682838308017780  0.5376851467457043  0.5783467447628581
  0.2738510319224474  0.3554974892988944  0.3320582437362541
  0.1021316560987155  0.5344960392425397  0.1896477159811263
  0.2623492663001889  0.2868567417211604  0.0849100072839906
  0.2200768869588990  0.4571541259256428  0.1339454848002153
  0.9340131787893470  0.9493553267893132  0.4714420887089236
  0.9132941593800161  0.0179985064928058  0.2854388432499567
  0.9660632473474562  0.5950443189727772  0.4192601113437339
  0.1652929970641985  0.7561310769032880  0.9522970319742148
  0.1447904968982306  0.2919439932399294  0.9416123707232730
  0.9418473960986270  0.6244480435077623  0.6863957969552610
  0.5488915891713333  0.4969448823143380  0.8534849988829539
  0.9805890651553986  0.3743957012586721  0.9174586641426982
  0.5245670366277426  0.4443884418840955  0.5891323672899419
  0.9823854374508498  0.0729286100741218  0.7343231705559508
  0.0692395041168229  0.9248976257460344  0.6237562198665009
  0.2284312868105860  0.1768608436484793  0.8580157562335403
  0.7269058751008299  0.7987884091511264  0.7119466640300188
  0.3945968062117478  0.2547577717389607  0.4258682333938202
  0.7009190704808771  0.7610796867707134  0.2321373805016378
  0.4613852983850230  0.8292582952146114  0.8447176617023838
  0.4217525652824434  0.5519458454951686  0.7613345438148208
  0.2391416453177863  0.5392960215446380  0.8166773881941323
  0.4216871510229912  0.2251967861251753  0.8559610653857442
  0.7420912287766532  0.8171467471817649  0.5097854949216137
  0.2637683806596620  0.9198100309819719  0.3829150000686480
  0.7730483727499572  0.4978995056814481  0.7403124622346658
  0.0799716711497133  0.0800621623927784  0.9121370506303773
  0.8143959326873441  0.7929354740911810  0.1281761440228571
  0.6904196373925530  0.8943537447045307  0.0190471790952872
  0.7287109966693451  0.0884994437321882  0.4473122110691815
  0.2640685648175008  0.4303157417757754  0.7438287314049694
  0.9465735364195078  0.2395149671722046  0.2717503447064886
  0.6003685329299585  0.6658716525084112  0.3700676918119683
  0.7289293234425970  0.5207461225102128  0.0715349077441773
  0.0077616055408660  0.6813800054473946  0.5341924476151578
  0.8803396178178244  0.3882413378012831  0.0592793474083819
  0.8109381842832232  0.4815937125601258  0.3862159472417047
  0.1067119968553847  0.3519222421469090  0.0480840165496906
  0.3567535508117808  0.5031100637079636  0.5671282720466144
  0.3026844156681621  0.6507754250394595  0.8822924842986078
 
  0.00000000E+00  0.00000000E+00  0.00000000E+00
  0.00000000E+00  0.00000000E+00  0.00000000E+00
  0.00000000E+00  0.00000000E+00  0.00000000E+00
  0.00000000E+00  0.00000000E+00  0.00000000E+00
  0.00000000E+00  0.00000000E+00  0.00000000E+00
  0.00000000E+00  0.00000000E+00  0.00000000E+00
  0.00000000E+00  0.00000000E+00  0.00000000E+00
  0.00000000E+00  0.00000000E+00  0.00000000E+00
  0.00000000E+00  0.00000000E+00  0.00000000E+00
  0.00000000E+00  0.00000000E+00  0.00000000E+00
  0.00000000E+00  0.00000000E+00  0.00000000E+00
  0.00000000E+00  0.00000000E+00  0.00000000E+00
  0.00000000E+00  0.00000000E+00  0.00000000E+00
  0.00000000E+00  0.00000000E+00  0.00000000E+00
  0.00000000E+00  0.00000000E+00  0.00000000E+00
  0.00000000E+00  0.00000000E+00  0.00000000E+00
  0.00000000E+00  0.00000000E+00  0.00000000E+00
  0.00000000E+00  0.00000000E+00  0.00000000E+00
  0.00000000E+00  0.00000000E+00  0.00000000E+00
  0.00000000E+00  0.00000000E+00  0.00000000E+00
  0.00000000E+00  0.00000000E+00  0.00000000E+00
  0.00000000E+00  0.00000000E+00  0.00000000E+00
  0.00000000E+00  0.00000000E+00  0.00000000E+00
  0.00000000E+00  0.00000000E+00  0.00000000E+00
  0.00000000E+00  0.00000000E+00  0.00000000E+00
  0.00000000E+00  0.00000000E+00  0.00000000E+00
  0.00000000E+00  0.00000000E+00  0.00000000E+00
  0.00000000E+00  0.00000000E+00  0.00000000E+00
  0.00000000E+00  0.00000000E+00  0.00000000E+00
  0.00000000E+00  0.00000000E+00  0.00000000E+00
  0.00000000E+00  0.00000000E+00  0.00000000E+00
  0.00000000E+00  0.00000000E+00  0.00000000E+00
  0.00000000E+00  0.00000000E+00  0.00000000E+00
  0.00000000E+00  0.00000000E+00  0.00000000E+00
  0.00000000E+00  0.00000000E+00  0.00000000E+00
  0.00000000E+00  0.00000000E+00  0.00000000E+00
  0.00000000E+00  0.00000000E+00  0.00000000E+00
  0.00000000E+00  0.00000000E+00  0.00000000E+00
  0.00000000E+00  0.00000000E+00  0.00000000E+00
  0.00000000E+00  0.00000000E+00  0.00000000E+00
  0.00000000E+00  0.00000000E+00  0.00000000E+00
  0.00000000E+00  0.00000000E+00  0.00000000E+00
  0.00000000E+00  0.00000000E+00  0.00000000E+00
  0.00000000E+00  0.00000000E+00  0.00000000E+00
  0.00000000E+00  0.00000000E+00  0.00000000E+00
  0.00000000E+00  0.00000000E+00  0.00000000E+00
  0.00000000E+00  0.00000000E+00  0.00000000E+00
  0.00000000E+00  0.00000000E+00  0.00000000E+00
  0.00000000E+00  0.00000000E+00  0.00000000E+00
  0.00000000E+00  0.00000000E+00  0.00000000E+00
  0.00000000E+00  0.00000000E+00  0.00000000E+00
  0.00000000E+00  0.00000000E+00  0.00000000E+00
  0.00000000E+00  0.00000000E+00  0.00000000E+00
  0.00000000E+00  0.00000000E+00  0.00000000E+00
  0.00000000E+00  0.00000000E+00  0.00000000E+00
  0.00000000E+00  0.00000000E+00  0.00000000E+00
  0.00000000E+00  0.00000000E+00  0.00000000E+00
  0.00000000E+00  0.00000000E+00  0.00000000E+00
  0.00000000E+00  0.00000000E+00  0.00000000E+00
  0.00000000E+00  0.00000000E+00  0.00000000E+00
  0.00000000E+00  0.00000000E+00  0.00000000E+00
  0.00000000E+00  0.00000000E+00  0.00000000E+00
  0.00000000E+00  0.00000000E+00  0.00000000E+00
  0.00000000E+00  0.00000000E+00  0.00000000E+00
  0.00000000E+00  0.00000000E+00  0.00000000E+00
  0.00000000E+00  0.00000000E+00  0.00000000E+00
  0.00000000E+00  0.00000000E+00  0.00000000E+00
  0.00000000E+00  0.00000000E+00  0.00000000E+00
  0.00000000E+00  0.00000000E+00  0.00000000E+00
  0.00000000E+00  0.00000000E+00  0.00000000E+00
  0.00000000E+00  0.00000000E+00  0.00000000E+00
  0.00000000E+00  0.00000000E+00  0.00000000E+00
  0.00000000E+00  0.00000000E+00  0.00000000E+00
  0.00000000E+00  0.00000000E+00  0.00000000E+00
  0.00000000E+00  0.00000000E+00  0.00000000E+00
  0.00000000E+00  0.00000000E+00  0.00000000E+00
  0.00000000E+00  0.00000000E+00  0.00000000E+00
  0.00000000E+00  0.00000000E+00  0.00000000E+00
  0.00000000E+00  0.00000000E+00  0.00000000E+00
  0.00000000E+00  0.00000000E+00  0.00000000E+00
  0.00000000E+00  0.00000000E+00  0.00000000E+00
  0.00000000E+00  0.00000000E+00  0.00000000E+00
  0.00000000E+00  0.00000000E+00  0.00000000E+00
  0.00000000E+00  0.00000000E+00  0.00000000E+00
  0.00000000E+00  0.00000000E+00  0.00000000E+00
  0.00000000E+00  0.00000000E+00  0.00000000E+00
  0.00000000E+00  0.00000000E+00  0.00000000E+00
  0.00000000E+00  0.00000000E+00  0.00000000E+00
  0.00000000E+00  0.00000000E+00  0.00000000E+00
  0.00000000E+00  0.00000000E+00  0.00000000E+00
  0.00000000E+00  0.00000000E+00  0.00000000E+00
  0.00000000E+00  0.00000000E+00  0.00000000E+00
  0.00000000E+00  0.00000000E+00  0.00000000E+00
  0.00000000E+00  0.00000000E+00  0.00000000E+00
  0.00000000E+00  0.00000000E+00  0.00000000E+00
  0.00000000E+00  0.00000000E+00  0.00000000E+00
  0.00000000E+00  0.00000000E+00  0.00000000E+00
  0.00000000E+00  0.00000000E+00  0.00000000E+00
  0.00000000E+00  0.00000000E+00  0.00000000E+00
  0.00000000E+00  0.00000000E+00  0.00000000E+00
  0.00000000E+00  0.00000000E+00  0.00000000E+00
  0.00000000E+00  0.00000000E+00  0.00000000E+00
  0.00000000E+00  0.00000000E+00  0.00000000E+00
  0.00000000E+00  0.00000000E+00  0.00000000E+00
  0.00000000E+00  0.00000000E+00  0.00000000E+00
  0.00000000E+00  0.00000000E+00  0.00000000E+00
  0.00000000E+00  0.00000000E+00  0.00000000E+00
  0.00000000E+00  0.00000000E+00  0.00000000E+00
  0.00000000E+00  0.00000000E+00  0.00000000E+00
  0.00000000E+00  0.00000000E+00  0.00000000E+00
  0.00000000E+00  0.00000000E+00  0.00000000E+00
  0.00000000E+00  0.00000000E+00  0.00000000E+00
  0.00000000E+00  0.00000000E+00  0.00000000E+00
  0.00000000E+00  0.00000000E+00  0.00000000E+00
  0.00000000E+00  0.00000000E+00  0.00000000E+00
  0.00000000E+00  0.00000000E+00  0.00000000E+00
  0.00000000E+00  0.00000000E+00  0.00000000E+00
  0.00000000E+00  0.00000000E+00  0.00000000E+00
  0.00000000E+00  0.00000000E+00  0.00000000E+00
  0.00000000E+00  0.00000000E+00  0.00000000E+00
  0.00000000E+00  0.00000000E+00  0.00000000E+00
  0.00000000E+00  0.00000000E+00  0.00000000E+00
  0.00000000E+00  0.00000000E+00  0.00000000E+00
  0.00000000E+00  0.00000000E+00  0.00000000E+00
  0.00000000E+00  0.00000000E+00  0.00000000E+00
  0.00000000E+00  0.00000000E+00  0.00000000E+00
  0.00000000E+00  0.00000000E+00  0.00000000E+00
  0.00000000E+00  0.00000000E+00  0.00000000E+00
  0.00000000E+00  0.00000000E+00  0.00000000E+00
  0.00000000E+00  0.00000000E+00  0.00000000E+00
  0.00000000E+00  0.00000000E+00  0.00000000E+00
  0.00000000E+00  0.00000000E+00  0.00000000E+00
  0.00000000E+00  0.00000000E+00  0.00000000E+00
  0.00000000E+00  0.00000000E+00  0.00000000E+00
  0.00000000E+00  0.00000000E+00  0.00000000E+00
  0.00000000E+00  0.00000000E+00  0.00000000E+00
  0.00000000E+00  0.00000000E+00  0.00000000E+00
  0.00000000E+00  0.00000000E+00  0.00000000E+00
  0.00000000E+00  0.00000000E+00  0.00000000E+00
  0.00000000E+00  0.00000000E+00  0.00000000E+00
  0.00000000E+00  0.00000000E+00  0.00000000E+00
  0.00000000E+00  0.00000000E+00  0.00000000E+00
  0.00000000E+00  0.00000000E+00  0.00000000E+00
  0.00000000E+00  0.00000000E+00  0.00000000E+00
  0.00000000E+00  0.00000000E+00  0.00000000E+00
  0.00000000E+00  0.00000000E+00  0.00000000E+00
  0.00000000E+00  0.00000000E+00  0.00000000E+00
  0.00000000E+00  0.00000000E+00  0.00000000E+00
  0.00000000E+00  0.00000000E+00  0.00000000E+00
  0.00000000E+00  0.00000000E+00  0.00000000E+00
  0.00000000E+00  0.00000000E+00  0.00000000E+00
  0.00000000E+00  0.00000000E+00  0.00000000E+00
  0.00000000E+00  0.00000000E+00  0.00000000E+00
  0.00000000E+00  0.00000000E+00  0.00000000E+00
  0.00000000E+00  0.00000000E+00  0.00000000E+00
  0.00000000E+00  0.00000000E+00  0.00000000E+00
  0.00000000E+00  0.00000000E+00  0.00000000E+00
  0.00000000E+00  0.00000000E+00  0.00000000E+00
  0.00000000E+00  0.00000000E+00  0.00000000E+00
  0.00000000E+00  0.00000000E+00  0.00000000E+00
  0.00000000E+00  0.00000000E+00  0.00000000E+00
  0.00000000E+00  0.00000000E+00  0.00000000E+00
  0.00000000E+00  0.00000000E+00  0.00000000E+00
  0.00000000E+00  0.00000000E+00  0.00000000E+00
  0.00000000E+00  0.00000000E+00  0.00000000E+00
  0.00000000E+00  0.00000000E+00  0.00000000E+00
  0.00000000E+00  0.00000000E+00  0.00000000E+00
  0.00000000E+00  0.00000000E+00  0.00000000E+00
  0.00000000E+00  0.00000000E+00  0.00000000E+00
  0.00000000E+00  0.00000000E+00  0.00000000E+00
  0.00000000E+00  0.00000000E+00  0.00000000E+00
  0.00000000E+00  0.00000000E+00  0.00000000E+00
  0.00000000E+00  0.00000000E+00  0.00000000E+00
  0.00000000E+00  0.00000000E+00  0.00000000E+00
  0.00000000E+00  0.00000000E+00  0.00000000E+00
  0.00000000E+00  0.00000000E+00  0.00000000E+00
  0.00000000E+00  0.00000000E+00  0.00000000E+00
  0.00000000E+00  0.00000000E+00  0.00000000E+00
  0.00000000E+00  0.00000000E+00  0.00000000E+00
  0.00000000E+00  0.00000000E+00  0.00000000E+00
  0.00000000E+00  0.00000000E+00  0.00000000E+00
  0.00000000E+00  0.00000000E+00  0.00000000E+00
  0.00000000E+00  0.00000000E+00  0.00000000E+00
  0.00000000E+00  0.00000000E+00  0.00000000E+00
  0.00000000E+00  0.00000000E+00  0.00000000E+00
  0.00000000E+00  0.00000000E+00  0.00000000E+00
  0.00000000E+00  0.00000000E+00  0.00000000E+00
  0.00000000E+00  0.00000000E+00  0.00000000E+00
  0.00000000E+00  0.00000000E+00  0.00000000E+00
  0.00000000E+00  0.00000000E+00  0.00000000E+00
  0.00000000E+00  0.00000000E+00  0.00000000E+00
  0.00000000E+00  0.00000000E+00  0.00000000E+00
  0.00000000E+00  0.00000000E+00  0.00000000E+00
  0.00000000E+00  0.00000000E+00  0.00000000E+00
  0.00000000E+00  0.00000000E+00  0.00000000E+00
  0.00000000E+00  0.00000000E+00  0.00000000E+00
  0.00000000E+00  0.00000000E+00  0.00000000E+00
  0.00000000E+00  0.00000000E+00  0.00000000E+00
  0.00000000E+00  0.00000000E+00  0.00000000E+00
  0.00000000E+00  0.00000000E+00  0.00000000E+00
  0.00000000E+00  0.00000000E+00  0.00000000E+00
  0.00000000E+00  0.00000000E+00  0.00000000E+00
  0.00000000E+00  0.00000000E+00  0.00000000E+00
  0.00000000E+00  0.00000000E+00  0.00000000E+00
  0.00000000E+00  0.00000000E+00  0.00000000E+00
  0.00000000E+00  0.00000000E+00  0.00000000E+00
  0.00000000E+00  0.00000000E+00  0.00000000E+00
  0.00000000E+00  0.00000000E+00  0.00000000E+00
  0.00000000E+00  0.00000000E+00  0.00000000E+00
  0.00000000E+00  0.00000000E+00  0.00000000E+00
  0.00000000E+00  0.00000000E+00  0.00000000E+00
  0.00000000E+00  0.00000000E+00  0.00000000E+00
  0.00000000E+00  0.00000000E+00  0.00000000E+00
  0.00000000E+00  0.00000000E+00  0.00000000E+00
  0.00000000E+00  0.00000000E+00  0.00000000E+00
  0.00000000E+00  0.00000000E+00  0.00000000E+00
  0.00000000E+00  0.00000000E+00  0.00000000E+00
  0.00000000E+00  0.00000000E+00  0.00000000E+00
  0.00000000E+00  0.00000000E+00  0.00000000E+00
  0.00000000E+00  0.00000000E+00  0.00000000E+00
  0.00000000E+00  0.00000000E+00  0.00000000E+00
  0.00000000E+00  0.00000000E+00  0.00000000E+00
  0.00000000E+00  0.00000000E+00  0.00000000E+00
  0.00000000E+00  0.00000000E+00  0.00000000E+00
  0.00000000E+00  0.00000000E+00  0.00000000E+00
  0.00000000E+00  0.00000000E+00  0.00000000E+00
  0.00000000E+00  0.00000000E+00  0.00000000E+00
  0.00000000E+00  0.00000000E+00  0.00000000E+00
  0.00000000E+00  0.00000000E+00  0.00000000E+00
  0.00000000E+00  0.00000000E+00  0.00000000E+00
  0.00000000E+00  0.00000000E+00  0.00000000E+00
  0.00000000E+00  0.00000000E+00  0.00000000E+00