Amorphous Sb2Se3                        
   1.00000000000000     
    21.0283632703415044    0.0000000000000000    0.0000000000000000
     0.0000000000000000   21.0283632703415044    0.0000000000000000
     0.0000000000000000    0.0000000000000000   21.0283632703415044
   Sb   Se
   120   180
Direct
  0.2587373107173333  0.6171701731017009  0.1538470357064464
  0.2163313244145786  0.5176427123498482  0.3925834171625162
  0.5088673920509419  0.9642622732604003  0.2262952291716969
  0.6333258742895309  0.2480680897337024  0.0388462096942130
  0.2992461217317515  0.7588487071388780  0.5466917085741378
  0.7447018293963446  0.8970918206515452  0.3426990943538152
  0.6750178711879390  0.5635189179326919  0.3073628358460210
  0.0479838586067169  0.8114582224473883  0.2493116525329340
  0.9347771286183398  0.9951220951864548  0.6425461074837613
  0.4738749938800010  0.7689745366832258  0.1121462696916531
  0.8916194426518341  0.5279320351441102  0.3008380378554397
  0.5154288813466860  0.5405212459330795  0.4570101908636315
  0.7654649594379549  0.9316264094960786  0.7572667779645876
  0.7075934569631021  0.0368412922735489  0.2540097788694886
  0.5503458910125377  0.5392127433035053  0.2388106408353536
  0.2359504272088621  0.2691202576088817  0.8882693551880075
  0.9119570862353205  0.6202188791491707  0.4775969197431228
  0.9797356858598547  0.8678844168794270  0.7615335872003979
  0.6385839774579772  0.7139156288712212  0.2077456246694905
  0.5422372775007194  0.3275775709033343  0.1161889275869594
  0.7069572225588187  0.3216616476308354  0.8252230770858161
  0.6564994060845526  0.4488434822361029  0.9070865756920327
  0.3127267263675386  0.5427768862958894  0.8575561738397405
  0.9698204354165462  0.3295088998666946  0.1157862816769297
  0.7935010278546760  0.4409290434024627  0.9455442033454923
  0.6556222602335130  0.0515388693003051  0.6291021910759294
  0.6050745799048930  0.8434640464478957  0.4199300082340010
  0.3960152534193673  0.3453890250845290  0.9280444807725703
  0.3633108310505715  0.3785913279718411  0.5458865660795259
  0.7482116379080120  0.1683085710317897  0.1397309443574546
  0.9469237871033674  0.7836373212475620  0.9314574634931668
  0.7214246328064076  0.3474709827106021  0.1938151775521519
  0.6707797826706626  0.4700319308236535  0.5419061474850891
  0.3476090703728094  0.8353902073345978  0.2213726051257354
  0.0545458431639306  0.8960395926229218  0.5351219382335609
  0.4566359051842840  0.5062054573251469  0.1087284864367547
  0.8418238392278224  0.6994613863395033  0.3243478350453644
  0.0535033653465416  0.5017934154126431  0.1482469423951432
  0.6548560589809610  0.2699421692295348  0.5748583290719708
  0.6472189227681932  0.0235108492253621  0.4911796252369328
  0.5146586008384606  0.9417602788115862  0.8969070225184732
  0.4924803812694904  0.6175087977202436  0.3392487655688178
  0.6473881072777450  0.7886096345415565  0.7973004055738234
  0.0446217007726657  0.3331665239013665  0.6201603638786062
  0.8438294635898533  0.2231772243018607  0.0113620148706962
  0.1012348446600224  0.3879177314336939  0.3969368757639198
  0.8452313990713627  0.2624438794743153  0.5897012293260000
  0.3147859619044365  0.0227377079300938  0.2311774712414882
  0.0530789257190878  0.6810066744575055  0.4049937464721389
  0.0254085770551755  0.6268657464764441  0.7893558216287402
  0.3405757212669553  0.6154332642763283  0.6796485067759845
  0.1822795166669659  0.2240001913612251  0.7020271379382362
  0.9979345155149886  0.5325249455312305  0.6251371901206461
  0.5344578346877361  0.3451570148080332  0.4569435370591174
  0.0301587739111545  0.1537387414488527  0.0611806005342903
  0.8636628392850962  0.7151471546345092  0.7649695240846871
  0.9726048571907310  0.2767094665728491  0.9865533411379224
  0.7362435083286974  0.0097700056616707  0.0732020856344246
  0.0654358648547631  0.6424068079251376  0.0134224301170761
  0.5406718255509585  0.2063181323088067  0.6889140189240549
  0.9763760833648424  0.7598288430007045  0.5936976565782074
  0.6485168034082095  0.3939080306914619  0.7165542991060492
  0.0604756122401533  0.9342989703394958  0.9259026929069372
  0.1634063205032056  0.8289283057330780  0.6941541917250036
  0.6268067753577076  0.5816868217903993  0.8828439253420869
  0.1706631335612419  0.7710502679428043  0.0970094275410660
  0.4736847574649480  0.4214889811998589  0.6949999418285229
  0.5682819160016012  0.0064145291593002  0.3480654971288230
  0.2806049908322857  0.0904309991753299  0.5868838356300268
  0.5050668201907845  0.8145755323989672  0.7234040552429785
  0.7005397104275518  0.1595290329113629  0.9148091850057181
  0.4660190141869260  0.1937166404800306  0.3427642201814039
  0.2866293486895118  0.8419439388364707  0.9705237114965581
  0.1369917639358936  0.4815025250281705  0.8408637595400424
  0.2098866134333378  0.0598358279621583  0.8685338829737924
  0.2427272406838203  0.3458469645262020  0.0432790797845530
  0.1634772590172823  0.1892559396032919  0.1609459900113659
  0.6305777238256940  0.9172120063708438  0.6499228458506934
  0.4042367965786145  0.0608210214161773  0.8366833498686924
  0.1194477916044942  0.9546503918261905  0.3694066219609217
  0.3794226907851809  0.6759941421267320  0.4699540957680556
  0.8436364853930441  0.3599581402641431  0.3421332178454874
  0.5256698273823917  0.1119102264353830  0.9734971852182943
  0.2674232102252402  0.5497989536793345  0.0290619872339038
  0.8257324415986433  0.5455207502509145  0.1312503023137588
  0.7145159286241377  0.6827966123843011  0.5165372405354618
  0.6563967821668109  0.2121900438095683  0.3854447394910927
  0.8407834407297325  0.1811441430292444  0.4115607289972323
  0.9790196101586345  0.0952797688246751  0.2269441199106513
  0.9298021274364952  0.3923994141691982  0.5088506645549129
  0.5932024863067370  0.7788419847042677  0.9789317396544747
  0.3816411549472186  0.2570537611443423  0.7495607457932630
  0.3376419217756612  0.9010687558709323  0.7354181677345841
  0.6289325142024922  0.7668482486686589  0.5909757630586207
  0.0173870811921595  0.1359892154194901  0.6820689531053095
  0.9053051128090854  0.3255622427030883  0.8315153643957134
  0.9312454937775518  0.8756665443756766  0.1269774589642722
  0.2210941343445373  0.2298223968220450  0.4465485460421716
  0.8210517539076129  0.9424337586864092  0.4965109050492686
  0.9176765984074431  0.0489203500860980  0.9559279164980865
  0.0360148299983548  0.0960049108909512  0.8208797737552425
  0.2158624170860831  0.8033280937576458  0.3974156303097411
  0.0955193959237596  0.1400168286812750  0.5452144142378225
  0.6464920588657171  0.5603521416359529  0.6438240234105562
  0.7688914391868198  0.8512751916751118  0.2119030724622634
  0.4837266975155405  0.0569172255571757  0.5989277360804230
  0.3374346083962289  0.2937364218200015  0.2831688381770706
  0.8392925378561411  0.0779577495223631  0.8086002327832530
  0.1592992562362106  0.6545640085049523  0.6313527500067779
  0.5380641452752780  0.5463330478512588  0.7761207047837239
  0.3876107909411912  0.0017313653993844  0.0418091610778746
  0.4642103052939904  0.1626626854234151  0.5064382585243360
  0.0241459348366479  0.0996722856874160  0.4048021425074106
  0.3317230973375641  0.4787177995857282  0.2618923651319121
  0.1818421872191542  0.4015325036943497  0.2380036812844700
  0.4226001628535240  0.7981098377596709  0.4203599643282114
  0.7260341453212726  0.2249960784914301  0.7229501066962220
  0.1848262848586395  0.4570310743403461  0.6142177815951888
  0.1976051045686201  0.7013158221211978  0.3003650572609468
  0.3492089242976559  0.1642147228588220  0.1140350442826577
  0.6379473055426059  0.5676818101139055  0.4653278438964863
  0.5315764770970125  0.4439769150723972  0.3798036856999781
  0.0200775619238922  0.2294055213878386  0.1691344726457669
  0.4291918816255523  0.2255023245265202  0.2275330437240107
  0.8927335344405756  0.1020466140162423  0.0668099281466587
  0.4984733166389249  0.9739934437345471  0.5024000806973327
  0.0739405096961592  0.6774680302554993  0.2808329517669384
  0.8507691729654946  0.2177075623775095  0.7110227356352856
  0.7652001457657344  0.3195296517582882  0.9645999649901222
  0.9015358505776289  0.1630855346277230  0.8765749145427313
  0.0470979705369223  0.5209565417412952  0.0253521880760760
  0.3979825064278570  0.8672332718636865  0.1012947966023425
  0.0834387444577699  0.4532276025828580  0.5419044334382596
  0.5174089695869711  0.3058477406493168  0.7588090102895427
  0.8034869826858319  0.9686798984406639  0.1790598213242413
  0.9726481139872107  0.9753030046381578  0.2707933998272626
  0.3545107200043966  0.3849924181570881  0.6691300384979038
  0.7053569741886500  0.7816119411109695  0.3750246456478311
  0.9537318939517840  0.9175772433497673  0.9934871291786206
  0.1392651783632683  0.1021506577861062  0.6633000910167786
  0.7328549453563807  0.3587214193130329  0.6278180301753490
  0.2974325736712395  0.1903629118043172  0.6635699833575910
  0.6954580369986845  0.7642102947680730  0.9094622974553513
  0.0141257326882557  0.7539897439621946  0.7130060810591218
  0.1121245313915198  0.5564185471216205  0.6998372784533883
  0.7500048219627496  0.1933978229558550  0.5511614604335919
  0.9728995249135628  0.4096201694638352  0.3960639891021250
  0.3551917382895560  0.8618706008943301  0.4998138872372224
  0.6542115878833173  0.2387106175492802  0.1862160647523893
  0.3795287122978511  0.5778527226600003  0.1962811800274138
  0.5563964137586250  0.6350601096634373  0.1578600172818400
  0.2948065709849733  0.0432750971985754  0.7761154978588883
  0.2137247514270289  0.7171034828221411  0.7247857790319662
  0.1944761736059871  0.5817744746776256  0.8845570581137787
  0.5961978564012927  0.2307133395131571  0.9149976052687693
  0.3872144143969052  0.5258275813326057  0.0068890631253144
  0.3233941294892141  0.1006019135229503  0.3326186739964961
  0.5121120703045161  0.0012494104367401  0.0397498999156555
  0.6887711896547084  0.7221358757647779  0.0759425583915157
  0.2586269117225591  0.8893319477999969  0.6384883179858012
  0.4067549891139464  0.7102406480111142  0.5871505533657136
  0.7205559051798271  0.3354816045231205  0.3197558109686248
  0.3355125801052011  0.1491324106488914  0.4939312918061776
  0.8041278608641638  0.6227436397288593  0.9696206521895359
  0.8651033283014488  0.7007842856057791  0.6121195987195230
  0.9105557205259128  0.1761499203887440  0.5190888767432652
  0.7571584960580098  0.5985953294260173  0.5973698220971371
  0.9102323941252207  0.6360924438084732  0.2419791030954552
  0.5143230135001449  0.6845446598248700  0.9515205075812792
  0.0188884724553648  0.7867111361934800  0.1201924940139438
  0.3701550826849891  0.0109184864531576  0.6173744812596135
  0.5507783674792843  0.7586252047582849  0.4912532352808651
  0.6615277609201681  0.3260876118824886  0.4606041583807435
  0.0728167946544288  0.9388988725109930  0.2316507123559094
  0.1251363656208568  0.4090618802995639  0.9458419234833058
  0.9531866370661576  0.6723768857820890  0.0646831139256742
  0.4413715854823844  0.1375028498344129  0.7223028730961757
  0.2419256509522629  0.3801505827310380  0.5236748666405564
  0.3133233800181238  0.6817099495424549  0.9666792402726875
  0.0672520332585886  0.0646020129212415  0.1393700355578811
  0.9256948877777571  0.6672921675233963  0.8678089227398451
  0.3891521796731444  0.9542357381809916  0.9163641773863718
  0.3271950101886859  0.7657207052059216  0.3394523536909822
  0.3716261624752570  0.1188469596517139  0.9963435160691611
  0.6422482053070071  0.0597121199866080  0.9628649074114169
  0.1484478076054184  0.9707683645680211  0.0134117559751297
  0.7186665946411642  0.6165882868857252  0.0448535795574896
  0.4058008272716607  0.9307741970696451  0.2913820106489095
  0.2575305372133630  0.5978536609007711  0.5794667684290734
  0.3407668215123364  0.5283315682272802  0.3763104456128321
  0.8788476031850931  0.8346007955355706  0.8363907321157207
  0.2799940847279108  0.3937372674336359  0.9199708268497289
  0.2291737044042946  0.8984847670853977  0.0669737920881589
  0.6022626574835199  0.1154977359282253  0.2982151370532790
  0.3643385278078694  0.3037947367315649  0.0414035145948414
  0.8056985031796723  0.3946544309245981  0.8000167843379620
  0.7837564157225684  0.4834692713001985  0.2407155234523189
  0.8595666730509165  0.8980102791223105  0.3857682767817963
  0.6317321925132853  0.4518054106883949  0.0294833648304905
  0.1486726558933272  0.2036867166535065  0.0404510670800640
  0.1091891577361521  0.2603425711495452  0.3811833936279240
  0.5084983694940716  0.8980521730570681  0.6267914824211341
  0.0300984466757165  0.2516244379103431  0.7228101881270514
  0.2625546609375644  0.3133518529147548  0.7750717283600136
  0.6424762403838380  0.0506128385144569  0.1490512823002389
  0.2600013473089670  0.8364663433950129  0.8126955660586981
  0.4424212788020071  0.4159417320359000  0.2665515920957386
  0.8013454355658940  0.8873739408198130  0.9977258478104343
  0.4652580230295575  0.0358246710774640  0.4103728758046103
  0.1553484379114078  0.2491415884705492  0.5604168374069350
  0.6052908460583732  0.1597317825032472  0.4902220974888488
  0.2921489808778071  0.7341837878001499  0.1193974527665334
  0.5618431352987507  0.2766497892417583  0.3340631601450904
  0.6763358598924266  0.8949995858605889  0.5093806716437248
  0.1280519863117457  0.7972852509027284  0.5757362907860685
  0.5219415276340938  0.4144689322852345  0.0231715530574357
  0.9771027523323386  0.4150688848651596  0.7819501484293561
  0.6097450667119120  0.4080652842668064  0.1856722516231484
  0.6955880401953313  0.1238258252434700  0.7915226324257980
  0.9500710315513289  0.4068326895471305  0.6723131086657381
  0.0791019656171259  0.1224482924294776  0.2971487305286429
  0.3865720835009902  0.7839556546001993  0.7238448031177976
  0.7949409043801677  0.0264539923816380  0.9131442836721253
  0.4137785746139473  0.3951692744105730  0.1562344271478090
  0.7692547458408483  0.6448960727843034  0.8100392096010058
  0.1232398553334046  0.0049338862250726  0.7980964581004755
  0.0768438857814412  0.8401220709439324  0.3924645277325108
  0.1762013017678530  0.1123841051810275  0.4502249560830464
  0.9002436775845395  0.5792201814536164  0.0152376246565457
  0.5603221092607042  0.5864992144098405  0.9874102869382607
  0.5808074407170047  0.8392083656204700  0.1288046428759752
  0.4739798251062157  0.2543397973141952  0.5935131451931466
  0.4809400920441309  0.9807578150229326  0.7790726577286720
  0.1421348894755359  0.9723217028283039  0.4983038273168574
  0.0202926138945823  0.2223702575513531  0.4478098523067498
  0.0282572206721495  0.5338631172087513  0.8722508990461505
  0.7680080591613840  0.9959239581385161  0.6455767525869224
  0.7877122826271812  0.1314379188461482  0.2528348175234570
  0.6764693165127822  0.6717288040063532  0.7484141610680292
  0.1703782048886440  0.8135592209911729  0.2175407621715548
  0.1905220958727795  0.6388518265743516  0.4164712058352829
  0.0576952231998331  0.8021886788823522  0.8823994151573704
  0.7336199022474468  0.6358643698946530  0.2239708363281572
  0.4407491763513866  0.7534562950670284  0.2297726912259183
  0.6417943718756932  0.9454888914330156  0.7781853197949155
  0.0646724364645605  0.3893059896648669  0.2774122509221591
  0.9326627045083088  0.7364908438820972  0.4085151893152802
  0.1353861198310672  0.3712840884694599  0.6942455452850578
  0.8176203850560555  0.3527048155063472  0.4653010114876314
  0.2148602863157274  0.9090234209209647  0.8909683401648565
  0.2480002797997668  0.0914095334410994  0.1358419367161026
  0.8876683638934838  0.8820219050992417  0.6721600097278115
  0.4137606512182771  0.0645114765285810  0.1673175630971215
  0.5505770922641453  0.7068689689424440  0.6677589064339308
  0.5367714165735018  0.1747937165580848  0.0789094266150316
  0.8843787992648841  0.8152327977254969  0.2380095648846773
  0.2575210898432189  0.1895441712958374  0.3104572607168986
  0.8334340036667094  0.2589432667248614  0.1343207174987091
  0.1251092418174572  0.6497186152923458  0.1241825365637357
  0.8881243875497749  0.5037263331781772  0.5460455634453540
  0.2319859536108227  0.3680581248626277  0.3489084147832510
  0.1888887557897288  0.5287425230151923  0.2712032085969427
  0.2524957776334075  0.2816129577938509  0.1634325723864054
  0.2458215504944842  0.4528602946482872  0.1083558194133545
  0.9362489840411597  0.9935750330128194  0.5169958525824978
  0.9053919780638409  0.0847444729017023  0.3629094198973670
  0.0022769231068575  0.5666541774892239  0.4061304101488117
  0.2146188017207568  0.7386659843554657  0.9523371858662684
  0.1174854130570836  0.3122731221730647  0.8878714256910580
  0.9265079459793401  0.5894873270349307  0.7212792713630924
  0.4588404482896077  0.4554736613043006  0.8144830467135524
  0.9367813797159207  0.3859630052205333  0.9381318516636684
  0.5557110210159937  0.4205072769511221  0.5593751902373872
  0.9488938493763259  0.0022222099806675  0.8119084152007494
  0.0522185513947517  0.9515878538121534  0.6525594442272572
  0.1646034485071080  0.1725666680545055  0.8260096218818892
  0.7481050069410021  0.8108586141179978  0.7248770980507049
  0.3919120896599490  0.2786335602258829  0.3976837585154978
  0.5835222971287841  0.8644425314333692  0.2401995135783117
  0.5108675314202927  0.8179935428357138  0.8845660778062725
  0.4529924370768022  0.6340351236955757  0.7643684259349453
  0.2837256225364801  0.5192026772342220  0.7400639270047629
  0.3898651056130962  0.2300341881932015  0.8738371268232935
  0.8043507526097531  0.7720707503871614  0.5477369851473735
  0.2353192403286495  0.9148227586057872  0.3443236458894093
  0.7062476684947826  0.5016225257609431  0.7384410706547703
  0.0663679458265751  0.0647773318482562  0.9576071294965588
  0.8406433068107753  0.8092788528664117  0.0710262929855201
  0.6943328859383632  0.8998159603166737  0.0351164564729923
  0.7655819530385531  0.0451778865475026  0.4498564893536654
  0.4330412606690867  0.5428055931437282  0.6245690593586153
  0.8983704776727823  0.2507167222918542  0.3252720172075284
  0.6062714129594234  0.6713879120105216  0.3378717278047058
  0.7722325649534534  0.4490385794254727  0.0729373200194644
  0.0233631974291958  0.6493744993932725  0.5529895265253334
  0.9323991689668093  0.4769132387381894  0.1743316248851655
  0.8129828275989990  0.5905659609405258  0.3882847365842103
  0.0824295353934801  0.3843604250853181  0.1112620802532985
  0.3816337785185635  0.5041846858189031  0.5311329841051059
  0.3636224903978145  0.6585121250472190  0.8638605279395138
 
  0.00000000E+00  0.00000000E+00  0.00000000E+00
  0.00000000E+00  0.00000000E+00  0.00000000E+00
  0.00000000E+00  0.00000000E+00  0.00000000E+00
  0.00000000E+00  0.00000000E+00  0.00000000E+00
  0.00000000E+00  0.00000000E+00  0.00000000E+00
  0.00000000E+00  0.00000000E+00  0.00000000E+00
  0.00000000E+00  0.00000000E+00  0.00000000E+00
  0.00000000E+00  0.00000000E+00  0.00000000E+00
  0.00000000E+00  0.00000000E+00  0.00000000E+00
  0.00000000E+00  0.00000000E+00  0.00000000E+00
  0.00000000E+00  0.00000000E+00  0.00000000E+00
  0.00000000E+00  0.00000000E+00  0.00000000E+00
  0.00000000E+00  0.00000000E+00  0.00000000E+00
  0.00000000E+00  0.00000000E+00  0.00000000E+00
  0.00000000E+00  0.00000000E+00  0.00000000E+00
  0.00000000E+00  0.00000000E+00  0.00000000E+00
  0.00000000E+00  0.00000000E+00  0.00000000E+00
  0.00000000E+00  0.00000000E+00  0.00000000E+00
  0.00000000E+00  0.00000000E+00  0.00000000E+00
  0.00000000E+00  0.00000000E+00  0.00000000E+00
  0.00000000E+00  0.00000000E+00  0.00000000E+00
  0.00000000E+00  0.00000000E+00  0.00000000E+00
  0.00000000E+00  0.00000000E+00  0.00000000E+00
  0.00000000E+00  0.00000000E+00  0.00000000E+00
  0.00000000E+00  0.00000000E+00  0.00000000E+00
  0.00000000E+00  0.00000000E+00  0.00000000E+00
  0.00000000E+00  0.00000000E+00  0.00000000E+00
  0.00000000E+00  0.00000000E+00  0.00000000E+00
  0.00000000E+00  0.00000000E+00  0.00000000E+00
  0.00000000E+00  0.00000000E+00  0.00000000E+00
  0.00000000E+00  0.00000000E+00  0.00000000E+00
  0.00000000E+00  0.00000000E+00  0.00000000E+00
  0.00000000E+00  0.00000000E+00  0.00000000E+00
  0.00000000E+00  0.00000000E+00  0.00000000E+00
  0.00000000E+00  0.00000000E+00  0.00000000E+00
  0.00000000E+00  0.00000000E+00  0.00000000E+00
  0.00000000E+00  0.00000000E+00  0.00000000E+00
  0.00000000E+00  0.00000000E+00  0.00000000E+00
  0.00000000E+00  0.00000000E+00  0.00000000E+00
  0.00000000E+00  0.00000000E+00  0.00000000E+00
  0.00000000E+00  0.00000000E+00  0.00000000E+00
  0.00000000E+00  0.00000000E+00  0.00000000E+00
  0.00000000E+00  0.00000000E+00  0.00000000E+00
  0.00000000E+00  0.00000000E+00  0.00000000E+00
  0.00000000E+00  0.00000000E+00  0.00000000E+00
  0.00000000E+00  0.00000000E+00  0.00000000E+00
  0.00000000E+00  0.00000000E+00  0.00000000E+00
  0.00000000E+00  0.00000000E+00  0.00000000E+00
  0.00000000E+00  0.00000000E+00  0.00000000E+00
  0.00000000E+00  0.00000000E+00  0.00000000E+00
  0.00000000E+00  0.00000000E+00  0.00000000E+00
  0.00000000E+00  0.00000000E+00  0.00000000E+00
  0.00000000E+00  0.00000000E+00  0.00000000E+00
  0.00000000E+00  0.00000000E+00  0.00000000E+00
  0.00000000E+00  0.00000000E+00  0.00000000E+00
  0.00000000E+00  0.00000000E+00  0.00000000E+00
  0.00000000E+00  0.00000000E+00  0.00000000E+00
  0.00000000E+00  0.00000000E+00  0.00000000E+00
  0.00000000E+00  0.00000000E+00  0.00000000E+00
  0.00000000E+00  0.00000000E+00  0.00000000E+00
  0.00000000E+00  0.00000000E+00  0.00000000E+00
  0.00000000E+00  0.00000000E+00  0.00000000E+00
  0.00000000E+00  0.00000000E+00  0.00000000E+00
  0.00000000E+00  0.00000000E+00  0.00000000E+00
  0.00000000E+00  0.00000000E+00  0.00000000E+00
  0.00000000E+00  0.00000000E+00  0.00000000E+00
  0.00000000E+00  0.00000000E+00  0.00000000E+00
  0.00000000E+00  0.00000000E+00  0.00000000E+00
  0.00000000E+00  0.00000000E+00  0.00000000E+00
  0.00000000E+00  0.00000000E+00  0.00000000E+00
  0.00000000E+00  0.00000000E+00  0.00000000E+00
  0.00000000E+00  0.00000000E+00  0.00000000E+00
  0.00000000E+00  0.00000000E+00  0.00000000E+00
  0.00000000E+00  0.00000000E+00  0.00000000E+00
  0.00000000E+00  0.00000000E+00  0.00000000E+00
  0.00000000E+00  0.00000000E+00  0.00000000E+00
  0.00000000E+00  0.00000000E+00  0.00000000E+00
  0.00000000E+00  0.00000000E+00  0.00000000E+00
  0.00000000E+00  0.00000000E+00  0.00000000E+00
  0.00000000E+00  0.00000000E+00  0.00000000E+00
  0.00000000E+00  0.00000000E+00  0.00000000E+00
  0.00000000E+00  0.00000000E+00  0.00000000E+00
  0.00000000E+00  0.00000000E+00  0.00000000E+00
  0.00000000E+00  0.00000000E+00  0.00000000E+00
  0.00000000E+00  0.00000000E+00  0.00000000E+00
  0.00000000E+00  0.00000000E+00  0.00000000E+00
  0.00000000E+00  0.00000000E+00  0.00000000E+00
  0.00000000E+00  0.00000000E+00  0.00000000E+00
  0.00000000E+00  0.00000000E+00  0.00000000E+00
  0.00000000E+00  0.00000000E+00  0.00000000E+00
  0.00000000E+00  0.00000000E+00  0.00000000E+00
  0.00000000E+00  0.00000000E+00  0.00000000E+00
  0.00000000E+00  0.00000000E+00  0.00000000E+00
  0.00000000E+00  0.00000000E+00  0.00000000E+00
  0.00000000E+00  0.00000000E+00  0.00000000E+00
  0.00000000E+00  0.00000000E+00  0.00000000E+00
  0.00000000E+00  0.00000000E+00  0.00000000E+00
  0.00000000E+00  0.00000000E+00  0.00000000E+00
  0.00000000E+00  0.00000000E+00  0.00000000E+00
  0.00000000E+00  0.00000000E+00  0.00000000E+00
  0.00000000E+00  0.00000000E+00  0.00000000E+00
  0.00000000E+00  0.00000000E+00  0.00000000E+00
  0.00000000E+00  0.00000000E+00  0.00000000E+00
  0.00000000E+00  0.00000000E+00  0.00000000E+00
  0.00000000E+00  0.00000000E+00  0.00000000E+00
  0.00000000E+00  0.00000000E+00  0.00000000E+00
  0.00000000E+00  0.00000000E+00  0.00000000E+00
  0.00000000E+00  0.00000000E+00  0.00000000E+00
  0.00000000E+00  0.00000000E+00  0.00000000E+00
  0.00000000E+00  0.00000000E+00  0.00000000E+00
  0.00000000E+00  0.00000000E+00  0.00000000E+00
  0.00000000E+00  0.00000000E+00  0.00000000E+00
  0.00000000E+00  0.00000000E+00  0.00000000E+00
  0.00000000E+00  0.00000000E+00  0.00000000E+00
  0.00000000E+00  0.00000000E+00  0.00000000E+00
  0.00000000E+00  0.00000000E+00  0.00000000E+00
  0.00000000E+00  0.00000000E+00  0.00000000E+00
  0.00000000E+00  0.00000000E+00  0.00000000E+00
  0.00000000E+00  0.00000000E+00  0.00000000E+00
  0.00000000E+00  0.00000000E+00  0.00000000E+00
  0.00000000E+00  0.00000000E+00  0.00000000E+00
  0.00000000E+00  0.00000000E+00  0.00000000E+00
  0.00000000E+00  0.00000000E+00  0.00000000E+00
  0.00000000E+00  0.00000000E+00  0.00000000E+00
  0.00000000E+00  0.00000000E+00  0.00000000E+00
  0.00000000E+00  0.00000000E+00  0.00000000E+00
  0.00000000E+00  0.00000000E+00  0.00000000E+00
  0.00000000E+00  0.00000000E+00  0.00000000E+00
  0.00000000E+00  0.00000000E+00  0.00000000E+00
  0.00000000E+00  0.00000000E+00  0.00000000E+00
  0.00000000E+00  0.00000000E+00  0.00000000E+00
  0.00000000E+00  0.00000000E+00  0.00000000E+00
  0.00000000E+00  0.00000000E+00  0.00000000E+00
  0.00000000E+00  0.00000000E+00  0.00000000E+00
  0.00000000E+00  0.00000000E+00  0.00000000E+00
  0.00000000E+00  0.00000000E+00  0.00000000E+00
  0.00000000E+00  0.00000000E+00  0.00000000E+00
  0.00000000E+00  0.00000000E+00  0.00000000E+00
  0.00000000E+00  0.00000000E+00  0.00000000E+00
  0.00000000E+00  0.00000000E+00  0.00000000E+00
  0.00000000E+00  0.00000000E+00  0.00000000E+00
  0.00000000E+00  0.00000000E+00  0.00000000E+00
  0.00000000E+00  0.00000000E+00  0.00000000E+00
  0.00000000E+00  0.00000000E+00  0.00000000E+00
  0.00000000E+00  0.00000000E+00  0.00000000E+00
  0.00000000E+00  0.00000000E+00  0.00000000E+00
  0.00000000E+00  0.00000000E+00  0.00000000E+00
  0.00000000E+00  0.00000000E+00  0.00000000E+00
  0.00000000E+00  0.00000000E+00  0.00000000E+00
  0.00000000E+00  0.00000000E+00  0.00000000E+00
  0.00000000E+00  0.00000000E+00  0.00000000E+00
  0.00000000E+00  0.00000000E+00  0.00000000E+00
  0.00000000E+00  0.00000000E+00  0.00000000E+00
  0.00000000E+00  0.00000000E+00  0.00000000E+00
  0.00000000E+00  0.00000000E+00  0.00000000E+00
  0.00000000E+00  0.00000000E+00  0.00000000E+00
  0.00000000E+00  0.00000000E+00  0.00000000E+00
  0.00000000E+00  0.00000000E+00  0.00000000E+00
  0.00000000E+00  0.00000000E+00  0.00000000E+00
  0.00000000E+00  0.00000000E+00  0.00000000E+00
  0.00000000E+00  0.00000000E+00  0.00000000E+00
  0.00000000E+00  0.00000000E+00  0.00000000E+00
  0.00000000E+00  0.00000000E+00  0.00000000E+00
  0.00000000E+00  0.00000000E+00  0.00000000E+00
  0.00000000E+00  0.00000000E+00  0.00000000E+00
  0.00000000E+00  0.00000000E+00  0.00000000E+00
  0.00000000E+00  0.00000000E+00  0.00000000E+00
  0.00000000E+00  0.00000000E+00  0.00000000E+00
  0.00000000E+00  0.00000000E+00  0.00000000E+00
  0.00000000E+00  0.00000000E+00  0.00000000E+00
  0.00000000E+00  0.00000000E+00  0.00000000E+00
  0.00000000E+00  0.00000000E+00  0.00000000E+00
  0.00000000E+00  0.00000000E+00  0.00000000E+00
  0.00000000E+00  0.00000000E+00  0.00000000E+00
  0.00000000E+00  0.00000000E+00  0.00000000E+00
  0.00000000E+00  0.00000000E+00  0.00000000E+00
  0.00000000E+00  0.00000000E+00  0.00000000E+00
  0.00000000E+00  0.00000000E+00  0.00000000E+00
  0.00000000E+00  0.00000000E+00  0.00000000E+00
  0.00000000E+00  0.00000000E+00  0.00000000E+00
  0.00000000E+00  0.00000000E+00  0.00000000E+00
  0.00000000E+00  0.00000000E+00  0.00000000E+00
  0.00000000E+00  0.00000000E+00  0.00000000E+00
  0.00000000E+00  0.00000000E+00  0.00000000E+00
  0.00000000E+00  0.00000000E+00  0.00000000E+00
  0.00000000E+00  0.00000000E+00  0.00000000E+00
  0.00000000E+00  0.00000000E+00  0.00000000E+00
  0.00000000E+00  0.00000000E+00  0.00000000E+00
  0.00000000E+00  0.00000000E+00  0.00000000E+00
  0.00000000E+00  0.00000000E+00  0.00000000E+00
  0.00000000E+00  0.00000000E+00  0.00000000E+00
  0.00000000E+00  0.00000000E+00  0.00000000E+00
  0.00000000E+00  0.00000000E+00  0.00000000E+00
  0.00000000E+00  0.00000000E+00  0.00000000E+00
  0.00000000E+00  0.00000000E+00  0.00000000E+00
  0.00000000E+00  0.00000000E+00  0.00000000E+00
  0.00000000E+00  0.00000000E+00  0.00000000E+00
  0.00000000E+00  0.00000000E+00  0.00000000E+00
  0.00000000E+00  0.00000000E+00  0.00000000E+00
  0.00000000E+00  0.00000000E+00  0.00000000E+00
  0.00000000E+00  0.00000000E+00  0.00000000E+00
  0.00000000E+00  0.00000000E+00  0.00000000E+00
  0.00000000E+00  0.00000000E+00  0.00000000E+00
  0.00000000E+00  0.00000000E+00  0.00000000E+00
  0.00000000E+00  0.00000000E+00  0.00000000E+00
  0.00000000E+00  0.00000000E+00  0.00000000E+00
  0.00000000E+00  0.00000000E+00  0.00000000E+00
  0.00000000E+00  0.00000000E+00  0.00000000E+00
  0.00000000E+00  0.00000000E+00  0.00000000E+00
  0.00000000E+00  0.00000000E+00  0.00000000E+00
  0.00000000E+00  0.00000000E+00  0.00000000E+00
  0.00000000E+00  0.00000000E+00  0.00000000E+00
  0.00000000E+00  0.00000000E+00  0.00000000E+00
  0.00000000E+00  0.00000000E+00  0.00000000E+00
  0.00000000E+00  0.00000000E+00  0.00000000E+00
  0.00000000E+00  0.00000000E+00  0.00000000E+00
  0.00000000E+00  0.00000000E+00  0.00000000E+00
  0.00000000E+00  0.00000000E+00  0.00000000E+00
  0.00000000E+00  0.00000000E+00  0.00000000E+00
  0.00000000E+00  0.00000000E+00  0.00000000E+00
  0.00000000E+00  0.00000000E+00  0.00000000E+00
  0.00000000E+00  0.00000000E+00  0.00000000E+00
  0.00000000E+00  0.00000000E+00  0.00000000E+00
  0.00000000E+00  0.00000000E+00  0.00000000E+00
  0.00000000E+00  0.00000000E+00  0.00000000E+00
  0.00000000E+00  0.00000000E+00  0.00000000E+00
  0.00000000E+00  0.00000000E+00  0.00000000E+00
  0.00000000E+00  0.00000000E+00  0.00000000E+00
  0.00000000E+00  0.00000000E+00  0.00000000E+00
  0.00000000E+00  0.00000000E+00  0.00000000E+00
  0.00000000E+00  0.00000000E+00  0.00000000E+00
  0.00000000E+00  0.00000000E+00  0.00000000E+00