In2O3 structure 12 - random placement wi
   1.00000000000000     
     8.0128501963772329    0.0023198648072556    0.0003457117618189
     0.0023068280359546    7.9182773755379410   -0.0874496869125139
     0.0003347146182351   -0.0874895161710310    7.9275928661588013
   In   Ga   O 
    14     2    24
Direct
  0.0237064567586284  0.2046153318914817  0.1048097324662027
  0.3022542456868676  0.9561855959887728  0.3488468857708455
  0.3008067109287372  0.9563003474933595  0.8539404361221810
  0.5292038164302881  0.1757071267648091  0.6268614658869600
  0.5308863054009976  0.6732848170533565  0.6313282252031448
  0.7952618383067299  0.9264507782316698  0.3783060287773969
  0.5319939217907075  0.6682799303941235  0.1338344747055167
  0.2998614439032226  0.4534856688116248  0.8526934284150602
  0.0222685955382935  0.7012045627450797  0.5984373557718959
  0.3009323110879646  0.4487103795520140  0.3493279120080806
  0.7923220937957580  0.9290072340789161  0.8891240062477175
  0.7930486411922223  0.4188721027693592  0.8830005899293711
  0.0261920160037416  0.7019965808160633  0.1034098062048547
  0.0210869978312913  0.2078452982652058  0.5996469434814953
  0.5240512145758223  0.1834906127562687  0.1356557608739474
  0.8005920121942602  0.4260506525098205  0.3805832521860363
  0.0634985919212626  0.8192968254285775  0.8476929953931384
  0.8959277468790511  0.4607335749380629  0.6269213699336414
  0.7629850935293913  0.6706900086715056  0.9920578760998484
  0.5772232405257215  0.5478325365308294  0.3866174319538107
  0.7506952783752118  0.3093630561696462  0.1515680298084709
  0.4155970340734547  0.7098488960742952  0.8886306571181974
  0.9167708904466741  0.9570534174504394  0.1384324143415411
  0.9010969620206432  0.6560373624741066  0.3431018317714141
  0.7632424050965154  0.1827084605827061  0.4873356381192735
  0.4195429679912770  0.4073261621651389  0.0947599075881663
  0.5595290392452715  0.4212810643844149  0.7466166409433380
  0.2628825426455592  0.5680783266682750  0.5962256618827260
  0.2664586063882950  0.0780145261763005  0.0999323176710150
  0.4184508180304103  0.9215404297628964  0.5965547097516053
  0.0612841693120476  0.4554733786968230  0.9842549694685403
  0.2607271881974607  0.2072115173362491  0.7288932375865751
  0.9104842331231174  0.1703815308131112  0.8476770539192376
  0.4225903230183787  0.2075263314246062  0.3737027268925817
  0.5608388295313763  0.0796643763932889  0.9036616496219761
  0.2657757427939102  0.7030753780439790  0.2379400898803971
  0.0545861401437761  0.3277303896170500  0.3489030660822952
  0.5638513295549226  0.9289602266808633  0.2344553241187381
  0.7613340118663064  0.8201912391185318  0.6355836107538502
  0.0626515598231764  0.9561879881140957  0.4822478862092650
 
  0.00000000E+00  0.00000000E+00  0.00000000E+00
  0.00000000E+00  0.00000000E+00  0.00000000E+00
  0.00000000E+00  0.00000000E+00  0.00000000E+00
  0.00000000E+00  0.00000000E+00  0.00000000E+00
  0.00000000E+00  0.00000000E+00  0.00000000E+00
  0.00000000E+00  0.00000000E+00  0.00000000E+00
  0.00000000E+00  0.00000000E+00  0.00000000E+00
  0.00000000E+00  0.00000000E+00  0.00000000E+00
  0.00000000E+00  0.00000000E+00  0.00000000E+00
  0.00000000E+00  0.00000000E+00  0.00000000E+00
  0.00000000E+00  0.00000000E+00  0.00000000E+00
  0.00000000E+00  0.00000000E+00  0.00000000E+00
  0.00000000E+00  0.00000000E+00  0.00000000E+00
  0.00000000E+00  0.00000000E+00  0.00000000E+00
  0.00000000E+00  0.00000000E+00  0.00000000E+00
  0.00000000E+00  0.00000000E+00  0.00000000E+00
  0.00000000E+00  0.00000000E+00  0.00000000E+00
  0.00000000E+00  0.00000000E+00  0.00000000E+00
  0.00000000E+00  0.00000000E+00  0.00000000E+00
  0.00000000E+00  0.00000000E+00  0.00000000E+00
  0.00000000E+00  0.00000000E+00  0.00000000E+00
  0.00000000E+00  0.00000000E+00  0.00000000E+00
  0.00000000E+00  0.00000000E+00  0.00000000E+00
  0.00000000E+00  0.00000000E+00  0.00000000E+00
  0.00000000E+00  0.00000000E+00  0.00000000E+00
  0.00000000E+00  0.00000000E+00  0.00000000E+00
  0.00000000E+00  0.00000000E+00  0.00000000E+00
  0.00000000E+00  0.00000000E+00  0.00000000E+00
  0.00000000E+00  0.00000000E+00  0.00000000E+00
  0.00000000E+00  0.00000000E+00  0.00000000E+00
  0.00000000E+00  0.00000000E+00  0.00000000E+00
  0.00000000E+00  0.00000000E+00  0.00000000E+00
  0.00000000E+00  0.00000000E+00  0.00000000E+00
  0.00000000E+00  0.00000000E+00  0.00000000E+00
  0.00000000E+00  0.00000000E+00  0.00000000E+00
  0.00000000E+00  0.00000000E+00  0.00000000E+00
  0.00000000E+00  0.00000000E+00  0.00000000E+00
  0.00000000E+00  0.00000000E+00  0.00000000E+00
  0.00000000E+00  0.00000000E+00  0.00000000E+00
  0.00000000E+00  0.00000000E+00  0.00000000E+00
