Ge Se                                   
   1.00000000000000     
    19.5119933257547622    0.0000000000000000    0.0000000000000000
     0.0000000000000000   19.5119933257547622    0.0000000000000000
     0.0000000000000000    0.0000000000000000   19.5119933257547622
   Ge   Se
   270    30
Direct
  0.5234668142223743  0.4281845441377010 -0.0019337676843914
  0.5698864433275124  0.4833896401302860  0.8813586545421713
  0.8130218733126788  0.9061896562050956  0.9732365297684420
  0.3449673998131063  0.8534708955272463  0.6176428954728883
  0.3640626918373415  0.7546174033628612  0.2158279006482123
  0.6325614481350331  0.7897201229179859  0.9651229994539935
  0.1116872136918806  0.8207358063511349  0.8722235261187273
  0.6931350539256378  0.7156297915741944  0.2277669719963210
  0.6442570281389270  0.5035650196415283  0.0305894709683118
  0.3373058449696260  0.8639284138004337  0.7517888710877542
  0.2705000315449760  0.0417895252365803  0.3067742559539272
  0.5074140715670744  0.7637127310867426  0.7996821120093850
  0.0691774458888561  0.5290367199011590  0.1822330651871452
  0.9912699836841596  0.3343576888417094  0.3864933641724806
  0.1208105226779144  0.1808443502160016  0.9314301194861966
  0.2278827891128948  0.9092527751612224  0.9069531886445953
  0.3461218167180364  0.4591265247032368  0.1174418849431081
  0.7560477987004982  0.5239163137927004  0.6869007354095669
  0.3867081463911214  0.1438544390826558  0.9350247975042778
  0.8721143328783867  0.7214665639430271  0.9234237010716508
  0.5979561116722241  0.3611583916557026  0.7073587943876263
  0.2138666530790584  0.4669583532252183  0.8762612254067900
  0.9701069268840308  0.9500744908134253  0.4236685987242148
  0.4768191383493668  0.0372176187629711  0.2082098625030653
  0.8640145658942929  0.5759759264875547  0.2736261086587777
  0.4105152948920033  0.4723649593132169  0.9287116348452472
  0.4202384441267876  0.5515635867850078  0.8215931652682400
  0.7702669961208503  0.6211785307595314  0.1857930819444923
  0.6145895218723461  0.2989938453912149  0.2533559749221369
  0.8052613056394652  0.3308574748149899  0.7850484518107089
  0.7134614878954139  0.2907803852317028  0.5524037699704044
  0.9531797445310036  0.4222239679724329  0.9047770976028664
  0.9234969200451908  0.9842402265275869  0.6251522323134766
  0.1891099055599107  0.0108521115047840  0.6271399700267719
  0.4732465842694344  0.6640907891287310  0.9971613812766582
  0.0941195784087742  0.0673744375752130  0.5599571067136127
  0.2437531150623759  0.0048679270134423  0.4395277567068795
  0.8361988420221284  0.8864682657897078  0.1838731551508667
  0.2751339394057620  0.9296502712148276  0.0998709085765550
  0.2238746377770403  0.1999227751598127  0.0163060222416953
  0.8719701749856217  0.7035802291809743  0.7332806412221754
  0.4764052911190481  0.0568857740910307  0.8945262646050897
  0.4301699539282751  0.1341017228670717  0.4821325188332014
  0.2169595901558916  0.2254459804626613  0.6633301936022112
  0.1069885523572930  0.8600523430178912  0.5835605397231955
  0.5351269798646997  0.8889010052081976  0.6218937282206085
  0.5500502684977204  0.4743968844657899  0.5368211833637350
  0.5878339431891234  0.0903460936866160  0.2520986252062357
  0.2340135504445820  0.7350678489591724  0.4984293156310733
  0.3542278255211739  0.5420215914584153  0.3171213089370210
  0.3784411955127472  0.8261824815410544  0.3950333972276512
  0.0695631652828525  0.5017127255654626  0.0528493813003941
  0.6228708309415866  0.9678272570412927  0.0784767348016846
  0.8319917756746599  0.7203809845106549  0.0467672870571220
  0.6275841058344208  0.9004381448510875  0.1898308914217814
  0.0959247530671044  0.4533650196288340  0.7206674608115704
  0.0156083467104135  0.2614743428889340  0.0619438981802243
  0.7575793275163760  0.8869406001766065  0.4364792982327360
  0.5424954709359023  0.7563205287534510  0.0517973342239969
  0.0607884646451502  0.7563229084135534  0.2619744793617143
  0.5945701219861641  0.1491132054663903  0.3676794601928386
  0.8846409661328970  0.2796063997620303  0.4417165001892849
  0.8465310749436284  0.7791674531574171  0.5463081265343481
  0.0229758477087088  0.6144040771570990  0.9922211788071961
  0.4806389305998611  0.6944957033553408  0.2438187643339950
  0.1232712245887119  0.2501777092027899  0.3334124759094074
  0.6878786913940449  0.1709178773581914  0.6971882386695906
  0.3567721638703174  0.4442200296378261  0.3987981037152046
  0.0599134948496505  0.2432266707082414  0.5400569545056177
  0.1252504414646932  0.1144196904379393  0.8199139855457155
  0.1439423260316083  0.5585784297722589  0.5614699005883619
  0.0242530255638724  0.7452182021826158  0.0198075990328368
  0.9321598754249253  0.7809077002590852  0.1064896432085188
  0.4027977402588143  0.3166433562040256  0.5039407059247643
  0.7376005025697723  0.2007387114843613  0.1139159556852452
 -0.0010373691534431  0.3954938142954901  0.7853527868487070
  0.7911582899447386  0.3544560290538746  0.2794802107099009
  0.6030540134665930  0.5943373166605015  0.5285859705297967
  0.2445588966744982  0.3919042683317724  0.0649491437859443
  0.2802869639862980  0.4937756832226666  0.2233418251607941
  0.6122025042247252  0.5684760645030772  0.1414660582348918
  0.2172655540275555  0.3895579013974774  0.5463624538307421
  0.9434392232099051  0.5895187198981998  0.1050734938566727
  0.9725403012861608  0.7818189591085764  0.7029824928595216
  0.7091439872858377  0.5225226041817876  0.2496691191778266
  0.1356139091621276  0.9563576597398067  0.7311177340914968
  0.8918027883865829  0.8574421126199259  0.6382820107519747
  0.3461053965009160  0.8204826994469747  0.1008873464723671
  0.1486365012982106  0.7892587871115641 -0.0020563761242642
  0.3052133101986964  0.1591849254754003  0.1192736269750455
  0.8884059239377886  0.6674342193657417  0.6040094173088901
  0.7246836333395282  0.5726652883459759  0.4817045934758306
  0.5053336078164157  0.9274020629666051  0.7463321118303861
  0.2215236336617160  0.3377615675249122  0.8522514909234054
  0.5807743970068473  0.1135091901523414  0.9509752283268662
  0.0197156042397021  0.6867918731762439  0.6224061153432774
  0.5298286709717833  0.2643271427008365  0.8495725793993296
  0.3859344492944316  0.1569709275268996  0.7276194924130402
  0.7740711063993921  0.5113541344880213  0.3720406687247529
  0.5394189797369501  0.7220224961582805  0.3573179450972204
  0.8893602799332967  0.4104843176287312  0.7249696643101406
  0.8942482491217505  0.0575814747998091  0.2644648896516265
  0.0192864450328423  0.1552922341052483  0.6256532226040843
  0.8456707872044149  0.5197995001896092  0.7849696220286623
  0.3258850001802915  0.5340385646607612  0.0067006336990334
  0.4784377500482432  0.7176085979233573  0.6823126390572138
  0.1043541778107852  0.1922101052201546  0.7190271817977346
  0.7235342756856926  0.8199473426337478  0.1566112665846023
  0.3211586639541100  0.9619197681495201  0.9815830880875313
  0.2765039909308532  0.1099456316349819  0.6474133631482030
  0.8822565925222060  0.8460701007817744  0.4353748652048549
  0.7923934098446621  0.0058570975523625  0.2090974224969446
  0.1831290497207698  0.7424908581428985  0.7210512692822733
  0.7654623293395729  0.0767103787689467  0.4046170258520659
  0.8062803471907725  0.5914529278154218  0.0610715240984660
  0.6592507002242832  0.8501508449206135  0.6302461107800175
  0.1889665968822145  0.5765222705225203  0.1933359945258550
  0.9039077123554632  0.3755181845421336  0.6024371196257901
  0.2071967834585521  0.6154496795067440  0.7523153169191293
  0.3970017468191413  0.0716148026364186  0.3006841972740107
  0.1574532989225030  0.6401188389716893  0.9957561583889170
  0.4147567370055477  0.5728274232574642  0.1356584449482657
  0.0086158636426682  0.3888964968403909  0.0164668157684913
  0.1890502074256373  0.2608570528496885  0.5409629373341851
  0.5477797477107650  0.6075780757623525  0.7061191535454374
  0.5324709263851988  0.4760548334354731  0.1958753756767235
  0.0614459260090581  0.2961179086224081  0.2249242997974895
  0.1190573988054125  0.6761726232826428  0.4898852343413876
  0.5574368486416338  0.5266169885686902  0.3556515947422269
  0.2915917564043627  0.3160012826178182  0.7279612545281198
  0.0285750718408006  0.4661407909703626  0.3847694284967525
  0.7115834676349498  0.7921549659038744  0.3408483067758546
  0.9565756227364458  0.0286811395770024  0.7484317920911042
  0.4896311594290985  0.2122148987506644  0.6589760437095696
  0.6386204112680077  0.7449315811655164  0.8398887364597568
  0.4072963011559478  0.2013094861025046  0.3058045722895007
  0.5206302239560069  0.3877261149226711  0.8088354022900732
  0.8736561482611551  0.1855211342923770  0.2498491906263203
  0.9264815705250165  0.6065397284208598  0.9063934235659342
  0.2483062205487118  0.9627952730740966  0.7931214940940713
  0.6394175279973775  0.6385014073171387  0.3408125731977047
  0.5125114758467978  0.0068528547423963  0.5683437093289552
  0.0853972513475847  0.6739957769280582  0.3610466102023106
  0.1920841838050815  0.6264564491998951  0.3094594281381548
  0.7201995005949055  0.7982392950298041  0.5240322850495827
  0.7644064764654018  0.1094126254846895  0.5277043681305786
  0.9302112050963686  0.1795218908382345  0.3699371579466577
  0.0657424081698929  0.4260723017727674  0.2615806989689819
  0.3153021512197108  0.0898626935076669  0.5243851317194449
  0.9915903177199336  0.5869025931915537  0.3366041642918040
  0.1018788578588909  0.9364278380019424  0.9371141977188148
  0.5813671870521421  0.6953533599811860  0.1610706891811637
  0.3524278314184872  0.2266204707240726  0.4221314684845183
  0.1324931083384756  0.0809577175660127  0.4373379152872522
  0.5316826712782494  0.2045460527551504  0.5353679790129131
  0.2127522295763730  0.3195205584450715  0.1705558371687445
  0.2848347483959052  0.7529204554658027  0.0037425549588669
  0.6823493622051366  0.9802793869202031  0.3881596042570253
  0.3704146823149169  0.5588390261382189  0.6087695289948241
  0.8338966364569619  0.6651707112770572  0.3725578632450588
  0.3493332472592401  0.7510641545228461  0.8854509434342157
  0.4675498779897467  0.0372752234919821  0.4005629277345815
  0.5606178516417503  0.0774486443264393  0.0698418001367043
  0.7389948271651416  0.0016354514980246  0.0330948746814102
  0.4351906835771907  0.0482843469135746  0.0833524166765943
  0.7189641442736429  0.1843383322797041  0.3548624965398723
  0.7897126813824060  0.0208801370381431  0.8122874532382031
  0.3069627960021620  0.4859949428226410  0.7848234271339751
  0.6206822504916828  0.4294656199125974  0.2897781770361110
  0.4357439882211548  0.8631974669849393  0.8366948834325069
  0.1863596114759902  0.3498796637156048  0.3903159351137334
  0.0646580988497241  0.9256516631238147  0.1777001981177268
  0.3222186662311665  0.6438423020488134  0.8092814883000682
  0.4068768179861602  0.3153211076073620  0.6348748060869008
  0.6592298811401941  0.1739259203042544  0.5691772516515986
  0.2726422673576885  0.0854140007117210  0.9552161216648495
  0.3804233521843318  0.9779734607803050  0.5625933909687328
  0.1991527151407292  0.5042918294688781  0.0016229997508824
  0.2694564451580743  0.7468253010458314  0.6250029784809691
  0.9238562861321233  0.3676592759412498  0.2766527869092595
  0.0605668806530135  0.0128719655833601  0.3457481935512710
  0.9462306659399838  0.0817263322336232  0.5325158995876706
  0.8913052169648409  0.0558982717253044  0.3943570098241847
  0.5014841578050773  0.4093772109630562  0.6378651851610199
  0.2142564508387955  0.1633562539841482  0.2921032600861130
  0.6917982814357820  0.8427367792501828  0.7575675018473951
  0.4463453081762789  0.7270322779045908  0.4479344430181698
  0.0626844077153800  0.0030600072804438  0.8250614434106148
  0.5106682773494002  0.5512791772844126  0.0454785391031789
  0.8492134199483488  0.5033554521222758  0.9195303594982278
  0.0266014669091830  0.9569789262847020  0.5440363718035488
  0.6927886245641564  0.9597558073756607  0.8915600359448541
  0.2781879915620662  0.3119074219492902  0.9681686630104919
  0.5266414470020835  0.3135896121484716  0.4515129640338038
  0.3580525239637161  0.6695710689716524  0.6827035588369434
  0.7198660549834778  0.6949771652334222  0.4357808728955336
  0.4066256269405251  0.3330426824795429  0.9465296073574874
  0.9375660997312484  0.2749290112882617  0.1785440663386129
  0.0504119951941491  0.1896448504645203  0.4194526643409666
  0.9612562356741525  0.8404187654257527  0.2225249909336721
  0.6735898660871377  0.9954785429761518  0.2600879443290895
  0.5853445750408980  0.0456906746518695  0.4537300482280475
  0.8175196998000505  0.5563357511490732  0.5747673356770070
  0.4573567393151601  0.5151158661606787  0.6977524607117499
  0.3062126461245584  0.3362433998202687  0.3439216740865661
  0.1648949690997592  0.1156161947710502  0.1767814502577552
  0.2753780454730595  0.0395497434660989  0.1703678975370186
  0.1964937148109091  0.4046039087436245  0.2674748061724406
  0.2466702005414892  0.8287096048944844  0.4004192559569970
  0.8051632957301087 -0.0170864817655553  0.5354576737497548
  0.7576518511355743  0.2817134270813940  0.4306778399133726
  0.3411522573318216  0.4350784763185787  0.5277520195738915
  0.7127313482084768  0.3969693787753831  0.3850310041403424
  0.2587897820122019  0.7392513796705570  0.2992575141393006
  0.2299910521803412  0.9114639795112289  0.5470600096421592
  0.8252140420684400  0.4379053698670586  0.5221159283265954
  0.8039853817807999  0.9007355399994921  0.7228224633960753
  0.2319226538480295  0.5360513529673280  0.3967027232156171
  0.1491672351425403  0.6742165008869064  0.1213098180532711
  0.7943335766829051  0.0280978988097658  0.6712742032908295
  0.1344250552984550  0.2287166910918600  0.1162257939421727
  0.0174764401033379  0.1056426575803988  0.2575652238318222
  0.4972826865474477  0.9090509899554032  0.1907886911905811
  0.4516454672879665  0.0468928105612643  0.7660064044945786
  0.2454649973554121  0.7990852734585930  0.8218924332826575
  0.4876392100185283  0.4424133985091410  0.4283091486116264
  0.5920823662542077  0.9126780711683832  0.9654291468477888
  0.3866191235116308  0.3772315533901194  0.8135170587432985
  0.1743089801896507  0.7774664426210708  0.1964138903455652
  0.7410128247776513  0.8107195075156700  0.0296352469265218
  0.9375319971253629  0.2158039180188263  0.8657316278821581
  0.7791273160538141  0.7159950672266248  0.8300556039848471
  0.8751417665936004  0.1244791612440606  0.7960101478889182
  0.7416080382438931  0.2404266582346618  0.2412995667859409
  0.9013885078319009  0.4706641030806561  0.1878153065113607
  0.6560994835108309  0.0471244215996264  0.7021569109653594
  0.0321456063758000  0.2716137542337500  0.7933959736485968
  0.7088037000732580  0.4136734439777585  0.7479029387376724
  0.4578563447244463  0.7939236011279522  0.5766798669419155
  0.4682134489745310  0.5665788193105552  0.2648923709313071
  0.8696115311005549  0.1879938674289206  0.5341341979713479
  0.3553183558987418  0.6529345763640628  0.0472129160725584
  0.9005853532572939  0.3693613296258167  0.0893837258648698
  0.4841503741359494  0.6584521627874345  0.8708594230436842
  0.5247175486799216  0.2523064393332151  0.3373823280334243
  0.5930000486281571  0.6041771248805142  0.8291054853690459
  0.4659889098298114  0.8621126465534752  0.0718074244104466
  0.0289874227723530  0.6568571713764524  0.1794865263658411
  0.6253890460758414  0.9528764535347488  0.7840161894839643
  0.0909110732353538  0.8340592324161392  0.7159841816197082
  0.3029436011073749  0.2386896573169002  0.2269206603465249
  0.4034127754446055  0.2360806092306061  0.8407140681122494
  0.2132388758074860  0.4144730528729615  0.6757537521467755
  0.1600448709483620  0.8708020239767749  0.1032482969093656
  0.8963171420070050  0.4862296617860598  0.4239103516684681
  0.4569107777282913  0.9350721757469408  0.9483681735701555
  0.2475821633179134  0.5381719998600408  0.6543980412775279
  0.8049429376639944  0.2142999469969530  0.7295258708589308
  0.5318516658529134  0.0854889279108080  0.6693630128822563
  0.6896269420316686  0.9730400020949631  0.5971144434847999
  0.3453498738252688  0.0004379612374796  0.7002493985959583
  0.8697991543275057  0.3230466075203123  0.8996240407756656
  0.7219631858764108  0.5920899107398186  0.8621676787055504
  0.1408292323219987  0.4623083441081408  0.4633479092003021
  0.6204046839663214  0.1583919881405222  0.1486935098656746
  0.3521543710570356  0.6628833702933355  0.3740012223428996
  0.2340730689967819  0.1760119611016075  0.4505040764686734
  0.8282902121597576  0.2726299716526324  0.6179299317860556
  0.5878964044613266  0.2378247464202443  0.7385396893569379
  0.6331445737194076  0.3805803141568904  0.4961968137490134
  0.9717781041994292  0.8004088035636461  0.9173331716399250
  0.5923702018724699  0.8348611889722515  0.3503951816258657
  0.7052190353559014  0.0833285138835022  0.9349046641377580
  0.1230554818054333  0.5389843099127802  0.8157382332033749
  0.0569997386458452  0.0527600004475477  0.1440816415935194
 -0.0015889746197651  0.1628142305332023  0.9673846135421243
  0.4490737464622584  0.3917124774683122  0.1426437669019980
  0.6898384168236891  0.6170877546184778  0.9867386317456827
  0.6589989387322056  0.6109601912676051  0.6460326932995255
  0.0256371753340430  0.3605103037980001  0.5701438424885615
  0.1364252795943953  0.9341040085180832  0.2831389762323290
  0.8900470263705290  0.9377353100888804  0.8178903496365113
  0.4164761187116650  0.1791328482975311  0.0563555702568664
  0.5884604416919292  0.2371368443447144  0.9547076252058406
  0.9243634730357790  0.6133992861001278  0.4490587028787045
  0.0432431576072682  0.5274265882828651  0.6342389702815204
  0.2522419173013744  0.0940836322545357  0.8258252685116589
  0.4344045275397042  0.9240773343419915  0.4540676919215318
  0.6937753645246972  0.4514202290423071  0.8701104395415133
  0.2918848554621166  0.6192282037000669  0.4788767415279259
  0.8039929381730672  0.0830365836351401  0.1084007063155143
  0.8876933336942991  0.7730331649114723  0.3322007766595492
  0.1037831950452590  0.3015980824269389  0.8946292392931973
  0.5659253568159252  0.2711560136239866  0.1419601376405744
  0.7741029817290033  0.4333095617367904  0.1773407411470424
  0.0371627738101828  0.7707463812490875  0.5199500708289282
  0.9012952411969943  0.9048895491273804  0.0741632289499956
  0.9441350884046403  0.6036211736096809  0.7760781153339751
  0.8191681054597451  0.3075994192991128  0.0124755499121777
  0.3964177898716923  0.8662085292325079  0.2723441250381977
 
  0.00000000E+00  0.00000000E+00  0.00000000E+00
  0.00000000E+00  0.00000000E+00  0.00000000E+00
  0.00000000E+00  0.00000000E+00  0.00000000E+00
  0.00000000E+00  0.00000000E+00  0.00000000E+00
  0.00000000E+00  0.00000000E+00  0.00000000E+00
  0.00000000E+00  0.00000000E+00  0.00000000E+00
  0.00000000E+00  0.00000000E+00  0.00000000E+00
  0.00000000E+00  0.00000000E+00  0.00000000E+00
  0.00000000E+00  0.00000000E+00  0.00000000E+00
  0.00000000E+00  0.00000000E+00  0.00000000E+00
  0.00000000E+00  0.00000000E+00  0.00000000E+00
  0.00000000E+00  0.00000000E+00  0.00000000E+00
  0.00000000E+00  0.00000000E+00  0.00000000E+00
  0.00000000E+00  0.00000000E+00  0.00000000E+00
  0.00000000E+00  0.00000000E+00  0.00000000E+00
  0.00000000E+00  0.00000000E+00  0.00000000E+00
  0.00000000E+00  0.00000000E+00  0.00000000E+00
  0.00000000E+00  0.00000000E+00  0.00000000E+00
  0.00000000E+00  0.00000000E+00  0.00000000E+00
  0.00000000E+00  0.00000000E+00  0.00000000E+00
  0.00000000E+00  0.00000000E+00  0.00000000E+00
  0.00000000E+00  0.00000000E+00  0.00000000E+00
  0.00000000E+00  0.00000000E+00  0.00000000E+00
  0.00000000E+00  0.00000000E+00  0.00000000E+00
  0.00000000E+00  0.00000000E+00  0.00000000E+00
  0.00000000E+00  0.00000000E+00  0.00000000E+00
  0.00000000E+00  0.00000000E+00  0.00000000E+00
  0.00000000E+00  0.00000000E+00  0.00000000E+00
  0.00000000E+00  0.00000000E+00  0.00000000E+00
  0.00000000E+00  0.00000000E+00  0.00000000E+00
  0.00000000E+00  0.00000000E+00  0.00000000E+00
  0.00000000E+00  0.00000000E+00  0.00000000E+00
  0.00000000E+00  0.00000000E+00  0.00000000E+00
  0.00000000E+00  0.00000000E+00  0.00000000E+00
  0.00000000E+00  0.00000000E+00  0.00000000E+00
  0.00000000E+00  0.00000000E+00  0.00000000E+00
  0.00000000E+00  0.00000000E+00  0.00000000E+00
  0.00000000E+00  0.00000000E+00  0.00000000E+00
  0.00000000E+00  0.00000000E+00  0.00000000E+00
  0.00000000E+00  0.00000000E+00  0.00000000E+00
  0.00000000E+00  0.00000000E+00  0.00000000E+00
  0.00000000E+00  0.00000000E+00  0.00000000E+00
  0.00000000E+00  0.00000000E+00  0.00000000E+00
  0.00000000E+00  0.00000000E+00  0.00000000E+00
  0.00000000E+00  0.00000000E+00  0.00000000E+00
  0.00000000E+00  0.00000000E+00  0.00000000E+00
  0.00000000E+00  0.00000000E+00  0.00000000E+00
  0.00000000E+00  0.00000000E+00  0.00000000E+00
  0.00000000E+00  0.00000000E+00  0.00000000E+00
  0.00000000E+00  0.00000000E+00  0.00000000E+00
  0.00000000E+00  0.00000000E+00  0.00000000E+00
  0.00000000E+00  0.00000000E+00  0.00000000E+00
  0.00000000E+00  0.00000000E+00  0.00000000E+00
  0.00000000E+00  0.00000000E+00  0.00000000E+00
  0.00000000E+00  0.00000000E+00  0.00000000E+00
  0.00000000E+00  0.00000000E+00  0.00000000E+00
  0.00000000E+00  0.00000000E+00  0.00000000E+00
  0.00000000E+00  0.00000000E+00  0.00000000E+00
  0.00000000E+00  0.00000000E+00  0.00000000E+00
  0.00000000E+00  0.00000000E+00  0.00000000E+00
  0.00000000E+00  0.00000000E+00  0.00000000E+00
  0.00000000E+00  0.00000000E+00  0.00000000E+00
  0.00000000E+00  0.00000000E+00  0.00000000E+00
  0.00000000E+00  0.00000000E+00  0.00000000E+00
  0.00000000E+00  0.00000000E+00  0.00000000E+00
  0.00000000E+00  0.00000000E+00  0.00000000E+00
  0.00000000E+00  0.00000000E+00  0.00000000E+00
  0.00000000E+00  0.00000000E+00  0.00000000E+00
  0.00000000E+00  0.00000000E+00  0.00000000E+00
  0.00000000E+00  0.00000000E+00  0.00000000E+00
  0.00000000E+00  0.00000000E+00  0.00000000E+00
  0.00000000E+00  0.00000000E+00  0.00000000E+00
  0.00000000E+00  0.00000000E+00  0.00000000E+00
  0.00000000E+00  0.00000000E+00  0.00000000E+00
  0.00000000E+00  0.00000000E+00  0.00000000E+00
  0.00000000E+00  0.00000000E+00  0.00000000E+00
  0.00000000E+00  0.00000000E+00  0.00000000E+00
  0.00000000E+00  0.00000000E+00  0.00000000E+00
  0.00000000E+00  0.00000000E+00  0.00000000E+00
  0.00000000E+00  0.00000000E+00  0.00000000E+00
  0.00000000E+00  0.00000000E+00  0.00000000E+00
  0.00000000E+00  0.00000000E+00  0.00000000E+00
  0.00000000E+00  0.00000000E+00  0.00000000E+00
  0.00000000E+00  0.00000000E+00  0.00000000E+00
  0.00000000E+00  0.00000000E+00  0.00000000E+00
  0.00000000E+00  0.00000000E+00  0.00000000E+00
  0.00000000E+00  0.00000000E+00  0.00000000E+00
  0.00000000E+00  0.00000000E+00  0.00000000E+00
  0.00000000E+00  0.00000000E+00  0.00000000E+00
  0.00000000E+00  0.00000000E+00  0.00000000E+00
  0.00000000E+00  0.00000000E+00  0.00000000E+00
  0.00000000E+00  0.00000000E+00  0.00000000E+00
  0.00000000E+00  0.00000000E+00  0.00000000E+00
  0.00000000E+00  0.00000000E+00  0.00000000E+00
  0.00000000E+00  0.00000000E+00  0.00000000E+00
  0.00000000E+00  0.00000000E+00  0.00000000E+00
  0.00000000E+00  0.00000000E+00  0.00000000E+00
  0.00000000E+00  0.00000000E+00  0.00000000E+00
  0.00000000E+00  0.00000000E+00  0.00000000E+00
  0.00000000E+00  0.00000000E+00  0.00000000E+00
  0.00000000E+00  0.00000000E+00  0.00000000E+00
  0.00000000E+00  0.00000000E+00  0.00000000E+00
  0.00000000E+00  0.00000000E+00  0.00000000E+00
  0.00000000E+00  0.00000000E+00  0.00000000E+00
  0.00000000E+00  0.00000000E+00  0.00000000E+00
  0.00000000E+00  0.00000000E+00  0.00000000E+00
  0.00000000E+00  0.00000000E+00  0.00000000E+00
  0.00000000E+00  0.00000000E+00  0.00000000E+00
  0.00000000E+00  0.00000000E+00  0.00000000E+00
  0.00000000E+00  0.00000000E+00  0.00000000E+00
  0.00000000E+00  0.00000000E+00  0.00000000E+00
  0.00000000E+00  0.00000000E+00  0.00000000E+00
  0.00000000E+00  0.00000000E+00  0.00000000E+00
  0.00000000E+00  0.00000000E+00  0.00000000E+00
  0.00000000E+00  0.00000000E+00  0.00000000E+00
  0.00000000E+00  0.00000000E+00  0.00000000E+00
  0.00000000E+00  0.00000000E+00  0.00000000E+00
  0.00000000E+00  0.00000000E+00  0.00000000E+00
  0.00000000E+00  0.00000000E+00  0.00000000E+00
  0.00000000E+00  0.00000000E+00  0.00000000E+00
  0.00000000E+00  0.00000000E+00  0.00000000E+00
  0.00000000E+00  0.00000000E+00  0.00000000E+00
  0.00000000E+00  0.00000000E+00  0.00000000E+00
  0.00000000E+00  0.00000000E+00  0.00000000E+00
  0.00000000E+00  0.00000000E+00  0.00000000E+00
  0.00000000E+00  0.00000000E+00  0.00000000E+00
  0.00000000E+00  0.00000000E+00  0.00000000E+00
  0.00000000E+00  0.00000000E+00  0.00000000E+00
  0.00000000E+00  0.00000000E+00  0.00000000E+00
  0.00000000E+00  0.00000000E+00  0.00000000E+00
  0.00000000E+00  0.00000000E+00  0.00000000E+00
  0.00000000E+00  0.00000000E+00  0.00000000E+00
  0.00000000E+00  0.00000000E+00  0.00000000E+00
  0.00000000E+00  0.00000000E+00  0.00000000E+00
  0.00000000E+00  0.00000000E+00  0.00000000E+00
  0.00000000E+00  0.00000000E+00  0.00000000E+00
  0.00000000E+00  0.00000000E+00  0.00000000E+00
  0.00000000E+00  0.00000000E+00  0.00000000E+00
  0.00000000E+00  0.00000000E+00  0.00000000E+00
  0.00000000E+00  0.00000000E+00  0.00000000E+00
  0.00000000E+00  0.00000000E+00  0.00000000E+00
  0.00000000E+00  0.00000000E+00  0.00000000E+00
  0.00000000E+00  0.00000000E+00  0.00000000E+00
  0.00000000E+00  0.00000000E+00  0.00000000E+00
  0.00000000E+00  0.00000000E+00  0.00000000E+00
  0.00000000E+00  0.00000000E+00  0.00000000E+00
  0.00000000E+00  0.00000000E+00  0.00000000E+00
  0.00000000E+00  0.00000000E+00  0.00000000E+00
  0.00000000E+00  0.00000000E+00  0.00000000E+00
  0.00000000E+00  0.00000000E+00  0.00000000E+00
  0.00000000E+00  0.00000000E+00  0.00000000E+00
  0.00000000E+00  0.00000000E+00  0.00000000E+00
  0.00000000E+00  0.00000000E+00  0.00000000E+00
  0.00000000E+00  0.00000000E+00  0.00000000E+00
  0.00000000E+00  0.00000000E+00  0.00000000E+00
  0.00000000E+00  0.00000000E+00  0.00000000E+00
  0.00000000E+00  0.00000000E+00  0.00000000E+00
  0.00000000E+00  0.00000000E+00  0.00000000E+00
  0.00000000E+00  0.00000000E+00  0.00000000E+00
  0.00000000E+00  0.00000000E+00  0.00000000E+00
  0.00000000E+00  0.00000000E+00  0.00000000E+00
  0.00000000E+00  0.00000000E+00  0.00000000E+00
  0.00000000E+00  0.00000000E+00  0.00000000E+00
  0.00000000E+00  0.00000000E+00  0.00000000E+00
  0.00000000E+00  0.00000000E+00  0.00000000E+00
  0.00000000E+00  0.00000000E+00  0.00000000E+00
  0.00000000E+00  0.00000000E+00  0.00000000E+00
  0.00000000E+00  0.00000000E+00  0.00000000E+00
  0.00000000E+00  0.00000000E+00  0.00000000E+00
  0.00000000E+00  0.00000000E+00  0.00000000E+00
  0.00000000E+00  0.00000000E+00  0.00000000E+00
  0.00000000E+00  0.00000000E+00  0.00000000E+00
  0.00000000E+00  0.00000000E+00  0.00000000E+00
  0.00000000E+00  0.00000000E+00  0.00000000E+00
  0.00000000E+00  0.00000000E+00  0.00000000E+00
  0.00000000E+00  0.00000000E+00  0.00000000E+00
  0.00000000E+00  0.00000000E+00  0.00000000E+00
  0.00000000E+00  0.00000000E+00  0.00000000E+00
  0.00000000E+00  0.00000000E+00  0.00000000E+00
  0.00000000E+00  0.00000000E+00  0.00000000E+00
  0.00000000E+00  0.00000000E+00  0.00000000E+00
  0.00000000E+00  0.00000000E+00  0.00000000E+00
  0.00000000E+00  0.00000000E+00  0.00000000E+00
  0.00000000E+00  0.00000000E+00  0.00000000E+00
  0.00000000E+00  0.00000000E+00  0.00000000E+00
  0.00000000E+00  0.00000000E+00  0.00000000E+00
  0.00000000E+00  0.00000000E+00  0.00000000E+00
  0.00000000E+00  0.00000000E+00  0.00000000E+00
  0.00000000E+00  0.00000000E+00  0.00000000E+00
  0.00000000E+00  0.00000000E+00  0.00000000E+00
  0.00000000E+00  0.00000000E+00  0.00000000E+00
  0.00000000E+00  0.00000000E+00  0.00000000E+00
  0.00000000E+00  0.00000000E+00  0.00000000E+00
  0.00000000E+00  0.00000000E+00  0.00000000E+00
  0.00000000E+00  0.00000000E+00  0.00000000E+00
  0.00000000E+00  0.00000000E+00  0.00000000E+00
  0.00000000E+00  0.00000000E+00  0.00000000E+00
  0.00000000E+00  0.00000000E+00  0.00000000E+00
  0.00000000E+00  0.00000000E+00  0.00000000E+00
  0.00000000E+00  0.00000000E+00  0.00000000E+00
  0.00000000E+00  0.00000000E+00  0.00000000E+00
  0.00000000E+00  0.00000000E+00  0.00000000E+00
  0.00000000E+00  0.00000000E+00  0.00000000E+00
  0.00000000E+00  0.00000000E+00  0.00000000E+00
  0.00000000E+00  0.00000000E+00  0.00000000E+00
  0.00000000E+00  0.00000000E+00  0.00000000E+00
  0.00000000E+00  0.00000000E+00  0.00000000E+00
  0.00000000E+00  0.00000000E+00  0.00000000E+00
  0.00000000E+00  0.00000000E+00  0.00000000E+00
  0.00000000E+00  0.00000000E+00  0.00000000E+00
  0.00000000E+00  0.00000000E+00  0.00000000E+00
  0.00000000E+00  0.00000000E+00  0.00000000E+00
  0.00000000E+00  0.00000000E+00  0.00000000E+00
  0.00000000E+00  0.00000000E+00  0.00000000E+00
  0.00000000E+00  0.00000000E+00  0.00000000E+00
  0.00000000E+00  0.00000000E+00  0.00000000E+00
  0.00000000E+00  0.00000000E+00  0.00000000E+00
  0.00000000E+00  0.00000000E+00  0.00000000E+00
  0.00000000E+00  0.00000000E+00  0.00000000E+00
  0.00000000E+00  0.00000000E+00  0.00000000E+00
  0.00000000E+00  0.00000000E+00  0.00000000E+00
  0.00000000E+00  0.00000000E+00  0.00000000E+00
  0.00000000E+00  0.00000000E+00  0.00000000E+00
  0.00000000E+00  0.00000000E+00  0.00000000E+00
  0.00000000E+00  0.00000000E+00  0.00000000E+00
  0.00000000E+00  0.00000000E+00  0.00000000E+00
  0.00000000E+00  0.00000000E+00  0.00000000E+00
  0.00000000E+00  0.00000000E+00  0.00000000E+00
  0.00000000E+00  0.00000000E+00  0.00000000E+00
  0.00000000E+00  0.00000000E+00  0.00000000E+00
  0.00000000E+00  0.00000000E+00  0.00000000E+00
  0.00000000E+00  0.00000000E+00  0.00000000E+00