Bond                                    
   1.00000000000000     
     6.0745760624344936    0.0000000000000000    0.0000000000000000
    -0.0000000000000000    3.3271091972146163    0.0000000000000000
    -0.0000000000000000   -0.0000000000000000    3.3271091972146163
   Y    Sb
     1     1
Direct
  0.2500000000000000  0.5000000000000000  0.5000000000000000
  0.7500000000000000  0.5000000000000000  0.5000000000000000
 
  0.00000000E+00  0.00000000E+00  0.00000000E+00
  0.00000000E+00  0.00000000E+00  0.00000000E+00
