Sb                                      
   1.00000000000000     
    18.8327124033410804    0.0000000000000000    0.0000000000000000
     0.0000000000000000   18.8327124033410804    0.0000000000000000
     0.0000000000000000    0.0000000000000000   18.8327124033410804
   Sb   Si
   205    11
Selective dynamics
Direct
  0.9194726719285500  0.0943841430637245  0.6666768051294976   T   T   T
  0.4119720544489368  0.7483566321748162  0.3416248417174750   T   T   T
  0.9206574812659919  0.0937257569980621 -0.0015295399252284   T   T   T
  0.2559500717576843  0.4293808396212871  0.0023958266973323   T   T   T
  0.7437297526427463  0.0863165086829226  0.0091875735972107   T   T   T
  0.0801742664269826  0.7409846134188864  0.0183116476101767   T   T   T
  0.9194878904934605  0.2617723991856567  0.5003824518830664   T   T   T
  0.7455544038732612  0.4190988813017985  0.6754893750026972   T   T   T
  0.4105026105645144  0.9168585701628523  0.1746552627572364   T   T   T
  0.0842079618446505  0.2642502576038583  0.0008793397251596   T   T   T
  0.2529633099584491  0.9255779499715877  0.1633172902519499   T   T   T
  0.4182111612420066  0.2517793449413287  0.5248788126552874   T   T   T
  0.7464724166322371  0.9174990364035871  0.1754546818735485   T   T   T
  0.4096101729265116  0.7502248101285338  0.0063853861507778   T   T   T
  0.0788564112042551  0.4048454587210703  0.3418172169839127   T   T   T
  0.7528157124535895  0.4267865867112727  0.1624040810603342   T   T   T
  0.0770995683683433  0.0859447944245873  0.6762660742143379   T   T   T
  0.0872255327884239  0.0928198184968200  0.1666103564841691   T   T   T
  0.7510904900300910  0.2619306958883007  0.6699760023826485   T   T   T
  0.0780868724998538  0.0814993256001433  0.0078887944668087   T   T   T
  0.7535880291584701  0.1074821669426341  0.8342063778356773   T   T   T
  0.5863548041281285  0.0979284644281926  0.6674341047596697   T   T   T
  0.7567961549603135  0.2605139024060529  0.3324840670278199   T   T   T
  0.5882690836312484  0.7622680171566952  0.3370111746529886   T   T   T
  0.7504110186410143  0.2621971347937945 -0.0137348405006969   T   T   T
  0.4142315969410082  0.4179408563167051  0.0126074673725414   T   T   T
  0.5770271606190577  0.5729275719880603  0.0037066143321961   T   T   T
  0.7550378353831035  0.9287162295782960  0.3337237158200321   T   T   T
  0.9109621285528364  0.4178370209108637  0.8419857482626762   T   T   T
  0.5903134208382718  0.7602081257631144  0.6517911022703874   T   T   T
  0.9129603852901694  0.5843919364899295  0.3436669802651096   T   T   T
  0.2424765137304288  0.2525427731895454  0.0105728807950874   T   T   T
  0.7478391242352704  0.7532635774055551  0.6745708032452908   T   T   T
  0.2480947696114059  0.2530193184906748  0.6763487412342328   T   T   T
  0.9218605306263619  0.2600963219831091  0.1665441236103385   T   T   T
  0.5869034869657533  0.5942769580653838  0.1600835752703031   T   T   T
  0.2447759774307554  0.9181191295854608  0.6751493935597279   T   T   T
  0.7456267978725004  0.5821642059762752  0.8401516218388888   T   T   T
  0.9155493192570788  0.5847548155753500  0.0092244095103040   T   T   T
  0.4140087421924778  0.9151953589832124  0.5092299875638129   T   T   T
  0.0862825341884381  0.4308273076434154  0.1672587630989373   T   T   T
  0.0898215209776691  0.2619372600594282  0.6644879125673184   T   T   T
  0.0798128378218312  0.5896520062652497  0.8563786457557828   T   T   T
  0.0870212562875632  0.5917897614253912  0.3304874778387285   T   T   T
  0.2451647038791347  0.4204474462390350  0.8453060907377855   T   T   T
  0.7457840754513063  0.4181833670483704  0.3400129650375951   T   T   T
  0.9234468838965915  0.9256842807031563  0.1645940543852588   T   T   T
  0.7440654537143129  0.0872357510643023  0.6785008002375963   T   T   T
  0.7461334024107329  0.7498482162733533  0.0074567607942780   T   T   T
  0.7313514910856371  0.4182397831481398  0.0059071483494628   T   T   T
  0.0863228316908111  0.5972962191807375  0.6699496953865135   T   T   T
  0.9212009786283691  0.5944401287014672  0.1664667150851203   T   T   T
  0.4107309774965306  0.0850675696364830  0.0104249221617137   T   T   T
  0.7557396443389016  0.7635270928369198  0.8328824494842599   T   T   T
  0.9345055676823241  0.9251226950781095  0.8320620265581340   T   T   T
  0.5783413623443818  0.9154692700614229  0.0068418171335892   T   T   T
  0.7473144164379890  0.9206998680835384  0.8415798845534618   T   T   T
  0.2324456909730165  0.5857471342283099  0.0087425115896443   T   T   T
  0.9223170133595961  0.7600600541175629  0.3349257492425943   T   T   T
  0.4090568521184014  0.5844369405007060  0.1727476478651771   T   T   T
  0.0797882392468688  0.9051638634814976  0.1716447473280267   T   T   T
  0.2438215692737751  0.9169597147016142  0.3406166220636705   T   T   T
  0.2436305042085388  0.4186499505772444  0.1773778152596130   T   T   T
  0.2557433606048454  0.9258766951746757  0.4984156838459446   T   T   T
  0.9237753708637017  0.7589215919522894 -0.0033705972453383   T   T   T
  0.2528619316531087  0.0946234844244198  0.3332679869391744   T   T   T
  0.5747854860313899  0.7523983148145905  0.8378229055807103   T   T   T
  0.7534736577563836  0.4284291072074434  0.4975928156627023   T   T   T
  0.9152366923071173  0.2514451852585400  0.3427226041846632   T   T   T
  0.0796877772171053  0.9176234732057619  0.5109043691146424   T   T   T
  0.0776434475729433  0.0869690410962197  0.3411247345667098   T   T   T
  0.2545548165648468  0.2629873162071251  0.8346028679537836   T   T   T
  0.9139763335835979  0.9064212974892507  0.6768341243088108   T   T   T
  0.2449588308064118  0.0845780888645143  0.5096000424654996   T   T   T
  0.7445540850935903  0.5862131264784564  0.5066256054272090   T   T   T
  0.4121651328895706  0.2529014087692264  0.8390828528702007   T   T   T
  0.4205711291141741  0.0955870935624236  0.8339303145655353   T   T   T
  0.4100246866191301  0.0835032109746008  0.3448324708415805   T   T   T
  0.4193336152282085  0.7597543796341857  0.1647289919875252   T   T   T
  0.2439771573694321  0.0832376672553234  0.1757679456842333   T   T   T
  0.0749867143928084  0.2504184777958800  0.8436747901796811   T   T   T
  0.2436683351623148  0.5870530804836047  0.6795259810257488   T   T   T
  0.4089310588253333  0.5864544896775389  0.8421778530302373   T   T   T
  0.4205900167172207  0.4268223844520543  0.1689673272673891   T   T   T
  0.4200285275910937  0.9271433370660707 -0.0021576960017187   T   T   T
  0.9088130367761190  0.2517575297310665  0.0080719671649198   T   T   T
  0.9181412302474543  0.7513808847397392  0.1772632458689945   T   T   T
  0.9127824523963636  0.9176230698825842  0.3436490113761844   T   T   T
  0.4068800489807871  0.9189155407374598  0.8402072057592620   T   T   T
  0.5785027029684918  0.0858379483094387  0.5101896197035888   T   T   T
  0.2428469886264293  0.9158859096660759  0.0055546292285279   T   T   T
  0.2329772158046054  0.2512635521238247  0.3442705371869091   T   T   T
  0.0863807611563992  0.9244011601541532  0.9874369667611916   T   T   T
  0.0755938110441415  0.4236538560217666  0.0098803732908901   T   T   T
  0.4116038481704973  0.0910012547228996  0.6770736828718482   T   T   T
  0.2534312947821379  0.4255126787710833  0.3357440538965459   T   T   T
  0.5784858367850360  0.0869977966030416  0.8438286017843452   T   T   T
  0.2537307597953466  0.5938328102166910  0.5007577518661335   T   T   T
  0.4206532911345414  0.5928009160953923 -0.0019741537173757   T   T   T
  0.7572805500842636  0.5925904802968279 -0.0024910702431348   T   T   T
  0.2543798428128259  0.4288626929278312  0.6707067358319674   T   T   T
  0.2463445718776659  0.7514983184888834  0.5112262164880013   T   T   T
  0.0797063497270681  0.2499329709940655  0.1874582222303607   T   T   T
  0.9105034558088321  0.7542791689086169  0.5220184024851711   T   T   T
  0.2529084227679525  0.0944111320526193 -0.0006661112540037   T   T   T
  0.7458112414475780  0.2519458510195711  0.1754000017723247   T   T   T
  0.0864397916693598  0.0909824765966150  0.8338753417493234   T   T   T
  0.7548228643462804  0.9286238694095241 -0.0009309678774614   T   T   T
  0.5767007084874595  0.7522094219966723  0.1760806919069474   T   T   T
  0.2323196779376011  0.7520443635969754  0.1722771320168211   T   T   T
  0.5971248157385650  0.2619521848655159  0.8309536966176242   T   T   T
  0.9221270899078691  0.9276810663918118  0.5010395745129154   T   T   T
  0.0896617347266731  0.7595081553925488  0.4983269091583798   T   T   T
  0.9211610515273001  0.5976229742311142  0.5016551357307275   T   T   T
  0.2533602044442720  0.2608716851603614  0.1689522400790609   T   T   T
  0.0678297516841755  0.7549463581448316  0.6793452592377225   T   T   T
  0.2533278550444076  0.7609318812189826  0.6699491382415264   T   T   T
  0.5902145470316269  0.9281055343211322  0.8323186357477701   T   T   T
  0.2484576852778324  0.9233978180947927  0.8317371454286970   T   T   T
  0.5867031798864645  0.7581996432654928 -0.0042588600627533   T   T   T
  0.0872073286170073  0.0937178982299755  0.4991423927842984   T   T   T
  0.5774748696601110  0.2574591871455031  0.0109402179382709   T   T   T
  0.4207550193153923  0.2556666712019852  0.3405802889756775   T   T   T
  0.7453588956631714  0.9199918401915073  0.5100296436653472   T   T   T
  0.4346103033261884  0.7570959174303578  0.4993089975395971   T   T   T
  0.7522534979215112  0.7625618916321000  0.5006356460573474   T   T   T
  0.7586896588329856  0.7601069632840709  0.1656284811205521   T   T   T
  0.7461756419611708  0.7519621121027957  0.3422389177661622   T   T   T
  0.5789411457230774  0.9179878862983123  0.6737038862968702   T   T   T
  0.9226357265719597  0.4264752275863004  0.3331147565387667   T   T   T
  0.9087047783302619  0.2513354282549076  0.6744035204778500   T   T   T
  0.2592152869382927  0.2596475617060948  0.5016295359799315   T   T   T
  0.9128756116492956  0.9163014053615773  0.0075921062600182   T   T   T
  0.5671422199228201  0.2559128709428554  0.6734488785813101   T   T   T
  0.7440527104748268  0.0868119849381427  0.3442227380666332   T   T   T
  0.7537634695296851  0.4236376673412522  0.8322206063471743   T   T   T
  0.2436856028169717  0.0815861323578047  0.8423043561758378   T   T   T
  0.9108106403817771  0.4172461997753308  0.1752413505623429   T   T   T
  0.2543885732147558  0.0954839399421789  0.6672933380200478   T   T   T
  0.5864273162138469  0.0987729062322634  0.0015527013156799   T   T   T
  0.4120088908895864  0.2514175479382487  0.1819263086565186   T   T   T
  0.4208569309061750  0.0940788102638526  0.1681920039519040   T   T   T
  0.9137782839992856  0.7527257328168597  0.8378501062742921   T   T   T
  0.7549855480095484  0.5961782415518312  0.6650762926093594   T   T   T
  0.9098107525142785  0.0858467488090905  0.5096683384815638   T   T   T
  0.4196926935669656  0.2609778638481253 -0.0016102851119314   T   T   T
  0.0781981097260361  0.4202949339249648  0.6773412643190792   T   T   T
  0.9109223273213380  0.4200256099920283  0.5093986254207991   T   T   T
  0.9209436744991918  0.0940439819533368  0.3328642163689026   T   T   T
  0.5782544152956076  0.0855100277957309  0.1778735095350627   T   T   T
  0.5874587589666234  0.2610472483458008  0.1684500707607570   T   T   T
  0.5872513065654154  0.0986788342702005  0.3368157184648136   T   T   T
  0.9228015529801936  0.5959357343691560  0.8340819159420215   T   T   T
  0.5770458129744424  0.2559411311474025  0.3588687758147813   T   T   T
  0.0776544104782801  0.5889960253934551  0.1717211687674037   T   T   T
  0.7440960992531365  0.5844427176046008  0.1724601549893491   T   T   T
  0.0873902911077742  0.4264950655980581  0.4993938385032308   T   T   T
  0.5777199624523166  0.4183625767525478  0.1715820774989012   T   T   T
  0.4217960436950920  0.9318619204130238  0.6666239654974697   T   T   T
  0.0779729211383198  0.5859673337847137  0.5121095602758748   T   T   T
  0.9124112115677703  0.5909346652465726  0.6769146997485501   T   T   T
  0.4221319584028559  0.4287408049183574  0.8396721654939083   T   T   T
  0.9121907022760563  0.0831660096780902  0.1753873156371275   T   T   T
  0.5782262306869245  0.9195017681946239  0.3425189171672324   T   T   T
  0.7551927228694447  0.5944101964130345  0.3310613633570662   T   T   T
  0.0878411588938074  0.4323696949699613  0.8360722616800818   T   T   T
  0.5873631534282507  0.5944589226910629  0.8290912786527277   T   T   T
  0.9106584929550325  0.0830803532761133  0.8416363167597404   T   T   T
  0.5879702508156339  0.9279255263416201  0.5003338238557187   T   T   T
  0.4101858131095607  0.7502284950395626  0.6726980241598214   T   T   T
  0.2441235108266728  0.5830461317136317  0.3433082758500795   T   T   T
  0.2445742869005455  0.4169411940419983  0.5122546350412606   T   T   T
  0.4206619878521743  0.9259001441374167  0.3326611624515700   T   T   T
  0.0959118951516699  0.7712116291745998  0.8346209579924142   T   T   T
  0.0865674638362492  0.9277423661727098  0.3286238007334893   T   T   T
  0.0769974704444679  0.2520701623607577  0.5050708547589455   T   T   T
  0.0876910270525540  0.9276239122757725  0.6698804924069166   T   T   T
  0.7572072654681878  0.9287291988494012  0.6680412461822550   T   T   T
  0.4218202792629738  0.0945686786713706  0.5024436235163814   T   T   T
  0.7546517315334170  0.0945054046420702  0.1661850935189630   T   T   T
  0.2516777747670942  0.7595220227393686  0.9860383200370273   T   T   T
  0.5795674859516660  0.4178162145093831  0.8540552866505285   T   T   T
  0.2514510778269840  0.5959214615148806  0.1644625182304134   T   T   T
  0.0798551258501289  0.7484326347869285  0.3386787353067298   T   T   T
  0.9160742039282885  0.2601087944144267  0.8322980528051868   T   T   T
  0.7304751264811139  0.2559009511566004  0.5124541603597802   T   T   T
  0.9191993009096017  0.4275642588519813 -0.0003377216635571   T   T   T
  0.5885858089099814  0.9269186464105533  0.1654984511690953   T   T   T
  0.2529180973962418  0.7594550975367211  0.3294155860142450   T   T   T
  0.9212277712462195  0.4327648086716533  0.6666802350786892   T   T   T
  0.2512509735449099  0.6088140400960622  0.8350829229587619   T   T   T
  0.7520082236279634  0.0987991866943245  0.5014536027793297   T   T   T
  0.4151751947147624  0.7618973158527244  0.8303597123486154   T   T   T
  0.4098299700000000  0.4105500000000000  0.3493199900000000   F   F   F
  0.4210000000000000  0.5906100300000000  0.3288600100000000   F   F   F
  0.5893000400000000  0.4294100100000000  0.3294600000000000   F   F   F
  0.4098299700000000  0.5795900200000000  0.5097299800000000   F   F   F
  0.5778700100000000  0.5859400000000000  0.3337799900000000   F   F   F
  0.4100900300000000  0.4120700100000000  0.6862800100000001   F   F   F
  0.4212600000000000  0.4230700100000000  0.5054100200000000   F   F   F
  0.5893000400000000  0.5984500000000000  0.4898800000000000   F   F   F
  0.5781300100000000  0.5874400100000000  0.6707500199999999   F   F   F
  0.4212600000000000  0.5921099800000000  0.6658300200000000   F   F   F
  0.5895600300000000  0.4309099900000000  0.6664199800000000   F   F   F
  0.5781300100000000  0.4183900100000000  0.5103300200000001   F   F   F
  0.2416582996887562  0.7544329239472169  0.8405958686149948   T   T   T
  0.0802279533477415  0.9161888976745740  0.8420915335862992   T   T   T
  0.4215921228271969  0.2646734152403765  0.6714532233921369   T   T   T
  0.0867992515719045  0.7588444246462146  0.1637295269043819   T   T   T
  0.7428150349210220  0.2533409085957746  0.8405472898406356   T   T   T
  0.0872017773021588  0.5956118762439343  0.0024593052876341   T   T   T
  0.5861216891568065  0.4270132062045431 -0.0010453044601657   T   T   T
  0.9217336812930282  0.7613747135857124  0.6684328254952475   T   T   T
  0.5806650367901010  0.7454531234345740  0.5047869429436892   T   T   T
  0.5848435841108628  0.2706157745317746  0.5052652198613686   T   T   T
  0.0871494591653545  0.2586768769422648  0.3342878211909207   T   T   T
 
  0.00000000E+00  0.00000000E+00  0.00000000E+00
  0.00000000E+00  0.00000000E+00  0.00000000E+00
  0.00000000E+00  0.00000000E+00  0.00000000E+00
  0.00000000E+00  0.00000000E+00  0.00000000E+00
  0.00000000E+00  0.00000000E+00  0.00000000E+00
  0.00000000E+00  0.00000000E+00  0.00000000E+00
  0.00000000E+00  0.00000000E+00  0.00000000E+00
  0.00000000E+00  0.00000000E+00  0.00000000E+00
  0.00000000E+00  0.00000000E+00  0.00000000E+00
  0.00000000E+00  0.00000000E+00  0.00000000E+00
  0.00000000E+00  0.00000000E+00  0.00000000E+00
  0.00000000E+00  0.00000000E+00  0.00000000E+00
  0.00000000E+00  0.00000000E+00  0.00000000E+00
  0.00000000E+00  0.00000000E+00  0.00000000E+00
  0.00000000E+00  0.00000000E+00  0.00000000E+00
  0.00000000E+00  0.00000000E+00  0.00000000E+00
  0.00000000E+00  0.00000000E+00  0.00000000E+00
  0.00000000E+00  0.00000000E+00  0.00000000E+00
  0.00000000E+00  0.00000000E+00  0.00000000E+00
  0.00000000E+00  0.00000000E+00  0.00000000E+00
  0.00000000E+00  0.00000000E+00  0.00000000E+00
  0.00000000E+00  0.00000000E+00  0.00000000E+00
  0.00000000E+00  0.00000000E+00  0.00000000E+00
  0.00000000E+00  0.00000000E+00  0.00000000E+00
  0.00000000E+00  0.00000000E+00  0.00000000E+00
  0.00000000E+00  0.00000000E+00  0.00000000E+00
  0.00000000E+00  0.00000000E+00  0.00000000E+00
  0.00000000E+00  0.00000000E+00  0.00000000E+00
  0.00000000E+00  0.00000000E+00  0.00000000E+00
  0.00000000E+00  0.00000000E+00  0.00000000E+00
  0.00000000E+00  0.00000000E+00  0.00000000E+00
  0.00000000E+00  0.00000000E+00  0.00000000E+00
  0.00000000E+00  0.00000000E+00  0.00000000E+00
  0.00000000E+00  0.00000000E+00  0.00000000E+00
  0.00000000E+00  0.00000000E+00  0.00000000E+00
  0.00000000E+00  0.00000000E+00  0.00000000E+00
  0.00000000E+00  0.00000000E+00  0.00000000E+00
  0.00000000E+00  0.00000000E+00  0.00000000E+00
  0.00000000E+00  0.00000000E+00  0.00000000E+00
  0.00000000E+00  0.00000000E+00  0.00000000E+00
  0.00000000E+00  0.00000000E+00  0.00000000E+00
  0.00000000E+00  0.00000000E+00  0.00000000E+00
  0.00000000E+00  0.00000000E+00  0.00000000E+00
  0.00000000E+00  0.00000000E+00  0.00000000E+00
  0.00000000E+00  0.00000000E+00  0.00000000E+00
  0.00000000E+00  0.00000000E+00  0.00000000E+00
  0.00000000E+00  0.00000000E+00  0.00000000E+00
  0.00000000E+00  0.00000000E+00  0.00000000E+00
  0.00000000E+00  0.00000000E+00  0.00000000E+00
  0.00000000E+00  0.00000000E+00  0.00000000E+00
  0.00000000E+00  0.00000000E+00  0.00000000E+00
  0.00000000E+00  0.00000000E+00  0.00000000E+00
  0.00000000E+00  0.00000000E+00  0.00000000E+00
  0.00000000E+00  0.00000000E+00  0.00000000E+00
  0.00000000E+00  0.00000000E+00  0.00000000E+00
  0.00000000E+00  0.00000000E+00  0.00000000E+00
  0.00000000E+00  0.00000000E+00  0.00000000E+00
  0.00000000E+00  0.00000000E+00  0.00000000E+00
  0.00000000E+00  0.00000000E+00  0.00000000E+00
  0.00000000E+00  0.00000000E+00  0.00000000E+00
  0.00000000E+00  0.00000000E+00  0.00000000E+00
  0.00000000E+00  0.00000000E+00  0.00000000E+00
  0.00000000E+00  0.00000000E+00  0.00000000E+00
  0.00000000E+00  0.00000000E+00  0.00000000E+00
  0.00000000E+00  0.00000000E+00  0.00000000E+00
  0.00000000E+00  0.00000000E+00  0.00000000E+00
  0.00000000E+00  0.00000000E+00  0.00000000E+00
  0.00000000E+00  0.00000000E+00  0.00000000E+00
  0.00000000E+00  0.00000000E+00  0.00000000E+00
  0.00000000E+00  0.00000000E+00  0.00000000E+00
  0.00000000E+00  0.00000000E+00  0.00000000E+00
  0.00000000E+00  0.00000000E+00  0.00000000E+00
  0.00000000E+00  0.00000000E+00  0.00000000E+00
  0.00000000E+00  0.00000000E+00  0.00000000E+00
  0.00000000E+00  0.00000000E+00  0.00000000E+00
  0.00000000E+00  0.00000000E+00  0.00000000E+00
  0.00000000E+00  0.00000000E+00  0.00000000E+00
  0.00000000E+00  0.00000000E+00  0.00000000E+00
  0.00000000E+00  0.00000000E+00  0.00000000E+00
  0.00000000E+00  0.00000000E+00  0.00000000E+00
  0.00000000E+00  0.00000000E+00  0.00000000E+00
  0.00000000E+00  0.00000000E+00  0.00000000E+00
  0.00000000E+00  0.00000000E+00  0.00000000E+00
  0.00000000E+00  0.00000000E+00  0.00000000E+00
  0.00000000E+00  0.00000000E+00  0.00000000E+00
  0.00000000E+00  0.00000000E+00  0.00000000E+00
  0.00000000E+00  0.00000000E+00  0.00000000E+00
  0.00000000E+00  0.00000000E+00  0.00000000E+00
  0.00000000E+00  0.00000000E+00  0.00000000E+00
  0.00000000E+00  0.00000000E+00  0.00000000E+00
  0.00000000E+00  0.00000000E+00  0.00000000E+00
  0.00000000E+00  0.00000000E+00  0.00000000E+00
  0.00000000E+00  0.00000000E+00  0.00000000E+00
  0.00000000E+00  0.00000000E+00  0.00000000E+00
  0.00000000E+00  0.00000000E+00  0.00000000E+00
  0.00000000E+00  0.00000000E+00  0.00000000E+00
  0.00000000E+00  0.00000000E+00  0.00000000E+00
  0.00000000E+00  0.00000000E+00  0.00000000E+00
  0.00000000E+00  0.00000000E+00  0.00000000E+00
  0.00000000E+00  0.00000000E+00  0.00000000E+00
  0.00000000E+00  0.00000000E+00  0.00000000E+00
  0.00000000E+00  0.00000000E+00  0.00000000E+00
  0.00000000E+00  0.00000000E+00  0.00000000E+00
  0.00000000E+00  0.00000000E+00  0.00000000E+00
  0.00000000E+00  0.00000000E+00  0.00000000E+00
  0.00000000E+00  0.00000000E+00  0.00000000E+00
  0.00000000E+00  0.00000000E+00  0.00000000E+00
  0.00000000E+00  0.00000000E+00  0.00000000E+00
  0.00000000E+00  0.00000000E+00  0.00000000E+00
  0.00000000E+00  0.00000000E+00  0.00000000E+00
  0.00000000E+00  0.00000000E+00  0.00000000E+00
  0.00000000E+00  0.00000000E+00  0.00000000E+00
  0.00000000E+00  0.00000000E+00  0.00000000E+00
  0.00000000E+00  0.00000000E+00  0.00000000E+00
  0.00000000E+00  0.00000000E+00  0.00000000E+00
  0.00000000E+00  0.00000000E+00  0.00000000E+00
  0.00000000E+00  0.00000000E+00  0.00000000E+00
  0.00000000E+00  0.00000000E+00  0.00000000E+00
  0.00000000E+00  0.00000000E+00  0.00000000E+00
  0.00000000E+00  0.00000000E+00  0.00000000E+00
  0.00000000E+00  0.00000000E+00  0.00000000E+00
  0.00000000E+00  0.00000000E+00  0.00000000E+00
  0.00000000E+00  0.00000000E+00  0.00000000E+00
  0.00000000E+00  0.00000000E+00  0.00000000E+00
  0.00000000E+00  0.00000000E+00  0.00000000E+00
  0.00000000E+00  0.00000000E+00  0.00000000E+00
  0.00000000E+00  0.00000000E+00  0.00000000E+00
  0.00000000E+00  0.00000000E+00  0.00000000E+00
  0.00000000E+00  0.00000000E+00  0.00000000E+00
  0.00000000E+00  0.00000000E+00  0.00000000E+00
  0.00000000E+00  0.00000000E+00  0.00000000E+00
  0.00000000E+00  0.00000000E+00  0.00000000E+00
  0.00000000E+00  0.00000000E+00  0.00000000E+00
  0.00000000E+00  0.00000000E+00  0.00000000E+00
  0.00000000E+00  0.00000000E+00  0.00000000E+00
  0.00000000E+00  0.00000000E+00  0.00000000E+00
  0.00000000E+00  0.00000000E+00  0.00000000E+00
  0.00000000E+00  0.00000000E+00  0.00000000E+00
  0.00000000E+00  0.00000000E+00  0.00000000E+00
  0.00000000E+00  0.00000000E+00  0.00000000E+00
  0.00000000E+00  0.00000000E+00  0.00000000E+00
  0.00000000E+00  0.00000000E+00  0.00000000E+00
  0.00000000E+00  0.00000000E+00  0.00000000E+00
  0.00000000E+00  0.00000000E+00  0.00000000E+00
  0.00000000E+00  0.00000000E+00  0.00000000E+00
  0.00000000E+00  0.00000000E+00  0.00000000E+00
  0.00000000E+00  0.00000000E+00  0.00000000E+00
  0.00000000E+00  0.00000000E+00  0.00000000E+00
  0.00000000E+00  0.00000000E+00  0.00000000E+00
  0.00000000E+00  0.00000000E+00  0.00000000E+00
  0.00000000E+00  0.00000000E+00  0.00000000E+00
  0.00000000E+00  0.00000000E+00  0.00000000E+00
  0.00000000E+00  0.00000000E+00  0.00000000E+00
  0.00000000E+00  0.00000000E+00  0.00000000E+00
  0.00000000E+00  0.00000000E+00  0.00000000E+00
  0.00000000E+00  0.00000000E+00  0.00000000E+00
  0.00000000E+00  0.00000000E+00  0.00000000E+00
  0.00000000E+00  0.00000000E+00  0.00000000E+00
  0.00000000E+00  0.00000000E+00  0.00000000E+00
  0.00000000E+00  0.00000000E+00  0.00000000E+00
  0.00000000E+00  0.00000000E+00  0.00000000E+00
  0.00000000E+00  0.00000000E+00  0.00000000E+00
  0.00000000E+00  0.00000000E+00  0.00000000E+00
  0.00000000E+00  0.00000000E+00  0.00000000E+00
  0.00000000E+00  0.00000000E+00  0.00000000E+00
  0.00000000E+00  0.00000000E+00  0.00000000E+00
  0.00000000E+00  0.00000000E+00  0.00000000E+00
  0.00000000E+00  0.00000000E+00  0.00000000E+00
  0.00000000E+00  0.00000000E+00  0.00000000E+00
  0.00000000E+00  0.00000000E+00  0.00000000E+00
  0.00000000E+00  0.00000000E+00  0.00000000E+00
  0.00000000E+00  0.00000000E+00  0.00000000E+00
  0.00000000E+00  0.00000000E+00  0.00000000E+00
  0.00000000E+00  0.00000000E+00  0.00000000E+00
  0.00000000E+00  0.00000000E+00  0.00000000E+00
  0.00000000E+00  0.00000000E+00  0.00000000E+00
  0.00000000E+00  0.00000000E+00  0.00000000E+00
  0.00000000E+00  0.00000000E+00  0.00000000E+00
  0.00000000E+00  0.00000000E+00  0.00000000E+00
  0.00000000E+00  0.00000000E+00  0.00000000E+00
  0.00000000E+00  0.00000000E+00  0.00000000E+00
  0.00000000E+00  0.00000000E+00  0.00000000E+00
  0.00000000E+00  0.00000000E+00  0.00000000E+00
  0.00000000E+00  0.00000000E+00  0.00000000E+00
  0.00000000E+00  0.00000000E+00  0.00000000E+00
  0.00000000E+00  0.00000000E+00  0.00000000E+00
  0.00000000E+00  0.00000000E+00  0.00000000E+00
  0.00000000E+00  0.00000000E+00  0.00000000E+00
  0.00000000E+00  0.00000000E+00  0.00000000E+00
  0.00000000E+00  0.00000000E+00  0.00000000E+00
  0.00000000E+00  0.00000000E+00  0.00000000E+00
  0.00000000E+00  0.00000000E+00  0.00000000E+00
  0.00000000E+00  0.00000000E+00  0.00000000E+00
  0.00000000E+00  0.00000000E+00  0.00000000E+00
  0.00000000E+00  0.00000000E+00  0.00000000E+00
  0.00000000E+00  0.00000000E+00  0.00000000E+00
  0.00000000E+00  0.00000000E+00  0.00000000E+00
  0.00000000E+00  0.00000000E+00  0.00000000E+00
  0.00000000E+00  0.00000000E+00  0.00000000E+00
  0.00000000E+00  0.00000000E+00  0.00000000E+00
  0.00000000E+00  0.00000000E+00  0.00000000E+00
  0.00000000E+00  0.00000000E+00  0.00000000E+00
  0.00000000E+00  0.00000000E+00  0.00000000E+00
  0.00000000E+00  0.00000000E+00  0.00000000E+00
  0.00000000E+00  0.00000000E+00  0.00000000E+00
  0.00000000E+00  0.00000000E+00  0.00000000E+00
  0.00000000E+00  0.00000000E+00  0.00000000E+00
  0.00000000E+00  0.00000000E+00  0.00000000E+00
  0.00000000E+00  0.00000000E+00  0.00000000E+00
  0.00000000E+00  0.00000000E+00  0.00000000E+00
  0.00000000E+00  0.00000000E+00  0.00000000E+00
  0.00000000E+00  0.00000000E+00  0.00000000E+00
  0.00000000E+00  0.00000000E+00  0.00000000E+00
  0.00000000E+00  0.00000000E+00  0.00000000E+00
  0.00000000E+00  0.00000000E+00  0.00000000E+00
  0.00000000E+00  0.00000000E+00  0.00000000E+00
 
           1
   4.00000000000000     
  0.10000000E+01  0.00000000E+00  0.00000000E+00  0.00000000E+00
  0.91947267E+00  0.94384143E-01  0.66667681E+00
  0.41197205E+00  0.74835663E+00  0.34162484E+00
  0.92065748E+00  0.93725757E-01 -0.15295399E-02
  0.25595007E+00  0.42938084E+00  0.23958267E-02
  0.74372975E+00  0.86316509E-01  0.91875736E-02
  0.80174266E-01  0.74098461E+00  0.18311648E-01
  0.91948789E+00  0.26177240E+00  0.50038245E+00
  0.74555440E+00  0.41909888E+00  0.67548938E+00
  0.41050261E+00  0.91685857E+00  0.17465526E+00
  0.84207962E-01  0.26425026E+00  0.87933973E-03
  0.25296331E+00  0.92557795E+00  0.16331729E+00
  0.41821116E+00  0.25177934E+00  0.52487881E+00
  0.74647242E+00  0.91749904E+00  0.17545468E+00
  0.40961017E+00  0.75022481E+00  0.63853862E-02
  0.78856411E-01  0.40484546E+00  0.34181722E+00
  0.75281571E+00  0.42678659E+00  0.16240408E+00
  0.77099568E-01  0.85944794E-01  0.67626607E+00
  0.87225533E-01  0.92819818E-01  0.16661036E+00
  0.75109049E+00  0.26193070E+00  0.66997600E+00
  0.78086872E-01  0.81499326E-01  0.78887945E-02
  0.75358803E+00  0.10748217E+00  0.83420638E+00
  0.58635480E+00  0.97928464E-01  0.66743410E+00
  0.75679615E+00  0.26051390E+00  0.33248407E+00
  0.58826908E+00  0.76226802E+00  0.33701117E+00
  0.75041102E+00  0.26219713E+00 -0.13734841E-01
  0.41423160E+00  0.41794086E+00  0.12607467E-01
  0.57702716E+00  0.57292757E+00  0.37066143E-02
  0.75503784E+00  0.92871623E+00  0.33372372E+00
  0.91096213E+00  0.41783702E+00  0.84198575E+00
  0.59031342E+00  0.76020813E+00  0.65179110E+00
  0.91296039E+00  0.58439194E+00  0.34366698E+00
  0.24247651E+00  0.25254277E+00  0.10572881E-01
  0.74783912E+00  0.75326358E+00  0.67457080E+00
  0.24809477E+00  0.25301932E+00  0.67634874E+00
  0.92186053E+00  0.26009632E+00  0.16654412E+00
  0.58690349E+00  0.59427696E+00  0.16008358E+00
  0.24477598E+00  0.91811913E+00  0.67514939E+00
  0.74562680E+00  0.58216421E+00  0.84015162E+00
  0.91554932E+00  0.58475482E+00  0.92244095E-02
  0.41400874E+00  0.91519536E+00  0.50922999E+00
  0.86282534E-01  0.43082731E+00  0.16725876E+00
  0.89821521E-01  0.26193726E+00  0.66448791E+00
  0.79812838E-01  0.58965201E+00  0.85637865E+00
  0.87021256E-01  0.59178976E+00  0.33048748E+00
  0.24516470E+00  0.42044745E+00  0.84530609E+00
  0.74578408E+00  0.41818337E+00  0.34001297E+00
  0.92344688E+00  0.92568428E+00  0.16459405E+00
  0.74406545E+00  0.87235751E-01  0.67850080E+00
  0.74613340E+00  0.74984822E+00  0.74567608E-02
  0.73135149E+00  0.41823978E+00  0.59071483E-02
  0.86322832E-01  0.59729622E+00  0.66994970E+00
  0.92120098E+00  0.59444013E+00  0.16646672E+00
  0.41073098E+00  0.85067570E-01  0.10424922E-01
  0.75573964E+00  0.76352709E+00  0.83288245E+00
  0.93450557E+00  0.92512270E+00  0.83206203E+00
  0.57834136E+00  0.91546927E+00  0.68418171E-02
  0.74731442E+00  0.92069987E+00  0.84157988E+00
  0.23244569E+00  0.58574713E+00  0.87425116E-02
  0.92231701E+00  0.76006005E+00  0.33492575E+00
  0.40905685E+00  0.58443694E+00  0.17274765E+00
  0.79788239E-01  0.90516386E+00  0.17164475E+00
  0.24382157E+00  0.91695971E+00  0.34061662E+00
  0.24363050E+00  0.41864995E+00  0.17737782E+00
  0.25574336E+00  0.92587670E+00  0.49841568E+00
  0.92377537E+00  0.75892159E+00 -0.33705972E-02