Sb                                      
   1.00000000000000     
    18.0673007964999996    0.0000000000000000    0.0000000000000000
     0.0000000000000000   18.0673007964999996    0.0000000000000000
     0.0000000000000000    0.0000000000000000   18.0673007964999996
   Ge   Te
   100   100
Direct
  0.6882130311764025  0.9185768787636035  0.0817395661876298
  0.8297031171481988  0.7130583356895505  0.7997931935265490
  0.0214392308406336  0.4399781089235418  0.2419763688068366
  0.2323063476804219  0.6860064153965962  0.2700184211936744
  0.6843039382835490  0.0533009049675243  0.7965516471891949
  0.8616856755309044  0.2161138439934026  0.7859427553997023
  0.3635277417627172  0.2249524676009769  0.4794988675118860
  0.2621613032503627  0.2040389255011135  0.1228166148422229
  0.2719021180928289  0.8162545574328431  0.9035686888390384
  0.6628003550128307  0.9742309964711976  0.2720711558538016
  0.1728690764809035  0.0034195286356240  0.0999560864809863
  0.1083819589840917  0.8521294491415562  0.5336028443473854
  0.9977547392306285  0.6494021078279296  0.0330781997903297
  0.6084761642254428  0.6864757756367367  0.3047444858199432
  0.4261386804209531  0.2334946655895322  0.9778520425427711
  0.9099844321251890  0.1724699722298678  0.1697753692781054
  0.1347784793474137  0.7301791172883121  0.7232804487978488
  0.2465990334678463  0.3012347884533123  0.5564199897689297
  0.7496509953162956  0.8211089710414845  0.5519875103153886
  0.5639151650569629  0.7904806091193435  0.1141815511290060
  0.4802452257215077  0.2158311343163024  0.5718222737217248
  0.8256555411959734  0.3534004149597436  0.0915583017183971
  0.0512359874854585  0.0201651005896159  0.8879028735204576
  0.1410156206098124  0.0884862656185501  0.5977466383938937
  0.5459776731982144  0.3163249774775877  0.8116979440877807
  0.3542623052452927  0.5947040964837206  0.4766429141353317
  0.7665792129506215  0.0365644946153936  0.1048662440529876
  0.6365191670952884  0.5987473073351858  0.1634698511007005
  0.5789161822398409  0.8907195590264009  0.4767106722831700
  0.1773562355553373 -0.0004056489637643  0.9436286933050554
  0.4742987771238649  0.0750866643991847  0.4371923758307718
  0.7179565151143988  0.1691487633538605  0.0781962467218625
  0.3459716143827736  0.4732731938421753  0.6698834522481303
  0.6622773798997528  0.9070225829009620  0.7367589220514487
  0.4433169587288928  0.9451826572808858  0.7329892268445468
  0.9510687502280469  0.3764915386748273  0.4423228912303128
  0.8658745740038729  0.5972439125929437  0.1875954748925746
  0.7536576215086535  0.4443439321060341  0.6805638375172717
 -0.0033922461073243  0.4769086493536996  0.6066585232341378
  0.4812675673209195  0.8724591087366198  0.9208902668535991
  0.7879212333428459  0.0522438296286463  0.5570827704945706
  0.7189739071112522  0.8613235532834556  0.9543084718307194
  0.0948433806066654  0.9791056913339001  0.6916522623811643
  0.4321554901135102  0.2507127833778983  0.1290791666749769
  0.3729322545861655  0.0586734238108766  0.9073760325292315
  0.7057033040091208  0.2777832776263725  0.9814829198271134
  0.9971070079944707  0.5839984494665020  0.9075869664080535
  0.7698347036824573  0.6579224024716401  0.9891941262956063
  0.9117379435282693  0.1563394400499372  0.5339740951564145
  0.6779608064741666 -0.0279754113442511  0.4128734815464675
  0.7000563082978551  0.6944866815448956  0.8624468835174081
  0.9910522827109433  0.2711181620430355  0.8055532093271588
  0.2361688810163695  0.1743273841678995  0.3988607467093784
  0.5622504597007389  0.2468201813920854  0.4436842360705551
  0.0991059511956277  0.3182190051737822  0.7222455753426169
  0.5898339674934543  0.6672841114717400  0.5132868775018612
  0.2241464961880954  0.3925377240687677  0.6850562120574346
  0.1311961503626692  0.8589484620455173  0.3001014539491548
  0.2218475113384262  0.9209363889994329  0.8254002374744469
  0.4884031840571519  0.9195915239934649  0.5964712829291694
  0.3409788066234864  0.3129253372832266  0.7668448776183765
  0.5348424199416715  0.0193993990485067  0.2227724373338273
  0.6006617530134808  0.1094729058496306  0.6931031191375310
  0.6114040506585653  0.7997935318411050  0.8888882462255834
  0.8707043768981017  0.6903834585338973  0.0829891524395227
  0.5574166871589855  0.3075851874332767  0.6547142107415515
  0.7321345434193801  0.2721144240735744  0.7757332063119979
  0.1384282481091096  0.4158735992505002  0.4989980945417412
  0.5816148246146151  0.5213545895317759  0.7254517816591696
  0.0607998238564522  0.5865359806928279  0.7762012517155249
  0.0941088634586361  0.3107149814857072  0.0692700535555801
  0.7005888031000138  0.5009180776140217  0.3892649067814467
  0.0287419256263492  0.3240035359067513  0.5944710552966038
  0.3417534449350604  0.9312638057156954  0.4521094865507823
  0.3898646560572194  0.4399946077302325  0.9633911782419069
  0.4553408918237007  0.1189517675771204  0.6761847736259088
  0.5865972424471002  0.6958398006567684 -0.0082525216278250
  0.0033172819842841  0.9261210341582823  0.7917558863889574
  0.8611237628549637  0.7666204147239329  0.3186273430583793
  0.3797265492856960  0.3098396476328213  0.6104918027702360
  0.4281194722225884  0.2124500009772680  0.2767205198966420
  0.0296538851595056  0.0104189896292310  0.4473570060397350
  0.5313364406779267  0.7245080551016735  0.7754586392802431
  0.4482273180965556  0.4459800212136816  0.1843222915126957
  0.1732217718871600  0.2097725203983589  0.7967254310519679
  0.4195246060552023  0.6478456418562124  0.1173154119474914
  0.7577776752648940  0.3333496600004276  0.5203651381970049
  0.2448645580235476  0.6856997562256354  0.8482474462649293
  0.2156036316911609  0.4103742559084658  0.3014368750943234
  0.7343402763174023  0.5964991093729572  0.5381203014922308
  0.9280756934030484  0.7334779862707378  0.6595293986524137
  0.8896221338092495  0.5697865445626914  0.4005232970084588
  0.8689034137277172  0.4116008544463147  0.9298821887369396
  0.1115311157716460  0.1905976797354981  0.2980519414770723
  0.8016661397471084  0.4707538932529086  0.1766420423704328
  0.8627707941856907  0.9444116121878808  0.8157137751703171
  0.3316474538287820  0.4965610773489106  0.2531255157808565
  0.0559559476406107  0.4391912668080866  0.7935846488526392
  0.1296511282883780  0.6960959062627685  0.0543177874909258
  0.1172152001275364  0.7631415424316189  0.1920489656302414
  0.2493613503906101  0.1799713560626510  0.6540231720291031
  0.1547218690423903  0.4347924114704781  0.1564734313271425
  0.1344766907628894  0.8260153385538306  0.9774948286816102
  0.5204688729499520  0.1150587329731598  0.9911135649325964
  0.7181880359975431  0.5942934267157691  0.6901104563868644
  0.8149942566339867  0.9308960598579304  0.4622332132734359
  0.8553307788372538  0.8059121872392878  0.9210159869116616
  0.3741111822426811  0.8218591596358135  0.5595404475369077
  0.8504325245709777  0.2545447603817925  0.9487595780655488
  0.5936721024156981  0.7990414708861165  0.6567963181174511
  0.3124513917062305  0.9315893609717298  0.2417273326531927
  0.4043547848099959  0.8120542800582808  0.7887330833626013
 -0.0093434326957643  0.0076482447010090  0.2373027272496329
  0.3822143484652297  0.0345682335408825  0.5631834156265184
  0.2028199371015451  0.8661435816163380  0.6834938397763298
  0.9720888155941075  0.5219078376990955  0.1038527290506753
  0.5592817397120237  0.5689351995284734  0.3966270979745321
  0.0619223041576649  0.1924148757216170  0.5158930684595637
  0.3128549628112797  0.0598565314332437  0.1190287583637643
  0.1500001763017745  0.0046142916992131  0.2586260281826295
  0.5154256480393741  0.5396395488275558  0.0879776774804132
  0.0768763377462447  0.3342896371887933  0.3513775483638796
  0.2392550145142070  0.6882080009318405  0.5071988243935318
  0.6692377906971886  0.3488960161484146  0.3962973154394326
  0.2947196531176368  0.5745828628816089  0.1286951915076754
  0.0641998135538861  0.2335790786871920  0.9342121609903586
  0.4549733063055263  0.7270679454327066  0.4624379628998380
  0.8640802856480274  0.8176027696916633  0.1647527651424435
  0.0600104740085543  0.7164674769593460  0.5876167117551834
  0.0244678606685694  0.8618464701619175  0.4032068143285926
  0.5170506447388485  0.3537115344170297  0.9630296517347404
  0.8467876205526469  0.5794077471119226  0.8872295042674082
  0.5393564404302517  0.9346579657093695  0.0720460185099982
  0.8961522569931469  0.4007109099946036  0.7800817103831896
  0.0289024674179497  0.5310700030219203  0.4705105979582700
  0.1823207956492914  0.5992832458653999  0.9540688574854859
  0.4943768800216580  0.6307492012831352  0.6531314169224002
  0.6461185005587156  0.1927387683623636  0.8673203651625450
  0.7964894302525520  0.0316957337397786  0.2473088885214997
  0.3376475152802362  0.6216870142062833  0.6960759203607298
  0.5796300844093473  0.1448573274460498  0.1362931653299595
  0.0244982704257153  0.7796488626094272  0.8163884504154956
  0.8833232757667725  0.9743203426534793  0.0368213175116040
  0.8307484660834756  0.4712168259455999  0.5348598254098637
  0.0129301078252502  0.8595200197610610  0.1313474750570846
  0.2693307554986848  0.2618533553475514  0.2698399621375523
  0.4390539452564113  0.3194122320319110  0.3870641459608764
  0.9696388367220368  0.0986740417672473 -0.0149906161336158
  0.4616628208515559  0.7493124591299642  0.2153632429421069
  0.4317561061464429  0.7168302725115387  0.9874372435150016
  0.8562433676735355  0.2528733126260240  0.4289887712446659
  0.7190230864990822  0.5308204764280657  0.0558929299953228
  0.8289575390623392  0.0769023192553920  0.7341879264285015
  0.9634142981698625  0.6580042637452239  0.2875656663510015
  0.2691395362424805  0.8245599553527934  0.3530727949038443
  0.4286073643957572  0.2013430444718909  0.8158049252469869
  0.8911508230776489  0.2689178166864500  0.6334272480545206
  0.3456337620898204  0.3755793973933601  0.1010672160971816
  0.6833169700396821  0.4051858228259607  0.8241906861761072
  0.6654248050457792  0.4712469584501884  0.2421018282663004
  0.8470586306671291  0.7049712137083313  0.5252005483180894
  0.8037022798058049  0.8601141086267451  0.7060026095845332
  0.1391755341376290  0.5508276776454532  0.2759708689617413
  0.5255593115122781  0.0007398050925622  0.8458194131354394
  0.2738482059945031  0.3465761060440677  0.9105876295108127
  0.6846625355850361  0.2239570213999675  0.6375851063318104
  0.0235984589188285  0.4362897842509181  0.9435804414029396
  0.7629679232462078  0.6498561741618185  0.3024557383807910
  0.7743225108629708  0.2467519141992603  0.1930113631879533
  0.0520376022045317  0.1178078239741816  0.7715293843940408
  0.8723133190176465  0.4377002897975050  0.3252235866851284
  0.9628282695067414  0.3177267245032470  0.1494921001516258
  0.2225898929052735  0.8553583773439779  0.1195820607688675
  0.1130654275269317  0.1733531447045264  0.1409672736781037
  0.6479462103483802 -0.0037987334579493  0.6101880616887561
  0.1508672039414952  0.5118217979413366  0.6229321380593599
  0.4292787928319280  0.4420573602723686  0.5501359452447249
  0.3173734849106985  0.0202960561802752  0.7686932543860695
  0.9945523029428996  0.9423177429779342  0.5848430759909032
  0.1841345848302489  0.0194055537298656  0.4702271396875394
  0.6627796160912283  0.7761647598997297  0.4226202834779407
  0.9602002401371417  0.1466941731952344  0.3125022925776895
  0.5438694027374326  0.3338681495811067  0.1836674564954910
  0.9334120338786392  0.5840412345274424  0.6955542787358214
  0.3538928113851140  0.0924912111411249  0.3415422870743232
  0.1362974245244239  0.6755240058697455  0.3911175816046036
  0.3455438618319572  0.9237356677615591  0.9849104018805053
  0.3844572611747015  0.6258444317673039  0.8549937958916689
  0.3605860288365011  0.6218746609374637  0.3276809722689950
  0.6071970151179240  0.5801222960063377  0.8781897380821754
  0.7536806874111470  0.0045946429371982  0.9247351548225546
  0.4807509660620632  0.9319139141561675  0.3702193240933606
  0.2388983662452598  0.1356343414773451  0.9335834377311629
  0.5678549042824169  0.1468308934241689  0.3161608700884470
  0.6169031972674625  0.4333871764948679  0.5980850571952413
  0.7050042724454659  0.1140011841840587  0.4435696027638195
  0.6792652424754502  0.8341397848023414  0.2107072843092823
  0.2788756281077013  0.4416306530155374  0.4482241805965165
  0.4369878645185048  0.4347464706040451  0.7839276628636820
  0.2159380934816049  0.4636537418854444  0.8244705514481777
 
  0.00000000E+00  0.00000000E+00  0.00000000E+00
  0.00000000E+00  0.00000000E+00  0.00000000E+00
  0.00000000E+00  0.00000000E+00  0.00000000E+00
  0.00000000E+00  0.00000000E+00  0.00000000E+00
  0.00000000E+00  0.00000000E+00  0.00000000E+00
  0.00000000E+00  0.00000000E+00  0.00000000E+00
  0.00000000E+00  0.00000000E+00  0.00000000E+00
  0.00000000E+00  0.00000000E+00  0.00000000E+00
  0.00000000E+00  0.00000000E+00  0.00000000E+00
  0.00000000E+00  0.00000000E+00  0.00000000E+00
  0.00000000E+00  0.00000000E+00  0.00000000E+00
  0.00000000E+00  0.00000000E+00  0.00000000E+00
  0.00000000E+00  0.00000000E+00  0.00000000E+00
  0.00000000E+00  0.00000000E+00  0.00000000E+00
  0.00000000E+00  0.00000000E+00  0.00000000E+00
  0.00000000E+00  0.00000000E+00  0.00000000E+00
  0.00000000E+00  0.00000000E+00  0.00000000E+00
  0.00000000E+00  0.00000000E+00  0.00000000E+00
  0.00000000E+00  0.00000000E+00  0.00000000E+00
  0.00000000E+00  0.00000000E+00  0.00000000E+00
  0.00000000E+00  0.00000000E+00  0.00000000E+00
  0.00000000E+00  0.00000000E+00  0.00000000E+00
  0.00000000E+00  0.00000000E+00  0.00000000E+00
  0.00000000E+00  0.00000000E+00  0.00000000E+00
  0.00000000E+00  0.00000000E+00  0.00000000E+00
  0.00000000E+00  0.00000000E+00  0.00000000E+00
  0.00000000E+00  0.00000000E+00  0.00000000E+00
  0.00000000E+00  0.00000000E+00  0.00000000E+00
  0.00000000E+00  0.00000000E+00  0.00000000E+00
  0.00000000E+00  0.00000000E+00  0.00000000E+00
  0.00000000E+00  0.00000000E+00  0.00000000E+00
  0.00000000E+00  0.00000000E+00  0.00000000E+00
  0.00000000E+00  0.00000000E+00  0.00000000E+00
  0.00000000E+00  0.00000000E+00  0.00000000E+00
  0.00000000E+00  0.00000000E+00  0.00000000E+00
  0.00000000E+00  0.00000000E+00  0.00000000E+00
  0.00000000E+00  0.00000000E+00  0.00000000E+00
  0.00000000E+00  0.00000000E+00  0.00000000E+00
  0.00000000E+00  0.00000000E+00  0.00000000E+00
  0.00000000E+00  0.00000000E+00  0.00000000E+00
  0.00000000E+00  0.00000000E+00  0.00000000E+00
  0.00000000E+00  0.00000000E+00  0.00000000E+00
  0.00000000E+00  0.00000000E+00  0.00000000E+00
  0.00000000E+00  0.00000000E+00  0.00000000E+00
  0.00000000E+00  0.00000000E+00  0.00000000E+00
  0.00000000E+00  0.00000000E+00  0.00000000E+00
  0.00000000E+00  0.00000000E+00  0.00000000E+00
  0.00000000E+00  0.00000000E+00  0.00000000E+00
  0.00000000E+00  0.00000000E+00  0.00000000E+00
  0.00000000E+00  0.00000000E+00  0.00000000E+00
  0.00000000E+00  0.00000000E+00  0.00000000E+00
  0.00000000E+00  0.00000000E+00  0.00000000E+00
  0.00000000E+00  0.00000000E+00  0.00000000E+00
  0.00000000E+00  0.00000000E+00  0.00000000E+00
  0.00000000E+00  0.00000000E+00  0.00000000E+00
  0.00000000E+00  0.00000000E+00  0.00000000E+00
  0.00000000E+00  0.00000000E+00  0.00000000E+00
  0.00000000E+00  0.00000000E+00  0.00000000E+00
  0.00000000E+00  0.00000000E+00  0.00000000E+00
  0.00000000E+00  0.00000000E+00  0.00000000E+00
  0.00000000E+00  0.00000000E+00  0.00000000E+00
  0.00000000E+00  0.00000000E+00  0.00000000E+00
  0.00000000E+00  0.00000000E+00  0.00000000E+00
  0.00000000E+00  0.00000000E+00  0.00000000E+00
  0.00000000E+00  0.00000000E+00  0.00000000E+00
  0.00000000E+00  0.00000000E+00  0.00000000E+00
  0.00000000E+00  0.00000000E+00  0.00000000E+00
  0.00000000E+00  0.00000000E+00  0.00000000E+00
  0.00000000E+00  0.00000000E+00  0.00000000E+00
  0.00000000E+00  0.00000000E+00  0.00000000E+00
  0.00000000E+00  0.00000000E+00  0.00000000E+00
  0.00000000E+00  0.00000000E+00  0.00000000E+00
  0.00000000E+00  0.00000000E+00  0.00000000E+00
  0.00000000E+00  0.00000000E+00  0.00000000E+00
  0.00000000E+00  0.00000000E+00  0.00000000E+00
  0.00000000E+00  0.00000000E+00  0.00000000E+00
  0.00000000E+00  0.00000000E+00  0.00000000E+00
  0.00000000E+00  0.00000000E+00  0.00000000E+00
  0.00000000E+00  0.00000000E+00  0.00000000E+00
  0.00000000E+00  0.00000000E+00  0.00000000E+00
  0.00000000E+00  0.00000000E+00  0.00000000E+00
  0.00000000E+00  0.00000000E+00  0.00000000E+00
  0.00000000E+00  0.00000000E+00  0.00000000E+00
  0.00000000E+00  0.00000000E+00  0.00000000E+00
  0.00000000E+00  0.00000000E+00  0.00000000E+00
  0.00000000E+00  0.00000000E+00  0.00000000E+00
  0.00000000E+00  0.00000000E+00  0.00000000E+00
  0.00000000E+00  0.00000000E+00  0.00000000E+00
  0.00000000E+00  0.00000000E+00  0.00000000E+00
  0.00000000E+00  0.00000000E+00  0.00000000E+00
  0.00000000E+00  0.00000000E+00  0.00000000E+00
  0.00000000E+00  0.00000000E+00  0.00000000E+00
  0.00000000E+00  0.00000000E+00  0.00000000E+00
  0.00000000E+00  0.00000000E+00  0.00000000E+00
  0.00000000E+00  0.00000000E+00  0.00000000E+00
  0.00000000E+00  0.00000000E+00  0.00000000E+00
  0.00000000E+00  0.00000000E+00  0.00000000E+00
  0.00000000E+00  0.00000000E+00  0.00000000E+00
  0.00000000E+00  0.00000000E+00  0.00000000E+00
  0.00000000E+00  0.00000000E+00  0.00000000E+00
  0.00000000E+00  0.00000000E+00  0.00000000E+00
  0.00000000E+00  0.00000000E+00  0.00000000E+00
  0.00000000E+00  0.00000000E+00  0.00000000E+00
  0.00000000E+00  0.00000000E+00  0.00000000E+00
  0.00000000E+00  0.00000000E+00  0.00000000E+00
  0.00000000E+00  0.00000000E+00  0.00000000E+00
  0.00000000E+00  0.00000000E+00  0.00000000E+00
  0.00000000E+00  0.00000000E+00  0.00000000E+00
  0.00000000E+00  0.00000000E+00  0.00000000E+00
  0.00000000E+00  0.00000000E+00  0.00000000E+00
  0.00000000E+00  0.00000000E+00  0.00000000E+00
  0.00000000E+00  0.00000000E+00  0.00000000E+00
  0.00000000E+00  0.00000000E+00  0.00000000E+00
  0.00000000E+00  0.00000000E+00  0.00000000E+00
  0.00000000E+00  0.00000000E+00  0.00000000E+00
  0.00000000E+00  0.00000000E+00  0.00000000E+00
  0.00000000E+00  0.00000000E+00  0.00000000E+00
  0.00000000E+00  0.00000000E+00  0.00000000E+00
  0.00000000E+00  0.00000000E+00  0.00000000E+00
  0.00000000E+00  0.00000000E+00  0.00000000E+00
  0.00000000E+00  0.00000000E+00  0.00000000E+00
  0.00000000E+00  0.00000000E+00  0.00000000E+00
  0.00000000E+00  0.00000000E+00  0.00000000E+00
  0.00000000E+00  0.00000000E+00  0.00000000E+00
  0.00000000E+00  0.00000000E+00  0.00000000E+00
  0.00000000E+00  0.00000000E+00  0.00000000E+00
  0.00000000E+00  0.00000000E+00  0.00000000E+00
  0.00000000E+00  0.00000000E+00  0.00000000E+00
  0.00000000E+00  0.00000000E+00  0.00000000E+00
  0.00000000E+00  0.00000000E+00  0.00000000E+00
  0.00000000E+00  0.00000000E+00  0.00000000E+00
  0.00000000E+00  0.00000000E+00  0.00000000E+00
  0.00000000E+00  0.00000000E+00  0.00000000E+00
  0.00000000E+00  0.00000000E+00  0.00000000E+00
  0.00000000E+00  0.00000000E+00  0.00000000E+00
  0.00000000E+00  0.00000000E+00  0.00000000E+00
  0.00000000E+00  0.00000000E+00  0.00000000E+00
  0.00000000E+00  0.00000000E+00  0.00000000E+00
  0.00000000E+00  0.00000000E+00  0.00000000E+00
  0.00000000E+00  0.00000000E+00  0.00000000E+00
  0.00000000E+00  0.00000000E+00  0.00000000E+00
  0.00000000E+00  0.00000000E+00  0.00000000E+00
  0.00000000E+00  0.00000000E+00  0.00000000E+00
  0.00000000E+00  0.00000000E+00  0.00000000E+00
  0.00000000E+00  0.00000000E+00  0.00000000E+00
  0.00000000E+00  0.00000000E+00  0.00000000E+00
  0.00000000E+00  0.00000000E+00  0.00000000E+00
  0.00000000E+00  0.00000000E+00  0.00000000E+00
  0.00000000E+00  0.00000000E+00  0.00000000E+00
  0.00000000E+00  0.00000000E+00  0.00000000E+00
  0.00000000E+00  0.00000000E+00  0.00000000E+00
  0.00000000E+00  0.00000000E+00  0.00000000E+00
  0.00000000E+00  0.00000000E+00  0.00000000E+00
  0.00000000E+00  0.00000000E+00  0.00000000E+00
  0.00000000E+00  0.00000000E+00  0.00000000E+00
  0.00000000E+00  0.00000000E+00  0.00000000E+00
  0.00000000E+00  0.00000000E+00  0.00000000E+00
  0.00000000E+00  0.00000000E+00  0.00000000E+00
  0.00000000E+00  0.00000000E+00  0.00000000E+00
  0.00000000E+00  0.00000000E+00  0.00000000E+00
  0.00000000E+00  0.00000000E+00  0.00000000E+00
  0.00000000E+00  0.00000000E+00  0.00000000E+00
  0.00000000E+00  0.00000000E+00  0.00000000E+00
  0.00000000E+00  0.00000000E+00  0.00000000E+00
  0.00000000E+00  0.00000000E+00  0.00000000E+00
  0.00000000E+00  0.00000000E+00  0.00000000E+00
  0.00000000E+00  0.00000000E+00  0.00000000E+00
  0.00000000E+00  0.00000000E+00  0.00000000E+00
  0.00000000E+00  0.00000000E+00  0.00000000E+00
  0.00000000E+00  0.00000000E+00  0.00000000E+00
  0.00000000E+00  0.00000000E+00  0.00000000E+00
  0.00000000E+00  0.00000000E+00  0.00000000E+00
  0.00000000E+00  0.00000000E+00  0.00000000E+00
  0.00000000E+00  0.00000000E+00  0.00000000E+00
  0.00000000E+00  0.00000000E+00  0.00000000E+00
  0.00000000E+00  0.00000000E+00  0.00000000E+00
  0.00000000E+00  0.00000000E+00  0.00000000E+00
  0.00000000E+00  0.00000000E+00  0.00000000E+00
  0.00000000E+00  0.00000000E+00  0.00000000E+00
  0.00000000E+00  0.00000000E+00  0.00000000E+00
  0.00000000E+00  0.00000000E+00  0.00000000E+00
  0.00000000E+00  0.00000000E+00  0.00000000E+00
  0.00000000E+00  0.00000000E+00  0.00000000E+00
  0.00000000E+00  0.00000000E+00  0.00000000E+00
  0.00000000E+00  0.00000000E+00  0.00000000E+00
  0.00000000E+00  0.00000000E+00  0.00000000E+00
  0.00000000E+00  0.00000000E+00  0.00000000E+00
  0.00000000E+00  0.00000000E+00  0.00000000E+00
  0.00000000E+00  0.00000000E+00  0.00000000E+00
  0.00000000E+00  0.00000000E+00  0.00000000E+00
  0.00000000E+00  0.00000000E+00  0.00000000E+00
  0.00000000E+00  0.00000000E+00  0.00000000E+00
  0.00000000E+00  0.00000000E+00  0.00000000E+00
  0.00000000E+00  0.00000000E+00  0.00000000E+00
  0.00000000E+00  0.00000000E+00  0.00000000E+00
  0.00000000E+00  0.00000000E+00  0.00000000E+00
  0.00000000E+00  0.00000000E+00  0.00000000E+00
  0.00000000E+00  0.00000000E+00  0.00000000E+00
  0.00000000E+00  0.00000000E+00  0.00000000E+00
  0.00000000E+00  0.00000000E+00  0.00000000E+00
