Ge43-Sb43-Te108-N10 3x3x3 cubic-NaCl gst
   1.00000000000000     
    19.3861117569999983    0.0000000000000000    0.0000000000000000
     0.0000000000000000   19.3861117569999983    0.0000000000000000
     0.0000000000000000    0.0000000000000000   19.3861117569999983
   Ge   Sb   Te   N 
    43    43   108    10
Direct
  0.5355770303824877  0.5164529295861924  0.9410112072935265
  0.8787323813120061  0.0541936850835338  0.8462766686990872
  0.2850691110256737  0.5617596759594775  0.2653260513245425
  0.1240286601703193  0.2689503709544423  0.7088481703098364
  0.3188123958315509  0.6259593308580750  0.0034689012036752
  0.8186261799823186  0.6193613368869950  0.7278740058073313
  0.8370306678451578  0.3626673928372075  0.0199153652428635
  0.6581896293421984  0.5303333894788808  0.8280291858934065
  0.1277028588477107  0.6306888605389568  0.9135247559458365
  0.3731995484271212  0.3534013155734919  0.4710147480581715
  0.8937462657316075  0.8789233257389687  0.6387505656811537
  0.8725994010473127  0.3728276491143412  0.4282071984424299
  0.7514954399763976 -0.0094098899646053  0.9537400146687889
  0.0048773030958125  0.0831484966506509  0.5593382643872673
  0.4572255339174818  0.7179194869252573  0.5622099209972432
  0.4109227989333866  0.2855596955107352  0.8733677771106525
  0.1862672326281887  0.7798119710276585  0.3806863026815211
  0.6532079549536488  0.1220866735401820  0.3383077266220645
  0.4138941727571306  0.7197469882611730  0.7711321301437226
  0.2578662654389926  0.0793174899680724  0.9380314501780184
  0.5667337256160102  0.5731777206768415  0.2388249160127127
  0.3408563419353268  0.1857460435533490  0.5103739789638495
  0.1252780190763969  0.4089916291048892  0.4767209856469430
  0.9794247949726144  0.5290864263840740  0.6989904341643028
  0.8781465785130940  0.9471983421210011  0.1525957205945607
  0.1039958385208155  0.4845102972704403  0.0048401714434073
  0.4410054763068104  0.3920121284776488  0.2893725362943453
  0.2995884848236750  0.3150522381522166  0.0844452541804139
  0.9495738688653584  0.4985823050328594  0.1364507914802518
  0.9693911849605928  0.2697588762533317  0.4568809968167403
  0.4697586643947175  0.5133288263041575  0.6460891244076628
  0.3521067288288154  0.5497196916484401  0.7128612387207370
  0.0801853092908990  0.0184940615273350  0.3679444859614339
  0.9561126345222170  0.3196418911531606  0.6850744536642772
  0.4938257457011498  0.0256002245189706  0.3730130927980949
  0.0932208248292066  0.7932715497925306  0.6113666228621498
  0.8398736638975143  0.0945213028631010  0.3804028512007916
  0.8744545568874441  0.7851254755921234  0.8318052350623122
  0.7228384896336719  0.9633478289051731  0.1965656499920256
  0.7829440161255848  0.9958854928742663  0.6355019943157253
  0.6508103482657158  0.9070055991920650  0.3854228718142269
  0.6983447362649026  0.9132271247432567  0.0455611583643231
  0.3426134905275885  0.9264947776636281  0.9540701588326010
  0.1324839673240930  0.6435023572945089  0.0873844293398826
  0.1036289121108563  0.0296347033564618  0.0923448181448247
  0.8654705515299366  0.2808802331158973  0.1280946294768546
  0.5699571803706817  0.0307584806028573  0.1125937893541193
  0.9596330872476572  0.4536510149603372  0.9259120625580980
  0.9885693327510466  0.3524350262657551  0.0816447100431885
  0.0363150217306922  0.4052756554806249  0.8026975623448437
  0.7807217958948045  0.5854106256595737  0.4791935391080960
  0.3472984027762697  0.0890770462293538  0.7588418110908132
  0.9146922649174931  0.7076906264037721  0.0361185465205413
  0.1587262346973045  0.1266045689298406  0.6910419692349584
  0.9070409749775785  0.5423476513949443  0.3007312233731003
  0.0938760357767091  0.6286438631849046  0.5353857079827903
  0.3737849699437250  0.4147707452843702  0.8269410749384485
  0.8588023154570124  0.5920908992116165  0.9506403031210250
  0.4026059304691281  0.2076595239445984  0.2878493360131497
  0.0686212826691804  0.2214904038824683  0.0574239167725535
  0.2185237891165454  0.4796043741574360  0.3940590839105075
  0.8239243220237608  0.4352939911895823  0.5547428748511982
  0.6585498159241944  0.7803396387825522  0.7934602344007701
  0.4490460225065553  0.9067530143100920  0.3021723961220485
  0.7591975891773206  0.8273237383949440  0.2725177339094992
  0.6903908744540667  0.8175494887160295  0.5502744595348354
  0.3776585884210600  0.7898781457288399  0.0143226814345649
  0.6135402707486208  0.5181936999162939  0.6111702371177051
  0.6380771796179034  0.0309389326424014  0.4516088512267291
  0.5306735295762218  0.4076708302104183  0.8005184141328926
  0.9172970355708829  0.8974121783992098  0.9701512782580326
  0.2732030778299397  0.4059988429740461  0.6456009189254043
  0.2290496738007098  0.3558952637697143  0.8769104705471346
  0.3429568941171278  0.0243717648914870  0.1117023780996513
  0.4309007586487408  0.5209155525563415  0.2369399859574072
  0.4274884314144833  0.0820372431491983  0.9586543465473975
  0.7285988374734157  0.3196487606826305  0.9443751663536076
  0.8214832399918335  0.4587074866402505  0.7093593465839024
  0.8005725109270155  0.2185691799720796  0.4445644333325803
  0.4818089029361792  0.2306983533557930  0.4148154674747325
  0.8219769687104451  0.8634838617768716  0.4371866264818740
  0.6644068222893701  0.5292018874188861  0.1136828826295402
  0.0247904409290810  0.3789953667014489  0.2912417505346626
  0.7303906346246486  0.7688588912715260  0.9266605387881756
  0.8321662753443485  0.3972790516725519  0.2179829546761703
  0.2711201878440189  0.7956333613232405  0.2672724774037097
  0.0917082096288223  0.2746350293426872  0.8510544586253710
  0.1859113023524853  0.0173901037211581  0.4585058735106941
  0.0011901458731618  0.8956081042745043  0.0935138917337354
  0.7133345061445623  0.6270537177030565  0.9537511964349037
 -0.0446009944932134  0.6406003085781554  0.1602131735911485
  0.3819076481472463  0.8760488722696005  0.6725362986735169
  0.3382113598904680  0.6697344851824770  0.6296870079398161
  0.1172311441381160  0.8768493911816370  0.2263033095397317
  0.9867526510572159  0.4275261705940476  0.5989824346338702
  0.8078285702135799  0.4902176413445276  0.0819899062832807
  0.6843083205374537  0.1906396189024762  0.5324983910785489
  0.5914314892170858  0.6516689520651442  0.7756810774549787
  0.7798007754212686  0.4892329211600031  0.3629161599869449
  0.0845853774280035  0.6847387226137555  0.3752161927486538
  0.9812813024784713  0.4695659496580907  0.4103507600842909
  0.9071928040695715  0.2914085587128600  0.3016302862912457
  0.0789079786641392  0.8734401856033512  0.3659484758553043
  0.3517187727416844  0.9051628535403061  0.5310728730285260
  0.2378977513910293  0.4242138021055806  0.0100763187893155
  0.5165969974372260  0.3779402075871450  0.4033571782491752
  0.2673398517123579  0.2829385721605784  0.7274834927222900
  0.2208104679701932  0.4341439525450292  0.2201812852561449
  0.3180575425233759  0.3343525403820700  0.3185907668777568
  0.0258812678018456  0.7402680913770786  0.9476082104644969
  0.1281312090590530  0.2807831517461710  0.1825287445392251
  0.1023717056320006  0.4949420071475714  0.1487945617200164
  0.7827925164063608  0.9428847989309481  0.8304349323025121
  0.1990704081376287  0.9465797304730396  0.9495011910703662
  0.7853201952565551  0.7588127054075688  0.7176897341852684
  0.2733149855002792  0.6417930051786738  0.1452199082284136
  0.6633693128669441  0.9219960712819915  0.6477563498851026
  0.4730420957145517  0.9780305255975230  0.5687032611185638
  0.6946492284639546  0.1102861027477180  0.6554289547535302
  0.3669282878458447  0.6942646399328041  0.3190056689359680
  0.6776895586131894  0.4378103031637234  0.5055140104849838
  0.9979534056159360  0.9687976514703298  0.8616081049412401
  0.2306027632555271  0.9066430927921663  0.0850996615677190
  0.4276796322348410  0.5813986607304990  0.5304893549738846
  0.8164002570807199  0.3169838190075480  0.6484145510232899
  0.1373531855679595  0.1343273602954996  0.5327284448863091
  0.4537445803532625  0.9210595997273521  0.1525300476136879
  0.2217254290365156  0.1275836113048983  0.0646237450956662
  0.1116890661844637  0.5866224460999875  0.6826943587740916
  0.6973484408571203  0.1337547205993455  0.0932057552210792
  0.4534093292692738  0.1842411706229840  0.7912023284476093
  0.1583390984833487  0.4827606656091516  0.8340947843146544
  0.9730376435225855  0.1367443839556541  0.4047640287231916
  0.4433754806694393  0.1410702290457164  0.0955912421958285
  0.1445201543492328  0.1131857975835274  0.8597239557826855
  0.5262993220196398  0.6570154982159836  0.9337215563555418
  0.7645471156400979  0.6764857025375769  0.3012200554926095
  0.5586597822113515  0.0062923115791429  0.9649464908912178
  0.4183670489944613  0.3856618806259284  0.6202024637586805
  0.1575778991039910  0.0312424016598903  0.2401417392726624
  0.2891883969378656  0.7803014929100848  0.7293140809002622
  0.0328555070395093  0.0924179865969419  0.9507032892264482
  0.7681343762096697  0.1707527624935821  0.7682591214316521
  0.1943052600348948  0.7448661089395573  0.9801544320263558
  0.0093484307895757  0.2308321676722305  0.5861150792081470
  0.4038164198365133  0.4730547513586642  0.9601379758226920
  0.9764050115818590  0.8515913065699775  0.7561094965213373
  0.2297783610463399  0.3246775398193513  0.5297066478840220
  0.3854137248709414  0.7742644925329052  0.4445738900701985
  0.6705981458107091  0.2768262692572103  0.0784160085196297
  0.4292830292148402  0.1011395453109706  0.6318229903362249
  0.4070614442230403  0.9727682007231351  0.8317589542011741
  0.2220292073848836  0.5567557031306252  0.5191927941996468
  0.5355293115397256  0.1093493931314491  0.2680045469427409
  0.4288967484003549  0.3763210364569585  0.0833173372043002
 -0.0085729202621677  0.1233612180595027  0.1307253008248820
  0.9056025250841040  0.6244253423647262  0.6166113414016937
  0.6603751147888391  0.6648245668626713  0.4501938169057799
  0.6712917117768856  0.4300565050310397  0.7140771313132397
  0.8985860887543070  0.8650112571789857  0.3048322046336115
  0.0411531232243243  0.0414441196362944  0.6936956379338191
  0.6425355727315643  0.6805108348319094  0.5955207025005242
  0.5671868950614537  0.8379289971157934  0.4715970852230674
  0.2311606554491990  0.7565652007969801  0.5099164658356208
  0.1335943513480633  0.5673893441527782  0.3079283003289948
  0.3709947537610039  0.0894404696069216  0.4033687682179852
  0.7483822357321991  0.1037225980439606  0.2401391086010123
  0.4906264391198217  0.3005917445208555  0.2002866663270571
  0.3164877785442549  0.2375637978898737  0.9600572285380515
  0.8044470245064355  0.8402767988593151  0.0951723688156563
  0.6122482240440789  0.4298799864074562  0.0206068577722816
  0.6785759021046841  0.2539944414035904  0.3719610637387397
  0.5430039080767430  0.3062953558045892  0.9083699708095609
  0.4501461702670863  0.6544655308568815  0.0599502709516622
  0.9071105937115367  0.1147921063651474  0.7238612256157789
  0.0952188430863154  0.2941380300433864  0.3941507047413792
  0.8207078649946185  0.4406652048306370  0.8620531317121984
  0.9708408882294831  0.9253691027051349  0.5295094353885801
  0.4568137050228871  0.7982005160255885  0.8870946554355140
  0.3431889058196771  0.6132640869618341  0.8317353530571574
  0.6127817074976992  0.8194984586531677  0.9971884275071442
  0.8097589052127103  0.1957454366758597  0.9267366564908620
  0.3045344793911491  0.9233783183702923  0.3357180560099229
  0.8664534400907203  0.0296490518517030  0.0203443089523594
  0.6379014037123881  0.4512323218896500  0.2317218472895747
  0.6810529759956494  0.1109837262337107  0.9378755112059108
  0.2024747272438302  0.1773423951878254  0.2490929744196448
  0.4973432583886924  0.5653074657785502  0.3601505130266930
  0.8618916430997892  0.6901547659575215  0.4043165041245426
  0.9530043863819776  0.7735963292325041  0.5630750206231923
  0.0726897206658799  0.7164130102116035  0.7334062630555330
  0.9215646570386513  0.6460572592229137  0.8223068724102164
  0.7885577099669321  0.0098783908569833  0.4872001873878793
  0.6051453023030926  0.9003751281788327  0.2591774325118548
  0.7366113009085745  0.8626698477967367  0.3730895952611208
  0.9209568908811600  0.4622732994494484  0.2272039818207532
  0.3002973263283596  0.7234941692973764  0.9856242155632774
  0.3989301061485677  0.2566682198081873  0.4779902238988442
  0.6687750703567126  0.9754927903995796  0.1133565125297511
  0.5668120433415307  0.4923588563053578  0.8510622529129738
  0.1367193710807677  0.7243553246622312  0.5535648905537014
  0.3699553183864164  0.0047012104271156  0.0083549378426313
  0.1272308665777492  0.5807899247479235  0.0003103569114792
  0.9310947342550521  0.3714336421728192  0.9895979376271450
 
  0.00000000E+00  0.00000000E+00  0.00000000E+00
  0.00000000E+00  0.00000000E+00  0.00000000E+00
  0.00000000E+00  0.00000000E+00  0.00000000E+00
  0.00000000E+00  0.00000000E+00  0.00000000E+00
  0.00000000E+00  0.00000000E+00  0.00000000E+00
  0.00000000E+00  0.00000000E+00  0.00000000E+00
  0.00000000E+00  0.00000000E+00  0.00000000E+00
  0.00000000E+00  0.00000000E+00  0.00000000E+00
  0.00000000E+00  0.00000000E+00  0.00000000E+00
  0.00000000E+00  0.00000000E+00  0.00000000E+00
  0.00000000E+00  0.00000000E+00  0.00000000E+00
  0.00000000E+00  0.00000000E+00  0.00000000E+00
  0.00000000E+00  0.00000000E+00  0.00000000E+00
  0.00000000E+00  0.00000000E+00  0.00000000E+00
  0.00000000E+00  0.00000000E+00  0.00000000E+00
  0.00000000E+00  0.00000000E+00  0.00000000E+00
  0.00000000E+00  0.00000000E+00  0.00000000E+00
  0.00000000E+00  0.00000000E+00  0.00000000E+00
  0.00000000E+00  0.00000000E+00  0.00000000E+00
  0.00000000E+00  0.00000000E+00  0.00000000E+00
  0.00000000E+00  0.00000000E+00  0.00000000E+00
  0.00000000E+00  0.00000000E+00  0.00000000E+00
  0.00000000E+00  0.00000000E+00  0.00000000E+00
  0.00000000E+00  0.00000000E+00  0.00000000E+00
  0.00000000E+00  0.00000000E+00  0.00000000E+00
  0.00000000E+00  0.00000000E+00  0.00000000E+00
  0.00000000E+00  0.00000000E+00  0.00000000E+00
  0.00000000E+00  0.00000000E+00  0.00000000E+00
  0.00000000E+00  0.00000000E+00  0.00000000E+00
  0.00000000E+00  0.00000000E+00  0.00000000E+00
  0.00000000E+00  0.00000000E+00  0.00000000E+00
  0.00000000E+00  0.00000000E+00  0.00000000E+00
  0.00000000E+00  0.00000000E+00  0.00000000E+00
  0.00000000E+00  0.00000000E+00  0.00000000E+00
  0.00000000E+00  0.00000000E+00  0.00000000E+00
  0.00000000E+00  0.00000000E+00  0.00000000E+00
  0.00000000E+00  0.00000000E+00  0.00000000E+00
  0.00000000E+00  0.00000000E+00  0.00000000E+00
  0.00000000E+00  0.00000000E+00  0.00000000E+00
  0.00000000E+00  0.00000000E+00  0.00000000E+00
  0.00000000E+00  0.00000000E+00  0.00000000E+00
  0.00000000E+00  0.00000000E+00  0.00000000E+00
  0.00000000E+00  0.00000000E+00  0.00000000E+00
  0.00000000E+00  0.00000000E+00  0.00000000E+00
  0.00000000E+00  0.00000000E+00  0.00000000E+00
  0.00000000E+00  0.00000000E+00  0.00000000E+00
  0.00000000E+00  0.00000000E+00  0.00000000E+00
  0.00000000E+00  0.00000000E+00  0.00000000E+00
  0.00000000E+00  0.00000000E+00  0.00000000E+00
  0.00000000E+00  0.00000000E+00  0.00000000E+00
  0.00000000E+00  0.00000000E+00  0.00000000E+00
  0.00000000E+00  0.00000000E+00  0.00000000E+00
  0.00000000E+00  0.00000000E+00  0.00000000E+00
  0.00000000E+00  0.00000000E+00  0.00000000E+00
  0.00000000E+00  0.00000000E+00  0.00000000E+00
  0.00000000E+00  0.00000000E+00  0.00000000E+00
  0.00000000E+00  0.00000000E+00  0.00000000E+00
  0.00000000E+00  0.00000000E+00  0.00000000E+00
  0.00000000E+00  0.00000000E+00  0.00000000E+00
  0.00000000E+00  0.00000000E+00  0.00000000E+00
  0.00000000E+00  0.00000000E+00  0.00000000E+00
  0.00000000E+00  0.00000000E+00  0.00000000E+00
  0.00000000E+00  0.00000000E+00  0.00000000E+00
  0.00000000E+00  0.00000000E+00  0.00000000E+00
  0.00000000E+00  0.00000000E+00  0.00000000E+00
  0.00000000E+00  0.00000000E+00  0.00000000E+00
  0.00000000E+00  0.00000000E+00  0.00000000E+00
  0.00000000E+00  0.00000000E+00  0.00000000E+00
  0.00000000E+00  0.00000000E+00  0.00000000E+00
  0.00000000E+00  0.00000000E+00  0.00000000E+00
  0.00000000E+00  0.00000000E+00  0.00000000E+00
  0.00000000E+00  0.00000000E+00  0.00000000E+00
  0.00000000E+00  0.00000000E+00  0.00000000E+00
  0.00000000E+00  0.00000000E+00  0.00000000E+00
  0.00000000E+00  0.00000000E+00  0.00000000E+00
  0.00000000E+00  0.00000000E+00  0.00000000E+00
  0.00000000E+00  0.00000000E+00  0.00000000E+00
  0.00000000E+00  0.00000000E+00  0.00000000E+00
  0.00000000E+00  0.00000000E+00  0.00000000E+00
  0.00000000E+00  0.00000000E+00  0.00000000E+00
  0.00000000E+00  0.00000000E+00  0.00000000E+00
  0.00000000E+00  0.00000000E+00  0.00000000E+00
  0.00000000E+00  0.00000000E+00  0.00000000E+00
  0.00000000E+00  0.00000000E+00  0.00000000E+00
  0.00000000E+00  0.00000000E+00  0.00000000E+00
  0.00000000E+00  0.00000000E+00  0.00000000E+00
  0.00000000E+00  0.00000000E+00  0.00000000E+00
  0.00000000E+00  0.00000000E+00  0.00000000E+00
  0.00000000E+00  0.00000000E+00  0.00000000E+00
  0.00000000E+00  0.00000000E+00  0.00000000E+00
  0.00000000E+00  0.00000000E+00  0.00000000E+00
  0.00000000E+00  0.00000000E+00  0.00000000E+00
  0.00000000E+00  0.00000000E+00  0.00000000E+00
  0.00000000E+00  0.00000000E+00  0.00000000E+00
  0.00000000E+00  0.00000000E+00  0.00000000E+00
  0.00000000E+00  0.00000000E+00  0.00000000E+00
  0.00000000E+00  0.00000000E+00  0.00000000E+00
  0.00000000E+00  0.00000000E+00  0.00000000E+00
  0.00000000E+00  0.00000000E+00  0.00000000E+00
  0.00000000E+00  0.00000000E+00  0.00000000E+00
  0.00000000E+00  0.00000000E+00  0.00000000E+00
  0.00000000E+00  0.00000000E+00  0.00000000E+00
  0.00000000E+00  0.00000000E+00  0.00000000E+00
  0.00000000E+00  0.00000000E+00  0.00000000E+00
  0.00000000E+00  0.00000000E+00  0.00000000E+00
  0.00000000E+00  0.00000000E+00  0.00000000E+00
  0.00000000E+00  0.00000000E+00  0.00000000E+00
  0.00000000E+00  0.00000000E+00  0.00000000E+00
  0.00000000E+00  0.00000000E+00  0.00000000E+00
  0.00000000E+00  0.00000000E+00  0.00000000E+00
  0.00000000E+00  0.00000000E+00  0.00000000E+00
  0.00000000E+00  0.00000000E+00  0.00000000E+00
  0.00000000E+00  0.00000000E+00  0.00000000E+00
  0.00000000E+00  0.00000000E+00  0.00000000E+00
  0.00000000E+00  0.00000000E+00  0.00000000E+00
  0.00000000E+00  0.00000000E+00  0.00000000E+00
  0.00000000E+00  0.00000000E+00  0.00000000E+00
  0.00000000E+00  0.00000000E+00  0.00000000E+00
  0.00000000E+00  0.00000000E+00  0.00000000E+00
  0.00000000E+00  0.00000000E+00  0.00000000E+00
  0.00000000E+00  0.00000000E+00  0.00000000E+00
  0.00000000E+00  0.00000000E+00  0.00000000E+00
  0.00000000E+00  0.00000000E+00  0.00000000E+00
  0.00000000E+00  0.00000000E+00  0.00000000E+00
  0.00000000E+00  0.00000000E+00  0.00000000E+00
  0.00000000E+00  0.00000000E+00  0.00000000E+00
  0.00000000E+00  0.00000000E+00  0.00000000E+00
  0.00000000E+00  0.00000000E+00  0.00000000E+00
  0.00000000E+00  0.00000000E+00  0.00000000E+00
  0.00000000E+00  0.00000000E+00  0.00000000E+00
  0.00000000E+00  0.00000000E+00  0.00000000E+00
  0.00000000E+00  0.00000000E+00  0.00000000E+00
  0.00000000E+00  0.00000000E+00  0.00000000E+00
  0.00000000E+00  0.00000000E+00  0.00000000E+00
  0.00000000E+00  0.00000000E+00  0.00000000E+00
  0.00000000E+00  0.00000000E+00  0.00000000E+00
  0.00000000E+00  0.00000000E+00  0.00000000E+00
  0.00000000E+00  0.00000000E+00  0.00000000E+00
  0.00000000E+00  0.00000000E+00  0.00000000E+00
  0.00000000E+00  0.00000000E+00  0.00000000E+00
  0.00000000E+00  0.00000000E+00  0.00000000E+00
  0.00000000E+00  0.00000000E+00  0.00000000E+00
  0.00000000E+00  0.00000000E+00  0.00000000E+00
  0.00000000E+00  0.00000000E+00  0.00000000E+00
  0.00000000E+00  0.00000000E+00  0.00000000E+00
  0.00000000E+00  0.00000000E+00  0.00000000E+00
  0.00000000E+00  0.00000000E+00  0.00000000E+00
  0.00000000E+00  0.00000000E+00  0.00000000E+00
  0.00000000E+00  0.00000000E+00  0.00000000E+00
  0.00000000E+00  0.00000000E+00  0.00000000E+00
  0.00000000E+00  0.00000000E+00  0.00000000E+00
  0.00000000E+00  0.00000000E+00  0.00000000E+00
  0.00000000E+00  0.00000000E+00  0.00000000E+00
  0.00000000E+00  0.00000000E+00  0.00000000E+00
  0.00000000E+00  0.00000000E+00  0.00000000E+00
  0.00000000E+00  0.00000000E+00  0.00000000E+00
  0.00000000E+00  0.00000000E+00  0.00000000E+00
  0.00000000E+00  0.00000000E+00  0.00000000E+00
  0.00000000E+00  0.00000000E+00  0.00000000E+00
  0.00000000E+00  0.00000000E+00  0.00000000E+00
  0.00000000E+00  0.00000000E+00  0.00000000E+00
  0.00000000E+00  0.00000000E+00  0.00000000E+00
  0.00000000E+00  0.00000000E+00  0.00000000E+00
  0.00000000E+00  0.00000000E+00  0.00000000E+00
  0.00000000E+00  0.00000000E+00  0.00000000E+00
  0.00000000E+00  0.00000000E+00  0.00000000E+00
  0.00000000E+00  0.00000000E+00  0.00000000E+00
  0.00000000E+00  0.00000000E+00  0.00000000E+00
  0.00000000E+00  0.00000000E+00  0.00000000E+00
  0.00000000E+00  0.00000000E+00  0.00000000E+00
  0.00000000E+00  0.00000000E+00  0.00000000E+00
  0.00000000E+00  0.00000000E+00  0.00000000E+00
  0.00000000E+00  0.00000000E+00  0.00000000E+00
  0.00000000E+00  0.00000000E+00  0.00000000E+00
  0.00000000E+00  0.00000000E+00  0.00000000E+00
  0.00000000E+00  0.00000000E+00  0.00000000E+00
  0.00000000E+00  0.00000000E+00  0.00000000E+00
  0.00000000E+00  0.00000000E+00  0.00000000E+00
  0.00000000E+00  0.00000000E+00  0.00000000E+00
  0.00000000E+00  0.00000000E+00  0.00000000E+00
  0.00000000E+00  0.00000000E+00  0.00000000E+00
  0.00000000E+00  0.00000000E+00  0.00000000E+00
  0.00000000E+00  0.00000000E+00  0.00000000E+00
  0.00000000E+00  0.00000000E+00  0.00000000E+00
  0.00000000E+00  0.00000000E+00  0.00000000E+00
  0.00000000E+00  0.00000000E+00  0.00000000E+00
  0.00000000E+00  0.00000000E+00  0.00000000E+00
  0.00000000E+00  0.00000000E+00  0.00000000E+00
  0.00000000E+00  0.00000000E+00  0.00000000E+00
  0.00000000E+00  0.00000000E+00  0.00000000E+00
  0.00000000E+00  0.00000000E+00  0.00000000E+00
  0.00000000E+00  0.00000000E+00  0.00000000E+00
  0.00000000E+00  0.00000000E+00  0.00000000E+00
  0.00000000E+00  0.00000000E+00  0.00000000E+00
  0.00000000E+00  0.00000000E+00  0.00000000E+00
  0.00000000E+00  0.00000000E+00  0.00000000E+00
  0.00000000E+00  0.00000000E+00  0.00000000E+00
  0.00000000E+00  0.00000000E+00  0.00000000E+00
  0.00000000E+00  0.00000000E+00  0.00000000E+00
  0.00000000E+00  0.00000000E+00  0.00000000E+00
  0.00000000E+00  0.00000000E+00  0.00000000E+00
  0.00000000E+00  0.00000000E+00  0.00000000E+00
  0.00000000E+00  0.00000000E+00  0.00000000E+00
  0.00000000E+00  0.00000000E+00  0.00000000E+00
