Sb_48                                   
   1.00000000000000     
     8.6646049981338660   -0.0202789395054024   -0.0161819817574810
    -4.3496910287687616    7.5052913991375885   -0.0200713660185799
    -0.0300595305574503   -0.0815483729816043   21.4311821304407388
   Sb   Ga
    41     7
Direct
  0.0112014746031645  0.0034490224092001  0.1300862847706245
  0.3361023597777997  0.1895344553594185  0.2956832172052666
  0.1560549546498557  0.3322748040114317  0.9584640078362263
  0.0129709341768310 -0.0001899768462055  0.3703777954487765
  0.3379052856334593  0.1683007806564389  0.0284768436982203
  0.4884509410808158 -0.0041321679445210  0.1314835248187531
  0.8468308077788390  0.1739908186756766  0.2981847392675115
  0.6839336572170943  0.3426562443742422  0.9612336784030235
  0.4930767202226007  0.0000209863108765  0.3641681781117354
  0.8370111320706036  0.1689411704087385  0.0366860624084668
  0.6732846608990050  0.3396466459040322  0.1996486131242344
  0.0094484463694923  0.5052570640006816  0.1309555399568475
  0.3344013759930823  0.6453845915122214  0.2961669743713274
  0.1466823936967374  0.8155283028267136  0.9607252062141751
  0.0115003313708036  0.5181086419633153  0.3711689724526502
  0.3361405901251269  0.6699394656361469  0.0315487536357248
  0.1637779694644973  0.8333025905439444  0.2081815747474048
  0.4980120315658353  0.4978911173847083  0.1275621318549858
  0.8155808600146583  0.6581150805846577  0.3028500969103941
  0.6781844181225946  0.8314612581731476  0.9643230180861276
  0.6738352050594311  0.8394374246807905  0.1985032435033647
 -0.0099485342516046  0.0013102030136817  0.6325048209666569
  0.3479813418715048  0.1492633306980109  0.8015236050323101
  0.1737905547456512  0.3354977535863195  0.4635196317918657
 -0.0020212520421332 -0.0015222153774303  0.8649673228977041
  0.3297477720971319  0.1697570763298554  0.5406595836560428
  0.1520536890418990  0.3296686296066562  0.7217852234688720
  0.5053703424871342 -0.0028739664765092  0.6316374781835101
  0.8180762742576466  0.1621596625317654  0.7927741264117572
  0.6503178331548287  0.3333967584675782  0.4618274316624560
  0.8278221280747075  0.1656774820285958  0.5302183923179097
  0.6512420670660849  0.3439289907266855  0.6990568258407147
 -0.0053798867106964  0.4845208294599147  0.6322951900419211
  0.3320973265368095  0.6791393854975871  0.8037538865302637
  0.3300771319915842  0.6699222332466228  0.5368429180792723
  0.1645947953069083  0.8338273721692477  0.6990043093827476
  0.8414068098430790  0.6520496399612891  0.7981613378295723
  0.6530003662183945  0.8164578099820132  0.4595768858795707
  0.5044313716930442  0.5014918194605751  0.8669729397316746
  0.8438188566454525  0.6771007263027672  0.5344227076899727
  0.6533772336664001  0.8185463603802291  0.7090486450833914
  0.1715091444440376  0.3373088871858844  0.1980829774148333
  0.4955943061626068  0.4995789547334417  0.3706176108257414
  0.8354429976382044  0.6639405100870938  0.0434033436354639
  0.4929784635298332 -0.0062823745001819  0.8935806447254461
  0.1766334320831858  0.8440915704092837  0.4671536019861462
  0.0006274477962389  0.4956413739798757  0.8703059968100796
  0.5209714167597252  0.5174828558834740  0.6098242532982586
 
  0.00000000E+00  0.00000000E+00  0.00000000E+00
  0.00000000E+00  0.00000000E+00  0.00000000E+00
  0.00000000E+00  0.00000000E+00  0.00000000E+00
  0.00000000E+00  0.00000000E+00  0.00000000E+00
  0.00000000E+00  0.00000000E+00  0.00000000E+00
  0.00000000E+00  0.00000000E+00  0.00000000E+00
  0.00000000E+00  0.00000000E+00  0.00000000E+00
  0.00000000E+00  0.00000000E+00  0.00000000E+00
  0.00000000E+00  0.00000000E+00  0.00000000E+00
  0.00000000E+00  0.00000000E+00  0.00000000E+00
  0.00000000E+00  0.00000000E+00  0.00000000E+00
  0.00000000E+00  0.00000000E+00  0.00000000E+00
  0.00000000E+00  0.00000000E+00  0.00000000E+00
  0.00000000E+00  0.00000000E+00  0.00000000E+00
  0.00000000E+00  0.00000000E+00  0.00000000E+00
  0.00000000E+00  0.00000000E+00  0.00000000E+00
  0.00000000E+00  0.00000000E+00  0.00000000E+00
  0.00000000E+00  0.00000000E+00  0.00000000E+00
  0.00000000E+00  0.00000000E+00  0.00000000E+00
  0.00000000E+00  0.00000000E+00  0.00000000E+00
  0.00000000E+00  0.00000000E+00  0.00000000E+00
  0.00000000E+00  0.00000000E+00  0.00000000E+00
  0.00000000E+00  0.00000000E+00  0.00000000E+00
  0.00000000E+00  0.00000000E+00  0.00000000E+00
  0.00000000E+00  0.00000000E+00  0.00000000E+00
  0.00000000E+00  0.00000000E+00  0.00000000E+00
  0.00000000E+00  0.00000000E+00  0.00000000E+00
  0.00000000E+00  0.00000000E+00  0.00000000E+00
  0.00000000E+00  0.00000000E+00  0.00000000E+00
  0.00000000E+00  0.00000000E+00  0.00000000E+00
  0.00000000E+00  0.00000000E+00  0.00000000E+00
  0.00000000E+00  0.00000000E+00  0.00000000E+00
  0.00000000E+00  0.00000000E+00  0.00000000E+00
  0.00000000E+00  0.00000000E+00  0.00000000E+00
  0.00000000E+00  0.00000000E+00  0.00000000E+00
  0.00000000E+00  0.00000000E+00  0.00000000E+00
  0.00000000E+00  0.00000000E+00  0.00000000E+00
  0.00000000E+00  0.00000000E+00  0.00000000E+00
  0.00000000E+00  0.00000000E+00  0.00000000E+00
  0.00000000E+00  0.00000000E+00  0.00000000E+00
  0.00000000E+00  0.00000000E+00  0.00000000E+00
  0.00000000E+00  0.00000000E+00  0.00000000E+00
  0.00000000E+00  0.00000000E+00  0.00000000E+00
  0.00000000E+00  0.00000000E+00  0.00000000E+00
  0.00000000E+00  0.00000000E+00  0.00000000E+00
  0.00000000E+00  0.00000000E+00  0.00000000E+00
  0.00000000E+00  0.00000000E+00  0.00000000E+00
  0.00000000E+00  0.00000000E+00  0.00000000E+00
