Amorphous Sb                            
   1.00000000000000     
    21.0958265722207265    0.2384563603136861   -0.1749422231450723
     0.2372351792336282   20.9941791466181051    0.1983685014359381
    -0.1765052218107553    0.1978790354872763   21.6811439228874434
   Sn   Se
   150   150
Direct
  0.1344984980431208  0.9119159322314566  0.8909323796871293
  0.8719174636399879  0.1688625880646345  0.5718009589229004
  0.8461830412458582  0.2510705395879601  0.2430882073696732
  0.7437270480201109  0.0173075267329050  0.2561040219169316
  0.1287705294467179  0.1739424993611806  0.7092652324536315
  0.8352993102521871  0.5440731483189739  0.9820908798966129
  0.8622585133689598  0.9183600836488895  0.8561726546528142
  0.9555804721208048  0.0050227720831136  0.5913486948952454
  0.8972505334534616  0.2161332106335210  0.7931899844052073
  0.3622331782312229  0.5933233107416684  0.1590095103968319
  0.6755354396184510  0.4520337026315500  0.6530282435880000
  0.7912005035040247  0.8300770574855109  0.2472202976430562
  0.7545057068766788  0.4604778863449236  0.1462572667314935
 -0.0021688967215458  0.2563517678791078  0.2963213587258183
  0.5000879701758552  0.9499571782425855  0.4061814759810109
  0.2448804609317832  0.4999069250144432  0.2711396007129971
  0.6930897988519416  0.4489335889631876  0.2948482714167480
  0.1902776832496698  0.9163187759884713  0.6902395618321812
  0.1303659879346676  0.1274356001023741  0.1861060645550248
  0.2127912470412281  0.2302573468577082  0.0378132130389519
  0.7461862336175615  0.2637138907271646  0.9487994482184259
  0.4528479098327971  0.7969335221739443  0.5536156414847603
  0.6359483694982754  0.1056645592735325  0.5215535648017026
  0.5690397733691420  0.8660571628028637  0.7560345652028708
  0.8840650937210954  0.9557591800996219  0.2077411161863631
  0.1162017272310686  0.9273708589148746  0.1439422423957978
  0.1643534360367297  0.5823462420025667  0.4308237962136456
  0.9856368062872298  0.8256003745720961  0.7761727593569214
  0.5651638829465805  0.5117755667773324  0.1172311278656006
  0.0567063209832013  0.0270206607850339  0.7600951136393023
  0.8453906079211534  0.3824843118510436  0.8600760207082494
  0.1121411452303183  0.3961989011235179  0.3698235567366711
  0.5655146617510621  0.2919926518997869  0.0194821129912141
  0.0315444955384419  0.7910183573111662  0.0615886057908666
  0.5196439909741607  0.9087500210987617  0.0112752832608947
  0.4958245304557990  0.4918569154402639  0.9007595715920449
  0.5270090792865469  0.2288916595967934  0.3051439474387628
  0.0578842366584404  0.4942340638717538  0.1888968722620959
  0.2325393977786556  0.7544703060812559  0.8486863136894850
  0.5493813199503778  0.5758643409755418  0.7336689184600466
  0.5622160857349685  0.3200834323189759  0.7760586939618274
  0.3555379634142232  0.3696068942170236  0.9185365716361514
  0.6513361350743115  0.2288886135582941  0.1574397264309987
  0.9111453471961715  0.7343649237973181  0.6330566178753431
  0.4376423428304539  0.1808666683228513  0.5818936503860169
  0.8947345578852417  0.4014295064613955  0.2544349990835588
  0.4920792317423113  0.6998846728723962  0.1023611124871467
  0.0256472545049717  0.6480005691604098  0.0242093810378121
  0.1255674630093442  0.3962871413605965  0.5649405344996845
  0.3933640523716802  0.4585995126993598  0.7488692277742016
  0.0589235333072844  0.5272794135402975  0.9600696752427730
  0.0312968170824703  0.3901204496929945  0.7304640590647098
  0.2692479515852283  0.6009665696658552  0.9610287207072031
  0.8866016986019825  0.6013414037445159  0.3760953215249820
  0.4096153773198370  0.5862033510350746  0.6455403919124885
  0.7954399871152464  0.0583162094596648  0.7006072688381066
  0.7671879443966555  0.6383948897936073  0.6097591179881870
  0.6403213933556001  0.7416368847074827  0.4969377879058579
  0.7243413862388677  0.6598960039113367  0.7709367936251431
  0.3966998521448934  0.7523017161824765  0.9400735309679439
  0.6380211617863694  0.0527994442287468  0.0628269332693379
  0.4728378282999132  0.4068137776508803  0.2321098625969691
  0.5812014344509460  0.0642785264879959  0.3374283191566830
  0.5792387827968802  0.6958194335452103  0.8634284474130718
  0.8530482821598092  0.9628914004647181  0.4340613006940675
  0.9624901466627176  0.1029327819832597  0.3275384979086915
  0.2617602840270755  0.9636188920269962  0.8643850301954369
  0.6270568933685606  0.6465085281073963  0.9966852208066258
  0.0730040613592182  0.8388491436525242  0.5773571537097892
  0.2912569768946154  0.7126742811377218  0.5553222882297947
  0.4486965440370847  0.9911413071889595  0.6696319984381991
  0.8741716040915516  0.7421583537470974  0.9240712620228136
  0.9842424911985886  0.0365811212451947  0.1362683999708062
  0.5594897429892034  0.3139934452718765  0.6022242708961787
  0.7867660684021722  0.1421695412154494  0.3937824303210021
  0.9154317327626285  0.7357252055651574  0.1639845201478949
  0.2616542333625565  0.8818815161956777  0.5046443021634895
  0.9552072424502817  0.2965754474174795  0.6056502364646519
  0.2587512994455130  0.2960702696954598  0.5711877676789063
  0.3756995806947665  0.1585365666802203  0.2250520375525494
  0.4932178389130966  0.5923352110381649  0.3407727778228332
  0.6693787879524224  0.8716337805911911  0.8793920909190598
  0.6766556579429961  0.6392888493863094  0.3388996623449608
  0.1356094732284296  0.3580626089614080  0.9302185065643838
  0.6295680991349232  0.8364255604091680  0.3618832012436192
  0.4173525408850702  0.9631411029750033  0.8462904895341603
  0.1179424289032655  0.5128733659602757  0.8298747873885552
  0.4385862214401386  0.4460981881988211  0.0637869707249075
  0.0974111804256901 -0.0016670147053341  0.5413201470524753
  0.8013493340044476  0.7873615590154212  0.5055267316419932
  0.8126728661754711  0.1066432687196301  0.1180857143794677
  0.2242193544477861  0.9252957428499736  0.2904378635216026
  0.5075891879562054  0.5825041581438002  0.4856432643413166
  0.5265484090145433  0.0907899971188760  0.1416731367351493
  0.2108135854054069  0.0914600302830030  0.5765008575824131
  0.3168251564528264  0.0463128354366332  0.7184068482537772
  0.3767636413347228  0.0693520938729680  0.3843029509873019
  0.1000561777360216  0.6055246154834185  0.6826930214420567
  0.9731285423319485  0.2494066473008573  0.0989708940270693
  0.6188064366033461  0.9476953741773770  0.5580306718075536
  0.3645289693512010  0.1886859641775973  0.0521361227324963
  0.2028667301839687  0.3993959647582737  0.7592467890710800
  0.1679249723145073  0.3165999063467163  0.2242378932817908
  0.5235016666138378  0.3419259839280135  0.4486503778326788
  0.3706664861368872  0.9851270771290508  0.2023502965296088
  0.0358860430667686  0.8845526289729311  0.3019720016804130
  0.1610066245507382  0.1461466212256467  0.8772135657521520
  0.4567348487974718  0.0849865290941704  0.9240618639537646
  0.8289731615126603  0.8991464004806317  0.6649957709627838
  0.5195128404746335  0.7379820351220513  0.2384178684246518
  0.3194225604110391  0.2317636630194525  0.7558760490440404
  0.4733171855027333  0.1413291959308165  0.7420347145458214
  0.7718460197177598  0.3218741593906028  0.6998352049054151
  0.6920216039225995  0.6637195352327149  0.1675916263305715
  0.1608122846030048  0.7316975411274889  0.3797011463862196
  0.8409515377099814  0.8928708144000371  0.0671843317449212
  0.1704059846281716  0.0530878946309468  0.3870205048078079
  0.9271904958481008  0.6534079462705636  0.7646678662080694
  0.6150600377755725  0.1589516702511292  0.9119331276420231
  0.9475316497374892  0.5467449047346683  0.5797269481709303
  0.8524760001622218  0.4877051494933807  0.7502513978712293
  0.4051605063235653  0.7997064061632879  0.3716039726025359
  0.9369725840306904  0.7725447372161889  0.3709312194034209
  0.4031183498730198  0.3912235937944554  0.5863297022960448
  0.0835475212493829  0.1826856773463926  0.5393417793127527
  0.6644648696116228  0.4417428606810136  0.9550186163381721
  0.3925916529696120  0.7899828869723523  0.7592436225451448
  0.0260878669335631  0.6579810624740546  0.4797750132468169
  0.2255816570480252  0.7768876737461626  0.0316424194956224
  0.8770334473275182  0.5867789315001785  0.1773494463909574
  0.7295891466082148  0.3012366694644693  0.4477775694729034
  0.3513880915546924  0.4451429944122471  0.4086636100425123
  0.2955259822767122  0.0311258012035255  0.0000971599378378
  0.9594685614438005  0.1018778596237920  0.9325152922655812
  0.9400411704582218  0.3846004952128744  0.0130214616825120
  0.6124478224962445  0.1396932646062018  0.7170101439039380
  0.6356937321728121  0.7339103576719540  0.6573308857888057
  0.6764755448476758  0.2161612461828587  0.3394861407977107
  0.2122508329135701  0.4311144673526983  0.1078425297380639
  0.2643171073962785  0.7945376022236588  0.1933062489214190
  0.8967940648056021  0.2818366397868795  0.4282712679901420
  0.2970036519351711  0.6140563292943938  0.8076416004578443
  0.6594476592751759  0.5231849864569219  0.5020258266683628
  0.7431738928004332  0.0331696794340789  0.8998842172435506
  0.3558145486715994  0.3316363407148830  0.2635914445021690
  0.2765030068463371  0.5258876608138123  0.6082147334088711
  0.1767628640091138  0.6490519710206994  0.1102932016259703
  0.6069007497221613  0.8904351981740325  0.1727482254087232
  0.2408463576616836  0.2324161462922830  0.3799396942262379
  0.7959553890306699  0.4638905931949843  0.4810570157425001
  0.0968748280452826  0.4778525776062807  0.4658197599543462
  0.6578733679203108  0.5820158389955900  0.6448520297980412
  0.0698409099490035  0.4156334852742829  0.0256583789134952
  0.1727908631343933  0.6964327805283699  0.9473452256334832
  0.9275569512443458  0.9724701969072284  0.3274229874135265
  0.2033456268265294  0.6168406380945655  0.5502287097404825
  0.6213969104979780  0.3281782829695750  0.9075505227773363
  0.3454414224353874  0.8550684145685723  0.2709504785424379
  0.0782337419046513  0.2881581809146403  0.6600489138746150
  0.3366296072541728  0.4608739924199848  0.1377670492558908
  0.1247487558566676  0.2481010183443579  0.1240529100108181
  0.0347516079765207  0.7548095902527452  0.6709834200705989
  0.8224358489708931  0.1867261234428103  0.6901398826197784
  0.6322120431581321  0.9555570496139613  0.2829285579855362
  0.1666053827994937  0.4834825484077421  0.6616727638747245
  0.8974331246241839  0.8519003242150529  0.5646737611545548
  0.8287802028941199  0.5208059839154559  0.6212430946586004
  0.8883668275345301  0.2183182238894804  0.9616449381451204
  0.8940886245849956  0.6977633584440462  0.4694654058589119
  0.6141643709856106  0.7382804565552655  0.0828989155933925
  0.0694233276633465  0.7780252038954069  0.4635316562508920
  0.5142386731956187  0.0225440983785149  0.5718561141843633
  0.4044149753917805  0.9580727990813958  0.9764228179099198
  0.5444213556911961  0.8602288282897271  0.4919549349336879
  0.5531834306530029  0.3568473503667168  0.3241849898891538
  0.2489527852248377  0.6225686873752078  0.2126085761933249
  0.1192089429265422  0.5136878688384878  0.3007045137588556
  0.4687109661983723  0.4582768718840389  0.4874480342069622
  0.3290504575330565  0.6653971223410801  0.0503912110168616
  0.7338315312930540  0.4408957049576540  0.7659821530406571
  0.3985074893160184  0.2307804588750483  0.3330240243994874
  0.9373090968158495  0.4846324711386065  0.9278683589296419
  0.8445131831801237  0.1251418974687761  0.2717151536543741
  0.5269971548381709  0.2506603804311888  0.1827674047271433
  0.0483385263487771  0.1504863349953311  0.8063559153100999
  0.5304322030871712  0.9924600378935894  0.7691847152031018
  0.3794392009117727  0.4903451782278364  0.9596082830736509
  0.3169981309861618  0.0806398205736594  0.1129869362234115
  0.7190025677698156  0.2927072879098526  0.2490920579763384
  0.9027596680677538  0.1261504264067908  0.4384581774956712
  0.7294254054976828  0.1282906917136956  0.0227833569678395
  0.5412070338147477  0.7181879399840024  0.7422854910887995
  0.0619496113860498  0.0862970009476816  0.4535733222530096
  0.2974122029986634  0.0701977844491913  0.2818042832570706
  0.6185267564813197  0.4018562519234070  0.0680249675541067
  0.6767993844097352  0.7767230802126721  0.2597752806787519
  0.9029610687666560  0.0555383579093486  0.0399142813160989
  0.9704655516368708  0.3703634348845938  0.3562768973523312
  0.2769106318925980  0.9844272547460378  0.6143516775736326
  0.2600079937586174  0.1056715954858665  0.4625638196407487
 -0.0026584053321671  0.3356574400164206  0.1949654406855377
  0.8418409484211877  0.2360688561728986  0.1202889208939797
  0.6995735781525254  0.7445897841980476  0.8671652231259089
  0.9827001636770917  0.7133698071820361  0.8587815539164753
  0.4561441266072237  0.3850867704679299  0.8356015585262478
  0.3211020525293360  0.6659600990096524  0.6897559359398283
  0.1960075359886480  0.2421142413813527  0.7966223139928322
  0.2851581485538690  0.4797368583428110  0.8181024502045688
  0.2906485521169513  0.8334802129192755  0.9344392966612114
  0.4632561872603861  0.8571754260429398  0.6709584597615195
  0.7428258773898773  0.9414449233011383  0.8015360031573340
  0.7402994491567711  0.1820311015497755  0.5120650534282457
  0.6488006283813161  0.2618070421135892  0.6809620195999342
  0.1295575099502539  0.8239785265355182  0.8059189837048044
  0.9104106865684830  0.3400007183122564  0.7374487763335685
  0.3113045669534036  0.3503979093596932  0.7016889830079435
  0.8323416568824867  0.0425534628308319  0.5763790371002635
  0.0532978971291565  0.6217607892057572  0.1485574349367782
  0.4620088113191622  0.8391503738136560  0.8588577432622019
  0.9445105076124813  0.3014045095433415  0.9099093997648381
  0.5080653892536322  0.8612155784870514  0.3129120541980213
  0.4167305464504619  0.6879878839884070  0.2917026026834518
  0.0116325366562504  0.5435683341948447  0.7588418383169958
  0.0046566613545883  0.6525474596227787  0.3570600831792466
  0.4146929339574488  0.5017024628811189  0.2967051124450099
  0.4673220165670115  0.0607008597631309  0.2780380977580159
  0.7776017126130361  0.9040895837494495  0.9558342329562109
  0.2421328371163539  0.3573424877918469  0.0081991830097135
  0.5019375829432323  0.9621331417724260  0.1256593056982604
  0.5110647340270340  0.5955763957612618  0.0243133397001791
  0.7434739582110479  0.0239647502546570  0.3897958895474788
  0.3769260056651419  0.9407535188145510  0.4202683391807335
  0.4394896465126201  0.8040322861002791  0.0452892074485646
  0.5022817429638262  0.1927582499190678  0.8514149938910415
  0.7863592070458670  0.3845038239304570  0.9786282460239371
  0.2469052511908293  0.9257498435237879  0.1631198123234297
  0.8048738075224130  0.8489765412067809  0.3958531339069375
  0.8243493914499254  0.3448697736680398  0.5267996110493171
  0.3869770320081714  0.6138244794456541  0.5234884228262017
  0.4878387332468785  0.1467820529218723  0.0282075733837866
  0.2843943939848872  0.2669281625780591  0.1878061511530789
  0.9707651695275692  0.8579708011997672  0.1898895403343423
  0.9948128089485695  0.1252189801509857  0.6237326974947247
  0.2947289603533325  0.1622013662916360  0.6484239292474195
  0.3786343274965231  0.2840330786504657  0.5180176251968083
  0.8567853544976758  0.7890014056767409  0.7347782137101917
  0.1086216194308567  0.2351869078572011  0.9593300593752390
  0.0972698138802275  0.0433510865323531  0.0824513170960006
  0.1991923461109746  0.8145633498626743  0.6023056522091127
  0.0001068567618711  0.4245327979095631  0.6093959791136233
  0.2690094071421046  0.7689322761347986  0.4344129432792721
  0.6484160271631434  0.8669377731768876  0.6562208188570147
  0.1522913092918542  0.9334616806307156  0.4466468480844158
  0.1843480458005954  0.5408604085734584  0.0387575390517218
  0.6740230233244328  0.0638871967816660  0.6425081954937235
  0.3307862138168579  0.1385428481804556  0.9372349316822085
  0.5789673480591032  0.7067724547644758  0.3923976822219489
  0.7271179564229283  0.6354888912782456  0.4860402748156850
  0.7681141153623889  0.5493097418947041  0.2381375970111293
  0.7033559887097824  0.9550474199546125  0.1157910016644645
  0.6895277965297999  0.1344756871108594  0.8136343885493110
  0.4445929746908394  0.5734395332021039  0.8155048814463446
  0.0101862908487340  0.2825383993456094  0.4897063541278216
  0.6385509327945487  0.5834666715325566  0.8314078647106643
  0.5571770407140546  0.4323759935590101  0.7007978256735196
  0.6875643851742835  0.5594355557590447  0.0795115228548402
 -0.0012141498829667  0.1515196045162051  0.1873810849599954
  0.1953178958371038  0.0389825750862689  0.7759188895160054
  0.4373512987146996  0.3265604161214142  0.0187600106576788
  0.9385757642743680  0.9580493439236325  0.7061578216311041
  0.6585482260959253  0.1231919179153188  0.2437018950081000
  0.0271056882867954  0.9728720297132223  0.8704403612048163
  0.8579355554325353  0.7215320329962156  0.2780558035449894
  0.2983387689986396  0.8919039986694393  0.7622403571185266
  0.5521591982875437  0.2070414623767528  0.5249745344326076
  0.8284758877464904  0.5977778464058447  0.8254281258510443
  0.9513663865486004  0.5200097577016072  0.2592458481338304
  0.6271384819809367  0.5203705667530929  0.3785715676529394
  0.8686071614538876  0.0516133062866601  0.8559484508883752
  0.4636414478621189  0.2591759275182415  0.6849046397611407
  0.2615821605970473  0.3645069832110758  0.3390024256969975
  0.1621889444984793  0.6279757836327560  0.7929308138602541
  0.7982958339604296  0.7818304887696690  0.1261239123065092
  0.0949522562551391  0.9895903704630025  0.2566596376031819
  0.6391222102476004  0.3734407918874251  0.5013733061983227
  0.5402614520388626  0.6993423649395231  0.5734266984769971
  0.8722146802962889  0.4881256379666105  0.0971534661399993
  0.7912264675941354  0.4118753936862869  0.3664957665006708
  0.1283877565991891  0.2214103789094417  0.3046828650028689
  0.8969089330813835  0.6529449847270310  0.0193172846709970
  0.5844619763440665  0.6189323199491894  0.2409727437581945
  0.1579119645939376  0.8114907987058124  0.2704752628145260
  0.1215796490338552  0.8654558366106757  0.0059115230121156
  0.9164695845230227  0.5036199077772882  0.4652757160382480
  0.7819854375056635  0.2752064513881554  0.8242409015164143
  0.1746282280741576  0.2831596833469237  0.4708937733274449
  0.5959701371406076  0.0271336133031683  0.9460565967472122
  0.2849311875749058  0.4266289978537861  0.5285220201788835
  0.9346673994510711  0.8364630222015640  0.9910404324520423
  0.2789422475494393  0.5546349472493739  0.3827732628751767
 
  0.00000000E+00  0.00000000E+00  0.00000000E+00
  0.00000000E+00  0.00000000E+00  0.00000000E+00
  0.00000000E+00  0.00000000E+00  0.00000000E+00
  0.00000000E+00  0.00000000E+00  0.00000000E+00
  0.00000000E+00  0.00000000E+00  0.00000000E+00
  0.00000000E+00  0.00000000E+00  0.00000000E+00
  0.00000000E+00  0.00000000E+00  0.00000000E+00
  0.00000000E+00  0.00000000E+00  0.00000000E+00
  0.00000000E+00  0.00000000E+00  0.00000000E+00
  0.00000000E+00  0.00000000E+00  0.00000000E+00
  0.00000000E+00  0.00000000E+00  0.00000000E+00
  0.00000000E+00  0.00000000E+00  0.00000000E+00
  0.00000000E+00  0.00000000E+00  0.00000000E+00
  0.00000000E+00  0.00000000E+00  0.00000000E+00
  0.00000000E+00  0.00000000E+00  0.00000000E+00
  0.00000000E+00  0.00000000E+00  0.00000000E+00
  0.00000000E+00  0.00000000E+00  0.00000000E+00
  0.00000000E+00  0.00000000E+00  0.00000000E+00
  0.00000000E+00  0.00000000E+00  0.00000000E+00
  0.00000000E+00  0.00000000E+00  0.00000000E+00
  0.00000000E+00  0.00000000E+00  0.00000000E+00
  0.00000000E+00  0.00000000E+00  0.00000000E+00
  0.00000000E+00  0.00000000E+00  0.00000000E+00
  0.00000000E+00  0.00000000E+00  0.00000000E+00
  0.00000000E+00  0.00000000E+00  0.00000000E+00
  0.00000000E+00  0.00000000E+00  0.00000000E+00
  0.00000000E+00  0.00000000E+00  0.00000000E+00
  0.00000000E+00  0.00000000E+00  0.00000000E+00
  0.00000000E+00  0.00000000E+00  0.00000000E+00
  0.00000000E+00  0.00000000E+00  0.00000000E+00
  0.00000000E+00  0.00000000E+00  0.00000000E+00
  0.00000000E+00  0.00000000E+00  0.00000000E+00
  0.00000000E+00  0.00000000E+00  0.00000000E+00
  0.00000000E+00  0.00000000E+00  0.00000000E+00
  0.00000000E+00  0.00000000E+00  0.00000000E+00
  0.00000000E+00  0.00000000E+00  0.00000000E+00
  0.00000000E+00  0.00000000E+00  0.00000000E+00
  0.00000000E+00  0.00000000E+00  0.00000000E+00
  0.00000000E+00  0.00000000E+00  0.00000000E+00
  0.00000000E+00  0.00000000E+00  0.00000000E+00
  0.00000000E+00  0.00000000E+00  0.00000000E+00
  0.00000000E+00  0.00000000E+00  0.00000000E+00
  0.00000000E+00  0.00000000E+00  0.00000000E+00
  0.00000000E+00  0.00000000E+00  0.00000000E+00
  0.00000000E+00  0.00000000E+00  0.00000000E+00
  0.00000000E+00  0.00000000E+00  0.00000000E+00
  0.00000000E+00  0.00000000E+00  0.00000000E+00
  0.00000000E+00  0.00000000E+00  0.00000000E+00
  0.00000000E+00  0.00000000E+00  0.00000000E+00
  0.00000000E+00  0.00000000E+00  0.00000000E+00
  0.00000000E+00  0.00000000E+00  0.00000000E+00
  0.00000000E+00  0.00000000E+00  0.00000000E+00
  0.00000000E+00  0.00000000E+00  0.00000000E+00
  0.00000000E+00  0.00000000E+00  0.00000000E+00
  0.00000000E+00  0.00000000E+00  0.00000000E+00
  0.00000000E+00  0.00000000E+00  0.00000000E+00
  0.00000000E+00  0.00000000E+00  0.00000000E+00
  0.00000000E+00  0.00000000E+00  0.00000000E+00
  0.00000000E+00  0.00000000E+00  0.00000000E+00
  0.00000000E+00  0.00000000E+00  0.00000000E+00
  0.00000000E+00  0.00000000E+00  0.00000000E+00
  0.00000000E+00  0.00000000E+00  0.00000000E+00
  0.00000000E+00  0.00000000E+00  0.00000000E+00
  0.00000000E+00  0.00000000E+00  0.00000000E+00
  0.00000000E+00  0.00000000E+00  0.00000000E+00
  0.00000000E+00  0.00000000E+00  0.00000000E+00
  0.00000000E+00  0.00000000E+00  0.00000000E+00
  0.00000000E+00  0.00000000E+00  0.00000000E+00
  0.00000000E+00  0.00000000E+00  0.00000000E+00
  0.00000000E+00  0.00000000E+00  0.00000000E+00
  0.00000000E+00  0.00000000E+00  0.00000000E+00
  0.00000000E+00  0.00000000E+00  0.00000000E+00
  0.00000000E+00  0.00000000E+00  0.00000000E+00
  0.00000000E+00  0.00000000E+00  0.00000000E+00
  0.00000000E+00  0.00000000E+00  0.00000000E+00
  0.00000000E+00  0.00000000E+00  0.00000000E+00
  0.00000000E+00  0.00000000E+00  0.00000000E+00
  0.00000000E+00  0.00000000E+00  0.00000000E+00
  0.00000000E+00  0.00000000E+00  0.00000000E+00
  0.00000000E+00  0.00000000E+00  0.00000000E+00
  0.00000000E+00  0.00000000E+00  0.00000000E+00
  0.00000000E+00  0.00000000E+00  0.00000000E+00
  0.00000000E+00  0.00000000E+00  0.00000000E+00
  0.00000000E+00  0.00000000E+00  0.00000000E+00
  0.00000000E+00  0.00000000E+00  0.00000000E+00
  0.00000000E+00  0.00000000E+00  0.00000000E+00
  0.00000000E+00  0.00000000E+00  0.00000000E+00
  0.00000000E+00  0.00000000E+00  0.00000000E+00
  0.00000000E+00  0.00000000E+00  0.00000000E+00
  0.00000000E+00  0.00000000E+00  0.00000000E+00
  0.00000000E+00  0.00000000E+00  0.00000000E+00
  0.00000000E+00  0.00000000E+00  0.00000000E+00
  0.00000000E+00  0.00000000E+00  0.00000000E+00
  0.00000000E+00  0.00000000E+00  0.00000000E+00
  0.00000000E+00  0.00000000E+00  0.00000000E+00
  0.00000000E+00  0.00000000E+00  0.00000000E+00
  0.00000000E+00  0.00000000E+00  0.00000000E+00
  0.00000000E+00  0.00000000E+00  0.00000000E+00
  0.00000000E+00  0.00000000E+00  0.00000000E+00
  0.00000000E+00  0.00000000E+00  0.00000000E+00
  0.00000000E+00  0.00000000E+00  0.00000000E+00
  0.00000000E+00  0.00000000E+00  0.00000000E+00
  0.00000000E+00  0.00000000E+00  0.00000000E+00
  0.00000000E+00  0.00000000E+00  0.00000000E+00
  0.00000000E+00  0.00000000E+00  0.00000000E+00
  0.00000000E+00  0.00000000E+00  0.00000000E+00
  0.00000000E+00  0.00000000E+00  0.00000000E+00
  0.00000000E+00  0.00000000E+00  0.00000000E+00
  0.00000000E+00  0.00000000E+00  0.00000000E+00
  0.00000000E+00  0.00000000E+00  0.00000000E+00
  0.00000000E+00  0.00000000E+00  0.00000000E+00
  0.00000000E+00  0.00000000E+00  0.00000000E+00
  0.00000000E+00  0.00000000E+00  0.00000000E+00
  0.00000000E+00  0.00000000E+00  0.00000000E+00
  0.00000000E+00  0.00000000E+00  0.00000000E+00
  0.00000000E+00  0.00000000E+00  0.00000000E+00
  0.00000000E+00  0.00000000E+00  0.00000000E+00
  0.00000000E+00  0.00000000E+00  0.00000000E+00
  0.00000000E+00  0.00000000E+00  0.00000000E+00
  0.00000000E+00  0.00000000E+00  0.00000000E+00
  0.00000000E+00  0.00000000E+00  0.00000000E+00
  0.00000000E+00  0.00000000E+00  0.00000000E+00
  0.00000000E+00  0.00000000E+00  0.00000000E+00
  0.00000000E+00  0.00000000E+00  0.00000000E+00
  0.00000000E+00  0.00000000E+00  0.00000000E+00
  0.00000000E+00  0.00000000E+00  0.00000000E+00
  0.00000000E+00  0.00000000E+00  0.00000000E+00
  0.00000000E+00  0.00000000E+00  0.00000000E+00
  0.00000000E+00  0.00000000E+00  0.00000000E+00
  0.00000000E+00  0.00000000E+00  0.00000000E+00
  0.00000000E+00  0.00000000E+00  0.00000000E+00
  0.00000000E+00  0.00000000E+00  0.00000000E+00
  0.00000000E+00  0.00000000E+00  0.00000000E+00
  0.00000000E+00  0.00000000E+00  0.00000000E+00
  0.00000000E+00  0.00000000E+00  0.00000000E+00
  0.00000000E+00  0.00000000E+00  0.00000000E+00
  0.00000000E+00  0.00000000E+00  0.00000000E+00
  0.00000000E+00  0.00000000E+00  0.00000000E+00
  0.00000000E+00  0.00000000E+00  0.00000000E+00
  0.00000000E+00  0.00000000E+00  0.00000000E+00
  0.00000000E+00  0.00000000E+00  0.00000000E+00
  0.00000000E+00  0.00000000E+00  0.00000000E+00
  0.00000000E+00  0.00000000E+00  0.00000000E+00
  0.00000000E+00  0.00000000E+00  0.00000000E+00
  0.00000000E+00  0.00000000E+00  0.00000000E+00
  0.00000000E+00  0.00000000E+00  0.00000000E+00
  0.00000000E+00  0.00000000E+00  0.00000000E+00
  0.00000000E+00  0.00000000E+00  0.00000000E+00
  0.00000000E+00  0.00000000E+00  0.00000000E+00
  0.00000000E+00  0.00000000E+00  0.00000000E+00
  0.00000000E+00  0.00000000E+00  0.00000000E+00
  0.00000000E+00  0.00000000E+00  0.00000000E+00
  0.00000000E+00  0.00000000E+00  0.00000000E+00
  0.00000000E+00  0.00000000E+00  0.00000000E+00
  0.00000000E+00  0.00000000E+00  0.00000000E+00
  0.00000000E+00  0.00000000E+00  0.00000000E+00
  0.00000000E+00  0.00000000E+00  0.00000000E+00
  0.00000000E+00  0.00000000E+00  0.00000000E+00
  0.00000000E+00  0.00000000E+00  0.00000000E+00
  0.00000000E+00  0.00000000E+00  0.00000000E+00
  0.00000000E+00  0.00000000E+00  0.00000000E+00
  0.00000000E+00  0.00000000E+00  0.00000000E+00
  0.00000000E+00  0.00000000E+00  0.00000000E+00
  0.00000000E+00  0.00000000E+00  0.00000000E+00
  0.00000000E+00  0.00000000E+00  0.00000000E+00
  0.00000000E+00  0.00000000E+00  0.00000000E+00
  0.00000000E+00  0.00000000E+00  0.00000000E+00
  0.00000000E+00  0.00000000E+00  0.00000000E+00
  0.00000000E+00  0.00000000E+00  0.00000000E+00
  0.00000000E+00  0.00000000E+00  0.00000000E+00
  0.00000000E+00  0.00000000E+00  0.00000000E+00
  0.00000000E+00  0.00000000E+00  0.00000000E+00
  0.00000000E+00  0.00000000E+00  0.00000000E+00
  0.00000000E+00  0.00000000E+00  0.00000000E+00
  0.00000000E+00  0.00000000E+00  0.00000000E+00
  0.00000000E+00  0.00000000E+00  0.00000000E+00
  0.00000000E+00  0.00000000E+00  0.00000000E+00
  0.00000000E+00  0.00000000E+00  0.00000000E+00
  0.00000000E+00  0.00000000E+00  0.00000000E+00
  0.00000000E+00  0.00000000E+00  0.00000000E+00
  0.00000000E+00  0.00000000E+00  0.00000000E+00
  0.00000000E+00  0.00000000E+00  0.00000000E+00
  0.00000000E+00  0.00000000E+00  0.00000000E+00
  0.00000000E+00  0.00000000E+00  0.00000000E+00
  0.00000000E+00  0.00000000E+00  0.00000000E+00
  0.00000000E+00  0.00000000E+00  0.00000000E+00
  0.00000000E+00  0.00000000E+00  0.00000000E+00
  0.00000000E+00  0.00000000E+00  0.00000000E+00
  0.00000000E+00  0.00000000E+00  0.00000000E+00
  0.00000000E+00  0.00000000E+00  0.00000000E+00
  0.00000000E+00  0.00000000E+00  0.00000000E+00
  0.00000000E+00  0.00000000E+00  0.00000000E+00
  0.00000000E+00  0.00000000E+00  0.00000000E+00
  0.00000000E+00  0.00000000E+00  0.00000000E+00
  0.00000000E+00  0.00000000E+00  0.00000000E+00
  0.00000000E+00  0.00000000E+00  0.00000000E+00
  0.00000000E+00  0.00000000E+00  0.00000000E+00
  0.00000000E+00  0.00000000E+00  0.00000000E+00
  0.00000000E+00  0.00000000E+00  0.00000000E+00
  0.00000000E+00  0.00000000E+00  0.00000000E+00
  0.00000000E+00  0.00000000E+00  0.00000000E+00
  0.00000000E+00  0.00000000E+00  0.00000000E+00
  0.00000000E+00  0.00000000E+00  0.00000000E+00
  0.00000000E+00  0.00000000E+00  0.00000000E+00
  0.00000000E+00  0.00000000E+00  0.00000000E+00
  0.00000000E+00  0.00000000E+00  0.00000000E+00
  0.00000000E+00  0.00000000E+00  0.00000000E+00
  0.00000000E+00  0.00000000E+00  0.00000000E+00
  0.00000000E+00  0.00000000E+00  0.00000000E+00
  0.00000000E+00  0.00000000E+00  0.00000000E+00
  0.00000000E+00  0.00000000E+00  0.00000000E+00
  0.00000000E+00  0.00000000E+00  0.00000000E+00
  0.00000000E+00  0.00000000E+00  0.00000000E+00
  0.00000000E+00  0.00000000E+00  0.00000000E+00
  0.00000000E+00  0.00000000E+00  0.00000000E+00
  0.00000000E+00  0.00000000E+00  0.00000000E+00
  0.00000000E+00  0.00000000E+00  0.00000000E+00
  0.00000000E+00  0.00000000E+00  0.00000000E+00
  0.00000000E+00  0.00000000E+00  0.00000000E+00
  0.00000000E+00  0.00000000E+00  0.00000000E+00
  0.00000000E+00  0.00000000E+00  0.00000000E+00
  0.00000000E+00  0.00000000E+00  0.00000000E+00
  0.00000000E+00  0.00000000E+00  0.00000000E+00
  0.00000000E+00  0.00000000E+00  0.00000000E+00
  0.00000000E+00  0.00000000E+00  0.00000000E+00
  0.00000000E+00  0.00000000E+00  0.00000000E+00
  0.00000000E+00  0.00000000E+00  0.00000000E+00
  0.00000000E+00  0.00000000E+00  0.00000000E+00
  0.00000000E+00  0.00000000E+00  0.00000000E+00
  0.00000000E+00  0.00000000E+00  0.00000000E+00
  0.00000000E+00  0.00000000E+00  0.00000000E+00
  0.00000000E+00  0.00000000E+00  0.00000000E+00