Amorphous Sb                            
   1.00000000000000     
    20.1278869700586895    0.0000000000000000    0.0000000000000000
     0.0000000000000000   20.1278869700586895    0.0000000000000000
     0.0000000000000000    0.0000000000000000   20.1278869700586895
   Ge   Se
   150   150
Direct
  0.4907165499032212  0.7014533232011531  0.7917958812991692
  0.2109015387440511  0.4208890609079921  0.8046608082335738
  0.3592582267811633  0.3065551957630970  0.6194237217469029
  0.8230400493714881  0.0310660719906697  0.6327275534654495
  0.9054112216614936  0.5859304312010933  0.6440497155037879
  0.2070764437777454  0.6861839825548210  0.9668463128300568
  0.1219527463975852  0.1672194484735137  0.3467314628897138
  0.3251757733230221  0.6234517477750867  0.8089097684436578
  0.3509562625818796  0.8739766253859126  0.2279014415105998
  0.3719790678855566  0.0189495389036441  0.4235748708361585
  0.9943350988666820  0.0849085406507253  0.4257600174052959
  0.6113984602825914  0.3388487632048964  0.8460886316695333
  0.6411808749445068  0.4418204017116763  0.6062643639682260
  0.2602996742593784  0.0088095469820746  0.8383186212377752
  0.6610799297794209  0.9311061633251659  0.4220571852532479
  0.0392541120345129  0.7826166353825409  0.0889886515031212
  0.0470575473977391  0.7522187234644787  0.3431534101379052
  0.8115147317468563  0.3972831654587097  0.3689871845158181
  0.1089686747993903  0.4633664832388698  0.9648144998550495
  0.0523249331439212  0.9026814174765468  0.4789851851574278
  0.1452969159667139  0.8320780924339293  0.2098587614483745
  0.4143334876609320  0.7533064575321661  0.9724894925085484
  0.0025322426605484  0.1764528897059116  0.9336042850847209
  0.0331506969469919  0.0671743478679200  0.1194738027531689
  0.5478108027956682  0.3074811242036767  0.1904619021863427
  0.3713619564237252  0.1345281970530545  0.5813323514853825
  0.3927139712073835  0.7693400758068014  0.5528826899659681
  0.8028704814364354  0.9152832248237815  0.0120212906486200
  0.7339592036019322  0.5913784137581227  0.6658046366096987
  0.9371969104684034  0.7951165412642072  0.6007749727398313
  0.0621692450965983  0.3540538926838804  0.7326115161168592
  0.0290274850811967  0.0941436183241630  0.2467288345527721
  0.8598841317362217  0.4775828580723728  0.5128897454693422
  0.4067405990825050  0.4460096609825986  0.2812673048040966
  0.0341946128661711  0.5264690263541194  0.5819468831452823
  0.7732490323770764  0.6900604182928504  0.1868035733324181
  0.4515351139212582  0.4709393736655409  0.9213267324724551
  0.2685614787012683  0.0421528711279188  0.2422899267325867
  0.2534077386983793  0.3641245989801292  0.1257384767609450
  0.7379745594231589  0.3733951025973606  0.7799366261036219
  0.8459765092826501  0.8094901724712191  0.4034787110048164
  0.9169929990222675  0.1898771107050377  0.5411499021211207
  0.5528524912188365  0.8510856644384921  0.5399334343970738
  0.3793368406381338  0.9867505210827281  0.1090017316651063
  0.3705265271109595  0.6743440628125804  0.2041721213362681
  0.4217778761494559  0.4478168069425428  0.5078274958471984
  0.9199071234091694  0.7907783940251580  0.2008509014320180
  0.0337055811812530  0.3732936308914889  0.4067762233166496
  0.9968531060647648  0.7517438495346784  0.7885080096443785
  0.5451570710223983  0.0723610941941363  0.3066058222521938
  0.2614073875096705  0.4283185975514480  0.9449980819045115
  0.0492367448802777  0.2824876919632677  0.1269613491260506
  0.6063629818330100  0.7632396456017868  0.8115492478359756
  0.5713586646092373  0.3060135992215484  0.7298420709935406
  0.0678731670329884  0.5774299810444395  0.3514607237755308
  0.0300404093652123  0.9194875119227287  0.2124569010648118
  0.2100419029822621  0.5754304451292379  0.4568746594980211
  0.9506264721647418  0.3136289097924691  0.5889744760660376
  0.1034331494726502  0.0535044495599402  0.8131833743517126
  0.5307766548425713  0.4429605035876796  0.3313786249538510
  0.6929627085856243  0.1029808507067928  0.1053252507941667
  0.5658187436799703  0.6885896478384876  0.1737443156875784
  0.9349058962401521  0.6534868319603416  0.3377159236510290
  0.8635401067931233  0.0193446675617252  0.8279910078158303
  0.6274414938085390  0.8439946677870489  0.0117390876080911
  0.0640883000476378  0.3460275370083645  0.9298828724510350
  0.8168445347220612  0.8546569202468716  0.5338922230667269
  0.7241585955261449  0.7676772267216927  0.6878350319387750
  0.8184525778204794  0.2307714610160271  0.1425106649889711
  0.8302440926832495  0.3406856149325953  0.0380906894036057
  0.9437010126567741  0.3770914857779739  0.7811554198375280
  0.4017049312158819  0.1587862432473804  0.1761053278282386
  0.3739422207164696  0.5441129222321136  0.4355411040095525
  0.4469107729469350  0.8293693488852009  0.3955559528763393
  0.3302004165153169  0.4259173931412989  0.6691628339502164
  0.6968617416444221  0.9821822999599703  0.1588069371831353
  0.2428577871248528  0.2390889668196211  0.1647927737345338
  0.8682431743941597  0.0626355062882610  0.0151058990865885
  0.2219610888679849  0.8136327218653856  0.8954642300967688
  0.3593478919729307  0.2520609077877271  0.0290595721651401
  0.6569807294854704  0.9879033576920603  0.8833445124275892
  0.9830928940936465  0.6004024192380382  0.8403332615247691
  0.7917560998461602  0.5004103068523751  0.0697438277172793
  0.7934551547674139  0.5270295459305054  0.3473075540639214
  0.3355072060638261  0.1235064423610811  0.7061112819848893
  0.6075227860207728  0.1445155661879074  0.0189188906308599
  0.5284886682594323  0.6378824014673824  0.6184234160988619
  0.7322048836372750  0.2950082427464302  0.5221258075298041
  0.6503706357646853  0.5767179256605166  0.1778281547977882
  0.5410125936933714  0.2297826074842707  0.3617754295622032
  0.6212594149970030  0.1092629749044166  0.8956783603421530
  0.1143865158943855  0.1171062490810762  0.5633640708543136
  0.3207740282657188  0.5894289065277295  0.6068258455267589
  0.7498922676166117  0.0366892246954340  0.4610033152002069
  0.6553063863544685  0.9395442995375597  0.6029108708927163
  0.6663434865560743  0.7073389353993971  0.5330880451856130
  0.4486515025403664  0.0126763017148742  0.9095467875013064
  0.1667117220698419  0.4580152056452150  0.6435391786342819
  0.1664491736074354  0.7481731017956833  0.4674784827935030
  0.2081879782868587  0.1263173068864182  0.8175632462351330
  0.1173991013271185  0.4256464694049201  0.2318095229743534
  0.5392345752025817  0.2951318074989528  0.9403096119521969
  0.2553036241647642  0.5050887817018194  0.1033532261503208
  0.8586612599253356  0.0471095815475222  0.1849082873453581
  0.4060524649519493  0.8638917105393261  0.8156084656513642
  0.7226517799472361  0.6888336588053593  0.9456230824650487
  0.9880392183657395  0.4827467888004534  0.0143665320811906
  0.0470503759201172  0.6636623927021685  0.0360225421864325
  0.6776390278006131  0.1749188834455354  0.7154194748823115
  0.7156634871772540  0.9301565631386592  0.7788747931047634
  0.1129124887691420  0.8883793002715861  0.6641586529212542
  0.1160970458594901  0.9497461116867151  0.0079356576697482
  0.1498885534643914  0.9556535375038195  0.3757587337274994
  0.7397402323875106  0.1506063691900828  0.2959417270348799
  0.7546468890307864  0.8077584498966742  0.3124016542912935
  0.7321929205214425  0.6332498003005161  0.4029011753110560
  0.4106718393502086  0.2747065282337320  0.3077265084380872
  0.6560786398359713  0.6515123279747920  0.7602170315016777
  0.3073800290547526  0.2303011369868503  0.4504566359075138
  0.0902549815395783  0.9297842448730760  0.7835513831653166
  0.9263540531037399  0.4646634977684205  0.2240519286872134
  0.8374746685599642  0.2205013186491031  0.3520271378417876
  0.8090741691478772  0.6298878469682773  0.8088291159328728
  0.9590568723862852  0.9087144899506526  0.9425378418639110
  0.2364332543104831  0.4111646307353935  0.3958085052734826
  0.2078879705795806  0.6972246553872846  0.6658459203601754
  0.3749006736276665  0.9532251385150586  0.5433610164537431
  0.5410970591497272  0.8767026293118044  0.7692571903907971
  0.1846268436360401  0.1116533204696629  0.9787870295632252
  0.2842403100286237  0.8157731292011708  0.0752725165609433
  0.5633459007833160  0.5840517822520596  0.4172882813755555
  0.9008893185171000  0.7419319092515783  0.8878201459817550
  0.4706009565444255  0.1874909674777596  0.9329122591546888
  0.4566758890661643  0.5319834059463305  0.0982507177998628
  0.0320300020804694  0.6979962201644792  0.6012561009843614
  0.1837320647643040  0.6416013598222767  0.1905050350648982
  0.2924033364835111  0.2706028380302453  0.8136412495461295
  0.5480691289854369  0.0656633375154271  0.4929693907117432
  0.4196710254277666  0.7083128803133207  0.3218983393087678
  0.3326256569943530  0.7980721932168154  0.7294668920843249
  0.7333604648009527  0.4128049564508761  0.2304238350587609
  0.6067200005625663  0.4697332907005340  0.0349024738648121
  0.1769920497259788  0.9836173370677324  0.5952318881137046
  0.9093452799741285  0.2037332603849387  0.7401156923352384
  0.5567400611942775  0.1966324109028225  0.5563523261183719
  0.0977634665484685  0.2340162284824146  0.4994546023366592
  0.1454751656119043  0.5984139218738069  0.8149887076589520
  0.5355409187773813  0.8767879996666098  0.2072676671098978
  0.4657135234694511  0.4670477370615037  0.7515130198467951
  0.9030418232513261  0.4593668899002499  0.9202581801157095
  0.8738877617807705  0.1141393224250774  0.8968271607105009
  0.8475063701034017  0.9670847472334718  0.4927366085280894
  0.0793047608750569  0.7256011823614726  0.1980989871532340
  0.9280622164807203  0.4581027455532098  0.6209035493200807
  0.3172136184234751  0.6976341026012778  0.0303835287492558
  0.1186306976469583  0.0034098483311768  0.2486288051769566
  0.5664476090686968  0.4821956312334313  0.1580758260841711
  0.7062123962099540  0.0568723464908867  0.5821768514799391
  0.6185231856086231  0.2639573358637208  0.0257218305987133
  0.1264087605577247  0.0778142862621987  0.4426578403343580
  0.9415468059467637  0.8273432090126918  0.3198801754963747
  0.7681178154103708  0.0446732913396099  0.7580063932887215
  0.7769503974707112  0.7023326799503725  0.5946359683489829
  0.2702967323137743  0.8007531373035707  0.6245312129415245
  0.8950374574382621  0.6666996908609263  0.2170604984177937
  0.4889663156931557  0.1192405600812059  0.0330250144087824
  0.2877211300032617  0.1576777272545027  0.0838736478025955
  0.3416688895141774  0.8390509724053348  0.4619238032172872
  0.9508114075649344 -0.0117602364319666  0.7480446416191495
  0.7001595764714493  0.2031564195426186  0.1905249983606705
  0.6961875585482860  0.9864804780811708 -0.0010118127714809
  0.5509663223709530  0.1927310952159875  0.6860933083415406
  0.1503422847438441  0.0477438081155498  0.0846895104599084
  0.8890119019343100  0.4848311811315136  0.8014275596437238
  0.2172564317754986  0.3800272815693481  0.2738607880488197
  0.3336067715447175  0.3916118619977485  0.8431012421235278
  0.2760520613413727  0.7656802803068016  0.1940404699939124
  0.2754089373492122  0.9697489376096488  0.3470449308997084
  0.3400549023608846  0.4974700836318115  0.0172695308312302
  0.4002728722477080  0.0407434110621133  0.2253135996938349
  0.4340233275753271  0.2376652244850090  0.5431666489676928
  0.4236082875030017  0.3440465999778360  0.2026487261596431
  0.9449616291152129  0.0005487244600737  0.2675399161980742
  0.4282603578537310  0.8685777171430178  0.1255446483177772
  0.1045289973571969  0.4805050708610791  0.4217632951945254
  0.0707386267881782  0.4971740300623222  0.8488639970526066
  0.5510006090832882  0.4499752085785570  0.8429072531193994
  0.2925292994792900  0.9807891722975189  0.6350145855610494
  0.5202574060830339  0.1833646873941947  0.2393778809425719
  0.9172304553015308  0.5288101583206020  0.3499717783142789
  0.6207375146163616  0.5261327678821817  0.3209430547373293
  0.3511983805443122  0.1954009884077006  0.9133084479065907
  0.1772253523303787  0.9009238458103189  0.5028480949880348
  0.0158208782941448  0.2139675095081814  0.4039536746869876
  0.5445615819892028  0.9266579360928381  0.8888814660691537
  0.6108524673207611  0.9731504593682703  0.7205461460606751
  0.6889628637220168  0.4716557633256188  0.7190681485680087
  0.1513371196246212  0.8290908017383527  0.3343950578864692
  0.9055002137296674  0.3766768084680797  0.4471178966345085
  0.5071874125348650  0.7512643701663226  0.4733651731684961
  0.8538054768383468  0.3201904141820389  0.7249346339812526
  0.3239566831139490  0.6418196495352591  0.4902211860141392
  0.6729882448898191  0.2024389029067900  0.8402471171806032
  0.2985029145250594  0.1029012717176631  0.4855279968055214
  0.7950029051791963  0.8195745388386646  0.1961405629147222
  0.7851008899218241  0.5290765186161249  0.2237940897908529
  0.1675223992636528  0.6591860198145982  0.3702132890490067
  0.0429349180733420  0.8487352951370705  0.8638759079908821
  0.7898096483948902  0.4352103668365077  0.9559232561324574
  0.9890019421657302  0.0870336476342958  0.5527712799086918
  0.2690790506481934  0.9423368585264170  0.1592946511113264
  0.5423074835190209  0.5976730691417671  0.7399026422350674
  0.0064524710408406  0.9025607859448056  0.6000342092727733
  0.1054739254580080  0.2904999310330360  0.8312503541488792
  0.5085004738175656  0.3882333134566011  0.6664996800643544
  0.2618601054994351  0.2586010856715003  0.5630194673702539
  0.2473699174701203  0.0012820083644915  0.9596567725154264
  0.7855009105343889  0.1567970939954416  0.0413364462636713
  0.8769583784411682  0.6208160240139857  0.9191696626896468
  0.8903494718509581  0.1627505368774528  0.2181750644799626
  0.5380069793192680  0.4629852909310810  0.4562528691596629
  0.5932805479108959  0.3409837531402954  0.3013402079828859
  0.6373702542316342  0.5744191067226568  0.5825041505409525
  0.7040584957315814  0.6939291137943805  0.2962299318151712
  0.5311791056965430  0.7331852544095070  0.2825377715362413
  0.1060492999457362  0.7704644539180699  0.7003049937696376
  0.7814688928181548  0.7508415730432830  0.8469816666064873
  0.6110318808519358  0.8009310054074751  0.1371529393529567
  0.9055018340087132  0.8004850412945907  0.7190070717139699
  0.0877078280529204  0.2518977852196165  0.0038215570363557
  0.8426707505356607  0.9131081192914863  0.8810152135095833
  0.7453679898561928  0.8066597154981752  0.0209094266163697
  0.7582778133499689  0.0330399042518716  0.2656932907301103
  0.2254204465554790  0.5281657582767504  0.7346518208781725
  0.7451393937101594  0.4228488315051895  0.5265577488481666
  0.3831518367511624  0.2447501673856640  0.7284370883107931
  0.0009030028360960  0.9515798509463309  0.0920427568699442
  0.4505793065840896  0.5873492750414061  0.3507279496854708
  0.1292550745478531  0.2067309612013033  0.1904160569148790
  0.0407071536521285  0.7751805385515097  0.4700392339205476
  0.7401047304129679  0.3013372168909449  0.3902794238576064
  0.4109735363575350  0.7068544925506817  0.6996728011826646
  0.6627456734795367  0.8848046102361931  0.3072490038123812
  0.3423390628249205  0.8489979056379612  0.9234590370637197
  0.1544579200855870  0.8255858991047484  0.0469705846210744
  0.8444835746223941  0.1404163963848526  0.4522368416821650
  0.7038414793499180  0.8264053105977797  0.4795287849506820
  0.0152137886965960  0.2476274616092267  0.6771368118595538
  0.6996507432275170  0.5896512497146003  0.8580533696885525
  0.2531394741561127  0.3178764357507627  0.0069825968911089
  0.4232989047330158  0.6576916517826342  0.8860161976530599
  0.0617568068133495  0.6727762308302875  0.9156820449652446
  0.5766179360403372 -0.0066392398221092  0.1689867358730313
  0.4655684751613337  0.3709259205210177 -0.0033912759845556
  0.9191475575218991  0.8021628920975111  0.9940798032448726
  0.6401297267718301  0.1383897836274628  0.3690244702995870
  0.2397594007537273  0.5817686173869004  0.8986306246401802
  0.2696140304210035  0.4750766520450904  0.5664721340640102
  0.5065929319140610  0.1091120793202408  0.8452729684628891
  0.4356156325650031  0.5344901226136469  0.6037602052693583
  0.2142628009830142  0.9012646423892038  0.7964577813733438
  0.0630668462022695  0.0643745985666408  0.9273971767362332
  0.2794616710657478  0.5254780171641257  0.3601285193021965
  0.9621143875323117  0.1443055692253866  0.0507172170239134
  0.2240898187086075  0.3536620376615791  0.6952429683385759
  0.3128858808491957  0.2018796840001862  0.2643269252292522
  0.2554507421904985  0.7303810840652862  0.8016766460613124
  0.8444822082686632  0.6850494317051981  0.4235119925752066
  0.0957745614509842  0.5448166970402798  0.2277563293067095
  0.9614293762281876  0.5849824508057685  0.0711451854082773
  0.1837386702620598  0.2585536294457573  0.4118529363359773
  0.2160603092756901  0.1540398749309385  0.6997762153247683
  0.9396077433562156  0.3387255383026374  0.9024902988864699
  0.8517074852389942  0.3618440608482901  0.2570523366762678
  0.5347930111790543  0.9405054263243301  0.4335280283203944
  0.6862939532676003  0.5697929155206514  0.0509954774840946
  0.3798250151010508  0.9848502778162822  0.8007741377960061
  0.5207494182411655  0.5532619889986371 -0.0073825789502058
  0.6050627714728357  0.3002759052253791  0.5132046084397069
  0.6043148469178301  0.7599411627398609  0.6372884471383223
  0.3097966492082115  0.5679568051886095  0.1978571678665506
  0.0634673903542353  0.3465339952872155  0.5379003155829742
  0.7610175249258129  0.8878794636858365  0.6491147317944371
  0.4569466741507463  0.6637845367270360  0.1162492533277103
  0.1595854171216211  0.6111671028104741  0.0642730606294907
  0.6022925165249751  0.7347643604570631  0.9318271824751218
  0.6882465269413832  0.3016585475954754  0.6854133092062141
  0.4452292275853679  0.8750279862845469  0.6115986334170427
  0.3665972222014984  0.3725851538936922  0.3783411113220289
  0.1434866609099201  0.6564470274010745  0.5581824113872418
  0.8413811065728933  0.1647977688077528  0.6369564191577325
  0.0147375551085717  0.3755626819876161  0.2646212600592811
  0.9349741159320270  0.3992492393801262  0.0875353318253948
  0.1276029203112684  0.3858467279849445  0.1157866677682500
  0.4708836299882128  0.1159593173876924  0.4048496920065699
  0.9576374988378270  0.6134634560636705  0.5300382737261506
  0.0145655374502723  0.0864805431592332  0.7347787628945318
  0.0247832209750189  0.6023437066006351  0.6890817058166476
  0.7332245114394417  0.3922974608831689  0.1057380546457472
  0.4614530831947492  0.0498751947645369  0.5842725291712370
 
  0.00000000E+00  0.00000000E+00  0.00000000E+00
  0.00000000E+00  0.00000000E+00  0.00000000E+00
  0.00000000E+00  0.00000000E+00  0.00000000E+00
  0.00000000E+00  0.00000000E+00  0.00000000E+00
  0.00000000E+00  0.00000000E+00  0.00000000E+00
  0.00000000E+00  0.00000000E+00  0.00000000E+00
  0.00000000E+00  0.00000000E+00  0.00000000E+00
  0.00000000E+00  0.00000000E+00  0.00000000E+00
  0.00000000E+00  0.00000000E+00  0.00000000E+00
  0.00000000E+00  0.00000000E+00  0.00000000E+00
  0.00000000E+00  0.00000000E+00  0.00000000E+00
  0.00000000E+00  0.00000000E+00  0.00000000E+00
  0.00000000E+00  0.00000000E+00  0.00000000E+00
  0.00000000E+00  0.00000000E+00  0.00000000E+00
  0.00000000E+00  0.00000000E+00  0.00000000E+00
  0.00000000E+00  0.00000000E+00  0.00000000E+00
  0.00000000E+00  0.00000000E+00  0.00000000E+00
  0.00000000E+00  0.00000000E+00  0.00000000E+00
  0.00000000E+00  0.00000000E+00  0.00000000E+00
  0.00000000E+00  0.00000000E+00  0.00000000E+00
  0.00000000E+00  0.00000000E+00  0.00000000E+00
  0.00000000E+00  0.00000000E+00  0.00000000E+00
  0.00000000E+00  0.00000000E+00  0.00000000E+00
  0.00000000E+00  0.00000000E+00  0.00000000E+00
  0.00000000E+00  0.00000000E+00  0.00000000E+00
  0.00000000E+00  0.00000000E+00  0.00000000E+00
  0.00000000E+00  0.00000000E+00  0.00000000E+00
  0.00000000E+00  0.00000000E+00  0.00000000E+00
  0.00000000E+00  0.00000000E+00  0.00000000E+00
  0.00000000E+00  0.00000000E+00  0.00000000E+00
  0.00000000E+00  0.00000000E+00  0.00000000E+00
  0.00000000E+00  0.00000000E+00  0.00000000E+00
  0.00000000E+00  0.00000000E+00  0.00000000E+00
  0.00000000E+00  0.00000000E+00  0.00000000E+00
  0.00000000E+00  0.00000000E+00  0.00000000E+00
  0.00000000E+00  0.00000000E+00  0.00000000E+00
  0.00000000E+00  0.00000000E+00  0.00000000E+00
  0.00000000E+00  0.00000000E+00  0.00000000E+00
  0.00000000E+00  0.00000000E+00  0.00000000E+00
  0.00000000E+00  0.00000000E+00  0.00000000E+00
  0.00000000E+00  0.00000000E+00  0.00000000E+00
  0.00000000E+00  0.00000000E+00  0.00000000E+00
  0.00000000E+00  0.00000000E+00  0.00000000E+00
  0.00000000E+00  0.00000000E+00  0.00000000E+00
  0.00000000E+00  0.00000000E+00  0.00000000E+00
  0.00000000E+00  0.00000000E+00  0.00000000E+00
  0.00000000E+00  0.00000000E+00  0.00000000E+00
  0.00000000E+00  0.00000000E+00  0.00000000E+00
  0.00000000E+00  0.00000000E+00  0.00000000E+00
  0.00000000E+00  0.00000000E+00  0.00000000E+00
  0.00000000E+00  0.00000000E+00  0.00000000E+00
  0.00000000E+00  0.00000000E+00  0.00000000E+00
  0.00000000E+00  0.00000000E+00  0.00000000E+00
  0.00000000E+00  0.00000000E+00  0.00000000E+00
  0.00000000E+00  0.00000000E+00  0.00000000E+00
  0.00000000E+00  0.00000000E+00  0.00000000E+00
  0.00000000E+00  0.00000000E+00  0.00000000E+00
  0.00000000E+00  0.00000000E+00  0.00000000E+00
  0.00000000E+00  0.00000000E+00  0.00000000E+00
  0.00000000E+00  0.00000000E+00  0.00000000E+00
  0.00000000E+00  0.00000000E+00  0.00000000E+00
  0.00000000E+00  0.00000000E+00  0.00000000E+00
  0.00000000E+00  0.00000000E+00  0.00000000E+00
  0.00000000E+00  0.00000000E+00  0.00000000E+00
  0.00000000E+00  0.00000000E+00  0.00000000E+00
  0.00000000E+00  0.00000000E+00  0.00000000E+00
  0.00000000E+00  0.00000000E+00  0.00000000E+00
  0.00000000E+00  0.00000000E+00  0.00000000E+00
  0.00000000E+00  0.00000000E+00  0.00000000E+00
  0.00000000E+00  0.00000000E+00  0.00000000E+00
  0.00000000E+00  0.00000000E+00  0.00000000E+00
  0.00000000E+00  0.00000000E+00  0.00000000E+00
  0.00000000E+00  0.00000000E+00  0.00000000E+00
  0.00000000E+00  0.00000000E+00  0.00000000E+00
  0.00000000E+00  0.00000000E+00  0.00000000E+00
  0.00000000E+00  0.00000000E+00  0.00000000E+00
  0.00000000E+00  0.00000000E+00  0.00000000E+00
  0.00000000E+00  0.00000000E+00  0.00000000E+00
  0.00000000E+00  0.00000000E+00  0.00000000E+00
  0.00000000E+00  0.00000000E+00  0.00000000E+00
  0.00000000E+00  0.00000000E+00  0.00000000E+00
  0.00000000E+00  0.00000000E+00  0.00000000E+00
  0.00000000E+00  0.00000000E+00  0.00000000E+00
  0.00000000E+00  0.00000000E+00  0.00000000E+00
  0.00000000E+00  0.00000000E+00  0.00000000E+00
  0.00000000E+00  0.00000000E+00  0.00000000E+00
  0.00000000E+00  0.00000000E+00  0.00000000E+00
  0.00000000E+00  0.00000000E+00  0.00000000E+00
  0.00000000E+00  0.00000000E+00  0.00000000E+00
  0.00000000E+00  0.00000000E+00  0.00000000E+00
  0.00000000E+00  0.00000000E+00  0.00000000E+00
  0.00000000E+00  0.00000000E+00  0.00000000E+00
  0.00000000E+00  0.00000000E+00  0.00000000E+00
  0.00000000E+00  0.00000000E+00  0.00000000E+00
  0.00000000E+00  0.00000000E+00  0.00000000E+00
  0.00000000E+00  0.00000000E+00  0.00000000E+00
  0.00000000E+00  0.00000000E+00  0.00000000E+00
  0.00000000E+00  0.00000000E+00  0.00000000E+00
  0.00000000E+00  0.00000000E+00  0.00000000E+00
  0.00000000E+00  0.00000000E+00  0.00000000E+00
  0.00000000E+00  0.00000000E+00  0.00000000E+00
  0.00000000E+00  0.00000000E+00  0.00000000E+00
  0.00000000E+00  0.00000000E+00  0.00000000E+00
  0.00000000E+00  0.00000000E+00  0.00000000E+00
  0.00000000E+00  0.00000000E+00  0.00000000E+00
  0.00000000E+00  0.00000000E+00  0.00000000E+00
  0.00000000E+00  0.00000000E+00  0.00000000E+00
  0.00000000E+00  0.00000000E+00  0.00000000E+00
  0.00000000E+00  0.00000000E+00  0.00000000E+00
  0.00000000E+00  0.00000000E+00  0.00000000E+00
  0.00000000E+00  0.00000000E+00  0.00000000E+00
  0.00000000E+00  0.00000000E+00  0.00000000E+00
  0.00000000E+00  0.00000000E+00  0.00000000E+00
  0.00000000E+00  0.00000000E+00  0.00000000E+00
  0.00000000E+00  0.00000000E+00  0.00000000E+00
  0.00000000E+00  0.00000000E+00  0.00000000E+00
  0.00000000E+00  0.00000000E+00  0.00000000E+00
  0.00000000E+00  0.00000000E+00  0.00000000E+00
  0.00000000E+00  0.00000000E+00  0.00000000E+00
  0.00000000E+00  0.00000000E+00  0.00000000E+00
  0.00000000E+00  0.00000000E+00  0.00000000E+00
  0.00000000E+00  0.00000000E+00  0.00000000E+00
  0.00000000E+00  0.00000000E+00  0.00000000E+00
  0.00000000E+00  0.00000000E+00  0.00000000E+00
  0.00000000E+00  0.00000000E+00  0.00000000E+00
  0.00000000E+00  0.00000000E+00  0.00000000E+00
  0.00000000E+00  0.00000000E+00  0.00000000E+00
  0.00000000E+00  0.00000000E+00  0.00000000E+00
  0.00000000E+00  0.00000000E+00  0.00000000E+00
  0.00000000E+00  0.00000000E+00  0.00000000E+00
  0.00000000E+00  0.00000000E+00  0.00000000E+00
  0.00000000E+00  0.00000000E+00  0.00000000E+00
  0.00000000E+00  0.00000000E+00  0.00000000E+00
  0.00000000E+00  0.00000000E+00  0.00000000E+00
  0.00000000E+00  0.00000000E+00  0.00000000E+00
  0.00000000E+00  0.00000000E+00  0.00000000E+00
  0.00000000E+00  0.00000000E+00  0.00000000E+00
  0.00000000E+00  0.00000000E+00  0.00000000E+00
  0.00000000E+00  0.00000000E+00  0.00000000E+00
  0.00000000E+00  0.00000000E+00  0.00000000E+00
  0.00000000E+00  0.00000000E+00  0.00000000E+00
  0.00000000E+00  0.00000000E+00  0.00000000E+00
  0.00000000E+00  0.00000000E+00  0.00000000E+00
  0.00000000E+00  0.00000000E+00  0.00000000E+00
  0.00000000E+00  0.00000000E+00  0.00000000E+00
  0.00000000E+00  0.00000000E+00  0.00000000E+00
  0.00000000E+00  0.00000000E+00  0.00000000E+00
  0.00000000E+00  0.00000000E+00  0.00000000E+00
  0.00000000E+00  0.00000000E+00  0.00000000E+00
  0.00000000E+00  0.00000000E+00  0.00000000E+00
  0.00000000E+00  0.00000000E+00  0.00000000E+00
  0.00000000E+00  0.00000000E+00  0.00000000E+00
  0.00000000E+00  0.00000000E+00  0.00000000E+00
  0.00000000E+00  0.00000000E+00  0.00000000E+00
  0.00000000E+00  0.00000000E+00  0.00000000E+00
  0.00000000E+00  0.00000000E+00  0.00000000E+00
  0.00000000E+00  0.00000000E+00  0.00000000E+00
  0.00000000E+00  0.00000000E+00  0.00000000E+00
  0.00000000E+00  0.00000000E+00  0.00000000E+00
  0.00000000E+00  0.00000000E+00  0.00000000E+00
  0.00000000E+00  0.00000000E+00  0.00000000E+00
  0.00000000E+00  0.00000000E+00  0.00000000E+00
  0.00000000E+00  0.00000000E+00  0.00000000E+00
  0.00000000E+00  0.00000000E+00  0.00000000E+00
  0.00000000E+00  0.00000000E+00  0.00000000E+00
  0.00000000E+00  0.00000000E+00  0.00000000E+00
  0.00000000E+00  0.00000000E+00  0.00000000E+00
  0.00000000E+00  0.00000000E+00  0.00000000E+00
  0.00000000E+00  0.00000000E+00  0.00000000E+00
  0.00000000E+00  0.00000000E+00  0.00000000E+00
  0.00000000E+00  0.00000000E+00  0.00000000E+00
  0.00000000E+00  0.00000000E+00  0.00000000E+00
  0.00000000E+00  0.00000000E+00  0.00000000E+00
  0.00000000E+00  0.00000000E+00  0.00000000E+00
  0.00000000E+00  0.00000000E+00  0.00000000E+00
  0.00000000E+00  0.00000000E+00  0.00000000E+00
  0.00000000E+00  0.00000000E+00  0.00000000E+00
  0.00000000E+00  0.00000000E+00  0.00000000E+00
  0.00000000E+00  0.00000000E+00  0.00000000E+00
  0.00000000E+00  0.00000000E+00  0.00000000E+00
  0.00000000E+00  0.00000000E+00  0.00000000E+00
  0.00000000E+00  0.00000000E+00  0.00000000E+00
  0.00000000E+00  0.00000000E+00  0.00000000E+00
  0.00000000E+00  0.00000000E+00  0.00000000E+00
  0.00000000E+00  0.00000000E+00  0.00000000E+00
  0.00000000E+00  0.00000000E+00  0.00000000E+00
  0.00000000E+00  0.00000000E+00  0.00000000E+00
  0.00000000E+00  0.00000000E+00  0.00000000E+00
  0.00000000E+00  0.00000000E+00  0.00000000E+00
  0.00000000E+00  0.00000000E+00  0.00000000E+00
  0.00000000E+00  0.00000000E+00  0.00000000E+00
  0.00000000E+00  0.00000000E+00  0.00000000E+00
  0.00000000E+00  0.00000000E+00  0.00000000E+00
  0.00000000E+00  0.00000000E+00  0.00000000E+00
  0.00000000E+00  0.00000000E+00  0.00000000E+00
  0.00000000E+00  0.00000000E+00  0.00000000E+00
  0.00000000E+00  0.00000000E+00  0.00000000E+00
  0.00000000E+00  0.00000000E+00  0.00000000E+00
  0.00000000E+00  0.00000000E+00  0.00000000E+00
  0.00000000E+00  0.00000000E+00  0.00000000E+00
  0.00000000E+00  0.00000000E+00  0.00000000E+00
  0.00000000E+00  0.00000000E+00  0.00000000E+00
  0.00000000E+00  0.00000000E+00  0.00000000E+00
  0.00000000E+00  0.00000000E+00  0.00000000E+00
  0.00000000E+00  0.00000000E+00  0.00000000E+00
  0.00000000E+00  0.00000000E+00  0.00000000E+00
  0.00000000E+00  0.00000000E+00  0.00000000E+00
  0.00000000E+00  0.00000000E+00  0.00000000E+00
  0.00000000E+00  0.00000000E+00  0.00000000E+00
  0.00000000E+00  0.00000000E+00  0.00000000E+00
  0.00000000E+00  0.00000000E+00  0.00000000E+00
  0.00000000E+00  0.00000000E+00  0.00000000E+00
  0.00000000E+00  0.00000000E+00  0.00000000E+00
  0.00000000E+00  0.00000000E+00  0.00000000E+00
  0.00000000E+00  0.00000000E+00  0.00000000E+00
  0.00000000E+00  0.00000000E+00  0.00000000E+00
  0.00000000E+00  0.00000000E+00  0.00000000E+00
  0.00000000E+00  0.00000000E+00  0.00000000E+00
  0.00000000E+00  0.00000000E+00  0.00000000E+00
  0.00000000E+00  0.00000000E+00  0.00000000E+00
  0.00000000E+00  0.00000000E+00  0.00000000E+00
  0.00000000E+00  0.00000000E+00  0.00000000E+00
  0.00000000E+00  0.00000000E+00  0.00000000E+00
  0.00000000E+00  0.00000000E+00  0.00000000E+00
  0.00000000E+00  0.00000000E+00  0.00000000E+00
  0.00000000E+00  0.00000000E+00  0.00000000E+00
  0.00000000E+00  0.00000000E+00  0.00000000E+00
  0.00000000E+00  0.00000000E+00  0.00000000E+00
  0.00000000E+00  0.00000000E+00  0.00000000E+00
  0.00000000E+00  0.00000000E+00  0.00000000E+00
  0.00000000E+00  0.00000000E+00  0.00000000E+00
  0.00000000E+00  0.00000000E+00  0.00000000E+00