In2O3 structure 43 - random placement wi
   1.00000000000000     
     8.1284304342301610   -0.2200041717403577    0.2175065501752996
    -0.2183202119553199    8.1362214554632288   -0.2140795723182668
     0.2158777462862147   -0.2141120102472188    8.1298768006714504
   In   O 
    16    24
Direct
  0.8105903327099284  0.5993338396099190  0.3355082026891623
  0.0235405137961635  0.3871736339819023  0.0479330536894196
  0.8113473171464207  0.0996959242606721  0.3352206470266026
  0.0228705645587723  0.3872920626837555  0.5476377441777345
  0.5235385937317787  0.8866767087385341  0.0480613125031297
  0.3105329225888127  0.0990682337343642  0.3355464890069797
  0.8111872723407174  0.0994530013028054  0.8354628623611262
  0.3112301236400157  0.5991535014393961  0.8355079406683785
  0.5228288877414116  0.3865909262755025  0.0482222178117766
  0.5230998329128340  0.8872340673750401  0.5476884580974826
  0.3109288372841661  0.5995834891058820  0.3356960789082422
  0.8109795069689056  0.5989776855617279  0.8357795195037809
  0.3113480162869564  0.0988778680169844  0.8358431115567555
  0.5227097683749804  0.3868452403935905  0.5479351280195175
  0.0228046378273064  0.8870853431014751  0.5479571896560955
  0.0230951780715571  0.8867630197417142  0.0476628192277744
  0.7687599495664372  0.4924556679146477  0.0899281544634363
  0.2685347270478715  0.4934629457592834  0.5897178962619378
  0.4173529144396255  0.6406341665063238  0.0894540134496324
  0.0648750286690927  0.6409943627598480  0.9415668708587859
  0.9165121049435925  0.6410748709337852  0.5893703759933402
  0.2693795149556024  0.3449154026736281  0.9418436333378182
  0.9165685633013041  0.8456732543691814  0.2938505980125754
  0.9178374588779974  0.1411000294874682  0.0889670879008264
  0.2690850235173770  0.9921494121801189  0.0897816309241222
  0.5650428153161968  0.9939953477263259  0.2935352006562084
  0.7688306288918909  0.9936203562853834  0.5895086523677975
  0.4175077628125052  0.8452295731321797  0.7940750593557695
  0.4157433175546359  0.3453752864134287  0.2943934807638868
  0.5649553979759077  0.4930085905500903  0.7938679152031582
  0.5643991581222778  0.6412021874275098  0.4418358287255515
  0.7693614765673473  0.8450277780174957  0.9416980748167134
  0.0644478258126924  0.1414149504997795  0.4416468212559650
  0.0647787036154313  0.4941537143951535  0.2936953815823031
  0.7687979906399676  0.3454347987495510  0.4414915583178072
  0.0651017817312578  0.9935945136496684  0.7935987677544176
  0.9171940394843787  0.3456602131615654  0.7939425471819632
  0.4168242753852951  0.1407435119836009  0.5893426787689720
  0.5649536415629228  0.1408267704194728  0.9420102428077683
  0.2687799672861999  0.8453855054841597  0.4417792827694242
 
  0.00000000E+00  0.00000000E+00  0.00000000E+00
  0.00000000E+00  0.00000000E+00  0.00000000E+00
  0.00000000E+00  0.00000000E+00  0.00000000E+00
  0.00000000E+00  0.00000000E+00  0.00000000E+00
  0.00000000E+00  0.00000000E+00  0.00000000E+00
  0.00000000E+00  0.00000000E+00  0.00000000E+00
  0.00000000E+00  0.00000000E+00  0.00000000E+00
  0.00000000E+00  0.00000000E+00  0.00000000E+00
  0.00000000E+00  0.00000000E+00  0.00000000E+00
  0.00000000E+00  0.00000000E+00  0.00000000E+00
  0.00000000E+00  0.00000000E+00  0.00000000E+00
  0.00000000E+00  0.00000000E+00  0.00000000E+00
  0.00000000E+00  0.00000000E+00  0.00000000E+00
  0.00000000E+00  0.00000000E+00  0.00000000E+00
  0.00000000E+00  0.00000000E+00  0.00000000E+00
  0.00000000E+00  0.00000000E+00  0.00000000E+00
  0.00000000E+00  0.00000000E+00  0.00000000E+00
  0.00000000E+00  0.00000000E+00  0.00000000E+00
  0.00000000E+00  0.00000000E+00  0.00000000E+00
  0.00000000E+00  0.00000000E+00  0.00000000E+00
  0.00000000E+00  0.00000000E+00  0.00000000E+00
  0.00000000E+00  0.00000000E+00  0.00000000E+00
  0.00000000E+00  0.00000000E+00  0.00000000E+00
  0.00000000E+00  0.00000000E+00  0.00000000E+00
  0.00000000E+00  0.00000000E+00  0.00000000E+00
  0.00000000E+00  0.00000000E+00  0.00000000E+00
  0.00000000E+00  0.00000000E+00  0.00000000E+00
  0.00000000E+00  0.00000000E+00  0.00000000E+00
  0.00000000E+00  0.00000000E+00  0.00000000E+00
  0.00000000E+00  0.00000000E+00  0.00000000E+00
  0.00000000E+00  0.00000000E+00  0.00000000E+00
  0.00000000E+00  0.00000000E+00  0.00000000E+00
  0.00000000E+00  0.00000000E+00  0.00000000E+00
  0.00000000E+00  0.00000000E+00  0.00000000E+00
  0.00000000E+00  0.00000000E+00  0.00000000E+00
  0.00000000E+00  0.00000000E+00  0.00000000E+00
  0.00000000E+00  0.00000000E+00  0.00000000E+00
  0.00000000E+00  0.00000000E+00  0.00000000E+00
  0.00000000E+00  0.00000000E+00  0.00000000E+00
  0.00000000E+00  0.00000000E+00  0.00000000E+00
