Sb                                      
   1.00000000000000     
    18.9678594814704411    0.0000000000000000    0.0000000000000000
     0.0000000000000000   18.9678594814704411    0.0000000000000000
     0.0000000000000000    0.0000000000000000   18.9678594814704411
   Sb   Sn
   205    11
Selective dynamics
Direct
  0.9233220100000000  0.9067936400000000  0.6735928900000000   T   T   T
  0.7600809500000000  0.7537978300000000  0.4942245800000000   T   T   T
  0.0884457000000000  0.7489057700000000  0.0062395904000000   T   T   T
  0.2481704300000000  0.4156231600000000  0.1812942300000000   T   T   T
  0.9248323899999999  0.9190319200000000  0.0149163140000000   T   T   T
  0.5766050300000000  0.9318260700000000  0.0098963037000000   T   T   T
  0.9098080400000000  0.4031377700000000  0.5208297000000000   T   T   T
  0.5799197300000000  0.0976306010000000  0.6709658300000000   T   T   T
  0.4313210300000000  0.5985012700000000  0.9932044000000000   T   T   T
  0.0875776520000000  0.7667666700000000  0.1575608800000000   T   T   T
  0.4145218300000000  0.7472977900000000  0.3227618400000000   T   T   T
  0.2531915800000000  0.0861511020000000  0.3369406200000000   T   T   T
  0.5919074400000000  0.9007479900000001  0.3466810000000000   T   T   T
  0.5933687200000000  0.7676218000000000  0.0030129898000000   T   T   T
  0.0951022880000000  0.0923280140000000  0.5106805500000000   T   T   T
  0.7591662100000000  0.2622622700000000  0.0029558084000000   T   T   T
  0.4120011200000000  0.0896968420000000  0.3390585100000000   T   T   T
  0.2562242200000000  0.9270298700000000  0.9849492300000000   T   T   T
  0.7412283600000000  0.2687536600000000  0.8467192300000000   T   T   T
  0.0804841750000000  0.0725536740000000  0.9940646800000000   T   T   T
  0.0800319990000000  0.5695337300000000  0.8356717000000000   T   T   T
  0.7677535200000000  0.9209537100000000  0.0135460850000000   T   T   T
  0.5733174800000000  0.9004994600000000  0.6702917900000001   T   T   T
  0.7405105600000000  0.9175291700000000  0.1814958100000000   T   T   T
  0.9260715700000000  0.3965533400000000  0.9949617200000000   T   T   T
  0.4110159800000000  0.5968161600000000  0.1668597700000000   T   T   T
  0.9187524400000000  0.5936744900000001  0.9997375900000000   T   T   T
  0.9269211400000000  0.1050943700000000  0.3367695400000000   T   T   T
  0.0976787350000000  0.0809380170000000  0.8274170100000000   T   T   T
  0.7590773700000000  0.5885393799999999  0.6689415399999999   T   T   T
  0.9261129800000000  0.4419773600000000  0.1786383200000000   T   T   T
  0.0843607300000000  0.2599265500000000  0.1921046700000000   T   T   T
  0.7544506800000000  0.4304302900000000  0.8255056900000000   T   T   T
  0.4267470300000000  0.4143029300000000  0.8454707700000000   T   T   T
  0.0958689910000000  0.0926348680000000  0.1709776100000000   T   T   T
  0.7608390200000000  0.4426010900000000  0.1711418200000000   T   T   T
  0.2459656400000000  0.2432513800000000  0.6841175700000000   T   T   T
  0.2450409900000000  0.7501179600000000  0.1589425800000000   T   T   T
  0.2433032000000000  0.5881553700000000  0.9886685100000000   T   T   T
  0.7533124000000000  0.9148256299999999  0.5039063100000000   T   T   T
  0.9306265200000000  0.2746302600000000  0.1688087100000000   T   T   T
  0.2488330800000000  0.2612877300000000  0.8403717300000000   T   T   T
  0.1086110600000000  0.9237434100000000  0.6634233500000000   T   T   T
  0.0842259440000000  0.4144676900000000  0.3540808500000000   T   T   T
  0.2683927200000000  0.5915166700000000  0.8283265399999999   T   T   T
  0.7471120400000000  0.4141156000000000  0.3526950600000000   T   T   T
  0.2576004800000000  0.7582205600000000  0.3079653000000000   T   T   T
  0.9218300800000000  0.7439063700000000  0.6670322600000000   T   T   T
  0.7673077900000000  0.9263334200000000  0.3247194200000000   T   T   T
  0.0840548270000000  0.4182733200000000  0.8395451800000000   T   T   T
  0.2495095800000000  0.4313828900000000  0.6799262000000000   T   T   T
  0.2475636600000000  0.5727646400000000  0.3396652000000000   T   T   T
  0.5892591600000000  0.0947379460000000  0.0112264540000000   T   T   T
  0.7652274000000000  0.7756678900000000  0.1620985800000000   T   T   T
  0.2455197400000000  0.5768390300000000  0.6672787600000000   T   T   T
  0.7487418100000000  0.9162254500000000  0.8454311400000000   T   T   T
  0.7569277300000000  0.5876893800000000  0.8364332100000000   T   T   T
  0.4288182500000000  0.9269902200000000  0.8266305700000000   T   T   T
  0.0899020730000000  0.7376334200000000  0.3483427400000000   T   T   T
  0.5833696200000000  0.5988839300000000  0.1661728500000000   T   T   T
  0.0846428980000000  0.5937213900000000  0.1870266800000000   T   T   T
  0.4376892200000000  0.9219550600000000  0.3215507300000000   T   T   T
  0.0757294070000000  0.4074218300000000  0.0134114560000000   T   T   T
  0.4230246500000000  0.0994790550000000  0.4848311700000000   T   T   T
  0.9223169500000000  0.7617739900000000  0.1853599000000000   T   T   T
  0.0980003650000000  0.2584380800000000  0.3368315300000000   T   T   T
  0.9283287200000000  0.7458332500000000  0.9949729700000000   T   T   T
  0.7563608000000001  0.4264366100000000  0.5055040800000000   T   T   T
  0.9036603700000000  0.0862667130000000  0.6721324200000000   T   T   T
  0.2666221100000000  0.9184835500000000  0.3193978600000000   T   T   T
  0.0996900720000000  0.9260138600000000  0.3133238400000000   T   T   T
  0.4148729000000000  0.2512004800000000  0.1755809800000000   T   T   T
  0.0926207480000000  0.7336820600000000  0.6697306600000000   T   T   T
  0.2553902500000000  0.0750836510000000  0.5079061600000000   T   T   T
  0.7573367200000000  0.5908345600000000  0.3163291500000000   T   T   T
  0.2611092800000000  0.9219732200000000  0.8108790000000000   T   T   T
  0.2542803700000000  0.0758318260000000  0.8451141599999999   T   T   T
  0.5821440100000000  0.0666341600000000  0.5116498000000000   T   T   T
  0.7638811500000000  0.5880959300000000  0.9966540500000000   T   T   T
  0.4251284000000000  0.9219291400000000  0.1679834300000000   T   T   T
  0.2483243800000000  0.2544449400000000  0.1667546100000000   T   T   T
  0.2508946700000000  0.2606210300000000  0.5027060100000000   T   T   T
  0.5871361500000000  0.5841356500000000  0.8374991200000000   T   T   T
  0.4378486800000000  0.4397363800000000  0.1709206100000000   T   T   T
  0.4268633900000000  0.9279370900000000  0.6378043400000000   T   T   T
  0.2678361000000000  0.0890581950000000  0.0201457380000000   T   T   T
  0.9328237300000000  0.7529064000000000  0.3387477100000000   T   T   T
  0.9098774200000000  0.0980088080000000  0.1699115500000000   T   T   T
  0.5864988000000000  0.9093907100000000  0.5051039600000000   T   T   T
  0.9041762700000000  0.0781296230000000  0.5196714099999999   T   T   T
  0.2464997200000000  0.0848079980000000  0.1747675900000000   T   T   T
  0.4029824500000000  0.2526653500000000  0.5187497900000000   T   T   T
  0.0924792450000000  0.9220850600000000  0.1608979800000000   T   T   T
  0.1020114400000000  0.2455090900000000  0.0029471035000000   T   T   T
  0.0711842190000000  0.0677718500000000  0.6686355800000000   T   T   T
  0.2610789700000000  0.2522476400000000  0.3429985000000000   T   T   T
  0.4060118900000000  0.0788036490000000  0.6750998600000000   T   T   T
  0.2571743900000000  0.7479598800000000  0.6508627900000000   T   T   T
  0.5840073500000000  0.5720903400000000  0.0076513902000000   T   T   T
  0.2612487700000000  0.4345349400000000  0.0105919320000000   T   T   T
  0.2410372900000000  0.4125247100000000  0.8556999700000000   T   T   T
  0.4260041300000000  0.7581019000000000  0.4778349800000000   T   T   T
  0.5818466300000000  0.2722337800000000  0.1836059700000000   T   T   T
  0.9223071300000000  0.6031496200000001  0.4975563100000000   T   T   T
  0.4421386800000000  0.1020637900000000  0.1655176900000000   T   T   T
  0.7447728600000000  0.2565381300000000  0.5033540000000000   T   T   T
  0.7592042300000000  0.1106362800000000  0.1793962200000000   T   T   T
  0.7545513700000001  0.7410233100000000  0.3275919400000000   T   T   T
  0.5925274900000000  0.7540916700000000  0.1634990800000000   T   T   T
  0.6003373800000000  0.7493447600000001  0.3224727100000000   T   T   T
  0.4344875200000000  0.2639581400000000  0.0208479780000000   T   T   T
  0.9338923000000000  0.9270209300000000  0.3474102900000000   T   T   T
  0.0945776820000000  0.4409937000000000  0.1617848100000000   T   T   T
  0.9230425600000000  0.5858418600000000  0.3435353900000000   T   T   T
  0.5875970400000000  0.0949257770000000  0.3373549900000000   T   T   T
  0.2556062400000000  0.9159540900000001  0.4878470000000000   T   T   T
  0.4216862000000000  0.7517478500000000  0.9902285300000000   T   T   T
  0.5762126600000000  0.0657321460000000  0.8491734800000000   T   T   T
  0.2655504700000000  0.9282622800000000  0.1510007600000000   T   T   T
  0.7506150800000000  0.7459374100000000  0.0008856618400000   T   T   T
  0.0851590090000000  0.7755180699999999  0.4991200300000000   T   T   T
  0.5849582000000000  0.4192165000000000  0.9907559000000000   T   T   T
  0.7279588500000000  0.0819116180000000  0.6912535900000000   T   T   T
  0.7613241900000000  0.9249524800000000  0.6695432800000000   T   T   T
  0.7487069800000000  0.7471721800000000  0.6683615800000000   T   T   T
  0.7374502400000000  0.5982396000000000  0.1673365600000000   T   T   T
  0.9186441400000001  0.7519932499999999  0.5112462400000000   T   T   T
  0.9222434900000001  0.6091270000000000  0.1609080500000000   T   T   T
  0.4162863200000000  0.0958690050000000  0.8317236300000000   T   T   T
  0.9331687800000000  0.4332920300000000  0.3392968600000000   T   T   T
  0.9272187500000000  0.9232779900000000  0.8222982000000000   T   T   T
  0.0843481960000000  0.0855455770000000  0.3443621600000000   T   T   T
  0.0820700570000000  0.9251346300000000  0.5056735999999999   T   T   T
  0.4092291400000000  0.2613358800000000  0.8622490500000000   T   T   T
  0.9328079600000000  0.0894574510000000  0.0008975754700000   T   T   T
  0.9182899800000000  0.2523274700000000  0.8431069800000000   T   T   T
  0.2628498900000000  0.9060428400000000  0.6545794400000000   T   T   T
  0.9060446900000000  0.5774562700000000  0.6655873000000000   T   T   T
  0.4180920900000000  0.9163775100000000  0.9864054600000000   T   T   T
  0.4233382800000000  0.2537720300000000  0.6770315600000000   T   T   T
  0.7498640900000000  0.0942546900000000  0.4968045700000000   T   T   T
  0.5898587600000000  0.9454330300000000  0.1692733900000000   T   T   T
  0.9270314600000000  0.5791788600000000  0.8264608800000000   T   T   T
  0.7507301700000000  0.4217969500000000  0.6827421000000000   T   T   T
  0.9153595400000000  0.0826160110000000  0.8431851299999999   T   T   T
  0.5850546700000000  0.2564340600000000  0.0185011090000000   T   T   T
  0.0961978130000000  0.2566890200000000  0.6819414800000000   T   T   T
  0.9118777500000000  0.2393388100000000  0.6965780700000000   T   T   T
  0.9094075500000000  0.2556297500000000  0.5028000200000000   T   T   T
  0.7368139400000000  0.2598619800000000  0.1879305500000000   T   T   T
  0.7654502700000000  0.2595601800000000  0.3337252600000000   T   T   T
  0.7468137200000000  0.0794897240000000  0.3533669200000000   T   T   T
  0.7507015200000000  0.4251392200000000  0.0076697592000000   T   T   T
  0.5727706900000000  0.2496325200000000  0.3632153300000000   T   T   T
  0.2561603000000000  0.2438701000000000  0.0139094060000000   T   T   T
  0.2658011200000000  0.7684021800000000  0.9790634900000000   T   T   T
  0.0631254520000000  0.2445927700000000  0.5194853800000000   T   T   T
  0.5913177600000000  0.4368275300000000  0.1718660700000000   T   T   T
  0.4291377900000000  0.7618278000000001  0.8136712100000000   T   T   T
  0.0877383290000000  0.5818304200000000  0.3418069700000000   T   T   T
  0.9196354100000000  0.7464082200000000  0.8445478300000000   T   T   T
  0.4154484900000000  0.4272424500000000  0.0096154532000000   T   T   T
  0.9208489900000000  0.2584729300000000  0.3394011400000000   T   T   T
  0.5924475300000001  0.9127014200000000  0.8306743400000000   T   T   T
  0.0847557680000000  0.5872125500000001  0.0037710259000000   T   T   T
  0.0835376240000000  0.4082031800000000  0.6858269700000000   T   T   T
  0.5945653300000000  0.4038398300000000  0.8487985800000000   T   T   T
  0.0998861630000000  0.9132107900000000  0.9770403600000001   T   T   T
  0.7656983400000000  0.7540219800000000  0.8369133200000000   T   T   T
  0.4123010800000000  0.9163443800000000  0.4839779200000000   T   T   T
  0.2538193200000000  0.5799222000000001  0.4964884800000000   T   T   T
  0.2465081400000000  0.4109716100000000  0.5255320400000000   T   T   T
  0.4381183500000000  0.7700165000000000  0.1463326700000000   T   T   T
  0.0779348340000000  0.4231210200000000  0.5109495800000000   T   T   T
  0.9330391500000000  0.9413607100000000  0.1610194500000000   T   T   T
  0.2467158900000000  0.0851680460000000  0.6771307400000000   T   T   T
  0.0876963280000000  0.9024277200000000  0.8259820900000000   T   T   T
  0.0914430200000000  0.5838039600000000  0.6655723200000000   T   T   T
  0.4183954100000000  0.0708696960000000  0.0099499274000000   T   T   T
  0.9018440100000000  0.2410122900000000  0.0239694150000000   T   T   T
  0.4207443800000000  0.5917833700000000  0.8301003600000000   T   T   T
  0.5831326500000000  0.2515458900000000  0.6868040800000000   T   T   T
  0.2492543500000000  0.6042543600000000  0.1494334400000000   T   T   T
  0.4251114800000000  0.7350210300000000  0.6588761800000000   T   T   T
  0.0956360020000000  0.7343562800000000  0.8348849600000000   T   T   T
  0.5883108600000000  0.2586866200000000  0.5122092600000000   T   T   T
  0.9140250300000000  0.4117537900000000  0.8429716900000001   T   T   T
  0.7498641200000000  0.0833078600000000  0.0098248316000000   T   T   T
  0.5792419400000000  0.7499008500000000  0.5043149400000000   T   T   T
  0.0811509850000000  0.2476856600000000  0.8495526000000000   T   T   T
  0.2509504700000000  0.7609158900000000  0.8245964200000000   T   T   T
  0.7526610300000000  0.1084907900000000  0.8426995400000000   T   T   T
  0.5734513999999999  0.7387483700000000  0.8472303799999999   T   T   T
  0.4098299700000000  0.4105500000000000  0.3493199900000000   F   F   F
  0.4210000000000000  0.5906100300000000  0.3288600100000000   F   F   F
  0.5893000400000000  0.4294100100000000  0.3294600000000000   F   F   F
  0.4098299700000000  0.5795900200000000  0.5097299800000000   F   F   F
  0.5778700100000000  0.5859400000000000  0.3337799900000000   F   F   F
  0.4100900300000000  0.4120700100000000  0.6862800100000001   F   F   F
  0.4212600000000000  0.4230700100000000  0.5054100200000000   F   F   F
  0.5893000400000000  0.5984500000000000  0.4898800000000000   F   F   F
  0.5781300100000000  0.5874400100000000  0.6707500199999999   F   F   F
  0.4212600000000000  0.5921099800000000  0.6658300200000000   F   F   F
  0.5895600300000000  0.4309099900000000  0.6664199800000000   F   F   F
  0.5781300100000000  0.4183900100000000  0.5103300200000001   F   F   F
  0.5991288600000000  0.7420302100000000  0.6737930000000000   T   T   T
  0.0779542790000000  0.5912621400000000  0.5095042600000000   T   T   T
  0.4232200000000000  0.2602358300000000  0.3336351900000000   T   T   T
  0.2477582000000000  0.4248467200000000  0.3318632100000000   T   T   T
  0.5848653700000001  0.2477901200000000  0.8450799000000000   T   T   T
  0.9189394200000000  0.4139967800000000  0.6769897400000000   T   T   T
  0.5934705500000000  0.0946332440000000  0.1753485500000000   T   T   T
  0.2501810300000000  0.7543570700000000  0.4880857100000000   T   T   T
  0.7522557600000001  0.5851361200000000  0.5002359900000000   T   T   T
  0.7602909300000000  0.2590062100000000  0.6711601600000000   T   T   T
  0.9139638400000000  0.9278613400000000  0.5038588200000000   T   T   T
 
  0.00000000E+00  0.00000000E+00  0.00000000E+00
  0.00000000E+00  0.00000000E+00  0.00000000E+00
  0.00000000E+00  0.00000000E+00  0.00000000E+00
  0.00000000E+00  0.00000000E+00  0.00000000E+00
  0.00000000E+00  0.00000000E+00  0.00000000E+00
  0.00000000E+00  0.00000000E+00  0.00000000E+00
  0.00000000E+00  0.00000000E+00  0.00000000E+00
  0.00000000E+00  0.00000000E+00  0.00000000E+00
  0.00000000E+00  0.00000000E+00  0.00000000E+00
  0.00000000E+00  0.00000000E+00  0.00000000E+00
  0.00000000E+00  0.00000000E+00  0.00000000E+00
  0.00000000E+00  0.00000000E+00  0.00000000E+00
  0.00000000E+00  0.00000000E+00  0.00000000E+00
  0.00000000E+00  0.00000000E+00  0.00000000E+00
  0.00000000E+00  0.00000000E+00  0.00000000E+00
  0.00000000E+00  0.00000000E+00  0.00000000E+00
  0.00000000E+00  0.00000000E+00  0.00000000E+00
  0.00000000E+00  0.00000000E+00  0.00000000E+00
  0.00000000E+00  0.00000000E+00  0.00000000E+00
  0.00000000E+00  0.00000000E+00  0.00000000E+00
  0.00000000E+00  0.00000000E+00  0.00000000E+00
  0.00000000E+00  0.00000000E+00  0.00000000E+00
  0.00000000E+00  0.00000000E+00  0.00000000E+00
  0.00000000E+00  0.00000000E+00  0.00000000E+00
  0.00000000E+00  0.00000000E+00  0.00000000E+00
  0.00000000E+00  0.00000000E+00  0.00000000E+00
  0.00000000E+00  0.00000000E+00  0.00000000E+00
  0.00000000E+00  0.00000000E+00  0.00000000E+00
  0.00000000E+00  0.00000000E+00  0.00000000E+00
  0.00000000E+00  0.00000000E+00  0.00000000E+00
  0.00000000E+00  0.00000000E+00  0.00000000E+00
  0.00000000E+00  0.00000000E+00  0.00000000E+00
  0.00000000E+00  0.00000000E+00  0.00000000E+00
  0.00000000E+00  0.00000000E+00  0.00000000E+00
  0.00000000E+00  0.00000000E+00  0.00000000E+00
  0.00000000E+00  0.00000000E+00  0.00000000E+00
  0.00000000E+00  0.00000000E+00  0.00000000E+00
  0.00000000E+00  0.00000000E+00  0.00000000E+00
  0.00000000E+00  0.00000000E+00  0.00000000E+00
  0.00000000E+00  0.00000000E+00  0.00000000E+00
  0.00000000E+00  0.00000000E+00  0.00000000E+00
  0.00000000E+00  0.00000000E+00  0.00000000E+00
  0.00000000E+00  0.00000000E+00  0.00000000E+00
  0.00000000E+00  0.00000000E+00  0.00000000E+00
  0.00000000E+00  0.00000000E+00  0.00000000E+00
  0.00000000E+00  0.00000000E+00  0.00000000E+00
  0.00000000E+00  0.00000000E+00  0.00000000E+00
  0.00000000E+00  0.00000000E+00  0.00000000E+00
  0.00000000E+00  0.00000000E+00  0.00000000E+00
  0.00000000E+00  0.00000000E+00  0.00000000E+00
  0.00000000E+00  0.00000000E+00  0.00000000E+00
  0.00000000E+00  0.00000000E+00  0.00000000E+00
  0.00000000E+00  0.00000000E+00  0.00000000E+00
  0.00000000E+00  0.00000000E+00  0.00000000E+00
  0.00000000E+00  0.00000000E+00  0.00000000E+00
  0.00000000E+00  0.00000000E+00  0.00000000E+00
  0.00000000E+00  0.00000000E+00  0.00000000E+00
  0.00000000E+00  0.00000000E+00  0.00000000E+00
  0.00000000E+00  0.00000000E+00  0.00000000E+00
  0.00000000E+00  0.00000000E+00  0.00000000E+00
  0.00000000E+00  0.00000000E+00  0.00000000E+00
  0.00000000E+00  0.00000000E+00  0.00000000E+00
  0.00000000E+00  0.00000000E+00  0.00000000E+00
  0.00000000E+00  0.00000000E+00  0.00000000E+00
  0.00000000E+00  0.00000000E+00  0.00000000E+00
  0.00000000E+00  0.00000000E+00  0.00000000E+00
  0.00000000E+00  0.00000000E+00  0.00000000E+00
  0.00000000E+00  0.00000000E+00  0.00000000E+00
  0.00000000E+00  0.00000000E+00  0.00000000E+00
  0.00000000E+00  0.00000000E+00  0.00000000E+00
  0.00000000E+00  0.00000000E+00  0.00000000E+00
  0.00000000E+00  0.00000000E+00  0.00000000E+00
  0.00000000E+00  0.00000000E+00  0.00000000E+00
  0.00000000E+00  0.00000000E+00  0.00000000E+00
  0.00000000E+00  0.00000000E+00  0.00000000E+00
  0.00000000E+00  0.00000000E+00  0.00000000E+00
  0.00000000E+00  0.00000000E+00  0.00000000E+00
  0.00000000E+00  0.00000000E+00  0.00000000E+00
  0.00000000E+00  0.00000000E+00  0.00000000E+00
  0.00000000E+00  0.00000000E+00  0.00000000E+00
  0.00000000E+00  0.00000000E+00  0.00000000E+00
  0.00000000E+00  0.00000000E+00  0.00000000E+00
  0.00000000E+00  0.00000000E+00  0.00000000E+00
  0.00000000E+00  0.00000000E+00  0.00000000E+00
  0.00000000E+00  0.00000000E+00  0.00000000E+00
  0.00000000E+00  0.00000000E+00  0.00000000E+00
  0.00000000E+00  0.00000000E+00  0.00000000E+00
  0.00000000E+00  0.00000000E+00  0.00000000E+00
  0.00000000E+00  0.00000000E+00  0.00000000E+00
  0.00000000E+00  0.00000000E+00  0.00000000E+00
  0.00000000E+00  0.00000000E+00  0.00000000E+00
  0.00000000E+00  0.00000000E+00  0.00000000E+00
  0.00000000E+00  0.00000000E+00  0.00000000E+00
  0.00000000E+00  0.00000000E+00  0.00000000E+00
  0.00000000E+00  0.00000000E+00  0.00000000E+00
  0.00000000E+00  0.00000000E+00  0.00000000E+00
  0.00000000E+00  0.00000000E+00  0.00000000E+00
  0.00000000E+00  0.00000000E+00  0.00000000E+00
  0.00000000E+00  0.00000000E+00  0.00000000E+00
  0.00000000E+00  0.00000000E+00  0.00000000E+00
  0.00000000E+00  0.00000000E+00  0.00000000E+00
  0.00000000E+00  0.00000000E+00  0.00000000E+00
  0.00000000E+00  0.00000000E+00  0.00000000E+00
  0.00000000E+00  0.00000000E+00  0.00000000E+00
  0.00000000E+00  0.00000000E+00  0.00000000E+00
  0.00000000E+00  0.00000000E+00  0.00000000E+00
  0.00000000E+00  0.00000000E+00  0.00000000E+00
  0.00000000E+00  0.00000000E+00  0.00000000E+00
  0.00000000E+00  0.00000000E+00  0.00000000E+00
  0.00000000E+00  0.00000000E+00  0.00000000E+00
  0.00000000E+00  0.00000000E+00  0.00000000E+00
  0.00000000E+00  0.00000000E+00  0.00000000E+00
  0.00000000E+00  0.00000000E+00  0.00000000E+00
  0.00000000E+00  0.00000000E+00  0.00000000E+00
  0.00000000E+00  0.00000000E+00  0.00000000E+00
  0.00000000E+00  0.00000000E+00  0.00000000E+00
  0.00000000E+00  0.00000000E+00  0.00000000E+00
  0.00000000E+00  0.00000000E+00  0.00000000E+00
  0.00000000E+00  0.00000000E+00  0.00000000E+00
  0.00000000E+00  0.00000000E+00  0.00000000E+00
  0.00000000E+00  0.00000000E+00  0.00000000E+00
  0.00000000E+00  0.00000000E+00  0.00000000E+00
  0.00000000E+00  0.00000000E+00  0.00000000E+00
  0.00000000E+00  0.00000000E+00  0.00000000E+00
  0.00000000E+00  0.00000000E+00  0.00000000E+00
  0.00000000E+00  0.00000000E+00  0.00000000E+00
  0.00000000E+00  0.00000000E+00  0.00000000E+00
  0.00000000E+00  0.00000000E+00  0.00000000E+00
  0.00000000E+00  0.00000000E+00  0.00000000E+00
  0.00000000E+00  0.00000000E+00  0.00000000E+00
  0.00000000E+00  0.00000000E+00  0.00000000E+00
  0.00000000E+00  0.00000000E+00  0.00000000E+00
  0.00000000E+00  0.00000000E+00  0.00000000E+00
  0.00000000E+00  0.00000000E+00  0.00000000E+00
  0.00000000E+00  0.00000000E+00  0.00000000E+00
  0.00000000E+00  0.00000000E+00  0.00000000E+00
  0.00000000E+00  0.00000000E+00  0.00000000E+00
  0.00000000E+00  0.00000000E+00  0.00000000E+00
  0.00000000E+00  0.00000000E+00  0.00000000E+00
  0.00000000E+00  0.00000000E+00  0.00000000E+00
  0.00000000E+00  0.00000000E+00  0.00000000E+00
  0.00000000E+00  0.00000000E+00  0.00000000E+00
  0.00000000E+00  0.00000000E+00  0.00000000E+00
  0.00000000E+00  0.00000000E+00  0.00000000E+00
  0.00000000E+00  0.00000000E+00  0.00000000E+00
  0.00000000E+00  0.00000000E+00  0.00000000E+00
  0.00000000E+00  0.00000000E+00  0.00000000E+00
  0.00000000E+00  0.00000000E+00  0.00000000E+00
  0.00000000E+00  0.00000000E+00  0.00000000E+00
  0.00000000E+00  0.00000000E+00  0.00000000E+00
  0.00000000E+00  0.00000000E+00  0.00000000E+00
  0.00000000E+00  0.00000000E+00  0.00000000E+00
  0.00000000E+00  0.00000000E+00  0.00000000E+00
  0.00000000E+00  0.00000000E+00  0.00000000E+00
  0.00000000E+00  0.00000000E+00  0.00000000E+00
  0.00000000E+00  0.00000000E+00  0.00000000E+00
  0.00000000E+00  0.00000000E+00  0.00000000E+00
  0.00000000E+00  0.00000000E+00  0.00000000E+00
  0.00000000E+00  0.00000000E+00  0.00000000E+00
  0.00000000E+00  0.00000000E+00  0.00000000E+00
  0.00000000E+00  0.00000000E+00  0.00000000E+00
  0.00000000E+00  0.00000000E+00  0.00000000E+00
  0.00000000E+00  0.00000000E+00  0.00000000E+00
  0.00000000E+00  0.00000000E+00  0.00000000E+00
  0.00000000E+00  0.00000000E+00  0.00000000E+00
  0.00000000E+00  0.00000000E+00  0.00000000E+00
  0.00000000E+00  0.00000000E+00  0.00000000E+00
  0.00000000E+00  0.00000000E+00  0.00000000E+00
  0.00000000E+00  0.00000000E+00  0.00000000E+00
  0.00000000E+00  0.00000000E+00  0.00000000E+00
  0.00000000E+00  0.00000000E+00  0.00000000E+00
  0.00000000E+00  0.00000000E+00  0.00000000E+00
  0.00000000E+00  0.00000000E+00  0.00000000E+00
  0.00000000E+00  0.00000000E+00  0.00000000E+00
  0.00000000E+00  0.00000000E+00  0.00000000E+00
  0.00000000E+00  0.00000000E+00  0.00000000E+00
  0.00000000E+00  0.00000000E+00  0.00000000E+00
  0.00000000E+00  0.00000000E+00  0.00000000E+00
  0.00000000E+00  0.00000000E+00  0.00000000E+00
  0.00000000E+00  0.00000000E+00  0.00000000E+00
  0.00000000E+00  0.00000000E+00  0.00000000E+00
  0.00000000E+00  0.00000000E+00  0.00000000E+00
  0.00000000E+00  0.00000000E+00  0.00000000E+00
  0.00000000E+00  0.00000000E+00  0.00000000E+00
  0.00000000E+00  0.00000000E+00  0.00000000E+00
  0.00000000E+00  0.00000000E+00  0.00000000E+00
  0.00000000E+00  0.00000000E+00  0.00000000E+00
  0.00000000E+00  0.00000000E+00  0.00000000E+00
  0.00000000E+00  0.00000000E+00  0.00000000E+00
  0.00000000E+00  0.00000000E+00  0.00000000E+00
  0.00000000E+00  0.00000000E+00  0.00000000E+00
  0.00000000E+00  0.00000000E+00  0.00000000E+00
  0.00000000E+00  0.00000000E+00  0.00000000E+00
  0.00000000E+00  0.00000000E+00  0.00000000E+00
  0.00000000E+00  0.00000000E+00  0.00000000E+00
  0.00000000E+00  0.00000000E+00  0.00000000E+00
  0.00000000E+00  0.00000000E+00  0.00000000E+00
  0.00000000E+00  0.00000000E+00  0.00000000E+00
  0.00000000E+00  0.00000000E+00  0.00000000E+00
  0.00000000E+00  0.00000000E+00  0.00000000E+00
  0.00000000E+00  0.00000000E+00  0.00000000E+00
  0.00000000E+00  0.00000000E+00  0.00000000E+00
  0.00000000E+00  0.00000000E+00  0.00000000E+00
  0.00000000E+00  0.00000000E+00  0.00000000E+00
  0.00000000E+00  0.00000000E+00  0.00000000E+00
  0.00000000E+00  0.00000000E+00  0.00000000E+00
  0.00000000E+00  0.00000000E+00  0.00000000E+00
  0.00000000E+00  0.00000000E+00  0.00000000E+00
  0.00000000E+00  0.00000000E+00  0.00000000E+00
  0.00000000E+00  0.00000000E+00  0.00000000E+00
  0.00000000E+00  0.00000000E+00  0.00000000E+00
  0.00000000E+00  0.00000000E+00  0.00000000E+00
  0.00000000E+00  0.00000000E+00  0.00000000E+00
  0.00000000E+00  0.00000000E+00  0.00000000E+00
  0.00000000E+00  0.00000000E+00  0.00000000E+00
  0.00000000E+00  0.00000000E+00  0.00000000E+00
 
           1
   4.00000000000000     
  0.10000000E+01  0.00000000E+00  0.00000000E+00  0.00000000E+00
  0.92332201E+00  0.90679364E+00  0.67359289E+00
  0.76008095E+00  0.75379783E+00  0.49422458E+00
  0.88445700E-01  0.74890577E+00  0.62395904E-02
  0.24817043E+00  0.41562316E+00  0.18129423E+00
  0.92483239E+00  0.91903192E+00  0.14916314E-01
  0.57660503E+00  0.93182607E+00  0.98963037E-02
  0.90980804E+00  0.40313777E+00  0.52082970E+00
  0.57991973E+00  0.97630601E-01  0.67096583E+00
  0.43132103E+00  0.59850127E+00  0.99320440E+00
  0.87577652E-01  0.76676667E+00  0.15756088E+00
  0.41452183E+00  0.74729779E+00  0.32276184E+00
  0.25319158E+00  0.86151102E-01  0.33694062E+00
  0.59190744E+00  0.90074799E+00  0.34668100E+00
  0.59336872E+00  0.76762180E+00  0.30129898E-02
  0.95102288E-01  0.92328014E-01  0.51068055E+00
  0.75916621E+00  0.26226227E+00  0.29558084E-02
  0.41200112E+00  0.89696842E-01  0.33905851E+00
  0.25622422E+00  0.92702987E+00  0.98494923E+00
  0.74122836E+00  0.26875366E+00  0.84671923E+00
  0.80484175E-01  0.72553674E-01  0.99406468E+00
  0.80031999E-01  0.56953373E+00  0.83567170E+00
  0.76775352E+00  0.92095371E+00  0.13546085E-01
  0.57331748E+00  0.90049946E+00  0.67029179E+00
  0.74051056E+00  0.91752917E+00  0.18149581E+00
  0.92607157E+00  0.39655334E+00  0.99496172E+00
  0.41101598E+00  0.59681616E+00  0.16685977E+00
  0.91875244E+00  0.59367449E+00  0.99973759E+00
  0.92692114E+00  0.10509437E+00  0.33676954E+00
  0.97678735E-01  0.80938017E-01  0.82741701E+00
  0.75907737E+00  0.58853938E+00  0.66894154E+00
  0.92611298E+00  0.44197736E+00  0.17863832E+00
  0.84360730E-01  0.25992655E+00  0.19210467E+00
  0.75445068E+00  0.43043029E+00  0.82550569E+00
  0.42674703E+00  0.41430293E+00  0.84547077E+00
  0.95868991E-01  0.92634868E-01  0.17097761E+00
  0.76083902E+00  0.44260109E+00  0.17114182E+00
  0.24596564E+00  0.24325138E+00  0.68411757E+00
  0.24504099E+00  0.75011796E+00  0.15894258E+00
  0.24330320E+00  0.58815537E+00  0.98866851E+00
  0.75331240E+00  0.91482563E+00  0.50390631E+00
  0.93062652E+00  0.27463026E+00  0.16880871E+00
  0.24883308E+00  0.26128773E+00  0.84037173E+00
  0.10861106E+00  0.92374341E+00  0.66342335E+00
  0.84225944E-01  0.41446769E+00  0.35408085E+00
  0.26839272E+00  0.59151667E+00  0.82832654E+00
  0.74711204E+00  0.41411560E+00  0.35269506E+00
  0.25760048E+00  0.75822056E+00  0.30796530E+00
  0.92183008E+00  0.74390637E+00  0.66703226E+00
  0.76730779E+00  0.92633342E+00  0.32471942E+00
  0.84054827E-01  0.41827332E+00  0.83954518E+00
  0.24950958E+00  0.43138289E+00  0.67992620E+00
  0.24756366E+00  0.57276464E+00  0.33966520E+00
  0.58925916E+00  0.94737946E-01  0.11226454E-01
  0.76522740E+00  0.77566789E+00  0.16209858E+00
  0.24551974E+00  0.57683903E+00  0.66727876E+00
  0.74874181E+00  0.91622545E+00  0.84543114E+00
  0.75692773E+00  0.58768938E+00  0.83643321E+00
  0.42881825E+00  0.92699022E+00  0.82663057E+00
  0.89902073E-01  0.73763342E+00  0.34834274E+00
  0.58336962E+00  0.59888393E+00  0.16617285E+00
  0.84642898E-01  0.59372139E+00  0.18702668E+00
  0.43768922E+00  0.92195506E+00  0.32155073E+00
  0.75729407E-01  0.40742183E+00  0.13411456E-01
  0.42302465E+00  0.99479055E-01  0.48483117E+00
  0.92231695E+00  0.76177399E+00  0.18535990E+00