Amorphous GeTe6                         
   1.00000000000000     
    21.5328235405677262    0.0000000000000000    0.0000000000000000
     0.0000000000000000   21.5328235405677262    0.0000000000000000
     0.0000000000000000    0.0000000000000000   21.5328235405677262
   Zn   Te
   105   195
Direct
  0.8517854790455947  0.5125828159396164  0.1669915243989159
  0.1728808368072612  0.9078936673997083  0.3220276322744711
  0.7119352240428193  0.6354310077687457  0.1884772648255559
  0.6701972867600312  0.6737886195835592  0.6957753607485745
  0.8714084513475111  0.8911322617620525  0.0395546784864137
  0.0652584961884933  0.4250329845286331  0.3097019487541377
  0.3516869049483137  0.3474897190128834  0.4515062396544673
  0.9685635221580459  0.6903699092535149  0.9967097645026479
  0.4411042732345542  0.2613951923618879  0.0502774211257957
  0.2324868394279233  0.0633133984385257  0.4313656609308438
  0.9211319382678451  0.0287985718772597  0.6673255487606090
  0.2961497923304198  0.0184425116973405  0.2609450911309759
  0.3533029446732422  0.8878044225387638  0.4289271521032320
  0.0513397580986402  0.6316653296958877  0.8928624323045833
  0.2410932068268067  0.1805705095098219  0.1570817807335145
  0.0683538160263172  0.6123950400914412  0.6699854757624252
  0.1607655285063228  0.5545108345924188  0.3879266074762902
  0.8868740259671810  0.5114859333312041  0.6915275187898063
  0.6925712045553060  0.8148639665791734  0.1988612163701508
  0.1946918595262406  0.6728491049383405  0.7527226093482814
  0.2492854166751924  0.1194164413053638  0.6867085317828764
  0.8921892744056573  0.9159891438691321  0.8805861182610675
  0.5232068693413472  0.3730872911259373  0.9276955231366267
  0.9942313679982234  0.8413948288148848  0.4570088083648523
  0.3197805585227627  0.8582821691583231  0.9758144977883113
  0.1339029902657007  0.7355744251751123  0.0820324020878873
  0.5575584876180851  0.4959148806575119  0.1508552526038581
  0.3546336353818277  0.6478083263294799  0.0414658221842402
  0.7306432370257537  0.8870916781871766  0.6246961214696960
  0.3828420831239148  0.7774997746125544  0.6619918143605800
  0.1217521852884430  0.2359170203399604  0.9747045221975982
  0.2020694182943506  0.4987929665177259  0.7020399276430497
  0.9193884257770388  0.6921584056845845  0.4110540097387850
  0.7374870574909892  0.3519610835418325  0.7324167065339471
  0.6274770118479461  0.9624380052802822  0.2296896872052174
  0.3314684971428417  0.9665787605199041  0.6563503545670020
  0.2954045119337140  0.4309958391233411  0.0585741488212602
  0.7536696444680242  0.1933626974398333  0.2347189196920791
  0.1240604933158344  0.3424891416409663  0.4549196862173849
  0.7652655037394930  0.5946532871983057  0.8408251425087122
  0.2650278235726928  0.1985203042294269  0.8303082908598326
  0.2704297025363147  0.8718487451822344  0.1553066720996676
  0.9928151442401958  0.5531222108596957  0.4069893931037451
  0.4846563651562950  0.8154255932571881  0.7914494280737232
  0.3000294657184472  0.2096257897765300  0.5548121166338329
  0.9350436477772476  0.1660530469454486  0.7107390500105208
  0.7094063601318740  0.0409767114415268  0.0374356701292099
  0.4905837103807159  0.0109397118828350  0.5266156322475966
  0.5329519588860955  0.4956645423391481  0.3900228522849057
  0.8284586230782864  0.0373428650764301  0.3394619313824553
  0.5686999584926353  0.1343788575972222  0.9361460736058779
  0.9020058918566136  0.2426639190954417  0.5803109021344069
  0.2742891353983125  0.7351018867866330  0.3515503192072563
  0.6473236598935010  0.5687819646173469  0.9806669681927261
  0.4245024185299632  0.0892529902791078  0.8159522700565657
  0.6884423542951463  0.1718270649830388  0.4429772778377162
  0.6501258325280435  0.8424462256717160  0.4659009109911857
  0.0177175043486951  0.1570159451449610  0.8377120964892601
  0.1845063663038424  0.2740764224941814  0.3357242575891449
  0.5196899970689004  0.6545928519160319  0.0969181566850612
  0.7624861207687764  0.3208911920743763  0.3114033256741478
  0.9348047846213132  0.1588336442339294  0.2499279095273870
  0.3694533286701251  0.7392453436646071  0.1118252081357685
  0.2588906030825204  0.0735769179979249  0.0414750660548881
  0.9051194787161588  0.4099485920232945  0.5220773636508310
  0.7233254300142038  0.4674248131238972  0.4308986172389582
  0.2730800689441978  0.5729178713195797  0.8868495346969876
  0.0228179698879971  0.0448235424665101  0.2824674880563005
  0.0544098872477024  0.9672602659324516  0.8051223052966324
  0.4534341505248832  0.5582298566881665 -0.0008709323790378
  0.3562771552106382  0.5665552135868677  0.4130042827507683
  0.4208345832407926  0.2600128373973252  0.8518598247012801
  0.7858588460924657  0.9403585535959148  0.7466118478456538
  0.9401233742904176  0.4802440877303980  0.0088483971538103
  0.0574495940614651  0.7105447652542478  0.5275818606998118
  0.0047076715346735  0.8620993735990752  0.1207740291909318
  0.5743248473598176  0.3377898575563377  0.7525996583319131
  0.9927836827912132  0.7221708237870063  0.1991780679425544
  0.0191235690729970  0.3286695714510139  0.7999997574475923
  0.2792092562367529  0.6613256031177199  0.1348279697781157
  0.8922397339184976  0.9064490112495317  0.2769260053779077
  0.4984608566294078  0.9975164371900150  0.3092920035798596
  0.5695526550296075  0.9844756328898638  0.6976657266529108
  0.7442574587964120  0.2082861055917943  0.9780290532637349
  0.4829241066102746  0.6437081487728468  0.6843187407044451
  0.4485231922712627  0.1390413054698544  0.6295905300599635
  0.1712737510726153  0.9084516953090307  0.5139113210844611
  0.4259603028185409  0.8653543480403032  0.2382384807957512
  0.6492511251777279  0.2133718129682884  0.1170586466526923
  0.9982607316909237  0.9925183946116276  0.9642741102366637
  0.0544015170516138  0.4716709657049234  0.5281126913783678
  0.5534997242958869  0.0117888933048344  0.0928602861235465
  0.7920195508785818  0.3154097107879755  0.5005835650843545
  0.1238654709397170  0.4411249324714024  0.9122322107866301
  0.3774233997878386  0.5546157832696123  0.6938686545350936
  0.7027975665154738  0.4474887913098586  0.2491716715428452
  0.8500623940648494  0.7353921819145616  0.1384668343329576
  0.9275779699343769  0.0470667028310472  0.1170009855053761
  0.8136862864074250  0.2171351734029151  0.3706959623778453
  0.8753847760584756  0.1420314992783887  0.4950876812803466
  0.6573896505199545  0.8446608618868867  0.7862673013896487
  0.8221815193001037  0.3711231967330287  0.8825306294547718
  0.8102360354804309  0.5704011765658499  0.3429149592604500
  0.6294821908953435  0.4751924492025376  0.6461621719352747
  0.1671824413706495  0.6441955761987982  0.9807356691951655
  0.4886512372640469  0.3232297301298491  0.1473214533891557
  0.5421323291234091  0.2064204804336233  0.1780060072788450
  0.8874322974188498  0.8516998614174964  0.1585189180892979
  0.5557156546342042  0.0182072190741174  0.4219395265219878
  0.7395123005757512  0.1225718452354252  0.3378056973853248
  0.7042520641203533  0.2917121648332162  0.4156053403547638
  0.9638042934047004  0.9146127176019135  0.6574778563748972
  0.0007761524435287  0.1495506393106285  0.3516201748811030
  0.0328265298484046  0.9833834685596199  0.0930512557232967
  0.7383517098631898  0.9294592191157930  0.2074458258531458
  0.5448171306405942  0.9411902332592044  0.9279016048199233
  0.1602970033392926  0.7841805197962670  0.3381223885855802
  0.2819715462300721  0.9880755342311063  0.9609130763814504
  0.2013207281279260  0.4386202181404131  0.4303665708514032
  0.8104227157807893  0.8452961177355137  0.9403869965144511
  0.6883553478269739  0.3041842471570895  0.2110784885467596
  0.2050033034538957  0.2824065018034074  0.8992433408019408
  0.9248745933028558  0.0631879076830605  0.4156236472567544
  0.5428403337240686  0.1321508748228423  0.8097137966143949
  0.8524042480286604  0.3940101162420026  0.6973240465433982
  0.2874401645813278  0.8519440655671786  0.6866256385217810
  0.9233218842351720  0.2662858020860472  0.9891042120956611
  0.6401247687340262  0.0388296700398148  0.7830601695429337
  0.1750996037828831  0.6619522468244579  0.6289483548605610
  0.8972936238982100  0.2593789713484085  0.4502289009771184
  0.9661950282469037  0.3457798758429335  0.6133454856815478
  0.3968823055260172  0.9342579986755004  0.5442232425838304
  0.3203060899642667  0.0874074186048651  0.1489733659439407
  0.7781842339618205  0.2418006914423294  0.6020192158273657
  0.6475047902953075  0.3521030487753318  0.6506361474674378
  0.5877887889182307  0.5410488362414467  0.5492576235672882
  0.6882866371663634  0.1076339891424318  0.9389540772458597
  0.7883185458613552  0.4330373514598500  0.5364915299427456
  0.2112106947720459  0.2443859953152536  0.4598353326235770
  0.5782944114540649  0.8398171186784540  0.1459226172290387
  0.2115755559567495  0.2277416729989669  0.6400596875964102
  0.8262155158059740  0.1400360202871209  0.7694994393198609
  0.5837505085500415  0.4682075200978960  0.2690462190842982
  0.3122307514578058  0.0894049566949344  0.5219119342919077
  0.7285406802033951  0.2330998032911026  0.7845925995961388
  0.6663961166460346  0.2940791446229802  0.0284495902090041
  0.3386806095339496  0.5719949883492405  0.2121757408283680
  0.5670792223634381  0.1586096753473816  0.4574571889365869
  0.0100124425816383  0.4050524211017126  0.9395503179814064
  0.1880985605685626  0.1113689837624297  0.7905853903114264
  0.3694383713602175  0.0814000167197399  0.7035332998289331
  0.4602984626113596  0.9184832796779169  0.7268300236211790
  0.5521413561731073  0.0535810414373520  0.2092586564920728
  0.7327277769719009  0.7341435133942255  0.1175922955566514
  0.0811458735859486  0.3379914733748163  0.0392277683778712
  0.1419435393947222  0.4349045826430956  0.2000758393238858
  0.2420664199047378  0.9410370157103820  0.4210570794310137
  0.6340851862652099  0.6200555781703744  0.2892137820301074
  0.6250890085066740  0.7228103670553058  0.5101316928646147
  0.9651222280394561  0.9457248302043532  0.5202068244079397
  0.4668457340432782  0.6819937886551651  0.9900524903879971
  0.1181898975459955  0.1873469302894068  0.5313723267823621
  0.5480541578793515  0.4983449952274968  0.9494393692361862
  0.0687340727767078  0.5458756812820497  0.3057482594339856
  0.2781956151754211  0.5747332886882376  0.7660455240876366
  0.6074996294994425  0.4397033727030144  0.4693360438355689
  0.1161027850708776  0.8021075049225559  0.4606959196390468
  0.1647990070961790  0.9363614912434248  0.9800622864301028
  0.3739291227253342  0.4275904832646890  0.6597634456643604
  0.8361873759142584  0.0100860720838036  0.0419936287093273
  0.2028546544553495  0.9572694730413209  0.2138633124248774
  0.7208145942345283  0.4237868257599066  0.8309641965689317
  0.4424427362787176  0.1428853564200249  0.1039263102483150
  0.5651922034710078  0.3191511258024686  0.3253212038845567
  0.7265478500149961  0.1230219291292180  0.1367053341042340
  0.4161697442659223  0.4488022579909738  0.3941885796140019
  0.5052467900929870  0.7272569777821395  0.4462938562494027
  0.6391826461874136  0.9400721768170169  0.0474099915290815
  0.7469794345459004  0.6884934882940705  0.9286440598005954
  0.8212765755437063  0.2473726163752782  0.8839856722380658
  0.4473468397464782  0.5549934794642126  0.1317359044579287
  0.9045267137001678  0.0270654416409165  0.2380086740297122
  0.3637093227235141  0.1625877908765495  0.8947811667360496
  0.4194167378216656  0.8304956162360176  0.0457531453664380
  0.9588948648942359  0.1276470256445039  0.5946947729533372
  0.5397917070496109  0.7229193621569219  0.1971548791343775
  0.0700173074332003  0.9656367792403799  0.3614541695803394
  0.7988642102416593  0.0433364364114993  0.6811241581898164
  0.4437379906011339  0.3661667084822309  0.2852299814494587
  0.2297783832588812  0.7671331656939698  0.8387292087343773
  0.0367006355773774  0.2264355449722727  0.7413874632954452
  0.5480348325033585  0.1917435789732953  0.3330536851435785
  0.4890853786786852  0.2466869719145812  0.7525725866110718
  0.5504778474271625  0.0739191686319823  0.6102721449318681
  0.9862955196529760  0.8501103075221430  0.3316435475586776
  0.6442126153017687  0.7561535467774854  0.3067090817361403
  0.2754314204338332  0.3573348740889056  0.3476583448019394
  0.5513369572720056  0.8767696010400525  0.2875346107859599
  0.9598549978984324  0.0586280874224498  0.7919061633379540
  0.9454239242408922  0.5832660518727424  0.9280595466986188
  0.9395670624775841  0.6576751170650098  0.1098942092580050
  0.7450687624104451  0.4641618401354923  0.1344200064638182
  0.1076782214005578  0.0732425240647532  0.4532556282732668
  0.7694415240077979  0.5563961262580578  0.9619674863647540
  0.3851887763053600  0.9516947256825851  0.3186149957600838
  0.0028713240253580  0.5118816435500158  0.6402885537975914
  0.8899285695605600  0.0347131693437063  0.9196226005206992
  0.3308732814785388  0.5321919813413618  0.9880772296917709
  0.8315972992630440  0.1965559019055844  0.0674560000145518
  0.0878490469256799  0.5095873733424570  0.7489468498788835
  0.9713462650323440  0.8769713155059967  0.7980222165398049
  0.3751673450269677  0.2592604032004819  0.3049489513533725
  0.3313500463244782  0.8546940392499713  0.8526482169120700
  0.7273034869354659  0.7667598870413175  0.4042565175183057
  0.2854705438764261  0.1185331871557511  0.3326308462063044
  0.3436911216269791  0.5417761207910484  0.5379307225448837
  0.6289046429876433  0.3364168599956385  0.8639777947228087
  0.1853268946016093  0.1704650491394813  0.2698385881636982
  0.0782953683685833  0.7153463017868099  0.8029408908860198
  0.1703586760855257  0.6189831841731904  0.0995741344190793
  0.2651496503261598  0.6078604690084513  0.3436626012265983
  0.4031875323862046  0.3714950951623171  0.8969381568398462
  0.4741089623596282  0.6074194726543677  0.3930497759325098
  0.9407448148718354  0.7479193027069422  0.5152755190714614
  0.7242894235341578  0.9334636947308236  0.5134424643898924
  0.8784866994795365  0.7333991081102673  0.9203675959011470
  0.7128853216895848  0.5757539649586698  0.6248639716306427
  0.8354015533475041  0.8853252770688137  0.4681301656517505
  0.5393768915749840  0.8785181663382277  0.4239775975595299
  0.7593623295589852  0.1314639635443904  0.5357134827728425
  0.6100998309840989  0.6594689619518076  0.8954021789153603
  0.2739902448121187  0.6876943813610450  0.9324205978947081
  0.8214756084542930  0.8366498551957308  0.6884153597282189
  0.3787770400926552  0.6516423247508365  0.6095125220502166
  0.0692391661376199  0.3103800929470668  0.3491253160971413
  0.1407665911252575  0.9490913932645951  0.7192639844718073
  0.8795541418334458  0.5844789102595992  0.4394031134237801
  0.0866172879017372  0.7946338247066849  0.1777798704962371
  0.0146789833319109  0.1726605709708271  0.9575823088217142
  0.0979076597178841  0.7802757957867803  0.6321526740392983
  0.7030627588755559  0.5945429221739498  0.3963779659822883
  0.8362965513211613  0.6178091805534847  0.6606156454585996
  0.2964918497288038  0.4463947344535603  0.1834255626363272
  0.4759731976684717  0.5552941916637699  0.7703186469579364
  0.1419104289578514  0.3636997091326999  0.8178128356539756
  0.7864868649378211  0.9197034580316235  0.3390248977319684
  0.9878687315162357  0.8730409658328649  0.9960914415586617
  0.3421807189860129  0.3242945372251207  0.0076920635072709
  0.4704026470791520  0.8371289690105029  0.5974926991867101
  0.2777557205332719  0.4013469020570447  0.7458836228836578
  0.8588754739805519  0.2554900218875946  0.2552734000891189
  0.5688966271237104  0.7150465417273361  0.6379239122374121
  0.8755334710892088  0.5953842876717235  0.7885404322765638
  0.9828462821988699  0.4330368942858014  0.4354603471431557
  0.0876733175683336  0.9892813446526942  0.5570002186444468
  0.4855943368044934  0.0630254703979554  0.0037663285319467
  0.2247433293044253  0.8271980426866616  0.0497911839325542
  0.4079728281660033  0.7428235381310807  0.2303149836379616
  0.9187556410994353  0.7377997346863389  0.2983131276201712
  0.5406836323286841  0.4127748631178795  0.0586953768605386
  0.0099418928420932  0.3940601290061823  0.1948263830003173
  0.9690678730357434  0.5052647350303469  0.1304702603459964
  0.3025474990579021  0.2717551451555417  0.7288393596840899
  0.1471824489979011  0.5544865437519201  0.8816374616820419
  0.6527397123031710  0.5925058084104530  0.7909427615166856
  0.5312486385679301  0.4506276782441728  0.7152591618678961
  0.3862428523312655  0.9199627890983407  0.1345470714282898
  0.4336549274547822  0.9666931908702980  0.8509808559675013
  0.2806336978891623  0.2997909191241366  0.1477324554455929
  0.5415356043351944  0.2508801103428570  0.9741286305306085
  0.7788047732643192  0.3357691900270179  0.1085585026802409
  0.8257393731561115  0.6114736307875687  0.2319337898484067
  0.7423648364681624  0.7552105100980094  0.7591157039714422
  0.2248071704544842  0.8187432065461239  0.5764970435128705
  0.4084609277000506  0.2416011888140534  0.4491068862579412
  0.1519092189964736  0.3098481621275499  0.1606148660310268
  0.0948768605280090  0.3605801397545296  0.5720739313655596
  0.0847223575936716  0.5924594049387664  0.4846504950559588
  0.1707483270687011  0.4334397321547155  0.0242501547244903
  0.0952630798312219  0.0301684731499615  0.9052996240531993
  0.3597838787038043  0.7680044053634932  0.4304939886925368
  0.9249158355791065  0.4034316244725827  0.8136536065528767
  0.4133805590023167  0.2473679932393896  0.5848865688718649
  0.2677704295841344  0.7600377224852142  0.2189231375946675
  0.8297727071855328  0.4227774273888196  0.9937145323824720
  0.6256043885526794  0.5873477164300293  0.1019848970099634
  0.0801034260377284  0.7356914879939822  0.9670964012942547
  0.4190968444430582  0.7189268302327331  0.7642150122737664
  0.6227293368046561  0.8773563771903153  0.6716938023395446
  0.7128877232603504  0.9425678459085088  0.8418564145279778
  0.5715269973911286  0.8186574415827955  0.8771997333429382
  0.9867481932100405  0.1575937182666761  0.1381862017119086
  0.1729059507767608  0.1565381343707868  0.0556953444951835
  0.7912107289776136  0.4378757245686365  0.3316825947562824
  0.0829369957453431  0.0749089226160107  0.1793604622889553
  0.2315388345153807  0.0268661125396017  0.6062236257391967
  0.2156312392433360  0.5362649447559447  0.5856357210978625
  0.2344208792514413  0.9877893242572665  0.7995870760702338
  0.2926672568109637  0.4060992235394276  0.5431589657896211
  0.9981234790059217  0.7071311716906628  0.7001013169035969
 
  0.00000000E+00  0.00000000E+00  0.00000000E+00
  0.00000000E+00  0.00000000E+00  0.00000000E+00
  0.00000000E+00  0.00000000E+00  0.00000000E+00
  0.00000000E+00  0.00000000E+00  0.00000000E+00
  0.00000000E+00  0.00000000E+00  0.00000000E+00
  0.00000000E+00  0.00000000E+00  0.00000000E+00
  0.00000000E+00  0.00000000E+00  0.00000000E+00
  0.00000000E+00  0.00000000E+00  0.00000000E+00
  0.00000000E+00  0.00000000E+00  0.00000000E+00
  0.00000000E+00  0.00000000E+00  0.00000000E+00
  0.00000000E+00  0.00000000E+00  0.00000000E+00
  0.00000000E+00  0.00000000E+00  0.00000000E+00
  0.00000000E+00  0.00000000E+00  0.00000000E+00
  0.00000000E+00  0.00000000E+00  0.00000000E+00
  0.00000000E+00  0.00000000E+00  0.00000000E+00
  0.00000000E+00  0.00000000E+00  0.00000000E+00
  0.00000000E+00  0.00000000E+00  0.00000000E+00
  0.00000000E+00  0.00000000E+00  0.00000000E+00
  0.00000000E+00  0.00000000E+00  0.00000000E+00
  0.00000000E+00  0.00000000E+00  0.00000000E+00
  0.00000000E+00  0.00000000E+00  0.00000000E+00
  0.00000000E+00  0.00000000E+00  0.00000000E+00
  0.00000000E+00  0.00000000E+00  0.00000000E+00
  0.00000000E+00  0.00000000E+00  0.00000000E+00
  0.00000000E+00  0.00000000E+00  0.00000000E+00
  0.00000000E+00  0.00000000E+00  0.00000000E+00
  0.00000000E+00  0.00000000E+00  0.00000000E+00
  0.00000000E+00  0.00000000E+00  0.00000000E+00
  0.00000000E+00  0.00000000E+00  0.00000000E+00
  0.00000000E+00  0.00000000E+00  0.00000000E+00
  0.00000000E+00  0.00000000E+00  0.00000000E+00
  0.00000000E+00  0.00000000E+00  0.00000000E+00
  0.00000000E+00  0.00000000E+00  0.00000000E+00
  0.00000000E+00  0.00000000E+00  0.00000000E+00
  0.00000000E+00  0.00000000E+00  0.00000000E+00
  0.00000000E+00  0.00000000E+00  0.00000000E+00
  0.00000000E+00  0.00000000E+00  0.00000000E+00
  0.00000000E+00  0.00000000E+00  0.00000000E+00
  0.00000000E+00  0.00000000E+00  0.00000000E+00
  0.00000000E+00  0.00000000E+00  0.00000000E+00
  0.00000000E+00  0.00000000E+00  0.00000000E+00
  0.00000000E+00  0.00000000E+00  0.00000000E+00
  0.00000000E+00  0.00000000E+00  0.00000000E+00
  0.00000000E+00  0.00000000E+00  0.00000000E+00
  0.00000000E+00  0.00000000E+00  0.00000000E+00
  0.00000000E+00  0.00000000E+00  0.00000000E+00
  0.00000000E+00  0.00000000E+00  0.00000000E+00
  0.00000000E+00  0.00000000E+00  0.00000000E+00
  0.00000000E+00  0.00000000E+00  0.00000000E+00
  0.00000000E+00  0.00000000E+00  0.00000000E+00
  0.00000000E+00  0.00000000E+00  0.00000000E+00
  0.00000000E+00  0.00000000E+00  0.00000000E+00
  0.00000000E+00  0.00000000E+00  0.00000000E+00
  0.00000000E+00  0.00000000E+00  0.00000000E+00
  0.00000000E+00  0.00000000E+00  0.00000000E+00
  0.00000000E+00  0.00000000E+00  0.00000000E+00
  0.00000000E+00  0.00000000E+00  0.00000000E+00
  0.00000000E+00  0.00000000E+00  0.00000000E+00
  0.00000000E+00  0.00000000E+00  0.00000000E+00
  0.00000000E+00  0.00000000E+00  0.00000000E+00
  0.00000000E+00  0.00000000E+00  0.00000000E+00
  0.00000000E+00  0.00000000E+00  0.00000000E+00
  0.00000000E+00  0.00000000E+00  0.00000000E+00
  0.00000000E+00  0.00000000E+00  0.00000000E+00
  0.00000000E+00  0.00000000E+00  0.00000000E+00
  0.00000000E+00  0.00000000E+00  0.00000000E+00
  0.00000000E+00  0.00000000E+00  0.00000000E+00
  0.00000000E+00  0.00000000E+00  0.00000000E+00
  0.00000000E+00  0.00000000E+00  0.00000000E+00
  0.00000000E+00  0.00000000E+00  0.00000000E+00
  0.00000000E+00  0.00000000E+00  0.00000000E+00
  0.00000000E+00  0.00000000E+00  0.00000000E+00
  0.00000000E+00  0.00000000E+00  0.00000000E+00
  0.00000000E+00  0.00000000E+00  0.00000000E+00
  0.00000000E+00  0.00000000E+00  0.00000000E+00
  0.00000000E+00  0.00000000E+00  0.00000000E+00
  0.00000000E+00  0.00000000E+00  0.00000000E+00
  0.00000000E+00  0.00000000E+00  0.00000000E+00
  0.00000000E+00  0.00000000E+00  0.00000000E+00
  0.00000000E+00  0.00000000E+00  0.00000000E+00
  0.00000000E+00  0.00000000E+00  0.00000000E+00
  0.00000000E+00  0.00000000E+00  0.00000000E+00
  0.00000000E+00  0.00000000E+00  0.00000000E+00
  0.00000000E+00  0.00000000E+00  0.00000000E+00
  0.00000000E+00  0.00000000E+00  0.00000000E+00
  0.00000000E+00  0.00000000E+00  0.00000000E+00
  0.00000000E+00  0.00000000E+00  0.00000000E+00
  0.00000000E+00  0.00000000E+00  0.00000000E+00
  0.00000000E+00  0.00000000E+00  0.00000000E+00
  0.00000000E+00  0.00000000E+00  0.00000000E+00
  0.00000000E+00  0.00000000E+00  0.00000000E+00
  0.00000000E+00  0.00000000E+00  0.00000000E+00
  0.00000000E+00  0.00000000E+00  0.00000000E+00
  0.00000000E+00  0.00000000E+00  0.00000000E+00
  0.00000000E+00  0.00000000E+00  0.00000000E+00
  0.00000000E+00  0.00000000E+00  0.00000000E+00
  0.00000000E+00  0.00000000E+00  0.00000000E+00
  0.00000000E+00  0.00000000E+00  0.00000000E+00
  0.00000000E+00  0.00000000E+00  0.00000000E+00
  0.00000000E+00  0.00000000E+00  0.00000000E+00
  0.00000000E+00  0.00000000E+00  0.00000000E+00
  0.00000000E+00  0.00000000E+00  0.00000000E+00
  0.00000000E+00  0.00000000E+00  0.00000000E+00
  0.00000000E+00  0.00000000E+00  0.00000000E+00
  0.00000000E+00  0.00000000E+00  0.00000000E+00
  0.00000000E+00  0.00000000E+00  0.00000000E+00
  0.00000000E+00  0.00000000E+00  0.00000000E+00
  0.00000000E+00  0.00000000E+00  0.00000000E+00
  0.00000000E+00  0.00000000E+00  0.00000000E+00
  0.00000000E+00  0.00000000E+00  0.00000000E+00
  0.00000000E+00  0.00000000E+00  0.00000000E+00
  0.00000000E+00  0.00000000E+00  0.00000000E+00
  0.00000000E+00  0.00000000E+00  0.00000000E+00
  0.00000000E+00  0.00000000E+00  0.00000000E+00
  0.00000000E+00  0.00000000E+00  0.00000000E+00
  0.00000000E+00  0.00000000E+00  0.00000000E+00
  0.00000000E+00  0.00000000E+00  0.00000000E+00
  0.00000000E+00  0.00000000E+00  0.00000000E+00
  0.00000000E+00  0.00000000E+00  0.00000000E+00
  0.00000000E+00  0.00000000E+00  0.00000000E+00
  0.00000000E+00  0.00000000E+00  0.00000000E+00
  0.00000000E+00  0.00000000E+00  0.00000000E+00
  0.00000000E+00  0.00000000E+00  0.00000000E+00
  0.00000000E+00  0.00000000E+00  0.00000000E+00
  0.00000000E+00  0.00000000E+00  0.00000000E+00
  0.00000000E+00  0.00000000E+00  0.00000000E+00
  0.00000000E+00  0.00000000E+00  0.00000000E+00
  0.00000000E+00  0.00000000E+00  0.00000000E+00
  0.00000000E+00  0.00000000E+00  0.00000000E+00
  0.00000000E+00  0.00000000E+00  0.00000000E+00
  0.00000000E+00  0.00000000E+00  0.00000000E+00
  0.00000000E+00  0.00000000E+00  0.00000000E+00
  0.00000000E+00  0.00000000E+00  0.00000000E+00
  0.00000000E+00  0.00000000E+00  0.00000000E+00
  0.00000000E+00  0.00000000E+00  0.00000000E+00
  0.00000000E+00  0.00000000E+00  0.00000000E+00
  0.00000000E+00  0.00000000E+00  0.00000000E+00
  0.00000000E+00  0.00000000E+00  0.00000000E+00
  0.00000000E+00  0.00000000E+00  0.00000000E+00
  0.00000000E+00  0.00000000E+00  0.00000000E+00
  0.00000000E+00  0.00000000E+00  0.00000000E+00
  0.00000000E+00  0.00000000E+00  0.00000000E+00
  0.00000000E+00  0.00000000E+00  0.00000000E+00
  0.00000000E+00  0.00000000E+00  0.00000000E+00
  0.00000000E+00  0.00000000E+00  0.00000000E+00
  0.00000000E+00  0.00000000E+00  0.00000000E+00
  0.00000000E+00  0.00000000E+00  0.00000000E+00
  0.00000000E+00  0.00000000E+00  0.00000000E+00
  0.00000000E+00  0.00000000E+00  0.00000000E+00
  0.00000000E+00  0.00000000E+00  0.00000000E+00
  0.00000000E+00  0.00000000E+00  0.00000000E+00
  0.00000000E+00  0.00000000E+00  0.00000000E+00
  0.00000000E+00  0.00000000E+00  0.00000000E+00
  0.00000000E+00  0.00000000E+00  0.00000000E+00
  0.00000000E+00  0.00000000E+00  0.00000000E+00
  0.00000000E+00  0.00000000E+00  0.00000000E+00
  0.00000000E+00  0.00000000E+00  0.00000000E+00
  0.00000000E+00  0.00000000E+00  0.00000000E+00
  0.00000000E+00  0.00000000E+00  0.00000000E+00
  0.00000000E+00  0.00000000E+00  0.00000000E+00
  0.00000000E+00  0.00000000E+00  0.00000000E+00
  0.00000000E+00  0.00000000E+00  0.00000000E+00
  0.00000000E+00  0.00000000E+00  0.00000000E+00
  0.00000000E+00  0.00000000E+00  0.00000000E+00
  0.00000000E+00  0.00000000E+00  0.00000000E+00
  0.00000000E+00  0.00000000E+00  0.00000000E+00
  0.00000000E+00  0.00000000E+00  0.00000000E+00
  0.00000000E+00  0.00000000E+00  0.00000000E+00
  0.00000000E+00  0.00000000E+00  0.00000000E+00
  0.00000000E+00  0.00000000E+00  0.00000000E+00
  0.00000000E+00  0.00000000E+00  0.00000000E+00
  0.00000000E+00  0.00000000E+00  0.00000000E+00
  0.00000000E+00  0.00000000E+00  0.00000000E+00
  0.00000000E+00  0.00000000E+00  0.00000000E+00
  0.00000000E+00  0.00000000E+00  0.00000000E+00
  0.00000000E+00  0.00000000E+00  0.00000000E+00
  0.00000000E+00  0.00000000E+00  0.00000000E+00
  0.00000000E+00  0.00000000E+00  0.00000000E+00
  0.00000000E+00  0.00000000E+00  0.00000000E+00
  0.00000000E+00  0.00000000E+00  0.00000000E+00
  0.00000000E+00  0.00000000E+00  0.00000000E+00
  0.00000000E+00  0.00000000E+00  0.00000000E+00
  0.00000000E+00  0.00000000E+00  0.00000000E+00
  0.00000000E+00  0.00000000E+00  0.00000000E+00
  0.00000000E+00  0.00000000E+00  0.00000000E+00
  0.00000000E+00  0.00000000E+00  0.00000000E+00
  0.00000000E+00  0.00000000E+00  0.00000000E+00
  0.00000000E+00  0.00000000E+00  0.00000000E+00
  0.00000000E+00  0.00000000E+00  0.00000000E+00
  0.00000000E+00  0.00000000E+00  0.00000000E+00
  0.00000000E+00  0.00000000E+00  0.00000000E+00
  0.00000000E+00  0.00000000E+00  0.00000000E+00
  0.00000000E+00  0.00000000E+00  0.00000000E+00
  0.00000000E+00  0.00000000E+00  0.00000000E+00
  0.00000000E+00  0.00000000E+00  0.00000000E+00
  0.00000000E+00  0.00000000E+00  0.00000000E+00
  0.00000000E+00  0.00000000E+00  0.00000000E+00
  0.00000000E+00  0.00000000E+00  0.00000000E+00
  0.00000000E+00  0.00000000E+00  0.00000000E+00
  0.00000000E+00  0.00000000E+00  0.00000000E+00
  0.00000000E+00  0.00000000E+00  0.00000000E+00
  0.00000000E+00  0.00000000E+00  0.00000000E+00
  0.00000000E+00  0.00000000E+00  0.00000000E+00
  0.00000000E+00  0.00000000E+00  0.00000000E+00
  0.00000000E+00  0.00000000E+00  0.00000000E+00
  0.00000000E+00  0.00000000E+00  0.00000000E+00
  0.00000000E+00  0.00000000E+00  0.00000000E+00
  0.00000000E+00  0.00000000E+00  0.00000000E+00
  0.00000000E+00  0.00000000E+00  0.00000000E+00
  0.00000000E+00  0.00000000E+00  0.00000000E+00
  0.00000000E+00  0.00000000E+00  0.00000000E+00
  0.00000000E+00  0.00000000E+00  0.00000000E+00
  0.00000000E+00  0.00000000E+00  0.00000000E+00
  0.00000000E+00  0.00000000E+00  0.00000000E+00
  0.00000000E+00  0.00000000E+00  0.00000000E+00
  0.00000000E+00  0.00000000E+00  0.00000000E+00
  0.00000000E+00  0.00000000E+00  0.00000000E+00
  0.00000000E+00  0.00000000E+00  0.00000000E+00
  0.00000000E+00  0.00000000E+00  0.00000000E+00
  0.00000000E+00  0.00000000E+00  0.00000000E+00
  0.00000000E+00  0.00000000E+00  0.00000000E+00
  0.00000000E+00  0.00000000E+00  0.00000000E+00
  0.00000000E+00  0.00000000E+00  0.00000000E+00
  0.00000000E+00  0.00000000E+00  0.00000000E+00
  0.00000000E+00  0.00000000E+00  0.00000000E+00
  0.00000000E+00  0.00000000E+00  0.00000000E+00
  0.00000000E+00  0.00000000E+00  0.00000000E+00
  0.00000000E+00  0.00000000E+00  0.00000000E+00
  0.00000000E+00  0.00000000E+00  0.00000000E+00
  0.00000000E+00  0.00000000E+00  0.00000000E+00
  0.00000000E+00  0.00000000E+00  0.00000000E+00
  0.00000000E+00  0.00000000E+00  0.00000000E+00