POSCAR file written by OVITO Basic 3.10.4
1
22.3638 0.0 0.0
0.0 22.3638 0.0
0.0 0.0 22.3638
Sb Te 
200 100 
Direct
0.229357712 0.9405557195 0.1404917769
0.7905677926 0.3397924324 0.0036363006
0.0538897683 0.0976470904 0.9895321904
0.7608993105 0.984166376 0.6384737835
0.6500997147 0.2844896663 0.7144000572
0.4474910346 0.7724447545 0.82986344
0.2510163747 0.4042582209 0.4683864102
0.9422414795 0.4763054579 0.4630876685
0.049435248 0.5250583532 0.7305735161
0.8988588701 0.7462103936 0.5874896037
0.3325441115 0.1163062628 0.3550528086
0.1901394217 0.0653784241 0.4177577156
0.6121142203 0.9732469437 0.3939665889
0.045679178 0.1714154124 0.1731275544
0.7500603654 0.6255332278 0.5843371878
0.5904095011 0.3219394736 0.0047366279
0.7084440033 0.4586474571 0.6902315349
0.7228020283 0.746380311 0.818501328
0.9564430016 0.7489693165 0.4593002978
0.0629579946 0.6665012207 0.8339861741
0.7001895921 0.1592627371 0.7677720244
0.7543306594 0.8903406398 0.1096155394
0.2439862635 0.18683095 0.9092372495
0.4557633318 0.5788730001 0.026897039
0.7852735224 0.9818456613 0.4274939858
0.5323200887 0.9624750713 0.6048524848
0.4167730887 0.7612436169 0.3698423345
0.2065243832 0.9760371672 0.8433897638
0.025007691 0.7395791413 0.9462747834
0.3320298876 0.2468368524 0.483956215
0.0277131346 0.6131650256 0.5196433522
0.7821389925 0.4060244681 0.885591894
0.3536295263 0.8826898828 0.3411236015
0.5429667588 0.9055348375 0.1318487914
0.4924968029 0.7876165947 0.1188344557
0.0098265053 0.2072496624 0.6788694229
0.5701490802 0.7368157469 0.8548904927
0.0949194681 0.6287303589 0.0099023422
0.3997276849 0.3279366655 0.3996342303
0.8082347365 0.9222091058 0.7462774663
0.1814114775 0.8359536394 0.8084940842
0.0028122367 0.0080612418 0.4996601651
0.1550528086 0.5048247614 0.7976998542
0.0861754264 0.6747019737 0.6249742888
0.7868743237 0.2311968449 0.9310940001
0.8033339593 0.1546584212 0.3870254608
0.7482762321 0.3872557437 0.2684651088
0.4099325696 0.9922374552 0.2711980969
0.8682021839 0.1437863869 0.9854541715
0.3021400656 0.5169112584 0.5786583675
0.8558563393 0.1871900124 0.5981899319
0.6426412327 0.820343591 0.1350280364
0.9782505656 0.3151763117 0.368338565
0.7807841243 0.5356916088 0.9278432109
0.0957918601 0.5397472701 0.2579628686
0.644049759 0.0681923466 0.1602536242
0.1898657652 0.363438235 0.0912045359
0.702005026 0.4978447312 0.1041231812
0.9196558724 0.5161645159 0.9856777471
0.1164565056 0.2580357542 0.6202210716
0.1621893417 0.0791918189 0.2849784026
0.9883114676 0.6378611864 0.7112163407
0.8435552098 0.9656453733 0.0267133493
0.6915908745 0.5330847173 0.39647779
0.7175927168 0.8028018494 0.4848773464
0.361900482 0.4678319427 0.9033482682
0.6991074862 0.0698642449 0.5472281097
0.5467138858 0.1361065651 0.207130273
0.7667748773 0.334624706 0.7330730913
0.8400540159 0.8293805167 0.1971270535
0.5119791806 0.1354040905 0.0316710487
0.0419644694 0.2162579705 0.0459380785
0.5243205538 0.1997549611 0.8704602974
0.7063736932 0.3212615924 0.4622336097
0.2982158667 0.9348903138 0.4832541876
0.8998649603 0.2934787469 0.6790393404
0.9820111072 0.8919995707 0.5346765755
0.3871461916 0.0944061385 0.0056960803
0.1356003899 0.3973398975 0.7338958495
0.1850334022 0.5045564707 0.1202836727
0.3315916794 0.7256235523 0.4783131668
0.3962394584 0.8026453465 0.0251200601
0.2731606435 0.5457480392 0.2922477397
0.061193536 0.7945071947 0.7815040378
0.8077875853 0.0277108989 0.1863042059
0.444458008 0.5625206807 0.8246720146
0.8862626208 0.6444298375 0.5061930441
0.9821407811 0.9946833722 0.2347454368
0.6935180962 0.6095296864 0.6965855534
0.0945541455 0.3733122278 0.1803870541
0.3050308981 0.3897848308 0.3236426725
0.5095287921 0.7721764637 0.2835618276
0.6076203507 0.6619671076 0.3687776675
0.6941351649 0.6966615691 0.1472629875
0.1061058496 0.2222073172 0.4557052022
0.9590811937 0.117291784 0.2516329962
0.5322306585 0.3094720039 0.3573377512
0.520855132 0.7967116501 0.4565056028
0.8053953264 0.5898595051 0.7810390005
0.2467223817 0.6488298053 0.546776487
0.0591071285 0.0191793881 0.8652420429
0.4840858888 0.31010517 0.2309366029
0.0118377467 0.349210331 0.802283154
0.4652563518 0.4066898291 0.9449020292
0.3783113782 0.4258958674 0.487144403
0.671638988 0.4477995689 0.9222001628
0.8562766614 0.4123020238 0.3462940109
0.8105107361 0.2297199045 0.8036380222
0.3973085969 0.9659091925 0.5864298554
0.9477772114 0.7029798156 0.3209691555
0.7923027392 0.8859138429 0.3034882265
0.7822910239 0.5025755909 0.2086420912
0.2753261968 0.1232406836 0.5630259616
0.3849497849 0.4153721639 0.2197900178
0.2801138447 0.3272507356 0.1942545542
0.6135808762 0.7905677926 0.3611126016
0.6354242123 0.7747118111 0.0063491446
0.425415627 0.1838247525 0.7042854971
0.3002495104 0.2488758619 0.079753888
0.7101118772 0.0417187151 0.3497853674
0.4225391034 0.2745669341 0.8320455379
0.0723642673 0.079969862 0.6894311342
0.2418072957 0.9389370322 0.37082562
0.5738917358 0.9538897683 0.9268371207
0.058966723 0.5685482789 0.125962493
0.3508777578 0.2501547143 0.291417827
0.6800633166 0.1435994777 0.4315957038
0.0638044518 0.3933374471 0.4231923913
0.3936517944 0.4993471592 0.3187606757
0.7728471905 0.2890617874 0.5966204312
0.8963279943 0.0287837935 0.9010990976
0.3653055384 0.2129834822 0.9535454619
0.5516727926 0.4358615262 0.3610330087
0.4105080532 0.7330730913 0.5779697547
0.7479587548 0.1377485043 0.2316122484
0.5858619734 0.6394172726 0.2022956743
0.3003867858 0.4116344271 0.0030194287
0.2112655273 0.5070336884 0.9856106744
0.8861016464 0.8489567963 0.4543950491
0.4602035432 0.2280569492 0.5271063057
0.5232071473 0.0555294717 0.3102330552
0.690468525 0.5935976891 0.8412702671
0.5587511961 0.6649853782 0.5016142158
0.7822820809 0.0186729894 0.8483352561
0.4411862027 0.5468256736 0.6077410816
0.1763595632 0.2552298804 0.0111443046
0.3728641823 0.9728132071 0.7161126463
0.9245655926 0.9460154357 0.6382323219
0.4580214454 0.6712052513 0.1933343171
0.5552991889 0.0933888695 0.561134512
0.2942465055 0.7094053783 0.6586939608
0.1296107996 0.9540596857 0.4767839097
0.1887308955 0.4544800079 0.252788882
0.7650935887 0.244907395 0.1601100886
0.9120319445 0.5462577916 0.2835828437
0.4057060965 0.1375620422 0.1256472514
0.0968574214 0.8247346158 0.0279644336
0.7054525617 0.4152228154 0.5690982749
0.0584918484 0.9510011715 0.6545220401
0.3355100654 0.99701303 0.8388958943
0.833217074 0.2691005106 0.4510011715
0.9147685098 0.3913561202 0.9176839356
0.0311856214 0.9035047711 0.1074231571
0.337100135 0.0888967886 0.7527522156
0.0481215178 0.3134042515 0.9329720352
0.9753127823 0.0618213363 0.7729455638
0.6748316476 0.9471333137 0.5008943024
0.2039009471 0.1703887533 0.0998734562
0.2631650256 0.5304420537 0.4348581189
0.1838596303 0.5707929779 0.6825628918
0.152268398 0.7265715129 0.4871131024
0.1569603556 0.8362621737 0.3174862948
0.816055411 0.8543762688 0.5765791145
0.1907529132 0.6322986255 0.2341923108
0.1798120176 0.7007530026 0.7309357086
0.1828638246 0.3146750552 0.8113156083
0.8927954999 0.8925003801 0.8894508089
0.1651181821 0.7384344342 0.9046002915
0.6966794552 0.8756561944 0.8228386947
0.5032731468 0.9853826273 0.7354027491
0.540078162 0.4228547921 0.2323151701
0.497589855 0.0318168648 0.4558885341
0.3240866937 0.7274613438 0.2775695544
0.6490041943 0.3605827274 0.1806669707
0.6808547742 0.0996744739 0.885381733
0.6482529803 0.1976560334 0.1163223602
0.9075872616 0.6552106529 0.8422495283
0.9920585947 0.9192713224 0.7669671523
0.0828222395 0.6808547742 0.3070551516
0.0362182187 0.3114823957 0.5204482244
0.8896028403 0.5605308579 0.106843202
0.1671509314 0.4964406765 0.5680474696
0.7509099527 0.5997281321 0.0470157129
0.5599316753 0.6226133305 0.7871068423
0.6719564654 0.4060199966 0.3696527424
0.5937228915 0.2767065526 0.5186104329
0.342065302 0.3346023484 0.5794453537
0.9989178941 0.7006009712 0.0650229389
0.7737280784 0.9029547751 0.9309911553
0.5891038196 0.3587207898 0.620373103
0.1961455567 0.9287822284 0.7181114122
0.8175801966 0.0963485633 0.7466977884
0.0466432359 0.1026654683 0.3405136873
0.546602098 0.1533840403 0.7535347302
0.9538137526 0.4788855203 0.8043713501
0.9919646929 0.2849596222 0.2011353169
0.5091531851 0.9020291721 0.264816355
0.9539210689 0.0616567846 0.6060061349
0.4461039716 0.6131739686 0.4805802234
0.4748253875 0.6436026078 0.3399516182
0.2133577478 0.7285166206 0.3652572461
0.1387134566 0.5802859979 0.4441691484
0.6273844338 0.2463879126 0.240113487
0.6554387 0.205752153 0.6128296622
0.8249358338 0.4420313185 0.0877976909
0.7973153042 0.7133805525 0.7154061474
0.7414482333 0.0813318846 0.0680242177
0.9128725887 0.6575179531 0.2057266654
0.8724501203 0.0129997138 0.2962103936
0.9389638612 0.3470018512 0.0323019791
0.4210791547 0.8506514993 0.6502517461
0.4605120776 0.0297122135 0.1557749577
0.144067645 0.9666827641 0.2318089949
0.1469929082 0.0948421109 0.8049437037
0.0011879555 0.5022491705 0.5720941879
0.7119496687 0.8659753709 0.661394754
0.6529614824 0.5481313551 0.5263148481
0.0364872249 0.5573068978 0.9270025666
0.8150314347 0.5655747234 0.3707294825
0.2105000045 0.8893524356 0.0013063969
0.4818188322 0.7238707196 0.9826997201
0.9169953228 0.0696344092 0.1103367943
0.9395898729 0.8829760595 0.0092993588
0.7607249215 0.7898255216 0.0299535857
0.5323916329 0.8854711632 0.7973063612
0.212432592 0.8183716542 0.1051561005
0.0882591509 0.7047281768 0.1743630331
0.949109722 0.2015864925 0.9093132652
0.2571660451 0.618888561 0.0348887935
0.3380382583 0.7102728517 0.1050322396
0.4501873564 0.2992335828 0.6411745768
0.4610978456 0.9390532915 0.9733810891
0.3049253705 0.5638531913 0.1502490632
0.4167659342 0.481188349 0.732930003
0.081655622 0.8304805087 0.4149191998
0.3287357247 0.8460324274 0.2294636869
0.5686600667 0.5503849972 0.6455164149
0.1815058264 0.0918779456 0.9785054418
0.3020027902 0.358987292 0.8409304322
0.6944615852 0.9395138572 0.2437644765
0.6314669242 0.5287115785 0.2706190361
0.5273254098 0.5211010651 0.9345907225
0.6633890484 0.7371376957 0.5789892594
0.8847870219 0.6528586376 0.0025443485
0.4539926131 0.672005652 0.7322100895
0.2271156959 0.9760148096 0.5726441839
0.1687472612 0.2405118987 0.2063544657
0.6181239324 0.4841976766 0.8071168585
0.2137373792 0.3786118638 0.6312478201
0.5058845098 0.149976301 0.399526914
0.113692664 0.2993654924 0.3507802788
0.6452391812 0.6574866525 0.9843273505
0.1264212701 0.1429698888 0.5668714619
0.497214248 0.4539970846 0.5393895492
0.2761753369 0.1914714852 0.6615065418
0.4946967868 0.0529704254 0.91187097
0.6087024566 0.018531153 0.0462761248
0.0584918484 0.8019388476 0.6584703852
0.1406853934 0.3928272476 0.9071043383
0.9956447473 0.5649442402 0.3829858969
0.3664466683 0.7100448046 0.9136640464
0.8481742817 0.2864320911 0.3217476457
0.0686591724 0.2233126749 0.7933580161
0.3118754416 0.5751661167 0.6980656239
0.5800042927 0.3240316941 0.8724769494
0.9017161663 0.3655988696 0.5738246631
0.6237133224 0.7349064113 0.7268845187
0.0576288466 0.4327569554 0.063029986
0.4807233118 0.2616912153 0.0226399807
0.8306906697 0.0812545274 0.4943748379
0.9543369195 0.8241846198 0.2684087677
0.7420429444 0.7618875146 0.2497697171
0.4846940144 0.3847964121 0.7972661176
0.2455857234 0.8126525903 0.5332367487
0.8267467962 0.511554387 0.645377798
0.9024450228 0.7704907037 0.7724894696
0.979319257 0.2132124236 0.452865792
0.6316457847 0.0054298464 0.8096700918
0.773960597 0.6912331536 0.4371520046
0.2996458562 0.0883056547 0.2335935753
0.5580446972 0.5567882024 0.1085638398
0.253622819 0.6838328012 0.8309589605
0.6577146996 0.2287299117 0.9729249949
0.0978393654 3.9613750794e-04 0.0717427271
0.4084109141 0.4545381375 0.0621486509
0.4303588836 0.1134704299 0.5861347356
0.8262281008 0.5171124764 0.5208774895
0.8337894276 0.7261020041 0.9119156852
0.9051413445 0.2198700579 0.0831965051
0.247971275 0.2097885869 0.3449905651
