Sb                                      
   1.00000000000000     
    18.5173007964999989    0.0000000000000000    0.0000000000000000
     0.0000000000000000   18.5173007964999989    0.0000000000000000
     0.0000000000000000    0.0000000000000000   18.5173007964999989
   Bi   Sb   Se
    32    48   120
Direct
  0.5465428228793474  0.2606752110052014  0.9557441751106520
  0.1553057119862980  0.2519053339715682  0.6041824224084935
  0.8953832434198898  0.2250732664531039  0.7146188177165894
  0.6635371373561202  0.9046547161549424  0.7450181144779302
  0.2989811796476275  0.6168286075391555  0.7447209269415960
  0.0677036776902816  0.9569875661067676  0.6595924783968925
  0.6481462894838634  0.6679702970529644  0.8040588214296984
  0.0294973088016165  0.1059439367275028  0.4925873952845913
  0.8950857462522983  0.7005680882873951  0.5084377009413588
  0.9774008376796787  0.4110572140626645  0.2841273078588434
  0.3457215433413579  0.1618466390152480  0.4788975294121762
  0.6911504052027182  0.8032071262288164  0.5218448623827946
  0.2060498366367916  0.7633266010708840  0.5282512812682133
  0.7669918667704632  0.1368740749799668  0.3290061328593735
  0.7587608994588801  0.2908762854966870  0.9703174028204864
  0.2884246372243864  0.9187307256514303  0.6686096578669365
  0.1732102292597856  0.5003364542042178  0.2343754597732316
  0.4212773254631673  0.1465630595635402  0.0828201441994703
  0.0116923462632615  0.4226315235931138  0.5688430474667039
  0.3583999086944561  0.9101090047720040  0.4172206334422687
  0.5123005657406777  0.5075662145100708  0.8880792641185976
  0.9007401230419857  0.0169230980843671  0.0062778687396877
  0.3304589433880268  0.6248025837317790  0.0676876926952406
  0.8888324443718658  0.5635108123130425  0.6516853179511839
  0.7799200554013400  0.1063850313049606  0.5531741180661514
  0.6759687154635166  0.8890302401631603  0.9995131675990612
  0.8790939220676539  0.2229369547262261  0.1477364688704317
  0.0294709471835947  0.5866009438323933  0.3911207976386953
  0.6705776487452835  0.6574293871897260  0.6125057750945748
  0.9462534319571723  0.3546403870305124  0.9612690618421170
  0.4593923911737352  0.7739571404443061  0.2232212651512007
  0.6763727827992161  0.6561223447228896  0.1135891511424660
  0.8639868453960630  0.7531367998672116  0.3008059398865947
  0.2714840054983270  0.7943859337331023  0.9295235659376732
  0.0784880071866380  0.7209979254629661  0.9876069472298468
  0.6580214437581878  0.8581228517255199  0.3387543173005290
  0.0160527524842574  0.0613639362896754  0.2150065400181772
  0.2661887847629999  0.2393797771113493  0.2611359457387248
  0.3292987803880995  0.3020941637792042  0.7557422826120054
  0.1743506111721325  0.1726679213907237  0.8344950929472544
  0.9268682293093756  0.5158832438362490  0.0905367877517813
  0.0516396373224929  0.8147577929061619  0.2413802496390511
  0.7433016591817041  0.4404356959923129  0.7787315248594598
  0.3234791921747505  0.3551879367515741  0.1677837438317229
  0.0471237778113173  0.2781402600125764  0.4103469502486855
  0.5999192530528158  0.2328501366981527  0.6124432140349877
  0.4443410996935439  0.0894359480790096  0.7875056660260324
  0.4652093501970833  0.9711342842679934  0.0318649446932769
  0.6448324625449093  0.1698805324002509  0.1329709510715827
  0.4042080157755032  0.6684505199747645  0.5625229253451470
  0.9301332099800301  0.5444584967897054  0.8700097376191168
  0.1602349228872845  0.0087594124900338  0.3676027876667631
  0.5940560513841735  0.0711705038856950  0.8021740330613352
  0.8484730798167299  0.0339040832153081  0.7352528105386708
  0.2656306324706376  0.3876010618085272  0.4832044936105369
  0.7330264312992337  0.4203578447553333  0.5492527906442034
  0.4444076659747630  0.8399686197638925  0.8213751458841011
  0.2602857814339424  0.8154438895932249  0.2566904691339747
  0.5245985574791397  0.8237726580640290  0.5349539806396938
  0.0639663937343401  0.9449297673084087  0.8553914764863108
  0.4298456498643786  0.0624382621801861  0.2573974253478600
  0.0923160221954532  0.5930195030808024  0.7333612645768403
  0.0967949829684063  0.2865746400675260  0.1260638344413374
  0.3187812649278980  0.0101612884006682  0.0976935334088004
  0.5445216563240043  0.3746253898048876  0.7449092478936910
  0.4017806813598097  0.4906123258324789  0.6920714141970078
  0.8054024018712724  0.9618034791254662  0.1368059025247806
  0.7412025263704655  0.5493133093291136  0.3191413569380213
  0.7760067495271897  0.7523257564031871  0.6827816429048549
  0.1910200574304202  0.3678083828984695  0.9308240360948921
  0.6208149348903279  0.4186466791386384  0.2233426675158226
  0.7768755274023518  0.3336771119482226  0.3667941396203744
  0.9120561616331999  0.9251548867392793  0.4092310394676091
  0.4908419176915391  0.3898942047017205  0.3982956250057833
  0.7707807469211221  0.6909680655802223  0.9825976437610252
  0.5033516185026466  0.6486835790771893  0.9885858718741609
  0.4685353611780070  0.0264580500418114  0.5708235812214961
  0.5785198512588042  0.0915374386689976  0.3330231621238757
  0.0981121228095001  0.9338521883091311  0.0701268591463201
  0.3460034881895189  0.5974027879282606  0.2927822353258775
  0.0215577300356989  0.5490861179584965  0.2331306630226102
  0.2195969883040227  0.1645608617489088  0.1356478910853889
  0.2025917903126198  0.9449468923373081  0.9564167459783222
  0.7582335201225534  0.9573980722393081  0.5718777352635156
  0.6250286406269511  0.4963127861400549  0.7040079218781478
  0.4127119935042010  0.1990322552270670  0.2348436634880220
  0.0928249490753500  0.2715726916849991  0.9770745725862985
  0.9701374259975184  0.3642231573961054  0.1352665257375293
  0.8879328659850284  0.2111200127752851  0.9941947810518231
  0.4525988827589439  0.6295607019652170  0.6987918983798249
  0.5915858033852581  0.7775043273976699  0.6966881075993167
  0.0481182527259467  0.0916616253813803  0.7823204759107267
  0.2578345180535300  0.0571222566737479  0.9774447636814985
  0.6337496771001587  0.5387854689678988  0.0140363195549555
  0.4479892593277035  0.6174107638766801  0.1872907522880098
  0.2674267352716897  0.1744804939950116  0.7192136132773719
  0.7525848635338710  0.7675864970932755  0.8246767599838751
  0.5301736429073252  0.0486514344545061  0.1431123625716545
  0.0963188751910268  0.2663268899410409  0.7561042056623587
  0.9955614565153572  0.2733434125732588  0.5668046075256845
  0.4458505494828083  0.1386029326924745  0.6498259152455778
  0.1994563746333388  0.5716867083302705  0.3806664898003949
  0.3027246306000750  0.4445183601680898  0.2868429796065144
  0.6090323790560248  0.0171341719261037  0.6644743656964139
  0.3275530857932230  0.0132271633572001  0.5365416074543580
  0.0223155956106851  0.0884615827413408  0.0733706864121888
  0.8002552891726785  0.4308780654560243  0.2569429993300625
  0.1609927522026075  0.3805675123942857  0.7841745208538133
  0.8303868120611612  0.4090493716057971  0.6522581609646507
  0.9868469734785940  0.8905804939959115  0.9850868124886115
  0.7978383598590830  0.8913312617112280  0.3121557900854574
  0.6575813577251661  0.2793767906581221  0.7415824837904694
  0.7659972086522890  0.1511074534841064  0.7182035790021772
  0.4918542107627241  0.1317251681675983  0.4720972698788021
  0.1534932969433047  0.0911876876652809  0.5724614870195224
  0.5734612028991430  0.9392629512890617  0.8620557797045793
  0.2951026153392947  0.2699145626660536  0.9005700961783265
  0.5248439135011513  0.6875752485993483  0.4825383014213026
  0.6910957415475854  0.0190815631853416  0.0660213592592731
  0.8563002866207392  0.3321459697903350  0.8398310264693958
  0.6276046769568365  0.2131648297703911  0.2794917531874573
  0.6582538256450770  0.1256726529816384  0.4526123083433798
  0.6173740359375839  0.3756829100473940  0.8973086378479639
  0.6029305427173993  0.8033092138110173  0.2080508521773919
  0.0822669007590700  0.1454897167688717  0.3557236205213021
  0.1543615163494398  0.0026176275026358  0.2230367138721540
  0.4671797476728602  0.4343665659737618  0.0185091296320483
  0.3176721453853547  0.7838732545801295  0.0978297615642800
  0.1215111189432251  0.8048770552055766  0.8672613466019389
  0.4430492522130635  0.8104701935669982  0.0815016685829425
  0.1018824583019142  0.3388668980206711  0.2830579715139062
  0.4621593309557744  0.2415714608534019  0.8001786469055877
  0.1504850676482836  0.8275385198777222  0.6507894230341479
  0.4600262037213803  0.5278016737663463  0.4196263486238461
  0.6653705882967412  0.1708280438962186  0.9648912085607125
  0.8019109237533915  0.5855144447560264  0.7814816985703131
  0.2315852744075838  0.6332209215562677  0.6055168234068666
  0.7622121134342693  0.0227406929168220  0.8626980439630424
  0.8765356907920870  0.9066572618884118  0.5433052333327740
  0.5400003412165276  0.2610388468390590  0.1044673025576919
  0.7204329471336732  0.2786758234926301  0.5264495713101210
  0.8975095219816254  0.2584202633220326  0.3313055279775335
  0.4899501891051114  0.3708181891405826  0.2606021795966919
  0.3295492860278448  0.7461648873030922  0.3578887484455487
  0.5042557719223405  0.9096439038699462  0.4182508150556541
  0.6827728436523368  0.0168941418659037  0.2809365703833756
  0.7125511867895893  0.7270000687478428  0.3934550359985403
  0.2954373685299779  0.2338752360354127  0.0571930865175043
  0.3709859128303564  0.9045242327420078  0.2478150692618633
  0.0189121039238263  0.6281995551075442  0.5478983470521381
  0.9066945014099184  0.7203520529932053  0.6692572797616186
  0.2069302282720795  0.6497736810768319  0.9763584951122285
  0.4252877115234976  0.9473333679985763  0.7238449203645702
  0.8000293262759390  0.6031210644214814  0.1893282495904496
  0.3427148632409221  0.8214273291493196  0.5576697135596598
  0.0591127599428933  0.4307816842172729  0.4260380969689844
  0.5150242508095811  0.3398450881714103  0.5988146905305912
  0.7409867581791216  0.2843678057650025  0.1378326298032183
  0.4809191949234400  0.0964246864908161  0.9511270792391741
  0.8461409803448872  0.4273707555920105  0.4577645270192350
  0.7092005302182780  0.5644453656511551  0.9115762036643111
  0.1729980533511362  0.0013700557191673  0.7681227829439773
  0.2025095628728523  0.8747237143251831  0.3757319523801946
  0.1383317644063955  0.8056528785650454  0.1094981052715058
  0.1931043015148036  0.2741359799094186  0.4422023631302506
  0.7854535140663323  0.5918281356909854  0.5372547563304075
  0.3924117268033228  0.6905579930365624  0.9063746753959157
  0.8451727728503836  0.0895877410145381  0.1983845422032176
  0.3120375437949254  0.3000731852037730  0.5812856791945007
  0.7962220862985957  0.9151796664013100  0.9210482524640026
  0.9713153419646440  0.8992670224386877  0.7609745418707070
  0.9496579637011447  0.7305149360589285  0.1800686474313735
  0.3800183295724333  0.9085545302024985  0.9249812793604733
  0.3710937219835795  0.4741792388485234  0.8349321467134636
  0.3083218423944848  0.7979678883953855  0.7766311626003802
  0.2352973420509894  0.6371275453506804  0.1995610325487005
  0.9028281995716005  0.6378169195798523  0.0006131335261520
  0.9966856285791816  0.4806467320944217  0.7394477344087403
  0.0076709973352770  0.6617647847218020  0.8363685405161343
  0.6450970735986835  0.4224861919905041  0.3729586890744378
  0.1393794027171296  0.6901966768715720  0.3761523625920556
  0.1908761628437495  0.3932530428522037  0.1031098437262582
  0.3838109443876838  0.5230454852501039  0.5211642872213617
  0.9236253107291450  0.1064808801765319  0.6199102820795144
  0.8255950930238478  0.4365519274415927  0.0070729052269759
  0.7687883502472661  0.8075349075950214  0.0854553435230306
  0.3494545424048748  0.3045911355164165  0.3914475096205683
  0.0350040399145223  0.9524955327546043  0.4716216785936034
  0.8778447975168295  0.6061269762884562  0.3755610584612520
  0.5933363409760019  0.7374863809824725  0.9256374854954302
  0.1884836912152258  0.5358472734274088  0.8121900291302757
  0.9790717260085398  0.7959001731029485  0.3916833222976464
  0.3416949691124475  0.4693894181795835  0.0203761191593100
  0.9239650890008175  0.1205391678436001  0.8211869598252425
  0.1519734618346434  0.4132832584323162  0.6027782683569650
  0.9626009922124550  0.9215389400022330  0.1998520029019136
  0.8623121839404833  0.0836333856359811  0.4282657868557354
  0.6113840769766565  0.5588392142237283  0.2489572085638635
  0.0280461324267790  0.4995883402855368  0.9709250900192176
  0.3161200167862512  0.0673515037827559  0.3591015879160419
 
 -0.14193397E-02  0.64124928E-03 -0.15520752E-02
  0.39256496E-03  0.15673853E-03 -0.76888863E-03
  0.48874413E-03  0.12041576E-02 -0.64741307E-03
 -0.78570724E-04 -0.54687012E-03  0.45582888E-03
 -0.19469877E-02  0.27060791E-03 -0.13186874E-02
  0.20961538E-02  0.17164899E-03 -0.15922930E-02
 -0.17863369E-02 -0.43480744E-03  0.31628367E-02
 -0.25440094E-03  0.19525761E-03  0.29836708E-03
 -0.16306319E-02 -0.51606998E-03  0.23055117E-05
  0.72679681E-03 -0.13770359E-02  0.16550029E-02
 -0.18009624E-02 -0.23219814E-02 -0.11678471E-02
 -0.66249554E-03  0.80388150E-03 -0.37537636E-03
 -0.23363399E-03  0.37864778E-03 -0.63197105E-03
  0.17808204E-02  0.15922799E-02  0.54186965E-03
  0.10945306E-02  0.73527687E-03 -0.91517264E-03
  0.69499812E-04  0.24387046E-03  0.63250318E-03
 -0.35179032E-03  0.92438207E-04 -0.84424992E-03
 -0.96552162E-03  0.68280783E-04 -0.14439425E-02
 -0.20839637E-02  0.70489713E-03 -0.22201592E-02
 -0.92727896E-03 -0.15365175E-02 -0.39655637E-03
  0.17363506E-02  0.78882230E-03 -0.90270085E-03
 -0.70024190E-03 -0.20652064E-02  0.77858627E-03
  0.11073224E-02 -0.97328969E-04 -0.11486781E-02
 -0.76748872E-03  0.82453015E-03  0.19502357E-03
  0.74006017E-03  0.10082648E-02 -0.91249821E-03
 -0.10728138E-03  0.28426837E-03  0.13157358E-03
  0.91344489E-05  0.90836338E-03  0.26540201E-03
  0.13562930E-02 -0.65632685E-03 -0.51490160E-05
  0.11806335E-02  0.13995511E-02  0.13513996E-02
 -0.52229940E-05  0.12195917E-03 -0.25895287E-03
  0.77285530E-03  0.79264655E-03 -0.82065195E-03
  0.90830239E-03 -0.77233279E-03 -0.50091601E-03
  0.66374725E-03 -0.15609271E-02 -0.20586778E-02
 -0.55403278E-03  0.10712337E-03 -0.16671236E-02
  0.30993725E-03 -0.11913932E-02 -0.69082996E-03
  0.18792349E-03 -0.14430461E-02 -0.99761437E-03
 -0.21835505E-02 -0.20125026E-02  0.21258716E-02
 -0.30063337E-03 -0.95146958E-03 -0.15486519E-02
  0.17968847E-02  0.16991921E-02  0.39893856E-03
  0.19500978E-02  0.86784275E-03 -0.14862274E-02
  0.15018287E-03 -0.47208744E-03  0.98497685E-03
  0.96321874E-03 -0.14624592E-02  0.16969403E-03
 -0.62173938E-03  0.29869092E-02 -0.18229584E-02
 -0.10680289E-02 -0.83100446E-03 -0.57589063E-03
  0.52862057E-04 -0.32748753E-02 -0.18121128E-02
 -0.14754250E-03 -0.48754402E-03  0.11922993E-02
  0.55279177E-03  0.58608870E-03  0.19797131E-03
 -0.21103807E-03  0.20356835E-02  0.34243585E-03
 -0.10157585E-02 -0.35192369E-03 -0.88774547E-03
 -0.85106270E-03 -0.26423438E-02 -0.15108638E-02
 -0.62058374E-03  0.49633691E-03  0.36227885E-03
  0.16379882E-02  0.11682119E-02 -0.74025723E-03
 -0.12827331E-02  0.17966199E-02 -0.13723725E-02
 -0.25192662E-02  0.58159585E-03  0.95605142E-03
  0.35276665E-02  0.12821599E-02  0.26540172E-02
 -0.66818331E-03  0.19822598E-02  0.12739807E-02
 -0.38969304E-04  0.11264162E-02  0.37310504E-03
  0.16836638E-02  0.44874147E-03 -0.30150380E-03
 -0.12606899E-02 -0.99078272E-03 -0.94524060E-03
 -0.26439422E-02 -0.41829510E-03  0.11021797E-02
 -0.14307691E-02  0.56831300E-03  0.22328658E-03
  0.71452961E-03 -0.81306217E-04  0.19251756E-03
 -0.17070343E-02 -0.17413386E-02  0.26385821E-03
 -0.94166374E-03  0.12794246E-02  0.15500692E-03
 -0.12113212E-04  0.13773546E-02  0.87666121E-03
 -0.36918337E-03  0.24918710E-02 -0.82467850E-03
  0.22469987E-03 -0.12514576E-02 -0.11279761E-03
 -0.10625984E-02  0.30513314E-02 -0.93511037E-03
 -0.52349776E-03  0.12487966E-02 -0.77049923E-03
 -0.10800077E-02 -0.10235107E-02  0.22177556E-03
 -0.83781091E-03 -0.40060346E-03 -0.18030490E-02
  0.85036554E-03 -0.44407851E-03 -0.21686776E-03
 -0.18304982E-02 -0.27623734E-03 -0.80582909E-03
 -0.17567831E-02 -0.31082892E-02 -0.32604304E-03
  0.23642798E-02 -0.15875583E-02 -0.15705603E-02
 -0.27632457E-02 -0.13372082E-02 -0.25572928E-03
 -0.49164711E-03  0.18765263E-02 -0.95031584E-03
 -0.19954917E-02 -0.21685295E-02  0.11596198E-03
  0.38251992E-02  0.68545857E-04  0.25937040E-02
  0.58461047E-03  0.26600436E-02 -0.23241754E-03
 -0.91087424E-03 -0.45352422E-03  0.91450076E-03
  0.26225735E-02 -0.32082568E-03  0.13342000E-02
 -0.30300304E-02 -0.30972849E-02 -0.11545541E-03
  0.21797858E-03  0.82792220E-03 -0.25450342E-02
  0.26005064E-02 -0.31386587E-03  0.99481017E-03
  0.27504141E-02  0.15665452E-02  0.16455560E-03
  0.52802564E-03  0.77585439E-03  0.32906800E-03
  0.14343442E-02  0.20095077E-02  0.34300163E-02
  0.43437552E-02  0.40345721E-03  0.90951333E-03
  0.50059972E-02  0.34715056E-02  0.13708593E-02
 -0.18684816E-02  0.54224407E-03 -0.14204783E-02
  0.14110553E-02  0.40197696E-03 -0.57094325E-04
 -0.21633963E-03  0.18921283E-03  0.90083809E-03
  0.35090097E-02  0.20319119E-02 -0.82878844E-03
 -0.27363480E-03  0.23133056E-02  0.20750877E-03
  0.27623863E-02  0.64482583E-03  0.33185429E-02
 -0.30855349E-02  0.22334102E-02  0.79140535E-03
  0.17181558E-02 -0.28104954E-02  0.37171202E-02
 -0.75640917E-03 -0.81542308E-03 -0.14758455E-02
  0.25802151E-02  0.16266826E-02  0.20741158E-02
  0.70990830E-03 -0.19544812E-02  0.57779156E-03
 -0.18705831E-02  0.32990172E-03  0.60994656E-03
 -0.21981801E-02  0.11605525E-02 -0.20092512E-02
 -0.30782186E-03 -0.62123914E-03  0.21395054E-02
 -0.64544194E-03  0.18344607E-02  0.84445446E-03
  0.19188319E-02  0.14251208E-02  0.26977666E-02
  0.15464689E-02 -0.23756585E-02  0.12237190E-02
  0.22114787E-02  0.16784398E-02 -0.20638472E-02
 -0.20877246E-02  0.27536272E-03 -0.69180836E-03
  0.30776110E-02 -0.31751438E-03  0.98564800E-03
 -0.10209883E-02 -0.75227264E-03 -0.89256721E-04
 -0.98821300E-04  0.13914553E-02  0.55126127E-04
  0.37310655E-03 -0.30974954E-02  0.12397872E-02
 -0.18603907E-02 -0.20735196E-02  0.61133127E-03
 -0.65602358E-03  0.10754961E-02  0.20941414E-02
 -0.19781703E-02 -0.72470765E-03  0.25728036E-02
  0.15147401E-02 -0.86730134E-03 -0.12996167E-02
 -0.41205849E-03 -0.22350824E-02 -0.21107828E-02
  0.87819409E-03  0.12258194E-02  0.19765988E-02
 -0.34783984E-03  0.21633338E-02  0.17928662E-02
  0.12506194E-02  0.21372947E-02  0.63313830E-03
 -0.12314220E-02 -0.96155273E-03  0.27391061E-03
  0.91596964E-03  0.82344046E-03 -0.25227019E-02
  0.10851267E-02 -0.63828889E-03 -0.41839038E-03
 -0.31959214E-04 -0.24508907E-02  0.20062049E-02
  0.14941874E-02 -0.25842721E-03 -0.26318941E-03
 -0.61406290E-03  0.89764438E-03 -0.77920880E-03
  0.23587390E-03  0.75202154E-03 -0.30436805E-02
 -0.22660096E-03 -0.13355258E-02  0.23299549E-02
 -0.11332664E-02 -0.22468107E-02  0.95438597E-03
  0.19395661E-02  0.28602757E-04  0.16924781E-02
  0.20375873E-03 -0.14805714E-02 -0.29092900E-02
 -0.24291692E-03  0.21682401E-03 -0.25838984E-02
  0.27472846E-02 -0.22492790E-02 -0.96625528E-03
  0.14146968E-02  0.11034993E-02 -0.25285346E-02
 -0.19479117E-02  0.12386129E-02 -0.12540595E-03
  0.73079706E-03 -0.17049071E-02  0.34489070E-02
 -0.38058166E-04 -0.94180680E-03 -0.24893361E-03
  0.42548762E-03 -0.12313308E-02  0.25986348E-02
  0.24205949E-02 -0.26203133E-02 -0.54482419E-03
 -0.24714821E-02 -0.10893586E-02  0.22741124E-03
  0.75492651E-03  0.28634984E-02 -0.25176870E-03
  0.52377210E-03  0.13618920E-02 -0.18762699E-02
 -0.71968648E-03 -0.22814592E-02 -0.29079158E-02
  0.52457796E-03  0.13078208E-02  0.68697990E-03
  0.17343183E-02 -0.31861246E-02  0.16517453E-03
  0.12753723E-02  0.18929997E-03 -0.11885775E-02
  0.79679409E-03  0.85969837E-04  0.30880202E-02
  0.22652366E-03 -0.11430392E-02  0.27721586E-02
  0.37032429E-03 -0.17959334E-02 -0.11688057E-03
  0.68464931E-03 -0.43757641E-03  0.16468148E-02
 -0.19006376E-02  0.30204099E-02 -0.24061264E-02
  0.18753455E-02 -0.37831890E-02 -0.15426572E-02
 -0.85139797E-03 -0.28653205E-02  0.39918879E-02
 -0.24925972E-02 -0.37997527E-02  0.14335358E-03
 -0.81177376E-03 -0.50175532E-03 -0.85879676E-03
 -0.82071576E-03  0.16247763E-03 -0.23716838E-02
 -0.12325876E-02 -0.26384388E-03 -0.10184447E-02
 -0.16707213E-02  0.14854547E-03  0.33223541E-03
 -0.48577538E-02  0.88934272E-05 -0.48978532E-05
  0.88202827E-03  0.11025728E-02  0.21506780E-02
  0.91723130E-03  0.26426427E-02  0.48110668E-03
  0.19353346E-03  0.12324685E-02 -0.15169414E-02
 -0.12988001E-02 -0.17579583E-02 -0.22255600E-02
 -0.17304802E-02  0.11070124E-03 -0.92335447E-03
  0.73837354E-03  0.34702295E-02  0.80352681E-03
  0.41858990E-03 -0.27207196E-02  0.13789433E-02
 -0.46561589E-03  0.63766182E-03  0.86620332E-03
 -0.92790390E-03  0.26665857E-02  0.76352856E-03
  0.19212271E-02 -0.22037309E-03 -0.25317203E-02
 -0.40371418E-03  0.14861066E-02  0.16374538E-02
 -0.20787312E-03 -0.12864221E-02  0.14353675E-02
 -0.14289529E-02 -0.94594960E-03 -0.14573658E-03
 -0.26785245E-02 -0.13833075E-02  0.14111052E-02
 -0.14604127E-02 -0.15733249E-02 -0.23832165E-02
 -0.25186153E-03 -0.71385191E-03  0.22651874E-02
  0.27854952E-02  0.11087641E-02 -0.13776632E-02
 -0.13296846E-02  0.15587391E-02 -0.22727285E-03
 -0.61838172E-03  0.17122966E-02  0.18106984E-02
 -0.17096722E-02  0.14740286E-02  0.37057412E-03
 -0.18048257E-02 -0.33686118E-02  0.15470678E-02
 -0.12762503E-02  0.16371151E-02  0.44112354E-02
 -0.34049227E-02 -0.19347612E-02 -0.53042478E-03
  0.12554879E-02  0.33480936E-02  0.17981505E-02
 -0.79628560E-04  0.54812968E-03 -0.12374434E-02
 -0.47238448E-03 -0.93281638E-03  0.18076421E-02
  0.63651737E-03  0.18284054E-02  0.16252578E-02
 -0.20712857E-02 -0.55184823E-03  0.43280829E-03
  0.25549815E-02 -0.10784925E-02 -0.11095521E-02
  0.28173217E-02 -0.39375435E-04  0.48298014E-03
  0.54431264E-03  0.10260748E-02  0.16947865E-02
  0.14007568E-02  0.55250394E-03 -0.17127751E-02
 -0.11684109E-02  0.28394142E-02  0.47667376E-02
 -0.63549690E-03  0.34201771E-03 -0.11971357E-02
  0.24925885E-02 -0.16870733E-02 -0.24186414E-02
 -0.29277974E-03  0.61964032E-03  0.19453011E-02
  0.16347038E-02  0.91550148E-03 -0.11734781E-02
  0.24874075E-02 -0.26984501E-04 -0.18980532E-03
 -0.36686952E-02  0.24661364E-02  0.32875272E-02
  0.88514301E-03  0.11217611E-02  0.18375740E-02
 
           1
   3.00000000000000     
  0.10000000E+01  0.00000000E+00  0.00000000E+00  0.00000000E+00
  0.54631287E+00  0.26077910E+00  0.95549272E+00
  0.15536931E+00  0.25193073E+00  0.60405785E+00
  0.89546243E+00  0.22526835E+00  0.71451393E+00
  0.66352441E+00  0.90456612E+00  0.74509196E+00
  0.29866575E+00  0.61687245E+00  0.74450729E+00
  0.68043277E-01  0.95701538E+00  0.65933451E+00
  0.64785688E+00  0.66789985E+00  0.80457123E+00
  0.29456093E-01  0.10597557E+00  0.49263573E+00
  0.89482157E+00  0.70048448E+00  0.50843807E+00
  0.97751859E+00  0.41083412E+00  0.28439544E+00
  0.34542977E+00  0.16147045E+00  0.47870833E+00
  0.69104307E+00  0.80333736E+00  0.52178405E+00
  0.20601199E+00  0.76338795E+00  0.52814890E+00
  0.76728038E+00  0.13713204E+00  0.32909392E+00
  0.75893823E+00  0.29099541E+00  0.97016914E+00
  0.28843590E+00  0.91877024E+00  0.66871213E+00
  0.17315324E+00  0.50035143E+00  0.23423868E+00
  0.42112090E+00  0.14657412E+00  0.82586210E-01
  0.11354722E-01  0.42274572E+00  0.56848336E+00
  0.35824968E+00  0.90986007E+00  0.41715639E+00
  0.51258187E+00  0.50769401E+00  0.88793302E+00
  0.90062668E+00  0.16588513E-01  0.64040080E-02
  0.33063834E+00  0.62478682E+00  0.67501595E-01
  0.88870810E+00  0.56364439E+00  0.65171691E+00
  0.78003995E+00  0.10654838E+00  0.55302628E+00
  0.67595133E+00  0.88907629E+00  0.99953448E+00
  0.87909540E+00  0.22308412E+00  0.14777947E+00
  0.29690681E-01  0.58649461E+00  0.39111996E+00
  0.67076892E+00  0.65765613E+00  0.61272472E+00
  0.94625259E+00  0.35466015E+00  0.96122711E+00
  0.45951760E+00  0.77408556E+00  0.22308831E+00
  0.67651994E+00  0.65599722E+00  0.11350800E+00
  0.86409438E+00  0.75288391E+00  0.30047241E+00
  0.27139425E+00  0.79440329E+00  0.92925347E+00
  0.78538220E-01  0.72080491E+00  0.98749503E+00
  0.65805189E+00  0.85788906E+00  0.33859269E+00
  0.15698994E-01  0.61037889E-01  0.21535095E+00
  0.26614008E+00  0.23922563E+00  0.26088505E+00
  0.32958989E+00  0.30236945E+00  0.75580691E+00
  0.17466655E+00  0.17280852E+00  0.83425431E+00
  0.92689256E+00  0.51580676E+00  0.90696364E-01
  0.51795689E-01  0.81452086E+00  0.24140774E+00
  0.74320093E+00  0.44091961E+00  0.77843619E+00
  0.32330616E+00  0.35505331E+00  0.16769044E+00
  0.47132342E-01  0.27760970E+00  0.41005337E+00
  0.59989535E+00  0.23277115E+00  0.61263638E+00
  0.44443066E+00  0.89530901E-01  0.78753774E+00
  0.46517516E+00  0.97146409E+00  0.31920423E-01
  0.64466790E+00  0.16982352E+00  0.13282713E+00
  0.40407013E+00  0.66802243E+00  0.56227815E+00
  0.93003267E+00  0.54453891E+00  0.87006843E+00
  0.16050029E+00  0.89486753E-02  0.36748286E+00
  0.59384823E+00  0.71461575E-01  0.80195169E+00
  0.84806493E+00  0.33998308E-01  0.73540770E+00
  0.26620215E+00  0.38780879E+00  0.48363447E+00
  0.73291818E+00  0.42067899E+00  0.54945919E+00
  0.44440135E+00  0.84015111E+00  0.82143559E+00
  0.26055855E+00  0.81551659E+00  0.25664162E+00
  0.52439431E+00  0.82361214E+00  0.53480084E+00
  0.63538047E-01  0.94486200E+00  0.85557004E+00
  0.42961385E+00  0.62530335E-01  0.25743360E+00
  0.92431784E-01  0.59300633E+00  0.73339245E+00
  0.96518425E-01  0.28629252E+00  0.12610658E+00
  0.31862871E+00  0.10368569E-01  0.97718646E-01
  0.54451969E+00  0.37484854E+00  0.74505128E+00
  0.40172087E+00  0.49101604E+00  0.69193781E+00
  0.80543881E+00  0.96160073E+00  0.13678763E+00
  0.74103037E+00  0.54980766E+00  0.31898986E+00
  0.77592194E+00  0.75252807E+00  0.68265681E+00
  0.19084508E+00  0.36764256E+00  0.93085997E+00
  0.62067920E+00  0.41858178E+00  0.22305055E+00
  0.77701330E+00  0.33360517E+00  0.36675900E+00
  0.91175960E+00  0.92511013E+00  0.40910049E+00
  0.49055730E+00  0.38939063E+00  0.39824280E+00
  0.77116379E+00  0.69071086E+00  0.98234320E+00
  0.50290394E+00  0.64846694E+00  0.98854444E+00
  0.46845571E+00  0.26762067E-01  0.57066962E+00
  0.57819656E+00  0.91186114E-01  0.33304195E+00
  0.98731846E-01  0.93386329E+00  0.70547067E-01
  0.34609820E+00  0.59783374E+00  0.29274458E+00
  0.21410159E-01  0.54901264E+00  0.23327882E+00
  0.22002187E+00  0.16450888E+00  0.13586405E+00
  0.20210089E+00  0.94444510E+00  0.95639804E+00
  0.75826883E+00  0.95753220E+00  0.57146541E+00
  0.62544995E+00  0.49626194E+00  0.70416909E+00
  0.41315759E+00  0.19928605E+00  0.23487032E+00
  0.92910495E-01  0.27169839E+00  0.97712789E+00
  0.97036981E+00  0.36454872E+00  0.13582222E+00
  0.88863660E+00  0.21118538E+00  0.99434213E+00
  0.45340991E+00  0.63012312E+00  0.69901399E+00
  0.59128309E+00  0.77759218E+00  0.69645797E+00
  0.48346859E-01  0.91726750E-01  0.78231123E+00
  0.25779947E+00  0.57152911E-01  0.97759071E+00
  0.63431817E+00  0.53911466E+00  0.13902047E-01
  0.44794493E+00  0.61778554E+00  0.18732437E+00
  0.26787427E+00  0.17458496E+00  0.71975125E+00
  0.75208497E+00  0.76794833E+00  0.82480498E+00
  0.53045200E+00  0.48196104E-01  0.14371458E+00
  0.96196329E-01  0.26619478E+00  0.75586510E+00
  0.99597948E+00  0.27360695E+00  0.56714064E+00
  0.44596556E+00  0.13828629E+00  0.64991952E+00
  0.19915332E+00  0.57174016E+00  0.38076531E+00
  0.30236850E+00  0.44470638E+00  0.28651746E+00
  0.60898251E+00  0.17033525E-01  0.66482099E+00
  0.32744852E+00  0.13524366E-01  0.53667842E+00
  0.22626467E-01  0.88692467E-01  0.73807753E-01
  0.80050583E+00  0.43049318E+00  0.25714125E+00
  0.16135104E+00  0.38083944E+00  0.78384016E+00
  0.83004858E+00  0.40909398E+00  0.65214608E+00
  0.98734558E+00  0.89052905E+00  0.98524650E+00
  0.79767295E+00  0.89120939E+00  0.31214133E+00
  0.65756535E+00  0.27960222E+00  0.74159141E+00
  0.76605766E+00  0.15060563E+00  0.71840444E+00
  0.49155281E+00  0.13138924E+00  0.47219631E+00
  0.15338701E+00  0.91361929E-01  0.57280076E+00
  0.57314072E+00  0.93914554E+00  0.86247260E+00
  0.29534802E+00  0.26977405E+00  0.90035954E+00
  0.52477716E+00  0.68721314E+00  0.48219633E+00
  0.69123802E+00  0.19280159E-01  0.66341589E-01
  0.85624393E+00  0.33249645E+00  0.84012149E+00
  0.62780729E+00  0.21351109E+00  0.27959433E+00
  0.65805432E+00  0.12551687E+00  0.45265668E+00
  0.61752243E+00  0.37581632E+00  0.89689993E+00
  0.60310634E+00  0.80320580E+00  0.20798307E+00
  0.82261723E-01  0.14509265E+00  0.35604865E+00
  0.15460359E+00  0.25757595E-02  0.22299407E+00
  0.46708026E+00  0.43451199E+00  0.18382890E-01
  0.31771036E+00  0.78399509E+00  0.97336653E-01
  0.12147441E+00  0.80466069E+00  0.86763882E+00
  0.44286565E+00  0.81010619E+00  0.81656289E-01
  0.10219669E+00  0.33887153E+00  0.28333217E+00
  0.46219234E+00  0.24133159E+00  0.79970731E+00
  0.15044571E+00  0.82757365E+00  0.65037080E+00
  0.46047129E+00  0.52743727E+00  0.41946980E+00
  0.66559978E+00  0.17100682E+00  0.96448156E+00
  0.80159534E+00  0.58571511E+00  0.78146138E+00
  0.23170367E+00  0.63294471E+00  0.60607558E+00
  0.76220595E+00  0.22588110E-01  0.86265771E+00
  0.87660462E+00  0.90645777E+00  0.54372624E+00
  0.54039250E+00  0.26061433E+00  0.10437904E+00
  0.72003254E+00  0.27849934E+00  0.52648641E+00
  0.89763183E+00  0.25888418E+00  0.33126474E+00
  0.49003505E+00  0.37103883E+00  0.26029820E+00
  0.32943269E+00  0.74579527E+00  0.35741764E+00
  0.50434076E+00  0.90985578E+00  0.41836211E+00
  0.68305382E+00  0.16377956E-01  0.28096333E+00
  0.71275781E+00  0.72703074E+00  0.39326247E+00
  0.29556646E+00  0.23388916E+00  0.57693379E-01
  0.37102261E+00  0.90433905E+00  0.24826419E+00
  0.18972100E-01  0.62790859E+00  0.54787941E+00
  0.90680542E+00  0.72028116E+00  0.66952408E+00
  0.20662230E+00  0.65026302E+00  0.97596868E+00
  0.42559154E+00  0.94672045E+00  0.72359499E+00
  0.79989139E+00  0.60265685E+00  0.18997498E+00