Amorphous Sb                            
   1.00000000000000     
    22.4713554274211269    0.0000000000000000    0.0000000000000000
     0.0000000000000000   22.4713554274211269    0.0000000000000000
     0.0000000000000000    0.0000000000000000   22.4713554274211269
   Sn   Te
    30   270
Direct
  0.0303770684048884  0.0353466538403265  0.1331686472727718
  0.7416482548896330  0.5448502414855660  0.7375307153638226
  0.7555032004341269  0.3314099031685254  0.7198938815067488
  0.8529368603919195  0.4576713567884715  0.5748572102406506
  0.7571256142347602  0.1596754511858031  0.7222105604691590
  0.1674812808773503  0.2665233951785965  0.3090768443626978
  0.9297085512234923  0.2446299895391739  0.5150195457600849
  0.4875248691399143  0.6666841986924469  0.4650536342028075
  0.4443103983253531  0.2577504427455861  0.8215567200809422
  0.7859058941785344  0.5751908942179208  0.1962165631610889
  0.8889564428922687  0.0804228963336538  0.8193179554410603
  0.9873248731579302  0.5442636682284079  0.7704039008409356
  0.8465000606613662  0.7225397910899838  0.9495899804163123
  0.6744075800167836  0.2093027189984915  0.1349801504364219
  0.7697500184941322  0.8624820642299177  0.3962074105490803
  0.9796216464735701  0.7448842079864623  0.1011896971981299
  0.1670018943162929  0.0172497024672904  0.4677668097223918
  0.0896830164350900  0.4630678177338374  0.9466450902056477
  0.0675168828991908  0.0726451977732110  0.9916670435503584
  0.4326884197637331  0.0464453755326727  0.9257674533731728
  0.2832883035637315  0.0401326483637784  0.0235955394571005
  0.6767242015927548  0.9574101644231771  0.1265931836501273
  0.9905274628369821  0.3269291029754647  0.1718491442433007
  0.4882047380279451  0.9902794371110731  0.6553440965609256
  0.0681626807014406  0.4364748824876854  0.3585685664901652
  0.8635889889757609  0.9785302778255328  0.1915388938505071
  0.4035541396941381  0.8221402143616978  0.5354140198854764
  0.2076789796912869  0.7275320897154428  0.0039382704241116
  0.0779117355811683  0.2686495704128706  0.9952416051539967
  0.7250776819477109  0.0935556268628941  0.4264093859704041
  0.0686115399584618  0.1262329320523126  0.3787129709629694
  0.2989071934326287  0.6799908873226054  0.2764395523480017
  0.1808106455057980  0.9528458804445943  0.0690386644869266
  0.1904945826294356  0.7139947696833729  0.1877886110984536
  0.8096614969337966  0.7473359955130656  0.3499894197222362
  0.6749171982359886  0.4362697179613112  0.5169651765936703
  0.5500766993335456  0.3916395213692387  0.8820842089359622
  0.3876230375998823  0.1295390293046049  0.1864197428148210
  0.2342183032386209  0.1234888889601541  0.6580806101283946
  0.9690374786383142  0.7168053828006544  0.8240468385644698
  0.7705753347206796  0.5665380202132397  0.8735684305190252
  0.7816166673970507  0.0600741093762227  0.5570619927215571
  0.0230478472191302  0.8146711183439568  0.6450925223389067
  0.6891970995416786  0.6887282519011073  0.8412526953934080
  0.5346078630555320  0.7222146873320157  0.0666036522023193
  0.6876383147504247  0.1609435030324224  0.3157542532148438
  0.3492166486618829  0.1829480768495097  0.2951108160338303
  0.4146201406704591  0.4418498861034274  0.9385347557381576
  0.8216603331354988  0.0108701130951030  0.3657492542941544
  0.0174521037234524  0.9307299868968614  0.5492066163849625
  0.2662315021254967  0.4104034684033922  0.0531438606317406
  0.4466953342465945  0.1879662371661092  0.0250817965546572
  0.8971793290220299  0.8453023469329477  0.6450932777798789
  0.1405478541311895  0.7897023585079348  0.2908625016325188
  0.5294071678636653  0.2395302840778914  0.5956553977954514
  0.6098646012092891  0.6955759717141599  0.1723589203824256
  0.0077533665793718  0.4503398779853919  0.2464186354073191
  0.6111371685332613  0.2467716654719984  0.0312905969333633
  0.9794015371872682  0.2288732568877745  0.0754507215429614
  0.1894908478610457  0.4139628896879056  0.3234923439311214
  0.6991053352495304  0.8100299969476821  0.6720803838565890
  0.4379231545897020  0.0190073546856736  0.7868257918253510
  0.4158696760810687  0.4149121361215187  0.1356116921356999
  0.1529762573932975  0.0625820605973751  0.8169384264116933
  0.2219918299834028  0.9588901986901038  0.7404462888561918
  0.7533096536633889  0.4680428440006699  0.3398652122763539
  0.2763223401278523  0.2943397382715089  0.4715807762576838
  0.6130803622713167  0.3088507096256315  0.4488756759362801
  0.9799095572271388  0.3042937586125821  0.4054754246637156
  0.6700164538430398  0.3145734110757675  0.2081699655382219
  0.5386033646401134  0.9673572054143053  0.9235155782362268
  0.6366610469751368  0.8414796424575574  0.4031243757785023
  0.2915238433077502  0.8323948123238588  0.3900492154503322
  0.1030897795121019  0.0044124663069954  0.6052609485029997
  0.8142655380413333  0.1975685637348562  0.4376075270532753
  0.0135884850305831  0.0529572032931970  0.7789501276795301
  0.9576449418992073  0.7979775511148343  0.9758820055256571
  0.5181965552406580  0.4818846719315132  0.2361821030303492
  0.3453126806053848  0.6841163471080854  0.8277876386285808
  0.5128358928138801  0.7748085147240129  0.5943464306522084
  0.3663114196385100  0.3352520998069981  0.0172429214940326
  0.3397908050518221  0.9540119292825134  0.1119101951119531
  0.0762143172247209  0.6645430013643331  0.3278049018901361
  0.7536286564318139  0.9330204276435887  0.2863030679763646
  0.9491106835389670  0.4915770262046775  0.4799542285862130
  0.3465314689321895  0.0583174367576159  0.6238749225068747
  0.4325782335714036  0.5998715768542626  0.3646090955957780
  0.7602257437957149  0.4063615003180424  0.1350610183488319
  0.2292588922331018  0.8625957606779427 -0.0047457219999572
  0.9807454773103108  0.6164230686060073  0.1697812776240246
  0.0116761473393271  0.1543173653007693  0.6946858462099799
  0.8861653974801523  0.4667062382933697  0.2831233387156682
  0.5848441581387012  0.1418937571433120  0.1971659785269640
  0.9203443664698849  0.9127259994970721  0.0324119122525449
  0.0351284521896654  0.3514135650771168  0.8977787600394969
  0.0710727909504735  0.7041121820002024  0.4805252945685772
  0.1822831216771590  0.1174690128423689  0.9452531805137883
  0.8229466587258395  0.5073378036383139  0.0938928843508362
  0.8275605066222369  0.3358686051849569  0.5148291040898892
  0.9686320121691644  0.7734249360680331  0.5008345948853614
  0.1313749142981386  0.4598133397392288  0.6745028486463824
  0.4164879092920922  0.7033608927270678  0.6403166206930697
  0.9225923788973966  0.0944423563101826  0.4480592383961834
  0.6447958226865919  0.9536992989096897  0.5507260213886530
  0.1705362569706480  0.4264841985871443  0.5487682003498457
  0.5420252613482522  0.0886376167581166  0.8343950653215667
  0.5593628450437951  0.5806581413448800  0.9498806090864882
  0.8492482060861050  0.2684876299758070  0.0489448697796381
  0.7675890065410342  0.9644149523348765  0.8371560709538088
  0.4011430161999461  0.1334457549672500  0.5201988268389300
  0.0350488221207655  0.6591599570465264  0.7339515454284768
  0.4636564693889839  0.3241570451635605  0.6784131360254355
  0.4751754781169674  0.5140754795190506  0.5398499461189253
  0.4884389794749970  0.2096978632610307  0.1541530418880389
  0.7272940076076314  0.4409943673320358  0.6319812704155925
  0.3449291860293378  0.4616615379341353  0.2349007492263083
  0.9349910961655142  0.7818087578335421  0.3810779463476408
  0.5124754057968361  0.5896705945705044  0.1376525859985356
  0.8633853888221407  0.5857182703369355  0.4768014578434959
  0.2456016281692690  0.5910658144736698  0.5961510106482866
  0.6515360625854746  0.0916422374115970  0.6688473144348934
  0.4503195118769724  0.0890747463926128  0.3874611340545639
  0.6024823757353522  0.0583557511392817  0.0196230098166633
  0.5768076797281761  0.3591164480401207  0.1378442204505981
  0.6811273369922607  0.7790205400271131  0.0206178386438694
  0.5790007986136083  0.9187551935334869  0.7208068654288036
  0.0494233460939359  0.1740927020667503  0.1841934781493867
  0.0570016753535649  0.3828814732151040  0.4848548940383022
  0.1058830204487468  0.4815542857142786  0.8049585995232110
  0.7862214326697569  0.3458520476138615  0.3188138453981543
  0.4779966600946535  0.8788381222023535  0.8542423076265805
  0.3698368839610439  0.6934536405053564  0.5170637311637793
  0.5398117052085967  0.1814018923235483  0.7479888943414209
  0.5186633707973621  0.1145311012916047  0.5559295518932880
  0.2657417100089615  0.7899881816455259  0.8530052548037053
  0.9000506704348070  0.2305243163721720  0.7798937150864236
  0.3415870076923396  0.4958113080958123  0.5938922937296829
  0.7654699412027187  0.2295537448430084  0.9166521953451900
  0.2786733199184181  0.5970663228699183 -0.0371971657196888
  0.0814442478237681  0.2318517618250352  0.4419518576804545
  0.5174525050563574  0.9737131172742988  0.5276918369242332
  0.0678265600022157  0.8548772600365009  0.9138801783591923
  0.9201698610679384  0.1775526247481517  0.9069802755091415
  0.2837908770482016  0.5148943432439883  0.8692328802462318
  0.7167422338031911  0.6716187515090261  0.9670712855275675
  0.4464537389058360  0.2177693575477210  0.4207169640141738
  0.2448927953551699  0.2342461510481559  0.8011216136280614
  0.1411148182250892  0.1333912085719943  0.2763228908124807
  0.0450745284566214  0.1700275452007505  0.9059092923670932
  0.2815672147555164  0.2726985537653085  0.2380670703462151
  0.3423394740003153  0.8112279629890494  0.2437781730243807
  0.0070195193240307  0.9934656878613587  0.4411086970237495
  0.4437542675187914  0.4433693079934379  0.4342415748800726
  0.6402080772226280  0.2307579479304199  0.8104398999021404
  0.4370428213078412  0.7543351443070035  0.3753713006297140
  0.1239972057689676  0.7729579066853357  0.0958822456186609
  0.2899753679837764  0.5738125112628975  0.4248071603194087
  0.2712699317003072  0.0946802429711444  0.7825640535520576
  0.2548976061448975  0.0455196783765229  0.3658157782681258
  0.1745398175251942  0.8723575042783832  0.4079029872877166
  0.3784967592967427  0.3511972994832966  0.2878238891927125
  0.1728485828228725  0.5030988571276188  0.1106392126511664
  0.7646519997769564  0.1940315792807764  0.5673756219399211
  0.3997798203944889  0.1266741034138892  0.7262116582113454
  0.1275427992583525  0.2923211206928851  0.1832856416950279
  0.7610087596113709  0.6851258712981724  0.1399012270665196
  0.9690865380305758  0.2277175141371786  0.2626832076359845
  0.4264091912763778  0.8747624364668073  0.6702689253933583
  0.0609438385770149  0.5604705244681275  0.4050995161643249
  0.4156343443138606  0.0689657840076473  0.0603904920127645
  0.6343296628119153  0.9906565143930502  0.4139653564552431
  0.5989689126202796  0.5337152328930959  0.5020423857210224
  0.0488103078262837  0.1172412643984385  0.5793856782049469
  0.1736659034093308  0.1809595897099980  0.0575438139192086
  0.2986765933607736  0.6390594568271767  0.7083169078191048
  0.7007157586883328  0.7039653896934545  0.2934472858068357
  0.1918896354371496  0.0820674141579002  0.1405688777927984
  0.2002167962661556  0.3092226507864840  0.5835440742756115
  0.2754029607362983  0.8641354834594712  0.5793118010580037
  0.3444209440988631  0.7474387856767415  0.0601337603546592
  0.5239256740169429  0.7341587373786949  0.2720260134339772
  0.6321831635770541  0.5604165912285122  0.1094659562147211
  0.9061917391878996  0.0821646168904941  0.5735215121900140
  0.2949464711798302  0.0268859957015683  0.2025560246992329
  0.3952787787608904  0.8450336710582725  0.9434769806350997
  0.8805992584789384  0.5619495432116735  0.6653289033854740
  0.0200121446895794  0.6300565434990298  0.0505983283831206
  0.2339909211353590  0.7537821722912671  0.6877513394711383
  0.8428465665789382  0.7710191106013836  0.8198299516500467
  0.1696218442658274  0.8805391185499312  0.6559922720413393
  0.7801894441421077  0.1419644327029946  0.1124309527043759
  0.1713426060573182  0.5732309544082755  0.4739993504402173
  0.8064999196782979  0.1973358903511832  0.3073104494283507
  0.6213260201394947  0.7067377982961229  0.7175190080830197
  0.8423793236795210  0.0592419316744014  0.6996203931806021
  0.2416728047089085  0.7126740269188870  0.3844442767068794
  0.4907364774163632  0.0455281637215632  0.2754773616398601
  0.6544409134900553  0.1702489354265223  0.5161654383226865
  0.0276585958451970  0.9875331173881114  0.8956213365716794
  0.3528172427585194  0.9625974268412090  0.3941114008346967
  0.2861811151625137 -0.0232273250368524  0.5260100725480602
  0.4603037426026957  0.4289079940414533  0.7592495452358946
  0.6458069080847114  0.0138230794499986  0.7630116548601338
  0.7437003950417754  0.3295432372671311  0.0027412771415109
  0.7804285630120789  0.8534464062901337  0.9934615849264024
  0.5698245758164719  0.4775727898887783  0.6758734292007313
  0.9613980752120536  0.8366620480119616  0.2258427340090998
  0.4359551829168958  0.5157056068863169  0.0680171166028425
  0.2056467945853871  0.3958027484581976  0.1973709437689244
  0.9601587493594345  0.9033592052750293  0.3346274334582587
  0.5164675607122485  0.3684737354568298  0.2973890221019614
  0.0258305754701605  0.8393075926349189  0.7696298548191036
  0.1626771195463362  0.5906716202593331  0.0107704741370572
  0.6506594301051676  0.8270005552287149  0.5437633385906641
  0.3163082932598291  0.4578083753723144  0.4688678206162245
  0.9609882747715192  0.4523984180397396  0.0921720294480279
  0.5525916150769965  0.9900413829020134  0.1382246039877935
  0.2791596830100688  0.5676311773533038  0.1577182771147836
  0.6339095099917679  0.3538885935711520  0.7886137135052745
  0.8711752366283130  0.6617003731300408  0.0798068865881251
  0.9183944027030417  0.4041774602214916  0.9182367778402024
  0.8864543511319721  0.9687298537163904  0.8883899276605403
  0.2739508566708138  0.1661242120127246  0.4276724289920129
  0.8931013306883738  0.0851464569635743  0.2862542145665170
  0.9025560659742270  0.6199069856374234  0.8801008774374444
  0.4288000477148185  0.7191403004443711  0.9673641048332268
  0.9352160669242531  0.3886864345473634  0.6622659698949515
  0.2467086580844602  0.8272639372906087  0.1601335317729843
  0.4390115805591993  0.7467944159821306  0.7744318548617661
  0.7446557625374125  0.0487248556293508  0.1890779292395500
  0.1665102815936640  0.7824500640173842  0.5109873348248893
  0.2978484232991651  0.2736429043746454  0.9301985363191327
  0.1621881391159555  0.7345112853062803  0.8060221128412197
  0.3612141927830972  0.3204731427721149  0.5619513789553580
  0.6026108773361203  0.7807466432042026  0.8542894192878201
  0.5468157755760488  0.5585633208111027  0.3280646865896357
  0.6940228530854331  0.9698049944562421  0.0025608090993848
  0.6854968474632427  0.5116310348320103  0.2444042269436104
  0.8268826713660672  0.4404454101049217  0.7485592499051141
  0.1895289080230281  0.9002760095023364  0.8816265953030842
  0.6377281532068320  0.6184771426731924  0.6295852413263162
  0.8425208108000537  0.3187069113898527  0.1678477852803917
  0.6255855166944106  0.4995606460879213  0.7873921198258658
  0.4258358953138979  0.7498675847204925  0.1618774318368949
  0.7837316263233253  0.9288502674043526  0.5448623667380894
  0.5650948559402892  0.8530171738200611  0.2745289558376255
  0.5177779887410917  0.2854349378206266  0.9314766734445784
  0.8667672968051860  0.2763500928084106  0.6608671129426759
  0.5757546662820117  0.4235464035820217  0.3945410482485133
  0.7807259021762413  0.9186186643168203  0.6702830936107190
  0.9090182142042013  0.0403477232860024  0.0833538191759315
  0.4906253388403718  0.8794173331373677  0.1621895746701012
  0.8669135567771350  0.3995125608213495  0.4126823317928316
  0.9034250197149513  0.6480108112439391  0.5752047816811922
  0.1041884429417199  0.7274566397943458  0.9208586665152148
  0.7045719078707242  0.8460980601459420  0.1790864732208664
  0.6641844902105073  0.5074653885707374  0.9255395880429074
  0.3491414943003813  0.2707384440979977  0.7239809214737321
  0.3690485788152325  0.3776360621248737  0.8357326880063559
  0.7821267105337896  0.4277940927254609  0.9316790194551650
  0.4034950521480595  0.9480363151440668  0.2758845730205554
  0.3482789038181670  0.9183786841905444  0.7598021182769272
  0.0127818833069023  0.5046104309383913  0.6479266251575044
  0.7407244592076238  0.8421668377440329  0.8569673004003093
  0.1245669955114070  0.3219231683842511  0.7009206198159253
  0.0517812084709371  0.9239910549311170  0.0644518332596542
  0.1925638322072705  0.3703282526350309  0.9577076195685975
  0.4771028460957165  0.3212195461132203  0.5080005310147789
  0.5518619454935031  0.8450954638486061  0.0565631832583036
  0.6371967743899698  0.7134123936962777  0.3987404673023777
  0.1551097766455713  0.6944608872070436  0.6109469630563485
  0.9041434341939153  0.8886906855881026  0.7639756915876242
  0.3903829520737493  0.5324886925024424  0.7177430659596997
  0.1366954270741006  0.1922045343887726  0.7361048194090393
  0.0205172281375462  0.3182109346913062  0.5928545460829054
  0.4626364505270508  0.8680972548372180  0.4279243639327850
  0.4643135418995042  0.5501373815897318  0.8764304621293415
  0.5007259735858848  0.5832362804509811  0.6642083885549974
  0.8232385957824889  0.3168077337208389  0.8403518729605060
  0.7910467087558464  0.7343992590368698  0.6191605646034691
  0.7568918938160266  0.1079634854532023  0.8433300230965698
  0.5182236161999696  0.6845963884660314  0.8568084072587703
  0.0981395127060119  0.6031202216900721  0.2223424453901495
  0.0000216888662841  0.0155167189039860  0.2676738095070601
  0.2528331960475361  0.5587269859752272  0.2825355084580445
  0.6119134380105294  0.9924524326125448  0.2895080044649866
  0.8781248662692182  0.5924881068620726  0.2832632791139024
  0.6235801091190276  0.4453040327560021  0.0581013919874571
  0.5685040108881062  0.2148735704536099  0.3802165277086083
  0.0809220295870656  0.8648990555342583  0.2102958289687667
  0.3795583366561491  0.1743918009832487  0.9088198105772072
  0.0778090138443918  0.4098384890940567  0.0685623649933044
  0.7022417543598986  0.6872077288913135  0.5438457324727644
  0.2075303088019370  0.5590828382266018  0.7835751511219214
  0.9515419543696643  0.5102953374527447  0.9786554993691631
  0.8201110431149889  0.8645804003483325  0.1205150946252777
  0.3308533918344893 -0.0314881333990385  0.9208846921334594
  0.1918725570165916  0.3521489977398182  0.8057767449158649
  0.1930608572214421  0.1387108392869614  0.5226023844503564
  0.6566069163816084  0.1548543426603053  0.9582795988200061
 
  0.00000000E+00  0.00000000E+00  0.00000000E+00
  0.00000000E+00  0.00000000E+00  0.00000000E+00
  0.00000000E+00  0.00000000E+00  0.00000000E+00
  0.00000000E+00  0.00000000E+00  0.00000000E+00
  0.00000000E+00  0.00000000E+00  0.00000000E+00
  0.00000000E+00  0.00000000E+00  0.00000000E+00
  0.00000000E+00  0.00000000E+00  0.00000000E+00
  0.00000000E+00  0.00000000E+00  0.00000000E+00
  0.00000000E+00  0.00000000E+00  0.00000000E+00
  0.00000000E+00  0.00000000E+00  0.00000000E+00
  0.00000000E+00  0.00000000E+00  0.00000000E+00
  0.00000000E+00  0.00000000E+00  0.00000000E+00
  0.00000000E+00  0.00000000E+00  0.00000000E+00
  0.00000000E+00  0.00000000E+00  0.00000000E+00
  0.00000000E+00  0.00000000E+00  0.00000000E+00
  0.00000000E+00  0.00000000E+00  0.00000000E+00
  0.00000000E+00  0.00000000E+00  0.00000000E+00
  0.00000000E+00  0.00000000E+00  0.00000000E+00
  0.00000000E+00  0.00000000E+00  0.00000000E+00
  0.00000000E+00  0.00000000E+00  0.00000000E+00
  0.00000000E+00  0.00000000E+00  0.00000000E+00
  0.00000000E+00  0.00000000E+00  0.00000000E+00
  0.00000000E+00  0.00000000E+00  0.00000000E+00
  0.00000000E+00  0.00000000E+00  0.00000000E+00
  0.00000000E+00  0.00000000E+00  0.00000000E+00
  0.00000000E+00  0.00000000E+00  0.00000000E+00
  0.00000000E+00  0.00000000E+00  0.00000000E+00
  0.00000000E+00  0.00000000E+00  0.00000000E+00
  0.00000000E+00  0.00000000E+00  0.00000000E+00
  0.00000000E+00  0.00000000E+00  0.00000000E+00
  0.00000000E+00  0.00000000E+00  0.00000000E+00
  0.00000000E+00  0.00000000E+00  0.00000000E+00
  0.00000000E+00  0.00000000E+00  0.00000000E+00
  0.00000000E+00  0.00000000E+00  0.00000000E+00
  0.00000000E+00  0.00000000E+00  0.00000000E+00
  0.00000000E+00  0.00000000E+00  0.00000000E+00
  0.00000000E+00  0.00000000E+00  0.00000000E+00
  0.00000000E+00  0.00000000E+00  0.00000000E+00
  0.00000000E+00  0.00000000E+00  0.00000000E+00
  0.00000000E+00  0.00000000E+00  0.00000000E+00
  0.00000000E+00  0.00000000E+00  0.00000000E+00
  0.00000000E+00  0.00000000E+00  0.00000000E+00
  0.00000000E+00  0.00000000E+00  0.00000000E+00
  0.00000000E+00  0.00000000E+00  0.00000000E+00
  0.00000000E+00  0.00000000E+00  0.00000000E+00
  0.00000000E+00  0.00000000E+00  0.00000000E+00
  0.00000000E+00  0.00000000E+00  0.00000000E+00
  0.00000000E+00  0.00000000E+00  0.00000000E+00
  0.00000000E+00  0.00000000E+00  0.00000000E+00
  0.00000000E+00  0.00000000E+00  0.00000000E+00
  0.00000000E+00  0.00000000E+00  0.00000000E+00
  0.00000000E+00  0.00000000E+00  0.00000000E+00
  0.00000000E+00  0.00000000E+00  0.00000000E+00
  0.00000000E+00  0.00000000E+00  0.00000000E+00
  0.00000000E+00  0.00000000E+00  0.00000000E+00
  0.00000000E+00  0.00000000E+00  0.00000000E+00
  0.00000000E+00  0.00000000E+00  0.00000000E+00
  0.00000000E+00  0.00000000E+00  0.00000000E+00
  0.00000000E+00  0.00000000E+00  0.00000000E+00
  0.00000000E+00  0.00000000E+00  0.00000000E+00
  0.00000000E+00  0.00000000E+00  0.00000000E+00
  0.00000000E+00  0.00000000E+00  0.00000000E+00
  0.00000000E+00  0.00000000E+00  0.00000000E+00
  0.00000000E+00  0.00000000E+00  0.00000000E+00
  0.00000000E+00  0.00000000E+00  0.00000000E+00
  0.00000000E+00  0.00000000E+00  0.00000000E+00
  0.00000000E+00  0.00000000E+00  0.00000000E+00
  0.00000000E+00  0.00000000E+00  0.00000000E+00
  0.00000000E+00  0.00000000E+00  0.00000000E+00
  0.00000000E+00  0.00000000E+00  0.00000000E+00
  0.00000000E+00  0.00000000E+00  0.00000000E+00
  0.00000000E+00  0.00000000E+00  0.00000000E+00
  0.00000000E+00  0.00000000E+00  0.00000000E+00
  0.00000000E+00  0.00000000E+00  0.00000000E+00
  0.00000000E+00  0.00000000E+00  0.00000000E+00
  0.00000000E+00  0.00000000E+00  0.00000000E+00
  0.00000000E+00  0.00000000E+00  0.00000000E+00
  0.00000000E+00  0.00000000E+00  0.00000000E+00
  0.00000000E+00  0.00000000E+00  0.00000000E+00
  0.00000000E+00  0.00000000E+00  0.00000000E+00
  0.00000000E+00  0.00000000E+00  0.00000000E+00
  0.00000000E+00  0.00000000E+00  0.00000000E+00
  0.00000000E+00  0.00000000E+00  0.00000000E+00
  0.00000000E+00  0.00000000E+00  0.00000000E+00
  0.00000000E+00  0.00000000E+00  0.00000000E+00
  0.00000000E+00  0.00000000E+00  0.00000000E+00
  0.00000000E+00  0.00000000E+00  0.00000000E+00
  0.00000000E+00  0.00000000E+00  0.00000000E+00
  0.00000000E+00  0.00000000E+00  0.00000000E+00
  0.00000000E+00  0.00000000E+00  0.00000000E+00
  0.00000000E+00  0.00000000E+00  0.00000000E+00
  0.00000000E+00  0.00000000E+00  0.00000000E+00
  0.00000000E+00  0.00000000E+00  0.00000000E+00
  0.00000000E+00  0.00000000E+00  0.00000000E+00
  0.00000000E+00  0.00000000E+00  0.00000000E+00
  0.00000000E+00  0.00000000E+00  0.00000000E+00
  0.00000000E+00  0.00000000E+00  0.00000000E+00
  0.00000000E+00  0.00000000E+00  0.00000000E+00
  0.00000000E+00  0.00000000E+00  0.00000000E+00
  0.00000000E+00  0.00000000E+00  0.00000000E+00
  0.00000000E+00  0.00000000E+00  0.00000000E+00
  0.00000000E+00  0.00000000E+00  0.00000000E+00
  0.00000000E+00  0.00000000E+00  0.00000000E+00
  0.00000000E+00  0.00000000E+00  0.00000000E+00
  0.00000000E+00  0.00000000E+00  0.00000000E+00
  0.00000000E+00  0.00000000E+00  0.00000000E+00
  0.00000000E+00  0.00000000E+00  0.00000000E+00
  0.00000000E+00  0.00000000E+00  0.00000000E+00
  0.00000000E+00  0.00000000E+00  0.00000000E+00
  0.00000000E+00  0.00000000E+00  0.00000000E+00
  0.00000000E+00  0.00000000E+00  0.00000000E+00
  0.00000000E+00  0.00000000E+00  0.00000000E+00
  0.00000000E+00  0.00000000E+00  0.00000000E+00
  0.00000000E+00  0.00000000E+00  0.00000000E+00
  0.00000000E+00  0.00000000E+00  0.00000000E+00
  0.00000000E+00  0.00000000E+00  0.00000000E+00
  0.00000000E+00  0.00000000E+00  0.00000000E+00
  0.00000000E+00  0.00000000E+00  0.00000000E+00
  0.00000000E+00  0.00000000E+00  0.00000000E+00
  0.00000000E+00  0.00000000E+00  0.00000000E+00
  0.00000000E+00  0.00000000E+00  0.00000000E+00
  0.00000000E+00  0.00000000E+00  0.00000000E+00
  0.00000000E+00  0.00000000E+00  0.00000000E+00
  0.00000000E+00  0.00000000E+00  0.00000000E+00
  0.00000000E+00  0.00000000E+00  0.00000000E+00
  0.00000000E+00  0.00000000E+00  0.00000000E+00
  0.00000000E+00  0.00000000E+00  0.00000000E+00
  0.00000000E+00  0.00000000E+00  0.00000000E+00
  0.00000000E+00  0.00000000E+00  0.00000000E+00
  0.00000000E+00  0.00000000E+00  0.00000000E+00
  0.00000000E+00  0.00000000E+00  0.00000000E+00
  0.00000000E+00  0.00000000E+00  0.00000000E+00
  0.00000000E+00  0.00000000E+00  0.00000000E+00
  0.00000000E+00  0.00000000E+00  0.00000000E+00
  0.00000000E+00  0.00000000E+00  0.00000000E+00
  0.00000000E+00  0.00000000E+00  0.00000000E+00
  0.00000000E+00  0.00000000E+00  0.00000000E+00
  0.00000000E+00  0.00000000E+00  0.00000000E+00
  0.00000000E+00  0.00000000E+00  0.00000000E+00
  0.00000000E+00  0.00000000E+00  0.00000000E+00
  0.00000000E+00  0.00000000E+00  0.00000000E+00
  0.00000000E+00  0.00000000E+00  0.00000000E+00
  0.00000000E+00  0.00000000E+00  0.00000000E+00
  0.00000000E+00  0.00000000E+00  0.00000000E+00
  0.00000000E+00  0.00000000E+00  0.00000000E+00
  0.00000000E+00  0.00000000E+00  0.00000000E+00
  0.00000000E+00  0.00000000E+00  0.00000000E+00
  0.00000000E+00  0.00000000E+00  0.00000000E+00
  0.00000000E+00  0.00000000E+00  0.00000000E+00
  0.00000000E+00  0.00000000E+00  0.00000000E+00
  0.00000000E+00  0.00000000E+00  0.00000000E+00
  0.00000000E+00  0.00000000E+00  0.00000000E+00
  0.00000000E+00  0.00000000E+00  0.00000000E+00
  0.00000000E+00  0.00000000E+00  0.00000000E+00
  0.00000000E+00  0.00000000E+00  0.00000000E+00
  0.00000000E+00  0.00000000E+00  0.00000000E+00
  0.00000000E+00  0.00000000E+00  0.00000000E+00
  0.00000000E+00  0.00000000E+00  0.00000000E+00
  0.00000000E+00  0.00000000E+00  0.00000000E+00
  0.00000000E+00  0.00000000E+00  0.00000000E+00
  0.00000000E+00  0.00000000E+00  0.00000000E+00
  0.00000000E+00  0.00000000E+00  0.00000000E+00
  0.00000000E+00  0.00000000E+00  0.00000000E+00
  0.00000000E+00  0.00000000E+00  0.00000000E+00
  0.00000000E+00  0.00000000E+00  0.00000000E+00
  0.00000000E+00  0.00000000E+00  0.00000000E+00
  0.00000000E+00  0.00000000E+00  0.00000000E+00
  0.00000000E+00  0.00000000E+00  0.00000000E+00
  0.00000000E+00  0.00000000E+00  0.00000000E+00
  0.00000000E+00  0.00000000E+00  0.00000000E+00
  0.00000000E+00  0.00000000E+00  0.00000000E+00
  0.00000000E+00  0.00000000E+00  0.00000000E+00
  0.00000000E+00  0.00000000E+00  0.00000000E+00
  0.00000000E+00  0.00000000E+00  0.00000000E+00
  0.00000000E+00  0.00000000E+00  0.00000000E+00
  0.00000000E+00  0.00000000E+00  0.00000000E+00
  0.00000000E+00  0.00000000E+00  0.00000000E+00
  0.00000000E+00  0.00000000E+00  0.00000000E+00
  0.00000000E+00  0.00000000E+00  0.00000000E+00
  0.00000000E+00  0.00000000E+00  0.00000000E+00
  0.00000000E+00  0.00000000E+00  0.00000000E+00
  0.00000000E+00  0.00000000E+00  0.00000000E+00
  0.00000000E+00  0.00000000E+00  0.00000000E+00
  0.00000000E+00  0.00000000E+00  0.00000000E+00
  0.00000000E+00  0.00000000E+00  0.00000000E+00
  0.00000000E+00  0.00000000E+00  0.00000000E+00
  0.00000000E+00  0.00000000E+00  0.00000000E+00
  0.00000000E+00  0.00000000E+00  0.00000000E+00
  0.00000000E+00  0.00000000E+00  0.00000000E+00
  0.00000000E+00  0.00000000E+00  0.00000000E+00
  0.00000000E+00  0.00000000E+00  0.00000000E+00
  0.00000000E+00  0.00000000E+00  0.00000000E+00
  0.00000000E+00  0.00000000E+00  0.00000000E+00
  0.00000000E+00  0.00000000E+00  0.00000000E+00
  0.00000000E+00  0.00000000E+00  0.00000000E+00
  0.00000000E+00  0.00000000E+00  0.00000000E+00
  0.00000000E+00  0.00000000E+00  0.00000000E+00
  0.00000000E+00  0.00000000E+00  0.00000000E+00
  0.00000000E+00  0.00000000E+00  0.00000000E+00
  0.00000000E+00  0.00000000E+00  0.00000000E+00
  0.00000000E+00  0.00000000E+00  0.00000000E+00
  0.00000000E+00  0.00000000E+00  0.00000000E+00
  0.00000000E+00  0.00000000E+00  0.00000000E+00
  0.00000000E+00  0.00000000E+00  0.00000000E+00
  0.00000000E+00  0.00000000E+00  0.00000000E+00
  0.00000000E+00  0.00000000E+00  0.00000000E+00
  0.00000000E+00  0.00000000E+00  0.00000000E+00
  0.00000000E+00  0.00000000E+00  0.00000000E+00
  0.00000000E+00  0.00000000E+00  0.00000000E+00
  0.00000000E+00  0.00000000E+00  0.00000000E+00
  0.00000000E+00  0.00000000E+00  0.00000000E+00
  0.00000000E+00  0.00000000E+00  0.00000000E+00
  0.00000000E+00  0.00000000E+00  0.00000000E+00
  0.00000000E+00  0.00000000E+00  0.00000000E+00
  0.00000000E+00  0.00000000E+00  0.00000000E+00
  0.00000000E+00  0.00000000E+00  0.00000000E+00
  0.00000000E+00  0.00000000E+00  0.00000000E+00
  0.00000000E+00  0.00000000E+00  0.00000000E+00
  0.00000000E+00  0.00000000E+00  0.00000000E+00
  0.00000000E+00  0.00000000E+00  0.00000000E+00
  0.00000000E+00  0.00000000E+00  0.00000000E+00
  0.00000000E+00  0.00000000E+00  0.00000000E+00
  0.00000000E+00  0.00000000E+00  0.00000000E+00
  0.00000000E+00  0.00000000E+00  0.00000000E+00
  0.00000000E+00  0.00000000E+00  0.00000000E+00
  0.00000000E+00  0.00000000E+00  0.00000000E+00
  0.00000000E+00  0.00000000E+00  0.00000000E+00
  0.00000000E+00  0.00000000E+00  0.00000000E+00
  0.00000000E+00  0.00000000E+00  0.00000000E+00
  0.00000000E+00  0.00000000E+00  0.00000000E+00
  0.00000000E+00  0.00000000E+00  0.00000000E+00
  0.00000000E+00  0.00000000E+00  0.00000000E+00