Sb                                      
   1.00000000000000     
    18.4673007965000018    0.0000000000000000    0.0000000000000000
     0.0000000000000000   18.4673007965000018    0.0000000000000000
     0.0000000000000000    0.0000000000000000   18.4673007965000018
   Ge   Sb   Te
    60    40   100
Direct
  0.6140704302004352  0.9791307837404034  0.1091260500952730
  0.8182759538557675  0.7691619232910202  0.8387248965877786
  0.0243625585790810  0.4352557493994649  0.2404251769502137
  0.1699882062959459  0.6165775364208560  0.1998846166931333
  0.7805502321700137  0.0283893299511681  0.6889187368985057
  0.9127775617863809  0.2280821623140046  0.7928779105691945
  0.3698955186003264  0.2367900196234256  0.4908245838167856
  0.2598555015850721  0.2201996534844555  0.1340738220159524
  0.2308594465667717  0.8328865584259241  0.8900145875730111
  0.6403876985284060  0.9135796022467189  0.2479513875894537
  0.1548055174361157  0.9550248248546772  0.1262580577036741
  0.1204723121399278  0.8841792550833288  0.5653565466680956
  0.0063990977162696  0.6941510341347471  0.0422183249893567
  0.5845722064263310  0.6579046584214243  0.2912797511304920
  0.4627939556712591  0.0973562043935536  0.1014703014595566
  0.9239597079655667  0.1444327280217347  0.1776274970006187
  0.1036014603057564  0.7445611303303312  0.7749537766823744
  0.2767776410608299  0.3994879623562140  0.5593387880603590
  0.7259771441273922  0.8629904279537677  0.5651278063656263
  0.5253493066632220  0.7798536139593456  0.1372596872488768
  0.4886113686656563  0.2633131636035725  0.5810247719585087
  0.7933939513065711  0.3081522060380875  0.1156346473336344
  0.1315879392240212  0.0815540758437447  0.9181427806280033
  0.1084996237135744  0.1246562261035037  0.5872263952708869
  0.5547366936868713  0.3086319469368921  0.8219811198068027
  0.3689314023895780  0.5863282872548313  0.4932605371294880
  0.7555347876942511  0.0775070414389372  0.0587863333990348
  0.6615682455155329  0.5999345960942114  0.1611323001067774
  0.4998336689154401  0.8440628597233073  0.5502783980564957
  0.2581320845559111  0.0767741266745484  0.9793415291192479
  0.4833400919725970  0.0904129133103800  0.4914347281140154
  0.7047346462531194  0.1967291144579832  0.0112746767456861
  0.3751766280978330  0.5314571484574899  0.7344314982840796
  0.6361909359455300  0.8603691275547807  0.8281982362533838
  0.4278351687764084  0.9369970886097316  0.7233021346491517
  0.9536572919893853  0.3839909803243663  0.4542976735363917
  0.8525567760681692  0.6194090700236148  0.2055218190080673
  0.7786779399221097  0.4369802899445431  0.7034162666605592
  0.9725265853378398  0.5052021025311452  0.6276536264207002
  0.4601226966623799  0.8202803262784915  0.9054839127941566
  0.8135837776166400  0.0917631857690094  0.5753055030863199
  0.6935188594977263  0.8812830710656118  0.0315068847505305
  0.0660041742400603  0.0397699308931732  0.7032490897779151
  0.4872201180595362  0.2351867031925826  0.1134725850855762
  0.3763692320754473  0.0204796342737346  0.9510261895053154
  0.6512367585203102  0.3312677793270176  0.0595519934836404
  0.0017899030325840  0.6251555763188863  0.9217864864128975
  0.7789894268448253  0.6496090835718000  0.0071674054741501
  0.9242358519705690  0.1666815467774858  0.5338384612433085
  0.6737884554158708  0.0281118399389730  0.4239951106401351
  0.6891320309974768  0.7154890934603717  0.9109888604440018
  0.0545191290006309  0.2532025073569500  0.7990146577304688
  0.2325960400484257  0.2757248375242657  0.4965085893666599
  0.5542919255405356  0.2921993672490776  0.4605398706644578
  0.1344545606918997  0.3084725867252508  0.6912501860056033
  0.6192948835296418  0.7206396674243830  0.4230004652467071
  0.2088548568752965  0.4217878198928808  0.6746130760154920
  0.1401325645615554  0.8355851306333678  0.4010275954682362
  0.2031799597841998  0.9393817478781984  0.8057259383006792
  0.5635838597947364  0.8690607651607979  0.6854340512444399
  0.3651420261093830  0.3216860974504578  0.7627204099616863
  0.4841897814655566  0.9386423129387275  0.2483189133585279
  0.6476881377720026  0.0663282771758557  0.7388247730905706
  0.6068769377126724  0.8091232509508863  0.9616413158419320
  0.8764585763046452  0.7014487187078439  0.0986536236896610
  0.5784544222829733  0.3143807603618812  0.6758275512688894
  0.7613687172251578  0.2597414239741234  0.8201029379953808
  0.1191933978760777  0.4653827994040463  0.4682198069445792
  0.6141929097778956  0.5174888004198579  0.7278559337960885
  0.0531380646354266  0.6174102737482603  0.7954250065620393
  0.0568207708415951  0.2939330647047019  0.0999520404964759
  0.6777524935497081  0.5042002934384843  0.3967381315947927
  0.0190629630016783  0.3457321999767961  0.6055903062128002
  0.3407267180854688  0.9355666563357284  0.4510803345618394
  0.3902684050689249  0.4194521898745365  0.0076959201106423
  0.4953025400160253  0.1342194192006256  0.6512472626764974
  0.5779775544896563  0.6811726164666670  0.0242755162688007
  0.0647110453778555  0.9677236160409589  0.8539948511638061
  0.8417035541161760  0.7736647429053687  0.3608750461404401
  0.4115433599587929  0.3867395146596254  0.6222388962519002
  0.4286700985003211  0.1926422413691488  0.2957012958505320
  0.9722732479879305  0.9861345877691081  0.4540815424632699
  0.5096261631235287  0.6923872397048563  0.8011946203668879
  0.5494963456272725  0.4092478047145996  0.2455976033189473
  0.2536521961933625  0.2881385569034208  0.8673323860520508
  0.4326384058132579  0.5970490663086255  0.1869670262913180
  0.7693779145303288  0.3162012510831458  0.5307544651020355
  0.2418017842279182  0.7019872572373059  0.8168330830864692
  0.1983647087352090  0.3705450724780304  0.2922991864057553
  0.6853019420468396  0.6506858513773932  0.5467812115443874
  0.9508358543791622  0.7749925159713713  0.6416715762296532
  0.8975303525014271  0.5754841265291294  0.3961106711365284
  0.8451303104806908  0.4251750789530487  0.9097484801252091
  0.0968030541009882  0.1580069944159734  0.3040815147830516
  0.8673927746640018  0.4794720485334263  0.1705552084551415
  0.8549539359865498  0.9639881766443502  0.8807080577200688
  0.3451782882422716  0.4788781190962254  0.2524751263296246
  0.0730480547427875  0.4714465511020601  0.8028450248987774
  0.1645472184324292  0.7185521294637479  0.0676808705078049
  0.1452215228931398  0.7676192650606537  0.2586801904580149
  0.2292403314897328  0.2017519288028145  0.6223798142059154
  0.1801994379722021  0.3787072207557136  0.1301318558548048
  0.1078620140140232  0.8439323512641722  0.9646655674306599
  0.5819902411594694  0.0904939995751360  0.0110501050787863
  0.7401196744679291  0.5817849909942352  0.7152651617580976
  0.7999214540817803  0.9719995323460294  0.4887127445297351
  0.8416134016171195  0.8284017263876983  0.9792227513732223
  0.3609247158303165  0.8553408448262801  0.5833526774468986
  0.8347198435957326  0.2810581301182459  0.9750291043506943
  0.6478255331047660  0.7499306600087136  0.6659506707369007
  0.3383768551249483  0.9760378068947347  0.2798480784177598
  0.3743631013069150  0.8032739297054420  0.7717987946712476
  0.9988724756540396  0.9749284204488505  0.2497364728630017
  0.3688323184370843  0.0675412148595288  0.5999295288245704
  0.1920141547227744  0.9674365555735526  0.6622836202510656
  0.0047928903671422  0.5581871268729524  0.1098336302557666
  0.5177364010610201  0.5364676452839232  0.3638834326836429
  0.0693690876004056  0.2436590605771866  0.5057459534557572
  0.2845772772940154  0.0584390250428810  0.1222725761128130
  0.1483442279960109  0.9798945471334223  0.2741411862920649
  0.5489879066464374  0.4933675520345764  0.1181377781957258
  0.0549473696613087  0.3098364477130622  0.3330273671540328
  0.2669661541873953  0.7416822207330496  0.5119003720088172
  0.6801634525814675  0.3445752484706912  0.3983602075686941
  0.3174484854394227  0.5267275367670360  0.1097978725693169
  0.0794570333306638  0.3051880500947163  0.9308158318052435
  0.4766135671116069  0.7426970659263747  0.4560751344020391
  0.8619823787590605  0.8229601614599578  0.1725451363194085
  0.1106063011434093  0.7457469502230031  0.6291527619000703
  0.9856590150249714  0.8245614140287517  0.4440082583794280
  0.5188957110236023  0.3008874029578671  0.9900656859744015
  0.8553922978716954  0.6219827628370709  0.8839312331030037
  0.4762261823391470  0.9125870155969713  0.1010535975771094
  0.9205627837350353  0.4104464859533454  0.7748593357183780
  0.0132985152621210  0.5714656888792785  0.5040502757046044
  0.2160103720440241  0.6150134176062618  0.9494841871744140
  0.4985841846304118  0.5958741190691038  0.6686954513127772
  0.6551625411717800  0.1748326874263275  0.8682195922719069
  0.7398351091074377  0.0160858102669431  0.2917224153477768
  0.2973116507786779  0.5792792263557573  0.6201987639407156
  0.5376670360180261  0.0760825234005156  0.2231858373659806
  0.9769350384499859  0.8220636032946257  0.7846927282822094
  0.8980513087896410  0.0359425396726981  0.0098023288934862
  0.8411338186177028  0.4530987513793857  0.5326215189287451
  0.0233170252537857  0.8327752953341407  0.1707235811842976
  0.2555284755284083  0.2155791469602707  0.2853399253945146
  0.4266245195649757  0.3297095838113676  0.3864944904733488
  0.0053139765275687  0.1640997264299873  0.9547122367462376
  0.4778106225055901  0.7588066931782781  0.2792172550092416
  0.4279267029738273  0.7074586492908106  0.0508099587466754
  0.8686075653613182  0.2613908656128290  0.4276240552480931
  0.7519411994723486  0.5165044763390660  0.0520539023417201
  0.9013726207399722  0.0763337620878508  0.7644271407378943
  0.9642246422618119  0.6785740938739097  0.2939833752284272
  0.3006172203976323  0.8158216914676141  0.3666929658966011
  0.4547341720260781  0.2070546834104858  0.7961371535455861
  0.8867181147291108  0.2543854531288937  0.6458065059579295
  0.3783071401625690  0.3344739185930193  0.1511747487643603
  0.7124155377307021  0.4039501178004038  0.8402903667252949
  0.6910468920674075  0.4665578036848647  0.2503597966098695
  0.8255959766377804  0.7108941816724310  0.5074248469815246
  0.7931371076152074  0.8781763802464631  0.6984657349676918
  0.1156116182087642  0.5220185318042740  0.3202900225005784
  0.5187230297536235  0.9478621510364991  0.8561082376106629
  0.2444578631699000  0.4178733775954767  0.9660011878338248
  0.6857918769500824  0.2197838272422612  0.6863077020781749
  0.0181393235752229  0.4852264266486752  0.9524195929154343
  0.7478401700976395  0.6504794039663816  0.3067131372937255
  0.7821204537163012  0.1657950947841011  0.1755195791300942
  0.1663864613583589  0.1521489589383410  0.7952300460450914
  0.8854213026313135  0.4299594059935952  0.3258888732926554
  0.9193183715993972  0.2919103525220952  0.1897328683777166
  0.2498462115380381  0.8350388102131071  0.1626221964441067
  0.0971100970311361  0.1581998473691845  0.1467086977291661
  0.6267607458327852  0.9776476970622017  0.6136877719098258
  0.1220619683607162  0.5294389751025471  0.6236311175336067
  0.4807109775855143  0.5025934419283000  0.5340323467859441
  0.3280815772273786  0.0205539369690581  0.8162647888522339
  0.9810473793646914  0.9471307606336195  0.6080143244373705
  0.1330307084577313  0.0360363674991668  0.4717154242779522
  0.6894779484591036  0.8447092854263714  0.3863472352222379
  0.9469445430999955  0.1232567769742819  0.3188675440011102
  0.6166007664642689  0.2753415378770594  0.1913515424886557
  0.9359136441817127  0.6331911622509397  0.7116628117762352
  0.3655401915035320  0.1150339134751751  0.4103829163176672
  0.1390667517515570  0.6865135673870266  0.4294750144365651
  0.3286599927022396  0.8747434110904553  0.9861792824261639
  0.3886329213092226  0.6172715229990068  0.8672988951931213
  0.2966272213179049  0.6393473186277810  0.2783036968415491
  0.6013978512878101  0.5988116634419602  0.8830340793614715
  0.7004497082902135  0.9862699716347380  0.8875280029387997
  0.5001074488309518  0.9440318320611311  0.4336635058543546
  0.3288741223695000  0.2084326446184031  0.9764566150217248
  0.5620521920697374  0.1698242819109350  0.3848033819410227
  0.6513180430058013  0.4151533101358232  0.6082943302894810
  0.6997289422158188  0.1568344321712398  0.5056310678009175
  0.6963910997136334  0.8019213738435148  0.1618213581665081
  0.2665828229294957  0.4802775569637380  0.4459403236714862
  0.4368167915720444  0.4113161890316062  0.8407793657313417
  0.2430816040951695  0.4735094219589653  0.8003709155077240
 
 -0.15020705E-02  0.29531458E-02  0.31904393E-03
 -0.15241196E-02  0.38654775E-03  0.29793328E-02
 -0.58091154E-03 -0.15921323E-02  0.44217045E-03
 -0.89105903E-03 -0.72820547E-03  0.10638354E-02
 -0.18998839E-02 -0.63892648E-03 -0.22120734E-03
  0.14418735E-02  0.18354988E-02 -0.91512370E-03
  0.61558008E-02  0.88697791E-03  0.55309935E-03
  0.12815864E-02 -0.53639343E-02  0.10133790E-02
 -0.78994733E-03 -0.11459618E-02 -0.18634198E-02
 -0.57379098E-03 -0.18737161E-02 -0.31977019E-02
 -0.50386169E-03  0.23484125E-02 -0.44631215E-03
  0.20678052E-02  0.15964787E-02 -0.25877361E-02
 -0.29086301E-02 -0.63736331E-03 -0.21612490E-02
 -0.19527944E-02  0.25023003E-02  0.12217253E-02
  0.18107358E-02 -0.19940159E-02  0.87977585E-03
  0.28650193E-03 -0.46698775E-03  0.14472998E-02
 -0.17907506E-03 -0.12559147E-02 -0.14031949E-02
  0.25850686E-02  0.66195037E-03  0.76013270E-03
  0.29389450E-02  0.11360423E-02 -0.73885973E-04
 -0.10357354E-02 -0.12588931E-02 -0.49502384E-04
 -0.14391427E-02  0.16047105E-02  0.10142856E-02
  0.10670933E-02  0.17083713E-02  0.30202436E-03
  0.23877336E-02 -0.73918173E-04 -0.18595629E-02
  0.18527467E-02  0.15540156E-02 -0.11645856E-02
  0.11457798E-02 -0.74913451E-03  0.11180907E-02
  0.14265364E-02  0.47835956E-03  0.39671187E-02
 -0.29443172E-03 -0.13001149E-02  0.15840915E-02
  0.34377836E-04  0.57084066E-03 -0.74508478E-03
  0.10954217E-02 -0.14030521E-03  0.11044700E-02
  0.22279547E-02 -0.17770934E-02 -0.16098264E-02
 -0.17785514E-02  0.35293280E-03 -0.10709286E-02
  0.23796202E-03  0.11378339E-02 -0.40694141E-03
 -0.20056320E-02 -0.43842335E-02 -0.18591939E-02
 -0.26875804E-03  0.30687575E-02  0.12085505E-02
  0.11933837E-05  0.14850319E-02  0.13388328E-02
 -0.23286333E-02  0.24699595E-02 -0.14428993E-03
  0.25692685E-02  0.14929284E-02 -0.81287641E-03
 -0.74273703E-03  0.24657031E-02  0.33691538E-02
  0.25768370E-03 -0.18585878E-02 -0.16476180E-03
  0.34913745E-02  0.25931620E-02  0.38890232E-03
 -0.67898403E-03  0.15546511E-02 -0.23925583E-02
  0.16559784E-02  0.18365294E-03  0.43702741E-03
 -0.37479046E-02  0.10475477E-02 -0.13544754E-03
 -0.57712613E-03 -0.31972437E-02 -0.38234614E-02
  0.67617010E-03  0.13269386E-02 -0.86525198E-04
 -0.22191245E-02 -0.15980498E-03 -0.16334937E-02
 -0.15838911E-02 -0.70823149E-04  0.65683758E-03
 -0.14935106E-02 -0.22987753E-02 -0.69115815E-03
  0.53215370E-03  0.31300899E-03 -0.14205957E-02
 -0.12723484E-02 -0.38031117E-02 -0.67023083E-03
 -0.16863996E-02 -0.16515489E-02  0.17180761E-02
  0.14964840E-02  0.13697427E-02  0.14721400E-02
  0.37065639E-03 -0.90373831E-03 -0.39275464E-03
 -0.20351010E-02 -0.67833174E-03 -0.23292292E-02
 -0.75914462E-03  0.42760684E-03 -0.47266485E-04
  0.19123875E-02 -0.33966689E-03  0.11394844E-02
 -0.21222947E-02  0.44225421E-02 -0.12678920E-03
  0.29210449E-02  0.38416810E-03  0.20470050E-02
  0.86297998E-03 -0.14308780E-02 -0.31794933E-03
 -0.70234363E-03  0.53135157E-04 -0.80261116E-03
 -0.13256610E-02 -0.27382044E-04  0.79928600E-03
 -0.21510322E-02  0.26938673E-03 -0.16776511E-02
  0.25988081E-03  0.18520682E-02 -0.40686952E-03
 -0.15279259E-02 -0.87073009E-03  0.15859392E-02
  0.13067649E-02  0.27907167E-02 -0.18517947E-03
 -0.26878655E-03  0.48747977E-03 -0.33850460E-02
  0.43188777E-03 -0.99322887E-03 -0.16502575E-02
  0.14311373E-02 -0.48835934E-03 -0.10692562E-02
 -0.95764578E-03 -0.22605480E-02 -0.19045263E-02
  0.56337962E-03 -0.17271100E-02  0.25374131E-03
 -0.94164004E-04  0.38726684E-03 -0.15789980E-02
  0.96163200E-03  0.15427783E-02  0.11991044E-04
 -0.73956866E-04  0.38325359E-03 -0.91616798E-03
  0.42530161E-03 -0.11558815E-02 -0.86055215E-03
 -0.58190289E-03 -0.10322553E-02  0.29677046E-02
 -0.14885752E-02  0.20284501E-03  0.83270506E-03
 -0.90735715E-03  0.25873868E-03 -0.24035146E-02
  0.56581185E-03 -0.19373294E-03 -0.67411459E-03
  0.54708153E-03 -0.12896314E-02 -0.21428273E-02
  0.25018676E-02  0.86375272E-03 -0.21633666E-02
 -0.30767221E-03  0.20631702E-03 -0.19856185E-02
 -0.64667436E-03 -0.87454082E-03 -0.37844886E-03
  0.12658170E-02  0.15508365E-03 -0.10233331E-02
 -0.59502561E-03 -0.13036671E-02  0.19502442E-02
  0.13760065E-02  0.13394594E-02 -0.23898923E-02
 -0.23305706E-02  0.24649076E-03 -0.81940721E-03
  0.19239965E-02 -0.19967463E-02  0.10173911E-02
  0.25848595E-03  0.95660859E-03  0.71298573E-03
 -0.90200909E-03  0.10244869E-02  0.16302030E-02
  0.74014378E-04  0.21027190E-02  0.17444487E-02
 -0.34167319E-02  0.72991122E-03 -0.89885695E-03
 -0.13391321E-02 -0.11129668E-02  0.37240149E-02
 -0.20039632E-02  0.32452938E-03  0.10943933E-02
 -0.29072145E-03  0.12911542E-02  0.18056271E-04
  0.14254050E-02 -0.52642349E-04  0.19497885E-02
 -0.24665010E-03  0.20457915E-03 -0.80723936E-03
 -0.20572457E-02  0.60582767E-03  0.14842964E-03
  0.29235291E-03 -0.32209977E-03  0.12597802E-02
 -0.35622244E-03 -0.16074198E-02 -0.13052030E-02
 -0.12341580E-02  0.74415963E-03  0.32882951E-04
 -0.51370871E-03  0.20263348E-03  0.85776302E-03
  0.57460942E-03 -0.81756320E-03 -0.17735576E-02
 -0.13029348E-02 -0.38775436E-04  0.21918172E-03
 -0.10091448E-02  0.37899633E-03 -0.10933938E-02
  0.19689362E-02  0.42020246E-03 -0.15202696E-02
  0.33130684E-03 -0.11113342E-02 -0.93922218E-03
 -0.74779433E-04 -0.31557250E-03 -0.82851230E-03
 -0.19341417E-02 -0.58792709E-03  0.16178996E-02
  0.13151356E-03 -0.74529664E-03 -0.22576734E-02
 -0.19771116E-02  0.60209989E-04 -0.13646297E-02
 -0.94007226E-03  0.92214068E-04  0.28557536E-03
  0.11870581E-02  0.16826578E-02  0.10435204E-02
  0.24605120E-02  0.12449751E-02 -0.88068657E-03
 -0.11399788E-02  0.14366320E-03 -0.26039178E-03
  0.21347023E-02  0.11278123E-02  0.94051764E-03
  0.11400478E-03 -0.99982763E-05 -0.12035442E-02
  0.12657001E-02 -0.21385325E-02  0.68389764E-04
  0.11231611E-02 -0.18632742E-02  0.65817007E-03
 -0.21665497E-03 -0.19830702E-02 -0.53803629E-03
 -0.13061390E-02 -0.16941677E-02  0.13660410E-02
  0.75985987E-04 -0.20260064E-02  0.10601313E-02
 -0.87869921E-03 -0.68445109E-03  0.30274725E-03
 -0.38655738E-03 -0.28794193E-02 -0.16210633E-02
 -0.24512121E-02  0.32640458E-02  0.21575875E-03
  0.11024355E-02  0.36875949E-03 -0.59402976E-03
 -0.43660463E-03 -0.16709975E-02 -0.30357328E-02
 -0.44274980E-03 -0.31469284E-03 -0.21826193E-02
  0.63008033E-03 -0.23306264E-02 -0.51138859E-03
 -0.18704607E-02  0.18944816E-02 -0.21651363E-03
 -0.24179806E-03  0.18122514E-02 -0.21325097E-02
  0.93450318E-03 -0.12841185E-02  0.84330124E-03
 -0.19034060E-02 -0.19245556E-02  0.22129440E-02
 -0.18059536E-02 -0.23965276E-02  0.23515924E-02
  0.98078740E-03 -0.46843314E-02 -0.11481018E-02
  0.15748935E-02  0.31242772E-03  0.15914142E-02
 -0.19082853E-02 -0.38203004E-03 -0.10823394E-02
  0.35489449E-02  0.37540242E-02  0.34649880E-02
 -0.19417268E-02  0.10638055E-02  0.85207241E-03
 -0.18137101E-02  0.24175356E-03  0.96967427E-03
  0.70299388E-03 -0.23467514E-02  0.22525970E-02
 -0.20878610E-02 -0.18042873E-02 -0.31660898E-03
  0.14241661E-02 -0.10927379E-02  0.23975703E-02
 -0.10194777E-02 -0.50337357E-03 -0.27859420E-02
 -0.13991646E-03  0.12603955E-02  0.18603301E-03
  0.23194572E-03  0.79517158E-03  0.16142373E-02
  0.70834016E-03 -0.22114935E-02 -0.20602057E-03
 -0.20213891E-02  0.23607845E-03 -0.35030484E-02
 -0.35023154E-03 -0.45530303E-03  0.19854076E-03
 -0.61016769E-03  0.23921225E-02  0.66296986E-04
  0.57721881E-03 -0.50275925E-03 -0.35426465E-02
  0.32534802E-02  0.13040348E-02  0.38245872E-02
  0.16749542E-02 -0.98499986E-03  0.24179227E-02
 -0.12706729E-02 -0.26523969E-03 -0.76103208E-03
  0.28832399E-02  0.52879159E-03  0.27706342E-03
 -0.23692482E-03 -0.19612113E-02 -0.24281427E-02
  0.18951672E-02 -0.16420573E-02 -0.13642414E-03
  0.56846946E-03 -0.40717896E-03  0.32505422E-03
 -0.71062805E-03 -0.63244490E-03  0.52496447E-03
  0.13143167E-02 -0.96157085E-03  0.76740759E-03
 -0.34338564E-03  0.85164779E-03  0.11212682E-02
  0.10504298E-02 -0.33573405E-04  0.10513640E-02
 -0.19060118E-02  0.78424446E-03  0.13952301E-02
 -0.17258946E-02  0.39731124E-02 -0.22654615E-04
 -0.16124653E-02  0.20715333E-03  0.17097200E-02
  0.17199322E-02  0.36311725E-03  0.10620386E-02
 -0.69460393E-03 -0.11632884E-02 -0.18366447E-02
 -0.18098176E-02 -0.33458062E-03  0.18537434E-02
 -0.10485246E-02  0.15222821E-02 -0.21747838E-02
  0.82319719E-03  0.68695441E-04  0.99098096E-03
  0.40516912E-03 -0.20003919E-03  0.51836045E-03
  0.91694760E-03  0.17135769E-02  0.91998881E-03
  0.19454157E-02  0.10257372E-02  0.16424380E-02
 -0.79405761E-03  0.10254143E-02  0.21257707E-02
  0.18542061E-03  0.68384336E-03  0.31688777E-04
 -0.28733343E-03  0.76773698E-03 -0.25713000E-03
  0.79070847E-03 -0.26042253E-03  0.29157156E-02
  0.77657150E-03  0.32158592E-02  0.20240162E-02
 -0.10258638E-03  0.24313721E-03  0.28142462E-02
  0.14010931E-02 -0.93023966E-03  0.27441508E-02
 -0.11438706E-02  0.32601175E-02  0.19211878E-02
 -0.15498765E-03  0.55349708E-04 -0.51640640E-04
 -0.11326377E-02  0.99960747E-03  0.31171300E-03
  0.27967344E-03 -0.15166416E-02  0.96073049E-03
 -0.18024353E-02 -0.15564120E-03 -0.99626749E-03
  0.71663621E-04  0.72944805E-03 -0.16720743E-02
  0.20721066E-02 -0.21551731E-02  0.10751073E-02
  0.13327761E-02 -0.15865255E-03  0.25522665E-03
 -0.57576562E-03  0.36569452E-02  0.59607736E-03
 -0.15122767E-02 -0.23021124E-03 -0.65472371E-03
  0.20764650E-03  0.14618163E-02 -0.21490078E-02
 -0.11584363E-02 -0.10418848E-02 -0.46867620E-03
  0.28035435E-02 -0.14877827E-02  0.33160621E-03
  0.80664239E-03 -0.62116417E-03 -0.25086998E-02
  0.25355566E-02  0.34525342E-03  0.32901873E-03
  0.18045314E-03  0.25470608E-02  0.33006053E-03
  0.44108910E-03  0.11546099E-03 -0.19147714E-03
 -0.80121005E-03 -0.28071116E-02  0.98163072E-03
 -0.25968433E-03 -0.25505705E-03  0.17266960E-02
  0.23251250E-02  0.23077735E-02 -0.16590916E-02
  0.94683341E-03  0.35186181E-03 -0.66440630E-03
 
           1
   3.00000000000000     
  0.10000000E+01  0.00000000E+00  0.00000000E+00  0.00000000E+00
  0.61382642E+00  0.97961052E+00  0.10917788E+00
  0.81802836E+00  0.76922472E+00  0.83920889E+00
  0.24268190E-01  0.43499711E+00  0.24049701E+00
  0.16984345E+00  0.61645924E+00  0.20005744E+00
  0.78024160E+00  0.28285537E-01  0.68888280E+00
  0.91301179E+00  0.22838034E+00  0.79272925E+00
  0.37089552E+00  0.23693411E+00  0.49091443E+00
  0.26006369E+00  0.21932829E+00  0.13423844E+00
  0.23073112E+00  0.83270040E+00  0.88971188E+00
  0.64029449E+00  0.91327522E+00  0.24743192E+00
  0.15472367E+00  0.95540632E+00  0.12618555E+00
  0.12080823E+00  0.88443860E+00  0.56493617E+00
  0.59265928E-02  0.69404749E+00  0.41867232E-01
  0.58425498E+00  0.65831116E+00  0.29147822E+00
  0.46308811E+00  0.97032278E-01  0.10161322E+00
  0.92400625E+00  0.14435687E+00  0.17786261E+00
  0.10357237E+00  0.74435711E+00  0.77472583E+00
  0.27719758E+00  0.39959550E+00  0.55946227E+00
  0.72645457E+00  0.86317498E+00  0.56511580E+00
  0.52518105E+00  0.77964911E+00  0.13725165E+00
  0.48837758E+00  0.26357385E+00  0.58118954E+00
  0.79356730E+00  0.30842973E+00  0.11568371E+00
  0.13197582E+00  0.81542068E-01  0.91784070E+00
  0.10880060E+00  0.12490867E+00  0.58703721E+00
  0.55492282E+00  0.30851025E+00  0.82216275E+00
  0.36916314E+00  0.58640600E+00  0.49390499E+00
  0.75548696E+00  0.77295839E-01  0.59043668E-01
  0.66157383E+00  0.60002733E+00  0.16101126E+00
  0.50001162E+00  0.84404007E+00  0.55045782E+00
  0.25849401E+00  0.76485439E-01  0.97908001E+00
  0.48305117E+00  0.90470247E-01  0.49126076E+00
  0.70477330E+00  0.19691395E+00  0.11208569E-01
  0.37485081E+00  0.53074493E+00  0.73412947E+00
  0.63614728E+00  0.86086765E+00  0.82839456E+00
  0.42783536E+00  0.93723833E+00  0.72351963E+00
  0.95327901E+00  0.38439222E+00  0.45427423E+00
  0.85297415E+00  0.61965160E+00  0.20538977E+00
  0.77855728E+00  0.43738084E+00  0.70396358E+00
  0.97256845E+00  0.50490018E+00  0.62762686E+00
  0.46068987E+00  0.82070158E+00  0.90554709E+00
  0.81347348E+00  0.92015738E-01  0.57491683E+00
  0.69378787E+00  0.88131291E+00  0.31577880E-01
  0.65395330E-01  0.39940104E-01  0.70322709E+00
  0.48712636E+00  0.23466731E+00  0.11285147E+00
  0.37647908E+00  0.20695195E-01  0.95101213E+00
  0.65087626E+00  0.33124182E+00  0.59286634E-01
  0.15326010E-02  0.62514407E+00  0.92189319E+00
  0.77874681E+00  0.64923565E+00  0.70551273E-02
  0.92432230E+00  0.16673239E+00  0.53360769E+00
  0.67358176E+00  0.27494027E-01  0.42388623E+00
  0.68885808E+00  0.71522080E+00  0.91126796E+00
  0.54762232E-01  0.25342502E+00  0.79925381E+00
  0.23265625E+00  0.27557803E+00  0.49644479E+00
  0.55396132E+00  0.29208917E+00  0.46016149E+00
  0.13433124E+00  0.30854205E+00  0.69124251E+00
  0.61960555E+00  0.72058449E+00  0.42318557E+00
  0.20851009E+00  0.42250626E+00  0.67459248E+00
  0.14060709E+00  0.83564754E+00  0.40136013E+00
  0.20332015E+00  0.93914930E+00  0.80567429E+00
  0.56346976E+00  0.86906940E+00  0.68530367E+00
  0.36492667E+00  0.32168165E+00  0.76285025E+00
  0.48384035E+00  0.93868607E+00  0.24804638E+00
  0.64773036E+00  0.66629144E-01  0.73875868E+00
  0.60662873E+00  0.80898180E+00  0.96189895E+00
  0.87667086E+00  0.70190207E+00  0.98623541E-01
  0.57841076E+00  0.31445995E+00  0.67527765E+00
  0.76143888E+00  0.25958007E+00  0.81983485E+00
  0.11942589E+00  0.46530347E+00  0.46804611E+00
  0.61403734E+00  0.51712158E+00  0.72754654E+00
  0.53229585E-01  0.61712971E+00  0.79546623E+00
  0.56805474E-01  0.29399598E+00  0.99695533E-01
  0.67790871E+00  0.50445092E+00  0.39674008E+00
  0.19050949E-01  0.34579446E+00  0.60544148E+00
  0.34079581E+00  0.93537888E+00  0.45094054E+00
  0.39017388E+00  0.41928450E+00  0.81780216E-02
  0.49506072E+00  0.13425237E+00  0.65138254E+00
  0.57783015E+00  0.68121465E+00  0.23885067E-01
  0.64802961E-01  0.96769214E+00  0.85388534E+00
  0.84179243E+00  0.77345524E+00  0.36052695E+00
  0.41194979E+00  0.38687983E+00  0.62188746E+00
  0.42862012E+00  0.19267576E+00  0.29537873E+00
  0.97216820E+00  0.98599252E+00  0.45402006E+00
  0.50983179E+00  0.69241243E+00  0.80102838E+00
  0.54939968E+00  0.40903602E+00  0.24591442E+00
  0.25387573E+00  0.28835615E+00  0.86694415E+00
  0.43225981E+00  0.59708911E+00  0.18683391E+00
  0.76969047E+00  0.31587688E+00  0.53091974E+00
  0.24184378E+00  0.70214266E+00  0.81694891E+00
  0.19821818E+00  0.37071150E+00  0.29256401E+00
  0.68531397E+00  0.65102744E+00  0.54706460E+00
  0.95028081E+00  0.77511109E+00  0.64152556E+00
  0.89731281E+00  0.57530333E+00  0.39671563E+00
  0.84480477E+00  0.42522780E+00  0.90992626E+00
  0.96755827E-01  0.15821674E+00  0.30408445E+00
  0.86762433E+00  0.47946350E+00  0.17087195E+00
  0.85491387E+00  0.96402141E+00  0.88057692E+00
  0.34484409E+00  0.47897654E+00  0.25249924E+00
  0.73095547E-01  0.47139423E+00  0.80304968E+00
  0.16448935E+00  0.71829101E+00  0.67468841E-01
  0.14502103E+00  0.76774015E+00  0.25868553E+00
  0.22915688E+00  0.20178485E+00  0.62251916E+00
  0.18029278E+00  0.37857441E+00  0.12984374E+00
  0.10765035E+00  0.84392605E+00  0.96470117E+00
  0.58182631E+00  0.90555567E-01  0.10872484E-01
  0.74043953E+00  0.58185325E+00  0.71501820E+00
  0.79997527E+00  0.97181900E+00  0.48856017E+00
  0.84160125E+00  0.82835046E+00  0.97908816E+00
  0.36061052E+00  0.85524534E+00  0.58361550E+00
  0.83474121E+00  0.28093706E+00  0.97466235E+00
  0.64750435E+00  0.74994044E+00  0.66572899E+00
  0.33822414E+00  0.97605279E+00  0.27989447E+00
  0.37455594E+00  0.80354728E+00  0.77196831E+00
  0.99927218E+00  0.97513067E+00  0.24959341E+00
  0.36864713E+00  0.67564553E-01  0.59988723E+00
  0.19236094E+00  0.96761977E+00  0.66243641E+00
  0.48114104E-02  0.55818550E+00  0.10963812E+00
  0.51794201E+00  0.53612024E+00  0.36389454E+00
  0.69551544E-01  0.24335637E+00  0.50585287E+00
  0.28454208E+00  0.58116877E-01  0.12218517E+00
  0.14813205E+00  0.97961933E+00  0.27436310E+00
  0.54900025E+00  0.49303843E+00  0.11831000E+00
  0.54804626E-01  0.30972526E+00  0.33307655E+00
  0.26690336E+00  0.74121446E+00  0.51163703E+00
  0.67976525E+00  0.34510549E+00  0.39839526E+00
  0.31762758E+00  0.52678744E+00  0.10970137E+00
  0.79386107E-01  0.30491660E+00  0.93032268E+00
  0.47654164E+00  0.74264594E+00  0.45572057E+00
  0.86208473E+00  0.82258155E+00  0.17246206E+00
  0.11030245E+00  0.74605471E+00  0.62911759E+00
  0.98561974E+00  0.82485581E+00  0.44366183E+00
  0.51904752E+00  0.30067880E+00  0.99020268E+00
  0.85508309E+00  0.62167012E+00  0.88429072E+00
  0.47593281E+00  0.91219770E+00  0.10143561E+00
  0.92072211E+00  0.40968552E+00  0.77467283E+00
  0.13554356E-01  0.57151644E+00  0.50430880E+00
  0.21570037E+00  0.61495136E+00  0.94930836E+00
  0.49916071E+00  0.59648396E+00  0.66925834E+00
  0.65484711E+00  0.17500550E+00  0.86835801E+00
  0.73954047E+00  0.16125083E-01  0.29187994E+00
  0.29742585E+00  0.57889800E+00  0.62056470E+00
  0.53732786E+00  0.75789418E-01  0.22313440E+00
  0.97716639E+00  0.82188609E+00  0.78508221E+00
  0.89788570E+00  0.35860767E-01  0.93497546E-02
  0.84111109E+00  0.45330350E+00  0.53265174E+00
  0.23354705E-01  0.83290447E+00  0.17098581E+00
  0.25564354E+00  0.21521989E+00  0.28530646E+00
  0.42629615E+00  0.32974793E+00  0.38592542E+00
  0.52570817E-02  0.16402576E+00  0.95474449E+00
  0.47771150E+00  0.75919529E+00  0.27922802E+00
  0.42802047E+00  0.70737698E+00  0.50234458E-01
  0.86913609E+00  0.26160271E+00  0.42824536E+00
  0.75221329E+00  0.51634446E+00  0.52446692E-01
  0.90116620E+00  0.76290674E-01  0.76430351E+00
  0.96469302E+00  0.67866000E+00  0.29402838E+00