GeSe                                    
   1.00000000000000     
    19.9185949407495073    0.0000000000000000    0.0000000000000000
     0.0000000000000000   19.9185949407495073    0.0000000000000000
     0.0000000000000000    0.0000000000000000   19.9185949407495073
   Ge   Se
   225    75
Direct
  0.4818611850638222  0.7385863780114715  0.2075795047424907
  0.3091401119128927  0.2909617188345088  0.6938768914945376
  0.3300771483210828  0.0506553172626611  0.6688877596497813
  0.6849851603993629  0.5084682050712129  0.9401589168943938
  0.6984247220288304  0.5345647763315799  0.2201290870007995
  0.5963304917019473  0.6150597604006319  0.5122847096459617
  0.8912271810681235  0.4486784773641090  0.1657120147470106
  0.2838205296857346  0.4460663802644602  0.5692455456371063
  0.6102552902460809  0.7401685781539649  0.4552096909575305
  0.2555649160809723  0.3438298122021815  0.2808635564972359
  0.6146676029969437  0.8897256408070934  0.4277195165312090
  0.1503380498152213  0.1310840716739220  0.0418906361614171
  0.5913174732245453  0.8741645257767738  0.5535367732189026
  0.2377368262015405  0.8434378208878033  0.0280847768101359
  0.8777707736836204  0.0988540093350019  0.2810996598991510
  0.4070357829433214  0.5299343452649602  0.9159018538939733
  0.8381890079762292  0.1295289373669272  0.7649703849874717
  0.5100340569428895  0.4788815441012683  0.6841073536611865
  0.2607279617997863  0.4814239108877341  0.6950182457315398
  0.3133406218408987  0.1110972966033409  0.3760592804678768
  0.1978427572839140  0.4962547459405899  0.3458175919996220
  0.9665648564459051  0.6830950825875793  0.5823677945337836
  0.8129257762423578  0.7368247316086878  0.6870027522773408
  0.8957887994906082  0.9283109947534902  0.0608667883658097
  0.0653241205080660  0.0361545720721014  0.5258921035972938
  0.3174790707819478  0.1872721532590388  0.5374152800543905
  0.5927381118242782  0.2629482566161746  0.1628321282943941
  0.8840979415237640  0.8118156048766237  0.1690305704676203
  0.5446740046755932  0.5020061168148415  0.0036745223551980
  0.5448844639192102  0.7596969167195230  0.5854317256168236
  0.8199052692205319  0.4617285200154420  0.7966940614118311
  0.0441051192075768  0.4496958240518880  0.0990412867852225
  0.9424913418923095  0.6279912754439527  0.8751460770532559
  0.0037819652188307  0.5227497151592675  0.3709355527539337
  0.9782898210222389  0.6152259188258332  0.6864950968845503
  0.9047796561856017  0.7237706822424724  0.0641523722545416
  0.4955911845471183  0.1119729981779929  0.9738041922086327
  0.1893848966820063  0.7842881623892181  0.3300564759371525
  0.1516173076869660  0.5717031338500939  0.9207720304643112
  0.6441195448278679  0.1701783540793374  0.8503445216904825
  0.8795004880038163  0.7559989593495480  0.2961998704453991
  0.7526498332178179  0.9587768544588816  0.2009662457045867
  0.4892965847156306  0.8240445455728597  0.6914334903746868
  0.3005511792553773  0.7324327183421023  0.3880259954227861
  0.5852067329108203  0.7069348282487227  0.1280601022147192
  0.2536373739780996  0.0078577371595026  0.4372852813030225
  0.0124927701480059  0.0807427374385727  0.8502602536389900
  0.1167510426870187  0.4727221508014058  0.9895239626295961
  0.1196664458257751  0.6734053949027027  0.9944250056612773
  0.6406727131752863  0.1114785095553728  0.0832425016040454
  0.2763705267454126  0.0284886130588074  0.7889960678628877
  0.1034973990539911  0.6107913334007101  0.7126526242417766
  0.6257336863292789  0.8306812978038757  0.8268543641731866
  0.5600609968387968  0.3236314986130038  0.7829978007300552
  0.4310321172252599 -0.0120072805178660  0.0934759953041336
  0.1405276613942005  0.0585561384572402  0.8267995300906609
  0.0890421375454174  0.7015978761354029  0.2821713024833618
 -0.0013127890180909  0.2268184777972976  0.6612441171852542
  0.9651111185328219  0.1323999866393721  0.7441976058894516
  0.3711233868871462  0.4421832978093417  0.8296008190136700
  0.5297530228872953  0.2023094498887484  0.8053210503619017
  0.2348527283054765  0.8858978593314539  0.2600244366551929
  0.8868372725490791  0.8254420810475244  0.9876639203613288
  0.6246975771702771  0.5210424436527616  0.8284478407920542
  0.0510896012503128  0.9266699453510474  0.2520321064725431
  0.7707059003075964  0.8559816966262943  0.9521793970204437
  0.8829653873795397  0.9569317151234573  0.1854340591384677
  0.9197902400911855  0.4601021923922516  0.4792087977519355
  0.8629042171490270  0.2279524604094190  0.2750216024918468
  0.2518499648959862  0.7598224292646418  0.8043488594656243
  0.0078455774058688  0.6462334714754279  0.0521076944248733
  0.4853537565435786  0.1676091394980595  0.6903617702162407
  0.4763229622932716  0.8570434300912487  0.1389284508696736
  0.1392498696373159  0.0335662644083931  0.1266044498181093
  0.3419720538701167  0.1310548637075777  0.0837906525354880
  0.8046286044682928  0.0077583210856364  0.0212169683365996
  0.7061169951681032  0.8515862518182233  0.3459146807025351
  0.1699390305227594  0.2171503270205749  0.2698554872802800
  0.4376415187345642  0.1881864259722737  0.8901396680160812
  0.9804874284324702  0.2096876388108531  0.1367131399130853
  0.8137033144715963  0.6563326559629411  0.1321783672390715
  0.1082230474127997  0.5347792561618736  0.8103240887342932
  0.3291943828887737  0.1521619159367179  0.8320008168888267
  0.8989583704113827  0.6457483334385176  0.2254578584502893
  0.3159533886121937  0.0568303230064118  0.5415412248914818
  0.7166024735846617  0.2734090109567202  0.1909501813525674
  0.7634451336734126  0.7416818036046274  0.3667586384285859
  0.1580129501647409  0.9245508892179943  0.5084913568430264
  0.9264203222714682  0.8505497093791264  0.8687487134926971
  0.0776942502140251  0.2720736721715697  0.1977545454977838
  0.2296990178253826  0.9478016754446588  0.6552774804231012
  0.4317904282885125  0.1525183151854102  0.4008257696308444
  0.4253565098124679  0.3107840562318743  0.6479205306122339
  0.4190808939667702  0.7601247667417629  0.5558977733488928
  0.6117214156459839  0.0284704824756652  0.7910237449212079
  0.9264422551250481  0.8805401283913389  0.2835007390103733
  0.3928766337076511  0.6605310017452002  0.8398565011521869
  0.1328687672083950  0.6341746527135967  0.4566028815443347
  0.4608903474641332  0.6237151571195310  0.3075986291381127
  0.1283634898276840  0.2064017798717765  0.6614802303331984
  0.1403086893639853  0.5247450873736307  0.5171268954877496
  0.0221295961607588  0.2720831364753780  0.4327549607574653
  0.7872035731092858  0.5950978625774027  0.6335292194040730
  0.8681182842035786  0.0543208673866461  0.4437045940006102
  0.2535024303873034  0.6562116486295712  0.5922501684911197
  0.4674815411464661  0.1528510416977450  0.0910520006320263
 -0.0135482376447685  0.5136004164853475  0.8315506588809763
  0.9465076051044147  0.3076767248345800  0.3375107963356186
  0.9939570119164638  0.9561850820757004  0.8232336582061752
  0.9818464414360689  0.0092900137418789  0.7039028068038274
  0.9889412304665129  0.4851261911577933  0.2480029321676278
  0.2368869459789102  0.7025348668667148  0.0503902005137694
  0.0728772376220777  0.7210359235226539  0.5249208586010500
  0.7602893540489786  0.0373925639380008  0.3029297677622724
  0.7052505280714613  0.7126971378887743  0.1815473261648920
  0.1083569058822798  0.5904708796056635  0.3416934838448231
  0.2760143769875592  0.1853911515989976  0.1843138446885630
  0.0231898762260290  0.6489438143510493  0.1802594763307290
  0.8416195990980833  0.4791393549259339  0.5911778618645905
  0.6469745163834655  0.3781856822003457  0.8632861765751346
  0.6692606885207422  0.1340378324858577  0.3321161173304312
  0.1471832073218027  0.2611627865054262  0.3892271374621626
  0.8623556250837910  0.5948314331577502  0.9741803711182768
  0.7181970455798048  0.1806865137441725  0.7432445021306696
  0.8374433481065646  0.3252943582462606  0.1905401623787700
  0.3765172587885169  0.7616043543753190  0.7550297018063031
  0.1649145342322347  0.7443019684847180  0.6098908512433520
  0.5629354525551969  0.6306561294554339  0.0233676697659681
  0.7631997178197417 -0.0231909388514476  0.9032540865528690
  0.3585106815468462  0.9784807374359860  0.8866708073247082
  0.2579017287906378  0.6427852903423683  0.4676124261539267
  0.1914370702075920  0.8313468256086445  0.1524014870922724
  0.5560655612008963  0.1385391980002478  0.1867351199386942
  0.5509800711321475  0.4463048674223894  0.4396476024473636
  0.6355593316231058  0.8237478648074014  0.2428461260505448
  0.1830332783289706  0.5579367068649087  0.6316779925955242
  0.6708185136059639  0.2691533165622498  0.9341537623792248
  0.1179855465629105  0.0076259070068443  0.7042343647875161
  0.4213001742588783  0.7687521820528050  0.4265733866091244
  0.8859174402278738  0.6563395108501727  0.7641351313621526
  0.3620290613524602  0.5651984598584185  0.1208870573240767
  0.7027393678921764  0.9915236995908518  0.0911525676311862
  0.4703677239891979  0.4071346957110399  0.2474772503405078
  0.6221734903950393  0.0987429009828113  0.9541294830190362
  0.8449367304659073  0.4667647624108070  0.2925436100377650
  0.1341640079873147  0.3827337667777421  0.3499666773278048
  0.1439922703176232  0.7278238076792309  0.7335239007939982
  0.7566878208820932  0.8316055808602687  0.1637275126310764
  0.9502177467121607  0.8990609889599035  0.5123128511872785
  0.5344590896869545  0.3158674066598078  0.9225146408468710
  0.4651327696314364  0.2743808675718075  0.0441884364183831
  0.0203963306880745  0.0357553174626890  0.1843960592750166
  0.5789768814869329  0.8149673205470984  0.0517234007999314
  0.2325248839047328  0.2583121704538883  0.6042680847093348
  0.3605510664653688  0.8896168691280270  0.2266038162464998
  0.4253016373604537  0.9691558301828700  0.5311966808204808
  0.3253986526525623  0.9050866128305320  0.1023622835785273
  0.5414386940238330  0.9902598680593120  0.5893675243463943
  0.3887328683989368  0.2959512960267984  0.9421075312194014
  0.6052530899297468  0.6133193080344813  0.3584201148726009
  0.0204306264767092  0.8069531190929657  0.4508734697254885
  0.7964925079316901  0.0277912003342165  0.7003441005854608
  0.4567816368916289  0.5212103760148934  0.3910971908063442
  0.9569627722309975  0.5270931961676203  0.0327968293015134
  0.4550407572697664  0.3859107177701500  0.7476540805944653
  0.2165012110658910  0.1189249751370920  0.9248846593095447
  0.2636805908634827  0.2626372374293391  0.8081855015582031
  0.4558514186036989  0.5304154931337641  0.2164036396683815
  0.6527316651933255  0.2891346045306453  0.7000814793129490
  0.8677510564176660  0.1122193812684446  0.0355151703743022
  0.1191442153337398  0.9274341589662595  0.0558026359983236
  0.3578552135790630  0.1709712444849891  0.7059091025617051
  0.5751335946866225  0.9491731410279516  0.0696752594130702
  0.8365737548724279  0.5912833577208434  0.3215163727544200
  0.3487998533390201  0.4453214283197311  0.3954686345421309
  0.5812476430115817  0.9230170401739306  0.7073388228028727
  0.0351735541294165  0.3683539816197047  0.2694229745472203
  0.2568141799193194  0.5163206556545056  0.4575274897949943
  0.3422580036319408  0.5530283504194579  0.7689502541854396
  0.4902478763470391  0.6861027384362323  0.9276937409713065
  0.5739060429265473  0.1003060694470999  0.5200517027526257
  0.5940574908232793  0.3716383752735612  0.2838950261600980
  0.9134987868537769  0.1004187296262218  0.1549990564725626
  0.2138623217458056  0.2329738658400399  0.0823565314068646
  0.8836733834904839  0.9678684508376459  0.6239014991192466
  0.2539427695148994  0.3838205436420182  0.8542019432163009
  0.5066266099089838  0.3540531791095725  0.1366353579584266
  0.1907545264950291  0.0064782509121007  0.2421682242870180
  0.5133418217535918  0.9179555380893485  0.3478955726332331
  0.5751355738997810  0.5454195034524940  0.1621742978731993
  0.5702260842057665  0.5019045191594632  0.2906771895285294
  0.1385709055533806  0.0996214674735724  0.3121190155779782
  0.2976669748509218  0.0780272410601039  0.2562787282745774
  0.3324076820739547  0.3162420944765914  0.3876345365420109
  0.2747075073394748  0.0211776400962242  0.0892640661782017
  0.3615862057511671  0.6924405158334345  0.6490694754470860
  0.6342310999781583  0.4856262131949506  0.7082881838473569
  0.9745010640374456  0.0922460868396405  0.9729425663953326
  0.9871733607849279  0.1313446431055356  0.5743476178352562
  0.8123194514449008  0.9255279410338875  0.3459139600686545
  0.5282097177078152  0.4519567497191231  0.8841868373547900
  0.7225106719761656  0.3950245548049271  0.7332975281080999
  0.8274978250886827  0.8285307159763016  0.7850289258291404
  0.5028472505119408  0.4602334871712025  0.5584109217076575
  0.0744168564511839  0.4427026115961702  0.4472322900432825
  0.5861182818738071  0.6381973017536883  0.8564214122041183
  0.3407561208481696  0.7392435906936665  0.2021569246795952
 -0.0003648863909977  0.7454927158269515  0.8599169459437870
  0.8030998010989594  0.2220380535266825  0.0221782804663007
  0.5198585918019544  0.2123505377420451  0.5741439577356269
  0.9879314182763609  0.7302662682630432  0.3564903282437025
  0.2984729485935566  0.2089915983094891  0.9891077091283220
  0.6969429905550554  0.9931613674141617  0.4172155166878226
  0.4605731561946693  0.0425838673041621  0.6817516310878873
  0.5935148698061867  0.2377523989387806  0.0335638590389759
  0.4218777532972220  0.2498001762838387  0.4871360643328946
  0.2348905987286473  0.8613948515940514  0.8818467103555084
  0.6984828773618782  0.8610478313401865  0.0551397976732980
  0.6670427252378530  0.7369648529508861  0.6465874666770277
  0.9364639631272290  0.4207835644932091  0.7519247812163623
  0.2772866986804230  0.5635445700082663  0.9350918043643742
  0.4143324285922647  0.3009283468940160  0.2932249511323274
  0.7180134339085694  0.6441565037004529  0.2950858951992197
  0.9321440435077418  0.6237263742239080  0.3977050000840905
  0.2618566974778136  0.2157912141180549  0.4276416664763382
  0.2810152090864870  0.8978356988335955  0.7573850270544710
  0.8968719164772792  0.7810020560482410  0.6069355329899295
  0.3996413202076838  0.0127555635049349  0.2363321622905729
  0.8010477605064765  0.9442894580392315  0.4735640004260152
 -0.0002941002434583  0.4498662541759445  0.9378126379503795
  0.7576345571035227  0.9369594384822486  0.7790649396665711
  0.0013268276778046  0.9718172928076355  0.0074714539235837
  0.1107846793919828  0.9379659638919197  0.8587377861027579
  0.5978372326891687  0.7251197454143883  0.7625133400979132
  0.6595003249640673  0.5827564699564803  0.6334332281371380
  0.3623174596236046  0.8574768173738264  0.9021623843465085
  0.2552402822093071  0.0062959328811807  0.9649050443657454
  0.4100138710351909  0.8946740423343179  0.4242158108543263
  0.9506573688953327  0.1825888520701155  0.4676647114881781
  0.0542051462358118  0.9136435941294508  0.5877846760353452
  0.7946776437203048  0.5300970912385705  0.1269588836337210
  0.4699691621348000  0.5733195849815929  0.5115766435211507
  0.8711445074692584  0.0844210068396709  0.5721575716104429
  0.4334323595260304  0.5809513982234298  0.6877906115593179
  0.0644810921734756  0.8527673292425155  0.1479200028995503
  0.0182541116470951  0.1103714652549074  0.2866528928813680
  0.6902152617203794  0.1137087835919224  0.4613266606269086
  0.8120347715754552  0.4826842133197463  0.9205639934049746
  0.1984348726366519  0.3830354554329448  0.9637624640394873
  0.4862414023047416  0.2008267345766270  0.2975873668959898
  0.1697047922234483  0.4308039648969040  0.7692574481740933
  0.0318378711970798  0.7751595312411119  0.7450665568695773
  0.6839539548915119  0.8679775628647149  0.6364600981213703
  0.0385501748403666  0.1882565170593540  0.0240988049032056
  0.4567599824467842  0.9936658925003222  0.9633799771842128
  0.9795796390807845  0.9929442454101097  0.4303465142546316
  0.4216769718057345  0.4856854963637620  0.0369977200770273
  0.3016230643133623  0.4682944730851884  0.2771966972011422
  0.5701050489197541  0.9257542917577529  0.1965497256077148
  0.3992852010143716  0.3916741503508239  0.5454072882577718
  0.1602618034584508  0.0918765381206899  0.6202088371131079
  0.8206472133124892  0.0910658563625552  0.8777240494224633
  0.2066459699715631  0.7092796749225162  0.1755004554800320
  0.8970845125806167  0.2912381101078449  0.0829596310128971
  0.5757935551334273  0.3357259421423312  0.4026756142939502
  0.4854537471760417 -0.0027103211805942  0.7922923377105510
  0.2478091424066369  0.5687295218252040  0.0576392121283702
  0.9573117968760020  0.4974128619283214  0.6481446671146025
  0.0057721566161861  0.3667200162213129  0.5171821923274494
  0.7874955290398644  0.5776637923116605  0.7612867315606893
  0.3413598417553457  0.2923341834900040  0.1911059094350950
  0.1506200857155147  0.2185183154935418  0.7827941343105118
  0.7302271161308437  0.7136353230920544  0.4852218758367848
  0.7276188206109889  0.4293876666590685  0.2796566789807943
  0.3958663373098248  0.8718385251931940  0.6126243558292597
  0.6691998512980523  0.6422927309895015  0.9536679635035465
  0.6363377005564990  0.9763216572236955  0.9131083925739328
  0.5962926171546714  0.4347371688042483  0.0981025416531981
  0.7386763591980749  0.2426884295377610  0.3135804424475734
  0.5450622961190599  0.8034682182078592  0.9297497598513365
  0.0868345160113256  0.5367079848318491  0.1841271512127558
  0.8155809845625379  0.3742932283998836  0.6513067316281499
  0.7405993790802956  0.7754079562913252  0.8629585006860014
  0.2913919189399292  0.6872491694024458  0.9108084661540033
  0.3877827643706558  0.6857266550342279  0.0956581029316994
  0.5350499407315854  0.7897575394888251  0.3157690936376934
  0.6152366477729909  0.2908222180003235  0.5822704646781245
  0.3303919084993915  0.6498567134425254  0.2953027003522001
  0.6516800791241090  0.5237063776976632  0.4409468672928399
  0.2057041615190559  0.3559947320321585  0.5338929990904749
  0.8614533242102410  0.3841429497914654  0.3893286859439646
  0.1571726686904398  0.0925272120573421  0.4342738026146911
  0.0973200452780842  0.7730967861771717  0.9286121809094011
  0.1464179335045824  0.3317598153671888  0.1156260106470945
  0.6891509839555841  0.0861329584867864  0.6688175164407988
  0.2307203785939564  0.8410438693634010  0.5718680032908001
  0.1183542607305278  0.8647872897843601  0.4008165036248957
  0.8915514634951838  0.6156383705399542  0.5119516050384427
  0.7499082133936815  0.1675480375790799  0.1273121290453087
  0.5070983045578272  0.0579255355941397  0.4232425654256995
 
  0.00000000E+00  0.00000000E+00  0.00000000E+00
  0.00000000E+00  0.00000000E+00  0.00000000E+00
  0.00000000E+00  0.00000000E+00  0.00000000E+00
  0.00000000E+00  0.00000000E+00  0.00000000E+00
  0.00000000E+00  0.00000000E+00  0.00000000E+00
  0.00000000E+00  0.00000000E+00  0.00000000E+00
  0.00000000E+00  0.00000000E+00  0.00000000E+00
  0.00000000E+00  0.00000000E+00  0.00000000E+00
  0.00000000E+00  0.00000000E+00  0.00000000E+00
  0.00000000E+00  0.00000000E+00  0.00000000E+00
  0.00000000E+00  0.00000000E+00  0.00000000E+00
  0.00000000E+00  0.00000000E+00  0.00000000E+00
  0.00000000E+00  0.00000000E+00  0.00000000E+00
  0.00000000E+00  0.00000000E+00  0.00000000E+00
  0.00000000E+00  0.00000000E+00  0.00000000E+00
  0.00000000E+00  0.00000000E+00  0.00000000E+00
  0.00000000E+00  0.00000000E+00  0.00000000E+00
  0.00000000E+00  0.00000000E+00  0.00000000E+00
  0.00000000E+00  0.00000000E+00  0.00000000E+00
  0.00000000E+00  0.00000000E+00  0.00000000E+00
  0.00000000E+00  0.00000000E+00  0.00000000E+00
  0.00000000E+00  0.00000000E+00  0.00000000E+00
  0.00000000E+00  0.00000000E+00  0.00000000E+00
  0.00000000E+00  0.00000000E+00  0.00000000E+00
  0.00000000E+00  0.00000000E+00  0.00000000E+00
  0.00000000E+00  0.00000000E+00  0.00000000E+00
  0.00000000E+00  0.00000000E+00  0.00000000E+00
  0.00000000E+00  0.00000000E+00  0.00000000E+00
  0.00000000E+00  0.00000000E+00  0.00000000E+00
  0.00000000E+00  0.00000000E+00  0.00000000E+00
  0.00000000E+00  0.00000000E+00  0.00000000E+00
  0.00000000E+00  0.00000000E+00  0.00000000E+00
  0.00000000E+00  0.00000000E+00  0.00000000E+00
  0.00000000E+00  0.00000000E+00  0.00000000E+00
  0.00000000E+00  0.00000000E+00  0.00000000E+00
  0.00000000E+00  0.00000000E+00  0.00000000E+00
  0.00000000E+00  0.00000000E+00  0.00000000E+00
  0.00000000E+00  0.00000000E+00  0.00000000E+00
  0.00000000E+00  0.00000000E+00  0.00000000E+00
  0.00000000E+00  0.00000000E+00  0.00000000E+00
  0.00000000E+00  0.00000000E+00  0.00000000E+00
  0.00000000E+00  0.00000000E+00  0.00000000E+00
  0.00000000E+00  0.00000000E+00  0.00000000E+00
  0.00000000E+00  0.00000000E+00  0.00000000E+00
  0.00000000E+00  0.00000000E+00  0.00000000E+00
  0.00000000E+00  0.00000000E+00  0.00000000E+00
  0.00000000E+00  0.00000000E+00  0.00000000E+00
  0.00000000E+00  0.00000000E+00  0.00000000E+00
  0.00000000E+00  0.00000000E+00  0.00000000E+00
  0.00000000E+00  0.00000000E+00  0.00000000E+00
  0.00000000E+00  0.00000000E+00  0.00000000E+00
  0.00000000E+00  0.00000000E+00  0.00000000E+00
  0.00000000E+00  0.00000000E+00  0.00000000E+00
  0.00000000E+00  0.00000000E+00  0.00000000E+00
  0.00000000E+00  0.00000000E+00  0.00000000E+00
  0.00000000E+00  0.00000000E+00  0.00000000E+00
  0.00000000E+00  0.00000000E+00  0.00000000E+00
  0.00000000E+00  0.00000000E+00  0.00000000E+00
  0.00000000E+00  0.00000000E+00  0.00000000E+00
  0.00000000E+00  0.00000000E+00  0.00000000E+00
  0.00000000E+00  0.00000000E+00  0.00000000E+00
  0.00000000E+00  0.00000000E+00  0.00000000E+00
  0.00000000E+00  0.00000000E+00  0.00000000E+00
  0.00000000E+00  0.00000000E+00  0.00000000E+00
  0.00000000E+00  0.00000000E+00  0.00000000E+00
  0.00000000E+00  0.00000000E+00  0.00000000E+00
  0.00000000E+00  0.00000000E+00  0.00000000E+00
  0.00000000E+00  0.00000000E+00  0.00000000E+00
  0.00000000E+00  0.00000000E+00  0.00000000E+00
  0.00000000E+00  0.00000000E+00  0.00000000E+00
  0.00000000E+00  0.00000000E+00  0.00000000E+00
  0.00000000E+00  0.00000000E+00  0.00000000E+00
  0.00000000E+00  0.00000000E+00  0.00000000E+00
  0.00000000E+00  0.00000000E+00  0.00000000E+00
  0.00000000E+00  0.00000000E+00  0.00000000E+00
  0.00000000E+00  0.00000000E+00  0.00000000E+00
  0.00000000E+00  0.00000000E+00  0.00000000E+00
  0.00000000E+00  0.00000000E+00  0.00000000E+00
  0.00000000E+00  0.00000000E+00  0.00000000E+00
  0.00000000E+00  0.00000000E+00  0.00000000E+00
  0.00000000E+00  0.00000000E+00  0.00000000E+00
  0.00000000E+00  0.00000000E+00  0.00000000E+00
  0.00000000E+00  0.00000000E+00  0.00000000E+00
  0.00000000E+00  0.00000000E+00  0.00000000E+00
  0.00000000E+00  0.00000000E+00  0.00000000E+00
  0.00000000E+00  0.00000000E+00  0.00000000E+00
  0.00000000E+00  0.00000000E+00  0.00000000E+00
  0.00000000E+00  0.00000000E+00  0.00000000E+00
  0.00000000E+00  0.00000000E+00  0.00000000E+00
  0.00000000E+00  0.00000000E+00  0.00000000E+00
  0.00000000E+00  0.00000000E+00  0.00000000E+00
  0.00000000E+00  0.00000000E+00  0.00000000E+00
  0.00000000E+00  0.00000000E+00  0.00000000E+00
  0.00000000E+00  0.00000000E+00  0.00000000E+00
  0.00000000E+00  0.00000000E+00  0.00000000E+00
  0.00000000E+00  0.00000000E+00  0.00000000E+00
  0.00000000E+00  0.00000000E+00  0.00000000E+00
  0.00000000E+00  0.00000000E+00  0.00000000E+00
  0.00000000E+00  0.00000000E+00  0.00000000E+00
  0.00000000E+00  0.00000000E+00  0.00000000E+00
  0.00000000E+00  0.00000000E+00  0.00000000E+00
  0.00000000E+00  0.00000000E+00  0.00000000E+00
  0.00000000E+00  0.00000000E+00  0.00000000E+00
  0.00000000E+00  0.00000000E+00  0.00000000E+00
  0.00000000E+00  0.00000000E+00  0.00000000E+00
  0.00000000E+00  0.00000000E+00  0.00000000E+00
  0.00000000E+00  0.00000000E+00  0.00000000E+00
  0.00000000E+00  0.00000000E+00  0.00000000E+00
  0.00000000E+00  0.00000000E+00  0.00000000E+00
  0.00000000E+00  0.00000000E+00  0.00000000E+00
  0.00000000E+00  0.00000000E+00  0.00000000E+00
  0.00000000E+00  0.00000000E+00  0.00000000E+00
  0.00000000E+00  0.00000000E+00  0.00000000E+00
  0.00000000E+00  0.00000000E+00  0.00000000E+00
  0.00000000E+00  0.00000000E+00  0.00000000E+00
  0.00000000E+00  0.00000000E+00  0.00000000E+00
  0.00000000E+00  0.00000000E+00  0.00000000E+00
  0.00000000E+00  0.00000000E+00  0.00000000E+00
  0.00000000E+00  0.00000000E+00  0.00000000E+00
  0.00000000E+00  0.00000000E+00  0.00000000E+00
  0.00000000E+00  0.00000000E+00  0.00000000E+00
  0.00000000E+00  0.00000000E+00  0.00000000E+00
  0.00000000E+00  0.00000000E+00  0.00000000E+00
  0.00000000E+00  0.00000000E+00  0.00000000E+00
  0.00000000E+00  0.00000000E+00  0.00000000E+00
  0.00000000E+00  0.00000000E+00  0.00000000E+00
  0.00000000E+00  0.00000000E+00  0.00000000E+00
  0.00000000E+00  0.00000000E+00  0.00000000E+00
  0.00000000E+00  0.00000000E+00  0.00000000E+00
  0.00000000E+00  0.00000000E+00  0.00000000E+00
  0.00000000E+00  0.00000000E+00  0.00000000E+00
  0.00000000E+00  0.00000000E+00  0.00000000E+00
  0.00000000E+00  0.00000000E+00  0.00000000E+00
  0.00000000E+00  0.00000000E+00  0.00000000E+00
  0.00000000E+00  0.00000000E+00  0.00000000E+00
  0.00000000E+00  0.00000000E+00  0.00000000E+00
  0.00000000E+00  0.00000000E+00  0.00000000E+00
  0.00000000E+00  0.00000000E+00  0.00000000E+00
  0.00000000E+00  0.00000000E+00  0.00000000E+00
  0.00000000E+00  0.00000000E+00  0.00000000E+00
  0.00000000E+00  0.00000000E+00  0.00000000E+00
  0.00000000E+00  0.00000000E+00  0.00000000E+00
  0.00000000E+00  0.00000000E+00  0.00000000E+00
  0.00000000E+00  0.00000000E+00  0.00000000E+00
  0.00000000E+00  0.00000000E+00  0.00000000E+00
  0.00000000E+00  0.00000000E+00  0.00000000E+00
  0.00000000E+00  0.00000000E+00  0.00000000E+00
  0.00000000E+00  0.00000000E+00  0.00000000E+00
  0.00000000E+00  0.00000000E+00  0.00000000E+00
  0.00000000E+00  0.00000000E+00  0.00000000E+00
  0.00000000E+00  0.00000000E+00  0.00000000E+00
  0.00000000E+00  0.00000000E+00  0.00000000E+00
  0.00000000E+00  0.00000000E+00  0.00000000E+00
  0.00000000E+00  0.00000000E+00  0.00000000E+00
  0.00000000E+00  0.00000000E+00  0.00000000E+00
  0.00000000E+00  0.00000000E+00  0.00000000E+00
  0.00000000E+00  0.00000000E+00  0.00000000E+00
  0.00000000E+00  0.00000000E+00  0.00000000E+00
  0.00000000E+00  0.00000000E+00  0.00000000E+00
  0.00000000E+00  0.00000000E+00  0.00000000E+00
  0.00000000E+00  0.00000000E+00  0.00000000E+00
  0.00000000E+00  0.00000000E+00  0.00000000E+00
  0.00000000E+00  0.00000000E+00  0.00000000E+00
  0.00000000E+00  0.00000000E+00  0.00000000E+00
  0.00000000E+00  0.00000000E+00  0.00000000E+00
  0.00000000E+00  0.00000000E+00  0.00000000E+00
  0.00000000E+00  0.00000000E+00  0.00000000E+00
  0.00000000E+00  0.00000000E+00  0.00000000E+00
  0.00000000E+00  0.00000000E+00  0.00000000E+00
  0.00000000E+00  0.00000000E+00  0.00000000E+00
  0.00000000E+00  0.00000000E+00  0.00000000E+00
  0.00000000E+00  0.00000000E+00  0.00000000E+00
  0.00000000E+00  0.00000000E+00  0.00000000E+00
  0.00000000E+00  0.00000000E+00  0.00000000E+00
  0.00000000E+00  0.00000000E+00  0.00000000E+00
  0.00000000E+00  0.00000000E+00  0.00000000E+00
  0.00000000E+00  0.00000000E+00  0.00000000E+00
  0.00000000E+00  0.00000000E+00  0.00000000E+00
  0.00000000E+00  0.00000000E+00  0.00000000E+00
  0.00000000E+00  0.00000000E+00  0.00000000E+00
  0.00000000E+00  0.00000000E+00  0.00000000E+00
  0.00000000E+00  0.00000000E+00  0.00000000E+00
  0.00000000E+00  0.00000000E+00  0.00000000E+00
  0.00000000E+00  0.00000000E+00  0.00000000E+00
  0.00000000E+00  0.00000000E+00  0.00000000E+00
  0.00000000E+00  0.00000000E+00  0.00000000E+00
  0.00000000E+00  0.00000000E+00  0.00000000E+00
  0.00000000E+00  0.00000000E+00  0.00000000E+00
  0.00000000E+00  0.00000000E+00  0.00000000E+00
  0.00000000E+00  0.00000000E+00  0.00000000E+00
  0.00000000E+00  0.00000000E+00  0.00000000E+00
  0.00000000E+00  0.00000000E+00  0.00000000E+00
  0.00000000E+00  0.00000000E+00  0.00000000E+00
  0.00000000E+00  0.00000000E+00  0.00000000E+00
  0.00000000E+00  0.00000000E+00  0.00000000E+00
  0.00000000E+00  0.00000000E+00  0.00000000E+00
  0.00000000E+00  0.00000000E+00  0.00000000E+00
  0.00000000E+00  0.00000000E+00  0.00000000E+00
  0.00000000E+00  0.00000000E+00  0.00000000E+00
  0.00000000E+00  0.00000000E+00  0.00000000E+00
  0.00000000E+00  0.00000000E+00  0.00000000E+00
  0.00000000E+00  0.00000000E+00  0.00000000E+00
  0.00000000E+00  0.00000000E+00  0.00000000E+00
  0.00000000E+00  0.00000000E+00  0.00000000E+00
  0.00000000E+00  0.00000000E+00  0.00000000E+00
  0.00000000E+00  0.00000000E+00  0.00000000E+00
  0.00000000E+00  0.00000000E+00  0.00000000E+00
  0.00000000E+00  0.00000000E+00  0.00000000E+00
  0.00000000E+00  0.00000000E+00  0.00000000E+00
  0.00000000E+00  0.00000000E+00  0.00000000E+00
  0.00000000E+00  0.00000000E+00  0.00000000E+00
  0.00000000E+00  0.00000000E+00  0.00000000E+00
  0.00000000E+00  0.00000000E+00  0.00000000E+00
  0.00000000E+00  0.00000000E+00  0.00000000E+00
  0.00000000E+00  0.00000000E+00  0.00000000E+00
  0.00000000E+00  0.00000000E+00  0.00000000E+00
  0.00000000E+00  0.00000000E+00  0.00000000E+00
  0.00000000E+00  0.00000000E+00  0.00000000E+00
  0.00000000E+00  0.00000000E+00  0.00000000E+00
  0.00000000E+00  0.00000000E+00  0.00000000E+00
  0.00000000E+00  0.00000000E+00  0.00000000E+00
  0.00000000E+00  0.00000000E+00  0.00000000E+00
  0.00000000E+00  0.00000000E+00  0.00000000E+00
  0.00000000E+00  0.00000000E+00  0.00000000E+00
  0.00000000E+00  0.00000000E+00  0.00000000E+00
  0.00000000E+00  0.00000000E+00  0.00000000E+00
  0.00000000E+00  0.00000000E+00  0.00000000E+00
  0.00000000E+00  0.00000000E+00  0.00000000E+00
  0.00000000E+00  0.00000000E+00  0.00000000E+00
  0.00000000E+00  0.00000000E+00  0.00000000E+00
  0.00000000E+00  0.00000000E+00  0.00000000E+00
  0.00000000E+00  0.00000000E+00  0.00000000E+00