Amorphous GeAsSeSi                      
   1.00000000000000     
    19.8006389350976661    0.0000000000000000    0.0000000000000000
     0.0000000000000000   19.8006389350976661    0.0000000000000000
     0.0000000000000000    0.0000000000000000   19.8006389350976661
   Si   Te
   120   120
Direct
  0.4251588840707826  0.6699964981754692  0.7242880796730917
  0.9385131297833875  0.6885099587439099  0.0132946240197548
  0.4898989399148811  0.2903837950737964  0.7088150766223759
  0.9846124748046861  0.9405260990887213  0.6273278048027384
  0.4714539430511426  0.0441205984485071  0.3066358484979588
  0.2320800766367598  0.6085443558417484  0.5178725228766314
  0.5691638482049243  0.7434382247516477  0.3734356298736287
  0.3010729308322636  0.5531058431848394  0.6089288977978197
  0.0170087344984059  0.4547290208884880  0.8509730472255910
  0.9372743641372312  0.8764328505660955  0.7174065897378571
  0.9909300929469331  0.8579671714005426  0.5378500783242327
  0.1018081566654048  0.3819723260387200  0.0349176170743880
  0.4310799807444941  0.4484200505939502  0.0895902164620531
  0.3283279048539678  0.6012820803193343  0.7204448485559676
  0.2045797329281558  0.9014867759373285  0.5177947756213067
  0.1451864133982087  0.9795387534720210  0.5717398146158613
  0.0339388239482074  0.8622309938459206  0.0577530396903959
  0.0112635044177434  0.6432327560218178  0.8302855486711519
  0.6334980293176831  0.8355150742576447  0.0981378862728130
  0.0949685716923901  0.7758964148475764  0.8679511241632020
  0.3333144975137953  0.4236426886918183  0.2662620177798937
  0.1048671666979530  0.5649816638640230  0.7041855962297237
  0.5473706587211673  0.4603717025379979  0.9204643335546552
  0.8654213970798827  0.5450699670115643  0.7110516256128615
  0.9727367341789869  0.7324136479734130  0.1179685777752962
  0.1727225434536790  0.5559416698745792  0.4250751240555256
  0.5015368863427822  0.0995239755326147  0.1309949168760939
  0.4967686845633734  0.8479389985118773  0.2584026137837809
  0.0311290181651822  0.1110781830109608  0.5998853284992348
  0.2770939825418732  0.2033902724007740  0.2864219471282222
  0.0864855602572094  0.9703093906407492  0.6749989082269028
  0.8606658850241983  0.2651000557626603  0.1543035610009326
  0.0041899673337563  0.3824084421546813  0.1184051884918084
  0.8349899416350642  0.7273206273908148  0.9695953322701399
  0.8820931844174964  0.4250430209824133  0.7142931621926404
  0.8902320062803490  0.0643492709418033  0.7268375967450559
  0.9289530189896312  0.0446703952231493  0.6141122168113181
  0.1020186154960980  0.1739675209416335  0.9113954421146607
  0.4770085282170746  0.1526210557057432  0.2383615131193401
  0.0063211477036925  0.0399111601885151  0.3176322074521630
  0.2784557881157756  0.4486399788001953  0.0443150868268190
  0.8229356626679740  0.3268615957093904  0.3598473089086733
  0.4308390277712074  0.9472305190028225  0.2459974067419706
  0.7440180456330674  0.4365445928788728  0.1238374459596364
  0.3755671358590513  0.2528708429878599  0.6927792370544759
  0.0067323829588506  0.9977828183812678  0.4348546364199815
  0.9935966047062940  0.0447355662618897  0.7957852355671768
  0.8484081632275129  0.1668191543845416  0.7760354371746384
  0.7376387021743149  0.7934401688044157  0.9981581406370984
  0.9924506375396934  0.7283148209045377  0.9155402215889190
  0.5292427880809161  0.2662630422700543  0.5935337168294235
  0.0521014863164951  0.3256158458334549  0.5709635722640121
  0.2593379718151288  0.4343227444932952  0.7667112579235380
  0.1527935816946754  0.8795373031992868  0.4103828942283482
  0.6967134399261373  0.8850310274348923  0.2731871039857501
  0.6252789014405029  0.7011984113146705  0.6654771754368476
  0.5471174062133172  0.7539203075635689  0.5994318155010459
  0.8721595658430616  0.2023645147786845  0.5229790687674054
  0.1994920726259523  0.4345367562168641  0.8749536004200259
  0.4878362447613980  0.7643653529966876  0.8696784882506839
  0.2521836779508549  0.7990524909215347  0.5532135871221961
  0.8002331087745491  0.2743871816707724  0.5839086910886444
  0.9794573910709182  0.7530356056793676  0.5938080609219599
  0.0914797761492342  0.8893323492936622  0.8631390840604746
  0.9071992953154900  0.4996796363038101  0.8712173887656713
  0.9055297239458107  0.6018734338387016  0.8035433507410848
  0.4810663841901035  0.0838580139138362  0.5012308462134472
  0.4382373584077982  0.4490273548898200  0.2087341262736643
  0.7452795409989680  0.6897077958460275  0.7237141507081196
  0.0624500443488363  0.6886059922831889  0.5442073992035851
  0.2642654998700170  0.7271134060871463  0.3282264575886403
  0.0392669780165815  0.8813780258788404  0.4316531880172337
  0.4602070832517628  0.1116805821165321  0.6691103947750119
  0.4910017478779021  0.3995986911575123  0.8358978850090849
  0.9524055496992970  0.7554353237916305  0.7090905966866182
  0.6885507220204420  0.7069271713271490  0.8353805101019078
  0.4992790524116621  0.5386983582269758  0.2608716726889034
  0.8901861215485862  0.7741835795738475  0.8720162148218656
  0.8155923357419879  0.9872390018264131  0.7754671829423311
  0.7394751702618678  0.8920889771767374  0.0732142050274025
  0.0896200334347604  0.0645611965855566  0.5023467022120381
  0.2391536902191918  0.6085132190560739  0.3364212002184532
  0.1774896320044956  0.7166199208786141  0.5130776940563236
  0.6694040624447809  0.9005809497295761  0.3877762469774238
  0.0100333107934150  0.6723741580999468  0.4313217314966754
  0.3202577751669444  0.4677042880247959  0.4548785388555744
  0.0955095102067804  0.3857806533111362  0.9118373357100964
  0.4653018430591047  0.7426269007273719  0.3149374959944166
  0.4411830442938885  0.7720863977288106  0.6683750480140921
  0.1736875036288576  0.7649676517600345  0.4049819421166524
  0.4461374669078820  0.1813798398727120  0.5685675559114336
  0.9241570114459720  0.8146171327690535  0.0444100042351921
  0.6327799516244588  0.7330382716118435  0.2705062364556197
  0.3634594216620055  0.7860882628815902  0.3624555207077067
  0.6071384884198088  0.8435992801720590  0.2191391876043624
  0.8514223044984172  0.0793625996727773  0.5238589111189209
  0.0452671624901081  0.9453568231800080  0.2604402969702085
  0.8887536764729834  0.4364956861980168  0.2463381437858947
  0.5916432077736589  0.0557336159548846  0.2967681380285606
  0.9948428083107608  0.1358671312636454  0.8830551655694554
  0.4630644720247010  0.8164912956922081  0.9800833052168758
  0.2499848639633629  0.6559157706156403  0.7989779539574839
  0.0780049739495829  0.7258047581857330  0.3470014762667791
  0.0595573923418671  0.7331719812003027  0.7684725013226766
  0.5740414678049218  0.6767695036351743  0.8655114152904879
  0.4036613015538988  0.0463771373049953  0.0806011202794019
  0.8177064627862406  0.6213420313286185  0.1560815050723015
  0.6997629057857614  0.3139792876398138  0.5394503677217185
  0.1449159061093567  0.1436863839965472  0.4295073396081643
  0.8769308956540413  0.7397231755897196  0.5373189546324142
  0.8574897775567409  0.7104085604943815  0.7766296042946537
  0.9001235019794767  0.4327387782758626  0.0913284467722249
  0.8229912526933350  0.3361743789705051  0.2343402972721427
  0.6310336415704773  0.6100586006613163  0.2526769615201714
  0.9920511280261349  0.9290665135693218  0.8161941584256652
  0.7901103591802320  0.6826386109696035  0.6013682072466109
  0.8934133472556677  0.0251523126976378  0.4230040437451482
  0.8455215444898601  0.5034182975446344  0.1636645319022805
  0.0773487669582265  0.5496889935839192  0.8255195480526935
  0.4841851000209662  0.8213387527303587  0.7701796689491286
  0.6339884672259419  0.0617286887429156  0.9843738733332116
  0.7118759746110916  0.5017992895773669  0.0167219613536357
  0.3606049971929624  0.5422794232599795  0.0442612101907929
  0.7931027570845136  0.1133568662058689  0.8797772197179727
  0.3516257719455333  0.1379616896835231  0.7395817113608474
  0.7531409319950906  0.7655315188009035  0.2707980018389777
  0.8594509323666417  0.8724631958141909  0.5174052323730662
  0.0156382264628719  0.4073131371784430  0.7293656345575739
  0.4091565968805457  0.0147660638294810  0.4093535191953633
  0.6970871818576440  0.3654523838981384  0.2219449039763881
  0.9650118085215782  0.2251870036117151  0.6142606090069109
  0.2187245428257397  0.7524951161505844  0.8828697594148466
  0.2733395979767979  0.0056709545326838  0.5564772110260114
  0.1619866122192378  0.9641832207595404  0.3162163424808815
  0.1881754236746662  0.4721393599800550  0.6632557462543738
  0.8208726021920228  0.3416788403575440  0.0508835902501594
  0.9977878660609524  0.8273557396219454  0.3197006553747052
  0.6671357268293041  0.7146487793380991  0.0596882834839243
  0.5619634377358953  0.1404675861522846  0.7366090057395309
  0.0601805632446006  0.1973371369985244  0.0300346283088014
  0.3515566582231573  0.8624548215221949  0.9692596586830123
  0.8871088622713736  0.6949814227422839  0.4171564706776287
  0.1115459692810184  0.9407544809337477  0.9787803749636275
  0.8376992482752820  0.3961611292801686  0.8304555760750698
  0.9172673141222564  0.5245236422381852  0.9959261947775625
  0.9179692136236990  0.1167157092416452  0.9771814800282397
  0.8120857857662274  0.1569612882323974  0.1618243504163101
  0.0132980271767939  0.4550392197431609  0.2270491798201878
  0.8339849643177097  0.9162131107958745  0.3730963435778348
  0.6060895982345136  0.8444334637309890  0.7303028162108897
  0.5820384554273992  0.9989044427569667  0.1764260742888702
  0.3393385157550587  0.2550301507157579  0.5688868468594676
  0.1909364658095832  0.5671439029517469  0.8910329857187406
  0.7798301001666352  0.2565098231535283  0.7266680362286884
  0.5524542152099869  0.9002370377417853  0.0147747674825298
  0.9873717263533566  0.2652859171985594  0.1672943363329515
  0.6749168134856299  0.6483749913621590  0.5545953927259764
  0.6176203368587203  0.8549837315463843  0.5723930511065448
  0.4023933451429598  0.4161291218308009  0.3703984109311756
  0.0480756985412304  0.5584768210436513  0.3886100745308864
  0.8900923343791105  0.9138783572129071  0.8910949909014472
  0.8702315863239304  0.3804108971525225  0.5886760850646161
  0.3704934550481990  0.7767983135612411  0.4928493006798091
  0.3713322976163078  0.9361780250423802  0.1339405265800438
  0.6752938399803793  0.0297325939643240  0.4121701696162273
  0.4140890631223706  0.6362432767194002  0.2607060176887221
  0.8643070647463906  0.4519158752555308  0.3713725704980106
  0.9111186545256239  0.2480864065114951  0.4110059154114036
  0.1619579463382450  0.9030080517490732  0.7585139329600704
  0.8488156601489166  0.8709406830787761  0.1336117808910592
  0.3069370605780218  0.1332814451261618  0.0836137726106832
  0.3530771721285783  0.4411764100069598  0.5756918191817899
  0.3983439429466212  0.2513567616479555  0.2550528171730052
  0.5307490420878020  0.3605803801860141  0.5070495093847905
  0.9372319227109799  0.6665449434363062  0.2215810221337372
  0.5832642476340149  0.4780266758755273  0.5936097719326584
  0.3395061580950441  0.3538895912463080  0.1115195109767193
  0.6934885230137152  0.7983629793366730  0.4646231201899811
  0.0954547264996302  0.0956409216148812  0.7232233359532798
  0.2880324054314748  0.3763568536870572  0.9369328824162065
  0.1453022102655157  0.2685865485866658  0.4785174806482992
  0.4765891895623405  0.2504093042753954  0.4183786883257113
  0.7404643564725966  0.5560970474504325  0.7339941779548248
  0.3871059623193897  0.6838522437047115  0.8559913910728961
  0.4303985769337794  0.6026851793376313  0.5977663764716400
  0.5462074215698024  0.6203189730895804  0.7443729979101554
  0.7072074610337907  0.8283760209854651  0.8810309717959437
  0.7171240057753437  0.4315449148093079  0.6027364088738708
  0.7541961604021905  0.5826040392520213  0.2664530609326315
  0.1970315148317215  0.4357196431663320  0.4196167267317444
  0.5687649246561108  0.5558764070325756  0.1570238758249709
  0.4797632131672950  0.9434931517890301  0.8001856978343765
  0.2470654175383102  0.5262868506065065  0.2398090140806801
  0.2335790623765846  0.1173696591163744  0.1977398150234146
  0.1641177216692492  0.4881134001346448  0.0797822763192691
  0.5129052686027786  0.6880927277949495  0.4852613970926220
  0.0567559009376760  0.5640684741866349  0.5798919657769837
  0.3585692993372420  0.9862737320284548  0.8790187066056226
  0.8774797555332685  0.5907604869617159  0.5880390605013421
  0.5973542456130516  0.1910959115549508  0.2624905352169801
  0.0889411487093008  0.1409676073806423  0.3090446586006581
  0.2300720254019447  0.3251567184506253  0.2718263400709473
  0.2140204739633405  0.7586292727370374  0.2140831859473903
  0.2699384047041824  0.1419824998372742  0.4016957180696048
  0.4941825541780223  0.0004091199595154  0.6094092387469772
  0.5281432941369503  0.3981682633138835  0.0262992383310952
  0.7048536508558778  0.0375206625955664  0.7921227096535917
  0.7628798045553055  0.6320507614090658  0.9120153721204209
  0.8968899589781270  0.0971586010504289  0.3110918173037741
  0.1577136225534066  0.6816463613845752  0.7003123906233292
  0.2810768039301024  0.3027868389131823  0.7713166852512306
  0.5706166365154383  0.1681326286581773  0.0487226580114174
  0.5415108656992019  0.8776880328027024  0.3798373439286503
  0.6731705715473801  0.4242146697035924  0.9081546628698625
  0.7512550292420823  0.0154731423017029  0.0446982836889373
  0.7724961107023245  0.9806664886794018  0.2410592701281795
  0.4430423897725445  0.0652070907781055  0.9614303972653534
  0.5148356379012100  0.3454173342576560  0.1958877078120470
  0.3264488177552730  0.8911035141482709  0.3015181995744660
  0.1219443007879694  0.6554486918652527  0.2492542943030584
  0.5342616117236224  0.5877179207087754  0.9575470192240890
  0.4046331244371057  0.7513401305156999  0.0661692283722965
  0.3361909485365195  0.5924271222708513  0.4309904574967533
  0.9482701430542844  0.2344943084180684  0.8196755879554328
  0.5767237319573244  0.5551731765161030  0.3565839602929716
  0.6982107602105857  0.3030309971312283  0.4117967726403290
  0.6439799591421612  0.2188165225736890  0.6010055716554733
  0.3012900982747670  0.7910473942634290  0.6689115050280301
  0.3603625557599499  0.5014174745488423  0.7989723803086222
  0.1698914935695987  0.2580842242693190  0.6197957579799404
  0.0490927915597528  0.9612937976867542  0.1343522425240365
  0.1669580061823489  0.2853535049665600  0.0804401910380705
  0.5650322656744134  0.1448804591768521  0.4261422204873256
  0.5406124347079988  0.2852160964912044  0.8273215820651699
  0.1207206320212335  0.2847535850492261  0.8408861733573331
  0.1893803236884044  0.0881309898992754  0.8695578250055135
  0.4917889273632438  0.4238867206570333  0.7043130752335356
  0.7372362922948380  0.0509362057734744  0.5661257760212709
  0.1022265782429924  0.7612094055098605  0.0838947160189373
  0.8080365728950171  0.8785275672167631  0.7032788431374813
 
 -0.39441310E-02 -0.12289493E-02  0.53441974E-02
  0.21240847E-02 -0.18096867E-03 -0.15789541E-02
 -0.29280169E-02 -0.33883397E-02  0.19599869E-03
 -0.14985921E-02  0.67190486E-02  0.21588503E-02
 -0.31424789E-02  0.16293874E-02 -0.14400472E-02
  0.67780939E-03 -0.51352715E-03  0.44518751E-02
  0.20384045E-02 -0.11762202E-02  0.25316822E-02
 -0.26740169E-02 -0.74410383E-02 -0.36275805E-02
  0.29419778E-02 -0.12062861E-02  0.21548756E-02
 -0.11897497E-02  0.13153676E-02  0.55610306E-03
  0.46597638E-02  0.53202908E-02  0.12142248E-03
 -0.63862539E-02  0.64318646E-03 -0.16227844E-02
 -0.15083047E-02  0.17932726E-02  0.16901867E-02
  0.11800699E-02 -0.49222026E-02  0.41126995E-02
  0.40306795E-02 -0.34277582E-02 -0.17807539E-02
 -0.29230695E-02  0.55707952E-02  0.34294885E-03
 -0.21095854E-02 -0.41789793E-02 -0.45862344E-02
  0.33384363E-02  0.32771851E-02 -0.30399383E-02
 -0.27749385E-02  0.29472275E-02  0.49636800E-02
 -0.17765359E-02 -0.35648321E-02  0.22410886E-02
 -0.16624958E-02 -0.37695966E-02 -0.50947943E-02
  0.34238890E-02  0.15462222E-02 -0.14122026E-02
 -0.35500973E-02  0.20774675E-02 -0.19842324E-02
  0.63530934E-03  0.13276201E-02  0.34639273E-02
 -0.15294055E-02  0.17959039E-02  0.11688304E-02
 -0.36208054E-02 -0.87826510E-03 -0.59190988E-02
  0.35696939E-02  0.32582867E-02  0.59638596E-02
 -0.26420851E-02 -0.48237419E-02  0.28851494E-02
 -0.11565742E-02  0.42542729E-03 -0.16586651E-02
  0.26200545E-02  0.58512700E-03 -0.58289599E-03
 -0.80514709E-03  0.34780301E-02 -0.12108921E-02
  0.25712712E-02  0.39823860E-02  0.12147673E-02
  0.23301933E-02 -0.54591347E-03 -0.64566587E-02
 -0.71023315E-03  0.11901199E-02 -0.45777371E-02
 -0.50273740E-02 -0.13598799E-02 -0.31202156E-02
 -0.24357532E-02  0.55463834E-02  0.17044269E-02
 -0.41015849E-02 -0.15936190E-02  0.30868483E-02
  0.47335106E-02 -0.17699232E-02  0.89061763E-03
  0.30363176E-03  0.30962237E-02  0.25881423E-03
 -0.23030296E-02  0.19432179E-02  0.20117439E-03
  0.22812230E-02  0.34116925E-02 -0.52705139E-02
  0.24021027E-02  0.37852554E-03  0.37432958E-02
 -0.67156451E-03  0.68933110E-03  0.18747527E-02
  0.40242334E-02  0.46433322E-03  0.18973791E-02
 -0.12179176E-02 -0.42729312E-02  0.20719580E-02
  0.16583370E-02 -0.16011783E-02 -0.29895418E-03
 -0.21635264E-02  0.74631826E-03  0.30382014E-02
  0.30137105E-02  0.85931114E-03  0.14942525E-03
  0.71706801E-03 -0.81754170E-03 -0.71747311E-03
  0.57884304E-02 -0.10697684E-02  0.31581443E-02
  0.31507909E-03  0.18918112E-02  0.34094430E-02
 -0.18852002E-02 -0.50826663E-02 -0.52529936E-02
  0.21538478E-02 -0.28520691E-02  0.34334168E-03
  0.17274046E-02 -0.21931233E-02 -0.18597367E-03
 -0.81582293E-03  0.15105525E-03  0.45691852E-03
 -0.30873407E-02  0.14384392E-02  0.26534635E-02
  0.11279792E-02 -0.49809508E-02  0.23445330E-02
  0.41386729E-03  0.78225865E-04  0.45818866E-03
  0.27739974E-02 -0.19700612E-02 -0.82568725E-03
  0.10233148E-02  0.15149017E-02  0.52954189E-02
 -0.27222506E-02 -0.92298928E-03 -0.17989810E-02
  0.35058607E-03  0.10300940E-02 -0.38748680E-02
  0.39483461E-02  0.53190636E-03 -0.27739641E-02
 -0.32416812E-02 -0.22233560E-02  0.29552509E-02
  0.21358791E-02  0.66528132E-03 -0.52016535E-02
 -0.55541133E-02  0.31425951E-02 -0.31911060E-02
 -0.17741052E-02 -0.22027764E-02  0.32298644E-02
 -0.21455336E-02  0.37589624E-02  0.67390119E-02
  0.42726283E-03 -0.42200944E-02  0.50197817E-02
 -0.16906694E-02  0.22459585E-02 -0.37410171E-02
  0.45569558E-02  0.63887571E-03 -0.41906068E-02
  0.30156894E-02 -0.68767236E-03  0.42785382E-03
 -0.65854944E-03 -0.12832163E-02 -0.31511714E-02
  0.24036279E-02 -0.14545271E-02  0.20299640E-02
 -0.11176316E-02 -0.44634262E-02 -0.54032660E-02
 -0.18283343E-02  0.20902174E-02  0.63224403E-02
 -0.68148452E-03 -0.40982989E-02  0.40595742E-02
 -0.56673668E-02 -0.27491640E-02  0.38536218E-02
 -0.30200741E-02 -0.35774528E-02 -0.86547469E-03
 -0.35883511E-02 -0.13489624E-02  0.21852953E-03
 -0.27137440E-02 -0.87597386E-03  0.20130033E-02
  0.46589429E-03  0.46298479E-02  0.82145730E-03
 -0.21170393E-02  0.38026077E-02 -0.77067824E-03
  0.32797987E-02 -0.38321415E-02  0.17053818E-02
  0.50914219E-03 -0.15115381E-02  0.37493228E-03
 -0.70642850E-03 -0.34304819E-02 -0.22924247E-02
 -0.36232710E-02  0.33455677E-02 -0.29165587E-03
  0.51270496E-02 -0.49311136E-02 -0.37980589E-02
 -0.20087472E-02  0.47928723E-03  0.38715798E-03
 -0.34900328E-03 -0.32707172E-02 -0.16101927E-02
  0.38432109E-02 -0.27616180E-02 -0.25514554E-02
 -0.33742289E-02 -0.19756676E-02 -0.20235557E-02
 -0.49628795E-02 -0.10685599E-02  0.22140236E-02
  0.27233717E-02 -0.24411158E-02  0.62805844E-02
 -0.59234111E-03 -0.28141335E-02 -0.48492740E-02
  0.16188197E-02  0.26794360E-02 -0.61044231E-03
  0.43553773E-02 -0.10954196E-02  0.15489049E-02
  0.25363505E-02  0.23087445E-02  0.20245283E-02
 -0.13478155E-02  0.29372366E-03  0.58642580E-02
  0.14589979E-02  0.34697407E-02 -0.46724077E-02
  0.43551255E-02  0.77837653E-03 -0.77805069E-03
  0.98141000E-03  0.26933030E-02 -0.13412021E-02
  0.35026330E-02 -0.17450463E-03  0.42543825E-02
 -0.65692970E-02  0.13238061E-02 -0.47175455E-02
 -0.18416705E-02  0.24526561E-02  0.31843787E-02
 -0.17083688E-02  0.35486147E-03  0.29426654E-02
 -0.13123400E-02 -0.15885936E-02 -0.30801408E-02
 -0.27597100E-02  0.28274141E-02 -0.49536183E-03
 -0.19032492E-02 -0.84688900E-04 -0.68574768E-03
  0.82259714E-03  0.43230977E-03 -0.41588126E-02
  0.10166732E-02  0.27340592E-02 -0.36426220E-02
 -0.40712555E-02 -0.14078559E-02 -0.51866259E-02
  0.43164343E-03  0.12463382E-02  0.14188700E-02
  0.24020036E-02  0.69869573E-03 -0.63773661E-02
 -0.43017327E-02  0.46461973E-03 -0.10226591E-02
  0.43448038E-02  0.25463352E-02 -0.39437714E-03
 -0.60683602E-02  0.19194066E-03  0.28196155E-02
  0.33212754E-02  0.22552126E-02  0.29645421E-02
  0.34214597E-02 -0.25413379E-02 -0.14063263E-02
 -0.10837499E-02 -0.75630533E-03  0.45029988E-02
 -0.10035477E-02 -0.18227291E-02 -0.12697682E-02
  0.61736807E-03 -0.16077608E-02  0.12682334E-02
 -0.17036047E-02 -0.47180992E-03  0.66400856E-03
 -0.15435070E-02 -0.77429701E-03  0.62816210E-04
  0.31274268E-02  0.13981771E-02  0.47396079E-03
  0.17441790E-02 -0.63318130E-03  0.13352577E-02
  0.29029223E-02  0.97760866E-04  0.74553850E-03
 -0.55358553E-03  0.23246073E-02 -0.11215637E-02
  0.22654596E-03  0.19596277E-02 -0.22570713E-02
 -0.33773292E-02 -0.45390138E-03  0.17116675E-02
  0.57395121E-03 -0.44330330E-03 -0.23323222E-02
 -0.39072237E-03 -0.14476003E-02  0.33927904E-02
 -0.13344627E-02  0.31487725E-03 -0.30344761E-02
 -0.14936879E-03 -0.63371542E-03 -0.50176197E-03
 -0.12675745E-02  0.15326431E-03 -0.21445210E-02
  0.33776670E-03  0.20711219E-02 -0.13777045E-02
 -0.29881769E-02  0.16974763E-02 -0.55612471E-03
  0.91777488E-03 -0.25432674E-03  0.33646659E-03
  0.14085700E-02  0.10711486E-02  0.17588889E-03
  0.23786041E-02 -0.17090000E-02 -0.18952744E-02
  0.17242425E-02 -0.64500702E-03  0.78221697E-03
  0.15037333E-02  0.18560575E-03 -0.33063368E-03
  0.12078515E-03  0.24996286E-02  0.42613132E-03
  0.41099928E-03  0.13075723E-02 -0.65382085E-04
  0.79429471E-03 -0.69262246E-03  0.27568099E-02
 -0.19774672E-03 -0.23128524E-02  0.36969091E-03
 -0.22395154E-02 -0.15779560E-02 -0.65224913E-03
 -0.85600023E-03  0.90354431E-03 -0.11832868E-02
 -0.12770812E-02 -0.13596894E-03  0.12433501E-02
 -0.30321433E-03  0.73482237E-03 -0.19660159E-02
 -0.72527035E-03  0.12425354E-02 -0.24059897E-03
  0.12561088E-02  0.15236760E-02 -0.22022137E-03
 -0.39160939E-03 -0.86549202E-03 -0.13410865E-02
  0.24919195E-02 -0.24508058E-02  0.15103140E-02
 -0.39722589E-02 -0.24435829E-03 -0.11419638E-02
  0.96744335E-03 -0.15520456E-02  0.26396867E-02
  0.15245532E-02  0.62246024E-03  0.44562883E-03
  0.69849895E-03 -0.20735854E-02  0.16976366E-03
  0.49788543E-03  0.10992812E-02  0.79345651E-03
 -0.45659977E-03  0.16573057E-02 -0.74260172E-03
  0.26526804E-02  0.32748521E-03  0.28792503E-02
  0.26513255E-02 -0.61545251E-03  0.49832450E-03
 -0.33240070E-02  0.12342114E-02 -0.24834777E-03
 -0.91799055E-03 -0.48529891E-03  0.11058702E-04
 -0.12505962E-02  0.36901741E-05 -0.10490339E-02
 -0.17623166E-02 -0.10880585E-02 -0.10855000E-02
 -0.43738986E-03 -0.33102058E-03 -0.49047744E-03
 -0.39432987E-03  0.40862526E-03  0.79654121E-03
  0.47292545E-03  0.13561463E-02  0.46496664E-03
  0.37588759E-03 -0.28869127E-02 -0.89027949E-03
 -0.17848794E-02 -0.11691916E-02  0.12630542E-03
 -0.49588617E-05 -0.31906576E-02  0.18451246E-02
  0.40847439E-03 -0.52689585E-03  0.18386581E-02
 -0.56941848E-03 -0.82140561E-03  0.51886471E-03
 -0.81193421E-03 -0.79664283E-03  0.35382341E-02
 -0.50132755E-03 -0.50473131E-03 -0.23591382E-02
  0.61617169E-03 -0.19857409E-04 -0.76227083E-03
 -0.33980950E-03  0.24267337E-03 -0.20655951E-03
 -0.25544245E-02  0.80511163E-03 -0.21170750E-02
  0.97303412E-03 -0.13523834E-02 -0.10730264E-02
 -0.10953857E-02 -0.11537895E-02  0.11751965E-02
  0.39927144E-03  0.31487070E-02 -0.51338981E-04
 -0.15499541E-03  0.10544316E-02  0.92301161E-03
 -0.68724485E-03  0.78080712E-03  0.11205684E-02
  0.11998456E-02  0.19491559E-02 -0.53906685E-03
 -0.18216856E-02  0.17866428E-02 -0.34172543E-03
 -0.11378695E-02  0.17984135E-02 -0.12276712E-02
  0.97289723E-05  0.11175055E-02  0.28383588E-02
  0.11331736E-02  0.51530848E-03  0.22567434E-02
  0.36610799E-04  0.42234698E-03 -0.24849489E-04
 -0.14757345E-03  0.89595625E-03  0.57517580E-04
  0.16217195E-02 -0.77449122E-03 -0.20158048E-02
 -0.21484913E-02 -0.17506117E-02 -0.25017916E-03
  0.70042398E-03  0.16356891E-02  0.80626743E-03
  0.23677191E-02  0.11749985E-02 -0.23325570E-02
  0.14596740E-02  0.93433982E-03  0.26474360E-03
  0.18391502E-02  0.29593357E-03 -0.57299992E-03
 -0.14689377E-03 -0.11346284E-02  0.84335704E-03
  0.73384006E-03  0.24743486E-02 -0.82394905E-03
 -0.17391534E-03  0.17882584E-02  0.16402164E-04
 -0.17091092E-02  0.15338534E-02  0.36577728E-04
 -0.11374433E-02  0.12114828E-02  0.45231569E-03
 -0.90839578E-03  0.23931400E-02  0.15846547E-02
 -0.91869950E-03 -0.11419374E-02 -0.83646400E-03
 -0.82457826E-03  0.94240018E-03  0.28165298E-03
 -0.84711202E-03 -0.24311545E-02 -0.16208622E-02
  0.16033675E-02 -0.36413783E-02 -0.10271028E-02
 -0.57604422E-03 -0.41164950E-03 -0.20241319E-02
  0.11661767E-02  0.14182878E-02 -0.13995401E-02
  0.35615874E-02 -0.23021456E-02 -0.15289852E-02
  0.20874903E-02 -0.78464372E-03  0.44062638E-03
  0.63332025E-03  0.22043088E-02  0.23393240E-02
  0.36678010E-03  0.10146317E-02  0.13813399E-02
 -0.42266160E-03 -0.54060012E-03 -0.34312398E-02
 -0.71556035E-04  0.14454690E-02  0.90281429E-04
 -0.22355132E-02  0.17207355E-03  0.21992495E-02
  0.13891815E-02  0.43311466E-03  0.44632040E-03
 -0.95524851E-03  0.23486861E-02 -0.12334022E-02
  0.21390495E-02  0.62634093E-03 -0.31268692E-02
 -0.32397160E-03  0.10451109E-02 -0.49336022E-03
 -0.19924494E-03 -0.21056382E-02 -0.24748261E-02
 -0.58732294E-03 -0.26143039E-02  0.17438598E-02
  0.12637409E-02 -0.11416697E-02 -0.14374067E-02
  0.41715006E-03  0.89213273E-03 -0.29338634E-03
 -0.39823713E-03 -0.57152999E-03 -0.35006209E-03
  0.67715638E-03  0.25874142E-02  0.12575930E-03
  0.63578524E-03  0.20347431E-02  0.11612954E-03
  0.20144971E-02  0.12768617E-02  0.68706566E-03
  0.17042453E-02 -0.18131505E-02  0.27094604E-04
  0.58868585E-03 -0.31064332E-02  0.64996121E-04
  0.31737827E-03 -0.47665919E-03  0.21110881E-03
 -0.86818292E-03  0.13344476E-03 -0.20505795E-02
  0.83333861E-03  0.10117269E-03  0.14333163E-02
  0.16785741E-04  0.75116654E-03  0.11532871E-02
 -0.59954740E-03 -0.19048488E-02 -0.10079023E-02
  0.17964705E-02 -0.12834754E-02 -0.38542824E-03
 -0.15399078E-02 -0.63701225E-03  0.24045465E-02
 -0.17929454E-02 -0.64839039E-03  0.16104543E-02
 -0.33641948E-03 -0.13387487E-02  0.11097639E-02
 -0.23032042E-03 -0.12126288E-02  0.13861816E-02
 
           1
   3.00000000000000     
  0.10000000E+01  0.00000000E+00  0.00000000E+00  0.00000000E+00
  0.42456131E+00  0.66981030E+00  0.72509778E+00
  0.93883495E+00  0.68848254E+00  0.13055396E-01
  0.48945532E+00  0.28987043E+00  0.70884477E+00
  0.98438542E+00  0.94154410E+00  0.62765489E+00
  0.47097783E+00  0.44367467E-01  0.30641767E+00
  0.23218277E+00  0.60846655E+00  0.51854703E+00
  0.56947269E+00  0.74326002E+00  0.37381921E+00
  0.30066779E+00  0.55197845E+00  0.60837928E+00
  0.17454474E-01  0.45454626E+00  0.85129953E+00
  0.93709410E+00  0.87663214E+00  0.71749085E+00
  0.99163609E+00  0.85877325E+00  0.53786848E+00
  0.10084057E+00  0.38206978E+00  0.34671749E-01
  0.43085146E+00  0.44869175E+00  0.89846297E-01
  0.32850670E+00  0.60053632E+00  0.72106796E+00
  0.20519042E+00  0.90096744E+00  0.51752497E+00
  0.14474354E+00  0.98038279E+00  0.57179177E+00
  0.33619200E-01  0.86159784E+00  0.57058178E-01
  0.11769312E-01  0.64372928E+00  0.82982497E+00
  0.63307760E+00  0.83596161E+00  0.98889935E-01
  0.94699408E-01  0.77535631E+00  0.86829067E+00
  0.33306261E+00  0.42307156E+00  0.26549010E+00
  0.10538592E+00  0.56521593E+00  0.70397163E+00
  0.54683278E+00  0.46068646E+00  0.92016370E+00
  0.86551765E+00  0.54527112E+00  0.71157645E+00
  0.97250501E+00  0.73268575E+00  0.11814567E+00
  0.17217395E+00  0.55580860E+00  0.42417832E+00
  0.50207773E+00  0.10001764E+00  0.13189850E+00
  0.49636838E+00  0.84720815E+00  0.25883974E+00
  0.30953785E-01  0.11114264E+00  0.59963402E+00
  0.27749095E+00  0.20347893E+00  0.28633363E+00
  0.86363572E-01  0.97083635E+00  0.67481545E+00
  0.86105546E+00  0.26570343E+00  0.15448761E+00
  0.45430155E-02  0.38232573E+00  0.11742694E+00
  0.83488233E+00  0.72750094E+00  0.96890176E+00
  0.88133149E+00  0.42483699E+00  0.71382042E+00
  0.88986296E+00  0.65189605E-01  0.72709583E+00
  0.92833159E+00  0.44428946E-01  0.61457991E+00
  0.10273579E+00  0.17369936E+00  0.91153038E+00
  0.47705453E+00  0.15309017E+00  0.23840073E+00
  0.59722151E-02  0.40205578E-01  0.31766269E+00
  0.27880142E+00  0.44915689E+00  0.43516550E-01
  0.82329961E+00  0.32691895E+00  0.36041446E+00
  0.43073728E+00  0.94733496E+00  0.24628145E+00
  0.74462776E+00  0.43661494E+00  0.12412492E+00
  0.37538261E+00  0.25222345E+00  0.69309316E+00
  0.69836380E-02  0.99754022E+00  0.43480934E+00
  0.99326881E+00  0.44848641E-01  0.79624555E+00
  0.84886477E+00  0.16694935E+00  0.77605808E+00
  0.73774735E+00  0.79331630E+00  0.99804944E+00
  0.99332764E+00  0.72815274E+00  0.91601871E+00
  0.52929053E+00  0.26654967E+00  0.59405028E+00
  0.51815859E-01  0.32484577E+00  0.57016769E+00
  0.25966430E+00  0.43389063E+00  0.76676328E+00
  0.15305530E+00  0.87920502E+00  0.41035472E+00
  0.69658983E+00  0.88505391E+00  0.27325633E+00
  0.62481114E+00  0.70141635E+00  0.66587920E+00
  0.54728831E+00  0.75316564E+00  0.59978704E+00
  0.87222227E+00  0.20237637E+00  0.52304849E+00
  0.19991236E+00  0.43423827E+00  0.87482850E+00
  0.48799129E+00  0.76459488E+00  0.87048080E+00
  0.25177123E+00  0.79891265E+00  0.55294102E+00
  0.80028623E+00  0.27454325E+00  0.58332161E+00
  0.98005561E+00  0.75311619E+00  0.59338778E+00
  0.90988628E-01  0.88899549E+00  0.86358683E+00
  0.90752290E+00  0.49978043E+00  0.87042928E+00