Amorphous Sb2Se3                        
  0.810000000000000     
    20.9867606951059784    0.0000000000000000    0.0000000000000000
     0.0000000000000000   20.9867606951059784    0.0000000000000000
     0.0000000000000000    0.0000000000000000   20.9867606951059784
   Sb   Se
   120   180
Direct
  0.2725236649103138  0.6108658045455003  0.2364145246891341
  0.1913517503277080  0.5537584366233376  0.3929347521704263
  0.5287137708506006  0.9310124720399290  0.2089722381647464
  0.6290434454220156  0.3148722564061946  0.0683290489349804
  0.3724930665202613  0.8577102151536944  0.6289338259678927
  0.7458359446992827  0.9046645371167399  0.3057892664884538
  0.6668599381370491  0.4179196874165179  0.3305387747364408
  0.0543856240049903  0.8541387503243584  0.2156455974459855
  0.9529739390540392  0.0226556754113486  0.6469081618846606
  0.4430123209358354  0.7787053315863222  0.1180209425360886
  0.9109331571044458  0.4903540222326437  0.2682020218864945
  0.5499460197440947  0.5940836812874206  0.5593679344491369
  0.8198765983526536  0.9299819216184989  0.7308555685075001
  0.6971401099902638  0.0678233754581645  0.2583947993101244
  0.5282447023004769  0.4891492488956228  0.2811844807443915
  0.3330392690841709  0.2480699660586501  0.8597737544591684
  0.9301456025913564  0.5657588163292274  0.4546494612113270
  0.9738024961914011  0.8134349643778787  0.8042113827657952
  0.5902566934401796  0.6358682323362170  0.2639407691310551
  0.5060049266335588  0.3328760670433595  0.1697553252991348
  0.7220915726574609  0.3737275542674900  0.9344791138836879
  0.6042806367862331  0.4565918076413495  0.8612753970908295
  0.3133877568883382  0.5823322281890135  0.9518194759498904
  0.9028390733152944  0.2896833166625488  0.1826874227234979
  0.7627349448519318  0.5484293016161519  0.9523249773822889
  0.6530460299665929  0.1213453865887422  0.6346860141297600
  0.6281944318103957  0.7953832036661602  0.3297494814771195
  0.5240369577934071  0.3330027145251403  0.9339788559210107
  0.3430419203509408  0.3887924047133285  0.4466229947400707
  0.6976363338415856  0.1527692255760532  0.0733855537672850
  0.9247004449248607  0.7802456394202136  0.9670302596576705
  0.7641165653161878  0.4405722276555198  0.0872404536069513
  0.7392226127801387  0.4458515727243825  0.5368964285072007
  0.3365033207582595  0.8272616345503849  0.3249822093848471
  0.0738652269699576  0.9245326270454448  0.5905559759656146
  0.4877671019106825  0.4881250017447441  0.1185887087120781
  0.7270943014902760  0.6278260329541595  0.3742414189374526
  0.0726902825188743  0.4679875320787790  0.1024730465022781
  0.7479102745137697  0.2934886187052960  0.6261734479481852
  0.5807454262855964  0.0539061068034246  0.4995782366737169
  0.6715984805811456  0.9139093306465990  0.8836165041100824
  0.4298424562552018  0.6441688838043154  0.3094474382796767
  0.5322881983830228  0.8227574419569769  0.7766279442621290
  0.0325004956361867  0.1939704917838965  0.6288468220361554
  0.9338437262871754  0.3288950195973274  0.0267236483077723
  0.0921223190221558  0.4256820114328128  0.3506120409699637
  0.8740295585252922  0.1667721011353038  0.5910165458195099
  0.4136216590035701  0.0510468733910122  0.2619476496840514
 -0.0051662753783618  0.7116524599984998  0.2784631609344700
  0.1236900333555810  0.6479246766593415  0.7826760772084294
  0.3959654217967416  0.6084714504856782  0.6504540284475815
  0.1880255061070016  0.2445932402254571  0.6796466680062484
  0.9962305831183755  0.4968502142126361  0.6641869780894857
  0.5350501480478199  0.3809216137758686  0.4386718910895975
  0.0199514125912823  0.1908624662240581  0.0499372533765340
  0.8389052543633142  0.7331211699436191  0.7025495522586652
  0.0487462892669977  0.3663724917265541  0.9212749125097591
  0.7907376383529838  0.0231936376204984  0.0159010356498037
  0.1033787716040825  0.7688104542066507  0.9919139462121400
  0.5859650788878751  0.2681882458855593  0.5987814124999828
  0.0149354776446723  0.7794969581897757  0.5206995312783550
  0.6589125590807732  0.4064958960781435  0.7138257659068886
  0.0626674717674781  0.9170315121766280  0.9094507606478389
  0.2294292862745582  0.8246556848872648  0.7196096758017148
  0.6666514149005369  0.6139793697252306  0.8092501674809630
  0.2013735436521194  0.8425567705881228  0.1187291282796952
  0.4369369170078546  0.3946932065908288  0.6607381215268633
  0.5979745394252201 -0.0375528783093894  0.3577824384922938
  0.1965686319861732  0.0950739409760946  0.5656608089543136
  0.5034062670723961  0.6684149249033631  0.8560767357230358
  0.7828813383443657  0.1707564339026734  0.9086207996176093
  0.4337254689657672  0.0855461885967577  0.4286852470952740
  0.3316204531107711  0.8586758418008268  0.0244001698403532
  0.1452518916064753  0.4120150146191011  0.7885628236602966
  0.2400707407827899  0.0439781809866480  0.8968687641631813
  0.2493207936168271  0.3884806467479550  0.0267448654603450
  0.1589430628141725  0.1189286192186659  0.1105255187046202
  0.6654337815674901  0.9545088412675395  0.5966117478586579
  0.3855417879293835  0.0954090863374164  0.8105090924006272
  0.1302808925864347  0.0048342853737752  0.3204545719217965
  0.3057833718583807  0.7254879498546156  0.5525481553046644
  0.8052453462669750  0.3280138684829836  0.3708997484242199
  0.4854591963502474  0.0666893047589866  0.9550625757712162
  0.1954169981009912  0.5889500363619095  0.0942301452180021
  0.8378009762060984  0.5990749128924786  0.1487873310417238
  0.7832601014952857  0.6120366049320408  0.5268263471963144
  0.6866258554936425  0.2079085062846764  0.3572842410726883
  0.8527950085678041  0.1666894420853610  0.3887102226207700
  0.9315379588635181  0.0885023078005351  0.2185440913063152
  0.0426873098231917  0.3553960108681440  0.5021666549987208
  0.5571358272809779  0.7421019186593999 -0.0003297401049881
  0.3951042210786157  0.2385122342440964  0.7024683517166923
  0.3944089221556755  0.9442154045425594  0.7625724781011159
  0.6595373143542755  0.7253621356099761  0.5369220478743203
  0.9605601793819337  0.1378622642058177  0.7720677408857419
  0.9381513951423551  0.3874967820889568  0.7910942033542754
  0.9106825198720069  0.8991097095645968  0.0946822645840980
  0.2398425990966890  0.2645685752625406  0.4119618055175244
  0.7703809642741509  0.9240827780294919  0.4688039994309993
  0.9307957796666744  0.0938254029561981  0.9264035636171434
  0.0690347703068242  0.2016756603883789  0.8922061790477048
  0.1866056508006845  0.8071020382053758  0.4297416229476430
  0.0404766026752663  0.0725332626882329  0.5101717794120161
  0.6849858022628100  0.5596244933910677  0.6501429639161735
  0.7354687200724968  0.8685235059361944  0.1507312420309604
  0.5254948963405937 -0.0184946382125858  0.6736337398772111
  0.3109659180462873  0.2642166722264338  0.2581414730962334
  0.7992275035728439  0.1134041373354917  0.7442728469822093
  0.1303869058739595  0.6461013303200142  0.5867441835504833
  0.5268650263073156  0.5168289230097013  0.7141578354596900
  0.3667858050593981  0.0171152390561384  0.0744260058671499
  0.4677208380664389  0.1457957599090437  0.5883128897332419
  0.9848712782279858 -0.0222659665945880  0.3891188016217333
  0.3628745435157906  0.4809837848237812  0.2479096840978895
  0.1525693324719435  0.2993252219325951  0.2116025062547546
  0.4714905696660646  0.7979019875280051  0.4406125571071381
  0.6745100476683675  0.2206907094481566  0.7643885978524196
  0.2574581310284570  0.4483029646195211  0.6130618331249288
  0.1562291367698188  0.7040098762204793  0.2942985593021676
  0.4171770525210358  0.2008017924553150  0.1072573866076195
  0.6394027867856692  0.5224757774778235  0.4493101447515313
  0.4895947752910791  0.5274988907479554  0.4190935648316522
  0.0312804340512654  0.2022940115139298  0.1978276260083882
  0.4510016766204278  0.2034056495797152  0.2600636169686182
  0.8645276310750442  0.1633369101790499  0.0728749014052395
  0.4713076416920755  0.9407248597970080  0.5334087275042206
 -0.0122062013081175  0.5930933188200478  0.1727261075880281
  0.8736295818527718  0.2531936004342779  0.7236065700840764
  0.8654074983740548  0.4267687760993667  0.9293992675716641
  0.9099948153368458  0.2561595618015032  0.8910319611635386
  0.0395588957037162  0.6227650219379687  0.0341689757309363
  0.3701882079100028  0.9128763844372906  0.1926397514966224
  0.0677621375852434  0.5093414196813947  0.5155996965194096
  0.5472857847933339  0.3036554186312996  0.7477476570155663
  0.8073087506306227  0.0111009664219006  0.1646244579892586
  0.9324499999287866  0.9302339055019130  0.2443460988387182
  0.3000977185443003  0.2990003211457886  0.5860833088694087
  0.7583444469676914  0.7718987945053000  0.4188026294023706
  0.9178203926065632  0.9399275480647480  0.9411686520970862
  0.1076160347607210  0.0713392767906668  0.6893770138496588
  0.8296484879866965  0.4214706742479315  0.6777507560891973
  0.2934859520602378  0.1191961528444264  0.6897110208883118
  0.6539787633802854  0.7597308188872487  0.8744887037576504
  0.0658405807623005  0.7568808723903548  0.6831293122923577
  0.1438215012341319  0.5333665900360688  0.6824927323711066
  0.7375776428742886  0.1764599836936012  0.5225401129643197
  0.9428955032302461  0.4088479042420128  0.4019521285858497
  0.3286601368431979  0.8620979559401701  0.4791804971326830
  0.6015456193956871  0.1793072337078890  0.1905240687972579
  0.4173783686178094  0.6326542359044451  0.1575951311615918
  0.5616197450491385  0.6268513198040860  0.1213643063000792
  0.2401420684775850 -0.0207093741132518  0.7561909144793064
  0.2514223604102849  0.6708483261166995  0.6973653541019523
  0.1488529849159310  0.6293301878462213  0.9418952980403321
  0.6492758555590535  0.2428975822014946  0.9188850985821586
  0.3280066993560989  0.5130720889881928  0.0851909736681293
  0.2952810216305089  0.1297822870102983  0.3469469773683477
  0.4933851901166142  0.9208515150555282  0.0525347119210736
  0.6899598721651208  0.7283246372093574  0.0780538541494371
  0.2300228833777667  0.9490085875327349  0.6072140179007143
  0.4133197167393941  0.6528263328488342  0.4763166965873121
  0.7021294376556223  0.2798706029233479  0.2076700125466958
  0.3200417927048516  0.1754003788047378  0.5218165719441135
  0.7610845115231717  0.7116160113652280  0.9607567181883879
  0.8543647609531335  0.7426003934113822  0.5457774781234268
  0.8820799343802019  0.0537727421881862  0.4830266341218525
  0.8357574232189908  0.5797966105152428  0.6686030992471192
  0.8592203635856648  0.6347747103218901  0.2998319286338523
  0.3973560844268078  0.7441451687950528  0.9516395044916143
  0.0659922886020569  0.9047848385387486  0.0638157562879301
  0.3743784160050759  0.0280138062326042  0.6160247185610176
  0.4790471809340208  0.7440204443668881  0.5789996946641203
  0.6787204697007007  0.3255417306477746  0.4662146657103060
  0.0706371725470084  0.0138596622311163  0.1790055961586111
  0.1498709571470304  0.4798247569951623  0.9635287824142097
  0.9754330954142845  0.7523884138723619  0.1160393891603477
  0.5207973880589049  0.1226669849559567  0.7345913068382450
  0.1945261358589433  0.4114619329674310  0.4786186871835220
  0.2828724279318439  0.7031974313020957  0.0512190741168367
  0.9650202709088692  0.0457165086414824  0.0722948503200875
  0.9912621726920943  0.6744527923699605  0.8780915660157919
  0.3690840550051042  0.9640180731434397  0.9192450243684938
  0.2885467277073131  0.6927834395014327  0.3876962977296953
  0.3464632530249382  0.1401559878000679  0.9798292876478564
  0.6354175570714100  0.0333673815208205  0.9888023493644512
  0.2176084360203599  0.9905603489379050  0.0447037677924951
  0.6104848755846615  0.5998210101612971  0.9564340277732047
  0.4498064521064634  0.9382816224625703  0.3707291146990267
  0.2562562055944596  0.5806009365585983  0.5329414767649222
  0.3438932590144772  0.5311295910763402  0.3923705059185350
  0.8219291362363541  0.8204276246423500  0.8396926930433470
  0.3143672998166062  0.4405885027070376  0.8891702688786097
  0.2312589354102046  0.9792147032451572  0.1952143925369415
  0.5542530689808662  0.1036825251723015  0.3213807652182874
  0.3833657605275841  0.3042211086794260 -0.0036115627264934
  0.7737307861286453  0.3308576145722238  0.8047364261602920
  0.8002431073350670  0.3907149038183997  0.2288398010921021
  0.8869316679539654  0.8516540987762277  0.3772954795525437
  0.6036950531782643  0.4650128579547683  0.0189292716487692
  0.1980061228834030  0.1900160045521199 -0.0210070381037666
  0.0985902080686061  0.2728998107545066  0.3585375479130962
  0.5706536232888836  0.8320874038179453  0.6290949377518548
  0.0567595973926795  0.2799943313664101  0.7665263212384060
  0.2774797137110622  0.3486818969016680  0.7484952127257938
  0.6444203678700220 -0.0064319867051178  0.1381807726313682
  0.3316540324581073  0.8250008434445376  0.8345697514204178
  0.4298479386344619  0.3645954572235847  0.3190544533648583
  0.7773200681342427  0.8708302648260174 -0.0042260971279756
  0.3081958419529754  0.0163387829957648  0.4768438650691107
  0.1429356346000101  0.2405014547829540  0.5279441460685061
  0.5694203309192589  0.2017612419962777  0.4575965813644253
  0.3049031157690081  0.7552724072543835  0.1942844147285548
  0.5734622021016873  0.2947375441890685  0.3089175033213425
  0.6114268093598770  0.8631768471655875  0.4735445182794139
  0.1736421653279241  0.7980075579866585  0.5774833864614789
  0.4319940058677787  0.4392239375490865 -0.0132734708806077
  0.9009112414169793  0.5401134640092957  0.8161499279262338
  0.6341596603953485  0.4321159022848090  0.1770071233280054
  0.6355603128798298  0.1037129048352137  0.8649638126220877
  0.9641695775340624  0.3313660430978078  0.6311350212789042
  0.0084180304193197  0.1240248293229240  0.3420852780788366
  0.4013892448659073  0.7520979214801683  0.7354296415222259
  0.7906914469697920  0.0104240233383903  0.8621463109340872
  0.3566871837915405  0.3623715262861504  0.1507079862923535
  0.8171724006781957  0.6595838893910780  0.8371241270602050
  0.0912484148677834  0.0511915814542741  0.8283178765976250
  0.0460527747576638  0.8353188871858507  0.3781087782284420
  0.1553070003426215  0.1225712914355878  0.4185283758347769
  0.8867989536163499  0.6207015941031674  0.0007374065438438
  0.4559443375750067  0.5996709013799135 -0.0019003779647678
  0.5915926704466916  0.7991347120321383  0.1720263399731700
  0.4485302465597693  0.3014732370102073  0.5348434634846967
  0.5347044677554164 -0.0235357763051654  0.8401577692904196
  0.1591863835848090  0.9511654472744248  0.4633127249795821
  0.9808910983636450  0.2129350337290521  0.4723940554257760
  0.0425277579666048  0.5206081383887809  0.8375639623480210
  0.8000658928112643  0.0205451709065180  0.6047674903414016
  0.8076081854995272  0.1821416122999277  0.2310200586060034
  0.6892393035684732  0.7103183027520656  0.6936991554597162
  0.1912773898332591  0.8580924688463475  0.2822863555824764
  0.0991329424244246  0.6713444816868711  0.4425148231321674
  0.1359623679862626  0.7887213603678533  0.8384302401450345
  0.7194801466509947  0.5402887683068852  0.2482154105133725
  0.4735650061932440  0.7856259849038061  0.2766020423817374
  0.6694396864685336  0.0106532874467752  0.7462328276590405
  0.0213074635979251  0.3874674655007354  0.2222382724839382
  0.9237744559749835  0.7127534300712896  0.4160582927650448
  0.1190487080852518  0.3777828510717492  0.6394900306714214
  0.8594835742031847  0.3054649204360337  0.5152751228180402
  0.2153024563473811  0.8824827050662860  0.9244334912093256
  0.3066408962485038  0.1129194509032954  0.1745481096085017
  0.9352410650582957  0.8525104903272194  0.6597691096008951
  0.5054450524848764  0.0761028985918269  0.1325130117318157
  0.5403681951569748  0.6735679957932228  0.7070893785922522
  0.5419646106445181  0.1907523684252515  0.0242045417733682
  0.8576653008480720  0.7912444770672901  0.2506559619651395
  0.1715925582825790  0.1458622502432451  0.2643065921171376
  0.7910229473487396  0.2853378665618422  0.0520144884763944
  0.1213804411450042  0.7142532851456164  0.1462827691917121
  0.8953004353512516  0.4578136342469729  0.5538128002484141
  0.2465753599075674  0.4045907138851061  0.3166178581471170
  0.1240746048885146  0.5490987083697237  0.2363946287830956
  0.2550350543057380  0.2477053884147001  0.0995620482021503
  0.2080572480628724  0.4340701713667662  0.1687624972561083
  0.9229315324163320  0.9047021119179869  0.5179970024315395
  0.8380342561821873  0.0258916547314223  0.3295585794891324
  0.0259551279257106  0.5675646386972699  0.3410855229040980
  0.2541665485508517  0.7132980400349865  0.8801926538907486
  0.2004761704591479  0.3165761674802747  0.9004581101842176
  0.9705478139052137  0.6481755368784051  0.7298238160817141
  0.4273462955871301  0.3694715397074850  0.8197458503944864
  0.9794597870755269  0.5058535697090779  0.9711219614240101
  0.5773909855444248  0.4293731564362265  0.5785241071125732
  0.9513673833854852 -0.0237556573284116  0.7943336454120100
  0.0961042810867768  0.9109355012482013  0.7397030156145556
  0.2056039871291418  0.1687283515043446  0.8110569564406492
  0.6815465996307731  0.8551718411629792  0.7414008215809653
  0.4151041067682095  0.2344696484451173  0.3999597305572717
  0.7246980873468430  0.7161936858481691  0.2364925142102740
  0.4865860081935031  0.8552127730212167  0.9166887186960638
  0.4666255415489891  0.5188791200664992  0.8497191252443957
  0.2231545688029537  0.5398855810342217  0.8256863456200455
  0.4894886082928351  0.2015456457453765  0.8661178449229359
  0.7598508076541058  0.8363894589486361  0.6006395483626690
  0.2862265858253691  0.9808747593244931  0.3394648042590280
  0.7621544911839304  0.4932257105096403  0.8011722110751943
  0.0896518622009479  0.0542730545089373  0.9752299092519180
  0.8361336001853911  0.7454358633438444  0.1084939959684274
  0.6259258848910089  0.8760652527564936  0.0275543585899392
  0.7142060611605709  0.0636688304720552  0.4271102392921953
  0.3368612201886832  0.4936353840185423  0.7320767821723120
  0.9479894813818902  0.2774853564068771  0.3280916602552554
  0.5713498492094505  0.6754316079912474  0.4205592426993471
  0.6975395949612541  0.5831067690071893  0.0952310995619611
 -0.0304364716835057  0.6380930762935795  0.5838927351458426
  0.9129278677816079  0.4602370110716956  0.1037844613231512
  0.7997392947351885  0.4870095068533116  0.3933852137005396
  0.1023726749073411  0.3224275404912559  0.0634199993639094
  0.4035166252851889  0.4885147206692783  0.5495521675708529
  0.3638933060891413  0.6256409315282505  0.8106664073926815
 
  0.00000000E+00  0.00000000E+00  0.00000000E+00
  0.00000000E+00  0.00000000E+00  0.00000000E+00
  0.00000000E+00  0.00000000E+00  0.00000000E+00
  0.00000000E+00  0.00000000E+00  0.00000000E+00
  0.00000000E+00  0.00000000E+00  0.00000000E+00
  0.00000000E+00  0.00000000E+00  0.00000000E+00
  0.00000000E+00  0.00000000E+00  0.00000000E+00
  0.00000000E+00  0.00000000E+00  0.00000000E+00
  0.00000000E+00  0.00000000E+00  0.00000000E+00
  0.00000000E+00  0.00000000E+00  0.00000000E+00
  0.00000000E+00  0.00000000E+00  0.00000000E+00
  0.00000000E+00  0.00000000E+00  0.00000000E+00
  0.00000000E+00  0.00000000E+00  0.00000000E+00
  0.00000000E+00  0.00000000E+00  0.00000000E+00
  0.00000000E+00  0.00000000E+00  0.00000000E+00
  0.00000000E+00  0.00000000E+00  0.00000000E+00
  0.00000000E+00  0.00000000E+00  0.00000000E+00
  0.00000000E+00  0.00000000E+00  0.00000000E+00
  0.00000000E+00  0.00000000E+00  0.00000000E+00
  0.00000000E+00  0.00000000E+00  0.00000000E+00
  0.00000000E+00  0.00000000E+00  0.00000000E+00
  0.00000000E+00  0.00000000E+00  0.00000000E+00
  0.00000000E+00  0.00000000E+00  0.00000000E+00
  0.00000000E+00  0.00000000E+00  0.00000000E+00
  0.00000000E+00  0.00000000E+00  0.00000000E+00
  0.00000000E+00  0.00000000E+00  0.00000000E+00
  0.00000000E+00  0.00000000E+00  0.00000000E+00
  0.00000000E+00  0.00000000E+00  0.00000000E+00
  0.00000000E+00  0.00000000E+00  0.00000000E+00
  0.00000000E+00  0.00000000E+00  0.00000000E+00
  0.00000000E+00  0.00000000E+00  0.00000000E+00
  0.00000000E+00  0.00000000E+00  0.00000000E+00
  0.00000000E+00  0.00000000E+00  0.00000000E+00
  0.00000000E+00  0.00000000E+00  0.00000000E+00
  0.00000000E+00  0.00000000E+00  0.00000000E+00
  0.00000000E+00  0.00000000E+00  0.00000000E+00
  0.00000000E+00  0.00000000E+00  0.00000000E+00
  0.00000000E+00  0.00000000E+00  0.00000000E+00
  0.00000000E+00  0.00000000E+00  0.00000000E+00
  0.00000000E+00  0.00000000E+00  0.00000000E+00
  0.00000000E+00  0.00000000E+00  0.00000000E+00
  0.00000000E+00  0.00000000E+00  0.00000000E+00
  0.00000000E+00  0.00000000E+00  0.00000000E+00
  0.00000000E+00  0.00000000E+00  0.00000000E+00
  0.00000000E+00  0.00000000E+00  0.00000000E+00
  0.00000000E+00  0.00000000E+00  0.00000000E+00
  0.00000000E+00  0.00000000E+00  0.00000000E+00
  0.00000000E+00  0.00000000E+00  0.00000000E+00
  0.00000000E+00  0.00000000E+00  0.00000000E+00
  0.00000000E+00  0.00000000E+00  0.00000000E+00
  0.00000000E+00  0.00000000E+00  0.00000000E+00
  0.00000000E+00  0.00000000E+00  0.00000000E+00
  0.00000000E+00  0.00000000E+00  0.00000000E+00
  0.00000000E+00  0.00000000E+00  0.00000000E+00
  0.00000000E+00  0.00000000E+00  0.00000000E+00
  0.00000000E+00  0.00000000E+00  0.00000000E+00
  0.00000000E+00  0.00000000E+00  0.00000000E+00
  0.00000000E+00  0.00000000E+00  0.00000000E+00
  0.00000000E+00  0.00000000E+00  0.00000000E+00
  0.00000000E+00  0.00000000E+00  0.00000000E+00
  0.00000000E+00  0.00000000E+00  0.00000000E+00
  0.00000000E+00  0.00000000E+00  0.00000000E+00
  0.00000000E+00  0.00000000E+00  0.00000000E+00
  0.00000000E+00  0.00000000E+00  0.00000000E+00
  0.00000000E+00  0.00000000E+00  0.00000000E+00
  0.00000000E+00  0.00000000E+00  0.00000000E+00
  0.00000000E+00  0.00000000E+00  0.00000000E+00
  0.00000000E+00  0.00000000E+00  0.00000000E+00
  0.00000000E+00  0.00000000E+00  0.00000000E+00
  0.00000000E+00  0.00000000E+00  0.00000000E+00
  0.00000000E+00  0.00000000E+00  0.00000000E+00
  0.00000000E+00  0.00000000E+00  0.00000000E+00
  0.00000000E+00  0.00000000E+00  0.00000000E+00
  0.00000000E+00  0.00000000E+00  0.00000000E+00
  0.00000000E+00  0.00000000E+00  0.00000000E+00
  0.00000000E+00  0.00000000E+00  0.00000000E+00
  0.00000000E+00  0.00000000E+00  0.00000000E+00
  0.00000000E+00  0.00000000E+00  0.00000000E+00
  0.00000000E+00  0.00000000E+00  0.00000000E+00
  0.00000000E+00  0.00000000E+00  0.00000000E+00
  0.00000000E+00  0.00000000E+00  0.00000000E+00
  0.00000000E+00  0.00000000E+00  0.00000000E+00
  0.00000000E+00  0.00000000E+00  0.00000000E+00
  0.00000000E+00  0.00000000E+00  0.00000000E+00
  0.00000000E+00  0.00000000E+00  0.00000000E+00
  0.00000000E+00  0.00000000E+00  0.00000000E+00
  0.00000000E+00  0.00000000E+00  0.00000000E+00
  0.00000000E+00  0.00000000E+00  0.00000000E+00
  0.00000000E+00  0.00000000E+00  0.00000000E+00
  0.00000000E+00  0.00000000E+00  0.00000000E+00
  0.00000000E+00  0.00000000E+00  0.00000000E+00
  0.00000000E+00  0.00000000E+00  0.00000000E+00
  0.00000000E+00  0.00000000E+00  0.00000000E+00
  0.00000000E+00  0.00000000E+00  0.00000000E+00
  0.00000000E+00  0.00000000E+00  0.00000000E+00
  0.00000000E+00  0.00000000E+00  0.00000000E+00
  0.00000000E+00  0.00000000E+00  0.00000000E+00
  0.00000000E+00  0.00000000E+00  0.00000000E+00
  0.00000000E+00  0.00000000E+00  0.00000000E+00
  0.00000000E+00  0.00000000E+00  0.00000000E+00
  0.00000000E+00  0.00000000E+00  0.00000000E+00
  0.00000000E+00  0.00000000E+00  0.00000000E+00
  0.00000000E+00  0.00000000E+00  0.00000000E+00
  0.00000000E+00  0.00000000E+00  0.00000000E+00
  0.00000000E+00  0.00000000E+00  0.00000000E+00
  0.00000000E+00  0.00000000E+00  0.00000000E+00
  0.00000000E+00  0.00000000E+00  0.00000000E+00
  0.00000000E+00  0.00000000E+00  0.00000000E+00
  0.00000000E+00  0.00000000E+00  0.00000000E+00
  0.00000000E+00  0.00000000E+00  0.00000000E+00
  0.00000000E+00  0.00000000E+00  0.00000000E+00
  0.00000000E+00  0.00000000E+00  0.00000000E+00
  0.00000000E+00  0.00000000E+00  0.00000000E+00
  0.00000000E+00  0.00000000E+00  0.00000000E+00
  0.00000000E+00  0.00000000E+00  0.00000000E+00
  0.00000000E+00  0.00000000E+00  0.00000000E+00
  0.00000000E+00  0.00000000E+00  0.00000000E+00
  0.00000000E+00  0.00000000E+00  0.00000000E+00
  0.00000000E+00  0.00000000E+00  0.00000000E+00
  0.00000000E+00  0.00000000E+00  0.00000000E+00
  0.00000000E+00  0.00000000E+00  0.00000000E+00
  0.00000000E+00  0.00000000E+00  0.00000000E+00
  0.00000000E+00  0.00000000E+00  0.00000000E+00
  0.00000000E+00  0.00000000E+00  0.00000000E+00
  0.00000000E+00  0.00000000E+00  0.00000000E+00
  0.00000000E+00  0.00000000E+00  0.00000000E+00
  0.00000000E+00  0.00000000E+00  0.00000000E+00
  0.00000000E+00  0.00000000E+00  0.00000000E+00
  0.00000000E+00  0.00000000E+00  0.00000000E+00
  0.00000000E+00  0.00000000E+00  0.00000000E+00
  0.00000000E+00  0.00000000E+00  0.00000000E+00
  0.00000000E+00  0.00000000E+00  0.00000000E+00
  0.00000000E+00  0.00000000E+00  0.00000000E+00
  0.00000000E+00  0.00000000E+00  0.00000000E+00
  0.00000000E+00  0.00000000E+00  0.00000000E+00
  0.00000000E+00  0.00000000E+00  0.00000000E+00
  0.00000000E+00  0.00000000E+00  0.00000000E+00
  0.00000000E+00  0.00000000E+00  0.00000000E+00
  0.00000000E+00  0.00000000E+00  0.00000000E+00
  0.00000000E+00  0.00000000E+00  0.00000000E+00
  0.00000000E+00  0.00000000E+00  0.00000000E+00
  0.00000000E+00  0.00000000E+00  0.00000000E+00
  0.00000000E+00  0.00000000E+00  0.00000000E+00
  0.00000000E+00  0.00000000E+00  0.00000000E+00
  0.00000000E+00  0.00000000E+00  0.00000000E+00
  0.00000000E+00  0.00000000E+00  0.00000000E+00
  0.00000000E+00  0.00000000E+00  0.00000000E+00
  0.00000000E+00  0.00000000E+00  0.00000000E+00
  0.00000000E+00  0.00000000E+00  0.00000000E+00
  0.00000000E+00  0.00000000E+00  0.00000000E+00
  0.00000000E+00  0.00000000E+00  0.00000000E+00
  0.00000000E+00  0.00000000E+00  0.00000000E+00
  0.00000000E+00  0.00000000E+00  0.00000000E+00
  0.00000000E+00  0.00000000E+00  0.00000000E+00
  0.00000000E+00  0.00000000E+00  0.00000000E+00
  0.00000000E+00  0.00000000E+00  0.00000000E+00
  0.00000000E+00  0.00000000E+00  0.00000000E+00
  0.00000000E+00  0.00000000E+00  0.00000000E+00
  0.00000000E+00  0.00000000E+00  0.00000000E+00
  0.00000000E+00  0.00000000E+00  0.00000000E+00
  0.00000000E+00  0.00000000E+00  0.00000000E+00
  0.00000000E+00  0.00000000E+00  0.00000000E+00
  0.00000000E+00  0.00000000E+00  0.00000000E+00
  0.00000000E+00  0.00000000E+00  0.00000000E+00
  0.00000000E+00  0.00000000E+00  0.00000000E+00
  0.00000000E+00  0.00000000E+00  0.00000000E+00
  0.00000000E+00  0.00000000E+00  0.00000000E+00
  0.00000000E+00  0.00000000E+00  0.00000000E+00
  0.00000000E+00  0.00000000E+00  0.00000000E+00
  0.00000000E+00  0.00000000E+00  0.00000000E+00
  0.00000000E+00  0.00000000E+00  0.00000000E+00
  0.00000000E+00  0.00000000E+00  0.00000000E+00
  0.00000000E+00  0.00000000E+00  0.00000000E+00
  0.00000000E+00  0.00000000E+00  0.00000000E+00
  0.00000000E+00  0.00000000E+00  0.00000000E+00
  0.00000000E+00  0.00000000E+00  0.00000000E+00
  0.00000000E+00  0.00000000E+00  0.00000000E+00
  0.00000000E+00  0.00000000E+00  0.00000000E+00
  0.00000000E+00  0.00000000E+00  0.00000000E+00
  0.00000000E+00  0.00000000E+00  0.00000000E+00
  0.00000000E+00  0.00000000E+00  0.00000000E+00
  0.00000000E+00  0.00000000E+00  0.00000000E+00
  0.00000000E+00  0.00000000E+00  0.00000000E+00
  0.00000000E+00  0.00000000E+00  0.00000000E+00
  0.00000000E+00  0.00000000E+00  0.00000000E+00
  0.00000000E+00  0.00000000E+00  0.00000000E+00
  0.00000000E+00  0.00000000E+00  0.00000000E+00
  0.00000000E+00  0.00000000E+00  0.00000000E+00
  0.00000000E+00  0.00000000E+00  0.00000000E+00
  0.00000000E+00  0.00000000E+00  0.00000000E+00
  0.00000000E+00  0.00000000E+00  0.00000000E+00
  0.00000000E+00  0.00000000E+00  0.00000000E+00
  0.00000000E+00  0.00000000E+00  0.00000000E+00
  0.00000000E+00  0.00000000E+00  0.00000000E+00
  0.00000000E+00  0.00000000E+00  0.00000000E+00
  0.00000000E+00  0.00000000E+00  0.00000000E+00
  0.00000000E+00  0.00000000E+00  0.00000000E+00
  0.00000000E+00  0.00000000E+00  0.00000000E+00
  0.00000000E+00  0.00000000E+00  0.00000000E+00
  0.00000000E+00  0.00000000E+00  0.00000000E+00
  0.00000000E+00  0.00000000E+00  0.00000000E+00
  0.00000000E+00  0.00000000E+00  0.00000000E+00
  0.00000000E+00  0.00000000E+00  0.00000000E+00
  0.00000000E+00  0.00000000E+00  0.00000000E+00
  0.00000000E+00  0.00000000E+00  0.00000000E+00
  0.00000000E+00  0.00000000E+00  0.00000000E+00
  0.00000000E+00  0.00000000E+00  0.00000000E+00
  0.00000000E+00  0.00000000E+00  0.00000000E+00
  0.00000000E+00  0.00000000E+00  0.00000000E+00
  0.00000000E+00  0.00000000E+00  0.00000000E+00
  0.00000000E+00  0.00000000E+00  0.00000000E+00
  0.00000000E+00  0.00000000E+00  0.00000000E+00
  0.00000000E+00  0.00000000E+00  0.00000000E+00
  0.00000000E+00  0.00000000E+00  0.00000000E+00
  0.00000000E+00  0.00000000E+00  0.00000000E+00
  0.00000000E+00  0.00000000E+00  0.00000000E+00
  0.00000000E+00  0.00000000E+00  0.00000000E+00
  0.00000000E+00  0.00000000E+00  0.00000000E+00
  0.00000000E+00  0.00000000E+00  0.00000000E+00
  0.00000000E+00  0.00000000E+00  0.00000000E+00
  0.00000000E+00  0.00000000E+00  0.00000000E+00
  0.00000000E+00  0.00000000E+00  0.00000000E+00
  0.00000000E+00  0.00000000E+00  0.00000000E+00
  0.00000000E+00  0.00000000E+00  0.00000000E+00
  0.00000000E+00  0.00000000E+00  0.00000000E+00
  0.00000000E+00  0.00000000E+00  0.00000000E+00
  0.00000000E+00  0.00000000E+00  0.00000000E+00
  0.00000000E+00  0.00000000E+00  0.00000000E+00
  0.00000000E+00  0.00000000E+00  0.00000000E+00
  0.00000000E+00  0.00000000E+00  0.00000000E+00
  0.00000000E+00  0.00000000E+00  0.00000000E+00
  0.00000000E+00  0.00000000E+00  0.00000000E+00