Ge
 1.0000000000000000
    19.3931519775978920    0.0000000000000000    0.0000000000000000
     0.0000000000000000   19.3931519775978849    0.0000000000000000
     0.0000000000000000    0.0000000000000000   19.3931519775978849
 Ge 
 300
Direct
  0.0119288091579483  0.5434987100039096  0.2114274877738549
  0.1774441201316667  0.6478520126766756  0.0678782811784813
  0.9138956335862355  0.0176289909001090  0.0250166454715794
  0.5523219295320713  0.1471392728869606  0.4825812385779435
  0.0931429923495782  0.4898936661257285  0.4088227187035272
  0.2138996968608882  0.3698603319269607  0.7658439533908366
  0.1846397671417905  0.6558949635356781  0.7020341302828168
  0.6992371748936490  0.1175998344044708  0.7944516110249839
  0.3799564126751025  0.9159267693591984  0.2195633694525331
  0.9282773677193833  0.1258886468848957  0.6471093771856543
  0.6874123299919518  0.7878578094299316  0.7349037760853009
  0.7382879034145199  0.7712566471874461  0.2326598995080514
  0.3252827012862659  0.1926497078036727  0.8656906693031330
  0.0060205749046694  0.7023958419930336  0.1220364213612056
  0.8868082634004746  0.6510140080532826  0.3079321656816062
  0.3258857869624298  0.0126584524022083  0.1307447192053444
  0.0183114984056263  0.9422208774632546  0.4303964647496565
  0.8339348678050889  0.9569964009959553  0.4817049321514397
  0.5035450869485345  0.6827296314645229  0.8630756777294840
  0.3095901434704653  0.5208665066540502  0.3532091143641978
  0.8220745468278374  0.9756282268842902  0.9374768764082609
  0.4098185291815021  0.2092673239738481  0.0549120295462743
  0.9416601839484876  0.8506859445029055  0.8234939060827223
  0.5399898971440585  0.6242415262740875  0.0389394076879361
  0.6275791337013548  0.3598885926755572  0.2496284442189648
  0.2749557005110498  0.2457201321288410  0.3808525238240273
  0.0552802771001415  0.8112864677667949  0.0625300803529505
  0.7397039823351206  0.9567075746223468  0.1911555278067910
  0.6707482561174327  0.8696258789211060  0.2865808219149068
  0.3768457073981626  0.4028012698059769  0.8863254753568373
  0.0249281422833650  0.1761100084512298  0.5682412540795588
  0.9361619903029245  0.4875449087414828  0.7834917781826110
  0.6555028085869828  0.6094784419985586  0.9859562462805042
  0.3133793901729423  0.0714730205337041  0.9267550210652576
  0.6808415139287454  0.5511100653488022  0.2548759968644941
  0.8172696016265473  0.0927774777533779  0.5257868623140132
  0.3498956045279606  0.3756478221390702  0.7601148866791563
  0.6129457097376926  0.4269450460847140  0.3610001477304249
  0.6814150951541122  0.6633555563246800  0.1879395915951740
  0.9269828387020184  0.6464575150988737  0.0226817350263763
  0.7178209418204703  0.1160514261582175  0.6058015198721978
  0.3470964954117130  0.0221963400072776  0.6596327585351087
  0.1556734600639317  0.1996369031484087  0.4001558724926960
  0.4712239978238011  0.3430115810506372 -0.0041779312364082
  0.6221385972553036  0.4231271329962730  0.8713734843708312
  0.4268015002310043  0.3265548933583612  0.3114153654564023
  0.6832777953092383  0.0690192280660769  0.2333414734378844
  0.0468667441755260  0.1059214228954422  0.8952988354717277
  0.1868206161347622  0.6897521805856388  0.4231501570035434
  0.3597787849923195  0.5216910668711203  0.4923730820518845
  0.5067550648589043  0.2665754946827278  0.4020542601080140
  0.7516662087790961  0.1797869514096748  0.2169855853955130
  0.8281382874753711  0.6805876818659862  0.8209580602941043
  0.1803833817783599  0.6973350417224130  0.8638217138380536
  0.6739846646595034  0.9167868038996285  0.0779741376438153
  0.6822160335450925  0.6930870421847156  0.4034151057965820
  0.3930522115841015  0.1139295271447682  0.5701683120829943
  0.4679094385361814  0.7192130440813784  0.9848192118594445
  0.2944265617155837  0.4987245968100311  0.9377685071806341
  0.1332245773727794  0.1546902041346130  0.2194608808072537
  0.5022324807739387  0.0061551833262357  0.2992580327473352
  0.2082079122108193  0.8414723474731817  0.6964783822989298
  0.4304789158579312  0.2686756639120152  0.5098899905659410
  0.5877605549061186  0.1957852357833756  0.3233590702572820
  0.8613711954288314  0.3132359404496854  0.2984283161535259
  0.8446532973440505  0.5942896305765444  0.6067432268810540
  0.0617642923626064  0.6779114575534020  0.7414390744245851
  0.6408999841225604  0.5757616950444235  0.4689447147517590
  0.2909704089511035  0.8281681201428153  0.3136201647699673
  0.1375722000682803  0.9347146524583881  0.9563037453556152
  0.2505631015157134  0.3379642957770940  0.4764494639586300
  0.3990648003033057  0.4371385538195531  0.6415392573409510
  0.5656462126121237  0.3749391759066955  0.6748972235319086
  0.0575979262714558  0.7867302207648297  0.8265062693792481
  0.3455272231511516  0.3924273303670492  0.1594014953486597
  0.9576340123399114  0.8462596114259017  0.3544164031099744
  0.4980797904765679  0.2005667501523376  0.5991931385867453
  0.1545636095242524  0.1840962323388195  0.5317859596654791
 -0.0004643073533653  0.6816886276387675  0.4748698889688922
  0.4014008061498034  0.4312203479898821  0.3862918365852030
  0.2318335145946812  0.4972969564880370  0.5438312704464476
  0.2340231503189719  0.9740397894405864  0.8699261503794756
  0.0426525300622665  0.5437407055123562  0.7378872122115632
  0.0014294426302638  0.2196185240185532  0.9418097189180592
  0.7055108509277517  0.6679078123647332  0.7791857017970689
  0.6467808232436452  0.0478015975529618  0.4683033262849393
  0.3228296144410163  0.7235326925301254  0.8618468245184687
  0.5093622054163880  0.2677684532806530  0.1220064519066653
  0.7075078209210657  0.4557897585775052  0.5710654566797255
  0.6982286321292300  0.2657014695707510  0.3099770590894816
  0.5138147081665362  0.2579734385094179  0.7175918341656248
  0.0965192220278600  0.8172350368892712  0.2259878403351363
  0.3877448601004571  0.2501338288107622  0.7593117249839025
  0.7738209925144520  0.9279491299731250  0.3496090411801532
  0.5376622109130115  0.1749868481817077  0.2047354570479998
  0.8738842284908898  0.2968024711794844  0.5438593035877824
  0.5971474694456104  0.3444116112086949  0.4557018261341167
  0.0015995982403108  0.4744838934662937  0.3198841965456410
  0.3837727105762269  0.7414923285137720  0.6677016819811339
  0.8286536823795749  0.1631408425858030  0.8070611731650363
  0.8826426669225038  0.1794554100127137  0.2419721809115038
  0.7613996275660951  0.4371160322198623  0.6913863599635812
  0.8386462930912036  0.3886626216941262  0.1904176333108057
  0.8663968508585125  0.3764481667640604  0.9591723386138722
  0.1946681852695496  0.9575057830773716  0.0777368343196125
  0.8856319442603372  0.0076572542044119  0.6067645050259329
  0.1888067677280655  0.5691846849555848  0.3726129518658948
  0.2102629178972440  0.2664870198826972  0.1101688681335159
  0.2915945740383292  0.9105384511208081  0.6285907091457950
  0.6637650874214702  0.4294625747810519  0.0781628392419550
  0.8486161024474623  0.0259748658073921  0.8143866098127814
  0.1917592826643007  0.0727868345493502  0.5875820071621028
  0.4970694331114936  0.6224754749493323  0.4060880152351979
  0.6058231674713503  0.0690260775255342  0.3428732881693918
  0.1475850118975456  0.4812423460635813  0.7942237075453209
  0.9460022646330488  0.8448825942175950  0.2165524356904940
  0.7321811991657623  0.2320227952998710  0.0937939289431847
  0.0743055504771774  0.5209317480110450  0.9033037608102880
  0.3601410428933806  0.5421526057980339  0.0397252747281208
  0.9688390596038436  0.9097981328115734  0.1001981056597521
  0.6861380596023720  0.4884744540550784  0.9627036508307293
  0.6347456950484718  0.2281828046828782  0.7618633182805532
  0.4055058961541439  0.6062777598418010  0.2359568465510916
  0.9047141571206584  0.5364212543545880  0.3798542621708810
  0.0799995480072081  0.3918030268607271  0.5902198853183006
  0.6839558615397617  0.0255485818808329  0.6963746037563194
  0.2290174262873144  0.8865825718422707  0.5015487465615465
  0.4973340246230041  0.4585462960905535  0.9037860452421456
  0.1551930486848002  0.2608006842394613  0.7173067100200664
  0.5684848665810893  0.2631150694753541  0.9505944509216001
  0.2715193203555822  0.8540890677594820  0.0505639866894087
  0.8013857872387133  0.9636542728076649  0.7014284927731460
  0.7993813615303972  0.7621798743878253  0.9220094504882821
  0.0400417207662609  0.8507070186732624  0.6296028713116080
  0.1185779234115789  0.3751540719651267  0.4669364214690611
  0.3569617112223806  0.7053053651039229  0.1520575408963933
  0.7848257441002938  0.1823299906170777  0.9821059537256972
  0.0473538675894133  0.3161188667342565  0.8576483615385094
  0.1636479797354923  0.7952224490591578  0.3410488332659929
  0.8617844989093670  0.9505767075582267  0.2500013724187887
  0.5478328931132052  0.9150065912727232  0.1118749148652429
  0.8154611461411825  0.8332837456617442  0.1424023707617465
  0.1157323889760764  0.8022437381123229  0.9439186647570820
  0.5541625917935314  0.6487215617679392  0.1664998992157203
  0.9710192544843628  0.9774040247753498  0.8147396589203495
  0.3973442164631045  0.8449888068630552  0.5909186004472647
  0.5993215046136912  0.9396645052367942  0.5324207859479851
  0.7786705147889565  0.3845774400865122  0.4879379146671119
  0.7001714958067764  0.0949764078626375  0.9282793617447087
  0.3105112993870616  0.5349718595578298  0.6432966119765152
  0.2275146210453545  0.2724271217528119  0.5954303593127048
  0.3603564338011392  0.6462719935735540  0.5820993759976339
  0.0400799552395248  0.5144513386180030  0.6092518288808306
  0.9650078423095844  0.1406539348467602  0.7751779029449836
  0.5500324673249289  0.5370948914974525  0.2326108863887573
  0.9010646814471988  0.7028049038386033  0.5585306404607647
  0.1713784518760497  0.7762490992541758  0.1219245714373391
  0.5527046908614170  0.9023343226345746  0.2427982560708359
  0.3491727230664419  0.2878117832774837  0.9584642273565360
  0.8458074410544573  0.2011589849564298  0.4538006249401629
  0.2593387683568317  0.1147397918106598  0.6904604948880426
  0.6325900194722687  0.6810358167634057  0.8830569625704309
  0.1528713895933016  0.0698950472018494  0.8307658051182876
  0.1935635429158456  0.4119954207272240  0.9704448555634141
  0.3308378306690248  0.1060375361210223  0.2428009950056257
  0.5760451339858055  0.6862023378248120  0.3226621843300621
  0.8366893519612204  0.0579564436402865  0.1434850300931080
  0.9388656195166345  0.0567828288122798  0.2652662842158033
  0.0573904553131729  0.6697203885574496  0.2424313908940337
  0.5802976061080712  0.4272730807840509  0.5567710439348640
  0.3327411809611555  0.2118800654759748  0.6464994298554390
  0.6721351933478520  0.7916698757989616  0.9341784800792652
  0.9131186467891080  0.4853596567563104  0.1457976857999914
  0.1065145420223127  0.4744344972114785  0.1570075742490358
  0.2459910351739765  0.5570525783219840  0.7565006417994705
  0.8153444552828022  0.4969443550463870  0.9513218472962413
  0.6730526910549806  0.8781905345610943  0.8342058392626635
  0.2221941891560675  0.0785801004337365  0.0225597230934999
  0.3326748054795122  0.5892348831114671  0.8465081273465299
  0.6450467854770523  0.4515993102255155  0.7476104210783021
 -0.0085289627115794  0.7181189106131893  0.3496512602486040
  0.9896230689534387  0.3463965230606176  0.3050786829350398
  0.8406889134597788  0.8281064956529814  0.4115946647766477
  0.1046975312514109  0.1356406019303723  0.0123846900685543
  0.7961724170394521  0.7879837529749164  0.5487120162617415
  0.4720689846937073  0.3670632401288973  0.1926028112678539
  0.6518354325521012  0.2133110678016345  0.5484231933815364
  0.9086422230308234  0.1523915051193710  0.0131002149641660
  0.1807944083076105  0.6275417967760486  0.2573550351410914
  0.5203180516092112  0.5926233770396784  0.7075348732564972
  0.1421366508521476  0.9053657083673854  0.4068236654138638
  0.0250414959249204  0.2558788485230102  0.7435992272209745
  0.9168996788570569  0.4037191090966901  0.4693310647458799
  0.7430467453305555  0.6412016594079745  0.0764662221673910
  0.9105312450877285  0.4881201358194980  0.5725520084592892
  0.6628615899263919  0.2981735330405547  0.8684922959089093
  0.2020672377462230  0.3990467601906364  0.6343931723962116
  0.5017544312219298  0.7954540540277405  0.2966988859005123
  0.6069731073218446  0.0957226564766446  0.1220117758548888
  0.7239966588376987  0.0447227229953053  0.0703146765262535
  0.0236406983371794  0.0073755540552650  0.1731775111864828
  0.3166599653177966  0.9890809335152105  0.3115043988145034
  0.7906846448925208  0.7273299551020170  0.3440644055773119
  0.3238593018899091  0.1956098218938341  0.4914501892063426
  0.0048720038471165  0.0654138166748029  0.3779479220270493
  0.1344894425399424  0.9437455667194072  0.2006199403343764
  0.9620612466230071  0.4071244704337717  0.0509061307892770
  0.9909211487673543  0.3001376588292191  0.6223225299923406
  0.3529198457268021  0.6716986645407894  0.0269032585178746
  0.7147243206943529  0.5870785603729081  0.5878486205857237
  0.4780437892410838  0.0314534840475497  0.5025790977378033
  0.8119048622902617  0.1816037489593481  0.6762204703518104
  0.0475128899831221  0.1244018794081229  0.1272004604979713
  0.2488548570276156  0.7409051548827625  0.9776436237128047
  0.0683306082067155  0.0479427454207869  0.6156519509424767
  0.0831300188721709  0.4592174060037792  0.0288872795905498
  0.1741607475562796  0.3030756226160429  0.8970090781060857
  0.2072623946377564  0.5552319354068641  0.1569712325890813
  0.4985813071349606  0.0299679008089996  0.0895073968686206
  0.7182620192982575  0.4399580489740822  0.1973789538299468
  0.8264602653210612  0.5483567291119744  0.7301106062948591
  0.6508996188343178  0.5768574340574528  0.7048012541917703
  0.8417573081912204  0.5547785757873646  0.0636625426130416
  0.7192732618441798  0.8876120794768202  0.4961663445456080
  0.4628878135942114  0.5636209052661583  0.8258146187631231
  0.0741567908384806  0.3560456304434422  0.2061203808927200
  0.6917517869559450  0.9630277200250793  0.9510785933118616
  0.0186193563692262  0.3035753002547698  0.1013601085248273
  0.4326499487416397  0.8507589573488960  0.3950949120531006
  0.8942200395586976  0.8552681001859482  0.9499503133059066
  0.7944848818111632  0.2736231515650587  0.8888546221462560
  0.9779212820637782  0.7389828650001898  0.6566895983464451
  0.1541694543347079  0.8106995366858299  0.5810190001827528
  0.9781060478254395  0.4218434460803843  0.8912403647774391
  0.6284618642182840  0.1656402071825838  0.0133992789669613
  0.1726335433702850  0.2789593846961512  0.2329284595507391
  0.3714979892094568  0.6341191174395231  0.3706106130112058
  0.0749850920422329  0.0125513421137319  0.7424653128622075
  0.3920330858700949  0.0780625567669450  0.0324891344668845
  0.4192484398084351  0.9795935910192120  0.3948608412976382
  0.3299654840788426  0.5199410248762681  0.1632952453326232
  0.1156811337222076  0.6997649291463383  0.5274418301947191
  0.0966077303732289  0.8835843343885899  0.7430976163722939
  0.7164805918571308  0.2751119712401123  0.4464386345677440
  0.9756536807608198  0.1774466261452838  0.4466172189014703
  0.4951257646565639  0.5226049540547060  0.5954381276693644
  0.6905026404908641  0.7076512538630316  0.5351464220528960
  0.8301363640396947  0.7356265014385169  0.0500244012354912
  0.5803445758906451  0.9370878692680792  0.6629533880119646
  0.2959837450667258  0.8174153853420643  0.1737482329041652
  0.4927299361948305  0.7203585357301894  0.7354700320377670
  0.4595517606795595  0.9601743234068622  0.6162724338656971
  0.0069504914047292  0.6453438646112922  0.9131874266664419
  0.4839747297166078  0.6387851388817282  0.5347328951276357
  0.8915717598286924  0.5777307296738802  0.8749262430460586
  0.3698253672466519  0.3866180339897514  0.5170788303622565
  0.1154614181789649  0.2683915024530392  0.0161944988345569
  0.9038542889639095  0.4050307166575175  0.6800310382162953
  0.1871293392946523  0.9847501775886823  0.3158142326502191
  0.0568587917630663  0.5952550193983501  0.0372388416593398
  0.0000358062023756  0.5524384587713970  0.4767009204377079
  0.8203990166156224  0.4336863715327841  0.3685648749792096
  0.2372145870124968  0.1244457465046016  0.1455371396392068
  0.8923446737744347  0.7211846255144857  0.1893280075316019
  0.4523232906521935  0.0769875982974002  0.2037110194029795
  0.5084991764810077  0.5025821136081294  0.3559207753565580
  0.8080123839262126  0.8781816350069568  0.8421854368923428
  0.3053150781880515  0.3073225422494773  0.2553354705312041
  0.9439010776597272  0.2008643798223406  0.1277775127749781
  0.6227148230673627  0.3050065122534233  0.0653478543532386
  0.4747744908594528  0.7488396164153951  0.1784955600596831
  0.9972638226311993  0.9518695507116804  0.5616832240189336
  0.6660384818420194  0.2925119840339806  0.6520707895230490
  0.7922591877302275  0.8330037917845556  0.6753452591381728
  0.8846188039085605  0.7689152742052394  0.7407161319239436
  0.5651588681173850  0.7433921305666131  0.5591621802910216
  0.3326433700173620  0.2194887059022226  0.1610676350414093
  0.5760076886142338  0.8021996011487119  0.6750514261829049
  0.5409434673226844  0.4577877980276522  0.1294589013730832
  0.3073718626450015  0.6934506774246499  0.4700075957653441
  0.6671843797543093  0.7827779391389589  0.0656898943101800
  0.7976252138633346  0.3103540664308923  0.6510468186871949
  0.7653349170689389  0.0530343555725892  0.3993946423773735
  0.0519640147755645  0.2793477938465663  0.4000466342566987
  0.2824360806340648  0.3544210000709603  0.0506374805349503
  0.2925493861327875  0.6997942250949825  0.2733283661662130
  0.1859013976828106  0.5909155392021129  0.9459900562917629
  0.2879508434535544  0.0084288465719358  0.5267847411803054
  0.6452307681819055  0.8194106693843054  0.4051360994266592
  0.0149587513867466  0.9878907091893459  0.9388799940324163
  0.5383909193841416  0.8391250710775322  0.4743366866159490
  0.2753828793971961  0.7426307944424291  0.7391148908651712
  0.7878323473764458  0.3522737558062657  0.0741126389796158
  0.7103650065189671  0.5115393139785780  0.3763609759319832
  0.3379271223033100  0.8172198915440757  0.4758887560383393
  0.2149166861795875  0.1768155526718512  0.7963605505339449
  0.1233181004811928  0.0947457409269002  0.3333101220898859
  0.1497820730826502  0.5922734179415445  0.5891550597334578
  0.4831199635709570  0.5098989253775387  0.0247378769840019
  0.5327074221508690  0.7943657043991202  0.0698003249897045
