In2O3 structure 43 - random placement wi
   1.00000000000000     
     7.9381798370850030    0.0008408732642610    0.0886285307277208
     0.0008200623157237    7.9967506112401967    0.0016723804367847
     0.0885710648784525    0.0016842294285742    7.9131110452375060
   In   Ga   O 
    14     2    24
Direct
  0.8133606164030880  0.6523227410734833  0.3570825237860547
  0.0549224844088698  0.3842251691881060  0.1008650538235543
  0.7828387641956525  0.1512948104219021  0.3173637593074616
  0.0296201565604264  0.8852197013141065  0.5761775165816516
  0.5289019308399361  0.8833430230980497  0.0743154723320174
  0.2689126763890073  0.1546512442392256  0.3228713192767501
  0.7813125114613868  0.1546087140324630  0.8231016087046186
  0.3022857174354172  0.6570511778370474  0.8555332560207205
  0.5578926139953992  0.3852367888678856  0.1005425363949755
  0.5299471339508131  0.8830849622104466  0.5717186160786198
  0.3050854154275626  0.6523079672837611  0.3551307973845184
  0.8178921456203483  0.6554776785187926  0.8523396270895347
  0.2734357843624196  0.1571966480936311  0.8205098529729185
  0.5567637210285170  0.3830023131116107  0.6023242664439508
  0.0567438224040870  0.3761039913911759  0.5986221925770181
  0.0332201919128181  0.8780380806079577  0.0748981157742250
  0.0650751279476793  0.7892283950445034  0.8322284280892731
  0.5649092327015666  0.7661018968651092  0.3177188592544127
  0.2610674472752095  0.7755255738540612  0.1128353991951911
  0.4253758528774938  0.6218574664653502  0.6086362089479280
  0.1469197819926720  0.1068141411301653  0.0681436889586493
  0.0254442225846603  0.1312375199472200  0.6960477966074023
  0.3012462222659593  0.2818432939929494  0.5650670331505907
  0.3072513677772051  0.4191877018478110  0.2091861523055485
  0.5223922803806857  0.2697423930991576  0.8550893624777274
  0.9301158251585662  0.9157783178069749  0.3075165475015282
  0.8254575560543671  0.4196577368312617  0.7066156796781939
  0.7871080847868868  0.9223346659687763  0.9702802434891424
  0.4157501226936304  0.9231636582463523  0.8216655713081096
  0.0639369038771136  0.6043854109251896  0.4872585176510356
  0.7781135763439480  0.7753283113767466  0.6089635848898354
  0.9312233655505793  0.6277407540418594  0.1073353018322507
  0.6643079659513589  0.1191573557093193  0.5669058881710853
  0.2758324779744967  0.9194992838115894  0.4616929977180462
  0.6706890648562620  0.4199811625643193  0.3534548265728574
  0.0189187651014890  0.2787751243250014  0.3674651186541098
  0.1602920143703983  0.4219691158695582  0.8451603860211208
  0.5214258109062015  0.1204426017753875  0.2094016441416997
  0.8111137839101588  0.2748119405961162  0.0660617376055157
  0.5625346347374673  0.6216783259115672  0.9629277929091344
 
  0.00000000E+00  0.00000000E+00  0.00000000E+00
  0.00000000E+00  0.00000000E+00  0.00000000E+00
  0.00000000E+00  0.00000000E+00  0.00000000E+00
  0.00000000E+00  0.00000000E+00  0.00000000E+00
  0.00000000E+00  0.00000000E+00  0.00000000E+00
  0.00000000E+00  0.00000000E+00  0.00000000E+00
  0.00000000E+00  0.00000000E+00  0.00000000E+00
  0.00000000E+00  0.00000000E+00  0.00000000E+00
  0.00000000E+00  0.00000000E+00  0.00000000E+00
  0.00000000E+00  0.00000000E+00  0.00000000E+00
  0.00000000E+00  0.00000000E+00  0.00000000E+00
  0.00000000E+00  0.00000000E+00  0.00000000E+00
  0.00000000E+00  0.00000000E+00  0.00000000E+00
  0.00000000E+00  0.00000000E+00  0.00000000E+00
  0.00000000E+00  0.00000000E+00  0.00000000E+00
  0.00000000E+00  0.00000000E+00  0.00000000E+00
  0.00000000E+00  0.00000000E+00  0.00000000E+00
  0.00000000E+00  0.00000000E+00  0.00000000E+00
  0.00000000E+00  0.00000000E+00  0.00000000E+00
  0.00000000E+00  0.00000000E+00  0.00000000E+00
  0.00000000E+00  0.00000000E+00  0.00000000E+00
  0.00000000E+00  0.00000000E+00  0.00000000E+00
  0.00000000E+00  0.00000000E+00  0.00000000E+00
  0.00000000E+00  0.00000000E+00  0.00000000E+00
  0.00000000E+00  0.00000000E+00  0.00000000E+00
  0.00000000E+00  0.00000000E+00  0.00000000E+00
  0.00000000E+00  0.00000000E+00  0.00000000E+00
  0.00000000E+00  0.00000000E+00  0.00000000E+00
  0.00000000E+00  0.00000000E+00  0.00000000E+00
  0.00000000E+00  0.00000000E+00  0.00000000E+00
  0.00000000E+00  0.00000000E+00  0.00000000E+00
  0.00000000E+00  0.00000000E+00  0.00000000E+00
  0.00000000E+00  0.00000000E+00  0.00000000E+00
  0.00000000E+00  0.00000000E+00  0.00000000E+00
  0.00000000E+00  0.00000000E+00  0.00000000E+00
  0.00000000E+00  0.00000000E+00  0.00000000E+00
  0.00000000E+00  0.00000000E+00  0.00000000E+00
  0.00000000E+00  0.00000000E+00  0.00000000E+00
  0.00000000E+00  0.00000000E+00  0.00000000E+00
  0.00000000E+00  0.00000000E+00  0.00000000E+00
