Amorphous Sb                            
   1.00000000000000     
    21.0818260605494565    0.0000000000000000    0.0000000000000000
     0.0000000000000000   21.0818260605494565    0.0000000000000000
     0.0000000000000000    0.0000000000000000   21.0818260605494565
   Ge   Te
   150   150
Direct
  0.4867257973284593  0.8515309139915211  0.6461126336084542
  0.7865151535142382  0.5996975878967769  0.3188410591539090
  0.9575352699326787  0.1489108829278351  0.2092238673982013
  0.4266377181700989  0.3660532715933228  0.7678529612672331
  0.3308757111342566  0.0565693011373642  0.8713536032088680
  0.2965596657037747  0.1803072274717638  0.1961598225812755
  0.9706036667804311  0.0777639848317035  0.3767577840932363
  0.1320954476659935  0.9417036577361798  0.0583241792408571
  0.0404449808745679  0.2462681712343195  0.4551100470300466
  0.9052892313679999  0.4546731534717090  0.6581617354246673
  0.5752708722026116  0.3547006254385924  0.8991605810512079
  0.1583677758008186  0.7972862331233430  0.3658125829160483
  0.9607007380926103  0.7550322696478008  0.3958382012798862
  0.2171759928709329  0.4806430831036081  0.2149437549952073
  0.2327752955951766  0.7598114316435951  0.5651263995740460
  0.4568503757229691  0.4808632049981558 -0.0107782182425015
  0.7580762433275187  0.4341936392929081  0.5509220679267905
  0.9402924377595985  0.6265376925788543  0.6251595059281070
  0.7245643789522290 -0.0008322169488574  0.2546639038007527
  0.9604133539394399  0.9618768010768146  0.1577574350488326
  0.4355316552675152  0.0792280696951310  0.0766085165416206
  0.8957513922495757  0.8008615318405197  0.6045422264508997
  0.4202851721424743  0.8067555233854750  0.4823285964395689
  0.1046496638823506  0.4389900928273516  0.7904891976736302
  0.5734774733411356  0.9183096815601333  0.7122129152472552
  0.5877201774697359  0.3339578487029858  0.3126874495960098
  0.9397182718263966  0.9398806226777051  0.6174529025836415
  0.1345129546352256  0.3756698530167315  0.3216421810814207
  0.3258833863553930  0.1968588646524493  0.6575427523595441
  0.1154708213798319  0.6999863291408155  0.1036172180032122
  0.2116185542195720  0.3311421289310770  0.4473947196546935
  0.8302820690924808  0.4250160691043469  0.2016322501064108
  0.3389511242160269  0.1456862568220522  0.7794922116088906
  0.1000618073402765  0.9087715649104333  0.3740713416804127
  0.9793880915157361 -0.0085919370754939  0.8266998030440398
  0.3917033252821400  0.2535906662816710  0.2225485112684289
  0.7547663994107345  0.4574417961365273  0.4303489144913134
  0.6211248861122979  0.5175222766486407  0.0699448614788585
  0.1138856933301379  0.5882359610384699  0.9526580233932895
  0.7832082890805809  0.1000378718290526  0.5743331862456212
  0.1936538952744607  0.0968296436876755  0.9268344429541499
  0.9626411146375423  0.5421759969771776  0.7143888934796494
  0.3814667747208513  0.0724000572388645  0.5940090624291593
  0.9229312102493222  0.5619665986924275  0.4893646596302212
  0.7145972456838754  0.8814566526486880  0.5611348385023306
  0.3424316152080550  0.6093300358493824  0.3997197932626704
  0.5423332984096225  0.0141057966883412  0.3110183195029396
  0.2314213945227740  0.6147835406303540  0.8803732663966285
  0.1245983056190612  0.3453188238812123  0.1161744107355704
  0.9058558643714234  0.3290854906457746  0.2254328179085865
  0.9625213345652534  0.6490934890366955  0.9680328103426823
  0.2790282952654327  0.5465097410068012  0.6050496012915342
  0.8638715253833642  0.9683867266919213  0.9924613130407302
  0.0193164356744973  0.8103544553027122  0.6035865091282605
  0.5036734698128675  0.9195996718419748  0.0804920159742400
  0.5451948570641754  0.0880569822568342  0.1436783404789748
  0.8420547012764352  0.5090916705796018  0.9494596037615051
  0.0543576139617125  0.3597010179860525  0.4087100518208040
  0.4346994246602709  0.0751522535007603  0.2850582753509418
  0.5051255264808294  0.4989165336864921  0.0997322976355135
  0.6963398973295570  0.4558098417920085  0.7593617290887861
  0.8435694920211816  0.0073272266258674  0.4379431679377664
  0.2978981012197942  0.2133003222864488  0.0798319486442781
  0.0692927143474720  0.8566967258824553  0.4970109147836922
  0.6816319258495647  0.1380445592919647  0.9183926597829294
  0.8699132673202156  0.3691778774752373  0.7340729764416243
  0.6035849202075984  0.8447685776434277  0.3300103152814781
  0.2476443192244150  0.9671130042054162  0.4826066565911658
  0.9125278829317786  0.1333699858578707  0.9447758307699461
  0.2261161846516543  0.4373865530636533  0.7676609349101261
  0.8245700088751312  0.5254880867220239  0.5997032206466875
  0.3178275774984725  0.2140832148653770  0.5347548112733365
  0.5329506069133531  0.2022591438109780  0.5199072633546978
  0.8989711792229432  0.3170584808817012  0.9233109058586771
  0.1538109421802379  0.7294011825286634  0.2631717839700846
  0.8577339170560215  0.3246477663977959  0.0436212676029555
  0.6498146046664709  0.5529928941604955  0.9519208546394045
  0.9625102630050419  0.5592859643683513  0.8384290025463419
  0.0007092990584609  0.3958201010953008  0.5971747995728285
  0.4646828012534076  0.6071847403184012  0.1450805512119118
  0.5418598408084132  0.9375657520015837  0.4863079990015895
  0.1707108033472886  0.1588150549310577  0.2317689372252300
  0.6769528623437898  0.7457174551101545  0.7577098501332888
  0.1603401226604612  0.1211892541533032  0.1067369391193396
  0.2988982282916246  0.3406348235102091  0.7745144472627724
  0.7346999923421316  0.7215880876277871  0.1462817288345793
  0.9020014233190387  0.9690661655386311  0.2671429179830450
  0.9639434409869760  0.9030033112169736  0.9595247258490354
  0.9498434964089162  0.4084377094756115  0.3691111457329517
  0.5911186762903766  0.1883805186522119  0.3774841450605952
  0.0374605108995003  0.7465651702157098  0.8981292262175241
  0.3820202993992419  0.3832067926834186  0.2118449835425199
  0.6885213950770950  0.2513471402098483  0.5398890787139465
  0.1662993499229714  0.8882735053094087  0.1642884519415574
  0.4305921090580446 -0.0102145846144677  0.8957309726580117
  0.6729278580438429  0.0484683520373349  0.7766974407189801
  0.0164360235474468  0.2813091804326668  0.7872516562025823
  0.6392873922683876  0.8105375162255604  0.1536645198948844
  0.0163091418269328  0.0594279742419990  0.7353599333321451
  0.2661030684060688  0.3571364552758673  0.9797830064338652
  0.1928261413852221  0.7721661393187892  0.1584084013388956
  0.5112778420351161  0.7090888757872522  0.7991133540011844
  0.7486259425271615  0.1845866888569910  0.2025915695069421
  0.9342739959090410  0.0550868177795877  0.6511656952988689
  0.3501023769955071  0.9283226522862309  0.4237589642159156
  0.6046648096917540  0.3230852782582914  0.5971065276163194
  0.4862218757951723  0.6501703797916673  0.6339621344349603
  0.3922579431654882  0.5359476028914322  0.3023905012535035
  0.2301623449347801  0.0350248312137940  0.2901260243097782
  0.3970862653219907  0.5698458853842213  0.5862553071844208
  0.7920827711488564  0.7804326135783142  0.5114725243658504
  0.7325698030747099  0.1161202304184406  0.0999003460931089
  0.4644835917422397  0.7736272382006583  0.1591529251298977
  0.7511201369988220  0.7887210411574358  0.2808250329410951
  0.1872122923351335  0.2742661620016287  0.2806648558973618
  0.2362738382707447  0.1572624344652504  0.4608495625749012
  0.5373993673767233  0.0569363493334588  0.8867788331795632
  0.4069687935250058  0.2806955853621166  0.6834757803148096
  0.4308615389671250  0.6416613597026756  0.8707004027864316
  0.0223899931017076  0.3033403070361613  0.2652306523247401
  0.3950037205233392  0.8530377236866122  0.7440712560781126
  0.6193544967654759  0.1542830102509728  0.0722655547487799
  0.3577313952375999  0.7928124683701985  0.3197965896810056
  0.7618032231461237  0.3256531629727771  0.4054028533763869
  0.9787230495767008  0.9338805175178270  0.3568303065319015
  0.7495958227357787  0.4631706106307488  0.2904056833382791
  0.6198110299967942  0.2508350064795570  0.7027532662079430
  0.5867984391291561  0.1998186541049488  0.9621569240324401
  0.4205971900528135  0.2825164538636789  0.8589496193537461
  0.8577485085405010  0.7795400353537800  0.0309255045811118
  0.0652788113057866  0.0557283467822941  0.0605955081154647
  0.8357012822222656  0.6204037461526216  0.1597279387765486
  0.7215672487398892  0.8901542375449014  0.0856081232998227
  0.0909943165305687  0.9026270125116516  0.2544269152344558
  0.3673006208918482  0.3723821996708082  0.6125414486897233
  0.2234168307368030  0.0111466068858335  0.7476756554054814
  0.5735384831068133  0.2401985500240665  0.2237291862818187
  0.5469140089447797  0.4446264888126312  0.2676573756392771
  0.0476559008734639  0.8620236443055511  0.7158246218670307
  0.8922436689755291  0.5086809052386172  0.3177433072689889
  0.6946091903785906  0.5999378473044031  0.5948194037195194
  0.0969219276301057  0.5560392751037101  0.4880548633027018
  0.5435377054701285  0.4905210688349608  0.5237100664198046
  0.0651980169136769  0.9498911275613973  0.9050593454893593
  0.6444169574104425  0.6419669835787187  0.2139717596308895
  0.0031978477795957  0.7358123367908513  0.7359591906301161
  0.2759188046682557  0.5441592771009559  0.7924763607365298
  0.0802119887371347  0.7698130534162823  0.0108692686517897
  0.7403412237915670  0.9699564860555187  0.7082873449414093
  0.6228043723982059  0.3446488357381252  0.4317709861272164
  0.7748550107674408  0.5639945529533097  0.0516744297914894
  0.7803713894172043 -0.0019255463321908  0.1317784428409576
  0.1825725485079422  0.8399817992540766  0.9889056530219823
  0.6675353373037015  0.6418893291143911  0.3575041616742958
  0.0626304797419095  0.6464304658095812  0.8160397993625361
  0.6650683850335054  0.1471847387970038  0.6090326171681499
  0.8756499763360209  0.2157220331453743  0.8508482777034607
  0.9301907837015905  0.6756165071648257  0.0907735934970033
  0.9046217892543902  0.4307377964215301  0.4845293583377762
  0.3430755317050822  0.5152498656097751  0.1843912821324399
  0.2950122363496185  0.2678152973521134  0.8850129170460674
  0.6248479637154436  0.1294224635566416  0.2632969590264528
  0.7880094387250252  0.1615544517651847  0.9932436747688455
  0.4005919134755125  0.9621955368146919  0.0195410840977261
  0.2819919015497257  0.5434652027078526  0.9792580581463597
  0.7200717491239480  0.1977376920666712  0.4249127578457119
  0.5482905128722447  0.8038731176591609  0.0564052813036497
  0.9183693433476744  0.5173872002773245  0.1888310277766812
  0.3562197698900065  0.0660935149805173  0.1801187534642278
  0.5329312312624253  0.5762017365143008  0.7309006245447701
  0.4084461235432286  0.9530173690146241  0.5376946309887968
  0.4128995487442040  0.5231954091697311  0.4696482143770754
  0.0882796206317802  0.7359871199438939  0.4528705666623822
  0.3647157795024301  0.7526652988412477  0.5881605198067025
  0.0019094313376614  0.8498531242453584  0.0707712211897513
  0.7515981359456589  0.3381097793174818  0.7563740108844862
  0.2529749231352739  0.0642498271474018  0.5670742980784585
  0.4757560236793558  0.3163464036476438  0.9679888534500332
  0.5141680951348345  0.3361295569896223  0.5051574225913025
  0.6204956272130543  0.9235621533476599  0.2241772641092652
  0.5430268600848707  0.8100727582759214  0.5252220484143455
  0.2288419452631429  0.0285116648884118  0.0482745162028359
  0.5832554340732409  0.6411313549852424  0.0910139126350889
  0.2817917920465813  0.2563813923263593  0.3631142606206499
  0.8664281119312518  0.0292983654427768  0.8750272231376018
  0.4912565924143329  0.9049188356454942  0.3678976992701432
  0.7021496283050630  0.1711258224876515  0.7972420909036209
  0.3089901328582855  0.7436336054856926  0.1252171317102962
  0.2776289953564693  0.8905672394071711  0.7028847502679467
  0.3564698481118930  0.3250016802097542  0.0652601622760088
  0.5989299159251893 -0.0040576239487483  0.0588555433102462
  0.9397615423950417  0.0780899893770941  0.0962878844752598
  0.0526598153947224  0.1764956525060249  0.3464732575493150
  0.5515545626465550  0.0734171752024529  0.4249823530300888
  0.1047632588738755  0.8440004647960078  0.8329521220058060
  0.6213906798684311  0.7050404001608548  0.8692859660918648
  0.3630703241523653  0.1461447481422979 -0.0051336016523526
  0.3360172115539024  0.0503066239817312  0.3672073364686648
  0.0030664917419763  0.2768400467608256  0.9864638994338732
  0.8612212765742544  0.6250138524067801  0.8869047117082687
  0.6669689174049613  0.2610218011866064  0.1324991383389698
  0.5684616218969811  0.3551879235457583  0.7727825253418379
  0.0815358953603911  0.3520778632524065  0.6968033852875397
  0.2294590335773742  0.4601865414108412  0.3445438154002978
  0.1535778631464439  0.5851102888262389  0.0773055072627118
  0.6721090325203292  0.2983252406930743  0.9527150473288016
  0.7971563889863109  0.5814365535895855  0.4481428356936890
  0.9744231968623119  0.2726675124977680  0.5750965805907802
  0.9428045489513820  0.4016451958182015  0.8332087560165963
  0.4169018592276832  0.1499806348703967  0.4887393279695710
  0.4508034310159447  0.4639050809340924  0.6363555637259258
  0.4024221643576374  0.5408207345426194  0.7958203264764993
  0.8287195159820857  0.1049152693534372  0.6953740388004634
  0.5736957816263458  0.6182706880103463  0.5413333107375778
  0.7748113403429392  0.4182072565641688  0.0869932914543018
  0.1579195511599436  0.0191346349456274  0.4028618810206786
  0.5606133032057237  0.7481942723927552  0.2472737851218562
  0.4339545034733877  0.7076448080135325  0.3871084766203642
  0.7190568267555304  0.0472649560165371  0.4341266928939562
  0.6238307544679105  0.4729671053620301  0.4105018321516125
  0.4811457669867365  0.2189200815377674  0.1352832379232928
  0.3639449663383532  0.0240198738029102  0.7412154435800337
  0.2293755714752090  0.2733193309146034  0.6885421132281901
  0.7274331958817115  0.4660726542591639  0.8958755867568985
  0.9748304704977788  0.5940180613815027  0.3680143596854142
  0.2384493238160357  0.3444429750922630  0.1864695515177498
  0.3698104232536625  0.7256060349482715  0.7373423214890952
  0.8664252906897967  0.2327125880168665  0.1537652897060752
  0.0546230176758698  0.0217872031861206  0.2250091939369085
  0.1832074061892038  0.2250384125147549  0.0283189995700974
  0.5115587118029482  0.5735281739499563  0.2633292195523470
  0.7056597063219801  0.7611822209600344  0.4078567756251281
  0.1532735313694132  0.2388190326699535  0.5211581325598983
  0.7122940489480941  0.3356995051545192  0.2812955477252029
  0.1712293867401498  0.4734666580304983  0.9325656961635760
  0.0787319896868793  0.1681094258709179  0.7236273132413792
  0.9269794520073235  0.9021375963444548  0.7459058744422888
  0.9214074653095944  0.2554623065479238  0.7019520142404746
  0.7994119711895752  0.3131952100191834  0.5525034131932584
  0.6697746795986382  0.0106461421862548  0.8983051047241492
  0.3226889547216596  0.7103213005838261  0.8687772325766016
  0.2704618392247535  0.7671812910931052  0.4125198889304088
  0.5505944632309893  0.4830999898164293  0.9003559498972197
  0.6418995488983092  0.9781212682352941  0.6184526885651745
  0.2493922986372669  0.4231477308771756  0.6384011135399893
  0.4198615857802421  0.6045202413557415  0.9942341561860722
  0.0698940569618828  0.2361890887997306  0.1645869472417186
  0.4277306181591499  0.4155398663379511  0.3328819322253057
  0.4499656279792633  0.1977180089638391  0.3192233461575024
  0.0614138526080882  0.0957071912088143  0.9391717758477690
  0.4448239085292608  0.8991080155757972  0.1889971743325700
  0.9720453711690094  0.3792742418449203  0.0655158062462157
  0.2400325673443966  0.6191522383978364  0.6983918513804676
  0.8030817839896507  0.5293349923229826  0.7268097761069999
  0.0720408285563091  0.4203933664040830  0.2188062793533538
  0.6614438696724982  0.5025926218498367  0.2002103275904977
  0.3376386650962073  0.6863894499110604  0.2421230361783239
  0.1002695742196035  0.4218729878359838  0.5122171969118421
  0.8682816613490552  0.0942542741429947  0.2937855255325978
  0.8787369979574341  0.7115554857637939  0.7013290037597417
  0.3908239399372396  0.8695894624235057  0.8740374670072734
  0.2234521553481355  0.5889145023229325  0.5008417915949617
  0.8812687762009108  0.2990352646162242  0.3519026450851675
  0.8933221958292616  0.1316033450040082  0.4716085138315682
  0.6785314221029499  0.9169072071978879  0.4402687337004263
  0.9013801781593354  0.7066856207129774  0.5077991494568168
 -0.0038091843388297  0.1013980390334768  0.5495579680579585
  0.9809477363372570  0.8381343064346054  0.2658233778890237
  0.5148159057560022  0.8082052677581416  0.8813241809147698
  0.4602191813692819  0.1652032609131601  0.8278639784203010
 -0.0041283233730248  0.5218624830352014  0.9606213715597829
  0.3515919259970905  0.4387679602685283  0.9214146101110668
  0.5447943133253906  0.0394938683582994  0.7560229878771485
  0.6709107864368463  0.8829385892606357  0.7857339574655066
  0.1851799437411695  0.8856642988618706  0.5571574818830589
  0.0462939662529036  0.6909751610977195  0.2088387871525751
  0.7728820420539175  0.8778062292904292  0.9681731466211619
  0.6639845298832172  0.6064963364152840  0.7233284140887735
  0.0947578576545632  0.9802750511753081  0.6763618250245128
  0.1909695703719994  0.1444404964994133  0.7939026918436989
  0.9274258795992675  0.8694874216927975  0.4522605114475248
  0.0884687369536144  0.5378683704091732  0.7087291557602919
  0.8166048997143268  0.9676130267911333  0.5648942432459753
  0.1074062370961610  0.5395569457766536  0.3577320584459278
  0.6468020644746565  0.4435434190681971  0.6118287248799782
  0.7990749540172833  0.9101975091102171  0.3176958176117007
  0.8528486897514092  0.7082412288390166  0.2935088924510177
  0.2205062876949083  0.6250934929390380  0.2887804397071901
  0.2583084870186078  0.9156420214131875  0.2470676979313782
  0.5657070992558961  0.7536773119514264  0.6843394948106498
  0.1990648676254199  0.7835970384992812  0.6932003576129904
  0.7487821333209945  0.7007229273813839  0.0177912692992739
  0.5050891090877460  0.3886457078003382  0.1578691072384618
  0.9224973192457089  0.7988527639856228  0.8974771674777663
  0.0613286041449819  0.6899875876184823  0.6282450623981171
  0.3388958505059081  0.3362141209040598  0.4936345689518276
  0.5056836166319363  0.2039047556137350  0.6500769186116635
  0.2263514503662895  0.9764708864311918  0.8762849876767990
  0.7292779189408343  0.7239818101358407  0.6065587631926304
  0.8164783011967373  0.8224206670076852  0.1526559063026457
 
  0.00000000E+00  0.00000000E+00  0.00000000E+00
  0.00000000E+00  0.00000000E+00  0.00000000E+00
  0.00000000E+00  0.00000000E+00  0.00000000E+00
  0.00000000E+00  0.00000000E+00  0.00000000E+00
  0.00000000E+00  0.00000000E+00  0.00000000E+00
  0.00000000E+00  0.00000000E+00  0.00000000E+00
  0.00000000E+00  0.00000000E+00  0.00000000E+00
  0.00000000E+00  0.00000000E+00  0.00000000E+00
  0.00000000E+00  0.00000000E+00  0.00000000E+00
  0.00000000E+00  0.00000000E+00  0.00000000E+00
  0.00000000E+00  0.00000000E+00  0.00000000E+00
  0.00000000E+00  0.00000000E+00  0.00000000E+00
  0.00000000E+00  0.00000000E+00  0.00000000E+00
  0.00000000E+00  0.00000000E+00  0.00000000E+00
  0.00000000E+00  0.00000000E+00  0.00000000E+00
  0.00000000E+00  0.00000000E+00  0.00000000E+00
  0.00000000E+00  0.00000000E+00  0.00000000E+00
  0.00000000E+00  0.00000000E+00  0.00000000E+00
  0.00000000E+00  0.00000000E+00  0.00000000E+00
  0.00000000E+00  0.00000000E+00  0.00000000E+00
  0.00000000E+00  0.00000000E+00  0.00000000E+00
  0.00000000E+00  0.00000000E+00  0.00000000E+00
  0.00000000E+00  0.00000000E+00  0.00000000E+00
  0.00000000E+00  0.00000000E+00  0.00000000E+00
  0.00000000E+00  0.00000000E+00  0.00000000E+00
  0.00000000E+00  0.00000000E+00  0.00000000E+00
  0.00000000E+00  0.00000000E+00  0.00000000E+00
  0.00000000E+00  0.00000000E+00  0.00000000E+00
  0.00000000E+00  0.00000000E+00  0.00000000E+00
  0.00000000E+00  0.00000000E+00  0.00000000E+00
  0.00000000E+00  0.00000000E+00  0.00000000E+00
  0.00000000E+00  0.00000000E+00  0.00000000E+00
  0.00000000E+00  0.00000000E+00  0.00000000E+00
  0.00000000E+00  0.00000000E+00  0.00000000E+00
  0.00000000E+00  0.00000000E+00  0.00000000E+00
  0.00000000E+00  0.00000000E+00  0.00000000E+00
  0.00000000E+00  0.00000000E+00  0.00000000E+00
  0.00000000E+00  0.00000000E+00  0.00000000E+00
  0.00000000E+00  0.00000000E+00  0.00000000E+00
  0.00000000E+00  0.00000000E+00  0.00000000E+00
  0.00000000E+00  0.00000000E+00  0.00000000E+00
  0.00000000E+00  0.00000000E+00  0.00000000E+00
  0.00000000E+00  0.00000000E+00  0.00000000E+00
  0.00000000E+00  0.00000000E+00  0.00000000E+00
  0.00000000E+00  0.00000000E+00  0.00000000E+00
  0.00000000E+00  0.00000000E+00  0.00000000E+00
  0.00000000E+00  0.00000000E+00  0.00000000E+00
  0.00000000E+00  0.00000000E+00  0.00000000E+00
  0.00000000E+00  0.00000000E+00  0.00000000E+00
  0.00000000E+00  0.00000000E+00  0.00000000E+00
  0.00000000E+00  0.00000000E+00  0.00000000E+00
  0.00000000E+00  0.00000000E+00  0.00000000E+00
  0.00000000E+00  0.00000000E+00  0.00000000E+00
  0.00000000E+00  0.00000000E+00  0.00000000E+00
  0.00000000E+00  0.00000000E+00  0.00000000E+00
  0.00000000E+00  0.00000000E+00  0.00000000E+00
  0.00000000E+00  0.00000000E+00  0.00000000E+00
  0.00000000E+00  0.00000000E+00  0.00000000E+00
  0.00000000E+00  0.00000000E+00  0.00000000E+00
  0.00000000E+00  0.00000000E+00  0.00000000E+00
  0.00000000E+00  0.00000000E+00  0.00000000E+00
  0.00000000E+00  0.00000000E+00  0.00000000E+00
  0.00000000E+00  0.00000000E+00  0.00000000E+00
  0.00000000E+00  0.00000000E+00  0.00000000E+00
  0.00000000E+00  0.00000000E+00  0.00000000E+00
  0.00000000E+00  0.00000000E+00  0.00000000E+00
  0.00000000E+00  0.00000000E+00  0.00000000E+00
  0.00000000E+00  0.00000000E+00  0.00000000E+00
  0.00000000E+00  0.00000000E+00  0.00000000E+00
  0.00000000E+00  0.00000000E+00  0.00000000E+00
  0.00000000E+00  0.00000000E+00  0.00000000E+00
  0.00000000E+00  0.00000000E+00  0.00000000E+00
  0.00000000E+00  0.00000000E+00  0.00000000E+00
  0.00000000E+00  0.00000000E+00  0.00000000E+00
  0.00000000E+00  0.00000000E+00  0.00000000E+00
  0.00000000E+00  0.00000000E+00  0.00000000E+00
  0.00000000E+00  0.00000000E+00  0.00000000E+00
  0.00000000E+00  0.00000000E+00  0.00000000E+00
  0.00000000E+00  0.00000000E+00  0.00000000E+00
  0.00000000E+00  0.00000000E+00  0.00000000E+00
  0.00000000E+00  0.00000000E+00  0.00000000E+00
  0.00000000E+00  0.00000000E+00  0.00000000E+00
  0.00000000E+00  0.00000000E+00  0.00000000E+00
  0.00000000E+00  0.00000000E+00  0.00000000E+00
  0.00000000E+00  0.00000000E+00  0.00000000E+00
  0.00000000E+00  0.00000000E+00  0.00000000E+00
  0.00000000E+00  0.00000000E+00  0.00000000E+00
  0.00000000E+00  0.00000000E+00  0.00000000E+00
  0.00000000E+00  0.00000000E+00  0.00000000E+00
  0.00000000E+00  0.00000000E+00  0.00000000E+00
  0.00000000E+00  0.00000000E+00  0.00000000E+00
  0.00000000E+00  0.00000000E+00  0.00000000E+00
  0.00000000E+00  0.00000000E+00  0.00000000E+00
  0.00000000E+00  0.00000000E+00  0.00000000E+00
  0.00000000E+00  0.00000000E+00  0.00000000E+00
  0.00000000E+00  0.00000000E+00  0.00000000E+00
  0.00000000E+00  0.00000000E+00  0.00000000E+00
  0.00000000E+00  0.00000000E+00  0.00000000E+00
  0.00000000E+00  0.00000000E+00  0.00000000E+00
  0.00000000E+00  0.00000000E+00  0.00000000E+00
  0.00000000E+00  0.00000000E+00  0.00000000E+00
  0.00000000E+00  0.00000000E+00  0.00000000E+00
  0.00000000E+00  0.00000000E+00  0.00000000E+00
  0.00000000E+00  0.00000000E+00  0.00000000E+00
  0.00000000E+00  0.00000000E+00  0.00000000E+00
  0.00000000E+00  0.00000000E+00  0.00000000E+00
  0.00000000E+00  0.00000000E+00  0.00000000E+00
  0.00000000E+00  0.00000000E+00  0.00000000E+00
  0.00000000E+00  0.00000000E+00  0.00000000E+00
  0.00000000E+00  0.00000000E+00  0.00000000E+00
  0.00000000E+00  0.00000000E+00  0.00000000E+00
  0.00000000E+00  0.00000000E+00  0.00000000E+00
  0.00000000E+00  0.00000000E+00  0.00000000E+00
  0.00000000E+00  0.00000000E+00  0.00000000E+00
  0.00000000E+00  0.00000000E+00  0.00000000E+00
  0.00000000E+00  0.00000000E+00  0.00000000E+00
  0.00000000E+00  0.00000000E+00  0.00000000E+00
  0.00000000E+00  0.00000000E+00  0.00000000E+00
  0.00000000E+00  0.00000000E+00  0.00000000E+00
  0.00000000E+00  0.00000000E+00  0.00000000E+00
  0.00000000E+00  0.00000000E+00  0.00000000E+00
  0.00000000E+00  0.00000000E+00  0.00000000E+00
  0.00000000E+00  0.00000000E+00  0.00000000E+00
  0.00000000E+00  0.00000000E+00  0.00000000E+00
  0.00000000E+00  0.00000000E+00  0.00000000E+00
  0.00000000E+00  0.00000000E+00  0.00000000E+00
  0.00000000E+00  0.00000000E+00  0.00000000E+00
  0.00000000E+00  0.00000000E+00  0.00000000E+00
  0.00000000E+00  0.00000000E+00  0.00000000E+00
  0.00000000E+00  0.00000000E+00  0.00000000E+00
  0.00000000E+00  0.00000000E+00  0.00000000E+00
  0.00000000E+00  0.00000000E+00  0.00000000E+00
  0.00000000E+00  0.00000000E+00  0.00000000E+00
  0.00000000E+00  0.00000000E+00  0.00000000E+00
  0.00000000E+00  0.00000000E+00  0.00000000E+00
  0.00000000E+00  0.00000000E+00  0.00000000E+00
  0.00000000E+00  0.00000000E+00  0.00000000E+00
  0.00000000E+00  0.00000000E+00  0.00000000E+00
  0.00000000E+00  0.00000000E+00  0.00000000E+00
  0.00000000E+00  0.00000000E+00  0.00000000E+00
  0.00000000E+00  0.00000000E+00  0.00000000E+00
  0.00000000E+00  0.00000000E+00  0.00000000E+00
  0.00000000E+00  0.00000000E+00  0.00000000E+00
  0.00000000E+00  0.00000000E+00  0.00000000E+00
  0.00000000E+00  0.00000000E+00  0.00000000E+00
  0.00000000E+00  0.00000000E+00  0.00000000E+00
  0.00000000E+00  0.00000000E+00  0.00000000E+00
  0.00000000E+00  0.00000000E+00  0.00000000E+00
  0.00000000E+00  0.00000000E+00  0.00000000E+00
  0.00000000E+00  0.00000000E+00  0.00000000E+00
  0.00000000E+00  0.00000000E+00  0.00000000E+00
  0.00000000E+00  0.00000000E+00  0.00000000E+00
  0.00000000E+00  0.00000000E+00  0.00000000E+00
  0.00000000E+00  0.00000000E+00  0.00000000E+00
  0.00000000E+00  0.00000000E+00  0.00000000E+00
  0.00000000E+00  0.00000000E+00  0.00000000E+00
  0.00000000E+00  0.00000000E+00  0.00000000E+00
  0.00000000E+00  0.00000000E+00  0.00000000E+00
  0.00000000E+00  0.00000000E+00  0.00000000E+00
  0.00000000E+00  0.00000000E+00  0.00000000E+00
  0.00000000E+00  0.00000000E+00  0.00000000E+00
  0.00000000E+00  0.00000000E+00  0.00000000E+00
  0.00000000E+00  0.00000000E+00  0.00000000E+00
  0.00000000E+00  0.00000000E+00  0.00000000E+00
  0.00000000E+00  0.00000000E+00  0.00000000E+00
  0.00000000E+00  0.00000000E+00  0.00000000E+00
  0.00000000E+00  0.00000000E+00  0.00000000E+00
  0.00000000E+00  0.00000000E+00  0.00000000E+00
  0.00000000E+00  0.00000000E+00  0.00000000E+00
  0.00000000E+00  0.00000000E+00  0.00000000E+00
  0.00000000E+00  0.00000000E+00  0.00000000E+00
  0.00000000E+00  0.00000000E+00  0.00000000E+00
  0.00000000E+00  0.00000000E+00  0.00000000E+00
  0.00000000E+00  0.00000000E+00  0.00000000E+00
  0.00000000E+00  0.00000000E+00  0.00000000E+00
  0.00000000E+00  0.00000000E+00  0.00000000E+00
  0.00000000E+00  0.00000000E+00  0.00000000E+00
  0.00000000E+00  0.00000000E+00  0.00000000E+00
  0.00000000E+00  0.00000000E+00  0.00000000E+00
  0.00000000E+00  0.00000000E+00  0.00000000E+00
  0.00000000E+00  0.00000000E+00  0.00000000E+00
  0.00000000E+00  0.00000000E+00  0.00000000E+00
  0.00000000E+00  0.00000000E+00  0.00000000E+00
  0.00000000E+00  0.00000000E+00  0.00000000E+00
  0.00000000E+00  0.00000000E+00  0.00000000E+00
  0.00000000E+00  0.00000000E+00  0.00000000E+00
  0.00000000E+00  0.00000000E+00  0.00000000E+00
  0.00000000E+00  0.00000000E+00  0.00000000E+00
  0.00000000E+00  0.00000000E+00  0.00000000E+00
  0.00000000E+00  0.00000000E+00  0.00000000E+00
  0.00000000E+00  0.00000000E+00  0.00000000E+00
  0.00000000E+00  0.00000000E+00  0.00000000E+00
  0.00000000E+00  0.00000000E+00  0.00000000E+00
  0.00000000E+00  0.00000000E+00  0.00000000E+00
  0.00000000E+00  0.00000000E+00  0.00000000E+00
  0.00000000E+00  0.00000000E+00  0.00000000E+00
  0.00000000E+00  0.00000000E+00  0.00000000E+00
  0.00000000E+00  0.00000000E+00  0.00000000E+00
  0.00000000E+00  0.00000000E+00  0.00000000E+00
  0.00000000E+00  0.00000000E+00  0.00000000E+00
  0.00000000E+00  0.00000000E+00  0.00000000E+00
  0.00000000E+00  0.00000000E+00  0.00000000E+00
  0.00000000E+00  0.00000000E+00  0.00000000E+00
  0.00000000E+00  0.00000000E+00  0.00000000E+00
  0.00000000E+00  0.00000000E+00  0.00000000E+00
  0.00000000E+00  0.00000000E+00  0.00000000E+00
  0.00000000E+00  0.00000000E+00  0.00000000E+00
  0.00000000E+00  0.00000000E+00  0.00000000E+00
  0.00000000E+00  0.00000000E+00  0.00000000E+00
  0.00000000E+00  0.00000000E+00  0.00000000E+00
  0.00000000E+00  0.00000000E+00  0.00000000E+00
  0.00000000E+00  0.00000000E+00  0.00000000E+00
  0.00000000E+00  0.00000000E+00  0.00000000E+00
  0.00000000E+00  0.00000000E+00  0.00000000E+00
  0.00000000E+00  0.00000000E+00  0.00000000E+00
  0.00000000E+00  0.00000000E+00  0.00000000E+00
  0.00000000E+00  0.00000000E+00  0.00000000E+00
  0.00000000E+00  0.00000000E+00  0.00000000E+00
  0.00000000E+00  0.00000000E+00  0.00000000E+00
  0.00000000E+00  0.00000000E+00  0.00000000E+00
  0.00000000E+00  0.00000000E+00  0.00000000E+00
  0.00000000E+00  0.00000000E+00  0.00000000E+00
  0.00000000E+00  0.00000000E+00  0.00000000E+00
  0.00000000E+00  0.00000000E+00  0.00000000E+00
  0.00000000E+00  0.00000000E+00  0.00000000E+00
  0.00000000E+00  0.00000000E+00  0.00000000E+00
  0.00000000E+00  0.00000000E+00  0.00000000E+00
  0.00000000E+00  0.00000000E+00  0.00000000E+00
  0.00000000E+00  0.00000000E+00  0.00000000E+00
  0.00000000E+00  0.00000000E+00  0.00000000E+00
  0.00000000E+00  0.00000000E+00  0.00000000E+00
  0.00000000E+00  0.00000000E+00  0.00000000E+00