Ge1 Sb4 Te7                             
   1.00000000000000     
     2.1592321950341185   -3.7398998671375634   -0.0000000000000002
     2.1592321950341185    3.7398998671375634    0.0000000000000002
     0.0000000000000002   -0.0000000000000004   24.4408692908968064
   Ge   Sb   Te
     1     4     7
Direct
  0.0000000000000000  0.0000000000000000  0.5000000000000000
  0.6666666666666643  0.3333333333333357  0.9185882577990554
  0.3333333333333357  0.6666666666666643  0.3481058257543512
  0.3333333333333357  0.6666666666666643  0.0814117422009449
  0.6666666666666643  0.3333333333333357  0.6518941742456487
  0.3333333333333357  0.6666666666666643  0.8483824511740211
  0.6666666666666643  0.3333333333333357  0.1516175488259788
  0.0000000000000000  0.0000000000000000  0.7216988438044569
  0.6666666666666643  0.3333333333333357  0.4305943411234220
  0.3333333333333357  0.6666666666666643  0.5694056588765785
  0.0000000000000000  0.0000000000000000  0.0000000000000000
  0.0000000000000000  0.0000000000000000  0.2783011561955427
 
  0.00000000E+00  0.00000000E+00  0.00000000E+00
  0.00000000E+00  0.00000000E+00  0.00000000E+00
  0.00000000E+00  0.00000000E+00  0.00000000E+00
  0.00000000E+00  0.00000000E+00  0.00000000E+00
  0.00000000E+00  0.00000000E+00  0.00000000E+00
  0.00000000E+00  0.00000000E+00  0.00000000E+00
  0.00000000E+00  0.00000000E+00  0.00000000E+00
  0.00000000E+00  0.00000000E+00  0.00000000E+00
  0.00000000E+00  0.00000000E+00  0.00000000E+00
  0.00000000E+00  0.00000000E+00  0.00000000E+00
  0.00000000E+00  0.00000000E+00  0.00000000E+00
  0.00000000E+00  0.00000000E+00  0.00000000E+00
