Ge Se                                   
   1.00000000000000     
    20.8706398010253906    0.0000000000000000    0.0000000000000000
     0.0000000000000000   20.8706398010253906    0.0000000000000000
     0.0000000000000000    0.0000000000000000   20.8706398010253906
   Ge   Se
   150   150
Direct
  0.5377965115043000  0.1361269411709645  0.5238120061275511
  0.2921985457638611  0.8350807493654947  0.2604086353256973
  0.8531165092729405  0.4631443492684398  0.8580089561756795
  0.1363705597231312  0.6927661758696514  0.7711999639015117
  0.0499330249475169  0.0248255540578512  0.2851595840031613
  0.9092681701298341  0.2199095313612916  0.9271786352027683
  0.0362689552152903  0.1353922632916449  0.2303648821810737
  0.8281823218897117  0.1779831156961929  0.7895330638061610
  0.4144572918856003  0.7807245073850697  0.0941780485514435
  0.5925986281254514  0.0259323127223337  0.4991962609497208
  0.0919513939427753  0.1951571772829594  0.8961773447267009
  0.8374582923452550  0.5023518966026274  0.0183442923610862
  0.7817889468273514  0.6265133871653539  0.8878060602187385
  0.4754514190602770  0.8811601630261162  0.5279984482582473
  0.5820402345332435  0.2027515060223743  0.9988038026053068
  0.6133326144683799  0.6199744710164040  0.9328853203432462
  0.6419139756342692  0.0559301666521393  0.9233810858689030
  0.3925100694462079  0.6630022833424538  0.1270459296262325
  0.2625967571835421  0.0981280280166074  0.5103516693171106
  0.7772538918773499  0.7299546619573457  0.0501336545215986
  0.0872200017269240  0.1463601102696369  0.3736264996131771
  0.4991628363402783  0.7586425748404738  0.6527308699814396
  0.8404494537594048  0.5587399778399242  0.6986057747291271
  0.2817223047486299  0.9245347235063704  0.4027807817042818
  0.0236657303504966  0.5462187140550328  0.3986793765420043
  0.3574000230775238  0.2023625814703628  0.6286525152468622
  0.3781673248088119  0.0228815397144040  0.2764138669395869
  0.6622127139213586  0.5150365307554033  0.3940886565350822
  0.5752000836877810  0.6834643088722246  0.7810432810615094
  0.9151341915219090  0.7384172943549450  0.8950159157764083
  0.5890663892009493  0.5449499672742089  0.1391275755924256
  0.2943683420710376  0.9022282741171929  0.8413224208924167
  0.0485277812652579  0.4222493100254903  0.8071661651646836
  0.6877584507972884  0.8444953058427338  0.7617894035935401
  0.4471522977469432  0.2568802318108627  0.8817803970852595
  0.8302343859009682  0.3894684177015356  0.2725084064505486
  0.8587321865601453  0.1206928538916068  0.1751796055529912
  0.7077826007994051  0.9075177720290435  0.8853875999351574
  0.2610840758323988  0.9872976486595065  0.9649197904071593
  0.9224920085024455  0.2943310750401349  0.4202964832535164
  0.1038076240339235  0.0277749920521876  0.5372698889865044
  0.2032229221751650  0.4636922395402598  0.6062099843163984
  0.4638692496714112  0.9518863682932385  0.1305327637292216
  0.3571994837426903  0.2151082237259086  0.4703091565063549
  0.0189876665392763  0.3855560575724952  0.3117911489234307
  0.6408668804941401  0.4598085537972963  0.2386309129412523
  0.3376493313336119  0.2811000988447593  0.8252825126456141
  0.4003955955932391  0.5438008570721138  0.4227115546486375
  0.1427405464657177  0.4550952710682910  0.4819725038759695
  0.5239142389813332  0.7535117691291732  0.8655614417434679
  0.3720825732893123  0.8079462447335207  0.9712678412819887
  0.7078659156261458  0.1734045672253836  0.4611929904538314
  0.7103403873613120  0.9934482843558273  0.4655578836276025
  0.6267408611218249  0.1250892741706170  0.1445091440105584
  0.5901781832887282  0.3378590915344060  0.1068986201040753
  0.1453339470095644  0.0779646228590029  0.7247771750509977
  0.6694362324549099  0.4847030286428013  0.5646882888846458
  0.1493315285756591  0.1335990125975078  0.0022790312968650
  0.2787400684413120  0.0850514184145113  0.1460457244691108
  0.7006654609525923  0.6424586506036086  0.2656745510497180
  0.9076866704018879  0.1820183409637231  0.3481142190606502
  0.3526474841302067  0.9727166481859100  0.5389744987584602
  0.7813883454788755  0.5063491184543057  0.1437963685201963
  0.5125870772356270  0.0203786748953703  0.2237349337906356
  0.2074954234718188  0.3164953263151490  0.8953740844569291
  0.9638689234013659  0.3676571132447334  0.5714611897037151
  0.1742875356957835  0.2187944716303441  0.3137699977132428
  0.0871445496023828  0.3029842822920449  0.4618673143747365
  0.8299341085883742  0.8683858877560177  0.7932961435776434
  0.3981133966938648  0.3553972402715746  0.3658830110620529
  0.3740287272221636  0.4688112485420912  0.5211121102506134
  0.5516727606469956  0.6583558562915814  0.1767244744585645
  0.5973204929067660  0.8098090622695071  0.6024012959364669
  0.1642405556324432  0.8953695659195410  0.8592627985555074
  0.1464991682229155  0.7399401129541877  0.9791955208478422
  0.9869414348386125  0.4915841064700859  0.2187717126360937
  0.1770528450061922  0.3585450181629494  0.4031425296934615
  0.2876774635290082  0.1747979988669764  0.2933608973996286
  0.3425242274316322  0.1909127371555415  0.9537698699561808
  0.6879791561951825  0.0729782370007977  0.6462813724977262
  0.2787215133491148  0.5924802206024333  0.0017373979620078
  0.0999771611214390  0.5410083165979102  0.6643161670620996
  0.6954451879583198  0.3310041913734295  0.7553494645983206
  0.6387669295326456  0.8885959546329546  0.2558976645759037
  0.2138304476993015  0.7210300490057416  0.1688897076413819
  0.9984274269482384  0.0361409498971912  0.0786501541559999
  0.8570128143534101  0.0122747360028670  0.9086408435356045
  0.2856683866156499  0.0624274577328995  0.7903824705155515
  0.1306244969460287  0.8752487098523171  0.3066325776205523
  0.2387077687890413  0.4639629255811397  0.0327879545890828
  0.6270710084736212  0.1442553840835843  0.8260262715255546
  0.7667876149294962  0.9783188299511397  0.0967067457264701
  0.5318034078975672  0.2309453956257203  0.6364937083617408
  0.9166541343597528  0.9068747923893571  0.1951912446494581
  0.9670388460546609  0.6828379190310246  0.6161600937690396
  0.0052348513436952  0.2526525844243701  0.7282855628040634
  0.3682753203164705  0.4120862926279177  0.8582479688074395
  0.8206247186870002  0.8020510044389232  0.4185966320176106
  0.9452614546034409  0.6255035288802328  0.7208910210652896
  0.7339295123794007  0.2042398385284316  0.3248159076715155
  0.9317401891616275  0.0591113758060000  0.3215632771927867
  0.5501588198885361  0.2952584584281162  0.5023959951062860
  0.2292963949313726  0.3451336873269178  0.5713048979885996
  0.0520235786759849  0.8970449911405216  0.4488077568985145
  0.4318201400308400  0.7057013166830958  0.9289443677276967
  0.7154854053056624  0.8646784491927310  0.1558902884914419
  0.0987985973034530  0.7570707193255677  0.6032755581594126
  0.1663627443759884  0.8691358609713082  0.7156497162331160
  0.6750230415370085  0.9040064101545006  0.5612495320435451
  0.5998251184066680  0.1019973057273194  0.3099218464314234
  0.4125674872820277  0.8978935956309751  0.7131087582392146
  0.7761898406651950  0.7728635562876705  0.5949796975600525
  0.5478830198764129  0.4006680428887208  0.0071745633973030
  0.2839958845986198  0.7016907696949920  0.8300237904641709
  0.1804080657806695  0.9258471634770186  0.5193277282026517
  0.4653636380314345  0.6461919180336148  0.0282644273382060
  0.7959557317674493  0.4330160139983799  0.4735042672080940
  0.9264509670137553  0.3311835975279931  0.9901645454502134
  0.9610891609342996  0.0570863287578443  0.7317187775821009
  0.6860395839769230  0.7226602913551309  0.7448677842758759
  0.8394120779449802  0.8893366146182378  0.3301029852557649
  0.9490776874543971  0.9584086064542180  0.4765874075270452
  0.6395855910769263  0.3361445061323017  0.8682831729279632
  0.4903293346829523  0.8760016335096620  0.8523469922615209
  0.3747639370617318  0.6667796422665450  0.3288474210069122
  0.0687452864621760  0.5658691000726089  0.9614620969292039
  0.0009525069133965  0.9012180521805156  0.8164982228498989
  0.8668964227759499  0.8100760619019710  0.0890092393487009
  0.5555796959338088  0.4013653410165587  0.4272472831631535
  0.7815489435125282  0.6449329014555167  0.7670040788715171
  0.1779358418260057  0.0485864029850578  0.2149122777643806
  0.7761290358051525  0.5458090895250935  0.4283867754009070
  0.4990463055347995  0.2897054269256876  0.9873818840053418
  0.8831124742754033  0.6443463499640470  0.3931003005565205
  0.0891978645366828  0.8224060065560502  0.1329449004145304
  0.1938116017597730  0.8980411823175135  0.0986230911173047
  0.2402245500519354  0.2967465722253749  0.0999826492115753
  0.2677263026641422  0.3041393454551627  0.4612691918977758
  0.9165391943605170  0.8115634394333540  0.5925613350256934
  0.4664646033859686  0.1679231200214005  0.7285892991114812
  0.8962450826130925  0.5680704336747270  0.5175416003001648
  0.8901957058357778  0.3949521281854707  0.1453850502102458
  0.1848273870445778  0.2031510272393864  0.5509981886577904
  0.7660065391960090  0.4472856724154266  0.6971710674038718
  0.0205083139939953  0.7298150203668782  0.4410314553427505
  0.9766846884586959  0.9685936559069585  0.6392453818985951
  0.5256207305553655  0.3344375553328935  0.8286684523342499
  0.1798487572838686  0.5156476897114394  0.7547443686663237
  0.9697516712586534  0.5670840149181811  0.1178095043824977
  0.1256558237607626  0.5030705102568971  0.8660118265258158
  0.1974503323208239  0.8352509273942101  0.6004416376603693
  0.0044439960141169  0.2268078739609144  0.2940889938910791
  0.7964124659539190  0.7380473578859686  0.9256689800491260
  0.2928070853288793  0.9344500531895616  0.7270087151092589
  0.2883273885224353  0.6135656154486211  0.1221431531639280
  0.6962751020456323  0.5948108286572398  0.1397159615724090
  0.8829824804022554  0.5671438414741399  0.9132717308109926
  0.2766567676427166  0.1779596769894333  0.8513913976936899
  0.2838661408381755  0.5344378996926196  0.5615776733744320
  0.4464420852326485  0.8484220524347736  0.1839276781215029
  0.7152207418112833  0.5804774373287774  0.9700269593550396
  0.2670424238379360  0.8058460903203628  0.1013221307261263
  0.6341276453671045  0.0095808893905065  0.2238948594163663
  0.7844166893045494  0.9801136198279055  0.8159453256614735
  0.0075255748273522  0.5895975224932695  0.5527450385194901
  0.5788678436336022  0.3150791181726776  0.7200707479291111
  0.6014105004410982  0.9916599908780167  0.6147954350021412
  0.4718316667570167  0.4545649505746914  0.3621908580496354
  0.1147451585946681  0.3060696849972128  0.5778024516964119
  0.1733206104751099  0.3950406263349580  0.0990276270254295
  0.8771044248864600  0.9294918267542923  0.0742763075129431
  0.0492607654063083  0.5962968473138927  0.7719121658196821
  0.1629827239194538  0.5620371204193143  0.0371053572172706
  0.3832932437871222  0.1934132277874235  0.3537892831313610
  0.5479601532705742  0.5619228310783866  0.0139833927875348
  0.5840821498101181  0.2012322120697053  0.4306835906235620
  0.7032106458312368  0.8263515547678638  0.0474951161912037
  0.8536035142261553  0.0262541788746001  0.2387078065068308
  0.3740356721927625  0.6303028901304630  0.8626327071089960
  0.8584326469121178  0.6004316831538563  0.1356507903189700
  0.1710941120484508  0.0113332833058886  0.8870252312666477
  0.7485449912607228  0.4814389376053456  0.8135425575420996
  0.9051571811418335  0.8614868452704212  0.8902386664498437
  0.7935914699518599  0.0982125437881919  0.0844926449007457
  0.7119189293433970  0.3817044871728215  0.5376919783551578
  0.5073899361692948  0.6512531435696187  0.6920112807025387
  0.6288998669117744  0.1725797319429773  0.5999595645201480
  0.1316552382795322  0.8541330808244395  0.9702507735572286
  0.6469289599974928  0.4010612025156565  0.3516671802257409
  0.9899840076452061  0.0587265055570648  0.5220697900379518
  0.6801695189346567  0.3689012304647457  0.1736061060977662
  0.9680079678445825  0.1463987353507107  0.1323698880895428
  0.1336791113423909  0.2374331069208389  0.0669457398754843
  0.2118329794794968  0.9218264632945076  0.2215040538812528
  0.8712137300150894  0.9214909060840861  0.5553365411926827
  0.4332638735310765  0.9564798323289319  0.0157773652079709
  0.6712694347034062  0.7137582204318682  0.6270470062476124
  0.2000311516405877  0.6606775174648581  0.6730359755236931
  0.2918491218066067  0.2991805273782759  0.9844518426759697
  0.6083665409324391  0.5915720564160577  0.3281334606629270
  0.5822739689339348  0.5782910504306294  0.8309787760285762
  0.2689662475118524  0.1061151769806907  0.0229575418563442
  0.3495969134784926  0.9892275499974820  0.1596543406890156
  0.0723288363382266  0.3036034365084679  0.8167074773369006
  0.9006772592442135  0.7370626322496127  0.4838991998645544
  0.1448124769731934  0.1777353974058663  0.2040724867555697
  0.8747045778086846  0.4541071162205927  0.5614931461995021
  0.0069031401789329  0.3785606546140067  0.1848290879106358
  0.4909201495181607  0.1524127911116680  0.8447444192504248
  0.9066771221340740  0.2615036202531504  0.8090430651210205
  0.1168180333590220  0.1212155350599117  0.6116299016871867
  0.6177792533550464  0.7282439430075849  0.2402438855099272
  0.2657193049066476  0.6007170238013241  0.7461685367522725
  0.2558397025221244  0.7084347866054052  0.9544371544950783
  0.2458476626397434  0.2483009347814641  0.6486691202268399
  0.9273461371397322  0.8839059689474257  0.7189029965773616
  0.8592427327187728  0.1093517113312637  0.7053987376410069
  0.8195553873296664  0.1366397177458538  0.8984529972113533
  0.7225960725670336  0.2089884098448372  0.7501582842517763
  0.6526586913306329  0.2361233774648161  0.0840611970227750
  0.4860551148269299  0.8630839070869113  0.9748765556646944
  0.0291740750127116  0.8488915986036853  0.5609293143842032
  0.3474184598083392  0.8673430079366480  0.4944540926884281
  0.0719227536412751  0.6799159470544822  0.9168144781175126
  0.7434544199397771  0.8823328244224665  0.6589157561256225
 -0.0000230190279598  0.6562216590448089  0.3454163404584537
  0.8059264482797663  0.7186705174996800  0.3374836796352599
  0.2241652987725680  0.8200647790848540  0.3669391287098462
  0.1380953471872382  0.5585015745563794  0.4342644019106037
  0.0773889001173090  0.4958443599510994  0.2947991259935147
  0.4042747788292356  0.2714699970080726  0.7231760007750403
  0.0427987642761678  0.1401396602874030  0.7667818433958505
  0.7302125248884415  0.5765735885689733  0.5331227692508400
  0.9678425569386886  0.7957758909588450  0.1529011068507041
  0.9332851119928196  0.4423272118806383  0.7785617719992496
  0.0076301784843511  0.8247178677436772  0.3682145190937940
  0.0340440654702344  0.2002179286032781  0.4664849521969713
  0.0653768262977364  0.4253136290972935  0.6927526189643799
  0.7350719640222073 -0.0022564608465771  0.9790756333491173
  0.2429883840953294  0.4163794682050863  0.7321874610460933
  0.7247947826182264  0.7893838314567923  0.4880846349650120
  0.8966470606171408  0.2765110550253153  0.5328594124481563
  0.2531972946209770  0.0043786825120515  0.5905952796385961
  0.5798003925824999  0.5042792154917546  0.4881040912338075
  0.3336147549634242  0.1798155654225819  0.1854621343659139
  0.6188898584871153  0.7347444642760456  0.9327666859946334
  0.4426954786785004  0.9709034790380698  0.6096873780664899
  0.4252929395683552  0.2920143717315326  0.0786089269400991
  0.9468110651831958  0.4638003475876223  0.0540904579354184
  0.0914954131167009  0.9699970259896661  0.7035423998720378
  0.3273092914903410  0.5570119626883824  0.3344211563942576
  0.5295784853062959  0.7300821820761109  0.0820124202330584
  0.8800227316043763  0.7159396430987017  0.7753133269842607
  0.1171791469019818  0.0533507279341634  0.0809124937072273
  0.3520941717794014  0.0021954424547816  0.8795020835896380
  0.1153208580230629  0.7112353565356928  0.0897276554436701
  0.1657338243627806  0.0641289269222272  0.4412347846943636
  0.9966896535142917  0.1487853338187002  0.9527026706077308
  0.7595597189607755  0.4894373368449446  0.2660178688071596
  0.1676851041560453  0.3325216770441766  0.2892995841328049
  0.0247173316230499  0.9666482869829937  0.1796827688377025
  0.8352208427708535  0.2096238768757493  0.2523347489039220
  0.9660793288292152  0.0162245952986706  0.8423721133391062
  0.0687118755406364  0.7819793135630956  0.7196114308981562
  0.4978249871329322  0.2998706800542291  0.1686145810798966
  0.1126875852881996  0.7749621246857521  0.2377270826999392
  0.4467149127735506  0.6222224506378122  0.2228125781311010
  0.8278206866238729  0.3923249969747944  0.9469501389605631
  0.8124562332424795  0.3480097392141735  0.3926480671921386
  0.3750813959277070  0.8166030351704038  0.8359221725322589
  0.8672583100767016 -0.0029900988309080  0.4010003090845348
  0.3105086894817509  0.4142661614686466  0.4296716940366700
  0.8623847652701766  0.2986599837864045  0.0828315641354495
  0.7196875717286415  0.8957904575336417  0.3417041176080017
  0.6592734089263623  0.2233114955163642  0.9101978568276619
  0.8083711620327655  0.8078832487686377  0.1941368659959260
  0.3717445967377186  0.9090909327632862  0.3209631159471786
  0.9166195244495159  0.4637931128258524  0.3130385003319525
  0.6428217119863430  0.1988264349661978  0.2495342282284540
  0.7515348054215486  0.0774734192076090  0.5420847135173910
  0.6574353017829389  0.4011752276709518  0.9594967571805990
  0.6023730323818540  0.9617995562731121  0.8643161527124398
  0.2587237025473099  0.0618236776917660  0.3084018853408922
  0.5652013898667526  0.0874068530652783  0.0078081602836625
  0.1073183176205780  0.2956680482710095  0.9691669973100899
  0.0198877297683969  0.4021020719983511  0.4627988763640664
  0.3518342361493398  0.4491479599821541  0.7498327828515177
  0.4843264579559505  0.4407105502858336  0.8332826530912336
  0.3717540054693891  0.0995775361632801  0.7005093793342789
  0.5685698277676710  0.8454391890767385  0.7135603752292945
  0.5183971862720786  0.9537740021355238  0.4445542638636585
  0.8479560132803562  0.6406455778537686  0.6076838588401551
  0.4556942366261627  0.6440393825974946  0.4136392178054567
  0.7143832408155826  0.0897381162250979  0.3688419631414372
  0.5120792881878345  0.1303345337786073  0.1843267002646967
  0.3917962977068634  0.7950029544625850  0.6515122819652870
  0.4330492848553856  0.3115422258537272  0.4784640102548522
  0.3617511998045393  0.0511220915258945  0.4561699766500408
  0.2156679965119889  0.4377330582100530  0.9130189299537684
  0.6555697688641838  0.4959536443909001  0.6775359454009460
 
  0.00000000E+00  0.00000000E+00  0.00000000E+00
  0.00000000E+00  0.00000000E+00  0.00000000E+00
  0.00000000E+00  0.00000000E+00  0.00000000E+00
  0.00000000E+00  0.00000000E+00  0.00000000E+00
  0.00000000E+00  0.00000000E+00  0.00000000E+00
  0.00000000E+00  0.00000000E+00  0.00000000E+00
  0.00000000E+00  0.00000000E+00  0.00000000E+00
  0.00000000E+00  0.00000000E+00  0.00000000E+00
  0.00000000E+00  0.00000000E+00  0.00000000E+00
  0.00000000E+00  0.00000000E+00  0.00000000E+00
  0.00000000E+00  0.00000000E+00  0.00000000E+00
  0.00000000E+00  0.00000000E+00  0.00000000E+00
  0.00000000E+00  0.00000000E+00  0.00000000E+00
  0.00000000E+00  0.00000000E+00  0.00000000E+00
  0.00000000E+00  0.00000000E+00  0.00000000E+00
  0.00000000E+00  0.00000000E+00  0.00000000E+00
  0.00000000E+00  0.00000000E+00  0.00000000E+00
  0.00000000E+00  0.00000000E+00  0.00000000E+00
  0.00000000E+00  0.00000000E+00  0.00000000E+00
  0.00000000E+00  0.00000000E+00  0.00000000E+00
  0.00000000E+00  0.00000000E+00  0.00000000E+00
  0.00000000E+00  0.00000000E+00  0.00000000E+00
  0.00000000E+00  0.00000000E+00  0.00000000E+00
  0.00000000E+00  0.00000000E+00  0.00000000E+00
  0.00000000E+00  0.00000000E+00  0.00000000E+00
  0.00000000E+00  0.00000000E+00  0.00000000E+00
  0.00000000E+00  0.00000000E+00  0.00000000E+00
  0.00000000E+00  0.00000000E+00  0.00000000E+00
  0.00000000E+00  0.00000000E+00  0.00000000E+00
  0.00000000E+00  0.00000000E+00  0.00000000E+00
  0.00000000E+00  0.00000000E+00  0.00000000E+00
  0.00000000E+00  0.00000000E+00  0.00000000E+00
  0.00000000E+00  0.00000000E+00  0.00000000E+00
  0.00000000E+00  0.00000000E+00  0.00000000E+00
  0.00000000E+00  0.00000000E+00  0.00000000E+00
  0.00000000E+00  0.00000000E+00  0.00000000E+00
  0.00000000E+00  0.00000000E+00  0.00000000E+00
  0.00000000E+00  0.00000000E+00  0.00000000E+00
  0.00000000E+00  0.00000000E+00  0.00000000E+00
  0.00000000E+00  0.00000000E+00  0.00000000E+00
  0.00000000E+00  0.00000000E+00  0.00000000E+00
  0.00000000E+00  0.00000000E+00  0.00000000E+00
  0.00000000E+00  0.00000000E+00  0.00000000E+00
  0.00000000E+00  0.00000000E+00  0.00000000E+00
  0.00000000E+00  0.00000000E+00  0.00000000E+00
  0.00000000E+00  0.00000000E+00  0.00000000E+00
  0.00000000E+00  0.00000000E+00  0.00000000E+00
  0.00000000E+00  0.00000000E+00  0.00000000E+00
  0.00000000E+00  0.00000000E+00  0.00000000E+00
  0.00000000E+00  0.00000000E+00  0.00000000E+00
  0.00000000E+00  0.00000000E+00  0.00000000E+00
  0.00000000E+00  0.00000000E+00  0.00000000E+00
  0.00000000E+00  0.00000000E+00  0.00000000E+00
  0.00000000E+00  0.00000000E+00  0.00000000E+00
  0.00000000E+00  0.00000000E+00  0.00000000E+00
  0.00000000E+00  0.00000000E+00  0.00000000E+00
  0.00000000E+00  0.00000000E+00  0.00000000E+00
  0.00000000E+00  0.00000000E+00  0.00000000E+00
  0.00000000E+00  0.00000000E+00  0.00000000E+00
  0.00000000E+00  0.00000000E+00  0.00000000E+00
  0.00000000E+00  0.00000000E+00  0.00000000E+00
  0.00000000E+00  0.00000000E+00  0.00000000E+00
  0.00000000E+00  0.00000000E+00  0.00000000E+00
  0.00000000E+00  0.00000000E+00  0.00000000E+00
  0.00000000E+00  0.00000000E+00  0.00000000E+00
  0.00000000E+00  0.00000000E+00  0.00000000E+00
  0.00000000E+00  0.00000000E+00  0.00000000E+00
  0.00000000E+00  0.00000000E+00  0.00000000E+00
  0.00000000E+00  0.00000000E+00  0.00000000E+00
  0.00000000E+00  0.00000000E+00  0.00000000E+00
  0.00000000E+00  0.00000000E+00  0.00000000E+00
  0.00000000E+00  0.00000000E+00  0.00000000E+00
  0.00000000E+00  0.00000000E+00  0.00000000E+00
  0.00000000E+00  0.00000000E+00  0.00000000E+00
  0.00000000E+00  0.00000000E+00  0.00000000E+00
  0.00000000E+00  0.00000000E+00  0.00000000E+00
  0.00000000E+00  0.00000000E+00  0.00000000E+00
  0.00000000E+00  0.00000000E+00  0.00000000E+00
  0.00000000E+00  0.00000000E+00  0.00000000E+00
  0.00000000E+00  0.00000000E+00  0.00000000E+00
  0.00000000E+00  0.00000000E+00  0.00000000E+00
  0.00000000E+00  0.00000000E+00  0.00000000E+00
  0.00000000E+00  0.00000000E+00  0.00000000E+00
  0.00000000E+00  0.00000000E+00  0.00000000E+00
  0.00000000E+00  0.00000000E+00  0.00000000E+00
  0.00000000E+00  0.00000000E+00  0.00000000E+00
  0.00000000E+00  0.00000000E+00  0.00000000E+00
  0.00000000E+00  0.00000000E+00  0.00000000E+00
  0.00000000E+00  0.00000000E+00  0.00000000E+00
  0.00000000E+00  0.00000000E+00  0.00000000E+00
  0.00000000E+00  0.00000000E+00  0.00000000E+00
  0.00000000E+00  0.00000000E+00  0.00000000E+00
  0.00000000E+00  0.00000000E+00  0.00000000E+00
  0.00000000E+00  0.00000000E+00  0.00000000E+00
  0.00000000E+00  0.00000000E+00  0.00000000E+00
  0.00000000E+00  0.00000000E+00  0.00000000E+00
  0.00000000E+00  0.00000000E+00  0.00000000E+00
  0.00000000E+00  0.00000000E+00  0.00000000E+00
  0.00000000E+00  0.00000000E+00  0.00000000E+00
  0.00000000E+00  0.00000000E+00  0.00000000E+00
  0.00000000E+00  0.00000000E+00  0.00000000E+00
  0.00000000E+00  0.00000000E+00  0.00000000E+00
  0.00000000E+00  0.00000000E+00  0.00000000E+00
  0.00000000E+00  0.00000000E+00  0.00000000E+00
  0.00000000E+00  0.00000000E+00  0.00000000E+00
  0.00000000E+00  0.00000000E+00  0.00000000E+00
  0.00000000E+00  0.00000000E+00  0.00000000E+00
  0.00000000E+00  0.00000000E+00  0.00000000E+00
  0.00000000E+00  0.00000000E+00  0.00000000E+00
  0.00000000E+00  0.00000000E+00  0.00000000E+00
  0.00000000E+00  0.00000000E+00  0.00000000E+00
  0.00000000E+00  0.00000000E+00  0.00000000E+00
  0.00000000E+00  0.00000000E+00  0.00000000E+00
  0.00000000E+00  0.00000000E+00  0.00000000E+00
  0.00000000E+00  0.00000000E+00  0.00000000E+00
  0.00000000E+00  0.00000000E+00  0.00000000E+00
  0.00000000E+00  0.00000000E+00  0.00000000E+00
  0.00000000E+00  0.00000000E+00  0.00000000E+00
  0.00000000E+00  0.00000000E+00  0.00000000E+00
  0.00000000E+00  0.00000000E+00  0.00000000E+00
  0.00000000E+00  0.00000000E+00  0.00000000E+00
  0.00000000E+00  0.00000000E+00  0.00000000E+00
  0.00000000E+00  0.00000000E+00  0.00000000E+00
  0.00000000E+00  0.00000000E+00  0.00000000E+00
  0.00000000E+00  0.00000000E+00  0.00000000E+00
  0.00000000E+00  0.00000000E+00  0.00000000E+00
  0.00000000E+00  0.00000000E+00  0.00000000E+00
  0.00000000E+00  0.00000000E+00  0.00000000E+00
  0.00000000E+00  0.00000000E+00  0.00000000E+00
  0.00000000E+00  0.00000000E+00  0.00000000E+00
  0.00000000E+00  0.00000000E+00  0.00000000E+00
  0.00000000E+00  0.00000000E+00  0.00000000E+00
  0.00000000E+00  0.00000000E+00  0.00000000E+00
  0.00000000E+00  0.00000000E+00  0.00000000E+00
  0.00000000E+00  0.00000000E+00  0.00000000E+00
  0.00000000E+00  0.00000000E+00  0.00000000E+00
  0.00000000E+00  0.00000000E+00  0.00000000E+00
  0.00000000E+00  0.00000000E+00  0.00000000E+00
  0.00000000E+00  0.00000000E+00  0.00000000E+00
  0.00000000E+00  0.00000000E+00  0.00000000E+00
  0.00000000E+00  0.00000000E+00  0.00000000E+00
  0.00000000E+00  0.00000000E+00  0.00000000E+00
  0.00000000E+00  0.00000000E+00  0.00000000E+00
  0.00000000E+00  0.00000000E+00  0.00000000E+00
  0.00000000E+00  0.00000000E+00  0.00000000E+00
  0.00000000E+00  0.00000000E+00  0.00000000E+00
  0.00000000E+00  0.00000000E+00  0.00000000E+00
  0.00000000E+00  0.00000000E+00  0.00000000E+00
  0.00000000E+00  0.00000000E+00  0.00000000E+00
  0.00000000E+00  0.00000000E+00  0.00000000E+00
  0.00000000E+00  0.00000000E+00  0.00000000E+00
  0.00000000E+00  0.00000000E+00  0.00000000E+00
  0.00000000E+00  0.00000000E+00  0.00000000E+00
  0.00000000E+00  0.00000000E+00  0.00000000E+00
  0.00000000E+00  0.00000000E+00  0.00000000E+00
  0.00000000E+00  0.00000000E+00  0.00000000E+00
  0.00000000E+00  0.00000000E+00  0.00000000E+00
  0.00000000E+00  0.00000000E+00  0.00000000E+00
  0.00000000E+00  0.00000000E+00  0.00000000E+00
  0.00000000E+00  0.00000000E+00  0.00000000E+00
  0.00000000E+00  0.00000000E+00  0.00000000E+00
  0.00000000E+00  0.00000000E+00  0.00000000E+00
  0.00000000E+00  0.00000000E+00  0.00000000E+00
  0.00000000E+00  0.00000000E+00  0.00000000E+00
  0.00000000E+00  0.00000000E+00  0.00000000E+00
  0.00000000E+00  0.00000000E+00  0.00000000E+00
  0.00000000E+00  0.00000000E+00  0.00000000E+00
  0.00000000E+00  0.00000000E+00  0.00000000E+00
  0.00000000E+00  0.00000000E+00  0.00000000E+00
  0.00000000E+00  0.00000000E+00  0.00000000E+00
  0.00000000E+00  0.00000000E+00  0.00000000E+00
  0.00000000E+00  0.00000000E+00  0.00000000E+00
  0.00000000E+00  0.00000000E+00  0.00000000E+00
  0.00000000E+00  0.00000000E+00  0.00000000E+00
  0.00000000E+00  0.00000000E+00  0.00000000E+00
  0.00000000E+00  0.00000000E+00  0.00000000E+00
  0.00000000E+00  0.00000000E+00  0.00000000E+00
  0.00000000E+00  0.00000000E+00  0.00000000E+00
  0.00000000E+00  0.00000000E+00  0.00000000E+00
  0.00000000E+00  0.00000000E+00  0.00000000E+00
  0.00000000E+00  0.00000000E+00  0.00000000E+00
  0.00000000E+00  0.00000000E+00  0.00000000E+00
  0.00000000E+00  0.00000000E+00  0.00000000E+00
  0.00000000E+00  0.00000000E+00  0.00000000E+00
  0.00000000E+00  0.00000000E+00  0.00000000E+00
  0.00000000E+00  0.00000000E+00  0.00000000E+00
  0.00000000E+00  0.00000000E+00  0.00000000E+00
  0.00000000E+00  0.00000000E+00  0.00000000E+00
  0.00000000E+00  0.00000000E+00  0.00000000E+00
  0.00000000E+00  0.00000000E+00  0.00000000E+00
  0.00000000E+00  0.00000000E+00  0.00000000E+00
  0.00000000E+00  0.00000000E+00  0.00000000E+00
  0.00000000E+00  0.00000000E+00  0.00000000E+00
  0.00000000E+00  0.00000000E+00  0.00000000E+00
  0.00000000E+00  0.00000000E+00  0.00000000E+00
  0.00000000E+00  0.00000000E+00  0.00000000E+00
  0.00000000E+00  0.00000000E+00  0.00000000E+00
  0.00000000E+00  0.00000000E+00  0.00000000E+00
  0.00000000E+00  0.00000000E+00  0.00000000E+00
  0.00000000E+00  0.00000000E+00  0.00000000E+00
  0.00000000E+00  0.00000000E+00  0.00000000E+00
  0.00000000E+00  0.00000000E+00  0.00000000E+00
  0.00000000E+00  0.00000000E+00  0.00000000E+00
  0.00000000E+00  0.00000000E+00  0.00000000E+00
  0.00000000E+00  0.00000000E+00  0.00000000E+00
  0.00000000E+00  0.00000000E+00  0.00000000E+00
  0.00000000E+00  0.00000000E+00  0.00000000E+00
  0.00000000E+00  0.00000000E+00  0.00000000E+00
  0.00000000E+00  0.00000000E+00  0.00000000E+00
  0.00000000E+00  0.00000000E+00  0.00000000E+00
  0.00000000E+00  0.00000000E+00  0.00000000E+00
  0.00000000E+00  0.00000000E+00  0.00000000E+00
  0.00000000E+00  0.00000000E+00  0.00000000E+00
  0.00000000E+00  0.00000000E+00  0.00000000E+00
  0.00000000E+00  0.00000000E+00  0.00000000E+00
  0.00000000E+00  0.00000000E+00  0.00000000E+00
  0.00000000E+00  0.00000000E+00  0.00000000E+00
  0.00000000E+00  0.00000000E+00  0.00000000E+00
  0.00000000E+00  0.00000000E+00  0.00000000E+00
  0.00000000E+00  0.00000000E+00  0.00000000E+00
  0.00000000E+00  0.00000000E+00  0.00000000E+00
  0.00000000E+00  0.00000000E+00  0.00000000E+00
  0.00000000E+00  0.00000000E+00  0.00000000E+00
  0.00000000E+00  0.00000000E+00  0.00000000E+00
  0.00000000E+00  0.00000000E+00  0.00000000E+00
  0.00000000E+00  0.00000000E+00  0.00000000E+00
  0.00000000E+00  0.00000000E+00  0.00000000E+00
  0.00000000E+00  0.00000000E+00  0.00000000E+00
  0.00000000E+00  0.00000000E+00  0.00000000E+00
  0.00000000E+00  0.00000000E+00  0.00000000E+00
  0.00000000E+00  0.00000000E+00  0.00000000E+00
  0.00000000E+00  0.00000000E+00  0.00000000E+00