Ge6 Te3 Se3                             
   1.00000000000000     
     2.0723916928566801   -3.5894877052114444    0.0000000000000000
     2.0723916928566801    3.5894877052114444    0.0000000000000000
     0.0000000000000000    0.0000000000000000   20.2358068212901685
   Ge   Te   Se
     6     3     3
Direct
  0.6666666666666643  0.3333333333333357  0.0884627264802314
  0.0000000000000000  0.0000000000000000  0.2448706068530972
  0.3333333333333357  0.6666666666666643  0.4217960598135670
  0.6666666666666643  0.3333333333333357  0.5782039401864327
  0.0000000000000000  0.0000000000000000  0.7551293931469030
  0.3333333333333357  0.6666666666666643  0.9115372735197684
  0.0000000000000000  0.0000000000000000  0.0000000000000000
  0.6666666666666643  0.3333333333333357  0.3333333333333357
  0.3333333333333357  0.6666666666666643  0.6666666666666643
  0.3333333333333357  0.6666666666666643  0.1666666666666643
  0.0000000000000000  0.0000000000000000  0.5000000000000000
  0.6666666666666643  0.3333333333333357  0.8333333333333357
 
  0.00000000E+00  0.00000000E+00  0.00000000E+00
  0.00000000E+00  0.00000000E+00  0.00000000E+00
  0.00000000E+00  0.00000000E+00  0.00000000E+00
  0.00000000E+00  0.00000000E+00  0.00000000E+00
  0.00000000E+00  0.00000000E+00  0.00000000E+00
  0.00000000E+00  0.00000000E+00  0.00000000E+00
  0.00000000E+00  0.00000000E+00  0.00000000E+00
  0.00000000E+00  0.00000000E+00  0.00000000E+00
  0.00000000E+00  0.00000000E+00  0.00000000E+00
  0.00000000E+00  0.00000000E+00  0.00000000E+00
  0.00000000E+00  0.00000000E+00  0.00000000E+00
  0.00000000E+00  0.00000000E+00  0.00000000E+00
