Amorphous Sb                            
   1.00000000000000     
    22.5413554274211272    0.0000000000000000    0.0000000000000000
     0.0000000000000000   22.5413554274211272    0.0000000000000000
     0.0000000000000000    0.0000000000000000   22.5413554274211272
   In   Te
    30   270
Direct
  0.0479314931123632  0.0309793268941748  0.8044107480882882
  0.7312681406529892  0.6728939303166048  0.2420582291485525
  0.1901616268807805  0.3188471612295902  0.7012415927450573
  0.8101751494743952  0.6681616145745055  0.9466998303005700
  0.9612034227186975  0.3500273475268427  0.0121570511243115
  0.7582416149328737  0.4158757937255897  0.1009665728229364
  0.1787585312865871  0.8983739971247162  0.2434562048066245
  0.0744230096526936  0.3404167284872623  0.2968654977354935
  0.4089979020530583  0.0992331263109575  0.9176778006472039
  0.8530342628105192  0.6266518704895566  0.3838052405080329
  0.0577351878198269  0.0899919303981672  0.9907284465600158
  0.7883524916867625  0.5808964193977981  0.7521070311516472
  0.0623831566523151  0.9414745493288655  0.6566259114727940
  0.9773855828164431  0.4072148686476911  0.5168056989861978
  0.2511479080694561  0.7276873197854329  0.4437194586301718
  0.6317944012572652  0.9187618260656391  0.2555359121007851
 -0.0003698610485045  0.1061443241294069  0.4176784293082950
  0.5108306783227772  0.7332753707309179  0.7954737177751999
  0.2015959171468459  0.6026187454329003  0.9034335020529860
  0.6970387429338052  0.9513883525279936  0.4649041176014335
  0.2539957070865854  0.7913275641869255  0.8461529664624852
  0.2831561200698072  0.9762024908618383  0.3789220285955805
  0.5511246562533434  0.3679478620766843  0.1964341274642954
  0.4368572127188366  0.0415546293104627  0.2221041970739649
  0.0791800274299241  0.6415684986150156  0.4643167741884086
  0.2314811326333950  0.2850771513885488  0.3328337066141877
  0.5381157247849481  0.8217967594778743  0.6556152798001755
  0.8528596609476526  0.8470396092777176  0.6561173649343052
  0.9017204510072433  0.5656708077505184  0.2236809455776780
  0.0545937518831903  0.2198904045728477  0.7429934043366022
  0.4123220427682827  0.1251878492379435  0.3621236966478655
  0.4641301101698298  0.8084767384691820  0.4239172585146573
  0.2526241936644752  0.9578090015749220  0.7941791880657878
  0.4045068648179874  0.7774771279755466  0.1429271385896530
  0.7969735739272161  0.8640517900871091  0.7737503670565627
  0.8888911164539900  0.5132051542121281  0.6216853612181825
  0.4242214412754967  0.4450707384121589  0.9338202175366683
  0.1570646791576242  0.2697123748486615  0.2331010263957143
  0.1282460309278730  0.0498964499059755  0.6741573574722213
  0.7615193599095945  0.7436756496934651  0.5209022919939484
  0.9472142080602297  0.7619781708265596  0.8933235438282118
  0.7936506616457754  0.1137594633185555  0.1005078861056175
  0.3899983708935190  0.4827685763589624  0.4423515362984468
  0.6088361509288606  0.4480352615780486  0.5634939071319141
  0.6726305481345430  0.3550950214012683  0.3492060819523982
  0.6130264042641855  0.8511883325752053  0.9444679528654979
  0.9155931790639578  0.2353695904635272  0.1665180300540793
  0.6547300157242480  0.3628049935505837  0.8401515312481515
  0.2749720185311114  0.0608876650017679  0.5395572633124623
  0.5673264344528596  0.6872051327932360  0.1578064687065239
  0.4679659686531675  0.6107761794965910  0.7459361808096017
  0.1433215542835169 -0.0000004487690257  0.9523812395365203
  0.0456532912371876  0.9345940774877185  0.1428062817047104
  0.7561238119708442  0.5436878551430516  0.1110639902759061
  0.5857240176923080  0.6015926280998951  0.6920561708236221
  0.5314292966742326  0.9252881966722882  0.5135380727477745
  0.0637908851644353  0.4917824992644952  0.9522694397111158
  0.3807187416736261  0.1568603029721291  0.2243196455848471
  0.2724857142158117  0.2248848747836326  0.8333330316232185
  0.0972719435000699  0.7142382514391624  0.2043288688928891
  0.8012280036554277  0.7301459362081995  0.6428543036574086
  0.2641055591428487  0.1095900827922757  0.2508532523096014
  0.1058356743949165  0.6455091529792918  0.9749061606759698
  0.7591632361956812  0.7764552565155699  0.9808491305563375
  0.4254384375929455  0.7892273943371984  0.7024956491684835
  0.5906582510217384  0.4613071392922842  0.3929317169028282
  0.4519681594989636  0.4363575022619921  0.7539350307668944
  0.5493479481212133  0.0192437377116365  0.3949615452642617
  0.6597881733153650  0.3061656575558139  0.2340018621547637
  0.8938241799110543  0.3050778132479228  0.8530279329286604
  0.8310265568911185  0.3083490917789939  0.4594082461588961
  0.7895280312039012  0.0021656729765309  0.3967299499654414
  0.3061232831994485  0.9003969906537740  0.2743873525397064
  0.3646392743235245  0.8514165417312102  0.4828840949014464
  0.7140858242765542  0.1296939454332298  0.4945206018940336
  0.0473574664604184  0.1904509669328841  0.9129261426381643
  0.9498356396014106  0.0327525797328369  0.0277787334350011
  0.1567356723422476  0.4246712592175790  0.2383195296449139
  0.4956851319867605  0.5634244494199863  0.9154484674904024
  0.7578582658666813  0.6791612284363224  0.8264163998005205
  0.9331335528468534  0.6473203306924477  0.9400647724864070
  0.6271970208781030  0.8651033261668131  0.7378009725944863
  0.1636468440280982  0.8847287983473414  0.1201769354401603
  0.3213423859370272  0.9921933097529325  0.1804889670701532
  0.3827903932990376  0.6427605322659486  0.3841416112076017
  0.2244144467810095  0.9484112444164172  0.5555590020354181
  0.1277645753038343  0.7642907755351600  0.9401442091328887
  0.3571253988865186  0.3226607573478292  0.2258637594666690
  0.1824319526728482  0.1484354881126693  0.5831594675742509
  0.8762111699150554  0.4088764615376553  0.7152194274010549
  0.8269160674595761  0.9329157298786044  0.0944339523921495
  0.6447219246794745  0.0373292370030220  0.2134367759212686
  0.0716139700433875  0.1695913882444958  0.3354691149814200
  0.8991519739999477  0.8304503658990522  0.0710161964524978
  0.9660867096459718  0.8088367343186581  0.6969026183005372
  0.0653496806638001  0.4778046784209147  0.4495255967401003
  0.9448632320519387  0.4875833508762173  0.8097096954106383
  0.2257650324332410  0.0908809158488989  0.9319345377401667
  0.8931910959644540  0.5282256093130392  0.1040810810451898
  0.1488243952904202  0.7936232661015274  0.3076076575955555
  0.0211450576394815  0.3915322206769709  0.6349197271731646
  0.0614505139887857  0.5919582580870993  0.8101324611324866
  0.9539299919313715  0.0456531429841419  0.8918127892506328
  0.6695598669440650  0.2491796968488169  0.4204609431374391
  0.5250789609572001  0.2810233415018195  0.5448172975976051
  0.6574949299435735  0.8563606540958086  0.0742943833346990
  0.9138603028223610  0.6916537557187867  0.2195994208244826
  0.1466600744517164  0.5514119238461748  0.2507449666172073
  0.4267186217595399  0.1237154667066788  0.4849830917317342
  0.5442198011967329  0.8607575409306727  0.8289400160321817
  0.5478831152632004  0.7460315140340821  0.9838622834620822
  0.5000005497201981  0.0118363972262941  0.9184833431878772
  0.4284695337598390  0.4953759692664461  0.2719784422847156
  0.5498311811878895  0.0400911067083795  0.6715067685113838
  0.0507022807525206  0.6269870039934966  0.5855389922848824
  0.3101230620616967  0.5850871683715341  0.1489211263999670
  0.8013542927569683  0.3495057183081786  0.6272064701976716
  0.8937357545863364  0.7801961810679943  0.5211545154743017
  0.0558924738656290  0.2163989439147405  0.6142939900708186
  0.8106163294750637  0.0514865672861391  0.8292138179230396
  0.5333361282214734  0.5778763895151968  0.5486646884846564
  0.8895384960742818  0.9698510245213166  0.4704754701891073
  0.6011515034821243  0.5006746353497931  0.9501384736526934
  0.5085268582653203  0.3834933493249367  0.6566354501378949
  0.4659678425930478  0.2065245986335372  0.9557061068168263
  0.3591235107373337  0.9265502543727576  0.9285190116938055
  0.9180706458928208  0.3581609122400363  0.1944392533435775
  0.8788778178319669  0.1902725223159217  0.6911424551945332
  0.3385031620732957  0.2321899447687978  0.6152987856615161
  0.2414052110394979  0.8377509710168510  0.7023096903225350
  0.7864103721807267  0.6954383109855192  0.1309649194086965
  0.6064249114848549  0.6836183906354475  0.4087292043591933
  0.7116243919084162  0.0846663855343468  0.3095382963470006
  0.4984193190766134  0.2677018149174264  0.8210667313918927
  0.1905902298528698  0.7915915247751909  0.5355937411965837
  0.8096225912161452  0.4029477002758207  0.9098674089637844
  0.3920179770319270  0.6589495982540148  0.6607569939545974
  0.5356809865446949  0.8117000710423120  0.1109899289442975
  0.2363351475926577  0.7323895698668109  0.6357597538094436
  0.1379407832557037  0.0066249852090087  0.2948372477428957
  0.6834183779107645  0.7791368468776880  0.3830318715102852
  0.7044732467326008  0.9658425754091411  0.9356786806068282
  0.9550245513976535  0.0026415103538014  0.3571576520879211
  0.6835898523145041  0.7118095317957766  0.0594647700324616
  0.0227805541445461  0.5372144093400557  0.1150334804676501
  0.8161229963678004  0.9454629565147216  0.5848961978999682
  0.4308195043591039  0.0859499748200496  0.7375692556944914
  0.0096943315958282  0.5030949470641706  0.2459625379535700
  0.3334823986850511  0.1109867163753157  0.8164064638179186
  0.9928610350676694  0.2992068060303586  0.4484204559794845
  0.9741567716573180  0.2222551764742109  0.0218778870267097
  0.6219186001637720  0.7341748008610436  0.2658637450423983
  0.8766453526972414  0.2585647858007416  0.5679353165387429
  0.8253884254086093  0.0900931211916075  0.2583823067045091
  0.0778972466064760  0.9575860067535298  0.3935784072982435
  0.7894588821907699  0.2341186669688503  0.1341518706158960
  0.2408245220262747  0.6499244022867769  0.7922867423103187
  0.9354577825498477  0.0262137203768568  0.1588043315522753
  0.3628203397473464  0.8982743708369660  0.1036498075791359
  0.1213308000659141  0.0684499514592587  0.1638350356430795
  0.3416283268333033  0.4818067632339610  0.8458269915683569
  0.5125244420939551  0.8837115457025283  0.2287918304054591
  0.4026814684749731  0.2458276846247477  0.5038728126398061
  0.2902454781574594  0.4003888519988425  0.4716652278950473
  0.3200093565722489  0.4378756273257190  0.2336273509472115
  0.2730138766863539  0.7746003714262298  0.3253874003796888
  0.7563888137153467  0.5554780002169440  0.9829454920795183
  0.5846473377500249  0.8095135211811363  0.5370342548866462
  0.9830546996446271  0.6245922111735391  0.3729975949760290
  0.3912673147965937  0.3319394430894987  0.7901073942857257
  0.8790585659876010  0.2004679725549173  0.2936110669180432
  0.5620539343392080  0.3286990057286206  0.9100477699761597
  0.1540675300625240  0.4907621122004234  0.8543649621658936
  0.4762917740395176  0.9507115987265233  0.6219602217034242
  0.3545923845444035  0.2843398964978477  0.3457467631579901
  0.6323643174737335  0.3333026032525484  0.7002052026367306
  0.3251397851144384  0.0837588363990254  0.0136629222232607
  0.4285722997670994  0.4710372321875456  0.5599290792526960
  0.1490208854805093  0.1478428734558536  0.0636455258978950
  0.8908393753479700  0.9405677701356873  0.8411099183251712
  0.5116521686019028  0.5602285386726595  0.4252244524498880
  0.5086810283179931  0.2240483096740523  0.2249043587594949
  0.8593882195254645  0.7376987322804800  0.7710655168323364
  0.0146863220173772  0.1142849725289758  0.2023833192291712
  0.5959798815487088  0.0804501304955557  0.8751043571131373
  0.7714435258053409  0.4539837527829473  0.7770164366465773
  0.9177394430149179  0.8479995363255953  0.4215741978175210
  0.6489983768098240  0.3197331936953539  0.5719782564835352
  0.6147425333742539  0.8925092360240032  0.3842911848861298
  0.6143398322177248  0.7245873532852690  0.7094672851347634
  0.7071747446036653  0.5493319855868957  0.2596316347712569
  0.9204606118369807  0.6088681400836614  0.5439104291643329
  0.2061287261479337  0.4679888164565634  0.5476179454913256
  0.6367029937319109  0.4891206724571390  0.8332034646270372
  0.8613907478733047  0.5193089346797426  0.9160530812212754
  0.8557169265187921  0.4349436295829748  0.5095579313793283
  0.3808952180649869  0.9712574625342070  0.4585784760906120
  0.5345590248675152  0.1545099160280563  0.6170729095310975
  0.6510065403272602  0.3673773524629340  0.0442663435580511
  0.8214287964386785  0.7261901518963108  0.3143776572177863
  0.4604333150111496  0.9599228890624837  0.3173448028589810
  0.5519481813618250  0.2178751269997871  0.4319576429678844
  0.4019177302005563  0.7406259491827329  0.8768587200400036
  0.4809173600125792  0.4808324507742915  0.0829428910685581
  0.2735553825373177  0.1030764781781439  0.3754194449090178
  0.1243456342178784  0.6825298451175108  0.7566238920917004
  0.4544037256287587  0.9618802892452637  0.0430519209445291
  0.2757815542151970  0.7617904117815915 -0.0037950837184804
  0.8323588688881222  0.3460991457120796  0.0196241421855222
  0.0282132184574848  0.9152396227782854  0.5388930862813814
  0.1113519861414932  0.3503447778613908  0.4229708409216433
  0.3846310204208702  0.8616689330773246  0.8210272896481471
  0.2508545121959775  0.8839982343425368  0.9683097514453730
  0.7257391311828413  0.9761447103141333  0.7749832142004978
  0.2985216499213088  0.6098563629467978  0.9826451776544988
  0.2340734787239467  0.1979878507202328  0.7084755286150705
  0.7500150072643592  0.2739065142763564  0.7172885434450291
  0.0183406972958668  0.8094939779580772  0.9829702155425956
  0.4637692411484283  0.6040721779071422  0.0508145796017378
  0.7301604638465004  0.8448537445665328  0.2329358377735015
  0.6579470854238515  0.2507458939716797  0.0894505135792056
  0.7178535779335484  0.5861804142292474  0.6461687718738589
  0.0671507358613805  0.0475348647375553  0.5102099318141206
  0.0158822744884172  0.7892372209377224  0.5742198542065033
  0.0565213006195632  0.5011375944412506  0.7118865804252855
  0.8241268368611611  0.1848267869131935  0.4122592990770858
  0.2018383105004340  0.6215811617900944  0.0807366441002899
  0.8176089760218187  0.9307115616315655  0.2178344346967325
  0.4168293885420526  0.7507917971592171  0.3263438796660811
  0.5001258133948516  0.3415596040898750  0.0796132824095681
  0.1957593598080403  0.6137643430987632  0.4206411646547563
  0.1203282938694009  0.1346496897640563  0.8145788464787049
  0.9734064956850929  0.8368470662242704  0.1667337457978718
  0.6223497454482884  0.0448977695100782  0.5092479811337365
  0.2449296442767544  0.5079187429864843  0.7435908159583792
  0.6241808447719600  0.6687485846390082  0.5332764803150627
  0.4512115292254229  0.2101833265650694  0.6926691264386154
  0.1527586724787794  0.2219322540881402  0.4181792428097681
  0.7995391829867662  0.6183818406256112  0.4977567784020600
  0.6011477974914058  0.4762406757812490  0.1369206019663713
  0.3539452926602156  0.4475879349936898  0.0395788459410001
  0.9657691681582345  0.4907355653662070  0.3730354838747440
  0.1666532412637687  0.2962893760186198  0.8941847604669281
  0.8347291701924499  0.1057338696940998  0.9848720639714014
  0.3750922460505532  0.9642722888283414  0.7382323140849780
  0.9516000908607160  0.3314930709853939  0.3277195311221358
  0.7839417686171815  0.3572988676430989  0.2113339478926560
  0.2427092170261335  0.2505187874231727  0.9876923039507308
  0.2334782944210055  0.4037679269333128  0.9088095799695514
  0.2488873288208397  0.0157215350034605  0.6806997740897911
  0.5422092263609978  0.1664876813306111  0.1218062684784692
  0.4029327519081712  0.7635289588624313  0.0051015251820384
  0.8386764804214956  0.0772838522434246  0.6581377071032667
  0.9129660764722817  0.5851596311539744  0.7287590582156606
  0.1943342021166257  0.9079194070545769  0.4375567650028616
  0.6078913351298210  0.1630635769053985  0.9690722271420493
  0.5833338215246108  0.5677229894703548  0.2230094419387147
  0.2204980581182194  0.4126320464230360  0.3602011621734800
  0.7233169976811504  0.1460367854521262  0.8215159614672946
  0.3760706208398544  0.3284778243116198  0.0714884760817065
  0.1802796843821182  0.7458623980891369  0.1156921038342856
  0.1265531191454085  0.9308305535947855  0.8345840135263604
  0.3474817783294011  0.5395314444962850  0.6320058050656755
  0.9435749041079902  0.1947445715176928  0.8053162571169999
  0.3651739147710049  0.6071370781630239  0.8672549598871138
  0.8305051362357371  0.5202804121843625  0.3174324045824059
  0.0852424534187503  0.2556852235457045  0.0841845723811779
  0.1428900461607082  0.4128240672109210  0.0234013406655893
  0.2658299696922538  0.5866054553897551  0.2657647477260524
  0.5384847645516883  0.1281491856040979  0.3204577314829936
  0.3611000484470209  0.6897952932404547  0.4959395202529917
  0.9964740997580290  0.1020629381396927  0.6013022898861382
  0.7106325638385882  0.1926022622570231  0.6035773635136742
  0.6827094960533139  0.4894639267320202  0.4711168683316297
  0.2354485235214463  0.2539564500230493  0.5343996141000206
  0.9919305706416029  0.3851721342448069  0.8945576824559636
  0.5769614279366114  0.6659747815776650  0.8878549369096240
  0.2139155374265989  0.3174598044358390  0.0873012811287858
  0.2892647006532825  0.3939394686286506  0.7064017876730088
  0.7163108324014013  0.0872486117945166  0.6765996009380554
  0.0935554858392027  0.3348043664244637  0.7793911933258876
  0.1426208409871353  0.5531116996550660  0.6389681407057720
  0.0075005372123685  0.6647417573936156  0.1246268998862055
  0.5263748941861899  0.0198411691408699  0.1321209027009492
  0.4303520170135084  0.6478512361153564  0.1667049142619199
  0.7080035683979409  0.8702116031756775  0.5632855404915369
  0.9629779809760627  0.9894095854976860  0.7222315532582985
  0.0751092453950652  0.7698405258717661  0.4502524850674833
  0.9907454368419737  0.7566464134746328  0.3563147747308291
  0.7341173029829621  0.1801613524986534  0.9436450485031252
  0.4903301007327075  0.3967939322632503  0.3045547174630073
  0.8190132775754434  0.9060927679010219  0.9459888802084783
  0.6721413896548383  0.9832357771960311  0.0541764626502339
  0.2666488476436090  0.5771680862056279  0.5314075996108547
  0.0415973035506449  0.3917545602772987  0.1015289989227991
  0.6866791080122938  0.4623659554977397  0.6718024275224582
  0.1151521640515124  0.8461920819290640  0.7262672294643588
  0.4206684457714099  0.1684235870774397  0.0683832140519070
  0.1286230738440910  0.3340230399534665  0.5895877629453664
  0.9068954431634422  0.1404990552303044  0.5005968747260180
 
  0.00000000E+00  0.00000000E+00  0.00000000E+00
  0.00000000E+00  0.00000000E+00  0.00000000E+00
  0.00000000E+00  0.00000000E+00  0.00000000E+00
  0.00000000E+00  0.00000000E+00  0.00000000E+00
  0.00000000E+00  0.00000000E+00  0.00000000E+00
  0.00000000E+00  0.00000000E+00  0.00000000E+00
  0.00000000E+00  0.00000000E+00  0.00000000E+00
  0.00000000E+00  0.00000000E+00  0.00000000E+00
  0.00000000E+00  0.00000000E+00  0.00000000E+00
  0.00000000E+00  0.00000000E+00  0.00000000E+00
  0.00000000E+00  0.00000000E+00  0.00000000E+00
  0.00000000E+00  0.00000000E+00  0.00000000E+00
  0.00000000E+00  0.00000000E+00  0.00000000E+00
  0.00000000E+00  0.00000000E+00  0.00000000E+00
  0.00000000E+00  0.00000000E+00  0.00000000E+00
  0.00000000E+00  0.00000000E+00  0.00000000E+00
  0.00000000E+00  0.00000000E+00  0.00000000E+00
  0.00000000E+00  0.00000000E+00  0.00000000E+00
  0.00000000E+00  0.00000000E+00  0.00000000E+00
  0.00000000E+00  0.00000000E+00  0.00000000E+00
  0.00000000E+00  0.00000000E+00  0.00000000E+00
  0.00000000E+00  0.00000000E+00  0.00000000E+00
  0.00000000E+00  0.00000000E+00  0.00000000E+00
  0.00000000E+00  0.00000000E+00  0.00000000E+00
  0.00000000E+00  0.00000000E+00  0.00000000E+00
  0.00000000E+00  0.00000000E+00  0.00000000E+00
  0.00000000E+00  0.00000000E+00  0.00000000E+00
  0.00000000E+00  0.00000000E+00  0.00000000E+00
  0.00000000E+00  0.00000000E+00  0.00000000E+00
  0.00000000E+00  0.00000000E+00  0.00000000E+00
  0.00000000E+00  0.00000000E+00  0.00000000E+00
  0.00000000E+00  0.00000000E+00  0.00000000E+00
  0.00000000E+00  0.00000000E+00  0.00000000E+00
  0.00000000E+00  0.00000000E+00  0.00000000E+00
  0.00000000E+00  0.00000000E+00  0.00000000E+00
  0.00000000E+00  0.00000000E+00  0.00000000E+00
  0.00000000E+00  0.00000000E+00  0.00000000E+00
  0.00000000E+00  0.00000000E+00  0.00000000E+00
  0.00000000E+00  0.00000000E+00  0.00000000E+00
  0.00000000E+00  0.00000000E+00  0.00000000E+00
  0.00000000E+00  0.00000000E+00  0.00000000E+00
  0.00000000E+00  0.00000000E+00  0.00000000E+00
  0.00000000E+00  0.00000000E+00  0.00000000E+00
  0.00000000E+00  0.00000000E+00  0.00000000E+00
  0.00000000E+00  0.00000000E+00  0.00000000E+00
  0.00000000E+00  0.00000000E+00  0.00000000E+00
  0.00000000E+00  0.00000000E+00  0.00000000E+00
  0.00000000E+00  0.00000000E+00  0.00000000E+00
  0.00000000E+00  0.00000000E+00  0.00000000E+00
  0.00000000E+00  0.00000000E+00  0.00000000E+00
  0.00000000E+00  0.00000000E+00  0.00000000E+00
  0.00000000E+00  0.00000000E+00  0.00000000E+00
  0.00000000E+00  0.00000000E+00  0.00000000E+00
  0.00000000E+00  0.00000000E+00  0.00000000E+00
  0.00000000E+00  0.00000000E+00  0.00000000E+00
  0.00000000E+00  0.00000000E+00  0.00000000E+00
  0.00000000E+00  0.00000000E+00  0.00000000E+00
  0.00000000E+00  0.00000000E+00  0.00000000E+00
  0.00000000E+00  0.00000000E+00  0.00000000E+00
  0.00000000E+00  0.00000000E+00  0.00000000E+00
  0.00000000E+00  0.00000000E+00  0.00000000E+00
  0.00000000E+00  0.00000000E+00  0.00000000E+00
  0.00000000E+00  0.00000000E+00  0.00000000E+00
  0.00000000E+00  0.00000000E+00  0.00000000E+00
  0.00000000E+00  0.00000000E+00  0.00000000E+00
  0.00000000E+00  0.00000000E+00  0.00000000E+00
  0.00000000E+00  0.00000000E+00  0.00000000E+00
  0.00000000E+00  0.00000000E+00  0.00000000E+00
  0.00000000E+00  0.00000000E+00  0.00000000E+00
  0.00000000E+00  0.00000000E+00  0.00000000E+00
  0.00000000E+00  0.00000000E+00  0.00000000E+00
  0.00000000E+00  0.00000000E+00  0.00000000E+00
  0.00000000E+00  0.00000000E+00  0.00000000E+00
  0.00000000E+00  0.00000000E+00  0.00000000E+00
  0.00000000E+00  0.00000000E+00  0.00000000E+00
  0.00000000E+00  0.00000000E+00  0.00000000E+00
  0.00000000E+00  0.00000000E+00  0.00000000E+00
  0.00000000E+00  0.00000000E+00  0.00000000E+00
  0.00000000E+00  0.00000000E+00  0.00000000E+00
  0.00000000E+00  0.00000000E+00  0.00000000E+00
  0.00000000E+00  0.00000000E+00  0.00000000E+00
  0.00000000E+00  0.00000000E+00  0.00000000E+00
  0.00000000E+00  0.00000000E+00  0.00000000E+00
  0.00000000E+00  0.00000000E+00  0.00000000E+00
  0.00000000E+00  0.00000000E+00  0.00000000E+00
  0.00000000E+00  0.00000000E+00  0.00000000E+00
  0.00000000E+00  0.00000000E+00  0.00000000E+00
  0.00000000E+00  0.00000000E+00  0.00000000E+00
  0.00000000E+00  0.00000000E+00  0.00000000E+00
  0.00000000E+00  0.00000000E+00  0.00000000E+00
  0.00000000E+00  0.00000000E+00  0.00000000E+00
  0.00000000E+00  0.00000000E+00  0.00000000E+00
  0.00000000E+00  0.00000000E+00  0.00000000E+00
  0.00000000E+00  0.00000000E+00  0.00000000E+00
  0.00000000E+00  0.00000000E+00  0.00000000E+00
  0.00000000E+00  0.00000000E+00  0.00000000E+00
  0.00000000E+00  0.00000000E+00  0.00000000E+00
  0.00000000E+00  0.00000000E+00  0.00000000E+00
  0.00000000E+00  0.00000000E+00  0.00000000E+00
  0.00000000E+00  0.00000000E+00  0.00000000E+00
  0.00000000E+00  0.00000000E+00  0.00000000E+00
  0.00000000E+00  0.00000000E+00  0.00000000E+00
  0.00000000E+00  0.00000000E+00  0.00000000E+00
  0.00000000E+00  0.00000000E+00  0.00000000E+00
  0.00000000E+00  0.00000000E+00  0.00000000E+00
  0.00000000E+00  0.00000000E+00  0.00000000E+00
  0.00000000E+00  0.00000000E+00  0.00000000E+00
  0.00000000E+00  0.00000000E+00  0.00000000E+00
  0.00000000E+00  0.00000000E+00  0.00000000E+00
  0.00000000E+00  0.00000000E+00  0.00000000E+00
  0.00000000E+00  0.00000000E+00  0.00000000E+00
  0.00000000E+00  0.00000000E+00  0.00000000E+00
  0.00000000E+00  0.00000000E+00  0.00000000E+00
  0.00000000E+00  0.00000000E+00  0.00000000E+00
  0.00000000E+00  0.00000000E+00  0.00000000E+00
  0.00000000E+00  0.00000000E+00  0.00000000E+00
  0.00000000E+00  0.00000000E+00  0.00000000E+00
  0.00000000E+00  0.00000000E+00  0.00000000E+00
  0.00000000E+00  0.00000000E+00  0.00000000E+00
  0.00000000E+00  0.00000000E+00  0.00000000E+00
  0.00000000E+00  0.00000000E+00  0.00000000E+00
  0.00000000E+00  0.00000000E+00  0.00000000E+00
  0.00000000E+00  0.00000000E+00  0.00000000E+00
  0.00000000E+00  0.00000000E+00  0.00000000E+00
  0.00000000E+00  0.00000000E+00  0.00000000E+00
  0.00000000E+00  0.00000000E+00  0.00000000E+00
  0.00000000E+00  0.00000000E+00  0.00000000E+00
  0.00000000E+00  0.00000000E+00  0.00000000E+00
  0.00000000E+00  0.00000000E+00  0.00000000E+00
  0.00000000E+00  0.00000000E+00  0.00000000E+00
  0.00000000E+00  0.00000000E+00  0.00000000E+00
  0.00000000E+00  0.00000000E+00  0.00000000E+00
  0.00000000E+00  0.00000000E+00  0.00000000E+00
  0.00000000E+00  0.00000000E+00  0.00000000E+00
  0.00000000E+00  0.00000000E+00  0.00000000E+00
  0.00000000E+00  0.00000000E+00  0.00000000E+00
  0.00000000E+00  0.00000000E+00  0.00000000E+00
  0.00000000E+00  0.00000000E+00  0.00000000E+00
  0.00000000E+00  0.00000000E+00  0.00000000E+00
  0.00000000E+00  0.00000000E+00  0.00000000E+00
  0.00000000E+00  0.00000000E+00  0.00000000E+00
  0.00000000E+00  0.00000000E+00  0.00000000E+00
  0.00000000E+00  0.00000000E+00  0.00000000E+00
  0.00000000E+00  0.00000000E+00  0.00000000E+00
  0.00000000E+00  0.00000000E+00  0.00000000E+00
  0.00000000E+00  0.00000000E+00  0.00000000E+00
  0.00000000E+00  0.00000000E+00  0.00000000E+00
  0.00000000E+00  0.00000000E+00  0.00000000E+00
  0.00000000E+00  0.00000000E+00  0.00000000E+00
  0.00000000E+00  0.00000000E+00  0.00000000E+00
  0.00000000E+00  0.00000000E+00  0.00000000E+00
  0.00000000E+00  0.00000000E+00  0.00000000E+00
  0.00000000E+00  0.00000000E+00  0.00000000E+00
  0.00000000E+00  0.00000000E+00  0.00000000E+00
  0.00000000E+00  0.00000000E+00  0.00000000E+00
  0.00000000E+00  0.00000000E+00  0.00000000E+00
  0.00000000E+00  0.00000000E+00  0.00000000E+00
  0.00000000E+00  0.00000000E+00  0.00000000E+00
  0.00000000E+00  0.00000000E+00  0.00000000E+00
  0.00000000E+00  0.00000000E+00  0.00000000E+00
  0.00000000E+00  0.00000000E+00  0.00000000E+00
  0.00000000E+00  0.00000000E+00  0.00000000E+00
  0.00000000E+00  0.00000000E+00  0.00000000E+00
  0.00000000E+00  0.00000000E+00  0.00000000E+00
  0.00000000E+00  0.00000000E+00  0.00000000E+00
  0.00000000E+00  0.00000000E+00  0.00000000E+00
  0.00000000E+00  0.00000000E+00  0.00000000E+00
  0.00000000E+00  0.00000000E+00  0.00000000E+00
  0.00000000E+00  0.00000000E+00  0.00000000E+00
  0.00000000E+00  0.00000000E+00  0.00000000E+00
  0.00000000E+00  0.00000000E+00  0.00000000E+00
  0.00000000E+00  0.00000000E+00  0.00000000E+00
  0.00000000E+00  0.00000000E+00  0.00000000E+00
  0.00000000E+00  0.00000000E+00  0.00000000E+00
  0.00000000E+00  0.00000000E+00  0.00000000E+00
  0.00000000E+00  0.00000000E+00  0.00000000E+00
  0.00000000E+00  0.00000000E+00  0.00000000E+00
  0.00000000E+00  0.00000000E+00  0.00000000E+00
  0.00000000E+00  0.00000000E+00  0.00000000E+00
  0.00000000E+00  0.00000000E+00  0.00000000E+00
  0.00000000E+00  0.00000000E+00  0.00000000E+00
  0.00000000E+00  0.00000000E+00  0.00000000E+00
  0.00000000E+00  0.00000000E+00  0.00000000E+00
  0.00000000E+00  0.00000000E+00  0.00000000E+00
  0.00000000E+00  0.00000000E+00  0.00000000E+00
  0.00000000E+00  0.00000000E+00  0.00000000E+00
  0.00000000E+00  0.00000000E+00  0.00000000E+00
  0.00000000E+00  0.00000000E+00  0.00000000E+00
  0.00000000E+00  0.00000000E+00  0.00000000E+00
  0.00000000E+00  0.00000000E+00  0.00000000E+00
  0.00000000E+00  0.00000000E+00  0.00000000E+00
  0.00000000E+00  0.00000000E+00  0.00000000E+00
  0.00000000E+00  0.00000000E+00  0.00000000E+00
  0.00000000E+00  0.00000000E+00  0.00000000E+00
  0.00000000E+00  0.00000000E+00  0.00000000E+00
  0.00000000E+00  0.00000000E+00  0.00000000E+00
  0.00000000E+00  0.00000000E+00  0.00000000E+00
  0.00000000E+00  0.00000000E+00  0.00000000E+00
  0.00000000E+00  0.00000000E+00  0.00000000E+00
  0.00000000E+00  0.00000000E+00  0.00000000E+00
  0.00000000E+00  0.00000000E+00  0.00000000E+00
  0.00000000E+00  0.00000000E+00  0.00000000E+00
  0.00000000E+00  0.00000000E+00  0.00000000E+00
  0.00000000E+00  0.00000000E+00  0.00000000E+00
  0.00000000E+00  0.00000000E+00  0.00000000E+00
  0.00000000E+00  0.00000000E+00  0.00000000E+00
  0.00000000E+00  0.00000000E+00  0.00000000E+00
  0.00000000E+00  0.00000000E+00  0.00000000E+00
  0.00000000E+00  0.00000000E+00  0.00000000E+00
  0.00000000E+00  0.00000000E+00  0.00000000E+00
  0.00000000E+00  0.00000000E+00  0.00000000E+00
  0.00000000E+00  0.00000000E+00  0.00000000E+00
  0.00000000E+00  0.00000000E+00  0.00000000E+00
  0.00000000E+00  0.00000000E+00  0.00000000E+00
  0.00000000E+00  0.00000000E+00  0.00000000E+00
  0.00000000E+00  0.00000000E+00  0.00000000E+00
  0.00000000E+00  0.00000000E+00  0.00000000E+00
  0.00000000E+00  0.00000000E+00  0.00000000E+00
  0.00000000E+00  0.00000000E+00  0.00000000E+00
  0.00000000E+00  0.00000000E+00  0.00000000E+00
  0.00000000E+00  0.00000000E+00  0.00000000E+00
  0.00000000E+00  0.00000000E+00  0.00000000E+00
  0.00000000E+00  0.00000000E+00  0.00000000E+00
  0.00000000E+00  0.00000000E+00  0.00000000E+00
  0.00000000E+00  0.00000000E+00  0.00000000E+00
  0.00000000E+00  0.00000000E+00  0.00000000E+00
  0.00000000E+00  0.00000000E+00  0.00000000E+00
  0.00000000E+00  0.00000000E+00  0.00000000E+00
  0.00000000E+00  0.00000000E+00  0.00000000E+00
  0.00000000E+00  0.00000000E+00  0.00000000E+00
  0.00000000E+00  0.00000000E+00  0.00000000E+00
  0.00000000E+00  0.00000000E+00  0.00000000E+00