Ge Se
 1.0000000000000000
    20.0000000000000000    0.0000000000000000    0.0000000000000000
     0.0000000000000000   20.0000000000000000    0.0000000000000000
     0.0000000000000000    0.0000000000000000   20.0000000000000000
 Ge  Se 
 146 146
Cartesian
  9.2874383926391602 17.4689331054687500 16.0801792144775391
  2.7150149345397949 14.7541494369506854  9.8555860519409180
 12.8671369552612305 17.1690311431884766  9.8355569839477539
  8.1978082656860352 10.2701406478881836  4.9485316276550293
 15.5896997451782227 18.8353763818740845 17.4230937957763672
 13.5021772384643572  7.7695770263671884 12.2234611511230469
  4.2950434684753418 14.7658987045288104 19.1159420013427734
 14.2565412521362322 13.1717720031738299 19.6107680499553680
  3.0723607540130615  8.3501129150390625 16.0282917022705078
 16.9024887084960938 16.8111419677734375  0.6712417602539100
 15.4078006744384766 13.3823165893554688 16.9028282165527344
  9.8841199874877930 15.7353296279907244 11.1952857971191406
 11.2074499130249023  5.2119951248168945 10.7398777008056641
  1.5887968540191653 17.1608619689941406  6.9331684112548828
  4.9368920326232910  5.4422607421875000 13.9235439300537127
  0.8836535811424256 18.4766826629638672  0.6965137720108032
  5.8445262908935547 17.0466556549072266  1.5084798336029053
 19.5366306304931641  3.3366024494171143 14.8972454071044940
  1.4801964759826660  8.2824544906616211 12.4680480957031250
 14.5792150497436523 15.7327203750610352 12.7686414718627930
  0.0161228179931661 12.5586910247802752  9.6631593704223633
 12.1151819229125994  2.6013629436492920 17.9458541870117188
 19.1601314544677734  2.7513997554779053  3.2257242202758789
  1.6962460279464722 19.5837039947509766 17.2131824493408203
  4.0457506179809570 11.5308647155761719 14.6241645812988281
 17.8879489898681641 14.2982721328735352 18.2060489654541016
  6.5114126205444345  9.2166986465454102 11.9471092224121094
 10.1442718505859375  8.7388143539428711 19.0667675733566284
  9.4871253967285156  8.6260013580322266  2.8188390731811523
 16.0154151916503906 13.0340604782104492 10.1307268142700195
 15.7323350906372088  4.5252232551574707 13.6110820770263690
  5.0341877937316895  1.5353029966354370  5.1647419929504403
 13.2615299224853533  5.1328783035278320  9.0099582672119141
  4.4069504737854004  6.8542065620422363  7.1819276809692392
 12.2382612228393572  3.4724049568176274  1.4451061487197878
  4.2694330215454102  4.6930036544799805  3.8977084159851079
 17.0648326873779297  0.2222784459590912 19.1125928163528442
  8.5064554214477539 11.0911159515380859  8.6347761154174805
  6.6553387641906747  3.8374633789062500  6.5776052474975586
  6.0397281646728516  6.0502390861511230  1.4171402454376223
 14.0507078170776367 19.5834732055664062 10.2895135879516602
 13.9587297439575213  9.0788536071777344  6.1526942253112793
 14.4488391876220703 13.1131544113159197  2.2530419826507568
 16.1787643432617188  6.9341745376586914  8.9715576171875000
  4.1170616149902344 10.1699104309082049  4.8077020645141602
 13.3655138015747088  3.5913794040679936  3.7162256240844727
 18.7126712799072266 15.9296121597290057  5.3105921745300302
 14.2844343185424805  2.5674247741699219 16.1885547637939453
 17.5632591247558594  7.4462809562683105  6.6888146400451660
 16.5576801300048828 18.4680056571960485 13.1279134750366211
  7.3743939399719238 17.8831138610839844  5.4019865989685059
  4.3437333106994629 11.2642421722412127  9.3970499038696289
  1.6512900590896606 13.1365337371826190 17.9091949462890625
  4.3538451194763184 18.8942985534667969  7.1257262229919434
 19.1614990234375000 10.1296482086181641  1.2488926649093628
 14.9627342224121112  6.6629939079284668 15.1765785217285156
 14.2014083862304688  2.2718851566314697  0.2227127552032471
 19.5445117950439453 14.9918146133422869 12.6334495544433612
  6.3534431457519531 18.1132831573486328  9.2423906326293945
 10.1377449035644531  8.5690069198608398  7.4610323905944833
  9.5760164260864258  1.5829570293426514  4.0795826911926270
 17.1084003448486328 11.0462923049926758  8.8628826141357422
 18.9825839996337891  1.9460378885269167 12.7531681060791016
  2.3020040988922119 15.7349033355712908 17.6777572631835938
 10.1541032791137713 12.9521236419677734 18.8008232116699219
 14.8377704620361328 17.1742305755615234  6.7274427413940430
 16.8543663024902344  4.6886744499206543 17.5322856903076172
  6.7286558151245126 11.7484693527221680  1.6070282459259033
  1.4896327257156372 13.0106782913208008  5.3200373649597168
  9.2650032043457031 17.0421333312988281  2.8504025936126709
  3.5879764556884770 15.1227645874023438  4.9149484634399414
 11.8000974655151385  4.5033464431762695 13.2152242660522479
  7.0412797927856454  3.4517600536346436 18.8823089599609375
 19.0858716964721680 12.3903541564941406 14.9170227050781268
 11.1827392578125000  5.8388004302978516  5.4302334785461426
  7.0394687652587891 14.0306205749511737 13.4327354431152362
  3.8903415203094482  2.8889071941375732  2.2471163272857666
  7.3633422851562500 16.4390907287597656 15.0817155838012695
  6.7818131446838379  9.0713100433349609 18.2484821081161499
 12.6575546264648438 15.6492843627929705  1.3127379417419436
 15.9967861175537109  4.8869209289550781  5.7274827957153320
 14.0819044113159197 15.7295560836791992 16.8980121612548828
  4.3786673545837402 12.4488725662231463  6.3783235549926767
  4.0699648857116699 19.8629283905029297 14.4946985244750977
 12.8842077255249023  0.6361071467399597  4.6700859069824219
 17.9321212768554688 10.4463024139404297  5.2106280326843271
 12.2577981948852539  6.0626673698425293  1.4162441492080688
  8.6009044647216797 11.9891967773437518 11.2398157119750977
  7.4320306777954102  5.6425027847290039 11.7051858901977539
  5.3398165702819824 13.5423231124877930 16.8515701293945312
 16.2725563049316406  1.2343540191650393 10.2096576690673828
  5.3127212524414071 16.9869728088378906 16.8669681549072266
 19.6433599591255188 10.1354713439941406  8.9475555419921875
  4.2370238304138184  3.4397337436676030 10.2329149246215838
  1.8799613714218142  3.9396402835845952  8.9545278549194336
 12.4084930419921875 10.7959432601928711 17.3444938659667969
 15.8414449691772479  6.4875020980834961  2.5295665264129639
 11.3564720153808612 18.9697265625000000  6.9835386276245126
 19.0252685546875000  5.0644679069519052 11.7680835723876953
  1.1728894710540771 13.9381513595581055  7.8591771125793466
 12.3653993606567383 14.6202974319458008  5.5828795433044434
 15.3118848800659180 15.0507030487060547  3.7704248428344727
  2.3907797336578369  8.4011669158935547  9.9356288909912109
  3.5177636146545410 12.2818317413330096  1.7207486629486084
 18.0654850006103516 12.1469240188598633  2.2761349678039551
 14.4057531356811541 10.2146902084350604 11.7195959091186523
  7.3306093215942392  1.1926835775375366  1.7460956573486330
  9.3019704818725586  4.8255400657653809 19.9320890083909035
 15.7248620986938477  2.7895300388336182  4.1752281188964844
  2.0677807331085205  5.4742970466613770  0.8652248382568362
  5.2682185173034668  1.7582361698150637 11.8940229415893555
 10.4009160995483398 19.2882789969444275 10.5715036392211914
 12.3512115478515643 19.4847850799560547  1.5823358297348022
  7.8136191368103036  6.5490865707397461  4.0566945075988770
 10.6011829376220703 13.4252452850341797  2.6170814037322998
  8.8199205398559570  5.7615976333618164 16.1141796112060547
  6.2651672363281250  3.1876640319824223 14.2495756149291992
 19.2772947549819946  6.8249049186706543 17.0069713592529297
  3.8982579708099370  1.1056162118911743 19.5749003887176514
 18.9898109436035156 19.0478172302246094 15.9270935058593750
  7.0836415290832520 15.0586290359497088  4.5349063873291016
 16.7131481170654297 16.3333759307861328 15.1278772354125994
  0.6500293612480164 14.5605373382568359  1.4259901046752930
 14.8898715972900408  8.4746961593627930 19.3404167890548742
 11.7119750976562500  2.3728106021881104  8.7205543518066406
 18.0073261260986328  9.8905277252197266 18.8958873748779297
  6.6146869659423837  0.8258563876152039  9.8621664047241211
  1.1728889942169189  8.5214138031005859  1.7940001487731936
 16.8532810211181641  0.5136203765869153  5.5168766975402841
 18.8484573364257812  6.1630806922912607  0.2444067299365997
 11.0934476852416992 13.8546905517578125 15.6246137619018555
  7.8740830421447763 18.5947895050048828 13.0301933288574219
 18.6415386199951172  9.3254184722900391 14.6935234069824219
  3.8183155059814453  6.8943924903869638  2.8008098602294922
 14.0632047653198260 14.3389816284179705  8.8841724395751953
  6.8524374961853027 14.7261686325073260  9.2730855941772461
  2.7768661975860596 13.3521909713745135 13.5318899154663086
  9.5708131790161133  1.6633960008621218 15.4825077056884766
  1.0340900421142607  5.9103918075561523 13.5229310989379883
  3.8183364868164067  9.0733098983764648  1.3765197992324829
  5.4049315452575684 19.7617277652025223 16.7138023376464844
 19.9926865510642529  2.2969121932983398  0.8407276868820190
 12.7473239898681641 11.2988758087158203  6.9898977279663086
  1.7305481433868408  1.2555128335952759  7.7145524024963388
  3.0987799167633057 17.1480979919433594 12.6580972671508807
 18.1820678710937500 18.8572196960449219  8.6462526321411133
 15.3997831344604492  4.2025136947631836  8.0119457244873047
  0.4688563942909241 16.1870307922363281 19.4243640899658203
 12.7814617156982440 14.9587583541870117 11.1167068481445312
 17.0286064147949219 16.6596183776855469  3.1837868690490723
 16.9590568542480469  3.4426577091217041 11.5442295074462891
 13.1467065811157227  0.3006877005100250 19.1273374557495117
 15.7038888931274414 14.5965785980224627  6.1294322013854980
  9.8164358139038086  7.1341657638549805 11.6534528732299805
 16.8649406433105469  7.9733152389526376 17.5115566253662109
  2.2569904327392578 18.2178897857666016 15.0042734146118164
  6.2501955032348633 16.3603382110595703 18.9326000213623047
  0.9229257106781007 17.0510616302490234  4.6397938728332520
 11.4415311813354492  8.4256420135498047  1.2567479610443115
  5.3995871543884277 13.1331157684326172  4.2025613784790039
  0.7004909515380897 18.9932804107666016  8.4420728683471680
 14.1157684326171875 18.4905509948730469 12.6785764694213867
  4.6806654930114746 14.6947193145751953  7.3416147232055673
 19.3001136779785156 12.2455911636352539 17.4120006561279297
 12.9766750335693359 15.5998020172119141 14.6739692687988299
 13.8561134338378906 11.7560129165649414 15.7356166839599609
 15.9579620361328125 11.3270568847656250  3.0751700401306152
  0.6323375701904299  9.0346746444702148 16.3875198364257812
  2.8287744522094727  0.3255061507225037  5.5765547752380371
  6.6989064216613770  4.3173208236694336  3.2612028121948242
 16.7982597351074219  8.1925296783447266  4.5445508956909180
  2.0493986606597900 11.1797533035278320  3.6017189025878911
 10.6586971282959002  5.0144038200378418 17.8302593231201172
 14.4755105972290039 16.9607944488525391  0.0841560065746307
 14.5004711151123047  5.9622631072998047  0.3000590801239014
 12.2037487030029297  1.1812167167663574 11.0084991455078125
  8.0926942825317383  6.9983677864074707 19.3246144652366638
 14.3410224914550799  4.9373588562011719 17.0537567138671875
 19.6333077251911163  9.8306074142456055 12.4266166687011737
  3.5283744335174561 11.6979875564575213 17.0585651397705078
  4.5928020477294922  8.4416389465332031 19.1486311554908752
 11.4190559387207031 18.4475078582763672 16.5876502990722656
  1.2106227874755859 16.2907733917236328 11.2099313735961914
  3.7489738464355469  2.3170588016510010 13.8125247955322283
 16.9164218902587891 19.5427649021148682  1.5921707153320312
 12.8281240463256836  8.4125566482543945 17.5915908813476562
 10.5654802322387713  1.5333392620086672  1.6655058860778809
 18.0480003356933594  0.0149688720703146 11.5022592544555664
 17.0086879730224609  3.1457467079162598 15.4917631149291992
 18.6993541717529297  6.3432707786560059  9.6154422760009766
  2.3115367889404297 10.2157535552978533  8.1343593597412109
 16.2614898681640625  9.2334146499633789 10.2960157394409180
 19.5761318206787109  0.3466631174087525 19.3407096862792969
  1.0132395029067993  7.4093041419982919 19.5219783782958984
  7.9106516838073739  7.7149896621704102 10.2717151641845721
 17.5311069488525391  8.3740749359130859  1.0548967123031616
  8.5533533096313477  0.7241249084472667 11.6166677474975604
 11.9710540771484375 14.7601909637451190 17.9704933166503906
  6.5086688995361328  1.0237442255020142 19.1756019592285156
 10.8082895278930664  9.6550607681274414  9.7794256210327148
  3.0892035961151127  7.7962293624877930  5.0148401260375977
 16.6380481719970703 19.9428985752165318 15.2454547882080078
 19.0722827911376953 13.1942319869995117  4.3006901741027832
  8.8894319534301758 15.0758047103881854 16.5315570831298828
 10.4732999801635742 17.6889190673828125 12.7565279006958026
  4.8507699966430664  4.1464619636535645  0.1403603553771973
  9.6918058395385742  1.5754425525665283 17.9083194732666016
 15.4386358261108398  8.6308631896972656 13.5138320922851562
  6.1817436218261719 12.6562690734863281 11.3914585113525391
  9.7600603103637695  3.8367562294006352  9.5657329559326172
  4.3991312980651855  5.6651406288146973 11.4941625595092773
 15.3095407485961932 16.5696010589599609  9.1561546325683594
  9.5013189315795898 13.7416334152221697 12.9050836563110352
 18.8973064422607422 17.1340236663818359 14.0442514419555664
  1.8489787578582764  1.5165714025497437  2.2261481285095215
  5.0648794174194336 19.2370014190673828 12.3630533218383789
 10.1315393447875994 11.3782835006713867 16.7362346649169922
 11.6195926666259766  2.8046593666076665  5.3899083137512207
  9.5878095626831055  3.8978004455566406 14.3767023086547852
 15.9008474349975604 10.9346189498901385  6.7409129142761239
 15.8394689559936541 11.0996160507202148 19.1213054656982422
 13.3835840225219727  6.1121754646301270  3.9403717517852788
 17.0189514160156250  4.1799345016479492  2.5185406208038330
 17.7196502685546875 13.9288721084594727  0.7502441406250038
 10.0152997970581055 11.1567468643188477  6.5737862586975107
  8.0744361877441406 10.7448949813842791 19.5979819297790527
 13.1352024078369141  7.4816608428955078  7.9043664932250977
 11.3011379241943359  0.3362858891487122 14.6599884033203143
 18.6638545989990234  6.7080798149108887 14.4854955673217773
  4.4015197753906250 15.1392717361450213 13.8475522994995117
  9.1321210861206055 13.4445457458496094  9.1742858886718750
  7.2373619079589844  0.7365226745605480 15.1846256256103533
 12.5659580230712908 11.3185663223266602  9.4471731185913086
  5.0957975387573242 17.1381530761718750  4.4963064193725586
  4.1384530067443848  4.3006458282470703  6.4061560630798340
  0.1397418975830090  6.1739664077758789  2.4660027027130127
 16.4787807464599609  2.6768469810485840 19.2798347473144531
  7.2566685676574716 16.5661144256591797 11.1797323226928729
 18.5831413269042969  0.2212473750114441  3.5064859390258789
 15.0440044403076190  1.0384246110916138  2.3405241966247559
 17.6090469360351562  1.2775202989578247  8.0573730468750000
  1.2725582122802737 12.3582324981689453  0.2824230194091826
  0.7932581901550294  3.2145836353302002 11.1472263336181658
 18.9026432037353516  4.2658872604370117  8.2218408584594727
 18.5630092620849609  5.2647800445556650  6.0320100784301767
  2.0927889347076416 12.6021900177001971 11.1844587326049805
 16.9507122039794922 13.8782100677490234 14.9187030792236346
 19.5714397430419922  8.9527339935302734  6.6760768890380859
 14.5861816406250000  5.8666777610778809 11.1444635391235352
 17.4480743408203125 17.0436401367187500 17.4668807983398438
  2.9215066432952881  5.9827232360839844 15.2828369140625000
 15.4573936462402362 12.3517751693725586 12.3541641235351562
  5.0057725906372070  0.7122045755386353  2.6578788757324219
  2.9654464721679692 18.5742881298065186 19.3287170529365540
  9.5439710617065430 18.9727300405502355 18.0356960296630859
  2.0672991275787354  6.5074839591979980  8.4567899703979492
  9.8917150497436523  5.3166794776916504  3.2841954231262211
  7.5542531013488778 15.2039108276367188  2.0405390262603760
 10.9198427200317383 17.3676624298095703  0.8589841127395631
  9.0670204162597656 11.4043846130371112  2.8621277809143071
  3.4907817840576172 14.8892898559570330  1.5230152606964111
 13.7095441818237322  2.8849802017211919 13.7350006103515643
  0.9553050994873047 14.2129573822021484 14.8802385330200195
  3.5080709457397461  1.4196033477783203 17.1115093231201172
 13.2703952789306641 16.4856243133544922  3.8816890716552739
  6.7315587997436532  7.2920484542846689 13.7762117385864258
  3.4658396244049072  9.3787555694580078 13.6539335250854510
 12.5018730163574237  6.6259388923645020 14.2946062088012695
  9.9654684066772461 14.7840585708618182  4.6499996185302734
  9.8717031478881836  0.5503690242767334  8.1001300811767578
  7.9545383453369141 16.9245777130126953  7.7362351417541504
 10.5881118774414062 19.2126709818840027  4.6570100784301758
 10.8251161575317383  8.4576187133789062  4.9699239730834961
  3.6799962520599365  0.5340425372123718  9.1030912399291992
  7.7366375923156738 18.7687568664550781  1.6969350576400757
 17.2834434509277344 18.1300334930419922  6.3203492164611816
  6.1023268699646005 10.8014087677001953  7.3596167564392090
 13.5532951354980469  0.0011196136474612  7.1326937675476074
  6.6177167892456055  0.1241664886474648  6.3619203567504892
 11.5982723236083984 16.7109241485595703  7.7590909004211426
  6.7105140686035156  4.4246401786804199 16.6728324890136719
 12.1753330230712908 11.5555276870727557 19.7339763641357422
  5.7970623970031738  9.6308679580688477  2.8437035083770752
  4.8671717643737793  8.7213621139526367 10.0282421112060565
 18.2082328796386719 14.1111774444580096 10.4258184432983398
 12.6089181900024432 12.5329771041870135  3.9135205745697021
  7.4270973205566415  6.2528252601623535  6.4866600036621103
  6.5028920173645020  3.4098780155181885  9.1057882308959961
 19.5305995941162109 15.7155027389526385  7.7088384628295898
  0.3373908996582043  1.0305004119873085 14.7636137008666992
  6.4325785636901855 12.0114002227783203 15.0541858673095703
  0.9439148902893068  3.8746075630187993 19.2243576049804688
