Amorphous Sb                            
   1.00000000000000     
    20.4937842132043038    0.0000000000000000    0.0000000000000000
     0.0000000000000000   20.4937842132043002    0.0000000000000000
     0.0000000000000000    0.0000000000000000   20.4937842132043002
   Ge   Se
   150   150
Direct
  0.8898979808551157  0.9759957669290727  0.8429424923314063
  0.9735261636748338  0.3381767613883679  0.9826753881914689
  0.1582349099365701  0.2699739839945942  0.5458950316539779
  0.6977537996806890  0.2233443965905225  0.7752541122481454
  0.0557512860667930  0.7194684642946750  0.9316891656418174
  0.1782705654885061  0.7408472747275640  0.0540147531540143
  0.9752093512842893  0.0269436526552076  0.3565849179981590
  0.0152875444237783  0.7458603578037222  0.5749593401918384
  0.1420590825088166  0.7431636959505964  0.3388220395758222
  0.2753466712701881  0.0020499437057845  0.4270821922975662
  0.8541547901974534  0.3196446172406722  0.5667775606868878
  0.7315686462804636  0.5114737233732806  0.6984754475503175
  0.4045251495213961  0.3500309571938474  0.6295286873413178
  0.0372914871810579  0.0635339109499839  0.1738715904402286
  0.7809363648265517  0.8041596673081597  0.5716117588509592
  0.8983223869645166  0.7561580890888608  0.2512328070948194
  0.9554933938721973  0.7053458334535031  0.7206365683537534
  0.9673454804873212  0.4238974735488684  0.2269568606764045
  0.0892827866466396  0.1544198994807836  0.0066620167455745
  0.0376816774172522  0.1898897707058279  0.3341172235538917
  0.0953390577974872  0.4840627368128332  0.2654489183638062
  0.5336569614546836  0.0367318710923406  0.8930164284279494
  0.0539172834741632  0.0774224162430677  0.7521908745488587
  0.1318071543672643  0.0472144860987667  0.2568431110491612
  0.5661465179622919  0.2734347774766342  0.1485955723919053
  0.5619819674925748  0.3225342230860480  0.7080890420785015
  0.5776259948074557  0.9248362799949216  0.6904831557126537
  0.7485131071679666  0.1257115997839610  0.9683424352771672
  0.0399332430582852  0.6855847718472065  0.8123513681221265
  0.9537519319520799  0.0170822738628204  0.5771851096766999
  0.9908051625657304  0.3775173301935667  0.6652797557955596
  0.6489587499744633  0.3328021543504428  0.5384508359356533
  0.8069837890651252  0.3813184965982160  0.1355599824020574
  0.5960658915991747  0.0231672232507506  0.3194298662977550
  0.7848062733883484  0.5761511666323694  0.2878299026762599
  0.8973608475238306  0.6458917218307080  0.1264002330104696
  0.5813025107392085  0.4926317489732058  0.8888133011437602
  0.4629394546257414  0.9721420049107761  0.2606830930642174
  0.3567058551123585  0.2937064213525419  0.1268025569707045
  0.7485308745019688  0.3340929045935560  0.9202357100903606
  0.5244222789005926  0.2114080129839324  0.5766551977311871
  0.8607415981159923  0.0872199078321636  0.5277236570116154
  0.7255041166918192  0.8308248409990329  0.0907728531135768
  0.2700394152226240  0.1861246796160980  0.8821959640038070
  0.4420463376591828  0.7435484195340675  0.2747547883227913
  0.5954861282145041  0.5188120728374408  0.5887589131824312
  0.6851995344646638  0.1092423875114243  0.3112181259878853
  0.2159159100259127  0.1269433989568782  0.6467309762680011
  0.7611501823569002  0.4901689746313957  0.9569451685167036
  0.3062103599167287  0.8311848899082891  0.1268339811322135
  0.9237585302221507  0.8954287334748114  0.4096699379595155
  0.4729689183030013  0.1880180878045163  0.0303276602304339
  0.5075861454542039  0.8237750216095518  0.7214439061302420
  0.6056873511526909  0.2105199606548686  0.9085635944374926
  0.1328922579331169  0.5191019832572304  0.8358712103615150
  0.1167295778717295  0.0475479740505016  0.4363599590507814
  0.0604516575754735  0.3221737084580623  0.7810919260746084
  0.9472794119935308  0.5618131026912034  0.5728128496561398
  0.8594099138734956  0.0572295810509416  0.6806576195619545
  0.4752062296455589  0.6016207705632785  0.1629585811719813
  0.7128774879043730  0.9107236781600386  0.8100226152274821
  0.8000824044511449  0.9697247379443211  0.2817516962823631
  0.7476647464765358  0.6817932029173853  0.4435748849935731
  0.0042825858083070  0.8210974502988206  0.0929607703054021
  0.7489744240390109  0.7196841485643927  0.0333132679904068
  0.6489503605159882  0.5433366345954107  0.7949528558809106
  0.7189806038920649  0.9748755438027238  0.4435044211754662
  0.9387656284563553  0.6884098197988349  0.9673665241659362
  0.7842871299556529  0.2469667251478126  0.2680203996361329
  0.9540801816112569  0.2032734892602372  0.6744500158247623
  0.3873137880223148  0.7558909300845549  0.0254921235987134
  0.5106256105292086  0.9009406434960502  0.0765017513962068
  0.5478990579212041  0.4667002646074714  0.6944919464240720
  0.3453306107906668  0.8400596172321760  0.4788573311518958
  0.0960266466641121  0.6012550069149720  0.9729615239801597
  0.7718122679665742  0.7343029053844761  0.2324325814503770
  0.3116712848311451  0.2473434285765961  0.2786563573548580
  0.0502875696747267  0.8919953537703185  0.9917580074780795
  0.2218776782219877  0.2751270604280884  0.7171579887050880
  0.3946375418570380  0.3272366987760743  0.9676278172495114
  0.6656745195677437  0.9985883714267728  0.0681371151136228
  0.9813548171929423  0.4839577462982076  0.0727898353974841
  0.4051611344640709  0.4533553026775342  0.1121676114528350
  0.4973862099482637  0.4625903308431364  0.3444749557705318
  0.4196777046810685  0.1956322628387846  0.7321054589947822
  0.4336318256047642  0.9692032535197171  0.7453699402600881
  0.3771972048882060  0.7610947264243830  0.5839655956768364
  0.8626497618186427  0.3230175868948082  0.3878740722556485
  0.6145211409325596  0.6948889086208579  0.1721974450569926
  0.5088072022238979  0.2631733417956524  0.2657444758136157
  0.1835181977061937  0.9123553542747954  0.9306245812843699
  0.9973451310222736  0.4450292347404085  0.4596436070024119
  0.2419084913117574  0.5787107039214018  0.8302985713137130
  0.5632261976324205  0.1568453620371947  0.4689051817648393
  0.8775286096217342  0.9211645023764444  0.6219369323270739
  0.7682332047605268  0.5927683827205732  0.5370581965345392
  0.2011356829381724  0.8962827962461163  0.1659398063059839
  0.2948847212854127  0.1539713909098359  0.4767684846470288
  0.1395569680580207  0.8627376779319399  0.4632893138600508
  0.5750268326258468  0.8251060306342437  0.8996804424998222
  0.4233409149668252  0.5781209222826057  0.9565529928846400
  0.6835840205635529  0.2307710027981280  0.0117722534481034
  0.2676530072140694  0.5191960386127830  0.2981517312148757
  0.8293898549556054  0.1455942237228372  0.4160438882970255
  0.2883623714216819  0.8949540168133319  0.6537930773391473
  0.6393704073717859  0.5903413104051988  0.0260786722138020
  0.8934496011425453  0.2230906949272915  0.1259929529402530
  0.6536169764645706  0.3682159642085103  0.2822727429696110
  0.2617511115835390  0.3788309115116923  0.7900009599040196
  0.9473354787604181  0.1300561880114418 -0.0013029168230590
  0.2008197523748790  0.6727524493388837  0.6510354785892009
  0.3678611098029810  0.9079488001617555  0.8935013975320109
  0.1923368810671487  0.1524525766884704  0.1618601323396339
  0.6885317866808103  0.2151201693210333  0.6502138926121462
  0.4556761498817390  0.5742702251221613  0.2891826242304861
  0.5536363351086665  0.7684229186366448  0.5319931671253373
  0.3037034071217266  0.0566483412076374  0.1735929398029962
  0.8251826237641444  0.7010733414291571  0.7122379022980341
  0.1505265832573162  0.3817726185504145  0.4005291489524010
  0.3656460967093167  0.6258216081104860  0.6925519654968210
  0.6647160637281075  0.5372878421295760  0.4117784357211869
  0.9310969327080499  0.9864375411807884  0.1393453334260563
  0.9018218660692164  0.4439135730749154  0.8101620651130700
  0.1092829645275404  0.9101256306869254  0.6130656982839142
  0.2879166619417288  0.4041795471827900  0.4797985389517853
  0.4862170604690367  0.0755113984821732  0.1256753246517512
  0.1414560453743471  0.8492735283394995  0.7429775087949698
  0.8219093780471485  0.1397008534095316  0.8677879771945479
  0.2396509889323561  0.0264763831881456  0.0657934856613447
  0.6799030009895298  0.7455665254788376  0.7710104115518648
  0.1449641225030458  0.7896390925711957  0.2174441740574538
  0.8639203806652742  0.7109075141509006  0.4070296730926523
  0.5808714362996195  0.9619562363777436  0.4668442495442654
  0.4854316435177120  0.8940344724856479  0.3999943630412973
  0.8089366727314059  0.5941890912373196  0.8671082008208888
  0.1574158957165132  0.5117094757422601  0.1144528903031622
  0.3681608481225261  0.2541383763790805  0.5092640222729338
  0.4226593214189083  0.0722606376850312  0.4157469189807883
  0.4199189510632786  0.5034587287446398  0.5346978716044191
  0.9763718162607294  0.7088856071310138  0.4615774308167420
  0.5596200710724035  0.4332816535685600  0.0796233359798544
  0.1301748015156980  0.2772933565683783  0.8828798882673651
  0.3525669606271972  0.3719646061488325  0.2727790552190072
  0.2378544786853788  0.0158767257357602  0.7914382903205602
  0.4129139036603914  0.5237707841395037  0.8400490189561728
  0.0546590841897302  0.9057389331852748  0.8193414554374229
  0.2552815703698816  0.6900698133805313  0.8996098603002316
  0.8294292822840588  0.9686357781964992  0.9930690035387062
  0.2764867832331566  0.6812665516646969  0.4202600678061152
  0.8329599139476270  0.8272024575376301  0.9006137148390865
  0.9370065603786045  0.1181629687986307  0.8774676918742836
  0.7945736377358085  0.2566098983044929  0.4661023464200537
  0.0877840331150365  0.2804365039498073 -0.0014287369072705
  0.0277233405213016  0.4630541607926656  0.5807559720521251
  0.4006944596696048  0.8511879168837231  0.7706207508814529
  0.7780640973705923  0.3714528637198214  0.2930218422350176
  0.5055849789846248  0.3097402448643957  0.0453927740919863
  0.5684011297333045  0.1915339865631260  0.6866064216704207
  0.7748148737935759  0.2560544606796097  0.1402461250142163
  0.8437214718357829  0.1677726514269459  0.6259823312423944
  0.7069661492049294  0.7875659834580860  0.4766045856474463
  0.4828120485935647  0.4294613251826145  0.8735451599389435
  0.9808510648532572  0.8115963565851477  0.6684321131240744
  0.2380795475862257  0.9801466388463982  0.2476413041913570
  0.0720991200639050  0.4220978195978937  0.1543748626095593
  0.3996816141103953  0.9783074330389750  0.1484714444517126
  0.6146878743051136  0.1752666047181854  0.0978479182924430
  0.4310408110580016  0.4725913252484900  0.6566073463910576
  0.0202055629680219  0.1048086289227004  0.6299070327709346
  0.9672621787412229  0.1109973589114214  0.2629963440087462
  0.8351457752677137  0.0851632586528830  0.0443472798734364
  0.2936927602927799  0.1808612550457967  0.7560972142960755
  0.2352354525606661  0.8901671419919625  0.8158241543929902
  0.1480850550074326  0.7280564599609408  0.7758225428906281
  0.1746272410374013  0.3918107269038565  0.2870547844872410
  0.5448685069246270  0.5979456203822269  0.9424616503859280
  0.1856664024163181  0.4735462294846480  0.4620682513587329
  0.0860988420329334  0.9683883805825675  0.3342984162859892
  0.2749585627812817  0.8121344868456271  0.0069160536028255
  0.4521439277731342  0.8524753947400484  0.9749235767710326
  0.3067398625881376  0.1077195953456100  0.3642248564398545
  0.6438272073421824  0.3688165049099303  0.1475023102158631
  0.7854312323963422  0.0083878893915841  0.5890475870579202
  0.5849776668988763  0.5548355854639534  0.1337223769360619
  0.3900534990878938  0.5782038783720717  0.0770129310448623
  0.4859833872855671  0.7350337736217584  0.6384269645455646
  0.8351112024900929  0.6884376066320012  0.5858015498158772
  0.3920188725564775  0.8890886249142990  0.5867918699102180
  0.7874137859863423  0.9320200613977754  0.1078640808881682
  0.6210014266919135  0.4863855916678350  0.3059629067089121
  0.3469015056854331  0.6195635142062936  0.2959975992920133
  0.1496254643445778  0.1598058363506275  0.8702916937101187
  0.2636711781788609  0.2991624326915034  0.6061261834008727
  0.0461195842902157  0.3365911943768508  0.4265979222461724
  0.5316656363548720  0.0124299932912489  0.0249602931286787
  0.6808594586472583  0.8567061784895490  0.7014769094409888
  0.8676173473822617  0.7083094976532810  0.8694445743571191
  0.0390653631717135  0.9638742285570734  0.5084132638784185
  0.7095189399941340  0.6721592709119465  0.3212462329444911
  0.5117207301747415  0.8564956645076319  0.2861472053646844
  0.8275459872955337  0.5802550101743242  0.7412012243880914
  0.5246363355116925  0.6645401360805303  0.3216058771873855
  0.8764074745788577  0.4037163404281384  0.6972253699358366
  0.0700286624953922  0.1749959265746604  0.1361995795769293
  0.6850736276374051  0.9398125943067085  0.3266490852417553
  0.6419927611273915  0.4322080636763825  0.9753631120623308
  0.0031515769941874  0.5943823043274279  0.4658706522663443
  0.1437713161337042  0.4205673699017328  0.7688372572794813
  0.8916409872949870  0.2419708985021589 -0.0001361115365074
  0.1530866583788225  0.0230741984788298  0.6972647544978586
  0.2406290444471958  0.7312326403157867  0.1658652322349539
  0.3063343799862289  0.4533722710842071  0.1942736646672099
  0.5214085699229968  0.3333476404503903  0.5709230953393178
  0.9623286201718213  0.3366879528144229  0.8527818128536885
  0.2299450063020518  0.3000668109205335  0.4352293979394091
  0.4503638053347198  0.1965771011807056  0.4266548525721768
  0.3822112932894798  0.6878234182223683  0.9186479143486177
  0.9790836596867546  0.9703572181340490  0.7495347916586343
  0.6912757364261125  0.6310924899813198  0.8659318256056170
  0.8404701534092320  0.9894638335664183  0.4043468301379636
  0.6648849268146736  0.2244410860715899  0.2956218062502807
  0.4732010923240098  0.3852942877473117  0.2455516971948545
  0.5749745301236833  0.8856199511470783  0.5631717946526148
  0.7680403559088965  0.6526042993307002  0.1381507100170089
  0.1272356826763690  0.7873798615837264  0.5633322845908187
  0.0245809502780285  0.6429906238357034  0.6378281831275530
  0.8087872676013190  0.2471307560556311  0.8175829572876314
  0.8998022841128043  0.7625984804011849  0.0554306574285930
  0.2136496800711954  0.9294246918112737  0.5483620643235558
  0.9259756908728236  0.3440173547631223  0.1379712265924067
  0.8394024541668199  0.8718371801435869  0.7876484212631996
  0.6240547503706492  0.7134031597104260  0.0468229578121631
  0.8435106898021739  0.8152224417865713  0.3487467947915132
  0.2149629237977645  0.6295525812862900  0.0050197448651897
  0.6765220197519205  0.6042272672416470  0.6262647942675986
  0.1275236087049165  0.2089646758488293  0.6788082228775114
  0.9711287414788840  0.8837769536633130  0.1882674152533398
  0.4293982098746518  0.3167773755953250  0.7441630765905173
  0.2420446359702824  0.2663530480358833  0.1755473021349278
  0.7119646238056181  0.1021887026428868  0.4319511449176537
  0.8782104122212866  0.4078705384379228  0.4789193931225099
  0.2285387659029228  0.8038226528515632  0.3949019750361393
  0.6812737119035660  0.8099439971448499  0.2018809665385977
  0.5557238415789922  0.7458976722241625  0.8000246857982479
  0.0341488021135367  0.7785171366972288  0.3804775906612144
  0.9743030793559324  0.2841723903350111  0.5813516515807317
  0.4559924435044262  0.7852568906725920  0.4474942899739208
  0.2494347939266217  0.3135135084390890  0.8956442970003585
  0.5435555055830327  0.5763697182753760  0.7481135052360661
  0.2537203243197463  0.5685708740613135  0.7087959005937392
  0.4902885594575336  0.7234208787450604  0.1545053002642555
  0.1082529526884953  0.4851142085760586  0.9453824104358224
  0.5725498137157216  0.9282332411769927  0.8329438941212384
  0.6337361641536460  0.8835211232114594  0.0315457012891423
  0.8920739374591788  0.5896071615208037  0.0153119766714682
  0.4099236418978319  0.1836967407170693  0.6039526111780672
  0.2524705882384212  0.6208834688106992  0.5340101751004517
  0.2993700766433424  0.4828217749985741  0.8739957270790143
  0.4899391718320008  0.1814423128992709  0.9074816846943613
  0.6530601021705115  0.1288979647673432  0.8331272785137043
  0.1523490780657825  0.1434157378002046  0.3231995654676474
  0.9852027802923404  0.8400839428065127  0.8956576798612853
  0.8949910275433914  0.6441776614444843  0.3112295702362907
  0.1375876606030852  0.9661778213068234  0.0916743224275114
  0.3474401073116803  0.0517235015023276  0.5159500907746434
  0.2129048542915853  0.1411774976920931  0.0391181970910923
  0.7958071079522129  0.0488946090369299  0.7895791840076624
  0.8892319021061259  0.8495944603506209  0.5198296226591366
  0.3565638836214218  0.4356936207130607  0.3739395399488857
  0.0585939128219417  0.5858903925503547  0.0865006219768646
  0.0116205024552793  0.1181327083035420  0.4356998953654143
  0.4129793603332709  0.0197261344380327  0.8612016011835569
  0.0986497830314568  0.9942083094911867  0.8851604926956539
  0.6688320663454341  0.4549221677531066  0.5154146204785071
  0.7808109307776629  0.0837922540312856  0.2490377242428207
  0.6254941777486029  0.3049213697773729  0.8295652344100317
  0.3646945312215956  0.9224385574812366  0.3828653965285002
  0.7070378322038255  0.8029203936315136  0.8811244585570038
  0.6889045638216952  0.3395739539316104  0.6531102175547162
  0.5191845232959480  0.5720900619251361  0.5158395762878918
  0.1702394172726160  0.6359830424179841  0.3771217582052762
  0.0372184436402258  0.5679327169284869  0.7876945034105701
  0.5247810212894881  0.0525244353843304  0.5229690680235637
  0.3269779918646804  0.4044348633396876  0.0340816517484679
  0.1707336180538897  0.5709444130444179  0.2202945910053842
  0.9619566073894129  0.9734837796352190  0.0222865988882268
  0.7023549840694798  0.0168639289587405  0.9506119643039556
  0.3658380500276113  0.6156485368427463  0.5629226293888854
  0.4114511595246485  0.2047058178950969  0.2132546631175088
  0.3046206124386802  0.7366643111645365  0.6846331985337338
  0.1808449071777296  0.1466573030539995  0.5177733321900105
  0.9014326148752263  0.5080683625344244  0.1651425393687570
  0.8233882861617958  0.3942736707255832  0.0043389568734221
  0.3517530467999365  0.2240886874614141  0.0233068766120594
  0.5666367770083708  0.0034175687940615  0.1986756183596458
  0.7846486171500445  0.5221077406028912  0.3955369514996155
  0.2739714354475525  0.9943532427730317  0.9565532716500927
  0.0580815610656743  0.7335710070956296  0.1588788925381453
  0.7735017394536061  0.4314142610720135  0.8441708756556475
  0.3229402660135438  0.0079113717541002  0.6970363427745810
 
  0.00000000E+00  0.00000000E+00  0.00000000E+00
  0.00000000E+00  0.00000000E+00  0.00000000E+00
  0.00000000E+00  0.00000000E+00  0.00000000E+00
  0.00000000E+00  0.00000000E+00  0.00000000E+00
  0.00000000E+00  0.00000000E+00  0.00000000E+00
  0.00000000E+00  0.00000000E+00  0.00000000E+00
  0.00000000E+00  0.00000000E+00  0.00000000E+00
  0.00000000E+00  0.00000000E+00  0.00000000E+00
  0.00000000E+00  0.00000000E+00  0.00000000E+00
  0.00000000E+00  0.00000000E+00  0.00000000E+00
  0.00000000E+00  0.00000000E+00  0.00000000E+00
  0.00000000E+00  0.00000000E+00  0.00000000E+00
  0.00000000E+00  0.00000000E+00  0.00000000E+00
  0.00000000E+00  0.00000000E+00  0.00000000E+00
  0.00000000E+00  0.00000000E+00  0.00000000E+00
  0.00000000E+00  0.00000000E+00  0.00000000E+00
  0.00000000E+00  0.00000000E+00  0.00000000E+00
  0.00000000E+00  0.00000000E+00  0.00000000E+00
  0.00000000E+00  0.00000000E+00  0.00000000E+00
  0.00000000E+00  0.00000000E+00  0.00000000E+00
  0.00000000E+00  0.00000000E+00  0.00000000E+00
  0.00000000E+00  0.00000000E+00  0.00000000E+00
  0.00000000E+00  0.00000000E+00  0.00000000E+00
  0.00000000E+00  0.00000000E+00  0.00000000E+00
  0.00000000E+00  0.00000000E+00  0.00000000E+00
  0.00000000E+00  0.00000000E+00  0.00000000E+00
  0.00000000E+00  0.00000000E+00  0.00000000E+00
  0.00000000E+00  0.00000000E+00  0.00000000E+00
  0.00000000E+00  0.00000000E+00  0.00000000E+00
  0.00000000E+00  0.00000000E+00  0.00000000E+00
  0.00000000E+00  0.00000000E+00  0.00000000E+00
  0.00000000E+00  0.00000000E+00  0.00000000E+00
  0.00000000E+00  0.00000000E+00  0.00000000E+00
  0.00000000E+00  0.00000000E+00  0.00000000E+00
  0.00000000E+00  0.00000000E+00  0.00000000E+00
  0.00000000E+00  0.00000000E+00  0.00000000E+00
  0.00000000E+00  0.00000000E+00  0.00000000E+00
  0.00000000E+00  0.00000000E+00  0.00000000E+00
  0.00000000E+00  0.00000000E+00  0.00000000E+00
  0.00000000E+00  0.00000000E+00  0.00000000E+00
  0.00000000E+00  0.00000000E+00  0.00000000E+00
  0.00000000E+00  0.00000000E+00  0.00000000E+00
  0.00000000E+00  0.00000000E+00  0.00000000E+00
  0.00000000E+00  0.00000000E+00  0.00000000E+00
  0.00000000E+00  0.00000000E+00  0.00000000E+00
  0.00000000E+00  0.00000000E+00  0.00000000E+00
  0.00000000E+00  0.00000000E+00  0.00000000E+00
  0.00000000E+00  0.00000000E+00  0.00000000E+00
  0.00000000E+00  0.00000000E+00  0.00000000E+00
  0.00000000E+00  0.00000000E+00  0.00000000E+00
  0.00000000E+00  0.00000000E+00  0.00000000E+00
  0.00000000E+00  0.00000000E+00  0.00000000E+00
  0.00000000E+00  0.00000000E+00  0.00000000E+00
  0.00000000E+00  0.00000000E+00  0.00000000E+00
  0.00000000E+00  0.00000000E+00  0.00000000E+00
  0.00000000E+00  0.00000000E+00  0.00000000E+00
  0.00000000E+00  0.00000000E+00  0.00000000E+00
  0.00000000E+00  0.00000000E+00  0.00000000E+00
  0.00000000E+00  0.00000000E+00  0.00000000E+00
  0.00000000E+00  0.00000000E+00  0.00000000E+00
  0.00000000E+00  0.00000000E+00  0.00000000E+00
  0.00000000E+00  0.00000000E+00  0.00000000E+00
  0.00000000E+00  0.00000000E+00  0.00000000E+00
  0.00000000E+00  0.00000000E+00  0.00000000E+00
  0.00000000E+00  0.00000000E+00  0.00000000E+00
  0.00000000E+00  0.00000000E+00  0.00000000E+00
  0.00000000E+00  0.00000000E+00  0.00000000E+00
  0.00000000E+00  0.00000000E+00  0.00000000E+00
  0.00000000E+00  0.00000000E+00  0.00000000E+00
  0.00000000E+00  0.00000000E+00  0.00000000E+00
  0.00000000E+00  0.00000000E+00  0.00000000E+00
  0.00000000E+00  0.00000000E+00  0.00000000E+00
  0.00000000E+00  0.00000000E+00  0.00000000E+00
  0.00000000E+00  0.00000000E+00  0.00000000E+00
  0.00000000E+00  0.00000000E+00  0.00000000E+00
  0.00000000E+00  0.00000000E+00  0.00000000E+00
  0.00000000E+00  0.00000000E+00  0.00000000E+00
  0.00000000E+00  0.00000000E+00  0.00000000E+00
  0.00000000E+00  0.00000000E+00  0.00000000E+00
  0.00000000E+00  0.00000000E+00  0.00000000E+00
  0.00000000E+00  0.00000000E+00  0.00000000E+00
  0.00000000E+00  0.00000000E+00  0.00000000E+00
  0.00000000E+00  0.00000000E+00  0.00000000E+00
  0.00000000E+00  0.00000000E+00  0.00000000E+00
  0.00000000E+00  0.00000000E+00  0.00000000E+00
  0.00000000E+00  0.00000000E+00  0.00000000E+00
  0.00000000E+00  0.00000000E+00  0.00000000E+00
  0.00000000E+00  0.00000000E+00  0.00000000E+00
  0.00000000E+00  0.00000000E+00  0.00000000E+00
  0.00000000E+00  0.00000000E+00  0.00000000E+00
  0.00000000E+00  0.00000000E+00  0.00000000E+00
  0.00000000E+00  0.00000000E+00  0.00000000E+00
  0.00000000E+00  0.00000000E+00  0.00000000E+00
  0.00000000E+00  0.00000000E+00  0.00000000E+00
  0.00000000E+00  0.00000000E+00  0.00000000E+00
  0.00000000E+00  0.00000000E+00  0.00000000E+00
  0.00000000E+00  0.00000000E+00  0.00000000E+00
  0.00000000E+00  0.00000000E+00  0.00000000E+00
  0.00000000E+00  0.00000000E+00  0.00000000E+00
  0.00000000E+00  0.00000000E+00  0.00000000E+00
  0.00000000E+00  0.00000000E+00  0.00000000E+00
  0.00000000E+00  0.00000000E+00  0.00000000E+00
  0.00000000E+00  0.00000000E+00  0.00000000E+00
  0.00000000E+00  0.00000000E+00  0.00000000E+00
  0.00000000E+00  0.00000000E+00  0.00000000E+00
  0.00000000E+00  0.00000000E+00  0.00000000E+00
  0.00000000E+00  0.00000000E+00  0.00000000E+00
  0.00000000E+00  0.00000000E+00  0.00000000E+00
  0.00000000E+00  0.00000000E+00  0.00000000E+00
  0.00000000E+00  0.00000000E+00  0.00000000E+00
  0.00000000E+00  0.00000000E+00  0.00000000E+00
  0.00000000E+00  0.00000000E+00  0.00000000E+00
  0.00000000E+00  0.00000000E+00  0.00000000E+00
  0.00000000E+00  0.00000000E+00  0.00000000E+00
  0.00000000E+00  0.00000000E+00  0.00000000E+00
  0.00000000E+00  0.00000000E+00  0.00000000E+00
  0.00000000E+00  0.00000000E+00  0.00000000E+00
  0.00000000E+00  0.00000000E+00  0.00000000E+00
  0.00000000E+00  0.00000000E+00  0.00000000E+00
  0.00000000E+00  0.00000000E+00  0.00000000E+00
  0.00000000E+00  0.00000000E+00  0.00000000E+00
  0.00000000E+00  0.00000000E+00  0.00000000E+00
  0.00000000E+00  0.00000000E+00  0.00000000E+00
  0.00000000E+00  0.00000000E+00  0.00000000E+00
  0.00000000E+00  0.00000000E+00  0.00000000E+00
  0.00000000E+00  0.00000000E+00  0.00000000E+00
  0.00000000E+00  0.00000000E+00  0.00000000E+00
  0.00000000E+00  0.00000000E+00  0.00000000E+00
  0.00000000E+00  0.00000000E+00  0.00000000E+00
  0.00000000E+00  0.00000000E+00  0.00000000E+00
  0.00000000E+00  0.00000000E+00  0.00000000E+00
  0.00000000E+00  0.00000000E+00  0.00000000E+00
  0.00000000E+00  0.00000000E+00  0.00000000E+00
  0.00000000E+00  0.00000000E+00  0.00000000E+00
  0.00000000E+00  0.00000000E+00  0.00000000E+00
  0.00000000E+00  0.00000000E+00  0.00000000E+00
  0.00000000E+00  0.00000000E+00  0.00000000E+00
  0.00000000E+00  0.00000000E+00  0.00000000E+00
  0.00000000E+00  0.00000000E+00  0.00000000E+00
  0.00000000E+00  0.00000000E+00  0.00000000E+00
  0.00000000E+00  0.00000000E+00  0.00000000E+00
  0.00000000E+00  0.00000000E+00  0.00000000E+00
  0.00000000E+00  0.00000000E+00  0.00000000E+00
  0.00000000E+00  0.00000000E+00  0.00000000E+00
  0.00000000E+00  0.00000000E+00  0.00000000E+00
  0.00000000E+00  0.00000000E+00  0.00000000E+00
  0.00000000E+00  0.00000000E+00  0.00000000E+00
  0.00000000E+00  0.00000000E+00  0.00000000E+00
  0.00000000E+00  0.00000000E+00  0.00000000E+00
  0.00000000E+00  0.00000000E+00  0.00000000E+00
  0.00000000E+00  0.00000000E+00  0.00000000E+00
  0.00000000E+00  0.00000000E+00  0.00000000E+00
  0.00000000E+00  0.00000000E+00  0.00000000E+00
  0.00000000E+00  0.00000000E+00  0.00000000E+00
  0.00000000E+00  0.00000000E+00  0.00000000E+00
  0.00000000E+00  0.00000000E+00  0.00000000E+00
  0.00000000E+00  0.00000000E+00  0.00000000E+00
  0.00000000E+00  0.00000000E+00  0.00000000E+00
  0.00000000E+00  0.00000000E+00  0.00000000E+00
  0.00000000E+00  0.00000000E+00  0.00000000E+00
  0.00000000E+00  0.00000000E+00  0.00000000E+00
  0.00000000E+00  0.00000000E+00  0.00000000E+00
  0.00000000E+00  0.00000000E+00  0.00000000E+00
  0.00000000E+00  0.00000000E+00  0.00000000E+00
  0.00000000E+00  0.00000000E+00  0.00000000E+00
  0.00000000E+00  0.00000000E+00  0.00000000E+00
  0.00000000E+00  0.00000000E+00  0.00000000E+00
  0.00000000E+00  0.00000000E+00  0.00000000E+00
  0.00000000E+00  0.00000000E+00  0.00000000E+00
  0.00000000E+00  0.00000000E+00  0.00000000E+00
  0.00000000E+00  0.00000000E+00  0.00000000E+00
  0.00000000E+00  0.00000000E+00  0.00000000E+00
  0.00000000E+00  0.00000000E+00  0.00000000E+00
  0.00000000E+00  0.00000000E+00  0.00000000E+00
  0.00000000E+00  0.00000000E+00  0.00000000E+00
  0.00000000E+00  0.00000000E+00  0.00000000E+00
  0.00000000E+00  0.00000000E+00  0.00000000E+00
  0.00000000E+00  0.00000000E+00  0.00000000E+00
  0.00000000E+00  0.00000000E+00  0.00000000E+00
  0.00000000E+00  0.00000000E+00  0.00000000E+00
  0.00000000E+00  0.00000000E+00  0.00000000E+00
  0.00000000E+00  0.00000000E+00  0.00000000E+00
  0.00000000E+00  0.00000000E+00  0.00000000E+00
  0.00000000E+00  0.00000000E+00  0.00000000E+00
  0.00000000E+00  0.00000000E+00  0.00000000E+00
  0.00000000E+00  0.00000000E+00  0.00000000E+00
  0.00000000E+00  0.00000000E+00  0.00000000E+00
  0.00000000E+00  0.00000000E+00  0.00000000E+00
  0.00000000E+00  0.00000000E+00  0.00000000E+00
  0.00000000E+00  0.00000000E+00  0.00000000E+00
  0.00000000E+00  0.00000000E+00  0.00000000E+00
  0.00000000E+00  0.00000000E+00  0.00000000E+00
  0.00000000E+00  0.00000000E+00  0.00000000E+00
  0.00000000E+00  0.00000000E+00  0.00000000E+00
  0.00000000E+00  0.00000000E+00  0.00000000E+00
  0.00000000E+00  0.00000000E+00  0.00000000E+00
  0.00000000E+00  0.00000000E+00  0.00000000E+00
  0.00000000E+00  0.00000000E+00  0.00000000E+00
  0.00000000E+00  0.00000000E+00  0.00000000E+00
  0.00000000E+00  0.00000000E+00  0.00000000E+00
  0.00000000E+00  0.00000000E+00  0.00000000E+00
  0.00000000E+00  0.00000000E+00  0.00000000E+00
  0.00000000E+00  0.00000000E+00  0.00000000E+00
  0.00000000E+00  0.00000000E+00  0.00000000E+00
  0.00000000E+00  0.00000000E+00  0.00000000E+00
  0.00000000E+00  0.00000000E+00  0.00000000E+00
  0.00000000E+00  0.00000000E+00  0.00000000E+00
  0.00000000E+00  0.00000000E+00  0.00000000E+00
  0.00000000E+00  0.00000000E+00  0.00000000E+00
  0.00000000E+00  0.00000000E+00  0.00000000E+00
  0.00000000E+00  0.00000000E+00  0.00000000E+00
  0.00000000E+00  0.00000000E+00  0.00000000E+00
  0.00000000E+00  0.00000000E+00  0.00000000E+00
  0.00000000E+00  0.00000000E+00  0.00000000E+00
  0.00000000E+00  0.00000000E+00  0.00000000E+00
  0.00000000E+00  0.00000000E+00  0.00000000E+00
  0.00000000E+00  0.00000000E+00  0.00000000E+00
  0.00000000E+00  0.00000000E+00  0.00000000E+00
  0.00000000E+00  0.00000000E+00  0.00000000E+00
  0.00000000E+00  0.00000000E+00  0.00000000E+00
  0.00000000E+00  0.00000000E+00  0.00000000E+00
  0.00000000E+00  0.00000000E+00  0.00000000E+00
  0.00000000E+00  0.00000000E+00  0.00000000E+00
  0.00000000E+00  0.00000000E+00  0.00000000E+00
  0.00000000E+00  0.00000000E+00  0.00000000E+00
  0.00000000E+00  0.00000000E+00  0.00000000E+00
  0.00000000E+00  0.00000000E+00  0.00000000E+00
  0.00000000E+00  0.00000000E+00  0.00000000E+00
  0.00000000E+00  0.00000000E+00  0.00000000E+00
  0.00000000E+00  0.00000000E+00  0.00000000E+00
  0.00000000E+00  0.00000000E+00  0.00000000E+00
  0.00000000E+00  0.00000000E+00  0.00000000E+00