Bond                                    
   1.00000000000000     
     5.7601248977464312    0.0000000000000000   -0.0000000000000000
    -0.0000000000000000    3.1630684027305360    0.0000000000000000
     0.0000000000000000    0.0000000000000000    3.1630684027305360
   Sc   Sb
     1     1
Direct
  0.2500000000000000  0.5000000000000000  0.5000000000000000
  0.7500000000000000  0.5000000000000000  0.5000000000000000
 
  0.00000000E+00  0.00000000E+00  0.00000000E+00
  0.00000000E+00  0.00000000E+00  0.00000000E+00
