Ge Se                                   
   1.00000000000000     
    19.7402305603027344    0.0000000000000000    0.0000000000000000
     0.0000000000000000   19.7402305603027344    0.0000000000000000
     0.0000000000000000    0.0000000000000000   19.7402305603027344
   Ge   Se
   150   150
Direct
  0.9858395258880561  0.0115296371653622  0.5892183382337054
  0.6358964856153458  0.5394113028486905  0.3218442563109441
  0.0204998053076149  0.9848568586664213  0.4047977526786975
  0.0361194879148968  0.1201477905972781  0.0959502822361658
  0.8242458146127067  0.5140333552024579  0.7665153156015437
  0.8920863438076021  0.2762085935551212  0.4167626844810310
  0.4795910940143394  0.9187571908439489  0.7193243018850837
  0.9301289499779948  0.0013918640297453  0.2702399770699055
  0.9797053472027113  0.8374336931554190  0.8153085269985449
  0.9073325352282281  0.3899754751334201  0.9552817957135317
  0.7016583365389046  0.6772959386857293  0.6928072853669691
  0.3464299545722254  0.2772168147156024  0.5659205306427022
  0.3849700976565192  0.9250521444570069  0.1376755402026638
  0.8464912556949449  0.2804121515179233  0.1392842298095688
  0.9730356492663961  0.3040598413364226  0.6966973200702890
  0.5320335548466748  0.8298191379595042  0.2789028674114480
  0.1660466085774958  0.5912666391006222  0.0862084383212479
  0.9832296818056599  0.7999394291230811  0.4118351282129213
  0.2594253237147380  0.4722043096205493  0.8438151491079241
  0.7974806231424324  0.4405874414265269  0.3582669085239183
  0.1389592282031240  0.7078949181709560  0.4182768647059952
  0.8468675549392262  0.6120395327463366  0.2768958972471527
  0.3582544494628666  0.9815707409255936  0.7056550220815274
  0.3245740320730104  0.2685185762886540  0.9484525069715729
  0.3758819852830185  0.8164010990248812  0.9707752446604074
  0.0606403427368632  0.7107958344387393  0.5262883801400512
  0.3662034694239380  0.6210411375751562  0.7256231484462601
  0.8579407965415018  0.8254544293081721  0.8656953044602410
  0.0353966765955507  0.8975904602555247  0.9445350642600052
  0.5185527245225208  0.0788069018857354  0.2844656534985415
  0.6739243418333486  0.7692682565265851  0.1701537605762255
  0.7862968945517395  0.5188656543930373  0.5799136428918511
  0.9671585105620711  0.6260702188072221  0.4173617617808488
  0.7644268697678004  0.4494053792809573  0.9161817755640094
  0.4758989907739936  0.8153998800180774  0.5724143960824696
  0.0777660601601532  0.7533696932854375  0.7171665361045562
  0.7630218247805526  0.8251114438367247  0.7811982810787693
  0.2786611694149264  0.8142234577476113  0.6281290520705670
  0.8447930759457242  0.1057381153034372  0.8038069351085461
  0.7488276065288085  0.5866736794220030  0.0807671827567628
  0.9098358644574132  0.1622433582301257  0.2003983628324476
  0.9588255099588306  0.7365358801657937  0.1030143296920088
  0.0037946867597436  0.4395220154624260  0.4211796777324387
  0.1287602307139593  0.3335316130005856  0.5296134026883461
  0.6845338552535982  0.0603717631643889  0.8658160156902542
  0.1029134607904252  0.5801120412888996  0.2762840864753238
  0.9705641273896944  0.9901161327822756  0.8757904456423359
  0.3906457136241475  0.1334032863925985  0.3623881744408249
  0.7454688497766656  0.1248740629674194  0.3705564689043855
  0.7824104874832482  0.6470649169715444  0.4970707039154532
  0.4494015047384260  0.7380766097497794  0.1535579171146616
  0.3244951173428241  0.1776601979109515  0.7353673482317765
  0.3811578755160803  0.6398139444279429  0.5524070246287429
  0.5982144966448842  0.9245878259097954  0.5316930919381651
  0.6983818878933160  0.0552214324016031  0.5107888029051326
  0.7617495441020675  0.3178830865213816  0.9024150231588349
  0.5893349528486892  0.7248598101702450  0.0432350799726016
  0.6772949180902319  0.3708003767190686  0.7532596587086565
  0.1860097605802152  0.7081104812834951  0.2295501423500050
  0.1356701439872671  0.8599569156112934  0.8636309505455053
  0.5033455336254649  0.5918081937063142  0.9093848466604317
  0.8537570881789718  0.9899746800598779  0.4482428554814288
  0.2618732106360935  0.4126653424701747  0.4131912003404206
  0.4464556227003589  0.3719992956051359  0.1143045811456442
  0.1020473175917376  0.0643277514288715  0.5580891476824889
  0.7284416984799806  0.4512018785640252  0.1463404145041707
  0.1818915003539629  0.5935122204546560  0.3754754889108762
  0.6053165575722140  0.2450472561435053  0.2931019543133255
  0.9445074430755254  0.1171350594758924  0.5250986460489557
  0.4371454886145441  0.2872704537765223  0.7603663057750145
  0.1817816538570545  0.8438679514647858  0.3677569620668643
  0.9288199160267151  0.5146802076337067  0.5645244802671527
  0.6685983639648044  0.7134456690611598  0.3705122296147522
  0.3659575820633487  0.0782020318076588  0.5327857292094175
  0.0909091563706528  0.3698731102499629  0.8333176007594428
  0.4126890234762877  0.0165896799078288  0.0420648562799375
  0.5560922300666833  0.1726936531199408  0.1374506653913561
  0.5914682714411652  0.3443721826014916  0.0035794886754430
  0.0584363833939074  0.2987217571285533  0.3223094247023496
  0.2036942028128238  0.0804494989008068  0.0941803002832127
  0.9644465454232231  0.1687025175764140  0.4099377389081559
  0.6200420177222454  0.6670392788339961  0.5577873083763480
  0.0451796596870253  0.4945058914363007  0.7214760106726261
  0.6052089981890187  0.6011942938350660  0.1686961078245242
  0.7258305446797731  0.2828177015197765  0.4977137382470860
  0.9892959203530982  0.8755518131659472  0.2204093411672599
  0.1342317774290677  0.1910595019402156  0.7129890879338402
  0.6274471493713907  0.2172746403792061  0.7746642218023096
  0.5749792358376543  0.3404895229395216  0.8268084777016734
  0.2387742552358934  0.4118991932150763  0.2657356354428302
  0.8010840928638839  0.5968247282777829  0.9128166631096737
  0.6804551026544990  0.2406329847085880  0.1878987417890790
  0.0698054616794148  0.2557640410507857  0.8962794767715455
  0.7356684206761909  0.9762285228212085  0.6808152851283588
  0.7075583631363979  0.3663469071585305  0.6296733027074265
  0.7007086119877891  0.0337514125369179  0.1842685349384369
  0.0259674082950141  0.1321444019080057  0.7408586534187692
  0.4606441735756230  0.8731351683134017  0.4461475244930442
  0.6038186004296372  0.3129260104426618  0.4663647957776051
  0.4597817660573512  0.4578741790240253  0.5009855739856763
  0.1916297286262282  0.9424057989507718  0.7596602018606547
  0.4362818246894085  0.5589805357504880  0.2821802169433528
  0.1909768818221503  0.0155300590322692  0.6427090275502527
  0.3805785115690669  0.9489356857810016  0.2681717870749691
  0.1850439839262784  0.3854138495362714  0.7411488647785610
  0.7954345529989222  0.2401084503852306  0.6039306366279391
  0.5049310673236246  0.3008000053679873  0.6321177790026234
  0.0830065696978911  0.0420347613079215  0.2774475679589096
  0.0910105729570967  0.5510390429796168  0.8251029224008175
  0.3229450392892618  0.3123797014630896  0.2653493802980289
  0.2680201709398383  0.6124445879450057  0.9250142763563596
  0.0012752377799300  0.0017627168138563  0.0587860843515722
  0.3803707251904478  0.5391326347332053  0.8955666298337673
  0.0038395169079568  0.6652837382513687  0.2545435963854379
  0.1862639093285734  0.4057436617448192  0.0552648917319495
  0.8199122250856352  0.8422652450007567  0.1530427350056234
  0.2294713247362831  0.0901545782151186  0.9074883143010659
  0.0671368906510988  0.4277137532958419  0.1851137029384630
  0.5031322836659439  0.2461731291077810  0.9038568799548210
  0.7426847167588008  0.2095800409407507  0.0773358232628105
  0.1816058654934977  0.8786454699308511  0.1347868291884352
  0.3182298512272839  0.1715312840007896  0.8634424584993343
  0.9195080843079652  0.4537263386598447  0.1303079565887406
  0.4395130471616348  0.9780461099847608  0.8755684541158724
  0.9852952634779151  0.5221471984009260  0.9529701048525065
  0.5557595938482353  0.3924015571960885  0.5532296025809229
  0.5001102715291680  0.8585560981421655  0.9922578692440125
  0.0338477567858039  0.2839497571421454  0.0974808851069603
  0.7994108792797416  0.0417814553267412  0.0027527503626078
  0.4833428791230554  0.5868327406776114  0.1140341761082014
  0.9306949908188400  0.8074925246137271  0.6405401257819058
  0.2194907051190788  0.6994312657365516  0.6193699719961026
  0.2333357802550563  0.1322617867924272  0.6635409036082905
  0.0451817417994070  0.6034539026319089  0.0410551023131061
  0.5103623320090177  0.1280820833225711  0.7689271134356316
  0.4863623836309506  0.4442845172793642  0.3324425153046703
  0.5575276805666656  0.7766544554161477  0.8130418041272958
  0.7566481123825992  0.7605279839128478  0.0023489268034759
  0.2813158274284571  0.9474872767024181  0.3552598875749324
  0.8750584121933631  0.3213272749961444  0.5339753560663001
  0.1011574585996012  0.8698510974728806  0.6662179131626997
  0.1719834811768391  0.7148207500199483  0.9821591992373491
  0.4374004825214842  0.2740407374336055  0.0204316928500338
  0.5495295369396068  0.4400175791033624  0.9231484048282391
  0.5177087293571072  0.0612913771193131  0.4357895211098123
  0.1140299849253210  0.1969008511026937  0.5145866201502615
  0.2284121049443453  0.8535833851453716  0.5082096694203290
  0.6780598955958129  0.2560940714781819  0.9770429831599726
  0.8141053664920040  0.8467407609028770  0.2807493302393193
  0.0899175634099323  0.1067589526473209  0.9286906168001834
  0.6649245230763223  0.5937563179910816  0.4706559700238770
  0.1352670413100021  0.4642683508395317  0.6502855606561736
  0.5446646513311167  0.1381814011372051  0.5343837957845570
  0.0632245545300728  0.8823357707268428  0.3380880406818989
  0.6752650659255981  0.9077971700254492  0.7743004866762100
  0.8939916896205284  0.1145311183381071  0.3249074607611179
  0.0225277341287993  0.3684744624565489  0.0071534137790301
  0.4485168382210392  0.8546551269398438  0.8265228620890014
  0.9742432240020561  0.2232107493663990  0.8059447310782799
  0.1456770168883443  0.3306808226916730  0.2290752810717167
  0.2980751714933447  0.9787704790295775  0.5853776058554809
  0.6238402007127665  0.9936679316835377  0.4210001616604842
  0.0801428098832169  0.9585118482972171  0.1707881676988444
  0.5589637613412657  0.8365142205850056  0.6638535948415509
  0.4779720439149034  0.7535840237695144  0.3666044631670221
  0.8597704500424179  0.5672332331943543  0.0240307537810701
  0.9244201602215748  0.8721861143291205  0.0968421421200003
  0.8159904424193933  0.9624008507279750  0.3212598405037163
  0.4792311156436905  0.4812263990171819  0.0485688193476579
  0.2561032375564840  0.3686354792663103  0.5370189726791708
  0.5680255107656962  0.0429876943583863  0.1727956058101818
  0.3807393096072705  0.4740478801737686  0.5943251069075820
  0.2105441390845378  0.3186176029441354  0.9676582998929547
  0.9581020891530186  0.7296630822639812  0.7454894044218552
  0.4871562788617927  0.5613840249199776  0.4442399870024137
  0.4911052099332452  0.9399443801387447  0.3323593768350930
  0.8622405824189918  0.7190356568268967  0.9349521573423204
  0.2114695701226920  0.8306426026330224  0.9605935223718836
  0.4019113020750247  0.3892533582460047  0.4180113870092133
  0.8660240971785477  0.9784604094353294  0.8148157017633202
  0.2919872403765131  0.3982766702062823  0.1325731634155340
  0.4711921833124495  0.9792112600637685  0.5248399014598615
  0.2042063422900960  0.0738189722419405  0.2829675446424109
  0.1760154963719343  0.2212733718592778  0.8229666259670594
  0.2776464123585997  0.5928033099434222  0.6286398095407587
  0.9360684493975480  0.6984124871925319  0.5214086079675440
  0.8214039354932712  0.4286961258370892  0.6670490684885152
  0.8884045547402073  0.0431321698277579  0.1565477386870823
  0.6636096433118078  0.4525014035191907  0.9945268676583550
  0.2285704623605061  0.5231823836686108  0.4632516203364719
  0.3068810051749253  0.2292510205546874  0.3516384215256539
  0.8230233648314247  0.8836182865170465  0.9700044825870560
  0.2813969435205767  0.0139820974608646  0.8163715935255179
  0.2094667269243015  0.5899851006882256  0.8095324264997955
  0.2397218945657063  0.7200551289440000  0.4958061559527487
  0.7671021677299681  0.7538870081817306  0.4351033896070864
  0.8506522821840174  0.5626854846417643  0.4002331485553095
  0.7104106995175301  0.7456105766797408  0.5898360877827540
  0.8092968823218765  0.8335667191889391  0.6689098089828075
  0.1020236049737268  0.6571496257082108  0.6378875040625162
  0.7022345536957467  0.4826760578197158  0.8066022590318694
  0.3210300478054643  0.2962138572334018  0.6919784785621892
  0.4392995610969894  0.3596229812125413  0.2461906887856204
  0.0432710188798098  0.1510526777914068  0.2162422468396114
  0.3364538626871694  0.8569119689265601  0.4270990784007389
  0.1058837373375980  0.3037660485479177  0.6735077981754987
  0.3547498427934471  0.3486519251616493  0.8540670730387324
  0.2235756299956776  0.1552773457049290  0.1958215669237731
  0.7772261699731340  0.1344195770050742  0.9150726496754497
  0.1824098971279190  0.5298200683740165  0.1925930340363409
  0.1476363092386443  0.7443459703941691  0.8174338509661979
  0.8722074299139093  0.2729314260140790  0.9285883249892156
  0.5988544087149779  0.8015490934483741  0.9394034065103634
  0.2914946321300763  0.8641217690109052  0.7391004791114619
  0.1332991981479861  0.9945494267776199  0.4619378220065517
  0.4186134948177301  0.1181538949146659  0.6810589691535982
  0.9395017561948671  0.8991631950343061  0.4806891814416265
  0.7954459441984052  0.7195129172772222  0.1309612116290925
  0.5474785574706189  0.6294303407150503  0.2798991588091326
  0.3767768554434555  0.5972436712211271  0.1783768594581056
  0.7737969421288970  0.2524308974480536  0.3819013111867842
  0.6962891579830892  0.0926916389647400  0.0678122164455066
  0.0867612894185129  0.1813965931872564  0.3864225268830179
  0.7575014381410836  0.2794963032872086  0.7847419040821533
  0.2717962076978734  0.6580266626456881  0.3188577150653941
  0.5035232321791796  0.3917122716512991  0.7363641846002545
  0.5484398183921141  0.0075075412452339  0.7809111608515791
  0.3861574325805662  0.7469283134818173  0.6375395295405880
  0.4509148093182808  0.5664367656789935  0.6380329268628536
  0.0413809895271145  0.7242792858798941  0.0030239955997513
  0.9770212878090607  0.6019984932804898  0.1460322399473488
  0.7259438723042309  0.0930250490868472  0.7464407416882500
  0.5685453753972562  0.3300564843147303  0.1236059132553387
  0.6137491581932923  0.4784745435697121  0.2075572098796857
  0.9800862042210542  0.4054879335151774  0.7812404321053058
  0.7470699318109996  0.1438596653783666  0.2396412554854351
  0.1174570886665957  0.3773878542605213  0.4058236688450644
  0.0010112611788190  0.6176131193607109  0.8676629157307951
  0.4781571592291431  0.6733738432032108  0.8206539653767927
  0.1046080566278170  0.4683642228836494  0.9138667178436185
  0.0696601633599120  0.0377198475406952  0.8077630163003642
  0.9983618231236572  0.2232909604753337  0.5628732412274143
  0.7828582501823561  0.4012014875200866  0.4882977234766938
  0.6927010067039536  0.6316784450296491  0.9758942145951603
  0.4081552810290047  0.7878469600440574  0.2705472575940531
  0.5033938104675318  0.2399620357591032  0.4859288040997021
  0.3516706288156309  0.8059663117925542  0.1035691213073941
  0.5966458150025126  0.6213530033712624  0.6700038511427686
  0.8046432121357106  0.6115536366059073  0.6814268163022734
  0.4391676783114399  0.1313335903936262  0.8795243869071986
  0.2294679031700464  0.6956645158984686  0.1019114631320289
  0.7541026377332251  0.3402313529289854  0.2178866036374508
  0.0840701333445528  0.8319913195100130  0.5469902874838214
  0.0332916386657000  0.5476414703124944  0.4955956218457788
  0.3785457591730270  0.6038423117180418  0.3829391437659744
  0.0550325675553726  0.7651295479509044  0.1889349284174990
  0.2300641316881157  0.8261459614470217  0.2488409325735976
  0.8235854700818516  0.1381320208390781  0.5306698828366495
  0.5181493808597787  0.7132715048405006  0.5108330033793659
  0.6062439595233441  0.3555371881614162  0.3503323755296504
  0.5248182708842365  0.9796299246634675  0.9775150222415983
  0.3667431582992481  0.4988461003322929  0.7769754336727074
  0.9641728282813694  0.3401635359938311  0.1935314495164548
  0.4457529498248101  0.1634042363996549  0.0747761668700083
  0.6009067703790956  0.1707920330075849  0.9303089541589795
  0.2977369303290532  0.1093396865795773  0.0138466390834312
  0.8321453695189112  0.3862273618831938  0.0609326612091722
  0.7234664996216483  0.9542744253340509  0.9445026064119042
  0.4706693160926236  0.6674869142304614  0.0153941089627572
  0.7122403095274324  0.8786683560572938  0.1109573246701568
  0.2659357810029832  0.1746386566873514  0.5517841508963319
  0.6934938876232039  0.8213856686022084  0.2907716880122509
  0.3063422611454553  0.2768162255522769  0.1457813163415626
  0.8304912420941764  0.4929196613426958  0.2206748187185866
  0.7608097333198253  0.9437167264871010  0.5162182667771895
  0.2671418776879484  0.9715127034907908  0.1489375626801640
  0.9600998174512656  0.5662873200554939  0.6754619133526993
  0.1171330467684034  0.9892768474150424  0.9857588478473065
  0.6178922725636962  0.2450425331045030  0.6486732699928237
  0.9559487682652690  0.0865144082239614  0.9493727942825166
  0.4041753414512013  0.4227634719297784  0.9435071014743428
  0.3429755209507334  0.9384504326905792  0.9667022534445592
  0.3032285227639753  0.0582790249615847  0.4193988151834918
  0.4952915170967271  0.2048341598738207  0.2527685632335647
  0.0178338307691214  0.4896684708233200  0.2908598017227355
  0.6264192531135874  0.0177778432879647  0.6157339450109197
  0.6235611520599857  0.1638527515622830  0.3808170757871098
  0.9013135246515610  0.7674834595289621  0.3143515111724580
  0.6344545745565674  0.4673741559550404  0.6072760418347721
  0.7064766629363030  0.7158023980491032  0.8077702621518660
  0.9329926651623054  0.0926957160635849  0.6762400738756121
  0.9032924686149709  0.3713881280283870  0.3397173716574166
  0.5381429381104047  0.8321337317035921  0.1105188581823601
  0.9849531128125296  0.9101316729371245  0.7044406184550678
  0.9453413290169955  0.1996089229049920  0.0621374871181386
  0.2475408267116597  0.5257859044512516  0.0189048429506210
  0.3925653848847686  0.0743711114249381  0.2469180591630341
  0.1278375144675208  0.1830539764783831  0.0432585502014838
  0.7191683757581463  0.6320557812707936  0.2772942721614235
  0.9736840574925805  0.3939514389363951  0.5603124619955367
 
  0.00000000E+00  0.00000000E+00  0.00000000E+00
  0.00000000E+00  0.00000000E+00  0.00000000E+00
  0.00000000E+00  0.00000000E+00  0.00000000E+00
  0.00000000E+00  0.00000000E+00  0.00000000E+00
  0.00000000E+00  0.00000000E+00  0.00000000E+00
  0.00000000E+00  0.00000000E+00  0.00000000E+00
  0.00000000E+00  0.00000000E+00  0.00000000E+00
  0.00000000E+00  0.00000000E+00  0.00000000E+00
  0.00000000E+00  0.00000000E+00  0.00000000E+00
  0.00000000E+00  0.00000000E+00  0.00000000E+00
  0.00000000E+00  0.00000000E+00  0.00000000E+00
  0.00000000E+00  0.00000000E+00  0.00000000E+00
  0.00000000E+00  0.00000000E+00  0.00000000E+00
  0.00000000E+00  0.00000000E+00  0.00000000E+00
  0.00000000E+00  0.00000000E+00  0.00000000E+00
  0.00000000E+00  0.00000000E+00  0.00000000E+00
  0.00000000E+00  0.00000000E+00  0.00000000E+00
  0.00000000E+00  0.00000000E+00  0.00000000E+00
  0.00000000E+00  0.00000000E+00  0.00000000E+00
  0.00000000E+00  0.00000000E+00  0.00000000E+00
  0.00000000E+00  0.00000000E+00  0.00000000E+00
  0.00000000E+00  0.00000000E+00  0.00000000E+00
  0.00000000E+00  0.00000000E+00  0.00000000E+00
  0.00000000E+00  0.00000000E+00  0.00000000E+00
  0.00000000E+00  0.00000000E+00  0.00000000E+00
  0.00000000E+00  0.00000000E+00  0.00000000E+00
  0.00000000E+00  0.00000000E+00  0.00000000E+00
  0.00000000E+00  0.00000000E+00  0.00000000E+00
  0.00000000E+00  0.00000000E+00  0.00000000E+00
  0.00000000E+00  0.00000000E+00  0.00000000E+00
  0.00000000E+00  0.00000000E+00  0.00000000E+00
  0.00000000E+00  0.00000000E+00  0.00000000E+00
  0.00000000E+00  0.00000000E+00  0.00000000E+00
  0.00000000E+00  0.00000000E+00  0.00000000E+00
  0.00000000E+00  0.00000000E+00  0.00000000E+00
  0.00000000E+00  0.00000000E+00  0.00000000E+00
  0.00000000E+00  0.00000000E+00  0.00000000E+00
  0.00000000E+00  0.00000000E+00  0.00000000E+00
  0.00000000E+00  0.00000000E+00  0.00000000E+00
  0.00000000E+00  0.00000000E+00  0.00000000E+00
  0.00000000E+00  0.00000000E+00  0.00000000E+00
  0.00000000E+00  0.00000000E+00  0.00000000E+00
  0.00000000E+00  0.00000000E+00  0.00000000E+00
  0.00000000E+00  0.00000000E+00  0.00000000E+00
  0.00000000E+00  0.00000000E+00  0.00000000E+00
  0.00000000E+00  0.00000000E+00  0.00000000E+00
  0.00000000E+00  0.00000000E+00  0.00000000E+00
  0.00000000E+00  0.00000000E+00  0.00000000E+00
  0.00000000E+00  0.00000000E+00  0.00000000E+00
  0.00000000E+00  0.00000000E+00  0.00000000E+00
  0.00000000E+00  0.00000000E+00  0.00000000E+00
  0.00000000E+00  0.00000000E+00  0.00000000E+00
  0.00000000E+00  0.00000000E+00  0.00000000E+00
  0.00000000E+00  0.00000000E+00  0.00000000E+00
  0.00000000E+00  0.00000000E+00  0.00000000E+00
  0.00000000E+00  0.00000000E+00  0.00000000E+00
  0.00000000E+00  0.00000000E+00  0.00000000E+00
  0.00000000E+00  0.00000000E+00  0.00000000E+00
  0.00000000E+00  0.00000000E+00  0.00000000E+00
  0.00000000E+00  0.00000000E+00  0.00000000E+00
  0.00000000E+00  0.00000000E+00  0.00000000E+00
  0.00000000E+00  0.00000000E+00  0.00000000E+00
  0.00000000E+00  0.00000000E+00  0.00000000E+00
  0.00000000E+00  0.00000000E+00  0.00000000E+00
  0.00000000E+00  0.00000000E+00  0.00000000E+00
  0.00000000E+00  0.00000000E+00  0.00000000E+00
  0.00000000E+00  0.00000000E+00  0.00000000E+00
  0.00000000E+00  0.00000000E+00  0.00000000E+00
  0.00000000E+00  0.00000000E+00  0.00000000E+00
  0.00000000E+00  0.00000000E+00  0.00000000E+00
  0.00000000E+00  0.00000000E+00  0.00000000E+00
  0.00000000E+00  0.00000000E+00  0.00000000E+00
  0.00000000E+00  0.00000000E+00  0.00000000E+00
  0.00000000E+00  0.00000000E+00  0.00000000E+00
  0.00000000E+00  0.00000000E+00  0.00000000E+00
  0.00000000E+00  0.00000000E+00  0.00000000E+00
  0.00000000E+00  0.00000000E+00  0.00000000E+00
  0.00000000E+00  0.00000000E+00  0.00000000E+00
  0.00000000E+00  0.00000000E+00  0.00000000E+00
  0.00000000E+00  0.00000000E+00  0.00000000E+00
  0.00000000E+00  0.00000000E+00  0.00000000E+00
  0.00000000E+00  0.00000000E+00  0.00000000E+00
  0.00000000E+00  0.00000000E+00  0.00000000E+00
  0.00000000E+00  0.00000000E+00  0.00000000E+00
  0.00000000E+00  0.00000000E+00  0.00000000E+00
  0.00000000E+00  0.00000000E+00  0.00000000E+00
  0.00000000E+00  0.00000000E+00  0.00000000E+00
  0.00000000E+00  0.00000000E+00  0.00000000E+00
  0.00000000E+00  0.00000000E+00  0.00000000E+00
  0.00000000E+00  0.00000000E+00  0.00000000E+00
  0.00000000E+00  0.00000000E+00  0.00000000E+00
  0.00000000E+00  0.00000000E+00  0.00000000E+00
  0.00000000E+00  0.00000000E+00  0.00000000E+00
  0.00000000E+00  0.00000000E+00  0.00000000E+00
  0.00000000E+00  0.00000000E+00  0.00000000E+00
  0.00000000E+00  0.00000000E+00  0.00000000E+00
  0.00000000E+00  0.00000000E+00  0.00000000E+00
  0.00000000E+00  0.00000000E+00  0.00000000E+00
  0.00000000E+00  0.00000000E+00  0.00000000E+00
  0.00000000E+00  0.00000000E+00  0.00000000E+00
  0.00000000E+00  0.00000000E+00  0.00000000E+00
  0.00000000E+00  0.00000000E+00  0.00000000E+00
  0.00000000E+00  0.00000000E+00  0.00000000E+00
  0.00000000E+00  0.00000000E+00  0.00000000E+00
  0.00000000E+00  0.00000000E+00  0.00000000E+00
  0.00000000E+00  0.00000000E+00  0.00000000E+00
  0.00000000E+00  0.00000000E+00  0.00000000E+00
  0.00000000E+00  0.00000000E+00  0.00000000E+00
  0.00000000E+00  0.00000000E+00  0.00000000E+00
  0.00000000E+00  0.00000000E+00  0.00000000E+00
  0.00000000E+00  0.00000000E+00  0.00000000E+00
  0.00000000E+00  0.00000000E+00  0.00000000E+00
  0.00000000E+00  0.00000000E+00  0.00000000E+00
  0.00000000E+00  0.00000000E+00  0.00000000E+00
  0.00000000E+00  0.00000000E+00  0.00000000E+00
  0.00000000E+00  0.00000000E+00  0.00000000E+00
  0.00000000E+00  0.00000000E+00  0.00000000E+00
  0.00000000E+00  0.00000000E+00  0.00000000E+00
  0.00000000E+00  0.00000000E+00  0.00000000E+00
  0.00000000E+00  0.00000000E+00  0.00000000E+00
  0.00000000E+00  0.00000000E+00  0.00000000E+00
  0.00000000E+00  0.00000000E+00  0.00000000E+00
  0.00000000E+00  0.00000000E+00  0.00000000E+00
  0.00000000E+00  0.00000000E+00  0.00000000E+00
  0.00000000E+00  0.00000000E+00  0.00000000E+00
  0.00000000E+00  0.00000000E+00  0.00000000E+00
  0.00000000E+00  0.00000000E+00  0.00000000E+00
  0.00000000E+00  0.00000000E+00  0.00000000E+00
  0.00000000E+00  0.00000000E+00  0.00000000E+00
  0.00000000E+00  0.00000000E+00  0.00000000E+00
  0.00000000E+00  0.00000000E+00  0.00000000E+00
  0.00000000E+00  0.00000000E+00  0.00000000E+00
  0.00000000E+00  0.00000000E+00  0.00000000E+00
  0.00000000E+00  0.00000000E+00  0.00000000E+00
  0.00000000E+00  0.00000000E+00  0.00000000E+00
  0.00000000E+00  0.00000000E+00  0.00000000E+00
  0.00000000E+00  0.00000000E+00  0.00000000E+00
  0.00000000E+00  0.00000000E+00  0.00000000E+00
  0.00000000E+00  0.00000000E+00  0.00000000E+00
  0.00000000E+00  0.00000000E+00  0.00000000E+00
  0.00000000E+00  0.00000000E+00  0.00000000E+00
  0.00000000E+00  0.00000000E+00  0.00000000E+00
  0.00000000E+00  0.00000000E+00  0.00000000E+00
  0.00000000E+00  0.00000000E+00  0.00000000E+00
  0.00000000E+00  0.00000000E+00  0.00000000E+00
  0.00000000E+00  0.00000000E+00  0.00000000E+00
  0.00000000E+00  0.00000000E+00  0.00000000E+00
  0.00000000E+00  0.00000000E+00  0.00000000E+00
  0.00000000E+00  0.00000000E+00  0.00000000E+00
  0.00000000E+00  0.00000000E+00  0.00000000E+00
  0.00000000E+00  0.00000000E+00  0.00000000E+00
  0.00000000E+00  0.00000000E+00  0.00000000E+00
  0.00000000E+00  0.00000000E+00  0.00000000E+00
  0.00000000E+00  0.00000000E+00  0.00000000E+00
  0.00000000E+00  0.00000000E+00  0.00000000E+00
  0.00000000E+00  0.00000000E+00  0.00000000E+00
  0.00000000E+00  0.00000000E+00  0.00000000E+00
  0.00000000E+00  0.00000000E+00  0.00000000E+00
  0.00000000E+00  0.00000000E+00  0.00000000E+00
  0.00000000E+00  0.00000000E+00  0.00000000E+00
  0.00000000E+00  0.00000000E+00  0.00000000E+00
  0.00000000E+00  0.00000000E+00  0.00000000E+00
  0.00000000E+00  0.00000000E+00  0.00000000E+00
  0.00000000E+00  0.00000000E+00  0.00000000E+00
  0.00000000E+00  0.00000000E+00  0.00000000E+00
  0.00000000E+00  0.00000000E+00  0.00000000E+00
  0.00000000E+00  0.00000000E+00  0.00000000E+00
  0.00000000E+00  0.00000000E+00  0.00000000E+00
  0.00000000E+00  0.00000000E+00  0.00000000E+00
  0.00000000E+00  0.00000000E+00  0.00000000E+00
  0.00000000E+00  0.00000000E+00  0.00000000E+00
  0.00000000E+00  0.00000000E+00  0.00000000E+00
  0.00000000E+00  0.00000000E+00  0.00000000E+00
  0.00000000E+00  0.00000000E+00  0.00000000E+00
  0.00000000E+00  0.00000000E+00  0.00000000E+00
  0.00000000E+00  0.00000000E+00  0.00000000E+00
  0.00000000E+00  0.00000000E+00  0.00000000E+00
  0.00000000E+00  0.00000000E+00  0.00000000E+00
  0.00000000E+00  0.00000000E+00  0.00000000E+00
  0.00000000E+00  0.00000000E+00  0.00000000E+00
  0.00000000E+00  0.00000000E+00  0.00000000E+00
  0.00000000E+00  0.00000000E+00  0.00000000E+00
  0.00000000E+00  0.00000000E+00  0.00000000E+00
  0.00000000E+00  0.00000000E+00  0.00000000E+00
  0.00000000E+00  0.00000000E+00  0.00000000E+00
  0.00000000E+00  0.00000000E+00  0.00000000E+00
  0.00000000E+00  0.00000000E+00  0.00000000E+00
  0.00000000E+00  0.00000000E+00  0.00000000E+00
  0.00000000E+00  0.00000000E+00  0.00000000E+00
  0.00000000E+00  0.00000000E+00  0.00000000E+00
  0.00000000E+00  0.00000000E+00  0.00000000E+00
  0.00000000E+00  0.00000000E+00  0.00000000E+00
  0.00000000E+00  0.00000000E+00  0.00000000E+00
  0.00000000E+00  0.00000000E+00  0.00000000E+00
  0.00000000E+00  0.00000000E+00  0.00000000E+00
  0.00000000E+00  0.00000000E+00  0.00000000E+00
  0.00000000E+00  0.00000000E+00  0.00000000E+00
  0.00000000E+00  0.00000000E+00  0.00000000E+00
  0.00000000E+00  0.00000000E+00  0.00000000E+00
  0.00000000E+00  0.00000000E+00  0.00000000E+00
  0.00000000E+00  0.00000000E+00  0.00000000E+00
  0.00000000E+00  0.00000000E+00  0.00000000E+00
  0.00000000E+00  0.00000000E+00  0.00000000E+00
  0.00000000E+00  0.00000000E+00  0.00000000E+00
  0.00000000E+00  0.00000000E+00  0.00000000E+00
  0.00000000E+00  0.00000000E+00  0.00000000E+00
  0.00000000E+00  0.00000000E+00  0.00000000E+00
  0.00000000E+00  0.00000000E+00  0.00000000E+00
  0.00000000E+00  0.00000000E+00  0.00000000E+00
  0.00000000E+00  0.00000000E+00  0.00000000E+00
  0.00000000E+00  0.00000000E+00  0.00000000E+00
  0.00000000E+00  0.00000000E+00  0.00000000E+00
  0.00000000E+00  0.00000000E+00  0.00000000E+00
  0.00000000E+00  0.00000000E+00  0.00000000E+00
  0.00000000E+00  0.00000000E+00  0.00000000E+00
  0.00000000E+00  0.00000000E+00  0.00000000E+00
  0.00000000E+00  0.00000000E+00  0.00000000E+00
  0.00000000E+00  0.00000000E+00  0.00000000E+00
  0.00000000E+00  0.00000000E+00  0.00000000E+00
  0.00000000E+00  0.00000000E+00  0.00000000E+00
  0.00000000E+00  0.00000000E+00  0.00000000E+00
  0.00000000E+00  0.00000000E+00  0.00000000E+00
  0.00000000E+00  0.00000000E+00  0.00000000E+00
  0.00000000E+00  0.00000000E+00  0.00000000E+00
  0.00000000E+00  0.00000000E+00  0.00000000E+00
  0.00000000E+00  0.00000000E+00  0.00000000E+00
  0.00000000E+00  0.00000000E+00  0.00000000E+00
  0.00000000E+00  0.00000000E+00  0.00000000E+00
  0.00000000E+00  0.00000000E+00  0.00000000E+00
  0.00000000E+00  0.00000000E+00  0.00000000E+00
  0.00000000E+00  0.00000000E+00  0.00000000E+00
  0.00000000E+00  0.00000000E+00  0.00000000E+00