Amorphous Sb                            
  0.950000000000000     
    20.1278869700586895    0.0000000000000000    0.0000000000000000
     0.0000000000000000   20.1278869700586895    0.0000000000000000
     0.0000000000000000    0.0000000000000000   20.1278869700586895
   Ge   Se
   150   150
Direct
  0.5281102251076886  0.7090947245378171  0.7832915472454510
  0.2075752313591616  0.4236933099157422  0.8017879846530953
  0.3786189950245681  0.3238269853738545  0.6182339499720931
  0.8256987487794236  0.0406459082449615  0.6241761781796908
  0.8927315764990071  0.6253497841109794  0.6606980346908224
  0.2272868828614969  0.7003281786018831  0.9645006517467567
  0.1281693695283658  0.1472921603551152  0.3475892326042047
  0.3651341016668715  0.6205171738435812  0.7894965199609124
  0.3497818109426097  0.8881204615678681  0.2191663823578459
  0.3737115075688807  0.0000255267764526  0.4227384891513120
  0.0142618311863789  0.0388139818592829  0.4379577586350016
  0.6283911995191919  0.3530919727778017  0.8636909445031391
  0.6420090496852499  0.4314431342157194  0.5852646626311639
  0.2719881438993897  0.0025961124083558  0.8318261393295213
  0.6618705701287120  0.9526448209211843  0.4172414361878235
  0.0142641460694986  0.7732759011868795  0.1013792790189064
  0.0615083038452112  0.7489723659266301  0.3406863286150180
  0.7981715717357246  0.4158055568368952  0.3719959250837259
  0.1490685188085158  0.5024683255388028  0.9564026289581904
  0.0582584954206182  0.9201574221194224  0.4957023254302446
  0.1553714562780956  0.8373580818828670  0.1894978570233663
  0.4533721336004411  0.7429956099929438  0.9765200857298285
  0.9847402000785807  0.1896716197844158  0.9415502714439715
  0.0154002763690114  0.0776307961676041  0.1332349523995469
  0.5655543447466398  0.3067571343166877  0.1792178993342906
  0.3738683694444214  0.1444363697083746  0.5905879483228905
  0.3892036352764555  0.7667592030985224  0.5577624803930255
  0.7941458836052553  0.9361709101714465  0.0588125305229865
  0.8099200056086291  0.5303790773586046  0.5599244611815498
  0.9452225682606986  0.7819543829829174  0.5788951995275737
  0.0837863480767001  0.3279544510534051  0.7551045376979151
  0.0099582225417402  0.0920412743858295  0.2691002001032087
  0.8972869260653684  0.4850862300315428  0.4316084825313179
  0.3952183121254205  0.4371482195044390  0.2603859838724047
  0.0381864895500289  0.5501650606790321  0.5723600013405158
  0.7075545084624220  0.7452725312095392  0.1548955460275988
  0.4420447069541630  0.4905124839628761  0.9266953636771134
  0.2661023218535222  0.0547322215368447  0.2194670346874605
  0.2551068423132888  0.3601298881274409  0.1195327048329658
  0.7669031128346777  0.3970816509935702  0.7695145678685709
  0.8472874087387352  0.8010050496396055  0.3953090641771922
  0.9418853080989177  0.1928964687501109  0.5483937475181708
  0.5662460910115825  0.8432259374933171  0.5598572359956058
  0.3650549922434257  0.9887739472544477  0.0720103245210132
  0.3547490981226806  0.6448965726151765  0.2456876730636895
  0.3985216309097568  0.4256382716566672  0.4969283186514496
  0.8843208738077080  0.8206864771310335  0.1688855740366905
  0.0726204094913582  0.3550130309252932  0.4078458501478149
  0.9862549564755584  0.7443290754982945  0.8055652243748244
  0.5415701437076097  0.0652864687285181  0.2916716159344140
  0.2671577677239157  0.4295053259778505  0.9413469592381530
  0.0338948288416418  0.2744141873877020  0.1463424019160266
  0.6366482682714083  0.6775837034698164  0.8749454860932042
  0.5859264940050384  0.3257453428650298  0.7401152510281374
  0.0339055094493398  0.5900303078724742  0.3404613240039133
  0.0230832765470995  0.9112299193057356  0.2148614143365392
  0.1813293575904016  0.5645337205667428  0.4604107804006516
  0.9692016324757879  0.3336563930464882  0.5730618030343561
  0.0907212946761011  0.0633102341345015  0.8195550734859930
  0.5204755404035226  0.4281709724968706  0.3307725947015596
  0.6869152235774724  0.1225001426962906  0.1123545573578188
  0.5281175829739497  0.6869217968868733  0.2669416038276752
  0.9291295896928249  0.6772856557307920  0.2668486553660090
  0.8501887495325624  0.0171406431956737  0.8265346259397531
  0.5732709047767898  0.8405597143835964  0.0426023742648164
  0.1037968860747117  0.3354900432577395  0.9351098717894935
  0.8212709114688744  0.8548628027500613  0.5233533656352575
  0.7431208456981726  0.7579396063314845  0.6872806060299101
  0.8143001186749683  0.2620408220600147  0.1401443552824871
  0.8743158184440830  0.3041193621010385  0.9644295534552318
  0.9637576363890228  0.4261290961896865  0.7223483861956622
  0.4080362774157112  0.1636026103488403  0.1483101052037968
  0.3618210109102641  0.5345220180481628  0.4223910805144716
  0.4625874918667303  0.8561659575747725  0.3970430185228614
  0.3349085049366113  0.4466361425356270  0.6737205363410572
  0.7041940046373443  0.9932791976708869  0.1477559984464643
  0.2403292716567013  0.2324042928143804  0.1649704187948320
  0.8458810347857492  0.0768797982070312  0.0158412442836569
  0.2529303323118482  0.8507493882747639  0.9382117828548954
  0.3553322125183174  0.2415498781542548  0.0148482411912705
  0.6668929623573884  0.9926140948338341  0.8784912728300686
  0.9828703139326537  0.6058407250164406  0.8542783025834106
  0.8106552550793459  0.4657398767529157  0.0631705719574622
  0.7261035482160030  0.5205753462706136  0.3356860199961167
  0.3498402120380356  0.1313403252147537  0.7212104956899132
  0.5971567043411347  0.1495792295856305  0.0216432185807917
  0.5146010907214614  0.6450775593306758  0.6123304881129970
  0.7693887309149978  0.2779833082622436  0.5135414067614665
  0.6480334439590170  0.5797917820005215  0.1481156706362447
  0.5501977684854147  0.2441872607093131  0.4057361854622351
  0.6311273183982237  0.1206646404597175  0.8948506476186012
  0.1166833638611662  0.1111539028520216  0.5925279756259916
  0.3041591432312196  0.5960435639597423  0.5919243357683935
  0.7591838049275267  0.0536473278978581  0.4414047867174900
  0.6564066509474300  0.9506279760589241  0.5938405094522918
  0.6677027388290179  0.6943002100199926  0.5140727858671947
  0.4455330256331615  0.9580362062478825  0.9336602790454867
  0.1475018960420836  0.4608206158129902  0.6384832729335210
  0.1751370702126871  0.7693857710297023  0.4757390447661110
  0.2086071140754604  0.1254440704134834  0.8330221090422021
  0.1186811519653221  0.4176861867766111  0.2337679425344234
  0.5257972227288592  0.2984062450922280  0.9291439166677998
  0.2186805928018449  0.5100678794133927  0.0930355085780426
  0.8508823218575472  0.0447390764254996  0.1967995743011056
  0.4317975814204734  0.8621289548898775  0.7689009916648830
  0.7450222832480377  0.7110345588637839  0.0033408136216004
  0.0135429207576980  0.4596117855772450  0.0087243715167520
  0.0521522062266719  0.6554631939329193  0.0478175626952855
  0.6937042410222168  0.1885164911043276  0.7180287615573263
  0.7056356080864554  0.9229013107111491  0.7645624663126116
  0.1086802816763142  0.8898541685371751  0.6874049995933548
  0.0897036786183279  0.9503015704886509  0.0100463470895049
  0.1517372462156903  0.9538125510947388  0.3702130545815738
  0.7501617954004617  0.1505788672882229  0.3093303314159090
  0.7286824484792535  0.8093945268096465  0.3287027524824272
  0.7374264286050675  0.6355243549551811  0.4028342529839588
  0.4354059029584851  0.2541081281204438  0.2920414891975878
  0.6974376365667256  0.6075946154693389  0.7229474004854327
  0.3331293919409050  0.2206932347734957  0.4410045610309251
  0.0509031410400329  0.9417362596750757  0.7920086175713602
  0.9329962133877402  0.4467833876119446  0.2011256671810691
  0.8927872890793838  0.2485167064945080  0.3590632654828344
  0.8149694363146196  0.6289564430392214  0.8230302795327679
  0.9269111379919089  0.9215146303736355  0.9541592423273625
  0.2324890962834256  0.3893406408616794  0.4016358978134621
  0.2232949909643332  0.6848735132330755  0.6761729030811270
  0.3748941418322055  0.9643211364368863  0.5669144986177537
  0.5773556465747153  0.8529744697185007  0.7737077539312510
  0.1625781814752924  0.1274041079319143  0.9848875254701033
  0.3065051094687922  0.8093960869579745  0.0681707658425740
  0.5381829902537018  0.5671171133757923  0.4517901180931009
  0.8822663775281673  0.7449883625274076  0.8996593010803792
  0.4656541441709657  0.1795246837091084  0.9146349299709585
  0.4536004149638940  0.5106619993271986  0.1365479727898947
  0.0471692526127349  0.7149706370011555  0.6353739602373103
  0.1933806467254750  0.6352824933928739  0.2270023962747557
  0.2807201380187400  0.2742071163964594  0.8000714904473145
  0.5209321442072542  0.0985980345156550  0.4747102662347321
  0.3088635634502692  0.7396195045465555  0.3661232435653874
  0.3073958122575940  0.8230702210001921  0.7437825680356840
  0.7155720815330844  0.4076905822704676  0.2178548506235176
  0.5998107699850651  0.4517784836598405  0.0288916916656970
  0.1773499552574955  0.9869508304474729  0.6255963704286623
  0.9139851601768137  0.2232980454339637  0.7531897251684695
  0.5769486787206398  0.1821258311622004  0.5762810743014017
  0.1354723375867120  0.2274491949022785  0.5106808293089604
  0.1503351811646432  0.6145093923770633  0.8134424356171491
  0.5252416940683723  0.8949050034137492  0.2210669808383633
  0.4733881468463801  0.4921154207126612  0.7630121213857430
  0.9177291972765009  0.4582180785276036  0.9068784139242375
  0.8554135219255683  0.1225207527157427  0.8913707632470336
  0.8551899991665171  0.9711958236814784  0.4723689709537241
  0.0821705376517134  0.7211203408545633  0.2069813651615169
  0.9317446497282076  0.4696897268476665  0.5983451875100360
  0.3462450055662448  0.6886981521617901  0.0298218900285708
  0.1149145786064816  0.0022651067725107  0.2492816664039944
  0.5791051852243134  0.4606599882586963  0.1657878445054496
  0.7092631660653033  0.0790358548398072  0.5675135163743301
  0.5962005242813680  0.2746246453998645  0.0331744998837432
  0.1415735070491072  0.0720279860699211  0.4634226884095705
  0.9342079098928100  0.8142802099657119  0.2990446383327893
  0.7556672259261883  0.0469255309469856  0.7465503940954098
  0.7832260884321546  0.6998719334492391  0.5756677557205633
  0.2650599717066277  0.8002774786682151  0.6254187557465120
  0.8615137276838819  0.6935040367371363  0.1555827966230636
  0.4757709297507079  0.1091827380447201  0.0247914054810766
  0.2747830097866465  0.1466231347413686  0.0707944805143088
  0.3368266000058473  0.8391275006563369  0.4548067575005637
  0.9365864357294000  0.9823641723536599  0.7407690949757748
  0.6981624941066846  0.2172996636959313  0.2016825950672796
  0.7069130774966732  0.0139666442051677  0.9969629488786130
  0.5585188936589308  0.2055134480947616  0.7062741326317523
  0.1338369201228206  0.0517925946986738  0.0897433797946395
  0.8789352591717726  0.5033355671435951  0.7910372491507346
  0.2219408741326960  0.3622251472926856  0.2712471394265586
  0.3387697545142775  0.4045960199874102  0.8354447336104500
  0.2742418877033282  0.7719373540959306  0.1896219523955059
  0.2785731957816845  0.9753616911560091  0.3305259894799415
  0.3323431122884563  0.4974408899665832  0.0275920070994722
  0.4015968166565326  0.0364395988827761  0.1948062813048707
  0.4541471490365444  0.2398633785736358  0.5447133599947650
  0.4291196895567517  0.3276540692810201  0.1800229238008865
  0.9310523588035166  0.9864795936221190  0.2837280201133496
  0.4231582812331153  0.8656242793619520  0.1000305328305891
  0.0637175530097482  0.5031797332896861  0.4346664096163767
  0.0784305920965497  0.4999742150915283  0.8432024890452371
  0.5591855794558996  0.4702238918350303  0.8616108085170293
  0.2958476670340042  0.9863617576382506  0.6720496267790780
  0.5240431071883058  0.1759852693061341  0.2141696782337361
  0.9169249067570130  0.5284568901614506  0.3073208599507987
  0.5986966037026437  0.5368570226342614  0.3282102707002361
  0.3395603102273861  0.1790066646996028  0.8956483375836815
  0.1853906073046045  0.9132268650031681  0.5190553179068756
  0.0358752497982549  0.2179363650271773  0.4142450980053478
  0.5663358908490027  0.9050472764013415  0.9009352833641096
  0.5904657632799366  0.9752223461440567  0.7124860217495378
  0.7358754924376540  0.4918265125395501  0.6733508824007837
  0.1737940071598980  0.8275504139352784  0.3353084691296789
  0.9408911616063171  0.3597365954853782  0.4419601483729748
  0.5144764633594000  0.7597485511179493  0.4717912828308612
  0.8651650020459992  0.3411371874424582  0.6988897637458160
  0.3378244379828137  0.6490086748282151  0.4734743999727162
  0.6957161550796831  0.2208414361651690  0.8487297007263728
  0.3034944981308131  0.0948824424722745  0.4933785523359802
  0.7583245046064097  0.8533194271264632  0.2101518347940062
  0.7591645628932175  0.5368962834094498  0.2100877666467928
  0.1658864105698598  0.6667455439100129  0.3775191546231464
  0.0233632344368830  0.8560762330661156  0.8795937902731367
  0.7990006691847823  0.4142814934288379  0.9376321243504149
  0.9910692122672772  0.0703444827765725  0.5647795422815821
  0.2558437959546487  0.9452950683951510  0.1377438563504181
  0.5630143215883663  0.5911493265208898  0.7245450064412788
  0.0018333106848461  0.9058756118638068  0.6136128410711665
  0.1195886117850033  0.2411558889563076  0.8461055148118688
  0.5136559369777397  0.4048448234769657  0.6719578198244391
  0.2784131787171995  0.2670013239285911  0.5551416358956637
  0.2487496385662603  0.9827760535225954  0.9602334365340410
  0.7675285167139885  0.1832991002978783  0.0323140097779794
  0.8736090104379135  0.6216720257636645  0.9450100327438513
  0.8796506412712670  0.1656439666851236  0.2422037134170511
  0.5270101995157592  0.4336614575437486  0.4640193039821098
  0.6009376034336082  0.3295313897449572  0.3154414974987570
  0.6303188365070345  0.5658744306742397  0.5473789550843978
  0.6832067845681892  0.6945048235073845  0.3003362828121341
  0.4278258370449858  0.7740865145354169  0.2957276849383164
  0.1135694038544542  0.7674636117579129  0.7348751162961070
  0.7489076280598758  0.7532454595684741  0.8685237208474762
  0.5753359934943744  0.7796994155401678  0.1721035563613085
  0.8937822561059224  0.7576137127546867  0.7070179283608731
  0.0871026117697647  0.2358776670510202  0.0212101989327428
  0.8188793524424305  0.9079893393525679  0.8773567939760452
  0.7083700040082552  0.8347130909231525  0.0398257968634279
  0.7401703491773136  0.0209103563320973  0.2727020500984987
  0.2305143485469307  0.5319933005852596  0.7291273203108016
  0.7518245625890179  0.4207787702857599  0.5073673107389741
  0.3950094009632899  0.2600302734547866  0.7342372879343286
  0.9786045230925233  0.9582466727344707  0.0962526923198133
  0.4343067985221792  0.5688756197398838  0.3236248117624601
  0.1256223102481615  0.1956591433589341  0.2064391943518560
  0.0411905577200494  0.7941414400975142  0.4721193960102268
  0.7626269766704391  0.2914127023069872  0.3795317283231004
  0.4202439935962304  0.7052577395243221  0.6992159088719713
  0.6129421182496984  0.8736584796062482  0.3254117527098166
  0.3885441945485196  0.8380417535684136  0.9062358124381813
  0.1288195078498342  0.8253766292645156  0.0522169815963726
  0.8552745077610665  0.1621390265655484  0.4558873619443321
  0.6963154537473434  0.8385903164829180  0.4785657838417369
  0.0306770064830163  0.2318916770999689  0.6833514585965612
  0.7042278538064316  0.5626122987616068  0.8510007388119102
  0.2444697707671336  0.3135024808199816  0.9916490541772373
  0.4609604639724095  0.6479204469738589  0.8813091252360340
  0.0742160047005561  0.6806435910828389  0.9230466762613009
  0.5797779159452968  0.9642694929921561  0.1212148279673417
  0.4440589043740650  0.3721677822444279  0.9892341820351288
  0.8968194146489065  0.8046615914797436  0.0105953989098748
  0.6231957853620407  0.1352199383951401  0.3734783571059696
  0.2440074438131046  0.5837543909433077  0.9029186984383282
  0.2568707169570612  0.4710579746540882  0.5620347910678730
  0.5203437334119778  0.1006124721343675  0.8356143774964991
  0.4177882728428688  0.5331338908569850  0.6084642364810313
  0.2136845075348106  0.8887931357815195  0.8062650718789212
  0.0329654834973847  0.0677471108857863  0.9319660605990241
  0.2517042231140129  0.5160735708052009  0.3594618229629607
  0.9410392158464909  0.1591501123836205  0.0662908783639113
  0.2043475535932703  0.3446211829620059  0.6910183536221689
  0.3177776068167618  0.1926771619922177  0.2627188745167056
  0.2782691387389896  0.7193631385702070  0.8162811318365474
  0.8603606304813556  0.6718348359534254  0.3865826785633152
  0.0918502164825099  0.5417339537574368  0.2275995586822465
  0.9741142483597348  0.5604658529274579  0.0780198409463725
  0.2064946500860187  0.2420456880621878  0.3996485587340887
  0.2242229876555548  0.1666635333331394  0.7112049991237059
  0.9675737558518795  0.3405490487229977  0.8727629881429394
  0.8419569485451875  0.3654571575858584  0.2507818697947683
  0.5507861106114442  0.9709820668456833  0.4775923361515199
  0.7029372047432881  0.5429021252732480  0.0325213435199169
  0.4027085922082932  0.9863691693560849  0.8089813419658963
  0.5103880089656372  0.5511604681581030  0.0245500970296660
  0.6315378260909460  0.2824354824701036  0.5101430842049717
  0.6064047160671938  0.7498675658524514  0.6456639849961807
  0.2919007680360364  0.5336471163190513  0.1974445695131366
  0.0987878826084409  0.3533318174551922  0.5441193108671470
  0.7722254533117300  0.8884937510039213  0.6511874694231647
  0.4560528226875767  0.6432393167715654  0.1613002554951238
  0.1791258909332329  0.6391793901995509  0.0832738711506192
  0.6128328870583289  0.6924126058541357 -0.0003946447700781
  0.6990058787280552  0.3192129000345029  0.6771739666250004
  0.4465594994443183  0.8702862720148613  0.6268977154982451
  0.3645381250386184  0.3622985844265585  0.3802177478795855
  0.1433502881476160  0.6655068372161829  0.5667491469374338
  0.8479400066494956  0.1760622784222260  0.6434204755349578
  0.0133439387841591  0.3609637639201445  0.2701394238691753
  0.9382721707963648  0.3641987322147401  0.0649389623607776
  0.1194751462434252  0.3765340891589121  0.1135230993015777
  0.4370699970700712  0.1025372415931650  0.3637554030671822
  0.9458182311178169  0.6397469966976046  0.5372750684806031
  0.0051072875851715  0.1021948645478821  0.7299793303533805
  0.0224550534538649  0.6057680229177529  0.7032922027590950
  0.7304717727322179  0.3655772019786377  0.0939124243779200
  0.4667783108766169  0.0546229334098499  0.5996799987598381
 
  0.00000000E+00  0.00000000E+00  0.00000000E+00
  0.00000000E+00  0.00000000E+00  0.00000000E+00
  0.00000000E+00  0.00000000E+00  0.00000000E+00
  0.00000000E+00  0.00000000E+00  0.00000000E+00
  0.00000000E+00  0.00000000E+00  0.00000000E+00
  0.00000000E+00  0.00000000E+00  0.00000000E+00
  0.00000000E+00  0.00000000E+00  0.00000000E+00
  0.00000000E+00  0.00000000E+00  0.00000000E+00
  0.00000000E+00  0.00000000E+00  0.00000000E+00
  0.00000000E+00  0.00000000E+00  0.00000000E+00
  0.00000000E+00  0.00000000E+00  0.00000000E+00
  0.00000000E+00  0.00000000E+00  0.00000000E+00
  0.00000000E+00  0.00000000E+00  0.00000000E+00
  0.00000000E+00  0.00000000E+00  0.00000000E+00
  0.00000000E+00  0.00000000E+00  0.00000000E+00
  0.00000000E+00  0.00000000E+00  0.00000000E+00
  0.00000000E+00  0.00000000E+00  0.00000000E+00
  0.00000000E+00  0.00000000E+00  0.00000000E+00
  0.00000000E+00  0.00000000E+00  0.00000000E+00
  0.00000000E+00  0.00000000E+00  0.00000000E+00
  0.00000000E+00  0.00000000E+00  0.00000000E+00
  0.00000000E+00  0.00000000E+00  0.00000000E+00
  0.00000000E+00  0.00000000E+00  0.00000000E+00
  0.00000000E+00  0.00000000E+00  0.00000000E+00
  0.00000000E+00  0.00000000E+00  0.00000000E+00
  0.00000000E+00  0.00000000E+00  0.00000000E+00
  0.00000000E+00  0.00000000E+00  0.00000000E+00
  0.00000000E+00  0.00000000E+00  0.00000000E+00
  0.00000000E+00  0.00000000E+00  0.00000000E+00
  0.00000000E+00  0.00000000E+00  0.00000000E+00
  0.00000000E+00  0.00000000E+00  0.00000000E+00
  0.00000000E+00  0.00000000E+00  0.00000000E+00
  0.00000000E+00  0.00000000E+00  0.00000000E+00
  0.00000000E+00  0.00000000E+00  0.00000000E+00
  0.00000000E+00  0.00000000E+00  0.00000000E+00
  0.00000000E+00  0.00000000E+00  0.00000000E+00
  0.00000000E+00  0.00000000E+00  0.00000000E+00
  0.00000000E+00  0.00000000E+00  0.00000000E+00
  0.00000000E+00  0.00000000E+00  0.00000000E+00
  0.00000000E+00  0.00000000E+00  0.00000000E+00
  0.00000000E+00  0.00000000E+00  0.00000000E+00
  0.00000000E+00  0.00000000E+00  0.00000000E+00
  0.00000000E+00  0.00000000E+00  0.00000000E+00
  0.00000000E+00  0.00000000E+00  0.00000000E+00
  0.00000000E+00  0.00000000E+00  0.00000000E+00
  0.00000000E+00  0.00000000E+00  0.00000000E+00
  0.00000000E+00  0.00000000E+00  0.00000000E+00
  0.00000000E+00  0.00000000E+00  0.00000000E+00
  0.00000000E+00  0.00000000E+00  0.00000000E+00
  0.00000000E+00  0.00000000E+00  0.00000000E+00
  0.00000000E+00  0.00000000E+00  0.00000000E+00
  0.00000000E+00  0.00000000E+00  0.00000000E+00
  0.00000000E+00  0.00000000E+00  0.00000000E+00
  0.00000000E+00  0.00000000E+00  0.00000000E+00
  0.00000000E+00  0.00000000E+00  0.00000000E+00
  0.00000000E+00  0.00000000E+00  0.00000000E+00
  0.00000000E+00  0.00000000E+00  0.00000000E+00
  0.00000000E+00  0.00000000E+00  0.00000000E+00
  0.00000000E+00  0.00000000E+00  0.00000000E+00
  0.00000000E+00  0.00000000E+00  0.00000000E+00
  0.00000000E+00  0.00000000E+00  0.00000000E+00
  0.00000000E+00  0.00000000E+00  0.00000000E+00
  0.00000000E+00  0.00000000E+00  0.00000000E+00
  0.00000000E+00  0.00000000E+00  0.00000000E+00
  0.00000000E+00  0.00000000E+00  0.00000000E+00
  0.00000000E+00  0.00000000E+00  0.00000000E+00
  0.00000000E+00  0.00000000E+00  0.00000000E+00
  0.00000000E+00  0.00000000E+00  0.00000000E+00
  0.00000000E+00  0.00000000E+00  0.00000000E+00
  0.00000000E+00  0.00000000E+00  0.00000000E+00
  0.00000000E+00  0.00000000E+00  0.00000000E+00
  0.00000000E+00  0.00000000E+00  0.00000000E+00
  0.00000000E+00  0.00000000E+00  0.00000000E+00
  0.00000000E+00  0.00000000E+00  0.00000000E+00
  0.00000000E+00  0.00000000E+00  0.00000000E+00
  0.00000000E+00  0.00000000E+00  0.00000000E+00
  0.00000000E+00  0.00000000E+00  0.00000000E+00
  0.00000000E+00  0.00000000E+00  0.00000000E+00
  0.00000000E+00  0.00000000E+00  0.00000000E+00
  0.00000000E+00  0.00000000E+00  0.00000000E+00
  0.00000000E+00  0.00000000E+00  0.00000000E+00
  0.00000000E+00  0.00000000E+00  0.00000000E+00
  0.00000000E+00  0.00000000E+00  0.00000000E+00
  0.00000000E+00  0.00000000E+00  0.00000000E+00
  0.00000000E+00  0.00000000E+00  0.00000000E+00
  0.00000000E+00  0.00000000E+00  0.00000000E+00
  0.00000000E+00  0.00000000E+00  0.00000000E+00
  0.00000000E+00  0.00000000E+00  0.00000000E+00
  0.00000000E+00  0.00000000E+00  0.00000000E+00
  0.00000000E+00  0.00000000E+00  0.00000000E+00
  0.00000000E+00  0.00000000E+00  0.00000000E+00
  0.00000000E+00  0.00000000E+00  0.00000000E+00
  0.00000000E+00  0.00000000E+00  0.00000000E+00
  0.00000000E+00  0.00000000E+00  0.00000000E+00
  0.00000000E+00  0.00000000E+00  0.00000000E+00
  0.00000000E+00  0.00000000E+00  0.00000000E+00
  0.00000000E+00  0.00000000E+00  0.00000000E+00
  0.00000000E+00  0.00000000E+00  0.00000000E+00
  0.00000000E+00  0.00000000E+00  0.00000000E+00
  0.00000000E+00  0.00000000E+00  0.00000000E+00
  0.00000000E+00  0.00000000E+00  0.00000000E+00
  0.00000000E+00  0.00000000E+00  0.00000000E+00
  0.00000000E+00  0.00000000E+00  0.00000000E+00
  0.00000000E+00  0.00000000E+00  0.00000000E+00
  0.00000000E+00  0.00000000E+00  0.00000000E+00
  0.00000000E+00  0.00000000E+00  0.00000000E+00
  0.00000000E+00  0.00000000E+00  0.00000000E+00
  0.00000000E+00  0.00000000E+00  0.00000000E+00
  0.00000000E+00  0.00000000E+00  0.00000000E+00
  0.00000000E+00  0.00000000E+00  0.00000000E+00
  0.00000000E+00  0.00000000E+00  0.00000000E+00
  0.00000000E+00  0.00000000E+00  0.00000000E+00
  0.00000000E+00  0.00000000E+00  0.00000000E+00
  0.00000000E+00  0.00000000E+00  0.00000000E+00
  0.00000000E+00  0.00000000E+00  0.00000000E+00
  0.00000000E+00  0.00000000E+00  0.00000000E+00
  0.00000000E+00  0.00000000E+00  0.00000000E+00
  0.00000000E+00  0.00000000E+00  0.00000000E+00
  0.00000000E+00  0.00000000E+00  0.00000000E+00
  0.00000000E+00  0.00000000E+00  0.00000000E+00
  0.00000000E+00  0.00000000E+00  0.00000000E+00
  0.00000000E+00  0.00000000E+00  0.00000000E+00
  0.00000000E+00  0.00000000E+00  0.00000000E+00
  0.00000000E+00  0.00000000E+00  0.00000000E+00
  0.00000000E+00  0.00000000E+00  0.00000000E+00
  0.00000000E+00  0.00000000E+00  0.00000000E+00
  0.00000000E+00  0.00000000E+00  0.00000000E+00
  0.00000000E+00  0.00000000E+00  0.00000000E+00
  0.00000000E+00  0.00000000E+00  0.00000000E+00
  0.00000000E+00  0.00000000E+00  0.00000000E+00
  0.00000000E+00  0.00000000E+00  0.00000000E+00
  0.00000000E+00  0.00000000E+00  0.00000000E+00
  0.00000000E+00  0.00000000E+00  0.00000000E+00
  0.00000000E+00  0.00000000E+00  0.00000000E+00
  0.00000000E+00  0.00000000E+00  0.00000000E+00
  0.00000000E+00  0.00000000E+00  0.00000000E+00
  0.00000000E+00  0.00000000E+00  0.00000000E+00
  0.00000000E+00  0.00000000E+00  0.00000000E+00
  0.00000000E+00  0.00000000E+00  0.00000000E+00
  0.00000000E+00  0.00000000E+00  0.00000000E+00
  0.00000000E+00  0.00000000E+00  0.00000000E+00
  0.00000000E+00  0.00000000E+00  0.00000000E+00
  0.00000000E+00  0.00000000E+00  0.00000000E+00
  0.00000000E+00  0.00000000E+00  0.00000000E+00
  0.00000000E+00  0.00000000E+00  0.00000000E+00
  0.00000000E+00  0.00000000E+00  0.00000000E+00
  0.00000000E+00  0.00000000E+00  0.00000000E+00
  0.00000000E+00  0.00000000E+00  0.00000000E+00
  0.00000000E+00  0.00000000E+00  0.00000000E+00
  0.00000000E+00  0.00000000E+00  0.00000000E+00
  0.00000000E+00  0.00000000E+00  0.00000000E+00
  0.00000000E+00  0.00000000E+00  0.00000000E+00
  0.00000000E+00  0.00000000E+00  0.00000000E+00
  0.00000000E+00  0.00000000E+00  0.00000000E+00
  0.00000000E+00  0.00000000E+00  0.00000000E+00
  0.00000000E+00  0.00000000E+00  0.00000000E+00
  0.00000000E+00  0.00000000E+00  0.00000000E+00
  0.00000000E+00  0.00000000E+00  0.00000000E+00
  0.00000000E+00  0.00000000E+00  0.00000000E+00
  0.00000000E+00  0.00000000E+00  0.00000000E+00
  0.00000000E+00  0.00000000E+00  0.00000000E+00
  0.00000000E+00  0.00000000E+00  0.00000000E+00
  0.00000000E+00  0.00000000E+00  0.00000000E+00
  0.00000000E+00  0.00000000E+00  0.00000000E+00
  0.00000000E+00  0.00000000E+00  0.00000000E+00
  0.00000000E+00  0.00000000E+00  0.00000000E+00
  0.00000000E+00  0.00000000E+00  0.00000000E+00
  0.00000000E+00  0.00000000E+00  0.00000000E+00
  0.00000000E+00  0.00000000E+00  0.00000000E+00
  0.00000000E+00  0.00000000E+00  0.00000000E+00
  0.00000000E+00  0.00000000E+00  0.00000000E+00
  0.00000000E+00  0.00000000E+00  0.00000000E+00
  0.00000000E+00  0.00000000E+00  0.00000000E+00
  0.00000000E+00  0.00000000E+00  0.00000000E+00
  0.00000000E+00  0.00000000E+00  0.00000000E+00
  0.00000000E+00  0.00000000E+00  0.00000000E+00
  0.00000000E+00  0.00000000E+00  0.00000000E+00
  0.00000000E+00  0.00000000E+00  0.00000000E+00
  0.00000000E+00  0.00000000E+00  0.00000000E+00
  0.00000000E+00  0.00000000E+00  0.00000000E+00
  0.00000000E+00  0.00000000E+00  0.00000000E+00
  0.00000000E+00  0.00000000E+00  0.00000000E+00
  0.00000000E+00  0.00000000E+00  0.00000000E+00
  0.00000000E+00  0.00000000E+00  0.00000000E+00
  0.00000000E+00  0.00000000E+00  0.00000000E+00
  0.00000000E+00  0.00000000E+00  0.00000000E+00
  0.00000000E+00  0.00000000E+00  0.00000000E+00
  0.00000000E+00  0.00000000E+00  0.00000000E+00
  0.00000000E+00  0.00000000E+00  0.00000000E+00
  0.00000000E+00  0.00000000E+00  0.00000000E+00
  0.00000000E+00  0.00000000E+00  0.00000000E+00
  0.00000000E+00  0.00000000E+00  0.00000000E+00
  0.00000000E+00  0.00000000E+00  0.00000000E+00
  0.00000000E+00  0.00000000E+00  0.00000000E+00
  0.00000000E+00  0.00000000E+00  0.00000000E+00
  0.00000000E+00  0.00000000E+00  0.00000000E+00
  0.00000000E+00  0.00000000E+00  0.00000000E+00
  0.00000000E+00  0.00000000E+00  0.00000000E+00
  0.00000000E+00  0.00000000E+00  0.00000000E+00
  0.00000000E+00  0.00000000E+00  0.00000000E+00
  0.00000000E+00  0.00000000E+00  0.00000000E+00
  0.00000000E+00  0.00000000E+00  0.00000000E+00
  0.00000000E+00  0.00000000E+00  0.00000000E+00
  0.00000000E+00  0.00000000E+00  0.00000000E+00
  0.00000000E+00  0.00000000E+00  0.00000000E+00
  0.00000000E+00  0.00000000E+00  0.00000000E+00
  0.00000000E+00  0.00000000E+00  0.00000000E+00
  0.00000000E+00  0.00000000E+00  0.00000000E+00
  0.00000000E+00  0.00000000E+00  0.00000000E+00
  0.00000000E+00  0.00000000E+00  0.00000000E+00
  0.00000000E+00  0.00000000E+00  0.00000000E+00
  0.00000000E+00  0.00000000E+00  0.00000000E+00
  0.00000000E+00  0.00000000E+00  0.00000000E+00
  0.00000000E+00  0.00000000E+00  0.00000000E+00
  0.00000000E+00  0.00000000E+00  0.00000000E+00
  0.00000000E+00  0.00000000E+00  0.00000000E+00
  0.00000000E+00  0.00000000E+00  0.00000000E+00
  0.00000000E+00  0.00000000E+00  0.00000000E+00
  0.00000000E+00  0.00000000E+00  0.00000000E+00
  0.00000000E+00  0.00000000E+00  0.00000000E+00
  0.00000000E+00  0.00000000E+00  0.00000000E+00
  0.00000000E+00  0.00000000E+00  0.00000000E+00
  0.00000000E+00  0.00000000E+00  0.00000000E+00
  0.00000000E+00  0.00000000E+00  0.00000000E+00
  0.00000000E+00  0.00000000E+00  0.00000000E+00
  0.00000000E+00  0.00000000E+00  0.00000000E+00
  0.00000000E+00  0.00000000E+00  0.00000000E+00
  0.00000000E+00  0.00000000E+00  0.00000000E+00
  0.00000000E+00  0.00000000E+00  0.00000000E+00
  0.00000000E+00  0.00000000E+00  0.00000000E+00
  0.00000000E+00  0.00000000E+00  0.00000000E+00
  0.00000000E+00  0.00000000E+00  0.00000000E+00