Amorphous GeTe6                         
   1.00000000000000     
    21.6894838840084745    0.0000000000000000    0.0000000000000000
     0.0000000000000000   21.6894838840084745    0.0000000000000000
     0.0000000000000000    0.0000000000000000   21.6894838840084745
   Ga   Te   Zr
   114   171    15
Direct
  0.7899501498935024  0.8821800479872866  0.8887967116727409
  0.9241914340886946  0.0049273036007559  0.1504612823659371
  0.8432541423039268  0.4578857416764430  0.8074154098657474
  0.9678611925247186  0.2455113564743917  0.9162104066358312
  0.5898178707317736  0.3077649822327360  0.7145581576076194
  0.8817205594476411  0.4133163490567434 -0.0319173294652790
  0.9630465069200642  0.0462054027927446  0.9074594533188460
  0.6902031782077196  0.7677915478332119  0.2281301205743732
  0.4310530367888288  0.0461327305524011  0.8286110095103515
  0.3732976267534225  0.8507254850502515  0.5101651836758505
  0.5363995987493597  0.8316734818254470  0.7748686188149806
  0.1058229104427722  0.6434524705913345  0.1094880671103143
  0.1181375493707562  0.3337760094800860  0.3840867744914276
  0.0993635741910232 -0.0000375496402901  0.5140146242160661
  0.5818966473044220  0.1343624117719887  0.4662875294707291
  0.8472631967375363  0.7095861898868417  0.8980848349848913
  0.0972018598320903  0.7748939785992439  0.5294971103458411
  0.3307663769796720  0.3331750634705692  0.5243135247836792
  0.9184806971242103  0.2857234436377241  0.7217775731776662
  0.2845083397114258  0.3330339613189882  0.8546661146130303
  0.1710470435884020  0.0270607890443135  0.7659264219006373
  0.5217524950006479  0.7406106044679069  0.4191053325971750
  0.2656336108022674  0.2409436134640680  0.5267098512361458
  0.2647091733650127  0.4860562054431506  0.1621204179334252
  0.0643342473612955  0.0056829036950584  0.7207713112285392
  0.9940412286826139  0.8132618417555399  0.7453925623972705
  0.5490421909967095  0.7009498217894131  0.1391472307615620
  0.3536061900810837  0.8256748907675172 -0.0071211406612226
  0.1447935790455676  0.4725523478767282  0.7361104543518042
  0.7053752054715317  0.3761803574376342  0.6381461472301553
  0.2372842029627110  0.1352496548102260  0.5635833170794653
  0.1843827032453687  0.0327830891725219  0.8831066803633139
  0.7590512560321618  0.4490670483108755  0.5669215221275647
  0.6169139452926141  0.0297721925862618  0.6465273594680501
  0.6804027458073373  0.6710386013305580  0.5139292709981247
  0.8282182797521906  0.0562245034217432  0.6415865095662058
  0.5678221810645555  0.3134918856956062  0.9072000867807636
  0.9843641313158766  0.7926424903223847  0.9177605244031959
  0.1847951429989524  0.2404918171407716  0.2403555594350373
  0.4416203763176808  0.7812473012941723  0.2409704034971935
  0.8121360351397466  0.5560993969817535  0.9989165298161778
  0.0185031031978769  0.6155298551561785  0.6405271868997717
  0.3045104879871271  0.6233604407737885  0.1634430968700026
  0.9179359515778867  0.8136682989342238  0.3368628518407671
  0.8556032146190995  0.0710798725030851  0.7541829839951285
  0.2458997739980678  0.4828831833970800  0.7916718676416876
  0.7621962051284079  0.4310792868131070  0.4000089017649273
  0.5360252800942653  0.6547284141261530  0.6877512417613380
  0.5491532428985557  0.5286885874521503  0.2144957335109085
  0.6864138050394017  0.2215764208487488  0.0530910291714900
  0.0761340654624512  0.8504481472869514  0.9522008979774549
  0.7974748803638178  0.1318478215791277  0.9026038624221219
  0.4725634177808482  0.2574213782736009  0.9502466534708950
  0.6909338931901354  0.5627081014821792  0.7209063649918185
  0.3994308906373345  0.1988261996894461  0.7717834034749457
  0.1875031076388432  0.8090675616753150  0.5910095234385022
  0.1013301771353270  0.8934828285929942  0.6923312208969032
  0.0589489763905416  0.1249435808445110  0.2052753946635482
  0.7637805720312685  0.3106863342572732  0.8613225683238711
  0.8110903580093236  0.6512119990900849  0.6667565945985565
  0.3646330135390419  0.7070184698535006  0.6434110000201914
  0.5779778893245471  0.6720262891293546  0.0316654951711172
  0.2696481324238810  0.5016406366617415  0.0125965184377068
  0.3647366525813973  0.6635457031679419  0.7518745078406956
  0.9707213425325795  0.4367299891228033  0.3505865513584959
  0.5921062334092123  0.0637113682634333  0.0218130258935624
  0.4848009661270062  0.4362399693605586  0.3257584681095860
  0.3194076451997465  0.5675891108596668  0.3799250938485642
  0.8321933500710380  0.3113354815648747  0.3450474884660685
  0.6862297490545565  0.1285809930257005  0.4135919199543304
  0.0404960501497205  0.9422389621547538  0.0104394208408454
  0.0040907018688245  0.2765178973049877  0.0208822128736760
  0.9928593725129039  0.8715914951211491  0.1632242811495314
  0.0583276157146878  0.4308556571984309  0.5942205369162069
  0.2093760769533324  0.5864756536610275  0.6017489386086384
  0.4568102555029954  0.9402238127728637  0.8712762002226472
  0.7085375858076112  0.0158122891451486  0.7725234559573685
  0.5541895715761104  0.3726379777136841  0.1945038672948220
  0.4304107967058205  0.5922705996891759  0.3475463480513223
  0.6715354108520839  0.9756685471309072  0.1786491852585068
  0.9427278664106780  0.9198707819779132  0.5181516346225160
  0.3659903532601907  0.3423099473509247  0.6809595538921072
  0.3940815787236993  0.0097386783802919  0.2338637063197814
  0.7087282796745734  0.8869159907013773  0.5824504209500548
  0.3669062010344319  0.3381406513600345  0.1216036227701351
  0.1522378910355922  0.1320578802474123  0.0292266469776401
  0.0787090130622043  0.8806970293839748  0.3561905777074341
  0.6851779348762169  0.2461993362682934  0.4010242462540468
  0.7996759454913803  0.7457010836767998  0.4477330316923079
  0.5404775243369287  0.3935334152676778  0.0300834829290464
  0.9810138986126060  0.4879490482176488  0.8028084635341299
  0.1674682083479551  0.7748727170035754  0.9619106633798307
  0.6978875148586656  0.6313493955574475  0.0177181314785524
  0.9458298506386821  0.7233406139968763  0.0895418254793681
  0.2546180159422443  0.8222949681213344  0.3089953569497957
  0.0025193114430970  0.6129286786952116  0.8628316528251139
  0.1517434047778451  0.6688663616287683  0.0081290833467078
  0.2182929388865258  0.6226544416062983  0.8610548295793943
  0.7538733897052140  0.2212604898328582  0.7001333625953735
  0.1243237960192906  0.2513642612440022  0.7240256629785122
  0.2183681247191526  0.4097037619421494  0.4183780041666395
  0.1455912173356458  0.2668967068523789  0.9000201378465442
  0.3861518152133972  0.8136041676838914  0.1033666532718235
  0.9421554023847316  0.3158028028641969  0.5016317911974796
  0.7257828721651752  0.7499898312067346  0.0901669954744390
  0.4115354588081742  0.7819750613000745  0.9017108406236110
  0.2108973564045193  0.9016591440446552  0.4364192830912492
  0.7886782609133208  0.6208102482224743  0.4288128971032428
  0.5005944513735695  0.8575506239547424  0.6010542411896065
  0.2201777109952199  0.3784442277324651  0.1632755362886916
  0.0226175572566341  0.4061529656967981  0.9471243261500081
  0.3954500496501039  0.6834188231434166  0.0082882252797778
  0.4100594452190089  0.0185975709968379  0.5078349897926517
  0.1901433520517445  0.1424188156993894  0.3687300590754690
  0.5901927243378442  0.8850461854165594  0.6753923673667793
  0.9353226377823358  0.3660404147694092  0.0719719181330871
  0.3143143535740008  0.2317841274427708  0.6698744613942144
  0.0891677717406823  0.1831462707613199  0.3133168843756801
  0.0461862258522198  0.9794901693360113  0.1295491734717069
  0.3649509756612306  0.4620559955309836  0.0847820827380319
  0.4617893351760726  0.1248710395528014  0.3856308047055046
  0.7964774303460420  0.5253141871642719  0.6652868315356675
  0.3336220707194354  0.0720766504748375  0.6078346856528467
  0.2988128071631808  0.5299202372816444  0.8960054766318568
  0.7631811698513158  0.7440050555890403  0.6026682771151953
  0.0778591573376658  0.3830840960066607  0.7886842840545095
  0.9558440020635348  0.2623433625458145  0.2202428441422997
  0.8078251503104503  0.1972375661931228  0.3067585359623050
  0.0693293830639473  0.6565496633184509  0.3631818551609696
  0.4064711504305119  0.1670691522972987  0.1158489755132502
  0.6757225212096613  0.1232665753406428  0.7220522764174154
  0.7173497318983073  0.8413866470567909  0.7970806696642779
  0.4214003863405596  0.7241378645850592  0.3474498019239283
  0.2453426475966557  0.6595254541946483  0.3354366605705398
  0.4139247100135904  0.9381797181848032  0.9880263077745395
  0.6568789118690210  0.2632779643273772  0.6202959358843047
  0.3970051376268708  0.9192313749279430  0.6090339507937819
  0.5995153401958262  0.4264699512591441  0.6832804456222528
  0.6456616472226122  0.3302170323459581  0.0034336456899952
  0.6289195674032939  0.2604161410572319  0.8182887575930917
  0.0140243173813599  0.9641586679233140  0.4268952697870062
  0.5137737570687094  0.6491264322061254  0.4996341971318221
  0.8295551861252223  0.5895278362515437  0.1367164438237684
  0.3477542805410253  0.2811242610250659  0.9464166006921475
  0.0486413412239887  0.0703971660057829  0.6082750415345832
  0.6897357119335664  0.1522931237037750  0.9515359609442812
  0.2384605838711704  0.8674414735068053  0.0135780553845323
  0.4524839171485018  0.1242505260457124  0.9302184241377053
  0.2543999980187150  0.6036472930249033  0.7439122293986878
  0.9756764527144570  0.0703592937642294  0.7852928100086050
  0.4778266979440209  0.1053584645317080  0.7276728586673915
  0.0234504535241059  0.8117620766283252  0.2691255869186310
  0.2393810200565634  0.9148652868380629  0.8885674093628178
  0.8419521113186798  0.7359753344814799  0.1495143509476209
  0.6816558058000177  0.9730879564662687  0.0606216875682238
  0.0805925352991475  0.0533724786740730  0.9591830013113866
  0.0581768805537011  0.9110822512376570  0.8313307859994942
  0.2321295907974350  0.2276748082313209  0.8185430773666704
  0.1843074730017716  0.7026222574521537  0.1853596251224459
  0.7712702560228520  0.0702987207551223  0.2066384346995474
  0.9163513402729138  0.3448603892393802  0.8663684800028926
  0.3482282820164233  0.3647121592353668  0.4059084273268108
  0.4965870128238344  0.8500102888834797  0.4749420926072899
  0.5089392398742252  0.4201957073171113  0.9165644367244588
  0.8014296304849604  0.0122045313772220  0.8555639506533691
  0.9422407883994744  0.6862746175224119  0.9724758393018862
  0.2979128416316855  0.7574224899224899  0.5503552083801831
  0.8758858058341720  0.8944628523554594  0.1495143642059560
  0.4711180524035161  0.3133315116738592  0.3008718850975121
  0.6518047999631426  0.5829779302283609  0.9041166819529370
  0.1762202578154057  0.4507020285714841  0.6200680642382531
  0.9687480964493524  0.4382090700913869  0.2278984553004749
  0.4716559366528638  0.2763616872604555  0.6905969783264316
  0.1952857281833403  0.0672819843731082  0.4668640521126252
  0.5378761065761010  0.5650850935962728  0.4028071346781201
  0.0574671530487538  0.2056711558106333  0.8431463563054868
  0.7327381062838889  0.8520234984419029 -0.0024654735640386
  0.9361086359635425  0.2298853443282351  0.5912718802881639
  0.4168988929673687  0.6971919498850785  0.1507493982492919
  0.8167694040027028  0.1770476817297869  0.5996206237192451
  0.8390018789366004  0.0787709331170268  0.0942361045163192
  0.5985447932220539  0.0153955412155115  0.8207410342328360
  0.9976350598655781  0.8340878085677706  0.5857765849996825
  0.2232659586802335  0.9164184043760414  0.7393431129654177
  0.1804978441610120  0.3867594595153346  0.8968715658646532
  0.4811077632590971  0.7353225942866259  0.6123273038827296
  0.7051761954017660  0.5095611871386581  0.4713062601820798
  0.3262382829268659  0.0667852181073080  0.1251867889108401
  0.6080501955223577  0.1634904554042332  0.1271485616254202
  0.8695302175227568  0.6242850969429941  0.5280927265708916
  0.8361791981884593  0.1874350679733293  0.7992972572080753
  0.1398284177232967  0.7691480661932433  0.6996190589568609
  0.7324228063740401  0.7333936556595181  0.9341485148105204
  0.3286729210003839  0.8993554100046389  0.4087205141315832
  0.4853013715332599  0.5851190612695558  0.0075574760467007
  0.5718420954586519  0.2587846012901656  0.4536172751553014
  0.5759611904051001  0.9000783897019601  0.8743631005732111
  0.1450159973203778  0.7959153373734841  0.4162862510379580
  0.5281483893493399  0.7733922089148372  0.9545290286110772
  0.2487864753847414  0.7420072836622339  0.8719898308149870
  0.2616918774688333  0.2788504335401254  0.0955367680889112
  0.1184703749828178  0.5168112686086075  0.1387771838641390
  0.9212777964304276  0.9563770520578214  0.9761099902865455
  0.3587301831791024  0.8674503164692403  0.2135586017528991
  0.8880565443342983  0.4929254783625871  0.4251768962819593
  0.4292898437356081  0.5169203488610448  0.2436776613102209
  0.9783011611263646  0.5236317751327634  0.5707244247380913
  0.6799508807284229  0.8073722434110080  0.4472509920271836
  0.7831773012367902  0.2541560383235923  0.1247404087729713
  0.1675165850172789  0.4391236029978771  0.0428836052803156
  0.6532354313707811  0.2904967064314087  0.2851107676521003
  0.5788902759728628  0.7124314529080961  0.7874275238112233
  0.9843322202755530  0.1894699935691581  0.1177019192565043
  0.0779489852803670  0.6526886444673385  0.5359040185747382
  0.8572300152629763  0.6088700045914666  0.8276944922631073
  0.4487809911678753  0.1506212716023508  0.2556646970304588
  0.9227648510011832  0.0333705356604137  0.5606068825235133
  0.4789598280004937  0.2977388930807463  0.0836714957160045
  0.2941675648108329  0.1169233911392657  0.3081865281624549
  0.3969351503878852  0.2220707268425551  0.4990148345573702
  0.0797393329240248  0.5618648334507614  0.2755310641357164
  0.8865412258798895  0.8146363055741545  0.8422076808105855
  0.6727611920571226  0.9602390411323648  0.4290530460746585
  0.3661943231963278  0.5881819484476458  0.6037314302914127
  0.5910297506535732  0.4879155713292194  0.0988509535422149
  0.0758787763308381  0.5777995077879647  0.7430752568007133
  0.5623563397829836  0.0042328517446642  0.2282541824198880
  0.1288578989839954  0.2535655368072702  0.0234430619318120
  0.2382459358250686  0.2521034277422517  0.3988360017200681
  0.6242980735300151  0.5993335434167479  0.6252335353238443
  0.9538031589324799  0.3115903074400851  0.3751258349183857
  0.1662749173759500  0.1185487641587116  0.6673573669994455
  0.7582601937321602  0.9237552200554363  0.7062691100089518
  0.1202778427454252  0.5829607370491767  0.9216262720132083
  0.4910148688011074 -0.0057563990896345  0.1243085111880582
  0.8037468062148767  0.7695780998422332  0.3223651656685335
  0.3131985741641392  0.0692260303135678  0.7982348136174013
  0.0628785350591552  0.4847816052501151  0.4240931341191060
  0.7285823833505355  0.8924913174325713  0.2460248108828481
  0.7727763627145486  0.0380631090885888  0.3991990480453255
  0.7698578295180337  0.3194386614796335  0.4550185251240986
  0.6330133375277640  0.1136411415747652  0.2997226634693785
  0.6008692573506293  0.6366128798879501  0.2287598689672976
  0.9278926752486147  0.6980791157624135  0.6698029068317612
  0.7726971477959235  0.4406595817307293  0.9201025499305093
  0.2530766311050704  0.0936807181584987  0.9668183487103570
  0.9056924574328409  0.1440555735995691  0.9620908668523143
  0.2724147273197038  0.6240521828510704  0.0380572686729509
  0.6284559943824446  0.7277545795620758  0.3558521576775062
  0.5207646674795933  0.0901693114702184  0.5630176082891131
  0.9521416556904999  0.0737775113196128  0.2506991896846647
  0.0454819114596117  0.7933663268721541  0.0862134880595058
  0.2548632587336572  0.4844278643242009  0.3076645497954055
  0.3730571600185211  0.4202997730104080  0.5917482970217597
  0.0570700127185324  0.7332291444111035  0.8299135504800150
  0.5539622086180210  0.8153682161318028  0.1962423089504415
  0.8920374886226957  0.5986427362337227  0.3449695101822771
  0.8304135228179114  0.8729028430682847  0.5016648906649238
  0.9609437039494277  0.7483740364599478  0.4351740861961561
  0.7914511958731523  0.4107621136477956  0.2867980302107850
  0.8910009712031292  0.9313909122536146  0.3386177739787561
  0.8796942913191093  0.4118070810149678  0.5456748658190049
  0.4413706668104965  0.5715910459513736  0.7069482597069695
  0.1247394934374869  0.3457946004039905  0.2321352932928315
  0.6732237704075521  0.4043699341390740  0.1500585945850164
  0.4132836515056895  0.8497145747136209  0.7953618934372714
  0.4440113300621530  0.4582821382926867  0.4355513990207432
  0.1737321204342943  0.9506266774185524  0.3278185187305142
  0.3259568363087652  0.2968112939683918  0.2419673556948955
  0.3493975933393882  0.4087206891819897  0.7840010335150424
  0.7900708115822949  0.3434626473322749  0.7258964241719389
  0.7326475315988058  0.0191489599361462  0.5751839269996558
  0.5021119526965103  0.8705621848991973  0.0796581480617106
  0.1968213929958889  0.9312067460778868  0.5585203582685380
  0.0610218430247403  0.3246432450910658  0.5334564339260841
  0.9904428052155272  0.6282023873044581  0.1536988218688434
  0.9503804525285758  0.5199250774885626 -0.0156081550791973
  0.1726358181405841  0.1040452116823064  0.1499972623927579
  0.6011955671844487  0.4552573029388355  0.2966050247636264
  0.9858460436935552  0.4024395515117208  0.6956842039009362
  0.6289505541577249  0.4926343407026427  0.7982024484492121
  0.8130965381577002  0.4638234692925807  0.1009674510001976
  0.2518451958216613  0.5267696167635831  0.4790902496928771
  0.4088062844279807  0.6613048812994284  0.8696144676703162
  0.7469965349815179  0.6600784473326560  0.7754010323334618
  0.5482836226702215  0.2143779549048564  0.3298157543794881
  0.9773606132361342  0.5997725715350688  0.4513346918291217
  0.8696135665826095  0.1677208024396079  0.1927928950318872
  0.1564847022423282  0.8274659797844498  0.8223146713181407
  0.9350570428879013  0.5080297023476098  0.1205993094081376
  0.8864926809773568  0.7547515387291991  0.5461414784103863
  0.3724401159770792  0.2280734563283844  0.3551622931882610
  0.1668540658663939  0.5626446816641203  0.3795571448851479
  0.7021974119055902  0.1921530331045819  0.2117774503978366
  0.2871613058456900  0.1780661045413040  0.1881802533286135
  0.2010680430706130  0.5800825473121883  0.2259810290464895
  0.4240096656616514  0.1643160943401257  0.6205860883987261
  0.5433160202359724  0.6525093436064663  0.9073918546940797
  0.3377107244524788  0.1606858731299441  0.8856862429698945
  0.7686540495322252  0.8955284864375568  0.3736023560290485
 
  0.00000000E+00  0.00000000E+00  0.00000000E+00
  0.00000000E+00  0.00000000E+00  0.00000000E+00
  0.00000000E+00  0.00000000E+00  0.00000000E+00
  0.00000000E+00  0.00000000E+00  0.00000000E+00
  0.00000000E+00  0.00000000E+00  0.00000000E+00
  0.00000000E+00  0.00000000E+00  0.00000000E+00
  0.00000000E+00  0.00000000E+00  0.00000000E+00
  0.00000000E+00  0.00000000E+00  0.00000000E+00
  0.00000000E+00  0.00000000E+00  0.00000000E+00
  0.00000000E+00  0.00000000E+00  0.00000000E+00
  0.00000000E+00  0.00000000E+00  0.00000000E+00
  0.00000000E+00  0.00000000E+00  0.00000000E+00
  0.00000000E+00  0.00000000E+00  0.00000000E+00
  0.00000000E+00  0.00000000E+00  0.00000000E+00
  0.00000000E+00  0.00000000E+00  0.00000000E+00
  0.00000000E+00  0.00000000E+00  0.00000000E+00
  0.00000000E+00  0.00000000E+00  0.00000000E+00
  0.00000000E+00  0.00000000E+00  0.00000000E+00
  0.00000000E+00  0.00000000E+00  0.00000000E+00
  0.00000000E+00  0.00000000E+00  0.00000000E+00
  0.00000000E+00  0.00000000E+00  0.00000000E+00
  0.00000000E+00  0.00000000E+00  0.00000000E+00
  0.00000000E+00  0.00000000E+00  0.00000000E+00
  0.00000000E+00  0.00000000E+00  0.00000000E+00
  0.00000000E+00  0.00000000E+00  0.00000000E+00
  0.00000000E+00  0.00000000E+00  0.00000000E+00
  0.00000000E+00  0.00000000E+00  0.00000000E+00
  0.00000000E+00  0.00000000E+00  0.00000000E+00
  0.00000000E+00  0.00000000E+00  0.00000000E+00
  0.00000000E+00  0.00000000E+00  0.00000000E+00
  0.00000000E+00  0.00000000E+00  0.00000000E+00
  0.00000000E+00  0.00000000E+00  0.00000000E+00
  0.00000000E+00  0.00000000E+00  0.00000000E+00
  0.00000000E+00  0.00000000E+00  0.00000000E+00
  0.00000000E+00  0.00000000E+00  0.00000000E+00
  0.00000000E+00  0.00000000E+00  0.00000000E+00
  0.00000000E+00  0.00000000E+00  0.00000000E+00
  0.00000000E+00  0.00000000E+00  0.00000000E+00
  0.00000000E+00  0.00000000E+00  0.00000000E+00
  0.00000000E+00  0.00000000E+00  0.00000000E+00
  0.00000000E+00  0.00000000E+00  0.00000000E+00
  0.00000000E+00  0.00000000E+00  0.00000000E+00
  0.00000000E+00  0.00000000E+00  0.00000000E+00
  0.00000000E+00  0.00000000E+00  0.00000000E+00
  0.00000000E+00  0.00000000E+00  0.00000000E+00
  0.00000000E+00  0.00000000E+00  0.00000000E+00
  0.00000000E+00  0.00000000E+00  0.00000000E+00
  0.00000000E+00  0.00000000E+00  0.00000000E+00
  0.00000000E+00  0.00000000E+00  0.00000000E+00
  0.00000000E+00  0.00000000E+00  0.00000000E+00
  0.00000000E+00  0.00000000E+00  0.00000000E+00
  0.00000000E+00  0.00000000E+00  0.00000000E+00
  0.00000000E+00  0.00000000E+00  0.00000000E+00
  0.00000000E+00  0.00000000E+00  0.00000000E+00
  0.00000000E+00  0.00000000E+00  0.00000000E+00
  0.00000000E+00  0.00000000E+00  0.00000000E+00
  0.00000000E+00  0.00000000E+00  0.00000000E+00
  0.00000000E+00  0.00000000E+00  0.00000000E+00
  0.00000000E+00  0.00000000E+00  0.00000000E+00
  0.00000000E+00  0.00000000E+00  0.00000000E+00
  0.00000000E+00  0.00000000E+00  0.00000000E+00
  0.00000000E+00  0.00000000E+00  0.00000000E+00
  0.00000000E+00  0.00000000E+00  0.00000000E+00
  0.00000000E+00  0.00000000E+00  0.00000000E+00
  0.00000000E+00  0.00000000E+00  0.00000000E+00
  0.00000000E+00  0.00000000E+00  0.00000000E+00
  0.00000000E+00  0.00000000E+00  0.00000000E+00
  0.00000000E+00  0.00000000E+00  0.00000000E+00
  0.00000000E+00  0.00000000E+00  0.00000000E+00
  0.00000000E+00  0.00000000E+00  0.00000000E+00
  0.00000000E+00  0.00000000E+00  0.00000000E+00
  0.00000000E+00  0.00000000E+00  0.00000000E+00
  0.00000000E+00  0.00000000E+00  0.00000000E+00
  0.00000000E+00  0.00000000E+00  0.00000000E+00
  0.00000000E+00  0.00000000E+00  0.00000000E+00
  0.00000000E+00  0.00000000E+00  0.00000000E+00
  0.00000000E+00  0.00000000E+00  0.00000000E+00
  0.00000000E+00  0.00000000E+00  0.00000000E+00
  0.00000000E+00  0.00000000E+00  0.00000000E+00
  0.00000000E+00  0.00000000E+00  0.00000000E+00
  0.00000000E+00  0.00000000E+00  0.00000000E+00
  0.00000000E+00  0.00000000E+00  0.00000000E+00
  0.00000000E+00  0.00000000E+00  0.00000000E+00
  0.00000000E+00  0.00000000E+00  0.00000000E+00
  0.00000000E+00  0.00000000E+00  0.00000000E+00
  0.00000000E+00  0.00000000E+00  0.00000000E+00
  0.00000000E+00  0.00000000E+00  0.00000000E+00
  0.00000000E+00  0.00000000E+00  0.00000000E+00
  0.00000000E+00  0.00000000E+00  0.00000000E+00
  0.00000000E+00  0.00000000E+00  0.00000000E+00
  0.00000000E+00  0.00000000E+00  0.00000000E+00
  0.00000000E+00  0.00000000E+00  0.00000000E+00
  0.00000000E+00  0.00000000E+00  0.00000000E+00
  0.00000000E+00  0.00000000E+00  0.00000000E+00
  0.00000000E+00  0.00000000E+00  0.00000000E+00
  0.00000000E+00  0.00000000E+00  0.00000000E+00
  0.00000000E+00  0.00000000E+00  0.00000000E+00
  0.00000000E+00  0.00000000E+00  0.00000000E+00
  0.00000000E+00  0.00000000E+00  0.00000000E+00
  0.00000000E+00  0.00000000E+00  0.00000000E+00
  0.00000000E+00  0.00000000E+00  0.00000000E+00
  0.00000000E+00  0.00000000E+00  0.00000000E+00
  0.00000000E+00  0.00000000E+00  0.00000000E+00
  0.00000000E+00  0.00000000E+00  0.00000000E+00
  0.00000000E+00  0.00000000E+00  0.00000000E+00
  0.00000000E+00  0.00000000E+00  0.00000000E+00
  0.00000000E+00  0.00000000E+00  0.00000000E+00
  0.00000000E+00  0.00000000E+00  0.00000000E+00
  0.00000000E+00  0.00000000E+00  0.00000000E+00
  0.00000000E+00  0.00000000E+00  0.00000000E+00
  0.00000000E+00  0.00000000E+00  0.00000000E+00
  0.00000000E+00  0.00000000E+00  0.00000000E+00
  0.00000000E+00  0.00000000E+00  0.00000000E+00
  0.00000000E+00  0.00000000E+00  0.00000000E+00
  0.00000000E+00  0.00000000E+00  0.00000000E+00
  0.00000000E+00  0.00000000E+00  0.00000000E+00
  0.00000000E+00  0.00000000E+00  0.00000000E+00
  0.00000000E+00  0.00000000E+00  0.00000000E+00
  0.00000000E+00  0.00000000E+00  0.00000000E+00
  0.00000000E+00  0.00000000E+00  0.00000000E+00
  0.00000000E+00  0.00000000E+00  0.00000000E+00
  0.00000000E+00  0.00000000E+00  0.00000000E+00
  0.00000000E+00  0.00000000E+00  0.00000000E+00
  0.00000000E+00  0.00000000E+00  0.00000000E+00
  0.00000000E+00  0.00000000E+00  0.00000000E+00
  0.00000000E+00  0.00000000E+00  0.00000000E+00
  0.00000000E+00  0.00000000E+00  0.00000000E+00
  0.00000000E+00  0.00000000E+00  0.00000000E+00
  0.00000000E+00  0.00000000E+00  0.00000000E+00
  0.00000000E+00  0.00000000E+00  0.00000000E+00
  0.00000000E+00  0.00000000E+00  0.00000000E+00
  0.00000000E+00  0.00000000E+00  0.00000000E+00
  0.00000000E+00  0.00000000E+00  0.00000000E+00
  0.00000000E+00  0.00000000E+00  0.00000000E+00
  0.00000000E+00  0.00000000E+00  0.00000000E+00
  0.00000000E+00  0.00000000E+00  0.00000000E+00
  0.00000000E+00  0.00000000E+00  0.00000000E+00
  0.00000000E+00  0.00000000E+00  0.00000000E+00
  0.00000000E+00  0.00000000E+00  0.00000000E+00
  0.00000000E+00  0.00000000E+00  0.00000000E+00
  0.00000000E+00  0.00000000E+00  0.00000000E+00
  0.00000000E+00  0.00000000E+00  0.00000000E+00
  0.00000000E+00  0.00000000E+00  0.00000000E+00
  0.00000000E+00  0.00000000E+00  0.00000000E+00
  0.00000000E+00  0.00000000E+00  0.00000000E+00
  0.00000000E+00  0.00000000E+00  0.00000000E+00
  0.00000000E+00  0.00000000E+00  0.00000000E+00
  0.00000000E+00  0.00000000E+00  0.00000000E+00
  0.00000000E+00  0.00000000E+00  0.00000000E+00
  0.00000000E+00  0.00000000E+00  0.00000000E+00
  0.00000000E+00  0.00000000E+00  0.00000000E+00
  0.00000000E+00  0.00000000E+00  0.00000000E+00
  0.00000000E+00  0.00000000E+00  0.00000000E+00
  0.00000000E+00  0.00000000E+00  0.00000000E+00
  0.00000000E+00  0.00000000E+00  0.00000000E+00
  0.00000000E+00  0.00000000E+00  0.00000000E+00
  0.00000000E+00  0.00000000E+00  0.00000000E+00
  0.00000000E+00  0.00000000E+00  0.00000000E+00
  0.00000000E+00  0.00000000E+00  0.00000000E+00
  0.00000000E+00  0.00000000E+00  0.00000000E+00
  0.00000000E+00  0.00000000E+00  0.00000000E+00
  0.00000000E+00  0.00000000E+00  0.00000000E+00
  0.00000000E+00  0.00000000E+00  0.00000000E+00
  0.00000000E+00  0.00000000E+00  0.00000000E+00
  0.00000000E+00  0.00000000E+00  0.00000000E+00
  0.00000000E+00  0.00000000E+00  0.00000000E+00
  0.00000000E+00  0.00000000E+00  0.00000000E+00
  0.00000000E+00  0.00000000E+00  0.00000000E+00
  0.00000000E+00  0.00000000E+00  0.00000000E+00
  0.00000000E+00  0.00000000E+00  0.00000000E+00
  0.00000000E+00  0.00000000E+00  0.00000000E+00
  0.00000000E+00  0.00000000E+00  0.00000000E+00
  0.00000000E+00  0.00000000E+00  0.00000000E+00
  0.00000000E+00  0.00000000E+00  0.00000000E+00
  0.00000000E+00  0.00000000E+00  0.00000000E+00
  0.00000000E+00  0.00000000E+00  0.00000000E+00
  0.00000000E+00  0.00000000E+00  0.00000000E+00
  0.00000000E+00  0.00000000E+00  0.00000000E+00
  0.00000000E+00  0.00000000E+00  0.00000000E+00
  0.00000000E+00  0.00000000E+00  0.00000000E+00
  0.00000000E+00  0.00000000E+00  0.00000000E+00
  0.00000000E+00  0.00000000E+00  0.00000000E+00
  0.00000000E+00  0.00000000E+00  0.00000000E+00
  0.00000000E+00  0.00000000E+00  0.00000000E+00
  0.00000000E+00  0.00000000E+00  0.00000000E+00
  0.00000000E+00  0.00000000E+00  0.00000000E+00
  0.00000000E+00  0.00000000E+00  0.00000000E+00
  0.00000000E+00  0.00000000E+00  0.00000000E+00
  0.00000000E+00  0.00000000E+00  0.00000000E+00
  0.00000000E+00  0.00000000E+00  0.00000000E+00
  0.00000000E+00  0.00000000E+00  0.00000000E+00
  0.00000000E+00  0.00000000E+00  0.00000000E+00
  0.00000000E+00  0.00000000E+00  0.00000000E+00
  0.00000000E+00  0.00000000E+00  0.00000000E+00
  0.00000000E+00  0.00000000E+00  0.00000000E+00
  0.00000000E+00  0.00000000E+00  0.00000000E+00
  0.00000000E+00  0.00000000E+00  0.00000000E+00
  0.00000000E+00  0.00000000E+00  0.00000000E+00
  0.00000000E+00  0.00000000E+00  0.00000000E+00
  0.00000000E+00  0.00000000E+00  0.00000000E+00
  0.00000000E+00  0.00000000E+00  0.00000000E+00
  0.00000000E+00  0.00000000E+00  0.00000000E+00
  0.00000000E+00  0.00000000E+00  0.00000000E+00
  0.00000000E+00  0.00000000E+00  0.00000000E+00
  0.00000000E+00  0.00000000E+00  0.00000000E+00
  0.00000000E+00  0.00000000E+00  0.00000000E+00
  0.00000000E+00  0.00000000E+00  0.00000000E+00
  0.00000000E+00  0.00000000E+00  0.00000000E+00
  0.00000000E+00  0.00000000E+00  0.00000000E+00
  0.00000000E+00  0.00000000E+00  0.00000000E+00
  0.00000000E+00  0.00000000E+00  0.00000000E+00
  0.00000000E+00  0.00000000E+00  0.00000000E+00
  0.00000000E+00  0.00000000E+00  0.00000000E+00
  0.00000000E+00  0.00000000E+00  0.00000000E+00
  0.00000000E+00  0.00000000E+00  0.00000000E+00
  0.00000000E+00  0.00000000E+00  0.00000000E+00
  0.00000000E+00  0.00000000E+00  0.00000000E+00
  0.00000000E+00  0.00000000E+00  0.00000000E+00
  0.00000000E+00  0.00000000E+00  0.00000000E+00
  0.00000000E+00  0.00000000E+00  0.00000000E+00
  0.00000000E+00  0.00000000E+00  0.00000000E+00
  0.00000000E+00  0.00000000E+00  0.00000000E+00
  0.00000000E+00  0.00000000E+00  0.00000000E+00
  0.00000000E+00  0.00000000E+00  0.00000000E+00
  0.00000000E+00  0.00000000E+00  0.00000000E+00
  0.00000000E+00  0.00000000E+00  0.00000000E+00
  0.00000000E+00  0.00000000E+00  0.00000000E+00
  0.00000000E+00  0.00000000E+00  0.00000000E+00
  0.00000000E+00  0.00000000E+00  0.00000000E+00
  0.00000000E+00  0.00000000E+00  0.00000000E+00
  0.00000000E+00  0.00000000E+00  0.00000000E+00
  0.00000000E+00  0.00000000E+00  0.00000000E+00