In2O3 structure 36 - random placement wi
   1.00000000000000     
     8.0833416545803960   -0.0005717267648204   -0.0031606598613621
    -0.0007262132595540    8.0165765963188420    0.0808520506227453
    -0.0031618555323643    0.0806844004111959    8.0122385068109914
   In   O 
    16    24
Direct
  0.9212149084063969  0.9433372245668388  0.1979928881626888
  0.4212304567507530  0.4158171767591520  0.6654845062809198
  0.9211993145830955  0.9459604734667547  0.6956561425361572
  0.9209352899792003  0.4460589600719836  0.1956095553898204
  0.6487392428630586  0.1957984836421267  0.4455827645466116
  0.9210179395364801  0.4434396093706506  0.6980560538424960
  0.6488287159761846  0.1934938774153385  0.9480565529099872
  0.4212198748017533  0.4137993378526488  0.1679185201667186
  0.4213670421563213  0.9161873684579028  0.1656604569753235
  0.6484684672734041  0.6959113012636275  0.9455465945936320
  0.1488485867210736  0.1659217538798864  0.9156526136631377
  0.1486149353642503  0.6634903220478303  0.9177776146399041
  0.1484578287853789  0.1638026145910656  0.4178138747113641
  0.6486768507778823  0.6935465311687030  0.4481957957175273
  0.1488331788438602  0.6659141499500998  0.4155683277267067
  0.4211125670916244  0.9137484392811884  0.6678635746367928
  0.5351021081621697  0.9496574045377165  0.9116480745327793
  0.6849992234518978  0.9480117601646697  0.5605328879967593
  0.0349928380329649  0.4097646701837537  0.9516546995105434
  0.6849058280215469  0.4479876978167671  0.0601764225757773
  0.8841200949517574  0.6979983871368025  0.8100748198168000
  0.8842817528702387  0.1980576840155125  0.3099382940303317
  0.3847194913741889  0.8007398508711375  0.4130759301203009
  0.3845764544387835  0.6616226547728991  0.0529744190059967
  0.1849437354225644  0.0509925977518595  0.1632549843746452
  0.3844431409218772  0.1613338088782348  0.5527725272296972
  0.0352515949483624  0.9098350110022237  0.4516900702894995
  0.6849957994604555  0.8083860811247131  0.2000288344160145
  0.1847366476328613  0.9111295283348102  0.8028992374932419
  0.6848370179264419  0.3082819477882767  0.6998589426753796
  0.8848104646696202  0.0584673009625435  0.9501942188957806
  0.0348895992057215  0.1995861845377390  0.6617094535600656
  0.5350920681964298  0.4495653297665820  0.4116272027377054
  0.5345272400589053  0.6597342176054810  0.7015112640385104
  0.1848237675513429  0.5506099932643563  0.6631432580845548
  0.0350171580549018  0.6995338750183702  0.1616505981852716
  0.1848121541069996  0.4113493112789512  0.3028516803338109
  0.5349114541097482  0.1598520466586248  0.2016477023387964
  0.8846647500182424  0.5585366426620940  0.4502196218714943
  0.3848056622663598  0.3006516926226883  0.9131349208315127
 
  0.00000000E+00  0.00000000E+00  0.00000000E+00
  0.00000000E+00  0.00000000E+00  0.00000000E+00
  0.00000000E+00  0.00000000E+00  0.00000000E+00
  0.00000000E+00  0.00000000E+00  0.00000000E+00
  0.00000000E+00  0.00000000E+00  0.00000000E+00
  0.00000000E+00  0.00000000E+00  0.00000000E+00
  0.00000000E+00  0.00000000E+00  0.00000000E+00
  0.00000000E+00  0.00000000E+00  0.00000000E+00
  0.00000000E+00  0.00000000E+00  0.00000000E+00
  0.00000000E+00  0.00000000E+00  0.00000000E+00
  0.00000000E+00  0.00000000E+00  0.00000000E+00
  0.00000000E+00  0.00000000E+00  0.00000000E+00
  0.00000000E+00  0.00000000E+00  0.00000000E+00
  0.00000000E+00  0.00000000E+00  0.00000000E+00
  0.00000000E+00  0.00000000E+00  0.00000000E+00
  0.00000000E+00  0.00000000E+00  0.00000000E+00
  0.00000000E+00  0.00000000E+00  0.00000000E+00
  0.00000000E+00  0.00000000E+00  0.00000000E+00
  0.00000000E+00  0.00000000E+00  0.00000000E+00
  0.00000000E+00  0.00000000E+00  0.00000000E+00
  0.00000000E+00  0.00000000E+00  0.00000000E+00
  0.00000000E+00  0.00000000E+00  0.00000000E+00
  0.00000000E+00  0.00000000E+00  0.00000000E+00
  0.00000000E+00  0.00000000E+00  0.00000000E+00
  0.00000000E+00  0.00000000E+00  0.00000000E+00
  0.00000000E+00  0.00000000E+00  0.00000000E+00
  0.00000000E+00  0.00000000E+00  0.00000000E+00
  0.00000000E+00  0.00000000E+00  0.00000000E+00
  0.00000000E+00  0.00000000E+00  0.00000000E+00
  0.00000000E+00  0.00000000E+00  0.00000000E+00
  0.00000000E+00  0.00000000E+00  0.00000000E+00
  0.00000000E+00  0.00000000E+00  0.00000000E+00
  0.00000000E+00  0.00000000E+00  0.00000000E+00
  0.00000000E+00  0.00000000E+00  0.00000000E+00
  0.00000000E+00  0.00000000E+00  0.00000000E+00
  0.00000000E+00  0.00000000E+00  0.00000000E+00
  0.00000000E+00  0.00000000E+00  0.00000000E+00
  0.00000000E+00  0.00000000E+00  0.00000000E+00
  0.00000000E+00  0.00000000E+00  0.00000000E+00
  0.00000000E+00  0.00000000E+00  0.00000000E+00
