SYSTEM = M0_rho_a stage4 NVT 300K (Nose-Hoover, XDATCAR snapshots)
ISTART = 0
ICHARG = 2
ENCUT  = 300
PREC   = Normal
EDIFF  = 1E-05
EDIFFG = 1E-04
LREAL  = A
ALGO   = VeryFast
ISMEAR = 0
SIGMA  = 0.05
ISIF   = 2
IBRION = 0
NSW    = 3000
POTIM  = 3.0
TEBEG  = 300
TEEND  = 300
SMASS  = 0
ISYM   = 0
NBLOCK = 10
LWAVE  = .FALSE.
LCHARG = .FALSE.
LVTOT  = .FALSE.
LELF   = .FALSE.
NCORE  = 16
