Sb6 Te3                                 
   1.00000000000000     
    12.9836083578258012   -0.0089504612239758   -0.0897957038006764
    -6.4995390263620099   11.3136334060614203    0.1552440322154836
    -0.1229772341352132    0.1748357555002225   17.2809542871752235
   Sb   Te   Ag   In
    49    24     4     4
Direct
  0.2324908750506308  0.1312503222272169  0.1092524979246410
  0.2285152223477752  0.4323395773797148  0.1079804249936832
  0.2315618638227520  0.7781117291527738  0.1207862581570550
  0.5349672125852035  0.4326902092627447  0.1011210667088901
  0.5458126909012053  0.0958606196359144  0.1223594386190135
  0.8847628587863804  0.1048614044077109  0.1093523207270928
  0.8879711026479824  0.4407529356147724  0.1113801345618246
  0.8855868210533970  0.7738305927848699  0.1127040428395220
  0.0014503752929804 -0.0001343910790412  0.3422547065104604
 -0.0051026532441721  0.3391694820775329  0.3492370379439748
  0.0008786663856117  0.6663136581575378  0.3435297415584010
  0.3369495783858150 -0.0028093598897634  0.3427493200330081
  0.6555275014180848 -0.0057971457663500  0.3410583227654013
  0.3378828230136562  0.6820081626035738  0.3413175673588203
  0.6731456849849783  0.3372020457240921  0.3494463862442236
  0.6676687672352397  0.6697946618551265  0.3449752558238320
  0.2207297682656779  0.4516194825234757  0.4309666321549794
  0.2242115551559633  0.7776401410917596  0.4381534677214949
  0.2239266179287799  0.1052597591858362  0.4293988838523587
  0.5552411027986125  0.1051282036470671  0.4363116640505100
  0.5627673358069452  0.4465913134052477  0.4325373303839818
  0.5533006376540117  0.7757099120928321  0.4375890033029264
  0.8860903578978657  0.1036338505796383  0.4317362801532293
  0.8901631058188442  0.7770654127597095  0.4333688714838511
  0.1118387380708419  0.2301813525408244  0.5579989891587556
  0.4624854805261914  0.5668213167308850  0.5718902181041297
  0.4439113233482463  0.2268676005588231  0.5627062214415653
  0.1144535361025149  0.8971736954148319  0.5658135884908398
  0.1095577493980291  0.5577754223955781  0.5629037953882200
  0.7759732976403615  0.8798009402467258  0.5699548768028500
  0.8001144350385345  0.5375369683197836  0.5410720678203235
  0.7829071659508982  0.2305673179267236  0.5619934164910767
  0.0000166153400413  0.0081304513499339  0.6526721798997309
 -0.0000134920120801  0.3280946810453241  0.6558904710893605
 -0.0011109300408829  0.6670734557695277  0.6515739907521565
  0.3358754304011846  0.6625915886591086  0.6503643506958958
  0.3341205969548220  0.3364672513190244  0.6503203606433292
  0.3352259155161865  0.0066784930230045  0.6546427262815522
  0.6692765010847650  0.3358042110077194  0.6505926863792952
  0.6874575937239766  0.0072271343181881  0.6553258102374804
  0.4375075723873648  0.5425383264398456  0.8918173359131339
  0.4428327283256606  0.8898751662423033  0.8893186321950715
  0.7776403956260686  0.2227236200165845  0.8833948443664962
  0.7770219789978448  0.8885690404230586  0.8841311661432162
  0.7721294627572551  0.5556208982501523  0.8925013489141732
  0.1270832710327469  0.2290388765107756  0.8870308741715672
  0.1109878559422333  0.5551266463272202  0.8893792223912518
  0.4395870803867595  0.2295113465115007  0.8928712335375920
  0.1112697677577314  0.8899916845053891  0.8882018404901811
  0.0004083608580728 -0.0003793714352599  0.0013020981484005
 -0.0009248717099858  0.3318328011172419  0.0005288283056246
  0.0049697882966023  0.6701568655016438  0.0021027023262140
  0.3300097477806511  0.0035375394237658 -0.0044019276733191
  0.6633052855347746 -0.0018503897619116  0.0029897730870537
  0.3330084712963371  0.6638834577777941 -0.0011791714144151
  0.6561719411834779  0.3289502369249866  0.0016842026212151
  0.6579343001538601  0.6630996393771302  0.0047652079716155
  0.1174440760867871  0.2216994996147167  0.2138563890918726
  0.1113666912621946  0.5457896120908824  0.2079890249005264
  0.1074610979572551  0.8711359457770185  0.2166008262290119
  0.4481329947207682  0.2203070205405635  0.2168904722307735
  0.4354937286224792  0.5360806561456146  0.2157976848086358
  0.7755218250345947  0.2163580083495754  0.2104681700798456
  0.7826726954610197  0.8873111385539767  0.2103380269040470
  0.7720463953337233  0.5461874302947554  0.2092212516095527
  0.8707365156995380  0.7742019365928005  0.7824123702845639
  0.5563798997777070  0.1192205008648910  0.7927240924661320
  0.5616560881657752  0.4645980639024713  0.7817012712515625
  0.5540791646743681  0.7807109480624189  0.7909926067876022
  0.8852779908747834  0.4484306877555349  0.7902426806843386
  0.2225585792355493  0.4493142850052874  0.7862576620063215
  0.2198202553642604  0.7803956339759810  0.7892782657149415
  0.2230039673570537  0.1140661002994738  0.7867086715888221
  0.3282969099411950  0.3288864925495060 -0.0037235623800527
  0.4377547724111259  0.8874495544923687  0.2251017923209210
  0.8932686722829419  0.4374694603410847  0.4414490666202279
  0.6642889300058087  0.6750287699388652  0.6725914971101148
  0.5399967445021349  0.7836480614997196  0.1229503410259593
  0.3315799590961941  0.3395419440744348  0.3443699964321620
  0.4520479494117967  0.8978268816542792  0.5700906966265080
  0.8895818780756078  0.1152312704115240  0.7839702235607837
 
  0.00000000E+00  0.00000000E+00  0.00000000E+00
  0.00000000E+00  0.00000000E+00  0.00000000E+00
  0.00000000E+00  0.00000000E+00  0.00000000E+00
  0.00000000E+00  0.00000000E+00  0.00000000E+00
  0.00000000E+00  0.00000000E+00  0.00000000E+00
  0.00000000E+00  0.00000000E+00  0.00000000E+00
  0.00000000E+00  0.00000000E+00  0.00000000E+00
  0.00000000E+00  0.00000000E+00  0.00000000E+00
  0.00000000E+00  0.00000000E+00  0.00000000E+00
  0.00000000E+00  0.00000000E+00  0.00000000E+00
  0.00000000E+00  0.00000000E+00  0.00000000E+00
  0.00000000E+00  0.00000000E+00  0.00000000E+00
  0.00000000E+00  0.00000000E+00  0.00000000E+00
  0.00000000E+00  0.00000000E+00  0.00000000E+00
  0.00000000E+00  0.00000000E+00  0.00000000E+00
  0.00000000E+00  0.00000000E+00  0.00000000E+00
  0.00000000E+00  0.00000000E+00  0.00000000E+00
  0.00000000E+00  0.00000000E+00  0.00000000E+00
  0.00000000E+00  0.00000000E+00  0.00000000E+00
  0.00000000E+00  0.00000000E+00  0.00000000E+00
  0.00000000E+00  0.00000000E+00  0.00000000E+00
  0.00000000E+00  0.00000000E+00  0.00000000E+00
  0.00000000E+00  0.00000000E+00  0.00000000E+00
  0.00000000E+00  0.00000000E+00  0.00000000E+00
  0.00000000E+00  0.00000000E+00  0.00000000E+00
  0.00000000E+00  0.00000000E+00  0.00000000E+00
  0.00000000E+00  0.00000000E+00  0.00000000E+00
  0.00000000E+00  0.00000000E+00  0.00000000E+00
  0.00000000E+00  0.00000000E+00  0.00000000E+00
  0.00000000E+00  0.00000000E+00  0.00000000E+00
  0.00000000E+00  0.00000000E+00  0.00000000E+00
  0.00000000E+00  0.00000000E+00  0.00000000E+00
  0.00000000E+00  0.00000000E+00  0.00000000E+00
  0.00000000E+00  0.00000000E+00  0.00000000E+00
  0.00000000E+00  0.00000000E+00  0.00000000E+00
  0.00000000E+00  0.00000000E+00  0.00000000E+00
  0.00000000E+00  0.00000000E+00  0.00000000E+00
  0.00000000E+00  0.00000000E+00  0.00000000E+00
  0.00000000E+00  0.00000000E+00  0.00000000E+00
  0.00000000E+00  0.00000000E+00  0.00000000E+00
  0.00000000E+00  0.00000000E+00  0.00000000E+00
  0.00000000E+00  0.00000000E+00  0.00000000E+00
  0.00000000E+00  0.00000000E+00  0.00000000E+00
  0.00000000E+00  0.00000000E+00  0.00000000E+00
  0.00000000E+00  0.00000000E+00  0.00000000E+00
  0.00000000E+00  0.00000000E+00  0.00000000E+00
  0.00000000E+00  0.00000000E+00  0.00000000E+00
  0.00000000E+00  0.00000000E+00  0.00000000E+00
  0.00000000E+00  0.00000000E+00  0.00000000E+00
  0.00000000E+00  0.00000000E+00  0.00000000E+00
  0.00000000E+00  0.00000000E+00  0.00000000E+00
  0.00000000E+00  0.00000000E+00  0.00000000E+00
  0.00000000E+00  0.00000000E+00  0.00000000E+00
  0.00000000E+00  0.00000000E+00  0.00000000E+00
  0.00000000E+00  0.00000000E+00  0.00000000E+00
  0.00000000E+00  0.00000000E+00  0.00000000E+00
  0.00000000E+00  0.00000000E+00  0.00000000E+00
  0.00000000E+00  0.00000000E+00  0.00000000E+00
  0.00000000E+00  0.00000000E+00  0.00000000E+00
  0.00000000E+00  0.00000000E+00  0.00000000E+00
  0.00000000E+00  0.00000000E+00  0.00000000E+00
  0.00000000E+00  0.00000000E+00  0.00000000E+00
  0.00000000E+00  0.00000000E+00  0.00000000E+00
  0.00000000E+00  0.00000000E+00  0.00000000E+00
  0.00000000E+00  0.00000000E+00  0.00000000E+00
  0.00000000E+00  0.00000000E+00  0.00000000E+00
  0.00000000E+00  0.00000000E+00  0.00000000E+00
  0.00000000E+00  0.00000000E+00  0.00000000E+00
  0.00000000E+00  0.00000000E+00  0.00000000E+00
  0.00000000E+00  0.00000000E+00  0.00000000E+00
  0.00000000E+00  0.00000000E+00  0.00000000E+00
  0.00000000E+00  0.00000000E+00  0.00000000E+00
  0.00000000E+00  0.00000000E+00  0.00000000E+00
  0.00000000E+00  0.00000000E+00  0.00000000E+00
  0.00000000E+00  0.00000000E+00  0.00000000E+00
  0.00000000E+00  0.00000000E+00  0.00000000E+00
  0.00000000E+00  0.00000000E+00  0.00000000E+00
  0.00000000E+00  0.00000000E+00  0.00000000E+00
  0.00000000E+00  0.00000000E+00  0.00000000E+00
  0.00000000E+00  0.00000000E+00  0.00000000E+00
  0.00000000E+00  0.00000000E+00  0.00000000E+00
