Amorphous InTe3                         
   1.00000000000000     
    22.1628235405677252    0.0000000000000000    0.0000000000000000
     0.0000000000000000   22.1628235405677252    0.0000000000000000
     0.0000000000000000    0.0000000000000000   22.1628235405677252
   In   Te
    70   210
Direct
  0.5478733307163818  0.6505744572684091  0.0786112605850765
  0.8065173934589033  0.5120285687638685  0.9056694088663829
  0.4463635145139183  0.0642922696248313  0.4945016082595833
  0.6781767464578335  0.2014251115952189  0.0593381951248062
  0.8659416964343674  0.2897685497825077  0.1754346087748229
  0.9911619854857421  0.4830850999089413  0.4761193918716122
  0.1645473792057048  0.6027470950327274  0.5007639659500301
  0.5760531520727359  0.9937701366326731  0.7328124164333705
  0.3899602847873857  0.6359147464179127  0.6311190339558044
  0.8069051192108208  0.8096978431382542  0.4859067284740763
  0.7231851421094595  0.1505817692884391  0.8501725227018552
  0.4536386030820523  0.7926698721856404  0.5364442249951240
  0.7278772217130629  0.0548806435458666  0.5853199436744406
  0.8928713524033436  0.0980906539773392  0.7685167359917959
  0.4298995381124187  0.5208483347556310  0.9539327773235221
  0.3468415849168295  0.8023687586199771  0.8710092499558508
  0.6829489927442753  0.5964574415649631  0.7167701803431270
  0.5448429160482759  0.3983620842521554  0.8666214906099522
  0.3380064289652617  0.3371150693377098  0.6555401778047406
  0.8411112476530129  0.6305359078865108  0.4089009944501124
  0.0070940167617073  0.1648783067123605  0.8752764269198005
  0.9512030729465983  0.7131698758810140  0.8957838196537561
  0.2043109477938032  0.9382733506524811  0.1043386116382168
  0.6337829452261474  0.3043989665164989  0.1824964525782077
  0.1414932773235151  0.3018988648810926  0.2185874006478690
  0.5217408453758789  0.0063781880248486  0.3991691100050753
  0.0930299427949050  0.6197678779335561  0.0356727603624695
  0.2763073019699814  0.4430322727710803  0.8797286912782672
  0.5140267838701436  0.8747619501079117  0.8802698539920556
  0.3010892064215315  0.7334419816874629  0.3812305304961204
  0.3331058031185039  0.1871571970068726  0.3583303048774651
  0.0431352045159843  0.9299036501479222  0.7387775497997475
  0.5302139233199475  0.5894820079927797  0.2519661354416421
  0.6745038349366191  0.7980150625969638  0.8395388665327587
  0.2109501479654191  0.7628928165108856  0.6913830669981946
  0.1719181778587838  0.8033794709530018  0.8478803457661164
  0.1808665437013933  0.2868419135365152  0.0798243785861448
  0.8627036607024836  0.1834317672989035  0.9918292137274268
  0.1980697322947378  0.7482848164673045  0.2236695629178789
  0.1025705515899581  0.0166434208020971  0.9682445336228012
  0.5462165260422187  0.9606291374348491  0.2256780668778259
  0.4020999391525022  0.5983267178222951  0.2676747090021431
  0.0488729258528931  0.0941299476155426  0.6041101749426566
  0.5095402915487904  0.1567196701373254  0.3342354209952274
  0.4591808191427688  0.5024350397284438  0.4907338616192267
  0.8458732606163757  0.4060030330713149  0.3578748327976383
  0.4732109592207314  0.7424085439491859  0.3287944980934546
  0.1920431070013096  0.9548941266972020  0.6396512353905555
  0.7635866343858067  0.9208784676325198  0.3112925500028606
  0.4742080264506010  0.1989813984406769  0.6125296198838805
  0.3341018771585213  0.0797483460966136  0.8238538106119038
  0.8460783265598616  0.9491291235085191  0.8622261651420444
  0.6229772269230613  0.5775042658850102  0.9196442522204534
  0.1595438183468664  0.9843355409686948  0.3759955168694796
  0.5993019312078619  0.8355351499962622  0.0558517794498962
  0.9546731790293452  0.0325483791940152  0.4586897953425631
  0.1467433706483350  0.4823013796310024  0.7204240866682310
  0.9689807372241577  0.2782492462907447  0.6237001663636376
  0.2592962699219791  0.3133780522440109  0.9286617649877017
  0.9204244077560741  0.8352492941051001  0.6477269485757992
  0.7040959830062753  0.4132723129937903  0.6113422832304491
  0.6127982499027634  0.9291934115059470  0.5561505171827552
  0.8800926019951371  0.4729362588360619  0.6844606338782890
  0.3597718341988677  0.2244662956880162  0.0737060820549858
  0.8536544803819693  0.7462685267756056  0.0912464843898034
  0.9861765466676091  0.4635329854373222  0.1087053356527851
  0.7228989086551119  0.2388017668487207  0.5387648138261045
  0.1246884546564757  0.3073972832997945  0.9268636179664975
  0.8515818412979168  0.0040638196094286  0.1669058183393956
  0.5398592876334282  0.3058100591126446  0.4511685139192142
  0.8128194269627785  0.2469044051962783  0.8767866965214016
  0.2487893836498902  0.1860556811381339  0.1785427264110535
  0.2681746390080680  0.1921895834748792  0.5144012558618364
  0.6263323694902598  0.3307028831557571  0.6724070257972790
  0.8296727812902422  0.7583942590581619  0.6929601705892977
  0.4363593395260227  0.0512149623329708  0.6886913700525691
  0.4217877758481223  0.3440282702084232  0.8505132936806482
  0.9178498635657596  0.8946357101110789  0.1886570451406501
  0.3364321693915128  0.4912022932347977  0.2154330816790229
  0.4237646272086172  0.1829287905935290  0.8490866217587093
  0.8363606350447159  0.9977649184646888  0.5226838291344790
  0.1210691138935464  0.4998987302235920  0.4372154575784851
  0.7239631331458430  0.1770550848935628  0.4251338929170935
  0.6288051263357639  0.0493904243938518  0.4986176303473236
  0.5179038769725143  0.2109990304192887  0.7505768190672050
  0.0416312673389255  0.7212417094719790  0.1728727277667350
  0.1043948132215689  0.4111338862733000  0.0941483490722334
  0.2094307506073823  0.5719374804311420  0.2770606165285653
  0.6373193658682088  0.0032084335047356  0.1310305535454883
  0.6676822330630500  0.1162871777431955  0.9632530048801285
  0.9779252309138352  0.9976014286780431  0.3377894584365850
  0.4593367224398385  0.9913334784017624  0.8664955062499909
  0.6648200791241049  0.7539177522009100  0.9660303710628313
  0.8384606857834248  0.2193110572424937  0.3817238927391480
  0.2322172479192413  0.8822519250976836  0.7370317154302485
  0.9449686004405821  0.3819973360569358  0.9220072308937753
  0.3314589577206976  0.4610285069855440  0.0136517801616177
  0.5976859068926239  0.1619661372449055  0.1535188966912733
  0.9465946457099065  0.8304644062029156  0.8410060054487017
  0.7830439317841309  0.7442090227597590  0.3757230657186619
  0.5196347622554984  0.7616509565206900  0.6939355981560993
  0.4742685395302325  0.8362623890244659  0.9988061540809579
  0.7903185099662238  0.3505796366506003  0.5354304373583039
  0.0779150079952478  0.9210716946716385  0.0751598507103533
  0.7208769889580982  0.4006895905720269  0.2096247620709936
  0.8450183522468107  0.8295047601206007  0.2735434254248171
  0.6046355549317481  0.7000107699716300  0.2478330746950003
  0.2016404389661359  0.6930702367850470  0.0322236865996475
  0.4466748990768767  0.4342026704551345  0.2412349147848164
  0.0298490741557773  0.9710750473921343  0.5512690922189618
  0.6916726116687499  0.9533606040889737  0.6554707948902332
  0.0579824399983583  0.9073884827504256  0.3734310465647696
  0.0142917362233291  0.7286689258755644  0.2961309693001105
  0.5431796228921850  0.3266224319541970  0.2781748978772403
  0.9773059996962721  0.6084451129230651  0.8199200623971415
  0.3780255845798136  0.7635055283933185  0.6355428602574533
  0.4543125022940884  0.3311664052904039  0.7174004983616740
  0.8634639971194499  0.4243129666992191  0.8333896736557561
  0.1965788003308672  0.0628397119715072  0.0733438635934212
  0.4817619009980494  0.6082465150839266  0.4209361350422927
  0.9800058637314382  0.5350708064107307  0.2188058287940362
  0.4763437189258441  0.7683669413789660  0.8175497846870298
  0.3884093926102459  0.8583263448434999  0.1778529207791691
  0.6094657012141934  0.1218806378617236  0.7862591972725086
  0.2196391523494595  0.9379848724432166  0.9188119277079951
  0.0540365694052359  0.5976596173064241  0.6211058946191140
  0.5940843878269038  0.2669292827273340  0.5677560300550057
  0.2633299501322738  0.9395838651836557  0.3132267802724635
  0.0438838601141288  0.2923931425837238  0.0333081528298495
  0.9930334322209593  0.1755853072231998  0.0039363785738768
  0.1825874528755494  0.8977460736421791  0.2241457791293474
  0.0480082566635002  0.1982369714997768  0.6884561280638264
  0.1091857920376867  0.3261933214755579  0.3538604082956340
  0.1552682934480965  0.4997040966298764  0.9957851459673771
  0.6449507663119741  0.7452808096650663  0.7277139498958289
  0.4247364540644745  0.9255756360689522  0.6832344221725309
  0.2620716941344153  0.8660826084647246  0.0124572387875557
  0.5610285135353984  0.8816104977029003  0.3823689888208637
  0.0904972334327987  0.4239907450731453  0.8761619481912396
  0.8729040217487745  0.0526448223317686  0.9688271352332796
  0.9204461787340377  0.6474640756266158  0.6088878190191008
  0.9740241648405018  0.2167791255890828  0.3091889085164455
  0.5647253256398715  0.7265991341632581  0.5558298595148614
  0.4585754380484230  0.2342671446322668  0.2469043331381588
  0.7749352301111929  0.0536698941536681  0.7833810154111495
  0.2490437088297339  0.1324994392798723  0.7369928943992650
  0.2779557552664585  0.2930603924197863  0.2385433413652002
  0.2200446906175541  0.5678060226164958  0.8986493279568931
  0.5944367165980238  0.0611902568954047  0.3022450556329029
  0.1171574165233438  0.0778765841037822  0.2844805229540346
  0.2667479631272926  0.0633647307114141  0.9342746330370052
  0.2418406037646675  0.0865880552803904  0.2594481287853249
  0.6524093622064121  0.4328846386631979  0.3101689170856377
  0.4461392116067356  0.5765012548870104  0.1060552325255131
  0.5345891378537760  0.7557666338118940  0.1507203567314624
  0.6990015048243321  0.8720320837553800  0.1411553177448790
  0.8896013274244373  0.1219931981755915  0.2819074064724023
  0.7326467917572130  0.3966368348289986  0.4231080358168590
  0.6449225622051729  0.5792740840320204  0.1260954090298384
  0.6414736471177329  0.8739290226491228  0.2751120386842032
  0.0537371084519824  0.4334749267834968  0.2899732124868931
  0.3938378202518702  0.6436133293097976  0.9295873623336739
  0.8716776793715666  0.5593448312980701  0.0112875997302627
  0.7107212046548789  0.5821468996214694  0.0196018177967823
  0.9305197361825547  0.8306328340142008  0.5179704497602375
  0.1911393048355287  0.8010327947519436  0.3667532990508312
  0.4221931050949784  0.0969688630082901  0.0702873108156806
  0.4181872763698539  0.0513529970085191  0.3167419654011671
  0.1215188863128297  0.2550460793084059  0.5067986254160760
  0.4464016062007920  0.3907472604929139  0.4320307337842682
  0.5813485919693223  0.5468406446760912  0.3657458519720533
  0.3528647446930503  0.1020378091464583  0.5947551296898049
  0.8644329428702322  0.5434654900584761  0.5575236773316851
  0.8596286819770391  0.4830664360457967  0.2529909679521232
  0.6250311090812332  0.2988558160769333  0.8465749472666466
  0.2236111459288466  0.7628458759233842  0.5641166721038082
  0.6216421052184916  0.2560357028884027  0.3587552913625704
  0.7640748103140639  0.5930654576883432  0.5045451676020728
  0.2988732073027507  0.2457733933833510  0.7548999175612546
  0.9497709481500862  0.3740967687763090  0.4230991135547126
  0.1101496624357076  0.1478490454781718  0.3952621620139412
  0.1548837670164062  0.4673529860640361  0.2220966135948055
  0.7640937069753460  0.6674021395896443  0.2185147227319804
  0.4600104081120600  0.8755784574350919  0.2868123829735013
  0.4270677062931850  0.9738511212917121  0.1480462412343098
  0.2728977912967339  0.7046119951243823  0.7893077329798160
  0.9475267241194352  0.0897004111912601  0.1689306544296709
  0.7961437698779903  0.8215670400207585  0.9563604000833803
  0.7375493237917738  0.7851496448495410  0.5900787694789331
  0.9518620639421680  0.7001377070978460  0.4830494836514079
  0.3884652193653916  0.4691398671891923  0.6560689496422089
  0.5512095787773961  0.4750133203778263  0.9714893506932238
  0.0785086557684876  0.0432617228574814  0.1299560666118666
  0.9906176620708548  0.2631334960259990  0.1939274988589388
  0.1831534476261468  0.5697079095184101  0.6277813341345165
  0.7532945996507378  0.4686560729456162  0.7154622934037541
  0.2552629841611867  0.4088323689876913  0.7370217631766923
  0.6250890079019774  0.3157390469681210  0.0538862714484670
  0.5403283144214346  0.0701802752327733  0.5976498065609699
  0.9210752026705962  0.2213657124497948  0.7947533419626639
  0.2276361374362468  0.3584595766923688  0.3757188219053753
  0.2846924545550635  0.6228276537593547  0.4473494302880617
  0.9920641627410119  0.1551357347472018  0.4891135291171200
  0.1373878041560846  0.9033945418389865  0.5339281570040496
  0.8757670256535207  0.8682058500494458  0.0671959411721293
  0.8412744856285631  0.6984174792042670  0.9685429311804244
  0.0197175136276103  0.7300091817781242  0.0074143549327405
  0.9163700020669823  0.9479773314539633  0.7128706788464508
  0.8616423637840673  0.3324476712312485  0.0036315780703616
  0.2654432960356343  0.5786698501215906  0.0596679504281869
  0.3187724250646438  0.1908422377079140  0.9396285451339758
  0.5047380322263837  0.1839212482785151  0.0314869411778766
  0.4821185355020708  0.9186082939871528  0.5577492211163677
  0.7348172887206000  0.6054570692460316  0.8519599162168635
  0.7179576439161602  0.4547851853395445  0.9819308901862107
  0.0570287497103445  0.3485512373185728  0.5618231724550550
  0.9756131103878379  0.0427082683469687  0.8503569285970357
  0.1272972063862392  0.8023559942945120 -0.0001705713297966
  0.9947128239942266  0.5320155909476842  0.9964529415853367
  0.5690106128512946  0.4669152071642976  0.7597282108788365
  0.8774003735415034  0.3438304297829156  0.6812603126868519
  0.3105695652868317  0.5961654440156965  0.7288098650250582
  0.3790024837960905  0.3425597203844583  0.9859246851408229
  0.5453141167360490  0.1424872490963359  0.9126822804264597
  0.7574042330877732  0.9276624219676599  0.4460993088174243
  0.0919882945346944  0.6039034565123280  0.1717454459973021
  0.6342252099927957  0.9199106760501969  0.8567684066414152
  0.0611174759561920  0.8869599386019786  0.8588879279967423
  0.1618205475763972  0.1893727400799123  0.6075711404048885
  0.3473083960796755  0.5365574899543402  0.5558589385974491
  0.9123114541930863  0.0674866753672072  0.6386413683087210
  0.6007110443903037  0.9696518449618874  0.0161602311133363
  0.4041838594783694  0.4780400397207104  0.8293683259326663
  0.4478630569573080  0.9711169552023284  0.0195697312749185
  0.5624219023103900  0.5836515353826010  0.8027886941361045
  0.8005638066199005  0.1921117157361450  0.1072470215632224
  0.7488657677495514  0.1665397320493932  0.6409684007221333
  0.7217298415903534  0.9513344046025913  0.9644925789680858
  0.6438589835119208  0.8152018991772129  0.4997297815227191
  0.5402969391038914  0.4882853718513064  0.1683779828952152
  0.5193579665651209  0.6179708336270656  0.6407642203790943
  0.0024261314883342  0.4792862384459781  0.6091657262012599
  0.1267765141980222  0.1998865258550503  0.8565811496039220
  0.3369454742620338  0.0470267628105705  0.4111943641164357
  0.4604907018225696  0.1939098799517245  0.4493650273981558
  0.9648957401837728  0.5875073568344040  0.4030306110070409
  0.7663942550961753  0.0359751330561217  0.2566607474501081
  0.1820567308352797  0.0713966160618543  0.4713172358269124
  0.8044828511210976  0.8057064946850312  0.8168604262409208
  0.7702089564333459  0.5680729595562928  0.3129587637834098
  0.0531397443338199  0.8225361384049760  0.6608585300283618
  0.7251150373157357  0.7447659322514482  0.1187995113589513
  0.7940879524108827  0.3039602312541790  0.2860944564004639
  0.8641648000350285  0.4067960985276174  0.1101760160324022
  0.3916018529937128  0.8128792081304527  0.4264402846107082
  0.5509508515900952  0.6865216433344410  0.9546791737587161
  0.1316258039665773  0.5775627965720916  0.8093423502245077
  0.8919139459531958  0.6821803768480162  0.1948991053541918
  0.3618190102741006  0.6648367242882269  0.0600258463529866
  0.2842438935247169  0.9999478337779620  0.5596750129288109
  0.5321221980159794  0.4917324368274708  0.5987728644696951
  0.0932166461670662  0.7310377599515226  0.7379691373495659
  0.7815922187036012  0.0288629962338428  0.0560673511068429
  0.1097056277920939  0.7147741693436487  0.5348309098830920
  0.2074848890700510  0.4134990857504359  0.4885401971512400
  0.7111496421027386  0.3229001170042280  0.9350468534321575
  0.6909049928994790  0.1987784705762269  0.2340370981282664
  0.3140400269135560  0.3115673374536355  0.5308372075971787
  0.4260615843685976  0.6082844971929535  0.7999518988043168
  0.3588730542024615  0.9404905261801308  0.8033304699757543
  0.1198232010094149  0.6951696641893182  0.3524035352125474
  0.0633577134750349  0.3883298114823671  0.7566437806117210
  0.1822003852166184  0.3075226485847627  0.7686899486940383
  0.6731394164654709  0.6445128099486813  0.3717681342913601
  0.8920790000424101  0.1815708186515829  0.5675060438760429
  0.3099403582832087  0.5341446190980803  0.3441332858833226
  0.3441840276888278  0.7149612900811889  0.2594317770461578
  0.6359023744894315  0.4788514597399221  0.5233826152924567
  0.8844536677587709  0.5974364297374281  0.7352496024765839
  0.1150908056853276  0.0327290592079769  0.7072349223912960
 
  0.00000000E+00  0.00000000E+00  0.00000000E+00
  0.00000000E+00  0.00000000E+00  0.00000000E+00
  0.00000000E+00  0.00000000E+00  0.00000000E+00
  0.00000000E+00  0.00000000E+00  0.00000000E+00
  0.00000000E+00  0.00000000E+00  0.00000000E+00
  0.00000000E+00  0.00000000E+00  0.00000000E+00
  0.00000000E+00  0.00000000E+00  0.00000000E+00
  0.00000000E+00  0.00000000E+00  0.00000000E+00
  0.00000000E+00  0.00000000E+00  0.00000000E+00
  0.00000000E+00  0.00000000E+00  0.00000000E+00
  0.00000000E+00  0.00000000E+00  0.00000000E+00
  0.00000000E+00  0.00000000E+00  0.00000000E+00
  0.00000000E+00  0.00000000E+00  0.00000000E+00
  0.00000000E+00  0.00000000E+00  0.00000000E+00
  0.00000000E+00  0.00000000E+00  0.00000000E+00
  0.00000000E+00  0.00000000E+00  0.00000000E+00
  0.00000000E+00  0.00000000E+00  0.00000000E+00
  0.00000000E+00  0.00000000E+00  0.00000000E+00
  0.00000000E+00  0.00000000E+00  0.00000000E+00
  0.00000000E+00  0.00000000E+00  0.00000000E+00
  0.00000000E+00  0.00000000E+00  0.00000000E+00
  0.00000000E+00  0.00000000E+00  0.00000000E+00
  0.00000000E+00  0.00000000E+00  0.00000000E+00
  0.00000000E+00  0.00000000E+00  0.00000000E+00
  0.00000000E+00  0.00000000E+00  0.00000000E+00
  0.00000000E+00  0.00000000E+00  0.00000000E+00
  0.00000000E+00  0.00000000E+00  0.00000000E+00
  0.00000000E+00  0.00000000E+00  0.00000000E+00
  0.00000000E+00  0.00000000E+00  0.00000000E+00
  0.00000000E+00  0.00000000E+00  0.00000000E+00
  0.00000000E+00  0.00000000E+00  0.00000000E+00
  0.00000000E+00  0.00000000E+00  0.00000000E+00
  0.00000000E+00  0.00000000E+00  0.00000000E+00
  0.00000000E+00  0.00000000E+00  0.00000000E+00
  0.00000000E+00  0.00000000E+00  0.00000000E+00
  0.00000000E+00  0.00000000E+00  0.00000000E+00
  0.00000000E+00  0.00000000E+00  0.00000000E+00
  0.00000000E+00  0.00000000E+00  0.00000000E+00
  0.00000000E+00  0.00000000E+00  0.00000000E+00
  0.00000000E+00  0.00000000E+00  0.00000000E+00
  0.00000000E+00  0.00000000E+00  0.00000000E+00
  0.00000000E+00  0.00000000E+00  0.00000000E+00
  0.00000000E+00  0.00000000E+00  0.00000000E+00
  0.00000000E+00  0.00000000E+00  0.00000000E+00
  0.00000000E+00  0.00000000E+00  0.00000000E+00
  0.00000000E+00  0.00000000E+00  0.00000000E+00
  0.00000000E+00  0.00000000E+00  0.00000000E+00
  0.00000000E+00  0.00000000E+00  0.00000000E+00
  0.00000000E+00  0.00000000E+00  0.00000000E+00
  0.00000000E+00  0.00000000E+00  0.00000000E+00
  0.00000000E+00  0.00000000E+00  0.00000000E+00
  0.00000000E+00  0.00000000E+00  0.00000000E+00
  0.00000000E+00  0.00000000E+00  0.00000000E+00
  0.00000000E+00  0.00000000E+00  0.00000000E+00
  0.00000000E+00  0.00000000E+00  0.00000000E+00
  0.00000000E+00  0.00000000E+00  0.00000000E+00
  0.00000000E+00  0.00000000E+00  0.00000000E+00
  0.00000000E+00  0.00000000E+00  0.00000000E+00
  0.00000000E+00  0.00000000E+00  0.00000000E+00
  0.00000000E+00  0.00000000E+00  0.00000000E+00
  0.00000000E+00  0.00000000E+00  0.00000000E+00
  0.00000000E+00  0.00000000E+00  0.00000000E+00
  0.00000000E+00  0.00000000E+00  0.00000000E+00
  0.00000000E+00  0.00000000E+00  0.00000000E+00
  0.00000000E+00  0.00000000E+00  0.00000000E+00
  0.00000000E+00  0.00000000E+00  0.00000000E+00
  0.00000000E+00  0.00000000E+00  0.00000000E+00
  0.00000000E+00  0.00000000E+00  0.00000000E+00
  0.00000000E+00  0.00000000E+00  0.00000000E+00
  0.00000000E+00  0.00000000E+00  0.00000000E+00
  0.00000000E+00  0.00000000E+00  0.00000000E+00
  0.00000000E+00  0.00000000E+00  0.00000000E+00
  0.00000000E+00  0.00000000E+00  0.00000000E+00
  0.00000000E+00  0.00000000E+00  0.00000000E+00
  0.00000000E+00  0.00000000E+00  0.00000000E+00
  0.00000000E+00  0.00000000E+00  0.00000000E+00
  0.00000000E+00  0.00000000E+00  0.00000000E+00
  0.00000000E+00  0.00000000E+00  0.00000000E+00
  0.00000000E+00  0.00000000E+00  0.00000000E+00
  0.00000000E+00  0.00000000E+00  0.00000000E+00
  0.00000000E+00  0.00000000E+00  0.00000000E+00
  0.00000000E+00  0.00000000E+00  0.00000000E+00
  0.00000000E+00  0.00000000E+00  0.00000000E+00
  0.00000000E+00  0.00000000E+00  0.00000000E+00
  0.00000000E+00  0.00000000E+00  0.00000000E+00
  0.00000000E+00  0.00000000E+00  0.00000000E+00
  0.00000000E+00  0.00000000E+00  0.00000000E+00
  0.00000000E+00  0.00000000E+00  0.00000000E+00
  0.00000000E+00  0.00000000E+00  0.00000000E+00
  0.00000000E+00  0.00000000E+00  0.00000000E+00
  0.00000000E+00  0.00000000E+00  0.00000000E+00
  0.00000000E+00  0.00000000E+00  0.00000000E+00
  0.00000000E+00  0.00000000E+00  0.00000000E+00
  0.00000000E+00  0.00000000E+00  0.00000000E+00
  0.00000000E+00  0.00000000E+00  0.00000000E+00
  0.00000000E+00  0.00000000E+00  0.00000000E+00
  0.00000000E+00  0.00000000E+00  0.00000000E+00
  0.00000000E+00  0.00000000E+00  0.00000000E+00
  0.00000000E+00  0.00000000E+00  0.00000000E+00
  0.00000000E+00  0.00000000E+00  0.00000000E+00
  0.00000000E+00  0.00000000E+00  0.00000000E+00
  0.00000000E+00  0.00000000E+00  0.00000000E+00
  0.00000000E+00  0.00000000E+00  0.00000000E+00
  0.00000000E+00  0.00000000E+00  0.00000000E+00
  0.00000000E+00  0.00000000E+00  0.00000000E+00
  0.00000000E+00  0.00000000E+00  0.00000000E+00
  0.00000000E+00  0.00000000E+00  0.00000000E+00
  0.00000000E+00  0.00000000E+00  0.00000000E+00
  0.00000000E+00  0.00000000E+00  0.00000000E+00
  0.00000000E+00  0.00000000E+00  0.00000000E+00
  0.00000000E+00  0.00000000E+00  0.00000000E+00
  0.00000000E+00  0.00000000E+00  0.00000000E+00
  0.00000000E+00  0.00000000E+00  0.00000000E+00
  0.00000000E+00  0.00000000E+00  0.00000000E+00
  0.00000000E+00  0.00000000E+00  0.00000000E+00
  0.00000000E+00  0.00000000E+00  0.00000000E+00
  0.00000000E+00  0.00000000E+00  0.00000000E+00
  0.00000000E+00  0.00000000E+00  0.00000000E+00
  0.00000000E+00  0.00000000E+00  0.00000000E+00
  0.00000000E+00  0.00000000E+00  0.00000000E+00
  0.00000000E+00  0.00000000E+00  0.00000000E+00
  0.00000000E+00  0.00000000E+00  0.00000000E+00
  0.00000000E+00  0.00000000E+00  0.00000000E+00
  0.00000000E+00  0.00000000E+00  0.00000000E+00
  0.00000000E+00  0.00000000E+00  0.00000000E+00
  0.00000000E+00  0.00000000E+00  0.00000000E+00
  0.00000000E+00  0.00000000E+00  0.00000000E+00
  0.00000000E+00  0.00000000E+00  0.00000000E+00
  0.00000000E+00  0.00000000E+00  0.00000000E+00
  0.00000000E+00  0.00000000E+00  0.00000000E+00
  0.00000000E+00  0.00000000E+00  0.00000000E+00
  0.00000000E+00  0.00000000E+00  0.00000000E+00
  0.00000000E+00  0.00000000E+00  0.00000000E+00
  0.00000000E+00  0.00000000E+00  0.00000000E+00
  0.00000000E+00  0.00000000E+00  0.00000000E+00
  0.00000000E+00  0.00000000E+00  0.00000000E+00
  0.00000000E+00  0.00000000E+00  0.00000000E+00
  0.00000000E+00  0.00000000E+00  0.00000000E+00
  0.00000000E+00  0.00000000E+00  0.00000000E+00
  0.00000000E+00  0.00000000E+00  0.00000000E+00
  0.00000000E+00  0.00000000E+00  0.00000000E+00
  0.00000000E+00  0.00000000E+00  0.00000000E+00
  0.00000000E+00  0.00000000E+00  0.00000000E+00
  0.00000000E+00  0.00000000E+00  0.00000000E+00
  0.00000000E+00  0.00000000E+00  0.00000000E+00
  0.00000000E+00  0.00000000E+00  0.00000000E+00
  0.00000000E+00  0.00000000E+00  0.00000000E+00
  0.00000000E+00  0.00000000E+00  0.00000000E+00
  0.00000000E+00  0.00000000E+00  0.00000000E+00
  0.00000000E+00  0.00000000E+00  0.00000000E+00
  0.00000000E+00  0.00000000E+00  0.00000000E+00
  0.00000000E+00  0.00000000E+00  0.00000000E+00
  0.00000000E+00  0.00000000E+00  0.00000000E+00
  0.00000000E+00  0.00000000E+00  0.00000000E+00
  0.00000000E+00  0.00000000E+00  0.00000000E+00
  0.00000000E+00  0.00000000E+00  0.00000000E+00
  0.00000000E+00  0.00000000E+00  0.00000000E+00
  0.00000000E+00  0.00000000E+00  0.00000000E+00
  0.00000000E+00  0.00000000E+00  0.00000000E+00
  0.00000000E+00  0.00000000E+00  0.00000000E+00
  0.00000000E+00  0.00000000E+00  0.00000000E+00
  0.00000000E+00  0.00000000E+00  0.00000000E+00
  0.00000000E+00  0.00000000E+00  0.00000000E+00
  0.00000000E+00  0.00000000E+00  0.00000000E+00
  0.00000000E+00  0.00000000E+00  0.00000000E+00
  0.00000000E+00  0.00000000E+00  0.00000000E+00
  0.00000000E+00  0.00000000E+00  0.00000000E+00
  0.00000000E+00  0.00000000E+00  0.00000000E+00
  0.00000000E+00  0.00000000E+00  0.00000000E+00
  0.00000000E+00  0.00000000E+00  0.00000000E+00
  0.00000000E+00  0.00000000E+00  0.00000000E+00
  0.00000000E+00  0.00000000E+00  0.00000000E+00
  0.00000000E+00  0.00000000E+00  0.00000000E+00
  0.00000000E+00  0.00000000E+00  0.00000000E+00
  0.00000000E+00  0.00000000E+00  0.00000000E+00
  0.00000000E+00  0.00000000E+00  0.00000000E+00
  0.00000000E+00  0.00000000E+00  0.00000000E+00
  0.00000000E+00  0.00000000E+00  0.00000000E+00
  0.00000000E+00  0.00000000E+00  0.00000000E+00
  0.00000000E+00  0.00000000E+00  0.00000000E+00
  0.00000000E+00  0.00000000E+00  0.00000000E+00
  0.00000000E+00  0.00000000E+00  0.00000000E+00
  0.00000000E+00  0.00000000E+00  0.00000000E+00
  0.00000000E+00  0.00000000E+00  0.00000000E+00
  0.00000000E+00  0.00000000E+00  0.00000000E+00
  0.00000000E+00  0.00000000E+00  0.00000000E+00
  0.00000000E+00  0.00000000E+00  0.00000000E+00
  0.00000000E+00  0.00000000E+00  0.00000000E+00
  0.00000000E+00  0.00000000E+00  0.00000000E+00
  0.00000000E+00  0.00000000E+00  0.00000000E+00
  0.00000000E+00  0.00000000E+00  0.00000000E+00
  0.00000000E+00  0.00000000E+00  0.00000000E+00
  0.00000000E+00  0.00000000E+00  0.00000000E+00
  0.00000000E+00  0.00000000E+00  0.00000000E+00
  0.00000000E+00  0.00000000E+00  0.00000000E+00
  0.00000000E+00  0.00000000E+00  0.00000000E+00
  0.00000000E+00  0.00000000E+00  0.00000000E+00
  0.00000000E+00  0.00000000E+00  0.00000000E+00
  0.00000000E+00  0.00000000E+00  0.00000000E+00
  0.00000000E+00  0.00000000E+00  0.00000000E+00
  0.00000000E+00  0.00000000E+00  0.00000000E+00
  0.00000000E+00  0.00000000E+00  0.00000000E+00
  0.00000000E+00  0.00000000E+00  0.00000000E+00
  0.00000000E+00  0.00000000E+00  0.00000000E+00
  0.00000000E+00  0.00000000E+00  0.00000000E+00
  0.00000000E+00  0.00000000E+00  0.00000000E+00
  0.00000000E+00  0.00000000E+00  0.00000000E+00
  0.00000000E+00  0.00000000E+00  0.00000000E+00
  0.00000000E+00  0.00000000E+00  0.00000000E+00
  0.00000000E+00  0.00000000E+00  0.00000000E+00
  0.00000000E+00  0.00000000E+00  0.00000000E+00
  0.00000000E+00  0.00000000E+00  0.00000000E+00
  0.00000000E+00  0.00000000E+00  0.00000000E+00
  0.00000000E+00  0.00000000E+00  0.00000000E+00
  0.00000000E+00  0.00000000E+00  0.00000000E+00
  0.00000000E+00  0.00000000E+00  0.00000000E+00
  0.00000000E+00  0.00000000E+00  0.00000000E+00
  0.00000000E+00  0.00000000E+00  0.00000000E+00
  0.00000000E+00  0.00000000E+00  0.00000000E+00
  0.00000000E+00  0.00000000E+00  0.00000000E+00
  0.00000000E+00  0.00000000E+00  0.00000000E+00
  0.00000000E+00  0.00000000E+00  0.00000000E+00
  0.00000000E+00  0.00000000E+00  0.00000000E+00
  0.00000000E+00  0.00000000E+00  0.00000000E+00
  0.00000000E+00  0.00000000E+00  0.00000000E+00
  0.00000000E+00  0.00000000E+00  0.00000000E+00
  0.00000000E+00  0.00000000E+00  0.00000000E+00
  0.00000000E+00  0.00000000E+00  0.00000000E+00
  0.00000000E+00  0.00000000E+00  0.00000000E+00
  0.00000000E+00  0.00000000E+00  0.00000000E+00
  0.00000000E+00  0.00000000E+00  0.00000000E+00
  0.00000000E+00  0.00000000E+00  0.00000000E+00
  0.00000000E+00  0.00000000E+00  0.00000000E+00
  0.00000000E+00  0.00000000E+00  0.00000000E+00
  0.00000000E+00  0.00000000E+00  0.00000000E+00
  0.00000000E+00  0.00000000E+00  0.00000000E+00
  0.00000000E+00  0.00000000E+00  0.00000000E+00
  0.00000000E+00  0.00000000E+00  0.00000000E+00
  0.00000000E+00  0.00000000E+00  0.00000000E+00
  0.00000000E+00  0.00000000E+00  0.00000000E+00
  0.00000000E+00  0.00000000E+00  0.00000000E+00
  0.00000000E+00  0.00000000E+00  0.00000000E+00
  0.00000000E+00  0.00000000E+00  0.00000000E+00
  0.00000000E+00  0.00000000E+00  0.00000000E+00
  0.00000000E+00  0.00000000E+00  0.00000000E+00
  0.00000000E+00  0.00000000E+00  0.00000000E+00
  0.00000000E+00  0.00000000E+00  0.00000000E+00
  0.00000000E+00  0.00000000E+00  0.00000000E+00
  0.00000000E+00  0.00000000E+00  0.00000000E+00
  0.00000000E+00  0.00000000E+00  0.00000000E+00
  0.00000000E+00  0.00000000E+00  0.00000000E+00
  0.00000000E+00  0.00000000E+00  0.00000000E+00
  0.00000000E+00  0.00000000E+00  0.00000000E+00
  0.00000000E+00  0.00000000E+00  0.00000000E+00
  0.00000000E+00  0.00000000E+00  0.00000000E+00
  0.00000000E+00  0.00000000E+00  0.00000000E+00
  0.00000000E+00  0.00000000E+00  0.00000000E+00