Amorphous Sb                            
   1.00000000000000     
    22.4560336643530778    0.0000000000000000    0.0000000000000000
     0.0000000000000000   22.4560336643530778    0.0000000000000000
     0.0000000000000000    0.0000000000000000   22.4560336643530778
   In   Te
   120   180
Direct
  0.3208461307810787  0.6686178509209073  0.9510075588452050
  0.5362891747932249  0.8853529525982068  0.7640546654675039
  0.3304590851075377  0.7149612602629061  0.3523389542609554
  0.5048548300384315  0.1843858553156856  0.3983662580052035
  0.9221411051992783  0.5251537591748815  0.7144752365721430
  0.9101305174568720  0.0064900984606414 -0.0167767486395343
  0.3540912533957602  0.2695340770529544  0.9539178148746079
  0.5814739093186475  0.8817487360763356  0.8844811817661864
  0.2989554590682917  0.3699615428399636  0.3722883616414419
  0.0774789947702834  0.1075076524445095  0.7113977567080013
  0.9525552065646186  0.7073930026219344  0.1248317191008927
  0.4043974145560240  0.8263837165396855  0.3235450950991740
  0.8779623869992358  0.8033085510172332  0.6644736388689093
  0.5581271654681870  0.7583281059514042  0.2672306203086399
  0.2504811997087200  0.5184623905088794  0.4368458367069551
  0.6979984824657621  0.2322640263958877  0.2235571785140884
  0.8647166101066002  0.1509955282789366  0.9215237689696274
  0.5445193638045650  0.0793941994310427  0.5367720413432708
  0.3190949311465492  0.1249999066754965  0.8866618076736164
  0.9143111046607626  0.9401475536893955  0.5009215022993954
  0.6020038008331868  0.4999187331249997  0.2013051911092787
  0.6861860668977210  0.5828025495769555  0.2840904333160135
  0.7954249554652378  0.6161175024479139  0.6510240791170098
  0.1802556541099920  0.5338822895535404  0.1140633848123586
  0.6521871121473308  0.9611019602036134  0.1579216582241208
  0.8120387301765843  0.0357737770628545  0.3886000573954813
  0.1778796257633920  0.1283632194569887  0.5599678938711253
  0.0958298899335423  0.3093105870064451  0.0206668109218766
  0.8807891946288863  0.6911542995446905  0.3449226808443596
  0.6722911003627564  0.9373070477303407  0.4289421792238439
  0.2749492572087152  0.9980811302520881 -0.0050957669524806
  0.0106120832100930  0.9710816590119037  0.4128635145942257
  0.9311657628498388  0.8467438733625194  0.3400599109843839
  0.7134224787786332  0.7458757050120386  0.8851414754957306
  0.7767591513130665  0.9416758967496196  0.5291869463411809
  0.6979956661262483 -0.0258472679710848  0.8008382638757140
  0.6905109193042308  0.0092695335391884  0.9873490511766208
  0.1512197413208063  0.3640872265092711  0.7179426927773115
  0.7900155529381993  0.9020285202272508  0.8533599493891565
  0.5005078641120569  0.9490343712544634  0.2697031100506200
  0.6707698504144283  0.5936994288026675  0.4467064265225652
  0.4333840607970113  0.9197509828056200  0.0490309988949637
  0.3278536642964515  0.5395321965792133  0.7467656089754837
  0.7905319272416211  0.3252110457666660  0.4037419360326365
  0.3033250295499259  0.4331472321860851  0.1970613272688740
  0.6560724610570124  0.3796573830810594  0.1172204493988389
  0.1831899578312512  0.8410932266411815  0.3453855893049845
  0.7989787315455621  0.0739773988494069  0.1231768003248533
  0.1059968280917317  0.3745877692314173  0.4064828508746459
  0.7305527264779502  0.4524456692202189  0.2988858526238272
  0.9145315751038803  0.2183143406236950  0.1811213911385902
  0.8897930008473330  0.9234985672721888  0.7056388110003607
  0.4709628982650869  0.6938729490002913  0.5099204782598230
  0.3509973910916865  0.5480281286622319  0.0569914758608510
  0.1025173011681969  0.5813747789608252  0.7150311399721297
  0.7094113263780579  0.8712719787513897  0.6798749208965303
  0.0257096631201686  0.4464973837996588  0.1447809430251854
  0.5547916293424602  0.2753569340247959  0.5384012050782354
  0.0412003482466504  0.8419764428925263  0.0482539292846881
  0.3947918975085407  0.3537599058559793  0.2902024397636985
  0.4123535960676261  0.9109497754780410  0.4928114499042101
  0.8610674261905787  0.4764106875153481  0.2855098457398047
  0.6946392579094786  0.1721256363092073  0.4747251199454171
  0.0799656616294924  0.9444456725081984  0.8998390918165065
  0.2138143308385046  0.9509385369138683  0.4951736806744463
  0.7042765541792939  0.6907989030226114  0.6098232753428920
  0.2557825580733274  0.0097931371082971  0.6890988512564034
  0.7552844146802157  0.2799391909806577  0.6071295047680868
  0.1389100667296355  0.3038522934035567  0.5055519408012339
  0.2199767074503272  0.7357095781467134  0.1780330363022675
  0.2159862485011286  0.5791222422777140  0.2865683662140834
  0.8310995362011919  0.4388873646889426  0.5281235706960918
  0.9554538478541323  0.0553002181415965  0.2334901875485582
  0.3237162452916171  0.8535662117758641  0.0417094309188370
  0.8036512098451761  0.8183319725487539  0.1024671112015662
  0.3834297101090216  0.1376919217960898  0.3712493360197784
  0.7874477978858210  0.6084043247651181  0.1970386257334144
  0.1093050857482827  0.7962923133241521  0.5203718433633508
  0.4341654149487416  0.4763778583318998  0.4059954671608437
  0.4115910837063825  0.9461678624270646  0.8833335173841065
  0.5059887491541388  0.8223820582841292  0.4299782187304832
  0.2310214568195752  0.3571387714102960  0.5721102215816094
  0.7327416116678064  0.2417771253681149  0.7761901466960945
  0.8617835164102212  0.4137816975725254  0.1106615050860202
  0.5637825192680653  0.4780210399827922  0.5135653445509859
  0.1723907177494031  0.8569477973526481  0.8789957253875003
  0.4868890483784948  0.0914661373354738  0.6993398306710675
  0.1629497988369564  0.0346197822354178  0.2545244222390395
  0.3279837907509070  0.8287571505123790  0.6026136388668315
  0.5483998603786411  0.3421067118154172  0.1816080264475764
  0.5228772177755443  0.7979887090012630  0.6092881167454963
  0.0674040234649850  0.5420246699490512  0.5368637317464053
  0.9886292984321005  0.3525537280751815  0.9768384219776548
  0.8268090000107524  0.6268427160397879  0.8366485291132092
  0.4762116161425438  0.4482194269978252  0.9600490142398390
  0.9937341778272533  0.6919392753463636  0.6103751232755694
  0.4975485766605171  0.6343977362029488  0.6375162666207238
  0.4595802440594365  0.7054924509182624  0.0765739670727613
  0.6279819026002333  0.6711644104093550  0.2022142700198572
  0.1342920849723258  0.1375772255377619  0.9549574169322784
  0.3318888580133834  0.1995194783134669  0.5952580561674601
  0.6016771743749942  0.2527422684958737  0.8797802803216280
  0.8112900453639807  0.3516696481825112  0.9294390379957868
  0.3176660124516695  0.3577406907803441  0.6657968428357225
  0.1722127824616650  0.2045440439501002  0.1553573070784028
  0.6415392651224454  0.6309119158796312  0.0161739175783907
  0.5606764754275371  0.1229731730610408  0.2005920795859643
  0.3050991369636747  0.2692448533205133  0.8337941722505140
  0.4836655713910333  0.1709826401226930  0.0739334824004692
  0.4947288715345860  0.8903734317002495  0.1545664493543678
  0.1663127845279878  0.6996416866390016  0.4580850908513321
  0.8712326449131254  0.8081530062657870  0.4670714835886934
  0.8625171839525541  0.0857515997561956  0.7163530175990410
  0.0277482440885003  0.3076524898346756  0.7760345875664044
  0.0761953621702569  0.8778307230239633  0.6950133431447533
  0.6580686787459210  0.4994180181779813  0.8151168253001226
  0.9459377340641596  0.7006376587240742  0.9042085154349713
  0.7179938989800221  0.8598410314534464  0.2610878879497564
  0.2580708315951203  0.0919041576732521  0.3887525677283997
  0.3295761848202604  0.9636670726574450  0.1523111740658202
  0.7335562825192025  0.4275166031208703  0.4481996592593188
  0.4020229534275276  0.4333289188092692  0.0918373281333453
  0.5938290136318570  0.9185390036637144  0.6520242830763139
  0.8774505022751871  0.5469514741375066  0.5785620358156260
  0.2090692024563102  0.5681828329696326  0.7917306352119741
  0.5213507645314779  0.6113848260988592  0.1511572357060322
  0.4021334605550552  0.4877665301106214  0.8368007838310755
  0.7766609662738742  0.5365621233397176  0.7479200490407028
  0.9382814878927961  0.3691875018239972  0.5148870330110927
  0.4743486960388333  0.3174607779309067  0.8453759997386417
  0.0343388816800056  0.6061739629437162  0.8200455088046055
  0.3561840346327874  0.2724072691513744  0.1984456821166474
  0.2980291757061820  0.8913013251820304  0.9133713605196754
  0.3119699300495151  0.9033343541596262  0.7336406396538847
  0.7532533473570570  0.4640770469777168  0.9360852272572808
  0.8673019344679096  0.5204066141465119  0.9213916036932286
  0.0791382973808150  0.5604386942986648  0.3593377783563078
  0.1447802510871324  0.0206529375536916  0.4137622204675090
  0.5063232905551684  0.3833484843180681  0.5774151931100739
  0.4557027880804867  0.7898082179372865  0.7407044082189380
  0.3133005665431791  0.8378450565438230  0.2145170092748696
  0.4402463799077100  0.9754050053324241  0.7652703728945539
  0.7759205173904419  0.0793994798574778  0.8260710158703328
  0.4636510954508579  0.5543500185782554  0.5225848937930656
  0.3312040226960480  0.1298999804596296  0.2446133271820204
  0.1209759950343954  0.3567003611574117  0.1419330692812102
  0.7953865091816291  0.7404703672234820  0.2456055090949158
  0.2630521212461314  0.5518129245894956  0.9566983042853461
  0.9075430001244656  0.7970599470562852  0.2084394442096996
  0.0407476477966006  0.9666969483909627  0.0225773204014512
  0.3161062141439788  0.4224011775810294  0.4894686614310630
  0.1954948387061802  0.4464107661160536  0.3426652913692069
  0.6882290095297905  0.2553196402607470  0.0994039715856655
  0.0726394915571391  0.7710162613883298  0.8292893775353497
  0.9883561952076841  0.8643153523481413  0.8455327454175088
  0.6935771136968922  0.6225355370075498  0.8987156031825743
  0.6581361296719558  0.1210056983823694  0.5839485880842954
  0.2863745308013663  0.8858988876019629  0.4113270457989247
  0.7551891893435934  0.2418616507465343  0.9026161987298426
  0.5140897226664510  0.7286481919087945  0.8342539171366996
  0.5741348708779004  0.2348530502944827  0.2622697690569804
  0.4491478515518029  0.2899440078271548  0.1119944577878192
  0.0446528496633635  0.8286775882656948  0.1773432539076626
  0.2175488057058960  0.4126697005209576  0.0836452895261705
  0.5494532043495469  0.5428906302171410  0.7211195412452039
  0.4875557294456133  0.6043287271928123  0.8137736007151938
  0.6091019359045220  0.0071395542240003  0.8914865539726599
 -0.0177395566152896  0.8124048311944508  0.5694257910268571
 -0.0133932272896810  0.0914508708091409  0.6201910818560862
  0.6646014591462155  0.5386836376503332  0.5604716784367587
  0.9822437099987932  0.9649556940051487  0.6209066469407674
  0.3035758604902785  0.0094400330809425  0.2804279249361259
  0.2900068935464348  0.0948648204383204  0.0833906504714568
  0.1931840940232692  0.7123061641107867  0.3295092439993960
  0.0633804292446168  0.3342625629665012  0.2950260407255582
  0.9676744892625885  0.1101061532803922  0.4113242139891029
  0.5400715377232449  0.3182291330882385 -0.0096632386519049
  0.1996234775864576  0.4701991278760011  0.6366695085781391
  0.9246411104515694  0.0829457151202167  0.1137260061783282
  0.2513119395646181  0.2073088451322765  0.0137828238224319
  0.4478568791601327  0.7743169884860431  0.1954197047770699
  0.9381365374030205  0.2448904332229201  0.0371586221224359
  0.2193640849218456  0.1731189718740554  0.2905368416580673
  0.7778531259288038  0.9536830260771202  0.1611588798780271
  0.0262408872040396  0.0669275092035610  0.9050898245856885
  0.9023130420333380  0.6819184713039685  0.7007552776079679
  0.5862420201156646  0.0128078601557710  0.0632812655762197
  0.0703711704582140  0.7049322271398228  0.1683466683465832
  0.8255231342351340  0.3080680962203552  0.0508704710536489
  0.7652131430477223  0.9074978598804886  0.9800034728492265
  0.8778425216794982  0.1214813162159914  0.3152616395244904
  0.2817543958035591  0.7516356302259692  0.8642766464854429
  0.3213365295797270  0.1133809860563830  0.7289319393845828
  0.9086596416064591  0.3712832868723569  0.3844878511212376
  0.1486201454920050  0.5753601024885944 -0.0023145031851919
  0.3856128845336286  0.6513617037923892  0.7261142597757981
  0.3384240615118425  0.6504681583526596  0.5359952252750653
  0.1384694131481373  0.0015761683037219  0.7377919596056590
  0.3279484110321667  0.4864960890629939  0.6325633574049635
  0.1152362792971591  0.6836063711701312  0.6418691886558450
  0.6096717705749826  0.7197048472645313  0.6898373840085493
  0.7993749739047835  0.9120777652884174  0.3677358072761694
  0.7500142257003772  0.4646751232035846  0.1499687233118119
  0.8039921331972346  0.2351391410637723  0.4957800211114097
  0.0459804825082493  0.1487856314597618  0.2197468181339447
 -0.0116197295457367  0.2628191139504428  0.3623102306148061
  0.5019742600345112  0.7009797131418078  0.3726293213203262
  0.0422039401079220  0.6720565692348527  0.4047781891990821
  0.6236790696702853  0.8190335033556400  0.4977976226101292
  0.0145952630347622  0.1551816909567610  0.8128913445516313
  0.1931452080574673  0.8799373031514455  0.2253502881316320
  0.3342745232224471  0.5811883035584768  0.3650387080498914
  0.7117459586432626  0.6848762686103881  0.1054774627092070
  0.0698455097186387  0.8453150612585464  0.4036270573572362
  0.4423636198429434  0.0054491331010155  0.3778522547512507
  0.7670509283848803  0.4048509757222292  0.6370427649518164
  0.4683336102089356  0.1817653568397543  0.5333644636981398
  0.7552639438139924  0.1198287671574904  0.2327466883423080
  0.4167881544818536  0.2264894538544003  0.7739702852276426
  0.6138030063722492  0.8428055289522106  0.1443889040720511
  0.7735428761710372  0.6013895227446763  0.3785001943886162
  0.8692925316606280  0.0656947984552728  0.4976752650077435
  0.0062196705475493  0.9528651593147560  0.2819263536398215
  0.7121158415902854  0.7627011197446326  0.7554586250201131
  0.6536817613171517  0.8152286423259619  0.9746483589405136
  0.0738527026810223  0.0651586428301667  0.5200071793260682
  0.6232459751504343  0.0379955031711378  0.7163856105680620
  0.9344376024314044  0.3871594989178955  0.2116805725796218
  0.6972110559980674  0.0876970211806600  0.3836575469763914
  0.6123661213965488  0.1448276404191549  0.0831601510520083
  0.9238208236855543  0.3547270219303763  0.8685483001838720
  0.0833924633854381  0.5493118336373469  0.1908814756745714
  0.1500740890579317  0.7900823561845867  0.0012257762688319
  0.0646083035559725  0.1879026855446779  0.0514931890492782
  0.5814350269370390  0.4415143011027495  0.3916765007270601
  0.4462803693988218  0.0854277524296459  0.1599820300094868
  0.2726182649641240  0.3797764991299106  0.7831212695713968
  0.4329699561439270  0.6085635904858310  0.9771097362930591
  0.5717573355521766  0.5665363478274360  0.3667837934355783
  0.2766940936837866  0.0427818948763138  0.5641419097382846
  0.2134209215124700  0.6964461949181913  0.7719505950466038
  0.9993270600555640  0.4861377210969171  0.8376710458127810
  0.9666716791289933  0.6216577103936187  0.5021314786020203
  0.5980176044848061  0.3694109227002380  0.6872002913813509
  0.4896543047366886  0.4193346345181979  0.7705686542731524
  0.1744983023524239  0.0716448877339412  0.1178117467795972
  0.0713934869538156  0.1606265359425850  0.3413019541653773
  0.4704870561668135  0.8502736026973470  0.9413630636242962
  0.9585100486265109  0.4627029624908525  0.0372702321420772
  0.2152938672564403  0.9150635448304340  0.0726695794344991
  0.1003814248596800  0.6961417485279989  0.9302124272667194
  0.6617262483277898  0.1361363768990240  0.8036482794071373
  0.0226221681715619  0.4742035172864345  0.4369728205010595
  0.2872832704975771  0.5832236236716674  0.1628943387408380
  0.8613299055344676  0.6201102360124136  0.9945359255836626
  0.1980691072786040  0.3118058628001189  0.9434303652791693
  0.2236442237423619  0.1781020708541728  0.7849199083481427
  0.4266550635960978  0.2875882541229944  0.6666248227497803
  0.0505864022248589  0.2446612467549333  0.5772507341083390
  0.4613543751132573  0.1982411283604894  0.9524408469712525
  0.1213058968002427  0.2373858208547821  0.8690118987380463
  0.8931671415998086 -0.0242704538436389  0.8241511533002523
  0.4738769495057359  0.9946514587647631  0.5951742522346707
  0.2899385182672635  0.6895054484009874  0.6484870154166440
  0.1827815963247884  0.8758779714594598  0.5906244505423237
  0.5722726441634218  0.5310074317539223  0.0620861426160239
  0.8236570239475580  0.2196445932858012  0.6941923695384020
  0.5573780884905294  0.0488897089364127  0.4117053417383622
  0.7577819721848087  0.1129533230387273  0.0111890153123802
  0.1422935170487508  0.2092576447222402  0.6597261514986835
  0.9328937785695925  0.7794441883955677  0.0211573131555126
  0.8310650407206834  0.7816726910535839  0.8490238201919545
  0.4079135948754813  0.0287248214139545  0.9805727375930190
  0.6215261079545954  0.6939177541110485  0.5116366058519981
  0.7696774102264204  0.3210726077811428  0.2778757328262234
  0.6693081957647509  0.3503036828888931  0.7930053561576091
  0.2075042174943796  0.2014438533530350  0.4611930396458845
  0.5860363580168313  0.8687345509567913  0.3314996608655179
  0.1867830545622792  0.5885111408583870  0.5225548073312385
  0.6134481725951247  0.2594492212387547  0.4281342020680590
  0.3232416591170001  0.7274788691453510  0.0647952999863004
  0.3423257895121171  0.3956135917907008 -0.0146125632486779
  0.6309561981674101  0.2469259117542518  0.6399617534751375
  0.9255745102878012  0.5878376107244753  0.2599538651185971
  0.4503616046904003  0.3111567189251888  0.4010445341210928
  0.6103649930237653  0.0239530301582360  0.2614026742412723
  0.9582571839219747  0.3334503413217587  0.6482649065788474
  0.0521723419029001  0.4843023244043558  0.6494986027525824
  0.7734916673613197  0.8047229819738954  0.5836235888054914
  0.2051305163712412  0.0453201414459609  0.9021191139197563
  0.4739045792376871  0.4360018360290465  0.2335771275850586
  0.2937999772802841  0.7549687565526486  0.4795723522232204
  0.8682644774448137  0.3955479964203897  0.7119464316284960
  0.6274111937528895  0.4137873878610000 -0.0035214201895022
  0.1023984591997682  0.4162305646015040  0.8405875573356781
  0.2043100253910622  0.8384584647076624  0.7501379333303685
  0.8972937397762490  0.5932142205762569  0.1232560395370995
  0.7823312282012022  0.9791266059963269  0.6632661699291331
  0.5565283122142891  0.7230479236107520  0.9823942301550675
  0.3399767080556105  0.2567101290051115  0.4356713240927563
 
  0.00000000E+00  0.00000000E+00  0.00000000E+00
  0.00000000E+00  0.00000000E+00  0.00000000E+00
  0.00000000E+00  0.00000000E+00  0.00000000E+00
  0.00000000E+00  0.00000000E+00  0.00000000E+00
  0.00000000E+00  0.00000000E+00  0.00000000E+00
  0.00000000E+00  0.00000000E+00  0.00000000E+00
  0.00000000E+00  0.00000000E+00  0.00000000E+00
  0.00000000E+00  0.00000000E+00  0.00000000E+00
  0.00000000E+00  0.00000000E+00  0.00000000E+00
  0.00000000E+00  0.00000000E+00  0.00000000E+00
  0.00000000E+00  0.00000000E+00  0.00000000E+00
  0.00000000E+00  0.00000000E+00  0.00000000E+00
  0.00000000E+00  0.00000000E+00  0.00000000E+00
  0.00000000E+00  0.00000000E+00  0.00000000E+00
  0.00000000E+00  0.00000000E+00  0.00000000E+00
  0.00000000E+00  0.00000000E+00  0.00000000E+00
  0.00000000E+00  0.00000000E+00  0.00000000E+00
  0.00000000E+00  0.00000000E+00  0.00000000E+00
  0.00000000E+00  0.00000000E+00  0.00000000E+00
  0.00000000E+00  0.00000000E+00  0.00000000E+00
  0.00000000E+00  0.00000000E+00  0.00000000E+00
  0.00000000E+00  0.00000000E+00  0.00000000E+00
  0.00000000E+00  0.00000000E+00  0.00000000E+00
  0.00000000E+00  0.00000000E+00  0.00000000E+00
  0.00000000E+00  0.00000000E+00  0.00000000E+00
  0.00000000E+00  0.00000000E+00  0.00000000E+00
  0.00000000E+00  0.00000000E+00  0.00000000E+00
  0.00000000E+00  0.00000000E+00  0.00000000E+00
  0.00000000E+00  0.00000000E+00  0.00000000E+00
  0.00000000E+00  0.00000000E+00  0.00000000E+00
  0.00000000E+00  0.00000000E+00  0.00000000E+00
  0.00000000E+00  0.00000000E+00  0.00000000E+00
  0.00000000E+00  0.00000000E+00  0.00000000E+00
  0.00000000E+00  0.00000000E+00  0.00000000E+00
  0.00000000E+00  0.00000000E+00  0.00000000E+00
  0.00000000E+00  0.00000000E+00  0.00000000E+00
  0.00000000E+00  0.00000000E+00  0.00000000E+00
  0.00000000E+00  0.00000000E+00  0.00000000E+00
  0.00000000E+00  0.00000000E+00  0.00000000E+00
  0.00000000E+00  0.00000000E+00  0.00000000E+00
  0.00000000E+00  0.00000000E+00  0.00000000E+00
  0.00000000E+00  0.00000000E+00  0.00000000E+00
  0.00000000E+00  0.00000000E+00  0.00000000E+00
  0.00000000E+00  0.00000000E+00  0.00000000E+00
  0.00000000E+00  0.00000000E+00  0.00000000E+00
  0.00000000E+00  0.00000000E+00  0.00000000E+00
  0.00000000E+00  0.00000000E+00  0.00000000E+00
  0.00000000E+00  0.00000000E+00  0.00000000E+00
  0.00000000E+00  0.00000000E+00  0.00000000E+00
  0.00000000E+00  0.00000000E+00  0.00000000E+00
  0.00000000E+00  0.00000000E+00  0.00000000E+00
  0.00000000E+00  0.00000000E+00  0.00000000E+00
  0.00000000E+00  0.00000000E+00  0.00000000E+00
  0.00000000E+00  0.00000000E+00  0.00000000E+00
  0.00000000E+00  0.00000000E+00  0.00000000E+00
  0.00000000E+00  0.00000000E+00  0.00000000E+00
  0.00000000E+00  0.00000000E+00  0.00000000E+00
  0.00000000E+00  0.00000000E+00  0.00000000E+00
  0.00000000E+00  0.00000000E+00  0.00000000E+00
  0.00000000E+00  0.00000000E+00  0.00000000E+00
  0.00000000E+00  0.00000000E+00  0.00000000E+00
  0.00000000E+00  0.00000000E+00  0.00000000E+00
  0.00000000E+00  0.00000000E+00  0.00000000E+00
  0.00000000E+00  0.00000000E+00  0.00000000E+00
  0.00000000E+00  0.00000000E+00  0.00000000E+00
  0.00000000E+00  0.00000000E+00  0.00000000E+00
  0.00000000E+00  0.00000000E+00  0.00000000E+00
  0.00000000E+00  0.00000000E+00  0.00000000E+00
  0.00000000E+00  0.00000000E+00  0.00000000E+00
  0.00000000E+00  0.00000000E+00  0.00000000E+00
  0.00000000E+00  0.00000000E+00  0.00000000E+00
  0.00000000E+00  0.00000000E+00  0.00000000E+00
  0.00000000E+00  0.00000000E+00  0.00000000E+00
  0.00000000E+00  0.00000000E+00  0.00000000E+00
  0.00000000E+00  0.00000000E+00  0.00000000E+00
  0.00000000E+00  0.00000000E+00  0.00000000E+00
  0.00000000E+00  0.00000000E+00  0.00000000E+00
  0.00000000E+00  0.00000000E+00  0.00000000E+00
  0.00000000E+00  0.00000000E+00  0.00000000E+00
  0.00000000E+00  0.00000000E+00  0.00000000E+00
  0.00000000E+00  0.00000000E+00  0.00000000E+00
  0.00000000E+00  0.00000000E+00  0.00000000E+00
  0.00000000E+00  0.00000000E+00  0.00000000E+00
  0.00000000E+00  0.00000000E+00  0.00000000E+00
  0.00000000E+00  0.00000000E+00  0.00000000E+00
  0.00000000E+00  0.00000000E+00  0.00000000E+00
  0.00000000E+00  0.00000000E+00  0.00000000E+00
  0.00000000E+00  0.00000000E+00  0.00000000E+00
  0.00000000E+00  0.00000000E+00  0.00000000E+00
  0.00000000E+00  0.00000000E+00  0.00000000E+00
  0.00000000E+00  0.00000000E+00  0.00000000E+00
  0.00000000E+00  0.00000000E+00  0.00000000E+00
  0.00000000E+00  0.00000000E+00  0.00000000E+00
  0.00000000E+00  0.00000000E+00  0.00000000E+00
  0.00000000E+00  0.00000000E+00  0.00000000E+00
  0.00000000E+00  0.00000000E+00  0.00000000E+00
  0.00000000E+00  0.00000000E+00  0.00000000E+00
  0.00000000E+00  0.00000000E+00  0.00000000E+00
  0.00000000E+00  0.00000000E+00  0.00000000E+00
  0.00000000E+00  0.00000000E+00  0.00000000E+00
  0.00000000E+00  0.00000000E+00  0.00000000E+00
  0.00000000E+00  0.00000000E+00  0.00000000E+00
  0.00000000E+00  0.00000000E+00  0.00000000E+00
  0.00000000E+00  0.00000000E+00  0.00000000E+00
  0.00000000E+00  0.00000000E+00  0.00000000E+00
  0.00000000E+00  0.00000000E+00  0.00000000E+00
  0.00000000E+00  0.00000000E+00  0.00000000E+00
  0.00000000E+00  0.00000000E+00  0.00000000E+00
  0.00000000E+00  0.00000000E+00  0.00000000E+00
  0.00000000E+00  0.00000000E+00  0.00000000E+00
  0.00000000E+00  0.00000000E+00  0.00000000E+00
  0.00000000E+00  0.00000000E+00  0.00000000E+00
  0.00000000E+00  0.00000000E+00  0.00000000E+00
  0.00000000E+00  0.00000000E+00  0.00000000E+00
  0.00000000E+00  0.00000000E+00  0.00000000E+00
  0.00000000E+00  0.00000000E+00  0.00000000E+00
  0.00000000E+00  0.00000000E+00  0.00000000E+00
  0.00000000E+00  0.00000000E+00  0.00000000E+00
  0.00000000E+00  0.00000000E+00  0.00000000E+00
  0.00000000E+00  0.00000000E+00  0.00000000E+00
  0.00000000E+00  0.00000000E+00  0.00000000E+00
  0.00000000E+00  0.00000000E+00  0.00000000E+00
  0.00000000E+00  0.00000000E+00  0.00000000E+00
  0.00000000E+00  0.00000000E+00  0.00000000E+00
  0.00000000E+00  0.00000000E+00  0.00000000E+00
  0.00000000E+00  0.00000000E+00  0.00000000E+00
  0.00000000E+00  0.00000000E+00  0.00000000E+00
  0.00000000E+00  0.00000000E+00  0.00000000E+00
  0.00000000E+00  0.00000000E+00  0.00000000E+00
  0.00000000E+00  0.00000000E+00  0.00000000E+00
  0.00000000E+00  0.00000000E+00  0.00000000E+00
  0.00000000E+00  0.00000000E+00  0.00000000E+00
  0.00000000E+00  0.00000000E+00  0.00000000E+00
  0.00000000E+00  0.00000000E+00  0.00000000E+00
  0.00000000E+00  0.00000000E+00  0.00000000E+00
  0.00000000E+00  0.00000000E+00  0.00000000E+00
  0.00000000E+00  0.00000000E+00  0.00000000E+00
  0.00000000E+00  0.00000000E+00  0.00000000E+00
  0.00000000E+00  0.00000000E+00  0.00000000E+00
  0.00000000E+00  0.00000000E+00  0.00000000E+00
  0.00000000E+00  0.00000000E+00  0.00000000E+00
  0.00000000E+00  0.00000000E+00  0.00000000E+00
  0.00000000E+00  0.00000000E+00  0.00000000E+00
  0.00000000E+00  0.00000000E+00  0.00000000E+00
  0.00000000E+00  0.00000000E+00  0.00000000E+00
  0.00000000E+00  0.00000000E+00  0.00000000E+00
  0.00000000E+00  0.00000000E+00  0.00000000E+00
  0.00000000E+00  0.00000000E+00  0.00000000E+00
  0.00000000E+00  0.00000000E+00  0.00000000E+00
  0.00000000E+00  0.00000000E+00  0.00000000E+00
  0.00000000E+00  0.00000000E+00  0.00000000E+00
  0.00000000E+00  0.00000000E+00  0.00000000E+00
  0.00000000E+00  0.00000000E+00  0.00000000E+00
  0.00000000E+00  0.00000000E+00  0.00000000E+00
  0.00000000E+00  0.00000000E+00  0.00000000E+00
  0.00000000E+00  0.00000000E+00  0.00000000E+00
  0.00000000E+00  0.00000000E+00  0.00000000E+00
  0.00000000E+00  0.00000000E+00  0.00000000E+00
  0.00000000E+00  0.00000000E+00  0.00000000E+00
  0.00000000E+00  0.00000000E+00  0.00000000E+00
  0.00000000E+00  0.00000000E+00  0.00000000E+00
  0.00000000E+00  0.00000000E+00  0.00000000E+00
  0.00000000E+00  0.00000000E+00  0.00000000E+00
  0.00000000E+00  0.00000000E+00  0.00000000E+00
  0.00000000E+00  0.00000000E+00  0.00000000E+00
  0.00000000E+00  0.00000000E+00  0.00000000E+00
  0.00000000E+00  0.00000000E+00  0.00000000E+00
  0.00000000E+00  0.00000000E+00  0.00000000E+00
  0.00000000E+00  0.00000000E+00  0.00000000E+00
  0.00000000E+00  0.00000000E+00  0.00000000E+00
  0.00000000E+00  0.00000000E+00  0.00000000E+00
  0.00000000E+00  0.00000000E+00  0.00000000E+00
  0.00000000E+00  0.00000000E+00  0.00000000E+00
  0.00000000E+00  0.00000000E+00  0.00000000E+00
  0.00000000E+00  0.00000000E+00  0.00000000E+00
  0.00000000E+00  0.00000000E+00  0.00000000E+00
  0.00000000E+00  0.00000000E+00  0.00000000E+00
  0.00000000E+00  0.00000000E+00  0.00000000E+00
  0.00000000E+00  0.00000000E+00  0.00000000E+00
  0.00000000E+00  0.00000000E+00  0.00000000E+00
  0.00000000E+00  0.00000000E+00  0.00000000E+00
  0.00000000E+00  0.00000000E+00  0.00000000E+00
  0.00000000E+00  0.00000000E+00  0.00000000E+00
  0.00000000E+00  0.00000000E+00  0.00000000E+00
  0.00000000E+00  0.00000000E+00  0.00000000E+00
  0.00000000E+00  0.00000000E+00  0.00000000E+00
  0.00000000E+00  0.00000000E+00  0.00000000E+00
  0.00000000E+00  0.00000000E+00  0.00000000E+00
  0.00000000E+00  0.00000000E+00  0.00000000E+00
  0.00000000E+00  0.00000000E+00  0.00000000E+00
  0.00000000E+00  0.00000000E+00  0.00000000E+00
  0.00000000E+00  0.00000000E+00  0.00000000E+00
  0.00000000E+00  0.00000000E+00  0.00000000E+00
  0.00000000E+00  0.00000000E+00  0.00000000E+00
  0.00000000E+00  0.00000000E+00  0.00000000E+00
  0.00000000E+00  0.00000000E+00  0.00000000E+00
  0.00000000E+00  0.00000000E+00  0.00000000E+00
  0.00000000E+00  0.00000000E+00  0.00000000E+00
  0.00000000E+00  0.00000000E+00  0.00000000E+00
  0.00000000E+00  0.00000000E+00  0.00000000E+00
  0.00000000E+00  0.00000000E+00  0.00000000E+00
  0.00000000E+00  0.00000000E+00  0.00000000E+00
  0.00000000E+00  0.00000000E+00  0.00000000E+00
  0.00000000E+00  0.00000000E+00  0.00000000E+00
  0.00000000E+00  0.00000000E+00  0.00000000E+00
  0.00000000E+00  0.00000000E+00  0.00000000E+00
  0.00000000E+00  0.00000000E+00  0.00000000E+00
  0.00000000E+00  0.00000000E+00  0.00000000E+00
  0.00000000E+00  0.00000000E+00  0.00000000E+00
  0.00000000E+00  0.00000000E+00  0.00000000E+00
  0.00000000E+00  0.00000000E+00  0.00000000E+00
  0.00000000E+00  0.00000000E+00  0.00000000E+00
  0.00000000E+00  0.00000000E+00  0.00000000E+00
  0.00000000E+00  0.00000000E+00  0.00000000E+00
  0.00000000E+00  0.00000000E+00  0.00000000E+00
  0.00000000E+00  0.00000000E+00  0.00000000E+00
  0.00000000E+00  0.00000000E+00  0.00000000E+00
  0.00000000E+00  0.00000000E+00  0.00000000E+00
  0.00000000E+00  0.00000000E+00  0.00000000E+00
  0.00000000E+00  0.00000000E+00  0.00000000E+00
  0.00000000E+00  0.00000000E+00  0.00000000E+00
  0.00000000E+00  0.00000000E+00  0.00000000E+00
  0.00000000E+00  0.00000000E+00  0.00000000E+00
  0.00000000E+00  0.00000000E+00  0.00000000E+00
  0.00000000E+00  0.00000000E+00  0.00000000E+00
  0.00000000E+00  0.00000000E+00  0.00000000E+00
  0.00000000E+00  0.00000000E+00  0.00000000E+00
  0.00000000E+00  0.00000000E+00  0.00000000E+00
  0.00000000E+00  0.00000000E+00  0.00000000E+00
  0.00000000E+00  0.00000000E+00  0.00000000E+00
  0.00000000E+00  0.00000000E+00  0.00000000E+00
  0.00000000E+00  0.00000000E+00  0.00000000E+00