Amorphous Sb                            
   1.00000000000000     
    20.8202102478061484    0.0000000000000000    0.0000000000000000
     0.0000000000000000   20.8202102478061484    0.0000000000000000
     0.0000000000000000    0.0000000000000000   20.8202102478061484
   Si   Te
   150   150
Direct
  0.5325012414004611  0.5147413630199745  0.7983127608414523
  0.6992323806256477  0.4425312020948060  0.5618098483511101
  0.6310722079987046  0.6242350542537054  0.8805568770390905
  0.6360453907728146  0.1211161810904130  0.9375146294254459
  0.5390641062842773  0.0843142842144368  0.3634182247817058
  0.4763481000007675  0.4052841606976394  0.9810101632609890
  0.3018877045688602  0.4495374334417978  0.9901669506822913
  0.4766780136555766  0.0857211130679140  0.4608702221693625
  0.8761676223155873  0.5325332881299150  0.5942095550224349
  0.2410914646838592  0.9724781530137396  0.6573027974551702
  0.8183032764798706  0.3626223590703810  0.0644176386507746
  0.8532406224094496  0.3440926742582881  0.5528664171623643
  0.3263777430613974  0.1001764513120522  0.8469406295781859
  0.1773734267567783  0.0062240761805763  0.7467879579968655
  0.6022143002857167  0.1866902974730970  0.0254296183951726
  0.4441562173490586  0.2095392662358833  0.9334366429426263
  0.9525564502402680  0.7341731294640718  0.8114356993241293
  0.8102359443706548  0.6146517537666525  0.3050034850603808
  0.1198340574065710  0.5717430711672370  0.3753207082278524
  0.0474734607299836  0.5043374016995634  0.6668318903443798
  0.4033576068531925  0.3584139713535329  0.3951727981514097
  0.8608599933012543  0.8944326608497656  0.8489676216710074
  0.0126793866997535  0.6497210236726629  0.0129077777569844
  0.6573720269896177  0.4490989984156403  0.0371678727209120
  0.5360328961493553  0.1514070698690833  0.8810093604350694
  0.6153058539369295  0.5105360645333683  0.8797912454429656
  0.4287987200297836  0.1374858301825194  0.0933918446086948
  0.1653591698440398  0.1861012516086189  0.1474227330408503
  0.2484622676190926  0.9264706973729430  0.0259878854831133
  0.8000472648643959  0.3753300455816401  0.3954452646929216
  0.2153157073362792  0.8853472639665636  0.9246649106770841
  0.5075505978105511  0.3365179930742092  0.8326238333465604
  0.9349867200747576  0.5135796204641033  0.6901793273418206
  0.8913019125942029  0.8717738696186104  0.3067756255833535
  0.9984491158828337  0.9725943522774277  0.2341872808463744
  0.9718018021664877  0.6821226667937909  0.2735046672373868
  0.3264533673008683  0.5605149146222531  0.6379498037235567
  0.5287429900455358  0.9295452806320106  0.2710455936530560
  0.6402546300100904  0.7396425194872318  0.0262315240337493
  0.4742805189941852  0.9655232864629182  0.8443958091068872
  0.9103372031339682  0.0337480847620537  0.0578675988120070
  0.6063058419799096  0.3258939745951499  0.8822194541461950
  0.7318642415882071  0.7906612377209482  0.3603026228354288
  0.7672725439474731  0.0247000552787159  0.8229985541738712
  0.6414801052816191  0.9108695090281428  0.9173161185803114
  0.6565548150659558  0.0212735309141434  0.8767426407943752
  0.9924049541056513  0.3881738998906730  0.0845264746846142
  0.9914572190476781  0.5855314459327626  0.1065910667854497
  0.9923002050239288  0.3455254985707918  0.7417391425685925
  0.7969349642746953  0.8061649352944709  0.8828997623485400
  0.5245713383956218  0.5754107894691709  0.0447529672128610
  0.4885228721815061  0.7297225331201198  0.4888642618851667
  0.8883526807980813  0.6861633546391986  0.3523114749293877
  0.0003343482041029  0.2181370966773960  0.0775146322826441
  0.3266666776186035  0.1023366660253712  0.0377753831346797
  0.6442403446529665  0.8218647793138362  0.1943527784078417
  0.5542836933091781  0.1810307019870268  0.2179002540270793
  0.5947532241718315  0.9859484530276392  0.3486310883412198
  0.6315188325848816  0.1944619270378312  0.1361224625199294
  0.4851051792998053  0.5904353126308374  0.7257812739955701
  0.4931775524089742  0.2109887165128704  0.0358272497078637
  0.6263236107454840  0.4885626400799934  0.4829130607947434
  0.3677101673827797  0.9988801692761768  0.8788670606181473
  0.3691132738959218  0.5995636267825766  0.7363736042280452
  0.9143576659677768  0.3601615276179759  0.0034587359933819
  0.7305975044675720  0.0653178947840761  0.2567537199041669
  0.2980515164256951  0.4427383596269617  0.8735449800710723
  0.8603955104890347  0.7070858476661264  0.8731454378934665
  0.8474304444762067  0.7921646609694967  0.3766386851357724
  0.0021268186179372  0.6320741167224386  0.8198172122571573
  0.5746304612281504  0.5943893445519791  0.3529757111418397
  0.0597134487168011  0.5364630553905424  0.5562735253312657
  0.8107014037310117  0.4527673321450639  0.5458467100073204
  0.3969606966927703  0.4276635722360750  0.7212792233871284
  0.2826230463138319  0.7149328144206951  0.9390026557712429
  0.5634241717567530  0.4832134234403306  0.9795970615251949
  0.6981356021874355  0.9691047167911132  0.3058124421554509
  0.0966150143338614  0.0113117080163834  0.6623352501504985
  0.0135325608692698  0.7703485458654329  0.2171497423074267
  0.6555315000748216  0.2712541432768966  0.9701144088481214
  0.3831268284184799  0.0121744116929288  0.9907243172492705
  0.3872022711175081  0.2368478664540643  0.2628136892122313
  0.1704619959730967  0.3223970208378528  0.8356921348903842
  0.8746771310905338  0.0377825284704393  0.6835557052447241
  0.9709399379379816  0.1147261819562288  0.1105648583678912
  0.9704411271664405  0.7987313122777838  0.5693306339870506
  0.7162174702950299  0.8606119551008279  0.2718421542266755
  0.0019736563854854  0.8652337721822414  0.2748371888816070
  0.9106227889412074  0.6019505574555414  0.7573633633834139
  0.5796365976218325  0.6765849493398662  0.4342058634590436
  0.1049568345982929  0.9491757288325636  0.8102719835842925
  0.3829988261706195  0.8019074161030034  0.0218532852809918
  0.5044275248625959  0.4157586465026655  0.7518773036900068
  0.9682784531448663  0.6926916085928664  0.6121559963140449
  0.5780874754974558  0.8610204251002985  0.4531496512906927
  0.4340451676915009  0.9543351121168687  0.3230952082130857
  0.3366385221749283  0.3381466800715818  0.8534224991365383
  0.1005832630580452  0.1763358201203829  0.0539165736365459
  0.7065968934538195  0.3446343764163955  0.0423505840550166
  0.9654366384242236  0.2996804485179563  0.1455247445408001
  0.1046141050162750  0.1327139676315647  0.2315491059452610
  0.3520486074938282  0.5024879467877845  0.7946828220916475
  0.6670601233237874  0.3894329204842140  0.7270132519846338
  0.0638690909441557  0.2390207729473506  0.5181945634386311
  0.9102466396129358  0.7062216448964421  0.7097607898755576
  0.0624105083074242  0.3501154700544170  0.5632103866517013
  0.0301071785672279  0.5905274175155586  0.3026935763395699
  0.5947390778706833  0.1750745250185117  0.3252075690566886
  0.4022284957493942  0.4661393136976543  0.0439739252330039
  0.3684501140289893  0.1373495234890811  0.3149810085625678
  0.3606549394759923  0.9138271973508481  0.0458672230578754
  0.4807392859240844  0.0965046771318091  0.1905151397853514
  0.9444067370540081  0.4877800589212820  0.0704831978640122
  0.8438920023788794  0.9951437359927875  0.9078248066306094
  0.6464014913198152  0.7721845860656504  0.4338233804261630
  0.7615127404139286  0.5155238462229255  0.3419910812505917
  0.3331712754166819  0.1705825424698052  0.9380831189142651
  0.9597204315786122  0.5957404158946302  0.5460179581682577
  0.6766456780693203  0.8482476748736480  0.0066275597999867
  0.4497879542785032  0.0650548583992313  0.2963044311400646
  0.0003798979673060  0.2220944926069552  0.8978987601458618
  0.6637723691632705  0.4123685035313370  0.8390716223003511
  0.6479033418820411  0.5073140385067106  0.3715311970386775
  0.9280691259951547  0.6504935724125366  0.1739053702748108
  0.4011390771416981  0.4781479966244140  0.6201244278789653
  0.6390610642340979  0.9538186215610136  0.4508944463191870
  0.4216706372165953  0.4243334590598318  0.5229433075582455
  0.8556322045244725  0.2799459242494693  0.1295529960958233
  0.1012147493082933  0.0193613183886592  0.2406009308641637
  0.5362064595705808  0.5354397303445110  0.1518163236428422
  0.5194568475339119  0.4497875184375250  0.4675451029485252
  0.9268132845621662  0.0401063708064099  0.4894214791914801
  0.9041698045144366  0.9876752866935639  0.3016074615540600
  0.4768516409197420  0.9025330843256468  0.4176421647913405
  0.9977661691898192  0.0693220020036751  0.6715378854668128
  0.1087340038342788  0.1515153259364448  0.3484379461773917
  0.0672909075268156  0.8996209192875358  0.6603151122948979
  0.2707590566735045  0.1401713460867056  0.1396415203394535
  0.5432459727366188  0.6848048493904071  0.0133660703108271
  0.2636805579876861  0.2697282839508390  0.9052760258561127
  0.0728669284103960  0.3862357912311776  0.6730494077434986
  0.1108982640498068  0.4417115078512041  0.5150288918673332
  0.2696801247405051  0.7005756681583709  0.2948764035371418
  0.8272357950822264  0.9515296032542376  0.7537788829027671
  0.5185228886293545  0.3705886551299309  0.3844661591844160
  0.4323057574783453  0.3220266179787655  0.9108599601437449
  0.5534006057735654  0.0490690463164941  0.8261926378210392
  0.9377819579971893  0.2503160803604512  0.9896181949089253
  0.9588268352338369  0.2405327082652918  0.7164708278314345
  0.1524594241132759  0.3899602053874265  0.1431808731775139
  0.3840481048827827  0.7723662013880430  0.9016112827447508
  0.3861908974364330  0.9453165050039689  0.1617651839770180
  0.6896969750490458  0.2986123934242461  0.1585865668461237
  0.9759220282670177  0.6541665209771451  0.4354732360015636
  0.5914735812514247  0.4209503645087198  0.2987967754209402
  0.8819234127850257  0.2376452014252496  0.6188522522838530
  0.5666361934476913  0.0508759048118140  0.7037959082486848
  0.3390255895578100  0.4557711819829163  0.4356327527047072
  0.4410665888209436  0.5116951898344156  0.8803837687480914
  0.4572998377510299  0.9760318919862386  0.5132790940970138
  0.0956836784341997  0.5955058399653017  0.7413259491025155
  0.3363929038195371  0.6446219684764926  0.3796142120882179
  0.9554075010528578  0.0412072711777646  0.9420659449570323
  0.1163341137915794  0.8390918377803267  0.7557605732100391
  0.5052344609738310  0.5411931946580095  0.6156823092148316
  0.7462888232993495  0.3021497979090081  0.7126063696040947
  0.1033197567208076  0.7283382016775154  0.0390090152962577
  0.4123363685552215  0.3031691534689658  0.5073285049690472
  0.7268568627866210  0.1949655384371555  0.9007193524659353
  0.7957239717122908  0.8231330989468809  0.0047328369446314
  0.3187710128835237  0.3201214559983945  0.3174432298804306
  0.0893857815510137  0.4439647327507861  0.3950192575366347
  0.9389240057630541  0.7626449012567152  0.1212109344494693
  0.5289434302989733  0.3273599653493716  0.0640798060815510
  0.8715438921927251  0.2885399112498035  0.4423542931070591
  0.4936250411725825  0.2877611359001402  0.2319897567182450
  0.6453575086902529  0.0092814665399152  0.5592583867798733
  0.2862991874629883  0.7355403523486758  0.0601415754714933
  0.8204386650935038  0.8372642704166822  0.2126737086400354
  0.1852397511812559  0.2519839900707945  0.5129861169585223
  0.8085799371643628  0.6031782380884402  0.8266364578071916
  0.7116464479010736  0.3172232565815766  0.5706057198781337
  0.3198704074541414  0.7812869610806484  0.2241061545827796
  0.9586191679865083  0.9370371468344840  0.1210169048196675
  0.2130819873343609  0.8915142946632616  0.4481384274145497
  0.4973152258012803  0.0566084793325477  0.0064490625684529
  0.0422889288996392  0.3350957248496241  0.8579610467574060
  0.1721775069978922  0.3220635735437858  0.7099148011278308
  0.9706352470279218  0.8409850094791289  0.8693063862864829
  0.3044423036631804  0.5836108528376645  0.2604999126388840
  0.6888980365608620  0.3446317049474378  0.4302058109515055
  0.8370325666575734  0.2554055492222106  0.2491513472054843
  0.5372335676070947  0.8099823599994187  0.2542455270503100
  0.7166372429776064  0.1581470960065479  0.3363461293802550
  0.8381143618764931  0.0391626817372794  0.2093942003553600
  0.9358244762055073  0.4681052838479409  0.9483240784237289
  0.0770421656298985  0.0572646318247873  0.0799216873661720
  0.4117740765909983  0.1526689601123821  0.7733600333529922
  0.1017740494965209  0.3721927917933957  0.0320412849845535
  0.8119793366406282  0.7051969032492861  0.5180501341715015
  0.7559634690522927  0.9525815455988850  0.4135704803860361
  0.6954883095474609  0.4972205183899257  0.6727337502055023
  0.6400923666921656  0.1360097843138686  0.5188225889157715
  0.1214350270312149  0.7222811485539746  0.1763219894247297
  0.2553626278033228  0.4516964517389417  0.1441857623448416
  0.3064074378939229  0.8346296873105868  0.5256821325230697
  0.2575222812193107  0.6048746386821650  0.8940265382120439
  0.4410759139202062  0.4549393787403461  0.1635361742515545
  0.5136115211102330  0.1480711601449615  0.5605218996488656
  0.3706235145181020  0.1473468447539462  0.4369981403996863
  0.5405846150077683  0.6995995543777493  0.7244764301705422
  0.7882277806959068  0.1142941005192243  0.7373470184119451
  0.8794688902101810  0.8395673638595862  0.4930690175247319
  0.7928832890144953  0.4117064095014621  0.2785702090002304
  0.0885685624205759  0.7063086800748463  0.6432442162117589
  0.0619012107587391  0.5895301596695233  0.9170613074600327
  0.0604385038547648  0.4344465036094777  0.2119342606481017
  0.8335097104525605  0.4698554507262275  0.1227677592285297
  0.5949725211177643  0.9218146641051063  0.7221352700752147
  0.1949535802101098  0.9411199087276471  0.2133338501859820
  0.9130658032730874  0.1858520314329612  0.8179072514774997
  0.5208925565968382  0.8936978447594670  0.9342879145434975
  0.0920808650328404  0.8269183250734328  0.5588955446069732
  0.2302427436111390  0.4410583842387962  0.5512001827192373
  0.0689651782867090  0.8398070191321019  0.3718744664030604
  0.1334931073720898  0.6172556606684565  0.4923551912618844
  0.5765772669067443  0.2371980858551807  0.7947394752872531
  0.2173249085438587  0.1149269409248087  0.7893661387994064
  0.9466636502238721  0.8791928203313102  0.6605451391487679
  0.8917254579338225  0.6698885540970653  0.9890623111938152
  0.6636815325190470  0.9100983658511151  0.1118044121720993
  0.7439052758365299  0.5062778995867848  0.9659848510958947
  0.3232571894270772  0.9034204655074948  0.3193987554482071
  0.6613554853921662  0.6519597462256393  0.7636814565741088
  0.2246949144650308  0.0420312991708214  0.9894654569890310
  0.4152115968543397  0.7144813883517122  0.5898016728071938
  0.2061624056599476  0.5035782917130684  0.3206986384391806
  0.5311055249752569  0.6249791592601935  0.2390810691368482
  0.9594246083508436  0.4142832965910012  0.5479126916414072
  0.2291276514389817  0.5434009492303151  0.0183756634376352
  0.1539792199998544  0.7029555642412427  0.3324096461636739
  0.7742959406525972  0.8788231167092627  0.6694064660168620
  0.7731869361765524  0.3972911269933156  0.8923920790590315
  0.5483902151919808  0.2508043249957250  0.4129492221978237
  0.9962833850478797  0.9985268674419011  0.7847010798055495
  0.6372733920733884  0.6071087702455994  0.5186395184183966
  0.6761409197018224  0.7181983997737524  0.1412223244308169
  0.3471604673360904  0.2360300380446770  0.1475488295324185
  0.5432486535895775  0.8168947737111921  0.5627108549818652
  0.4033809220921341  0.5878645611885907  0.0341825953591597
  0.2863779779274878 -0.0006845080397600  0.4146279384986964
  0.8112313149531288  0.6233342736158330  0.1834059857940699
  0.2706079482616616  0.0899640157461123  0.2563454087055748
  0.5246800082159226  0.6849935409856237  0.8923857652967815
  0.9801231000504569  0.9303668924199708  0.4474394655129335
  0.1620713488791106  0.2894173936542095  0.2140420395028186
  0.1836380407061417  0.7714909970634284  0.8947265418821255
  0.4738057292881150  0.5411211576178567  0.3995621812590092
  0.5228424272396617  0.9835021535959898  0.1522553711275897
  0.4687875260749550  0.8865357486416049  0.7497924009775311
  0.2871332081789621  0.9192839707405626  0.8300318034754575
  0.7033044437878186  0.6798310237916692  0.3129924235531099
  0.0319258016805556  0.2360102065873830  0.3959373342588370
  0.8361170674151911  0.1954835996295108  0.0392998910501908
  0.6798519382067431  0.8186177648492936  0.8431637207474982
  0.3041103335284125  0.6484585121090476  0.5560254570727882
  0.6909960019747787  0.7692260075265506  0.5495334957973373
  0.0932187508752366  0.0285491366285724  0.3660692844499585
  0.6820287880651654  0.0829981655872787  0.1451082159656877
  0.8932064252566912  0.4151050643868042  0.7499487385172183
  0.9795273058627552  0.1314837733040531  0.2322265589187120
  0.7940745630791104  0.7555279929347846  0.7207883976707947
  0.4179573598032635  0.7933104500814888  0.4066756758687198
  0.3600193517774510 -0.0010234953590239  0.6655715063006460
  0.8289190029948917  0.0326584749393607  0.5678748731288440
  0.2253466345854676  0.5019120916484744  0.6740892334536452
  0.7859137673217184  0.6125244898517703  0.6173480301359716
  0.8849854630820979  0.0814526295462347  0.3802980091495461
  0.2082963170581066  0.1569292893132987  0.4213507233061293
  0.3531565507080409  0.3148810560215301  0.7339784062219945
  0.2430954815888302  0.8499680451375200  0.6459474400719466
  0.1577010053980494  0.8844025687719834  0.0975507417836085
  0.1108918005268364  0.1714515572727693  0.9296917552427028
  0.8481312499733845  0.4864421233937172  0.4308940111360607
  0.7143265059993352  0.6613965275273107  0.9652619976414182
  0.3554658288428547  0.1314143880437682  0.6532243813070505
  0.0906481404411305  0.5685622025121545  0.1853314104699495
  0.1050130709927511  0.9398004987590542  0.9303995550432268
  0.9362707322850081  0.5166419511000735  0.2895746465503393
  0.1758587962453563  0.4408039627570291  0.8662356342186690
  0.0094932741947268  0.1139340990244396  0.5440785169578154
  0.5660251620014985  0.3592619537141716  0.6632835664734020
  0.2658021927726273  0.3312745424401394  0.0124566519045794
  0.0601970168892138  0.1761894114567792  0.6968534696757255
  0.9626298802734657  0.3109053493553713  0.2657913836844634
  0.3210630079516283  0.7036082105264222  0.7645926652122733
  0.4822636418824251  0.7646646055905230  0.0850091583989775
  0.6544566314887229  0.4978395679894840  0.1502642951469696
  0.7944546868286034  0.0113040215141307  0.0200481013968680
  0.1785294077426245  0.0352781656190628  0.5730636181876677
 
  0.00000000E+00  0.00000000E+00  0.00000000E+00
  0.00000000E+00  0.00000000E+00  0.00000000E+00
  0.00000000E+00  0.00000000E+00  0.00000000E+00
  0.00000000E+00  0.00000000E+00  0.00000000E+00
  0.00000000E+00  0.00000000E+00  0.00000000E+00
  0.00000000E+00  0.00000000E+00  0.00000000E+00
  0.00000000E+00  0.00000000E+00  0.00000000E+00
  0.00000000E+00  0.00000000E+00  0.00000000E+00
  0.00000000E+00  0.00000000E+00  0.00000000E+00
  0.00000000E+00  0.00000000E+00  0.00000000E+00
  0.00000000E+00  0.00000000E+00  0.00000000E+00
  0.00000000E+00  0.00000000E+00  0.00000000E+00
  0.00000000E+00  0.00000000E+00  0.00000000E+00
  0.00000000E+00  0.00000000E+00  0.00000000E+00
  0.00000000E+00  0.00000000E+00  0.00000000E+00
  0.00000000E+00  0.00000000E+00  0.00000000E+00
  0.00000000E+00  0.00000000E+00  0.00000000E+00
  0.00000000E+00  0.00000000E+00  0.00000000E+00
  0.00000000E+00  0.00000000E+00  0.00000000E+00
  0.00000000E+00  0.00000000E+00  0.00000000E+00
  0.00000000E+00  0.00000000E+00  0.00000000E+00
  0.00000000E+00  0.00000000E+00  0.00000000E+00
  0.00000000E+00  0.00000000E+00  0.00000000E+00
  0.00000000E+00  0.00000000E+00  0.00000000E+00
  0.00000000E+00  0.00000000E+00  0.00000000E+00
  0.00000000E+00  0.00000000E+00  0.00000000E+00
  0.00000000E+00  0.00000000E+00  0.00000000E+00
  0.00000000E+00  0.00000000E+00  0.00000000E+00
  0.00000000E+00  0.00000000E+00  0.00000000E+00
  0.00000000E+00  0.00000000E+00  0.00000000E+00
  0.00000000E+00  0.00000000E+00  0.00000000E+00
  0.00000000E+00  0.00000000E+00  0.00000000E+00
  0.00000000E+00  0.00000000E+00  0.00000000E+00
  0.00000000E+00  0.00000000E+00  0.00000000E+00
  0.00000000E+00  0.00000000E+00  0.00000000E+00
  0.00000000E+00  0.00000000E+00  0.00000000E+00
  0.00000000E+00  0.00000000E+00  0.00000000E+00
  0.00000000E+00  0.00000000E+00  0.00000000E+00
  0.00000000E+00  0.00000000E+00  0.00000000E+00
  0.00000000E+00  0.00000000E+00  0.00000000E+00
  0.00000000E+00  0.00000000E+00  0.00000000E+00
  0.00000000E+00  0.00000000E+00  0.00000000E+00
  0.00000000E+00  0.00000000E+00  0.00000000E+00
  0.00000000E+00  0.00000000E+00  0.00000000E+00
  0.00000000E+00  0.00000000E+00  0.00000000E+00
  0.00000000E+00  0.00000000E+00  0.00000000E+00
  0.00000000E+00  0.00000000E+00  0.00000000E+00
  0.00000000E+00  0.00000000E+00  0.00000000E+00
  0.00000000E+00  0.00000000E+00  0.00000000E+00
  0.00000000E+00  0.00000000E+00  0.00000000E+00
  0.00000000E+00  0.00000000E+00  0.00000000E+00
  0.00000000E+00  0.00000000E+00  0.00000000E+00
  0.00000000E+00  0.00000000E+00  0.00000000E+00
  0.00000000E+00  0.00000000E+00  0.00000000E+00
  0.00000000E+00  0.00000000E+00  0.00000000E+00
  0.00000000E+00  0.00000000E+00  0.00000000E+00
  0.00000000E+00  0.00000000E+00  0.00000000E+00
  0.00000000E+00  0.00000000E+00  0.00000000E+00
  0.00000000E+00  0.00000000E+00  0.00000000E+00
  0.00000000E+00  0.00000000E+00  0.00000000E+00
  0.00000000E+00  0.00000000E+00  0.00000000E+00
  0.00000000E+00  0.00000000E+00  0.00000000E+00
  0.00000000E+00  0.00000000E+00  0.00000000E+00
  0.00000000E+00  0.00000000E+00  0.00000000E+00
  0.00000000E+00  0.00000000E+00  0.00000000E+00
  0.00000000E+00  0.00000000E+00  0.00000000E+00
  0.00000000E+00  0.00000000E+00  0.00000000E+00
  0.00000000E+00  0.00000000E+00  0.00000000E+00
  0.00000000E+00  0.00000000E+00  0.00000000E+00
  0.00000000E+00  0.00000000E+00  0.00000000E+00
  0.00000000E+00  0.00000000E+00  0.00000000E+00
  0.00000000E+00  0.00000000E+00  0.00000000E+00
  0.00000000E+00  0.00000000E+00  0.00000000E+00
  0.00000000E+00  0.00000000E+00  0.00000000E+00
  0.00000000E+00  0.00000000E+00  0.00000000E+00
  0.00000000E+00  0.00000000E+00  0.00000000E+00
  0.00000000E+00  0.00000000E+00  0.00000000E+00
  0.00000000E+00  0.00000000E+00  0.00000000E+00
  0.00000000E+00  0.00000000E+00  0.00000000E+00
  0.00000000E+00  0.00000000E+00  0.00000000E+00
  0.00000000E+00  0.00000000E+00  0.00000000E+00
  0.00000000E+00  0.00000000E+00  0.00000000E+00
  0.00000000E+00  0.00000000E+00  0.00000000E+00
  0.00000000E+00  0.00000000E+00  0.00000000E+00
  0.00000000E+00  0.00000000E+00  0.00000000E+00
  0.00000000E+00  0.00000000E+00  0.00000000E+00
  0.00000000E+00  0.00000000E+00  0.00000000E+00
  0.00000000E+00  0.00000000E+00  0.00000000E+00
  0.00000000E+00  0.00000000E+00  0.00000000E+00
  0.00000000E+00  0.00000000E+00  0.00000000E+00
  0.00000000E+00  0.00000000E+00  0.00000000E+00
  0.00000000E+00  0.00000000E+00  0.00000000E+00
  0.00000000E+00  0.00000000E+00  0.00000000E+00
  0.00000000E+00  0.00000000E+00  0.00000000E+00
  0.00000000E+00  0.00000000E+00  0.00000000E+00
  0.00000000E+00  0.00000000E+00  0.00000000E+00
  0.00000000E+00  0.00000000E+00  0.00000000E+00
  0.00000000E+00  0.00000000E+00  0.00000000E+00
  0.00000000E+00  0.00000000E+00  0.00000000E+00
  0.00000000E+00  0.00000000E+00  0.00000000E+00
  0.00000000E+00  0.00000000E+00  0.00000000E+00
  0.00000000E+00  0.00000000E+00  0.00000000E+00
  0.00000000E+00  0.00000000E+00  0.00000000E+00
  0.00000000E+00  0.00000000E+00  0.00000000E+00
  0.00000000E+00  0.00000000E+00  0.00000000E+00
  0.00000000E+00  0.00000000E+00  0.00000000E+00
  0.00000000E+00  0.00000000E+00  0.00000000E+00
  0.00000000E+00  0.00000000E+00  0.00000000E+00
  0.00000000E+00  0.00000000E+00  0.00000000E+00
  0.00000000E+00  0.00000000E+00  0.00000000E+00
  0.00000000E+00  0.00000000E+00  0.00000000E+00
  0.00000000E+00  0.00000000E+00  0.00000000E+00
  0.00000000E+00  0.00000000E+00  0.00000000E+00
  0.00000000E+00  0.00000000E+00  0.00000000E+00
  0.00000000E+00  0.00000000E+00  0.00000000E+00
  0.00000000E+00  0.00000000E+00  0.00000000E+00
  0.00000000E+00  0.00000000E+00  0.00000000E+00
  0.00000000E+00  0.00000000E+00  0.00000000E+00
  0.00000000E+00  0.00000000E+00  0.00000000E+00
  0.00000000E+00  0.00000000E+00  0.00000000E+00
  0.00000000E+00  0.00000000E+00  0.00000000E+00
  0.00000000E+00  0.00000000E+00  0.00000000E+00
  0.00000000E+00  0.00000000E+00  0.00000000E+00
  0.00000000E+00  0.00000000E+00  0.00000000E+00
  0.00000000E+00  0.00000000E+00  0.00000000E+00
  0.00000000E+00  0.00000000E+00  0.00000000E+00
  0.00000000E+00  0.00000000E+00  0.00000000E+00
  0.00000000E+00  0.00000000E+00  0.00000000E+00
  0.00000000E+00  0.00000000E+00  0.00000000E+00
  0.00000000E+00  0.00000000E+00  0.00000000E+00
  0.00000000E+00  0.00000000E+00  0.00000000E+00
  0.00000000E+00  0.00000000E+00  0.00000000E+00
  0.00000000E+00  0.00000000E+00  0.00000000E+00
  0.00000000E+00  0.00000000E+00  0.00000000E+00
  0.00000000E+00  0.00000000E+00  0.00000000E+00
  0.00000000E+00  0.00000000E+00  0.00000000E+00
  0.00000000E+00  0.00000000E+00  0.00000000E+00
  0.00000000E+00  0.00000000E+00  0.00000000E+00
  0.00000000E+00  0.00000000E+00  0.00000000E+00
  0.00000000E+00  0.00000000E+00  0.00000000E+00
  0.00000000E+00  0.00000000E+00  0.00000000E+00
  0.00000000E+00  0.00000000E+00  0.00000000E+00
  0.00000000E+00  0.00000000E+00  0.00000000E+00
  0.00000000E+00  0.00000000E+00  0.00000000E+00
  0.00000000E+00  0.00000000E+00  0.00000000E+00
  0.00000000E+00  0.00000000E+00  0.00000000E+00
  0.00000000E+00  0.00000000E+00  0.00000000E+00
  0.00000000E+00  0.00000000E+00  0.00000000E+00
  0.00000000E+00  0.00000000E+00  0.00000000E+00
  0.00000000E+00  0.00000000E+00  0.00000000E+00
  0.00000000E+00  0.00000000E+00  0.00000000E+00
  0.00000000E+00  0.00000000E+00  0.00000000E+00
  0.00000000E+00  0.00000000E+00  0.00000000E+00
  0.00000000E+00  0.00000000E+00  0.00000000E+00
  0.00000000E+00  0.00000000E+00  0.00000000E+00
  0.00000000E+00  0.00000000E+00  0.00000000E+00
  0.00000000E+00  0.00000000E+00  0.00000000E+00
  0.00000000E+00  0.00000000E+00  0.00000000E+00
  0.00000000E+00  0.00000000E+00  0.00000000E+00
  0.00000000E+00  0.00000000E+00  0.00000000E+00
  0.00000000E+00  0.00000000E+00  0.00000000E+00
  0.00000000E+00  0.00000000E+00  0.00000000E+00
  0.00000000E+00  0.00000000E+00  0.00000000E+00
  0.00000000E+00  0.00000000E+00  0.00000000E+00
  0.00000000E+00  0.00000000E+00  0.00000000E+00
  0.00000000E+00  0.00000000E+00  0.00000000E+00
  0.00000000E+00  0.00000000E+00  0.00000000E+00
  0.00000000E+00  0.00000000E+00  0.00000000E+00
  0.00000000E+00  0.00000000E+00  0.00000000E+00
  0.00000000E+00  0.00000000E+00  0.00000000E+00
  0.00000000E+00  0.00000000E+00  0.00000000E+00
  0.00000000E+00  0.00000000E+00  0.00000000E+00
  0.00000000E+00  0.00000000E+00  0.00000000E+00
  0.00000000E+00  0.00000000E+00  0.00000000E+00
  0.00000000E+00  0.00000000E+00  0.00000000E+00
  0.00000000E+00  0.00000000E+00  0.00000000E+00
  0.00000000E+00  0.00000000E+00  0.00000000E+00
  0.00000000E+00  0.00000000E+00  0.00000000E+00
  0.00000000E+00  0.00000000E+00  0.00000000E+00
  0.00000000E+00  0.00000000E+00  0.00000000E+00
  0.00000000E+00  0.00000000E+00  0.00000000E+00
  0.00000000E+00  0.00000000E+00  0.00000000E+00
  0.00000000E+00  0.00000000E+00  0.00000000E+00
  0.00000000E+00  0.00000000E+00  0.00000000E+00
  0.00000000E+00  0.00000000E+00  0.00000000E+00
  0.00000000E+00  0.00000000E+00  0.00000000E+00
  0.00000000E+00  0.00000000E+00  0.00000000E+00
  0.00000000E+00  0.00000000E+00  0.00000000E+00
  0.00000000E+00  0.00000000E+00  0.00000000E+00
  0.00000000E+00  0.00000000E+00  0.00000000E+00
  0.00000000E+00  0.00000000E+00  0.00000000E+00
  0.00000000E+00  0.00000000E+00  0.00000000E+00
  0.00000000E+00  0.00000000E+00  0.00000000E+00
  0.00000000E+00  0.00000000E+00  0.00000000E+00
  0.00000000E+00  0.00000000E+00  0.00000000E+00
  0.00000000E+00  0.00000000E+00  0.00000000E+00
  0.00000000E+00  0.00000000E+00  0.00000000E+00
  0.00000000E+00  0.00000000E+00  0.00000000E+00
  0.00000000E+00  0.00000000E+00  0.00000000E+00
  0.00000000E+00  0.00000000E+00  0.00000000E+00
  0.00000000E+00  0.00000000E+00  0.00000000E+00
  0.00000000E+00  0.00000000E+00  0.00000000E+00
  0.00000000E+00  0.00000000E+00  0.00000000E+00
  0.00000000E+00  0.00000000E+00  0.00000000E+00
  0.00000000E+00  0.00000000E+00  0.00000000E+00
  0.00000000E+00  0.00000000E+00  0.00000000E+00
  0.00000000E+00  0.00000000E+00  0.00000000E+00
  0.00000000E+00  0.00000000E+00  0.00000000E+00
  0.00000000E+00  0.00000000E+00  0.00000000E+00
  0.00000000E+00  0.00000000E+00  0.00000000E+00
  0.00000000E+00  0.00000000E+00  0.00000000E+00
  0.00000000E+00  0.00000000E+00  0.00000000E+00
  0.00000000E+00  0.00000000E+00  0.00000000E+00
  0.00000000E+00  0.00000000E+00  0.00000000E+00
  0.00000000E+00  0.00000000E+00  0.00000000E+00
  0.00000000E+00  0.00000000E+00  0.00000000E+00
  0.00000000E+00  0.00000000E+00  0.00000000E+00
  0.00000000E+00  0.00000000E+00  0.00000000E+00
  0.00000000E+00  0.00000000E+00  0.00000000E+00
  0.00000000E+00  0.00000000E+00  0.00000000E+00
  0.00000000E+00  0.00000000E+00  0.00000000E+00
  0.00000000E+00  0.00000000E+00  0.00000000E+00
  0.00000000E+00  0.00000000E+00  0.00000000E+00
  0.00000000E+00  0.00000000E+00  0.00000000E+00
  0.00000000E+00  0.00000000E+00  0.00000000E+00
  0.00000000E+00  0.00000000E+00  0.00000000E+00
  0.00000000E+00  0.00000000E+00  0.00000000E+00
  0.00000000E+00  0.00000000E+00  0.00000000E+00
  0.00000000E+00  0.00000000E+00  0.00000000E+00
  0.00000000E+00  0.00000000E+00  0.00000000E+00
  0.00000000E+00  0.00000000E+00  0.00000000E+00
  0.00000000E+00  0.00000000E+00  0.00000000E+00