Amorphous Sb                            
   1.00000000000000     
    21.4026718140000014    0.0000000000000000    0.0000000000000000
     0.0000000000000000   21.4026718140000014    0.0000000000000000
     0.0000000000000000    0.0000000000000000   21.4026718140000014
   Ag   In   Sb   Te
    12     9   201    78
Direct
  0.2013823103691857  0.9555758480711080  0.7885976714666399
  0.8267191808597930  0.4897978519280399  0.7678679884574457
  0.1746896164213806  0.4499812714512162  0.0163189567770735
  0.3741235016893646  0.6942550440977919  0.5560148096060205
  0.0255979327171774  0.6848494203846857  0.7697415996858036
  0.6135906741341228  0.5332097009651868  0.0150450639439949
 -0.0110089844308281  0.6383569317600153  0.5821541924598440
  0.7664552593285953  0.6912904137576285  0.1401889336759883
  0.7462947591572782  0.7498216273162908  0.4051496309497649
  0.9008245368293528  0.9477833826493990  0.8046165810691785
  0.9270870236511138  0.9028129549856516  0.1771246493723695
  0.3849663359497966  0.7016074538845041  0.3345825095834314
  0.7674613495806447  0.4693797048563446  0.5786947908083030
  0.6587676651440210  0.8516619125323749  0.0311658857821671
  0.2204529383357393  0.3133129443082277  0.8070325590403095
  0.0451788754623623  0.3287933534671201  0.1553340536088267
  0.4615315174446755  0.0567305345990374  0.1469691791160838
  0.0397381177485063  0.5294239271696500  0.3893999112063328
  0.9262866962702840  0.3521765341938644  0.5260687482573023
  0.8801209299790752  0.3079914914587709  0.6790120935460151
  0.0643622863908494  0.4862649867459574  0.2587141336449200
  0.4583030066063136  0.6754972156870162  0.4527270984438966
  0.5732980671022895  0.7504687972493989  0.3061075738386011
  0.3039437356668270  0.7991453117767967  0.7246437487987401
  0.4852163861655001  0.2822821306249137  0.9936460752691825
  0.3721896880139516  0.3254306381361832  0.7758866980375363
  0.0054593935149291  0.1611344320495549  0.3940651494477745
  0.3135101024387442  0.7911049055185256  0.4771563285256314
  0.6483002702151435  0.7844317267295263  0.7317772669047841
 -0.0476348438609088  0.5547150702608872  0.4879945467252067
  0.2284820675849581  0.2039420274422234  0.9002969472035116
  0.3824276325143826  0.4752017896781435  0.0300991019915188
  0.2035114823756117  0.0803029363614188  0.9776948391980586
  0.1534732012054699  0.8290678329862291  0.7943746013374028
  0.1811759147790249  0.8979688576127867  0.5672816281767754
  0.3985324012426077  0.9896042033695795  0.7066177623501931
  0.4191658904454477  0.9267932302628634  0.0062007688731796
  0.9741606215303684  0.8379192382295449  0.0689191626953894
  0.9325241992979965  0.7885493778682443  0.7554459824837977
  0.6624432000687362  0.8360840815107171  0.8943098205411746
  0.3615029281054536  0.7237282847059648  0.8919815180471632
  0.9051098382961756  0.1757969647031634  0.6495362049181496
  0.8542547117135606  0.0520971623873464  0.5152164680291279
  0.2070329477134329  0.7899111720830859  0.1443141621745116
  0.9037210809587524  0.6784083042566998  0.8408891323975303
  0.6750100436140121  0.7654098803311107  0.2075876814225723
  0.7679630890555348  0.8856139860837692  0.5401283081945500
  0.6695739398401855  0.8421543200848506  0.4584400469089400
  0.4549133020033420  0.1101025454390296  0.9607937465780348
  0.2035952755213550  0.3019117502717271  0.6117123123754483
  0.7373683035093049  0.6821552478399234  0.9649981761878221
  0.5553009665015055  0.4007088729601040  0.0093633288994363
  0.3532663362435407  0.8262378104506030  0.2907674413882579
  0.1942536230692155  0.0509443789542351  0.3861909660431562
  0.3364523865994183  0.5772400334497262  0.9493708852956463
  0.3048275035464537  0.5861386064911059  0.5088846064693447
  0.4727854952435265  0.9640651985250186  0.3950582864578328
  0.8820448326477046  0.1077572657046476  0.9177447562928953
  0.3308001938646086  0.3111154582548948  0.1652097664059379
  0.0324329389984566  0.5593156672124130  0.8488381987091638
  0.7290369036308734  0.5418417803169623  0.9463446933668523
  0.5389070332138427  0.2193248467706943  0.3013695745644409
  0.2765186580746991  0.6661417610035292  0.3998898180708085
  0.4267611513776028  0.2978182564840972  0.3035224699361945
  0.9738398452969077  0.5132183563948706  0.0560465259771691
  0.7756082116914862  0.4181471364969949  0.2739217325529139
  0.3194115517072270  0.5053127720924987  0.8357637352254612
  0.5956746709503828  0.9231798680447818  0.1812108901764304
  0.3999166336700452  0.4726552789256508  0.2000990650015746
  0.6769734409198779  0.0852815744364575  0.7292403444941262
  0.2402774745061064  0.9219950121133231  0.2675288935483357
  0.6528286362411049  0.1409562063311939  0.5577422520869639
  0.0592033017542861  0.8887212304085168  0.6368932803777838
  0.3079597869057920  0.2533281583959199  0.0429829275172088
  0.1733329795548800  0.6014071449835903  0.6706112548528634
  0.2570200952118684  0.7273635665266525  0.2579109810507623
  0.4396671585600880  0.4314445855241706  0.7143925352127921
  0.0793361634824166  0.3207416536677575  0.7944453890567112
  0.1262772777520391  0.8596313676590621  0.2307820060337369
  0.1979633941246870  0.5532371065231254  0.3820613822111936
  0.9065841071876850  0.4252363527114240  0.3102267904035455
  0.1536149437849343  0.7143150737281859  0.4647518384911920
  0.1890622789889706  0.7183302288443160  0.9780725579113040
  0.3677120197377162  0.0810781915914950  0.6086835708386295
  0.0701646143512540 -0.0084833822679387  0.3808030747698340
  0.7050074820464666  0.5615683935584336  0.4970160567940600
  0.4672767739153739  0.7958259779099124  0.3843125077964797
  0.7969602324203932  0.9212290221177776  0.9545187767125324
  0.9044084391167020  0.8510024762084971  0.3972198639046328
  0.6265871008066376  0.2247694603228881  0.9835358650436298
  0.1271494035411242  0.4198350057074016  0.4214670411340422
  0.4875324183359170  0.2852204338740784  0.8375265088671333
  0.7944825623482050  0.4815451299602869  0.1526921574464468
  0.7601570880746759 -0.0000549518827294  0.7952018542418420
  0.0048089930072551  0.3063628547589789  0.0241460601108575
  0.4686506082336338  0.9053063531126055  0.6244427498464701
  0.3362090676347523  0.5605396147572790  0.2836105086839066
  0.3423140949172377  0.6542967032149111  0.1814350094817286
  0.5374591153255484 -0.0216093860296674  0.8311253697645683
  0.8055192927088225  0.8011598106610298  0.0242623015415384
  0.1950550070554023  0.3437395201357769  0.1722790453487766
  0.4811297363103579  0.6725557748107122  0.2418777993683076
  0.7189442375641374  0.2233053673946839  0.3332168199159326
  0.6927987193581349  0.2776087456731105  0.6933140005548495
  0.2399492933385649  0.6006047308138227  0.1064772966131833
  0.7423873078637812  0.1563924664330780  0.1515660734766349
  0.8722116511134663  0.7948785131692476  0.5372841966947159
  0.2309307016787665  0.7162939510274903  0.8486554848479421
  0.7695253511329393  0.0042902338991598  0.0597220726130099
  0.1852531111874281  0.3112747074482070  0.0395068661283694
  0.6640277133722388  0.9722266949518334  0.8897696072770372
  0.8330251259527811  0.9717114090740502  0.2410693293731902
  0.6013665177607133  0.5411401129633636  0.3365080424127738
  0.4074062550328216  0.0010667547400834  0.8906123385833737
  0.5180395819796818  0.3949280096308753  0.1433204293478000
  0.8050355773210608  0.1742451778949583  0.5521859053904900
  0.3653088377463478  0.8509237506317590  0.8359735180173339
  0.8714318929163735  0.2438820291749769  0.4571939069544122
  0.2891856538839565  0.8992351858320449  0.1272747643627488
  0.4048715961915221  0.8302354332793881  0.1643520676787725
  0.1834915215999871  0.2254817139294552  0.2418849117286442
  0.5298016304254831  0.8359789115057555  0.9234576594861227
  0.5879398462990209  0.7161250192857239  0.4837765525418018
  0.4956832174730644  0.8483454053851688  0.7937845375585507
  0.5857389740388695  0.3504612624491619  0.6154950765868836
  0.6149089394704106  0.6480992401067524  0.7899951276814271
  0.7460358916992744  0.1526931143004929  0.0117609246244009
  0.9139478043247642  0.0097912307982545  0.3444185192477088
  0.3818251030038206  0.2000495049193301  0.8883327517393659
  0.9912507626422996  0.0476766387080422  0.5029183500172041
  0.7334210954355355  0.8608684162578895  0.3272737898610464
  0.5343082637077048  0.1819674212028935  0.7605065832630471
  0.4682730211665639  0.2677418432593298  0.1295279342071335
  0.4385792221712260  0.3130172728345059  0.4420809077877878
  0.1076157769370453  0.8530692044949230  0.0495827268036544
  0.8602977379283441  0.0985720446392866  0.1979700614418205
  0.5235431644313008  0.7016839303867751  0.9393118022741492
  0.8869011104995074  0.6248874650724733  0.3932239506581779
  0.3133601799864824  0.0001176932585584  0.5111828241150124
  0.6110130780857906  0.4719516103587512  0.4552653044079913
  0.2494155513776676  0.9034967535021499  0.4064083952968454
  0.5232544659089728  0.1685019643497547  0.4421923631295984
  0.4918613006347981  0.4162203576723482  0.2880526268584170
  0.1675739670039386  0.0466607175933638  0.5449183356530268
  0.2390655023602257  0.0743164716194308  0.6591796127316868
  0.4915662126831556  0.7159196068226957  0.7235052848859566
  0.8994508232021199  0.7139588460113881  0.6464311624447515
  0.1404301576371103  0.1775163949177759  0.3887386085244867
  0.2677990746205591  0.4666704028110196  0.1098441966373836
  0.2247537358294830  0.3086908534369899  0.3943586316053539
  0.9793572079965065  0.7265100146406029  0.3882056759247877
  0.7685566596767521  0.6955083500247191  0.8171142564188882
  0.0825451675137834  0.0695549106947215  0.9098648338663226
  0.6170300398650904  0.6694438206439832  0.0387851029748899
  0.4883253001284964  0.5754360990636570  0.0514750893579920
  0.3606570122008131  0.2270764160737828  0.6822935510729001
  0.2944165712226666  0.8693126849911760  0.9930228447073324
  0.6129382639763251  0.4821936723174789  0.8850423821410145
  0.1646227165602165  0.1823215260144269  0.5231815236428977
  0.7796427129465772  0.1775933515739979  0.7309394308961839
  0.4601034175288415  0.7088047058041765  0.0606180474493278
  0.4356413182872905  0.4472784834257887  0.4107813959948061
  0.3011139123612981  0.3259035159298372  0.5078032241678645
  0.2583534283249664  0.0975083741481837  0.8149354827683547
  0.2086793813623262  0.5072066956502274  0.2524962985073629
  0.5887124259473552  0.2192486251973157  0.1720106451766985
  0.0569080776935798  0.4745675018373338  0.9556362548766754
  0.4622678478824571  0.3970272710712324  0.5806518077120056
  0.0738661408200862  0.3191088019300309  0.6592156655055783
  0.4953256958059208  0.5127131441954738  0.5151933686166579
  0.5142365405383958  0.5508767115500907  0.1812828115854807
  0.9487498251856465  0.6619399130785472  0.9866934114073994
  0.0814469977027896  0.9513579499250785  0.1388893548998422
  0.8062152517612876  0.5918506015912181  0.2318584705485611
  0.5768896481452250  0.0897745393662249  0.0830250292752684
  0.0698256930176853  0.9445377452166052  0.7631599315968137
  0.3013537544034973  0.1864789995021000  0.5035481481927236
  0.2678967567748524  0.9878872278329951  0.8982132801793861
  0.1278334176789609  0.0717584057963596  0.7811806955970431
  0.7949237723518000  0.9437975881981436  0.4196458044456328
  0.0893077261482003  0.2067783815295414  0.8988900476424947
  0.4087961016491800  0.7856127015337570  0.6421163912388016
  0.4683157721480888  0.5847730749893043  0.3482138424485103
  0.9189818621056506  0.2409280453520306  0.9096202771757209
  0.8422878989797941  0.0369915203724906  0.6481962174224492
  0.9256523829432597  0.2151386717096548  0.0897235549571194
  0.8270382989599947  0.2622624219620047  0.0086400059794452
  0.1687869341519405  0.5897868042324989  0.5290567454542365
  0.5464711521510306  0.5452665333881325  0.7243443604825633
  0.7089180859230135  0.7406432798320209  0.6136389882429760
  0.5763424676464451  0.7832619704966830  0.1154193992782294
  0.7108910378412489  0.3872669352815954  0.8958262839691258
  0.5182379219981048  0.1150542594302773  0.5715939585394437
  0.7390763945739081  0.3899080615402566  0.7579968555273200
  0.2270569806638893  0.2048441268489482  0.7068500339177397
  0.9349815940695274  0.5537948171935915  0.2720334004712721
  0.7715321809608078  0.2780634863307662  0.2155455511867609
  0.9914144024738926  0.2016169141816797  0.7687656440885430
  0.7087329310945228  0.5467988695236768  0.8109758482513019
  0.2990456419926482  0.4642479168084298  0.4292346487850539
  0.8153851085316409  0.8267544180807812  0.8147890018773619
  0.3870385252710638  0.6449621784328372  0.7769415452461846
  0.9161786725910945  0.7873979015942394  0.9474508219319455
  0.4904310429235277  0.5799401941714785  0.8439963439309920
  0.6499358753037928  0.6625999470082022  0.3762417899401804
  0.4868693977487719  0.6181953624555416  0.6249924100053739
  0.9014777503342999  0.3982333504121731  0.0276756150539709
  0.6336634946960141  0.0904109293384556  0.4308824195847155
  0.9547206376068792  0.4003414916609965  0.9005347961572902
  0.6293855705932138  0.6329759270364560  0.5845721879560626
  0.8995224702859123  0.0113444911973431  0.1004794297115164
  0.2016027795153737  0.5813233253866417  0.9690961760622102
  0.4049224050675186  0.1337581651142469  0.7716323109840446
  0.3204856672670435  0.7398443631027951  0.0263959001380215
  0.0374317584048523  0.8401614528285976  0.8637249757718901
  0.1360539278024746  0.4675685520774431  0.6686830615828552
 -0.0130534606887856  0.9043240804052237  0.2995484573758501
  0.9802545491918340  0.2963762875982880  0.3669921839690397
  0.5733990765100478  0.2947331647739690  0.4665141441626603
  0.0794899971509537  0.1803441575796699  0.6670261617086695
  0.3994649604838799  0.8941500658898228  0.5077420770231038
  0.8399103012796875  0.7957135212772061  0.1668403065521879
  0.0915489040390886  0.6534861606425707  0.3519030199782990
  0.2445226653932744  0.4132522564060551  0.9043493155338678
  0.4626709301426172  0.9395073243379402  0.2185372809869343
  0.7653902145855673  0.3153328115269478  0.4174133626790429
  0.1229835601726292  0.8750626384200251  0.4402123457314870
  0.8707856662837216  0.5188523249733776  0.6511550208030826
  0.0402923584272384  0.5829620503921629  0.6835559922468298
  0.1928977936574559  0.0187283194032374  0.1036609147688474
  0.8069062824269611  0.6834146074499547  0.4988920834958273
  0.5552797681110689  0.3754637012068466  0.7523142066221991
  0.5022344093602258  0.2391032863125730  0.6307124543030483
  0.9758044784374498  0.1075259744745727  0.0254018447308180
  0.1918476866896501  0.5875255027839127  0.8256027332744496
  0.7722488891658973  0.3247604556313496  0.5914104462964003
  0.0537042880176121  0.0323732628642787  0.6262106899792934
  0.5350118715772252  0.0498276667455016  0.3081215508260327
  0.2717322228304705  0.9247047088598535  0.6818329091022379
  0.9416764344222784  0.7118794324284354  0.2146588449819344
  0.0791476692723852  0.4687105656974940  0.1229799531751105
  0.7351675918826025  0.8979582865330243  0.1391104588677480
  0.3593773459418062  0.0334189867939895  0.0658834096298411
  0.5902643874767683  0.8146748277224845  0.6129911204438149
  0.9988874554627952  0.1907893859111843  0.5513526902038697
  0.0243757824935855  0.7399832432718483  0.5149485898855820
  0.6391291625690599  0.3442697427286869  0.1894340504555369
  0.1509213243281271  0.6225932000455076  0.2034733266884234
  0.2977166572201049  0.1809167912790621  0.1796340161018513
  0.1072466766938587  0.7583412947505204  0.6914309806131030
  0.5619670890400362 -0.0059127777538012  0.4928998112427934
  0.0126410519174291  0.0867005954324478  0.2832780194303105
  0.9576749219469081  0.4141496482275485  0.6457229545826725
  0.9143045096411562  0.3644993828815798  0.1842462243787234
  0.2099229081453796  0.0528096869064448  0.2526302729056780
  0.0612139776374509  0.7044637521448353  0.9029045779593290
  0.0149508131252532  0.7144827070872017  0.1012188424472180
  0.1132947951559970  0.1968403008010247  0.0352222848151544
  0.8259008689658335  0.6199039666532316  0.0478483129762893
  0.8519920754865383  0.3175035512694536  0.8114805112102306
  0.0566879940050271  0.3227322686987076  0.4853666847034853
  0.3774570494167222  0.0563855643949797  0.4094505551547046
  0.0719408859022754  0.1877739961752135  0.1812848647040289
  0.8963340980195419  0.2442692508482722  0.2604511415390168
  0.6155310534972075  0.3307559530525333  0.3392357302121185
  0.5367731285313126  0.0255977326803705  0.7057888095062980
  0.7910686715355093  0.6481820290678112  0.6853420715255862
  0.9099648773743301  0.9257561455913388  0.6772258837444507
  0.6498950815462895  0.2741517709919323  0.8605546974360101
  0.5689084038549294  0.1211146052113712  0.8874119015423350
  0.1918988833121034  0.4426355865083166  0.5376210665371149
  0.2528635583187677  0.3993742224181355  0.6946171960875774
  0.4321268997077546  0.1262592315320588  0.2589611864307829
  0.4427518330738074  0.4533879319785480  0.8686195508045794
  0.2238406368418251  0.7693070337137912  0.5788516352856915
  0.8349605247465458  0.1492439956185501  0.3477471136624813
  0.5712800922124989  0.9660882961172107  0.0305727611208174
  0.0821757045846842  0.3450318690847399  0.2915600849872402
  0.7530037242285588  0.5342229249752878  0.3425483640334089
  0.7538840398799598  0.1349469168375880  0.8574453692498344
  0.1114355632927939  0.4542750976745145  0.8071352821823017
  0.3620343476661793  0.3483728679559871  0.9597094738690064
  0.3041202425573257  0.1963522936819018  0.3720841526839001
  0.6488989214797170  0.0524153495775198  0.1892449586094187
  0.8690661171300241  0.4547502105065326  0.4587227444866961
  0.9008447093790346  0.5217045834136940  0.8679024011546330
  0.2901637097260726  0.3905915938240943  0.3081206948652136
  0.8380299829619491  0.7572248471156849  0.3083069328309240
  0.6125735245187679  0.9207939195393450  0.3188762003725294
  0.6631871273768365  0.4677631877645563  0.6667153348015565
  0.7471336160475401  0.8811172431454504  0.7137734230706926
  0.9540299822328417  0.0769046990882492  0.8096160867713021
  0.6992595853884457  0.0255201985266183  0.6101831175973638
  0.6574127951797619  0.6302860308600120  0.1886896240274398
  0.6614030993235599  0.4941503134626024  0.1369921209782763
  0.3476647509234145  0.5967215195346102  0.6478598348475695
  0.1203042697193809  0.9201167396880151  0.9343136488149056
  0.9250660553574858  0.9504225916902487  0.9323130971208773
  0.6755788946059638  0.3451406347883632  0.0324103994871023
  0.9736593924520744  0.9116178749217154  0.5046259061614170
 
  0.00000000E+00  0.00000000E+00  0.00000000E+00
  0.00000000E+00  0.00000000E+00  0.00000000E+00
  0.00000000E+00  0.00000000E+00  0.00000000E+00
  0.00000000E+00  0.00000000E+00  0.00000000E+00
  0.00000000E+00  0.00000000E+00  0.00000000E+00
  0.00000000E+00  0.00000000E+00  0.00000000E+00
  0.00000000E+00  0.00000000E+00  0.00000000E+00
  0.00000000E+00  0.00000000E+00  0.00000000E+00
  0.00000000E+00  0.00000000E+00  0.00000000E+00
  0.00000000E+00  0.00000000E+00  0.00000000E+00
  0.00000000E+00  0.00000000E+00  0.00000000E+00
  0.00000000E+00  0.00000000E+00  0.00000000E+00
  0.00000000E+00  0.00000000E+00  0.00000000E+00
  0.00000000E+00  0.00000000E+00  0.00000000E+00
  0.00000000E+00  0.00000000E+00  0.00000000E+00
  0.00000000E+00  0.00000000E+00  0.00000000E+00
  0.00000000E+00  0.00000000E+00  0.00000000E+00
  0.00000000E+00  0.00000000E+00  0.00000000E+00
  0.00000000E+00  0.00000000E+00  0.00000000E+00
  0.00000000E+00  0.00000000E+00  0.00000000E+00
  0.00000000E+00  0.00000000E+00  0.00000000E+00
  0.00000000E+00  0.00000000E+00  0.00000000E+00
  0.00000000E+00  0.00000000E+00  0.00000000E+00
  0.00000000E+00  0.00000000E+00  0.00000000E+00
  0.00000000E+00  0.00000000E+00  0.00000000E+00
  0.00000000E+00  0.00000000E+00  0.00000000E+00
  0.00000000E+00  0.00000000E+00  0.00000000E+00
  0.00000000E+00  0.00000000E+00  0.00000000E+00
  0.00000000E+00  0.00000000E+00  0.00000000E+00
  0.00000000E+00  0.00000000E+00  0.00000000E+00
  0.00000000E+00  0.00000000E+00  0.00000000E+00
  0.00000000E+00  0.00000000E+00  0.00000000E+00
  0.00000000E+00  0.00000000E+00  0.00000000E+00
  0.00000000E+00  0.00000000E+00  0.00000000E+00
  0.00000000E+00  0.00000000E+00  0.00000000E+00
  0.00000000E+00  0.00000000E+00  0.00000000E+00
  0.00000000E+00  0.00000000E+00  0.00000000E+00
  0.00000000E+00  0.00000000E+00  0.00000000E+00
  0.00000000E+00  0.00000000E+00  0.00000000E+00
  0.00000000E+00  0.00000000E+00  0.00000000E+00
  0.00000000E+00  0.00000000E+00  0.00000000E+00
  0.00000000E+00  0.00000000E+00  0.00000000E+00
  0.00000000E+00  0.00000000E+00  0.00000000E+00
  0.00000000E+00  0.00000000E+00  0.00000000E+00
  0.00000000E+00  0.00000000E+00  0.00000000E+00
  0.00000000E+00  0.00000000E+00  0.00000000E+00
  0.00000000E+00  0.00000000E+00  0.00000000E+00
  0.00000000E+00  0.00000000E+00  0.00000000E+00
  0.00000000E+00  0.00000000E+00  0.00000000E+00
  0.00000000E+00  0.00000000E+00  0.00000000E+00
  0.00000000E+00  0.00000000E+00  0.00000000E+00
  0.00000000E+00  0.00000000E+00  0.00000000E+00
  0.00000000E+00  0.00000000E+00  0.00000000E+00
  0.00000000E+00  0.00000000E+00  0.00000000E+00
  0.00000000E+00  0.00000000E+00  0.00000000E+00
  0.00000000E+00  0.00000000E+00  0.00000000E+00
  0.00000000E+00  0.00000000E+00  0.00000000E+00
  0.00000000E+00  0.00000000E+00  0.00000000E+00
  0.00000000E+00  0.00000000E+00  0.00000000E+00
  0.00000000E+00  0.00000000E+00  0.00000000E+00
  0.00000000E+00  0.00000000E+00  0.00000000E+00
  0.00000000E+00  0.00000000E+00  0.00000000E+00
  0.00000000E+00  0.00000000E+00  0.00000000E+00
  0.00000000E+00  0.00000000E+00  0.00000000E+00
  0.00000000E+00  0.00000000E+00  0.00000000E+00
  0.00000000E+00  0.00000000E+00  0.00000000E+00
  0.00000000E+00  0.00000000E+00  0.00000000E+00
  0.00000000E+00  0.00000000E+00  0.00000000E+00
  0.00000000E+00  0.00000000E+00  0.00000000E+00
  0.00000000E+00  0.00000000E+00  0.00000000E+00
  0.00000000E+00  0.00000000E+00  0.00000000E+00
  0.00000000E+00  0.00000000E+00  0.00000000E+00
  0.00000000E+00  0.00000000E+00  0.00000000E+00
  0.00000000E+00  0.00000000E+00  0.00000000E+00
  0.00000000E+00  0.00000000E+00  0.00000000E+00
  0.00000000E+00  0.00000000E+00  0.00000000E+00
  0.00000000E+00  0.00000000E+00  0.00000000E+00
  0.00000000E+00  0.00000000E+00  0.00000000E+00
  0.00000000E+00  0.00000000E+00  0.00000000E+00
  0.00000000E+00  0.00000000E+00  0.00000000E+00
  0.00000000E+00  0.00000000E+00  0.00000000E+00
  0.00000000E+00  0.00000000E+00  0.00000000E+00
  0.00000000E+00  0.00000000E+00  0.00000000E+00
  0.00000000E+00  0.00000000E+00  0.00000000E+00
  0.00000000E+00  0.00000000E+00  0.00000000E+00
  0.00000000E+00  0.00000000E+00  0.00000000E+00
  0.00000000E+00  0.00000000E+00  0.00000000E+00
  0.00000000E+00  0.00000000E+00  0.00000000E+00
  0.00000000E+00  0.00000000E+00  0.00000000E+00
  0.00000000E+00  0.00000000E+00  0.00000000E+00
  0.00000000E+00  0.00000000E+00  0.00000000E+00
  0.00000000E+00  0.00000000E+00  0.00000000E+00
  0.00000000E+00  0.00000000E+00  0.00000000E+00
  0.00000000E+00  0.00000000E+00  0.00000000E+00
  0.00000000E+00  0.00000000E+00  0.00000000E+00
  0.00000000E+00  0.00000000E+00  0.00000000E+00
  0.00000000E+00  0.00000000E+00  0.00000000E+00
  0.00000000E+00  0.00000000E+00  0.00000000E+00
  0.00000000E+00  0.00000000E+00  0.00000000E+00
  0.00000000E+00  0.00000000E+00  0.00000000E+00
  0.00000000E+00  0.00000000E+00  0.00000000E+00
  0.00000000E+00  0.00000000E+00  0.00000000E+00
  0.00000000E+00  0.00000000E+00  0.00000000E+00
  0.00000000E+00  0.00000000E+00  0.00000000E+00
  0.00000000E+00  0.00000000E+00  0.00000000E+00
  0.00000000E+00  0.00000000E+00  0.00000000E+00
  0.00000000E+00  0.00000000E+00  0.00000000E+00
  0.00000000E+00  0.00000000E+00  0.00000000E+00
  0.00000000E+00  0.00000000E+00  0.00000000E+00
  0.00000000E+00  0.00000000E+00  0.00000000E+00
  0.00000000E+00  0.00000000E+00  0.00000000E+00
  0.00000000E+00  0.00000000E+00  0.00000000E+00
  0.00000000E+00  0.00000000E+00  0.00000000E+00
  0.00000000E+00  0.00000000E+00  0.00000000E+00
  0.00000000E+00  0.00000000E+00  0.00000000E+00
  0.00000000E+00  0.00000000E+00  0.00000000E+00
  0.00000000E+00  0.00000000E+00  0.00000000E+00
  0.00000000E+00  0.00000000E+00  0.00000000E+00
  0.00000000E+00  0.00000000E+00  0.00000000E+00
  0.00000000E+00  0.00000000E+00  0.00000000E+00
  0.00000000E+00  0.00000000E+00  0.00000000E+00
  0.00000000E+00  0.00000000E+00  0.00000000E+00
  0.00000000E+00  0.00000000E+00  0.00000000E+00
  0.00000000E+00  0.00000000E+00  0.00000000E+00
  0.00000000E+00  0.00000000E+00  0.00000000E+00
  0.00000000E+00  0.00000000E+00  0.00000000E+00
  0.00000000E+00  0.00000000E+00  0.00000000E+00
  0.00000000E+00  0.00000000E+00  0.00000000E+00
  0.00000000E+00  0.00000000E+00  0.00000000E+00
  0.00000000E+00  0.00000000E+00  0.00000000E+00
  0.00000000E+00  0.00000000E+00  0.00000000E+00
  0.00000000E+00  0.00000000E+00  0.00000000E+00
  0.00000000E+00  0.00000000E+00  0.00000000E+00
  0.00000000E+00  0.00000000E+00  0.00000000E+00
  0.00000000E+00  0.00000000E+00  0.00000000E+00
  0.00000000E+00  0.00000000E+00  0.00000000E+00
  0.00000000E+00  0.00000000E+00  0.00000000E+00
  0.00000000E+00  0.00000000E+00  0.00000000E+00
  0.00000000E+00  0.00000000E+00  0.00000000E+00
  0.00000000E+00  0.00000000E+00  0.00000000E+00
  0.00000000E+00  0.00000000E+00  0.00000000E+00
  0.00000000E+00  0.00000000E+00  0.00000000E+00
  0.00000000E+00  0.00000000E+00  0.00000000E+00
  0.00000000E+00  0.00000000E+00  0.00000000E+00
  0.00000000E+00  0.00000000E+00  0.00000000E+00
  0.00000000E+00  0.00000000E+00  0.00000000E+00
  0.00000000E+00  0.00000000E+00  0.00000000E+00
  0.00000000E+00  0.00000000E+00  0.00000000E+00
  0.00000000E+00  0.00000000E+00  0.00000000E+00
  0.00000000E+00  0.00000000E+00  0.00000000E+00
  0.00000000E+00  0.00000000E+00  0.00000000E+00
  0.00000000E+00  0.00000000E+00  0.00000000E+00
  0.00000000E+00  0.00000000E+00  0.00000000E+00
  0.00000000E+00  0.00000000E+00  0.00000000E+00
  0.00000000E+00  0.00000000E+00  0.00000000E+00
  0.00000000E+00  0.00000000E+00  0.00000000E+00
  0.00000000E+00  0.00000000E+00  0.00000000E+00
  0.00000000E+00  0.00000000E+00  0.00000000E+00
  0.00000000E+00  0.00000000E+00  0.00000000E+00
  0.00000000E+00  0.00000000E+00  0.00000000E+00
  0.00000000E+00  0.00000000E+00  0.00000000E+00
  0.00000000E+00  0.00000000E+00  0.00000000E+00
  0.00000000E+00  0.00000000E+00  0.00000000E+00
  0.00000000E+00  0.00000000E+00  0.00000000E+00
  0.00000000E+00  0.00000000E+00  0.00000000E+00
  0.00000000E+00  0.00000000E+00  0.00000000E+00
  0.00000000E+00  0.00000000E+00  0.00000000E+00
  0.00000000E+00  0.00000000E+00  0.00000000E+00
  0.00000000E+00  0.00000000E+00  0.00000000E+00
  0.00000000E+00  0.00000000E+00  0.00000000E+00
  0.00000000E+00  0.00000000E+00  0.00000000E+00
  0.00000000E+00  0.00000000E+00  0.00000000E+00
  0.00000000E+00  0.00000000E+00  0.00000000E+00
  0.00000000E+00  0.00000000E+00  0.00000000E+00
  0.00000000E+00  0.00000000E+00  0.00000000E+00
  0.00000000E+00  0.00000000E+00  0.00000000E+00
  0.00000000E+00  0.00000000E+00  0.00000000E+00
  0.00000000E+00  0.00000000E+00  0.00000000E+00
  0.00000000E+00  0.00000000E+00  0.00000000E+00
  0.00000000E+00  0.00000000E+00  0.00000000E+00
  0.00000000E+00  0.00000000E+00  0.00000000E+00
  0.00000000E+00  0.00000000E+00  0.00000000E+00
  0.00000000E+00  0.00000000E+00  0.00000000E+00
  0.00000000E+00  0.00000000E+00  0.00000000E+00
  0.00000000E+00  0.00000000E+00  0.00000000E+00
  0.00000000E+00  0.00000000E+00  0.00000000E+00
  0.00000000E+00  0.00000000E+00  0.00000000E+00
  0.00000000E+00  0.00000000E+00  0.00000000E+00
  0.00000000E+00  0.00000000E+00  0.00000000E+00
  0.00000000E+00  0.00000000E+00  0.00000000E+00
  0.00000000E+00  0.00000000E+00  0.00000000E+00
  0.00000000E+00  0.00000000E+00  0.00000000E+00
  0.00000000E+00  0.00000000E+00  0.00000000E+00
  0.00000000E+00  0.00000000E+00  0.00000000E+00
  0.00000000E+00  0.00000000E+00  0.00000000E+00
  0.00000000E+00  0.00000000E+00  0.00000000E+00
  0.00000000E+00  0.00000000E+00  0.00000000E+00
  0.00000000E+00  0.00000000E+00  0.00000000E+00
  0.00000000E+00  0.00000000E+00  0.00000000E+00
  0.00000000E+00  0.00000000E+00  0.00000000E+00
  0.00000000E+00  0.00000000E+00  0.00000000E+00
  0.00000000E+00  0.00000000E+00  0.00000000E+00
  0.00000000E+00  0.00000000E+00  0.00000000E+00
  0.00000000E+00  0.00000000E+00  0.00000000E+00
  0.00000000E+00  0.00000000E+00  0.00000000E+00
  0.00000000E+00  0.00000000E+00  0.00000000E+00
  0.00000000E+00  0.00000000E+00  0.00000000E+00
  0.00000000E+00  0.00000000E+00  0.00000000E+00
  0.00000000E+00  0.00000000E+00  0.00000000E+00
  0.00000000E+00  0.00000000E+00  0.00000000E+00
  0.00000000E+00  0.00000000E+00  0.00000000E+00
  0.00000000E+00  0.00000000E+00  0.00000000E+00
  0.00000000E+00  0.00000000E+00  0.00000000E+00
  0.00000000E+00  0.00000000E+00  0.00000000E+00
  0.00000000E+00  0.00000000E+00  0.00000000E+00
  0.00000000E+00  0.00000000E+00  0.00000000E+00
  0.00000000E+00  0.00000000E+00  0.00000000E+00
  0.00000000E+00  0.00000000E+00  0.00000000E+00
  0.00000000E+00  0.00000000E+00  0.00000000E+00
  0.00000000E+00  0.00000000E+00  0.00000000E+00
  0.00000000E+00  0.00000000E+00  0.00000000E+00
  0.00000000E+00  0.00000000E+00  0.00000000E+00
  0.00000000E+00  0.00000000E+00  0.00000000E+00
  0.00000000E+00  0.00000000E+00  0.00000000E+00
  0.00000000E+00  0.00000000E+00  0.00000000E+00
  0.00000000E+00  0.00000000E+00  0.00000000E+00
  0.00000000E+00  0.00000000E+00  0.00000000E+00
  0.00000000E+00  0.00000000E+00  0.00000000E+00
  0.00000000E+00  0.00000000E+00  0.00000000E+00
  0.00000000E+00  0.00000000E+00  0.00000000E+00
  0.00000000E+00  0.00000000E+00  0.00000000E+00
  0.00000000E+00  0.00000000E+00  0.00000000E+00