Sb                                      
   1.00000000000000     
    16.9273007964999984    0.0000000000000000    0.0000000000000000
     0.0000000000000000   16.9273007964999984    0.0000000000000000
     0.0000000000000000    0.0000000000000000   16.9273007964999984
   Si   S 
    66   132
Direct
  0.7456744442504292  0.4939706824771534  0.8912099523358371
  0.9086471368169317  0.6320134072443170  0.3363494768544091
  0.3077783474329094  0.6402109200439046  0.9987119680582438
  0.4862873761183740  0.9346411539202196  0.2260978433410354
  0.6485409765957748  0.2574240398601322  0.6126283841683592
  0.1731700988641669  0.3764545773176575  0.5777763244733816
  0.8478845079045978  0.3699095427173190  0.5766774022077851
  0.1881001739698435  0.4950549415932852  0.2729850898584145
  0.9602393433698211  0.2536895047330184  0.9016077997390858
  0.1539846761026436  0.1748948503882548  0.3693817283704730
  0.6935541455435008  0.4545969116936675  0.5776648475575961
  0.1654275892766167  0.0379128909165131  0.7163340208050452
  0.7105676814319107  0.8794502816665069  0.4494012353901631
  0.7337139602985415  0.3471045606890967  0.7458778898557462
  0.5247107456467135  0.1461261844934146  0.8068955728573616
  0.6931726459367793  0.4874312341384181  0.1108254553149634
  0.9386468553477201  0.7150940575740364  0.2243931486603652
  0.9233902143063408  0.7022988652601897  0.0189451395114306
  0.4566572982167418  0.2891638780964674  0.4640399258281393
  0.5612889459897876  0.1576347274206771  0.4424558636288607
  0.7533773329200301  0.8311540007106828  0.0439280688297607
  0.9813802086223115  0.3788825071979928  0.4893645669795083
  0.3181349991153025  0.6316246853509284  0.1406657045661515
  0.9006481945969959  0.3744332312824222  0.2999407333003909
  0.4705550590395963  0.8250926744291380  0.6742784284448473
  0.6678491784696537  0.0796608728620056  0.5043458834359682
  0.7512001728361813  0.7986015693207015  0.6312887824792920
  0.2913068218452058  0.0233459850653779  0.6551937656100331
  0.5179089426919807  0.3528213369913305  0.1149436272031854
  0.8192004498508235  0.8086638385712689  0.3470789077544665
  0.3760429354029777  0.9242173698014788  0.1418245928439271
  0.9209669836232806  0.4576007912295232  0.1622254691191219
  0.2165923826426343  0.2705422473291268  0.2895520805649166
  0.1266370571889617  0.3419497771244395  0.7917504663792078
  0.2198736262141116  0.9041400842615260  0.4883168735766482
  0.7152614277793840  0.0355270535577715  0.0104783298969823
  0.0656046795955186  0.7962377689471427  0.5207316991928426
  0.9927375316363619  0.0520906233406059  0.0347283690466292
  0.1215493942682238  0.6444423607463474  0.3937323583257798
  0.2227233709072732  0.0348327232501307  0.1244292482461682
  0.4936889100921653  0.2704233755565926  0.9102948873712549
  0.0521184942067673  0.6491452548266285  0.9040305102198332
  0.8662998370491309  0.0817779170242705  0.8779944708422703
  0.5621044964340335  0.0405307441519225  0.6735970874509680
  0.9719052126980582  0.4502901120879544  0.9543793277043225
  0.0139110100758693  0.6296463337408958  0.5705318110766944
  0.8859712875374430  0.5202529397628844  0.8600216780421109
  0.4105989530806909  0.4911651573725076  0.1893541869968179
  0.5524737379946149  0.5775253051063467  0.3675424311761898
  0.0588625244310759  0.5165326353675534  0.8587828328762288
  0.1404308928180933  0.6781342409628565  0.2599311330580365
  0.4375176738474187  0.8748251118186089  0.0005196306764043
  0.4655540442823018  0.4326767210131802  0.3100279992907931
  0.3710413618096683  0.4145575651363007  0.6405910134804698
  0.0023603457006520  0.0073187976547539  0.7526694967674521
  0.2281574779514031  0.7166752429585446  0.8248752462130982
  0.5675694702692985  0.9093195414346391  0.0258986905929216
  0.2035295013426476  0.2054808956523539  0.1141161757739061
  0.9070881795465772  0.0750282198804999  0.1883539350485307
  0.4089513678479656  0.4464420152626453  0.8061098370065678
  0.8098249788189781  0.1009053718748745  0.3407939453278486
  0.6837229988450509  0.6971871718858178  0.7399043222373056
  0.3373318089249897  0.5522893404588314  0.8684117635813633
  0.7856065546006512  0.4947647964731958  0.2156670331476353
  0.7719609431914365  0.1083198426909733  0.1903248275458340
  0.3727310325025951  0.8714754588318417  0.7659474364333927
  0.1534083948405547  0.8553690920691249  0.3810213516760962
  0.1384639004858535  0.6828977441397160  0.5181195977125564
  0.8829583367713950  0.6440435629545507  0.1262627295974448
  0.5755289402794179  0.6454367910953918  0.6871882118169825
  0.4110982831272419  0.1854808227451369  0.8623140139614596
  0.2582822372720761  0.7201714990331378  0.2179904762546324
  0.9417512533228659  0.2872115559241468  0.5716768171722350
  0.8638376004118870  0.7157950946504702  0.4220685120535054
  0.1576758642879471  0.4686080664802810  0.8003885010301784
  0.6047634119929967  0.2202334584905518  0.8665428254102955
  0.2397911122756225  0.5357326063504435  0.9566152748458202
  0.6764419586596868  0.7843228749254114  0.5249007345321248
  0.2600650537156294  0.4738329959812109  0.5908887686246210
  0.4381094844460325  0.3186747044207683  0.5870592290919956
  0.3846227845909570  0.3623966739290362  0.3901925330345855
  0.3918198873870808  0.9912267044939537  0.0351798301506632
  0.4709389043739551  0.0640344896745712  0.2687701409977490
  0.4967118240912467  0.3980953008006006  0.8840194125201145
  0.4417037011435747  0.4492914792443213  0.0740773446905237
  0.8523534941445075  0.8826786986314841  0.7493609035563140
  0.7739207172217906  0.2044029738962636  0.2804646332366187
  0.0363077172906481  0.1617762652938290  0.9125454729973977
  0.7396374609050538  0.0121161437199069  0.2760702247022637
  0.0007732560732841  0.3346535501151325  0.8100995251705473
  0.3216430041245369  0.8392099887358639  0.4148337845491957
  0.5746761750157472  0.1248710141960847  0.3138175188808214
  0.5909038957817609  0.4778052804254656  0.2941574887638048
  0.2482212862556916  0.7510752605200864  0.9515077201007526
  0.7895643452030513  0.6734566778012864  0.6649042755383585
  0.0902689934486899  0.4439598211240109  0.4989051483158229
  0.9620448357055241  0.3053541017687531  0.3852148153114430
  0.1104674241565416  0.9829150075552969  0.8170288083977068
  0.4737928198573477  0.7476228989924504  0.3133819581410138
  0.9745633072255574  0.9761643563787281  0.1415109769732207
  0.4991062967065159  0.3190506219113246  0.2316312315454163
  0.4411286148175971  0.1606020173570654  0.4783190018532144
  0.7153082913593853  0.7434917366879696  0.1309895900047839
  0.4204727503735649  0.6223780424624139  0.9385990572685518
  0.6897254993658745  0.0626040531415067  0.6293866926904605
  0.9716688515701504  0.7507690543670533  0.5931951089613267
  0.0579750258010553  0.6986384787194017  0.0245975234584581
  0.6295414805606667  0.6738514117909443  0.0587615174435245
  0.8718273345358915  0.8235577392101727  0.2357827289146529
  0.2443837032520999  0.8314126291638422  0.7699373383259183
  0.2784372470622921  0.2893720098373340  0.1747916177604217
  0.1237538359609430  0.0502097733467346  0.3679301746980705
  0.4376058214929879  0.8415831780100522  0.8746855319844762
  0.4963282361732158  0.8689785621459269  0.3378724193293360
  0.7610352076523178  0.9465201439483366  0.1003349777611484
  0.6844027010385436  0.6599044601899066  0.8655567526535975
  0.1337122642123236  0.2286823886556623  0.4866011947787672
  0.4368149475126902  0.5080202714210980  0.6943377648380515
  0.2150537914151718  0.5423946233859911  0.3853671010790827
  0.0047446375221231  0.5905724482408427  0.4256768652137158
  0.9642035196906031  0.4882493340666302  0.2819905832038531
  0.1180212690365305  0.0412435753474568  0.0020936037619682
  0.9273466999583646  0.9913406824958196  0.9455818372528741
  0.9713712105519298  0.8815492229117999  0.7552344095826544
  0.2992924645564657  0.6242006049290567  0.7666281198228474
  0.5017367186068653  0.7223464194446257  0.7536813964983549
  0.4345704628779199  0.6238760244538123  0.1789681514317415
  0.6943584174068206  0.8245146312497678  0.3290444380417937
  0.1750492412549067  0.9400778918922007  0.0533420881727065
  0.1093492960053022  0.2778136937970451  0.0622204349005277
  0.0611317112186622  0.7634090514970429  0.2070134305282625
  0.4343136222587912  0.6653313745605358  0.5639076460149124
  0.8342386462218658  0.9023453517867628  0.4356550374049221
  0.9308715564570995  0.3370551797599984  0.9995833503156017
  0.1519961239902619  0.2988875143611878  0.6720362392195883
  0.5802153491546319  0.8759145344968916  0.1504215462941670
  0.4786561686939458  0.2481793267127265  0.0381188516080837
  0.9151261586557066  0.6534506524923347  0.8999443534097701
  0.2751932703126414  0.5062841040663862  0.1664699934295936
  0.7369814094435343  0.2240059425130040  0.7118103918218220
  0.2319809191672077  0.1484678367073232  0.7535749241860868
  0.0325636883520089  0.8479304327603111  0.4116542399783009
  0.6011381401185156  0.5783540648184416  0.1259834489450682
  0.6718642199631725  0.8216270455734108  0.7279808546767809
  0.2885557730653983  0.1280893456683849  0.0557128640237072
  0.0043521669951284  0.5008953980177847  0.0704106412928554
  0.9387874592572579  0.0848204789565455  0.3143940261761632
  0.2032263017270012  0.2781253454977764  0.8873050981112779
  0.5018416998777879  0.1540807866845837  0.6722167460008827
  0.3325660505794300  0.9444599169725227  0.5668474944110352
  0.9726443412041422  0.5368393048165286  0.7621239163506212
  0.2883245997517276  0.1548827273808195  0.6413554547150442
  0.8938768300564038  0.4717330049770881  0.5047521276297652
  0.8239020004011246  0.4254149087688855  0.6958186331989429
  0.6290868760690974  0.9788924220708941  0.4476733284527762
  0.1461138757957385  0.3765455808476337  0.3022298490101226
  0.7765941556484111  0.3954057590846245  0.3025931168652288
  0.3624917551364760  0.8145800605573300  0.0796968476792613
  0.4807908818318272  0.7793881156535523  0.5568178221197120
  0.7232541558832576  0.1514608116116846  0.0776891876654424
  0.3411881552526957  0.3513454573022429  0.7506378432046352
  0.5775161125664178  0.2917922676019680  0.4255364127692441
  0.4359736559269919  0.5466463104652046  0.3944381455838508
  0.1830770689791729  0.3470896321518940  0.9872778359167607
  0.8987215791065338  0.0917947715586539  0.7562241770422052
  0.6534398028654254  0.8410094621950451  0.9486044320898780
  0.7368666322162414  0.3678078676838132  0.8756847760392412
  0.2209808265142830  0.0275512856056800  0.4560754768386439
  0.7866552787756725  0.6004188386873195  0.2908509162356449
  0.2906116307445555  0.9720480946475736  0.2174733957259653
  0.6211824544371285  0.3763792449556373  0.6858893935793626
  0.2990484974037559  0.7189550181049008  0.4239335841316696
  0.3167273071409352  0.6781819070127606  0.5444836059645457
  0.0556447361341115  0.0515472074175435  0.6476855025972524
  0.2357484048787901  0.2956765628859166  0.5018766257861382
  0.6312634259313593  0.5791892015425345  0.4736234177477403
  0.9503829794188368  0.1591846488724314  0.0995027306693416
  0.8386940283415460  0.8951285363550756  0.6238688293268352
  0.7350069960311566  0.3292733772128441  0.5163668596712985
  0.1452821999275577  0.1182567569695129  0.1828831534456168
  0.9367903942599142  0.3327389547930721  0.1831664612710054
  0.5760319207114769  0.6783267902919743  0.2939603639143772
  0.6412225882038606  0.5481915128360894  0.8503130697411593
  0.2879471551758467  0.1878177081774946  0.3599186240113215
  0.1441865756394236  0.8709068063912028  0.5867762908430230
  0.7465733514638686  0.0317381792540181  0.8895206349746013
  0.1036453265302178  0.7007053680447127  0.8002416554545270
  0.8729039045621335  0.8195676251108643  0.9993905333874312
  0.5753195619447480  0.4765345970949842  0.5187537701940321
  0.6469953256264118  0.3654379537365084  0.0858748424703215
  0.5836838716477928  0.0349903933546837  0.0003748888413220
  0.5639133993465452  0.0267664158263890  0.8060015971426060
  0.7791331923149460  0.5205089866948330  0.0192392312957779
  0.7889150065146664  0.1185691722604700  0.4727538729093867
  0.5328119551728807  0.9271602077499156  0.6184876500602691
  0.8398131250807693  0.2116986307897476  0.8970688490519041
  0.1063750918525530  0.5633919465493681  0.2092077133961389
  0.3539190324716531  0.9974057858140402  0.7660101724017322
 
 -0.25116465E-02 -0.53893288E-02 -0.12186579E-02
  0.10334071E-01 -0.40507393E-02  0.30790119E-02
  0.34907865E-02 -0.33406577E-02 -0.71247759E-02
  0.43856622E-02 -0.25035492E-02 -0.26368642E-02
  0.26774499E-02  0.63432727E-02 -0.19033679E-03
  0.16551537E-02 -0.20330991E-02  0.32927558E-02
 -0.27634210E-02  0.14572089E-02  0.93598618E-04
  0.28765700E-02 -0.99036795E-02  0.15768990E-02
 -0.12867330E-02  0.26357853E-02  0.21002366E-02
  0.15438980E-02 -0.41779712E-02  0.71906375E-03
 -0.12003502E-02 -0.12161771E-03  0.31158838E-03
  0.25462686E-02 -0.30650064E-02 -0.27083012E-02
 -0.49796444E-03 -0.52946322E-02  0.31308569E-02
 -0.24644862E-02 -0.75511104E-03  0.30589378E-03
 -0.16867380E-02  0.48093980E-02  0.89304649E-03
  0.36484125E-03  0.19981177E-02  0.61631593E-02
  0.43020497E-02 -0.20179936E-02 -0.21728446E-02
  0.19804012E-02  0.97944425E-03 -0.40952819E-02
 -0.27194007E-02 -0.31061932E-02  0.26108651E-02
 -0.12565814E-02  0.49891164E-02 -0.39801874E-02
 -0.16568791E-02 -0.41645918E-02 -0.11710547E-02
 -0.46622565E-02  0.59122701E-03  0.30726206E-02
  0.14777706E-02 -0.22331260E-02  0.15471306E-02
  0.19461179E-02  0.33982064E-02  0.43385000E-02
  0.31082426E-02 -0.33612598E-02 -0.55826377E-02
 -0.32017371E-02  0.69221433E-03 -0.20530118E-02
  0.53174366E-03 -0.35525806E-02  0.31193089E-02
 -0.19513598E-02 -0.15449138E-02 -0.12886307E-02
 -0.35969470E-02 -0.24988262E-02 -0.22521614E-02
 -0.68788585E-03 -0.12932889E-02  0.18002891E-02
 -0.13079239E-02 -0.37289432E-02 -0.12325575E-03
 -0.21771663E-04  0.47325327E-02 -0.15162824E-02
 -0.74425694E-03 -0.72811354E-02 -0.29977379E-02
  0.79236994E-03  0.30183492E-02 -0.95435547E-03
 -0.17682941E-02 -0.27039210E-02  0.17368396E-02
  0.52169017E-02  0.30080522E-02  0.25145046E-02
 -0.40042833E-02 -0.32212521E-02  0.15722945E-02
 -0.60842030E-03  0.27821750E-02 -0.36937679E-02
 -0.13293966E-02  0.68385261E-03 -0.72335887E-03
 -0.73980890E-03  0.34481580E-02  0.29179380E-02
 -0.24165670E-02  0.41262607E-02  0.25078490E-02
 -0.68570651E-02 -0.34467017E-02  0.38715521E-02
 -0.43013116E-03  0.50481460E-04  0.45416165E-02
  0.52345237E-02 -0.24702739E-03  0.25147441E-02
 -0.49132417E-03  0.20543252E-02  0.18585489E-02
  0.76665944E-03  0.22230408E-02 -0.36308115E-02
  0.22276291E-02  0.51673961E-03  0.22815241E-02
 -0.40701824E-02  0.53456991E-02 -0.23238015E-02
  0.16029091E-02  0.12132344E-02  0.20461993E-02
  0.56352787E-03  0.67932029E-03 -0.13322454E-02
 -0.63671386E-03  0.11952359E-03 -0.36243296E-03
  0.29903958E-03  0.21096412E-02 -0.67380547E-02
  0.87015556E-04  0.81345362E-03  0.11571446E-02
 -0.26706959E-02  0.66377694E-02 -0.23667655E-02
  0.42949187E-02 -0.11436851E-02 -0.12013404E-02
  0.15759312E-02  0.25593405E-02 -0.20623362E-02
 -0.86861527E-03 -0.40641062E-02  0.18763066E-02
 -0.37358576E-02 -0.25000764E-02  0.36539219E-02
 -0.13795369E-02 -0.20920221E-02 -0.92688353E-03
  0.11612327E-03  0.14187355E-02  0.15391407E-02
  0.30251115E-02 -0.42541967E-02  0.26172747E-03
  0.26480457E-02 -0.11009250E-02  0.22639891E-02
 -0.20769724E-02 -0.14146002E-02  0.10427989E-02
  0.35689566E-02  0.96192663E-03  0.52091071E-02
  0.12352971E-02  0.19857118E-02 -0.82581707E-03
  0.46669574E-03  0.19926832E-02 -0.14602598E-02
 -0.28745010E-02  0.34254500E-02 -0.15699179E-02
  0.27383163E-03  0.46048538E-03 -0.18393092E-02
  0.32606098E-03 -0.20394993E-02 -0.15362674E-02
 -0.45537810E-02 -0.63658197E-02 -0.11874581E-02
  0.51914197E-03  0.18142003E-02  0.20790215E-02
  0.25328502E-02 -0.33008420E-02  0.69743861E-04
  0.74085974E-02  0.37616016E-02 -0.13227877E-02
  0.95352321E-03 -0.12472054E-03  0.10772691E-02
 -0.14247255E-02  0.10991176E-02  0.78615927E-03
 -0.34381204E-02  0.60307121E-02 -0.36625134E-02
  0.26960163E-02 -0.66330568E-03  0.67729720E-03
 -0.29258655E-03 -0.45695490E-02 -0.24191909E-02
  0.16408328E-02 -0.14055605E-02 -0.24010773E-02
 -0.75736260E-02 -0.48068183E-02  0.20850951E-02
 -0.31669857E-02  0.29760281E-02  0.24796305E-02
  0.73509088E-03  0.52019224E-04  0.19833160E-03
  0.89214736E-03 -0.12985562E-02 -0.27305453E-02
 -0.28999492E-03  0.30771546E-02 -0.29223602E-03
 -0.99397669E-03  0.11731746E-02  0.20681119E-02
  0.21657003E-02  0.37834037E-02  0.18452160E-03
  0.10839285E-02 -0.15928943E-02  0.44910375E-03
  0.65379984E-02  0.12558905E-02  0.22085879E-02
  0.36292481E-02  0.63481786E-02 -0.31307271E-02
 -0.99038784E-03 -0.20425294E-02  0.30787250E-02
  0.60460126E-03  0.53370512E-03  0.23223847E-02
 -0.98656469E-03  0.15824149E-02 -0.42948643E-03
 -0.29187536E-02 -0.95817358E-04 -0.39610592E-02
  0.28233503E-03  0.40613422E-02 -0.14240797E-02
  0.12089505E-02  0.29721959E-02 -0.50516125E-02
 -0.15244118E-02  0.50490900E-02  0.40161929E-02
 -0.20441911E-02 -0.10549107E-02 -0.48740109E-02
 -0.33074542E-03 -0.41494572E-02  0.37475241E-02
 -0.32753883E-02  0.31101107E-02  0.16973746E-02
 -0.10823577E-02  0.25667839E-04 -0.55888598E-02
  0.32166267E-02 -0.29705531E-02  0.17835181E-04
  0.20978053E-02 -0.34551127E-02  0.11741166E-03
 -0.17980167E-02  0.21519560E-02 -0.30481233E-02
 -0.55141663E-02 -0.92749783E-03  0.31742085E-02
  0.31978650E-02 -0.18638109E-02  0.16045698E-02
  0.43207771E-02  0.28256341E-02 -0.13516844E-02
  0.12506966E-02 -0.25337065E-02  0.62169826E-02
 -0.29877975E-02  0.27066821E-02 -0.27789150E-02
  0.34329387E-02  0.81564618E-03 -0.72943809E-03
 -0.98091521E-03  0.11813116E-03  0.33921499E-02
 -0.54390943E-03 -0.12335436E-02 -0.17209924E-02
  0.17504675E-02 -0.94029858E-03 -0.22754627E-02
 -0.33055441E-02  0.27373430E-03 -0.52816878E-02
 -0.35222393E-02  0.10111418E-02 -0.10796422E-02
 -0.22961776E-04 -0.27033709E-02 -0.31079560E-02
  0.57664555E-02  0.81682711E-03  0.11312055E-02
 -0.10836184E-02 -0.97820167E-03  0.12101831E-02
 -0.23807470E-02  0.20193012E-02  0.11421686E-02
  0.15488816E-03  0.62902689E-02 -0.22099812E-02
 -0.29839289E-02  0.50552409E-02 -0.47755041E-02
 -0.21381984E-02  0.79325546E-03 -0.22892279E-03
  0.24115150E-02  0.21891319E-02  0.31911260E-02
  0.21906205E-03  0.12532373E-02  0.47986707E-03
 -0.29779630E-02 -0.17695224E-03 -0.29819544E-02
 -0.13411415E-02 -0.31219817E-02  0.11938704E-02
 -0.24867396E-02 -0.28021938E-02  0.72264106E-02
 -0.30648539E-02  0.45173896E-02  0.12356494E-03
 -0.10337788E-02 -0.23989708E-02  0.11939862E-02
  0.36079480E-03 -0.41333274E-02 -0.12147733E-02
 -0.25158314E-02  0.57377525E-02 -0.61521920E-02
 -0.19935021E-02  0.26764106E-02 -0.69138300E-03
 -0.16963347E-02  0.40609595E-02  0.11341618E-02
  0.50162238E-02 -0.29263741E-03  0.17990184E-02
 -0.66930553E-03  0.26823180E-02  0.47788971E-02
  0.34065617E-02 -0.24023781E-02  0.10010971E-02
  0.25853254E-02 -0.90077863E-04 -0.35225044E-02
 -0.15877060E-03 -0.12860794E-02  0.60739341E-02
  0.19523985E-02 -0.24613597E-03 -0.40234451E-02
 -0.10019831E-02  0.52362635E-02 -0.99925853E-03
 -0.10221506E-02 -0.20987384E-02 -0.30891969E-02
  0.19212069E-02 -0.18958426E-03 -0.73964623E-03
  0.11001517E-02 -0.18683180E-02  0.16755827E-02
 -0.19775890E-02 -0.45100492E-02  0.22336344E-03
 -0.23575378E-02  0.32982876E-02  0.24963752E-02
 -0.40113775E-02  0.17031424E-02 -0.23352664E-02
  0.20043203E-02  0.64752310E-02 -0.17457942E-02
 -0.26451573E-02  0.15528262E-03  0.28308129E-02
 -0.14577190E-02 -0.15036487E-02 -0.35138631E-02
 -0.47186704E-04 -0.20451094E-02  0.10025302E-02
 -0.60526834E-02 -0.53151380E-02  0.19025116E-02
  0.90234810E-03 -0.32441883E-02 -0.24935921E-02
 -0.18177219E-02 -0.14313589E-02 -0.14292227E-02
 -0.15730414E-03 -0.96920367E-03  0.10395466E-02
 -0.36149602E-02 -0.28518366E-02  0.69108396E-02
 -0.17105644E-02  0.57780741E-03 -0.34828930E-02
 -0.12119662E-02  0.55057629E-02 -0.12952057E-02
 -0.28826783E-03 -0.26445334E-03  0.27143703E-02
  0.38739067E-02 -0.19706398E-02 -0.35752899E-02
  0.45198324E-03 -0.15979724E-02  0.13707632E-02
  0.14248659E-02  0.51708535E-02  0.38258979E-02
 -0.60524023E-03 -0.51832905E-02 -0.30038341E-02
  0.13724693E-02  0.18104791E-02 -0.22766706E-02
  0.21277365E-03 -0.66879282E-03 -0.36458491E-03
  0.67945306E-03 -0.24523712E-02 -0.28951117E-02
  0.16989664E-02 -0.13429546E-02  0.24426137E-02
  0.12779071E-02 -0.15142209E-02 -0.36689683E-02
  0.20787670E-02  0.23746690E-02 -0.78011348E-04
 -0.82621926E-03 -0.71305349E-02 -0.27315777E-02
 -0.26592139E-02  0.32791633E-02  0.33877142E-02
  0.28835423E-02 -0.18303242E-02 -0.81323327E-03
 -0.12718567E-02  0.10578535E-02  0.13693884E-02
  0.59089234E-02  0.55790503E-03 -0.79251656E-03
  0.32945061E-02  0.24231456E-02 -0.13559276E-02
 -0.26161676E-02  0.30100225E-02  0.47346134E-02
  0.35662131E-03 -0.42844572E-02  0.37692884E-02
  0.13135945E-02 -0.80910969E-03  0.15056235E-02
  0.90094233E-03 -0.26027791E-02  0.13439047E-02
 -0.23769331E-02 -0.15596883E-02  0.43954216E-03
 -0.75110945E-03  0.63607777E-03 -0.31204915E-03
  0.15039421E-03 -0.17981919E-02  0.13916229E-02
  0.41758154E-02  0.22345065E-02 -0.30235962E-02
 -0.22121230E-02  0.38620495E-02 -0.28733921E-02
 -0.10351591E-02 -0.42716928E-02  0.23490037E-02
  0.31297245E-02  0.33371751E-02 -0.45047120E-02
  0.29087343E-02 -0.21560073E-02 -0.34526877E-02
 -0.46911564E-03  0.36703405E-03  0.13772035E-02
  0.14186559E-03 -0.24446176E-03 -0.68239425E-04
  0.40122303E-02  0.10988911E-03 -0.23682447E-03
  0.14930638E-02 -0.23651728E-02  0.73594883E-02
  0.11544359E-02  0.32640543E-02  0.52900383E-02
 -0.18731163E-02  0.14857016E-02 -0.28602095E-02
 -0.16992487E-02 -0.25781768E-03  0.39289431E-02
 -0.22264350E-02 -0.64324740E-03  0.40062555E-04
 -0.33265812E-02  0.13293786E-02 -0.13345463E-02
  0.25891783E-02  0.16617952E-02 -0.46906080E-02
  0.25921169E-02  0.99373908E-03  0.95780842E-03
 -0.86777800E-03  0.22908408E-02  0.58219556E-02
 -0.36293356E-03 -0.27883028E-03  0.34886952E-03
 
           1
   3.00000000000000     
  0.10000000E+01  0.00000000E+00  0.00000000E+00  0.00000000E+00
  0.74522128E+00  0.49299831E+00  0.89099007E+00
  0.91051167E+00  0.63128255E+00  0.33690501E+00
  0.30840818E+00  0.63960818E+00  0.99742647E+00
  0.48707866E+00  0.93418945E+00  0.22562208E+00
  0.64902406E+00  0.25856853E+00  0.61259404E+00
  0.17346873E+00  0.37608775E+00  0.57837042E+00
  0.84738591E+00  0.37017246E+00  0.57669429E+00
  0.18861918E+00  0.49326806E+00  0.27326960E+00
  0.96000718E+00  0.25416507E+00  0.90198674E+00
  0.15426324E+00  0.17414104E+00  0.36951147E+00
  0.69333757E+00  0.45457497E+00  0.57772107E+00
  0.16588700E+00  0.37359884E-01  0.71584537E+00
  0.71047784E+00  0.87849499E+00  0.44996612E+00
  0.73326930E+00  0.34696832E+00  0.74593308E+00
  0.52440641E+00  0.14699393E+00  0.80705670E+00
  0.69323847E+00  0.48779175E+00  0.11193745E+00
  0.93942306E+00  0.71472996E+00  0.22400111E+00
  0.92374753E+00  0.70247558E+00  0.18206244E-01
  0.45616665E+00  0.28860344E+00  0.46451099E+00
  0.56106223E+00  0.15853489E+00  0.44173773E+00
  0.75307839E+00  0.83040260E+00  0.43716780E-01
  0.98053902E+00  0.37898918E+00  0.48991895E+00
  0.31840163E+00  0.63122177E+00  0.14094485E+00
  0.90099933E+00  0.37504636E+00  0.30072351E+00
  0.47111587E+00  0.82448622E+00  0.67327117E+00
  0.66727150E+00  0.79785766E-01  0.50397547E+00
  0.75129611E+00  0.79796059E+00  0.63185159E+00
  0.29095475E+00  0.23067242E-01  0.65496126E+00
  0.51725996E+00  0.35237048E+00  0.11453728E+00
  0.81907634E+00  0.80843050E+00  0.34740373E+00
  0.37580695E+00  0.92354457E+00  0.14180235E+00
  0.92096306E+00  0.45845466E+00  0.16195189E+00
  0.21645810E+00  0.26922854E+00  0.28901121E+00
  0.12678002E+00  0.34249437E+00  0.79157828E+00
  0.21955458E+00  0.90365223E+00  0.48863024E+00
  0.71620269E+00  0.36069785E-01  0.10932012E-01
  0.64882202E-01  0.79565657E+00  0.52101538E+00
  0.99262776E+00  0.52592600E-01  0.34061917E-01
  0.12130954E+00  0.64456575E+00  0.39360185E+00
  0.22258989E+00  0.35454861E-01  0.12495572E+00
  0.49325290E+00  0.27116786E+00  0.91074737E+00
  0.50881300E-01  0.64852338E+00  0.90472904E+00
  0.86622223E+00  0.81787025E-01  0.87881390E+00
  0.56304894E+00  0.40486174E-01  0.67405081E+00
  0.97181656E+00  0.45066077E+00  0.95471466E+00
  0.14049335E-01  0.63004743E+00  0.56987672E+00
  0.88637321E+00  0.52034617E+00  0.86043332E+00
  0.40986459E+00  0.49212966E+00  0.18893491E+00
  0.55276294E+00  0.57774420E+00  0.36791162E+00
  0.58964200E-01  0.51665520E+00  0.85854246E+00
  0.14031601E+00  0.67815581E+00  0.25986574E+00
  0.43757163E+00  0.87520575E+00  0.99930391E+00
  0.46556974E+00  0.43282349E+00  0.31023678E+00
  0.37055950E+00  0.41575519E+00  0.64016399E+00
  0.31352614E-02  0.71124469E-02  0.75245274E+00
  0.22844182E+00  0.71713701E+00  0.82450315E+00
  0.56741275E+00  0.90858627E+00  0.26237225E-01
  0.20285545E+00  0.20502982E+00  0.11477544E+00
  0.90683927E+00  0.74650764E-01  0.18818670E+00
  0.40897232E+00  0.44669799E+00  0.80638754E+00
  0.81037079E+00  0.10013780E+00  0.34084117E+00
  0.68420078E+00  0.69698854E+00  0.74031281E+00
  0.33695707E+00  0.55203411E+00  0.86859991E+00
  0.78625049E+00  0.49493835E+00  0.21660689E+00
  0.77218382E+00  0.10867812E+00  0.19017583E+00
  0.37281524E+00  0.87183499E+00  0.76568397E+00
  0.15288976E+00  0.85598713E+00  0.38073810E+00
  0.13851331E+00  0.68298083E+00  0.51778774E+00
  0.88301717E+00  0.64367558E+00  0.12598555E+00
  0.57470732E+00  0.64428823E+00  0.68697396E+00
  0.41119195E+00  0.18580815E+00  0.86268912E+00
  0.25873923E+00  0.71957594E+00  0.21800306E+00
  0.94308796E+00  0.28789025E+00  0.57143815E+00
  0.86400964E+00  0.71577259E+00  0.42226288E+00
  0.15741881E+00  0.46880638E+00  0.80053034E+00
  0.60414309E+00  0.22132156E+00  0.86588201E+00
  0.24027754E+00  0.53561293E+00  0.95673748E+00
  0.67638917E+00  0.78349841E+00  0.52446425E+00
  0.26036110E+00  0.47357940E+00  0.59045555E+00
  0.43674300E+00  0.31780743E+00  0.58743543E+00
  0.38405138E+00  0.36293363E+00  0.39063992E+00
  0.39195252E+00  0.99123609E+00  0.35215614E-01
  0.47109987E+00  0.63800196E-01  0.26827748E+00
  0.49665950E+00  0.39865050E+00  0.88396669E+00
  0.44152436E+00  0.44950315E+00  0.74450486E-01
  0.85274424E+00  0.88336132E+00  0.74939420E+00
  0.77411629E+00  0.20411557E+00  0.28054566E+00
  0.37487343E-01  0.16200286E+00  0.91294396E+00
  0.74029227E+00  0.13261521E-01  0.27550536E+00
  0.59456420E-03  0.33428502E+00  0.81065501E+00
  0.32175209E+00  0.83930628E+00  0.41525280E+00
  0.57449817E+00  0.12515652E+00  0.31374003E+00
  0.59037728E+00  0.47778799E+00  0.29344281E+00
  0.24827223E+00  0.75180803E+00  0.95125078E+00
  0.78978247E+00  0.67399294E+00  0.66399283E+00
  0.89993950E-01  0.44487081E+00  0.49962977E+00
  0.96167601E+00  0.30516377E+00  0.38433542E+00
  0.11040775E+00  0.98216634E+00  0.81770496E+00
  0.47320185E+00  0.74818404E+00  0.31368821E+00
  0.97436802E+00  0.97616899E+00  0.14050260E+00
  0.49968666E+00  0.31851466E+00  0.23163445E+00
  0.44150711E+00  0.15997862E+00  0.47834019E+00
  0.71498388E+00  0.74388001E+00  0.13043963E+00
  0.41947785E+00  0.62221070E+00  0.93917177E+00
  0.69030248E+00  0.62267773E-01  0.62967620E+00
  0.97244843E+00  0.75127887E+00  0.59295123E+00
  0.58200684E-01  0.69818133E+00  0.25719230E-01
  0.62900240E+00  0.67433977E+00  0.58260128E-01
  0.87244673E+00  0.82370490E+00  0.23565112E+00
  0.24420672E+00  0.83143394E+00  0.77054937E+00
  0.27833911E+00  0.28914945E+00  0.17448111E+00
  0.12406967E+00  0.50040119E-01  0.36751962E+00
  0.43700941E+00  0.84163257E+00  0.87373258E+00
  0.49569273E+00  0.86916100E+00  0.33767762E+00
  0.76103106E+00  0.94603239E+00  0.99774221E-01
  0.68544312E+00  0.66005184E+00  0.86576085E+00
  0.13351675E+00  0.22850590E+00  0.48681954E+00
  0.43638540E+00  0.50838461E+00  0.69454384E+00
  0.21508174E+00  0.54352955E+00  0.38496836E+00
  0.42062587E-02  0.59148455E+00  0.42481524E+00
  0.96381773E+00  0.48839246E+00  0.28194928E+00
  0.11845637E+00  0.41638552E-01  0.26693664E-02
  0.92738622E+00  0.99156680E+00  0.94566842E+00
  0.97083391E+00  0.88151730E+00  0.75469639E+00
  0.29905049E+00  0.62363732E+00  0.76684353E+00
  0.50128805E+00  0.72184083E+00  0.75498523E+00
  0.43401748E+00  0.62469108E+00  0.17899045E+00
  0.69417190E+00  0.82408179E+00  0.32925986E+00
  0.17511434E+00  0.93933213E+00  0.53122911E-01
  0.10889537E+00  0.27884893E+00  0.61110419E-01
  0.60772031E-01  0.76389195E+00  0.20688869E+00
  0.43400756E+00  0.66606408E+00  0.56411228E+00
  0.83514370E+00  0.90229255E+00  0.43597963E+00
  0.93075080E+00  0.33753914E+00  0.44558836E-03
  0.15261076E+00  0.29845406E+00  0.67221686E+00
  0.58068181E+00  0.87589828E+00  0.14978599E+00
  0.47862752E+00  0.24794728E+00  0.39214748E-01
  0.91547842E+00  0.65340624E+00  0.89921842E+00
  0.27501249E+00  0.50722886E+00  0.16628970E+00
  0.73679699E+00  0.22362728E+00  0.71125302E+00
  0.23232756E+00  0.14843363E+00  0.75344147E+00
  0.32762184E-01  0.84759334E+00  0.41195656E+00
  0.60078133E+00  0.57754033E+00  0.12602375E+00
  0.67143886E+00  0.82222214E+00  0.72843127E+00
  0.28783202E+00  0.12839664E+00  0.55291521E-01
  0.47137988E-02  0.50206370E+00  0.70095654E-01
  0.93831020E+00  0.84848496E-01  0.31490478E+00
  0.20296329E+00  0.27785405E+00  0.88667111E+00
  0.50183319E+00  0.15371180E+00  0.67239763E+00
  0.33147399E+00  0.94350093E+00  0.56719076E+00
  0.97280715E+00  0.53625397E+00  0.76167401E+00
  0.28799664E+00  0.15462447E+00  0.64109759E+00
  0.89384845E+00  0.47155814E+00  0.50493969E+00
  0.82324977E+00  0.42490036E+00  0.69706553E+00
  0.62877825E+00  0.97899667E+00  0.44704492E+00
  0.14589521E+00  0.37753896E+00  0.30199616E+00
  0.77654214E+00  0.39535804E+00  0.30308286E+00
  0.36319071E+00  0.81422451E+00  0.79051772E-01
  0.48087243E+00  0.77909980E+00  0.55706514E+00