Ag2 Bi2 S4
1.0
  -2.8105660000000001    2.8105660000000001    5.7691600000000003
   2.8105660000000001   -2.8105660000000001    5.7691600000000003
   2.8105660000000001    2.8105660000000001   -5.7691600000000003
Ag Bi S
2 2 4
direct
   0.2500000000000000    0.7500000000000000    0.5000000000000000 Ag
   0.5000000000000000    0.5000000000000000    0.0000000000000000 Ag
   0.0000000000000000    0.0000000000000000    0.0000000000000000 Bi
   0.7500000000000000    0.2500000000000000    0.5000000000000000 Bi
   0.5033879999999999    0.0033880000000000    0.5000000000000000 S
   0.9966119999999991    0.4966120000000000    0.5000000000000000 S
   0.7533879999999999    0.7533879999999999    0.0000000000000000 S
   0.2466120000000000    0.2466120000000000    0.0000000000000000 S
