Ge Se                                   
   1.00000000000000     
    20.8706398010253906    0.0000000000000000    0.0000000000000000
     0.0000000000000000   20.8706398010253906    0.0000000000000000
     0.0000000000000000    0.0000000000000000   20.8706398010253906
   Ge   Se
   150   150
Direct
  0.5837902425395070  0.1714971729685054  0.8325459045266728
  0.8621189100508819  0.1133992772772536  0.8624997856208600
  0.6864493085204684  0.2329105657382788  0.6912364188149075
  0.3684832798065545  0.4270656969177839  0.5425886063076104
  0.9805406395053875  0.2577904324847171  0.0479931494754534
  0.2393823856020944  0.9337916541825768  0.7916580313888354
  0.6054428123231325  0.8017777411431558  0.8341055028124076
  0.1348267947781902  0.9015781785777780  0.6577222660703089
  0.6339365098843532  0.4932046321046016  0.0343575599733678
  0.0695252940032264  0.3066940223822958  0.5653670488179336
  0.5056669157476540  0.9341855696668595  0.4924614905913508
  0.7472789740696977  0.2641057846030700  0.4920675921484032
  0.0193565605496149  0.6608006667903188  0.4302548537485855
  0.8716395401158618  0.3026570005705679  0.8132397748669759
  0.6203065131084521  0.2925021745494997  0.1186319647531913
  0.8445592528976835  0.8962777930131934  0.1507290318448757
  0.2521154253065142  0.4307732840613943  0.6081039018680126
  0.3667131354306093  0.2813400944419660  0.7051414069541346
  0.8444641354102757  0.2590367892771350  0.3550086883762339
  0.7660647059926264  0.2521449396661982  0.9649311420288788
  0.2431320755807578  0.2968256350239921  0.4909904485777030
  0.1725262153033080  0.8688293152888299  0.3569112413693993
  0.4372684329141295  0.4112323765484961 -0.0042832918543643
  0.5886388475434725  0.5770797641434970  0.2065153545739394
  0.4055967657270346  0.1394510336242318  0.1567329679292120
  0.1753397897987941  0.1603314732962635  0.0935105686003233
  0.7969350485631995  0.0231604065657677  0.0251782126878251
  0.2995426106676148  0.9897931825979015  0.7019127586205909
  0.6391801961338948  0.4593144421788766  0.3399781467215519
  0.7523588657451492  0.3239483578248939  0.8125271830646774
  0.2179984654755933  0.2835336934437913  0.3023686387568261
  0.8770544565424369  0.0113940525984234  0.1834837281842744
  0.2748519452349764  0.8720614439567781  0.5212559461043914
  0.3032717722989063  0.3540942004581290  0.0612359124057337
  0.7451989043531214  0.6580964542633380  0.4048493239475734
  0.2689708574181632  0.1055561707453552  0.4167517310182737
  0.1216567659336264  0.8191387725489310  0.1296588552018971
  0.2834710318976689  0.2606396881769465  0.8067038141608326
  0.9341876599930223  0.7126129589843717  0.2284559754614776
  0.6680233443196879  0.4732760579984551  0.7716148494046555
  0.0361241055544549  0.9369197764708944  0.8130632945410782
  0.2399835049330661  0.8820013569024425  0.0963921830620422
  0.9198602221198633  0.1202406801792247  0.3125881318291921
  0.5955777087951520  0.2845201496501288  0.6172691526961550
  0.0768071747212104  0.4728477820615258  0.2029268753747937
  0.3010854489064491  0.6541628481257090  0.4046874322150200
  0.1369415604994520  0.7054248207086125  0.4412502999332387
  0.3985139906357504  0.5398723402640708  0.3096449186220211
  0.1290889094077387  0.6317574620459881  0.1216546998535164
  0.2571583474873899  0.4190884721496199  0.2354636959610117
  0.7495074293055595  0.7845183290376516  0.1828586339720157
  0.6263784635366190  0.3401976611602846  0.9279828081962428
  0.7117492032679812  0.7127452933382417  0.6329455862637750
  0.1717173335237044  0.7614686010493427  0.8489614981386890
  0.2486170001103442  0.1022783988498746  0.6848124659289903
  0.7104695983649019  0.2048245829827484  0.2832672609105715
  0.1968409861753536  0.0659464996388063  0.3075097871105136
 -0.0008913028700154  0.4217159434614676  0.6913361148123048
  0.4862182226256414  0.9790038198124211  0.1931192337808114
  0.3597831936247789  0.7109815960228064  0.2400218512359305
  0.9229697571220821  0.2028534081702429  0.7541378971821374
  0.0729984118178796  0.3531589507983417  0.4056168636947518
  0.9286304842835841  0.5385049644382907  0.5274572077119944
  0.9226432029178437  0.9261396466172883  0.3180047518008969
  0.5189209478501930  0.4381838886844076  0.3529929678316839
  0.8992883106453605  0.4784044534616114  0.2257573422096951
  0.8846789862795356  0.9589467464718603  0.7579500192953693
  0.5688671681510272  0.5240104252767659  0.9322153750898476
  0.5448926616634611  0.9171111727836335  0.8894323999454304
  0.0034070170582649  0.0769152884929254  0.6562924594491290
  0.0603521477727870  0.9866309505822949  0.5988222818162797
  0.4904006355395850  0.7352144992189565  0.2897214191084536
  0.1632331658586626  0.1415962196409709  0.5951954726800247
  0.6848078771060696  0.7946147939936140  0.5339445403657346
  0.0993711535024127  0.4925714674334876  0.9371957859533706
  0.9229651560121931 -0.0003138922901315  0.4689980635674205
  0.7160681203699928  0.1235979868348959  0.1239208526145312
  0.5609806095904525  0.1917014944904871  0.0736101177076821
  0.1593563966587855  0.5398961459508276  0.7149570505306824
  0.0488145351913153  0.1874550173557492  0.6275925328676402
  0.6141526465194712  0.5718174177953081  0.6792642216680536
  0.9270910432926607  0.3923361278489449  0.5048528815320313
  0.2905997410158650  0.9055596920376580  0.9011164796548961
  0.3315407733703479  0.0718916483996039  0.8324328941324179
  0.3718801059398887  0.2332359799776305  0.8841373677992674
  0.8737789593400495  0.3060501119648080  0.1425581510530972
  0.8431302046665868  0.3699686379806834  0.6595308936104577
  0.6470148488124697  0.8228734507661984  0.9919548116995878
  0.2098792243748064  0.6174347729127476  0.5585169377247438
  0.8217728436133452  0.4910953433102439  0.6483875985607765
  0.9225133733761021  0.8125171328349448  0.1035935484280355
  0.5573169543531522  0.0720847396389251  0.4066312587260775
  0.9461934146150647  0.7501263409962515  0.9924735035375256
  0.3731414493659532  0.7309666411592551  0.5270508867668403
  0.5167152842629490  0.6031841523928935  0.0136229626631795
  0.3866596317822415  0.9101302289243058  0.2190345147465045
  0.0334578563491754  0.0769061353323525  0.2955455333034395
  0.5693915950164817  0.8809855305176529  0.1127422515692263
  0.2151987921220777  0.7601461664891107  0.5406053382663134
  0.9590477984908202  0.6257891061440882  0.7512614636990536
  0.5073818673397242  0.1380337179420214  0.6700608331981838
  0.4975791234014839  0.5883525095415120  0.5587049649537322
  0.4116692577144058  0.9126887778586550  0.0362070701134768
  0.8128724559387615  0.6909200040584333  0.9642993223931212
  0.9816133774688767  0.7391972178589042  0.6134485197394551
  0.5857569068573122  0.3235605784932024  0.4055730705765752
  0.5040423982604191  0.0841412374284056  0.5587208373703418
  0.3188609557011436  0.1481020380298905  0.2497873155164614
  0.2572530333133902  0.6417465414793111  0.9107938870090192
  0.6815739648777849  0.7057594561657808  0.7931867310366423
  0.5049098464587648  0.2952246000281993  0.2607596873537119
  0.2820548374888853  0.6972017134568145  0.1438459528444916
  0.3696474226324408  0.6532643953600167  0.6555601024932908
  0.0706941631330614  0.7591169970533256  0.7672425708850914
  0.7086118258283508  0.3782215847316763  0.2257327703374423
  0.3117831141523393  0.4938523718058830  0.8800410884242613
  0.0218679366909265  0.0871189941791232  0.0864232878151535
  0.4295251958509445  0.7903715324278913  0.0556596931929301
  0.6324791806768594  0.6492648450624664  0.0269855899726663
  0.7018707048324087  0.2228412620111467  0.8558228727339332
  0.4029655935763088  0.6031703276248012  0.4659305235134641
  0.4581823368678321  0.4286425634976616  0.6413929576724864
  0.3698131336276418  0.3565669571127924  0.3145217216694480
  0.7369594786587347  0.0259295007719975  0.7842889568326183
  0.8768848385867775  0.7572397995268731  0.8294554200570460
  0.6567297523742474  0.1227118576565471  0.9807569551696297
  0.4261945035702365  0.2889005923764069  0.9758182655381799
  0.7516654424034072  0.8725245205427584  0.4155607699739559
  0.3933789934462819  0.0548114471847052  0.4390584219421728
  0.6642040501296129  0.6810287632026317  0.1920103807502542
  0.6442054792406747  0.4681635136369320  0.5296989464683448
  0.3834048023767762  0.6126602326643459  0.7779029043409452
  0.8718847247897810  0.2145879059895695  0.6362283481587807
  0.8570001598518331  0.8116263288275352  0.7181572554958872
  0.3530915549897980  0.8549190805032092  0.3794516748039675
  0.3306654714547522  0.7713907902071055  0.7876557575188238
  0.9775870023712844  0.5821178819144737  0.3348877813011216
  0.1144942355775964  0.9889147127654877  0.9787233162261337
  0.6312922783662923  0.7092383455322039  0.3811527290667400
  0.5822733287700105  0.1484537475300609  0.2034885084691194
  0.9772867229952519  0.4120555730255047  0.2954986850554586
  0.2232584885725618  0.5007043916723956  0.1020588327839137
  0.9929414151439921  0.1686342225562707  0.5035388695075214
  0.1386226180756433  0.3704932949175303  0.9432853543441272
  0.0457450686457757  0.8212648744712675  0.9784815140054571
  0.3414226035330346  0.4924204466245554  0.7626167408211292
  0.7986478747931599  0.4461235416414540  0.4572468215593933
  0.4100693541565966  0.1058705344302988  0.7383272735442159
  0.5191386785081181  0.5535642657243269  0.3080323276983115
  0.1583312000865491  0.2279337130536062  0.9633668378064966
  0.2317687351663633  0.9513376839072749 -0.0077336652314459
  0.7180738438600992  0.4186220374446496  0.8744760818256664
  0.9880485432059926  0.7155405625783665  0.8436407927216689
  0.2480355199845024  0.9605089913677218  0.5985462610515540
  0.0066744955872942  0.7697222644227307  0.3832133052231207
  0.5260075117574801  0.4163150339309331  0.9068334847279058
  0.5730003285249650  0.3684472482539215  0.1951515225422338
  0.2561497342799404  0.3917841256889235  0.3543680538592668
  0.8381477837144129  0.3730387326487344  0.2368083485666407
  0.7222893073508090  0.2617608781005447  0.1747110212584647
  0.2023920235893900  0.1559594299906731  0.2189268011109305
  0.3123824699676261  0.0358773016015011  0.2873798273698392
  0.1240496017213408  0.7513714524749868  0.0315323904256786
  0.6785892926717719  0.0257463926516043  0.0563848092168373
  0.1995481165987951  0.5332966834642460  0.8764827563328853
  0.4419669178613826  0.2357804925482464  0.7893783479198450
  0.1361554617133622  0.0436153995147858  0.0907121711805536
  0.7739734817395559  0.1539589462703441  0.7856552700655516
  0.3709238348844600  0.1253703350279230  0.9263833622231809
  0.6905722577240989  0.7129394063592918  0.9465630618003231
  0.8246304135221788  0.6558473140977015  0.8483128322827487
  0.0261221874807137  0.2535837219061876  0.7219651847007574
  0.2991616516862226  0.7898539220154738  0.9055625924076472
  0.4855520104151888  0.2436316958970653  0.6222452526761973
  0.7117776546280353  0.5750206252952800  0.0719337285919966
  0.2285132236357374  0.8829709268037068  0.2512248921422117
  0.1114575953075345  0.5012295449927383  0.0539269501669655
  0.1455797809743753  0.9603709316831043  0.2669431041732500
  0.1108687194162425  0.8593417871778327  0.8876473355423391
  0.6835271092010419  0.5150123226328923  0.2463766911189608
  0.3128648759285280  0.2028732373723745  0.3574358915072218
  0.0915193603722627  0.2473306468462096  0.4603759101153600
  0.9725283482372481  0.3592433367820558  0.1102772050209937
  0.8033255055629653  0.8637597123107095  0.2530352002942639
  0.8435314612709496  0.0286217229853160  0.2942069416991782
  0.0624592862480884  0.1950318404994671  0.1262718928067946
  0.4672738067230187  0.7002915745566702  0.6024028185793617
  0.8991264176232450  0.4118816605751544  0.7682719123973711
  0.0002862562577343  0.8025699416937488  0.1945161326741332
  0.1605241049336791  0.5076379867450718  0.5898149328898363
  0.2389281857381564  0.1481593471621504  0.7974743882734231
  0.7774204886166884  0.6843304965445811  0.2904608869349479
  0.1351509462781893  0.3629590853630382  0.2133004125254425
  0.7308146445997387  0.3600048710043495  0.7024598076749891
  0.0134132419585755  0.9895760043804197  0.3753047656607118
  0.1979831460895153  0.5989354240412614  0.4364793708579865
  0.3065519723153707  0.3049236596645599  0.2182170453817862
  0.2211486214615247  0.8226118865706864  0.7532973562007682
  0.6256933958145874  0.2533012616642903  0.5008146301605390
  0.4180965720577490  0.4044226872445411  0.7538616476986427
  0.4815655379124297  0.0881791353312588  0.2412947454176477
  0.5745901268534506  0.3975874749334646  0.6444646794108968
  0.9304359442084515  0.2719125316542315  0.5442010214508841
  0.3056042686454752  0.7835271788661939  0.0647566093099690
  0.0612174273888134  0.4914019843559684  0.3312561094495346
  0.6939545327942461  0.5155209015419540  0.4257102891171107
  0.4597980988482576  0.6586541517335960  0.2028174785182552
  0.8840897156812725  0.2127378736460851  0.2503137515954551
  0.3613292709302732  0.3148423502670916  0.5186872455675889
  0.3350087284110452  0.9573543884803022  0.1179866800898919
  0.7515687554774858  0.8669772781664178  0.0885693561813804
  0.7776557330687512  0.7605245371218753  0.4644971243854645
  0.8805159841408804  0.1578024661071306  0.4146222362739191
  0.1139537086941006  0.0625784270097414  0.5233962861067999
  0.7336161730538237  0.7956451954271961  0.7215351112560753
  0.5244938167537103  0.6461244269932050  0.3817279794065422
  0.8761175556293179  0.8942741023004745  0.4244196534645391
  0.8752913679757122  0.5259537216790834  0.3347194709914803
  0.0206859285224613  0.8562788971381172  0.7190482735014316
  0.0471117373123828  0.9151013511645729  0.0477596327793572
  0.3474111068099793  0.1549111159375046  0.6495790629990673
  0.3679310484473025  0.5849971852224518  0.9229271159167901
  0.0642069633556858  0.4890937428406828  0.7660978141417938
 -0.0038279173483007  0.6162913361814545  0.2214216222118098
  0.9850287941419663  0.9257090289351254  0.5369199069992965
  0.5379394501463465  0.5193681324832167  0.1013430290455504
  0.6877216166912959  0.0905235319414582  0.2386161488517703
  0.6709076254702294  0.3718892149946740  0.0407572533563880
  0.4799480548471091  0.5439431418441255  0.6699720275812523
  0.8735901067117957  0.2943485115876008  0.9308017840792885
  0.2404643779943088  0.4403780960133313  0.7285257492423884
  0.6115953569739748  0.0685866644351319  0.8884886326220317
  0.4742621749624761  0.1479988718475302  0.4628615531767930
  0.6070200992154275  0.6936640403132198  0.6933091559972934
  0.5958295230092748  0.0262363214793066  0.5160333060949822
  0.1178214054771360  0.8134633813776175  0.5727876704817372
  0.7841995561694827  0.1270808351222984  0.9590579720011940
  0.8830966963279675  0.6978934780235277  0.6784191159020058
  0.9368798839908610  0.5299989523515933  0.6500321964168423
  0.9739932718067699  0.0525933519861359  0.7658880829313630
  0.3296866090952063  0.3931377582642804  0.9345594330465922
  0.5930114987666830  0.7905871931369615  0.4537660036768230
  0.2516644238315633  0.1761573834448431  0.5207944682652262
  0.6110563127068294  0.7592939880499950  0.2729686977134773
  0.9072970562104007  0.1059733937351146  0.5926067757588526
  0.1048297720475823  0.7423754238706994  0.3290559282282127
  0.9953587163139033  0.0207188953736168  0.1910239198912603
  0.6713512257920711  0.8869159868326578  0.8875938756888911
  0.4167616661461765  0.0046725225833271  0.5484220469332307
  0.4626744928300991  0.8278510972371079  0.1660844685253481
  0.4709708164169532  0.2411244586643354  0.1532119441931392
  0.3762922551184234  0.4961493029637816  0.4176161203096799
  0.8395707869227171  0.0995030144335991  0.1172860120260171
  0.6126771203821405  0.1243042238931627  0.7148384875492677
  0.6991676211857817  0.3545035169566808  0.3500975030729873
  0.4722302136678133  0.9804122119745057  0.3817442689074126
  0.8538206445597610  0.7194150030845038  0.1421242566803413
  0.3827676392998051  0.4526042029830558  0.2340624048930541
  0.8816226496893645  0.7196679602914505  0.3307356523331225
  0.8057415797448342  0.5410409455623495  0.5392845785663641
  0.2703276142007029  0.9360618140165851  0.4197073691342741
  0.6256636756102705  0.5682900984772717  0.8448303809383934
  0.2396642381482049  0.6186040630842000  0.0623467483223815
  0.2656857218149754  0.7653192707820087  0.3789652879641230
  0.7217416167429873  0.9048383192750510  0.5276798295392940
  0.5333465328291488  0.2411569472521298  0.9667147597677991
  0.8541341427196600  0.8083147295392686  0.9375318975374398
  0.8019471470325163  0.0022013508040275  0.6877198409655325
  0.5020005610691197  0.9821668892887050  0.0714944764041470
  0.3949273087055608  0.9523155607352117  0.9255088976919525
  0.1850291634393539  0.3228968624040684  0.0428602012026532
  0.5377763831346807  0.7971892545742738  0.9380263909184411
  0.3277449183535339  0.5809689544188672  0.5655316714422817
  0.4128958955795942  0.9841378796996274  0.7091589512223822
  0.1415640115455335  0.9951298238027678  0.7855362989244579
  0.9397133742612079  0.6622375572055944  0.5178708907858353
  0.3412617980049154  0.2421879016205888  0.0437845654068177
  0.1745585703550293  0.5442203232776563  0.2055512537373997
  0.0416255836985917  0.4185177060035404  0.5186062597943857
  0.5313877751495023  0.8714366027627783  0.7788996853348066
  0.5931203996507626  0.9426356148455516  0.2120436600854121
  0.1755814254174989  0.2914779683658615  0.8566647418863873
  0.3930808028131387  0.8492678735922780  0.4991619079116228
  0.0507981903910923  0.2867041500586699  0.9493566014245763
  0.7578340364289912  0.1966699205154607  0.5957650979529732
  0.5982094817831231  0.7291864758379959  0.1053386340242555
  0.3112450080004278  0.7570488647487368  0.6296331035822820
  0.2713764297267136  0.6612835056370053  0.7860017369520943
  0.1969168184569094  0.3260213813820636  0.6012459360113063
  0.8306045017439544 -0.0041403400800454  0.8639350069561950
  0.7523879578296896  0.5531418194830182  0.7201446713682197
  0.9477922764818387  0.3425155554145272  0.3893718104834883
  0.5434690020629941  0.4234095377736117  0.4703042121113318
  0.0475293814607864  0.3160063314269230  0.2729916887224453
  0.0565670057495259  0.6697110014626696  0.6840240031107095
  0.3050618310796755  0.6114048402389759  0.2899537471273942
  0.5862522894321160  0.2122439365653770  0.3051321438395675
  0.6173548326959007  0.5930424846905182  0.5577402221771198
  0.1796638108881677  0.7248148679534406  0.1931974052905971
  0.7501165789207049  0.3733167437405547  0.5420158658727032
 
  0.00000000E+00  0.00000000E+00  0.00000000E+00
  0.00000000E+00  0.00000000E+00  0.00000000E+00
  0.00000000E+00  0.00000000E+00  0.00000000E+00
  0.00000000E+00  0.00000000E+00  0.00000000E+00
  0.00000000E+00  0.00000000E+00  0.00000000E+00
  0.00000000E+00  0.00000000E+00  0.00000000E+00
  0.00000000E+00  0.00000000E+00  0.00000000E+00
  0.00000000E+00  0.00000000E+00  0.00000000E+00
  0.00000000E+00  0.00000000E+00  0.00000000E+00
  0.00000000E+00  0.00000000E+00  0.00000000E+00
  0.00000000E+00  0.00000000E+00  0.00000000E+00
  0.00000000E+00  0.00000000E+00  0.00000000E+00
  0.00000000E+00  0.00000000E+00  0.00000000E+00
  0.00000000E+00  0.00000000E+00  0.00000000E+00
  0.00000000E+00  0.00000000E+00  0.00000000E+00
  0.00000000E+00  0.00000000E+00  0.00000000E+00
  0.00000000E+00  0.00000000E+00  0.00000000E+00
  0.00000000E+00  0.00000000E+00  0.00000000E+00
  0.00000000E+00  0.00000000E+00  0.00000000E+00
  0.00000000E+00  0.00000000E+00  0.00000000E+00
  0.00000000E+00  0.00000000E+00  0.00000000E+00
  0.00000000E+00  0.00000000E+00  0.00000000E+00
  0.00000000E+00  0.00000000E+00  0.00000000E+00
  0.00000000E+00  0.00000000E+00  0.00000000E+00
  0.00000000E+00  0.00000000E+00  0.00000000E+00
  0.00000000E+00  0.00000000E+00  0.00000000E+00
  0.00000000E+00  0.00000000E+00  0.00000000E+00
  0.00000000E+00  0.00000000E+00  0.00000000E+00
  0.00000000E+00  0.00000000E+00  0.00000000E+00
  0.00000000E+00  0.00000000E+00  0.00000000E+00
  0.00000000E+00  0.00000000E+00  0.00000000E+00
  0.00000000E+00  0.00000000E+00  0.00000000E+00
  0.00000000E+00  0.00000000E+00  0.00000000E+00
  0.00000000E+00  0.00000000E+00  0.00000000E+00
  0.00000000E+00  0.00000000E+00  0.00000000E+00
  0.00000000E+00  0.00000000E+00  0.00000000E+00
  0.00000000E+00  0.00000000E+00  0.00000000E+00
  0.00000000E+00  0.00000000E+00  0.00000000E+00
  0.00000000E+00  0.00000000E+00  0.00000000E+00
  0.00000000E+00  0.00000000E+00  0.00000000E+00
  0.00000000E+00  0.00000000E+00  0.00000000E+00
  0.00000000E+00  0.00000000E+00  0.00000000E+00
  0.00000000E+00  0.00000000E+00  0.00000000E+00
  0.00000000E+00  0.00000000E+00  0.00000000E+00
  0.00000000E+00  0.00000000E+00  0.00000000E+00
  0.00000000E+00  0.00000000E+00  0.00000000E+00
  0.00000000E+00  0.00000000E+00  0.00000000E+00
  0.00000000E+00  0.00000000E+00  0.00000000E+00
  0.00000000E+00  0.00000000E+00  0.00000000E+00
  0.00000000E+00  0.00000000E+00  0.00000000E+00
  0.00000000E+00  0.00000000E+00  0.00000000E+00
  0.00000000E+00  0.00000000E+00  0.00000000E+00
  0.00000000E+00  0.00000000E+00  0.00000000E+00
  0.00000000E+00  0.00000000E+00  0.00000000E+00
  0.00000000E+00  0.00000000E+00  0.00000000E+00
  0.00000000E+00  0.00000000E+00  0.00000000E+00
  0.00000000E+00  0.00000000E+00  0.00000000E+00
  0.00000000E+00  0.00000000E+00  0.00000000E+00
  0.00000000E+00  0.00000000E+00  0.00000000E+00
  0.00000000E+00  0.00000000E+00  0.00000000E+00
  0.00000000E+00  0.00000000E+00  0.00000000E+00
  0.00000000E+00  0.00000000E+00  0.00000000E+00
  0.00000000E+00  0.00000000E+00  0.00000000E+00
  0.00000000E+00  0.00000000E+00  0.00000000E+00
  0.00000000E+00  0.00000000E+00  0.00000000E+00
  0.00000000E+00  0.00000000E+00  0.00000000E+00
  0.00000000E+00  0.00000000E+00  0.00000000E+00
  0.00000000E+00  0.00000000E+00  0.00000000E+00
  0.00000000E+00  0.00000000E+00  0.00000000E+00
  0.00000000E+00  0.00000000E+00  0.00000000E+00
  0.00000000E+00  0.00000000E+00  0.00000000E+00
  0.00000000E+00  0.00000000E+00  0.00000000E+00
  0.00000000E+00  0.00000000E+00  0.00000000E+00
  0.00000000E+00  0.00000000E+00  0.00000000E+00
  0.00000000E+00  0.00000000E+00  0.00000000E+00
  0.00000000E+00  0.00000000E+00  0.00000000E+00
  0.00000000E+00  0.00000000E+00  0.00000000E+00
  0.00000000E+00  0.00000000E+00  0.00000000E+00
  0.00000000E+00  0.00000000E+00  0.00000000E+00
  0.00000000E+00  0.00000000E+00  0.00000000E+00
  0.00000000E+00  0.00000000E+00  0.00000000E+00
  0.00000000E+00  0.00000000E+00  0.00000000E+00
  0.00000000E+00  0.00000000E+00  0.00000000E+00
  0.00000000E+00  0.00000000E+00  0.00000000E+00
  0.00000000E+00  0.00000000E+00  0.00000000E+00
  0.00000000E+00  0.00000000E+00  0.00000000E+00
  0.00000000E+00  0.00000000E+00  0.00000000E+00
  0.00000000E+00  0.00000000E+00  0.00000000E+00
  0.00000000E+00  0.00000000E+00  0.00000000E+00
  0.00000000E+00  0.00000000E+00  0.00000000E+00
  0.00000000E+00  0.00000000E+00  0.00000000E+00
  0.00000000E+00  0.00000000E+00  0.00000000E+00
  0.00000000E+00  0.00000000E+00  0.00000000E+00
  0.00000000E+00  0.00000000E+00  0.00000000E+00
  0.00000000E+00  0.00000000E+00  0.00000000E+00
  0.00000000E+00  0.00000000E+00  0.00000000E+00
  0.00000000E+00  0.00000000E+00  0.00000000E+00
  0.00000000E+00  0.00000000E+00  0.00000000E+00
  0.00000000E+00  0.00000000E+00  0.00000000E+00
  0.00000000E+00  0.00000000E+00  0.00000000E+00
  0.00000000E+00  0.00000000E+00  0.00000000E+00
  0.00000000E+00  0.00000000E+00  0.00000000E+00
  0.00000000E+00  0.00000000E+00  0.00000000E+00
  0.00000000E+00  0.00000000E+00  0.00000000E+00
  0.00000000E+00  0.00000000E+00  0.00000000E+00
  0.00000000E+00  0.00000000E+00  0.00000000E+00
  0.00000000E+00  0.00000000E+00  0.00000000E+00
  0.00000000E+00  0.00000000E+00  0.00000000E+00
  0.00000000E+00  0.00000000E+00  0.00000000E+00
  0.00000000E+00  0.00000000E+00  0.00000000E+00
  0.00000000E+00  0.00000000E+00  0.00000000E+00
  0.00000000E+00  0.00000000E+00  0.00000000E+00
  0.00000000E+00  0.00000000E+00  0.00000000E+00
  0.00000000E+00  0.00000000E+00  0.00000000E+00
  0.00000000E+00  0.00000000E+00  0.00000000E+00
  0.00000000E+00  0.00000000E+00  0.00000000E+00
  0.00000000E+00  0.00000000E+00  0.00000000E+00
  0.00000000E+00  0.00000000E+00  0.00000000E+00
  0.00000000E+00  0.00000000E+00  0.00000000E+00
  0.00000000E+00  0.00000000E+00  0.00000000E+00
  0.00000000E+00  0.00000000E+00  0.00000000E+00
  0.00000000E+00  0.00000000E+00  0.00000000E+00
  0.00000000E+00  0.00000000E+00  0.00000000E+00
  0.00000000E+00  0.00000000E+00  0.00000000E+00
  0.00000000E+00  0.00000000E+00  0.00000000E+00
  0.00000000E+00  0.00000000E+00  0.00000000E+00
  0.00000000E+00  0.00000000E+00  0.00000000E+00
  0.00000000E+00  0.00000000E+00  0.00000000E+00
  0.00000000E+00  0.00000000E+00  0.00000000E+00
  0.00000000E+00  0.00000000E+00  0.00000000E+00
  0.00000000E+00  0.00000000E+00  0.00000000E+00
  0.00000000E+00  0.00000000E+00  0.00000000E+00
  0.00000000E+00  0.00000000E+00  0.00000000E+00
  0.00000000E+00  0.00000000E+00  0.00000000E+00
  0.00000000E+00  0.00000000E+00  0.00000000E+00
  0.00000000E+00  0.00000000E+00  0.00000000E+00
  0.00000000E+00  0.00000000E+00  0.00000000E+00
  0.00000000E+00  0.00000000E+00  0.00000000E+00
  0.00000000E+00  0.00000000E+00  0.00000000E+00
  0.00000000E+00  0.00000000E+00  0.00000000E+00
  0.00000000E+00  0.00000000E+00  0.00000000E+00
  0.00000000E+00  0.00000000E+00  0.00000000E+00
  0.00000000E+00  0.00000000E+00  0.00000000E+00
  0.00000000E+00  0.00000000E+00  0.00000000E+00
  0.00000000E+00  0.00000000E+00  0.00000000E+00
  0.00000000E+00  0.00000000E+00  0.00000000E+00
  0.00000000E+00  0.00000000E+00  0.00000000E+00
  0.00000000E+00  0.00000000E+00  0.00000000E+00
  0.00000000E+00  0.00000000E+00  0.00000000E+00
  0.00000000E+00  0.00000000E+00  0.00000000E+00
  0.00000000E+00  0.00000000E+00  0.00000000E+00
  0.00000000E+00  0.00000000E+00  0.00000000E+00
  0.00000000E+00  0.00000000E+00  0.00000000E+00
  0.00000000E+00  0.00000000E+00  0.00000000E+00
  0.00000000E+00  0.00000000E+00  0.00000000E+00
  0.00000000E+00  0.00000000E+00  0.00000000E+00
  0.00000000E+00  0.00000000E+00  0.00000000E+00
  0.00000000E+00  0.00000000E+00  0.00000000E+00
  0.00000000E+00  0.00000000E+00  0.00000000E+00
  0.00000000E+00  0.00000000E+00  0.00000000E+00
  0.00000000E+00  0.00000000E+00  0.00000000E+00
  0.00000000E+00  0.00000000E+00  0.00000000E+00
  0.00000000E+00  0.00000000E+00  0.00000000E+00
  0.00000000E+00  0.00000000E+00  0.00000000E+00
  0.00000000E+00  0.00000000E+00  0.00000000E+00
  0.00000000E+00  0.00000000E+00  0.00000000E+00
  0.00000000E+00  0.00000000E+00  0.00000000E+00
  0.00000000E+00  0.00000000E+00  0.00000000E+00
  0.00000000E+00  0.00000000E+00  0.00000000E+00
  0.00000000E+00  0.00000000E+00  0.00000000E+00
  0.00000000E+00  0.00000000E+00  0.00000000E+00
  0.00000000E+00  0.00000000E+00  0.00000000E+00
  0.00000000E+00  0.00000000E+00  0.00000000E+00
  0.00000000E+00  0.00000000E+00  0.00000000E+00
  0.00000000E+00  0.00000000E+00  0.00000000E+00
  0.00000000E+00  0.00000000E+00  0.00000000E+00
  0.00000000E+00  0.00000000E+00  0.00000000E+00
  0.00000000E+00  0.00000000E+00  0.00000000E+00
  0.00000000E+00  0.00000000E+00  0.00000000E+00
  0.00000000E+00  0.00000000E+00  0.00000000E+00
  0.00000000E+00  0.00000000E+00  0.00000000E+00
  0.00000000E+00  0.00000000E+00  0.00000000E+00
  0.00000000E+00  0.00000000E+00  0.00000000E+00
  0.00000000E+00  0.00000000E+00  0.00000000E+00
  0.00000000E+00  0.00000000E+00  0.00000000E+00
  0.00000000E+00  0.00000000E+00  0.00000000E+00
  0.00000000E+00  0.00000000E+00  0.00000000E+00
  0.00000000E+00  0.00000000E+00  0.00000000E+00
  0.00000000E+00  0.00000000E+00  0.00000000E+00
  0.00000000E+00  0.00000000E+00  0.00000000E+00
  0.00000000E+00  0.00000000E+00  0.00000000E+00
  0.00000000E+00  0.00000000E+00  0.00000000E+00
  0.00000000E+00  0.00000000E+00  0.00000000E+00
  0.00000000E+00  0.00000000E+00  0.00000000E+00
  0.00000000E+00  0.00000000E+00  0.00000000E+00
  0.00000000E+00  0.00000000E+00  0.00000000E+00
  0.00000000E+00  0.00000000E+00  0.00000000E+00
  0.00000000E+00  0.00000000E+00  0.00000000E+00
  0.00000000E+00  0.00000000E+00  0.00000000E+00
  0.00000000E+00  0.00000000E+00  0.00000000E+00
  0.00000000E+00  0.00000000E+00  0.00000000E+00
  0.00000000E+00  0.00000000E+00  0.00000000E+00
  0.00000000E+00  0.00000000E+00  0.00000000E+00
  0.00000000E+00  0.00000000E+00  0.00000000E+00
  0.00000000E+00  0.00000000E+00  0.00000000E+00
  0.00000000E+00  0.00000000E+00  0.00000000E+00
  0.00000000E+00  0.00000000E+00  0.00000000E+00
  0.00000000E+00  0.00000000E+00  0.00000000E+00
  0.00000000E+00  0.00000000E+00  0.00000000E+00
  0.00000000E+00  0.00000000E+00  0.00000000E+00
  0.00000000E+00  0.00000000E+00  0.00000000E+00
  0.00000000E+00  0.00000000E+00  0.00000000E+00
  0.00000000E+00  0.00000000E+00  0.00000000E+00
  0.00000000E+00  0.00000000E+00  0.00000000E+00
  0.00000000E+00  0.00000000E+00  0.00000000E+00
  0.00000000E+00  0.00000000E+00  0.00000000E+00
  0.00000000E+00  0.00000000E+00  0.00000000E+00
  0.00000000E+00  0.00000000E+00  0.00000000E+00
  0.00000000E+00  0.00000000E+00  0.00000000E+00
  0.00000000E+00  0.00000000E+00  0.00000000E+00
  0.00000000E+00  0.00000000E+00  0.00000000E+00
  0.00000000E+00  0.00000000E+00  0.00000000E+00
  0.00000000E+00  0.00000000E+00  0.00000000E+00
  0.00000000E+00  0.00000000E+00  0.00000000E+00
  0.00000000E+00  0.00000000E+00  0.00000000E+00
  0.00000000E+00  0.00000000E+00  0.00000000E+00
  0.00000000E+00  0.00000000E+00  0.00000000E+00
  0.00000000E+00  0.00000000E+00  0.00000000E+00
  0.00000000E+00  0.00000000E+00  0.00000000E+00
  0.00000000E+00  0.00000000E+00  0.00000000E+00
  0.00000000E+00  0.00000000E+00  0.00000000E+00
  0.00000000E+00  0.00000000E+00  0.00000000E+00