GeSe                                    
   1.00000000000000     
    20.1278870000000012    0.0000000000000000    0.0000000000000000
     0.0000000000000000   20.1278870000000012    0.0000000000000000
     0.0000000000000000    0.0000000000000000   20.1278870000000012
   Ge   Se
   150   150
Direct
  0.4073907055923729  0.8884503394934601  0.5735344725007400
  0.1495396728355091  0.5366064205203492  0.3342578620699762
  0.5362365112893581  0.9169600969948019  0.9475413324754386
  0.0682983317134788  0.0289045494067928  0.0782205868688703
  0.9402927832318643  0.1785660370944025  0.3126309814091294
  0.7220187009911365  0.2481793775932319  0.0617988134842250
  0.4290680584761616  0.5998358255100524  0.6184189785458549
  0.7917181426113646  0.7445812436199596  0.3647258724339599
  0.3139096921517746  0.4043714817422360  0.3794947888931651
  0.8771633975644626  0.5722682027243632  0.5451391892781378
  0.1987898342892534  0.7953506547441181  0.2800363961537484
  0.4803991913555524  0.0671266747413892  0.0677213145164603
  0.9511390284109102  0.7061947718938821  0.8885515359638245
  0.5136524349426660  0.2466558967248649  0.9641367376667591
  0.6709979744326805  0.5385205111027472  0.7678746367115976
  0.4571874375902147  0.8551298257284390  0.4257472657085015
  0.7728620223649360  0.2643783775762320  0.3243487724259160
  0.4208795111453654  0.2533044731204969  0.8196098889562065
  0.0411029871159677  0.2633690399967485  0.7076054492092169
  0.6177534111689155  0.8246937986569876  0.7931690841481001
  0.6012136007567196  0.4547238704308026  0.5810116430575980
  0.4710147071660928  0.1249109044504298  0.2689101300554161
  0.4910250699395550  0.4652301998980310  0.2430567215450587
  0.6139456654463580  0.7540250171685752  0.9789465324457048
  0.7430415184664548  0.7598377905150229  0.6175417837935884
  0.1984194930944852  0.8053153200538120  0.4534636665260472
  0.7476398655325615  0.7191650420021755  0.8748794277589899
  0.2171433880640490  0.6094682677776392  0.4767310849529012
  0.3950619626767261 -0.0021331466835814  0.3934529469232834
  0.8667388355945947  0.5344744479932929  0.7064366112140716
  0.4889872243824622  0.7842947709531982  0.6364942671845422
  0.5729718057878521  0.1106831711016136  0.5533056404928482
  0.8528727854369372  0.4728643375887329  0.0899774898333602
  0.1301810945559375  0.7652507442454152  0.6479450737910198
  0.5063793275336280  0.7354074158351076  0.4523236374146053
  0.2688387087947334  0.9054421322969286  0.7261926433891777
  0.5036884990899683  0.4722912782773024  0.4298656570897099
  0.2973149929081163  0.9172712469439095  0.3713094128665477
  0.0162010552044755  0.3903852693344438  0.8600272402192485
  0.6547278464779853  0.9579073655993106  0.9138573134075595
  0.1296244804163103  0.9534877828311311  0.3599321996756986
  0.7834207746734128  0.9239669284676133  0.3448638992776938
  0.7288020064172427  0.5654066749283002  0.4071630618846060
  0.4860445482474800  0.2164831794883718  0.1600214116034208
  0.9638270900945329  0.9077414369645911  0.0760877817327040
  0.0165604750199098  0.6064679393405383  0.7175736009331566
  0.1108212504397099  0.2813416431867721  0.5340001689031667
  0.7187028204093661  0.4074822917429003  0.6878622827047776
  0.3141618893716387  0.4654129686418340  0.8166946646457945
  0.2787790650698657  0.1727546737147664  0.7555985356708881
  0.8835619259229737  0.0908735457988812  0.6682710059482156
  0.3506507108477812  0.5404006643845407  0.4047791613443491
  0.3491296258601042  0.6963453016411600  0.0914774501731971
  0.8590007771884287 -0.0255926609493376  0.6012250279848500
  0.9869674711309377  0.7610175939284221  0.1964057054679593
  0.8322548761564676  0.1562979617003094  0.4607907062288391
  0.1067472295862139  0.7935772185471973  0.1846356012924923
  0.6974214445653937  0.1075664150369945  0.3277258602182863
  0.3716588691117974  0.9190643453497801 -0.0290999856152963
  0.3374670960374443  0.0953772687187887  0.1878710569147390
  0.8769727065681312  0.8824239884526097  0.6979253884457356
  0.5134322658047001  0.0250181163502514  0.4638926103084083
  0.9386682493507378 -0.0198759505320502  0.3838275943219039
  0.7260906135581711  0.1278602577177157  0.6256852562037105
  0.4439950365388400  0.7317283728800882  0.2218979408049868
  0.4445751536719569  0.3440801024884364  0.2569387576147404
 -0.0319139766527459  0.5232689471783027  0.4458559884131100
  0.5377873712421430  0.0765043082830738  0.8287599719708177
  0.3275828718064826  0.5148272550473521  0.0906245247067681
  0.3310378286488476  0.1082458885938710  0.3945519716191725
  0.5178274056047670  0.3002768784683119  0.5285029699396376
  0.6705983825229597  0.1140964389991455  0.1641876686607751
  0.2324290149157432  0.9307533599730871  0.0958453491245843
  0.1233248360026839  0.4101347148972717  0.7945127878580066
  0.0111080446008406  0.6351629418192991  0.3117674191875742
  0.9813547149406160  0.2279093324713347  0.8709494867106684
  0.1359094035682448  0.6591194823841462  0.7259563888939491
  0.0749108951985304  0.2917086881516776  0.3190991580509489
  0.8593551399969083  0.3912314183676576  0.3460647853826436
  0.6706616622397518  0.2485282869936145  0.6141993342883459
  0.3264390806449706  0.2706101062686633  0.1709372326385175
  0.0292928922700710  0.1223267273853021  0.8248467942493330
  0.6576603443027227  0.9523942539099487  0.7103425519510952
  0.1544345610394323  0.2474265231784285  0.0308851054910819
  0.2242256135542999  0.0527005729069252  0.2361174309119994
  0.2654232052811226  0.2561546661958151  0.8898625620224951
  0.1145777737698963  0.3337794113886769  0.2037772760855660
  0.8022791221898484  0.2723088238651734  0.8178644076622600
  0.6086638264648845  0.8133197404989378  0.0961310103261338
  0.6587014467630585  0.3928585369340608  0.8349181215079550
  0.5716296450043719  0.9642364617380828  0.3037014309805938
  0.4097806267060063  0.5934376826542777  0.1522783356415550
  0.2075992618863554  0.7032397304260185  0.5626294218246232
  0.1063376254029231  0.4084508838505494  0.4852366426777834
  0.1938981058588829  0.2508621024581791  0.3489591384378440
  0.1937718381943130  0.4276749244667562  0.6113605000823403
  0.4862538380705859  0.4328416912185077  0.0600617746591077
  0.0629739019250553  0.1302196691116809  0.4096541059220086
  0.9230262561383351  0.4476086253495024 -0.0684267824090410
  0.1407217264647063  0.4773207718247082  0.0861618731938113
  0.1070877429216551  0.9741722912846021  0.6524818643129254
  0.6171223721151524  0.3462700757425676  0.1994637276095139
  0.4858519579632943  0.3916787306035167  0.8619791631431589
  0.5816409972856971  0.5689752319467459  0.9603664697724760
  0.1601266852303452  0.2977626738381675  0.7499212888194214
  0.2269662547366264  0.2630397247521518  0.4717346899510353
  0.8674376106170734  0.7755770602739771  0.7622794039244881
  0.6701123802838305  0.9723908893657259  0.0998151421776435
  0.2298572788724499  0.3545602690267245  0.1544485974973401
  0.0452296052594834  0.1761643813906872  0.2164387446374573
  0.4211200581143469  0.0478916706562219  0.6095462954731118
  0.8889307916469644  0.2060987039042640  0.9514048036058785
  0.6911106159747029  0.6303362219487162  0.5953103205467205
  0.9090735214569775  0.3757426868680090  0.5580251232421419
  0.8814353956786670  0.3264027191532209 -0.0123784050647789
  0.0913143958215075  0.8845805928758363  0.8365867332307428
  0.7471245772335277  0.5971407790631701  0.2557211334968445
  0.9124573958219530  0.7804276487860675  0.3759900672268576
  0.4473917277625707  0.4398342628915707  0.7037015329518967
  0.2015429753414250  0.0746892905294645  0.5185694137385520
  0.4983293067496377  0.1965424544841120  0.6917523607748080
  0.9072072519962733  0.5857244441882651  0.9241313727881615
  0.9801789340943874  0.3934042996183435  0.0822751902371316
  0.7027832055848927  0.4828514880291683  0.1795803224864151
  0.7733359297185017  0.0688006992671449  0.8491148957428692
  0.6135157472481738  0.6945260760443243  0.7465564524078413
  0.1095071545191370  0.0575746721053134  0.9042805302116270
  0.4227936935674925  0.9552440840669563  0.7975422434428522
  0.3127433027868426  0.5681037633365186  0.6696712292366712
  0.9352467021217574  0.0369473609813503  0.2378897590320942
  0.7368257864058159  0.3963715361262679  0.4526848135852151
  0.7745130160509952  0.4569187863344221  0.8609945585758667
  0.8348543272941925  0.1916096819081758  0.1714918710153428
  0.8317414533298422  0.8669771205638062  0.2323634462930048
 -0.0319397118203785  0.9028586711325408  0.5601573840349745
  0.5862761541411883  0.8131416020606813  0.2927857644233108
  0.2952321950987396  0.1201811923267962  0.0278627881169985
  0.2569478019608950  0.0308196474925090  0.7513714342502040
  0.5054199265606505  0.6272055068489725  0.3163345255894613
  0.4866416107308886  0.4878145145041107  0.9454281652889414
  0.9230449799259112  0.9476836450890419  0.8672915883428485
  0.0303063616732500  0.7572367016748752  0.5670557977563534
  0.6997386456635520  0.5181755545667026  0.9644044500264743
  0.9259477563132683  0.0903127833145953 -0.0074271671178298
  0.7460482710489350  0.6111270260965118  0.0344391053395922
  0.3246127236684362  0.6517550305056595  0.9679591491907659
  0.2105831682045199  0.9043727968930930  0.9059466149322829
  0.7742266261127341  0.9852391944929108  0.4564239209109500
  0.0186288278777473  0.6971799609350511  0.0374126016051446
  0.1736998939081868  0.6193208152381400  0.1330828686450509
  0.7623110906956105  0.1268416022838296  0.0785475613985415
  0.8323368208441171  0.3054056804314306  0.0989310119821462
  0.5672771436784348  0.7387912381890096  0.1900851809767199
  0.7748003383384605  0.3438463985788170  0.9225849424915322
  0.5934051263114560  0.3877190459603507  0.4709206448616377
  0.2098242864754883  0.9320720012298853  0.4590865944995096
  0.2957489486395801  0.5297875093275505  0.5181117206019999
  0.4376599782388282  0.3734106432348467  0.3777301241335944
  0.2819180148462803  0.3125473852294631  0.2894319828454158
  0.8581142508385742  0.7903828568146350  0.8846377581558351
  0.5641783154815214  0.3050517612735155  0.6491818963689302
  0.3241844796589536  0.7370751015924717  0.5500592749639708
  0.3070212329157203  0.3498367695443882  0.4898762174591611
  0.2012039285729350  0.4556766180444329  0.8698590331267719
  0.5078156945439979  0.9654837555888147  0.5912868244300290
  0.1991671751831819  0.6374807476539058  0.8254809592693352
  0.8397904066790050  0.1013119425033234  0.2987963421022062
  0.0991112623726078  0.1540039193512160  0.5286265474626419
  0.8401847897872968  0.1782207466040661  0.5874463136756203
  0.2656043741129158  0.8468401448487006  0.0009888874101171
  0.1082088926227938  0.8246564790818777  0.3631013841464795
  0.5758621959657308  0.1554503539254583  0.0892158126021342
  0.3026393644863439  0.4449228823179648  0.6879297214908338
  0.3453557580861233  0.1583155405503619  0.8627233596134366
  0.4739912099884249  0.4566809898937805  0.5805971391895666
  0.0696512569364949  0.9016159000209211  0.1438876808003660
  0.0484901851202872  0.7580546811364632  0.9353034485217661
  0.0000543970464088  0.5169423415044694  0.3251948680200817
  0.6419956979619380  0.8287521299143288  0.6667296624396873
 -0.0154436257527115  0.3977276028477005  0.4537276479217630
  0.7376721625567266  0.7282544704291166  0.0064402884652973
  0.1680728766052043  0.1952503628948843  0.8210651067121868
  0.2910686218390647  0.3059791649015693  0.7759696468331921
  0.9951264967557965  0.2857885995837229  0.5975427589000943
  0.6979919705204306 -0.0113054927108006  0.2835124281504869
  0.9537191336604998  0.3106257699240608  0.7823844771792235
  0.6174591426678979  0.2186858809412595  0.5021673198421120
  0.3777377779226559  0.7153917312662865  0.6558641564034614
  0.7194781115117066  0.8334164381799957  0.3956136648892227
  0.8671597524519840  0.5954860795700463  0.0488053814300340
  0.0367932052972864  0.9526602443710390  0.9271184728059060
  0.6970029104829472  0.2471001707014020  0.1882768276154037
  0.4550152321439662  0.1561735666688708  0.5650178749458306
  0.7790591968710332  0.6690153426591409  0.4549382498626384
  0.6877743702240670  0.6060241923044396  0.1429001539153597
  0.9803042159899995  0.7232618757234979  0.7688132257709178
  0.0135646826216012  0.1438161503936260  0.7063804787841027
  0.2367765092921002  0.4763138795358504  0.1770526590768885
  0.6887833201889229  0.2972610398392166  0.7635021462275381
  0.4991668634659556  0.7376717418065777  0.7519847781765572
  0.7839775629011800  0.6997127086397885  0.7204902598920465
  0.5902749398085333  0.3607201378903149  0.9299544347144172
  0.0965136464250866  0.4575384892254488  0.6895624056998464
  0.9381042132520113  0.6556232839120413  0.2212165089184508
  0.9564300693701829  0.1960248735262311  0.4331915941260874
  0.4585076257582035  0.8379051985813931  0.3016768307598826
  0.1324632628032385  0.9895328399321577  0.7753195716894874
  0.7747029330145369  0.1833417039750969  0.9086815989355549
  0.4146672576874056  0.1720758985049754  0.0467950164468724
  0.3107079880782393  0.5983589634712387  0.7939614992302155
  0.5220174866495875  0.5250112313705663  0.1372080605213616
  0.9174480267017882  0.0736736758013436  0.8605457903247578
  0.7526251090326002  0.9264254834159312  0.5590694819496929
  0.6481247158231098  0.0781755551238131  0.8920318297646602
  0.4444499396861857  0.5608011203322356  0.7399769546598031
  0.5377957998092107  0.2039177821567096  0.8407931447209217
  0.5710983067570941  0.5118645605924754  0.3244762803669811
  0.1044824184625651  0.0601035554592010  0.2041458015538680
  0.0160432055939045  0.4825243960834004  0.0061456255110031
  0.1956766218516849  0.2965743075013042  0.6286188730205764
  0.4030962649684166  0.7964906710379023  0.1221099229014293
  0.5444300379284586  0.3298862913212112  0.0887672534812314
  0.3002143200366896 -0.0139771736273841  0.8844231572646650
  0.5918168598678857  0.1139787763001487  0.6802958894804650
  0.7732300017502860  0.5356182487844435  0.6175446577786877
  0.5529854621765060  0.9341397889408853  0.7811682215292330
  0.5478968425868247  0.2759921427648078  0.2743237373492402
  0.5724933048339519  0.9202289189863538  0.4256618107950028
  0.5485074009699601  0.7028264818960137  0.5611576880011490
  0.2434248905416784  0.8165940736466658  0.8139561737142046
  0.9508222875024668  0.1266897000200720  0.1467896111734522
  0.5410068382584189  0.6635257834903256  0.0212350695115653
  0.8057059809458292  0.6076529830226126  0.8634961878473186
  0.5510075573864757  0.9223764532313926  0.0754714188026194
  0.4099024262890677  0.3133597829745902  0.9341991477036936
  0.2754758064109393  0.6708691997333276  0.1853631099482249
  0.5759784916845436  0.4569760298534050  0.7723293317636336
  0.6025791976151181  0.5903887968129593  0.6728001965364376
  0.2956181762988075  0.1609795733789188  0.5011002899693686
  0.0455259978354294  0.0050098972078377  0.4474473592733627
  0.0607742304458041  0.2663559410323555  0.1154411019189930
  0.5953609194237935  0.7090331809570990  0.3713792040741208
  0.3983237100709127  0.0690633248879757  0.7233326302330345
  0.4811776662263621  0.0304178052133381  0.9412281607233340
  0.1248422413512561  0.6554710860163149  0.2844141279690856
  0.7846913603500862  0.1346185718308649  0.7376596439609732
  0.8333529545712099  0.4192369661953804  0.7472406444027089
  0.3746070201100801  0.5345766093950993  0.9639909795069382
  0.0485788873837102  0.1280515038759773 -0.0054137168818320
 -0.0127323838204560  0.6945582816567463  0.4152867345556237
  0.1958358298564082  0.3684403094493993  0.0359947223910310
  0.6407827592349941  0.5621393654393855  0.5037941367154914
  0.1941333543218113  0.5964265732071306  0.6370499352580772
  0.0101548625521147  0.6387161090996197  0.5979939395549130
  0.8293372463847496  0.5069521812885930  0.2094708337902793
  0.2620456892989187  0.6183391758186881  0.3639320663705096
  0.1790945648263971  0.0176764382791680  0.0253351110967039
  0.0514550715864540  0.3025083742501765  0.9373753949083836
  0.0581272965302742  0.4404002668309537  0.1771964045872013
  0.1910425987966689  0.0689808870023427  0.6446991731466970
  0.8826768323211179  0.0394577048210248  0.4835301506703544
  0.2374722600734736  0.1890716279385467  0.1247554082438024
  0.2434841145281821  0.9231469535639149  0.2601137909133415
  0.7352870429150957  0.9382310595898178 -0.0008668080514752
  0.1475704111044458  0.3838295138035072  0.3704873920861911
  0.1936263399504358  0.8725868940576879  0.6324764158816950
  0.2154335828955165  0.1092359920442785  0.3456598873263217
  0.8329441641479161  0.4941503920072919  0.4438691205020390
  0.7306593541191502  0.4419079925954742  0.0612580570941717
  0.3760304021913681  0.4020481475814571  0.0944516321883516
  0.1113136022091281  0.5535658488544729  0.4555592132101538
  0.7494198345135775  0.3400506985136655  0.5873412791670372
  0.7034772174876663  0.0813214129295504  0.4525774834333866
  0.9182582931780088  0.7991524018541339  0.6111005108709128
  0.3845812825510018  0.8762793317682118  0.7032330424568720
  0.8249848389081313  0.3056911853201935  0.4377635803086175
  0.9437148068022768  0.4860211448324961  0.6122178301164184
  0.9304554958115979  0.7838665481668219  0.0926251959871677
  0.9525891867546203  0.8467080374438440  0.2807845384891793
  0.9026217398842536  0.8756303279821157  0.4524727146924605
  0.6938847378991130  0.8665794540188367  0.1630561361085456
  0.8700303521558700  0.9613196886185802  0.1586282569168017
  0.7693727752222356  0.7175720849761796  0.2514801732789607
  0.7203280067270549  0.9118675647121821  0.8181341370062958
  0.5615370406682195  0.0864992278440117  0.3473632757507603
  0.4500516635328836  0.6250221404478610  0.4289882217622929
  0.9759534841784315  0.9282756358539727  0.7532475912483294
  0.4297073864919582  0.8394595234620902  0.8889729292738888
  0.1339391379898140  0.7320032918904791  0.0816515659157911
  0.4030254024536795  0.1911466343095581  0.3480670473297033
  0.3051833638735896  0.7970502232607274  0.3847959830751013
  0.2359582831750331  0.5800645927099273  0.0237110353675807
  0.3367456198702691 -0.0053355896142662  0.5442521705957901
  0.8906188906205582  0.2831402284687610  0.2675362513435153
  0.4120151445183750  0.0149178117304312  0.2668339807806784
  0.7339512253479700  0.3848324876409343  0.3163500309749996
  0.3377805066518281  0.0145966073857590  0.0921818079663006
  0.3919132837653955  0.5376676608925354  0.2607745179375507
  0.6263291656332360  0.6266023065639650  0.8570905805304110
  0.3472008101262353  0.7650997189050878  0.8366065330199715
 
  0.00000000E+00  0.00000000E+00  0.00000000E+00
  0.00000000E+00  0.00000000E+00  0.00000000E+00
  0.00000000E+00  0.00000000E+00  0.00000000E+00
  0.00000000E+00  0.00000000E+00  0.00000000E+00
  0.00000000E+00  0.00000000E+00  0.00000000E+00
  0.00000000E+00  0.00000000E+00  0.00000000E+00
  0.00000000E+00  0.00000000E+00  0.00000000E+00
  0.00000000E+00  0.00000000E+00  0.00000000E+00
  0.00000000E+00  0.00000000E+00  0.00000000E+00
  0.00000000E+00  0.00000000E+00  0.00000000E+00
  0.00000000E+00  0.00000000E+00  0.00000000E+00
  0.00000000E+00  0.00000000E+00  0.00000000E+00
  0.00000000E+00  0.00000000E+00  0.00000000E+00
  0.00000000E+00  0.00000000E+00  0.00000000E+00
  0.00000000E+00  0.00000000E+00  0.00000000E+00
  0.00000000E+00  0.00000000E+00  0.00000000E+00
  0.00000000E+00  0.00000000E+00  0.00000000E+00
  0.00000000E+00  0.00000000E+00  0.00000000E+00
  0.00000000E+00  0.00000000E+00  0.00000000E+00
  0.00000000E+00  0.00000000E+00  0.00000000E+00
  0.00000000E+00  0.00000000E+00  0.00000000E+00
  0.00000000E+00  0.00000000E+00  0.00000000E+00
  0.00000000E+00  0.00000000E+00  0.00000000E+00
  0.00000000E+00  0.00000000E+00  0.00000000E+00
  0.00000000E+00  0.00000000E+00  0.00000000E+00
  0.00000000E+00  0.00000000E+00  0.00000000E+00
  0.00000000E+00  0.00000000E+00  0.00000000E+00
  0.00000000E+00  0.00000000E+00  0.00000000E+00
  0.00000000E+00  0.00000000E+00  0.00000000E+00
  0.00000000E+00  0.00000000E+00  0.00000000E+00
  0.00000000E+00  0.00000000E+00  0.00000000E+00
  0.00000000E+00  0.00000000E+00  0.00000000E+00
  0.00000000E+00  0.00000000E+00  0.00000000E+00
  0.00000000E+00  0.00000000E+00  0.00000000E+00
  0.00000000E+00  0.00000000E+00  0.00000000E+00
  0.00000000E+00  0.00000000E+00  0.00000000E+00
  0.00000000E+00  0.00000000E+00  0.00000000E+00
  0.00000000E+00  0.00000000E+00  0.00000000E+00
  0.00000000E+00  0.00000000E+00  0.00000000E+00
  0.00000000E+00  0.00000000E+00  0.00000000E+00
  0.00000000E+00  0.00000000E+00  0.00000000E+00
  0.00000000E+00  0.00000000E+00  0.00000000E+00
  0.00000000E+00  0.00000000E+00  0.00000000E+00
  0.00000000E+00  0.00000000E+00  0.00000000E+00
  0.00000000E+00  0.00000000E+00  0.00000000E+00
  0.00000000E+00  0.00000000E+00  0.00000000E+00
  0.00000000E+00  0.00000000E+00  0.00000000E+00
  0.00000000E+00  0.00000000E+00  0.00000000E+00
  0.00000000E+00  0.00000000E+00  0.00000000E+00
  0.00000000E+00  0.00000000E+00  0.00000000E+00
  0.00000000E+00  0.00000000E+00  0.00000000E+00
  0.00000000E+00  0.00000000E+00  0.00000000E+00
  0.00000000E+00  0.00000000E+00  0.00000000E+00
  0.00000000E+00  0.00000000E+00  0.00000000E+00
  0.00000000E+00  0.00000000E+00  0.00000000E+00
  0.00000000E+00  0.00000000E+00  0.00000000E+00
  0.00000000E+00  0.00000000E+00  0.00000000E+00
  0.00000000E+00  0.00000000E+00  0.00000000E+00
  0.00000000E+00  0.00000000E+00  0.00000000E+00
  0.00000000E+00  0.00000000E+00  0.00000000E+00
  0.00000000E+00  0.00000000E+00  0.00000000E+00
  0.00000000E+00  0.00000000E+00  0.00000000E+00
  0.00000000E+00  0.00000000E+00  0.00000000E+00
  0.00000000E+00  0.00000000E+00  0.00000000E+00
  0.00000000E+00  0.00000000E+00  0.00000000E+00
  0.00000000E+00  0.00000000E+00  0.00000000E+00
  0.00000000E+00  0.00000000E+00  0.00000000E+00
  0.00000000E+00  0.00000000E+00  0.00000000E+00
  0.00000000E+00  0.00000000E+00  0.00000000E+00
  0.00000000E+00  0.00000000E+00  0.00000000E+00
  0.00000000E+00  0.00000000E+00  0.00000000E+00
  0.00000000E+00  0.00000000E+00  0.00000000E+00
  0.00000000E+00  0.00000000E+00  0.00000000E+00
  0.00000000E+00  0.00000000E+00  0.00000000E+00
  0.00000000E+00  0.00000000E+00  0.00000000E+00
  0.00000000E+00  0.00000000E+00  0.00000000E+00
  0.00000000E+00  0.00000000E+00  0.00000000E+00
  0.00000000E+00  0.00000000E+00  0.00000000E+00
  0.00000000E+00  0.00000000E+00  0.00000000E+00
  0.00000000E+00  0.00000000E+00  0.00000000E+00
  0.00000000E+00  0.00000000E+00  0.00000000E+00
  0.00000000E+00  0.00000000E+00  0.00000000E+00
  0.00000000E+00  0.00000000E+00  0.00000000E+00
  0.00000000E+00  0.00000000E+00  0.00000000E+00
  0.00000000E+00  0.00000000E+00  0.00000000E+00
  0.00000000E+00  0.00000000E+00  0.00000000E+00
  0.00000000E+00  0.00000000E+00  0.00000000E+00
  0.00000000E+00  0.00000000E+00  0.00000000E+00
  0.00000000E+00  0.00000000E+00  0.00000000E+00
  0.00000000E+00  0.00000000E+00  0.00000000E+00
  0.00000000E+00  0.00000000E+00  0.00000000E+00
  0.00000000E+00  0.00000000E+00  0.00000000E+00
  0.00000000E+00  0.00000000E+00  0.00000000E+00
  0.00000000E+00  0.00000000E+00  0.00000000E+00
  0.00000000E+00  0.00000000E+00  0.00000000E+00
  0.00000000E+00  0.00000000E+00  0.00000000E+00
  0.00000000E+00  0.00000000E+00  0.00000000E+00
  0.00000000E+00  0.00000000E+00  0.00000000E+00
  0.00000000E+00  0.00000000E+00  0.00000000E+00
  0.00000000E+00  0.00000000E+00  0.00000000E+00
  0.00000000E+00  0.00000000E+00  0.00000000E+00
  0.00000000E+00  0.00000000E+00  0.00000000E+00
  0.00000000E+00  0.00000000E+00  0.00000000E+00
  0.00000000E+00  0.00000000E+00  0.00000000E+00
  0.00000000E+00  0.00000000E+00  0.00000000E+00
  0.00000000E+00  0.00000000E+00  0.00000000E+00
  0.00000000E+00  0.00000000E+00  0.00000000E+00
  0.00000000E+00  0.00000000E+00  0.00000000E+00
  0.00000000E+00  0.00000000E+00  0.00000000E+00
  0.00000000E+00  0.00000000E+00  0.00000000E+00
  0.00000000E+00  0.00000000E+00  0.00000000E+00
  0.00000000E+00  0.00000000E+00  0.00000000E+00
  0.00000000E+00  0.00000000E+00  0.00000000E+00
  0.00000000E+00  0.00000000E+00  0.00000000E+00
  0.00000000E+00  0.00000000E+00  0.00000000E+00
  0.00000000E+00  0.00000000E+00  0.00000000E+00
  0.00000000E+00  0.00000000E+00  0.00000000E+00
  0.00000000E+00  0.00000000E+00  0.00000000E+00
  0.00000000E+00  0.00000000E+00  0.00000000E+00
  0.00000000E+00  0.00000000E+00  0.00000000E+00
  0.00000000E+00  0.00000000E+00  0.00000000E+00
  0.00000000E+00  0.00000000E+00  0.00000000E+00
  0.00000000E+00  0.00000000E+00  0.00000000E+00
  0.00000000E+00  0.00000000E+00  0.00000000E+00
  0.00000000E+00  0.00000000E+00  0.00000000E+00
  0.00000000E+00  0.00000000E+00  0.00000000E+00
  0.00000000E+00  0.00000000E+00  0.00000000E+00
  0.00000000E+00  0.00000000E+00  0.00000000E+00
  0.00000000E+00  0.00000000E+00  0.00000000E+00
  0.00000000E+00  0.00000000E+00  0.00000000E+00
  0.00000000E+00  0.00000000E+00  0.00000000E+00
  0.00000000E+00  0.00000000E+00  0.00000000E+00
  0.00000000E+00  0.00000000E+00  0.00000000E+00
  0.00000000E+00  0.00000000E+00  0.00000000E+00
  0.00000000E+00  0.00000000E+00  0.00000000E+00
  0.00000000E+00  0.00000000E+00  0.00000000E+00
  0.00000000E+00  0.00000000E+00  0.00000000E+00
  0.00000000E+00  0.00000000E+00  0.00000000E+00
  0.00000000E+00  0.00000000E+00  0.00000000E+00
  0.00000000E+00  0.00000000E+00  0.00000000E+00
  0.00000000E+00  0.00000000E+00  0.00000000E+00
  0.00000000E+00  0.00000000E+00  0.00000000E+00
  0.00000000E+00  0.00000000E+00  0.00000000E+00
  0.00000000E+00  0.00000000E+00  0.00000000E+00
  0.00000000E+00  0.00000000E+00  0.00000000E+00
  0.00000000E+00  0.00000000E+00  0.00000000E+00
  0.00000000E+00  0.00000000E+00  0.00000000E+00
  0.00000000E+00  0.00000000E+00  0.00000000E+00
  0.00000000E+00  0.00000000E+00  0.00000000E+00
  0.00000000E+00  0.00000000E+00  0.00000000E+00
  0.00000000E+00  0.00000000E+00  0.00000000E+00
  0.00000000E+00  0.00000000E+00  0.00000000E+00
  0.00000000E+00  0.00000000E+00  0.00000000E+00
  0.00000000E+00  0.00000000E+00  0.00000000E+00
  0.00000000E+00  0.00000000E+00  0.00000000E+00
  0.00000000E+00  0.00000000E+00  0.00000000E+00
  0.00000000E+00  0.00000000E+00  0.00000000E+00
  0.00000000E+00  0.00000000E+00  0.00000000E+00
  0.00000000E+00  0.00000000E+00  0.00000000E+00
  0.00000000E+00  0.00000000E+00  0.00000000E+00
  0.00000000E+00  0.00000000E+00  0.00000000E+00
  0.00000000E+00  0.00000000E+00  0.00000000E+00
  0.00000000E+00  0.00000000E+00  0.00000000E+00
  0.00000000E+00  0.00000000E+00  0.00000000E+00
  0.00000000E+00  0.00000000E+00  0.00000000E+00
  0.00000000E+00  0.00000000E+00  0.00000000E+00
  0.00000000E+00  0.00000000E+00  0.00000000E+00
  0.00000000E+00  0.00000000E+00  0.00000000E+00
  0.00000000E+00  0.00000000E+00  0.00000000E+00
  0.00000000E+00  0.00000000E+00  0.00000000E+00
  0.00000000E+00  0.00000000E+00  0.00000000E+00
  0.00000000E+00  0.00000000E+00  0.00000000E+00
  0.00000000E+00  0.00000000E+00  0.00000000E+00
  0.00000000E+00  0.00000000E+00  0.00000000E+00
  0.00000000E+00  0.00000000E+00  0.00000000E+00
  0.00000000E+00  0.00000000E+00  0.00000000E+00
  0.00000000E+00  0.00000000E+00  0.00000000E+00
  0.00000000E+00  0.00000000E+00  0.00000000E+00
  0.00000000E+00  0.00000000E+00  0.00000000E+00
  0.00000000E+00  0.00000000E+00  0.00000000E+00
  0.00000000E+00  0.00000000E+00  0.00000000E+00
  0.00000000E+00  0.00000000E+00  0.00000000E+00
  0.00000000E+00  0.00000000E+00  0.00000000E+00
  0.00000000E+00  0.00000000E+00  0.00000000E+00
  0.00000000E+00  0.00000000E+00  0.00000000E+00
  0.00000000E+00  0.00000000E+00  0.00000000E+00
  0.00000000E+00  0.00000000E+00  0.00000000E+00
  0.00000000E+00  0.00000000E+00  0.00000000E+00
  0.00000000E+00  0.00000000E+00  0.00000000E+00
  0.00000000E+00  0.00000000E+00  0.00000000E+00
  0.00000000E+00  0.00000000E+00  0.00000000E+00
  0.00000000E+00  0.00000000E+00  0.00000000E+00
  0.00000000E+00  0.00000000E+00  0.00000000E+00
  0.00000000E+00  0.00000000E+00  0.00000000E+00
  0.00000000E+00  0.00000000E+00  0.00000000E+00
  0.00000000E+00  0.00000000E+00  0.00000000E+00
  0.00000000E+00  0.00000000E+00  0.00000000E+00
  0.00000000E+00  0.00000000E+00  0.00000000E+00
  0.00000000E+00  0.00000000E+00  0.00000000E+00
  0.00000000E+00  0.00000000E+00  0.00000000E+00
  0.00000000E+00  0.00000000E+00  0.00000000E+00
  0.00000000E+00  0.00000000E+00  0.00000000E+00
  0.00000000E+00  0.00000000E+00  0.00000000E+00
  0.00000000E+00  0.00000000E+00  0.00000000E+00
  0.00000000E+00  0.00000000E+00  0.00000000E+00
  0.00000000E+00  0.00000000E+00  0.00000000E+00
  0.00000000E+00  0.00000000E+00  0.00000000E+00
  0.00000000E+00  0.00000000E+00  0.00000000E+00
  0.00000000E+00  0.00000000E+00  0.00000000E+00
  0.00000000E+00  0.00000000E+00  0.00000000E+00
  0.00000000E+00  0.00000000E+00  0.00000000E+00
  0.00000000E+00  0.00000000E+00  0.00000000E+00
  0.00000000E+00  0.00000000E+00  0.00000000E+00
  0.00000000E+00  0.00000000E+00  0.00000000E+00
  0.00000000E+00  0.00000000E+00  0.00000000E+00
  0.00000000E+00  0.00000000E+00  0.00000000E+00
  0.00000000E+00  0.00000000E+00  0.00000000E+00
  0.00000000E+00  0.00000000E+00  0.00000000E+00
  0.00000000E+00  0.00000000E+00  0.00000000E+00
  0.00000000E+00  0.00000000E+00  0.00000000E+00
  0.00000000E+00  0.00000000E+00  0.00000000E+00
  0.00000000E+00  0.00000000E+00  0.00000000E+00
  0.00000000E+00  0.00000000E+00  0.00000000E+00
  0.00000000E+00  0.00000000E+00  0.00000000E+00
  0.00000000E+00  0.00000000E+00  0.00000000E+00
  0.00000000E+00  0.00000000E+00  0.00000000E+00
  0.00000000E+00  0.00000000E+00  0.00000000E+00
  0.00000000E+00  0.00000000E+00  0.00000000E+00
  0.00000000E+00  0.00000000E+00  0.00000000E+00
  0.00000000E+00  0.00000000E+00  0.00000000E+00
  0.00000000E+00  0.00000000E+00  0.00000000E+00
  0.00000000E+00  0.00000000E+00  0.00000000E+00