Amorphous AlTe                          
   1.00000000000000     
    20.9072922372385506    0.0000000000000000    0.0000000000000000
     0.0000000000000000   20.9072922372385506    0.0000000000000000
     0.0000000000000000    0.0000000000000000   20.9072922372385506
   Al   Te
   150   150
Direct
  0.7740531517360379  0.6482051298686251  0.9037177748012205
  0.7410017392694278  0.7678930518793908  0.6706517132303423
  0.2409379698037441  0.9123558419000929  0.6334132811585823
  0.7599665121204283  0.4788425488882492  0.8601266628238351
  0.6013464624036221  0.0530017610215860  0.3299664880114918
  0.1891021002132228  0.4161790960305132  0.4412993362294206
  0.3883597874456120  0.7216140964307268  0.8991379706850107
  0.0081815635223204  0.9138776354655312  0.3845896547140675
  0.0594718071134109  0.5056100295052764  0.5524418298676261
  0.5292231924242192  0.2404848984508227  0.5093463264604083
  0.3139011804983007  0.1805100716298905  0.4272568217708345
  0.2578052104176576  0.4324846848908005  0.6214236247046533
  0.0073128970814803  0.3431290400244061  0.9445917178297745
  0.7730602077723343  0.1196757922548663  0.6787792127208129
  0.6009953231116500  0.0135453053007589  0.8695139580350790
  0.8430598630357584  0.7549364317828453  0.0383243957852874
  0.7396322011345881  0.9379004519412576  0.3353007529300750
  0.3450395306300415  0.2669276594833980  0.3337369050176069
  0.6353833259864855  0.8718786674909285  0.7589184689548145
  0.7834680687705333  0.1970090729555415  0.1391789507302018
  0.6701523205513531  0.0663660311181955  0.7437409043170069
  0.3398205573072074  0.1279677522767423  0.6306975046657266
  0.5117469852684753  0.9973346803102462  0.9704814418621442
  0.0925139832887571  0.0366775780690447  0.8921843383453126
  0.4762060867483238  0.2751561789636837  0.9684979175876482
  0.1090313754060263  0.0608297544327234  0.0479779434455154
  0.8474177119483802  0.6709262601715478  0.3810222542913724
  0.6965278494109355  0.7397460809834632  0.9965985928066136
  0.2904080499405405  0.5994048794611804  0.5314961950999655
  0.9369588943406826  0.3305393458385414  0.6958969894247313
  0.9453551085213115  0.9305928948209464  0.2134046631684843
  0.8341498497608332  0.5906074730651603  0.5708856964232486
  0.0133799225190866  0.6669486435972983  0.0843139280355197
  0.1557170087954372  0.0737003057611792  0.6424273495701135
  0.8632418358694242  0.3005821545278087  0.5991722571946161
  0.5956999877815470  0.3752206207386987  0.5042514053070785
  0.8430859962823137  0.1263594050824694  0.0156596671522831
  0.5112457900890249  0.6667052668892258  0.4034958833701360
  0.1315754926610388 -0.0095222705793797  0.7315560713492697
  0.4612033050579467  0.4286487823065838  0.2905655524531984
  0.4764642500044501  0.0062550857474142  0.8487465760625735
  0.7740553182857379  0.3903138716165412  0.4351749314809529
  0.3535480324933958  0.8639084783045340  0.1493796034389885
  0.8076308508275440  0.2810399552367724  0.7267618056637485
  0.4381168965966177  0.1073189852121425  0.0850869610752577
  0.5287432869493721  0.5628744474022122  0.5730159565513148
  0.1293285047783118  0.8181605681452676  0.4781004329666699
  0.2112237469351489  0.1903940407532129  0.5881074472565765
  0.6630897539132049  0.8559082811166109  0.2606366701179648
  0.7792968635804504  0.7653166238975500  0.8733691369879700
  0.3979627714734535  0.3520842249031154  0.9191770694520208
  0.1544276168579485  0.1757656420496850  0.7167755005456821
  0.8233927220273295  0.4044103241721025  0.7094788588317625
  0.0589042680912680  0.5508386171067343  0.4258794396771019
  0.0349647954466794  0.4532150917341924  0.2894509241212519
  0.4214192755354943  0.1939182110445694  0.7534063317640833
  0.5458614938745281  0.8353000350635114  0.9161461538294190
  0.9696808835142345  0.0321155428628272  0.7049755662164457
  0.9288001910060927  0.5264987060650802  0.4507116296913284
  0.3947370084115578  0.9402315063652866  0.9460086833083077
  0.7579736955270877  0.1330020881882742  0.8108684738359528
  0.3424578378793459  0.9810238012412822  0.0598370330872199
  0.0153672069910404  0.5422353336899483  0.6682223901458121
  0.8770931024023793  0.4929259294543388  0.8255566631086939
  0.5793614686090097  0.1937561813453491  0.8545324043824455
  0.4120246764055582  0.4711309837281478  0.4429656829382617
  0.3980912939137355  0.0739538384878575  0.7784720344035336
  0.6447470385644942  0.6686873871988178  0.1857532694705914
  0.9481311639791437  0.5282561298503902  0.3304289703006805
  0.6667407640445907  0.7371507956280284  0.3543370794575329
  0.2418008088614829  0.8596716487792390  0.9215346352198911
  0.1946688463626346  0.3511738714121473  0.8913012094524302
  0.3198622827702228  0.4521698231737750  0.0545288104543389
  0.9398079190074206  0.4548056943857721  0.7252809730408041
  0.3411756330842791  0.2966908260866828  0.7581871278426059
  0.5049749247133362  0.2336706424719766  0.3165844540365929
  0.2238886850568295  0.5127719426296551  0.7052136823266222
  0.8960246468057339  0.2689789397514272  0.4065787116317355
  0.0139185191013925  0.6460466822810289  0.9288578723918189
  0.7145681058059987  0.5655936672312278  0.2149352504367230
  0.1729165934285365  0.6143849300717960  0.2037992620974128
  0.1555987654770852  0.7313940767693697  0.0582389521134520
  0.6537033228704768  0.7121515783614328  0.5400275794220724
  0.8168563068190476  0.8388024789676366  0.3474611356957273
  0.3146255735554326  0.2365227107857391  0.5388299709488206
  0.2477246972695788  0.7173155425587817  0.6222278151843744
  0.1230774979456026  0.3315886956846231  0.2788017039089731
  0.1910167796446421  0.1650833617257611  0.4024503712182324
  0.1205281961671708  0.0093791726559451  0.1897137610828179
  0.4227441333930550  0.1648967195797728  0.5414445709074540
  0.7986534937541847  0.4191760707831094  0.1690860961749491
  0.8431703791027464  0.0687344559145665  0.8696293197751643
  0.9399815527384479  0.5065144260916582  0.0683046665694219
  0.2713149717325005  0.2011902470735701  0.2591925967430407
  0.5125791014215668  0.4627773849950602  0.7501698425271391
  0.1375435986567241  0.5050354523475706  0.2506996050676464
  0.0916827721474630  0.9136033051525970  0.0402314507645587
  0.8796341473878457  0.2417586820247749  0.8608589030204331
  0.7457430166134718  0.8427589557187819  0.1692969364403289
  0.0380652915480752  0.2039294730876297  0.5740081538122539
  0.3460335477748354  0.5718393962905558  0.1683954967374507
  0.2261659741872050  0.6370621627635050  0.4367388289550633
  0.2403846290437144  0.9024091232191120  0.3231488438927942
  0.4703263598869858  0.5262357076498800  0.9294788820401226
  0.2068837306657383  0.4298972150202814  0.0950311991834858
  0.7166192167318054  0.8081146975379464  0.4923618074108387
  0.8419484604390477  0.8919177281699685  0.7381407637953478
  0.2499860202119488  0.6985315466118871  0.2474334842866369
  0.6681596320400081  0.4898343498790859  0.0008091705042637
  0.4380267832318304  0.2189556273532690  0.4230517216980956
  0.0081436689823025  0.6574855601934677  0.7161429955753327
  0.6044923815439873  0.3883439658662893  0.7840808359963956
  0.3254517502163494  0.7906216246271097  0.7816822436363028
  0.4671696475120465  0.0230824097384962  0.1824924933407016
  0.8727934601994602  0.4836614618893870  0.6179080559466893
  0.2813068235981931  0.0401356529359966  0.4252909838841794
  0.3480208996809117  0.5884256455179723  0.2898743177961942
  0.9053660892637631  0.7159782496631343  0.7470732243653400
  0.7076700206440139  0.2233774413170901  0.2773089138973700
  0.3088785858955744  0.8625802635146169  0.0268446213335958
  0.1542309826287678  0.5541816586434463  0.8263466483892163
  0.0459788425203992  0.8551264883141519  0.5979622513941445
  0.5128863781190192  0.2357092845600157  0.6782567720114199
  0.0674137292171071  0.6312050242938674  0.5557967623720722
  0.3390172331767881  0.0501293200860064  0.1626730604092339
  0.2891033243701243  0.9834494998304955  0.7243066224230655
  0.6019278434282553  0.9726185413626925  0.0983098476493584
  0.8565085155799220  0.0080030867093011  0.1813570172365707
  0.2165429894560141  0.2808867622425660  0.6798935424908557
  0.6129503489213924  0.3811891266733025  0.9070108078971409
  0.4407146842475229  0.6445301476242336  0.1111789781253656
  0.7003182027670751  0.1312973820730093  0.3565690098554954
  0.0560537204975136  0.4495927261337981  0.9719174962174703
  0.8203900015909489  0.9903132011631950  0.4174481893212496
  0.6353216948359069  0.2768153295120933  0.4369063318143161
  0.6979096523389928  0.0197331566886724  0.2439509199067786
  0.4476931907377882  0.7411774948961506  0.5585528230053221
  0.5292253343802451  0.5248792977483051  0.2496584261086707
  0.2009789900618271  0.0090822246989289  0.2817638968984774
  0.2883961254742848  0.1781254139393442  0.7321461144608370
  0.3266581455374493  0.2029860301903988  0.0370490708933470
  0.3391722324818147  0.7023703929303230  0.1665783822236837
  0.1020272373820641  0.2332048662600236  0.9876443746372883
  0.6949209231734171  0.4860552986853213  0.4209902511565436
  0.6921717967449168  0.9929710220763575  0.4428486426724170
  0.7641776169298228  0.9484106310280324  0.6547036957317869
  0.3178933540705865  0.8736585827769031  0.5467327685816672
  0.5774445232379700  0.1606374657764021  0.4115674090039012
  0.0535310146415137  0.3413959290851072  0.1105610314067913
  0.9390068591057220  0.0821890597893478  0.3536597533001994
  0.5059023139303194  0.1144370359277598  0.2683580234980545
  0.5407542917201806  0.1425369226931666  0.5922331261165412
  0.9269330683669111  0.6014755915880435  0.1432785098907103
  0.4941165309652765  0.3828110372036853  0.4164902382195010
  0.6828833548752521  0.0426582099576860  0.6220557544185602
  0.1688103659613190  0.2996771450645351  0.0746804459305601
  0.7630220556483049  0.2645304781848223  0.4308929372004752
  0.2919486447639341  0.2739725464599964  0.9292005623942388
  0.7292064876768374  0.6478074485948658  0.6233403583489170
 -0.0021805741777931  0.8245582921687081  0.4865437911938166
  0.5685604876681682  0.0211782204083204  0.4494853227122842
  0.3354198553030567  0.9104018614884261  0.8271378823184200
  0.9517072009346209  0.6536855013276414  0.3169842846361673
  0.2685597744611273  0.0783131873157656  0.8102030180375034
  0.0939331120506995  0.7177948570471070  0.1685028672155796
  0.7794465852245679  0.6454360078952762  0.0336255475966080
  0.8888194516478382  0.1233681480684816  0.1354729140422716
  0.3072343897999024  0.0811271402980188  0.2879743489769120
  0.0072327935614973  0.3379092360221020  0.2272006987598809
  0.9330941024917280  0.1469081240719496  0.9237304737610665
  0.8840174119282023  0.3891542056237220  0.3720051792738189
  0.6545135650039673  0.8574535169766051  0.6349057632776004
  0.6869684455434911  0.4709075579819419  0.1277687795505207
  0.0133560360631229 -0.0016636978228926  0.9851359026342655
  0.4442965642567464  0.3580539177038705  0.7991253842920911
  0.1075437253466688  0.6204286957706973  0.0093130665163387
  0.6749507757203247  0.5687073527224022  0.8989068516952464
  0.3615254976355210  0.6607579766133665  0.6172684923536388
  0.1881937187679603  0.6037825315894424  0.6148657393656843
  0.7720743900017460  0.8408262104926529  0.9749493133508342
  0.1394744892338144  0.9248314862514981  0.5535422736554503
  0.6331957845357694  0.4944341088559038  0.5369457733149269
  0.4537202034025156  0.4966353614535407  0.6444815079980493
  0.2805114491665718  0.7341867527341627  0.0546318763427196
  0.5793540726902341  0.9575519168448792  0.2406496887791034
  0.5075680375118665  0.3361190072795520  0.5918448680048000
  0.5518994686298354  0.6844143162645463  0.6138641151440312
  0.1201428009539334  0.8150884113159974  0.9691828753100982
  0.0775315624764878  0.3738929612474624  0.3887043566215764
  0.5148310511504236  0.8841449984764425  0.8012427091343880
  0.6772562978370760  0.1393028736048469  0.1810799783608606
  0.9014294547344051  0.3608975972992682  0.8859621798704357
  0.2623375898084545  0.1576269556666710  0.1354086719270501
  0.6198636302929533  0.9227663499605823  0.9691305758346519
  0.6869717058475888  0.7582539101648406  0.7855511493640103
  0.8006514151203458  0.2943138393554740  0.2222773874022807
  0.4370099663205350  0.2394570545873428  0.0849082127434211
  0.4115107061783760  0.4659985698609038  0.1373435265432415
  0.1034293353579596  0.4760785054016669  0.7410460693193501
  0.2810038601051646  0.3251510629360824  0.4294893346239446
  0.2395090463650695  0.3724905869392952  0.7742166995306936
  0.7350193112214866  0.3950563537167012  0.9529889486579114
  0.4267205683776904  0.7194932767821297  0.7808636938640506
  0.4311502270550389  0.8155815150873968  0.9754282136074366
  0.5024449553107572  0.5659019445284535  0.8192112966789160
  0.7755142608512088  0.2304598864383317  0.0212257822416378
  0.7711190580248078  0.9211501023675728  0.5235464632610167
  0.8892784691527515  0.8103128684166366  0.8313826298002372
  0.6441472521765260  0.4986641821028079  0.3022054129202386
  0.5935617680790342  0.7202375064905051  0.9277846763631333
  0.2469621773816480  0.8257496510833638  0.2198285500916301
  0.7550042815926666  0.2567628959557361  0.8409120911797432
  0.7100971224742143  0.4544649682126824  0.7435164970846804
  0.8055804569693081  0.0150897975921720  0.9763549009745601
  0.0757025255495180  0.7354552051003597  0.6351770182314067
  0.0579383167655144  0.8973771780462942  0.1605091381753427
  0.3986024711449831  0.0161625330328668  0.6638117178932397
  0.6125435081366317  0.3032200766284855  0.3110956368613692
  0.4702782493954921  0.9370579278805583  0.0849962782919565
  0.9401660989217587  0.6411870178225291  0.5178786308630985
  0.4198369705672244  0.6296463555903249  0.9846095314819950
  0.5807778820995141  0.7497826259222586  0.2655284583493069
  0.5501806543231144  0.0908753256303050  0.7576521131579237
  0.9630980942792510  0.1994998762558243  0.3286524620886919
  0.2469589262405837  0.7693484174900203  0.5066371735080163
  0.3905230057439508  0.9401637008787886  0.2444923246315975
  0.6411062034929029  0.8546735702139535  0.3985248282735424
  0.3553982941973198  0.0895716126750331  0.9847254313635858
  0.1054703678792263  0.6795365781373649  0.4398144547209457
  0.8235998829272220  0.0588878665270883  0.2972419886502048
  0.3094186904644477  0.6897245355496621  0.3579302833408803
  0.9107884792812706  0.9817341229718821  0.8088823672558373
  0.6677979851899116  0.1154289329182737  0.9052382720301898
  0.1820647831628099  0.5261381223751518  0.3763422326523610
  0.6139994180705389  0.2631664295522199  0.7511353586703181
  0.9207657691191010  0.2177622144763295  0.5213383946946404
  0.0230069404543824  0.9124514615579682  0.7071243511705240
  0.3363319246042918  0.3298384658805099  0.6292456979300132
  0.7819825534495654  0.3952032657594981  0.5680599307264844
  0.3534639069567453  0.4688880141991446  0.9318420266612513
  0.7984484246677342  0.5667462563303995  0.4458124195169744
  0.9384650100581885  0.8397578206954639  0.3054930418255339
  0.8788663871989554  0.3998546084181952  0.0741034786787153
  0.9556530294218459  0.4331345232581217  0.5335114299216021
  0.0697050752114303  0.4675512445410995  0.0982720552455660
  0.9624089183241941  0.7451451737465362 -0.0072839452119754
  0.2221853343556949  0.8040364764610378  0.7083714365570710
  0.8646160301651745  0.8049906480857325  0.1503049451332449
  0.0566992286346034  0.0964634669806635  0.7849937859412869
  0.5550840216744483  0.5867414815101289  0.1334021167175514
  0.6352051877068177  0.6430719075527915  0.4308134182287038
  0.4680352801061756  0.7752232286692502  0.4405474097202338
  0.4279406265332062  0.3123571843534816  0.2466947484117140
  0.7509110848774416  0.2312190621589294  0.6247239739104662
  0.4100430138302312  0.0856835117732898  0.4412493121402193
  0.2519520819240920  0.0631567035305567  0.5579267553813382
  0.1248713566974567  0.8513895763964445  0.3574226937242010
  0.4452264322819877  0.7693046961723231  0.1572899371527363
  0.2158139519615498  0.4031364776606283  0.2235914469696703
  0.0725378950529271  0.2745317547823812  0.6759003568212313
  0.6000630617936658  0.2694226276143312  0.9651415562634930
  0.7446120524186353  0.9672372306153404  0.1315361567157327
  0.5456414719267568  0.4494492696033550  0.9975918190199051
  0.3066282207065881  0.4751093297152397  0.5131786519863066
  0.4699945354318838  0.6298720602079495  0.2896154146755128
  0.9879175299157562  0.2581938882234172  0.0399189909234326
  0.1477941114250027  0.2063309508380961  0.2883590001300719
  0.9131213089395073  0.2091981888421403  0.7426209030023799
  0.8241144419592182  0.5093249970820272  0.2539599357495180
  0.0205593653423100  0.0086881831702171  0.2915662292357672
  0.2624705243311429  0.7374772379979819  0.8796728406645116
  0.8386518185435931  0.6160369173469336  0.7962060333537976
  0.7079799931426634  0.9627136184388696  0.8096302094051429
  0.0690153638508218  0.1160914419187718  0.1475536973202063
  0.3258624869212298  0.9192700536990883  0.4218179768356363
  0.1650396349237441  0.1257766869674688  0.9561397087470915
  0.3470574487382647  0.4688689350796061  0.3356967523591738
  0.4222828604690557  0.8490805603766373  0.6125891046542445
  0.7733638955951461  0.7264030705034199  0.2884036740143351
  0.1477029305704393  0.9330704734400114  0.8473849196531111
  0.1321564324793698  0.2322715295989339  0.4941476130361384
  0.7620132615084964  0.0982053933156321  0.4654097803629054
  0.0376945618434309  0.0789277109626214  0.5957215345309047
  0.2714279842992053  0.5806964194034062  0.7962553207621517
  0.9406507410912827  0.0054079551310936  0.4554742949004724
  0.8347614741831050  0.7720385837249946  0.4576693431761560
  0.1448458119079019  0.4073740884245847  0.5614573273962438
  0.1985013164962854  0.9726473013903363  0.0767012088264396
  0.8631653526588067  0.7919507256661077  0.6480389917748409
  0.1550161761000557  0.0433822807826395  0.3990774602206023
  0.8642656313207664  0.0463447340448590  0.6327525480677573
  0.2384825794008264  0.5655072540995524  0.0994165925889938
  0.9571107328375671  0.5308758485199192  0.9376181560934679
  0.6518776343224437  0.7741690881020338  0.1098046021410798
  0.4483941271374329  0.5856658988050371  0.4773675797956683
  0.0920405910172438  0.2809041962086935  0.8693555676571475
  0.5590666079816073  0.0929987352827753  0.0430440139097309
  0.1739605803255765  0.4721009996373754  0.9327870043354002
  0.4564074557517753  0.1808195914539789  0.8811391915464872
  0.0817175825082889  0.6641574272450630  0.8250027743595431
 
  0.00000000E+00  0.00000000E+00  0.00000000E+00
  0.00000000E+00  0.00000000E+00  0.00000000E+00
  0.00000000E+00  0.00000000E+00  0.00000000E+00
  0.00000000E+00  0.00000000E+00  0.00000000E+00
  0.00000000E+00  0.00000000E+00  0.00000000E+00
  0.00000000E+00  0.00000000E+00  0.00000000E+00
  0.00000000E+00  0.00000000E+00  0.00000000E+00
  0.00000000E+00  0.00000000E+00  0.00000000E+00
  0.00000000E+00  0.00000000E+00  0.00000000E+00
  0.00000000E+00  0.00000000E+00  0.00000000E+00
  0.00000000E+00  0.00000000E+00  0.00000000E+00
  0.00000000E+00  0.00000000E+00  0.00000000E+00
  0.00000000E+00  0.00000000E+00  0.00000000E+00
  0.00000000E+00  0.00000000E+00  0.00000000E+00
  0.00000000E+00  0.00000000E+00  0.00000000E+00
  0.00000000E+00  0.00000000E+00  0.00000000E+00
  0.00000000E+00  0.00000000E+00  0.00000000E+00
  0.00000000E+00  0.00000000E+00  0.00000000E+00
  0.00000000E+00  0.00000000E+00  0.00000000E+00
  0.00000000E+00  0.00000000E+00  0.00000000E+00
  0.00000000E+00  0.00000000E+00  0.00000000E+00
  0.00000000E+00  0.00000000E+00  0.00000000E+00
  0.00000000E+00  0.00000000E+00  0.00000000E+00
  0.00000000E+00  0.00000000E+00  0.00000000E+00
  0.00000000E+00  0.00000000E+00  0.00000000E+00
  0.00000000E+00  0.00000000E+00  0.00000000E+00
  0.00000000E+00  0.00000000E+00  0.00000000E+00
  0.00000000E+00  0.00000000E+00  0.00000000E+00
  0.00000000E+00  0.00000000E+00  0.00000000E+00
  0.00000000E+00  0.00000000E+00  0.00000000E+00
  0.00000000E+00  0.00000000E+00  0.00000000E+00
  0.00000000E+00  0.00000000E+00  0.00000000E+00
  0.00000000E+00  0.00000000E+00  0.00000000E+00
  0.00000000E+00  0.00000000E+00  0.00000000E+00
  0.00000000E+00  0.00000000E+00  0.00000000E+00
  0.00000000E+00  0.00000000E+00  0.00000000E+00
  0.00000000E+00  0.00000000E+00  0.00000000E+00
  0.00000000E+00  0.00000000E+00  0.00000000E+00
  0.00000000E+00  0.00000000E+00  0.00000000E+00
  0.00000000E+00  0.00000000E+00  0.00000000E+00
  0.00000000E+00  0.00000000E+00  0.00000000E+00
  0.00000000E+00  0.00000000E+00  0.00000000E+00
  0.00000000E+00  0.00000000E+00  0.00000000E+00
  0.00000000E+00  0.00000000E+00  0.00000000E+00
  0.00000000E+00  0.00000000E+00  0.00000000E+00
  0.00000000E+00  0.00000000E+00  0.00000000E+00
  0.00000000E+00  0.00000000E+00  0.00000000E+00
  0.00000000E+00  0.00000000E+00  0.00000000E+00
  0.00000000E+00  0.00000000E+00  0.00000000E+00
  0.00000000E+00  0.00000000E+00  0.00000000E+00
  0.00000000E+00  0.00000000E+00  0.00000000E+00
  0.00000000E+00  0.00000000E+00  0.00000000E+00
  0.00000000E+00  0.00000000E+00  0.00000000E+00
  0.00000000E+00  0.00000000E+00  0.00000000E+00
  0.00000000E+00  0.00000000E+00  0.00000000E+00
  0.00000000E+00  0.00000000E+00  0.00000000E+00
  0.00000000E+00  0.00000000E+00  0.00000000E+00
  0.00000000E+00  0.00000000E+00  0.00000000E+00
  0.00000000E+00  0.00000000E+00  0.00000000E+00
  0.00000000E+00  0.00000000E+00  0.00000000E+00
  0.00000000E+00  0.00000000E+00  0.00000000E+00
  0.00000000E+00  0.00000000E+00  0.00000000E+00
  0.00000000E+00  0.00000000E+00  0.00000000E+00
  0.00000000E+00  0.00000000E+00  0.00000000E+00
  0.00000000E+00  0.00000000E+00  0.00000000E+00
  0.00000000E+00  0.00000000E+00  0.00000000E+00
  0.00000000E+00  0.00000000E+00  0.00000000E+00
  0.00000000E+00  0.00000000E+00  0.00000000E+00
  0.00000000E+00  0.00000000E+00  0.00000000E+00
  0.00000000E+00  0.00000000E+00  0.00000000E+00
  0.00000000E+00  0.00000000E+00  0.00000000E+00
  0.00000000E+00  0.00000000E+00  0.00000000E+00
  0.00000000E+00  0.00000000E+00  0.00000000E+00
  0.00000000E+00  0.00000000E+00  0.00000000E+00
  0.00000000E+00  0.00000000E+00  0.00000000E+00
  0.00000000E+00  0.00000000E+00  0.00000000E+00
  0.00000000E+00  0.00000000E+00  0.00000000E+00
  0.00000000E+00  0.00000000E+00  0.00000000E+00
  0.00000000E+00  0.00000000E+00  0.00000000E+00
  0.00000000E+00  0.00000000E+00  0.00000000E+00
  0.00000000E+00  0.00000000E+00  0.00000000E+00
  0.00000000E+00  0.00000000E+00  0.00000000E+00
  0.00000000E+00  0.00000000E+00  0.00000000E+00
  0.00000000E+00  0.00000000E+00  0.00000000E+00
  0.00000000E+00  0.00000000E+00  0.00000000E+00
  0.00000000E+00  0.00000000E+00  0.00000000E+00
  0.00000000E+00  0.00000000E+00  0.00000000E+00
  0.00000000E+00  0.00000000E+00  0.00000000E+00
  0.00000000E+00  0.00000000E+00  0.00000000E+00
  0.00000000E+00  0.00000000E+00  0.00000000E+00
  0.00000000E+00  0.00000000E+00  0.00000000E+00
  0.00000000E+00  0.00000000E+00  0.00000000E+00
  0.00000000E+00  0.00000000E+00  0.00000000E+00
  0.00000000E+00  0.00000000E+00  0.00000000E+00
  0.00000000E+00  0.00000000E+00  0.00000000E+00
  0.00000000E+00  0.00000000E+00  0.00000000E+00
  0.00000000E+00  0.00000000E+00  0.00000000E+00
  0.00000000E+00  0.00000000E+00  0.00000000E+00
  0.00000000E+00  0.00000000E+00  0.00000000E+00
  0.00000000E+00  0.00000000E+00  0.00000000E+00
  0.00000000E+00  0.00000000E+00  0.00000000E+00
  0.00000000E+00  0.00000000E+00  0.00000000E+00
  0.00000000E+00  0.00000000E+00  0.00000000E+00
  0.00000000E+00  0.00000000E+00  0.00000000E+00
  0.00000000E+00  0.00000000E+00  0.00000000E+00
  0.00000000E+00  0.00000000E+00  0.00000000E+00
  0.00000000E+00  0.00000000E+00  0.00000000E+00
  0.00000000E+00  0.00000000E+00  0.00000000E+00
  0.00000000E+00  0.00000000E+00  0.00000000E+00
  0.00000000E+00  0.00000000E+00  0.00000000E+00
  0.00000000E+00  0.00000000E+00  0.00000000E+00
  0.00000000E+00  0.00000000E+00  0.00000000E+00
  0.00000000E+00  0.00000000E+00  0.00000000E+00
  0.00000000E+00  0.00000000E+00  0.00000000E+00
  0.00000000E+00  0.00000000E+00  0.00000000E+00
  0.00000000E+00  0.00000000E+00  0.00000000E+00
  0.00000000E+00  0.00000000E+00  0.00000000E+00
  0.00000000E+00  0.00000000E+00  0.00000000E+00
  0.00000000E+00  0.00000000E+00  0.00000000E+00
  0.00000000E+00  0.00000000E+00  0.00000000E+00
  0.00000000E+00  0.00000000E+00  0.00000000E+00
  0.00000000E+00  0.00000000E+00  0.00000000E+00
  0.00000000E+00  0.00000000E+00  0.00000000E+00
  0.00000000E+00  0.00000000E+00  0.00000000E+00
  0.00000000E+00  0.00000000E+00  0.00000000E+00
  0.00000000E+00  0.00000000E+00  0.00000000E+00
  0.00000000E+00  0.00000000E+00  0.00000000E+00
  0.00000000E+00  0.00000000E+00  0.00000000E+00
  0.00000000E+00  0.00000000E+00  0.00000000E+00
  0.00000000E+00  0.00000000E+00  0.00000000E+00
  0.00000000E+00  0.00000000E+00  0.00000000E+00
  0.00000000E+00  0.00000000E+00  0.00000000E+00
  0.00000000E+00  0.00000000E+00  0.00000000E+00
  0.00000000E+00  0.00000000E+00  0.00000000E+00
  0.00000000E+00  0.00000000E+00  0.00000000E+00
  0.00000000E+00  0.00000000E+00  0.00000000E+00
  0.00000000E+00  0.00000000E+00  0.00000000E+00
  0.00000000E+00  0.00000000E+00  0.00000000E+00
  0.00000000E+00  0.00000000E+00  0.00000000E+00
  0.00000000E+00  0.00000000E+00  0.00000000E+00
  0.00000000E+00  0.00000000E+00  0.00000000E+00
  0.00000000E+00  0.00000000E+00  0.00000000E+00
  0.00000000E+00  0.00000000E+00  0.00000000E+00
  0.00000000E+00  0.00000000E+00  0.00000000E+00
  0.00000000E+00  0.00000000E+00  0.00000000E+00
  0.00000000E+00  0.00000000E+00  0.00000000E+00
  0.00000000E+00  0.00000000E+00  0.00000000E+00
  0.00000000E+00  0.00000000E+00  0.00000000E+00
  0.00000000E+00  0.00000000E+00  0.00000000E+00
  0.00000000E+00  0.00000000E+00  0.00000000E+00
  0.00000000E+00  0.00000000E+00  0.00000000E+00
  0.00000000E+00  0.00000000E+00  0.00000000E+00
  0.00000000E+00  0.00000000E+00  0.00000000E+00
  0.00000000E+00  0.00000000E+00  0.00000000E+00
  0.00000000E+00  0.00000000E+00  0.00000000E+00
  0.00000000E+00  0.00000000E+00  0.00000000E+00
  0.00000000E+00  0.00000000E+00  0.00000000E+00
  0.00000000E+00  0.00000000E+00  0.00000000E+00
  0.00000000E+00  0.00000000E+00  0.00000000E+00
  0.00000000E+00  0.00000000E+00  0.00000000E+00
  0.00000000E+00  0.00000000E+00  0.00000000E+00
  0.00000000E+00  0.00000000E+00  0.00000000E+00
  0.00000000E+00  0.00000000E+00  0.00000000E+00
  0.00000000E+00  0.00000000E+00  0.00000000E+00
  0.00000000E+00  0.00000000E+00  0.00000000E+00
  0.00000000E+00  0.00000000E+00  0.00000000E+00
  0.00000000E+00  0.00000000E+00  0.00000000E+00
  0.00000000E+00  0.00000000E+00  0.00000000E+00
  0.00000000E+00  0.00000000E+00  0.00000000E+00
  0.00000000E+00  0.00000000E+00  0.00000000E+00
  0.00000000E+00  0.00000000E+00  0.00000000E+00
  0.00000000E+00  0.00000000E+00  0.00000000E+00
  0.00000000E+00  0.00000000E+00  0.00000000E+00
  0.00000000E+00  0.00000000E+00  0.00000000E+00
  0.00000000E+00  0.00000000E+00  0.00000000E+00
  0.00000000E+00  0.00000000E+00  0.00000000E+00
  0.00000000E+00  0.00000000E+00  0.00000000E+00
  0.00000000E+00  0.00000000E+00  0.00000000E+00
  0.00000000E+00  0.00000000E+00  0.00000000E+00
  0.00000000E+00  0.00000000E+00  0.00000000E+00
  0.00000000E+00  0.00000000E+00  0.00000000E+00
  0.00000000E+00  0.00000000E+00  0.00000000E+00
  0.00000000E+00  0.00000000E+00  0.00000000E+00
  0.00000000E+00  0.00000000E+00  0.00000000E+00
  0.00000000E+00  0.00000000E+00  0.00000000E+00
  0.00000000E+00  0.00000000E+00  0.00000000E+00
  0.00000000E+00  0.00000000E+00  0.00000000E+00
  0.00000000E+00  0.00000000E+00  0.00000000E+00
  0.00000000E+00  0.00000000E+00  0.00000000E+00
  0.00000000E+00  0.00000000E+00  0.00000000E+00
  0.00000000E+00  0.00000000E+00  0.00000000E+00
  0.00000000E+00  0.00000000E+00  0.00000000E+00
  0.00000000E+00  0.00000000E+00  0.00000000E+00
  0.00000000E+00  0.00000000E+00  0.00000000E+00
  0.00000000E+00  0.00000000E+00  0.00000000E+00
  0.00000000E+00  0.00000000E+00  0.00000000E+00
  0.00000000E+00  0.00000000E+00  0.00000000E+00
  0.00000000E+00  0.00000000E+00  0.00000000E+00
  0.00000000E+00  0.00000000E+00  0.00000000E+00
  0.00000000E+00  0.00000000E+00  0.00000000E+00
  0.00000000E+00  0.00000000E+00  0.00000000E+00
  0.00000000E+00  0.00000000E+00  0.00000000E+00
  0.00000000E+00  0.00000000E+00  0.00000000E+00
  0.00000000E+00  0.00000000E+00  0.00000000E+00
  0.00000000E+00  0.00000000E+00  0.00000000E+00
  0.00000000E+00  0.00000000E+00  0.00000000E+00
  0.00000000E+00  0.00000000E+00  0.00000000E+00
  0.00000000E+00  0.00000000E+00  0.00000000E+00
  0.00000000E+00  0.00000000E+00  0.00000000E+00
  0.00000000E+00  0.00000000E+00  0.00000000E+00
  0.00000000E+00  0.00000000E+00  0.00000000E+00
  0.00000000E+00  0.00000000E+00  0.00000000E+00
  0.00000000E+00  0.00000000E+00  0.00000000E+00
  0.00000000E+00  0.00000000E+00  0.00000000E+00
  0.00000000E+00  0.00000000E+00  0.00000000E+00
  0.00000000E+00  0.00000000E+00  0.00000000E+00
  0.00000000E+00  0.00000000E+00  0.00000000E+00
  0.00000000E+00  0.00000000E+00  0.00000000E+00
  0.00000000E+00  0.00000000E+00  0.00000000E+00
  0.00000000E+00  0.00000000E+00  0.00000000E+00
  0.00000000E+00  0.00000000E+00  0.00000000E+00
  0.00000000E+00  0.00000000E+00  0.00000000E+00
  0.00000000E+00  0.00000000E+00  0.00000000E+00
  0.00000000E+00  0.00000000E+00  0.00000000E+00
  0.00000000E+00  0.00000000E+00  0.00000000E+00
  0.00000000E+00  0.00000000E+00  0.00000000E+00
  0.00000000E+00  0.00000000E+00  0.00000000E+00
  0.00000000E+00  0.00000000E+00  0.00000000E+00
  0.00000000E+00  0.00000000E+00  0.00000000E+00
  0.00000000E+00  0.00000000E+00  0.00000000E+00
  0.00000000E+00  0.00000000E+00  0.00000000E+00
  0.00000000E+00  0.00000000E+00  0.00000000E+00