Amorphous Sb                            
   1.00000000000000     
    20.5612802937373189    0.0000000000000000    0.0000000000000000
     0.0000000000000000   20.5612802937373189    0.0000000000000000
     0.0000000000000000    0.0000000000000000   20.5612802937373189
   Ge   Se
   150   150
Direct
  0.9025551206056123  0.9851355866369536  0.8504929056244579
  0.0092792786965280  0.3649957903688662  0.0133292105367115
  0.1504390701289156  0.2808016270778377  0.5223459765771541
  0.7039875060965377  0.2160558800993257  0.7581183677476715
  0.0501804584594859  0.7199327745614688  0.9380789215456969
  0.1989889147419467  0.7473397882640992  0.0484110262114011
  0.9662391926558999 -0.0063819022479082  0.3281988271121408
  0.0376713044695910  0.7686188933078050  0.5867303548327606
  0.1298083213013443  0.7332610847394203  0.3102752162855683
  0.2508750558226871  0.9876852779468146  0.4227127916339656
  0.8139218404302699  0.3739271063763863  0.5752612773260355
  0.7718456980450714  0.5328686541020117  0.7074367799606053
  0.4057148189224186  0.3372726843267464  0.6378185380668473
  0.0572896543179329  0.0617429361088083  0.1477829073172534
  0.7007795747865901  0.8295118872527011  0.5439735713862666
  0.9413783499091872  0.7522648816557116  0.2422551418666309
  0.9564100391031141  0.7268847527701927  0.7203277331769347
  0.0044339924139839  0.4335163781053949  0.2229638241960542
  0.0891249763568041  0.1514223762651459  0.0287951099134029
  0.0132362913879291  0.1622271763324777  0.3137935768228919
  0.1159714771132297  0.5279640524190267  0.2354656040220704
  0.5409444097425582  0.0511896585945785  0.8887408451369867
  0.0808420633416261  0.1332179549650565  0.7512062919543246
  0.1359271097006995  0.0372794553239425  0.2454076555363837
  0.5741750211329073  0.2685492730104750  0.1665132577640210
  0.5625450539447810  0.2949984612135922  0.6967270124555961
  0.5871368613501289  0.9370138319382333  0.7004503452751405
  0.7591790838688027  0.1442999562541630  0.9648667913055237
  0.0293752694501901  0.6898063253125619  0.8167643630157231
  0.9488663624880028  0.9783027151003896  0.5596695097337063
  0.9594674454588930  0.4059218454493491  0.6937025532747054
  0.6691970702037653  0.3042596924866836  0.5015924688732867
  0.8274535070895502  0.3743236325518429  0.2077912786204686
  0.6001839336265179  0.0151019472931620  0.3194344302025064
  0.7606506054810024  0.5675736579266013  0.2903442324512802
  0.8583841887938350  0.6427975606062624  0.1256097854857339
  0.5584756676583031  0.4821117835935803  0.8738874906858018
  0.4585730390924090  0.9655894622852031  0.2560930847883577
  0.3727631641167100  0.2886824939687704  0.1346969858565847
  0.7898185781188357  0.3394417889298245  0.9862056966547772
  0.5218100233566858  0.1892660347571280  0.5712999102986209
  0.8575789985348119  0.0321751206106795  0.4979510863756256
  0.7312709440048102  0.8310341983383946  0.0648063825536168
  0.2681153335835024  0.1386450855832627  0.8490787200913399
  0.4170544420153932  0.7473393725989499  0.2492912388374530
  0.5655591131291963  0.4313730814724860  0.5729440373657897
  0.6878196410762194  0.1058761266456382  0.3364166437207810
  0.2192830129677023  0.1631542096196964  0.6219319762077594
  0.7304232779794106  0.4939475086378195  0.9719407314033744
  0.3286417490483549  0.8119256432481914  0.1526844803550941
  0.9570597644211912  0.8078023304841923  0.5024480565134816
  0.4784138944795605  0.2007786146203896  0.0261257267520871
  0.5201799969485628  0.8294166714359930  0.7139009655577258
  0.6190751488208085  0.2186750864119237  0.8980242971997757
  0.1215365036737266  0.5310780376011635  0.8212703719558828
  0.1078465035627580  0.0472723098517826  0.4129302598282422
  0.0390575318012072  0.3413792848226473  0.7850664851401523
  0.9432828460588861  0.5873243680700908  0.5765564406989886
  0.8737320520532841  0.0660666064338764  0.6711501003526179
  0.4508168249602499  0.6105219707176667  0.1398852023129682
  0.7232042305433566  0.9282424977431774  0.8140677975305785
  0.8151478605463754  0.9627441733311831  0.3097461388509483
  0.7644463755384681  0.6790007961419845  0.4578511360283460
 -0.0026043811559469  0.8110792181789223  0.0850804011483382
  0.7316701775190991  0.7210373587724019  0.9926822179940852
  0.6700484522574873  0.5257095461649802  0.7898645889507816
  0.7058196061693077  0.9494416651460282  0.4452592866215780
  0.9347304151892145  0.6846498003992132  0.9732022488988543
  0.7945938642773149  0.2506706296699869  0.3099578269766265
  0.9062008711277592  0.2273668307128298  0.7063312060232451
  0.4189414014046708  0.7531986647298926  0.0065737616355024
  0.5181756292794129  0.9151801863705998  0.0769887966866051
  0.5563430811574075  0.4451205745205717  0.7012923868473587
  0.3164397077676078  0.8400255445811734  0.4858972913340208
  0.0980910169697275  0.6069797504219900  0.9751159714647746
  0.7896071440761562  0.7304520303645419  0.2162322739540369
  0.3329784947541502  0.2368012488572323  0.2903140182466006
  0.0473525896251693  0.9019926111296560 -0.0006369601154447
  0.2217479140388382  0.2912105890056074  0.7101765973218677
  0.3561301322867531  0.3224204844609627  0.9550461446278939
  0.6676529631374316  0.0113766317944606  0.0653200236945971
  0.9635116127045941  0.4928290392479193  0.0587283558637843
  0.4311009219406913  0.4605971889515683  0.0257776722231325
  0.4759590966733532  0.5267981836297467  0.3275928944694443
  0.4223890059296811  0.1764263101920335  0.7198821485584175
  0.4467684676815123  0.9827128741598622  0.7474212424770320
  0.3872942028814920  0.7583050916057595  0.5814534377274858
  0.8701823103811980  0.3422413387299161  0.4024480391728648
  0.6427105014274326  0.6973278159734313  0.1587117909558234
  0.5225988386917793  0.2151882551079497  0.2725875042466685
  0.2069681646181900  0.9089153365498598  0.9378739323546740
  0.9870834613209017  0.4638849742615221  0.4890377872344964
  0.2309099086364596  0.5897506126003671  0.8246920247605265
  0.5537254121743478  0.1295925988216815  0.4608793220139124
  0.8776181663719200  0.9162329619942551  0.6442148231536022
  0.7788801249444806  0.6670083067634432  0.5847549560983969
  0.2206934185403927  0.8844381654046491  0.1682159912200580
  0.2844112693043165  0.1610992019462469  0.4558045102305897
  0.1365504678296771  0.8379568149919522  0.4591294559150052
  0.5868255571977683  0.8312388750829310  0.8986569205072383
  0.4141841973147964  0.5968109176006471  0.9137554425752958
  0.6867616543434127  0.2428080498807733  0.0054361545961625
  0.3019726294357094  0.5108023299566669  0.2854902337662986
  0.8116700496713978  0.1328873143518538  0.4344614263483432
  0.3195646347966045  0.8878385432752450  0.6774302486498847
  0.6178555300243556  0.6046029394803899  0.9964684091809213
  0.9093713458389782  0.2354002108240643  0.1625340768149062
  0.6208934764082966  0.3702059001871603  0.3064522767681090
  0.2554518780135492  0.4000211719426405  0.8000331291045401
  0.9503215378767554  0.1731749225250668  0.0118441596540730
  0.2212731980538897  0.6653760153108527  0.6457693265762017
  0.3729507316001753  0.9200260278185709  0.9002533710697802
  0.2048134852755300  0.1486192202708071  0.1718382109915814
  0.7001598554913913  0.1891146916037560  0.6354220517710391
  0.4333341085765429  0.6406381117272770  0.4022110369564667
  0.5674657672674991  0.7413171296201289  0.5293494954647934
  0.3218401770121179  0.0395332808065946  0.1836758546897173
  0.8265636429275994  0.7257252473618221  0.6915684731826340
  0.1528885779632104  0.4168446646720242  0.4044321305153765
  0.3824992494495547  0.6372108263916600  0.7135379063595876
  0.6200879327002019  0.5331386706985284  0.4304452065622222
  0.9020488620560372  0.9645489588670122  0.1532545857071656
  0.8832091409790758  0.4671103191766707  0.8478909327121877
  0.0725722543440145  0.9753964359344446  0.6647270083574205
  0.2959752058529315  0.3997265950813231  0.4754624140362541
  0.5219685654152848  0.1144753926263069  0.1108435905208226
  0.1301726540857660  0.8440720068163340  0.7394403680335798
  0.8347374185144947  0.1542642694690333  0.8638713331740733
  0.2567392401975689  0.0229845677026160  0.0746145313056915
  0.6927945638989556  0.7589455460371437  0.7558426736765013
  0.1489856292258928  0.7817270749081119  0.1988373335867636
  0.8621774630054022  0.7016447604777214  0.3821488949976585
  0.5643519727675185  0.9383620260253420  0.4489230482898703
  0.4659018110090222  0.8690324038409215  0.3967082851194088
  0.8099043753823529  0.6062303723899827  0.8604535428901995
  0.1473203103885584  0.4684332352756104  0.0754283923769386
  0.3716804982239036  0.2477151908161404  0.4988668321618573
  0.4044383040633575  0.0625559277741527  0.4001727838611262
  0.3897368180655500  0.4887024591285227  0.5659886173941560
  0.9778086230967910  0.7090646980255243  0.4281334309711138
  0.5495679097275066  0.4495725422939675  0.0864317772066742
  0.1255661487367911  0.2760486972801059  0.8770294146839237
  0.3953294363353850  0.3669767693503023  0.2679896640821980
  0.2539685000317479  0.0266939916944411  0.7827615880713056
  0.3835781578457962  0.5094573768500531  0.8303567761374149
  0.0634956038467176  0.9106214178496540  0.8305094112433131
  0.2461789685140431  0.7018091339897290  0.8873163006891949
  0.8465441020574180 -0.0070440168520214  0.9907670825165308
  0.2273040043225612  0.6438314309000338  0.4192429408519591
  0.8344042768268485  0.8367525603897042  0.9122806259703062
  0.9477484666548160  0.1599062460587345  0.8915378617416592
  0.7934394157959194  0.2884819376100738  0.4878473921988947
  0.1024726031266473  0.2704971457429126 -0.0034031511827980
  0.0084674769795170  0.4810286069100280  0.6075728140358502
  0.4124930867888486  0.8625863400171145  0.7645865559740378
  0.7767549715596102  0.3757836389474565  0.3268985441220276
  0.5039751293736427  0.3083835627276913  0.0751372991299008
  0.5632889178556015  0.1677808929341193  0.6810014778260240
  0.7887341703520875  0.2542770014972645  0.1837006749395965
  0.8317801334872307  0.1716400537035716  0.6275319028437147
  0.6801356095252663  0.7600800189715776  0.4398680142569118
  0.4467010237157434  0.4324201151208067  0.9050102995203892
  0.0107772554632826  0.8319080657880881  0.6880449376146771
  0.2408280036816554  0.9714908166035684  0.2524852693783636
  0.0666708538215776  0.3857630028303961  0.1280874695145890
  0.3962288472533392  0.9454716405033443  0.1511075321964339
  0.6322718069672385  0.1774442975022264  0.1032644163167676
  0.4349813373753589  0.4540862244366150  0.6763595563874486
  0.0253979008509164  0.0616564894972762  0.5952039325823969
  0.9670842162158464  0.0775631053300115  0.2316479060329323
  0.8440909586810437  0.1117361603678407  0.0447827604147561
  0.2916094838922295  0.1901605262184772  0.7378180811176698
  0.2467968864265881  0.9122317814327831  0.8171718741336714
  0.1374964716931686  0.7289287059734689  0.7801005847134431
  0.1780570729262476  0.4378081808588326  0.2924522845651036
  0.5336334235478150  0.6029490620303574  0.9003142836244968
  0.2068649765823482  0.4875450047814138  0.4783005467613967
  0.0846809153744829  0.9569558534479248  0.3222501669033631
  0.3101584815718724  0.8097263892576049  0.0295498153734931
  0.4661719625820822  0.8673670564893086  0.9732578604561702
  0.2970776022706429  0.1238642576986718  0.3416240379446298
  0.6408128382514316  0.3645541769686907  0.1844336078417148
  0.7904874739303819  0.0003374230634367  0.5992613208103418
  0.5652087985992063  0.5740764318690373  0.1067496255554648
  0.3862889742640228  0.5759766189823642  0.0297885844788673
  0.4925824371564068  0.7351401664019701  0.6445187258210684
  0.6738134145330302  0.7246259848950273  0.6147499537049128
  0.3946735094483793  0.8851932421000503  0.5782108203471553
  0.7940978716557023  0.9352983569190811  0.0916769335846444
  0.5993434810359398  0.4964772497897270  0.3131000472109456
  0.3240853298072508  0.6306875919567358  0.3423680785707574
  0.1444593090661709  0.1536268580904936  0.8582017724382769
  0.2575557139924100  0.2869865099334916  0.5904614352158271
  0.0412187238830110  0.3808625107763166  0.4265962194088344
  0.5399327369019581  0.0284426352642659  0.0213698647078297
  0.6951265885054706  0.8777131140053602  0.7028121103947003
  0.8684231896867723  0.7174471283518424  0.8776566571756751
  0.0118521296627792  0.9119887005079789  0.4833646907511555
  0.6995384656147826  0.6754813056041712  0.2745973185383620
  0.4951325355262624  0.8449510337027291  0.2819243989589931
  0.8539686760628815  0.6147231734296206  0.7407134682089496
  0.4934492272060224  0.6543899984125742  0.2951142793143446
  0.8443171213622791  0.4346732779701928  0.7301649975103690
  0.0842778441920780  0.1841332226555808  0.1513039801443936
  0.6906766190832924  0.9323296863850322  0.3235778993125818
  0.6125010792261171  0.4377451469513377  0.9766141464428584
  0.0092584642396914  0.5770750350012458  0.4702070084395225
  0.1362589232040715  0.4268081678731248  0.7648046100775997
  0.9093459238201007  0.2909978557060852  0.0423938170856267
  0.1641370985132905  0.0547080633116807  0.7013575276392850
  0.2404104300936601  0.7131442958862302  0.1619810208787945
  0.4213704063172753  0.4841173933165437  0.2248540565570424
  0.5087843911340426  0.3132018307489692  0.5620813450488709
  0.9584938775666345  0.3671800674504488  0.8680415176223689
  0.2148162848850911  0.3152067045440530  0.4188351561511992
  0.4469006053301671  0.1810599667391952  0.4192697302486745
  0.3735505000993982  0.7044587646561077  0.8854194385068708
  0.0033015367923287  0.9976394032844820  0.7723415808827806
  0.6952015951428427  0.6375291990602927  0.8369546378923632
  0.8311367557264686  0.9349190735030076  0.4295771982262586
  0.6762050077962443  0.2236371112900990  0.3359702130231241
  0.5001684500973536  0.3272269122300770  0.3190718994592158
  0.5778775680219741  0.8633923056380157  0.5510580743655684
  0.7370539338155634  0.6422783351525847  0.0919782171723439
  0.1497326375535252  0.7644015922916980  0.5576541725695779
  0.0258885898301420  0.6618204711415041  0.6406400548039222
  0.8150456388195326  0.2532485830078395  0.7974831275180400
  0.8886529058645266  0.7519862996142438  0.0630209086381338
  0.2173475827607226  0.9151557495350411  0.5150858875176788
  0.9369309389122017  0.3241240157628044  0.2442101815871287
  0.8495140553569047  0.8854832485943633  0.8003558803388608
  0.6115351405625297  0.7297524742572477  0.0089501778897199
  0.8436944524079037  0.7982731364942091  0.3110895755256791
  0.2186752700608361  0.6352326846866971  0.9946931840164392
  0.7605074711304022  0.5493717095648937  0.5910361714601129
  0.1223906829177767  0.2266896825570301  0.6729830852490887
  0.9687725845114268  0.8668469459466143  0.1893825555033925
  0.4437344625697939  0.2946520560481781  0.7465018058219739
  0.2549005845996841  0.2573513351146409  0.1949975751882262
  0.7006860421670937  0.0786853938058629  0.4566652717443355
  0.8720617359816148  0.4457301694985327  0.4750777240356563
  0.2165960023711083  0.7695123478646451  0.3834753068525633
  0.6999379425868221  0.8102946003763978  0.1795337112484943
  0.5702802187441404  0.7559099137563721  0.7942781373021791
  0.0220153514491276  0.7821573521924969  0.3389371440949998
  0.9206503252817533  0.3171233644393239  0.6206990896576792
  0.4470926676944910  0.7628524420182944  0.4490839351107829
  0.2437366202425611  0.3101029768999514  0.8840947051903465
  0.5901313232858229  0.5588479467257420  0.7039377933211565
  0.2742209863862995  0.5673108870366396  0.7149572931385434
  0.4662297920349684  0.7356869498526948  0.1348338898070788
  0.1023945696020751  0.4967680573328361  0.9315699893516977
  0.5803875083896639  0.9410671472072564  0.8274087615291321
  0.6390256525888711  0.8984669827259570  0.0234045409833811
  0.8850629555487797  0.5817044382150779  0.0083955615198863
  0.4042729958431304  0.1701227298508801  0.5936705205807959
  0.2861977157624179  0.6253882110913392  0.5442972078794271
  0.2745920631358010  0.4948952353906559  0.8873803732128506
  0.5023826328774320  0.1959278168567667  0.9054716710512620
  0.6646425736032313  0.1301385960620411  0.8304805621280368
  0.1350917853263887  0.1314251752293265  0.3224816311762330
  0.9844470024761478  0.8543631635752779  0.9040351558614210
  0.8741134931583656  0.6168401227740696  0.3020799500265318
  0.1632836327059083  0.9476753967200009  0.0849512016309652
  0.3233766576108640  0.0542154014739593  0.4973079082300558
  0.2184788790364595  0.1336868322454476  0.0490759703729696
  0.8195655090405022  0.0595098614133561  0.7900510928786714
  0.8598307758727660  0.8197800591713740  0.5693446997381277
  0.3574143558058431  0.4332047417585207  0.3687454540531935
  0.0637473298393938  0.5653111065374109  0.0836011131748142
  0.9849364653077850  0.0858703337829171  0.4114958859442429
  0.4197873410282270  0.0303445626950834  0.8603164673650002
  0.1103625980227243  0.9836892862053548  0.9139018184923932
  0.6622700685982432  0.4321550193254580  0.5007982474726999
  0.8078096511050511  0.0871054315067992  0.3160513722199629
  0.6345061153166109  0.3014154125306536  0.8093468328107539
  0.3472100440427483  0.9079787135195367  0.3850875840275844
  0.7151743654008580  0.8167781354707564  0.8742124674105172
  0.6945654538491853  0.3118851427122163  0.6245385349617056
  0.4904761169501446  0.4824657121165262  0.4996036420834885
  0.1328197921835395  0.6184093513662002  0.3327636925509724
  0.0205140183015196  0.5740770291569443  0.7822724392195124
  0.5011748562459045  0.0263881521018471  0.5032179955567988
  0.3294955608222948  0.3993378820402417  0.0465430222626771
  0.2127723157348318  0.5191965184339099  0.1645344106147541
  0.9646277499175544  0.9849783443656653  0.0469999923964231
  0.7147590518371801  0.0347188751153561  0.9526729892658639
  0.3954911212534586  0.6119373457815346  0.5873096812844586
  0.4169949199167914  0.1895381623892072  0.2113238088675599
  0.3128505122677024  0.7378830920025367  0.6906950175611218
  0.1683625822656553  0.1599290341431484  0.4925966697894906
  0.9195729486044051  0.5025185070563468  0.1696774639351977
  0.7790922880409487  0.4275222450751640  0.0630708246954011
  0.3586562488317587  0.2167065883673609  0.0264510024188417
  0.5660099505388216  0.0015986675668531  0.2043693069853308
  0.7428502489706598  0.5670778208627166  0.4137993269833850
  0.2876829790396089  0.0007389240000195  0.9608821671498915
  0.0631666234630644  0.7237350013925073  0.1391446766550789
  0.7749769783685696  0.4131412771928405  0.8842689273109973
  0.3365077883037197  0.0156251811663994  0.6942926231494526
 
  0.00000000E+00  0.00000000E+00  0.00000000E+00
  0.00000000E+00  0.00000000E+00  0.00000000E+00
  0.00000000E+00  0.00000000E+00  0.00000000E+00
  0.00000000E+00  0.00000000E+00  0.00000000E+00
  0.00000000E+00  0.00000000E+00  0.00000000E+00
  0.00000000E+00  0.00000000E+00  0.00000000E+00
  0.00000000E+00  0.00000000E+00  0.00000000E+00
  0.00000000E+00  0.00000000E+00  0.00000000E+00
  0.00000000E+00  0.00000000E+00  0.00000000E+00
  0.00000000E+00  0.00000000E+00  0.00000000E+00
  0.00000000E+00  0.00000000E+00  0.00000000E+00
  0.00000000E+00  0.00000000E+00  0.00000000E+00
  0.00000000E+00  0.00000000E+00  0.00000000E+00
  0.00000000E+00  0.00000000E+00  0.00000000E+00
  0.00000000E+00  0.00000000E+00  0.00000000E+00
  0.00000000E+00  0.00000000E+00  0.00000000E+00
  0.00000000E+00  0.00000000E+00  0.00000000E+00
  0.00000000E+00  0.00000000E+00  0.00000000E+00
  0.00000000E+00  0.00000000E+00  0.00000000E+00
  0.00000000E+00  0.00000000E+00  0.00000000E+00
  0.00000000E+00  0.00000000E+00  0.00000000E+00
  0.00000000E+00  0.00000000E+00  0.00000000E+00
  0.00000000E+00  0.00000000E+00  0.00000000E+00
  0.00000000E+00  0.00000000E+00  0.00000000E+00
  0.00000000E+00  0.00000000E+00  0.00000000E+00
  0.00000000E+00  0.00000000E+00  0.00000000E+00
  0.00000000E+00  0.00000000E+00  0.00000000E+00
  0.00000000E+00  0.00000000E+00  0.00000000E+00
  0.00000000E+00  0.00000000E+00  0.00000000E+00
  0.00000000E+00  0.00000000E+00  0.00000000E+00
  0.00000000E+00  0.00000000E+00  0.00000000E+00
  0.00000000E+00  0.00000000E+00  0.00000000E+00
  0.00000000E+00  0.00000000E+00  0.00000000E+00
  0.00000000E+00  0.00000000E+00  0.00000000E+00
  0.00000000E+00  0.00000000E+00  0.00000000E+00
  0.00000000E+00  0.00000000E+00  0.00000000E+00
  0.00000000E+00  0.00000000E+00  0.00000000E+00
  0.00000000E+00  0.00000000E+00  0.00000000E+00
  0.00000000E+00  0.00000000E+00  0.00000000E+00
  0.00000000E+00  0.00000000E+00  0.00000000E+00
  0.00000000E+00  0.00000000E+00  0.00000000E+00
  0.00000000E+00  0.00000000E+00  0.00000000E+00
  0.00000000E+00  0.00000000E+00  0.00000000E+00
  0.00000000E+00  0.00000000E+00  0.00000000E+00
  0.00000000E+00  0.00000000E+00  0.00000000E+00
  0.00000000E+00  0.00000000E+00  0.00000000E+00
  0.00000000E+00  0.00000000E+00  0.00000000E+00
  0.00000000E+00  0.00000000E+00  0.00000000E+00
  0.00000000E+00  0.00000000E+00  0.00000000E+00
  0.00000000E+00  0.00000000E+00  0.00000000E+00
  0.00000000E+00  0.00000000E+00  0.00000000E+00
  0.00000000E+00  0.00000000E+00  0.00000000E+00
  0.00000000E+00  0.00000000E+00  0.00000000E+00
  0.00000000E+00  0.00000000E+00  0.00000000E+00
  0.00000000E+00  0.00000000E+00  0.00000000E+00
  0.00000000E+00  0.00000000E+00  0.00000000E+00
  0.00000000E+00  0.00000000E+00  0.00000000E+00
  0.00000000E+00  0.00000000E+00  0.00000000E+00
  0.00000000E+00  0.00000000E+00  0.00000000E+00
  0.00000000E+00  0.00000000E+00  0.00000000E+00
  0.00000000E+00  0.00000000E+00  0.00000000E+00
  0.00000000E+00  0.00000000E+00  0.00000000E+00
  0.00000000E+00  0.00000000E+00  0.00000000E+00
  0.00000000E+00  0.00000000E+00  0.00000000E+00
  0.00000000E+00  0.00000000E+00  0.00000000E+00
  0.00000000E+00  0.00000000E+00  0.00000000E+00
  0.00000000E+00  0.00000000E+00  0.00000000E+00
  0.00000000E+00  0.00000000E+00  0.00000000E+00
  0.00000000E+00  0.00000000E+00  0.00000000E+00
  0.00000000E+00  0.00000000E+00  0.00000000E+00
  0.00000000E+00  0.00000000E+00  0.00000000E+00
  0.00000000E+00  0.00000000E+00  0.00000000E+00
  0.00000000E+00  0.00000000E+00  0.00000000E+00
  0.00000000E+00  0.00000000E+00  0.00000000E+00
  0.00000000E+00  0.00000000E+00  0.00000000E+00
  0.00000000E+00  0.00000000E+00  0.00000000E+00
  0.00000000E+00  0.00000000E+00  0.00000000E+00
  0.00000000E+00  0.00000000E+00  0.00000000E+00
  0.00000000E+00  0.00000000E+00  0.00000000E+00
  0.00000000E+00  0.00000000E+00  0.00000000E+00
  0.00000000E+00  0.00000000E+00  0.00000000E+00
  0.00000000E+00  0.00000000E+00  0.00000000E+00
  0.00000000E+00  0.00000000E+00  0.00000000E+00
  0.00000000E+00  0.00000000E+00  0.00000000E+00
  0.00000000E+00  0.00000000E+00  0.00000000E+00
  0.00000000E+00  0.00000000E+00  0.00000000E+00
  0.00000000E+00  0.00000000E+00  0.00000000E+00
  0.00000000E+00  0.00000000E+00  0.00000000E+00
  0.00000000E+00  0.00000000E+00  0.00000000E+00
  0.00000000E+00  0.00000000E+00  0.00000000E+00
  0.00000000E+00  0.00000000E+00  0.00000000E+00
  0.00000000E+00  0.00000000E+00  0.00000000E+00
  0.00000000E+00  0.00000000E+00  0.00000000E+00
  0.00000000E+00  0.00000000E+00  0.00000000E+00
  0.00000000E+00  0.00000000E+00  0.00000000E+00
  0.00000000E+00  0.00000000E+00  0.00000000E+00
  0.00000000E+00  0.00000000E+00  0.00000000E+00
  0.00000000E+00  0.00000000E+00  0.00000000E+00
  0.00000000E+00  0.00000000E+00  0.00000000E+00
  0.00000000E+00  0.00000000E+00  0.00000000E+00
  0.00000000E+00  0.00000000E+00  0.00000000E+00
  0.00000000E+00  0.00000000E+00  0.00000000E+00
  0.00000000E+00  0.00000000E+00  0.00000000E+00
  0.00000000E+00  0.00000000E+00  0.00000000E+00
  0.00000000E+00  0.00000000E+00  0.00000000E+00
  0.00000000E+00  0.00000000E+00  0.00000000E+00
  0.00000000E+00  0.00000000E+00  0.00000000E+00
  0.00000000E+00  0.00000000E+00  0.00000000E+00
  0.00000000E+00  0.00000000E+00  0.00000000E+00
  0.00000000E+00  0.00000000E+00  0.00000000E+00
  0.00000000E+00  0.00000000E+00  0.00000000E+00
  0.00000000E+00  0.00000000E+00  0.00000000E+00
  0.00000000E+00  0.00000000E+00  0.00000000E+00
  0.00000000E+00  0.00000000E+00  0.00000000E+00
  0.00000000E+00  0.00000000E+00  0.00000000E+00
  0.00000000E+00  0.00000000E+00  0.00000000E+00
  0.00000000E+00  0.00000000E+00  0.00000000E+00
  0.00000000E+00  0.00000000E+00  0.00000000E+00
  0.00000000E+00  0.00000000E+00  0.00000000E+00
  0.00000000E+00  0.00000000E+00  0.00000000E+00
  0.00000000E+00  0.00000000E+00  0.00000000E+00
  0.00000000E+00  0.00000000E+00  0.00000000E+00
  0.00000000E+00  0.00000000E+00  0.00000000E+00
  0.00000000E+00  0.00000000E+00  0.00000000E+00
  0.00000000E+00  0.00000000E+00  0.00000000E+00
  0.00000000E+00  0.00000000E+00  0.00000000E+00
  0.00000000E+00  0.00000000E+00  0.00000000E+00
  0.00000000E+00  0.00000000E+00  0.00000000E+00
  0.00000000E+00  0.00000000E+00  0.00000000E+00
  0.00000000E+00  0.00000000E+00  0.00000000E+00
  0.00000000E+00  0.00000000E+00  0.00000000E+00
  0.00000000E+00  0.00000000E+00  0.00000000E+00
  0.00000000E+00  0.00000000E+00  0.00000000E+00
  0.00000000E+00  0.00000000E+00  0.00000000E+00
  0.00000000E+00  0.00000000E+00  0.00000000E+00
  0.00000000E+00  0.00000000E+00  0.00000000E+00
  0.00000000E+00  0.00000000E+00  0.00000000E+00
  0.00000000E+00  0.00000000E+00  0.00000000E+00
  0.00000000E+00  0.00000000E+00  0.00000000E+00
  0.00000000E+00  0.00000000E+00  0.00000000E+00
  0.00000000E+00  0.00000000E+00  0.00000000E+00
  0.00000000E+00  0.00000000E+00  0.00000000E+00
  0.00000000E+00  0.00000000E+00  0.00000000E+00
  0.00000000E+00  0.00000000E+00  0.00000000E+00
  0.00000000E+00  0.00000000E+00  0.00000000E+00
  0.00000000E+00  0.00000000E+00  0.00000000E+00
  0.00000000E+00  0.00000000E+00  0.00000000E+00
  0.00000000E+00  0.00000000E+00  0.00000000E+00
  0.00000000E+00  0.00000000E+00  0.00000000E+00
  0.00000000E+00  0.00000000E+00  0.00000000E+00
  0.00000000E+00  0.00000000E+00  0.00000000E+00
  0.00000000E+00  0.00000000E+00  0.00000000E+00
  0.00000000E+00  0.00000000E+00  0.00000000E+00
  0.00000000E+00  0.00000000E+00  0.00000000E+00
  0.00000000E+00  0.00000000E+00  0.00000000E+00
  0.00000000E+00  0.00000000E+00  0.00000000E+00
  0.00000000E+00  0.00000000E+00  0.00000000E+00
  0.00000000E+00  0.00000000E+00  0.00000000E+00
  0.00000000E+00  0.00000000E+00  0.00000000E+00
  0.00000000E+00  0.00000000E+00  0.00000000E+00
  0.00000000E+00  0.00000000E+00  0.00000000E+00
  0.00000000E+00  0.00000000E+00  0.00000000E+00
  0.00000000E+00  0.00000000E+00  0.00000000E+00
  0.00000000E+00  0.00000000E+00  0.00000000E+00
  0.00000000E+00  0.00000000E+00  0.00000000E+00
  0.00000000E+00  0.00000000E+00  0.00000000E+00
  0.00000000E+00  0.00000000E+00  0.00000000E+00
  0.00000000E+00  0.00000000E+00  0.00000000E+00
  0.00000000E+00  0.00000000E+00  0.00000000E+00
  0.00000000E+00  0.00000000E+00  0.00000000E+00
  0.00000000E+00  0.00000000E+00  0.00000000E+00
  0.00000000E+00  0.00000000E+00  0.00000000E+00
  0.00000000E+00  0.00000000E+00  0.00000000E+00
  0.00000000E+00  0.00000000E+00  0.00000000E+00
  0.00000000E+00  0.00000000E+00  0.00000000E+00
  0.00000000E+00  0.00000000E+00  0.00000000E+00
  0.00000000E+00  0.00000000E+00  0.00000000E+00
  0.00000000E+00  0.00000000E+00  0.00000000E+00
  0.00000000E+00  0.00000000E+00  0.00000000E+00
  0.00000000E+00  0.00000000E+00  0.00000000E+00
  0.00000000E+00  0.00000000E+00  0.00000000E+00
  0.00000000E+00  0.00000000E+00  0.00000000E+00
  0.00000000E+00  0.00000000E+00  0.00000000E+00
  0.00000000E+00  0.00000000E+00  0.00000000E+00
  0.00000000E+00  0.00000000E+00  0.00000000E+00
  0.00000000E+00  0.00000000E+00  0.00000000E+00
  0.00000000E+00  0.00000000E+00  0.00000000E+00
  0.00000000E+00  0.00000000E+00  0.00000000E+00
  0.00000000E+00  0.00000000E+00  0.00000000E+00
  0.00000000E+00  0.00000000E+00  0.00000000E+00
  0.00000000E+00  0.00000000E+00  0.00000000E+00
  0.00000000E+00  0.00000000E+00  0.00000000E+00
  0.00000000E+00  0.00000000E+00  0.00000000E+00
  0.00000000E+00  0.00000000E+00  0.00000000E+00
  0.00000000E+00  0.00000000E+00  0.00000000E+00
  0.00000000E+00  0.00000000E+00  0.00000000E+00
  0.00000000E+00  0.00000000E+00  0.00000000E+00
  0.00000000E+00  0.00000000E+00  0.00000000E+00
  0.00000000E+00  0.00000000E+00  0.00000000E+00
  0.00000000E+00  0.00000000E+00  0.00000000E+00
  0.00000000E+00  0.00000000E+00  0.00000000E+00
  0.00000000E+00  0.00000000E+00  0.00000000E+00
  0.00000000E+00  0.00000000E+00  0.00000000E+00
  0.00000000E+00  0.00000000E+00  0.00000000E+00
  0.00000000E+00  0.00000000E+00  0.00000000E+00
  0.00000000E+00  0.00000000E+00  0.00000000E+00
  0.00000000E+00  0.00000000E+00  0.00000000E+00
  0.00000000E+00  0.00000000E+00  0.00000000E+00
  0.00000000E+00  0.00000000E+00  0.00000000E+00
  0.00000000E+00  0.00000000E+00  0.00000000E+00
  0.00000000E+00  0.00000000E+00  0.00000000E+00
  0.00000000E+00  0.00000000E+00  0.00000000E+00
  0.00000000E+00  0.00000000E+00  0.00000000E+00
  0.00000000E+00  0.00000000E+00  0.00000000E+00
  0.00000000E+00  0.00000000E+00  0.00000000E+00
  0.00000000E+00  0.00000000E+00  0.00000000E+00
  0.00000000E+00  0.00000000E+00  0.00000000E+00
  0.00000000E+00  0.00000000E+00  0.00000000E+00
  0.00000000E+00  0.00000000E+00  0.00000000E+00
  0.00000000E+00  0.00000000E+00  0.00000000E+00
  0.00000000E+00  0.00000000E+00  0.00000000E+00
  0.00000000E+00  0.00000000E+00  0.00000000E+00
  0.00000000E+00  0.00000000E+00  0.00000000E+00
  0.00000000E+00  0.00000000E+00  0.00000000E+00
  0.00000000E+00  0.00000000E+00  0.00000000E+00
  0.00000000E+00  0.00000000E+00  0.00000000E+00
  0.00000000E+00  0.00000000E+00  0.00000000E+00
  0.00000000E+00  0.00000000E+00  0.00000000E+00
  0.00000000E+00  0.00000000E+00  0.00000000E+00
  0.00000000E+00  0.00000000E+00  0.00000000E+00
  0.00000000E+00  0.00000000E+00  0.00000000E+00
  0.00000000E+00  0.00000000E+00  0.00000000E+00