POSCAR2                                 
   1.00000000000000     
    20.2579006194999991    0.0000000000000000    0.0000000000000000
     0.0000000000000000   20.2579006194999991    0.0000000000000000
     0.0000000000000000    0.0000000000000000   20.2579006194999991
   Ge   Se
   150   150
Selective dynamics
Direct
  0.4254100019999996  0.6328799719999978  0.4119000430000028   F   F   F
  0.5850999950000002  0.1224699990000033  0.2702000139999967   F   F   F
  0.7803900239999990  0.2971499860000009  0.5576500299999978   F   F   F
  0.6008800270000023  0.1544999930000017  0.5882700089999986   F   F   F
  0.4565899970000018  0.5864999890000036  0.5751100179999966   F   F   F
  0.5570999979999982  0.2357199940000001  0.1157399419999976   F   F   F
  0.5427700279999996  0.3884699939999976  0.6607499719999979   F   F   F
  0.2938500050000030  0.3980500099999986  0.3941400049999970   F   F   F
  0.4468500019999979  0.2581700089999970  0.1590000389999986   F   F   F
  0.7617700099999993  0.2350199970000020  0.4193400139999994   F   F   F
  0.7286700009999976  0.4027099910000018  0.3938399549999971   F   F   F
  0.8121799830000000  0.2982999979999974  0.2816900010000012   F   F   F
  0.3744600120000001  0.2969399990000028  0.5108000040000036   F   F   F
  0.6075299979999969  0.3404499889999997  0.2741099599999970   F   F   F
  0.4021599889999976  0.4453099970000025  0.5120700000000014   F   F   F
  0.2977299989999977  0.5972999930000000  0.4347099960000023   F   F   F
  0.5140200259999972  0.4223499889999971  0.1814800499999976   F   F   F
  0.7309600110000005  0.3728300029999971  0.2454799409999993   F   F   F
  0.6261100170000020  0.2367500069999977  0.2139899729999968   F   F   F
  0.1087046135087623  0.9414491217838122  0.7250577131929192   T   T   T
  0.9735423732740922  0.3327061038322641  0.5087271211501176   T   T   T
  0.3577103790040107  0.7803722625467694  0.0694623033651059   T   T   T
  0.4653948331816958  0.7413897788971157  0.9663798731108432   T   T   T
  0.1545881162992835  0.5369203097126586  0.3597746864897581   T   T   T
  0.0094420033218863  0.9361657149680244  0.9134082967270959   T   T   T
  0.5897143176019412  0.2109256388859037  0.0003750065484792   T   T   T
  0.1480794359033311  0.7224545904306227  0.0321886777697703   T   T   T
  0.0816379130246101  0.1488402550424074  0.4498750648081521   T   T   T
  0.0397000321639525  0.2802874103508624  0.9179033049718418   T   T   T
  0.9614052554463314  0.8290260951271403  0.6844718386767353   T   T   T
  0.9342933698826855  0.8015109910961344  0.9659588043195778   T   T   T
  0.6677024541660909  0.9126640350433688  0.2231500681724424   T   T   T
  0.7927902239640551  0.7418448603455742  0.6669857222375097   T   T   T
  0.9236810698097309  0.4730150035441796  0.8874960875832462   T   T   T
  0.6701674926383133  0.8749022730493010  0.5217458999867816   T   T   T
  0.5470569401469433  0.8633917209093261  0.8608251801481467   T   T   T
  0.8205862734534057  0.0031398004585611  0.1329766756521725   T   T   T
  0.2247727208646856  0.9259152528584790  0.0840924353670592   T   T   T
  0.2904057540817366  0.1333726699536428  0.1328323016379165   T   T   T
  0.0684840753588695  0.8360441455854032  0.9731745296266279   T   T   T
  0.4704758894998800  0.8570253196155458  0.6640650229287796   T   T   T
  0.4894525861415661  0.1554860936168070  0.9552597226107531   T   T   T
  0.6971852700982866  0.7947091588323968  0.9509346517198686   T   T   T
  0.8429150855056646  0.3713228985024803  0.6503860452607167   T   T   T
  0.0433692402821290  0.6749985463004831  0.4348737544263189   T   T   T
  0.2630093268855667  0.0154423342298899  0.6620648602826165   T   T   T
  0.4041945692544900  0.0657342532096961  0.8385132430362308   T   T   T
  0.4588402994613147  0.6530381554954150  0.8130519042179781   T   T   T
  0.7621948251977240  0.9426189805118326  0.6857517541366357   T   T   T
  0.3409371297794551  0.7955095263547763  0.2503941408357236   T   T   T
  0.0163727076596549  0.7009887446598131  0.8328295797498046   T   T   T
  0.0499513258973661  0.4206824515896659  0.6279408668324264   T   T   T
  0.1389448326468454  0.7756374915868551  0.2127122941307623   T   T   T
  0.0021096260135756  0.9823517738810292  0.1099578451996936   T   T   T
  0.9820687516558966  0.7743942267628314  0.1476897231496082   T   T   T
  0.2108438967542349  0.2655198516362107  0.0166783903193545   T   T   T
  0.3072170720964911  0.1613596409991609  0.5640205836542163   T   T   T
  0.0782072049319279  0.5796571390676236  0.9436810529855656   T   T   T
  0.8753756800542785  0.6513400750576798  0.0418790209861451   T   T   T
  0.1769655734819712  0.0007573824390681  0.9031945043860897   T   T   T
  0.4294630271775238  0.0813996720182552  0.5848724670882023   T   T   T
  0.7842259980089554  0.5183750401746409  0.5522882008469964   T   T   T
 -0.0127632036107859  0.6658128951822858  0.3225240158993616   T   T   T
  0.4595542360068808  0.7931822386109999  0.1894625163029137   T   T   T
  0.5183864773745843  0.6846235723358761  0.3320586141608762   T   T   T
  0.9085388219248145  0.9102467128579589  0.4530044824237744   T   T   T
  0.6266731581394098  0.4409042121578035  0.8858129743954146   T   T   T
  0.2980124162355303  0.8284931957085891  0.4518658760170829   T   T   T
  0.5931170393498153  0.6092182116762145  0.6849845740920033   T   T   T
  0.1635446271411139  0.6869370639296636  0.5620402773480594   T   T   T
  0.1551571029731058  0.6023971863406871  0.8111168275355223   T   T   T
  0.3082786873428847  0.5590991303498958  0.0506443258239431   T   T   T
  0.1989822876246576  0.0379975500653977  0.2380739748510032   T   T   T
  0.8721479312852077  0.1438231111259392  0.8281379113388040   T   T   T
  0.0120993107466446  0.3675458915231857  0.2470362412318000   T   T   T
  0.3963329288228806  0.6448946747505263  0.1043639757573295   T   T   T
  0.3138701248521437  0.8166023585038499  0.8756503763089332   T   T   T
  0.9452053378653522  0.0183264194652956  0.2881018185178764   T   T   T
  0.3241618023540410  0.7811688905233719  0.7024236342818108   T   T   T
  0.3375879434192204  0.6612653535028223  0.5880630985014181   T   T   T
  0.4361993314855865  0.9677650061569352  0.0691829766863743   T   T   T
  0.6100341307116033  0.2737030143254401  0.7145958632368474   T   T   T
  0.8900999683885957  0.1242855555152802  0.4440181241877018   T   T   T
  0.5066414368074739  0.9985984378966968  0.4325166853385158   T   T   T
  0.4681084051416570  0.0237263245295282  0.2316836130471940   T   T   T
  0.8234645589975398  0.7418863460375343  0.8378205743967950   T   T   T
  0.6217139686555259  0.6395746964438698  0.0517004234302221   T   T   T
  0.1560369754952847  0.8627858085503811  0.3076270829356484   T   T   T
  0.7318260423634906  0.0276720157697871  0.4874055353259702   T   T   T
  0.8122579529335038  0.6882696952554056  0.4522530593532632   T   T   T
  0.5901328066119894  0.9562930728530120  0.9915364584565972   T   T   T
  0.2013821306143743  0.2471171204402401  0.8538628722256236   T   T   T
  0.3214475300252257  0.2091473923634222  0.7602311800306066   T   T   T
  0.6886288177818651  0.7656844080633340  0.3685098595013815   T   T   T
  0.1091576663826561  0.5804374845358800  0.6812976520263524   T   T   T
  0.4011661770988940  0.2851503906030938  0.0365839542696841   T   T   T
  0.9018820066894470  0.9415491644279771  0.8423498680633114   T   T   T
  0.9022450074815337  0.1802394082794525  0.5604723095850720   T   T   T
  0.2600162325299205  0.0856009649085292  0.9538660710156075   T   T   T
 -0.0141571137260632  0.1733233111731441  0.2180957106139259   T   T   T
  0.9544344626736018  0.5525202638251210  0.5364645476459120   T   T   T
  0.3013693034926623  0.9420247249570027  0.3791219892805797   T   T   T
  0.0644362355986562  0.1312635246432831  0.6694507967640059   T   T   T
  0.4087540783191683  0.3509082121601630  0.7740436093457111   T   T   T
  0.7765115390311129  0.5278493326890098  0.1412684003215084   T   T   T
 -0.0137880267064758  0.7361922094581175  0.5350605961373334   T   T   T
  0.0903088360876926  0.9653626439913403  0.3565911748780402   T   T   T
  0.6023845053249351  0.4788348508478120  0.5331943306383485   T   T   T
  0.5614468590319289  0.0582081489710117  0.9327200468137632   T   T   T
  0.7314260605174001  0.5205775277857615  0.7647915202428451   T   T   T
  0.6007683101825316  0.9870684271427360  0.3465169339665101   T   T   T
  0.6528972369155150  0.7281194084549973  0.2179252922307100   T   T   T
  0.3226386418457673  0.6154667665047625  0.9367554338563878   T   T   T
  0.1297752258448944  0.2519413438086494  0.1691739820718752   T   T   T
  0.7135068898721568  0.2804500259868580  0.8765523029616302   T   T   T
  0.6504651008998297  0.9527581840712780  0.0985032818920903   T   T   T
  0.3287942422977898  0.1085924337713288  0.3076244714542199   T   T   T
  0.2990478358548220  0.5172997075347745  0.6337269994640766   T   T   T
  0.7304625396884732  0.6398090711772340  0.8785927370178449   T   T   T
  0.0028060789674982  0.4601806645729502  0.3889874064850931   T   T   T
  0.4901891355360493  0.9733960085222286  0.6147751646148386   T   T   T
  0.3324545477685031  0.6320668007554975  0.8098939710770520   T   T   T
  0.0929240790843659  0.6153343398431744  0.2776214660859651   T   T   T
  0.0604536031074948  0.5955700604704774  0.1596125325534788   T   T   T
  0.6675737086573604  0.8286459347679461  0.0745778449691255   T   T   T
  0.8918273450159089  0.7583204245721882  0.3062927733248577   T   T   T
  0.4930105596887160  0.4938355749083826  0.8009511779666307   T   T   T
  0.6063926524827564  0.4775543989673058  0.2726803096953027   T   T   T
  0.2365782784984664  0.4004046591296046  0.6657150165240382   T   T   T
  0.6861790174475003  0.5802072957289721  0.3078758121165904   T   T   T
  0.7499803430647146  0.3993154511294961  0.8388395725555994   T   T   T
  0.8795846187344674  0.2977120064298883  0.9190185859226178   T   T   T
  0.3112652162847345  0.3692059962745076  0.0998295997095817   T   T   T
  0.8092975586571581  0.2694004833987194  0.1014245166032976   T   T   T
  0.4548355031163148  0.2130552219682073  0.5979225753576207   T   T   T
  0.6292660817716146  0.9739395928339295  0.7434053260718044   T   T   T
  0.1024420535856568  0.9447666576077535  0.5083621004759550   T   T   T
  0.2818293195796913  0.4092542775348129  0.9007701158766571   T   T   T
  0.6564192767985287  0.0770278634152338  0.1621704189750485   T   T   T
  0.6591347679709495  0.7032752762654808  0.7811909175302043   T   T   T
  0.2124750408398078  0.2203759157314940  0.6912729513541985   T   T   T
  0.9469639316964197  0.5485447573228353  0.1899849752761330   T   T   T
  0.1720766074558648  0.6864257500313480  0.4168333881848023   T   T   T
  0.9702222904288694  0.4063793899869211  0.0738521132843392   T   T   T
  0.5033619704677220  0.1159475292908778  0.1321592877943712   T   T   T
  0.9120681700422604  0.0778776992592568  0.9776853618141750   T   T   T
  0.4895806659624010  0.6090959624990271  0.2330626067508517   T   T   T
  0.9430442811710585  0.2823510939298227  0.8054288995100400   T   T   T
  0.7975607352697421  0.0702147907832591  0.6728409930546013   T   T   T
  0.4742393155135910  0.3935717326641121  0.9810602793823030   T   T   T
  0.1128029917359310  0.2258804592311492  0.7614140812791043   T   T   T
  0.0674964658771434  0.0184272724437151  0.2443660523418348   T   T   T
  0.0003399017308655  0.8863195803115225  0.5359377692809207   T   T   T
  0.9349284413841323  0.0548300678801632  0.5457875729341963   T   T   T
  0.2540632010523152  0.4503539871984965  0.0268152957605482   T   T   T
  0.4831467804535547  0.9122508597495563  0.5096957777455050   T   T   T
  0.2891183441834412  0.7328257577240735  0.9719868823478833   T   T   T
  0.6600838594768771  0.1179736350896744  0.9720104065632439   T   T   T
  0.1738294882068411  0.8146451541797702  0.4229118639728585   T   T   T
  0.1271205271002705  0.4298290052169409  0.7163880059594151   T   T   T
  0.2594887644127434  0.7654305264011663  0.6008329451745704   T   T   T
  0.9006926033878623  0.7272242304452522  0.7388796867133341   T   T   T
  0.4201265847755307  0.4366516220397296  0.0903346766186676   T   T   T
  0.1267889551399277  0.6996269876442339  0.9091049677640601   T   T   T
  0.7599619626382005  0.9536978262731889  0.0447671537386899   T   T   T
  0.4027340437727370  0.4526852427193948  0.8935804022520805   T   T   T
  0.4481362972293940  0.6183498612158157  0.9417241935146333   T   T   T
  0.5855447961007469  0.7442914207587985  0.9152398637254491   T   T   T
  0.0641934015396900  0.2560897337532324  0.2784416564620266   T   T   T
  0.0254211506714678  0.2195687297034313  0.5352690208456214   T   T   T
  0.5316460976511335  0.0217134333604922  0.8210038552695244   T   T   T
  0.8637721650874752  0.1054155292000751  0.0911079674381754   T   T   T
  0.0543844049730946  0.8658384924555954  0.0954615340398034   T   T   T
  0.4787560591400050  0.4967865877282195  0.2801698350382117   T   T   T
  0.4096784322618006  0.1453534144721886  0.0452403820774566   T   T   T
  0.6053656713457949  0.0146878180538154  0.6259738671454839   T   T   T
  0.6329577882895882  0.5627354975088845  0.8497075281054836   T   T   T
  0.6311919607597296  0.4965344876506490  0.3912509761028066   T   T   T
  0.2765582108101390  0.5402476351977686  0.7576372839245643   T   T   T
  0.1653946984203389  0.1684354924368816  0.9483810165439176   T   T   T
  0.5042825185682153  0.5856947946669240  0.1153247017489497   T   T   T
  0.9391173274387773  0.5506066735996282  0.3137218352464957   T   T   T
  0.9071806960243687  0.9358987655843145  0.1812683996933768   T   T   T
  0.9880816313005346  0.1198807860591066  0.3748675714489955   T   T   T
  0.2721823114051572  0.5410801555217777  0.3255808433430577   T   T   T
  0.0067069181803633  0.3809226503164568  0.8475788230022162   T   T   T
  0.7468899737368159  0.0162576661723510  0.2297977346902046   T   T   T
  0.7396418125191884  0.8150289313755842  0.1744073341231004   T   T   T
  0.7212617939104715  0.1880294817479916  0.1516292339556202   T   T   T
  0.6628431961781553  0.9120379347865534  0.9059380809484868   T   T   T
  0.3396474025824344  0.0364946037803612  0.1993719111107703   T   T   T
  0.8835770005741341  0.4699934120255837  0.4928811307452729   T   T   T
  0.6684181484223198  0.1926718970235804  0.8031000147500220   T   T   T
  0.9762580964732613  0.9085439324788780  0.3442102690009497   T   T   T
  0.8869532513282168  0.9300736651445082  0.7218059767484517   T   T   T
  0.1863215600951490  0.5645455209498812  0.5848210759230207   T   T   T
  0.8194043202488709  0.5688245005125621  0.8411762599398567   T   T   T
  0.5321563176745232  0.1747991912768490  0.6913840731065024   T   T   T
 -0.0053210181194174  0.5249099499248105  0.6494690346677093   T   T   T
  0.8375409307974555  0.8532616161413236  0.8997712796030204   T   T   T
  0.8956681132352311  0.4417690293995857  0.1637585968157793   T   T   T
  0.0533318178530283  0.0620084244059406  0.5419980770472058   T   T   T
  0.0814981952349904  0.3991389586034566  0.5176227533507887   T   T   T
  0.2705550488063460  0.4297023100668093  0.1976894998092243   T   T   T
  0.3217053375828607  0.2070417903396042  0.4502430571200159   T   T   T
  0.2794735437335935  0.3541201540865619  0.7721687049904845   T   T   T
  0.3638461243804479  0.8910123013130247  0.7238779911025883   T   T   T
  0.7453417918746571  0.6551849407966966  0.0003436071890218   T   T   T
  0.7786767890919492  0.1709098818172519  0.7463221498449413   T   T   T
  0.1475893069942769  0.3380531565758779  0.9345622771637294   T   T   T
  0.2077973865011266  0.3020818894084083  0.6008736200922078   T   T   T
  0.4969997903927666  0.1063507552843720  0.4849161272834189   T   T   T
  0.4314501358102080  0.7741182127561297  0.8483308551226065   T   T   T
  0.2592837024513829  0.7658580653597364  0.1592946368680679   T   T   T
  0.7841918623243659  0.6878568975354671  0.3201121342456201   T   T   T
  0.9285798366226943  0.9586772240793855  0.0061779342648680   T   T   T
  0.0515926700702183  0.8466258179044316  0.7719363207097759   T   T   T
  0.0542734339160680  0.5558126637508906  0.4655099390728012   T   T   T
  0.4897629966424406  0.9134026491201853  0.1700978812973653   T   T   T
  0.0640397975852271  0.0412261985042799  0.9111378167570008   T   T   T
  0.2029604662543347  0.6184013973488710  0.0939616302496836   T   T   T
  0.8558444635520769  0.6254256932155577  0.1728099107304513   T   T   T
  0.6292472695937936  0.3122514974136316  0.9552803947830510   T   T   T
  0.8958024030863878  0.6504771077514842  0.5659918357358230   T   T   T
  0.7931756781196532  0.2151002959992055  0.9424395781910578   T   T   T
  0.2689167627119503  0.8980989173338291  0.2689527934871629   T   T   T
  0.7362806822460662  0.8032884922389999  0.7591335494588952   T   T   T
  0.1087191772236061  0.4254502579631499  0.3329897621519955   T   T   T
  0.5730326383081452  0.6330263594722935  0.5695090344920783   T   T   T
  0.6776313350309833  0.6129994188562111  0.1610767272647458   T   T   T
  0.3601707595512937  0.0928149912264658  0.7251373020570347   T   T   T
  0.8983301259717894  0.2789728282661906  0.1983078435613157   T   T   T
  0.9557536175132678  0.2963949474852752  0.0184163846741696   T   T   T
  0.0287010950209980  0.6784060306470138  0.0745237813022330   T   T   T
  0.1849756670466463  0.1178126052193761  0.6258538052861284   T   T   T
  0.6176127954031710  0.6639997523006049  0.3943445109281054   T   T   T
  0.0254340812450852  0.5758100840981597  0.8256067447273941   T   T   T
  0.7708036102358067  0.1230531817701529  0.5688344559657912   T   T   T
  0.8238837136951102  0.4038983601120411  0.9391705497680471   T   T   T
  0.1860655699017041  0.8952907470223181  0.9651556639504136   T   T   T
  0.5280893685038059  0.7979188647345814  0.2931503873431899   T   T   T
  0.8274285988490976  0.4887134695999037  0.6650432610589195   T   T   T
  0.3387846593983196  0.7515885535743947  0.3656225280123626   T   T   T
  0.8199076184819245  0.0389752153445188  0.3989981245703408   T   T   T
  0.6339285793806865  0.1036824649787132  0.3773866380618767   T   T   T
  0.6880484054025955  0.9196494695582470  0.4047291006718844   T   T   T
  0.3782524069648436  0.2761898269351892  0.6695372680325333   T   T   T
  0.7142960389215085  0.7578279271455289  0.4943448650556026   T   T   T
  0.1648874855881991  0.9233474970412552  0.6203984852190061   T   T   T
  0.2138756808347921  0.0525199191189255  0.0661919837506693   T   T   T
  0.9245415836711752  0.6892841865555829  0.9159820269531341   T   T   T
  0.4359944203261562  0.1849876869914436  0.8559152176982392   T   T   T
  0.0717287021498860  0.6973362135051300  0.6396876002180579   T   T   T
  0.2074787510605969  0.9593182478133341  0.7922696506459564   T   T   T
  0.3216394544801493  0.0382818608472951  0.5410839511801439   T   T   T
  0.0716676654465850  0.3836878854285953  0.1343841621102765   T   T   T
  0.9753155291222930  0.4982503774185348  0.0000643117432608   T   T   T
  0.1869932868027239  0.6897776876484993  0.2869165820045870   T   T   T
  0.0497559661681342  0.1803738040015112  0.1135516769660012   T   T   T
  0.1781606464571591  0.5202852816578396  0.8973677226278635   T   T   T
  0.5802921621198552  0.7495363280288565  0.1115977090667408   T   T   T
  0.2294621982865686  0.0423058425566248  0.3653170785080069   T   T   T
  0.3140713725746057  0.2858447528462035  0.9437567293378375   T   T   T
  0.3370472514151389  0.9020849028360242  0.0305442228672739   T   T   T
  0.8764880351062251  0.7755337435089845  0.0728228805246471   T   T   T
  0.4954767425296032  0.8863422659044128 -0.0053445632912795   T   T   T
  0.9636833735791746  0.3348718056935848  0.6393183259506394   T   T   T
  0.8332894613427159  0.3301513843573404  0.7648144759593092   T   T   T
  0.5637309662695805  0.4747242419985308 -0.0149018033098990   T   T   T
  0.4144531962031086  0.7059627625838492  0.6816759178828192   T   T   T
  0.5768929987262557  0.8599248304571355  0.7324944244279845   T   T   T
  0.3259718329633677  0.3642581747481866  0.2749991527898020   T   T   T
  0.8292816929671418  0.0346233233234215  0.8780760646159712   T   T   T
  0.3747667570045667  0.6447365999667587  0.2252512925220684   T   T   T
  0.8984422463489391  0.7784122592088014  0.4315552367473820   T   T   T
  0.9035972187401216  0.1249715115087205  0.7042625300943414   T   T   T
  0.7771515662218530  0.4865691533775716  0.2626318229744757   T   T   T
  0.4289501240261249  0.7040995360463186  0.5135834373185334   T   T   T
  0.7340319113970436  0.3655832859076089  0.1254368576798573   T   T   T
  0.0314277819892791  0.0286070319007225  0.7284156694974463   T   T   T
  0.7218824241906940  0.6327537947945845  0.6901938477277280   T   T   T
  0.7814910203945127  0.9288256604853657  0.5620850553639741   T   T   T
  0.4605991333606917  0.1639530558939898  0.2448811810152041   T   T   T
  0.2200930967737648  0.1617414681822043  0.2349840006211062   T   T   T
  0.2588171510602041  0.7338529475601510  0.7940313532137785   T   T   T
  0.1314210655856580  0.5206313854172494  0.0985604079446606   T   T   T
  0.4097886108376262  0.9968260664629224  0.3501350956204567   T   T   T
  0.7267299889999990  0.4071100060000035  0.5228999850000022   F   F   F
  0.6671599749999970  0.2682999969999997  0.6026600000000002   F   F   F
  0.5249400140000020  0.3791800139999992  0.5358600019999997   F   F   F
  0.7735800150000003  0.1941000070000030  0.3071800470000028   F   F   F
  0.4065000120000022  0.3670099969999967  0.4111399649999967   F   F   F
  0.2841599879999990  0.4714300039999983  0.4837000070000030   F   F   F
  0.6492999789999985  0.3022800090000004  0.4019199609999973   F   F   F
  0.8359900120000034  0.3312399980000009  0.3928999899999965   F   F   F
  0.4309700129999996  0.4521600010000029  0.6999499799999995   F   F   F
  0.6191200020000025  0.4861699940000008  0.6613100169999981   F   F   F
  0.4671100079999988  0.5404099819999999  0.4720399979999996   F   F   F
  0.4676899910000003  0.3354099989999995  0.2450599670000031   F   F   F
  0.5627700089999976  0.3884699939999976  0.7797200079999982   F   F   F
 
  0.00000000E+00  0.00000000E+00  0.00000000E+00
  0.00000000E+00  0.00000000E+00  0.00000000E+00
  0.00000000E+00  0.00000000E+00  0.00000000E+00
  0.00000000E+00  0.00000000E+00  0.00000000E+00
  0.00000000E+00  0.00000000E+00  0.00000000E+00
  0.00000000E+00  0.00000000E+00  0.00000000E+00
  0.00000000E+00  0.00000000E+00  0.00000000E+00
  0.00000000E+00  0.00000000E+00  0.00000000E+00
  0.00000000E+00  0.00000000E+00  0.00000000E+00
  0.00000000E+00  0.00000000E+00  0.00000000E+00
  0.00000000E+00  0.00000000E+00  0.00000000E+00
  0.00000000E+00  0.00000000E+00  0.00000000E+00
  0.00000000E+00  0.00000000E+00  0.00000000E+00
  0.00000000E+00  0.00000000E+00  0.00000000E+00
  0.00000000E+00  0.00000000E+00  0.00000000E+00
  0.00000000E+00  0.00000000E+00  0.00000000E+00
  0.00000000E+00  0.00000000E+00  0.00000000E+00
  0.00000000E+00  0.00000000E+00  0.00000000E+00
  0.00000000E+00  0.00000000E+00  0.00000000E+00
  0.00000000E+00  0.00000000E+00  0.00000000E+00
  0.00000000E+00  0.00000000E+00  0.00000000E+00
  0.00000000E+00  0.00000000E+00  0.00000000E+00
  0.00000000E+00  0.00000000E+00  0.00000000E+00
  0.00000000E+00  0.00000000E+00  0.00000000E+00
  0.00000000E+00  0.00000000E+00  0.00000000E+00
  0.00000000E+00  0.00000000E+00  0.00000000E+00
  0.00000000E+00  0.00000000E+00  0.00000000E+00
  0.00000000E+00  0.00000000E+00  0.00000000E+00
  0.00000000E+00  0.00000000E+00  0.00000000E+00
  0.00000000E+00  0.00000000E+00  0.00000000E+00
  0.00000000E+00  0.00000000E+00  0.00000000E+00
  0.00000000E+00  0.00000000E+00  0.00000000E+00
  0.00000000E+00  0.00000000E+00  0.00000000E+00
  0.00000000E+00  0.00000000E+00  0.00000000E+00
  0.00000000E+00  0.00000000E+00  0.00000000E+00
  0.00000000E+00  0.00000000E+00  0.00000000E+00
  0.00000000E+00  0.00000000E+00  0.00000000E+00
  0.00000000E+00  0.00000000E+00  0.00000000E+00
  0.00000000E+00  0.00000000E+00  0.00000000E+00
  0.00000000E+00  0.00000000E+00  0.00000000E+00
  0.00000000E+00  0.00000000E+00  0.00000000E+00
  0.00000000E+00  0.00000000E+00  0.00000000E+00
  0.00000000E+00  0.00000000E+00  0.00000000E+00
  0.00000000E+00  0.00000000E+00  0.00000000E+00
  0.00000000E+00  0.00000000E+00  0.00000000E+00
  0.00000000E+00  0.00000000E+00  0.00000000E+00
  0.00000000E+00  0.00000000E+00  0.00000000E+00
  0.00000000E+00  0.00000000E+00  0.00000000E+00
  0.00000000E+00  0.00000000E+00  0.00000000E+00
  0.00000000E+00  0.00000000E+00  0.00000000E+00
  0.00000000E+00  0.00000000E+00  0.00000000E+00
  0.00000000E+00  0.00000000E+00  0.00000000E+00
  0.00000000E+00  0.00000000E+00  0.00000000E+00
  0.00000000E+00  0.00000000E+00  0.00000000E+00
  0.00000000E+00  0.00000000E+00  0.00000000E+00
  0.00000000E+00  0.00000000E+00  0.00000000E+00
  0.00000000E+00  0.00000000E+00  0.00000000E+00
  0.00000000E+00  0.00000000E+00  0.00000000E+00
  0.00000000E+00  0.00000000E+00  0.00000000E+00
  0.00000000E+00  0.00000000E+00  0.00000000E+00
  0.00000000E+00  0.00000000E+00  0.00000000E+00
  0.00000000E+00  0.00000000E+00  0.00000000E+00
  0.00000000E+00  0.00000000E+00  0.00000000E+00
  0.00000000E+00  0.00000000E+00  0.00000000E+00
  0.00000000E+00  0.00000000E+00  0.00000000E+00
  0.00000000E+00  0.00000000E+00  0.00000000E+00
  0.00000000E+00  0.00000000E+00  0.00000000E+00
  0.00000000E+00  0.00000000E+00  0.00000000E+00
  0.00000000E+00  0.00000000E+00  0.00000000E+00
  0.00000000E+00  0.00000000E+00  0.00000000E+00
  0.00000000E+00  0.00000000E+00  0.00000000E+00
  0.00000000E+00  0.00000000E+00  0.00000000E+00
  0.00000000E+00  0.00000000E+00  0.00000000E+00
  0.00000000E+00  0.00000000E+00  0.00000000E+00
  0.00000000E+00  0.00000000E+00  0.00000000E+00
  0.00000000E+00  0.00000000E+00  0.00000000E+00
  0.00000000E+00  0.00000000E+00  0.00000000E+00
  0.00000000E+00  0.00000000E+00  0.00000000E+00
  0.00000000E+00  0.00000000E+00  0.00000000E+00
  0.00000000E+00  0.00000000E+00  0.00000000E+00
  0.00000000E+00  0.00000000E+00  0.00000000E+00
  0.00000000E+00  0.00000000E+00  0.00000000E+00
  0.00000000E+00  0.00000000E+00  0.00000000E+00
  0.00000000E+00  0.00000000E+00  0.00000000E+00
  0.00000000E+00  0.00000000E+00  0.00000000E+00
  0.00000000E+00  0.00000000E+00  0.00000000E+00
  0.00000000E+00  0.00000000E+00  0.00000000E+00
  0.00000000E+00  0.00000000E+00  0.00000000E+00
  0.00000000E+00  0.00000000E+00  0.00000000E+00
  0.00000000E+00  0.00000000E+00  0.00000000E+00
  0.00000000E+00  0.00000000E+00  0.00000000E+00
  0.00000000E+00  0.00000000E+00  0.00000000E+00
  0.00000000E+00  0.00000000E+00  0.00000000E+00
  0.00000000E+00  0.00000000E+00  0.00000000E+00
  0.00000000E+00  0.00000000E+00  0.00000000E+00
  0.00000000E+00  0.00000000E+00  0.00000000E+00
  0.00000000E+00  0.00000000E+00  0.00000000E+00
  0.00000000E+00  0.00000000E+00  0.00000000E+00
  0.00000000E+00  0.00000000E+00  0.00000000E+00
  0.00000000E+00  0.00000000E+00  0.00000000E+00
  0.00000000E+00  0.00000000E+00  0.00000000E+00
  0.00000000E+00  0.00000000E+00  0.00000000E+00
  0.00000000E+00  0.00000000E+00  0.00000000E+00
  0.00000000E+00  0.00000000E+00  0.00000000E+00
  0.00000000E+00  0.00000000E+00  0.00000000E+00
  0.00000000E+00  0.00000000E+00  0.00000000E+00
  0.00000000E+00  0.00000000E+00  0.00000000E+00
  0.00000000E+00  0.00000000E+00  0.00000000E+00
  0.00000000E+00  0.00000000E+00  0.00000000E+00
  0.00000000E+00  0.00000000E+00  0.00000000E+00
  0.00000000E+00  0.00000000E+00  0.00000000E+00
  0.00000000E+00  0.00000000E+00  0.00000000E+00
  0.00000000E+00  0.00000000E+00  0.00000000E+00
  0.00000000E+00  0.00000000E+00  0.00000000E+00
  0.00000000E+00  0.00000000E+00  0.00000000E+00
  0.00000000E+00  0.00000000E+00  0.00000000E+00
  0.00000000E+00  0.00000000E+00  0.00000000E+00
  0.00000000E+00  0.00000000E+00  0.00000000E+00
  0.00000000E+00  0.00000000E+00  0.00000000E+00
  0.00000000E+00  0.00000000E+00  0.00000000E+00
  0.00000000E+00  0.00000000E+00  0.00000000E+00
  0.00000000E+00  0.00000000E+00  0.00000000E+00
  0.00000000E+00  0.00000000E+00  0.00000000E+00
  0.00000000E+00  0.00000000E+00  0.00000000E+00
  0.00000000E+00  0.00000000E+00  0.00000000E+00
  0.00000000E+00  0.00000000E+00  0.00000000E+00
  0.00000000E+00  0.00000000E+00  0.00000000E+00
  0.00000000E+00  0.00000000E+00  0.00000000E+00
  0.00000000E+00  0.00000000E+00  0.00000000E+00
  0.00000000E+00  0.00000000E+00  0.00000000E+00
  0.00000000E+00  0.00000000E+00  0.00000000E+00
  0.00000000E+00  0.00000000E+00  0.00000000E+00
  0.00000000E+00  0.00000000E+00  0.00000000E+00
  0.00000000E+00  0.00000000E+00  0.00000000E+00
  0.00000000E+00  0.00000000E+00  0.00000000E+00
  0.00000000E+00  0.00000000E+00  0.00000000E+00
  0.00000000E+00  0.00000000E+00  0.00000000E+00
  0.00000000E+00  0.00000000E+00  0.00000000E+00
  0.00000000E+00  0.00000000E+00  0.00000000E+00
  0.00000000E+00  0.00000000E+00  0.00000000E+00
  0.00000000E+00  0.00000000E+00  0.00000000E+00
  0.00000000E+00  0.00000000E+00  0.00000000E+00
  0.00000000E+00  0.00000000E+00  0.00000000E+00
  0.00000000E+00  0.00000000E+00  0.00000000E+00
  0.00000000E+00  0.00000000E+00  0.00000000E+00
  0.00000000E+00  0.00000000E+00  0.00000000E+00
  0.00000000E+00  0.00000000E+00  0.00000000E+00
  0.00000000E+00  0.00000000E+00  0.00000000E+00
  0.00000000E+00  0.00000000E+00  0.00000000E+00
  0.00000000E+00  0.00000000E+00  0.00000000E+00
  0.00000000E+00  0.00000000E+00  0.00000000E+00
  0.00000000E+00  0.00000000E+00  0.00000000E+00
  0.00000000E+00  0.00000000E+00  0.00000000E+00
  0.00000000E+00  0.00000000E+00  0.00000000E+00
  0.00000000E+00  0.00000000E+00  0.00000000E+00
  0.00000000E+00  0.00000000E+00  0.00000000E+00
  0.00000000E+00  0.00000000E+00  0.00000000E+00
  0.00000000E+00  0.00000000E+00  0.00000000E+00