Amorphous GeAsSe                        
   1.00000000000000     
    19.0078869700586850    0.0000000000000000    0.0000000000000000
     0.0000000000000000   19.0078869700586850    0.0000000000000000
     0.0000000000000000    0.0000000000000000   19.0078869700586850
   Ge   As   Se
    96    72    96
Direct
  0.1007159891171037  0.7056061761726794  0.9185373407368305
  0.8153327254852822  0.0797327888384477  0.2714426465811716
  0.9037067550388852  0.9736078770962080  0.4997401918335022
  0.3130737634527362  0.6396162794199919  0.0519069198865818
  0.1263318075661039  0.4047678704442156  0.0001306583817207
  0.8159517030626668  0.0423536313135362  0.1443561849516380
  0.1946170265290322  0.7819051943763679  0.1476315671082385
  0.0969336187390095  0.4988953350082246  0.1920153706823557
  0.0739232442976189  0.2012055988857731  0.7022362746821290
  0.0193393055871451  0.9306135583171790  0.7858261301606666
  0.3560103638237416  0.4595877263612523  0.7144384045715682
  0.3522516921640129  0.7292953999579891  0.1429824641475678
  0.2966875812188475  0.3132211378258053  0.2630050156332076
  0.1764188827149791  0.0310250575606831  0.8495490967507482
  0.7360271281953888  0.2625176989387073  0.9418425739971070
  0.0270500857955983  0.7066177312201634  0.7039424894061604
  0.3350234885555112  0.8788899790457376  0.5440485695442790
  0.7825597464527742  0.0826963566435076  0.6531648405103078
  0.1514507581166203  0.2182729288271789  0.3737408189827214
  0.5549598725683657  0.5802062322611503  0.7393640262775699
  0.6912629791063677  0.1331830519664829  0.2764708019428854
  0.6104116502683161  0.9490015140857950  0.7263469021719734
  0.0922421610611725  0.8674935803566137  0.5621627044653628
  0.4825511260537249  0.4155086485224302  0.3438258267511897
  0.1139633165059626  0.6193670701935542  0.6563529597869872
  0.4858054547286268  0.6937950637918059  0.7978448245092820
  0.3971783165604681  0.5494927007286862  0.5317934932922286
  0.4330116510651626  0.6202034204663195 -0.0036483005514022
  0.5402986948144515  0.2191006787441379  0.9332377384365905
  0.4800337971703741  0.6864975375672836  0.3300970597463703
  0.2681253446038304  0.2429062498458928  0.1513557428394110
  0.1470729231378274  0.9085738665848038  0.0200761877425468
  0.5183838196025338  0.3165316536188473  0.2631056679919671
  0.4361225722293097  0.9553288256783329  0.7278761223081134
  0.5732512085400712  0.3851150741191600  0.1052145508249148
  0.2931233221181418  0.3698687670691672  0.4303043776423343
  0.5265653090922250  0.0174755062029800  0.6451324204025012
  0.7687876186018742  0.8933547128968689  0.3870669884507215
  0.5949485298519964  0.4839196071441620  0.0052158571009459
  0.1013730984911398  0.0470293841931285  0.4903705068214056
  0.8810085916003937  0.4549635325683394  0.8669232966080248
  0.4622926018929137  0.9644808798838733  0.3314808573324535
  0.6987351886871859  0.6897721030470583  0.0629439531452834
  0.8478348015704587  0.1152815371614854  0.9594839745358774
  0.4254355813238663  0.5819635059131948  0.1808686974852223
  0.3403019876182639  0.1703083487491316  0.7709353791075697
  0.0901753413697666  0.6910345838537980  0.3006969777573594
  0.2789034288638645  0.7434469998219068  0.3557101069353811
  0.2085555961475247  0.2706026000319665  0.5622158676203379
  0.3498915094608560  0.7380289118334906  0.6644766760335593
  0.2396065385655040  0.3466595580794531  0.8197412696884026
  0.5268347841039904  0.3625263709552483  0.6993628286529973
  0.5904620084956744  0.1604490979741511  0.7153610313955779
  0.8756846750963990  0.6164862113294644  0.0245887145905163
  0.0060708388391289  0.1079385880906648  0.8379273757027709
  0.1195643947831806  0.8097528530515670  0.4378027622015866
  0.8007090775904218  0.6115379298018984  0.8490248133337862
  0.7283559435829727  0.0091972825412304  0.7517324759308560
  0.3044688470633620  0.4394084916447310  0.2074499526539755
  0.1944838801486158  0.1032449978043011  0.6676591213775079
  0.3750003246090967  0.3530681386695492  0.6323845930973657
  0.6327730816534508  0.8483202808705222  0.4447181217423254
  0.5738281846527795  0.8720449152513877  0.2166867403825785
  0.9101548206852211  0.3995578116308430 -0.0073460887732050
  0.1483046185606175  0.2612171183371964  0.8841016866508654
  0.8180309736452954  0.5202048414834514  0.3406985494181451
  0.3852915677766611  0.1583911472344446  0.2806763503054461
  0.1126871935172260  0.0219370252880953  0.3139786289413447
  0.7303322485923920  0.0158047798855469  0.4729465536505711
  0.4325027677182575  0.1096058833482564  0.5795319276787074
  0.9274809539842495  0.8905407124006073  0.6939301044162967
  0.3362978447312323  0.8589614395627854  0.1018100509964997
  0.0142511839629873  0.2959605294259585  0.3906610173147258
  0.2906406468895112  0.5105979846818270  0.0878186485932262
  0.9298483415681986  0.3046547214697944  0.5935579106555875
  0.7490995430525405  0.5213873995384399  0.5628190178292337
  0.7275641587207371  0.1823351152675280  0.4557696687587323
  0.9068073345066389  0.2197203350440049  0.0201516319761166
  0.9176128765929796  0.6395097863378556  0.7512721342789470
  0.5642773135430376  0.0714416233409003  0.8915327512624498
  0.1763900891238071  0.4289702847276110  0.3728501784865515
  0.7578399807280387  0.2522076247025688  0.2433287174339622
  0.9954884021745675  0.2046206585611507  0.2345052303643149
  0.8129556509178620  0.3676470830120204  0.4565232216604171
  0.4845179336684918  0.8168180465780693  0.9298808466411257
  0.8445203400052033  0.1968736444736151  0.7133734891373789
  0.8596125119126637  0.8500406396416228  0.9403440126300908
  0.5236207855971603  0.8228957384046307  0.5368195742563323
  0.4171796136644663  0.4467809910264766  0.8356958927537264
  0.2378433860334893  0.7004276751836332  0.9550386990548260
  0.1644832815810907  0.8744656983293786  0.8064813852151280
  0.0424521699513875  0.0399590023835997  0.0964275581703706
  0.6144553187325240  0.4906267658149249  0.2715823855171556
  0.3561546924987329  0.9505290951181756  0.8928876567406974
  0.7560115270219967  0.8501262974639473  0.0829940899627252
  0.5663256324155608  0.5678730247328828  0.6060980767778217
  0.8782295508110288  0.5379181387697688  0.6001950240981377
  0.7367258784067873  0.2856944263441248  0.3765951166262821
  0.4665525065017426  0.0162162224872173  0.1455207223853762
  0.7120166649255328  0.3774596864610816  0.8057557891731564
  0.6884882977287058  0.7339092399970437  0.4905074922122606
  0.4072064676609921  0.8261609659579505  0.7495001119687092
  0.7171962436486067  0.1291330648778296  0.9621627337240322
  0.8780029079008773  0.0844192825248008  0.8358785789468702
  0.7778504297357131  0.7987875720307087  0.5623815328232059
  0.2522608328315215  0.9951271878303568  0.6028775102415184
  0.9824287047347626  0.7482636166634377  0.0765486655308814
  0.5224465865610185  0.1848276836626296  0.2804395099765151
  0.6454945358263285  0.8234163027073579  0.7029136186117874
  0.2296277399227523  0.4337129009127720  0.9189606088283279
  0.4456394656474144  0.4242849611890758  0.5415739604758653
  0.4248995666100117  0.3468553147669486  0.4382302880906734
  0.3426328328194296  0.4595228724549266  0.9739990489497361
  0.3527828905266852  0.0762777211458901  0.1749651976200785
  0.4034953930317583  0.2633797716724404  0.9300884294571314
  0.6350921327560126  0.0727791623227059  0.1719653119829643
  0.4245629055132382  0.9580143529630222  0.0336713580896397
  0.2238201013621596  0.5361339656527804  0.8368565921654550
  0.3119581994773990  0.8727519770572622  0.3356534263838178
  0.3411282136685384  0.1494178614918645 -0.0208892449370633
  0.2148192865779282  0.6366866267337433  0.4727277179414546
  0.7293188817095967  0.7683019615012493  0.2196025763702772
  0.2260077159919493  0.0109334331299970  0.4744960228703053
  0.9309131032601059  0.5859683383442428  0.4643044633931572
  0.3682473523200018  0.3075017624517377  0.8101696798034737
  0.9080573955602087  0.9569349703854817  0.8595184439579503
  0.6006106196799949  0.4495997779822532  0.4030630154504110
  0.2259207954758030  0.4516499037474386  0.7352078257913257
  0.1516428833989502  0.1838799972158741  0.1782458603211780
  0.8801362950952780  0.0098556595045415  0.0334805058181579
  0.4881844055818449  0.7431297480395317  0.1462296688876701
  0.8711796748790868  0.5032212129143807  0.1653822690572290
  0.2381529898642791  0.8844361640875374  0.4444415693409686
  0.8010501361324903  0.5048406548948431  0.0511552887803730
  0.3024796897962151  0.8417147550643819  0.8286127955564035
  0.7683554653590959  0.4130555181647829  0.6876035926003949
  0.8020102383889762  0.2993137129459856  0.6271926022549505
  0.6711349101779683  0.2008583974304540  0.5714753607698757
  0.4990255306084487  0.6316631304368495  0.5115124926169422
  0.3754283495756026  0.1828077427284806  0.1039250844888162
  0.7903364164361359  0.9103113414419178  0.8165481806429193
  0.7715222412600089  0.6934891998086637  0.3993626321470400
  0.6853655428414064  0.6230885596703273  0.6188398813994793
  0.8235949301439323  0.8188446664238033  0.7284196518432435
  0.9690060477290817  0.7472945736876214  0.3008650298747256
  0.8270792116436450  0.8037370691786451  0.2977608611981134
  0.8595192544194469  0.8457480896034316  0.4725489863844530
  0.0177656673243362  0.8672498976180357  0.2702242865556262
  0.5710115310063300  0.4364817375215582  0.5893620222883099
 -0.0061418570947988  0.4245036723419605  0.3494941360218545
  0.8910194238649606  0.9039652982346793  0.2374810516751011
  0.6754169556623060  0.6824158896763119  0.3049936656479840
  0.8572263408641547  0.3725159706259125  0.2021138722645177
  0.6672590420745571  0.0698714732401480  0.5839291796253193
  0.8672391513756109  0.4000073537030012  0.3338066543207655
  0.0385075804076647  0.3865783750503451  0.5947190337795643
  0.1273321091095274  0.5582064303485320  0.5415263423702577
  0.9532565251692048  0.6755614139682514  0.1854909923796757
  0.3591922962582141  0.3407142379446058  0.0281667555556714
  0.0492206618021106  0.6477112077412145  0.4828790619137966
  0.6237218423008044  0.3309726355689913  0.9335664137445986
  0.5512388687451085  0.2466207802130356  0.5322243044675399
  0.5371745060386490  0.6418268791660833  0.2144283735560891
  0.1781185048386184  0.9015711234318600  0.6571509920947052
  0.1285961629061868  0.7401522011696774  0.7881151129682462
  0.0911292128313147  0.5521070168275816  0.8438739350762239
  0.6846182635222873  0.4142312379455472  0.5203683563085917
  0.1213421790794125  0.5954855378624040  0.3865252436822865
  0.5890939411420102  0.7813631290204560  0.3306049137504964
  0.7747649633492223  0.9471005109995567  0.9876591220835925
  0.1596000739024494  0.5173121713134115  0.0724338866956375
  0.0212810330120012  0.2342326202544314  0.8229716875192297
  0.0968273409603211  0.3355826938914554  0.4900706493822991
  0.9229101443734447  0.5784188707740947  0.9035148034713829
  0.4588079947700755  0.3504346283047909  0.1536130133708711
  0.1719251798904017  0.7881287428291787  0.2884372462078513
  0.4656131776861810  0.5840778286847151  0.8803251130354302
  0.8110271082723227  0.3047896642306995  0.0454593100429488
  0.3332544761619998  0.6737556515935883  0.2571386931063838
  0.9065062505044309  0.2716118766754745  0.4691952484061321
  0.0148669057348373  0.0415867854840907  0.2265034883880479
  0.3646667933086715  0.5761388647570227  0.6528300590455657
  0.5205381670558777  0.7130093334148565  0.0246047327697828
  0.9022970874570959  0.7617738868291378  0.8111783970179081
  0.6813504040682258  0.8831693262101119  0.5910634494163713
  0.0839918702059172  0.8395269390487172  0.9201562054216257
  0.1259699691489524  0.1499091016043458  0.5600382214183482
  0.6394834855136914  0.2938050717035243  0.7186645733065103
  0.5500822065324626  0.5913860526417347  0.4007590210008489
  0.0567015717124953  0.5233342694471194  0.7228938583777800
  0.7391972175919022  0.5395258075634594  0.2455363406916755
  0.7404533897930582  0.5668865577643478  0.4344720827887985
  0.9481049482683090  0.1483556582324952  0.1183760821911094
  0.6090648276081426  0.2727674829831256  0.0505501631103108
  0.1657744049635657  0.3263237575066281  0.2854369802940304
  0.2500308181178204 -0.0000914252647226  0.9558229893874179
  0.2692878010823300  0.2398699024515591  0.4422765086660795
  0.4979972242646965  0.1537060706366161  0.8107014435495068
  0.5289163625618750  0.9522816627119346  0.8296792683314014
  0.8806310216195907  0.4698391576154747  0.7177257934850007
  0.0709713011210224  0.0546342908240782  0.9304644917749227
  0.4356203224151385  0.9091073584232771  0.2163409454561500
  0.9658801857807504  0.4881710104894701  0.0789159426288992
  0.4898979069653952  0.1545458738353320  0.4688129629772759
  0.0703405161905088  0.8328616145923707  0.1208080409753321
  0.0852818284626158  0.6374106365480660  0.1812490725848940
  0.4783672429624770  0.5194606211283743  0.0655655987651605
  0.2032789743279113  0.1271707171339220  0.2830990876118625
  0.8025598694050702  0.6889843917370940  0.1504434905249668
  0.6914868585340854  0.1103533719609946  0.8274585830027067
  0.0359273286273191  0.0945498302856184  0.3950481220865010
  0.8439000092618011  0.9684877650468204  0.6194230593487016
  0.7803392694748306  0.6934473562875273  0.9590324216970605
  0.4267343597810677  0.8607078998039844  0.3959133350429859
  0.7554449814657327  0.4906701671663214  0.8934568763814420
  0.3026741904316604  0.1823692328198860  0.6406299244212630
  0.6852816259634230  0.5691918628763036  0.7373416338380020
  0.4876314588482805  0.2138901521189183  0.6441355477453784
  0.2348674322893874  0.9076791411110513  0.1651575858373179
  0.8284712039601253  0.1051411529066543  0.4693401337848307
  0.5466066414625965  0.1672979286007753  0.1574572738559999
  0.8073147737366386  0.2996335804181470  0.8393526510910940
  0.9787666819963724  0.3388859511994463  0.2046801214182705
  0.2441129515341384  0.7990807188513237  0.6081210183828096
  0.6363081814066979  0.3648898293639819  0.2211378984664726
  0.6141395108655793  0.3130114822179596  0.3977864180616373
  0.8725852260954644  0.1926494424537561  0.2958730460720519
  0.8700390067266034  0.9829732310350158  0.3390584932428434
  0.9597361200913114  0.4609003289675818  0.4694185988899827
  0.5821015804006656  0.7557991395807101  0.8631505240102375
  0.3298298700652906  0.0114834407338352  0.7744200770951457
  0.5460617931746412  0.4551566105698142  0.7928093874235747
  0.2370924862110939  0.3019732322898582  0.0381437373772419
  0.0242315662011551  0.9790136760428528  0.5697533628330977
  0.4009291709599414  0.7591769909806025  0.5405177974374450
  0.9563054308722312  0.1854124644312786  0.6342248163065631
  0.0514279959728251  0.4405526324836581  0.8925861247512249
  0.2502412679794802  0.8218804461262281  0.0036065133926388
  0.9993259024871257  0.3024745541951893 -0.0033331267565728
  0.8995034921477570  0.8487746649741492  0.0756469828009856
  0.1589890007803753  0.0991337721222353  0.0873973420717040
  0.6836493981790329  0.5511646724605596  0.0843722290066376
  0.6497751326539786  0.0971190523798017  0.3964047483549676
  0.7367230085395423  0.9419132831833079  0.1754439095493786
  0.5383206849785670  0.9042997610708822  0.0202231354329194
  0.9206915435694576  0.5953628231536896  0.3344687980730039
  0.3892786022537170  0.0587961016921440  0.3688426144173410
  0.2184705879103754  0.1619140662193009  0.8364014169008855
  0.1043157967655318  0.3301739472131773  0.6853092297854223
  0.5378127344269833  0.7726784104469588  0.6583316648992655
  0.2121177089500323  0.6583511170021281  0.7308627402407132
  0.0347978086614525  0.0488027963880085  0.7286526655430530
  0.9911938777001238  0.7986951429334699  0.6138185539178359
  0.3311590103093068  0.7213575795424666  0.8676715964182719
  0.2129612982614431  0.5124833108047089  0.2684098189175352
  0.7331302323586089  0.1396450973222692  0.1128990310350138
  0.4945051341343222  0.9497354380093744  0.5398437399537421
  0.3087168091074159  0.5558010663961448  0.4360307010111523
  0.3967512401781180  0.4965125938508292  0.2837892727494374
  0.5855103722982157  0.9723298599493861  0.3074725589720534
  0.2695293873218503  0.3989003998113096  0.5578207576180537
  0.8591702004790109  0.6584658143147611  0.6322143395742902
  0.0266470943710246  0.8939956474000877  0.3978921280965046
  0.4544816342392755  0.0851813090170592  0.9846125821313916
 
  0.00000000E+00  0.00000000E+00  0.00000000E+00
  0.00000000E+00  0.00000000E+00  0.00000000E+00
  0.00000000E+00  0.00000000E+00  0.00000000E+00
  0.00000000E+00  0.00000000E+00  0.00000000E+00
  0.00000000E+00  0.00000000E+00  0.00000000E+00
  0.00000000E+00  0.00000000E+00  0.00000000E+00
  0.00000000E+00  0.00000000E+00  0.00000000E+00
  0.00000000E+00  0.00000000E+00  0.00000000E+00
  0.00000000E+00  0.00000000E+00  0.00000000E+00
  0.00000000E+00  0.00000000E+00  0.00000000E+00
  0.00000000E+00  0.00000000E+00  0.00000000E+00
  0.00000000E+00  0.00000000E+00  0.00000000E+00
  0.00000000E+00  0.00000000E+00  0.00000000E+00
  0.00000000E+00  0.00000000E+00  0.00000000E+00
  0.00000000E+00  0.00000000E+00  0.00000000E+00
  0.00000000E+00  0.00000000E+00  0.00000000E+00
  0.00000000E+00  0.00000000E+00  0.00000000E+00
  0.00000000E+00  0.00000000E+00  0.00000000E+00
  0.00000000E+00  0.00000000E+00  0.00000000E+00
  0.00000000E+00  0.00000000E+00  0.00000000E+00
  0.00000000E+00  0.00000000E+00  0.00000000E+00
  0.00000000E+00  0.00000000E+00  0.00000000E+00
  0.00000000E+00  0.00000000E+00  0.00000000E+00
  0.00000000E+00  0.00000000E+00  0.00000000E+00
  0.00000000E+00  0.00000000E+00  0.00000000E+00
  0.00000000E+00  0.00000000E+00  0.00000000E+00
  0.00000000E+00  0.00000000E+00  0.00000000E+00
  0.00000000E+00  0.00000000E+00  0.00000000E+00
  0.00000000E+00  0.00000000E+00  0.00000000E+00
  0.00000000E+00  0.00000000E+00  0.00000000E+00
  0.00000000E+00  0.00000000E+00  0.00000000E+00
  0.00000000E+00  0.00000000E+00  0.00000000E+00
  0.00000000E+00  0.00000000E+00  0.00000000E+00
  0.00000000E+00  0.00000000E+00  0.00000000E+00
  0.00000000E+00  0.00000000E+00  0.00000000E+00
  0.00000000E+00  0.00000000E+00  0.00000000E+00
  0.00000000E+00  0.00000000E+00  0.00000000E+00
  0.00000000E+00  0.00000000E+00  0.00000000E+00
  0.00000000E+00  0.00000000E+00  0.00000000E+00
  0.00000000E+00  0.00000000E+00  0.00000000E+00
  0.00000000E+00  0.00000000E+00  0.00000000E+00
  0.00000000E+00  0.00000000E+00  0.00000000E+00
  0.00000000E+00  0.00000000E+00  0.00000000E+00
  0.00000000E+00  0.00000000E+00  0.00000000E+00
  0.00000000E+00  0.00000000E+00  0.00000000E+00
  0.00000000E+00  0.00000000E+00  0.00000000E+00
  0.00000000E+00  0.00000000E+00  0.00000000E+00
  0.00000000E+00  0.00000000E+00  0.00000000E+00
  0.00000000E+00  0.00000000E+00  0.00000000E+00
  0.00000000E+00  0.00000000E+00  0.00000000E+00
  0.00000000E+00  0.00000000E+00  0.00000000E+00
  0.00000000E+00  0.00000000E+00  0.00000000E+00
  0.00000000E+00  0.00000000E+00  0.00000000E+00
  0.00000000E+00  0.00000000E+00  0.00000000E+00
  0.00000000E+00  0.00000000E+00  0.00000000E+00
  0.00000000E+00  0.00000000E+00  0.00000000E+00
  0.00000000E+00  0.00000000E+00  0.00000000E+00
  0.00000000E+00  0.00000000E+00  0.00000000E+00
  0.00000000E+00  0.00000000E+00  0.00000000E+00
  0.00000000E+00  0.00000000E+00  0.00000000E+00
  0.00000000E+00  0.00000000E+00  0.00000000E+00
  0.00000000E+00  0.00000000E+00  0.00000000E+00
  0.00000000E+00  0.00000000E+00  0.00000000E+00
  0.00000000E+00  0.00000000E+00  0.00000000E+00
  0.00000000E+00  0.00000000E+00  0.00000000E+00
  0.00000000E+00  0.00000000E+00  0.00000000E+00
  0.00000000E+00  0.00000000E+00  0.00000000E+00
  0.00000000E+00  0.00000000E+00  0.00000000E+00
  0.00000000E+00  0.00000000E+00  0.00000000E+00
  0.00000000E+00  0.00000000E+00  0.00000000E+00
  0.00000000E+00  0.00000000E+00  0.00000000E+00
  0.00000000E+00  0.00000000E+00  0.00000000E+00
  0.00000000E+00  0.00000000E+00  0.00000000E+00
  0.00000000E+00  0.00000000E+00  0.00000000E+00
  0.00000000E+00  0.00000000E+00  0.00000000E+00
  0.00000000E+00  0.00000000E+00  0.00000000E+00
  0.00000000E+00  0.00000000E+00  0.00000000E+00
  0.00000000E+00  0.00000000E+00  0.00000000E+00
  0.00000000E+00  0.00000000E+00  0.00000000E+00
  0.00000000E+00  0.00000000E+00  0.00000000E+00
  0.00000000E+00  0.00000000E+00  0.00000000E+00
  0.00000000E+00  0.00000000E+00  0.00000000E+00
  0.00000000E+00  0.00000000E+00  0.00000000E+00
  0.00000000E+00  0.00000000E+00  0.00000000E+00
  0.00000000E+00  0.00000000E+00  0.00000000E+00
  0.00000000E+00  0.00000000E+00  0.00000000E+00
  0.00000000E+00  0.00000000E+00  0.00000000E+00
  0.00000000E+00  0.00000000E+00  0.00000000E+00
  0.00000000E+00  0.00000000E+00  0.00000000E+00
  0.00000000E+00  0.00000000E+00  0.00000000E+00
  0.00000000E+00  0.00000000E+00  0.00000000E+00
  0.00000000E+00  0.00000000E+00  0.00000000E+00
  0.00000000E+00  0.00000000E+00  0.00000000E+00
  0.00000000E+00  0.00000000E+00  0.00000000E+00
  0.00000000E+00  0.00000000E+00  0.00000000E+00
  0.00000000E+00  0.00000000E+00  0.00000000E+00
  0.00000000E+00  0.00000000E+00  0.00000000E+00
  0.00000000E+00  0.00000000E+00  0.00000000E+00
  0.00000000E+00  0.00000000E+00  0.00000000E+00
  0.00000000E+00  0.00000000E+00  0.00000000E+00
  0.00000000E+00  0.00000000E+00  0.00000000E+00
  0.00000000E+00  0.00000000E+00  0.00000000E+00
  0.00000000E+00  0.00000000E+00  0.00000000E+00
  0.00000000E+00  0.00000000E+00  0.00000000E+00
  0.00000000E+00  0.00000000E+00  0.00000000E+00
  0.00000000E+00  0.00000000E+00  0.00000000E+00
  0.00000000E+00  0.00000000E+00  0.00000000E+00
  0.00000000E+00  0.00000000E+00  0.00000000E+00
  0.00000000E+00  0.00000000E+00  0.00000000E+00
  0.00000000E+00  0.00000000E+00  0.00000000E+00
  0.00000000E+00  0.00000000E+00  0.00000000E+00
  0.00000000E+00  0.00000000E+00  0.00000000E+00
  0.00000000E+00  0.00000000E+00  0.00000000E+00
  0.00000000E+00  0.00000000E+00  0.00000000E+00
  0.00000000E+00  0.00000000E+00  0.00000000E+00
  0.00000000E+00  0.00000000E+00  0.00000000E+00
  0.00000000E+00  0.00000000E+00  0.00000000E+00
  0.00000000E+00  0.00000000E+00  0.00000000E+00
  0.00000000E+00  0.00000000E+00  0.00000000E+00
  0.00000000E+00  0.00000000E+00  0.00000000E+00
  0.00000000E+00  0.00000000E+00  0.00000000E+00
  0.00000000E+00  0.00000000E+00  0.00000000E+00
  0.00000000E+00  0.00000000E+00  0.00000000E+00
  0.00000000E+00  0.00000000E+00  0.00000000E+00
  0.00000000E+00  0.00000000E+00  0.00000000E+00
  0.00000000E+00  0.00000000E+00  0.00000000E+00
  0.00000000E+00  0.00000000E+00  0.00000000E+00
  0.00000000E+00  0.00000000E+00  0.00000000E+00
  0.00000000E+00  0.00000000E+00  0.00000000E+00
  0.00000000E+00  0.00000000E+00  0.00000000E+00
  0.00000000E+00  0.00000000E+00  0.00000000E+00
  0.00000000E+00  0.00000000E+00  0.00000000E+00
  0.00000000E+00  0.00000000E+00  0.00000000E+00
  0.00000000E+00  0.00000000E+00  0.00000000E+00
  0.00000000E+00  0.00000000E+00  0.00000000E+00
  0.00000000E+00  0.00000000E+00  0.00000000E+00
  0.00000000E+00  0.00000000E+00  0.00000000E+00
  0.00000000E+00  0.00000000E+00  0.00000000E+00
  0.00000000E+00  0.00000000E+00  0.00000000E+00
  0.00000000E+00  0.00000000E+00  0.00000000E+00
  0.00000000E+00  0.00000000E+00  0.00000000E+00
  0.00000000E+00  0.00000000E+00  0.00000000E+00
  0.00000000E+00  0.00000000E+00  0.00000000E+00
  0.00000000E+00  0.00000000E+00  0.00000000E+00
  0.00000000E+00  0.00000000E+00  0.00000000E+00
  0.00000000E+00  0.00000000E+00  0.00000000E+00
  0.00000000E+00  0.00000000E+00  0.00000000E+00
  0.00000000E+00  0.00000000E+00  0.00000000E+00
  0.00000000E+00  0.00000000E+00  0.00000000E+00
  0.00000000E+00  0.00000000E+00  0.00000000E+00
  0.00000000E+00  0.00000000E+00  0.00000000E+00
  0.00000000E+00  0.00000000E+00  0.00000000E+00
  0.00000000E+00  0.00000000E+00  0.00000000E+00
  0.00000000E+00  0.00000000E+00  0.00000000E+00
  0.00000000E+00  0.00000000E+00  0.00000000E+00
  0.00000000E+00  0.00000000E+00  0.00000000E+00
  0.00000000E+00  0.00000000E+00  0.00000000E+00
  0.00000000E+00  0.00000000E+00  0.00000000E+00
  0.00000000E+00  0.00000000E+00  0.00000000E+00
  0.00000000E+00  0.00000000E+00  0.00000000E+00
  0.00000000E+00  0.00000000E+00  0.00000000E+00
  0.00000000E+00  0.00000000E+00  0.00000000E+00
  0.00000000E+00  0.00000000E+00  0.00000000E+00
  0.00000000E+00  0.00000000E+00  0.00000000E+00
  0.00000000E+00  0.00000000E+00  0.00000000E+00
  0.00000000E+00  0.00000000E+00  0.00000000E+00
  0.00000000E+00  0.00000000E+00  0.00000000E+00
  0.00000000E+00  0.00000000E+00  0.00000000E+00
  0.00000000E+00  0.00000000E+00  0.00000000E+00
  0.00000000E+00  0.00000000E+00  0.00000000E+00
  0.00000000E+00  0.00000000E+00  0.00000000E+00
  0.00000000E+00  0.00000000E+00  0.00000000E+00
  0.00000000E+00  0.00000000E+00  0.00000000E+00
  0.00000000E+00  0.00000000E+00  0.00000000E+00
  0.00000000E+00  0.00000000E+00  0.00000000E+00
  0.00000000E+00  0.00000000E+00  0.00000000E+00
  0.00000000E+00  0.00000000E+00  0.00000000E+00
  0.00000000E+00  0.00000000E+00  0.00000000E+00
  0.00000000E+00  0.00000000E+00  0.00000000E+00
  0.00000000E+00  0.00000000E+00  0.00000000E+00
  0.00000000E+00  0.00000000E+00  0.00000000E+00
  0.00000000E+00  0.00000000E+00  0.00000000E+00
  0.00000000E+00  0.00000000E+00  0.00000000E+00
  0.00000000E+00  0.00000000E+00  0.00000000E+00
  0.00000000E+00  0.00000000E+00  0.00000000E+00
  0.00000000E+00  0.00000000E+00  0.00000000E+00
  0.00000000E+00  0.00000000E+00  0.00000000E+00
  0.00000000E+00  0.00000000E+00  0.00000000E+00
  0.00000000E+00  0.00000000E+00  0.00000000E+00
  0.00000000E+00  0.00000000E+00  0.00000000E+00
  0.00000000E+00  0.00000000E+00  0.00000000E+00
  0.00000000E+00  0.00000000E+00  0.00000000E+00
  0.00000000E+00  0.00000000E+00  0.00000000E+00
  0.00000000E+00  0.00000000E+00  0.00000000E+00
  0.00000000E+00  0.00000000E+00  0.00000000E+00
  0.00000000E+00  0.00000000E+00  0.00000000E+00
  0.00000000E+00  0.00000000E+00  0.00000000E+00
  0.00000000E+00  0.00000000E+00  0.00000000E+00
  0.00000000E+00  0.00000000E+00  0.00000000E+00
  0.00000000E+00  0.00000000E+00  0.00000000E+00
  0.00000000E+00  0.00000000E+00  0.00000000E+00
  0.00000000E+00  0.00000000E+00  0.00000000E+00
  0.00000000E+00  0.00000000E+00  0.00000000E+00
  0.00000000E+00  0.00000000E+00  0.00000000E+00
  0.00000000E+00  0.00000000E+00  0.00000000E+00
  0.00000000E+00  0.00000000E+00  0.00000000E+00
  0.00000000E+00  0.00000000E+00  0.00000000E+00
  0.00000000E+00  0.00000000E+00  0.00000000E+00
  0.00000000E+00  0.00000000E+00  0.00000000E+00
  0.00000000E+00  0.00000000E+00  0.00000000E+00
  0.00000000E+00  0.00000000E+00  0.00000000E+00
  0.00000000E+00  0.00000000E+00  0.00000000E+00
  0.00000000E+00  0.00000000E+00  0.00000000E+00
  0.00000000E+00  0.00000000E+00  0.00000000E+00
  0.00000000E+00  0.00000000E+00  0.00000000E+00
  0.00000000E+00  0.00000000E+00  0.00000000E+00
  0.00000000E+00  0.00000000E+00  0.00000000E+00
  0.00000000E+00  0.00000000E+00  0.00000000E+00
  0.00000000E+00  0.00000000E+00  0.00000000E+00
  0.00000000E+00  0.00000000E+00  0.00000000E+00
  0.00000000E+00  0.00000000E+00  0.00000000E+00
  0.00000000E+00  0.00000000E+00  0.00000000E+00
  0.00000000E+00  0.00000000E+00  0.00000000E+00
  0.00000000E+00  0.00000000E+00  0.00000000E+00
  0.00000000E+00  0.00000000E+00  0.00000000E+00
  0.00000000E+00  0.00000000E+00  0.00000000E+00
  0.00000000E+00  0.00000000E+00  0.00000000E+00
  0.00000000E+00  0.00000000E+00  0.00000000E+00
  0.00000000E+00  0.00000000E+00  0.00000000E+00
  0.00000000E+00  0.00000000E+00  0.00000000E+00
  0.00000000E+00  0.00000000E+00  0.00000000E+00
  0.00000000E+00  0.00000000E+00  0.00000000E+00
  0.00000000E+00  0.00000000E+00  0.00000000E+00
  0.00000000E+00  0.00000000E+00  0.00000000E+00
  0.00000000E+00  0.00000000E+00  0.00000000E+00
  0.00000000E+00  0.00000000E+00  0.00000000E+00
  0.00000000E+00  0.00000000E+00  0.00000000E+00
  0.00000000E+00  0.00000000E+00  0.00000000E+00
  0.00000000E+00  0.00000000E+00  0.00000000E+00
  0.00000000E+00  0.00000000E+00  0.00000000E+00
  0.00000000E+00  0.00000000E+00  0.00000000E+00
  0.00000000E+00  0.00000000E+00  0.00000000E+00
  0.00000000E+00  0.00000000E+00  0.00000000E+00
  0.00000000E+00  0.00000000E+00  0.00000000E+00
  0.00000000E+00  0.00000000E+00  0.00000000E+00
  0.00000000E+00  0.00000000E+00  0.00000000E+00
  0.00000000E+00  0.00000000E+00  0.00000000E+00
  0.00000000E+00  0.00000000E+00  0.00000000E+00
  0.00000000E+00  0.00000000E+00  0.00000000E+00
  0.00000000E+00  0.00000000E+00  0.00000000E+00
  0.00000000E+00  0.00000000E+00  0.00000000E+00
  0.00000000E+00  0.00000000E+00  0.00000000E+00
  0.00000000E+00  0.00000000E+00  0.00000000E+00
  0.00000000E+00  0.00000000E+00  0.00000000E+00
  0.00000000E+00  0.00000000E+00  0.00000000E+00
  0.00000000E+00  0.00000000E+00  0.00000000E+00
  0.00000000E+00  0.00000000E+00  0.00000000E+00
  0.00000000E+00  0.00000000E+00  0.00000000E+00
  0.00000000E+00  0.00000000E+00  0.00000000E+00
  0.00000000E+00  0.00000000E+00  0.00000000E+00
  0.00000000E+00  0.00000000E+00  0.00000000E+00
  0.00000000E+00  0.00000000E+00  0.00000000E+00
  0.00000000E+00  0.00000000E+00  0.00000000E+00
  0.00000000E+00  0.00000000E+00  0.00000000E+00
