Ge Se                                   
   1.00000000000000     
    20.2740058898925781    0.0000000000000000    0.0000000000000000
     0.0000000000000000   20.2740058898925781    0.0000000000000000
     0.0000000000000000    0.0000000000000000   20.2740058898925781
   Ge   Se
   150   150
Direct
  0.8266599535923878  0.0072716048946734  0.9508277252369689
  0.4573029764105900  0.7905329831019718  0.9621992153656483
  0.6612189272218342  0.2155119519066827  0.3516788711996752
  0.5561815247668499  0.1915176331259217  0.1460409178570121
  0.3900445011830733 -0.0035228667967603  0.6165814460978234
  0.1589935722321103  0.9814255188299195  0.5410279958862538
  0.7588981309933397  0.0880100464120317  0.8194822895249201
  0.3568858066569439  0.5769768283503109  0.4353432224821454
  0.2234863639758361  0.4025435933423962  0.1856805767576781
  0.2347450128703808  0.6346371841108409  0.7179255153358317
  0.1385383731666299  0.4975303908073726  0.3475261694613856
  0.4399879651461755  0.5295069366744554  0.0322848264411444
  0.9845398692079672  0.5734187268719561  0.5395444214346005
  0.0229090063323668  0.2701628907435687  0.1550275203184936
  0.0932491191049850  0.2129816222899176  0.6094219111081306
  0.0834143630031237  0.7261893268281168  0.2923080448324404
  0.1118416913012011  0.7955088023375300  0.0405117475085025
  0.7219197931129941  0.6384608987006184  0.4811826870266735
  0.6427846076624097  0.0172251756470632  0.6467830816456258
  0.3759167899013016  0.2282200695848687  0.4452761948406105
  0.1435703111671575  0.3561728964608378  0.9001544746951019
  0.8437926315619770  0.2610374837331655  0.4421688033468235
  0.6852884870259821  0.7775803285846018  0.0583018084958869
  0.3026537873026016  0.5192828189387646  0.6346021916409174
  0.8936488502079660  0.9287127688494836  0.8747997993653960
  0.6714615568510904  0.5874231928583951  0.0001682882226211
  0.4243548580998502  0.1886704536747213  0.9258048407124834
  0.1419737450788053  0.1973411161308721  0.4421368319957172
  0.3965503382405762  0.1278617617765136  0.1075166840215433
  0.5051521106802949  0.1391114701562598  0.7648884161331579
  0.3339487402479996  0.4500186061676192  0.3082336343428295
  0.7380973988207179  0.9025192922808474  0.7586028263780650
  0.7871859402252084  0.5772165030384143  0.1540976749961504
  0.6900261759843307  0.0535108327100370  0.4687674699976955
  0.6452961519740297  0.8767252794220169  0.9843365171173026
  0.7675560031940503  0.9220789438216069  0.1045613513430220
  0.0356931139026099  0.3358028385655265  0.4175332169362220
  0.0083729889747287  0.6009988044661861  0.1440047443216970
  0.8880195785038467  0.1194094860078453  0.8758478129574229
  0.8073780690977926  0.7402212123776002  0.3934409450223994
  0.2686766571788463  0.9934817709259077  0.1018206388526088
  0.3678955663089133  0.6777615939519559  0.6866796210031128
  0.9639305473035313  0.6023938208307751  0.3395136292980471
  0.5495710650440001  0.7460839674615241  0.4191171120239641
  0.9497017403876320  0.4639420180710436  0.7151157261572256
  0.6084256587039149  0.4137255504298874  0.7562064901363588
  0.5155858729420483  0.3574877096014942  0.3412917984608320
  0.1464913851360376  0.7268117594857842  0.4762808808160979
  0.1408818000766744  0.5331151622005678  0.8905356773740973
  0.3415927422639862  0.7819168191702870  0.0248292401450137
  0.9416783183565329  0.9862355800665272  0.3743589784057991
  0.8178385058803964  0.4704941810515613  0.8693599430718286
  0.5470085112890237  0.6000016275957227  0.2454557732079789
  0.8019905630725068  0.9922889267474917  0.4670573641721995
  0.4840224420273622  0.5164611436245483  0.7596834035309110
  0.0026674962798632  0.0503728006895653  0.5725064040132469
  0.9398007077387712  0.7043172776613166  0.1517439057169513
  0.9035282382256228  0.4643764279203207  0.0209645342613039
  0.0791808272164302  0.7172705409012233  0.7982730763230688
  0.7771723102692634  0.5192000020899975  0.6973585242712647
  0.6501952327925716  0.5771287287686717  0.8367731392346276
  0.4718559367128136  0.9045130759074255  0.1169601636081003
  0.4106978322447571  0.8987231557987222  0.7481729456885771
  0.4560362587363243  0.6403447071997804  0.5046194678175845
  0.6119676992424911  0.7767158174596199  0.2323194458555391
  0.6195717371824648  0.8589013557090706  0.6364083676596261
  0.8960930169469058  0.7849612788467432  0.3128892212925451
  0.0518112524651636  0.5428566688266652  0.7098952465188547
  0.7752672381909007  0.0783833883660419  0.3002762553663041
  0.1772045582032636  0.8614652646998973  0.3435350231828044
  0.6510938873269388  0.9365791523500554  0.2257500076598216
  0.5997933022332179  0.3978858611482473  0.0001760911681964
  0.5413696007439835  0.7160817690102786  0.9070359817431709
  0.5727779518365711  0.8726077719535270  0.3903278569377963
  0.8827355273857171  0.4708658718205255  0.4055082798627468
  0.1891078164699413  0.1406680334223050  0.6497633179046743
  0.2375475379845318  0.2548732414092983  0.8593094242280748
  0.0579349390772110  0.3922471983950854  0.6356438392965752
  0.5524100440792173  0.4385446420439258  0.2439835524760346
  0.5554986353224790  0.3583151819144403  0.5525510786918576
  0.2155179489013390  0.3012753284213351  0.1108336251783024
  0.2865059372312165  0.7145704183100863  0.5779056432491313
  0.2871172906034897  0.7023679362840106  0.3698340766296668
  0.3221330825562853  0.4837276849796813  0.1681703060836399
  0.2658330370147862  0.0941947738738345  0.9187936927271469
  0.1924190113546674  0.7165621013258471  0.2142395369169010
  0.8567899435949105  0.1435801062299942  0.2328021875553190
  0.4602895701776425  0.4986527491383576  0.1802012381768715
  0.4579245116130351  0.4315632157120111  0.8766358980210054
  0.9911933248774679  0.3774158007145557  0.5301344357329512
  0.9248937665644071  0.8638109672738429  0.0431529305440829
  0.9778595441596356  0.2475545031644356  0.9506530606069938
  0.0179169221062114  0.0648369208777218  0.2014469822051177
  0.2116406035738736  0.0870555360340823  0.2904752800358856
  0.0788032460849375  0.8417229817940191  0.4981493430809203
  0.6998514519405192  0.2619156560155953  0.0454700992684128
  0.6006776232460939  0.8431937617571597  0.7825872644493196
  0.2274264811297022  0.0530902984787947  0.4569175680682523
  0.3255076429971497  0.2193020031590103  0.2325883226160613
  0.3347999030672786  0.0640832276956383  0.0215061291502986
  0.5977844342325163  0.4876150073413387  0.4619280808693345
  0.8344133038649585  0.0000645510538818  0.1832758061258148
  0.6963385295200354  0.1960160660876767  0.6996552941044117
  0.4869655389609691  0.6248464236731205  0.8374560721571521
  0.9135861900268755  0.8438340630283897  0.6075649170605278
  0.8255279318611436  0.6395560204278302  0.0465063030757868
  0.1044246157903352  0.6807490903990784  0.9868916713568727
 -0.0132370118739987  0.8866075105088883  0.2555640128529447
  0.8794211213756560  0.4611125732152467  0.2294576666727000
  0.5437185079771445  0.0004935555778280  0.4977772760646138
  0.4800773686743496  0.2373698337864560  0.3633926043047259
  0.5891658119044449  0.7074712054280281  0.1085973189801182
  0.5162111166022915  0.3187108581980429  0.1127151042555562
  0.3384235912646667  0.0829976913907744  0.3581733196527357
  0.2882383925168826  0.2252081736200611  0.0354405032477700
  0.4817112375846556  0.7964896075525836  0.7522088280946940
  0.9150766103705485  0.9797778838827558  0.7613625999173150
  0.4311825992607459  0.2890612107773458  0.7427665989656608
  0.9212880001292216  0.7473507583533106  0.7835085927440366
  0.3745324736480747  0.8179591117395212  0.5715356164169589
  0.1679028723700755  0.9392818693785489  0.9650443853168694
  0.3923145921608852  0.4656764101598618  0.4869041783216477
  0.0353168168118997  0.2338421943987070  0.8000032955240008
  0.8143297025112592  0.3140625762217282  0.6161822655688418
  0.4407100224897745  0.0075237987636657 -0.0214341078018819
  0.3707511535752140  0.6643160483877050  0.2599626019420536
  0.4669884864482260  0.0533482815596016  0.2738800813888089
  0.7092898445776533  0.3502986621993596  0.7115255800697926
  0.9784087622541042  0.3867449363641445  0.8896126526909993
  0.2558394191094587  0.7541480090889709  0.9008886914305780
  0.2447426596034409  0.3965185543729756  0.9945222991082809
  0.4457888482677543  0.6956685223058683  0.1514831698888387
  0.7637812504274971  0.2531889811309214  0.8983918611672648
  0.1412296323379997  0.3239379433007070  0.3129576622676713
  0.8442552598036667  0.8812543411733793  0.5068364953536119
  0.1327165714237339  0.0188061441761893  0.2193062821065863
  0.5010464056007756  0.0715782947725781  0.4015726092698888
  0.9193530133298322  0.1421588257962162  0.6601130303123209
  0.1060914162469890  0.0966649546964425  0.8608875731304017
  0.1531232553994606  0.1618122703298727  0.0891740321363777
  0.8221252434345557  0.2755744533514618  0.1116051464541451
  0.2545604286734782  0.9610860107920312  0.3062199040120878
  0.8143466399253192  0.5729579989085923  0.3583857566584955
  0.6621044084356602  0.1196615457846704  0.2676478580467395
  0.6491095352549333  0.1897921725156552  0.5750629215574202
  0.6507035390152299  0.7688743881000296  0.8737218003973284
  0.3438057197476079 -0.0249126814562218  0.4749531821942515
  0.2544536091661792  0.6283144683668402  0.0784156949738759
  0.7680716955750806  0.4198847750490540  0.5214498483963032
  0.4621027330675467  0.9020036362449417  0.9077054479631622
  0.4501426247155376  0.9234098667346179  0.5226436217809759
  0.2656980501807569  0.6151947542370307  0.2175955556404701
  0.5065513410446920  0.0838666005222223  0.1121133750052987
  0.9150026090223372  0.2809979048469331  0.5457589794276642
  0.1997225914661050  0.7358724891893567  0.7862297294985222
  0.9293327494518675  0.8689340404857548  0.4222011925426024
  0.3157524716052477  0.4906711284974620  0.0433241431081977
  0.5668406098620391  0.1764986836301564  0.4286936865336633
  0.0235514075777570  0.8176277032257551  0.7725791584181256
  0.4922478712166112  0.0840502147248692  0.9079914534697467
  0.0433550403122904  0.5600516017337395  0.4270965166720572
  0.4956359691838986  0.4693218663791491  0.5464298868613160
  0.5268661777029968  0.7154064150197424  0.3003754318341756
  0.8214799627756488  0.2161064397239461  0.7008518897319286
  0.0209987630385541  0.7855505954776436  0.1815894576255506
  0.9648270894110210  0.4876588596713310  0.1341563670276652
  0.9384659178954775  0.3010387610493479  0.0659897364801318
  0.5543861646716008  0.9400207825622161  0.8418438074139106
  0.8029438078434953  0.3756501152106721  0.4043307487986460
  0.8523464622455229  0.6439229738498080  0.4574555506750737
  0.0690273028128499  0.4372168631949453  0.9582552658657459
  0.9878531407530746  0.4327748628952925  0.3485509576474573
  0.2892987398866020  0.9207912136214140  0.1935162422830086
  0.8254993748568127  0.2575881135053920  0.2359883250456183
  0.1123121972711873  0.4174221351710674  0.2292929745878846
  0.6650200966618591  0.5968530013266797  0.1265909374810935
  0.8036243573945731  0.0107533263491561  0.7264347805651893
  0.3569524697698713  0.9219906771829248  0.8518144051537953
  0.1631004609708515  0.5353559923610883  0.7586070912789150
  0.7470997831700573  0.3493695656130360  0.9628482639319309
  0.2629314560584100  0.4994774731887312  0.3983219689230889
  0.8803689387605727  0.2461200457649262  0.8621912875159112
  0.1505395997345928  0.0192809833424430  0.0991363528835644
  0.0500989852289990  0.9664576735345699  0.4859310051998091
  0.2326497444588503  0.1554034110814909  0.5220870090081627
  0.9121817702308710  0.7286404208681231  0.0389208203217544
  0.5577448655046841  0.6403135491579903  0.0043170465418533
  0.2653077317287595  0.3452460194778815  0.2845693995298580
  0.5770067486547225  0.2750154866264752  0.0063607864009095
  0.6674148266845215  0.1418392633705380  0.1511892523181041
  0.7865851676629533  0.4717778013813460  0.0695619558173599
  0.0282655731376318  0.1441942573591126  0.1129110220450557
  0.9627966987666603  0.1222894963738928  0.2888448242596681
  0.9083472431984960  0.4710395763320983  0.5253219185678289
  0.3774881728333985  0.6600853707807908  0.0520437447376440
  0.0973578183091259  0.5869640868145853  0.0645872010965517
  0.9620280348900521  0.0932932794382246  0.7709770044955540
  0.3191333570673681  0.3077991652878875  0.9486752429642735
  0.6185852469486521  0.5180760736910259  0.3061844529994566
  0.2658305746054572  0.7923178341191974  0.2824873514121333
  0.7225938971355947  0.9964024593436832  0.8901351083377200
  0.6172904016820123  0.3758782999927118  0.1643780404260730
  0.4149501609553469  0.5508130136302398  0.9065566343298390
  0.4011395522562126  0.0973441185981323  0.4746538275324502
  0.9946163756650913  0.2441743367975813  0.6810430687884237
  0.4737779321430500 -0.0103941087467913  0.7055995510938141
  0.4036336462172078  0.3804446644143237  0.3951578545258140
  0.4326622935480134  0.5606499187651734  0.2937603475950497
  0.5381756561240899  0.8806347451108971  0.2207260618549888
  0.0677229411787138  0.3569406289137013  0.7992872364360266
  0.6438543847461194  0.6883872765008913  0.7778645968499672
  0.5054490110357754  0.3864006722699833  0.7007122000766950
  0.4724386078708996  0.4074093628963996  0.0071105791187678
  0.4991992494085234  0.2438416983490784  0.8401837070609990
  0.5399200898002449  0.8277965024040983  0.0449620081603224
  0.9563874689414272  0.9656918460248097  0.1571278387866729
  0.8094503017258530  0.4067313399521859  0.7543083159561755
  0.2342793103571994  0.4439301088633630  0.8782141106048921
  0.8724772649713258  0.7492745669138033  0.6680949911446827
  0.8309238488261037  0.8387651842779471  0.8234032532296564
  0.6156076725976390  0.7379647463428621  0.6063827094217080
  0.0370374268893136  0.6510735906759872  0.8904407701597986
  0.3653452467896768  0.9414958513052233  0.3591857548610978
  0.1522167978492579  0.8213596965152323  0.9221385134250178
  0.8479445345803571  0.1046879128300786  0.1212081063405682
  0.3933504278803321  0.8090088525840488  0.1407299886021727
  0.7394815291589085  0.6958839944509041  0.9793332219379302
  0.3237108582305386  0.8948865226439924  0.6646871509928376
  0.4311835310482706  0.7486592241977847  0.4518299723505624
  0.5985081869536771  0.0238474707572905  0.3034810274892923
  0.6718725046863826  0.8472964536590831  0.3196998426868089
  0.8133970955633599  0.9708841732113631  0.3440831621962268
  0.2154446178781520  0.6426680438833025  0.9488620168470033
  0.4855782555832491  0.2085392450899552  0.6672946780900590
  0.2576731000965228  0.7799783196583726  0.4653125241860245
  0.7575137624472219  0.8050814120148714  0.4803378676358191
  0.6423265362917888  0.0966994190955838  0.7502721554578582
  0.1703140596595891  0.8699535690018259  0.5797435726162118
  0.3206113711366217  0.4189439696352321  0.5698816373861232
  0.2066853754850196  0.0097647393970967  0.8572485511904766
  0.6818140330264225  0.2656683675576897  0.8031984211696338
  0.8907859731917371  0.5620781614915006  0.6723741433401694
  0.4008714731355477  0.7107291271543784  0.8033935671438993
  0.7526784198610219  0.8124241149691184  0.1530660358863607
  0.2809803471965346  0.9141925129409350  0.0091918340471884
  0.3298475824789304  0.1568386562858879  0.8396344512913905
  0.5482604190571924  0.0790033496617460  0.5874036914146809
  0.9846969343185612  0.8834330991212636  0.9391560433662836
  0.1698800241639367  0.6567780990835117  0.3772689902937800
  0.6057295083325482  0.5316399690697063  0.7230957176702136
  0.7313676012245671  0.5180095147662166  0.4426657685606292
  0.0637601210826593  0.6037735124685893  0.2519377062939482
  0.4049099388656192  0.3886083144581509  0.1910091722196859
  0.1454620181868150  0.3940836143544970  0.4207261418835864
  0.8568445912375544  0.6824294109285991  0.2302316618623205
  0.1970461664203291  0.2160946767786067  0.2009080625357188
  0.4224107250294252  0.5700844498950516  0.6616849001742156
  0.8803824939691391  0.5723792604815879  0.9650444232596380
  0.7515460921519318  0.7231920457777933  0.7277845184710899
  0.1287236519902566  0.0794080860111319  0.3844989555728207
  0.0039466684211960  0.7783771941924250  0.5699284626268780
  0.9019064790570476  0.0604661975706218  0.4691312001540645
  0.9824640812697427  0.7202073543188307  0.3757280267923714
  0.1142143876635452  0.8987236227018962  0.2378573976920400
  0.3889135033645616  0.2458189943483167  0.1049462289859514
  0.9719192169401942  0.9354329013847716  0.6643735795579849
  0.7394919600669759  0.8796813474602083  0.6364412514888216
  0.1760296864950337  0.1739040977331156  0.9415027373598231
  0.2836775568557894  0.5973589725250718  0.5337044601783184
  0.3359231190753185  0.0921780884594715  0.2046481986542097
  0.1760821037803899  0.6952636812191882  0.6245841091502805
  0.2907250363546277  0.2024623367061303  0.3616422331340767
  0.7737898699622299  0.5744363547161542  0.8135784139552682
  0.4875754621665289  0.1777171336496485  0.2578574454582004
  0.2194106589380700  0.7556490467147697  0.0963194869023699
  0.0400720837852411  0.1633163253664520  0.5118061381112251
  0.7084091586300091  0.6785567498053745  0.3617913706393662
  0.9741499852199398  0.1236120416879934  0.9591438930478816
  0.7556067648712066  0.1468039291573008  0.4019573164526500
  0.6496200371894518  0.4377248750390387  0.5731222788510256
  0.7402620151951506  0.2688122431758054  0.5235014363313618
  0.9292005080378969  0.3570354971249916  0.2746899187122303
  0.1235317981802919  0.0355925257956902  0.6431377570908208
  0.6609127657127534  0.9639559505721431  0.0712256681114233
  0.0847260265633201  0.5115862550665358  0.5934625839941703
  0.7944127675050706  0.3948941012814140  0.1602900473648787
  0.1445941177525985  0.1778914676279052  0.7720687849954071
  0.8096605690950029  0.8856124626082689 -0.0028285409860125
  0.0311385813234896  0.6621996997479705  0.7042981151088262
  0.7311008923428337  0.1669493544827435  0.9689926396887678
  0.9393638401777979  0.4951962449557631  0.8367059398083809
  0.1351887244158000  0.3150202825528271  0.5660541477846929
  0.4628527452981016  0.7562332762448621  0.6374463509755111
  0.6304474627284600  0.9163048954805836  0.4949102775757158
  0.6013331486466748  0.3642962430847124  0.4251632181288575
  0.5690316205532142  0.6323283266389423  0.4586420885154806
  0.7286777007469759  0.0917259710274211  0.5833070914347646
  0.1056798959060978  0.2883821067945438  0.0611090636760990
  0.5839386587163675  0.4381009145866293  0.8748404570406498
  0.7216275212054545  0.6897031887297849  0.6167699988780301
 
  0.00000000E+00  0.00000000E+00  0.00000000E+00
  0.00000000E+00  0.00000000E+00  0.00000000E+00
  0.00000000E+00  0.00000000E+00  0.00000000E+00
  0.00000000E+00  0.00000000E+00  0.00000000E+00
  0.00000000E+00  0.00000000E+00  0.00000000E+00
  0.00000000E+00  0.00000000E+00  0.00000000E+00
  0.00000000E+00  0.00000000E+00  0.00000000E+00
  0.00000000E+00  0.00000000E+00  0.00000000E+00
  0.00000000E+00  0.00000000E+00  0.00000000E+00
  0.00000000E+00  0.00000000E+00  0.00000000E+00
  0.00000000E+00  0.00000000E+00  0.00000000E+00
  0.00000000E+00  0.00000000E+00  0.00000000E+00
  0.00000000E+00  0.00000000E+00  0.00000000E+00
  0.00000000E+00  0.00000000E+00  0.00000000E+00
  0.00000000E+00  0.00000000E+00  0.00000000E+00
  0.00000000E+00  0.00000000E+00  0.00000000E+00
  0.00000000E+00  0.00000000E+00  0.00000000E+00
  0.00000000E+00  0.00000000E+00  0.00000000E+00
  0.00000000E+00  0.00000000E+00  0.00000000E+00
  0.00000000E+00  0.00000000E+00  0.00000000E+00
  0.00000000E+00  0.00000000E+00  0.00000000E+00
  0.00000000E+00  0.00000000E+00  0.00000000E+00
  0.00000000E+00  0.00000000E+00  0.00000000E+00
  0.00000000E+00  0.00000000E+00  0.00000000E+00
  0.00000000E+00  0.00000000E+00  0.00000000E+00
  0.00000000E+00  0.00000000E+00  0.00000000E+00
  0.00000000E+00  0.00000000E+00  0.00000000E+00
  0.00000000E+00  0.00000000E+00  0.00000000E+00
  0.00000000E+00  0.00000000E+00  0.00000000E+00
  0.00000000E+00  0.00000000E+00  0.00000000E+00
  0.00000000E+00  0.00000000E+00  0.00000000E+00
  0.00000000E+00  0.00000000E+00  0.00000000E+00
  0.00000000E+00  0.00000000E+00  0.00000000E+00
  0.00000000E+00  0.00000000E+00  0.00000000E+00
  0.00000000E+00  0.00000000E+00  0.00000000E+00
  0.00000000E+00  0.00000000E+00  0.00000000E+00
  0.00000000E+00  0.00000000E+00  0.00000000E+00
  0.00000000E+00  0.00000000E+00  0.00000000E+00
  0.00000000E+00  0.00000000E+00  0.00000000E+00
  0.00000000E+00  0.00000000E+00  0.00000000E+00
  0.00000000E+00  0.00000000E+00  0.00000000E+00
  0.00000000E+00  0.00000000E+00  0.00000000E+00
  0.00000000E+00  0.00000000E+00  0.00000000E+00
  0.00000000E+00  0.00000000E+00  0.00000000E+00
  0.00000000E+00  0.00000000E+00  0.00000000E+00
  0.00000000E+00  0.00000000E+00  0.00000000E+00
  0.00000000E+00  0.00000000E+00  0.00000000E+00
  0.00000000E+00  0.00000000E+00  0.00000000E+00
  0.00000000E+00  0.00000000E+00  0.00000000E+00
  0.00000000E+00  0.00000000E+00  0.00000000E+00
  0.00000000E+00  0.00000000E+00  0.00000000E+00
  0.00000000E+00  0.00000000E+00  0.00000000E+00
  0.00000000E+00  0.00000000E+00  0.00000000E+00
  0.00000000E+00  0.00000000E+00  0.00000000E+00
  0.00000000E+00  0.00000000E+00  0.00000000E+00
  0.00000000E+00  0.00000000E+00  0.00000000E+00
  0.00000000E+00  0.00000000E+00  0.00000000E+00
  0.00000000E+00  0.00000000E+00  0.00000000E+00
  0.00000000E+00  0.00000000E+00  0.00000000E+00
  0.00000000E+00  0.00000000E+00  0.00000000E+00
  0.00000000E+00  0.00000000E+00  0.00000000E+00
  0.00000000E+00  0.00000000E+00  0.00000000E+00
  0.00000000E+00  0.00000000E+00  0.00000000E+00
  0.00000000E+00  0.00000000E+00  0.00000000E+00
  0.00000000E+00  0.00000000E+00  0.00000000E+00
  0.00000000E+00  0.00000000E+00  0.00000000E+00
  0.00000000E+00  0.00000000E+00  0.00000000E+00
  0.00000000E+00  0.00000000E+00  0.00000000E+00
  0.00000000E+00  0.00000000E+00  0.00000000E+00
  0.00000000E+00  0.00000000E+00  0.00000000E+00
  0.00000000E+00  0.00000000E+00  0.00000000E+00
  0.00000000E+00  0.00000000E+00  0.00000000E+00
  0.00000000E+00  0.00000000E+00  0.00000000E+00
  0.00000000E+00  0.00000000E+00  0.00000000E+00
  0.00000000E+00  0.00000000E+00  0.00000000E+00
  0.00000000E+00  0.00000000E+00  0.00000000E+00
  0.00000000E+00  0.00000000E+00  0.00000000E+00
  0.00000000E+00  0.00000000E+00  0.00000000E+00
  0.00000000E+00  0.00000000E+00  0.00000000E+00
  0.00000000E+00  0.00000000E+00  0.00000000E+00
  0.00000000E+00  0.00000000E+00  0.00000000E+00
  0.00000000E+00  0.00000000E+00  0.00000000E+00
  0.00000000E+00  0.00000000E+00  0.00000000E+00
  0.00000000E+00  0.00000000E+00  0.00000000E+00
  0.00000000E+00  0.00000000E+00  0.00000000E+00
  0.00000000E+00  0.00000000E+00  0.00000000E+00
  0.00000000E+00  0.00000000E+00  0.00000000E+00
  0.00000000E+00  0.00000000E+00  0.00000000E+00
  0.00000000E+00  0.00000000E+00  0.00000000E+00
  0.00000000E+00  0.00000000E+00  0.00000000E+00
  0.00000000E+00  0.00000000E+00  0.00000000E+00
  0.00000000E+00  0.00000000E+00  0.00000000E+00
  0.00000000E+00  0.00000000E+00  0.00000000E+00
  0.00000000E+00  0.00000000E+00  0.00000000E+00
  0.00000000E+00  0.00000000E+00  0.00000000E+00
  0.00000000E+00  0.00000000E+00  0.00000000E+00
  0.00000000E+00  0.00000000E+00  0.00000000E+00
  0.00000000E+00  0.00000000E+00  0.00000000E+00
  0.00000000E+00  0.00000000E+00  0.00000000E+00
  0.00000000E+00  0.00000000E+00  0.00000000E+00
  0.00000000E+00  0.00000000E+00  0.00000000E+00
  0.00000000E+00  0.00000000E+00  0.00000000E+00
  0.00000000E+00  0.00000000E+00  0.00000000E+00
  0.00000000E+00  0.00000000E+00  0.00000000E+00
  0.00000000E+00  0.00000000E+00  0.00000000E+00
  0.00000000E+00  0.00000000E+00  0.00000000E+00
  0.00000000E+00  0.00000000E+00  0.00000000E+00
  0.00000000E+00  0.00000000E+00  0.00000000E+00
  0.00000000E+00  0.00000000E+00  0.00000000E+00
  0.00000000E+00  0.00000000E+00  0.00000000E+00
  0.00000000E+00  0.00000000E+00  0.00000000E+00
  0.00000000E+00  0.00000000E+00  0.00000000E+00
  0.00000000E+00  0.00000000E+00  0.00000000E+00
  0.00000000E+00  0.00000000E+00  0.00000000E+00
  0.00000000E+00  0.00000000E+00  0.00000000E+00
  0.00000000E+00  0.00000000E+00  0.00000000E+00
  0.00000000E+00  0.00000000E+00  0.00000000E+00
  0.00000000E+00  0.00000000E+00  0.00000000E+00
  0.00000000E+00  0.00000000E+00  0.00000000E+00
  0.00000000E+00  0.00000000E+00  0.00000000E+00
  0.00000000E+00  0.00000000E+00  0.00000000E+00
  0.00000000E+00  0.00000000E+00  0.00000000E+00
  0.00000000E+00  0.00000000E+00  0.00000000E+00
  0.00000000E+00  0.00000000E+00  0.00000000E+00
  0.00000000E+00  0.00000000E+00  0.00000000E+00
  0.00000000E+00  0.00000000E+00  0.00000000E+00
  0.00000000E+00  0.00000000E+00  0.00000000E+00
  0.00000000E+00  0.00000000E+00  0.00000000E+00
  0.00000000E+00  0.00000000E+00  0.00000000E+00
  0.00000000E+00  0.00000000E+00  0.00000000E+00
  0.00000000E+00  0.00000000E+00  0.00000000E+00
  0.00000000E+00  0.00000000E+00  0.00000000E+00
  0.00000000E+00  0.00000000E+00  0.00000000E+00
  0.00000000E+00  0.00000000E+00  0.00000000E+00
  0.00000000E+00  0.00000000E+00  0.00000000E+00
  0.00000000E+00  0.00000000E+00  0.00000000E+00
  0.00000000E+00  0.00000000E+00  0.00000000E+00
  0.00000000E+00  0.00000000E+00  0.00000000E+00
  0.00000000E+00  0.00000000E+00  0.00000000E+00
  0.00000000E+00  0.00000000E+00  0.00000000E+00
  0.00000000E+00  0.00000000E+00  0.00000000E+00
  0.00000000E+00  0.00000000E+00  0.00000000E+00
  0.00000000E+00  0.00000000E+00  0.00000000E+00
  0.00000000E+00  0.00000000E+00  0.00000000E+00
  0.00000000E+00  0.00000000E+00  0.00000000E+00
  0.00000000E+00  0.00000000E+00  0.00000000E+00
  0.00000000E+00  0.00000000E+00  0.00000000E+00
  0.00000000E+00  0.00000000E+00  0.00000000E+00
  0.00000000E+00  0.00000000E+00  0.00000000E+00
  0.00000000E+00  0.00000000E+00  0.00000000E+00
  0.00000000E+00  0.00000000E+00  0.00000000E+00
  0.00000000E+00  0.00000000E+00  0.00000000E+00
  0.00000000E+00  0.00000000E+00  0.00000000E+00
  0.00000000E+00  0.00000000E+00  0.00000000E+00
  0.00000000E+00  0.00000000E+00  0.00000000E+00
  0.00000000E+00  0.00000000E+00  0.00000000E+00
  0.00000000E+00  0.00000000E+00  0.00000000E+00
  0.00000000E+00  0.00000000E+00  0.00000000E+00
  0.00000000E+00  0.00000000E+00  0.00000000E+00
  0.00000000E+00  0.00000000E+00  0.00000000E+00
  0.00000000E+00  0.00000000E+00  0.00000000E+00
  0.00000000E+00  0.00000000E+00  0.00000000E+00
  0.00000000E+00  0.00000000E+00  0.00000000E+00
  0.00000000E+00  0.00000000E+00  0.00000000E+00
  0.00000000E+00  0.00000000E+00  0.00000000E+00
  0.00000000E+00  0.00000000E+00  0.00000000E+00
  0.00000000E+00  0.00000000E+00  0.00000000E+00
  0.00000000E+00  0.00000000E+00  0.00000000E+00
  0.00000000E+00  0.00000000E+00  0.00000000E+00
  0.00000000E+00  0.00000000E+00  0.00000000E+00
  0.00000000E+00  0.00000000E+00  0.00000000E+00
  0.00000000E+00  0.00000000E+00  0.00000000E+00
  0.00000000E+00  0.00000000E+00  0.00000000E+00
  0.00000000E+00  0.00000000E+00  0.00000000E+00
  0.00000000E+00  0.00000000E+00  0.00000000E+00
  0.00000000E+00  0.00000000E+00  0.00000000E+00
  0.00000000E+00  0.00000000E+00  0.00000000E+00
  0.00000000E+00  0.00000000E+00  0.00000000E+00
  0.00000000E+00  0.00000000E+00  0.00000000E+00
  0.00000000E+00  0.00000000E+00  0.00000000E+00
  0.00000000E+00  0.00000000E+00  0.00000000E+00
  0.00000000E+00  0.00000000E+00  0.00000000E+00
  0.00000000E+00  0.00000000E+00  0.00000000E+00
  0.00000000E+00  0.00000000E+00  0.00000000E+00
  0.00000000E+00  0.00000000E+00  0.00000000E+00
  0.00000000E+00  0.00000000E+00  0.00000000E+00
  0.00000000E+00  0.00000000E+00  0.00000000E+00
  0.00000000E+00  0.00000000E+00  0.00000000E+00
  0.00000000E+00  0.00000000E+00  0.00000000E+00
  0.00000000E+00  0.00000000E+00  0.00000000E+00
  0.00000000E+00  0.00000000E+00  0.00000000E+00
  0.00000000E+00  0.00000000E+00  0.00000000E+00
  0.00000000E+00  0.00000000E+00  0.00000000E+00
  0.00000000E+00  0.00000000E+00  0.00000000E+00
  0.00000000E+00  0.00000000E+00  0.00000000E+00
  0.00000000E+00  0.00000000E+00  0.00000000E+00
  0.00000000E+00  0.00000000E+00  0.00000000E+00
  0.00000000E+00  0.00000000E+00  0.00000000E+00
  0.00000000E+00  0.00000000E+00  0.00000000E+00
  0.00000000E+00  0.00000000E+00  0.00000000E+00
  0.00000000E+00  0.00000000E+00  0.00000000E+00
  0.00000000E+00  0.00000000E+00  0.00000000E+00
  0.00000000E+00  0.00000000E+00  0.00000000E+00
  0.00000000E+00  0.00000000E+00  0.00000000E+00
  0.00000000E+00  0.00000000E+00  0.00000000E+00
  0.00000000E+00  0.00000000E+00  0.00000000E+00
  0.00000000E+00  0.00000000E+00  0.00000000E+00
  0.00000000E+00  0.00000000E+00  0.00000000E+00
  0.00000000E+00  0.00000000E+00  0.00000000E+00
  0.00000000E+00  0.00000000E+00  0.00000000E+00
  0.00000000E+00  0.00000000E+00  0.00000000E+00
  0.00000000E+00  0.00000000E+00  0.00000000E+00
  0.00000000E+00  0.00000000E+00  0.00000000E+00
  0.00000000E+00  0.00000000E+00  0.00000000E+00
  0.00000000E+00  0.00000000E+00  0.00000000E+00
  0.00000000E+00  0.00000000E+00  0.00000000E+00
  0.00000000E+00  0.00000000E+00  0.00000000E+00
  0.00000000E+00  0.00000000E+00  0.00000000E+00
  0.00000000E+00  0.00000000E+00  0.00000000E+00
  0.00000000E+00  0.00000000E+00  0.00000000E+00
  0.00000000E+00  0.00000000E+00  0.00000000E+00
  0.00000000E+00  0.00000000E+00  0.00000000E+00
  0.00000000E+00  0.00000000E+00  0.00000000E+00
  0.00000000E+00  0.00000000E+00  0.00000000E+00
  0.00000000E+00  0.00000000E+00  0.00000000E+00
  0.00000000E+00  0.00000000E+00  0.00000000E+00
  0.00000000E+00  0.00000000E+00  0.00000000E+00
  0.00000000E+00  0.00000000E+00  0.00000000E+00
  0.00000000E+00  0.00000000E+00  0.00000000E+00
  0.00000000E+00  0.00000000E+00  0.00000000E+00
  0.00000000E+00  0.00000000E+00  0.00000000E+00
  0.00000000E+00  0.00000000E+00  0.00000000E+00