Amorphous Sb                            
   1.00000000000000     
     16.92543137           0.0000000000000000    0.0000000000000000
     0.0000000000000000    16.92543137            0.0000000000000000
     0.0000000000000000    0.0000000000000000    16.92543137 
   Si   Ge
   150   150
Direct
  0.1514360100000000  0.2064458900000000  0.5071034300000000
  0.1710313300000000  0.5831621400000000  0.7441995700000000
  0.0141980840000000  0.9190459400000000  0.6539361600000000
  0.2666690200000000 -0.0080162819000000  0.3766736900000000
  0.4443821800000000  0.1823349800000000  0.0851536360000000
  0.9864012100000000  0.8850288400000000  0.5349681100000000
  0.1954684300000000  0.4981871900000000  0.5452790300000000
  0.5187246500000000  0.3346080500000000  0.3942392300000000
  0.5072813300000000  0.4657121900000000  0.0532561220000000
  0.6679833800000000  0.9343780400000000  0.6792332800000001
  0.5119100800000000  0.9501642200000000  0.8410533400000000
  0.3011201600000000 -0.0021894234000000  0.1637447000000000
  0.5635821100000000  0.7603314300000000  0.7774496700000000
  0.9608390800000000  0.3459182000000000  0.8363742400000000
  0.4214853900000000  0.1511942600000000  0.7471693400000000
  0.4285745700000000  0.3357009600000000  0.7895140600000000
  0.7866293700000000  0.2800137900000000  0.8960618600000000
  0.8268199800000000  0.3513007400000000  0.1500287800000000
  0.0534499490000000  0.1366729600000000  0.3517346600000000
  0.0530015870000000  0.8356293700000000  0.1807310300000000
  0.9046254300000000  0.3004660600000000  0.7317573600000000
  0.1489275800000000  0.3846377300000000  0.5669440500000000
  0.2276387100000000  0.7415352800000000  0.7322646300000000
  0.4659075200000000  0.5298315200000000  0.7787771900000000
  0.6070518700000000  0.5400872000000000  0.9192988700000000
  0.4470881300000000 -0.0043057676000000  0.3414964600000000
  0.9551803000000000  0.3565663300000000  0.1286520500000000
  0.0891450740000000  0.4622540700000000  0.9565109700000000
  0.3898394500000000  0.0533779200000000  0.2368961100000000
 -0.0091068374000000  0.7186896699999999  0.7218314500000000
  0.4237378100000000  0.4030457400000000  0.1227312000000000
  0.3865153800000000  0.3760222500000000  0.6772902500000000
  0.8384714300000000  0.0296659060000000  0.7495285900000001
  0.2586714700000000  0.4987199000000000  0.0354648070000000
  0.8145600400000000  0.3571434200000000  0.2773285400000000
  0.3888692100000000  0.6261039000000000  0.7548836700000000
  0.4159391300000000  0.4767899900000000  0.2257919600000000
  0.3448363600000000  0.2395835700000000  0.8013448300000000
  0.9861040700000000  0.1261615700000000  0.7412254500000000
  0.5884918500000000  0.1190519800000000  0.2184802000000000
  0.2518607800000000  0.7938214300000001  0.9640178900000000
  0.2005513000000000  0.1044652600000000  0.8858540700000000
  0.4720775000000000  0.8556281900000000  0.9201777700000000
  0.7053533000000000  0.6508227000000000  0.3039685500000000
  0.5439965500000000  0.2908166600000000  0.7951569400000000
  0.3080064100000000  0.1696499700000000  0.9051195500000000
  0.3345894100000000  0.2845266600000000  0.4936086900000000
  0.4707736600000000  0.2190369300000000  0.3724695600000000
  0.2144843100000000  0.0186843170000000  0.9755668000000000
  0.1439257000000000  0.7933525200000000  0.8996441500000000
  0.3750444400000000  0.1752628300000000  0.4436947100000000
  0.1119962500000000  0.8836391600000000  0.8211405000000001
  0.7645305600000000  0.0647898760000000  0.4140115000000000
  0.6329263600000000  0.2125910500000000  0.1451243800000000
  0.1764193900000000  0.0077890340000000  0.2014877100000000
  0.8509179200000000  0.6914062900000000  0.3674611800000000
  0.0680055030000000  0.7952555100000001  0.4983324800000000
  0.1822537500000000  0.2757101700000000  0.3120902600000000
  0.7684829700000000  0.7139200200000000  0.9446028600000000
  0.0412306220000000  0.2863720300000000  0.1870702400000000
  0.0482740830000000  0.7499130000000001  0.0871080290000000
  0.5686226599999999  0.7720224600000000  0.9083219700000000
  0.6342047800000000  0.0886293290000000  0.7530437600000000
  0.6201876900000000  0.6603763499999999  0.5195766000000001
  0.6288390600000000  0.9685249500000001  0.7946891300000000
  0.7645667400000000  0.8737968100000000  0.3132157000000000
  0.1116799700000000  0.6937242300000001  0.7426710600000000
  0.0432632090000000  0.0138337240000000  0.3642897800000000
  0.5678735400000000  0.8464002300000000  0.4371531700000000
  0.2273787800000000  0.6091647900000000  0.3762458400000000
  0.4235761700000000  0.4406674300000000  0.8596659500000000
  0.2530071600000000  0.4130198000000000  0.8427994900000000
  0.9392638200000000  0.8639904800000000  0.9582927300000000
  0.1373885200000000  0.6608240800000000  0.0901560370000000
  0.1245898000000000  0.2820582400000000  0.0817581030000000
  0.8905436700000000  0.7460334400000000  0.9688236700000000
  0.7400875600000000  0.7569360500000000  0.3624578500000000
  0.1933567100000000  0.1197372400000000  0.5869076800000000
  0.9875459599999999  0.3241737400000000  0.3928282200000000
  0.0982789190000000  0.6823832800000000  0.8699072000000000
  0.3422965100000000  0.8910427400000001  0.1089821000000000
  0.9146499200000000  0.9763769500000000  0.0122275380000000
  0.1841040100000000  0.1457741500000000  0.7080626200000000
  0.8247981000000000  0.6379373600000000  0.2529133000000000
  0.5640405700000000  0.1820314600000000  0.0434570900000000
  0.8747560400000000  0.8907582200000000  0.3758646300000000
  0.3982467400000000  0.0229368450000000 -0.0063749970000000
  0.9660745700000000  0.1718985500000000  0.0450508590000000
  0.6722610600000000  0.5077051900000000  0.6109377600000000
  0.3434736100000000  0.7938942600000000  0.4192664200000000
  0.0821616710000000  0.9514348600000000  0.1397941700000000
  0.2280227800000000  0.2159106500000000  0.2080235400000000
  0.1794021900000000  0.6645385200000000  0.2096725100000000
  0.5615700700000000  0.5168907200000000  0.3768139000000000
  0.2894349800000000  0.8458521500000000  0.7613048800000000
  0.5477814600000001  0.3562825800000000  0.5158332600000000
  0.5922235100000000  0.5464683200000000  0.7939237700000000
  0.7537208300000000  0.1217239900000000  0.7227265899999999
  0.1981103900000000  0.6166504100000000  0.9056628700000000
  0.2047372000000000  0.4949848200000000  0.9234204900000000
  0.4011857300000000  0.5030497900000001  0.4578303600000000
  0.8947264900000000  0.4056729700000000  0.3678785700000000
  0.1731978800000000  0.8153179699999999  0.5692727800000000
  0.8145217100000000  0.9200222800000000  0.8089427200000000
  0.9292061900000000  0.6976111600000000  0.0790523760000000
  0.0259428560000000  0.9955235500000000  0.4874756000000000
  0.1676698100000000  0.1752038400000000  0.3871205600000000
  0.3216744300000000  0.1561689700000000  0.2628988700000000
  0.9655413900000001  0.2970880700000000  0.0206677400000000
  0.2008199200000000  0.9338655700000000  0.7479289500000000
  0.7008820300000000  0.1523020800000000  0.4776138700000000
  0.6028687400000000  0.3490088300000000  0.8885387700000000
  0.1400505900000000  0.9189580600000000  0.6377949400000000
  0.0719375500000000  0.3352174500000000  0.2984009200000000
  0.3718385700000000  0.0672682800000000  0.8622537200000000
  0.9343337500000000  0.8982723200000000  0.8392312800000000
  0.7402116700000000  0.7706926300000000  0.1280066400000000
  0.2762033700000000  0.8526778800000000  0.5080393800000000
  0.5307922400000000  0.9831558200000000  0.0929412950000000
  0.2684657000000000  0.2402771500000000  0.6985465199999999
  0.2130745000000000  0.3148928000000000  0.4898959400000000
  0.3915724400000000  0.8439234300000000  0.6916373500000000
  0.0666859650000000  0.2817470400000000  0.8647879300000000
  0.2982491500000000  0.0654880240000000  0.0576675930000000
  0.2263879500000000  0.3725843700000000  0.3778196500000000
  0.9340637800000000  0.0664735390000000  0.5377468500000000
  0.8519839000000000  0.7321291900000000  0.1722403000000000
  0.1840181900000000  0.3373141300000000  0.6822111300000000
  0.2817238600000000  0.1186249800000000  0.3736600500000000
  0.0117597790000000  0.8444031800000000  0.7535848400000000
  0.6895165400000000  0.6315447000000000  0.6233243200000000
  0.4813644900000000  0.0816192190000000  0.1566079900000000
  0.3250337600000000  0.1851570700000000  0.0321028870000000
  0.3614135900000000  0.2683990600000000  0.6167940300000000
  0.0775688760000000  0.3381050400000000  0.9809135800000000
  0.2940254700000000  0.6134693500000000  0.1939630600000000
  0.2746488600000000  0.4182490800000000  0.7189341600000000
  0.4435168800000000  0.9144185200000000  0.0332460330000000
  0.1546378500000000  0.9710588000000000  0.3188513700000000
  0.2975387700000000  0.7072946700000000  0.3391602900000000
  0.2363037900000000  0.0525119860000000  0.7755244200000000
  0.5699897000000000  0.9476130600000000  0.3479259700000000
  0.6867773200000000  0.0388983130000000  0.2167942500000000
  0.5262892800000000  0.4433842100000000  0.9308761800000001
  0.1154975700000000  0.2457750500000000  0.7494421100000001
  0.6514936300000000  0.4590779700000000  0.7224711700000001
  0.7981406700000000  0.8057834900000000  0.7554625200000000
  0.3496978200000000  0.0508965700000000  0.7160893600000000
  0.2548488500000000  0.9748287400000000  0.4990615800000000
  0.7236268500000000  0.3841790300000000  0.8692056000000000
  0.2484787100000000  0.7112689500000000  0.6074221300000000
  0.0060457823000000  0.2374071300000000  0.6821588700000000
  0.8624590100000000  0.1187960000000000  0.3440981300000000
  0.5556542100000000  0.4830633100000000  0.5581097900000001
  0.2860371600000000  0.5587552000000000  0.4771680100000000
  0.8587770700000000  0.8845297400000000  0.5041245100000000
  0.6175518100000000  0.3303224100000000  0.3118904700000000
  0.9387315700000000  0.4391131100000000  0.5785173200000000
  0.8113969800000000  0.6670895500000000  0.5817298300000000
  0.3087480500000000  0.0589395010000000  0.5878589400000001
  0.9296183400000000  0.8244833400000000  0.2223535800000000
  0.3937306900000000  0.2587130300000000  0.2799129800000000
  0.3199077400000000  0.3862681400000000  0.0510246440000000
  0.7932049100000000  0.9969276200000000  0.0542795110000000
  0.7067415600000000  0.4264259600000000  0.2883890000000000
  0.3429389800000000  0.3517813700000000  0.9173287900000000
  0.4983577300000000  0.6956851300000000  0.3553116000000000
  0.7652477400000000  0.2579383000000000  0.4378064100000000
  0.3909736200000000  0.6909664700000000  0.2495833700000000
  0.5737887300000000  0.8359545200000000  0.6667468800000000
  0.4177938000000000  0.3904207500000000  0.5303478200000000
  0.6680946400000000  0.7704986400000000  0.4670723000000000
  0.8547872900000000  0.4716671500000000  0.4789292500000000
  0.6753056400000000  0.4671369300000000  0.4075290900000000
  0.7727877800000000  0.7923154500000000  0.5463906200000000
  0.5829296000000000  0.3505092900000000  0.6896818400000000
  0.5836531800000000  0.2562533200000000  0.5929534700000000
  0.9040770299999999  0.1918992600000000  0.5317331300000000
  0.6797788600000000  0.3546321300000000  0.4800622800000000
  0.7875445100000000  0.2257390300000000  0.2944902400000000
  0.4583928900000000  0.4832871600000000  0.6547981300000000
  0.4617168400000000  0.7819920800000000  0.4828162400000000
  0.7544857900000000  0.6902368400000000  0.8122950200000000
  0.9397215700000000  0.5649720200000000  0.0818564270000000
  0.3537144800000000  0.6638290500000000  0.5328296200000000
  0.6652594800000000  0.2116224500000000  0.3399155600000000
  0.7574943300000000  0.4228388400000000  0.5622704100000000
  0.8033684600000000  0.9115092600000000  0.6602858000000000
  0.2260055700000000  0.8420189600000000  0.0802315550000000
  0.7221182700000000  0.4832539300000000  0.9527370200000000
  0.2877492800000000  0.4897655300000000  0.2259164500000000
  0.9540744400000000  0.1972956700000000  0.4075158900000000
  0.2712807900000000  0.6444882100000000  0.8053709600000000
  0.7426788100000000  0.4399884800000000  0.0813766240000000
  0.0302436680000000  0.2315608400000000  0.5528056300000000
  0.9233652900000000 -0.0033124261000000  0.3158323300000000
  0.6986475800000000  0.5966961100000000  0.4266545500000000
  0.6761232000000000  0.8272622900000000  0.2270600700000000
 -0.0059657662000000  0.4712806800000000  0.8667432300000000
  0.9412658600000000  0.6557987100000000  0.6197884600000000
  0.8792644900000000  0.5281725400000000  0.2017075700000000
  0.3440386400000000  0.8370806000000000  0.8820514600000000
  0.5772355800000000  0.6549695900000000  0.9842077100000000
  0.5843707400000000  0.9664452000000000  0.4884204600000000
  0.4748115300000000  0.5948559000000000  0.0627733580000000
  0.2425425600000000  0.6746423499999999  0.0106355850000000
  0.3633338900000000  0.5801306800000000  0.6378167400000000
  0.3338261300000000  0.5989144199999999  0.0695215310000000
  0.0286205790000000  0.3580471200000000  0.5184298600000000
  0.2028095800000000  0.4901620100000000  0.3264413700000000
  0.4762596200000000  0.5944016700000000  0.1986408200000000
  0.3592976900000000  0.8966487800000000  0.3360282200000000
  0.5830670999999999  0.6026032200000000  0.2807225900000000
  0.8123259200000000  0.5789184500000000  0.9333263300000000
  0.3123757400000000  0.9624102000000000  0.9123891200000001
  0.5760160300000000  0.3160238800000000  0.1890717000000000
  0.9591851800000000  0.0827688510000000  0.9462192500000000
  0.2038069900000000  0.4377302600000000  0.1337301100000000
  0.1411465600000000  0.1264023600000000  0.1678961400000000
  0.9620743500000000 -0.0063513006000000  0.1294144300000000
  0.3941778400000000  0.8706610700000000  0.5627073600000000
  0.7375539000000000  0.1958615600000000  0.9802597100000000
  0.6145232600000000  0.2206862300000000  0.9288661400000000
  0.6571178600000001  0.5137724100000000  0.1990850700000000
  0.4465835000000000  0.9830613300000000  0.4894583700000000
  0.9575987800000000  0.5062655300000000  0.3141824000000000
  0.9394496000000000  0.0297818720000000  0.6624437900000000
  0.0961781660000000  0.1613981600000000  0.0462145350000000
  0.5416938500000000  0.3196560500000000  0.0140271200000000
  0.1312294900000000  0.3832038200000000  0.8008680200000000
  0.7057070200000000  0.7979324600000000  0.6611559600000000
  0.5399523400000000  0.1592253200000000  0.8120026700000000
  0.6998264400000000  0.6701892300000000  0.0505124680000000
  0.8269939600000000  0.6051889900000000  0.4635200700000000
  0.7177685800000000  0.8826866600000000  0.0636618950000000
  0.6977069500000000  0.9847063100000000  0.3339570500000000
  0.5167395700000000  0.9568444600000000  0.6220230400000000
  0.6406499100000000  0.6592058700000000  0.7463336699999999
  0.5222730700000000  0.7270065100000001  0.5946879900000001
  0.2444281100000000  0.5263315700000000  0.6574062100000000
  0.7413161200000000  0.1002925400000000  0.5913471900000000
  0.1158300400000000  0.6847491900000000  0.6004619600000000
  0.1400143700000000  0.0100533580000000  0.5464330300000000
  0.5101127700000000  0.5813758200000000  0.4767176600000000
  0.5906587900000000  0.0600057770000000  0.0044982933000000
  0.6881973600000000  0.8275544300000000  0.9429430800000000
  0.7736313800000000  0.4513830500000000  0.7657481200000000
  0.4516312400000000  0.2857974000000000  0.1654084400000000
  0.3529173800000000  0.3481786600000000  0.3709286500000000
  0.8639082800000000  0.9406622800000000  0.2092100100000000
  0.4386391700000000  0.9560290200000000  0.7341110600000000
  0.0092746288000000  0.5365341800000000  0.6305624800000000
  0.0755381000000000  0.0373683960000000  0.7333841700000000
  0.6200746300000000  0.0500932280000000  0.6277202400000000
  0.7911512800000000  0.0922976160000000  0.1531531900000000
  0.0595489460000000  0.4507832400000000  0.1462253300000000
  0.8962959000000000  0.1128413800000000  0.8326688200000000
  0.9596105300000000  0.6021136200000000  0.7941030400000000
  0.0339778300000000  0.9856294500000000  0.8527477700000000
 -0.0001972380700000  0.6832453500000000  0.5000734900000000
  0.8185556100000000  0.0119159430000000  0.5206247400000000
  0.0287193570000000  0.1637049900000000  0.2271930400000000
  0.2531031800000000  0.2781621900000000  0.0970055690000000
  0.4523185900000000  0.4438353000000000  0.3487815900000000
  0.8258784900000000  0.5729962000000000  0.8020573600000001
  0.1378984100000000  0.9314544200000000  0.0296314470000000
  0.9260536800000000  0.1165359200000000  0.1558111300000000
  0.6127288200000000  0.4175094800000000  0.1128575100000000
  0.1144622400000000  0.6530839700000000  0.3334257400000000
  0.0221195270000000  0.5844398500000000  0.4048722600000000
  0.4526744300000000  0.7320827700000000  0.7185422400000000
  0.8837885500000000  0.3505055500000000  0.9407055900000000
  0.0685019500000000  0.5042113400000000  0.7538727500000000
  0.7190886399999999  0.0582825800000000  0.9628462400000000
  0.0806738220000000  0.1515045100000000  0.9094475300000000
  0.6354267800000000  0.9375859100000000  0.1546438100000000
  0.0887785660000000  0.5665501300000000  0.5252949200000000
  0.9084209400000000  0.7575720000000000  0.8178516300000001
  0.0605318460000000  0.8326748899999999  0.9872288000000000
  0.5758471600000000  0.1094664100000000  0.4873604800000000
  0.7578696000000000  0.5675539800000000  0.1276281600000000
  0.9793677100000000  0.6506287400000000  0.9207984900000000
  0.2343853400000000  0.7762849800000000  0.2443224200000000
  0.0711391960000000  0.5490169000000000  0.0558779970000000
  0.4988026400000000  0.0625273760000000  0.9065522000000000
  0.7600401300000000  0.2214048300000000  0.1134523900000000
  0.9423983400000000  0.7838288300000000  0.3486934300000000
  0.9014678300000000  0.4888850900000000  0.9694879500000000
  0.1329789900000000  0.8490770700000000  0.2835498900000000
  0.4982636200000000  0.9084391100000000  0.2328545000000000
  0.0792906970000000  0.4623359200000000  0.2788111200000000
  0.4661045300000000  0.1946070100000000  0.6311500000000000
  0.0741436090000000  0.7755849900000000  0.3718120000000000
  0.8431298800000000  0.3923850100000000  0.6637605400000000
  0.7152648000000000  0.9467523300000000  0.8849414600000000
  0.3604472500000000  0.8225415100000000  0.2177474600000000
  0.5643620000000000  0.8083214500000000  0.3041165500000000
  0.8233139600000000  0.2157342800000000  0.7893477800000001
  0.5588311400000000  0.1265950800000000  0.3474372400000000
  0.4229970900000000  0.1059941800000000  0.5399208800000000
 
  0.00000000E+00  0.00000000E+00  0.00000000E+00
  0.00000000E+00  0.00000000E+00  0.00000000E+00
  0.00000000E+00  0.00000000E+00  0.00000000E+00
  0.00000000E+00  0.00000000E+00  0.00000000E+00
  0.00000000E+00  0.00000000E+00  0.00000000E+00
  0.00000000E+00  0.00000000E+00  0.00000000E+00
  0.00000000E+00  0.00000000E+00  0.00000000E+00
  0.00000000E+00  0.00000000E+00  0.00000000E+00
  0.00000000E+00  0.00000000E+00  0.00000000E+00
  0.00000000E+00  0.00000000E+00  0.00000000E+00
  0.00000000E+00  0.00000000E+00  0.00000000E+00
  0.00000000E+00  0.00000000E+00  0.00000000E+00
  0.00000000E+00  0.00000000E+00  0.00000000E+00
  0.00000000E+00  0.00000000E+00  0.00000000E+00
  0.00000000E+00  0.00000000E+00  0.00000000E+00
  0.00000000E+00  0.00000000E+00  0.00000000E+00
  0.00000000E+00  0.00000000E+00  0.00000000E+00
  0.00000000E+00  0.00000000E+00  0.00000000E+00
  0.00000000E+00  0.00000000E+00  0.00000000E+00
  0.00000000E+00  0.00000000E+00  0.00000000E+00
  0.00000000E+00  0.00000000E+00  0.00000000E+00
  0.00000000E+00  0.00000000E+00  0.00000000E+00
  0.00000000E+00  0.00000000E+00  0.00000000E+00
  0.00000000E+00  0.00000000E+00  0.00000000E+00
  0.00000000E+00  0.00000000E+00  0.00000000E+00
  0.00000000E+00  0.00000000E+00  0.00000000E+00
  0.00000000E+00  0.00000000E+00  0.00000000E+00
  0.00000000E+00  0.00000000E+00  0.00000000E+00
  0.00000000E+00  0.00000000E+00  0.00000000E+00
  0.00000000E+00  0.00000000E+00  0.00000000E+00
  0.00000000E+00  0.00000000E+00  0.00000000E+00
  0.00000000E+00  0.00000000E+00  0.00000000E+00
  0.00000000E+00  0.00000000E+00  0.00000000E+00
  0.00000000E+00  0.00000000E+00  0.00000000E+00
  0.00000000E+00  0.00000000E+00  0.00000000E+00
  0.00000000E+00  0.00000000E+00  0.00000000E+00
  0.00000000E+00  0.00000000E+00  0.00000000E+00
  0.00000000E+00  0.00000000E+00  0.00000000E+00
  0.00000000E+00  0.00000000E+00  0.00000000E+00
  0.00000000E+00  0.00000000E+00  0.00000000E+00
  0.00000000E+00  0.00000000E+00  0.00000000E+00
  0.00000000E+00  0.00000000E+00  0.00000000E+00
  0.00000000E+00  0.00000000E+00  0.00000000E+00
  0.00000000E+00  0.00000000E+00  0.00000000E+00
  0.00000000E+00  0.00000000E+00  0.00000000E+00
  0.00000000E+00  0.00000000E+00  0.00000000E+00
  0.00000000E+00  0.00000000E+00  0.00000000E+00
  0.00000000E+00  0.00000000E+00  0.00000000E+00
  0.00000000E+00  0.00000000E+00  0.00000000E+00
  0.00000000E+00  0.00000000E+00  0.00000000E+00
  0.00000000E+00  0.00000000E+00  0.00000000E+00
  0.00000000E+00  0.00000000E+00  0.00000000E+00
  0.00000000E+00  0.00000000E+00  0.00000000E+00
  0.00000000E+00  0.00000000E+00  0.00000000E+00
  0.00000000E+00  0.00000000E+00  0.00000000E+00
  0.00000000E+00  0.00000000E+00  0.00000000E+00
  0.00000000E+00  0.00000000E+00  0.00000000E+00
  0.00000000E+00  0.00000000E+00  0.00000000E+00
  0.00000000E+00  0.00000000E+00  0.00000000E+00
  0.00000000E+00  0.00000000E+00  0.00000000E+00
  0.00000000E+00  0.00000000E+00  0.00000000E+00
  0.00000000E+00  0.00000000E+00  0.00000000E+00
  0.00000000E+00  0.00000000E+00  0.00000000E+00
  0.00000000E+00  0.00000000E+00  0.00000000E+00
  0.00000000E+00  0.00000000E+00  0.00000000E+00
  0.00000000E+00  0.00000000E+00  0.00000000E+00
  0.00000000E+00  0.00000000E+00  0.00000000E+00
  0.00000000E+00  0.00000000E+00  0.00000000E+00
  0.00000000E+00  0.00000000E+00  0.00000000E+00
  0.00000000E+00  0.00000000E+00  0.00000000E+00
  0.00000000E+00  0.00000000E+00  0.00000000E+00
  0.00000000E+00  0.00000000E+00  0.00000000E+00
  0.00000000E+00  0.00000000E+00  0.00000000E+00
  0.00000000E+00  0.00000000E+00  0.00000000E+00
  0.00000000E+00  0.00000000E+00  0.00000000E+00
  0.00000000E+00  0.00000000E+00  0.00000000E+00
  0.00000000E+00  0.00000000E+00  0.00000000E+00
  0.00000000E+00  0.00000000E+00  0.00000000E+00
  0.00000000E+00  0.00000000E+00  0.00000000E+00
  0.00000000E+00  0.00000000E+00  0.00000000E+00
  0.00000000E+00  0.00000000E+00  0.00000000E+00
  0.00000000E+00  0.00000000E+00  0.00000000E+00
  0.00000000E+00  0.00000000E+00  0.00000000E+00
  0.00000000E+00  0.00000000E+00  0.00000000E+00
  0.00000000E+00  0.00000000E+00  0.00000000E+00
  0.00000000E+00  0.00000000E+00  0.00000000E+00
  0.00000000E+00  0.00000000E+00  0.00000000E+00
  0.00000000E+00  0.00000000E+00  0.00000000E+00
  0.00000000E+00  0.00000000E+00  0.00000000E+00
  0.00000000E+00  0.00000000E+00  0.00000000E+00
  0.00000000E+00  0.00000000E+00  0.00000000E+00
  0.00000000E+00  0.00000000E+00  0.00000000E+00
  0.00000000E+00  0.00000000E+00  0.00000000E+00
  0.00000000E+00  0.00000000E+00  0.00000000E+00
  0.00000000E+00  0.00000000E+00  0.00000000E+00
  0.00000000E+00  0.00000000E+00  0.00000000E+00
  0.00000000E+00  0.00000000E+00  0.00000000E+00
  0.00000000E+00  0.00000000E+00  0.00000000E+00
  0.00000000E+00  0.00000000E+00  0.00000000E+00
  0.00000000E+00  0.00000000E+00  0.00000000E+00
  0.00000000E+00  0.00000000E+00  0.00000000E+00
  0.00000000E+00  0.00000000E+00  0.00000000E+00
  0.00000000E+00  0.00000000E+00  0.00000000E+00
  0.00000000E+00  0.00000000E+00  0.00000000E+00
  0.00000000E+00  0.00000000E+00  0.00000000E+00
  0.00000000E+00  0.00000000E+00  0.00000000E+00
  0.00000000E+00  0.00000000E+00  0.00000000E+00
  0.00000000E+00  0.00000000E+00  0.00000000E+00
  0.00000000E+00  0.00000000E+00  0.00000000E+00
  0.00000000E+00  0.00000000E+00  0.00000000E+00
  0.00000000E+00  0.00000000E+00  0.00000000E+00
  0.00000000E+00  0.00000000E+00  0.00000000E+00
  0.00000000E+00  0.00000000E+00  0.00000000E+00
  0.00000000E+00  0.00000000E+00  0.00000000E+00
  0.00000000E+00  0.00000000E+00  0.00000000E+00
  0.00000000E+00  0.00000000E+00  0.00000000E+00
  0.00000000E+00  0.00000000E+00  0.00000000E+00
  0.00000000E+00  0.00000000E+00  0.00000000E+00
  0.00000000E+00  0.00000000E+00  0.00000000E+00
  0.00000000E+00  0.00000000E+00  0.00000000E+00
  0.00000000E+00  0.00000000E+00  0.00000000E+00
  0.00000000E+00  0.00000000E+00  0.00000000E+00
  0.00000000E+00  0.00000000E+00  0.00000000E+00
  0.00000000E+00  0.00000000E+00  0.00000000E+00
  0.00000000E+00  0.00000000E+00  0.00000000E+00
  0.00000000E+00  0.00000000E+00  0.00000000E+00
  0.00000000E+00  0.00000000E+00  0.00000000E+00
  0.00000000E+00  0.00000000E+00  0.00000000E+00
  0.00000000E+00  0.00000000E+00  0.00000000E+00
  0.00000000E+00  0.00000000E+00  0.00000000E+00
  0.00000000E+00  0.00000000E+00  0.00000000E+00
  0.00000000E+00  0.00000000E+00  0.00000000E+00
  0.00000000E+00  0.00000000E+00  0.00000000E+00
  0.00000000E+00  0.00000000E+00  0.00000000E+00
  0.00000000E+00  0.00000000E+00  0.00000000E+00
  0.00000000E+00  0.00000000E+00  0.00000000E+00
  0.00000000E+00  0.00000000E+00  0.00000000E+00
  0.00000000E+00  0.00000000E+00  0.00000000E+00
  0.00000000E+00  0.00000000E+00  0.00000000E+00
  0.00000000E+00  0.00000000E+00  0.00000000E+00
  0.00000000E+00  0.00000000E+00  0.00000000E+00
  0.00000000E+00  0.00000000E+00  0.00000000E+00
  0.00000000E+00  0.00000000E+00  0.00000000E+00
  0.00000000E+00  0.00000000E+00  0.00000000E+00
  0.00000000E+00  0.00000000E+00  0.00000000E+00
  0.00000000E+00  0.00000000E+00  0.00000000E+00
  0.00000000E+00  0.00000000E+00  0.00000000E+00
  0.00000000E+00  0.00000000E+00  0.00000000E+00
  0.00000000E+00  0.00000000E+00  0.00000000E+00
  0.00000000E+00  0.00000000E+00  0.00000000E+00
  0.00000000E+00  0.00000000E+00  0.00000000E+00
  0.00000000E+00  0.00000000E+00  0.00000000E+00
  0.00000000E+00  0.00000000E+00  0.00000000E+00
  0.00000000E+00  0.00000000E+00  0.00000000E+00
  0.00000000E+00  0.00000000E+00  0.00000000E+00
  0.00000000E+00  0.00000000E+00  0.00000000E+00
  0.00000000E+00  0.00000000E+00  0.00000000E+00
  0.00000000E+00  0.00000000E+00  0.00000000E+00
  0.00000000E+00  0.00000000E+00  0.00000000E+00
  0.00000000E+00  0.00000000E+00  0.00000000E+00
  0.00000000E+00  0.00000000E+00  0.00000000E+00
  0.00000000E+00  0.00000000E+00  0.00000000E+00
  0.00000000E+00  0.00000000E+00  0.00000000E+00
  0.00000000E+00  0.00000000E+00  0.00000000E+00
  0.00000000E+00  0.00000000E+00  0.00000000E+00
  0.00000000E+00  0.00000000E+00  0.00000000E+00
  0.00000000E+00  0.00000000E+00  0.00000000E+00
  0.00000000E+00  0.00000000E+00  0.00000000E+00
  0.00000000E+00  0.00000000E+00  0.00000000E+00
  0.00000000E+00  0.00000000E+00  0.00000000E+00
  0.00000000E+00  0.00000000E+00  0.00000000E+00
  0.00000000E+00  0.00000000E+00  0.00000000E+00
  0.00000000E+00  0.00000000E+00  0.00000000E+00
  0.00000000E+00  0.00000000E+00  0.00000000E+00
  0.00000000E+00  0.00000000E+00  0.00000000E+00
  0.00000000E+00  0.00000000E+00  0.00000000E+00
  0.00000000E+00  0.00000000E+00  0.00000000E+00
  0.00000000E+00  0.00000000E+00  0.00000000E+00
  0.00000000E+00  0.00000000E+00  0.00000000E+00
  0.00000000E+00  0.00000000E+00  0.00000000E+00
  0.00000000E+00  0.00000000E+00  0.00000000E+00
  0.00000000E+00  0.00000000E+00  0.00000000E+00
  0.00000000E+00  0.00000000E+00  0.00000000E+00
  0.00000000E+00  0.00000000E+00  0.00000000E+00
  0.00000000E+00  0.00000000E+00  0.00000000E+00
  0.00000000E+00  0.00000000E+00  0.00000000E+00
  0.00000000E+00  0.00000000E+00  0.00000000E+00
  0.00000000E+00  0.00000000E+00  0.00000000E+00
  0.00000000E+00  0.00000000E+00  0.00000000E+00
  0.00000000E+00  0.00000000E+00  0.00000000E+00
  0.00000000E+00  0.00000000E+00  0.00000000E+00
  0.00000000E+00  0.00000000E+00  0.00000000E+00
  0.00000000E+00  0.00000000E+00  0.00000000E+00
  0.00000000E+00  0.00000000E+00  0.00000000E+00
  0.00000000E+00  0.00000000E+00  0.00000000E+00
  0.00000000E+00  0.00000000E+00  0.00000000E+00
  0.00000000E+00  0.00000000E+00  0.00000000E+00
  0.00000000E+00  0.00000000E+00  0.00000000E+00
  0.00000000E+00  0.00000000E+00  0.00000000E+00
  0.00000000E+00  0.00000000E+00  0.00000000E+00
  0.00000000E+00  0.00000000E+00  0.00000000E+00
  0.00000000E+00  0.00000000E+00  0.00000000E+00
  0.00000000E+00  0.00000000E+00  0.00000000E+00
  0.00000000E+00  0.00000000E+00  0.00000000E+00
  0.00000000E+00  0.00000000E+00  0.00000000E+00
  0.00000000E+00  0.00000000E+00  0.00000000E+00
  0.00000000E+00  0.00000000E+00  0.00000000E+00
  0.00000000E+00  0.00000000E+00  0.00000000E+00
  0.00000000E+00  0.00000000E+00  0.00000000E+00
  0.00000000E+00  0.00000000E+00  0.00000000E+00
  0.00000000E+00  0.00000000E+00  0.00000000E+00
  0.00000000E+00  0.00000000E+00  0.00000000E+00
  0.00000000E+00  0.00000000E+00  0.00000000E+00
  0.00000000E+00  0.00000000E+00  0.00000000E+00
  0.00000000E+00  0.00000000E+00  0.00000000E+00
  0.00000000E+00  0.00000000E+00  0.00000000E+00
  0.00000000E+00  0.00000000E+00  0.00000000E+00
  0.00000000E+00  0.00000000E+00  0.00000000E+00
  0.00000000E+00  0.00000000E+00  0.00000000E+00
  0.00000000E+00  0.00000000E+00  0.00000000E+00
  0.00000000E+00  0.00000000E+00  0.00000000E+00
  0.00000000E+00  0.00000000E+00  0.00000000E+00
  0.00000000E+00  0.00000000E+00  0.00000000E+00
  0.00000000E+00  0.00000000E+00  0.00000000E+00
  0.00000000E+00  0.00000000E+00  0.00000000E+00
  0.00000000E+00  0.00000000E+00  0.00000000E+00
  0.00000000E+00  0.00000000E+00  0.00000000E+00
  0.00000000E+00  0.00000000E+00  0.00000000E+00
  0.00000000E+00  0.00000000E+00  0.00000000E+00
  0.00000000E+00  0.00000000E+00  0.00000000E+00
  0.00000000E+00  0.00000000E+00  0.00000000E+00
  0.00000000E+00  0.00000000E+00  0.00000000E+00