Bi12 Te9                                
   1.00000000000000     
     2.2537636733883000   -3.9036331905616013   -0.0000000000000001
     2.2537636733883000    3.9036331905616013    0.0000000000000000
    -0.0000000000000001   -0.0000000000000002   42.9195737594437290
   Bi   Te
    12     9
Direct
  0.0000000000000000  0.0000000000000000  0.1472870056471120
  0.6666666666666643  0.3333333333333357  0.1860463276862237
  0.6666666666666643  0.3333333333333357  0.4806203389804407
  0.3333333333333357  0.6666666666666643  0.5193796610195591
  0.3333333333333357  0.6666666666666643  0.8139536723137766
  0.0000000000000000  0.0000000000000000  0.8527129943528877
  0.0000000000000000  0.0000000000000000  0.2865539862929153
  0.6666666666666643  0.3333333333333357  0.0467793470404204
  0.6666666666666643  0.3333333333333357  0.6198873196262433
  0.3333333333333357  0.6666666666666643  0.3801126803737561
  0.3333333333333357  0.6666666666666643  0.9532206529595790
  0.0000000000000000  0.0000000000000000  0.7134460137070853
  0.0000000000000000  0.0000000000000000  0.0000000000000000
  0.3333333333333357  0.6666666666666643  0.2467988680034068
  0.3333333333333357  0.6666666666666643  0.0865344653299290
  0.6666666666666643  0.3333333333333357  0.3333333333333357
  0.0000000000000000  0.0000000000000000  0.5801322013367426
  0.0000000000000000  0.0000000000000000  0.4198677986632575
  0.3333333333333357  0.6666666666666643  0.6666666666666643
  0.6666666666666643  0.3333333333333357  0.9134655346700712
  0.6666666666666643  0.3333333333333357  0.7532011319965931
 
  0.00000000E+00  0.00000000E+00  0.00000000E+00
  0.00000000E+00  0.00000000E+00  0.00000000E+00
  0.00000000E+00  0.00000000E+00  0.00000000E+00
  0.00000000E+00  0.00000000E+00  0.00000000E+00
  0.00000000E+00  0.00000000E+00  0.00000000E+00
  0.00000000E+00  0.00000000E+00  0.00000000E+00
  0.00000000E+00  0.00000000E+00  0.00000000E+00
  0.00000000E+00  0.00000000E+00  0.00000000E+00
  0.00000000E+00  0.00000000E+00  0.00000000E+00
  0.00000000E+00  0.00000000E+00  0.00000000E+00
  0.00000000E+00  0.00000000E+00  0.00000000E+00
  0.00000000E+00  0.00000000E+00  0.00000000E+00
  0.00000000E+00  0.00000000E+00  0.00000000E+00
  0.00000000E+00  0.00000000E+00  0.00000000E+00
  0.00000000E+00  0.00000000E+00  0.00000000E+00
  0.00000000E+00  0.00000000E+00  0.00000000E+00
  0.00000000E+00  0.00000000E+00  0.00000000E+00
  0.00000000E+00  0.00000000E+00  0.00000000E+00
  0.00000000E+00  0.00000000E+00  0.00000000E+00
  0.00000000E+00  0.00000000E+00  0.00000000E+00
  0.00000000E+00  0.00000000E+00  0.00000000E+00
