Amorphous Sb                            
   1.00000000000000     
    20.0278877257999994    0.0000000000000000    0.0000000000000000
     0.0000000000000000   20.0278877257999994    0.0000000000000000
     0.0000000000000000    0.0000000000000000   20.0278877257999994
   Ge   Se
   151   151
Selective dynamics
Direct
  0.6025371550000003  0.6660313009999967  0.6864894630000009   F   F   F
  0.8165118690000028  0.3946960569999973  0.3574110870000027   F   F   F
  0.7695150380000015  0.5198313590000012  0.3527172800000002   F   F   F
  0.6851938369999999  0.7016353010000032  0.5192888979999992   F   F   F
  0.7312344910000022  0.6466585989999984  0.4007343950000006   F   F   F
  0.8297632339999979  0.4884720149999993  0.4890668990000009   F   F   F
  0.5952410700000001  0.5135951039999966  0.3180025220000005   F   F   F
  0.7516469360000002  0.8642237780000031  0.4840841290000029   F   F   F
  0.7232475280000017  0.5283251399999997  0.6262135509999993   F   F   F
  0.8809369210000000  0.7027934190000025  0.5080038310000035   F   F   F
  0.6653391119999981  0.4089131360000025  0.4413410720000002   F   F   F
  0.8380390410000018  0.8228344320000005  0.3710731569999979   F   F   F
  0.8404930230000005  0.1771030430000025  0.3998702170000001   F   F   F
  0.5577128529999982  0.8609227540000006  0.5530581470000016   F   F   F
  0.9895057080000029  0.5380229350000008  0.3252456490000029   F   F   F
  0.9043133850000018  0.6769191619999972  0.2978702779999978   F   F   F
  0.9805069570000029  0.2489037069999966  0.2802260220000008   F   F   F
  0.6927124259999999  0.4184431139999987  0.2041028889999978   F   F   F
  0.4985905085851520  0.7413026953566583  0.8105806838673547   T   T   T
  0.3926093119473799  0.2798116529234344  0.6425954399305107   T   T   T
  0.5680546123458946  0.2755105998572385  0.6671983630568793   T   T   T
  0.8072370599545329  0.0671597305614596  0.7323971340149039   T   T   T
  0.2357089864415268  0.7084476399487341  0.0164025490050289   T   T   T
  0.1238128652577566  0.0918601239206855  0.3101791205088210   T   T   T
  0.2317065211620078  0.8090059237473907  0.7165468078896061   T   T   T
  0.3260755169444683  0.8934478678949626  0.2124973443400607   T   T   T
  0.2558646511858292  0.9572364147421628  0.5808744195413056   T   T   T
  0.0186329107963727  0.0196628027858992  0.3364267673307811   T   T   T
  0.5987975239946489  0.6375644349668876  0.9645347927614536   T   T   T
  0.2595538185009752  0.9381898059878918  0.8837467857159075   T   T   T
  0.8869935747316946  0.8311411896131931  0.1630553238675223   T   T   T
  0.0238459592695938  0.7723401366535038  0.3063941069772194   T   T   T
  0.0710966667992820  0.5951011416987729  0.8951892852344256   T   T   T
  0.8921525440533126  0.8969614524063971  0.5268579970084442   T   T   T
  0.0008560373236457  0.9290473553815198  0.1377745023279229   T   T   T
  0.3150636320902946  0.7328007188734631  0.8444460614902169   T   T   T
  0.9291229077395283  0.0898602857849473  0.8409675240501472   T   T   T
  0.9893614309891103  0.1882773935689389  0.9659132762238931   T   T   T
  0.5684163681886736  0.3333060301933897  0.0955976387674001   T   T   T
  0.3456035651645938  0.1133404110060981  0.6115969706829857   T   T   T
  0.4792132467649054  0.7579541172386137  0.3073518357490272   T   T   T
  0.8122656811124077  0.8440388772865189  0.9376815154409848   T   T   T
  0.1038624039308404  0.3680152077934375  0.6494891706420601   T   T   T
  0.0529281301020247  0.0829089206789300  0.1148493372967752   T   T   T
  0.3075199074768976  0.4508484257415839  0.2979255888192197   T   T   T
  0.0366242800288259  0.5252598398799601  0.5088687182652003   T   T   T
  0.8506462202728672  0.6395398874760073  0.0855804566339153   T   T   T
  0.2776565897142294  0.5568119640403425  0.8191613575805284   T   T   T
  0.2979894263864703  0.1357940847181456  0.1157641585757320   T   T   T
  0.2032952663255500  0.4047420339343627  0.1410370956933936   T   T   T
  0.6444820085824141  0.4058558100586910  0.7633376516609665   T   T   T
  0.4988724297267331  0.0815097478737173  0.0312804577587325   T   T   T
  0.3309362154735033  0.7784310806971034  0.1487509651330826   T   T   T
  0.3365887004094036  0.5643768093809532  0.5532684481550273   T   T   T
  0.7530766310000457  0.8252654379738379  0.1659879584721421   T   T   T
  0.0968968812598212  0.2704753482554720  0.3537164912772682   T   T   T
  0.0006650384435926  0.7746211073820011  0.7979711137665642   T   T   T
  0.4582475464264754  0.1152753231213940  0.2679924221621887   T   T   T
  0.1522093123497159  0.4203277906042851  0.9598588794774101   T   T   T
  0.0326869179404586  0.3293526670806945  0.0881870783873600   T   T   T
  0.6067302857406794  0.8416198152141676  0.8688300090377465   T   T   T
  0.5035742906072251  0.4806410320861032  0.5986090646806583   T   T   T
  0.7000410681655445  0.8998770981087132  0.0775105591607891   T   T   T
  0.1699899276750031  0.7687136410680327  0.4153150827025279   T   T   T
  0.9898645740337966  0.3076266267785558  0.5080139657413072   T   T   T
  0.0806937306072089  0.0862600953515920  0.7133379000501177   T   T   T
  0.4885032974742262  0.3887333774576068  0.2467044555873582   T   T   T
  0.6942130222407613  0.1550304410051609  0.1401780909183173   T   T   T
  0.3756190126845083  0.5945420303525361  0.1973083120800569   T   T   T
  0.7653699031270326  0.0086805696328589  0.9268822868621365   T   T   T
  0.3644861323554816  0.7811317253096749  0.9714496607313895   T   T   T
  0.0455175073759363  0.4592261010443770  0.7833313088932872   T   T   T
  0.7056037827044012  0.8157664207285898  0.6958101395152704   T   T   T
  0.5909907801225449  0.9877498446719293  0.9252418211771251   T   T   T
  0.8671736105388208  0.2574103862307668  0.1379512390200149   T   T   T
  0.8550416849999455  0.3360525113382391  0.0311639330875086   T   T   T
  0.8807664572295979  0.5098301040638267  0.7174483855825848   T   T   T
  0.3816381703342674  0.3081934844005374  0.0509670481656002   T   T   T
  0.4043786330156262  0.4008656961234880  0.4255433744398700   T   T   T
  0.4976908570352872  0.9397162693782780  0.2746221980639932   T   T   T
  0.2787352480453485  0.3450941191476359  0.3841473911344387   T   T   T
  0.6131994019777633  0.9831231478871372  0.1206915738329804   T   T   T
  0.2105040203806074  0.2366515056247044  0.2021147747426344   T   T   T
  0.8045283480290379  0.2060996419757233  0.8952623148573408   T   T   T
  0.1936970767955239  0.9527270567969731  0.0141677725771759   T   T   T
  0.4083335035820367  0.3748224231654866  0.9445160172062115   T   T   T
  0.5474794955923297  0.1501423619564236  0.8385532620023723   T   T   T
  0.9210743725799939  0.6491101427884896  0.7106433792165355   T   T   T
  0.7696450939787368  0.5022280626841935  0.9756004380444998   T   T   T
  0.2114248961227645  0.0406182069842803  0.7293791475290601   T   T   T
  0.6171752950813962  0.2428895758463741  0.9771489738402847   T   T   T
  0.4793204551626068  0.6683282148328683  0.6068144104168257   T   T   T
  0.6299882756316381  0.2806828955306675  0.4720854114890499   T   T   T
  0.6043132466231875  0.6611707452642204  0.1950025203879114   T   T   T
  0.6363984799603057  0.2261675195773604  0.3168895935058271   T   T   T
  0.6686593170107015  0.1606610503886035  0.8880355071754387   T   T   T
  0.9338180293903048  0.0741098121059745  0.4979989732909342   T   T   T
  0.3768649811420666  0.5805432197526192  0.7402539835619961   T   T   T
  0.6120809112210231  0.0640622777520027  0.4134923320392352   T   T   T
  0.7295679574929447  0.9071440153231803  0.6089077261394468   T   T   T
  0.3112794035770352  0.1202446855586850  0.9372221486194482   T   T   T
  0.2131245357639027  0.3902498632321251  0.5819960708544332   T   T   T
  0.2055606458683821  0.9396904680772926  0.3870278112604658   T   T   T
  0.1320999954647758  0.1809065857257739  0.8624782208174064   T   T   T
  0.0867276506498373  0.4414838352281020  0.2292389975814473   T   T   T
  0.4613489085460932  0.6072875198828459  0.9170619804407419   T   T   T
  0.2025313840308203  0.5544635624790452  0.0584841044186824   T   T   T
  0.8571619507095369  0.1146650443178750  0.2188079986100391   T   T   T
  0.3906034605279694  0.8481698969363546  0.5966606639000096   T   T   T
  0.6982451740274930  0.7103400578769453  0.0147682580396729   T   T   T
  0.9468558416617224  0.5716458168586589  0.9167782730907170   T   T   T
  0.0477744155383177  0.7128766652730717  0.0218770206240670   T   T   T
  0.6581185525006847  0.1225106718139904  0.6934281726454533   T   T   T
  0.4151587949693116  0.9403792428249305  0.7409546087465643   T   T   T
  0.9326164093754421  0.9405772470306656  0.7003270200165588   T   T   T
  0.0934477804750977  0.0747371693724319  0.9161524933801571   T   T   T
  0.1219501021553902  0.9112476107182051  0.2477744377705201   T   T   T
  0.7401116638518743  0.1010895595614162  0.3115266111906802   T   T   T
  0.7730311476065937  0.9382086249140683  0.3134478261720283   T   T   T
  0.3061843678058395  0.1782824292224327  0.2878121777722620   T   T   T
  0.7172438135668497  0.5781446823403905  0.8191743160226277   T   T   T
  0.2450212276872294  0.0394357425157946  0.4815933460125270   T   T   T
  0.9928773093961264  0.9734542790403021  0.9318496358152292   T   T   T
  0.8437738178621383  0.4958120386932290  0.1393069251055420   T   T   T
  0.7277792072579512  0.6958246965213726  0.7450352761235077   T   T   T
  0.0126533219107685  0.8414571793468385  0.0334421196954067   T   T   T
  0.1087451862388577  0.4533883856624183  0.4342114438931495   T   T   T
  0.2116167179835213  0.7072009743985468  0.5891352160913761   T   T   T
  0.3007332246889677  0.7827797661672597  0.4362841053520120   T   T   T
  0.6044416337706995  0.9754595014835663  0.7522619917557970   T   T   T
  0.0259119543046540  0.3175642136855431  0.8494414472762557   T   T   T
  0.3310671169878351  0.9239790786478322  0.0517905729473276   T   T   T
  0.4403852569860118  0.6352888607489575  0.3898915196885137   T   T   T
  0.8211476220652320  0.7587949785159328  0.8179649759361945   T   T   T
  0.5100780623269304  0.3429844355004660  0.8820007331096135   T   T   T
  0.3689946695896700  0.4866831365696155  0.1030484456773053   T   T   T
  0.0191423829059964  0.7691176542978555  0.6015067065763119   T   T   T
  0.1897522078693357  0.7393033296418148  0.2167918173833318   T   T   T
  0.2325847918611398  0.2062029438811217  0.7166916402523947   T   T   T
  0.4464760500189576  0.0611848933048439  0.4377536280317659   T   T   T
  0.2555232375544257  0.6067106571224349  0.3545774178572447   T   T   T
  0.3710069528203732  0.9903333142837442  0.6256112552466983   T   T   T
  0.5798831577108498  0.4871810623843400  0.0807586778311761   T   T   T
  0.0292333302601074  0.0394907813739034  0.5803883589757491   T   T   T
  0.7242066604969865  0.2940852700340383  0.6431751992166621   T   T   T
  0.5160854506531565  0.1405451984699184  0.5140882131030494   T   T   T
  0.0905065122417049  0.1375348644902549  0.4821981074846238   T   T   T
  0.1032448005008517  0.5637301754927045  0.6218233491858154   T   T   T
  0.5839219263752642  0.8828183617719043  0.2021856106870717   T   T   T
  0.4068247208823073  0.3773779289048775  0.7492776162204119   T   T   T
  0.8756590747048372  0.4434664707745444  0.8920076194881051   T   T   T
  0.8522090312427373  0.1796705844190142  0.7822024619550875   T   T   T
  0.7134022464026233  0.9879543759539540  0.4113709887771316   T   T   T
  0.0787984465380057  0.7959280638583350  0.1937262214333042   T   T   T
  0.9488751992739891  0.4387633064140123  0.4896492450390034   T   T   T
  0.2317850963823331  0.8181136945351396  0.0798572651671702   T   T   T
  0.1270716262019701  0.9709765059777783  0.1269536277056686   T   T   T
  0.5298810382923258  0.4957770427083820  0.2056327406633583   T   T   T
  0.6381392767165499  0.9879038187945375  0.6293119054058683   T   T   T
  0.6186150024261050  0.3561317293325603  0.9286777265402543   T   T   T
  0.1204658544055096  0.0136961305592776  0.4652056394389764   T   T   T
  0.9251918953826960  0.8580655804976617  0.2806818871824736   T   T   T
  0.6932262751176149  0.0581650354443257  0.7998387792448834   T   T   T
  0.2718617341850578  0.8266183671069911  0.5542511981495135   T   T   T
  0.9143873507112551  0.7077677737215674  0.1717849940558253   T   T   T
  0.5051674860756110  0.2408545172663310  0.0327474636017605   T   T   T
  0.2959478565366886  0.2204748444706940  0.0179656047491333   T   T   T
  0.4033252162020400  0.8705143806233638  0.3084638815050183   T   T   T
  0.8631127362733492  0.9838245884178258  0.8105973625875297   T   T   T
  0.7428300520681437  0.2140454443978841  0.2414458769683996   T   T   T
  0.6648863906882378  0.0764312016561131  0.9845208149192586   T   T   T
  0.6326402353970219  0.3845883500403894  0.6363398638666287   T   T   T
  0.0946833104152719  0.2634307658079708  0.9462792287188211   T   T   T
  0.7897743192156645  0.4754554632986950  0.8009743338640417   T   T   T
  0.1828978508242346  0.3301944705679205  0.2887487870160829   T   T   T
  0.3399854296715054  0.4145405930054217  0.8508104828966172   T   T   T
  0.4194738128850706  0.8302312350523821  0.0769485443740505   T   T   T
  0.2151322101119329  0.0144995807560384  0.2867578526898281   T   T   T
  0.1781535628305800  0.5452339031393347  0.9316890470825659   T   T   T
  0.3876885993675743  0.1890983397873856  0.1887452584018153   T   T   T
  0.3929710622927381  0.1903545093175533  0.5319249756560479   T   T   T
  0.3762665735112274  0.3925763223987151  0.1991797894746807   T   T   T
  0.9747220329570745  0.0461252815950151  0.2140153579859250   T   T   T
  0.4536348475559994  0.0149348864778309  0.1925070111266871   T   T   T
  0.0285878624630761  0.4240496386721728  0.3431892424276125   T   T   T
  0.0285307074809241  0.4662185363929617  0.6525304643337477   T   T   T
  0.5188861317350500  0.4261452871684887  0.7930892055534772   T   T   T
  0.1770899130075679  0.9337006407427625  0.6716555681414804   T   T   T
  0.6818524852311628  0.2722191007899276  0.0803468725560025   T   T   T
  0.5573028827693809  0.6331314141155271  0.3398441105053433   T   T   T
  0.2453443172142902  0.2159810424087625  0.8434290376064252   T   T   T
  0.0059560311249549  0.9182746629195792  0.5772846883216662   T   T   T
  0.9894923422797461  0.1297013138171452  0.3975120470114224   T   T   T
  0.4876103162765522  0.0600146326403351  0.9017007514287394   T   T   T
  0.5366070279924448  0.1009128428121374  0.7253076800721220   T   T   T
  0.6415368306503174  0.5325143190435391  0.7295307020776424   T   T   T
  0.2309747997298855  0.8475340166278353  0.2808747152874887   T   T   T
  0.8265057918570099  0.4483669245871233  0.6250949236349607   T   T   T
  0.2796306636137971  0.6647830188810003  0.4839130939254799   T   T   T
  0.6627644499151215  0.2497644545133123  0.7501470663945997   T   T   T
  0.2255599122251522  0.1119031582035469  0.5854528019477179   T   T   T
  0.7146618405787685  0.7087944082922190  0.1385622672550065   T   T   T
  0.1473547780722699  0.6815993651097545  0.3291100410731571   T   T   T
  0.9397517852375316  0.8484537781635899  0.9309712189863256   T   T   T
  0.7694588619323863  0.3742190359313861  0.9509504126097689   T   T   T
  0.8939561697204470  0.9793170068441549  0.4322153176075313   T   T   T
  0.3724730633763271  0.0566824169042216  0.0442877339854912   T   T   T
  0.4873011261399285  0.6121166053507967  0.7890295493585501   T   T   T
  0.8339802042061502  0.9727934815358852  0.6196209997884512   T   T   T
  0.1304421015618078  0.3723090915163985  0.7741315538461784   T   T   T
  0.4649140876488990  0.5763711201689588  0.5193097185153005   T   T   T
  0.4593841648384426  0.3818730280375898  0.5351403946976432   T   T   T
  0.1956453608973115  0.0803653700462542  0.9897797407483259   T   T   T
  0.8169450848709519  0.1444634083809003  0.0999169672190136   T   T   T
  0.9202341797599968  0.6766637257395677  0.8460916747203659   T   T   T
  0.9803701135896732  0.2117164582452157  0.0910110297556226   T   T   T
  0.5113461568694757  0.3883434330955307  0.3644565841902773   T   T   T
  0.5442238286120730  0.2908878915113728  0.2103548811967283   T   T   T
  0.7988364140330900  0.6290031413852247  0.6643598920731496   T   T   T
  0.3706939403914952  0.6954908691245885  0.2848988079144202   T   T   T
  0.0796654641787536  0.7323353892869375  0.7037905554538145   T   T   T
  0.6219323360378227  0.7180325220780581  0.8429262389301131   T   T   T
  0.5290199815099335  0.7701257659309085  0.1889327436148907   T   T   T
  0.8958058375088862  0.7850975188783740  0.7180592459956997   T   T   T
  0.0344847096752388  0.4333019741289852  0.9115302687889754   T   T   T
  0.8057830973599582  0.9398275576648468  0.0344263100600366   T   T   T
  0.6477546329515687  0.8217547933955067  0.9951095132221136   T   T   T
  0.7706822795901555  0.0175459265415761  0.2107927000789440   T   T   T
  0.3934174452181457  0.4798139856897397  0.6690958330392945   T   T   T
  0.3580391206411433  0.1741692559198201  0.7164731510907217   T   T   T
  0.9592252786438473  0.0082686522143439  0.0496219006181210   T   T   T
  0.3807251085876341  0.5209139460920775  0.3780934131760038   T   T   T
  0.1567638467478175  0.2934642405073234  0.1025755447633993   T   T   T
  0.0916719368311786  0.8612022853271598  0.3831283448674027   T   T   T
  0.3649409019099357  0.8221522347048638  0.7210372545941668   T   T   T
  0.6835216161773022  0.8512745186421459  0.2679648670904163   T   T   T
  0.3717395140168891  0.9024332223090192  0.9314902993334085   T   T   T
  0.0936223078070743  0.8966877784166554  0.9518529849979182   T   T   T
  0.7110007097038045  0.1965600254157330  0.4211137647582027   T   T   T
  0.0196599646733567  0.2851716322820488  0.6250443171931658   T   T   T
  0.6558336780006125  0.5284997848713142  0.9209544936003176   T   T   T
  0.2870835231360284  0.4151711770421423  0.0422266301520322   T   T   T
  0.2322335401580571  0.6728731433451561  0.7795617743764517   T   T   T
  0.0995685819664684  0.7121587944360083  0.9107758245367138   T   T   T
  0.5289817946655384  0.9539424854997259  0.0313335788218159   T   T   T
  0.4565719917147399  0.4704687810829166  0.0131590322692814   T   T   T
  0.8177079533224140  0.7240871278235977  0.9875477664013622   T   T   T
  0.6137977228794579  0.0967422489592701  0.2922876237092579   T   T   T
  0.0753804853290877  0.5763414108082842  0.7751477674641044   T   T   T
  0.2134856831738293  0.5086862276609677  0.6267415169392974   T   T   T
  0.4679482819277938  0.2420078782179071  0.8279965236605398   T   T   T
  0.3542753583639832  0.6558887663730658  0.6437411787150292   T   T   T
  0.1124244654719572  0.0057742204174544  0.8123532605409878   T   T   T
  0.8542565981529762  0.1002483788748428  0.9474965855524301   T   T   T
  0.2182932007260601  0.4933236593210104  0.4098880067826712   T   T   T
  0.9127182748377246  0.2831296954109109  0.9306901962458348   T   T   T
  0.2749123231538017  0.3282451492253909  0.6770696830147590   T   T   T
  0.1070904037102772  0.1694276531839365  0.2172581696330249   T   T   T
  0.2193244368433717  0.8280186204791089  0.8402095140770962   T   T   T
  0.9391457249206524  0.7816390440535146  0.4387804544548168   T   T   T
  0.0395749063195598  0.5616361772100146  0.2210715647169346   T   T   T
  0.9683835363148189  0.6150950355626033  0.0323494935441998   T   T   T
  0.1733631708052428  0.1747628122875652  0.3906834116791769   T   T   T
  0.0676907324594508  0.2006105330992095  0.7624762626714988   T   T   T
  0.9340024387253059  0.4040612433227726  0.7748302304933945   T   T   T
  0.8144256350323987  0.3921460456351202  0.2062616402425722   T   T   T
  0.5251198960800180  0.9707852616624131  0.3897516007229669   T   T   T
  0.5509846631052452  0.6146001779496462  0.0855841848844403   T   T   T
  0.3190640435759436  0.0054495141591454  0.7939369299261611   T   T   T
  0.3360608591352581  0.6124115024198156  0.9168819636840274   T   T   T
  0.5291932140405177  0.2273726771718907  0.4263592897933598   T   T   T
  0.5855058178846706  0.8009695089381021  0.6637044568666215   T   T   T
  0.2599871768774654  0.5459900621458791  0.2300888747674522   T   T   T
  0.1158000162444899  0.3309780757088769  0.4657763450634083   T   T   T
  0.7047214682201083  0.8835876467301017  0.8007834983476169   T   T   T
  0.3369747453993098  0.6665843005807616  0.0960130583419002   T   T   T
  0.1369499131180272  0.6602366369981322  0.0938615019440876   T   T   T
  0.4779523287540535  0.7374816586681822  0.9377835061449211   T   T   T
  0.6424227209364397  0.2155024014798508  0.5780238700131579   T   T   T
  0.4628920627552690  0.7674300527284318  0.5275505110017777   T   T   T
  0.3649804747844329  0.2669990806466158  0.3491572858709126   T   T   T
  0.1110552747155788  0.7197749719847423  0.5149475122236105   T   T   T
  0.8592259823767121  0.1652448109581747  0.5231367981956574   T   T   T
  0.9897282457610189  0.3552656148736571  0.2047941539203725   T   T   T
  0.9152487908456899  0.4400197127556814  0.0498257238197787   T   T   T
  0.1110914914390295  0.4670520369552053  0.0744441136820778   T   T   T
  0.3631890622541530  0.0714084373031365  0.3473982453642219   T   T   T
  0.0172186582985042  0.6063024072477629  0.4178472592052537   T   T   T
  0.9570941997844067  0.0686803832935332  0.6857696449121898   T   T   T
  0.9618020022233449  0.6542033577802867  0.5812299560687777   T   T   T
  0.7243470743387519  0.5125003975980390  0.0889954754882439   T   T   T
  0.4113828654827645  0.9679031815688586  0.5106905175108535   T   T   T
  0.8353251220000004  0.6085439920000013  0.4561287160000020   F   F   F
  0.8735264540000003  0.5515714289999991  0.2830082480000016   F   F   F
  0.8944261669999989  0.2891038060000000  0.3656512800000016   F   F   F
  0.6368536350000014  0.8056092260000014  0.4671773310000020   F   F   F
  0.7032814619999996  0.5413417219999985  0.2491940709999980   F   F   F
  0.7874606849999992  0.7198939319999980  0.3118124900000012   F   F   F
  0.7796943190000007  0.3719443680000012  0.4842674730000027   F   F   F
  0.6974396709999979  0.3605765100000013  0.3292024140000009   F   F   F
  0.7886874080000013  0.7640676500000012  0.5602465870000017   F   F   F
  0.6224290130000014  0.6153895260000013  0.5752057429999979   F   F   F
 
  0.00000000E+00  0.00000000E+00  0.00000000E+00
  0.00000000E+00  0.00000000E+00  0.00000000E+00
  0.00000000E+00  0.00000000E+00  0.00000000E+00
  0.00000000E+00  0.00000000E+00  0.00000000E+00
  0.00000000E+00  0.00000000E+00  0.00000000E+00
  0.00000000E+00  0.00000000E+00  0.00000000E+00
  0.00000000E+00  0.00000000E+00  0.00000000E+00
  0.00000000E+00  0.00000000E+00  0.00000000E+00
  0.00000000E+00  0.00000000E+00  0.00000000E+00
  0.00000000E+00  0.00000000E+00  0.00000000E+00
  0.00000000E+00  0.00000000E+00  0.00000000E+00
  0.00000000E+00  0.00000000E+00  0.00000000E+00
  0.00000000E+00  0.00000000E+00  0.00000000E+00
  0.00000000E+00  0.00000000E+00  0.00000000E+00
  0.00000000E+00  0.00000000E+00  0.00000000E+00
  0.00000000E+00  0.00000000E+00  0.00000000E+00
  0.00000000E+00  0.00000000E+00  0.00000000E+00
  0.00000000E+00  0.00000000E+00  0.00000000E+00
  0.00000000E+00  0.00000000E+00  0.00000000E+00
  0.00000000E+00  0.00000000E+00  0.00000000E+00
  0.00000000E+00  0.00000000E+00  0.00000000E+00
  0.00000000E+00  0.00000000E+00  0.00000000E+00
  0.00000000E+00  0.00000000E+00  0.00000000E+00
  0.00000000E+00  0.00000000E+00  0.00000000E+00
  0.00000000E+00  0.00000000E+00  0.00000000E+00
  0.00000000E+00  0.00000000E+00  0.00000000E+00
  0.00000000E+00  0.00000000E+00  0.00000000E+00
  0.00000000E+00  0.00000000E+00  0.00000000E+00
  0.00000000E+00  0.00000000E+00  0.00000000E+00
  0.00000000E+00  0.00000000E+00  0.00000000E+00
  0.00000000E+00  0.00000000E+00  0.00000000E+00
  0.00000000E+00  0.00000000E+00  0.00000000E+00
  0.00000000E+00  0.00000000E+00  0.00000000E+00
  0.00000000E+00  0.00000000E+00  0.00000000E+00
  0.00000000E+00  0.00000000E+00  0.00000000E+00
  0.00000000E+00  0.00000000E+00  0.00000000E+00
  0.00000000E+00  0.00000000E+00  0.00000000E+00
  0.00000000E+00  0.00000000E+00  0.00000000E+00
  0.00000000E+00  0.00000000E+00  0.00000000E+00
  0.00000000E+00  0.00000000E+00  0.00000000E+00
  0.00000000E+00  0.00000000E+00  0.00000000E+00
  0.00000000E+00  0.00000000E+00  0.00000000E+00
  0.00000000E+00  0.00000000E+00  0.00000000E+00
  0.00000000E+00  0.00000000E+00  0.00000000E+00
  0.00000000E+00  0.00000000E+00  0.00000000E+00
  0.00000000E+00  0.00000000E+00  0.00000000E+00
  0.00000000E+00  0.00000000E+00  0.00000000E+00
  0.00000000E+00  0.00000000E+00  0.00000000E+00
  0.00000000E+00  0.00000000E+00  0.00000000E+00
  0.00000000E+00  0.00000000E+00  0.00000000E+00
  0.00000000E+00  0.00000000E+00  0.00000000E+00
  0.00000000E+00  0.00000000E+00  0.00000000E+00
  0.00000000E+00  0.00000000E+00  0.00000000E+00
  0.00000000E+00  0.00000000E+00  0.00000000E+00
  0.00000000E+00  0.00000000E+00  0.00000000E+00
  0.00000000E+00  0.00000000E+00  0.00000000E+00
  0.00000000E+00  0.00000000E+00  0.00000000E+00
  0.00000000E+00  0.00000000E+00  0.00000000E+00
  0.00000000E+00  0.00000000E+00  0.00000000E+00
  0.00000000E+00  0.00000000E+00  0.00000000E+00
  0.00000000E+00  0.00000000E+00  0.00000000E+00
  0.00000000E+00  0.00000000E+00  0.00000000E+00
  0.00000000E+00  0.00000000E+00  0.00000000E+00
  0.00000000E+00  0.00000000E+00  0.00000000E+00
  0.00000000E+00  0.00000000E+00  0.00000000E+00
  0.00000000E+00  0.00000000E+00  0.00000000E+00
  0.00000000E+00  0.00000000E+00  0.00000000E+00
  0.00000000E+00  0.00000000E+00  0.00000000E+00
  0.00000000E+00  0.00000000E+00  0.00000000E+00
  0.00000000E+00  0.00000000E+00  0.00000000E+00
  0.00000000E+00  0.00000000E+00  0.00000000E+00
  0.00000000E+00  0.00000000E+00  0.00000000E+00
  0.00000000E+00  0.00000000E+00  0.00000000E+00
  0.00000000E+00  0.00000000E+00  0.00000000E+00
  0.00000000E+00  0.00000000E+00  0.00000000E+00
  0.00000000E+00  0.00000000E+00  0.00000000E+00
  0.00000000E+00  0.00000000E+00  0.00000000E+00
  0.00000000E+00  0.00000000E+00  0.00000000E+00
  0.00000000E+00  0.00000000E+00  0.00000000E+00
  0.00000000E+00  0.00000000E+00  0.00000000E+00
  0.00000000E+00  0.00000000E+00  0.00000000E+00
  0.00000000E+00  0.00000000E+00  0.00000000E+00
  0.00000000E+00  0.00000000E+00  0.00000000E+00
  0.00000000E+00  0.00000000E+00  0.00000000E+00
  0.00000000E+00  0.00000000E+00  0.00000000E+00
  0.00000000E+00  0.00000000E+00  0.00000000E+00
  0.00000000E+00  0.00000000E+00  0.00000000E+00
  0.00000000E+00  0.00000000E+00  0.00000000E+00
  0.00000000E+00  0.00000000E+00  0.00000000E+00
  0.00000000E+00  0.00000000E+00  0.00000000E+00
  0.00000000E+00  0.00000000E+00  0.00000000E+00
  0.00000000E+00  0.00000000E+00  0.00000000E+00
  0.00000000E+00  0.00000000E+00  0.00000000E+00
  0.00000000E+00  0.00000000E+00  0.00000000E+00
  0.00000000E+00  0.00000000E+00  0.00000000E+00
  0.00000000E+00  0.00000000E+00  0.00000000E+00
  0.00000000E+00  0.00000000E+00  0.00000000E+00
  0.00000000E+00  0.00000000E+00  0.00000000E+00
  0.00000000E+00  0.00000000E+00  0.00000000E+00
  0.00000000E+00  0.00000000E+00  0.00000000E+00
  0.00000000E+00  0.00000000E+00  0.00000000E+00
  0.00000000E+00  0.00000000E+00  0.00000000E+00
  0.00000000E+00  0.00000000E+00  0.00000000E+00
  0.00000000E+00  0.00000000E+00  0.00000000E+00
  0.00000000E+00  0.00000000E+00  0.00000000E+00
  0.00000000E+00  0.00000000E+00  0.00000000E+00
  0.00000000E+00  0.00000000E+00  0.00000000E+00
  0.00000000E+00  0.00000000E+00  0.00000000E+00
  0.00000000E+00  0.00000000E+00  0.00000000E+00
  0.00000000E+00  0.00000000E+00  0.00000000E+00
  0.00000000E+00  0.00000000E+00  0.00000000E+00
  0.00000000E+00  0.00000000E+00  0.00000000E+00
  0.00000000E+00  0.00000000E+00  0.00000000E+00
  0.00000000E+00  0.00000000E+00  0.00000000E+00
  0.00000000E+00  0.00000000E+00  0.00000000E+00
  0.00000000E+00  0.00000000E+00  0.00000000E+00
  0.00000000E+00  0.00000000E+00  0.00000000E+00
  0.00000000E+00  0.00000000E+00  0.00000000E+00
  0.00000000E+00  0.00000000E+00  0.00000000E+00
  0.00000000E+00  0.00000000E+00  0.00000000E+00
  0.00000000E+00  0.00000000E+00  0.00000000E+00
  0.00000000E+00  0.00000000E+00  0.00000000E+00
  0.00000000E+00  0.00000000E+00  0.00000000E+00
  0.00000000E+00  0.00000000E+00  0.00000000E+00
  0.00000000E+00  0.00000000E+00  0.00000000E+00
  0.00000000E+00  0.00000000E+00  0.00000000E+00
  0.00000000E+00  0.00000000E+00  0.00000000E+00
  0.00000000E+00  0.00000000E+00  0.00000000E+00
  0.00000000E+00  0.00000000E+00  0.00000000E+00
  0.00000000E+00  0.00000000E+00  0.00000000E+00
  0.00000000E+00  0.00000000E+00  0.00000000E+00
  0.00000000E+00  0.00000000E+00  0.00000000E+00
  0.00000000E+00  0.00000000E+00  0.00000000E+00
  0.00000000E+00  0.00000000E+00  0.00000000E+00
  0.00000000E+00  0.00000000E+00  0.00000000E+00
  0.00000000E+00  0.00000000E+00  0.00000000E+00
  0.00000000E+00  0.00000000E+00  0.00000000E+00
  0.00000000E+00  0.00000000E+00  0.00000000E+00
  0.00000000E+00  0.00000000E+00  0.00000000E+00
  0.00000000E+00  0.00000000E+00  0.00000000E+00
  0.00000000E+00  0.00000000E+00  0.00000000E+00
  0.00000000E+00  0.00000000E+00  0.00000000E+00
  0.00000000E+00  0.00000000E+00  0.00000000E+00
  0.00000000E+00  0.00000000E+00  0.00000000E+00
  0.00000000E+00  0.00000000E+00  0.00000000E+00
  0.00000000E+00  0.00000000E+00  0.00000000E+00
  0.00000000E+00  0.00000000E+00  0.00000000E+00
  0.00000000E+00  0.00000000E+00  0.00000000E+00
  0.00000000E+00  0.00000000E+00  0.00000000E+00
  0.00000000E+00  0.00000000E+00  0.00000000E+00
  0.00000000E+00  0.00000000E+00  0.00000000E+00
  0.00000000E+00  0.00000000E+00  0.00000000E+00
  0.00000000E+00  0.00000000E+00  0.00000000E+00
  0.00000000E+00  0.00000000E+00  0.00000000E+00
  0.00000000E+00  0.00000000E+00  0.00000000E+00