Ge Sb Te                                
   1.00000000000000     
    12.5576004700000006    0.0000000000000000    0.0000000000000000
     0.0000000000000000   12.5576004700000006    0.0000000000000000
     0.0000000000000000    0.0000000000000000   12.5576004700000006
   Ge   Sb   Te
    13    13    32
Direct
  0.8142736997690782  0.9461478242698331  0.2751633104221015
  0.4009469292994224  0.5008536778342593  0.2707034923621343
  0.1865278955564913  0.2859179333441607  0.0150108429357464
  0.8770508109448423  0.4054561322946637  0.3365772857706932
  0.0855694714836594  0.8567423466255478  0.2556103108569278
  0.6676042650822874  0.7341619146752227  0.5341965989447300
  0.2241135552521550  0.1116204868436429  0.2927680945102950
  0.2695266479121664  0.7985722565739850  0.9258950112340777
  0.9337057194051754  0.6076760861176226  0.3218977897961187
  0.5727901071018621  0.4334307722177452  0.7135827739037971
  0.2115839957520531  0.8214386752061934  0.7302446665831599
  0.9686954524884661  0.7674378752106795  0.9429988314244028
  0.6352328630358868  0.0607114510012338  0.6198357064569192
  0.3612469693522448  0.4715787763401680  0.4776940990366817
  0.9103253940611424  0.2567641091700041  0.0727213334194300
  0.2276211321382226  0.0775505702188858  0.0674905659049694
  0.7030528741078487  0.4951629365471854  0.4503403371811817
  0.6060253432540765  0.2915911806362639  0.8802362269671824
  0.8938403940408809  0.5719794182443125  0.8787375906489289
  0.0765386954634993  0.2109118863601777  0.5326074753959669
  0.2448431853707373  0.6055677935985060  0.1627427267939053
  0.6238770009203541  0.3882041017570062  0.1065884617117667
  0.5534610287339317  0.0778736762600610  0.4207779631673623
  0.2961501807990742  0.6246014197673579  0.7049330468042309
  0.2568855636750748  0.0488586083286112  0.8203155934708961
  0.2810569303162665  0.2593132317907756  0.7399743097355183
  0.0754250329515363  0.3084545682612816  0.8339376945791647
  0.5099383949254944  0.1213641688698369  0.7779533582115891
  0.6957995283844916  0.8785308405723337  0.6906667336247483
  0.2950440586701659  0.9284690728309983  0.3631253842506115
  0.8023637517620594  0.1853090947745752  0.6228855541130673
  0.0114892362048944  0.4231295853023957  0.5014033265924215
  0.2883939881449631  0.2253614566873682  0.4602726010505599
  0.7772223535886477  0.4234931696929591  0.6630326875126483
  0.5438050826129313  0.3412519378387396  0.4842264780692765
  0.5973740443647128  0.5721602122718670  0.2461349212019668
  0.6281258245772088  0.8709594657845403  0.3598776111050581
  0.1393383757932723  0.6589695998410979  0.3560131253151125
  0.8108750877795442  0.1959943041291458  0.8708026961109271
  0.0136106197804524  0.0210131874768827  0.0789336957075585
  0.0130065369672636  0.1358960000309080  0.3298237584293129
  0.9571187911234869  0.9181057550510510  0.4352124071106408
  0.1370978421855915  0.6303317937169941  0.9284729510336692
  0.8949980180547895  0.7086555093834995  0.5014896587159525
  0.0353181252723024  0.0735700049900940  0.7926075973680656
  0.8529200305881856  0.4869038204566724  0.0803943988342323
  0.2879719100414379  0.9643178134591361  0.5987776113246737
  0.4190779640473695  0.3139012968976090  0.1827797800799743
  0.7584101659014155  0.1749120521640053  0.3871692385964500
  0.6986677466370300  0.6187447396229000  0.7648545553786136
  0.4356686051414561  0.6896283683464071  0.8633547441341987
  0.3053741915775894  0.8490543615662841  0.1282292468906763
  0.8826981433712795  0.7555161848143730  0.1805398254211366
  0.1423387347570949  0.3954946706380661  0.1800233374476683
  0.4136623276638002  0.6893405147333220  0.5229354459378530
  0.7157092588374534  0.1829833915007031  0.1492111811940580
  0.0040166596817667  0.8460572310997544  0.7336523896250355
  0.3607942643532911  0.3570090768742413  0.9252943588785323
 
  0.00000000E+00  0.00000000E+00  0.00000000E+00
  0.00000000E+00  0.00000000E+00  0.00000000E+00
  0.00000000E+00  0.00000000E+00  0.00000000E+00
  0.00000000E+00  0.00000000E+00  0.00000000E+00
  0.00000000E+00  0.00000000E+00  0.00000000E+00
  0.00000000E+00  0.00000000E+00  0.00000000E+00
  0.00000000E+00  0.00000000E+00  0.00000000E+00
  0.00000000E+00  0.00000000E+00  0.00000000E+00
  0.00000000E+00  0.00000000E+00  0.00000000E+00
  0.00000000E+00  0.00000000E+00  0.00000000E+00
  0.00000000E+00  0.00000000E+00  0.00000000E+00
  0.00000000E+00  0.00000000E+00  0.00000000E+00
  0.00000000E+00  0.00000000E+00  0.00000000E+00
  0.00000000E+00  0.00000000E+00  0.00000000E+00
  0.00000000E+00  0.00000000E+00  0.00000000E+00
  0.00000000E+00  0.00000000E+00  0.00000000E+00
  0.00000000E+00  0.00000000E+00  0.00000000E+00
  0.00000000E+00  0.00000000E+00  0.00000000E+00
  0.00000000E+00  0.00000000E+00  0.00000000E+00
  0.00000000E+00  0.00000000E+00  0.00000000E+00
  0.00000000E+00  0.00000000E+00  0.00000000E+00
  0.00000000E+00  0.00000000E+00  0.00000000E+00
  0.00000000E+00  0.00000000E+00  0.00000000E+00
  0.00000000E+00  0.00000000E+00  0.00000000E+00
  0.00000000E+00  0.00000000E+00  0.00000000E+00
  0.00000000E+00  0.00000000E+00  0.00000000E+00
  0.00000000E+00  0.00000000E+00  0.00000000E+00
  0.00000000E+00  0.00000000E+00  0.00000000E+00
  0.00000000E+00  0.00000000E+00  0.00000000E+00
  0.00000000E+00  0.00000000E+00  0.00000000E+00
  0.00000000E+00  0.00000000E+00  0.00000000E+00
  0.00000000E+00  0.00000000E+00  0.00000000E+00
  0.00000000E+00  0.00000000E+00  0.00000000E+00
  0.00000000E+00  0.00000000E+00  0.00000000E+00
  0.00000000E+00  0.00000000E+00  0.00000000E+00
  0.00000000E+00  0.00000000E+00  0.00000000E+00
  0.00000000E+00  0.00000000E+00  0.00000000E+00
  0.00000000E+00  0.00000000E+00  0.00000000E+00
  0.00000000E+00  0.00000000E+00  0.00000000E+00
  0.00000000E+00  0.00000000E+00  0.00000000E+00
  0.00000000E+00  0.00000000E+00  0.00000000E+00
  0.00000000E+00  0.00000000E+00  0.00000000E+00
  0.00000000E+00  0.00000000E+00  0.00000000E+00
  0.00000000E+00  0.00000000E+00  0.00000000E+00
  0.00000000E+00  0.00000000E+00  0.00000000E+00
  0.00000000E+00  0.00000000E+00  0.00000000E+00
  0.00000000E+00  0.00000000E+00  0.00000000E+00
  0.00000000E+00  0.00000000E+00  0.00000000E+00
  0.00000000E+00  0.00000000E+00  0.00000000E+00
  0.00000000E+00  0.00000000E+00  0.00000000E+00
  0.00000000E+00  0.00000000E+00  0.00000000E+00
  0.00000000E+00  0.00000000E+00  0.00000000E+00
  0.00000000E+00  0.00000000E+00  0.00000000E+00
  0.00000000E+00  0.00000000E+00  0.00000000E+00
  0.00000000E+00  0.00000000E+00  0.00000000E+00
  0.00000000E+00  0.00000000E+00  0.00000000E+00
  0.00000000E+00  0.00000000E+00  0.00000000E+00
  0.00000000E+00  0.00000000E+00  0.00000000E+00
