Amorphous Sb                            
   1.00000000000000     
    22.2838363270341517    0.0000000000000000    0.0000000000000000
     0.0000000000000000   22.2838363270341517    0.0000000000000000
     0.0000000000000000    0.0000000000000000   22.2838363270341517
   Sb   Te   Y 
   108   162    30
Direct
  0.0305090231811157  0.1240258902775113  0.5294056250145455
  0.2287460313804183  0.7885046699337875  0.0094706363120339
  0.5703327403496393  0.0117302769572516  0.0550750786879051
  0.8659676907149365  0.4732476672257320  0.2500779540781628
  0.2931882620393585  0.3408294623951696  0.2336808054109719
  0.6617883509329618  0.4302064152672793  0.6483594063511798
  0.1285920833280220  0.3723544883772085  0.1622907774777120
  0.9009195049350924  0.6804869707223052  0.1855871111957012
  0.3634145151231904  0.8121796099940753  0.5129529139619439
  0.4313781024654024  0.8352181945287818  0.7319645633787839
  0.1028907909222945  0.6205889585331337  0.2280983967608134
  0.1028627296698055  0.3349255113629399  0.0047872827229978
  0.0538395388621973  0.2670839767135590  0.1217925905654035
  0.9326932435997569  0.2713935449575590  0.3932892417894266
  0.0992451130448908  0.5336486282508486  0.5997998397708648
  0.9836700602361308  0.0055948197659793  0.6085572766521686
  0.7324759298422674  0.9544721717769598  0.0623526851292481
  0.2591205042287536  0.0078779257171357  0.3460795960773382
  0.5669303102312409  0.8966874755245092  0.6430541005955734
  0.7432201196712357  0.1541978111934301  0.8308512632051693
  0.6096012157948746  0.5810324588570102  0.9658630113646968
  0.9022627625415084  0.0621766677138990  0.9718634482590006
  0.6757150053137426  0.3072798856686783  0.1529041374350210
  0.8579382263460150  0.8314492754076014 -0.0055025222754313
  0.0318315682420937  0.2419989778183824  0.5836444505065120
  0.2242547982721367  0.2429437863886806  0.1526677737896789
  0.4684680286537870  0.8072662588807898  0.3297059301234831
  0.0816514656749239  0.0146031188477853  0.6960620605985752
  0.3755951925123432  0.2419536162716636  0.2581369000850647
  0.1353229514145996  0.3133080347604427  0.8102945271612810
  0.3947485627412621  0.2983113558604369  0.6874156670468811
  0.1386495258403740  0.0138074088204393  0.4039481020382560
  0.1934334429970054  0.3534895382639447  0.4672387914344431
  0.4253845875155641  0.6528398576356839  0.8992969418709764
  0.8437761885490287  0.1933021753224984  0.1493430058212927
  0.9619070283584144  0.2140395606347332  0.6892821562048826
  0.4460312020032555  0.0261930948343370  0.0914345135329935
  0.6868333396267672  0.4819608683230593  0.8743756863066144
  0.2713534030513940  0.3512196659271666  0.9069906582651294
  0.5647073978186359  0.4676611950803160  0.4636790475053227
  0.1488580620168400  0.7501273548175628  0.3405760289542699
  0.8377435023246764  0.5063217319596630  0.6503125315790631
  0.4897093790781814  0.9227225756372688  0.2321023779379398
  0.8300771387248086  0.7061443110326516  0.4199179727113936
  0.6130349087033460  0.7363257312527195  0.8975883226655601
  0.1357431884539992  0.1707197076437471  0.0901739733608202
  0.9761665997755874  0.9820501975545179  0.3287460415777212
  0.3962292198859101  0.5252540063837020  0.3584031558561415
  0.4238549232447395  0.5443752691373918  0.6200835381159934
  0.5740699721251167  0.8316190591575277  0.4003950737140465
  0.7878543362043782  0.6426325793656106  0.5423839903409727
  0.6343844833902345  0.8662176981055102  0.5356292026556315
  0.3315397942428875  0.4117398474114909  0.3381587453250233
  0.6996637693268418  0.5578093733555913  0.6013672356535620
  0.1102786968623621  0.3426652337266227  0.2887893776747809
  0.9845267347427191  0.9546256691326882  0.2021773597311195
  0.2853911130128235  0.3207124183842028  0.0320549478583634
  0.7066773608790727  0.0790596059279666  0.6073256422287860
  0.9733444809469193  0.5080294170394752  0.6929043870099323
  0.0138337721663885  0.1088836469877907  0.0305468110987153
  0.3168171286491935  0.3696094558155843  0.5136265815694990
  0.7228377860918432  0.5711485820273111  0.1432630702164596
  0.2200092639350579  0.2863077982169214  0.3277993079372296
  0.0204756507494604  0.8565190450402173  0.5762051542657105
  0.0698177424171255  0.2228317523063903  0.2562758718166699
  0.3567980667579359  0.4929243846750265  0.0154708978338451
  0.8608869635693924  0.3445359537844078  0.6389013596335176
  0.9794037991954430  0.8031834235448930  0.1159796610108584
  0.0759702825882198  0.7725514060952352  0.6642931631015915
  0.2763453911123662  0.1166890088052798  0.9463186905442491
  0.2144382196821697  0.8958471877812269  0.2562311076096516
  0.2603544997951933  0.5829297429524848  0.9815847863367229
  0.7871848152565007  0.8410863537646971  0.1048962849320191
  0.6807343533465557  0.0679537518210271  0.7556916546810990
  0.8022130394837145  0.0536993615818820  0.4457721769363333
  0.2055310690449456  0.0220121211957145  0.2274977469662441
  0.0482478203998886  0.1641715801002983  0.9162786110121448
  0.8221529481800683  0.2258107073095452  0.9460543566234648
  0.9428403665194269  0.4023121732320712  0.7643002564576282
  0.1379568594861087  0.1557971147219355  0.4582647752916514
  0.9324527971118713  0.1026878126943824  0.2987551947291288
  0.3476275807795737  0.7540272367495873  0.8757410378310357
  0.2388219427964437  0.8872981726692631  0.0985310498539971
  0.4816925427301971  0.6216678611849561  0.7129946092243330
  0.6700470268710609  0.5442095195695678  0.4730655160923689
  0.7763093717646309  0.6956890894730713  0.9011344905226875
  0.1610719481921779  0.5725172681708250  0.8208956508343858
  0.6255505622926987  0.9207618181228590  0.1316191933021047
  0.8284165624768871  0.3460915491719249  0.2570052333676312
  0.7938400061778799 -0.0005140820459881  0.2415141981599927
  0.5512288967521871  0.9674344902682833  0.3384235406056633
  0.5481436245732112  0.4131315761797065  0.7059873854757986
  0.6188009076192614  0.2151910593421649  0.9529600571807456
  0.7767210760957034  0.1611949668272392  0.6873139627500887
  0.5383829365051217  0.2723359492461763  0.6739415564081861
  0.5439691900812287  0.7740478304633868  0.5151475560775102
  0.6971168357046441  0.1250692938824828  0.4822876930091730
  0.8306143686267037  0.5991588460451922  0.7409696592456007
  0.0714122684341508  0.8550214600167653  0.1933681919008292
  0.7434757364912254  0.9379351851726910  0.4239884078453771
  0.3384528421159538  0.6425001116053298  0.6336786346490172
  0.9158898921109153  0.2795407891265125  0.5362003184111569
  0.1331688221450724  0.7175239867289565  0.5579047403711753
  0.2627277418681139  0.3177204088164626  0.6573291956947285
  0.5418731454629718  0.1779104054402264  0.4831508830650764
  0.1935693540898266  0.1772285006565673  0.2600220844324377
  0.9114535173528546  0.8080721910357769  0.4348721008415281
  0.5180070412463129  0.8195667548800913  0.9708482047693403
  0.4858868923334430  0.5023144539126913  0.9513053088452265
  0.1748605283453764  0.0716010168650715  0.6236399446099528
 -0.0048286104160766  0.4617025180119633  0.2922622075827067
  0.8949766058747004  0.0780709877964856  0.1740786282290973
  0.5603295408328109  0.5373829762582553  0.7664987413455908
  0.0695837225885690  0.5214242443836686  0.4718033312315588
  0.0318446993768464  0.4430766469634701  0.0335124832532184
  0.9661782496444307  0.5697128274632711  0.1700682048057526
  0.9335223974224627  0.1375764886349020  0.4481043493110772
  0.9525677342446752  0.6780581811308496  0.9909733999342375
  0.1654425090987313  0.5187223161799998  0.1854525178075876
  0.1364219977255265  0.9499500545184220  0.5143802863832647
  0.6597123133305769  0.3859342655600244  0.4421081924207262
  0.1936758109583066  0.4382464126969547  0.5668954738648074
  0.4010767632094807  0.3618203519411640  0.0640711883993215
  0.6181539172159042  0.8340506024446316  0.8137374126636342
 -0.0013334169383219  0.4454406590397581  0.8711195095586078
  0.4272891523931799  0.9984718810341944  0.3674111653682468
  0.1978031932143918  0.2214780401048254  0.7087192637420949
  0.3665312234436821  0.0460846061587026  0.6168565311199116
  0.6106789372011606  0.1910651737178552  0.6017166673831431
  0.9584595343458435  0.4016968572120982  0.5527649155097316
  0.2406403956617502  0.8123142400179911  0.5561694865336144
  0.5050494464254792  0.2750823623496989  0.9609549903686965
  0.8033189316424307  0.1283208363558806  0.0430706840011328
  0.7418264030393110  0.2880556634198166  0.6880726154871291
  0.1680906544635236  0.2054061048319327  0.9714342360145962
  0.6383873130359571  0.5641522648909698  0.2406780089227685
  0.1040538567280196  0.7630224928378173  0.0216128153625752
  0.3893105419279860  0.8880546750241810  0.6230175452162978
  0.9445626267024825  0.9147009304235544  0.6955629025381809
  0.7588148802965021  0.2321136812886987  0.5039969415641445
  0.0510500756505828  0.7796224406116212  0.4698988382043442
  0.0223516869151494  0.2926397711430583  0.9125414366637289
  0.0535521632503360  0.6463253304514943  0.1097246431755268
  0.2692584280866120  0.9847913056655478  0.0213685859899107
  0.6483689636622295  0.7007984447305311  0.3571877005546002
  0.9135651539006313  0.2697985400177910  0.0336015275172314
  0.8009096383864749 -0.0012905612598280  0.5713015665786829
  0.4694801087450449  0.6496782426703670  0.2287795081146266
  0.1022184703219783  0.4968080791301925  0.7390680495567740
  0.9633260856121755  0.9045283608209047  0.0406901674882145
  0.2031481443177083  0.7100462177466701  0.2308366085426417
  0.9530288423246822  0.9681715532360518  0.8833831244433127
  0.8949602751200132  0.8276388926470507  0.5608588541986772
  0.6392531062261506  0.6706929796483335  0.4804806184639552
  0.1385083771395881  0.8956957237845879  0.6728443481902573
  0.6961803875424366  0.3149535036157687  0.9726813209737841
  0.9844518570906307  0.7785594853208323  0.8899488125593505
  0.8153673481285906  0.6956073782813753  0.6582084288908148
  0.4800232972215701  0.2990452091788429  0.2175857658492328
  0.4775834062348152  0.1184775810907069  0.1844705128555132
  0.8076973717042312 -0.0004721242694625  0.7625942393598812
  0.2353162824379750  0.3864887636629528  0.7606398189115623
  0.2113815214423072  0.6047071369118439  0.5915541083739754
  0.5107057379842029  0.0218706126814171  0.7078113682983320
  0.2904069461996941  0.5945685761552733  0.3596149995783645
  0.6019032253645944  0.2107405205516605  0.1043137940488385
  0.5887677106984175  0.8055381752568564  0.0752035076751787
  0.0648058434570809  0.0480285711341055  0.2545729799627239
  0.5344456224715204  0.9456301664828685  0.9508339034524478
  0.8826101372412950  0.8485071408823694  0.1918620001367181
  0.8485816377212760  0.3300055322149586  0.8624527572660828
  0.7468723964246307  0.4528234139591141  0.7421508270084696
  0.1555226086207436  0.4102494119017202  0.9017041768102730
  0.1238647910805272  0.6339801326720333  0.3962692426847414
  0.0782924059118489  0.0124242150916839  0.8502614956882802
  0.4174001106356713  0.3283146306268394  0.8093758081999862
  0.8989899312213306  0.1054988587216551  0.6465567661557334
  0.3010054183982194  0.1309882672104798  0.3864357565144207
  0.2250118868297068  0.1407192738893909  0.8323349876938744
  0.7083951142467352  0.6585702759951123  0.0030986186710163
  0.2872729629635644  0.1433157860460376  0.5717110829396234
  0.1906512107465068  0.2377541234009797  0.5422915643708304
  0.5312814696351802  0.7739710218884877  0.6664762299884972
  0.9564974091882650  0.6102864045939855  0.7702993686628116
  0.3427584670509630  0.7466119852035920  0.7444572882414440
  0.7854378489682758  0.6452566595718413  0.2256461627443299
  0.5224551081403012  0.0580068213004892  0.5181724053637640
  0.7468699293447287  0.4468130766269308  0.1790228393211841
  0.3183141235104280  0.5803552797530110  0.1686734187556891
  0.4281644184459561  0.6112481778316590  0.1003304879800161
  0.1184219326534261  0.9257517448317113  0.0832363330687049
  0.7279589370101592  0.8141284559088229  0.9428815652040459
  0.8083613624241631  0.3266544233269077  0.3833855686142353
  0.0594900930190075  0.8401498569411586  0.8086496444474377
  0.8001734799434406  0.1023419767173589  0.3189554605851600
  0.0466378573216323  0.3397765357359664  0.7184609641618196
  0.1185462790688942  0.9004450203517481  0.3451735035480599
  0.5565160767614034  0.1252970560013670  0.7616202727595611
  0.4586986277177563  0.6796436982196595  0.3551514337783261
  0.3982228745698564  0.6858397973499866  0.5325909823617350
  0.5682130845168253  0.6302468389380255  0.0820189606221063
  0.8516205850859756  0.9019947226220941  0.3652702707008015
  0.0309732864721647  0.7612050274936514  0.2887031128011673
  0.3640378201442967  0.7999550429403398  0.1965126991380362
  0.6854760976747241  0.6656831109297924  0.8140224107646162
  0.5987916229044267  0.0924307102919760  0.3264317110180844
  0.3467934736300133  0.2218634766001615  0.9353654903526586
  0.0260009527589361  0.6539163025641775  0.6074703619173361
  0.9292320364262551  0.2654501799802104  0.2592345024002936
  0.1493729443487308  0.6843906140409146  0.7619203040438629
  0.5025302195205240  0.7238017553990534  0.8290678064024487
  0.3895237839201632  0.1760696488248497  0.7354306831581628
  0.3790308368430274  0.3211767795879225  0.4120753435701117
  0.5524699111001562  0.4876102579412082  0.3392101101978973
  0.5547630612439377  0.4080475711292877  0.1197424073976326
  0.7981439692817703  0.5119313867210331  0.3526356636897268
  0.3204880570651888  0.9535848968205528  0.4837806655837662
  0.6213969720591169  0.6564167437991556  0.6376308184054005
  0.3295935828706865  0.4646929016274963  0.8911573114301177
  0.3075798021558772  0.7879902036194433  0.3759544188357381
  0.8584694340040810  0.5130691735679402  0.9945302344373245
  0.2514312098991736  0.9613172708085217  0.7476315228185910
  0.3392973155348174  0.1797005104772776  0.1488982880810323
  0.6898065073116194  0.9489449508429787  0.3077002227448031
  0.8155887506548608  0.5522001559844830  0.8814583042390658
  0.7473092476615696  0.7787964617481445  0.3542173285966346
  0.2092932388552490  0.4438740117572308  0.3650124835239214
  0.4243562611999709  0.2068296052959873  0.5288815490892956
  0.2484384522134218  0.6719184396259003  0.8859803713851083
  0.2413009486633531  0.4442548319808359  0.0649269238084904
  0.6385995756130016  0.2321065045205968  0.8241382858007372
  0.7365821270552371  0.2119851987603527  0.2212366512918884
  0.6365320731616859  0.3212121582547238  0.2753215675706077
  0.9876636623586585  0.3998227300229028  0.4036739635083336
  0.4034358705303747  0.7980203007494193  0.0210060631216305
  0.0394731961404911  0.1401802454050615  0.7570980682833828
  0.8515282185613929  0.6823131456133084  0.0666210967969143
  0.8889028617808833  0.5629302636391295  0.5244267796791089
  0.0742067914269365  0.2443391550815257  0.3949298647588543
  0.8427158799424114  0.3594537482259406  0.0871139721820989
  0.7825569815617793  0.3916561693070705  0.5494990615969215
  0.3888886796585396  0.9529188500409146  0.9796381026983976
  0.4960454992191620  0.1630153416413965  0.3463150554992726
  0.4935982722266052  0.8906991977022726  0.4878972894202119
  0.1956167348419570  0.8554285467482051  0.9066918115244647
  0.4028713113771644  0.4919888514223121  0.2269168880394691
  0.2343785637873241  0.6501062614505501  0.0854935493307854
  0.7071939373210286  0.0395842881549169  0.1558186266687101
  0.3669105194105490  0.0044102595794082  0.7809804564341903
  0.4598963725878675  0.1230904270186590  0.0109670991089134
  0.6486102600474775 -0.0000425238987593  0.8666862851223247
  0.3873891591168604  0.5837486025333293  0.7973934105688936
  0.6778955886285080  0.9205630968958256  0.7024927331409704
  0.3907878002789775  0.0551456009084246  0.9007190133579046
  0.8288452616114643  0.9384091436784382  0.9295353265470288
  0.0841552386787070  0.6028159153603266  0.9241740692365202
  0.3339085637608837  0.9928438423212835  0.2022042569863274
  0.0067363883480796  0.4156555329670429  0.1667613930953208
  0.9361361429075477  0.6681581081587565  0.3551168845847772
  0.5324503756718089  0.3589758949623492  0.5782154429891967
  0.3857718304895112  0.4508499480905894  0.6983251616075623
  0.3423708496342349  0.4922824829352538  0.4890708823939341
  0.5874420234678579  0.3956432933346111  0.8443216503823580
  0.7350555857269855  0.8023399486083534  0.5832461235866485
  0.6720149543521100  0.4767117737890212  0.0036359139399256
  0.9119173118544084  0.1499337352190195  0.8768694540719357
  0.8117839411897017  0.8041046327846016  0.7642836736759387
  0.0993001250544433  0.0239424961886020  0.9816061791884069
  0.5477800553945145  0.8074222659129854  0.2305829819650127
  0.7108250263128901  0.0806871587785258  0.9395870890605816
  0.3812161922042791  0.0945839229440976  0.2813343104187708
  0.3415296631357744  0.6872632083661844  0.2720133608734376
  0.2777959913744235  0.0957751431978176  0.7109352047170622
  0.3872672802363753  0.0782555547802353  0.4836351379459846
  0.4644281683446583  0.2381966390215905  0.0924121819538627
  0.8092412027516247  0.8955065960648347  0.6612491612093762
  0.1188229024231880  0.7408189312297067  0.8834946212047554
  0.8645085217539840  0.4371145489425770  0.4494527776899964
  0.2206231910322785  0.8776488554457050  0.4353096787760982
  0.9445642808451472  0.0364073006940472  0.7611051449938855
  0.6808151189302734  0.4491313428085723  0.3062965803706821
  0.2118743542163311  0.5410132748560534  0.4658425130385538
  0.7171690311780547  0.3452298431282147  0.8331518773724536
  0.4845136343576193  0.1335458248024730  0.6352243770954412
  0.1414189674010421  0.5485628803503477  0.0527087661198057
  0.6882736777884367  0.7667116736562454  0.7093271797187646
  0.2969355365462680  0.2563652321598400  0.8023540998832878
  0.4733685636541421  0.7467415178862107  0.1292909086008706
  0.3569773738477331  0.8944785740829339  0.2992555498669583
  0.2519125522294641  0.9491819712739299  0.6051438866187087
  0.0622202801691250  0.8891310237607725  0.9422315957874294
  0.5791239164557721  0.2011656995007347  0.2365863895839977
  0.7392989108100053  0.8968167649340019  0.8310725845621891
  0.5234708015642173  0.5305298580907830  0.1689723894173282
  0.5623943165952981  0.3959460119602373  0.9865010455386323
  0.0078355579731591  0.6441556280132359  0.4718027615102217
  0.6687890102389749  0.3133039205634128  0.5675350783898041
  0.9493842616596251  0.5682046208384919  0.9065899713925878
  0.9144035620030870  0.3895279261064569  0.9670879142710893
  0.4565656353282285  0.4630221929007663  0.8215302834074617
 
  0.00000000E+00  0.00000000E+00  0.00000000E+00
  0.00000000E+00  0.00000000E+00  0.00000000E+00
  0.00000000E+00  0.00000000E+00  0.00000000E+00
  0.00000000E+00  0.00000000E+00  0.00000000E+00
  0.00000000E+00  0.00000000E+00  0.00000000E+00
  0.00000000E+00  0.00000000E+00  0.00000000E+00
  0.00000000E+00  0.00000000E+00  0.00000000E+00
  0.00000000E+00  0.00000000E+00  0.00000000E+00
  0.00000000E+00  0.00000000E+00  0.00000000E+00
  0.00000000E+00  0.00000000E+00  0.00000000E+00
  0.00000000E+00  0.00000000E+00  0.00000000E+00
  0.00000000E+00  0.00000000E+00  0.00000000E+00
  0.00000000E+00  0.00000000E+00  0.00000000E+00
  0.00000000E+00  0.00000000E+00  0.00000000E+00
  0.00000000E+00  0.00000000E+00  0.00000000E+00
  0.00000000E+00  0.00000000E+00  0.00000000E+00
  0.00000000E+00  0.00000000E+00  0.00000000E+00
  0.00000000E+00  0.00000000E+00  0.00000000E+00
  0.00000000E+00  0.00000000E+00  0.00000000E+00
  0.00000000E+00  0.00000000E+00  0.00000000E+00
  0.00000000E+00  0.00000000E+00  0.00000000E+00
  0.00000000E+00  0.00000000E+00  0.00000000E+00
  0.00000000E+00  0.00000000E+00  0.00000000E+00
  0.00000000E+00  0.00000000E+00  0.00000000E+00
  0.00000000E+00  0.00000000E+00  0.00000000E+00
  0.00000000E+00  0.00000000E+00  0.00000000E+00
  0.00000000E+00  0.00000000E+00  0.00000000E+00
  0.00000000E+00  0.00000000E+00  0.00000000E+00
  0.00000000E+00  0.00000000E+00  0.00000000E+00
  0.00000000E+00  0.00000000E+00  0.00000000E+00
  0.00000000E+00  0.00000000E+00  0.00000000E+00
  0.00000000E+00  0.00000000E+00  0.00000000E+00
  0.00000000E+00  0.00000000E+00  0.00000000E+00
  0.00000000E+00  0.00000000E+00  0.00000000E+00
  0.00000000E+00  0.00000000E+00  0.00000000E+00
  0.00000000E+00  0.00000000E+00  0.00000000E+00
  0.00000000E+00  0.00000000E+00  0.00000000E+00
  0.00000000E+00  0.00000000E+00  0.00000000E+00
  0.00000000E+00  0.00000000E+00  0.00000000E+00
  0.00000000E+00  0.00000000E+00  0.00000000E+00
  0.00000000E+00  0.00000000E+00  0.00000000E+00
  0.00000000E+00  0.00000000E+00  0.00000000E+00
  0.00000000E+00  0.00000000E+00  0.00000000E+00
  0.00000000E+00  0.00000000E+00  0.00000000E+00
  0.00000000E+00  0.00000000E+00  0.00000000E+00
  0.00000000E+00  0.00000000E+00  0.00000000E+00
  0.00000000E+00  0.00000000E+00  0.00000000E+00
  0.00000000E+00  0.00000000E+00  0.00000000E+00
  0.00000000E+00  0.00000000E+00  0.00000000E+00
  0.00000000E+00  0.00000000E+00  0.00000000E+00
  0.00000000E+00  0.00000000E+00  0.00000000E+00
  0.00000000E+00  0.00000000E+00  0.00000000E+00
  0.00000000E+00  0.00000000E+00  0.00000000E+00
  0.00000000E+00  0.00000000E+00  0.00000000E+00
  0.00000000E+00  0.00000000E+00  0.00000000E+00
  0.00000000E+00  0.00000000E+00  0.00000000E+00
  0.00000000E+00  0.00000000E+00  0.00000000E+00
  0.00000000E+00  0.00000000E+00  0.00000000E+00
  0.00000000E+00  0.00000000E+00  0.00000000E+00
  0.00000000E+00  0.00000000E+00  0.00000000E+00
  0.00000000E+00  0.00000000E+00  0.00000000E+00
  0.00000000E+00  0.00000000E+00  0.00000000E+00
  0.00000000E+00  0.00000000E+00  0.00000000E+00
  0.00000000E+00  0.00000000E+00  0.00000000E+00
  0.00000000E+00  0.00000000E+00  0.00000000E+00
  0.00000000E+00  0.00000000E+00  0.00000000E+00
  0.00000000E+00  0.00000000E+00  0.00000000E+00
  0.00000000E+00  0.00000000E+00  0.00000000E+00
  0.00000000E+00  0.00000000E+00  0.00000000E+00
  0.00000000E+00  0.00000000E+00  0.00000000E+00
  0.00000000E+00  0.00000000E+00  0.00000000E+00
  0.00000000E+00  0.00000000E+00  0.00000000E+00
  0.00000000E+00  0.00000000E+00  0.00000000E+00
  0.00000000E+00  0.00000000E+00  0.00000000E+00
  0.00000000E+00  0.00000000E+00  0.00000000E+00
  0.00000000E+00  0.00000000E+00  0.00000000E+00
  0.00000000E+00  0.00000000E+00  0.00000000E+00
  0.00000000E+00  0.00000000E+00  0.00000000E+00
  0.00000000E+00  0.00000000E+00  0.00000000E+00
  0.00000000E+00  0.00000000E+00  0.00000000E+00
  0.00000000E+00  0.00000000E+00  0.00000000E+00
  0.00000000E+00  0.00000000E+00  0.00000000E+00
  0.00000000E+00  0.00000000E+00  0.00000000E+00
  0.00000000E+00  0.00000000E+00  0.00000000E+00
  0.00000000E+00  0.00000000E+00  0.00000000E+00
  0.00000000E+00  0.00000000E+00  0.00000000E+00
  0.00000000E+00  0.00000000E+00  0.00000000E+00
  0.00000000E+00  0.00000000E+00  0.00000000E+00
  0.00000000E+00  0.00000000E+00  0.00000000E+00
  0.00000000E+00  0.00000000E+00  0.00000000E+00
  0.00000000E+00  0.00000000E+00  0.00000000E+00
  0.00000000E+00  0.00000000E+00  0.00000000E+00
  0.00000000E+00  0.00000000E+00  0.00000000E+00
  0.00000000E+00  0.00000000E+00  0.00000000E+00
  0.00000000E+00  0.00000000E+00  0.00000000E+00
  0.00000000E+00  0.00000000E+00  0.00000000E+00
  0.00000000E+00  0.00000000E+00  0.00000000E+00
  0.00000000E+00  0.00000000E+00  0.00000000E+00
  0.00000000E+00  0.00000000E+00  0.00000000E+00
  0.00000000E+00  0.00000000E+00  0.00000000E+00
  0.00000000E+00  0.00000000E+00  0.00000000E+00
  0.00000000E+00  0.00000000E+00  0.00000000E+00
  0.00000000E+00  0.00000000E+00  0.00000000E+00
  0.00000000E+00  0.00000000E+00  0.00000000E+00
  0.00000000E+00  0.00000000E+00  0.00000000E+00
  0.00000000E+00  0.00000000E+00  0.00000000E+00
  0.00000000E+00  0.00000000E+00  0.00000000E+00
  0.00000000E+00  0.00000000E+00  0.00000000E+00
  0.00000000E+00  0.00000000E+00  0.00000000E+00
  0.00000000E+00  0.00000000E+00  0.00000000E+00
  0.00000000E+00  0.00000000E+00  0.00000000E+00
  0.00000000E+00  0.00000000E+00  0.00000000E+00
  0.00000000E+00  0.00000000E+00  0.00000000E+00
  0.00000000E+00  0.00000000E+00  0.00000000E+00
  0.00000000E+00  0.00000000E+00  0.00000000E+00
  0.00000000E+00  0.00000000E+00  0.00000000E+00
  0.00000000E+00  0.00000000E+00  0.00000000E+00
  0.00000000E+00  0.00000000E+00  0.00000000E+00
  0.00000000E+00  0.00000000E+00  0.00000000E+00
  0.00000000E+00  0.00000000E+00  0.00000000E+00
  0.00000000E+00  0.00000000E+00  0.00000000E+00
  0.00000000E+00  0.00000000E+00  0.00000000E+00
  0.00000000E+00  0.00000000E+00  0.00000000E+00
  0.00000000E+00  0.00000000E+00  0.00000000E+00
  0.00000000E+00  0.00000000E+00  0.00000000E+00
  0.00000000E+00  0.00000000E+00  0.00000000E+00
  0.00000000E+00  0.00000000E+00  0.00000000E+00
  0.00000000E+00  0.00000000E+00  0.00000000E+00
  0.00000000E+00  0.00000000E+00  0.00000000E+00
  0.00000000E+00  0.00000000E+00  0.00000000E+00
  0.00000000E+00  0.00000000E+00  0.00000000E+00
  0.00000000E+00  0.00000000E+00  0.00000000E+00
  0.00000000E+00  0.00000000E+00  0.00000000E+00
  0.00000000E+00  0.00000000E+00  0.00000000E+00
  0.00000000E+00  0.00000000E+00  0.00000000E+00
  0.00000000E+00  0.00000000E+00  0.00000000E+00
  0.00000000E+00  0.00000000E+00  0.00000000E+00
  0.00000000E+00  0.00000000E+00  0.00000000E+00
  0.00000000E+00  0.00000000E+00  0.00000000E+00
  0.00000000E+00  0.00000000E+00  0.00000000E+00
  0.00000000E+00  0.00000000E+00  0.00000000E+00
  0.00000000E+00  0.00000000E+00  0.00000000E+00
  0.00000000E+00  0.00000000E+00  0.00000000E+00
  0.00000000E+00  0.00000000E+00  0.00000000E+00
  0.00000000E+00  0.00000000E+00  0.00000000E+00
  0.00000000E+00  0.00000000E+00  0.00000000E+00
  0.00000000E+00  0.00000000E+00  0.00000000E+00
  0.00000000E+00  0.00000000E+00  0.00000000E+00
  0.00000000E+00  0.00000000E+00  0.00000000E+00
  0.00000000E+00  0.00000000E+00  0.00000000E+00
  0.00000000E+00  0.00000000E+00  0.00000000E+00
  0.00000000E+00  0.00000000E+00  0.00000000E+00
  0.00000000E+00  0.00000000E+00  0.00000000E+00
  0.00000000E+00  0.00000000E+00  0.00000000E+00
  0.00000000E+00  0.00000000E+00  0.00000000E+00
  0.00000000E+00  0.00000000E+00  0.00000000E+00
  0.00000000E+00  0.00000000E+00  0.00000000E+00
  0.00000000E+00  0.00000000E+00  0.00000000E+00
  0.00000000E+00  0.00000000E+00  0.00000000E+00
  0.00000000E+00  0.00000000E+00  0.00000000E+00
  0.00000000E+00  0.00000000E+00  0.00000000E+00
  0.00000000E+00  0.00000000E+00  0.00000000E+00
  0.00000000E+00  0.00000000E+00  0.00000000E+00
  0.00000000E+00  0.00000000E+00  0.00000000E+00
  0.00000000E+00  0.00000000E+00  0.00000000E+00
  0.00000000E+00  0.00000000E+00  0.00000000E+00
  0.00000000E+00  0.00000000E+00  0.00000000E+00
  0.00000000E+00  0.00000000E+00  0.00000000E+00
  0.00000000E+00  0.00000000E+00  0.00000000E+00
  0.00000000E+00  0.00000000E+00  0.00000000E+00
  0.00000000E+00  0.00000000E+00  0.00000000E+00
  0.00000000E+00  0.00000000E+00  0.00000000E+00
  0.00000000E+00  0.00000000E+00  0.00000000E+00
  0.00000000E+00  0.00000000E+00  0.00000000E+00
  0.00000000E+00  0.00000000E+00  0.00000000E+00
  0.00000000E+00  0.00000000E+00  0.00000000E+00
  0.00000000E+00  0.00000000E+00  0.00000000E+00
  0.00000000E+00  0.00000000E+00  0.00000000E+00
  0.00000000E+00  0.00000000E+00  0.00000000E+00
  0.00000000E+00  0.00000000E+00  0.00000000E+00
  0.00000000E+00  0.00000000E+00  0.00000000E+00
  0.00000000E+00  0.00000000E+00  0.00000000E+00
  0.00000000E+00  0.00000000E+00  0.00000000E+00
  0.00000000E+00  0.00000000E+00  0.00000000E+00
  0.00000000E+00  0.00000000E+00  0.00000000E+00
  0.00000000E+00  0.00000000E+00  0.00000000E+00
  0.00000000E+00  0.00000000E+00  0.00000000E+00
  0.00000000E+00  0.00000000E+00  0.00000000E+00
  0.00000000E+00  0.00000000E+00  0.00000000E+00
  0.00000000E+00  0.00000000E+00  0.00000000E+00
  0.00000000E+00  0.00000000E+00  0.00000000E+00
  0.00000000E+00  0.00000000E+00  0.00000000E+00
  0.00000000E+00  0.00000000E+00  0.00000000E+00
  0.00000000E+00  0.00000000E+00  0.00000000E+00
  0.00000000E+00  0.00000000E+00  0.00000000E+00
  0.00000000E+00  0.00000000E+00  0.00000000E+00
  0.00000000E+00  0.00000000E+00  0.00000000E+00
  0.00000000E+00  0.00000000E+00  0.00000000E+00
  0.00000000E+00  0.00000000E+00  0.00000000E+00
  0.00000000E+00  0.00000000E+00  0.00000000E+00
  0.00000000E+00  0.00000000E+00  0.00000000E+00
  0.00000000E+00  0.00000000E+00  0.00000000E+00
  0.00000000E+00  0.00000000E+00  0.00000000E+00
  0.00000000E+00  0.00000000E+00  0.00000000E+00
  0.00000000E+00  0.00000000E+00  0.00000000E+00
  0.00000000E+00  0.00000000E+00  0.00000000E+00
  0.00000000E+00  0.00000000E+00  0.00000000E+00
  0.00000000E+00  0.00000000E+00  0.00000000E+00
  0.00000000E+00  0.00000000E+00  0.00000000E+00
  0.00000000E+00  0.00000000E+00  0.00000000E+00
  0.00000000E+00  0.00000000E+00  0.00000000E+00
  0.00000000E+00  0.00000000E+00  0.00000000E+00
  0.00000000E+00  0.00000000E+00  0.00000000E+00
  0.00000000E+00  0.00000000E+00  0.00000000E+00
  0.00000000E+00  0.00000000E+00  0.00000000E+00
  0.00000000E+00  0.00000000E+00  0.00000000E+00
  0.00000000E+00  0.00000000E+00  0.00000000E+00
  0.00000000E+00  0.00000000E+00  0.00000000E+00
  0.00000000E+00  0.00000000E+00  0.00000000E+00
  0.00000000E+00  0.00000000E+00  0.00000000E+00
  0.00000000E+00  0.00000000E+00  0.00000000E+00
  0.00000000E+00  0.00000000E+00  0.00000000E+00
  0.00000000E+00  0.00000000E+00  0.00000000E+00
  0.00000000E+00  0.00000000E+00  0.00000000E+00
  0.00000000E+00  0.00000000E+00  0.00000000E+00
  0.00000000E+00  0.00000000E+00  0.00000000E+00
  0.00000000E+00  0.00000000E+00  0.00000000E+00
  0.00000000E+00  0.00000000E+00  0.00000000E+00
  0.00000000E+00  0.00000000E+00  0.00000000E+00
  0.00000000E+00  0.00000000E+00  0.00000000E+00
  0.00000000E+00  0.00000000E+00  0.00000000E+00
  0.00000000E+00  0.00000000E+00  0.00000000E+00