In2O3 structure 15 - random placement wi
   1.00000000000000     
     7.8312043001597909    0.0814222341584052   -0.0006959670066086
     0.0797628890644432    8.1875964193181225   -0.0069563204893707
     0.0001177970582436   -0.0072222845635959    8.1733586495422994
   In   Ga   O 
    14     2    24
Direct
  0.2629572143331984  0.5781554318556559  0.8768841949027859
  0.4799692538476350  0.2950998905208806  0.6167628082108862
  0.7507107968560192  0.5137954713721555  0.4408003371218499
  0.7367095597590492  0.0398912202153596  0.3642378153086483
  0.2401340900907840  0.0242615495869600  0.3367398635078445
  0.9937159164446498  0.7929078580728799  0.1510731434970154
  0.5045155157006747  0.8019853425402985  0.6502351217436342
  0.2879015565615362  0.0703722837675258  0.8980160894249778
  0.0142723016006698  0.8105046024225402  0.6217315696785022
  0.0161603365212173  0.3077640258369811  0.1239151534350853
  0.7799679745399288  0.1256935680962386  0.8336100674609739
  0.4997663008973348  0.3391824091722384  0.1289001332240787
  0.5021294558135878  0.7626940713710013  0.1614029686691651
  0.7715944394408822  0.5473001887524802  0.8665193808449985
  0.2277975892906738  0.5469940534307867  0.4192438156006801
  0.0337443116780634  0.2936809777375800  0.6192811494478931
  0.7706908197650435  0.7034064505226425  0.6430531674847089
  0.3973193839921620  0.3414912134320218  0.8692583901078308
  0.2564864358448631  0.8779586876492971  0.0889588804473220
  0.2761500870032947  0.2011853264479271  0.1444915416050776
  0.5294007472473865  0.0542607162363140  0.7454136097193214
  0.9767735165118907  0.0568589129856178  0.2406411152711527
  0.0468372337167793  0.2054611428019584  0.8560726701075652
  0.6157031960152608  0.2812826618527922  0.3694873405060761
  0.5276505923115877  0.6702128349355760  0.9033473484441643
  0.4597769420873590  0.5541749426717928  0.5298385455236954
  0.1326533005619837  0.7679725929587420  0.3903341213679212
  0.8934897790392071  0.0499934681609631  0.5903630480693352
  0.7790795117566560  0.3587437382602161  0.6710256914914652
  0.2428923220679380  0.8317192738140236  0.7568363705617429
  0.7558873796623828  0.6976925084390757  0.2580045262497705
  0.1229709261504652  0.5218260569841675  0.6476469925275836
  0.2416371802679791  0.1897795411577192  0.5441554771790109
  0.6530651601244770  0.9815632462064272  0.0913514736158234
  0.4933764977714290  0.9143939358353563  0.3997315013043519
  0.0123355698189087  0.4109698021061376  0.3744304382667920
  0.7907850830433674  0.9059104613382374  0.9848771732179600
  0.7518954412388794  0.3259291638556974  0.0238677986857567
  0.3427766438939983  0.5460098308212551  0.2001771328935789
  0.0134090290223625  0.5696190421729526  0.0000882638096655
 
  0.00000000E+00  0.00000000E+00  0.00000000E+00
  0.00000000E+00  0.00000000E+00  0.00000000E+00
  0.00000000E+00  0.00000000E+00  0.00000000E+00
  0.00000000E+00  0.00000000E+00  0.00000000E+00
  0.00000000E+00  0.00000000E+00  0.00000000E+00
  0.00000000E+00  0.00000000E+00  0.00000000E+00
  0.00000000E+00  0.00000000E+00  0.00000000E+00
  0.00000000E+00  0.00000000E+00  0.00000000E+00
  0.00000000E+00  0.00000000E+00  0.00000000E+00
  0.00000000E+00  0.00000000E+00  0.00000000E+00
  0.00000000E+00  0.00000000E+00  0.00000000E+00
  0.00000000E+00  0.00000000E+00  0.00000000E+00
  0.00000000E+00  0.00000000E+00  0.00000000E+00
  0.00000000E+00  0.00000000E+00  0.00000000E+00
  0.00000000E+00  0.00000000E+00  0.00000000E+00
  0.00000000E+00  0.00000000E+00  0.00000000E+00
  0.00000000E+00  0.00000000E+00  0.00000000E+00
  0.00000000E+00  0.00000000E+00  0.00000000E+00
  0.00000000E+00  0.00000000E+00  0.00000000E+00
  0.00000000E+00  0.00000000E+00  0.00000000E+00
  0.00000000E+00  0.00000000E+00  0.00000000E+00
  0.00000000E+00  0.00000000E+00  0.00000000E+00
  0.00000000E+00  0.00000000E+00  0.00000000E+00
  0.00000000E+00  0.00000000E+00  0.00000000E+00
  0.00000000E+00  0.00000000E+00  0.00000000E+00
  0.00000000E+00  0.00000000E+00  0.00000000E+00
  0.00000000E+00  0.00000000E+00  0.00000000E+00
  0.00000000E+00  0.00000000E+00  0.00000000E+00
  0.00000000E+00  0.00000000E+00  0.00000000E+00
  0.00000000E+00  0.00000000E+00  0.00000000E+00
  0.00000000E+00  0.00000000E+00  0.00000000E+00
  0.00000000E+00  0.00000000E+00  0.00000000E+00
  0.00000000E+00  0.00000000E+00  0.00000000E+00
  0.00000000E+00  0.00000000E+00  0.00000000E+00
  0.00000000E+00  0.00000000E+00  0.00000000E+00
  0.00000000E+00  0.00000000E+00  0.00000000E+00
  0.00000000E+00  0.00000000E+00  0.00000000E+00
  0.00000000E+00  0.00000000E+00  0.00000000E+00
  0.00000000E+00  0.00000000E+00  0.00000000E+00
  0.00000000E+00  0.00000000E+00  0.00000000E+00
