Amorphous Sb                            
   1.00000000000000     
    20.0671579077798015    0.0000000000000000    0.0000000000000000
     0.0000000000000000   20.0671579077798015    0.0000000000000000
     0.0000000000000000    0.0000000000000000   20.0671579077798015
   Zr   Sb
    45   255
Direct
  0.1224159104474651  0.9666849384125769  0.4669527505675077
  0.2383617561933349  0.3333430159985369  0.0911291254147528
  0.2987219709430917  0.9673298729107813  0.4279332125779192
  0.9743061207898194  0.8135280548942916  0.0412801099528792
  0.9286677808042825  0.7840734099436375  0.3870246412030127
  0.2147915175461179  0.6433927548537994  0.6103453236027079
  0.5016000756567038  0.5777294380803184  0.2623235423042445
  0.9438947547276086  0.9932493855199098  0.1126273906274662
  0.1221292470873934  0.9144187952914393  0.2713147351820240
  0.6230645665348220  0.1492545558857898  0.9782524047142545
  0.9081534950030345  0.6099928435993576  0.3402346462007202
  0.0662328977944426  0.6309656792495062  0.2288858518655559
  0.3858976506521614  0.2286614141948107  0.3828212306375747
  0.2924911397238645  0.7290880512035756  0.3918907118643133
  0.0465318853374370  0.0111718615031222  0.9007554042345518
  0.7349672356223635  0.5338414651625101  0.1318420580177246
  0.0339573960439665  0.5265818304085812  0.8004048907550683
  0.1083388747975960  0.8933844745065898  0.6446451248189149
  0.6162281705032271  0.1601117759239088  0.6883774184227889
  0.6833259250388437  0.4777567018690476  0.8312346993953525
  0.1596384352829361  0.3816610306733708  0.3360662100533034
  0.1567576972673024  0.1392947894834080  0.9735974272199499
  0.3272863210398427  0.2900163713907418  0.5495612590115613
  0.3524487068355455  0.7482330047643657  0.6643707077701038
  0.8974973438027476  0.8732335152364854  0.8447591316212382
  0.4332092878889000  0.5998071174303874  0.4522570595884972
  0.6599502950556442  0.1753994096032869  0.4325674396956742
  0.9370183524868878  0.9605299267291656  0.4647721561093618
  0.5308745250914484  0.9045075743515838  0.7382521529948463
  0.0453250549940734  0.2346320053912336  0.5520510034740127
  0.8951092943093357  0.0866043213020475  0.9652509870517036
  0.1006299612069270  0.2630607190411638  0.8478200540846856
  0.4389411421273053  0.3717588011691362  0.9308884537740667
  0.0644500602060916  0.5198856346443677  0.9948357732943762
  0.1421541589110689  0.1823207905555364  0.6966419951680436
  0.2154121698722662  0.1862168456401747  0.3314635501183432
  0.3021036564710471  0.0739404226170208  0.1894320892940158
  0.4741342922725309  0.0878293797158918  0.4186867119411275
  0.7357930865729756  0.9700621267743514  0.3047532139647586
  0.4838174983488059  0.8557659562601856  0.5552146379407432
  0.8510576131387992  0.3216905887098065  0.9709745847350604
  0.8391488707205070  0.3388622632278526  0.4358462667868679
  0.8789746200247848  0.8487944922079436  0.2385810775980417
  0.7821487286380204  0.0054455619799043  0.8000748690272985
  0.7123505872791540  0.8993664723375403  0.0499782422536015
  0.0037591545670139  0.5504484820454678  0.5923855932932582
  0.9136207782326835  0.5553242683059239  0.7154162609481887
  0.5319577176355423  0.6025413789108782  0.7121148444843399
  0.2254455336565968  0.8997478176507983  0.5492205805802257
  0.8790570838677354  0.4237346754952185  0.5558533313718641
  0.6988201938032290  0.0295154240673128  0.4425769387576750
  0.0808436868694642  0.4110697417913585  0.8806675029378042
  0.2112121553502391  0.5203652500336560  0.3740294252457517
  0.3477425479338336  0.4254867099157238  0.0393411500543266
  0.7760045216819904  0.4513976933906036  0.2545195292515103
  0.7826998304887667  0.9210804464299613  0.9221781568030849
  0.7733934098011233  0.7823714155133814  0.8439377339688861
  0.9644765825735533  0.3066739594617829  0.8829516298175903
  0.8611826288374402  0.9973886363682780  0.2296198751931513
  0.5092472514697732  0.7801355828137346  0.9876485696728352
  0.6941278459385956  0.7314961403588427  0.6446685593114836
  0.8507016391880100  0.0390949378187386  0.3764198654929203
  0.5262984954374517  0.2494935880001208  0.9255913493352921
  0.7702160935402560  0.5758834574416767  0.3796163522646410
  0.7971268826299749  0.8792845561804015  0.7259795310595010
  0.0824304674567529  0.7738551817181829  0.3178030227344308
  0.6664606739109686  0.5428637381593688  0.9848763545974180
  0.1355506407813181  0.5893556246345497  0.8867547543025154
  0.7326088061944560  0.8454962861873128  0.2010970646018606
  0.4006288203671318  0.2965406355796389  0.8053340335664458
  0.3881926048613096  0.4664868824638191  0.2694539485102752
  0.5832799766471410  0.2662512244252966  0.7883459036921110
  0.3350537959773447  0.8070114101811612  0.2737611586711921
  0.3557418445526963  0.5017671486328084  0.7345777527121413
  0.0954902322763260  0.8947427736921938  0.0022106995190683
  0.2551612668137579  0.4204132462457508  0.2143024856984468
  0.8535668289858549  0.3229648327578403  0.1257092231278136
  0.1078980025688523  0.1085573483012894  0.5084282954717594
  0.5426350243217186  0.4074393981086999  0.8205116172209159
  0.8371326707654845  0.6584548891002839  0.6074182311712448
  0.2397337400609842  0.1779875058525064  0.0916918207235113
  0.4555777324744170  0.6766188823519244  0.1566776800878813
  0.5090919327721295  0.7628866495386930  0.6709783434458174
  0.2859552010918236  0.7171078643822284  0.1704662566588766
  0.2738779169014762  0.7589206259559376  0.5378672940291906
  0.3305206169552761  0.0917560837975415  0.3575866738857840
  0.1377643548683452  0.5992443010147781  0.1016439756712373
  0.9654967666877567  0.5120956353367987  0.2406551785544835
  0.8336809166663386  0.7572781739319581  0.4974690765453289
  0.6761483235424848  0.7381154389988041  0.3576155741725699
  0.2416422656515849  0.8440069115152298  0.7024569954759059
  0.1494220105663970  0.7129621836630662  0.4336073397302016
  0.5241943295800411  0.4702631752789301  0.0112599097305903
  0.5641929014039775  0.5636971303082703  0.8565976868199172
  0.6798469285528554  0.6050212770199650  0.7313914472584742
  0.2471779519840211  0.2876735022133659  0.8689195880329947
  0.2162427712412267  0.8562267135612629  0.8449975000161558
  0.8492133331489029  0.8754621551823831  0.0958382614231681
  0.1783815903092290  0.9888594287878121  0.1539354782875506
  0.8302734020381806  0.6113991642398204  0.2131983821063841
  0.1786122960957712  0.3293279478682649  0.7345070479939437
  0.9613272776877864  0.7244162583610390  0.2575540581790037
  0.5091018621634191  0.4806304743441032  0.3800270448453702
  0.3500820606081945  0.1596560738055288  0.8022987732297224
  0.6818206088374907  0.6714275923061592  0.1275711278995502
  0.1125440256180781  0.4885423967593141  0.2410818529289571
  0.4101115180682342  0.9911735005428923  0.5230117710085835
  0.4581524552078520  0.8298829855670675  0.2020192029640739
  0.7188974499248957  0.6695917000010922  0.4790125242217727
  0.9635061706554708  0.4120477696801430  0.0072021201813612
  0.2983460647802474  0.9863041424042578  0.7124311433998756
  0.2846202898817154  0.6112612144224627  0.4806911764929183
  0.5213911897292363  0.9239693432705849  0.8969743154651368
  0.3044265933397625  0.0148289006341926  0.0534027995801196
  0.4976526338973670  0.7042661872359091  0.3613710863700561
  0.1812538566436501  0.4770413061061163  0.7874810152120091
  0.7728297236772264  0.5884899572768276  0.8853399489783271
  0.8767674497913518  0.4781935796268826  0.1216224843103575
  0.0284646334904721  0.3319593074515623  0.2653301448269403
  0.5937309589586945  0.7567147264619365  0.5401639335370945
  0.7172254705672358  0.2598206783732735  0.9372434841419164
  0.3009804532052200  0.4229721680344340  0.8775356924922164
  0.6052446443507620  0.1135113117163158  0.8327834617288161
  0.7244773430327740  0.5426231644061872  0.6032338509046653
  0.4072099003181009  0.1500100665336674  0.0995763676499593
  0.4215968023418526  0.8126762590453041  0.7876554421507009
  0.4532555485911374  0.1168053425861970  0.2680345084005111
  0.6139042056747925  0.2655660135072750  0.0697511261477715
  0.0181818606040522  0.1565449152275349  0.9374511299539066
  0.1116792924461549  0.4266764627437922  0.1085270064068311
  0.4379596645512578  0.3453919389294882  0.4591411150017066
  0.0258805068683827  0.9910475611768987  0.5752027943699858
  0.4589483225139901  0.3217893080180332  0.6172502642832285
  0.3898597793894822  0.8141425291954789  0.0731422358996525
  0.9303232405217230  0.5326658030609295  0.9169706321380104
  0.5856640512112747  0.5980039699519963  0.4123283378675069
  0.3615071455169598  0.6034574197454177  0.6150078449624701
  0.4272356380278239  0.7215112228143923  0.5319975900809126
  0.4192236304730059  0.9798784262697140  0.1965514931433177
  0.7497766734009161  0.0885204950041185  0.9201905160888870
  0.5624706130144332  0.1411754615394258  0.5437384196497987
  0.8484337874659147  0.1999541359355561  0.8815073347980587
  0.4883418369725447  0.3400463759044996  0.0677015189507202
  0.0372154184529592  0.4303271631536560  0.4013966881988082
  0.3763803979608724  0.6327243355694563  0.3176986583071439
  0.0051815100512798  0.3198972149344641  0.1204330639872424
  0.3398880093252927  0.7097695724642819  0.9178368208581702
  0.9767843242470420  0.6562410199248490  0.8499301212794990
  0.8296101426374065  0.8877472551494066  0.3827391320434828
  0.3492709726580685  0.8681412280121918  0.9035338425561292
  0.5831379240922772  0.7113397990252253  0.2313942206231090
  0.8280478195808172  0.5984140571192569  0.0255414038346871
  0.3344782507017783  0.2786065930773916  0.9864033764247395
  0.0749585147405227  0.4475056006760809  0.6767973821835795
  0.1807002711050245  0.2827695700944872  0.5866073418424236
  0.3731328047970095  0.3025252145682700  0.1520453951205312
  0.4604408337290309  0.4823586634724677  0.5415908754201837
  0.1684913179317107  0.0370124113247030  0.6656652739369306
  0.1230282144060340  0.7557418773041391  0.5863562563861962
  0.9350956395197301  0.1256503274810683  0.5015165391065040
  0.3092828585850356  0.4344641284157262  0.5445820912218053
  0.8183221753472054  0.4268034320755802  0.8759577167481609
  0.6489405422828796  0.8403430830919163  0.9326333473373580
  0.1201504246298910  0.9561050605803771  0.7858119944596069
  0.9385276366419006  0.9415640160338441  0.9726883916374902
  0.6423665297738168  0.9715850540489726  0.8065413290035579
  0.1845153410868363  0.2854662567871671  0.2234995692632324
  0.4882192799774501  0.4586975202545887  0.6887560022982697
  0.4022161999754061  0.8930090289117132  0.6652506443486530
  0.7857498587870353  0.4770416817826160  0.7180784488745786
  0.9430204224779501  0.1369998462483366  0.1104255420518427
  0.7469238983721098  0.4540177007194259  0.4590450757304794
  0.2804334258547598  0.5865675345131365  0.8551803115763903
  0.5906243351559866  0.0446146757667947  0.3315894184886261
  0.4344124045193141  0.3324762276795710  0.2834056800462506
  0.9375531818377354  0.7605753500361274  0.7558994086129687
  0.8830865322265780  0.5694294937876450  0.4920263217221574
  0.4191330133959781  0.5256047036611591  0.1369372542770222
  0.3481354016685785  0.4847647623829374  0.4116345448814229
  0.1414109386237001  0.2898279481014896  0.9857221928280353
  0.6442629462645399  0.8107676837371258  0.7556216324290190
  0.7186757411065372  0.2935249056446665  0.3519319705391837
  0.8024576425223842  0.0185531198775024  0.0588396946068315
  0.5489902442379417  0.9680268578011564  0.1133936326670408
  0.6351862870663467  0.3913112509634544  0.9509408716339038
  0.2016514874923416  0.8587714750141302  0.3888088321679462
  0.9374455613773236  0.4115444292067707  0.7824380697614117
  0.6373046273236724  0.4339536048455059  0.6656811372206946
  0.6520369333875848  0.4212477147359195  0.3338027813787505
  0.0363776097449815  0.8465145124055198  0.4777275302417436
  0.8293765025160837  0.1978341173937821  0.0475989999790443
  0.1960234303455195  0.4390984884426885  0.9827295019293416
  0.1565123677352531  0.1284913690473743  0.2102616804349466
  0.5703039544565840  0.2345822927046157  0.2181427514826240
  0.3275743940001732  0.2050006903803734  0.2454329659290124
  0.4362463053257528  0.9604081191897080  0.3482876505307289
  0.5567572357741071  0.6530327208813347  0.0506783591993738
  0.8835793717524396  0.7469748608284092  0.9408868110860453
  0.9795990378433572  0.7089431777724187  0.6196368100562282
  0.6932465572563444  0.0312405868382939  0.6762314203294508
  0.0172156146415148  0.1212207898684738  0.6410945226652771
  0.9789278021256393  0.9144329324482143  0.7190200532495297
  0.0787133270500746  0.1914607368280059  0.0960874506584872
  0.2478890720665916  0.0539231501964679  0.5355221429427601
  0.8974235254978566  0.4632043285554701  0.3815073337635084
  0.5728087503601387  0.3001823320886743  0.5153023343659413
  0.2164125040325331  0.5019164371305536  0.6427714405432923
  0.0133775609513691  0.8778795159779946  0.1741949646441654
  0.6712203098002121  0.6873991088814648  0.9279523012809179
  0.2733387410865049  0.9456485634308862  0.2788122148831178
  0.5846553386110358  0.5193738286374625  0.1480050945306246
  0.4172259857193481  0.1763006381748298  0.5207544893324112
  0.0361852656874504  0.0316878713793471  0.2292977638587246
  0.2841679565434561  0.5613810953166691  0.0160967134054815
  0.2326624842944440  0.7130445647460135  0.0190783296537873
  0.6030635053237674  0.4487977236761651  0.5180042430147225
  0.7159004527496791  0.2319032782258077  0.2132041571873913
  0.4755893582808142  0.1103204720147772  0.9707251856887709
  0.7216182660729658  0.3333616987739632  0.8066535318514170
  0.2805459396703256  0.3247078744392482  0.3953572398342686
  0.6864551570640884  0.2947850032232040  0.6513031493615244
  0.8111627334539193  0.9870784312184213  0.5404000312264472
  0.6220891667327422  0.9995635502358837  0.9840486773033348
  0.8229231031512683  0.1867738683617546  0.4164787622322592
  0.8803719846109743  0.7303289435455440  0.1254722992300685
  0.2011263468767979  0.6681657756126711  0.2855787639895055
  0.4746195350941917  0.2085545318727853  0.7039959471171642
  0.5912116562946750  0.8280090545653422  0.0984115914670411
  0.0240713646448825  0.3848719646826595  0.5437398436797949
  0.1701926722736644  0.4217652254629627  0.4866728358830770
  0.8758758225302472  0.3274194880553623  0.2894068978896556
  0.8218954205223952  0.6641796720229749  0.7599881091911413
  0.3229347777418923  0.3528023175381634  0.6924670170670879
  0.7585204444988420  0.4201375931240534  0.0314090901024571
  0.0777773706494926  0.0375667951959144  0.0548936374496449
  0.8320921112762321  0.3363919313187935  0.6938511542266781
  0.2412620062150523  0.8643468708864219  0.0390301265540884
  0.2586179598544831  0.1893027566713599  0.4720100911323897
  0.3256650021648753  0.0047714247628079  0.8531374004516792
  0.8983041016327888  0.2744583823502182  0.5622776217767722
  0.8743025493154946  0.1771006555244625  0.2739078375868615
  0.5483890268912361  0.6141890067386768  0.5546994903626583
  0.1858898066718027  0.8236053934800651  0.1696595271118255
  0.3776733669708676  0.8439232429771479  0.4426949474069204
  0.8120128338485131  0.7295693805848273  0.3088990651160941
  0.9383537190705624  0.8548176484990364  0.5865142807241526
  0.7578215178916068  0.7551502841917710  0.0335254372168663
  0.7113084587229537  0.1184203043079037  0.3058994364084171
  0.6990341518407632  0.3777444586271628  0.1570002322859807
  0.0441330404380196  0.1260262247701931  0.7941634767491834
  0.6865006682420898  0.8709665849029520  0.4178975230873121
  0.6908356381147200  0.9877520738589780  0.1690570753558234
  0.0313416616020206  0.2902132792375269  0.7017620032754621
  0.4183390696018208  0.6096750920464160  0.9908372748478058
  0.7247913615741908  0.2873122275414985  0.5100772501456561
  0.9199433327214024  0.0242526475018678  0.8296066586079718
  0.1302262697214331  0.5609480070593236  0.5168656038545194
  0.7454308709352802  0.8576552157995749  0.5633729720421385
  0.0577444337418314  0.5831245980456004  0.3718750858034525
  0.2429221611782495  0.6888948688154315  0.7476299451603978
  0.7103877979678259  0.1294379318150405  0.0981917810223152
  0.1956543337429224  0.1480428941513168  0.8282767346592195
  0.6113792488012209  0.9131039063240323  0.6162720767146794
  0.0218512170871108  0.0575183767225695  0.3928694709863549
  0.0329316740201619  0.6811423829367769  0.9865386624589760
  0.3088352313590903  0.1331146102056309  0.9533504544457756
  0.5254992144282937  0.8550113804652426  0.4096366704965817
  0.9852480719931478  0.9092483503964246  0.3321582285311990
  0.7492726647764769  0.1468418371225084  0.7574595277797940
  0.5519992550641106  0.1248272978900928  0.1151028113607069
  0.8697735410472589  0.0067903858820415  0.6768052215042459
  0.7148054002733488  0.1480954563164616  0.5728311914324067
  0.5582361934068416  0.7125257437274399  0.8353920082968003
  0.8505891081602783  0.1478843800741814  0.6347277959076649
  0.9719136342638564  0.2735747275215417  0.4261284230660323
  0.1246453227870816  0.2614891526967540  0.4221144302034645
  0.1450590572611858  0.7334910109230250  0.9050333931847874
  0.9853248417557268  0.5861539092987300  0.1046444351149418
  0.5223548008697989  0.0421852004336856  0.6863539373559888
  0.0975049018439762  0.6222948802381651  0.6987811937667985
  0.2778243394846314  0.5637295538222276  0.1642909513327311
  0.4680402233504992  0.0485054580949722  0.8279373934240013
  0.1958006835721804  0.0061050722447717  0.9282958650576347
  0.3856200339841820  0.0820081062144737  0.6368886296455969
  0.5338216274299228  0.2211608480743124  0.3736330609211436
  0.6095339042195675  0.8975437644337134  0.2721685277593764
  0.0175364928165251  0.1916916126206019  0.3065955686874489
  0.0754438968631916  0.7412808620737366  0.1265664577394006
  0.2853505439307824  0.1988541901444805  0.6647427891498481
  0.9832626327264364  0.6734955114497652  0.4605510750450250
  0.4305194647007085  0.5146460518256859  0.8767682364668303
  0.5592700605822003  0.9827525222288145  0.4922910204921251
  0.0931305478662878  0.7750855535240433  0.7429938948505352
  0.3991464912445224  0.6510117254027463  0.7660945235471530
  0.6559547153971081  0.5741465510004957  0.2645171739166159
  0.4297666486695206  0.9491527633679624  0.0243977485942963
  0.9209678526429670  0.2098138445102862  0.7548273043442677
  0.5590453794354175  0.3857315359691071  0.2210729634123965
  0.0411328787819940  0.8498500308357819  0.8736536692375978
  0.1762187806063622  0.0379868726263624  0.3541384108077281
 
  0.00000000E+00  0.00000000E+00  0.00000000E+00
  0.00000000E+00  0.00000000E+00  0.00000000E+00
  0.00000000E+00  0.00000000E+00  0.00000000E+00
  0.00000000E+00  0.00000000E+00  0.00000000E+00
  0.00000000E+00  0.00000000E+00  0.00000000E+00
  0.00000000E+00  0.00000000E+00  0.00000000E+00
  0.00000000E+00  0.00000000E+00  0.00000000E+00
  0.00000000E+00  0.00000000E+00  0.00000000E+00
  0.00000000E+00  0.00000000E+00  0.00000000E+00
  0.00000000E+00  0.00000000E+00  0.00000000E+00
  0.00000000E+00  0.00000000E+00  0.00000000E+00
  0.00000000E+00  0.00000000E+00  0.00000000E+00
  0.00000000E+00  0.00000000E+00  0.00000000E+00
  0.00000000E+00  0.00000000E+00  0.00000000E+00
  0.00000000E+00  0.00000000E+00  0.00000000E+00
  0.00000000E+00  0.00000000E+00  0.00000000E+00
  0.00000000E+00  0.00000000E+00  0.00000000E+00
  0.00000000E+00  0.00000000E+00  0.00000000E+00
  0.00000000E+00  0.00000000E+00  0.00000000E+00
  0.00000000E+00  0.00000000E+00  0.00000000E+00
  0.00000000E+00  0.00000000E+00  0.00000000E+00
  0.00000000E+00  0.00000000E+00  0.00000000E+00
  0.00000000E+00  0.00000000E+00  0.00000000E+00
  0.00000000E+00  0.00000000E+00  0.00000000E+00
  0.00000000E+00  0.00000000E+00  0.00000000E+00
  0.00000000E+00  0.00000000E+00  0.00000000E+00
  0.00000000E+00  0.00000000E+00  0.00000000E+00
  0.00000000E+00  0.00000000E+00  0.00000000E+00
  0.00000000E+00  0.00000000E+00  0.00000000E+00
  0.00000000E+00  0.00000000E+00  0.00000000E+00
  0.00000000E+00  0.00000000E+00  0.00000000E+00
  0.00000000E+00  0.00000000E+00  0.00000000E+00
  0.00000000E+00  0.00000000E+00  0.00000000E+00
  0.00000000E+00  0.00000000E+00  0.00000000E+00
  0.00000000E+00  0.00000000E+00  0.00000000E+00
  0.00000000E+00  0.00000000E+00  0.00000000E+00
  0.00000000E+00  0.00000000E+00  0.00000000E+00
  0.00000000E+00  0.00000000E+00  0.00000000E+00
  0.00000000E+00  0.00000000E+00  0.00000000E+00
  0.00000000E+00  0.00000000E+00  0.00000000E+00
  0.00000000E+00  0.00000000E+00  0.00000000E+00
  0.00000000E+00  0.00000000E+00  0.00000000E+00
  0.00000000E+00  0.00000000E+00  0.00000000E+00
  0.00000000E+00  0.00000000E+00  0.00000000E+00
  0.00000000E+00  0.00000000E+00  0.00000000E+00
  0.00000000E+00  0.00000000E+00  0.00000000E+00
  0.00000000E+00  0.00000000E+00  0.00000000E+00
  0.00000000E+00  0.00000000E+00  0.00000000E+00
  0.00000000E+00  0.00000000E+00  0.00000000E+00
  0.00000000E+00  0.00000000E+00  0.00000000E+00
  0.00000000E+00  0.00000000E+00  0.00000000E+00
  0.00000000E+00  0.00000000E+00  0.00000000E+00
  0.00000000E+00  0.00000000E+00  0.00000000E+00
  0.00000000E+00  0.00000000E+00  0.00000000E+00
  0.00000000E+00  0.00000000E+00  0.00000000E+00
  0.00000000E+00  0.00000000E+00  0.00000000E+00
  0.00000000E+00  0.00000000E+00  0.00000000E+00
  0.00000000E+00  0.00000000E+00  0.00000000E+00
  0.00000000E+00  0.00000000E+00  0.00000000E+00
  0.00000000E+00  0.00000000E+00  0.00000000E+00
  0.00000000E+00  0.00000000E+00  0.00000000E+00
  0.00000000E+00  0.00000000E+00  0.00000000E+00
  0.00000000E+00  0.00000000E+00  0.00000000E+00
  0.00000000E+00  0.00000000E+00  0.00000000E+00
  0.00000000E+00  0.00000000E+00  0.00000000E+00
  0.00000000E+00  0.00000000E+00  0.00000000E+00
  0.00000000E+00  0.00000000E+00  0.00000000E+00
  0.00000000E+00  0.00000000E+00  0.00000000E+00
  0.00000000E+00  0.00000000E+00  0.00000000E+00
  0.00000000E+00  0.00000000E+00  0.00000000E+00
  0.00000000E+00  0.00000000E+00  0.00000000E+00
  0.00000000E+00  0.00000000E+00  0.00000000E+00
  0.00000000E+00  0.00000000E+00  0.00000000E+00
  0.00000000E+00  0.00000000E+00  0.00000000E+00
  0.00000000E+00  0.00000000E+00  0.00000000E+00
  0.00000000E+00  0.00000000E+00  0.00000000E+00
  0.00000000E+00  0.00000000E+00  0.00000000E+00
  0.00000000E+00  0.00000000E+00  0.00000000E+00
  0.00000000E+00  0.00000000E+00  0.00000000E+00
  0.00000000E+00  0.00000000E+00  0.00000000E+00
  0.00000000E+00  0.00000000E+00  0.00000000E+00
  0.00000000E+00  0.00000000E+00  0.00000000E+00
  0.00000000E+00  0.00000000E+00  0.00000000E+00
  0.00000000E+00  0.00000000E+00  0.00000000E+00
  0.00000000E+00  0.00000000E+00  0.00000000E+00
  0.00000000E+00  0.00000000E+00  0.00000000E+00
  0.00000000E+00  0.00000000E+00  0.00000000E+00
  0.00000000E+00  0.00000000E+00  0.00000000E+00
  0.00000000E+00  0.00000000E+00  0.00000000E+00
  0.00000000E+00  0.00000000E+00  0.00000000E+00
  0.00000000E+00  0.00000000E+00  0.00000000E+00
  0.00000000E+00  0.00000000E+00  0.00000000E+00
  0.00000000E+00  0.00000000E+00  0.00000000E+00
  0.00000000E+00  0.00000000E+00  0.00000000E+00
  0.00000000E+00  0.00000000E+00  0.00000000E+00
  0.00000000E+00  0.00000000E+00  0.00000000E+00
  0.00000000E+00  0.00000000E+00  0.00000000E+00
  0.00000000E+00  0.00000000E+00  0.00000000E+00
  0.00000000E+00  0.00000000E+00  0.00000000E+00
  0.00000000E+00  0.00000000E+00  0.00000000E+00
  0.00000000E+00  0.00000000E+00  0.00000000E+00
  0.00000000E+00  0.00000000E+00  0.00000000E+00
  0.00000000E+00  0.00000000E+00  0.00000000E+00
  0.00000000E+00  0.00000000E+00  0.00000000E+00
  0.00000000E+00  0.00000000E+00  0.00000000E+00
  0.00000000E+00  0.00000000E+00  0.00000000E+00
  0.00000000E+00  0.00000000E+00  0.00000000E+00
  0.00000000E+00  0.00000000E+00  0.00000000E+00
  0.00000000E+00  0.00000000E+00  0.00000000E+00
  0.00000000E+00  0.00000000E+00  0.00000000E+00
  0.00000000E+00  0.00000000E+00  0.00000000E+00
  0.00000000E+00  0.00000000E+00  0.00000000E+00
  0.00000000E+00  0.00000000E+00  0.00000000E+00
  0.00000000E+00  0.00000000E+00  0.00000000E+00
  0.00000000E+00  0.00000000E+00  0.00000000E+00
  0.00000000E+00  0.00000000E+00  0.00000000E+00
  0.00000000E+00  0.00000000E+00  0.00000000E+00
  0.00000000E+00  0.00000000E+00  0.00000000E+00
  0.00000000E+00  0.00000000E+00  0.00000000E+00
  0.00000000E+00  0.00000000E+00  0.00000000E+00
  0.00000000E+00  0.00000000E+00  0.00000000E+00
  0.00000000E+00  0.00000000E+00  0.00000000E+00
  0.00000000E+00  0.00000000E+00  0.00000000E+00
  0.00000000E+00  0.00000000E+00  0.00000000E+00
  0.00000000E+00  0.00000000E+00  0.00000000E+00
  0.00000000E+00  0.00000000E+00  0.00000000E+00
  0.00000000E+00  0.00000000E+00  0.00000000E+00
  0.00000000E+00  0.00000000E+00  0.00000000E+00
  0.00000000E+00  0.00000000E+00  0.00000000E+00
  0.00000000E+00  0.00000000E+00  0.00000000E+00
  0.00000000E+00  0.00000000E+00  0.00000000E+00
  0.00000000E+00  0.00000000E+00  0.00000000E+00
  0.00000000E+00  0.00000000E+00  0.00000000E+00
  0.00000000E+00  0.00000000E+00  0.00000000E+00
  0.00000000E+00  0.00000000E+00  0.00000000E+00
  0.00000000E+00  0.00000000E+00  0.00000000E+00
  0.00000000E+00  0.00000000E+00  0.00000000E+00
  0.00000000E+00  0.00000000E+00  0.00000000E+00
  0.00000000E+00  0.00000000E+00  0.00000000E+00
  0.00000000E+00  0.00000000E+00  0.00000000E+00
  0.00000000E+00  0.00000000E+00  0.00000000E+00
  0.00000000E+00  0.00000000E+00  0.00000000E+00
  0.00000000E+00  0.00000000E+00  0.00000000E+00
  0.00000000E+00  0.00000000E+00  0.00000000E+00
  0.00000000E+00  0.00000000E+00  0.00000000E+00
  0.00000000E+00  0.00000000E+00  0.00000000E+00
  0.00000000E+00  0.00000000E+00  0.00000000E+00
  0.00000000E+00  0.00000000E+00  0.00000000E+00
  0.00000000E+00  0.00000000E+00  0.00000000E+00
  0.00000000E+00  0.00000000E+00  0.00000000E+00
  0.00000000E+00  0.00000000E+00  0.00000000E+00
  0.00000000E+00  0.00000000E+00  0.00000000E+00
  0.00000000E+00  0.00000000E+00  0.00000000E+00
  0.00000000E+00  0.00000000E+00  0.00000000E+00
  0.00000000E+00  0.00000000E+00  0.00000000E+00
  0.00000000E+00  0.00000000E+00  0.00000000E+00
  0.00000000E+00  0.00000000E+00  0.00000000E+00
  0.00000000E+00  0.00000000E+00  0.00000000E+00
  0.00000000E+00  0.00000000E+00  0.00000000E+00
  0.00000000E+00  0.00000000E+00  0.00000000E+00
  0.00000000E+00  0.00000000E+00  0.00000000E+00
  0.00000000E+00  0.00000000E+00  0.00000000E+00
  0.00000000E+00  0.00000000E+00  0.00000000E+00
  0.00000000E+00  0.00000000E+00  0.00000000E+00
  0.00000000E+00  0.00000000E+00  0.00000000E+00
  0.00000000E+00  0.00000000E+00  0.00000000E+00
  0.00000000E+00  0.00000000E+00  0.00000000E+00
  0.00000000E+00  0.00000000E+00  0.00000000E+00
  0.00000000E+00  0.00000000E+00  0.00000000E+00
  0.00000000E+00  0.00000000E+00  0.00000000E+00
  0.00000000E+00  0.00000000E+00  0.00000000E+00
  0.00000000E+00  0.00000000E+00  0.00000000E+00
  0.00000000E+00  0.00000000E+00  0.00000000E+00
  0.00000000E+00  0.00000000E+00  0.00000000E+00
  0.00000000E+00  0.00000000E+00  0.00000000E+00
  0.00000000E+00  0.00000000E+00  0.00000000E+00
  0.00000000E+00  0.00000000E+00  0.00000000E+00
  0.00000000E+00  0.00000000E+00  0.00000000E+00
  0.00000000E+00  0.00000000E+00  0.00000000E+00
  0.00000000E+00  0.00000000E+00  0.00000000E+00
  0.00000000E+00  0.00000000E+00  0.00000000E+00
  0.00000000E+00  0.00000000E+00  0.00000000E+00
  0.00000000E+00  0.00000000E+00  0.00000000E+00
  0.00000000E+00  0.00000000E+00  0.00000000E+00
  0.00000000E+00  0.00000000E+00  0.00000000E+00
  0.00000000E+00  0.00000000E+00  0.00000000E+00
  0.00000000E+00  0.00000000E+00  0.00000000E+00
  0.00000000E+00  0.00000000E+00  0.00000000E+00
  0.00000000E+00  0.00000000E+00  0.00000000E+00
  0.00000000E+00  0.00000000E+00  0.00000000E+00
  0.00000000E+00  0.00000000E+00  0.00000000E+00
  0.00000000E+00  0.00000000E+00  0.00000000E+00
  0.00000000E+00  0.00000000E+00  0.00000000E+00
  0.00000000E+00  0.00000000E+00  0.00000000E+00
  0.00000000E+00  0.00000000E+00  0.00000000E+00
  0.00000000E+00  0.00000000E+00  0.00000000E+00
  0.00000000E+00  0.00000000E+00  0.00000000E+00
  0.00000000E+00  0.00000000E+00  0.00000000E+00
  0.00000000E+00  0.00000000E+00  0.00000000E+00
  0.00000000E+00  0.00000000E+00  0.00000000E+00
  0.00000000E+00  0.00000000E+00  0.00000000E+00
  0.00000000E+00  0.00000000E+00  0.00000000E+00
  0.00000000E+00  0.00000000E+00  0.00000000E+00
  0.00000000E+00  0.00000000E+00  0.00000000E+00
  0.00000000E+00  0.00000000E+00  0.00000000E+00
  0.00000000E+00  0.00000000E+00  0.00000000E+00
  0.00000000E+00  0.00000000E+00  0.00000000E+00
  0.00000000E+00  0.00000000E+00  0.00000000E+00
  0.00000000E+00  0.00000000E+00  0.00000000E+00
  0.00000000E+00  0.00000000E+00  0.00000000E+00
  0.00000000E+00  0.00000000E+00  0.00000000E+00
  0.00000000E+00  0.00000000E+00  0.00000000E+00
  0.00000000E+00  0.00000000E+00  0.00000000E+00
  0.00000000E+00  0.00000000E+00  0.00000000E+00
  0.00000000E+00  0.00000000E+00  0.00000000E+00
  0.00000000E+00  0.00000000E+00  0.00000000E+00
  0.00000000E+00  0.00000000E+00  0.00000000E+00
  0.00000000E+00  0.00000000E+00  0.00000000E+00
  0.00000000E+00  0.00000000E+00  0.00000000E+00
  0.00000000E+00  0.00000000E+00  0.00000000E+00
  0.00000000E+00  0.00000000E+00  0.00000000E+00
  0.00000000E+00  0.00000000E+00  0.00000000E+00
  0.00000000E+00  0.00000000E+00  0.00000000E+00
  0.00000000E+00  0.00000000E+00  0.00000000E+00
  0.00000000E+00  0.00000000E+00  0.00000000E+00
  0.00000000E+00  0.00000000E+00  0.00000000E+00
  0.00000000E+00  0.00000000E+00  0.00000000E+00
  0.00000000E+00  0.00000000E+00  0.00000000E+00
  0.00000000E+00  0.00000000E+00  0.00000000E+00
  0.00000000E+00  0.00000000E+00  0.00000000E+00
  0.00000000E+00  0.00000000E+00  0.00000000E+00
  0.00000000E+00  0.00000000E+00  0.00000000E+00