Amorphous Sb                            
   1.00000000000000     
    19.1835882789318752    0.0000000000000000    0.0000000000000000
     0.0000000000000000   19.1835882789318752    0.0000000000000000
     0.0000000000000000    0.0000000000000000   19.1835882789318752
   Ge   S 
   150   150
Direct
  0.0117982222124732  0.6612618711033507  0.7218862738586443
  0.7443922112061450  0.1298069329253816  0.4698383570356706
  0.3780851706790566  0.3824105416676828  0.7134194588983929
  0.3165628968020495  0.8148717871780851  0.4266260157946490
  0.2807084645039124  0.7457362446166398  0.1300441223333101
  0.9310969715394614  0.4899084588634453  0.1552105555973602
  0.7185879138957507  0.1030291635402823  0.8537856333178919
  0.0892416930578530  0.1784370989449007  0.9349998564060492
  0.1338018495151309  0.0097187474033921  0.2589679189808728
  0.4931717869661069  0.8069381619237920  0.5979037918855558
  0.0472338895933576  0.9980142707090406  0.9175304985394105
  0.9000939562394963  0.1972048397102329  0.8115562450536408
  0.9156217442689165  0.4152071291736643  0.6419305127953722
  0.7276209808887589  0.2464366066152314  0.9489261107899005
  0.7449847120631709  0.9050872137555901  0.9465208509482753
  0.9207347785017000  0.9207620412241402  0.8779902993591198
  0.7408417901382079  0.0267480934147400  0.2411649087577317
  0.5932489633158997  0.6253878529031229  0.0186933110268245
  0.1110298655485830  0.1908437122785037  0.5084235635618448
  0.6894950441923062  0.3006811366703391  0.2789677953727382
  0.8419953092537295  0.1014725078629105  0.3407172550742953
  0.2343932159914536  0.9850018182063531  0.3679375181806466
  0.4240537792098303  0.4271573293004706  0.4917521070584692
  0.8972089759183084  0.7468452548743491  0.3852024012557710
  0.0477263781187568  0.0469041191317987  0.7373444344868558
  0.5864900814466785  0.4671387141640897  0.7759167963494051
  0.6177103274494059  0.8669627252695220  0.8531116875482727
  0.3231011658075407  0.0575542837661030  0.9715677929961589
  0.2358925289385062  0.2232202583568451  0.1621377735089697
  0.8459005684567001  0.8433519669064148  0.1898490139050228
  0.3757206037907441  0.7186408379546413  0.9297524006726205
  0.1260607922716124  0.1608997822363395  0.1803199815005326
  0.3277753750085619  0.4436822320123827  0.1165127855313399
  0.3232333868768986  0.1096236943855855  0.4796462452576115
  0.1070732373849380  0.4716265886415831  0.3154741685977421
  0.1038592720693960  0.6129584262739874  0.1716907499508750
  0.1757065106023424  0.3718209067965942  0.4685736375586209
  0.8728796743155391  0.0209026543671848  0.7561302465093913
  0.1536694669931411  0.5603093593528252  0.6706867455982837
  0.4985022916518367  0.5676033166943281  0.5988790000631922
  0.8928202524502207  0.6822341519033269  0.9870681570543606
  0.4906733536073529  0.6155622623530121  0.8251679449678828
  0.6067675320596920  0.0288830687532780  0.5998701463278794
  0.3073158028488314  0.6459562590927680  0.5217528329982055
  0.2668999972349932  0.0021416027386413  0.8596994605506278
  0.3275527310615470  0.1852433843140897  0.0057405546123712
  0.0679707948916888  0.8198325841247890  0.1175537491304300
  0.0625427261338414  0.2456225245658083  0.7776293834062229
  0.4571592054258532  0.9262060481966249  0.1104064975679599
  0.7613296747711052  0.8589296555055155  0.5373757124268315
  0.2910796177031579  0.5389665405719947  0.8261601308369667
  0.6311412512876359  0.8342943073368303  0.6660664409260478
  0.0117042643571272  0.6274211855704646  0.4360128597436428
  0.1379973484318940  0.7724190189964367  0.5281812406106852
  0.7575034477192715  0.5564251832421732  0.7528275283985161
  0.0191267518838982  0.9836582214420176  0.1047634518676415
  0.4357778486657232  0.6828751322799040  0.6664705540480127
  0.8840502292855718  0.7042848570818909  0.8131911603863289
  0.4958672928309826  0.7908617531953028  0.9776235557650440
  0.8313473741060421  0.5822133200890761  0.0700788786456716
  0.7408247117389520  0.7530890370831284  0.0951025675158072
  0.6259096779997674  0.6712793589295954  0.6590515210843363
  0.8251386068208767  0.3157285270280810  0.3315842943670798
  0.2234416989450625  0.7879610590020808  0.8384067015326873
  0.0678668020560936  0.8448753770093982  0.6796683453658641
  0.7476402512584929  0.3475211545004160  0.6995881917625634
  0.4494440931586552  0.8858573954300042  0.3224720467984621
  0.4218352524906653  0.2373928965985907  0.5731490410018217
  0.1815172957733537  0.7194856673992293  0.9775350544863045
  0.5754158317090268  0.2372459402579380  0.3845138645909729
  0.7736747239908767  0.6700215107466932  0.5116246736460595
  0.1158247338119003  0.5467162613578989  0.5128418993926567
  0.5854448475042964  0.2180103896024604  0.1966765513307946
  0.9778571299819881  0.3406386257510192  0.4524926479252493
  0.4665026395925226  0.4130974775946102  0.2043079947373603
  0.2077039812980125  0.9866285446819777  0.7358702080153692
  0.3218565165413909  0.0571064393620686  0.2040153314105326
  0.8688502088906225  0.0967489094374870  0.0093737145520736
  0.2843940624806984  0.9113742392816563  0.5704590878865629
  0.7364176544811126  0.8150381920651816  0.2727143520871927
  0.5553622987012684  0.3446957324199678  0.6696854825635047
  0.7911888728033382  0.1660091559426058  0.6737148411816957
  0.2579461665007851  0.1600384443082278  0.8292104214595344
  0.1465394279320392  0.3657971912491005  0.1197025674208369
  0.0505568161015309  0.0721089784813973  0.4468515630081224
  0.8915416129362129  0.9360596034691793  0.1098040853391781
  0.2377112777495556  0.8383797796796479  0.2387776178637781
  0.2386526409231257  0.4837711712615113  0.2648853373286647
  0.6296377012801764  0.1879230900760055  0.6232034493040547
  0.9487744913940865  0.9902425187197431  0.3148756721140800
  0.5736724220726598  0.1632818109604380  0.0073366620326291
  0.7863566975466545  0.4284611401996665  0.4368774853091990
  0.4252579428259013  0.6431010096777245  0.2431185108988969
  0.7702183587072469  0.4701336464505563  0.2589489032035434
  0.2245849886497363  0.1792407016540236  0.6306488969522916
  0.5006600968380323  0.5868784469310061  0.3928661935590270
  0.4048041141456072  0.4764741323226176  0.9598410918754577
  0.8494540382568985  0.3745521806857708  0.8602437112215607
  0.1606974936267372  0.5607983778587063  0.9057535620205396
  0.2310480145721340  0.5570488023950994  0.0763739398639988
  0.1896575046277013  0.3460012060352096  0.6397192228569855
  0.1889932180496919  0.7290133327009739  0.6546787230540578
  0.5150578180202015  0.7231891034110951  0.4289102271419510
  0.6530770111544876  0.4364108435468885  0.5934516903332326
  0.8896153881071361  0.2356060510725077  0.0981712379813205
  0.1751909832965635  0.3963697975327043  0.8211133783173291
  0.9127993152913747  0.7625405858090479  0.6317595128750415
  0.9817147807664350  0.8962112391021488  0.5131140815762738
  0.3923085427337380  0.5710796100537393  0.7422389236147283
  0.7203138502986478  0.5085614543193545  0.9301825841028185
  0.5977901310402753  0.4693511690609635  0.3368592555597930
  0.0901598398266229  0.3513709728818840  0.9681285800924192
  0.9455085116834431  0.6937710958459352  0.2303237787860976
  0.0663980038651167  0.8380415801752796  0.3002080235850733
  0.1836904432628243  0.9714928670134518  0.0587688242790748
  0.6278083360879696  0.8644025035821691  0.2261498081740537
  0.3323570538083032  0.3488354154143284  0.2161737880436933
  0.7738518442588275  0.3185414818453956  0.5110884135537254
  0.7101043253836810  0.6848773293792252  0.8817389426115756
  0.8614138314342075  0.3819321201768209  0.0155244798403543
  0.7172104829680741  0.3607596373275783  0.1199565609585019
  0.4026127658041291  0.8765567933615157  0.8158316816290504
  0.4651372160051447  0.9489053188619766  0.5168770411445246
  0.8051494890232364  0.1511267641866205  0.1644767823222366
  0.5729272570994031  0.3619804971808951  0.0080725983409729
  0.4327617671698002  0.1487481462481809  0.0973990740472825
  0.5048894929013422  0.0262539890507849  0.7307358558348028
  0.2530098502905182  0.2046965706168125  0.3346929830513051
  0.4302126813173057  0.1133018125328517  0.8565981652022803
  0.6413484310686303  0.6090762925576290  0.2145001798140541
  0.2711685449145713  0.3636115741824423  0.9484683482055434
  0.3566681738554827  0.7671428550793401  0.7344686972655095
  0.5513062269588213  0.1105216074094161  0.4447208112105500
  0.3518392703167724  0.4442307522307118  0.3697833648516415
  0.6482556090299614  0.8430755937274879  0.4300946742654394
  0.0167974992261708  0.2062248169528516  0.3100798461792115
  0.8843060790519709  0.0114874651942460  0.5975622893418424
  0.0063730299370955  0.4214011498301427  0.2407077869822130
  0.6238860433232239  0.5074297742045731  0.1256123300423324
  0.0393068769664933  0.7481386531731573  0.8790254129750369
  0.0164289858705507  0.2725465272864184  0.0760739141345172
  0.3941945877708273  0.1567863831952363  0.6804474374104579
  0.9704091632400632  0.4978171419048669  0.8086102786479895
  0.6163789399889681  0.7885143566472967  0.1173733945572410
  0.4709044745345922  0.3336592351859924  0.8820263780324784
  0.4694982933973187  0.0772203662700684  0.2668813168988300
  0.1829733382887016  0.6590660797338009  0.3400671101946217
  0.6919898882444848  0.0506542138444482  0.0639129287452486
  0.8248106497838880  0.5496925159419140  0.5540798218845886
  0.7931797743419587  0.7788705192305294  0.7253701513711817
  0.8356627345260359  0.9715624367892105  0.0101408213982733
  0.4984310204695553  0.0280572555783074  0.3727453151927319
  0.4524831599534997  0.6267205782330003  0.9438415922125750
  0.0292187131886180  0.1092839825840184  0.8504434214855301
  0.8431939839493595  0.0957647637450020  0.8792878291655959
  0.7362114592047144  0.7696826498039412  0.3822942972975643
  0.8433526492328282  0.5172936686289965  0.9662278880710760
  0.9526316740589521  0.1269985295698129  0.4096118022192871
  0.1067989439504612  0.8861405016977544  0.5665344761550430
  0.2280773860147150  0.4771942056483200  0.7373368499959073
  0.2331271856707868  0.2088922106546394  0.4704475738804349
  0.5423935294471247  0.2646831703470429  0.5810488835130380
  0.8939885189688581  0.6280349493420220  0.4185376510045978
  0.0041092645706879  0.0195653508072769  0.5552893530904387
  0.8405238365027761  0.3408551118068376  0.1457188448531272
  0.4983362229199583  0.0695015692389348  0.5535150119644535
  0.2505145021374174  0.8237008815764003  0.7149031760080506
  0.6495145701028510  0.9411341369207128  0.3374682623849725
  0.7954689930892377  0.2796651240678580  0.8040946403843248
  0.0203777174764297  0.0455234098127173  0.2159913418762313
  0.5934253394527089  0.9011565952627997  0.5638888945902912
  0.5160496383472924  0.9320497551354283  0.2237164307758590
  0.3866431275060193  0.8244119711962618  0.1514569784402744
  0.6478908162030300  0.2673319197305971  0.7138851444154181
  0.5488432809655244  0.8070802940006777  0.3415559625737810
  0.3094179448910692  0.6890905016792057  0.8217157691880752
  0.8553259730290078  0.7685048004089549  0.5189242324344897
  0.3108005779552149  0.9737919250622880  0.0548029955759441
  0.9125707317632810  0.1396596763995960  0.6990082366405095
  0.3010135065353538  0.8768572609344407  0.8855849920559509
  0.9820222937414244  0.6032589900893625  0.1402171666927147
  0.8549814600603839  0.2630628685600454  0.4432867123251529
  0.6045524403618887  0.7437769302692702  0.5425348369217453
  0.0583726975632037  0.3141786314481690  0.1966993211531081
  0.7585612606050249  0.8787085240648213  0.6609922512245371
  0.4069615034544165  0.6739773351602378  0.3650499061045446
  0.0833140820112461  0.4665521938613429  0.8743991165829015
  0.4405012919941121  0.4924016881492171  0.1169905375487466
  0.4071829742770810  0.1999692614802246  0.4677975441713426
  0.6736755280049764  0.7665260088626213  0.7861575649757220
  0.4961238936120900  0.2069636201464453  0.2825334528456370
  0.9868342977199859  0.3841096013958026  0.0356386718311629
  0.6594362491657623  0.0449486503362218  0.4814926952633520
  0.2040577610017789  0.8444731104075166  0.3605419722472282
  0.4979668622012292  0.8815462795397012  0.8935023961215623
  0.9360858058158859  0.3810439889503629  0.7646934331934961
  0.0702371843430036  0.2621339684240027  0.4095545941894868
  0.3929663708813537  0.5386016072371602  0.5369852688531592
  0.1500568383442171  0.4817306490107188  0.1641277961808218
  0.3495078491596927  0.4294612620962880  0.8591622120319411
  0.1001062127928889  0.3174209952505161  0.5498266468245917
  0.5736747726039718  0.2693513469770423  0.9261677677688268
  0.0303869583252740  0.7159308547917250  0.6064113916349071
  0.7194154631497044  0.6400199148919703  0.0347554295695493
  0.5431579044130764  0.6967378481669478  0.1084021785211475
  0.6553964602311805  0.3681594789475799  0.3756797751762442
  0.8235248600579621  0.7442919083975807  0.9242800193043531
  0.9445240024384475  0.3493075387850920  0.3255304038582185
  0.9512544073972815  0.8164307307563519  0.8098006865949569
  0.1332544976194583  0.9015229558762679  0.2024254161094813
  0.5962210863564922  0.4299808199741018  0.2143990455217293
  0.1330839195949327  0.6600291556179048  0.7554094063093711
  0.5176719437786734  0.4475572363599227  0.9220920542021814
  0.1993303194696854  0.0619520615267335  0.1568931871622951
  0.8438338830646486  0.9476200446606087  0.4989771259073091
  0.3200687915492247  0.9381203570802572  0.4579171984312673
  0.0716656612614555  0.5872769289697294  0.3088440336804623
  0.1678140840752795  0.1091590816278842  0.7251109970289243
  0.3101704750880678  0.0944699516211175  0.6052022364699875
  0.4679017534201957  0.4776348665557105  0.7073479518519489
  0.6020125861441512  0.7265111714278172  0.9447792999086125
  0.6789367648037831  0.0191151457061730  0.9418098120433813
  0.6891490718463859  0.1948331462918883  0.0589310940087089
  0.0693866851169799  0.7346690036963652  0.2135350857519828
  0.6071965393309915  0.6370155347943086  0.5302612548297624
  0.7432482489564483  0.4877033504563706  0.1329337372233983
  0.7536981450252956  0.6799178020956993  0.6494400088200870
  0.8502524453783161  0.2509742529958159  0.9817361345862442
  0.9476275685944237  0.8683572496993047  0.9932402531026252
  0.6737970731444776  0.1923460653373172  0.3376940484975586
  0.9903014606145841  0.0759427868679885  0.0260751678083491
  0.7011318391027671  0.9469832872540360  0.1574434505084624
  0.2125109936984716  0.5912701453316522  0.4554952041385215
  0.3507060474236405  0.3302622444691523  0.3338648269583599
  0.0743203214285310  0.4490103394069198  0.4329331880980494
  0.6910069502817225  0.2350436849659663  0.5217421485712208
  0.8545516982317677  0.0347955301845603  0.1883956238332244
  0.1874813505301564  0.8050538731120637  0.0715116823401332
  0.0964440454538077  0.9462439807451813  0.7840390437500461
  0.4352620060425121  0.7981136267771919  0.4928698751939419
  0.2496751437587121  0.6074813959156400  0.2588915288487976
  0.3996286896665692  0.7831724898546197  0.2546194344562815
  0.0192649336880005  0.5373889254548325  0.6970276246292978
  0.3542785366879976  0.2243207394535407  0.1991165038399878
  0.3037776108129775  0.2287077590592992  0.7271697097557744
  0.5894373863649872  0.0917017329619336  0.2048466467079919
  0.7471391767651235  0.4466854332549524  0.8170982822944348
  0.7314700444767395  0.6996993177272870  0.2103914744103840
  0.0432346224567604  0.9609053531529685  0.3775158870906241
  0.6011878951773882  0.9243164376845667  0.7473267636957661
  0.1346692739972927  0.1547857022487124  0.3021143696253104
  0.9692989181715673  0.6397379918969339  0.8898997372865842
  0.8740164686454283  0.5357701028202012  0.2516836929895316
  0.9505486595946196  0.8821756676536805  0.6453940996960920
  0.8339011017035216  0.5028413048250895  0.6712410855105683
  0.7590999490051917  0.9328668081736524  0.3316263833060500
  0.5596416795061342  0.0672296790353351  0.1017361289998645
  0.3007006089519420  0.6729272974434592  0.0158297974468026
  0.1619830597831280  0.2365657613967778  0.8488773292736165
  0.3870880269570364  0.9998461238956456  0.7879731393678020
  0.6895407942003113  0.5539033274345623  0.3193668056590582
  0.2204225171058526  0.4814736135991221  0.9800697581071294
  0.8544286501291204  0.2005325811712075  0.2711710841027758
  0.4362481859977667  0.4945764696888834  0.2960431018953134
  0.5129267277930777  0.2403889578264820  0.0939557498697542
  0.0324684517256963  0.7467220838534645  0.4054635099115788
  0.2031800628774987  0.4541744096716469  0.5646009331239569
  0.8026675814160126  0.9223866518000876  0.8445185671083089
  0.2309423643674072  0.2476387278169983  0.0455323282473626
  0.7122268099625454  0.3778774168478571  0.9882021466963564
  0.6458850729462207  0.5226544584424967  0.6789717287037469
  0.8330093315373717  0.3040097152379918  0.6143120627275456
  0.3659139589785040  0.3629510238875485  0.0259318278703962
  0.2655141779289413  0.6363516445517260  0.6366024640293316
  0.5491406416678353  0.0785941974617442  0.8319164761461458
  0.4023045592123639  0.9053269731997582  0.6188905349114056
  0.5610152087602596  0.8759299613111429  0.0534216861139305
  0.9074376662131468  0.7604274035710920  0.1322809490743386
  0.4695101419795434  0.3057300787108330  0.7469878292295954
  0.3766476253890575  0.3525835492446636  0.5828283874186525
  0.9382060220423771  0.8729176590119687  0.2717636385583371
  0.7544583502192769  0.0506517886530232  0.7359935660978537
  0.1265258843985025  0.6221545841656874  0.0172337922067906
  0.3101983910403878  0.0964009498131940  0.3284272348164405
  0.6036177102500436  0.5724619643489468  0.8370027098161669
  0.2644714852767066  0.7890211127476415  0.5355362215391689
  0.0152837486526433  0.2821381409342408  0.8923579088008073
  0.5407657461315569  0.4654474377651354  0.5347021183129221
  0.1656982307955449  0.0363816691741960  0.9501928729431240
  0.8165245753157686  0.1094660200230219  0.5642683841929822
  0.1012934106959331  0.3557076962588331  0.7270681483338718
  0.3020003767344341  0.9460940277060370  0.2716272398027382
  0.8904085005863320  0.4657530020130304  0.4905985681869896
  0.3321636213685412  0.2407592336114941  0.8981705604383464
  0.4440945978930879  0.0722300583440758  0.9761309183423738
  0.2170120678323889  0.3313951965240373  0.2226968876707868
  0.5450863743315633  0.6359289478333654  0.2826952875753685
  0.7186224974256148  0.5058961709801706  0.5137531875361191
  0.4953606956176755  0.7257874959456928  0.7671017113334264
  0.9929047678434074  0.7686955455035798  0.9981239313507783
 
 -0.12516283E-02 -0.34232918E-02  0.33160198E-02
  0.41998793E-03 -0.21311486E-03 -0.23906674E-02
 -0.61153776E-03  0.59305175E-03  0.19963967E-02
 -0.22912550E-02 -0.15613547E-02 -0.23333268E-02
  0.74440121E-03 -0.84559828E-03 -0.91629505E-03
  0.12293474E-02 -0.16992424E-03 -0.13631651E-02
 -0.30729713E-02 -0.24777915E-02  0.35307806E-02
 -0.52866116E-03 -0.17446699E-02 -0.10387298E-03
 -0.32947046E-03  0.17087258E-02  0.14571876E-02
 -0.19101314E-02  0.25030843E-02  0.81916969E-04
 -0.90394408E-04  0.53895876E-03  0.22587217E-02
  0.49442439E-03 -0.17255136E-02 -0.15305323E-02
  0.35024588E-02 -0.19694926E-03  0.22842741E-02
 -0.89048106E-04 -0.22460290E-04  0.20592217E-03
 -0.16545543E-02  0.36508393E-02 -0.78922743E-03
  0.43479134E-03 -0.11555634E-02 -0.12499636E-02
 -0.12452393E-02 -0.37036897E-02 -0.18396814E-02
  0.22153516E-02 -0.53204004E-03  0.53705687E-03
  0.35611285E-03 -0.92632239E-03  0.20414233E-02
 -0.44232233E-02 -0.12419558E-03  0.75210114E-03
 -0.14728990E-02  0.98949478E-04  0.55544087E-03
  0.41706908E-03 -0.22668217E-02  0.45887856E-03
 -0.17695693E-02  0.92058725E-03  0.13661444E-03
 -0.19489887E-02  0.67476828E-03  0.13001943E-02
  0.10178735E-02  0.24028267E-02  0.21830617E-02
 -0.18571202E-02 -0.21133400E-02  0.11387181E-02
  0.18773637E-02  0.16637039E-02  0.53031829E-03
  0.24039794E-02 -0.32774502E-04  0.53784487E-03
 -0.60118424E-03 -0.15909572E-02  0.56802840E-03
 -0.11534883E-02  0.17061579E-02 -0.45849635E-03
 -0.62356874E-03 -0.11264719E-02 -0.10954128E-03
 -0.61352016E-03 -0.20091980E-02 -0.39775829E-02
 -0.22506807E-03  0.14955689E-02  0.10562094E-02
  0.39227577E-03 -0.19214706E-03  0.17194541E-03
  0.21586453E-02  0.46523510E-03  0.82504325E-03
  0.12493555E-02  0.27858145E-02 -0.18998202E-02
  0.21089778E-02 -0.89480065E-04  0.68479231E-03
 -0.10695730E-02 -0.13067130E-02  0.45493789E-03
  0.17099419E-02 -0.38480295E-02 -0.15232184E-04
 -0.89802140E-03 -0.39968490E-02 -0.52810379E-03
  0.18382180E-02  0.20299800E-02  0.40570603E-02
  0.33447228E-02 -0.15559040E-02 -0.78665539E-03
  0.82045103E-03  0.14471172E-03  0.13502030E-02
 -0.69842746E-03  0.86324137E-03 -0.15145433E-02
 -0.99813301E-03  0.17050493E-03  0.33168944E-02
  0.74004514E-03 -0.76065061E-03 -0.34525575E-02
  0.38016070E-03  0.64471804E-03  0.67945952E-03
 -0.35288626E-04  0.11931118E-03  0.15403320E-02
  0.11861118E-05  0.28096950E-02  0.33515983E-04
  0.14372843E-02  0.12660714E-03  0.81625455E-03
  0.76639977E-04  0.32181322E-02  0.18226864E-03
 -0.51261081E-03 -0.30446765E-03  0.35424808E-03
  0.82525671E-03  0.26972680E-02  0.13729324E-04
 -0.19313915E-02 -0.12454463E-03  0.48279385E-03
  0.12501970E-02 -0.94502410E-03 -0.15176943E-02
  0.32491797E-02 -0.16778969E-02  0.17957121E-02
 -0.35475590E-02 -0.18326740E-02  0.14893476E-02
 -0.38431047E-03 -0.51862930E-03 -0.47821777E-03
  0.61416290E-03  0.33697817E-02  0.12267159E-02
  0.26555134E-02 -0.20089109E-02  0.64915843E-04
  0.20032948E-02  0.22759346E-02 -0.53142272E-03
  0.62557562E-03  0.16772393E-02  0.69009253E-03
 -0.36962205E-04  0.28331340E-02 -0.70400633E-03
 -0.22539002E-03  0.51891415E-02 -0.13605144E-02
 -0.30065618E-05 -0.26404906E-03  0.16213887E-04
  0.15399280E-02  0.10327424E-02  0.18035240E-02
  0.94542877E-04  0.22639933E-02 -0.17385399E-02
  0.29356949E-02 -0.19008277E-02 -0.24199292E-03
 -0.10158947E-02  0.58223266E-03  0.18396626E-03
  0.10610278E-02  0.17568094E-02  0.26909759E-02
 -0.72266913E-03  0.23976541E-02  0.10997623E-02
  0.15947897E-02  0.61132330E-04  0.28533672E-02
  0.13934766E-02  0.13685388E-02  0.15946093E-02
  0.96961252E-03 -0.30468063E-02  0.12335931E-02
 -0.19375763E-02  0.85278777E-05  0.97890800E-03
  0.98181464E-03  0.58140609E-03 -0.10165539E-02
 -0.68725251E-03 -0.46057406E-03  0.23374976E-02
  0.29360253E-04  0.15420224E-02 -0.22592028E-02
  0.95818580E-03  0.24734976E-03 -0.16589228E-02
 -0.31970906E-02 -0.21695336E-02 -0.53729433E-03
 -0.27983292E-02 -0.14439354E-04 -0.13279270E-02
 -0.26998044E-02 -0.13975776E-02  0.10227927E-02
 -0.29939858E-02  0.26201501E-03  0.17410832E-02
 -0.12971537E-02  0.44405779E-03 -0.13809292E-02
  0.13781323E-02  0.55499268E-03 -0.89152273E-03
 -0.10337468E-03  0.21707333E-02 -0.93601430E-03
 -0.20908922E-02 -0.26791810E-02 -0.16321534E-02
 -0.19304839E-02 -0.27941756E-02  0.16339181E-02
  0.51893901E-03 -0.13440484E-02  0.52397457E-03
  0.14349685E-03 -0.70595033E-03  0.15422567E-03
  0.36395279E-02  0.19375277E-02  0.14377622E-02
 -0.49828649E-02 -0.67171840E-03 -0.22092150E-02
  0.25168800E-02 -0.13067275E-02  0.15176257E-02
 -0.44624321E-03 -0.26591323E-02  0.11473064E-02
 -0.26578694E-02  0.21201771E-02  0.36603740E-03
  0.10631739E-02 -0.90504994E-03 -0.42773216E-02
  0.27522781E-02 -0.22640840E-02 -0.24994944E-02
 -0.29576747E-02 -0.16235016E-02 -0.17546022E-03
 -0.35429414E-02  0.32096720E-02 -0.21894196E-03
  0.10403177E-02 -0.41073349E-02  0.19792289E-02
  0.27407665E-02  0.82241379E-03 -0.40393882E-03
 -0.20151122E-02 -0.41442810E-03  0.23479147E-02
  0.32114950E-02 -0.12802430E-03  0.78832107E-03
 -0.17814472E-02 -0.28175442E-02 -0.17134569E-02
  0.41223262E-02 -0.94691634E-03 -0.12382106E-02
 -0.11529828E-02  0.20010217E-02  0.64696253E-03
 -0.17982354E-02 -0.21038844E-02 -0.97260229E-03
  0.25884928E-02 -0.43224912E-03  0.45882587E-02
 -0.20577219E-03  0.31118542E-02  0.50437547E-03
  0.12648604E-02  0.54456482E-04  0.59692619E-03
 -0.26575624E-02  0.12732574E-02 -0.16235099E-02
 -0.58048826E-03  0.70719362E-03 -0.24817909E-02
  0.68845211E-03 -0.14594039E-02  0.63382047E-03
  0.15532481E-02 -0.22950902E-02 -0.32245618E-02
 -0.12398001E-02  0.24795427E-02 -0.10627313E-02
 -0.26042031E-02  0.87824088E-03 -0.60471549E-03
  0.30579699E-03 -0.42249185E-02 -0.89789670E-03
 -0.24831437E-02 -0.70524258E-03 -0.96939649E-06
 -0.16795371E-02 -0.13514707E-02  0.14425904E-03
  0.25819958E-02  0.43486312E-02  0.74438700E-03
  0.21520719E-02  0.13715841E-02 -0.16101754E-02
 -0.27799899E-03  0.41325754E-02 -0.14510123E-02
 -0.18442402E-02  0.26586270E-03 -0.17949976E-02
  0.16219425E-02  0.64455561E-03 -0.66601636E-03
  0.13802344E-03 -0.34898619E-02  0.82920299E-03
 -0.16971813E-02 -0.15062203E-02  0.10892407E-03
 -0.21288352E-02  0.19665383E-03  0.25080105E-02
  0.13037545E-02  0.17301826E-02 -0.33764361E-03
 -0.87822592E-04  0.10596083E-02 -0.11862910E-02
 -0.10392919E-02 -0.33189829E-02  0.36342971E-03
 -0.11602543E-02  0.20945912E-02 -0.12354709E-02
 -0.23316013E-02 -0.27694094E-02 -0.24180401E-02
  0.75106633E-03  0.17085430E-02 -0.51336994E-02
  0.26512903E-02  0.30486888E-03 -0.14104044E-02
 -0.13675659E-03  0.49456917E-03  0.21292375E-02
  0.17327688E-02 -0.21797951E-02  0.17144633E-02
  0.41828053E-02 -0.23708669E-03 -0.16632898E-02
 -0.18770550E-02  0.37837650E-03  0.30782293E-03
  0.48251157E-02 -0.34869362E-02  0.14927710E-02
  0.75300480E-03 -0.22489332E-02 -0.80746954E-03
  0.44663719E-03  0.11277635E-03  0.29778557E-02
 -0.98935332E-03 -0.99818759E-04 -0.12083748E-02
  0.10189496E-02 -0.12705611E-02  0.18513471E-02
 -0.17591441E-02 -0.58612011E-03  0.92069137E-03
  0.18016912E-02  0.74370519E-03 -0.22221999E-02
 -0.22711602E-02  0.38816857E-02  0.58713579E-03
  0.15743877E-02 -0.59782118E-03  0.85101975E-03
 -0.19919737E-02  0.22737842E-02  0.30811167E-02
  0.28224626E-03 -0.10795789E-02 -0.10833233E-03
 -0.12225993E-02 -0.19413360E-02 -0.41110106E-02
 -0.34383466E-02  0.69070939E-03  0.77201612E-03
  0.16421717E-02  0.38597391E-03 -0.76408909E-04
  0.10769987E-02  0.34439710E-02  0.62287682E-03
 -0.23167054E-02 -0.38003471E-02  0.56233070E-02
  0.24301473E-02  0.50098808E-02  0.61045804E-03
  0.16505412E-02  0.21722798E-02  0.89774465E-04
  0.19473445E-02  0.27154284E-02  0.22770426E-02
  0.96193216E-03  0.23789846E-02 -0.14240645E-02
  0.13993081E-02  0.29910504E-03  0.84215750E-03
  0.54858867E-03 -0.63107245E-02 -0.77794025E-03
  0.18571829E-02  0.45668908E-03 -0.19904419E-02
 -0.53256761E-02  0.30661673E-03 -0.72726466E-03
 -0.32204302E-02  0.19610571E-02  0.27013537E-03
  0.14868535E-02  0.23596375E-02  0.12623807E-02
  0.10117256E-02 -0.82799842E-03 -0.61281637E-03
  0.51643017E-02  0.55790965E-02  0.35344798E-02
  0.44766381E-02  0.40910190E-02  0.28835444E-03
 -0.25738953E-03 -0.11824935E-02 -0.20195794E-02
  0.18791650E-02 -0.33940433E-02  0.18777443E-02
 -0.46785272E-02 -0.54535486E-03  0.42202217E-02
 -0.26555621E-02 -0.16263988E-02  0.35099917E-02
 -0.54795930E-02  0.17758766E-03  0.75083626E-03
 -0.10691835E-02  0.10211162E-03 -0.18783341E-02
  0.96173319E-03 -0.36292635E-02  0.88718723E-03
 -0.19192222E-02  0.19773660E-04  0.43501074E-02
 -0.28273898E-02  0.84651628E-03  0.25808881E-03
  0.12594597E-02  0.54580440E-02  0.85004772E-03
  0.55369532E-03 -0.75408900E-03  0.27158273E-02
 -0.98703980E-03  0.88202348E-03  0.24754771E-02
 -0.25673380E-03 -0.63833734E-02  0.45804331E-02
 -0.19540784E-02 -0.84574027E-03  0.12907853E-02
  0.31665322E-02  0.80983310E-03  0.10768350E-02
  0.14578179E-02  0.30475323E-02 -0.64078518E-02
 -0.10742691E-02 -0.55628208E-02  0.86111474E-03
 -0.20148645E-02 -0.93373760E-03  0.15142854E-02
  0.86445842E-03 -0.18152096E-02  0.21968713E-02
 -0.74259898E-02  0.92683457E-03 -0.13021601E-02
  0.12285422E-02  0.24049426E-02 -0.52176028E-02
 -0.43160785E-02  0.26569885E-02 -0.67760626E-03
  0.22372535E-02  0.19251641E-02 -0.67303568E-02
  0.22793375E-02 -0.96804602E-03 -0.44878223E-02
  0.16710905E-02 -0.59181882E-03 -0.11987950E-02
 -0.10455469E-02  0.33006667E-02 -0.21844588E-02
  0.34097459E-02  0.35732323E-02 -0.80506919E-03
  0.25748508E-02  0.43275520E-02  0.86985481E-03
  0.36394506E-02 -0.25659687E-03  0.24477860E-02
  0.14452020E-02  0.58868177E-02 -0.38327754E-02
  0.63569880E-02 -0.22276893E-02  0.38341518E-02
  0.28718825E-02 -0.12363300E-02 -0.22693929E-02
 -0.20445535E-02 -0.51785151E-02 -0.67220332E-03
  0.19717986E-02  0.40957523E-02  0.47999530E-02
 -0.12124719E-02  0.22804705E-02 -0.23044940E-02
  0.78458532E-03 -0.18811492E-02 -0.55678168E-03
 -0.16589752E-02  0.19999029E-02  0.26628203E-02
  0.78958975E-02  0.23029383E-02  0.19407951E-03
 -0.29634653E-02  0.18234427E-02  0.46630768E-03
 -0.93504200E-04  0.14206681E-02  0.10181794E-02
  0.51699568E-03  0.19031481E-02 -0.20923596E-02
  0.13722576E-03  0.23616430E-02  0.25153670E-03
 -0.30174542E-02 -0.50856131E-02  0.20369056E-02
 -0.89262945E-03 -0.16090111E-02  0.57807873E-02
  0.12767434E-02  0.20356957E-02  0.39690800E-03
 -0.41119235E-02 -0.51582007E-02  0.42452023E-02
 -0.10300150E-02 -0.23466164E-02 -0.65631589E-03
  0.34582645E-03 -0.14909086E-02 -0.38359879E-02
  0.16731446E-02  0.52966876E-02  0.87467816E-04
 -0.34225288E-02  0.25639711E-02 -0.43168758E-02
 -0.47787816E-02  0.26124201E-02  0.35036301E-02
 -0.23697986E-02 -0.17353570E-02 -0.22633385E-02
  0.96885309E-03 -0.20446973E-03  0.35968798E-02
 -0.48496972E-03  0.45276065E-02  0.17327194E-02
  0.38336187E-02 -0.23649880E-02 -0.70504397E-03
 -0.12439439E-02  0.31163139E-02 -0.38333282E-03
 -0.31704831E-02  0.60869848E-02 -0.50344272E-03
 -0.14837433E-02 -0.20839262E-02  0.27024969E-02
  0.24444432E-02 -0.91426431E-02  0.14294206E-02
 -0.17446903E-02 -0.62983953E-02  0.22048693E-02
  0.23949614E-03  0.18900984E-02 -0.46669544E-02
 -0.98655680E-03  0.10192325E-03  0.20822673E-02
  0.63167309E-03  0.45315359E-03  0.32081890E-02
 -0.49270490E-03 -0.13411040E-03 -0.51020710E-02
 -0.40159653E-02 -0.32773873E-02  0.13886756E-02