Amorphous Sb                            
   1.00000000000000     
    20.5515646190562968    0.0000000000000000    0.0000000000000000
     0.0000000000000000   20.5515646190562968    0.0000000000000000
     0.0000000000000000    0.0000000000000000   20.5515646190562968
   Ge   Se   Cu
   140   140    20
Direct
  0.7432521991103149  0.0962125385901248  0.2128853293333971
  0.8703656894107726  0.3817218768207114  0.9577216852938965
  0.9983896841226623  0.7312017786833409  0.7434432065876443
  0.1491574932559216  0.1258480895316071  0.5534299369228169
  0.0582101256615057  0.5390647229042973  0.4973779899653052
  0.5838191848323897  0.7552152927288337  0.7235062557003636
  0.3818673553741072  0.6613458738176705  0.8320062927552128
  0.4243331445653516  0.0616412416214932  0.5002591277706540
  0.8293204205917969  0.9960706417633691  0.0129482761969724
  0.2317015385233177  0.2467432072681841  0.6327883617388798
  0.9304259072306676  0.7577239960093501  0.5790375314546322
  0.5239085444449282  0.0988797032556549  0.6106978239940305
  0.7115171913267737  0.9927357148993611  0.0565509908182979
  0.6348214271573427  0.2523957553475655  0.6212263941646771
  0.3448500874487535  0.3358881179777303  0.8567820789401981
  0.5970467359933915  0.9879344843733779  0.2023886811006539
  0.7635196982306554  0.8987969719091182  0.8417413301228880
  0.7472248566441413  0.6235210527283439  0.0091602345103718
  0.6642478624953830  0.6939581516188648  0.5473616415642651
  0.6569789701604771  0.4730985493804756  0.6234722986228248
  0.3623323425675162  0.2554960952166197  0.3752944732378640
  0.2739767101129534  0.8376976124917773  0.4980529601056384
  0.6633710899062660  0.2182714384822317  0.2177668700983279
  0.5231429910216838  0.6073477973850107  0.3244661787103265
  0.4627702973005748  0.8786431575992837  0.6491671670407130
  0.2072684885367749  0.7167965752048945  0.2330242736962470
  0.1261541836185205  0.4040941428098371  0.6167275147052922
  0.0963901530420894  0.4037492302747461  0.9113851295671194
  0.7061095164115374  0.6892725972107941  0.3183202657155236
  0.9377618193107704  0.4300703832780486  0.8550770475406851
  0.3793637832252780  0.6651200919642596  0.5022650626409745
  0.0646222678857511  0.3134652504815393  0.1136911132634975
  0.8952457380222930  0.3813471357555998  0.4997345557592450
  0.9532402216169137  0.7466173023699612  0.0886447022228364
  0.9903339145296362  0.3310843353444687  0.2178327838734911
  0.3349985618420444  0.5152676059335844  0.5694306098536864
  0.2200563502621138  0.8975556111381330  0.0322184354321457
  0.6220526470154681  0.6930117826211377  0.1524730112777327
  0.0717988841241999  0.7492380159132215  0.9018306861386718
  0.5498084950866795  0.4417411487899977  0.2057078246009658
  0.0975478373322016  0.7813027092579988  0.2486320396367104
  0.5341654507759631  0.9536635009856408  0.4269653368021982
  0.8835119956027808  0.9055759289554994  0.9440699010352126
  0.5282366750429002  0.8136879393485834  0.2595323907054127
  0.3979859868145221  0.6872075814299593  0.1740842259064648
  0.1544551196607149  0.7920280164245389  0.1047469371070497
  0.0766392153551743  0.2159690690656678  0.9725399095997893
  0.1017101697211612  0.8582989396498741  0.5624025085178487
  0.8694283831325875  0.2147898419333075  0.4945753829003787
  0.5063149419811107  0.6851927713090533  0.0326114510583474
  0.7535194638421426  0.2093227692479053  0.6167627751703799
  0.8763467678979195  0.0972282620399769  0.8595982285947056
  0.1314390023216037  0.4351149495736820  0.2140455742404686
  0.2303870797334930  0.1083456184196296  0.4530082667489462
  0.6134938191584987  0.0694239048258046  0.8186198874471236
  0.6298121731255384  0.5594472842275728  0.4891827542093661
  0.7699891665376237  0.4320994668743508  0.0859458777326870
  0.7855331571958506 -0.0066628703127084  0.3625742856192257
  0.1745113900787081  0.6115121963040464  0.3562635460173302
  0.5662489360622358  0.1036929754986769  0.0791145416106577
  0.7141840813002979  0.5761754242745766  0.7361741095418886
  0.0492692537370380  0.4471949463639562  0.0969971390745890
  0.5678829206176349  0.2440921673925666  0.3909737891313161
  0.8197528873198878  0.7798843666990435  0.3598309966840242
  0.3048960440732826  0.4899228655530711  0.8102356310578596
  0.3735138744139082  0.9701286595297514  0.7239344894716118
  0.9366437844823302  0.2618505325484516  0.8584204311978245
  0.7132805361931650  0.3397154363990114  0.7250120977627937
  0.6840265025668087  0.7072087036962101  0.8566555023568240
  0.8482043537048497  0.5254516947780316  0.5190706965388207
  0.1890935357482941  0.3285470053058653  0.7747005152633787
  0.4137905544217234  0.0123783501290299  0.8559546980082613
  0.7451291004544156  0.8455251841379526  0.2071628961326868
  0.3496090755570448  0.0583054971665262  0.0070293613930890
  0.1014400861302962  0.3567809004650339  0.4083579157418014
  0.2987415340654151  0.1062648488810349  0.3232445291028129
  0.4024660048545610  0.2258775650413117  0.0107946319254662
  0.2545733858547830  0.0154012189360958  0.8884690918534093
  0.2043440041235639  0.9633797106231252  0.6845397591220436
  0.0748712410130878  0.8919561887220099  0.3673078025455628
  0.9821473172354876  0.0611619258237588  0.3566025718189936
  0.5919163894420952  0.0905805312874666  0.3539779711682057
  0.8497684549549699  0.2157338767233701  0.2586744755162604
  0.9016263561613848  0.7605290127789736  0.9558125524543643
  0.1045096053195517  0.5759992571099271  0.8684664708582700
  0.4495214216233674  0.8431709091612717  0.4648084274722649
  0.0249631224842714  0.1607218610233886  0.5376095348578730
  0.5022429674591841  0.3328460422657740  0.5313925643285224
  0.6893682531759149  0.9596018823547459  0.5355040748473406
  0.3781632689997799  0.3973225207662821  0.0347358598433013
  0.9813335535944188  0.0328881320547131  0.5528181370972058
  0.3728037203462083  0.7163170469990805  0.3844857164602367
  0.2964586587494420  0.1418329553451486  0.1627942895917729
  0.0313356214362473  0.6754349088043086  0.1686469358056301
  0.3158972061942804  0.0508223341222460  0.6375018915901943
  0.0688803668510928  0.6127430853251622  0.6679411713396957
  0.0825971343238906  0.0852073569568146  0.6907258777550048
  0.8922697534260461  0.4958942134865048  0.1463465654902786
  0.9795551800597262  0.2510536085538180  0.6361859088620796
  0.7389111340462564  0.4818088145052318  0.2046974826759567
  0.9312133031906109  0.2279934569196210  0.0444294334907245
  0.0078005906516931  0.3183597134422829  0.9469755271142316
  0.9342786607314303  0.0666949942087209  0.1727593507987266
  0.6116018030787199  0.3580418923214785  0.2812456848155949
  0.7203839810570362  0.9693976657643152  0.1804937125680743
  0.5258187574157237  0.2126219873934356  0.0339061116991632
  0.3122272159439594  0.3525320888999683  0.2154149286783271
  0.9432889142116719  0.6556060139564690  0.5018295283134759
  0.6516394525843555  0.9825836717441871  0.7188347075361501
  0.5717970805126630  0.3234836731754501  0.8855937551297643
  0.4321793833909526  0.0442538176851603  0.2142669687327573
  0.1993049168497810  0.7038510974792397  0.8146482747685252
  0.5526288877291374  0.6372206539570373  0.6748881189618016
  0.5876873839705627  0.9615538593060814  0.8838512126868509
  0.0490340860134486  0.8826844055397246  0.6957456472885953
  0.9556644982017332  0.3635883459759383  0.0529927092087795
  0.7331460972094680  0.8273084773925261  0.9543910953167247
  0.9200886492978888  0.9561934300760310  0.7523188863868031
  0.7440602337851830  0.0870096082443033  0.4636898746380833
  0.8643031321745132  0.9013879010012560  0.4982717494327156
  0.5723035368599187  0.3763300781216017  0.0078839623821197
  0.3748699595641813  0.3876521168147953  0.6285775618648131
  0.8686947552415055  0.3498920942893178  0.2390813715575781
  0.7416622134219164  0.1691393945680646  0.9494068368586721
  0.3722964977527857  0.4997664452166728  0.2720603145809184
  0.3057058540058542  0.7470582116890067  0.6296826381725305
  0.9465526233456265  0.8409142910865181  0.2901803677302636
  0.9610580245515959  0.2026715056017329  0.3819195657347497
  0.8484733849298758  0.3386571610771932  0.1179114452142541
  0.4351367519043374  0.6480209078302495  0.7178911021909712
  0.7961880662818523  0.8513945926072799  0.6265993433104579
  0.5127837286377221  0.9938592498093778  0.0446156288736998
 -0.0059238699689203  0.9561893254068066  0.0983218871287140
  0.6732603241095730  0.8879333080078499  0.6363816954609566
  0.3464704954370947  0.6958064089136105  0.9766777319266498
  0.7803677043440131  0.4883025801094594  0.8852786090583881
  0.1237901631668736  0.0122366205178406  0.2442773629195311
  0.0726825999127135  0.1031692706496428  0.9161150931715532
  0.2595968636987124  0.1780750878979396  0.9374571920729312
  0.1814584975257060  0.2894397399575215  0.3159538474799312
  0.1822280014243911  0.1175647053276490  0.8576445635817314
  0.4086043325194408  0.1088302728093431  0.1114635488410071
  0.5792940553420871  0.8193888575720163  0.6124696474668557
  0.1958366069614077  0.1683979726532069  0.2832040750348547
  0.3416848405479192  0.6249385108103102  0.6460689754094017
  0.3844657364265731  0.2944514350841055  0.1115470609934459
  0.5974168078356344  0.3474477136075124  0.6802348775013030
  0.8734083846501051  0.5272593726852757  0.8179164331961792
  0.5043958398203344  0.7547807700059405  0.1529584285979853
  0.1857120563952022  0.3244388275282732  0.1959709790290182
  0.5626624088989999  0.2220548974971997  0.5333376339461854
  0.2047919340131391  0.4419142712544120  0.7220539587484066
  0.1381528577788999  0.5565245885722896  0.5894098231258457
  0.9866666811002167  0.8466481458512739  0.1602077064697288
  0.6434347026857650  0.8837373037031248  0.8052388325349958
  0.4342859467505961  0.3277084901018870  0.9466417838997752
  0.4150518047323387  0.2842984766607621  0.5987670482825945
  0.1863464475730493  0.2660592970146846  0.9791863998010462
  0.2898432683772377  0.2670658121816599  0.7366103139116524
  0.7558383509416629  0.6711702986836644  0.1302690637338094
  0.8688892353434765  0.6500763412139412  0.9914840265829354
  0.8245367555386345  0.8909623749527293  0.2921508901383676
  0.0482018987557412  0.6549973169744424  0.4416724151992930
 -0.0001802892429373  0.9113914993435043  0.9848925744579585
  0.3614059122344557  0.5531683147882840  0.4548449381229368
  0.4792802198125287  0.9089853980002703  0.8794744325952308
  0.3132642325437879  0.2025086076090740  0.4717122116529953
  0.8631405407102252  0.6045796523029630  0.4307054856485294
  0.2997729606564991  0.4731726052920393  0.1788553417076927
  0.2757287978140039  0.9364389023776429  0.7865489426732285
  0.4502740957005295  0.0280351892816628  0.3851953355429317
  0.1691127028471333  0.6040977397581915  0.7591613850409007
  0.2903630278903479  0.3455685199154834  0.3490633080989626
  0.4895247400283644  0.7262585756809584  0.3419551084259788
  0.8910709792780882  0.7312758175113007  0.2706053863136336
  0.4462992447386620  0.4705650504591920  0.5882586433906246
  0.7701827384126644  0.0377392522949882  0.5791885707219188
  0.5524016148571713  0.2537664197274934  0.2630879837825187
  0.5971066654107728  0.2175731836325963  0.9393929000769434
  0.8305104612596922  0.2093406235393155  0.8444133581904159
  0.4033633259840821  0.6258965890266136  0.0639386719691015
 -0.0031274441372371 -0.0090643688842398  0.2546391996337674
  0.9509613281202750  0.9353308013199338  0.6351500045422708
  0.4046784062804879  0.4183376422190440  0.7852211205126030
  0.1748963552841303  0.6889230670765362  0.9282098208547801
  0.7020489535981065  0.5818236200290983  0.8657401771088243
  0.5746306703504271  0.3006512998632572  0.1036823122408281
  0.2070009703810579  0.3874636963268971  0.5235394794569931
  0.3020908066681539  0.6593999554303037  0.3035237698122510
  0.2166903964905522  0.1232422044335109  0.6594690681339105
  0.5971826029122660  0.5336915830951688  0.7163890086089405
  0.8804641877041478  0.3011815445564656  0.4047675933236100
  0.1223479072982887  0.9775989362865497  0.1189857356116535
  0.4106741330595670  0.1256617963042664  0.6657772062422876
  0.9776932948844782  0.2149647314961457  0.2576221673633143
  0.0026908148472241  0.5462849395124060  0.1573219943234436
  0.8025345887153391  0.9280190764334677  0.7276716091711215
  0.6161232513367055  0.9336638866129710  0.0051251280440789
  0.7508817566168160  0.4599602760779667  0.7042877142981154
  0.8396447641817449  0.4944403516905397  0.0010165239695333
  0.4890662753996816  0.4544781209754468  0.0552380343800539
  0.2374275027950671  0.1070528564006798  0.0401333290697355
  0.6114407074443264  0.9711570303488802  0.3218236843936836
  0.4498509833384695  0.3982418974649497  0.2558528533760059
  0.5504370150885782  0.6371255386057341  0.5540098657075812
  0.2616122679829621  0.7137000243405299  0.5164479523413059
  0.4162640736651412  0.7869430648560236  0.5726908817236741
  0.1034153893908070  0.0165836525011646  0.5850200154249644
  0.0166599740811339  0.3887352518458230  0.5095594449957225
  0.0467663783401785  0.4669577155071383  0.8179781822865154
  0.8113364627019959  0.5837940876747344  0.1897424538393606
  0.9564318103525904  0.5572195743215506  0.5758626719868961
  0.4536835513006408  0.7145313252018557  0.9104572707940266
  0.8494665300254594  0.4665240062871515  0.2639651184380740
  0.8556450554232797  0.0869509730390278  0.2681867535579668
  0.0900498427913055  0.4925525836941554 -0.0051043188414980
  0.4622925957622796  0.7654493652648606  0.7375377483224366
  0.6378061904277964  0.6685009685505436  0.4260170203390729
  0.6752980865054211  0.4427265613225244  0.0110066881874334
  0.7013809012212620  0.1417381235980231  0.3229456505531743
  0.1492980032568528  0.6106827550439768  0.2327103742170271
  0.6915226506966281  0.3137349347772692  0.8427752290335314
  0.5907168052890321  0.6025446266820871  0.0733817833145662
  0.1673237198414926  0.9420892878408275  0.9304344918830023
  0.8842675723634938  0.6944618600128596  0.6757636929317796
  0.9295584248934913  0.3425478858312186  0.7725673925364063
  0.2948049926578086  0.0342130594152037  0.2225111045042884
  0.0468988434457105  0.4008000590022201  0.2993545335312024
  0.9168789365221179  0.8143407807638555  0.4276612115789263
  0.7221864111663842  0.5812695352646634  0.5719665369265540
  0.6849331972695534  0.1088657260699247  0.0596828487384121
  0.4442009463628591  0.9445768685945498  0.5390389594050707
  0.4534219095182622  0.5820753843582746  0.2199486538782015
  0.2553921433051944  0.7315201498941323  0.1265398553518312
  0.6267980358298552  0.3505394446651562  0.3985267123702921
  0.5355860764805384  0.9905066170467223  0.6836646204990795
  0.2010747273525597  0.8489783882146474  0.6329782798275220
  0.8598003353242728  0.1095497594805806  0.9859710884498515
  0.7752391158547015  0.7410250065430962  0.6699342289217093
  0.1232664421644772  0.2840331648727747  0.6764998221082552
 -0.0066032642785932  0.1546220451146910  0.8322865530415808
  0.8545824488422588  0.9781265043792803  0.1295716662080953
  0.7218205845218361  0.0731194187069474  0.8773021603801636
  0.2765102108079642  0.4238531490657143  0.9120172703013201
  0.3472032965305162  0.8349123337044484  0.3904167781600903
  0.6737123714437753  0.7222552639791397  0.9806373662898482
  0.3368553656386100  0.9418689409335185  0.0453179936380632
  0.0999946239209059  0.9798619444789598  0.7580146744937453
  0.3227764137438458  0.5934529766384963  0.9057156685808087
  0.8368942983049114  0.2163700715654237  0.1301677006355868
  0.3054160478945574  0.7489377667831025  0.7955306027400881
  0.4938055423290569  0.1015962512478686  0.8519248160571039
  0.7417470512430642  0.2065484249800602  0.4929987464706280
  0.3011387967042609  0.0284530126888638  0.5163594623005273
  0.0730312926356980  0.2355640933983053  0.4194898795590423
  0.1533392671971799  0.8283656016648970  0.4476268777098230
  0.7459235467045634  0.9013192301267395  0.4467434509939380
  0.9596425299555577  0.1240323048247318  0.6434266819126976
  0.4611033014040491  0.3128878118010079  0.4092633260047895
  0.1943341227339877  0.4909874523521222  0.3635741175778903
  0.0065019805227227  0.6538224950680463  0.8523853847964408
  0.6129740413630511  0.1530818163572156  0.6921258493699173
  0.3846421741114716  0.1870386608356118  0.2812667437472694
  0.6201599055072152  0.0486952427746532  0.4834940249689710
  0.6538715101581327  0.8002393858261718  0.2857705691282094
  0.8915798993144247  0.0086956244905279  0.4288376538061576
  0.4937704878474274  0.9427382984955491  0.1546238197635539
  0.7912513955523887  0.7746682201073796  0.8556001984336904
  0.6253316669951623  0.6170077698096383  0.2541033337711780
  0.1604842875836335  0.8945996646566047  0.2781589995908602
  0.0771022172764659  0.7045807616511210  0.0596630801479477
  0.8613942969596770  0.2943660855243747  0.5911594028217626
  0.5607577032022093  0.1032345875435552  0.2006736039114387
  0.8301467991453265  0.8299941617830191  0.0316811541710702
  0.1187223129653982  0.7871362800545145  0.7930117085945957
  0.0414673204337642  0.1906305610038017  0.0882056424129455
  0.0498093279680619  0.7360465908481565  0.6108037926605073
  0.9706123557967460  0.8468568075150994  0.7894808396522665
  0.0850353897921792  0.0140863556159178  0.4088493275096213
  0.7168284797602191  0.3301602239478889  0.2311599337815619
  0.9088221802432236  0.6047196025680928  0.8949605861015714
  0.2623250173646363  0.4274103304618422  0.6176252599720269
  0.6964208197256276  0.0953951907419733  0.6432041912589136
  0.4280264416298964  0.9490093830776736  0.9740264538784235
  0.1740353895970773  0.0130131251001030  0.0219110718540254
  0.5229842628437622  0.5356135046111330  0.1387569698089737
  0.8129911646697943  0.7509957792531016  0.1886798347652598
  0.0121281837207270  0.7936682956720373  0.9932011025356544
  0.2554020458491096  0.2847801154258997  0.5261321774156843
  0.1034680376202598  0.8734241584384638  0.1719356520678761
  0.2946339226525206  0.5525820376542353  0.3559698671720419
  0.7165826651950860  0.3955287487671612  0.9148790302231349
  0.1489886484224601  0.0927864005245395  0.3559392215733934
  0.4577419401588332  0.0550792093720141  0.7474165301554435
  0.3094757216727339  0.3853073667333457  0.7247331043270085
  0.1935465664490464  0.3442436342736861  0.8920536854121229
  0.2161991563227581  0.5100231873348452  0.2511926271747262
  0.0246109154138263  0.2746009197815298  0.5260938925471842
  0.0940583036002446  0.7435896855676646  0.5019475810349071
  0.4791104807213077  0.3599388565147950  0.1442083420256515
 
  0.00000000E+00  0.00000000E+00  0.00000000E+00
  0.00000000E+00  0.00000000E+00  0.00000000E+00
  0.00000000E+00  0.00000000E+00  0.00000000E+00
  0.00000000E+00  0.00000000E+00  0.00000000E+00
  0.00000000E+00  0.00000000E+00  0.00000000E+00
  0.00000000E+00  0.00000000E+00  0.00000000E+00
  0.00000000E+00  0.00000000E+00  0.00000000E+00
  0.00000000E+00  0.00000000E+00  0.00000000E+00
  0.00000000E+00  0.00000000E+00  0.00000000E+00
  0.00000000E+00  0.00000000E+00  0.00000000E+00
  0.00000000E+00  0.00000000E+00  0.00000000E+00
  0.00000000E+00  0.00000000E+00  0.00000000E+00
  0.00000000E+00  0.00000000E+00  0.00000000E+00
  0.00000000E+00  0.00000000E+00  0.00000000E+00
  0.00000000E+00  0.00000000E+00  0.00000000E+00
  0.00000000E+00  0.00000000E+00  0.00000000E+00
  0.00000000E+00  0.00000000E+00  0.00000000E+00
  0.00000000E+00  0.00000000E+00  0.00000000E+00
  0.00000000E+00  0.00000000E+00  0.00000000E+00
  0.00000000E+00  0.00000000E+00  0.00000000E+00
  0.00000000E+00  0.00000000E+00  0.00000000E+00
  0.00000000E+00  0.00000000E+00  0.00000000E+00
  0.00000000E+00  0.00000000E+00  0.00000000E+00
  0.00000000E+00  0.00000000E+00  0.00000000E+00
  0.00000000E+00  0.00000000E+00  0.00000000E+00
  0.00000000E+00  0.00000000E+00  0.00000000E+00
  0.00000000E+00  0.00000000E+00  0.00000000E+00
  0.00000000E+00  0.00000000E+00  0.00000000E+00
  0.00000000E+00  0.00000000E+00  0.00000000E+00
  0.00000000E+00  0.00000000E+00  0.00000000E+00
  0.00000000E+00  0.00000000E+00  0.00000000E+00
  0.00000000E+00  0.00000000E+00  0.00000000E+00
  0.00000000E+00  0.00000000E+00  0.00000000E+00
  0.00000000E+00  0.00000000E+00  0.00000000E+00
  0.00000000E+00  0.00000000E+00  0.00000000E+00
  0.00000000E+00  0.00000000E+00  0.00000000E+00
  0.00000000E+00  0.00000000E+00  0.00000000E+00
  0.00000000E+00  0.00000000E+00  0.00000000E+00
  0.00000000E+00  0.00000000E+00  0.00000000E+00
  0.00000000E+00  0.00000000E+00  0.00000000E+00
  0.00000000E+00  0.00000000E+00  0.00000000E+00
  0.00000000E+00  0.00000000E+00  0.00000000E+00
  0.00000000E+00  0.00000000E+00  0.00000000E+00
  0.00000000E+00  0.00000000E+00  0.00000000E+00
  0.00000000E+00  0.00000000E+00  0.00000000E+00
  0.00000000E+00  0.00000000E+00  0.00000000E+00
  0.00000000E+00  0.00000000E+00  0.00000000E+00
  0.00000000E+00  0.00000000E+00  0.00000000E+00
  0.00000000E+00  0.00000000E+00  0.00000000E+00
  0.00000000E+00  0.00000000E+00  0.00000000E+00
  0.00000000E+00  0.00000000E+00  0.00000000E+00
  0.00000000E+00  0.00000000E+00  0.00000000E+00
  0.00000000E+00  0.00000000E+00  0.00000000E+00
  0.00000000E+00  0.00000000E+00  0.00000000E+00
  0.00000000E+00  0.00000000E+00  0.00000000E+00
  0.00000000E+00  0.00000000E+00  0.00000000E+00
  0.00000000E+00  0.00000000E+00  0.00000000E+00
  0.00000000E+00  0.00000000E+00  0.00000000E+00
  0.00000000E+00  0.00000000E+00  0.00000000E+00
  0.00000000E+00  0.00000000E+00  0.00000000E+00
  0.00000000E+00  0.00000000E+00  0.00000000E+00
  0.00000000E+00  0.00000000E+00  0.00000000E+00
  0.00000000E+00  0.00000000E+00  0.00000000E+00
  0.00000000E+00  0.00000000E+00  0.00000000E+00
  0.00000000E+00  0.00000000E+00  0.00000000E+00
  0.00000000E+00  0.00000000E+00  0.00000000E+00
  0.00000000E+00  0.00000000E+00  0.00000000E+00
  0.00000000E+00  0.00000000E+00  0.00000000E+00
  0.00000000E+00  0.00000000E+00  0.00000000E+00
  0.00000000E+00  0.00000000E+00  0.00000000E+00
  0.00000000E+00  0.00000000E+00  0.00000000E+00
  0.00000000E+00  0.00000000E+00  0.00000000E+00
  0.00000000E+00  0.00000000E+00  0.00000000E+00
  0.00000000E+00  0.00000000E+00  0.00000000E+00
  0.00000000E+00  0.00000000E+00  0.00000000E+00
  0.00000000E+00  0.00000000E+00  0.00000000E+00
  0.00000000E+00  0.00000000E+00  0.00000000E+00
  0.00000000E+00  0.00000000E+00  0.00000000E+00
  0.00000000E+00  0.00000000E+00  0.00000000E+00
  0.00000000E+00  0.00000000E+00  0.00000000E+00
  0.00000000E+00  0.00000000E+00  0.00000000E+00
  0.00000000E+00  0.00000000E+00  0.00000000E+00
  0.00000000E+00  0.00000000E+00  0.00000000E+00
  0.00000000E+00  0.00000000E+00  0.00000000E+00
  0.00000000E+00  0.00000000E+00  0.00000000E+00
  0.00000000E+00  0.00000000E+00  0.00000000E+00
  0.00000000E+00  0.00000000E+00  0.00000000E+00
  0.00000000E+00  0.00000000E+00  0.00000000E+00
  0.00000000E+00  0.00000000E+00  0.00000000E+00
  0.00000000E+00  0.00000000E+00  0.00000000E+00
  0.00000000E+00  0.00000000E+00  0.00000000E+00
  0.00000000E+00  0.00000000E+00  0.00000000E+00
  0.00000000E+00  0.00000000E+00  0.00000000E+00
  0.00000000E+00  0.00000000E+00  0.00000000E+00
  0.00000000E+00  0.00000000E+00  0.00000000E+00
  0.00000000E+00  0.00000000E+00  0.00000000E+00
  0.00000000E+00  0.00000000E+00  0.00000000E+00
  0.00000000E+00  0.00000000E+00  0.00000000E+00
  0.00000000E+00  0.00000000E+00  0.00000000E+00
  0.00000000E+00  0.00000000E+00  0.00000000E+00
  0.00000000E+00  0.00000000E+00  0.00000000E+00
  0.00000000E+00  0.00000000E+00  0.00000000E+00
  0.00000000E+00  0.00000000E+00  0.00000000E+00
  0.00000000E+00  0.00000000E+00  0.00000000E+00
  0.00000000E+00  0.00000000E+00  0.00000000E+00
  0.00000000E+00  0.00000000E+00  0.00000000E+00
  0.00000000E+00  0.00000000E+00  0.00000000E+00
  0.00000000E+00  0.00000000E+00  0.00000000E+00
  0.00000000E+00  0.00000000E+00  0.00000000E+00
  0.00000000E+00  0.00000000E+00  0.00000000E+00
  0.00000000E+00  0.00000000E+00  0.00000000E+00
  0.00000000E+00  0.00000000E+00  0.00000000E+00
  0.00000000E+00  0.00000000E+00  0.00000000E+00
  0.00000000E+00  0.00000000E+00  0.00000000E+00
  0.00000000E+00  0.00000000E+00  0.00000000E+00
  0.00000000E+00  0.00000000E+00  0.00000000E+00
  0.00000000E+00  0.00000000E+00  0.00000000E+00
  0.00000000E+00  0.00000000E+00  0.00000000E+00
  0.00000000E+00  0.00000000E+00  0.00000000E+00
  0.00000000E+00  0.00000000E+00  0.00000000E+00
  0.00000000E+00  0.00000000E+00  0.00000000E+00
  0.00000000E+00  0.00000000E+00  0.00000000E+00
  0.00000000E+00  0.00000000E+00  0.00000000E+00
  0.00000000E+00  0.00000000E+00  0.00000000E+00
  0.00000000E+00  0.00000000E+00  0.00000000E+00
  0.00000000E+00  0.00000000E+00  0.00000000E+00
  0.00000000E+00  0.00000000E+00  0.00000000E+00
  0.00000000E+00  0.00000000E+00  0.00000000E+00
  0.00000000E+00  0.00000000E+00  0.00000000E+00
  0.00000000E+00  0.00000000E+00  0.00000000E+00
  0.00000000E+00  0.00000000E+00  0.00000000E+00
  0.00000000E+00  0.00000000E+00  0.00000000E+00
  0.00000000E+00  0.00000000E+00  0.00000000E+00
  0.00000000E+00  0.00000000E+00  0.00000000E+00
  0.00000000E+00  0.00000000E+00  0.00000000E+00
  0.00000000E+00  0.00000000E+00  0.00000000E+00
  0.00000000E+00  0.00000000E+00  0.00000000E+00
  0.00000000E+00  0.00000000E+00  0.00000000E+00
  0.00000000E+00  0.00000000E+00  0.00000000E+00
  0.00000000E+00  0.00000000E+00  0.00000000E+00
  0.00000000E+00  0.00000000E+00  0.00000000E+00
  0.00000000E+00  0.00000000E+00  0.00000000E+00
  0.00000000E+00  0.00000000E+00  0.00000000E+00
  0.00000000E+00  0.00000000E+00  0.00000000E+00
  0.00000000E+00  0.00000000E+00  0.00000000E+00
  0.00000000E+00  0.00000000E+00  0.00000000E+00
  0.00000000E+00  0.00000000E+00  0.00000000E+00
  0.00000000E+00  0.00000000E+00  0.00000000E+00
  0.00000000E+00  0.00000000E+00  0.00000000E+00
  0.00000000E+00  0.00000000E+00  0.00000000E+00
  0.00000000E+00  0.00000000E+00  0.00000000E+00
  0.00000000E+00  0.00000000E+00  0.00000000E+00
  0.00000000E+00  0.00000000E+00  0.00000000E+00
  0.00000000E+00  0.00000000E+00  0.00000000E+00
  0.00000000E+00  0.00000000E+00  0.00000000E+00
  0.00000000E+00  0.00000000E+00  0.00000000E+00
  0.00000000E+00  0.00000000E+00  0.00000000E+00
  0.00000000E+00  0.00000000E+00  0.00000000E+00
  0.00000000E+00  0.00000000E+00  0.00000000E+00
  0.00000000E+00  0.00000000E+00  0.00000000E+00
  0.00000000E+00  0.00000000E+00  0.00000000E+00
  0.00000000E+00  0.00000000E+00  0.00000000E+00
  0.00000000E+00  0.00000000E+00  0.00000000E+00
  0.00000000E+00  0.00000000E+00  0.00000000E+00
  0.00000000E+00  0.00000000E+00  0.00000000E+00
  0.00000000E+00  0.00000000E+00  0.00000000E+00
  0.00000000E+00  0.00000000E+00  0.00000000E+00
  0.00000000E+00  0.00000000E+00  0.00000000E+00
  0.00000000E+00  0.00000000E+00  0.00000000E+00
  0.00000000E+00  0.00000000E+00  0.00000000E+00
  0.00000000E+00  0.00000000E+00  0.00000000E+00
  0.00000000E+00  0.00000000E+00  0.00000000E+00
  0.00000000E+00  0.00000000E+00  0.00000000E+00
  0.00000000E+00  0.00000000E+00  0.00000000E+00
  0.00000000E+00  0.00000000E+00  0.00000000E+00
  0.00000000E+00  0.00000000E+00  0.00000000E+00
  0.00000000E+00  0.00000000E+00  0.00000000E+00
  0.00000000E+00  0.00000000E+00  0.00000000E+00
  0.00000000E+00  0.00000000E+00  0.00000000E+00
  0.00000000E+00  0.00000000E+00  0.00000000E+00
  0.00000000E+00  0.00000000E+00  0.00000000E+00
  0.00000000E+00  0.00000000E+00  0.00000000E+00
  0.00000000E+00  0.00000000E+00  0.00000000E+00
  0.00000000E+00  0.00000000E+00  0.00000000E+00
  0.00000000E+00  0.00000000E+00  0.00000000E+00
  0.00000000E+00  0.00000000E+00  0.00000000E+00
  0.00000000E+00  0.00000000E+00  0.00000000E+00
  0.00000000E+00  0.00000000E+00  0.00000000E+00
  0.00000000E+00  0.00000000E+00  0.00000000E+00
  0.00000000E+00  0.00000000E+00  0.00000000E+00
  0.00000000E+00  0.00000000E+00  0.00000000E+00
  0.00000000E+00  0.00000000E+00  0.00000000E+00
  0.00000000E+00  0.00000000E+00  0.00000000E+00
  0.00000000E+00  0.00000000E+00  0.00000000E+00
  0.00000000E+00  0.00000000E+00  0.00000000E+00
  0.00000000E+00  0.00000000E+00  0.00000000E+00
  0.00000000E+00  0.00000000E+00  0.00000000E+00
  0.00000000E+00  0.00000000E+00  0.00000000E+00
  0.00000000E+00  0.00000000E+00  0.00000000E+00
  0.00000000E+00  0.00000000E+00  0.00000000E+00
  0.00000000E+00  0.00000000E+00  0.00000000E+00
  0.00000000E+00  0.00000000E+00  0.00000000E+00
  0.00000000E+00  0.00000000E+00  0.00000000E+00
  0.00000000E+00  0.00000000E+00  0.00000000E+00
  0.00000000E+00  0.00000000E+00  0.00000000E+00
  0.00000000E+00  0.00000000E+00  0.00000000E+00
  0.00000000E+00  0.00000000E+00  0.00000000E+00
  0.00000000E+00  0.00000000E+00  0.00000000E+00
  0.00000000E+00  0.00000000E+00  0.00000000E+00
  0.00000000E+00  0.00000000E+00  0.00000000E+00
  0.00000000E+00  0.00000000E+00  0.00000000E+00
  0.00000000E+00  0.00000000E+00  0.00000000E+00
  0.00000000E+00  0.00000000E+00  0.00000000E+00
  0.00000000E+00  0.00000000E+00  0.00000000E+00
  0.00000000E+00  0.00000000E+00  0.00000000E+00
  0.00000000E+00  0.00000000E+00  0.00000000E+00
  0.00000000E+00  0.00000000E+00  0.00000000E+00
  0.00000000E+00  0.00000000E+00  0.00000000E+00
  0.00000000E+00  0.00000000E+00  0.00000000E+00
  0.00000000E+00  0.00000000E+00  0.00000000E+00
  0.00000000E+00  0.00000000E+00  0.00000000E+00
  0.00000000E+00  0.00000000E+00  0.00000000E+00
  0.00000000E+00  0.00000000E+00  0.00000000E+00
  0.00000000E+00  0.00000000E+00  0.00000000E+00
  0.00000000E+00  0.00000000E+00  0.00000000E+00
  0.00000000E+00  0.00000000E+00  0.00000000E+00
  0.00000000E+00  0.00000000E+00  0.00000000E+00
  0.00000000E+00  0.00000000E+00  0.00000000E+00
  0.00000000E+00  0.00000000E+00  0.00000000E+00
  0.00000000E+00  0.00000000E+00  0.00000000E+00
  0.00000000E+00  0.00000000E+00  0.00000000E+00
  0.00000000E+00  0.00000000E+00  0.00000000E+00