Amorphous GeSe                          
   1.00000000000000     
    20.1278877258000009    0.0000000000000000    0.0000000000000000
     0.0000000000000000   20.1278877258000009    0.0000000000000000
     0.0000000000000000    0.0000000000000000   20.1278877258000009
   Ge   Se
   150   150
Direct
  0.3366495993474020  0.3654597239457897  0.8384237666273955
  0.8385947084139848  0.5394973930658487  0.4906867077361024
  0.2589090889128789  0.7406228515567326  0.9899039499053336
  0.9568844239673553  0.9081369468331895  0.2452066422888864
  0.8281940036975250  0.4922014646651731  0.9663800480873110
  0.1655600774087829  0.7236912123874663  0.6154815404176257
  0.5183033759516524  0.0830136145579822  0.1905642740956002
  0.0463144307543862  0.7370399184511666  0.9151245932528692
  0.9455006732535925  0.3480985698217105  0.3253594527701928
  0.3227367313588042  0.3721822770168957  0.7037270601102472
  0.5390170423694898  0.4943490888716778  0.4351890134768496
  0.1763534959068798  0.6239900460621093  0.4369790703549311
  0.6100790319652855  0.2143230009370055  0.7646572730380140
  0.0317530252220976  0.8561923751156406  0.5630399223191266
  0.8541364929197948  0.6563703284182379  0.3526186944191215
  0.4277586939712784  0.8074091829424810  0.1667480599391413
  0.9066532827473396  0.5683867428446515  0.7108316450616192
  0.9518396446459455  0.4751417582105651  0.3004681740771316
  0.6316094234128569  0.8942506203367747  0.9614449441272803
  0.4348967350910076  0.3116576176667686  0.1947330817084920
  0.7391154861104930  0.8704022160921616  0.1964517834286162
  0.7723137594479776  0.9017628071638156  0.4814599003881511
  0.2496087502775624  0.2093483909425638  0.1738684052654572
  0.9775943339146047  0.2323286396343393  0.8680977508957093
  0.1573233194292172  0.2619411097358136  0.8955838976147418
  0.3603140221892772  0.9361296515739544  0.0149635318475803
  0.5536886691863193  0.2633470978351245  0.1055040998418143
  0.8485382561802868  0.7748406856909610  0.2328654156930653
 -0.0178270052144218  0.8485172759635186  0.0711429063988042
  0.4960226941282929  0.5905521740015021  0.9128942334976445
  0.9808118627613621  0.2887405294344819  0.0293984553144893
 -0.0127016728039719  0.0193707145725514  0.5626757283958385
  0.5836775362075721  0.3162383541555701  0.5013086855327397
  0.3065518773455202  0.2724168811473903  0.3574151042690105
  0.8000520985069782  0.3452594972497114  0.6293223904288842
  0.1710453148683743  0.7891330857576870  0.4023813573745880
  0.0957595513869760  0.4000307360550776  0.3444916720027517
  0.5008452729002343  0.1235257517949187  0.9119682123433128
  0.4362396403503190  0.5779820040406729  0.7858942599525379
  0.7332074317768700  0.0740704340618473  0.3969019812646893
  0.3057810024047621  0.2288142800104201  0.5719375223433877
  0.6246954331749371  0.9359571867987438  0.3686703157495000
  0.5069603561004042  0.6725569537565166  0.4235405834333082
  0.7051751866203499  0.1262537695391857  0.6274234350042786
  0.5609037235283185  0.2812539112200793  0.8944673034527615
  0.8595932558968213  0.0280893307658360  0.5598496943212775
  0.9218467106684352  0.0458169276949204  0.8368737331168121
  0.5940266475503594  0.5667591208343900  0.1459602334374462
  0.9696630710935925  0.2533240954322629  0.4173586641427107
  0.7375488347995355  0.3824152377799181  0.4885780491602966
  0.9556766142466229  0.9180203710312413  0.3949946709165806
  0.8812098389141780  0.1723026091455476  0.5759208579151824
  0.3991214108205373  0.9521813373502848  0.4264854011829470
  0.7568619470648967  0.3033238532334376  0.9662481324773589
  0.0933172568081295  0.0658415553685375  0.2801303574876577
  0.2017212607835736  0.3786568961901592  0.1642733914687754
  0.2795389460526503  0.5746939643965633  0.6860181259168008
  0.2436960943407413  0.9588088010850357  0.6834246429776313
  0.7401746899141222  0.9591434022416653  0.7239203337283863
  0.7106615021486830  0.8329218760716205  0.0442983621446570
  0.9647589051493294  0.8892828198683169  0.8953392984675508
  0.4540568186627187  0.5488139535295125  0.2448261902197982
  0.2799065246742366  0.9186644577420447  0.2243314933920675
  0.4474143944712166  0.4564624172349461  0.5967355389456285
  0.3614013249455568  0.8021521478883094  0.3830970881087619
  0.3977644942456986  0.0263008267594833  0.7721450225918619
  0.2369998608694097  0.5679461888899181  0.2579735660908876
  0.7342241549377586  0.6561497034353064  0.6777167034820150
  0.6556958190100836  0.2345930429670972  0.3582417887039791
  0.7845554010490650  0.5702618001206549  0.8461104800624706
  0.6470257879312288  0.0477205824008768  0.1929206482954292
  0.0404317263980753  0.5106045407569403  0.8738236808157981
  0.0307109230582574  0.1432592162723740  0.6917837346001015
  0.5039405222946076  0.7834859291952613  0.2870973620578453
  0.9940187362353907  0.5365767761531971  0.4664748826910962
  0.4786835460104103  0.8821742427869121  0.8848236024532690
  0.1792097917419178  0.2746777677840803  0.4437033381535911
  0.5520619503928746  0.7190787029129574  0.5962798072390246
  0.3348214045322120  0.7075739307964739  0.5486472063424634
  0.2656244858347630  0.6048257183339657  0.8261381758620702
  0.1471934034018287  0.7730760171438386  0.2332302335902677
  0.5970381028971519  0.9216286455046078  0.7571799561937851
  0.0595252939606180  0.4517961573239063  0.7542313364346178
  0.2780607488192685  0.5072062152406209  0.0476873725244058
  0.6473255978124723  0.5293902745319540  0.9120826366270433
  0.7695125116132534  0.9216256361634525  0.9014627774834393
  0.7934158050390626  0.4075667025555370  0.7526167191239933
  0.6443264911291400  0.3786386397485795  0.8444531751096003
  0.8540694188356973  0.8046888755879823  0.0331255754236565
  0.3887842679089014  0.4942811535145057  0.9835847913052806
  0.4257109609248698  0.6390699029349246  0.0577558147684531
  0.5058304479689292  0.4308706085437402 -0.0000484088278623
  0.2634742565530535  0.1158521303572328  0.3425285533075497
  0.6759922760633956  0.2018731737040419  0.2129028108218431
  0.0592625789506410  0.6900231813463562  0.6914084682534769
  0.4775431002602243  0.1975339865950681  0.0249973779561094
  0.1388660243411023  0.7511953699007139  0.0688044087177866
  0.7863020195676084  0.2475209173783336  0.3390053175189249
  0.9608056354778690  0.7014005123275511  0.4942396182816185
  0.1115803083714837  0.9518896092909650  0.2121837435575501
  0.1484453247502487  0.7914091452579731  0.8241510430915993
  0.7765256385110130  0.3875786890394678  0.2123769608366994
  0.2077812612660980  0.9220235842146036  0.3441146382889827
  0.4071751740954924  0.9062189454218231  0.5510055485579984
  0.9638014151897286  0.0963941509165980  0.0335832265210534
  0.4329465930273769  0.2925693755770226  0.3780542831897895
  0.1092194369728672  0.3474754881155416  0.0804344220385906
  0.7117156058160620  0.5354499176734946  0.6408364552958580
  0.6687679786813769  0.6491686228240828  0.4086699673405667
  0.4996911075924377  0.0737673133536850  0.6405616729122232
  0.6755228822112905  0.8173298875594845  0.6661445510527731
  0.4121220512135813  0.1347201976927127  0.4626490377378956
  0.8140385258809918  0.5648393285377460  0.1901085000725219
  0.4135413666540597  0.4670942206363979  0.4169332994964681
  0.1619523206380567  0.3744334863736753  0.6070535515677370
  0.6094241511225079  0.3824317744108983  0.1299197677400691
  0.5088271592406181  0.8086937433093754  0.0663770030563287
  0.5267518296737979  0.8952192857861582  0.6039035733035897
  0.1300980078275023  0.5486416307127052  0.1039912311044864
  0.0878426683720049  0.5573448394913418  0.6262976420011080
  0.9900667818789566  0.9177690691872620  0.7096985241828436
  0.3159917286033221  0.7560640482034529  0.7343429474559283
  0.9695984012267655  0.6632288981954121  0.0682678376908864
  0.4824365071398831  0.3901257365052271  0.7690885559689029
  0.8191054128949833  0.9564762664798064  0.0177217318338752
  0.0629463824725251  0.2414462737899208  0.2371502825826337
  0.3299213457797598  0.3947280182673481  0.1770342830799017
  0.0577072612887606  0.3888691561072081  0.4682424579889021
  0.6071338645167473  0.7039742515202642  0.9687431919789089
  0.5601650333112175  0.1827496598428074  0.5046275862786845
  0.6399728707690372  0.0995585929633289  0.0393973764168862
  0.3532706889002860  0.1189549169538034  0.9674640288907934
  0.8845010042443735  0.7995012906203449  0.6390734107374220
  0.0770729630317812  0.2025514855847544  0.0434411866338318
  0.2152070876772559  0.4269851932481435  0.3887494871325258
  0.8223468497280272  0.1742561589155310  0.7687246674809619
  0.2085239896275876  0.4695114116749677  0.9470706196581505
  0.2998694158377171  0.6876206440631782  0.2052954772804676
  0.9024011799479666  0.6175157079777711  0.8983544404885848
  0.7710588720464189  0.0544867074585500  0.1612205769085443
  0.6179991501451089  0.5138044738616040  0.5433852028765562
 -0.0097601192285184  0.2655460244537448  0.6952888738806401
  0.2169729682931465  0.0549730448825785  0.8617770320745640
  0.4298552483374768  0.2506499582014791  0.5626160646848786
  0.7419084617013615  0.4217857241092760  0.0858617209268660
  0.7275396217777884  0.8070437059322422  0.8487368939331221
  0.6650978824182269  0.7806720776015542  0.2835691153117336
  0.3402667995666657  0.1449375440877612  0.7463779435974444
  0.3180996982843789  0.8725706580596554  0.8514384503807445
  0.3654891706779814  0.0885587913259144  0.1405212304143521
  0.6185718198457562  0.1689653723818654  0.9300908894730970
  0.0110454193531948  0.9540158039456297  0.1366444434241065
  0.6509138293841058  0.3800325261299259  0.5808413915248971
  0.2618459228259818  0.8651675456544682  0.9683987218550868
  0.2087485395258480  0.3773569729064050  0.8627383952337624
  0.3349216631000334 -0.0016983635377437  0.8771671098898253
  0.9208765556697622  0.7358638582126522  0.9414092028154450
  0.8067049378177108  0.6709440101601920  0.7729822655135128
  0.9083565682119933  0.1937346785364353  0.9591876102050864
  0.3537665244168126  0.4899113069371812  0.8566595330252290
  0.3306882409564762  0.3938127073115797  0.0428304857376950
  0.2028312502946539  0.6962710893721861  0.7550844949384040
  0.3464343105720296  0.7351368658916534  0.0955797531355030
  0.9264334363461110 -0.0046162490924160  0.9608327962374682
  0.3783680598185974  0.0581893453700196  0.3644904554751690
  0.6836901254544501  0.1751272118851711  0.4666996640288514
  0.0458453911912268  0.8050591241209318  0.7495117597154203
  0.0459707898002499  0.9505499993062828  0.4761944835150405
  0.2264424752197471  0.1751566547393616  0.5025923629749077
  0.6640160763352877  0.3876949636327013 -0.0095523546534897
  0.9762578006626921  0.0154971238884551  0.3105780229081141
  0.6458661158073333  0.3554324398206272  0.4010226196389494
  0.8522687267063639  0.5350026067143264  0.3398473852864530
  0.9419285918316409  0.5428408236850201  0.9883725486100525
  0.8096997494615650  0.2255528347228170  0.2159448980025749
  0.5338270440276783  0.2059537952423011  0.2127584711293656
 -0.0023535631896859  0.1381049701954564  0.5337781142373825
  0.2503937862520315  0.0888883159650252  0.2168518431674495
  0.0880214736427231  0.3356245598280553  0.7229833633840942
  0.3545418943354068  0.2273824650078528  0.2483738119958002
  0.7534511897502502  0.2348568974671214  0.6800669144125799
  0.1247472117276748  0.6939187833644852  0.3353755401901604
  0.0882471601292369  0.6571122463063092  0.0032619675132123
  0.7334149156582664  0.8773622235275083  0.3290231829486588
  0.0690394842591315 -0.0044301763799851  0.6506529005769541
  0.0258494697476632 -0.0287215610004158  0.8204388871649055
  0.2678103301628488  0.7132074791499573  0.4368126202189342
  0.8283881008147106  0.6708680949440644  0.4698034584740837
  0.3361054259022666  0.5202749465290132  0.1884890185738860
  0.7699841828952702  0.7494517359150114  0.6039366614032471
  0.2429031643300106  0.2852151336584151  0.6644219054333644
  0.6675001964906438  0.9935949535508981  0.9041927468021342
  0.5131159569488705  0.4714722693039632  0.1612762395342006
  0.1839037117999389  0.2629510098001808  0.0215023200776210
  0.7847339917810490  0.0779448025314604  0.0423580626174091
  0.9063256129149655  0.1127880957588035  0.6907043682213294
  0.5347343721870316  0.4701478276873346  0.8820272540211241
  0.1738947086726279  0.2934299038306295  0.2539700230731612
  0.4433784949638535  0.8907508454376941  0.3236726319618751
  0.7177434547420931  0.5078564510846761  0.4605594409599865
  0.8299072558935019  0.9517684618589318  0.1807323586959759
  0.0803066015184340  0.0952791403665892  0.9905293652349734
  0.3606124542430001  0.1291694429025639  0.6221053115383008
  0.0642226427768543  0.8533055075272298  0.9752027370248021
  0.1687449291601176  0.0364094431241744  0.3807801651182839
  0.5067376071195627  0.0794989541388798  0.0678254549942282
  0.7561033793221834  0.3189651957749700  0.8372796830651281
  0.6995547807764738  0.4899485614349922  0.7597501565589065
  0.5833622489149354  0.1732666136755205  0.6450381429639632
  0.2665313470926778  0.1680106382226218  0.8924299685493999
  0.8278982320865146  0.5052131823148330  0.6175050418645588
  0.6655107240420062  0.3290740363216327  0.2326169335914050
  0.7412398062216032  0.7443299657911615  0.9566176629792087
  0.8461683934476718  0.3778654296980098  0.0199811230145859
  0.0545954337571989  0.1916124113938480  0.3459069168802421
  0.3582679215850841  0.2002302013626864  0.0716651016667096
  0.0720763451739367  0.8669259403600784  0.2953720522200348
  0.2788937247495996  0.7973715847166885  0.2675965359768430
  0.1073546801305858  0.4948517043951562  0.5134271456730275
  0.9426726943195221  0.4235303316084946  0.4756955770736284
  0.1010847476055211  0.7615070601636343  0.5074643720010701
  0.4720614308582712  0.7306873682014128  0.9790696363647279
  0.0178545214272455  0.5884425076022107  0.1683480420953779
  0.0519217489909671  0.5234109525657832  0.3498266289693864
  0.2526983839470818  0.3699805558666687  0.4904239624549724
  0.5166751323984481  0.8349663351486614  0.7095860340693559
  0.5967922466211415  0.8190549893506176  0.8696813409449575
  0.6785174204456896  0.9880924207240132  0.4744414358577634
  0.3653640486036496  0.9331909400462940  0.7014048578368457
  0.8458635067680889  0.7162917868725379  0.1193357052782763
  0.0806793636160593  0.1543433604009930  0.1562431315381174
  0.1520755360077339  0.4796195357833503  0.2146488106897113
  0.0292758942734023  0.7605658754059972  0.1434975431782924
  0.9461977121640102  0.4935563301323231  0.1771127635574802
  0.2076935763175853  0.8988746620401483  0.7937895113140581
  0.4838879786418826  0.3638606465600764  0.2959048776404811
  0.4901586228982125  0.2095093485016189  0.8161009036068921
  0.8425374670926912  0.9453731338572517  0.8026117624119026
  0.1912934784869602  0.8963468203794829  0.1409562959603228
  0.9731789473522380  0.3131831796438698  0.2083637372625831
  0.1018888042738698  0.4489072407910611  0.0100829094768143
  0.7600740440592221  0.6879831777330118  0.2784242860681382
  0.9089770187315205  0.2862165665547105  0.7842630764755346
  0.5088372623435568 -0.0067348996447184  0.8268589781609382
  0.3814963823140366  0.9191440370479864  0.1432737263512204
  0.4253532307978211  0.6975140112634726  0.3278691415700940
  0.2336416717880187  0.0782106126851906  0.7368452774059291
  0.5180281535905611  0.9182085631156640  0.0059749224503514
  0.1626090040866466  0.4934681747459315  0.7012059659336187
  0.2917918228320109  0.0378402513202039  0.0467128364185052
  0.4267481060211887  0.3160846791134350  0.6715555624063033
  0.8484467419696767  0.1141624451174285  0.2314689125095771
  0.5703176319177630  0.5850509946901664  0.3536262266535633
  0.6264297049677875  0.7080488412929036  0.7059872862652080
  0.8060709060810959  0.9281705025343572  0.6119460264383673
  0.6186212134106004  0.7678062845510012  0.0984785605047989
  0.4567212759346548  0.3588695871401539  0.4825875487743333
  0.4616622030837642  0.3211349673094807  0.9543381669624450
  0.7215799270348128  0.0810444735142607  0.7439750103918257
  0.6346422947097025  0.9309237403336932  0.1651601714786804
  0.5930402907739551  0.3397214565766258  0.7336004397560555
  0.0461093202780427  0.1488407197968253  0.8195953025445673
  0.8672783604268869  0.1846274366863546  0.4009434000167832
  0.9880885767454580  0.4801755540228949  0.6597993111394650
  0.2853966452180499  0.9069412444354922  0.4413436940390990
  0.9182366307384741  0.3027641462556691  0.6031267281705661
  0.5843122395512172  0.5792674502139975  0.0159360855471956
  0.0868081309950869  0.2935151092452157  0.5370888393394982
  0.2193495430141559  0.6174271528694328  0.5802077591884435
  0.1863085909734664  0.6653894487110307  0.1538728041914278
  0.4293192084809760  0.7908670401809418  0.5062954266981218
  0.6330376479031327  0.6447606179774517  0.5289138478809151
  0.6003489241783828  0.7622513954741282  0.3919750340421611
  0.3247762620185195  0.6902701353688355  0.8990560098633583
  0.7670373566629921  0.5417840692347601  0.0677461510323488
  0.0355020602778843  0.3250129121806765  0.9188518492835370
  0.9167761626560307  0.8205467501432741  0.5152794849219484
  0.6142796043078713  0.8237098480591225  0.5530228530360125
  0.3061082164295414  0.3902016597919322  0.3165414374563035
  0.5973419611227564  0.6347245034517753  0.8548952996216409
  0.5009687794845737  0.0590221663937140  0.5122070552169051
  0.4990418529728498  0.5020724505064456  0.7078852885504706
  0.6694446015894162  0.2158937985365539  0.0866946146160886
  0.8751271341290021  0.4826647314928658  0.8086341612907167
  0.7201470375462847  0.4950710915707238  0.2345057036961326
  0.6325089251384021  0.0537526703189677  0.3173661897006249
  0.0000649495966704  0.6164046219548385  0.8174752931650331
  0.2693993052326688  0.7956385192219354  0.6164387967231588
  0.5987509201184097  0.9871134834635589  0.6418622195299544
  0.2610061506858340  0.5409683705922383  0.3867864579721036
  0.4928747975223209  0.6472135932518016  0.1675306108229644
  0.3868202288864860  0.6523631086999940  0.6914460788546631
  0.9409488872754878  0.7164748683391344  0.3054333579013142
  0.4466702104603517  0.5530536318147264  0.5080580809489210
  0.3219325715909658  0.4665777839634237  0.6202266262306950
  0.8570927480246769  0.9891184386988838  0.4394201402800071
  0.1604745936145529  0.5629776339514632  0.8852234337141647
  0.8218126819123062  0.3640051535201545  0.3399575232219184
  0.5020125717519606  0.1904301660904011  0.3860255221007686
  0.9516736794867878  0.6820737708542892  0.6218562820991247
 
  0.00000000E+00  0.00000000E+00  0.00000000E+00
  0.00000000E+00  0.00000000E+00  0.00000000E+00
  0.00000000E+00  0.00000000E+00  0.00000000E+00
  0.00000000E+00  0.00000000E+00  0.00000000E+00
  0.00000000E+00  0.00000000E+00  0.00000000E+00
  0.00000000E+00  0.00000000E+00  0.00000000E+00
  0.00000000E+00  0.00000000E+00  0.00000000E+00
  0.00000000E+00  0.00000000E+00  0.00000000E+00
  0.00000000E+00  0.00000000E+00  0.00000000E+00
  0.00000000E+00  0.00000000E+00  0.00000000E+00
  0.00000000E+00  0.00000000E+00  0.00000000E+00
  0.00000000E+00  0.00000000E+00  0.00000000E+00
  0.00000000E+00  0.00000000E+00  0.00000000E+00
  0.00000000E+00  0.00000000E+00  0.00000000E+00
  0.00000000E+00  0.00000000E+00  0.00000000E+00
  0.00000000E+00  0.00000000E+00  0.00000000E+00
  0.00000000E+00  0.00000000E+00  0.00000000E+00
  0.00000000E+00  0.00000000E+00  0.00000000E+00
  0.00000000E+00  0.00000000E+00  0.00000000E+00
  0.00000000E+00  0.00000000E+00  0.00000000E+00
  0.00000000E+00  0.00000000E+00  0.00000000E+00
  0.00000000E+00  0.00000000E+00  0.00000000E+00
  0.00000000E+00  0.00000000E+00  0.00000000E+00
  0.00000000E+00  0.00000000E+00  0.00000000E+00
  0.00000000E+00  0.00000000E+00  0.00000000E+00
  0.00000000E+00  0.00000000E+00  0.00000000E+00
  0.00000000E+00  0.00000000E+00  0.00000000E+00
  0.00000000E+00  0.00000000E+00  0.00000000E+00
  0.00000000E+00  0.00000000E+00  0.00000000E+00
  0.00000000E+00  0.00000000E+00  0.00000000E+00
  0.00000000E+00  0.00000000E+00  0.00000000E+00
  0.00000000E+00  0.00000000E+00  0.00000000E+00
  0.00000000E+00  0.00000000E+00  0.00000000E+00
  0.00000000E+00  0.00000000E+00  0.00000000E+00
  0.00000000E+00  0.00000000E+00  0.00000000E+00
  0.00000000E+00  0.00000000E+00  0.00000000E+00
  0.00000000E+00  0.00000000E+00  0.00000000E+00
  0.00000000E+00  0.00000000E+00  0.00000000E+00
  0.00000000E+00  0.00000000E+00  0.00000000E+00
  0.00000000E+00  0.00000000E+00  0.00000000E+00
  0.00000000E+00  0.00000000E+00  0.00000000E+00
  0.00000000E+00  0.00000000E+00  0.00000000E+00
  0.00000000E+00  0.00000000E+00  0.00000000E+00
  0.00000000E+00  0.00000000E+00  0.00000000E+00
  0.00000000E+00  0.00000000E+00  0.00000000E+00
  0.00000000E+00  0.00000000E+00  0.00000000E+00
  0.00000000E+00  0.00000000E+00  0.00000000E+00
  0.00000000E+00  0.00000000E+00  0.00000000E+00
  0.00000000E+00  0.00000000E+00  0.00000000E+00
  0.00000000E+00  0.00000000E+00  0.00000000E+00
  0.00000000E+00  0.00000000E+00  0.00000000E+00
  0.00000000E+00  0.00000000E+00  0.00000000E+00
  0.00000000E+00  0.00000000E+00  0.00000000E+00
  0.00000000E+00  0.00000000E+00  0.00000000E+00
  0.00000000E+00  0.00000000E+00  0.00000000E+00
  0.00000000E+00  0.00000000E+00  0.00000000E+00
  0.00000000E+00  0.00000000E+00  0.00000000E+00
  0.00000000E+00  0.00000000E+00  0.00000000E+00
  0.00000000E+00  0.00000000E+00  0.00000000E+00
  0.00000000E+00  0.00000000E+00  0.00000000E+00
  0.00000000E+00  0.00000000E+00  0.00000000E+00
  0.00000000E+00  0.00000000E+00  0.00000000E+00
  0.00000000E+00  0.00000000E+00  0.00000000E+00
  0.00000000E+00  0.00000000E+00  0.00000000E+00
  0.00000000E+00  0.00000000E+00  0.00000000E+00
  0.00000000E+00  0.00000000E+00  0.00000000E+00
  0.00000000E+00  0.00000000E+00  0.00000000E+00
  0.00000000E+00  0.00000000E+00  0.00000000E+00
  0.00000000E+00  0.00000000E+00  0.00000000E+00
  0.00000000E+00  0.00000000E+00  0.00000000E+00
  0.00000000E+00  0.00000000E+00  0.00000000E+00
  0.00000000E+00  0.00000000E+00  0.00000000E+00
  0.00000000E+00  0.00000000E+00  0.00000000E+00
  0.00000000E+00  0.00000000E+00  0.00000000E+00
  0.00000000E+00  0.00000000E+00  0.00000000E+00
  0.00000000E+00  0.00000000E+00  0.00000000E+00
  0.00000000E+00  0.00000000E+00  0.00000000E+00
  0.00000000E+00  0.00000000E+00  0.00000000E+00
  0.00000000E+00  0.00000000E+00  0.00000000E+00
  0.00000000E+00  0.00000000E+00  0.00000000E+00
  0.00000000E+00  0.00000000E+00  0.00000000E+00
  0.00000000E+00  0.00000000E+00  0.00000000E+00
  0.00000000E+00  0.00000000E+00  0.00000000E+00
  0.00000000E+00  0.00000000E+00  0.00000000E+00
  0.00000000E+00  0.00000000E+00  0.00000000E+00
  0.00000000E+00  0.00000000E+00  0.00000000E+00
  0.00000000E+00  0.00000000E+00  0.00000000E+00
  0.00000000E+00  0.00000000E+00  0.00000000E+00
  0.00000000E+00  0.00000000E+00  0.00000000E+00
  0.00000000E+00  0.00000000E+00  0.00000000E+00
  0.00000000E+00  0.00000000E+00  0.00000000E+00
  0.00000000E+00  0.00000000E+00  0.00000000E+00
  0.00000000E+00  0.00000000E+00  0.00000000E+00
  0.00000000E+00  0.00000000E+00  0.00000000E+00
  0.00000000E+00  0.00000000E+00  0.00000000E+00
  0.00000000E+00  0.00000000E+00  0.00000000E+00
  0.00000000E+00  0.00000000E+00  0.00000000E+00
  0.00000000E+00  0.00000000E+00  0.00000000E+00
  0.00000000E+00  0.00000000E+00  0.00000000E+00
  0.00000000E+00  0.00000000E+00  0.00000000E+00
  0.00000000E+00  0.00000000E+00  0.00000000E+00
  0.00000000E+00  0.00000000E+00  0.00000000E+00
  0.00000000E+00  0.00000000E+00  0.00000000E+00
  0.00000000E+00  0.00000000E+00  0.00000000E+00
  0.00000000E+00  0.00000000E+00  0.00000000E+00
  0.00000000E+00  0.00000000E+00  0.00000000E+00
  0.00000000E+00  0.00000000E+00  0.00000000E+00
  0.00000000E+00  0.00000000E+00  0.00000000E+00
  0.00000000E+00  0.00000000E+00  0.00000000E+00
  0.00000000E+00  0.00000000E+00  0.00000000E+00
  0.00000000E+00  0.00000000E+00  0.00000000E+00
  0.00000000E+00  0.00000000E+00  0.00000000E+00
  0.00000000E+00  0.00000000E+00  0.00000000E+00
  0.00000000E+00  0.00000000E+00  0.00000000E+00
  0.00000000E+00  0.00000000E+00  0.00000000E+00
  0.00000000E+00  0.00000000E+00  0.00000000E+00
  0.00000000E+00  0.00000000E+00  0.00000000E+00
  0.00000000E+00  0.00000000E+00  0.00000000E+00
  0.00000000E+00  0.00000000E+00  0.00000000E+00
  0.00000000E+00  0.00000000E+00  0.00000000E+00
  0.00000000E+00  0.00000000E+00  0.00000000E+00
  0.00000000E+00  0.00000000E+00  0.00000000E+00
  0.00000000E+00  0.00000000E+00  0.00000000E+00
  0.00000000E+00  0.00000000E+00  0.00000000E+00
  0.00000000E+00  0.00000000E+00  0.00000000E+00
  0.00000000E+00  0.00000000E+00  0.00000000E+00
  0.00000000E+00  0.00000000E+00  0.00000000E+00
  0.00000000E+00  0.00000000E+00  0.00000000E+00
  0.00000000E+00  0.00000000E+00  0.00000000E+00
  0.00000000E+00  0.00000000E+00  0.00000000E+00
  0.00000000E+00  0.00000000E+00  0.00000000E+00
  0.00000000E+00  0.00000000E+00  0.00000000E+00
  0.00000000E+00  0.00000000E+00  0.00000000E+00
  0.00000000E+00  0.00000000E+00  0.00000000E+00
  0.00000000E+00  0.00000000E+00  0.00000000E+00
  0.00000000E+00  0.00000000E+00  0.00000000E+00
  0.00000000E+00  0.00000000E+00  0.00000000E+00
  0.00000000E+00  0.00000000E+00  0.00000000E+00
  0.00000000E+00  0.00000000E+00  0.00000000E+00
  0.00000000E+00  0.00000000E+00  0.00000000E+00
  0.00000000E+00  0.00000000E+00  0.00000000E+00
  0.00000000E+00  0.00000000E+00  0.00000000E+00
  0.00000000E+00  0.00000000E+00  0.00000000E+00
  0.00000000E+00  0.00000000E+00  0.00000000E+00
  0.00000000E+00  0.00000000E+00  0.00000000E+00
  0.00000000E+00  0.00000000E+00  0.00000000E+00
  0.00000000E+00  0.00000000E+00  0.00000000E+00
  0.00000000E+00  0.00000000E+00  0.00000000E+00
  0.00000000E+00  0.00000000E+00  0.00000000E+00
  0.00000000E+00  0.00000000E+00  0.00000000E+00
  0.00000000E+00  0.00000000E+00  0.00000000E+00
  0.00000000E+00  0.00000000E+00  0.00000000E+00
  0.00000000E+00  0.00000000E+00  0.00000000E+00
  0.00000000E+00  0.00000000E+00  0.00000000E+00
  0.00000000E+00  0.00000000E+00  0.00000000E+00
  0.00000000E+00  0.00000000E+00  0.00000000E+00
  0.00000000E+00  0.00000000E+00  0.00000000E+00
  0.00000000E+00  0.00000000E+00  0.00000000E+00
  0.00000000E+00  0.00000000E+00  0.00000000E+00
  0.00000000E+00  0.00000000E+00  0.00000000E+00
  0.00000000E+00  0.00000000E+00  0.00000000E+00
  0.00000000E+00  0.00000000E+00  0.00000000E+00
  0.00000000E+00  0.00000000E+00  0.00000000E+00
  0.00000000E+00  0.00000000E+00  0.00000000E+00
  0.00000000E+00  0.00000000E+00  0.00000000E+00
  0.00000000E+00  0.00000000E+00  0.00000000E+00
  0.00000000E+00  0.00000000E+00  0.00000000E+00
  0.00000000E+00  0.00000000E+00  0.00000000E+00
  0.00000000E+00  0.00000000E+00  0.00000000E+00
  0.00000000E+00  0.00000000E+00  0.00000000E+00
  0.00000000E+00  0.00000000E+00  0.00000000E+00
  0.00000000E+00  0.00000000E+00  0.00000000E+00
  0.00000000E+00  0.00000000E+00  0.00000000E+00
  0.00000000E+00  0.00000000E+00  0.00000000E+00
  0.00000000E+00  0.00000000E+00  0.00000000E+00
  0.00000000E+00  0.00000000E+00  0.00000000E+00
  0.00000000E+00  0.00000000E+00  0.00000000E+00
  0.00000000E+00  0.00000000E+00  0.00000000E+00
  0.00000000E+00  0.00000000E+00  0.00000000E+00
  0.00000000E+00  0.00000000E+00  0.00000000E+00
  0.00000000E+00  0.00000000E+00  0.00000000E+00
  0.00000000E+00  0.00000000E+00  0.00000000E+00
  0.00000000E+00  0.00000000E+00  0.00000000E+00
  0.00000000E+00  0.00000000E+00  0.00000000E+00
  0.00000000E+00  0.00000000E+00  0.00000000E+00
  0.00000000E+00  0.00000000E+00  0.00000000E+00
  0.00000000E+00  0.00000000E+00  0.00000000E+00
  0.00000000E+00  0.00000000E+00  0.00000000E+00
  0.00000000E+00  0.00000000E+00  0.00000000E+00
  0.00000000E+00  0.00000000E+00  0.00000000E+00
  0.00000000E+00  0.00000000E+00  0.00000000E+00
  0.00000000E+00  0.00000000E+00  0.00000000E+00
  0.00000000E+00  0.00000000E+00  0.00000000E+00
  0.00000000E+00  0.00000000E+00  0.00000000E+00
  0.00000000E+00  0.00000000E+00  0.00000000E+00
  0.00000000E+00  0.00000000E+00  0.00000000E+00
  0.00000000E+00  0.00000000E+00  0.00000000E+00
  0.00000000E+00  0.00000000E+00  0.00000000E+00
  0.00000000E+00  0.00000000E+00  0.00000000E+00
  0.00000000E+00  0.00000000E+00  0.00000000E+00
  0.00000000E+00  0.00000000E+00  0.00000000E+00
  0.00000000E+00  0.00000000E+00  0.00000000E+00
  0.00000000E+00  0.00000000E+00  0.00000000E+00
  0.00000000E+00  0.00000000E+00  0.00000000E+00
  0.00000000E+00  0.00000000E+00  0.00000000E+00
  0.00000000E+00  0.00000000E+00  0.00000000E+00
  0.00000000E+00  0.00000000E+00  0.00000000E+00
  0.00000000E+00  0.00000000E+00  0.00000000E+00
  0.00000000E+00  0.00000000E+00  0.00000000E+00
  0.00000000E+00  0.00000000E+00  0.00000000E+00
  0.00000000E+00  0.00000000E+00  0.00000000E+00
  0.00000000E+00  0.00000000E+00  0.00000000E+00
  0.00000000E+00  0.00000000E+00  0.00000000E+00
  0.00000000E+00  0.00000000E+00  0.00000000E+00
  0.00000000E+00  0.00000000E+00  0.00000000E+00
  0.00000000E+00  0.00000000E+00  0.00000000E+00
  0.00000000E+00  0.00000000E+00  0.00000000E+00
  0.00000000E+00  0.00000000E+00  0.00000000E+00
  0.00000000E+00  0.00000000E+00  0.00000000E+00
  0.00000000E+00  0.00000000E+00  0.00000000E+00
  0.00000000E+00  0.00000000E+00  0.00000000E+00
  0.00000000E+00  0.00000000E+00  0.00000000E+00
  0.00000000E+00  0.00000000E+00  0.00000000E+00
  0.00000000E+00  0.00000000E+00  0.00000000E+00
  0.00000000E+00  0.00000000E+00  0.00000000E+00
  0.00000000E+00  0.00000000E+00  0.00000000E+00
  0.00000000E+00  0.00000000E+00  0.00000000E+00
  0.00000000E+00  0.00000000E+00  0.00000000E+00
  0.00000000E+00  0.00000000E+00  0.00000000E+00
  0.00000000E+00  0.00000000E+00  0.00000000E+00
  0.00000000E+00  0.00000000E+00  0.00000000E+00
  0.00000000E+00  0.00000000E+00  0.00000000E+00