Te1 Pb2 S1
1.0
   4.4744940000000000    0.0000000000000000    0.0000000000000000
   0.0000000000000000    4.4744940000000000    0.0000000000000000
   0.0000000000000000    0.0000000000000000    6.3508529999999999
Te Pb S
1 2 1
direct
   0.5000000000000000    0.5000000000000000    0.0000000000000000 Te
   0.0000000000000000    0.0000000000000000    0.0000000000000000 Pb
   0.5000000000000000    0.5000000000000000    0.5000000000000000 Pb
   0.0000000000000000    0.0000000000000000    0.5000000000000000 S
