Amorphous Sb                            
   1.00000000000000     
    20.2076774052841515    0.0000000000000000    0.0000000000000000
     0.0000000000000000   20.2076774052841515    0.0000000000000000
     0.0000000000000000    0.0000000000000000   20.2076774052841515
   Sn   S 
   150   150
Direct
  0.2316288533807790  0.6865790029289567  0.7560319935897647
  0.8808444479725239  0.3795484596028051  0.5841057207015463
  0.1414487856095937  0.2593837848043797  0.8257446865420540
  0.0298796450207659  0.9590921272044163  0.3566512541655072
  0.4268949532764165  0.7665131636823760  0.1205600059451693
  0.0223831089586435  0.6367515024459556  0.1821568171362408
  0.8509319545788742  0.1616973948235800  0.9702972107221794
  0.0921352845962653  0.4068146650921824  0.0725205005540161
  0.3609347483378885  0.1086374303505672  0.0978310160572374
  0.4140903488644627  0.6633867774697577  0.5277883431547831
  0.1571411765332124  0.0021862600327102  0.1987610719666148
  0.0037407248965925  0.4171711754698879  0.7779581386411334
  0.8193531063166136  0.3558252779645630  0.9757376135345367
  0.2368576923252788  0.2857018808541618  0.0051792175820176
  0.9594614346232062  0.0346154126920123  0.8904613476222581
  0.6971625564533492  0.1338726057589677  0.0557840077108439
  0.3601157307216832  0.4075735620210982  0.1892530082874040
  0.4887009590349568  0.7109793946311025  0.7943097929528384
  0.0206421390794716  0.2007575644606934  0.2753877467293026
  0.4442525929711081  0.4926377380481380  0.8105627528264457
  0.6827305032948168  0.8929909731240050  0.6829025196977275
 -0.0132414224035025  0.1284899626336556  0.4782557888623650
  0.8290367788321569  0.3005823735814935  0.3533494565599472
  0.8615892605453072  0.7048583164696790  0.3017397317382989
  0.7606531148268499  0.0687424416772136  0.6731804629104005
  0.8002309810403088  0.9694273032319878  0.9302319663406465
  0.3331042262374143  0.9355634763498837  0.8347319627101498
  0.3187398942471754  0.1024810927833567  0.9221534257780771
  0.7687584395408102  0.0693944729898153  0.4682344401501047
  0.1697100026048412  0.5107302755456973  0.1866736457325210
  0.3380656297666375  0.4626627730780282  0.6439667034381890
  0.3961696644013837  0.3060920322231163  0.0291314530328461
  0.4727951601540425  0.0856331444709129  0.7354698651365105
  0.6943451600162114  0.7670141611715122  0.3825613475990062
  0.3652013360547492  0.5419928497614974  0.3641173001704641
  0.4930173658319261  0.6062195258446977  0.0517459414526950
  0.3364804248180260  0.7938281092425911  0.6723515865752400
  0.8239135996125601  0.3785687300333068  0.7640363841570472
  0.9664944983011090  0.7295615060180476  0.5290995933295692
  0.4726630935995956  0.3794813870584146  0.5172461204163911
  0.9189439682260189  0.8493003913467017  0.1827776839681417
  0.5131830912436621  0.5463743396030678  0.5776604657568873
  0.6610631533725887  0.3419375366986488  0.8279094303203810
  0.4145943617725769  0.7586714432432895  0.9211251443674718
  0.0290923216479054  0.2716470252483801  0.6811203800477542
  0.4981201923938029  0.8742112412491870  0.5431462266268411
  0.6471336406221238  0.9531875280019477  0.0127536056964419
  0.9637371472412515  0.6180688345798234  0.6220986945661781
  0.5323327393652989  0.0122692748708160  0.3862696069165970
  0.6531618681914654  0.9497072972215210  0.5044291960325277
  0.7556506258294304  0.8205203912647342  0.1343343607934400
  0.5492292365987157  0.3572124391595923  0.6638876227505927
  0.0948536704131085  0.3200265318715940  0.4242657330369577
  0.3109300094419104  0.9162268533289628  0.4635218712639968
 -0.0005272109535693  0.6565614152844172  0.8923922823850520
  0.1330823901869999  0.1084390682101172  0.9808106557002009
  0.6574055259522411  0.5680922605012790  0.3669457780603511
  0.6052061371248344  0.7116383346325896  0.5894639269237019
  0.8112751556325991  0.6664693000825263  0.4651786937807353
  0.8317216817557552  0.7772084640573834  0.8846697114087680
  0.6347210163058878  0.5382062436131887  0.7836708927425670
  0.0135392954440923  0.4590183181611641  0.5397830686252277
  0.7370187910979160  0.1384068031839920  0.2693626394006958
  0.3639631202350954  0.9383176938729267  0.2200834166247726
  0.1347008253460961  0.8935501018514240  0.8657748326314083
  0.3461692660559592  0.3474625977265304  0.8777270093120140
  0.1956442986752018  0.2084866662002308  0.1540672761739555
  0.1643297013456201  0.1392307069243779  0.5725869522049268
  0.0687822927986527  0.5920522792959226  0.7424572390538479
  0.6685762156118995  0.2435403213693476  0.6976832508027117
  0.0224537866794096  0.0191225985768643  0.1219163840990501
  0.0133728695532801  0.4573755654279895  0.2615904715568450
  0.5596622002094159  0.1478619657097323  0.5481840796113395
  0.6170844811494616  0.2925412188391801  0.0446502635407794
  0.5867767470888746  0.2404303312083494  0.3826520470548133
  0.1267182503384492  0.0817782719551549  0.8050943518564241
  0.6565525099564489  0.0403621205044279  0.8027740282724943
  0.8696921239012924  0.9402307696905712  0.7288809220002050
  0.2444437339962580  0.9417296729202226  0.6559403357166761
  0.5309777186742247  0.3044341927682927  0.2040838606324795
  0.5202713704567549  0.0982744282713219  0.2049525028803798
  0.9291353687907014  0.5064516563442278 -0.0053293377184479
  0.5508918826177795  0.4581926817295688  0.9509601055457154
  0.3255854055116790  0.6258303984311060  0.1153931709696679
  0.1630838292105374  0.7813579744095260  0.5591901262089668
  0.2047662635553980  0.8473586601682883  0.3084695631112760
  0.8548556380961682  0.8820779532869502  0.3640128332825603
  0.5657509702809994  0.9368270773952436  0.1696574026527768
  0.6850029778216536  0.7211575111169004  0.8150136428148081
  0.8789555931381217  0.0803512310736614  0.2900497256868086
  0.8455942442637085  0.2199457871387542  0.1379473691609568
  0.4906541138324507  0.2446624402591632  0.8114311760925526
  0.6193125999644328  0.7324557294692575  0.0295677643435989
  0.9124886317118127  0.3790897816673638  0.1332929961299674
  0.3910601417538265  0.0415096918520277  0.5720757177733162
  0.2467680537340835  0.6987350995494150  0.4260162249794773
  0.3466202434056838  0.6182445257825616  0.6863560667784979
  0.1448707205260584  0.5162184258025407  0.9021995618128448
  0.1291600013535650  0.6645972399545576  0.0418574388083622
  0.4865757432814737  0.6024827101474853  0.2414946534997106
  0.3015228366761692  0.5755555885114964  0.9157521585455077
  0.0626829329103886  0.7548031420154113  0.3763602144456164
  0.1139021766316176  0.5406598071943004  0.3968984309708351
  0.6661694057211797  0.4030321569898714  0.5547467576274447
  0.8628165242338345  0.2354422908687746  0.6911563057219751
  0.3211474397882791  0.2497187433245363  0.4771079467521268
  0.6875147200393046  0.9510933455769534  0.2828941776620795
  0.1190200144660901  0.9724385768782057  0.4894703834452462
  0.7403702374103605  0.2379466613328030  0.5185056016186760
  0.2942373405600868  0.1134468499029065  0.7316626896904064
  0.1931614480615369  0.1296898387806368  0.3259478437690373
  0.1890867823126650  0.4391492673080949  0.7233062266757865
  0.8546799424906851  0.5364170422801917  0.2075056302908444
  0.8937243667826363  0.5146809291638504  0.3887696581015548
  0.9630628016254352  0.7826316603192699  0.7934298289893014
  0.3890203584118757  0.7398732772085708  0.2844250632852869
  0.3931599185067933  0.2879294150176456  0.3173029493321320
  0.2744905269702534  0.4450116143751739  0.4921459437678375
  0.8696239943853029  0.6819994992239460  0.0453907330827333
 -0.0105798014795112  0.8777000361343009  0.9885143855320272
  0.8637493559330436  0.5835826821366390  0.7832046680944202
  0.2267451325064845  0.7575062152359279  0.9096231269460856
  0.9773442016978682  0.2654998376328776  0.8747752570481770
  0.0098882663145640  0.2363836238123917  0.0700850234384964
  0.3205317026331990  0.4502221794061180  0.0401367436552090
  0.5294326308794709  0.1226903174734259  0.9708781070000559
  0.3573233720354680  0.2635227356399880  0.6864590131023551
  0.6841541367420118  0.1999399530924966  0.8816547025986192
  0.4488319608964899  0.9359592846602195  0.9646743706290144
  0.6716900002539787  0.6735912747540080  0.2239022031472527
  0.1787206709414910  0.3436748929790577  0.5884129193534752
  0.2042038471026611  0.6057590168948858  0.5744143030349241
  0.3552835282143812  0.0519440208237054  0.3889108575880192
  0.2387531953178759  0.3547005702871051  0.2765290021539835
  0.5017996854247456  0.7993494037614491  0.3722813797646611
  0.2333727220007256  0.6851979817829262  0.2628737932334146
  0.9705311331036670  0.0802897908571090  0.6766633341611422
  0.7242552988182445  0.3372515737250910  0.2507554658424915
  0.7397299750582229  0.5144670492934547  0.9162788309665556
  0.2203882593483674  0.9283578955254917  0.0128143204031765
  0.7215529962780467  0.5341802110347833  0.1297454712707222
  0.5051974665535375  0.9021046975893802  0.7115381042014179
  0.0846312849677950  0.8923428433292477  0.6911414093636222
  0.6109266785758979  0.8719212164093927  0.8807096178886762
  0.5642143143375015  0.4514976530934744  0.1552225333987003
  0.9348608132941891  0.9175688532057393  0.5473405527929283
  0.1395959650047213  0.8071191549663039  0.1428934129204555
  0.8280924738997062  0.9764051556837755  0.1231008134195259
  0.7862895607239527  0.7385439359287127  0.6301665718513108
  0.7301395162555721  0.5484005311593952  0.6174513021771809
  0.8953839536574825  0.9186215424883286  0.8541002421467370
  0.4539565494108107  0.9056326551956840  0.4276324781332722
  0.2523251291318434  0.4063082978021642  0.9424414209804001
  0.3501426026333658  0.0059198017161545  0.0176405225122571
  0.0308685180120805  0.1698957221638721  0.6011487031617115
  0.7451086294572850  0.7868335795323601  0.2608850538126317
  0.2059726263173381  0.3970425675926745  0.1355924211655199
  0.0328761035321808 -0.0079689592586243  0.5888832593473199
  0.2328340902359255  0.8777127077910658  0.7834239795003510
  0.3088665651304390  0.1677386214078164  0.3650359091182713
  0.0101166656326609  0.0629013417747611  0.2803508281714355
  0.7137683323433262  0.9300969264066172  0.8340359408140007
  0.7314277779488854  0.2156843385876902  0.3684281522126255
  0.9762762883185745  0.8483842851804881  0.2987939462427007
  0.9816537321767034  0.1665357237387114  0.9596432691408744
  0.7920266938278141  0.8377698072047209  0.7172507021367950
  0.2514854893533758  0.1398660301795714  0.0287606684252187
  0.0225207525547719  0.8784103855695772  0.1148979643157736
  0.7061386177123954  0.4256975804169676  0.7470035694858117
  0.0884750000486492  0.1461306434694307  0.1150195406481232
  0.6360142046321580  0.0790021531924280  0.4669905161301016
  0.4850914363418892  0.2465538638463929  0.6739852090749504
  0.2445414602696281  0.5534249418057130  0.0477732582665510
  0.6061144723313023  0.5746903589988961  0.6624212529172188
  0.6120145977094219  0.3434206353782454  0.3032694369321609
  0.1444268109708621  0.7926568643458047  0.0133546903689728
  0.5708996459879396  0.4686299981976643  0.4937836744199980
  0.6312784707584290  0.8449914068263547  0.1028631486227188
  0.7983000801952854  0.5071753655933025  0.0290916677004404
  0.6991185973715854  0.0182550279620659  0.1132049781308051
  0.1412999116619446  0.6499292697035012  0.9151524038094885
  0.8813207507555656  0.4599371214579994  0.6855978730410587
  0.4330023361214386  0.7096503692534544  0.6552910263402992
  0.8881201487141529  0.2288524542995186  0.2582716296900095
  0.8379407165982281  0.0788964946800444  0.8719529906241021
  0.4572623428781099  0.0947752298876223  0.4522330031175242
  0.8416813258614212  0.4443974271859295  0.8792946978123205
  0.5133941377568410  0.0436219947987085  0.6227910007752930
  0.7192379770812165  0.2287173602447424  0.1764156171096183
  0.1439835140898687  0.6825870846341588  0.6630364863825887
  0.8625010297007376  0.1259490547164434  0.6165950092991592
  0.4595604250957463  0.3929057622457340  0.2689360145784027
  0.6702306781022236  0.4020480245999483  0.9406708802160038
  0.7371151093768700  0.9571374943955629  0.4040070517759017
  0.3314915636998204  0.8513584613311290  0.9393151201402228
  0.9459950146428140  0.3730743747407708  0.0075912784962807
  0.9199989636786702  0.9772646992823308  0.4251213615883796
  0.8149194154596389  0.4500990534567348  0.4929250382993687
  0.4345417317445797  0.0263863725127329  0.2897435030819138
  0.8477373965836043  0.2611646698914965  0.8891279934863554
  0.2782613026579076  0.5669503517099063  0.2296034232426057
  0.7651702603700002  0.1875245075573405  0.7572884128532801
  0.7658431944757544  0.6073448424534678  0.2982421966742877
  0.5296355344130622  0.9886336660186397  0.0554243128962272
  0.3812011776008411  0.6708493586001950  0.3919785104461056
  0.3842406095427444  0.2869497051827186  0.1509001947623476
  0.7416361153472971  0.6052069814695655  0.7419905212798449
  0.2467983179097203  0.7241768935350464  0.1457827934492920
  0.2248354095818136  0.9065325886309630  0.1431945931586897
  0.6254654510701471  0.0746545194500675  0.2815805056001869
  0.4646866866036615  0.2915002609004676  0.4248833601921003
  0.1534141100195420  0.4461810475746615  0.3016350430994462
  0.5889838252673882  0.6499674970830841  0.8541876242771177
  0.1613878316938953  0.2512600541402503  0.2803004631874663
  0.6783806626391368  0.1510117458129222  0.6122572361939274
  0.6044448066156787  0.6842539601076764  0.3452980377942159
  0.8767795190633721  0.4359657647350408  0.2831400455182785
  0.3736201959133264  0.8807084535152752  0.5816494747678221
  0.1898077489322778  0.5571167533032994  0.7813066164277893
  0.2874153025994926  0.7143313554644488  0.5494736656577078
  0.6000505194874267  0.8129668192755178  0.7571400989650477
  0.0606864440078958  0.9710206738359820  0.7909973834427564
  0.5124142061535405  0.3701320167417975  0.0399654742525119
  0.9159450660200512  0.7202212239355611  0.1722181892929805
  0.3385747136166107  0.3408736228931015  0.5892848938890982
  0.9074529548906303  0.6899413181459660  0.7141775360103843
  0.8573172931296488  0.5931372399927907  0.5610518096226677
  0.5701053120450847  0.2434734992919616  0.9328762156440951
  0.1046420513215088 -0.0074008012079886  0.0227874980487290
  0.5107241333973480  0.7514381437562344  0.4943348474143528
  0.2609781573386337  0.2475276475803949  0.8783667198697231
  0.6938969738009283  0.6421552286805218  0.5237163789706958
  0.1083996538202622  0.0962957347191620  0.4562932047327481
  0.1955898304563846  0.9729715308343163  0.3164360014700774
  0.1066360491940990  0.6668313550667432  0.2809534725447885
  0.7730833056493488  0.3121787602207748  0.6228066725000653
  0.7487108316567832  0.3805332347832979  0.4550439066050859
  0.2058278740700356  0.8343584046976635  0.4376844574548364
  0.9874469214876713  0.1845317396750293  0.7725300228505146
  0.3989968707330027  0.4861603292466637  0.4870877897439213
  0.4863714838778850  0.8110209537667235  0.0124666794215216
  0.3233101979608318  0.6884209860699182  0.9762004309221899
  0.0295465200070745  0.8334061921827883  0.5090705966610459
  0.4679436776394112  0.8604934077793550  0.2009272611631247
  0.0512046339498874  0.3362056075939693  0.5471842421770539
  0.5758402244299144  0.1647783934125653  0.0851425231091597
  0.4974799278553205  0.2033755380263592  0.2751946476412158
  0.6918869368008210  0.7861944533637740  0.9345514215422013
  0.5320848462726837  0.9917907105282360  0.8036464747655370
  0.5953601764511591  0.1718193961834387  0.7858485484829622
  0.2368264557450293  0.0047678677301342  0.5363091047650608
  0.0888504536505605  0.7953915624312603  0.7879687783142247
  0.6012129995784866  0.5315190792921036  0.0500440944509287
  0.7619438387083473  0.9856999376344789  0.5671616962478423
  0.9430562051155297  0.5953580097797244  0.2792791234288142
  0.6100749078334678  0.8603982494413253  0.3714622949147557
  0.9258101572037918  0.9909856320815975  0.0100977452020162
  0.3925502205618684  0.6130391997531970  0.8073695364638908
  0.3323249025753002  0.4338759008304386  0.7743067196621535
  0.1596586255014395  0.2556447971068950  0.6941033944292605
  0.9557585706344074  0.5033642648918092  0.1281167899399656
  0.4655962344597715  0.4656863514243907  0.6679535736255955
  0.0301533048719617  0.3500042769591563  0.1766671049779583
  0.6214018583356539  0.2869055152976480  0.5166624685950831
  0.3601388415844252  0.0057931380555109  0.7037610474332763
  0.9660763704102497  0.6793906564862651  0.4157014948119864
  0.2950272614627972  0.3561796824741446  0.3979509523826045
  0.6824428025748950  0.8147534502612016  0.5788900017226589
  0.4137698946492578  0.1821499530731771  0.0017983809870202
  0.8742268880258541  0.0934342285719985  0.1574155313741781
  0.4033834792983280  0.5084074422782955  0.9553288992991431
  0.1303403746258462  0.4946668979096499  0.5159959553173702
  0.5406317595979843  0.3644097940589007  0.7977239713533845
  0.0666611989737478  0.4747883168419635  0.6814075515920422
  0.6622433952172416  0.0725781977205523  0.9378553193294838
  0.5291464748480910  0.6891101739579115  0.1527660239979845
  0.8762598198214072  0.8064278303628849  0.0041429338034153
  0.8578626480606080  0.6478882401472179  0.9003173814939056
  0.7019152689103635  0.4077346121064472  0.1483653609149047
  0.3293553909406821  0.1574985559293209  0.6149048242020624
  0.8495399162889318  0.7792026470470385  0.5227581189708924
  0.1864078164818263  0.0534260046495271  0.6957683838806061
 -0.0006227367646456  0.6466397695885295  0.0172001004977806
  0.1878681790985368  0.2505976859403956  0.4985483587216764
  0.9597403174333832  0.8559456523506969  0.6871054950307840
  0.2516691227482499  0.5548856000247397  0.4238195212845647
  0.7331778671263181  0.7037601955718733  0.0917654339956701
  0.6003645798243391  0.5443342749790721  0.2470894334018590
  0.2100143343265320  0.0302884676105487  0.8896584269142530
  0.1056856687651813  0.2960605140010559  0.0041478492664821
  0.0168690845565875  0.5258974007343239  0.8596221555431751
  0.3334388386106570  0.8535476019530189  0.3162444638291596
 -0.0000664629462085  0.2341392481122615  0.4004541133093709
  0.1279771924572553  0.3890770029236020  0.8246323622262535
  0.4100368665135968  0.8437342545761115  0.7748371702527483
  0.2422736031770760  0.0980457251313906  0.2031739945107942
  0.0029552926309402  0.4480596779705580  0.4025047301164506
  0.4475868062610811  0.5259561513101157  0.1436224129865399
  0.1267926987393747  0.6771690121368704  0.4924407559813924
  0.8224797800925849  0.9605280457540504  0.2598461831641662
 
  0.00000000E+00  0.00000000E+00  0.00000000E+00
  0.00000000E+00  0.00000000E+00  0.00000000E+00
  0.00000000E+00  0.00000000E+00  0.00000000E+00
  0.00000000E+00  0.00000000E+00  0.00000000E+00
  0.00000000E+00  0.00000000E+00  0.00000000E+00
  0.00000000E+00  0.00000000E+00  0.00000000E+00
  0.00000000E+00  0.00000000E+00  0.00000000E+00
  0.00000000E+00  0.00000000E+00  0.00000000E+00
  0.00000000E+00  0.00000000E+00  0.00000000E+00
  0.00000000E+00  0.00000000E+00  0.00000000E+00
  0.00000000E+00  0.00000000E+00  0.00000000E+00
  0.00000000E+00  0.00000000E+00  0.00000000E+00
  0.00000000E+00  0.00000000E+00  0.00000000E+00
  0.00000000E+00  0.00000000E+00  0.00000000E+00
  0.00000000E+00  0.00000000E+00  0.00000000E+00
  0.00000000E+00  0.00000000E+00  0.00000000E+00
  0.00000000E+00  0.00000000E+00  0.00000000E+00
  0.00000000E+00  0.00000000E+00  0.00000000E+00
  0.00000000E+00  0.00000000E+00  0.00000000E+00
  0.00000000E+00  0.00000000E+00  0.00000000E+00
  0.00000000E+00  0.00000000E+00  0.00000000E+00
  0.00000000E+00  0.00000000E+00  0.00000000E+00
  0.00000000E+00  0.00000000E+00  0.00000000E+00
  0.00000000E+00  0.00000000E+00  0.00000000E+00
  0.00000000E+00  0.00000000E+00  0.00000000E+00
  0.00000000E+00  0.00000000E+00  0.00000000E+00
  0.00000000E+00  0.00000000E+00  0.00000000E+00
  0.00000000E+00  0.00000000E+00  0.00000000E+00
  0.00000000E+00  0.00000000E+00  0.00000000E+00
  0.00000000E+00  0.00000000E+00  0.00000000E+00
  0.00000000E+00  0.00000000E+00  0.00000000E+00
  0.00000000E+00  0.00000000E+00  0.00000000E+00
  0.00000000E+00  0.00000000E+00  0.00000000E+00
  0.00000000E+00  0.00000000E+00  0.00000000E+00
  0.00000000E+00  0.00000000E+00  0.00000000E+00
  0.00000000E+00  0.00000000E+00  0.00000000E+00
  0.00000000E+00  0.00000000E+00  0.00000000E+00
  0.00000000E+00  0.00000000E+00  0.00000000E+00
  0.00000000E+00  0.00000000E+00  0.00000000E+00
  0.00000000E+00  0.00000000E+00  0.00000000E+00
  0.00000000E+00  0.00000000E+00  0.00000000E+00
  0.00000000E+00  0.00000000E+00  0.00000000E+00
  0.00000000E+00  0.00000000E+00  0.00000000E+00
  0.00000000E+00  0.00000000E+00  0.00000000E+00
  0.00000000E+00  0.00000000E+00  0.00000000E+00
  0.00000000E+00  0.00000000E+00  0.00000000E+00
  0.00000000E+00  0.00000000E+00  0.00000000E+00
  0.00000000E+00  0.00000000E+00  0.00000000E+00
  0.00000000E+00  0.00000000E+00  0.00000000E+00
  0.00000000E+00  0.00000000E+00  0.00000000E+00
  0.00000000E+00  0.00000000E+00  0.00000000E+00
  0.00000000E+00  0.00000000E+00  0.00000000E+00
  0.00000000E+00  0.00000000E+00  0.00000000E+00
  0.00000000E+00  0.00000000E+00  0.00000000E+00
  0.00000000E+00  0.00000000E+00  0.00000000E+00
  0.00000000E+00  0.00000000E+00  0.00000000E+00
  0.00000000E+00  0.00000000E+00  0.00000000E+00
  0.00000000E+00  0.00000000E+00  0.00000000E+00
  0.00000000E+00  0.00000000E+00  0.00000000E+00
  0.00000000E+00  0.00000000E+00  0.00000000E+00
  0.00000000E+00  0.00000000E+00  0.00000000E+00
  0.00000000E+00  0.00000000E+00  0.00000000E+00
  0.00000000E+00  0.00000000E+00  0.00000000E+00
  0.00000000E+00  0.00000000E+00  0.00000000E+00
  0.00000000E+00  0.00000000E+00  0.00000000E+00
  0.00000000E+00  0.00000000E+00  0.00000000E+00
  0.00000000E+00  0.00000000E+00  0.00000000E+00
  0.00000000E+00  0.00000000E+00  0.00000000E+00
  0.00000000E+00  0.00000000E+00  0.00000000E+00
  0.00000000E+00  0.00000000E+00  0.00000000E+00
  0.00000000E+00  0.00000000E+00  0.00000000E+00
  0.00000000E+00  0.00000000E+00  0.00000000E+00
  0.00000000E+00  0.00000000E+00  0.00000000E+00
  0.00000000E+00  0.00000000E+00  0.00000000E+00
  0.00000000E+00  0.00000000E+00  0.00000000E+00
  0.00000000E+00  0.00000000E+00  0.00000000E+00
  0.00000000E+00  0.00000000E+00  0.00000000E+00
  0.00000000E+00  0.00000000E+00  0.00000000E+00
  0.00000000E+00  0.00000000E+00  0.00000000E+00
  0.00000000E+00  0.00000000E+00  0.00000000E+00
  0.00000000E+00  0.00000000E+00  0.00000000E+00
  0.00000000E+00  0.00000000E+00  0.00000000E+00
  0.00000000E+00  0.00000000E+00  0.00000000E+00
  0.00000000E+00  0.00000000E+00  0.00000000E+00
  0.00000000E+00  0.00000000E+00  0.00000000E+00
  0.00000000E+00  0.00000000E+00  0.00000000E+00
  0.00000000E+00  0.00000000E+00  0.00000000E+00
  0.00000000E+00  0.00000000E+00  0.00000000E+00
  0.00000000E+00  0.00000000E+00  0.00000000E+00
  0.00000000E+00  0.00000000E+00  0.00000000E+00
  0.00000000E+00  0.00000000E+00  0.00000000E+00
  0.00000000E+00  0.00000000E+00  0.00000000E+00
  0.00000000E+00  0.00000000E+00  0.00000000E+00
  0.00000000E+00  0.00000000E+00  0.00000000E+00
  0.00000000E+00  0.00000000E+00  0.00000000E+00
  0.00000000E+00  0.00000000E+00  0.00000000E+00
  0.00000000E+00  0.00000000E+00  0.00000000E+00
  0.00000000E+00  0.00000000E+00  0.00000000E+00
  0.00000000E+00  0.00000000E+00  0.00000000E+00
  0.00000000E+00  0.00000000E+00  0.00000000E+00
  0.00000000E+00  0.00000000E+00  0.00000000E+00
  0.00000000E+00  0.00000000E+00  0.00000000E+00
  0.00000000E+00  0.00000000E+00  0.00000000E+00
  0.00000000E+00  0.00000000E+00  0.00000000E+00
  0.00000000E+00  0.00000000E+00  0.00000000E+00
  0.00000000E+00  0.00000000E+00  0.00000000E+00
  0.00000000E+00  0.00000000E+00  0.00000000E+00
  0.00000000E+00  0.00000000E+00  0.00000000E+00
  0.00000000E+00  0.00000000E+00  0.00000000E+00
  0.00000000E+00  0.00000000E+00  0.00000000E+00
  0.00000000E+00  0.00000000E+00  0.00000000E+00
  0.00000000E+00  0.00000000E+00  0.00000000E+00
  0.00000000E+00  0.00000000E+00  0.00000000E+00
  0.00000000E+00  0.00000000E+00  0.00000000E+00
  0.00000000E+00  0.00000000E+00  0.00000000E+00
  0.00000000E+00  0.00000000E+00  0.00000000E+00
  0.00000000E+00  0.00000000E+00  0.00000000E+00
  0.00000000E+00  0.00000000E+00  0.00000000E+00
  0.00000000E+00  0.00000000E+00  0.00000000E+00
  0.00000000E+00  0.00000000E+00  0.00000000E+00
  0.00000000E+00  0.00000000E+00  0.00000000E+00
  0.00000000E+00  0.00000000E+00  0.00000000E+00
  0.00000000E+00  0.00000000E+00  0.00000000E+00
  0.00000000E+00  0.00000000E+00  0.00000000E+00
  0.00000000E+00  0.00000000E+00  0.00000000E+00
  0.00000000E+00  0.00000000E+00  0.00000000E+00
  0.00000000E+00  0.00000000E+00  0.00000000E+00
  0.00000000E+00  0.00000000E+00  0.00000000E+00
  0.00000000E+00  0.00000000E+00  0.00000000E+00
  0.00000000E+00  0.00000000E+00  0.00000000E+00
  0.00000000E+00  0.00000000E+00  0.00000000E+00
  0.00000000E+00  0.00000000E+00  0.00000000E+00
  0.00000000E+00  0.00000000E+00  0.00000000E+00
  0.00000000E+00  0.00000000E+00  0.00000000E+00
  0.00000000E+00  0.00000000E+00  0.00000000E+00
  0.00000000E+00  0.00000000E+00  0.00000000E+00
  0.00000000E+00  0.00000000E+00  0.00000000E+00
  0.00000000E+00  0.00000000E+00  0.00000000E+00
  0.00000000E+00  0.00000000E+00  0.00000000E+00
  0.00000000E+00  0.00000000E+00  0.00000000E+00
  0.00000000E+00  0.00000000E+00  0.00000000E+00
  0.00000000E+00  0.00000000E+00  0.00000000E+00
  0.00000000E+00  0.00000000E+00  0.00000000E+00
  0.00000000E+00  0.00000000E+00  0.00000000E+00
  0.00000000E+00  0.00000000E+00  0.00000000E+00
  0.00000000E+00  0.00000000E+00  0.00000000E+00
  0.00000000E+00  0.00000000E+00  0.00000000E+00
  0.00000000E+00  0.00000000E+00  0.00000000E+00
  0.00000000E+00  0.00000000E+00  0.00000000E+00
  0.00000000E+00  0.00000000E+00  0.00000000E+00
  0.00000000E+00  0.00000000E+00  0.00000000E+00
  0.00000000E+00  0.00000000E+00  0.00000000E+00
  0.00000000E+00  0.00000000E+00  0.00000000E+00
  0.00000000E+00  0.00000000E+00  0.00000000E+00
  0.00000000E+00  0.00000000E+00  0.00000000E+00
  0.00000000E+00  0.00000000E+00  0.00000000E+00
  0.00000000E+00  0.00000000E+00  0.00000000E+00
  0.00000000E+00  0.00000000E+00  0.00000000E+00
  0.00000000E+00  0.00000000E+00  0.00000000E+00
  0.00000000E+00  0.00000000E+00  0.00000000E+00
  0.00000000E+00  0.00000000E+00  0.00000000E+00
  0.00000000E+00  0.00000000E+00  0.00000000E+00
  0.00000000E+00  0.00000000E+00  0.00000000E+00
  0.00000000E+00  0.00000000E+00  0.00000000E+00
  0.00000000E+00  0.00000000E+00  0.00000000E+00
  0.00000000E+00  0.00000000E+00  0.00000000E+00
  0.00000000E+00  0.00000000E+00  0.00000000E+00
  0.00000000E+00  0.00000000E+00  0.00000000E+00
  0.00000000E+00  0.00000000E+00  0.00000000E+00
  0.00000000E+00  0.00000000E+00  0.00000000E+00
  0.00000000E+00  0.00000000E+00  0.00000000E+00
  0.00000000E+00  0.00000000E+00  0.00000000E+00
  0.00000000E+00  0.00000000E+00  0.00000000E+00
  0.00000000E+00  0.00000000E+00  0.00000000E+00
  0.00000000E+00  0.00000000E+00  0.00000000E+00
  0.00000000E+00  0.00000000E+00  0.00000000E+00
  0.00000000E+00  0.00000000E+00  0.00000000E+00
  0.00000000E+00  0.00000000E+00  0.00000000E+00
  0.00000000E+00  0.00000000E+00  0.00000000E+00
  0.00000000E+00  0.00000000E+00  0.00000000E+00
  0.00000000E+00  0.00000000E+00  0.00000000E+00
  0.00000000E+00  0.00000000E+00  0.00000000E+00
  0.00000000E+00  0.00000000E+00  0.00000000E+00
  0.00000000E+00  0.00000000E+00  0.00000000E+00
  0.00000000E+00  0.00000000E+00  0.00000000E+00
  0.00000000E+00  0.00000000E+00  0.00000000E+00
  0.00000000E+00  0.00000000E+00  0.00000000E+00
  0.00000000E+00  0.00000000E+00  0.00000000E+00
  0.00000000E+00  0.00000000E+00  0.00000000E+00
  0.00000000E+00  0.00000000E+00  0.00000000E+00
  0.00000000E+00  0.00000000E+00  0.00000000E+00
  0.00000000E+00  0.00000000E+00  0.00000000E+00
  0.00000000E+00  0.00000000E+00  0.00000000E+00
  0.00000000E+00  0.00000000E+00  0.00000000E+00
  0.00000000E+00  0.00000000E+00  0.00000000E+00
  0.00000000E+00  0.00000000E+00  0.00000000E+00
  0.00000000E+00  0.00000000E+00  0.00000000E+00
  0.00000000E+00  0.00000000E+00  0.00000000E+00
  0.00000000E+00  0.00000000E+00  0.00000000E+00
  0.00000000E+00  0.00000000E+00  0.00000000E+00
  0.00000000E+00  0.00000000E+00  0.00000000E+00
  0.00000000E+00  0.00000000E+00  0.00000000E+00
  0.00000000E+00  0.00000000E+00  0.00000000E+00
  0.00000000E+00  0.00000000E+00  0.00000000E+00
  0.00000000E+00  0.00000000E+00  0.00000000E+00
  0.00000000E+00  0.00000000E+00  0.00000000E+00
  0.00000000E+00  0.00000000E+00  0.00000000E+00
  0.00000000E+00  0.00000000E+00  0.00000000E+00
  0.00000000E+00  0.00000000E+00  0.00000000E+00
  0.00000000E+00  0.00000000E+00  0.00000000E+00
  0.00000000E+00  0.00000000E+00  0.00000000E+00
  0.00000000E+00  0.00000000E+00  0.00000000E+00
  0.00000000E+00  0.00000000E+00  0.00000000E+00
  0.00000000E+00  0.00000000E+00  0.00000000E+00
  0.00000000E+00  0.00000000E+00  0.00000000E+00
  0.00000000E+00  0.00000000E+00  0.00000000E+00
  0.00000000E+00  0.00000000E+00  0.00000000E+00
  0.00000000E+00  0.00000000E+00  0.00000000E+00
  0.00000000E+00  0.00000000E+00  0.00000000E+00
  0.00000000E+00  0.00000000E+00  0.00000000E+00
  0.00000000E+00  0.00000000E+00  0.00000000E+00
  0.00000000E+00  0.00000000E+00  0.00000000E+00
  0.00000000E+00  0.00000000E+00  0.00000000E+00
  0.00000000E+00  0.00000000E+00  0.00000000E+00
  0.00000000E+00  0.00000000E+00  0.00000000E+00
  0.00000000E+00  0.00000000E+00  0.00000000E+00
  0.00000000E+00  0.00000000E+00  0.00000000E+00
  0.00000000E+00  0.00000000E+00  0.00000000E+00
  0.00000000E+00  0.00000000E+00  0.00000000E+00
  0.00000000E+00  0.00000000E+00  0.00000000E+00
  0.00000000E+00  0.00000000E+00  0.00000000E+00
  0.00000000E+00  0.00000000E+00  0.00000000E+00