Sb_48                                   
   1.00000000000000     
     8.7015342387989492    0.0137838225213036    0.0573384259412978
    -4.3388354169784922    7.5169096609958084   -0.0014548694270232
     0.1497003354706471    0.0818014359873460   22.4616644652678090
   Sb   Ge
    43     5
Direct
  0.0088586364970451  0.9918589905323943  0.1375915045535265
  0.3389521532786214  0.1653049963348838  0.2979711756102746
  0.1712572472553661  0.3394767050704666  0.9680281611239441
  0.0016785487781706  0.0017378209919599  0.3650486804217262
  0.3325384241610467  0.1672808341835992  0.0332246520646041
  0.1611299654948235  0.3322563514669171  0.1981885090722622
  0.4942961066886494  0.0093806601121246  0.1400763311620889
  0.8317070576504850  0.1677240935850852  0.3002241641618905
  0.6679955615688156  0.3325625188640737  0.9667917058204377
  0.4950451165474551 -0.0013373735136883  0.3686792323985729
  0.8289474945036446  0.1649821336228538  0.0357613529130176
 -0.0088344963764459  0.5068961793846740  0.1399515506344687
  0.3344200749732577  0.6710738371288626  0.3000899149606535
  0.1701480147760176  0.8318148798438819  0.9689844338351503
 -0.0007162776746035  0.4989878410356969  0.3664071471405755
  0.3312491040571818  0.6655780447525455  0.0378466015031031
  0.5102747020012314  0.4915943375696838  0.1385597480777033
  0.8394705769270765  0.6676714563143379  0.2984528401810846
  0.6625315879095562  0.8328240259714849  0.9680744904019565
  0.4947835006317892  0.4963009757610327  0.3652449539778888
  0.8275184610459982  0.6637296443769474  0.0332021212307421
  0.6642517769654680  0.8338812654186524  0.1981741131465904
  0.0028595342457865  0.9969190687874360  0.6314791580080369
  0.3423204640043059  0.1849554382416780  0.8029606426597408
 -0.0004464175687611 -0.0016032364552766  0.8655721230257959
  0.3254306025475233  0.1738200459962873  0.5275369333152861
  0.1668561398402726  0.3334981924689701  0.6960817873199846
  0.4992705079193740 -0.0002249286065563  0.6294924644082832
  0.8371836891650011  0.1682066771110503  0.7999657520163115
  0.6754478465446704  0.3482198585446933  0.4698819148094976
  0.4952795469689131 -0.0025732015421568  0.8645573213785195
  0.8468124089203419  0.1730125171972120  0.5274326753769979
  0.6646626740238540  0.3305483233647837  0.6969357199635549
  0.0027860435340100  0.5059679959150116  0.6314778385900990
  0.3432898797954045  0.6580903877913723  0.8025082222847307
  0.1546923097078150  0.8275583132801941  0.4701186200424571
  0.0002027121982566  0.5021800180633671  0.8647450478118456
  0.3263371480751506  0.6522810103688910  0.5272474398321121
  0.1665496349542246  0.8332408380043452  0.7005841875831346
  0.5090868820407398  0.5047833288741165  0.6299049555881007
  0.8173785530332859  0.6596251609370303  0.8033435879465062
  0.6763614710069655  0.8276104889657234  0.4691861319127552
  0.6646758803368802  0.8344908061467379  0.6969619473684193
  0.6662125187471652  0.3303752291013116  0.2007274421020164
  0.1631295227048161  0.8288273000343670  0.1998434711764400
  0.1709401649448012  0.3352221704467475  0.4645476223429598
  0.4959633726785192  0.4984141665072498  0.8680565228060527
  0.8292135519700184  0.6649737916469292  0.5322772339380974
 
  0.00000000E+00  0.00000000E+00  0.00000000E+00
  0.00000000E+00  0.00000000E+00  0.00000000E+00
  0.00000000E+00  0.00000000E+00  0.00000000E+00
  0.00000000E+00  0.00000000E+00  0.00000000E+00
  0.00000000E+00  0.00000000E+00  0.00000000E+00
  0.00000000E+00  0.00000000E+00  0.00000000E+00
  0.00000000E+00  0.00000000E+00  0.00000000E+00
  0.00000000E+00  0.00000000E+00  0.00000000E+00
  0.00000000E+00  0.00000000E+00  0.00000000E+00
  0.00000000E+00  0.00000000E+00  0.00000000E+00
  0.00000000E+00  0.00000000E+00  0.00000000E+00
  0.00000000E+00  0.00000000E+00  0.00000000E+00
  0.00000000E+00  0.00000000E+00  0.00000000E+00
  0.00000000E+00  0.00000000E+00  0.00000000E+00
  0.00000000E+00  0.00000000E+00  0.00000000E+00
  0.00000000E+00  0.00000000E+00  0.00000000E+00
  0.00000000E+00  0.00000000E+00  0.00000000E+00
  0.00000000E+00  0.00000000E+00  0.00000000E+00
  0.00000000E+00  0.00000000E+00  0.00000000E+00
  0.00000000E+00  0.00000000E+00  0.00000000E+00
  0.00000000E+00  0.00000000E+00  0.00000000E+00
  0.00000000E+00  0.00000000E+00  0.00000000E+00
  0.00000000E+00  0.00000000E+00  0.00000000E+00
  0.00000000E+00  0.00000000E+00  0.00000000E+00
  0.00000000E+00  0.00000000E+00  0.00000000E+00
  0.00000000E+00  0.00000000E+00  0.00000000E+00
  0.00000000E+00  0.00000000E+00  0.00000000E+00
  0.00000000E+00  0.00000000E+00  0.00000000E+00
  0.00000000E+00  0.00000000E+00  0.00000000E+00
  0.00000000E+00  0.00000000E+00  0.00000000E+00
  0.00000000E+00  0.00000000E+00  0.00000000E+00
  0.00000000E+00  0.00000000E+00  0.00000000E+00
  0.00000000E+00  0.00000000E+00  0.00000000E+00
  0.00000000E+00  0.00000000E+00  0.00000000E+00
  0.00000000E+00  0.00000000E+00  0.00000000E+00
  0.00000000E+00  0.00000000E+00  0.00000000E+00
  0.00000000E+00  0.00000000E+00  0.00000000E+00
  0.00000000E+00  0.00000000E+00  0.00000000E+00
  0.00000000E+00  0.00000000E+00  0.00000000E+00
  0.00000000E+00  0.00000000E+00  0.00000000E+00
  0.00000000E+00  0.00000000E+00  0.00000000E+00
  0.00000000E+00  0.00000000E+00  0.00000000E+00
  0.00000000E+00  0.00000000E+00  0.00000000E+00
  0.00000000E+00  0.00000000E+00  0.00000000E+00
  0.00000000E+00  0.00000000E+00  0.00000000E+00
  0.00000000E+00  0.00000000E+00  0.00000000E+00
  0.00000000E+00  0.00000000E+00  0.00000000E+00
  0.00000000E+00  0.00000000E+00  0.00000000E+00
