Ge4 Se4                                 
   1.00000000000000     
     3.9905693531000002    0.0000000000000000    0.0000000000000000
     0.0000000000000000    4.2487258911000003    0.0000000000000000
     0.0000000000000000    0.0000000000000000   11.6902418137000002
   Ge   Se
     4     4
Direct
  0.2500000000000000  0.5592806940000017  0.3598783019999985
  0.7500000000000000  0.0592807199999967  0.1401217129999992
  0.2500000000000000  0.9407193059999983  0.8598783019999985
  0.7500000000000000  0.4407192769999995  0.6401216980000015
  0.2500000000000000  0.5032701490000022  0.1427489220000027
  0.7500000000000000  0.0032701519999989  0.3572510779999973
  0.2500000000000000  0.9967298509999978  0.6427489519999980
  0.7500000000000000  0.4967298509999978  0.8572510480000020
 
  0.00000000E+00  0.00000000E+00  0.00000000E+00
  0.00000000E+00  0.00000000E+00  0.00000000E+00
  0.00000000E+00  0.00000000E+00  0.00000000E+00
  0.00000000E+00  0.00000000E+00  0.00000000E+00
  0.00000000E+00  0.00000000E+00  0.00000000E+00
  0.00000000E+00  0.00000000E+00  0.00000000E+00
  0.00000000E+00  0.00000000E+00  0.00000000E+00
  0.00000000E+00  0.00000000E+00  0.00000000E+00
