Ge Sb Te                                
   1.00000000000000     
    12.4576004700000009    0.0000000000000000    0.0000000000000000
     0.0000000000000000   12.4576004700000009    0.0000000000000000
     0.0000000000000000    0.0000000000000000   12.4576004700000009
   Ge   Sb   Te
    13    13    32
Direct
  0.8117589243338329  0.9463518081997619  0.2716825207949003
  0.4001197032407858  0.4988423854685650  0.2727458105482046
  0.1795836978750021  0.2885002506475487  0.0157594365455169
  0.8820365673195855  0.4053581219044494  0.3352331355091140
  0.0879387843513299  0.8615546538858183  0.2551046926609178
  0.6626381630999242  0.7297705020353138  0.5291699763476271
  0.2286669945045725  0.1348321926839114  0.2904385615336763
  0.2662104123572395  0.8031738801980735  0.9251100326567083
  0.9383544054005405  0.6080003866724855  0.3218224251913345
  0.5704027905273000  0.4200654378672035  0.7122084429120805
  0.2077421691115988  0.8291858582656633  0.7280202507353105
  0.9539607978885005  0.7738563025437010  0.9420775686211936
  0.6310697189886372  0.0548356995541437  0.6181568542379539
  0.3597803099354395  0.4723518944839233  0.4830006087359350
  0.9157038722129249  0.2355871987377059  0.0776027278391069
  0.2258393991081787  0.0787164621212153  0.0631750577081633
  0.7047247321905886  0.4942938169010868  0.4475485551664685
  0.6166563938074170  0.2870139787922607  0.8834830093370680
  0.8858910118285850  0.5722332273619700  0.8767117016562442
  0.0687599242947494  0.2127040501149663  0.5369326073702692
  0.2492499598476953  0.6076303478227824  0.1590988088521359
  0.6337128420511088  0.3916772512697981  0.1088449027370312
  0.5459186948617800  0.0772535960922990  0.4184510265478967
  0.2880858661435129  0.6285087917671653  0.7000385023066237
  0.2647137709623317  0.0557108852961435  0.8175990633504726
  0.2974719249267696  0.2677271557555645  0.7439147664787322
  0.0859956851134991  0.3227815284172079  0.8255986368306787
  0.5171977279369595  0.1124365836341609  0.7880689952131290
  0.6890457552019001  0.8706152587352730  0.6914067818373243
  0.2934542878634721  0.9395729577357531  0.3576416744037714
  0.8042069743694091  0.1755715734685496  0.6232734164271498
  0.0131507526822580  0.4289705243298784  0.5055734531054876
  0.2895866815626528  0.2277168329381127  0.4814696554300573
  0.7771552272512757  0.4141436162365980  0.6615552804369550
  0.5429476097881003  0.3377835409178838  0.4753504157770758
  0.5978370886199182  0.5766842849991277  0.2463015649425735
  0.6229844913909580  0.8696985605484906  0.3553954662381233
  0.1450823743326910  0.6621890493367198  0.3547276562993263
  0.8158160477698935  0.1781852816597707  0.8717614957033711
  0.0122996014913854  0.0070085436977927  0.0682949319210289
  0.0097854519069162  0.1446586014336513  0.3291846281939479
  0.9571930155695485  0.9220697007184672  0.4332662291288596
  0.1258240738007613  0.6384982595649114  0.9305823866835619
  0.8973235148882636  0.7099065221287628  0.5013702750556293
  0.0403236246748063  0.0855306597501809  0.7900586453825733
  0.8576793856013437  0.4743149055738082  0.0786691972946606
  0.2914669794345100  0.9688674627845231  0.5928425687623999
  0.4209484718098189  0.3061671632530089  0.1909861266365611
  0.7562164007040832  0.1711881099456856  0.3865640644123546
  0.6874251658085420  0.6106968804040017  0.7614367165528599
  0.4266880951258854  0.6810115257377224  0.8670541539014583
  0.3128164890678650  0.8559048417419444  0.1266469683984772
  0.8812259469592268  0.7525496968828256  0.1782076915609812
  0.1401873541947083  0.4002612979130342  0.1829845597663736
  0.4138795931436992  0.6967353674427520  0.5233636618789426
  0.7120357915792178  0.1749848127557698  0.1483036203883216
 -0.0009150612609248  0.8569755269157856  0.7308928765948192
  0.3723443715072840  0.3455927828684969  0.9509679577450985
 
  0.00000000E+00  0.00000000E+00  0.00000000E+00
  0.00000000E+00  0.00000000E+00  0.00000000E+00
  0.00000000E+00  0.00000000E+00  0.00000000E+00
  0.00000000E+00  0.00000000E+00  0.00000000E+00
  0.00000000E+00  0.00000000E+00  0.00000000E+00
  0.00000000E+00  0.00000000E+00  0.00000000E+00
  0.00000000E+00  0.00000000E+00  0.00000000E+00
  0.00000000E+00  0.00000000E+00  0.00000000E+00
  0.00000000E+00  0.00000000E+00  0.00000000E+00
  0.00000000E+00  0.00000000E+00  0.00000000E+00
  0.00000000E+00  0.00000000E+00  0.00000000E+00
  0.00000000E+00  0.00000000E+00  0.00000000E+00
  0.00000000E+00  0.00000000E+00  0.00000000E+00
  0.00000000E+00  0.00000000E+00  0.00000000E+00
  0.00000000E+00  0.00000000E+00  0.00000000E+00
  0.00000000E+00  0.00000000E+00  0.00000000E+00
  0.00000000E+00  0.00000000E+00  0.00000000E+00
  0.00000000E+00  0.00000000E+00  0.00000000E+00
  0.00000000E+00  0.00000000E+00  0.00000000E+00
  0.00000000E+00  0.00000000E+00  0.00000000E+00
  0.00000000E+00  0.00000000E+00  0.00000000E+00
  0.00000000E+00  0.00000000E+00  0.00000000E+00
  0.00000000E+00  0.00000000E+00  0.00000000E+00
  0.00000000E+00  0.00000000E+00  0.00000000E+00
  0.00000000E+00  0.00000000E+00  0.00000000E+00
  0.00000000E+00  0.00000000E+00  0.00000000E+00
  0.00000000E+00  0.00000000E+00  0.00000000E+00
  0.00000000E+00  0.00000000E+00  0.00000000E+00
  0.00000000E+00  0.00000000E+00  0.00000000E+00
  0.00000000E+00  0.00000000E+00  0.00000000E+00
  0.00000000E+00  0.00000000E+00  0.00000000E+00
  0.00000000E+00  0.00000000E+00  0.00000000E+00
  0.00000000E+00  0.00000000E+00  0.00000000E+00
  0.00000000E+00  0.00000000E+00  0.00000000E+00
  0.00000000E+00  0.00000000E+00  0.00000000E+00
  0.00000000E+00  0.00000000E+00  0.00000000E+00
  0.00000000E+00  0.00000000E+00  0.00000000E+00
  0.00000000E+00  0.00000000E+00  0.00000000E+00
  0.00000000E+00  0.00000000E+00  0.00000000E+00
  0.00000000E+00  0.00000000E+00  0.00000000E+00
  0.00000000E+00  0.00000000E+00  0.00000000E+00
  0.00000000E+00  0.00000000E+00  0.00000000E+00
  0.00000000E+00  0.00000000E+00  0.00000000E+00
  0.00000000E+00  0.00000000E+00  0.00000000E+00
  0.00000000E+00  0.00000000E+00  0.00000000E+00
  0.00000000E+00  0.00000000E+00  0.00000000E+00
  0.00000000E+00  0.00000000E+00  0.00000000E+00
  0.00000000E+00  0.00000000E+00  0.00000000E+00
  0.00000000E+00  0.00000000E+00  0.00000000E+00
  0.00000000E+00  0.00000000E+00  0.00000000E+00
  0.00000000E+00  0.00000000E+00  0.00000000E+00
  0.00000000E+00  0.00000000E+00  0.00000000E+00
  0.00000000E+00  0.00000000E+00  0.00000000E+00
  0.00000000E+00  0.00000000E+00  0.00000000E+00
  0.00000000E+00  0.00000000E+00  0.00000000E+00
  0.00000000E+00  0.00000000E+00  0.00000000E+00
  0.00000000E+00  0.00000000E+00  0.00000000E+00
  0.00000000E+00  0.00000000E+00  0.00000000E+00
