ge4 se4                                 
   1.00000000000000     
    13.4442290048423789    0.0000000000000000    0.0000000000000000
     0.0000000000000000    4.0102985933676241    0.0000000000000006
     0.0000000000000000    0.0000000000000003    4.2103996793032863
   Ge   Se
     4     4
Direct
  0.1609303721780080  0.2500000000000000  0.1010225535501590
  0.8390696378219928  0.7499999690000010  0.8989774334498435
  0.3390696378219928  0.7499999690000010  0.6010225135501557
  0.6609303621780072  0.2500000000000000  0.3989774334498435
  0.1516299712083509  0.7499999690000010  0.5184583846920177
  0.8483700187916483  0.2500000000000000  0.4815416153079823
  0.3483700187916483  0.2500000000000000  0.0184583846920177
  0.6516299392083553  0.7499999690000010  0.9815416083079853
 
  0.00000000E+00  0.00000000E+00  0.00000000E+00
  0.00000000E+00  0.00000000E+00  0.00000000E+00
  0.00000000E+00  0.00000000E+00  0.00000000E+00
  0.00000000E+00  0.00000000E+00  0.00000000E+00
  0.00000000E+00  0.00000000E+00  0.00000000E+00
  0.00000000E+00  0.00000000E+00  0.00000000E+00
  0.00000000E+00  0.00000000E+00  0.00000000E+00
  0.00000000E+00  0.00000000E+00  0.00000000E+00
