O  Ge Sb Te                             
   1.00000000000000     
    17.2841118201884314    0.0000000000000000    0.0000000000000000
     0.0000000000000000   17.2841118201884314    0.0000000000000000
     0.0000000000000000    0.0000000000000000   17.2841118201884314
   O    Ge   Sb   Te
     8    32    32    80
Direct
  0.2275387570749007  0.4185400229504411  0.3215084951444079
  0.6264154260756291  0.4326037879517198  0.5071611646127154
  0.9811614411724092  0.7584187607018237  0.3874358750067584
  0.9148649739399207  0.9097260891837604  0.4713363425857627
  0.2932296760547363  0.7424627857682157  0.3891783705764036
  0.9203146388735081  0.3365416167017956  0.7875295675516913
  0.5187756351540328  0.8652493751741824  0.5306442891550416
  0.1462600608756634  0.7095774633423602  0.3905329970868767
  0.6483823352762029  0.4264209964517648  0.4013183678937233
  0.6278806328775820  0.2958315378005096  0.3243239828639091
  0.8045262795515410  0.9685228652072978  0.1308534647784560
  0.5742600183993436  0.5305771389930110  0.3222205765426515
  0.5746645406502008  0.4734059911874187  0.6039527373235377
  0.9955576078695223  0.2875182436794196  0.8512186172763175
  0.6235403556920719  0.7669686414019419  0.8428745608392146
  0.7782320077847229  0.1739100773037432  0.5432639599882081
  0.5154220277453824  0.7612435857264296  0.5916683590404361
  0.6588930096195760  0.7533419946227630  0.2607696159106339
  0.5678443857818833  0.6250293812868619  0.8192268368863376
  0.4032551832550249  0.6851687409951559  0.2201182200640328
  0.7583503433738965  0.8659348644363538  0.5707473624467093
  0.8545735555470337  0.9718300212207388  0.4078219737613673
  0.9297608026537479  0.0728221272714232  0.9917746971886398
  0.5499787729805617  0.8792593577031651  0.4225280660789389
  0.9842670721830420  0.8308653657629237  0.4844906347767849
  0.2961573319375440  0.9866898342770433  0.0674877297585540
  0.4842127803304391  0.4533628218819275  0.9315222394349054
  0.0224459216805362  0.1824493846456082  0.1810741412976489
  0.7164318081533322  0.4050235076169721  0.5832747093505778
  0.5089138670027867  0.2916067677468009  0.1764171880026261
  0.2300786287916927  0.7077186513054464  0.4723604810557915
  0.5760212043742317  0.3754104595944350  0.8403618684610835
  0.2319366916551789  0.7864405637749086  0.7949309722463163
  0.0432841985832720  0.6825241420793625  0.4398397130150340
  0.7811630560707788  0.4829163341642056  0.3917924804349193
  0.9491377590405314  0.7191552467927040  0.2891761580763352
  0.2067023451715517  0.7411773769315376  0.3004982162574631
  0.9730107157941091  0.3903484318881393  0.7013143945478553
  0.3744429726115931  0.7141925543465197  0.7386472573966750
  0.8830781678909418  0.3792597379683958  0.3639060648054828
  0.2569495053777265  0.1100790742390484  0.2350705592901673
  0.6570138566264186  0.1015735544842933  0.6999216740918899
  0.2492670508799822  0.5989979701085266  0.2389927118102622
  0.6911718624236004  0.5742184262502127  0.0281566146257911
  0.3149256627927494  0.1085340041931782  0.6009573260220917
  0.1500815668977789  0.9819526717738122  0.9060922753877577
  0.2106305605865994  0.1042589471705959  0.4774866607283677
  0.3985278492279414  0.7830473553348550  0.3546897841414942
  0.1706138619437924  0.5136993582359473  0.3655066862147147
  0.2367002031597103  0.8088324969692826  0.0573604539316225
  0.1839453179277221  0.9078061176606887  0.5995813486161253
  0.7947157923814994  0.3023290436885553  0.7423796185990136
  0.8718403014777838  0.1165429675823585  0.1521364118637820
  0.6703861161530893  0.0083323808286157  0.4443743056002626
  0.1278175473764981  0.7031546140726187  0.9994605723053451
  0.7482700035452063  0.6833987966459751  0.4876831267416779
  0.4563782589969289  0.2504192139497723  0.7106663677392195
  0.9456952660977659  0.0179498252030290  0.6558229798760123
  0.7766919705151609  0.2414940835572720  0.8952997668047071
  0.2568940204027294  0.1353636097548084  0.0392602920262988
  0.2953992150709509  0.8671118422538109  0.2519694506797133
  0.5692067726615447  0.1366939899357870  0.2665410194078568
  0.9545235272129591  0.2993276569256289  0.0986912928765184
  0.6266214689715395  0.9616584316491065  0.0552085663854077
  0.7634497078862789  0.2587810891666092  0.1702665290512410
  0.4426319220580245  0.9499937893674544  0.5724597829494094
  0.2739007738537066  0.3245912749656841  0.3700120536838651
  0.4931071771664966  0.0428498746244143  0.4190572856830319
  0.8938078820201444  0.8668670000610037  0.8068762702375006
  0.3166036144856189  0.3293803821610270  0.9886303993620660
  0.8165200092106302  0.5093004124510973  0.1922770049829522
  0.9261318423035184  0.6323773301393678  0.8508735466629876
  0.3422156728892587  0.8115029989630275  0.9132449887714396
  0.3259271842130870  0.9739993524477227  0.9071364449829334
  0.2310038233813504  0.0139504941035524  0.7077977449999695
  0.9955984376866830  0.8622424905918642  0.6770244088878072
  0.6759947038103042  0.1235031528070022  0.8582815905226752
  0.4315962067687095  0.4045990430546611  0.0815231450297918
  0.0666323968744164  0.0113544033559838  0.5308467583865767
  0.6607202801021825  0.5084941270111288  0.7803450479465882
  0.7058542915251806  0.8256729737630430  0.3897562128401008
  0.7932810543192438  0.0029936509037432  0.9319097664390433
  0.0855253710280353  0.7754465083539549  0.1953918932418915
  0.2941410901193894  0.5614175596525897  0.4761271679956572
  0.9862763749046120  0.0584816330202872  0.8230201761729925
  0.9109361619793703  0.9203946226927776  0.0251332253663599
  0.5458128182631262  0.6550539737523778  0.4106069839489053
  0.7904381323222330  0.9493817608356578  0.7055692627347321
  0.7834201078880701  0.6250443990473701  0.3130553195056951
  0.5898178635638176  0.1488806477772907  0.4835973291248467
  0.0929745936134189  0.1274119593263123  0.0464791281187619
  0.8281157798306917  0.3083233378575155  0.5118483773031374
  0.3499141136970913  0.7694066687017089  0.5884187978695575
  0.6445465527485871  0.7248595487819816  0.0122404557029301
  0.4355606018960768  0.5681027545665733  0.7333585025776489
  0.4572560806721029  0.3240966085735538  0.3286694891784925
  0.7746560711427826  0.5232842382223238  0.8909238468652442
  0.8636312967823506  0.8692385280077185  0.2457589874020757
  0.1406640972976186  0.9472397944988205  0.0655855698392494
  0.0675046083636578  0.3514050547704074  0.4436664855791895
  0.9434250837258403  0.5337775923791478  0.9881989739287922
  0.4385002191981460  0.2714734466321603  0.5419295837569065
  0.1152212376270669  0.3814810735904761  0.7783283849468168
  0.7512504658165537  0.7941009029073636  0.1272746688723523
  0.5591320032070928  0.8857458551961173  0.9302678246399723
  0.0963504474937114  0.8308339055896290  0.8788312689602438
  0.8223533018256665  0.1515544636464813  0.6946331809084715
  0.0305713151999445  0.9214998834906880  0.2304689770013518
  0.7861841692192213  0.2508118829800778  0.3299958359568093
  0.5161754309655748  0.0749827865823638  0.0123835815941133
  0.0591776056464143  0.4836638065901592  0.5368179236496260
  0.5250836537286222  0.5974828986843679  0.9660798959829612
  0.2088599679844225  0.6441634212850568  0.8755272223199226
  0.2823438040734493  0.2393888647202068  0.6912344565783363
  0.9058209638822161  0.1084891890868021  0.4888043872671576
  0.0721793776253412  0.6163522964591647  0.7755879096255257
  0.3506990770307216  0.1483188443504227  0.3716660493832858
  0.9908266263674443  0.5674685751505122  0.3465360962666221
  0.9294206806259890  0.0988314159568094  0.3064296827044852
  0.0819700314849168  0.1751659005920294  0.7799051260044572
  0.4888610184546543  0.8109891719098864  0.7461926036045778
  0.1590953637296770  0.2326945935555341  0.2834167028045522
  0.6389179963556670  0.1598401732553922  0.1244374010756045
  0.6580225167152723  0.3313069486237453  0.9601221651886936
  0.1284193206657016  0.5825639435952740  0.1452446346443705
  0.8708151081116295  0.7537481896088639  0.5705122816728788
  0.8456111487834477  0.6401330440503308  0.0627835171623841
  0.2972674795892287  0.9548977601611156  0.4744181701762794
  0.4242110409980536  0.0990372619763144  0.1391387296443347
  0.2513732730752151  0.1665858905496440  0.8667948840538092
  0.0863192983162232  0.4713132363989609  0.9167307525760690
  0.7844893066919369  0.7524578832800682  0.8030351766144893
  0.0965596196355551  0.3355402751026588  0.0043884129714902
  0.1922192819635555  0.5118545348699584  0.6017993533531342
  0.4921864126770229  0.6037554535974814  0.5517917757087395
  0.6375855971826256  0.3853597630087269  0.1971799251409590
  0.6727443721876158  0.7357176925911846  0.6317267719049945
  0.9204859786375541  0.5423461235169231  0.7179490190364631
  0.4218013498702340  0.4827354550513310  0.3212153026712588
  0.4286599154808008  0.4112023657886087  0.6138504449896740
  0.5635437210920888  0.6264095155555059  0.1916874360619013
  0.3356590155131763  0.4679574318389041  0.9022217654865096
  0.8110950173468068  0.5249011048801248  0.5373254943265745
  0.4202689875381326  0.8107243000692453  0.1241186973318187
  0.1698042111189070  0.9807558332365256  0.3031008191468949
  0.1909516578822109  0.2885947288006888  0.5264609336701003
  0.5648280703794554  0.8921294077950572  0.1945465551790716
  0.4892693305492382  0.0858478071153717  0.7326709278256351
  0.4103789705615177  0.2227043331528346  0.8999322039433756
  0.7006791339556628  0.0468383069629939  0.2855558098491489
  0.6413183141219623  0.2631232318761153  0.6644365316082866
  0.9552792981676543  0.4224435070427632  0.2113996335224131
 
 -0.38223040E-02 -0.33795866E-03  0.51385018E-02
  0.26439899E-02  0.33351348E-02  0.47313617E-03
  0.47911438E-02  0.21546153E-02  0.41090917E-02
 -0.62488359E-02 -0.46767029E-02 -0.41137446E-02
 -0.47915254E-02 -0.69242338E-02  0.61153978E-02
  0.31777489E-02  0.81169476E-03  0.10057204E-02
  0.82366471E-02  0.28303953E-02  0.40622652E-02
  0.43677697E-02 -0.13065689E-02 -0.78859384E-03
  0.42179261E-02  0.23516710E-03 -0.86690023E-03
 -0.23662946E-02  0.17950634E-02 -0.22692464E-02
 -0.68273902E-03  0.11167434E-02 -0.77022771E-03
 -0.15533793E-02  0.16563664E-02  0.84334946E-03
  0.15508527E-03  0.15833707E-03  0.11210158E-02
  0.73178116E-03  0.68047693E-03  0.29345643E-02
 -0.30554897E-02 -0.39272404E-02  0.47540313E-03
 -0.16220573E-02  0.12819477E-02 -0.13549741E-02
  0.46211053E-03 -0.11224682E-02  0.49927447E-02
 -0.15342478E-02  0.21504898E-03  0.16894721E-03
  0.13106646E-02 -0.74046678E-03  0.58860184E-03
 -0.23722645E-02  0.19791019E-02  0.15702491E-02
  0.11849599E-02 -0.23483203E-03 -0.16358814E-02
  0.13292406E-02  0.19747435E-02 -0.35869720E-02
 -0.10528604E-02 -0.19108255E-02 -0.20556915E-02
 -0.16020209E-02 -0.71473794E-03 -0.17883616E-02
 -0.98521501E-03 -0.12279304E-02 -0.20164330E-03
  0.23329064E-02  0.13375948E-02  0.99123580E-03
  0.11195446E-03 -0.10326026E-02 -0.80115860E-03
  0.17606853E-02  0.95622553E-03 -0.29697679E-02
  0.19844848E-02  0.57541229E-02 -0.79848237E-03
 -0.84765967E-04  0.12941866E-02  0.44427152E-03
 -0.20671202E-02  0.30045525E-02 -0.13693855E-02
  0.10529533E-02  0.74817826E-03 -0.28335175E-02
 -0.45825558E-03 -0.12819298E-02  0.22680919E-02
 -0.11924677E-02 -0.99800047E-03 -0.13015608E-02
 -0.30322100E-03  0.37571918E-03 -0.22991003E-02
 -0.21291460E-02 -0.23917170E-02  0.77003257E-03
 -0.28762862E-03  0.20229078E-02  0.19960021E-02
  0.88640440E-03 -0.96053029E-03 -0.11538932E-02
  0.18619897E-02 -0.13775002E-02 -0.24158714E-02
 -0.56929458E-04 -0.11596697E-03  0.36144778E-02
  0.39475634E-03 -0.19540099E-02  0.14906565E-02
 -0.74294689E-03 -0.76589278E-03  0.10336805E-02
  0.55765980E-03  0.11563071E-02 -0.52881626E-03
  0.25268864E-02 -0.37539098E-02  0.43234288E-03
  0.26329335E-03  0.20748914E-02  0.15672200E-03
 -0.18445581E-02 -0.78696852E-03 -0.11570564E-02
  0.99487059E-03  0.89506383E-04 -0.57298510E-03
 -0.30751741E-03 -0.34493512E-03 -0.17263130E-02
  0.11220331E-02  0.72579303E-03  0.26174036E-02
  0.40983215E-03 -0.81381914E-03  0.12929303E-02
 -0.76946129E-03  0.13403826E-02 -0.24862490E-02
  0.11954056E-02  0.42745961E-03  0.83538876E-03
 -0.18448917E-02 -0.93378221E-03 -0.42486777E-03
 -0.40490193E-03 -0.17829437E-02 -0.32322412E-02
 -0.94093945E-04 -0.56302210E-03 -0.17677566E-02
 -0.17424060E-02  0.15538462E-02  0.48783252E-03
  0.27006399E-03 -0.58052574E-03  0.80077349E-03
  0.10077116E-03  0.11699687E-02 -0.55268022E-03
  0.11414673E-02  0.15871312E-03  0.23592717E-02
 -0.80356680E-03 -0.25839557E-03  0.22031254E-02
 -0.18925325E-02  0.16167840E-02 -0.12839903E-03
  0.32810712E-03 -0.21692401E-02 -0.34465749E-03
 -0.27206219E-02  0.13066341E-02  0.23515814E-03
 -0.46072201E-03  0.22236577E-04 -0.92048427E-03
  0.12825058E-02 -0.69025989E-03  0.12287893E-02
 -0.19123288E-02  0.72597037E-03 -0.28248395E-02
  0.22811382E-02  0.30179573E-02 -0.14683173E-02
  0.21466215E-02  0.12254387E-02  0.21430332E-03
 -0.71507412E-03 -0.85538125E-04 -0.12232196E-02
 -0.12222022E-02  0.40865608E-03 -0.13971020E-03
 -0.10968789E-02 -0.32458554E-03  0.15144844E-02
  0.31643305E-03  0.20672700E-03  0.95088830E-03
 -0.10292485E-02  0.13093903E-02  0.18354775E-02
 -0.51663055E-03 -0.19238953E-02  0.18823015E-03
  0.15168959E-03 -0.60815514E-04 -0.12613878E-03
 -0.60135520E-03 -0.72612417E-03  0.12599884E-02
 -0.31305720E-02  0.15273170E-03 -0.13197664E-02
  0.24046935E-02 -0.29492087E-03 -0.11397373E-02
  0.11195181E-02 -0.45451397E-03  0.22972196E-02
  0.33618101E-03 -0.50071559E-03  0.55388857E-03
  0.15673096E-02 -0.34759904E-03  0.15696723E-02
 -0.19511159E-03  0.30916670E-03  0.24135022E-02
  0.10104994E-02 -0.87315493E-03 -0.18588798E-03
 -0.61191151E-03 -0.11099591E-02  0.74243871E-03
  0.17073046E-02 -0.22356514E-02 -0.20379528E-02
 -0.51111374E-04  0.79828249E-03 -0.10180170E-02
  0.54980222E-03 -0.13297431E-03  0.28234085E-03
 -0.15516304E-02 -0.15434805E-02  0.70496719E-03
 -0.94020913E-03 -0.29807273E-02 -0.56698324E-04
  0.10294707E-05 -0.50927900E-03 -0.44536620E-03
  0.15433897E-02  0.45998733E-03 -0.19456953E-02
 -0.77789278E-03 -0.64299216E-03  0.23017545E-02
 -0.74200475E-03 -0.45100611E-03  0.28944889E-02
  0.29558900E-02 -0.28227458E-03 -0.14399641E-02
 -0.31453523E-03  0.90422004E-03 -0.10131701E-02
 -0.74771408E-03 -0.17628887E-03  0.65649190E-03
  0.49799441E-03 -0.37324160E-02 -0.13216472E-03
  0.25099211E-03  0.23268243E-02 -0.20604620E-02
 -0.93127397E-04  0.19447137E-03  0.14402757E-02
  0.21151502E-02  0.17566233E-02  0.23735856E-03
  0.16107242E-02 -0.48941635E-03 -0.19415206E-02
 -0.20071070E-03  0.18504218E-02  0.44324448E-03
 -0.29449950E-03  0.14733350E-02 -0.18481308E-03
  0.12838788E-02  0.28810165E-03  0.25194170E-02
  0.34156774E-02  0.18925985E-02 -0.14690630E-02
 -0.17149873E-03  0.14184670E-02 -0.98586574E-04
 -0.30694614E-03  0.21569905E-02  0.34289313E-03
 -0.66257450E-03 -0.44402565E-03  0.98445337E-03
  0.16813456E-02 -0.34690709E-03  0.11447850E-02
  0.65347371E-03 -0.23888906E-02  0.98170864E-03
 -0.14374473E-02  0.10838280E-03 -0.28756185E-02
  0.29581391E-03  0.18715755E-02 -0.86829705E-03
  0.26604511E-02  0.72724467E-03 -0.13309165E-02
  0.80995734E-03 -0.17585541E-02  0.10413746E-02
  0.11287177E-02  0.20699734E-02 -0.18398265E-03
  0.19127395E-02 -0.15324857E-02 -0.68429111E-03
 -0.74217591E-04  0.20929505E-03 -0.40209260E-03
 -0.73100371E-03  0.21688562E-02 -0.75018243E-03
  0.13603278E-02  0.46538151E-04  0.41062153E-03
 -0.65227773E-05  0.27835424E-02 -0.44688056E-03
  0.17494376E-02 -0.91687449E-03  0.10781005E-02
  0.22662806E-02 -0.23190708E-03  0.66633551E-03
 -0.16636127E-02 -0.36389372E-03 -0.16259954E-02
 -0.19519145E-02  0.69047879E-04  0.29332226E-02
  0.90022710E-03  0.45529498E-03 -0.28198528E-02
 -0.47878590E-04  0.61950073E-04  0.38279074E-03
 -0.13258762E-02 -0.28789114E-02  0.27720731E-03
 -0.21288744E-02  0.18663523E-02  0.91326093E-03
 -0.25197680E-02  0.15172927E-02  0.29003592E-02
  0.10892021E-02 -0.75445632E-03  0.22372724E-03
  0.84447482E-03  0.23399433E-03  0.29514353E-03
 -0.43334481E-03  0.18599527E-02  0.13262516E-03
  0.21635663E-02  0.74013988E-03 -0.11199267E-02
  0.84304187E-03 -0.13201546E-03  0.31199016E-02
 -0.20668073E-02  0.75623938E-03 -0.14252551E-02
 -0.21424440E-03 -0.12625891E-02 -0.16658054E-02
 -0.21948433E-02 -0.17129375E-02 -0.15370955E-02
 -0.60686629E-04  0.13343201E-02 -0.29585661E-03
 -0.10397434E-02  0.18031350E-02  0.86260406E-03
 -0.16992962E-02  0.18161000E-04 -0.19444456E-02
 -0.21434804E-02 -0.10724788E-02  0.14157871E-02
 -0.82727141E-03 -0.10353821E-02 -0.25398115E-02
 -0.29113295E-03 -0.68079293E-04 -0.20081076E-03
  0.36223625E-03  0.79344345E-03 -0.38629619E-02
 -0.41403493E-03 -0.25621258E-02 -0.29915709E-03
  0.67676231E-03  0.45209064E-03  0.18571798E-02
 -0.20643884E-02 -0.44879678E-02  0.24615425E-02
 -0.42018513E-03 -0.40056698E-03 -0.61690790E-03
 -0.28624590E-04 -0.76267664E-03  0.53086098E-03
 -0.89990225E-03 -0.16237583E-02 -0.21011563E-02
 -0.70781843E-03  0.80307860E-03  0.19776444E-02
  0.74824555E-03  0.46044860E-03  0.87838216E-03
 
           1
   3.00000000000000     
  0.10000000E+01  0.00000000E+00  0.00000000E+00  0.00000000E+00
  0.22688291E+00  0.41848203E+00  0.32239018E+00
  0.62686909E+00  0.43317604E+00  0.50724235E+00
  0.98198353E+00  0.75878846E+00  0.38814093E+00
  0.91379277E+00  0.90892364E+00  0.47063049E+00
  0.29240753E+00  0.74127470E+00  0.39022768E+00
  0.92085989E+00  0.33668089E+00  0.78770213E+00
  0.52018891E+00  0.86573503E+00  0.53134131E+00
  0.14700950E+00  0.70935328E+00  0.39039769E+00
  0.64910607E+00  0.42646135E+00  0.40116962E+00
  0.62747461E+00  0.29613954E+00  0.32393462E+00
  0.80440913E+00  0.96871448E+00  0.13072131E+00
  0.57399348E+00  0.53086135E+00  0.32236528E+00
  0.57469115E+00  0.47343316E+00  0.60414509E+00
  0.99568317E+00  0.28763500E+00  0.85172214E+00
  0.62301608E+00  0.76629479E+00  0.84295613E+00
  0.77795369E+00  0.17413004E+00  0.54303147E+00
  0.51550132E+00  0.76105099E+00  0.59252504E+00
  0.65862976E+00  0.75337889E+00  0.26079860E+00
  0.56806928E+00  0.62490233E+00  0.81932783E+00
  0.40284814E+00  0.68550832E+00  0.22038765E+00
  0.75855366E+00  0.86589457E+00  0.57046667E+00
  0.85480163E+00  0.97216886E+00  0.40720651E+00
  0.92958015E+00  0.72494260E-01  0.99142197E+00
  0.54970389E+00  0.87913672E+00  0.42222121E+00
  0.98409802E+00  0.83065467E+00  0.48445604E+00
  0.29655762E+00  0.98691934E+00  0.67657810E-01
  0.48423199E+00  0.45318564E+00  0.93138477E+00
  0.22748028E-01  0.18261346E+00  0.18056458E+00
  0.71677231E+00  0.40601083E+00  0.58313770E+00
  0.50889932E+00  0.29182883E+00  0.17649342E+00
  0.22972394E+00  0.70823419E+00  0.47212552E+00
  0.57620187E+00  0.37553884E+00  0.83987568E+00
  0.23185806E+00  0.78622060E+00  0.79532014E+00
  0.43079590E-01  0.68235290E+00  0.43961639E+00
  0.78111103E+00  0.48298080E+00  0.39139799E+00
  0.94877243E+00  0.71874487E+00  0.28930828E+00
  0.20665299E+00  0.74152448E+00  0.30084070E+00
  0.97316281E+00  0.39018362E+00  0.70111640E+00
  0.37476246E+00  0.71395620E+00  0.73823273E+00
  0.88306840E+00  0.37923984E+00  0.36452625E+00
  0.25701724E+00  0.10974380E+00  0.23532633E+00
  0.65688638E+00  0.10144214E+00  0.70009904E+00
  0.24936274E+00  0.59919637E+00  0.23890198E+00
  0.69160544E+00  0.57357431E+00  0.28230798E-01
  0.31497084E+00  0.10889002E+00  0.60098422E+00
  0.14976507E+00  0.98181764E+00  0.90589374E+00
  0.21080126E+00  0.10427431E+00  0.47738835E+00
  0.39847508E+00  0.78298817E+00  0.35439358E+00
  0.17080639E+00  0.51382389E+00  0.36595579E+00
  0.23677052E+00  0.80869286E+00  0.57582301E-01
  0.18381329E+00  0.90803611E+00  0.59915475E+00
  0.79492091E+00  0.30240239E+00  0.74252296E+00
  0.87152375E+00  0.11638275E+00  0.15206351E+00
  0.67031664E+00  0.80264556E-02  0.44381970E+00
  0.12780140E+00  0.70305801E+00  0.99915725E+00
  0.74797103E+00  0.68366541E+00  0.48776683E+00
  0.45642460E+00  0.25031960E+00  0.71080377E+00
  0.94571256E+00  0.18150574E-01  0.65572815E+00
  0.77688783E+00  0.24152132E+00  0.89570458E+00
  0.25675614E+00  0.13531927E+00  0.39638314E-01
  0.29507449E+00  0.86738926E+00  0.25194742E+00
  0.56926307E+00  0.13632178E+00  0.26648188E+00
  0.95405671E+00  0.29955185E+00  0.98731642E-01
  0.62654242E+00  0.96166225E+00  0.55050626E-01
  0.76366977E+00  0.25866265E+00  0.17047737E+00
  0.44230380E+00  0.95011835E+00  0.57197508E+00
  0.27429218E+00  0.32510911E+00  0.36976011E+00
  0.49347550E+00  0.43060141E-01  0.41909406E+00
  0.89368519E+00  0.86685232E+00  0.80666638E+00
  0.31639390E+00  0.32945050E+00  0.98860643E+00
  0.81633180E+00  0.50924472E+00  0.19253687E+00
  0.92618614E+00  0.63241280E+00  0.85103670E+00
  0.34203907E+00  0.81172767E+00  0.91355993E+00
  0.32583854E+00  0.97366924E+00  0.90716874E+00
  0.23102985E+00  0.13940059E-01  0.70777610E+00
  0.99549525E+00  0.86211790E+00  0.67724060E+00
  0.67545755E+00  0.12352936E+00  0.85805514E+00
  0.43200881E+00  0.40454844E+00  0.81327584E-01
  0.66824489E-01  0.11276416E-01  0.53124093E+00
  0.66077796E+00  0.50840821E+00  0.78044009E+00
  0.70612322E+00  0.82561333E+00  0.39002554E+00
  0.79324758E+00  0.30466991E-02  0.93232389E+00
  0.85698757E-01  0.77529669E+00  0.19536000E+00
  0.29403610E+00  0.56122711E+00  0.47625456E+00
  0.98656932E+00  0.58098030E-01  0.82267050E+00
  0.91092739E+00  0.92053160E+00  0.24958550E-01
  0.54590716E+00  0.65503116E+00  0.41065543E+00
  0.79017190E+00  0.94911692E+00  0.70569022E+00
  0.78325878E+00  0.62453295E+00  0.31304559E+00
  0.58981804E+00  0.14879326E+00  0.48352091E+00
  0.93239415E-01  0.12749089E+00  0.46145277E-01
  0.82798231E+00  0.30821301E+00  0.51224332E+00
  0.34978680E+00  0.76932928E+00  0.58891545E+00
  0.64505374E+00  0.72481111E+00  0.11993380E-01
  0.43550663E+00  0.56825790E+00  0.73318466E+00
  0.45712778E+00  0.32406636E+00  0.32878213E+00
  0.77474152E+00  0.52264381E+00  0.89090117E+00
  0.86367436E+00  0.86963777E+00  0.24540544E+00
  0.14064812E+00  0.94727316E+00  0.65832699E-01
  0.67867535E-01  0.35170646E+00  0.44370721E+00
  0.94370146E+00  0.53369362E+00  0.98786584E+00
  0.43846578E+00  0.27179095E+00  0.54200564E+00
  0.11517071E+00  0.38173387E+00  0.77829667E+00
  0.75147076E+00  0.79415034E+00  0.12770696E+00
  0.55971808E+00  0.88607060E+00  0.93001576E+00
  0.96321021E-01  0.83107729E+00  0.87881435E+00
  0.82230063E+00  0.15192457E+00  0.69469202E+00
  0.30457628E-01  0.92142370E+00  0.23063789E+00
  0.78647266E+00  0.25075236E+00  0.33019226E+00
  0.51628756E+00  0.74572890E-01  0.12552027E-01
  0.58930962E-01  0.48368240E+00  0.53632451E+00
  0.52513441E+00  0.59780403E+00  0.96593091E+00
  0.20931646E+00  0.64428821E+00  0.87529886E+00
  0.28248278E+00  0.23908712E+00  0.69141314E+00
  0.90601463E+00  0.10884436E+00  0.48877282E+00
  0.72507574E-01  0.61608935E+00  0.77547050E+00
  0.35068634E+00  0.14835476E+00  0.37159706E+00
  0.99070120E+00  0.56784072E+00  0.34640738E+00
  0.92965409E+00  0.98839401E-01  0.30650014E+00
  0.81968912E-01  0.17564351E+00  0.77982845E+00
  0.48916119E+00  0.81083185E+00  0.74637759E+00
  0.15948422E+00  0.23265480E+00  0.28353104E+00
  0.63863255E+00  0.15977773E+00  0.12415841E+00
  0.65768760E+00  0.33131880E+00  0.96062546E+00
  0.12857379E+00  0.58264207E+00  0.14476079E+00
  0.87080689E+00  0.75375882E+00  0.57057796E+00
  0.84538365E+00  0.63963907E+00  0.62831082E-01
  0.29690220E+00  0.95521800E+00  0.47457487E+00
  0.42377869E+00  0.99297606E-01  0.13963639E+00
  0.25156016E+00  0.16645644E+00  0.86683327E+00
  0.86464197E-01  0.47135339E+00  0.91678139E+00
  0.78441495E+00  0.75277702E+00  0.80305793E+00
  0.96930854E-01  0.33566727E+00  0.41962511E-02
  0.19236393E+00  0.51183188E+00  0.60233468E+00
  0.49183178E+00  0.60388521E+00  0.55154722E+00
  0.63754884E+00  0.38514312E+00  0.19689410E+00
  0.67236777E+00  0.73542378E+00  0.63146303E+00
  0.92047557E+00  0.54257507E+00  0.71789825E+00
  0.42162295E+00  0.48304484E+00  0.32136331E+00
  0.42836834E+00  0.41120548E+00  0.61351681E+00
  0.56317593E+00  0.62622549E+00  0.19193036E+00
  0.33551707E+00  0.46777978E+00  0.90178597E+00
  0.81104506E+00  0.52488942E+00  0.53729104E+00
  0.42033114E+00  0.81086044E+00  0.12345587E+00
  0.16973317E+00  0.98031621E+00  0.30304949E+00
  0.19106778E+00  0.28867230E+00  0.52677960E+00
  0.56447385E+00  0.89135934E+00  0.19496892E+00
  0.48919723E+00  0.85779076E-01  0.73256508E+00
  0.41037406E+00  0.22257347E+00  0.90002329E+00
  0.70052472E+00  0.46559695E-01  0.28519528E+00
  0.64119686E+00  0.26326103E+00  0.66477586E+00
  0.95540769E+00  0.42252251E+00  0.21155035E+00
 -0.61497403E-03 -0.10730377E-03  0.81363422E-03
  0.40087333E-03  0.59642648E-03  0.17099692E-04
  0.84743240E-03  0.36166657E-03  0.74671610E-03
 -0.10123044E-02 -0.84189473E-03 -0.59033366E-03
 -0.74670784E-03 -0.11575183E-02  0.10581848E-02
  0.52414563E-03  0.14456250E-03  0.28388634E-03
  0.13861542E-02  0.49382388E-03  0.73137278E-03
  0.68975841E-03 -0.25583278E-03 -0.12107435E-03
  0.73370441E-03  0.45030735E-04 -0.14232814E-03
 -0.40871600E-03  0.30297179E-03 -0.40123386E-03
 -0.11612451E-03  0.20170834E-03 -0.13528430E-03
 -0.23449401E-03  0.28251728E-03  0.15700248E-03
  0.32829664E-04  0.18581017E-04  0.19927976E-03
  0.11928793E-03  0.10509765E-03  0.49431047E-03
 -0.52975431E-03 -0.68979231E-03  0.73519191E-04
 -0.24616404E-03  0.24692451E-03 -0.23332563E-03
  0.79947131E-04 -0.20827499E-03  0.84510533E-03
 -0.25461021E-03  0.46088980E-04  0.65889763E-04
  0.25292487E-03 -0.12623104E-03  0.10930378E-03
 -0.42620578E-03  0.33719622E-03  0.27278162E-03
  0.20431795E-03 -0.27566983E-04 -0.28462414E-03
  0.21721886E-03  0.34484177E-03 -0.62327529E-03
 -0.16869416E-03 -0.32787993E-03 -0.34923472E-03
 -0.27944047E-03 -0.12336551E-03 -0.30836911E-03
 -0.16691656E-03 -0.22308079E-03 -0.32242387E-04
  0.38547687E-03  0.23231366E-03  0.16980138E-03
  0.28023752E-04 -0.17269206E-03 -0.15240767E-03
  0.29192152E-03  0.17061793E-03 -0.51833698E-03
  0.33904529E-03  0.99081079E-03 -0.12714342E-03
 -0.13265070E-04  0.21732660E-03  0.85719835E-04
 -0.34816761E-03  0.50270501E-03 -0.24837320E-03
  0.18450355E-03  0.13189633E-03 -0.47380752E-03
 -0.85484026E-04 -0.20493620E-03  0.37201502E-03
 -0.22109498E-03 -0.16781062E-03 -0.22320071E-03
 -0.57149019E-04  0.52912588E-04 -0.39486908E-03
 -0.36595060E-03 -0.40560043E-03  0.12792282E-03
 -0.50068670E-04  0.36943020E-03  0.33954000E-03
  0.15797641E-03 -0.15343662E-03 -0.21112577E-03
  0.34774570E-03 -0.23130536E-03 -0.40311977E-03
 -0.15887323E-04 -0.68371064E-05  0.62530210E-03
  0.70647291E-04 -0.33687519E-03  0.24905014E-03
 -0.11654502E-03 -0.13537375E-03  0.18421550E-03
  0.87301315E-04  0.19229168E-03 -0.10216220E-03
  0.42857667E-03 -0.63254028E-03  0.69494086E-04
  0.35402296E-04  0.35684224E-03  0.15394189E-04
 -0.31906347E-03 -0.13925642E-03 -0.19002005E-03
  0.18061792E-03  0.62821357E-05 -0.88235373E-04
 -0.50326141E-04 -0.57015329E-04 -0.29680237E-03
  0.18123501E-03  0.13885711E-03  0.45316524E-03
  0.57989987E-04 -0.14083949E-03  0.21380059E-03
 -0.12928629E-03  0.23085983E-03 -0.41661524E-03
  0.20290191E-03  0.63776804E-04  0.14644386E-03
 -0.31957832E-03 -0.16544158E-03 -0.69252617E-04
 -0.72258925E-04 -0.30274794E-03 -0.55122651E-03
  0.80894466E-06 -0.93449660E-04 -0.31543795E-03
 -0.29056945E-03  0.26802303E-03  0.81690774E-04
  0.48419655E-04 -0.94447301E-04  0.14301480E-03
  0.12888993E-04  0.19965820E-03 -0.88395411E-04
  0.19430333E-03  0.21739299E-04  0.40168063E-03
 -0.13999688E-03 -0.60275879E-04  0.37824232E-03
 -0.32324842E-03  0.26930203E-03 -0.69217453E-05
  0.64405288E-04 -0.37611989E-03 -0.62458908E-04
 -0.46496747E-03  0.21787143E-03  0.49817735E-04
 -0.87126974E-04  0.82559455E-05 -0.16247367E-03
  0.21058448E-03 -0.11482830E-03  0.21743615E-03
 -0.32266156E-03  0.11970129E-03 -0.47832280E-03
  0.40026694E-03  0.51616419E-03 -0.25195207E-03
  0.38080599E-03  0.21901019E-03  0.37153082E-04
 -0.12090365E-03 -0.24175396E-04 -0.21223289E-03
 -0.21479329E-03  0.70876359E-04 -0.20511463E-04
 -0.18862187E-03 -0.65561110E-04  0.26931573E-03
  0.58916714E-04  0.35488655E-04  0.15231851E-03
 -0.16459329E-03  0.22214220E-03  0.31625769E-03
 -0.83961149E-04 -0.32917460E-03  0.28113123E-04
  0.22115666E-04 -0.97633849E-05 -0.22632038E-04
 -0.10958700E-03 -0.12203604E-03  0.21912873E-03
 -0.52997206E-03  0.36943996E-04 -0.23767318E-03
  0.40816817E-03 -0.46043077E-04 -0.19470124E-03
  0.17571069E-03 -0.76278114E-04  0.39247959E-03
  0.59232516E-04 -0.76641479E-04  0.96394775E-04
  0.26654783E-03 -0.68510563E-04  0.25374273E-03
 -0.35730905E-04  0.49957917E-04  0.41070411E-03
  0.17694735E-03 -0.13651994E-03 -0.24952397E-04
 -0.10040688E-03 -0.18228045E-03  0.12681961E-03
  0.29695429E-03 -0.37718898E-03 -0.35781221E-03
 -0.92024459E-05  0.13562761E-03 -0.17292398E-03
  0.89656422E-04 -0.29744875E-04  0.54620322E-04
 -0.26710363E-03 -0.26290361E-03  0.12043100E-03
 -0.16031912E-03 -0.50630413E-03 -0.80854055E-05
 -0.60987049E-05 -0.94230227E-04 -0.81694360E-04
  0.26937657E-03  0.80447094E-04 -0.33491170E-03
 -0.13574571E-03 -0.13878726E-03  0.39052465E-03
 -0.13069720E-03 -0.78196123E-04  0.49234705E-03
  0.50641526E-03 -0.63201910E-04 -0.24686845E-03
 -0.64543661E-04  0.15117267E-03 -0.17643635E-03
 -0.12076299E-03 -0.40359548E-04  0.11782494E-03
  0.83316923E-04 -0.64313663E-03 -0.27561841E-04
  0.41871707E-04  0.39337783E-03 -0.35296984E-03
 -0.10461093E-04  0.35479382E-04  0.24578198E-03
  0.36391836E-03  0.30582284E-03  0.42533378E-04
  0.27363888E-03 -0.76464195E-04 -0.32890019E-03
 -0.39969561E-04  0.32742373E-03  0.79409805E-04
 -0.39749580E-04  0.25218369E-03 -0.35905404E-04
  0.21807347E-03  0.52343689E-04  0.43153083E-03
  0.58831429E-03  0.32369000E-03 -0.24448037E-03
 -0.29492731E-04  0.24277867E-03 -0.12020165E-04
 -0.66340699E-04  0.36468887E-03  0.56208504E-04
 -0.10372108E-03 -0.81100494E-04  0.15957926E-03
  0.28562791E-03 -0.64816818E-04  0.19603258E-03
  0.11753470E-03 -0.40889853E-03  0.17435484E-03