Ge2 Bi2 Te5
1.0
  19.1056409999999985   -2.1616990000000000    0.0000000000000000
  19.1056409999999985    2.1616990000000000    0.0000000000000000
  18.8610569999999989    0.0000000000000000    3.7361759999999999
Ge Bi Te
2 2 5
direct
   0.9047409999999990    0.9047409999999990    0.9047409999999990 Ge
   0.5055010000000000    0.5055010000000000    0.5055010000000000 Ge
   0.1026089999999990    0.1026089999999990    0.1026089999999990 Bi
   0.6956770000000000    0.6956770000000000    0.6956770000000000 Bi
   0.3998049999999990    0.3998049999999990    0.3998049999999990 Te
   0.1967940000000000    0.1967940000000000    0.1967940000000000 Te
   0.8011450000000000    0.8011450000000000    0.8011450000000000 Te
   0.9979520000000000    0.9979520000000000    0.9979520000000000 Te
   0.5957760000000000    0.5957760000000000    0.5957760000000000 Te
