Amorphous GeAsSeSi                      
   1.00000000000000     
    18.9436188657994720    0.0000000000000000    0.0000000000000000
     0.0000000000000000   18.9436188657994720    0.0000000000000000
     0.0000000000000000    0.0000000000000000   18.9436188657994720
   Ge   C    Se
   108    24   108
Direct
  0.1501152559900530  0.6606189208893020  0.2119557682705714
  0.1260460897814808  0.8445102693625105  0.2423911852971410
  0.7275833569135566  0.7901276820962078  0.2687400866223860
  0.4397937325783549  0.3794845619917445  0.0982523189611485
  0.8065898112963351  0.5508060034388869  0.0259022716340974
  0.9775287787820538  0.3737162734643324  0.1501228558405892
  0.4746700257904516  0.7171199011801589  0.7726099664140532
  0.4229549686459660  0.7098376950138341  0.2941627486879462
  0.1834604145403565  0.5123984340754849  0.7169038438298222
  0.4653447060341624  0.8973596586907694  0.2511541718417828
  0.4432553470564573  0.4846635410592879  0.9381012676245374
  0.3008457414017339  0.9572627432647267  0.9447617820131786
  0.8551113278297848  0.3749803491614004  0.3709166937064352
  0.7695776809957879  0.8291507563797620  0.0922069586598957
  0.2963079535003751  0.1307920965843992  0.4536308437527328
  0.0613726491025037  0.2179113356642781  0.5277709493327062
  0.2856411912251925  0.7678740206378727  0.9303040728929219
  0.6646292925080775  0.1647977703126388  0.4334750606635256
  0.3245027618904744  0.1205921746583686  0.1091380044611225
  0.1687727998149349  0.1879556884883282  0.9918463314989496
  0.1840213335932129  0.8660329083073687  0.8461954589847622
  0.9911087692423980  0.0862729124349470  0.3737172398893752
  0.5503244899981650  0.3218366338375189  0.7397510155775088
  0.4283622058358857  0.2642890701557127  0.4864503397544478
  0.0974105340096418  0.4443869468561241  0.5008379203629348
  0.5210474687965451  0.5918974443963777  0.5890962243542194
  0.6680675212688404  0.8321231022397872  0.5588057873816606
  0.1337962503668105  0.4131942458813714  0.6340739198552113
  0.3818263661663631  0.7857599052368022  0.1437302073800111
  0.5780870187009151  0.8557987315188104  0.8903554991862470
  0.9313447192819402  0.6714694819810133  0.0708922997095274
  0.9794524009365027  0.7390654878928623  0.1838548098337582
  0.6328928789855627  0.7860449447369590  0.3839257484760324
  0.6717373008371769  0.0866920882787511  0.1746853789366581
  0.1446254330459457  0.7105968989237876  0.0311911254531208
  0.0514285512636897  0.5640188404344405  0.1354911699382080
  0.6964862145573856  0.9398048452584558  0.4353979961739365
  0.5773747726478965  0.4675296226128323  0.0919675357293596
  0.4419555985429903  0.1411009093536846  0.9383840573505698
  0.4382535579345273  0.0036442962043046  0.6162104599962366
  0.1933690755306188  0.2983259938747098  0.5046974935915923
  0.5970440316366540  0.4229478450425417  0.2620825390414044
  0.8729545174206698  0.6292972076447183  0.4772624165509655
  0.2915031131924883  0.9697850923803193  0.1446331384456214
  0.9863882968599424  0.2467869444672788  0.8370687676490667
  0.7281585629644497  0.7484608854045957  0.9695134593116538
  0.2641759482168353  0.4920834180335029  0.0968440287624419
  0.4910314895302320  0.7285813841411360  0.5990016789488459
  0.9453509184061500  0.2426057761019560  0.2676662882701170
  0.8484215066898039  0.9435792943414444  0.1954825631084018
  0.3470057777167299  0.6268425682197939  0.6858522235415722
  0.8324199879200890  0.0835764839658016  0.4072342906989533
  0.7728991391709090  0.0757915125774402  0.9922908338212497
  0.0078644303056697  0.8076578897595543  0.4684220039107729
  0.5000915447392495  0.0077676865805902  0.3888337267117508
  0.0624844198087708  0.7313599402775234  0.6251656151465246
  0.8390637062729913  0.2571562964478057  0.4928412542089170
  0.1519875866349568  0.9021375247324418  0.4240498210869990
  0.1021473999250112  0.1724854551055803  0.1896594215397130
  0.2051435797732375  0.0390672647897184  0.6285747198456321
  0.3364823059930303  0.3845490538663923  0.6384416099118112
  0.9071234462755097  0.3545113930135786  0.6416451714149944
  0.6459949312788185  0.9078045612845931  0.7778109844558130
  0.1710569884025367  0.7451437546735151  0.3870282440290350
  0.9074259740148825  0.6372302344174623  0.7308261218558879
  0.4537489155037668  0.0132346055879002  0.1664785981812759
  0.6215330583670041  0.3806878456249550  0.9130333987633522
  0.2175791861545950  0.6295474815694531  0.4467763764120270
  0.3802704501587988  0.8710044355443000  0.4555476907393184
  0.4551639140832228  0.9664191512714774  0.7933283999706411
  0.7215561495623459  0.7001656214599455  0.6054420407576742
  0.9008428057416256  0.0763004331594314  0.9068546504719852
  0.7552103697537719  0.7694069003837718  0.7970789264504451
 -0.0001810522397842  0.0040034210526454  0.7612757549190245
  0.1405444003163815  0.9424621869115819  0.5519250362745637
  0.9185903028468314  0.5213095699783477  0.3652170188587505
  0.6431965653318590  0.5888176345863968  0.2310550943380922
  0.7793095604147549  0.2255764244075113  0.6695202366321567
  0.1174329430432857  0.4495264416431022  0.9689003479901852
  0.4556338924175665  0.7872020761015672  0.8893997998563492
  0.6640500991413290  0.2755828311481949  0.1981086340264409
  0.7945948241327710  0.1676824496322608  0.2493327539147116
  0.4564489126463951  0.5638350075202616  0.2359534638185117
  0.9711493066499139  0.8981765655340175  0.9157747780511269
  0.6441364366316700  0.1149474688944462  0.6746858193969211
  0.4798170287404649  0.3502831987021202  0.3459825290291370
  0.7883951564636790  0.0166294172903791  0.7766268047244278
  0.7719852317387469  0.6928841520693984  0.0905817832789771
  0.0365990778592812  0.7247446211774338  0.8026418321558125
  0.7902032782673023  0.7862887721198933  0.4418097116267043
  0.0026820107508284  0.6430581582383267  0.5387256105903149
  0.5624275607477751  0.0725383247635483  0.4895503195430744
  0.1517274365866048  0.3946045675441453  0.3632202059021968
  0.7801909023464573  0.3989588391283067  0.1328102924612167
  0.3517666397569513  0.1038577450636445  0.2760089570506818
  0.1902929528282465  0.1224411719123748  0.7910883085853847
  0.9813834504581580  0.2641200779690062  0.0387714755151928
  0.6042166007089427  0.0647641107131411  0.9046609486691533
  0.1482680537714402  0.8060109593024249  0.5504979633838231
  0.3409853248680141  0.3163915203465911  0.9137672475991591
  0.2418182913877382  0.2215264481916617  0.1443409103877390
  0.5404844261458622  0.9192036206919518  0.6369677594829516
  0.3750089041854905  0.7079058404772144  0.5103044714631491
  0.0082670366801064  0.4316705416799718  0.7938283820939521
  0.7822146901122257  0.4131360996073490  0.7634065550984335
  0.7500733763528690  0.2027268741215220  0.0799781083591147
  0.7802057929669388  0.9371295850055494  0.9710396044816669
  0.8157913775223732  0.5009951107293639  0.5086414927610282
  0.2764661426720535  0.3982527494888043  0.7950063636515446
  0.3244762597875089  0.3489626671844833  0.8137397589450869
  0.7201800992620645  0.8528852295948529  0.9988699379086265
  0.8880357315451262  0.7709415285192055  0.2200969945090981
  0.5845479720488519  0.8601337773585545  0.7083447274726722
  0.1297894967485456  0.7458409013242469  0.2853291170673471
  0.4124648817252935  0.3330220807340604  0.5709060032803625
  0.4279556094555565  0.8001454222706311  0.2429480757064375
  0.8269040645995674  0.7783520911144426  0.2421682597022930
  0.3479029057288284  0.0481701792682343  0.1874312120595896
  0.4030840147243567  0.9657709092764181  0.4033835929971126
  0.1118944511056138  0.8068125732908971  0.4492036041151585
  0.4822981235030893  0.0890739332912346  0.5627743761295224
  0.3570509349382373  0.0144991478459343  0.3885914405843093
  0.3186423875729429  0.0702690707196970  0.3707336471434606
  0.3808588443576832  0.6363352174558475  0.2301176687804053
  0.7131484156161192  0.1877668394913247  0.1834529211643132
  0.6980166986614270  0.8325851976213320  0.4557393125877621
  0.2297319149498226  0.4389730763083454  0.7710809279860891
  0.1675836804812626  0.4872988966451109  0.3115546782917474
  0.4728741026348969  0.3579736797029457  0.5885684545403737
  0.2689833631759577  0.3557222321064409  0.9831002747892321
  0.3164351026956906  0.6373538104738220  0.2051382276739899
  0.2527239427461145  0.6413422137850626  0.1777555320368677
  0.0540754811393109  0.8610012385825612  0.8157064424386001
  0.0558530363233440  0.1563003461505799  0.0656450579156212
  0.7687915903034945  0.6545428284513241  0.7198262575888470
  0.2348905847134702  0.4428042250667373  0.2594048982346328
  0.2299919746854178  0.4244839982056583  0.4744135664360372
  0.2185367480456890 -0.0048591494126337  0.8416084805098477
  0.1218471682463982  0.5723185143709352  0.3140681129068872
  0.6465013689053433  0.1102274484861997  0.0387072401093768
  0.6337546211051212  0.9854014375526740  0.5602883712063962
  0.8941308038532476  0.4846932897237519  0.7729714162136619
  0.5770128908724076  0.5017888474531604  0.9632725805190441
  0.3292920611197897  0.1893685886592156  0.9003690192491905
  0.1731910612461066  0.3219902319042947  0.9543870637107323
  0.0652583210940816  0.2963289674062594  0.2206630350776907
  0.7168665083789637  0.8996797582989062  0.1893155831813940
  0.0241730040733244  0.0197082744557546  0.8949436359529036
  0.4827692751922833  0.1017307872655815  0.2989461035421788
  0.3896497395496174  0.9129080070191373  0.0860142480869428
  0.8425915200810826  0.9163973516256581  0.8539424715295527
  0.5139375105607671  0.7973133432420998  0.1763104529968531
  0.5266022704048274  0.6345797522062133  0.3212935527360919
  0.5773823883858930  0.4162760655770326  0.3917520388351072
  0.7875287892776258  0.6783951899929004  0.3785647593645782
  0.1392741069976859  0.7003636689911780  0.7211907350214793
  0.3907576989415014  0.7622892738212089  0.6788504915462648
  0.0021458156437143  0.3644155525762670  0.9023280870471468
  0.5414815007644124  0.2961226344474265  0.2298879713928374
  0.8538056931983505  0.2986428966414590  0.7571379864928290
  0.5312063274407405  0.1629887063250600  0.6219778938843871
  0.1145182826639880  0.5735720872893215  0.5308811074792007
  0.9310570919244451  0.4359984838953865  0.4710914905718404
  0.1850868990069923  0.1166217242372208  0.5146627209532151
  0.3840262102809663  0.0483924190904929  0.7204986292406204
  0.2415440270044255  0.8607369914829491  0.1853635431542502
  0.7675220049001719  0.3254687193460830  0.5809271998772805
  0.5707605444524648  0.9123466240094288  0.3333445298118329
  0.4577133833075639  0.5933170226813074  0.7564462596417061
  0.0449535007929872  0.6187947549357994  0.0137948272358189
  0.2994884824029035  0.3374706659511476  0.0832753564299100
  0.6864404448364038  0.5840662954564341  0.5562930528538267
  0.0786732211951328  0.5362373087116579  0.7922285365307948
  0.2628921764289829  0.4599204669743295  0.9636439236258106
  0.7706538461199663  0.1342505546526671  0.5148775200991236
  0.5936538320171918  0.6200508562872457  0.4787767605572079
  0.2522294861639588  0.6334929833477685  0.0745447050970877
  0.7439646917848886  0.4406354820362322  0.8927947253061403
  0.4454043232710531  0.1459864747050372  0.0672146642261462
  0.8977455919427920  0.1006091931377469  0.7744145275833132
  0.3919395299154150  0.7172291618834369  0.9789276156445609
  0.9319404533095061  0.5700425472622213  0.6182463423446883
  0.9821875672539948  0.1127139382606204  0.2445618591155343
  0.7263686795766453  0.3631349368380318  0.2650677902744158
  0.8755960167165029  0.9018569867911999  0.0647931187997876
  0.6587836578387171  0.2357800950432751  0.7343076036359647
  0.6385197826062071  0.7359626074649173  0.8751236372972069
  0.3498351375638448  0.6635618212618256  0.3897730329395747
  0.3153115293145315  0.2248086205276385  0.2543589772975490
  0.7171709549585707  0.0806140823094064  0.3392662802348445
  0.0962750937194923  0.0904782709442516  0.7009926744312651
  0.4307290140788471  0.4401290719556366  0.2468695564629290
  0.2369009238155422  0.0389585351226012  0.0491191878129741
  0.2622524724707883  0.8473406983643769  0.3797376118554840
  0.3474479249623180  0.8446426718291347  0.8424615116281625
  0.6792620823772805  0.3247732210580759  0.0776301942600071
  0.9007976642193649  0.5531852797781792  0.1236399303973235
  0.2438003077550378  0.7090706835588541  0.5553518481213561
  0.7052497478440272  0.5149981680359790  0.1202825488518143
  0.2215848770490081  0.3084659992383440  0.6332466430953131
  0.9349772610339087  0.2307575674179022  0.5838464225752459
  0.3013595332665542  0.2582795272338806  0.4322688174021785
  0.1019027321500728  0.1726997345888054  0.8773816759604283
  0.7848747862175868  0.4959663539236562  0.3760412137125393
  0.8081138249438685  0.0665396286512200  0.1591027433942552
  0.8301727345608012  0.9643173472705687  0.4748245472636834
  0.6011791558413814  0.4294716922633052  0.7916522267230489
  0.3867648582601800  0.5831318011926385  0.5606349442662497
  0.3781325151258748  0.3042805639744368  0.7436102230160204
  0.9585102188361765  0.7647613452323995  0.6950039531960105
  0.9558336788160279  0.4156723146365981  0.2871073578961301
  0.2084933193774643  0.8568434445217854  0.9856803063610612
  0.8638483592634878  0.8790593039087551  0.3866392771484801
  0.4086324406573816  0.5050723076559462  0.0685238466287139
  0.8435977816041881  0.7388947396812846  0.5513697471512929
  0.8266392226360292  0.4231226997200516  0.9893992174169526
  0.8887540575301448  0.2615223073210962  0.1411550395371389
  0.5297148055171903  0.8346462916693099  0.5335913173018956
  0.3396251195009750  0.9396386249477905  0.5648530454980958
  0.9076646850704827  0.2101038558031617  0.9407848562855599
  0.6707613443834066  0.7120795114011479  0.1771538592315113
  0.5783129159725076  0.0218870270724480  0.7595301096119377
  0.4407306727478574  0.0150024088059313  0.9169885024838504
  0.1193726681017016  0.4503650009878014  0.1036477516935950
  0.0425846240079836  0.3452813730650027  0.7029611071231142
  0.8299975801720841  0.7219641829957570  0.8955522466076469
  0.5545172093485703  0.3929481750610927  0.6170801230881677
  0.5426791793075794  0.5892194534872295  0.1411124053293411
  0.0930234623490291  0.9440048958328016  0.3171402086915071
  0.5450933649719121  0.1857226144239944  0.8846156510829232
  0.6211915049362002  0.8787361455033698  0.0114950902786155
  0.4570513206374743  0.3474282728094195  0.9542038582679035
  0.0421962785571987  0.8465376203895560  0.1471293665192177
  0.0291294601542259  0.7247822377016560  0.3053295899776965
  0.0311347851997571  0.2068603764642872  0.4016997879772575
  0.5859937011892975  0.7610487231960458  0.7024207227468741
  0.1973011364572960  0.6806903863435385  0.9066507888949759
  0.7327701364402793  0.1025208308019142  0.8658263577877041
  0.3920310763297406  0.1446354390851957  0.5480033816029218
  0.0152571002562301  0.9151400155958205  0.5496925910454741
 
  0.00000000E+00  0.00000000E+00  0.00000000E+00
  0.00000000E+00  0.00000000E+00  0.00000000E+00
  0.00000000E+00  0.00000000E+00  0.00000000E+00
  0.00000000E+00  0.00000000E+00  0.00000000E+00
  0.00000000E+00  0.00000000E+00  0.00000000E+00
  0.00000000E+00  0.00000000E+00  0.00000000E+00
  0.00000000E+00  0.00000000E+00  0.00000000E+00
  0.00000000E+00  0.00000000E+00  0.00000000E+00
  0.00000000E+00  0.00000000E+00  0.00000000E+00
  0.00000000E+00  0.00000000E+00  0.00000000E+00
  0.00000000E+00  0.00000000E+00  0.00000000E+00
  0.00000000E+00  0.00000000E+00  0.00000000E+00
  0.00000000E+00  0.00000000E+00  0.00000000E+00
  0.00000000E+00  0.00000000E+00  0.00000000E+00
  0.00000000E+00  0.00000000E+00  0.00000000E+00
  0.00000000E+00  0.00000000E+00  0.00000000E+00
  0.00000000E+00  0.00000000E+00  0.00000000E+00
  0.00000000E+00  0.00000000E+00  0.00000000E+00
  0.00000000E+00  0.00000000E+00  0.00000000E+00
  0.00000000E+00  0.00000000E+00  0.00000000E+00
  0.00000000E+00  0.00000000E+00  0.00000000E+00
  0.00000000E+00  0.00000000E+00  0.00000000E+00
  0.00000000E+00  0.00000000E+00  0.00000000E+00
  0.00000000E+00  0.00000000E+00  0.00000000E+00
  0.00000000E+00  0.00000000E+00  0.00000000E+00
  0.00000000E+00  0.00000000E+00  0.00000000E+00
  0.00000000E+00  0.00000000E+00  0.00000000E+00
  0.00000000E+00  0.00000000E+00  0.00000000E+00
  0.00000000E+00  0.00000000E+00  0.00000000E+00
  0.00000000E+00  0.00000000E+00  0.00000000E+00
  0.00000000E+00  0.00000000E+00  0.00000000E+00
  0.00000000E+00  0.00000000E+00  0.00000000E+00
  0.00000000E+00  0.00000000E+00  0.00000000E+00
  0.00000000E+00  0.00000000E+00  0.00000000E+00
  0.00000000E+00  0.00000000E+00  0.00000000E+00
  0.00000000E+00  0.00000000E+00  0.00000000E+00
  0.00000000E+00  0.00000000E+00  0.00000000E+00
  0.00000000E+00  0.00000000E+00  0.00000000E+00
  0.00000000E+00  0.00000000E+00  0.00000000E+00
  0.00000000E+00  0.00000000E+00  0.00000000E+00
  0.00000000E+00  0.00000000E+00  0.00000000E+00
  0.00000000E+00  0.00000000E+00  0.00000000E+00
  0.00000000E+00  0.00000000E+00  0.00000000E+00
  0.00000000E+00  0.00000000E+00  0.00000000E+00
  0.00000000E+00  0.00000000E+00  0.00000000E+00
  0.00000000E+00  0.00000000E+00  0.00000000E+00
  0.00000000E+00  0.00000000E+00  0.00000000E+00
  0.00000000E+00  0.00000000E+00  0.00000000E+00
  0.00000000E+00  0.00000000E+00  0.00000000E+00
  0.00000000E+00  0.00000000E+00  0.00000000E+00
  0.00000000E+00  0.00000000E+00  0.00000000E+00
  0.00000000E+00  0.00000000E+00  0.00000000E+00
  0.00000000E+00  0.00000000E+00  0.00000000E+00
  0.00000000E+00  0.00000000E+00  0.00000000E+00
  0.00000000E+00  0.00000000E+00  0.00000000E+00
  0.00000000E+00  0.00000000E+00  0.00000000E+00
  0.00000000E+00  0.00000000E+00  0.00000000E+00
  0.00000000E+00  0.00000000E+00  0.00000000E+00
  0.00000000E+00  0.00000000E+00  0.00000000E+00
  0.00000000E+00  0.00000000E+00  0.00000000E+00
  0.00000000E+00  0.00000000E+00  0.00000000E+00
  0.00000000E+00  0.00000000E+00  0.00000000E+00
  0.00000000E+00  0.00000000E+00  0.00000000E+00
  0.00000000E+00  0.00000000E+00  0.00000000E+00
  0.00000000E+00  0.00000000E+00  0.00000000E+00
  0.00000000E+00  0.00000000E+00  0.00000000E+00
  0.00000000E+00  0.00000000E+00  0.00000000E+00
  0.00000000E+00  0.00000000E+00  0.00000000E+00
  0.00000000E+00  0.00000000E+00  0.00000000E+00
  0.00000000E+00  0.00000000E+00  0.00000000E+00
  0.00000000E+00  0.00000000E+00  0.00000000E+00
  0.00000000E+00  0.00000000E+00  0.00000000E+00
  0.00000000E+00  0.00000000E+00  0.00000000E+00
  0.00000000E+00  0.00000000E+00  0.00000000E+00
  0.00000000E+00  0.00000000E+00  0.00000000E+00
  0.00000000E+00  0.00000000E+00  0.00000000E+00
  0.00000000E+00  0.00000000E+00  0.00000000E+00
  0.00000000E+00  0.00000000E+00  0.00000000E+00
  0.00000000E+00  0.00000000E+00  0.00000000E+00
  0.00000000E+00  0.00000000E+00  0.00000000E+00
  0.00000000E+00  0.00000000E+00  0.00000000E+00
  0.00000000E+00  0.00000000E+00  0.00000000E+00
  0.00000000E+00  0.00000000E+00  0.00000000E+00
  0.00000000E+00  0.00000000E+00  0.00000000E+00
  0.00000000E+00  0.00000000E+00  0.00000000E+00
  0.00000000E+00  0.00000000E+00  0.00000000E+00
  0.00000000E+00  0.00000000E+00  0.00000000E+00
  0.00000000E+00  0.00000000E+00  0.00000000E+00
  0.00000000E+00  0.00000000E+00  0.00000000E+00
  0.00000000E+00  0.00000000E+00  0.00000000E+00
  0.00000000E+00  0.00000000E+00  0.00000000E+00
  0.00000000E+00  0.00000000E+00  0.00000000E+00
  0.00000000E+00  0.00000000E+00  0.00000000E+00
  0.00000000E+00  0.00000000E+00  0.00000000E+00
  0.00000000E+00  0.00000000E+00  0.00000000E+00
  0.00000000E+00  0.00000000E+00  0.00000000E+00
  0.00000000E+00  0.00000000E+00  0.00000000E+00
  0.00000000E+00  0.00000000E+00  0.00000000E+00
  0.00000000E+00  0.00000000E+00  0.00000000E+00
  0.00000000E+00  0.00000000E+00  0.00000000E+00
  0.00000000E+00  0.00000000E+00  0.00000000E+00
  0.00000000E+00  0.00000000E+00  0.00000000E+00
  0.00000000E+00  0.00000000E+00  0.00000000E+00
  0.00000000E+00  0.00000000E+00  0.00000000E+00
  0.00000000E+00  0.00000000E+00  0.00000000E+00
  0.00000000E+00  0.00000000E+00  0.00000000E+00
  0.00000000E+00  0.00000000E+00  0.00000000E+00
  0.00000000E+00  0.00000000E+00  0.00000000E+00
  0.00000000E+00  0.00000000E+00  0.00000000E+00
  0.00000000E+00  0.00000000E+00  0.00000000E+00
  0.00000000E+00  0.00000000E+00  0.00000000E+00
  0.00000000E+00  0.00000000E+00  0.00000000E+00
  0.00000000E+00  0.00000000E+00  0.00000000E+00
  0.00000000E+00  0.00000000E+00  0.00000000E+00
  0.00000000E+00  0.00000000E+00  0.00000000E+00
  0.00000000E+00  0.00000000E+00  0.00000000E+00
  0.00000000E+00  0.00000000E+00  0.00000000E+00
  0.00000000E+00  0.00000000E+00  0.00000000E+00
  0.00000000E+00  0.00000000E+00  0.00000000E+00
  0.00000000E+00  0.00000000E+00  0.00000000E+00
  0.00000000E+00  0.00000000E+00  0.00000000E+00
  0.00000000E+00  0.00000000E+00  0.00000000E+00
  0.00000000E+00  0.00000000E+00  0.00000000E+00
  0.00000000E+00  0.00000000E+00  0.00000000E+00
  0.00000000E+00  0.00000000E+00  0.00000000E+00
  0.00000000E+00  0.00000000E+00  0.00000000E+00
  0.00000000E+00  0.00000000E+00  0.00000000E+00
  0.00000000E+00  0.00000000E+00  0.00000000E+00
  0.00000000E+00  0.00000000E+00  0.00000000E+00
  0.00000000E+00  0.00000000E+00  0.00000000E+00
  0.00000000E+00  0.00000000E+00  0.00000000E+00
  0.00000000E+00  0.00000000E+00  0.00000000E+00
  0.00000000E+00  0.00000000E+00  0.00000000E+00
  0.00000000E+00  0.00000000E+00  0.00000000E+00
  0.00000000E+00  0.00000000E+00  0.00000000E+00
  0.00000000E+00  0.00000000E+00  0.00000000E+00
  0.00000000E+00  0.00000000E+00  0.00000000E+00
  0.00000000E+00  0.00000000E+00  0.00000000E+00
  0.00000000E+00  0.00000000E+00  0.00000000E+00
  0.00000000E+00  0.00000000E+00  0.00000000E+00
  0.00000000E+00  0.00000000E+00  0.00000000E+00
  0.00000000E+00  0.00000000E+00  0.00000000E+00
  0.00000000E+00  0.00000000E+00  0.00000000E+00
  0.00000000E+00  0.00000000E+00  0.00000000E+00
  0.00000000E+00  0.00000000E+00  0.00000000E+00
  0.00000000E+00  0.00000000E+00  0.00000000E+00
  0.00000000E+00  0.00000000E+00  0.00000000E+00
  0.00000000E+00  0.00000000E+00  0.00000000E+00
  0.00000000E+00  0.00000000E+00  0.00000000E+00
  0.00000000E+00  0.00000000E+00  0.00000000E+00
  0.00000000E+00  0.00000000E+00  0.00000000E+00
  0.00000000E+00  0.00000000E+00  0.00000000E+00
  0.00000000E+00  0.00000000E+00  0.00000000E+00
  0.00000000E+00  0.00000000E+00  0.00000000E+00
  0.00000000E+00  0.00000000E+00  0.00000000E+00
  0.00000000E+00  0.00000000E+00  0.00000000E+00
  0.00000000E+00  0.00000000E+00  0.00000000E+00
  0.00000000E+00  0.00000000E+00  0.00000000E+00
  0.00000000E+00  0.00000000E+00  0.00000000E+00
  0.00000000E+00  0.00000000E+00  0.00000000E+00
  0.00000000E+00  0.00000000E+00  0.00000000E+00
  0.00000000E+00  0.00000000E+00  0.00000000E+00
  0.00000000E+00  0.00000000E+00  0.00000000E+00
  0.00000000E+00  0.00000000E+00  0.00000000E+00
  0.00000000E+00  0.00000000E+00  0.00000000E+00
  0.00000000E+00  0.00000000E+00  0.00000000E+00
  0.00000000E+00  0.00000000E+00  0.00000000E+00
  0.00000000E+00  0.00000000E+00  0.00000000E+00
  0.00000000E+00  0.00000000E+00  0.00000000E+00
  0.00000000E+00  0.00000000E+00  0.00000000E+00
  0.00000000E+00  0.00000000E+00  0.00000000E+00
  0.00000000E+00  0.00000000E+00  0.00000000E+00
  0.00000000E+00  0.00000000E+00  0.00000000E+00
  0.00000000E+00  0.00000000E+00  0.00000000E+00
  0.00000000E+00  0.00000000E+00  0.00000000E+00
  0.00000000E+00  0.00000000E+00  0.00000000E+00
  0.00000000E+00  0.00000000E+00  0.00000000E+00
  0.00000000E+00  0.00000000E+00  0.00000000E+00
  0.00000000E+00  0.00000000E+00  0.00000000E+00
  0.00000000E+00  0.00000000E+00  0.00000000E+00
  0.00000000E+00  0.00000000E+00  0.00000000E+00
  0.00000000E+00  0.00000000E+00  0.00000000E+00
  0.00000000E+00  0.00000000E+00  0.00000000E+00
  0.00000000E+00  0.00000000E+00  0.00000000E+00
  0.00000000E+00  0.00000000E+00  0.00000000E+00
  0.00000000E+00  0.00000000E+00  0.00000000E+00
  0.00000000E+00  0.00000000E+00  0.00000000E+00
  0.00000000E+00  0.00000000E+00  0.00000000E+00
  0.00000000E+00  0.00000000E+00  0.00000000E+00
  0.00000000E+00  0.00000000E+00  0.00000000E+00
  0.00000000E+00  0.00000000E+00  0.00000000E+00
  0.00000000E+00  0.00000000E+00  0.00000000E+00
  0.00000000E+00  0.00000000E+00  0.00000000E+00
  0.00000000E+00  0.00000000E+00  0.00000000E+00
  0.00000000E+00  0.00000000E+00  0.00000000E+00
  0.00000000E+00  0.00000000E+00  0.00000000E+00
  0.00000000E+00  0.00000000E+00  0.00000000E+00
  0.00000000E+00  0.00000000E+00  0.00000000E+00
  0.00000000E+00  0.00000000E+00  0.00000000E+00
  0.00000000E+00  0.00000000E+00  0.00000000E+00
  0.00000000E+00  0.00000000E+00  0.00000000E+00
  0.00000000E+00  0.00000000E+00  0.00000000E+00
  0.00000000E+00  0.00000000E+00  0.00000000E+00
  0.00000000E+00  0.00000000E+00  0.00000000E+00
  0.00000000E+00  0.00000000E+00  0.00000000E+00
  0.00000000E+00  0.00000000E+00  0.00000000E+00
  0.00000000E+00  0.00000000E+00  0.00000000E+00
  0.00000000E+00  0.00000000E+00  0.00000000E+00
  0.00000000E+00  0.00000000E+00  0.00000000E+00
  0.00000000E+00  0.00000000E+00  0.00000000E+00
  0.00000000E+00  0.00000000E+00  0.00000000E+00
  0.00000000E+00  0.00000000E+00  0.00000000E+00
  0.00000000E+00  0.00000000E+00  0.00000000E+00
  0.00000000E+00  0.00000000E+00  0.00000000E+00
  0.00000000E+00  0.00000000E+00  0.00000000E+00
  0.00000000E+00  0.00000000E+00  0.00000000E+00
  0.00000000E+00  0.00000000E+00  0.00000000E+00
  0.00000000E+00  0.00000000E+00  0.00000000E+00
  0.00000000E+00  0.00000000E+00  0.00000000E+00
  0.00000000E+00  0.00000000E+00  0.00000000E+00
  0.00000000E+00  0.00000000E+00  0.00000000E+00
  0.00000000E+00  0.00000000E+00  0.00000000E+00
  0.00000000E+00  0.00000000E+00  0.00000000E+00
  0.00000000E+00  0.00000000E+00  0.00000000E+00
  0.00000000E+00  0.00000000E+00  0.00000000E+00
  0.00000000E+00  0.00000000E+00  0.00000000E+00
  0.00000000E+00  0.00000000E+00  0.00000000E+00
  0.00000000E+00  0.00000000E+00  0.00000000E+00
  0.00000000E+00  0.00000000E+00  0.00000000E+00
  0.00000000E+00  0.00000000E+00  0.00000000E+00
  0.00000000E+00  0.00000000E+00  0.00000000E+00
  0.00000000E+00  0.00000000E+00  0.00000000E+00
  0.00000000E+00  0.00000000E+00  0.00000000E+00
  0.00000000E+00  0.00000000E+00  0.00000000E+00
  0.00000000E+00  0.00000000E+00  0.00000000E+00
  0.00000000E+00  0.00000000E+00  0.00000000E+00
  0.00000000E+00  0.00000000E+00  0.00000000E+00
  0.00000000E+00  0.00000000E+00  0.00000000E+00
  0.00000000E+00  0.00000000E+00  0.00000000E+00
  0.00000000E+00  0.00000000E+00  0.00000000E+00
