Sb_48                                   
   1.00000000000000     
     9.4829044116562358   -0.3084230339036528   -0.1273996696796325
    -5.0151699679252744    7.7329522597178588    0.5520062638632565
    -0.4329372582198238    1.2960199215091956   19.2841089813018058
   Sb   Zr
    41     7
Direct
 -0.1225616745931750 -0.0784792786860708  0.1348734229518998
  0.3848618980358184  0.2474204990716850  0.2887721579553834
  0.1414941320819532  0.2832544012171621  0.9291632094530964
  0.0116899174561264 -0.0114252337374193  0.3435535921854428
  0.2286830800759582  0.1589156171575096  0.0662918771926119
  0.4336653752170675 -0.0073458066663529  0.0998131869948355
  0.8049104489123646  0.1888435909951187  0.2753145647674968
  0.5972094452767092  0.3550274847771931  0.9707029165470027
  0.4974456799263239 -0.0861487191858584  0.3713062572832788
  0.7875579523429909  0.1096913076933561  0.0293303897920481
  0.6320837880192778  0.3008837977763998  0.1798591006599279
 -0.0083818914081304  0.4394431032114383  0.1033855200101624
  0.1915575467806801  0.5394994598497159  0.2839481362893920
  0.1154397546210279  0.8419141556728654  0.9596987434182841
  0.0519953709654770  0.5930951544629337  0.4077796035358046
  0.3109721093066640  0.6411244625674464  0.0136740639117733
  0.0807705966792796  0.7595569549850301  0.1871789367530557
  0.4526416920568049  0.5173183881775565  0.1222729682056118
  0.8284170339965112  0.6312490502261892  0.3066509381547715
  0.6975518771961936  0.7987711533242009  0.9429236955738560
  0.5545294120116590  0.8097127703920508  0.2276632618730038
  0.0162820359128337  0.0144270994669114  0.6424384315533521
  0.4123698920536477  0.1399942815038930  0.8019010385812876
  0.2500823123207518  0.3299179357669876  0.4670821430302175
 -0.0050572712019018 -0.0120221150673066  0.8444598815308048
  0.3686802062175092  0.1583525228495580  0.5690286115133488
  0.2859295622505673  0.3982199001981699  0.6798668027514098
  0.5715011543470596 -0.0044709441079267  0.6443801111471709
  0.7955432212674944  0.2057274963385863  0.8281821699446004
  0.6436577629538980  0.3865105656770125  0.4575701228576100
  0.9087573455555237  0.2080202138125027  0.5423353831101229
  0.6836012439986542  0.3885676366221786  0.6906624205527138
  0.0582607989589964  0.5172557704737308  0.6283373654347731
  0.2834989046355798  0.7005102076435634  0.8482674879394382
  0.3800455631614043  0.7562740159886320  0.5378943812570349
  0.2135429926905781  0.8371527712880895  0.7170952026493718
  0.8842879425481185  0.6028475984031511  0.8074657616965503
  0.7464580591144061  0.8789529418407842  0.4556727810162539
  0.4788991421861403  0.5175465158807778  0.8487675536859898
  0.9588864295171386  0.7553131240107138  0.5377614706074505
  0.6506441479606764  0.7307595609538104  0.6969182860115912
  0.1111400196156891  0.2365537767403637  0.2070808912481410
  0.5158669247807832  0.5793922951832615  0.3622481751269098
  0.8094295697625175  0.6178944554922117  0.0694970979904322
  0.5071507784401312  0.0063040513048750  0.9372134205488543
  0.2863586097137473  0.0094291523040611  0.4330666747758989
  0.9530743486455548  0.4504519325618345  0.9409170837968912
  0.5585747376348992  0.5577949035874062  0.5597328541330406
 
  0.00000000E+00  0.00000000E+00  0.00000000E+00
  0.00000000E+00  0.00000000E+00  0.00000000E+00
  0.00000000E+00  0.00000000E+00  0.00000000E+00
  0.00000000E+00  0.00000000E+00  0.00000000E+00
  0.00000000E+00  0.00000000E+00  0.00000000E+00
  0.00000000E+00  0.00000000E+00  0.00000000E+00
  0.00000000E+00  0.00000000E+00  0.00000000E+00
  0.00000000E+00  0.00000000E+00  0.00000000E+00
  0.00000000E+00  0.00000000E+00  0.00000000E+00
  0.00000000E+00  0.00000000E+00  0.00000000E+00
  0.00000000E+00  0.00000000E+00  0.00000000E+00
  0.00000000E+00  0.00000000E+00  0.00000000E+00
  0.00000000E+00  0.00000000E+00  0.00000000E+00
  0.00000000E+00  0.00000000E+00  0.00000000E+00
  0.00000000E+00  0.00000000E+00  0.00000000E+00
  0.00000000E+00  0.00000000E+00  0.00000000E+00
  0.00000000E+00  0.00000000E+00  0.00000000E+00
  0.00000000E+00  0.00000000E+00  0.00000000E+00
  0.00000000E+00  0.00000000E+00  0.00000000E+00
  0.00000000E+00  0.00000000E+00  0.00000000E+00
  0.00000000E+00  0.00000000E+00  0.00000000E+00
  0.00000000E+00  0.00000000E+00  0.00000000E+00
  0.00000000E+00  0.00000000E+00  0.00000000E+00
  0.00000000E+00  0.00000000E+00  0.00000000E+00
  0.00000000E+00  0.00000000E+00  0.00000000E+00
  0.00000000E+00  0.00000000E+00  0.00000000E+00
  0.00000000E+00  0.00000000E+00  0.00000000E+00
  0.00000000E+00  0.00000000E+00  0.00000000E+00
  0.00000000E+00  0.00000000E+00  0.00000000E+00
  0.00000000E+00  0.00000000E+00  0.00000000E+00
  0.00000000E+00  0.00000000E+00  0.00000000E+00
  0.00000000E+00  0.00000000E+00  0.00000000E+00
  0.00000000E+00  0.00000000E+00  0.00000000E+00
  0.00000000E+00  0.00000000E+00  0.00000000E+00
  0.00000000E+00  0.00000000E+00  0.00000000E+00
  0.00000000E+00  0.00000000E+00  0.00000000E+00
  0.00000000E+00  0.00000000E+00  0.00000000E+00
  0.00000000E+00  0.00000000E+00  0.00000000E+00
  0.00000000E+00  0.00000000E+00  0.00000000E+00
  0.00000000E+00  0.00000000E+00  0.00000000E+00
  0.00000000E+00  0.00000000E+00  0.00000000E+00
  0.00000000E+00  0.00000000E+00  0.00000000E+00
  0.00000000E+00  0.00000000E+00  0.00000000E+00
  0.00000000E+00  0.00000000E+00  0.00000000E+00
  0.00000000E+00  0.00000000E+00  0.00000000E+00
  0.00000000E+00  0.00000000E+00  0.00000000E+00
  0.00000000E+00  0.00000000E+00  0.00000000E+00
  0.00000000E+00  0.00000000E+00  0.00000000E+00
