Na1 Sb1 Se2
1.0
   7.1105170299999996   -2.0583121400000000   -0.0019076400000000
   7.1105170299999996    2.0583121400000000   -0.0019076400000000
   6.5156311899999997    0.0000000000000000    3.5132111899999998
Na Sb Se
1 1 2
direct
   0.0000000000000000   -0.0000000000000000   -0.0000000000000000 Na
   0.5000000000000000    0.5000000000000000    0.5000000000000000 Sb
   0.2449868200000000    0.2449868200000000    0.2449868200000000 Se
   0.7550131800000001    0.7550131800000001    0.7550131800000001 Se
