Amorphous GeAsSeSi                      
   1.00000000000000     
    19.6538541945511795    0.0000000000000000    0.0000000000000000
     0.0000000000000000   19.6538541945511795    0.0000000000000000
     0.0000000000000000    0.0000000000000000   19.6538541945511795
   Ge   Se   Si
   100   100   100
Direct
  0.4295145832344140  0.5351045148582116  0.2170414694016782
  0.9145175823276847  0.5674278662387728  0.0072351925322297
  0.6946548762127764  0.2153217983515086  0.2785407757688191
  0.3739674529072104  0.1356817768907910  0.4384797017009984
  0.8029572609292186  0.2946425780635085  0.5404499441785395
  0.7006785246004784  0.1406852798405934  0.8039098839277073
  0.9129724586271446  0.6459193564977895  0.4721620769056951
  0.5942193784821074  0.5073971452225923  0.1175756807644363
  0.5202139077871036  0.5761860349976984  0.3592076477887967
  0.3073043479085248  0.3854167507455921  0.5879435282161366
  0.8254256459489444  0.4931538150058385  0.9395755259617680
  0.0071611215416208  0.6961706889158980  0.8608233142427253
  0.2219717920689872  0.3200425235943770  0.9832772421975747
  0.0657128508410250  0.7289243211844388  0.6189369989200126
  0.5599572792480282  0.4745559867144963  0.2757958849014512
  0.7580447828926866  0.2547607770668612  0.3895640205098837
  0.8142777135711092  0.5672356035215370  0.4308276442530170
  0.9181966749447507  0.7447956985112816  0.7795387097608575
  0.0678773315589867  0.2972212317531954  0.7924120531680875
  0.4942963024567449  0.2368242167437145  0.8063244891057255
  0.8499117376017042  0.0491089145026917  0.9169958578384160
  0.5242308248093989  0.4658379836490641  0.5100666786058128
  0.1566430013044153  0.8295962963109050  0.2722241203173494
  0.1744387811919364  0.3382503713737905  0.7218858699987573
  0.2702728358113390  0.2584977897004210  0.3262100386186065
  0.0122004733332284  0.7125225683809550  0.3061445521123203
  0.2688784645003114  0.7175819631305952  0.0594562912714474
  0.8516229682132557  0.1740455115615641  0.7526724345340482
  0.5463310835447799  0.6208859396001537  0.9590797984925393
  0.6595091620487789  0.4165214549463307  0.7321490096611922
  0.8694601685499895  0.8451808852986356  0.8501047204032705
  0.8059606836217283  0.7570384930199261  0.9288332881444926
  0.2824903494922352  0.2847974541091202  0.7704265822354429
  0.9450800940288003  0.0076659002607261  0.3766357816725271
  0.2123569645643503  0.4585928097819675  0.7486634628647600
  0.0317119130360770  0.6572918995380395  0.4196449763919686
  0.3932702128723059  0.2479573668358997  0.7165930083792283
  0.4992250762334858  0.3673153326065155  0.2246375992590589
  0.5176280055374000  0.8341837941263526  0.3912110007794417
  0.1074289691196432  0.2166866960677199  0.4642917172906600
  0.7596340880174061  0.8527065347934568  0.0037373086009994
  0.8926339038762986  0.2548101600288469  0.3939032657738550
  0.5590355413716259  0.8245444867080308  0.8110030211338718
  0.2076087225173438  0.9250264516524270  0.8347196498776863
  0.4787229863110053  0.2401235180452939  0.2685691669595341
  0.1197444021071692  0.5475285927683323  0.7500258424648341
  0.3374680380703453  0.0129588001123771  0.2441003929638218
  0.2627191544507265  0.2054146152623549  0.8724407131142391
  0.1786979216995599  0.7046658975309630  0.3065011667975314
  0.1862530940023805  0.1981286682077970  0.0742576564682149
  0.9427264466751166  0.9292375703771331  0.9230906174728585
  0.8237551645200967  0.9686608051763252  0.8139309187023411
  0.9279473707231460  0.5798694785350818  0.6708638114743444
  0.1296642881704871  0.5095898031286674  0.3061276758792394
  0.8201218723667262  0.2996362506837222  0.0533946953721169
  0.0952906127874920  0.6901362912477690  0.0288590353208959
  0.8954040730948007  0.5986342086063177  0.1299100309302695
  0.3661557650977714  0.3571562500169530  0.4778003462772806
  0.7422005297637866  0.6598505420905529  0.4812294306443923
  0.5986713981805304  0.3234781867004438  0.3492493090271876
  0.9447520922992969  0.5173301311674930  0.3193668490726120
  0.5784164623763856  0.2797543992854252  0.5098116529126674
  0.6733892621770664  0.5484163550281110  0.7635216011293083
  0.4630418784758508  0.9957045620457085  0.0022927092905210
  0.6128130953611014  0.9089721082947709  0.3522585633738534
  0.6371445290614477  0.7119163188968509  0.2059044742107177
  0.6914463190760510  0.2698176946929548  0.9734910582306376
  0.9411765764608371  0.0890405544650736  0.8000764421456702
  0.6283574095455854  0.0332156661493369  0.3297573156780718
  0.6956482249924146  0.4871102779307581  0.9000936833042943
  0.5060416930967494  0.7160241710239698  0.1065936395886729
  0.4446508695043435  0.6108269452206674  0.6535312577278873
  0.6150550005392051  0.1070291653314799  0.4364003339984951
  0.3522908391329636  0.3817122730961285  0.8263626606387671
  0.3957848713907534  0.7377471547966377  0.9336529900546222
  0.5778358987653569  0.1511817284637837  0.5609880106106500
  0.0863460983173994  0.5912725164888343  0.8630614799871104
  0.6838350862288438  0.7697522757368198  0.6582739536230415
  0.9927527155157775  0.7348799812571265  0.1765915744692715
  0.5185891155473802  0.4163079624802351  0.3849115243846142
  0.8133524644257762  0.7009688274042413  0.1151799584840003
  0.8646000394166022  0.1481793953743379  0.3252730935143588
  0.6874315561795291  0.3582025641634802  0.8793620614302361
  0.0729895418420688  0.1120052692085267  0.5341011400966642
  0.4563827150040193  0.1135266968359632  0.5360962618356746
  0.3776894928533217  0.9083831911714175  0.5328622342985397
  0.0278586684430194  0.6122163288852540  0.1375417207870357
  0.9611624553095308  0.0941282095750176  0.5989329260696363
  0.1880367319331423  0.1753911475301632  0.3741895243546275
  0.3670028813112884  0.7169543166196655  0.3881885375735720
  0.4590572211170718  0.7581024296679044  0.3060727377980631
  0.6847514014412774  0.5795051588208139  0.6366568015428478
  0.6235225347976726  0.3546541706679698  0.6213188156309265
  0.1921681065029133  0.1158619777689717  0.5986263792659882
  0.5056053760342526  0.8696767789985559  0.6879350788746672
  0.8749415133849310  0.7155583775949653  0.5740888476970818
  0.1694649245378550  0.6645343988977053  0.1361075092876165
  0.0089215352219466  0.0692694609734638  0.1703554664584005
  0.4717696267009815  0.6596340452978938  0.4506006850335471
  0.7171224115844169  0.0469413416872880  0.9581537562341712
  0.7649834727159494  0.3453114407605206  0.7750357595354163
  0.9384680459479556  0.3463554828146584  0.1043373334300330
  0.0665811675703694  0.0252110643662744  0.4373848357300426
  0.4828997980598544  0.9526460329077029  0.8793903435098207
  0.7521304384928772  0.4251209510554316  0.3668345308578291
  0.7302673092134924  0.4238819201876785  0.0864733680360733
  0.3768436931426205  0.8875832060149785  0.7076258456883953
  0.6496471146414697  0.9561836905307414  0.7656689858880970
  0.1392222670508634  0.6692320031067391  0.7092366288777180
  0.3574673310894537  0.4724058377178754  0.0375280995352524
  0.4677165836925166  0.9952678350585765  0.5652679555904814
  0.1693174026501808  0.0644568852187288  0.2595744966957250
  0.2971812620860180  0.1469310545869684  0.0269934894686499
  0.3551661915132235  0.8569011350566678  0.9552851839629605
  0.8652376363565029  0.3652485393285451  0.9378916351584095
  0.7057864637350796  0.7104972801680319  0.3144429792024370
  0.8042871076710010  0.1766588510544854  0.8734145945596995
  0.2798528907639641  0.7493170994377709  0.7946112382163009
  0.5015588460003977  0.8896429306337618  0.0680411930246086
  0.7013765702042082  0.8167167416959659  0.1084430066232712
  0.8795935428677052  0.1823677603047531  0.0382354261384176
  0.0966120222241113  0.3725273323355560  0.3380774732554044
  0.0164785452953586  0.8299887996158466  0.4839597529647250
  0.6654853037368906  0.9301746774895283  0.9576858014775582
  0.2163975516052253  0.9881384456387848  0.7164440910225111
  0.3687824656789236  0.1569647005676149  0.6257219848088177
  0.7745987173808356  0.8643391302009382  0.6504611559682644
  0.9070703094987327  0.2169506759907255  0.5835062849156187
  0.0268879658896502  0.9597184794395129  0.6161137033571555
  0.8664033975105048  0.7743801062109845  0.3947553411211157
  0.1828000184324164  0.5352038712983914  0.1269219789798725
  0.2550966041177215  0.7646372948834054  0.6117089744349221
  0.7640443898436888  0.2840372848661284  0.2007657777737175
  0.4950577125891766  0.5038086468145135  0.7048117712697831
  0.8111189492430959  0.4160862249821598  0.5756328657389607
  0.6330708058742202  0.6007930297190792  0.4533133237064647
  0.0435594328655259  0.2746022332613201  0.9827625572935064
  0.9174736654884950  0.0292266770039491  0.1010145173549707
  0.6851337116084156  0.5994364041167543  0.1477368366313815
  0.7208736884287936  0.0783756256169779  0.0803262358409167
  0.4385333301692270  0.1394839991966325  0.8836417767092474
  0.3324149617094966  0.6288975861001380  0.1918837516751996
  0.5218880667938408  0.6616039279714362  0.2600006235393761
  0.7551939187690047  0.6390677987927285  0.9270435164577300
  0.4376486337575093  0.5601683227825720  0.5284633110620675
  0.5445926480570454  0.2158818104401299  0.3983517863410335
  0.3637933196603310  0.9862283956530721  0.1231848796161611
  0.1045769900778113  0.8583190910467354  0.7441951990362355
  0.9950821935893768  0.3357333026856487  0.6944994325932415
  0.1792800737605734  0.5839564938461184  0.5441482029942551
  0.1389125302503169  0.4017084359263464  0.5272437292108902
  0.5885671359800648  0.2191710295226380  0.1129848830048631
  0.9814753587249967  0.5639273108208090  0.5519369504199676
  0.9638346225723460  0.3693745890684445  0.4636184333043888
  0.9779120790923480  0.1013235709308671  0.2950413429093877
  0.1626209952984004  0.9116884904993174  0.3654429491635425
  0.5804185225228108  0.6543467366332950  0.6436749029498690
  0.3163459879698000  0.3827734942884222  0.2910390775182939
  0.8487703172340136  0.4966403013515386  0.1889587708703263
  0.4467049845414321  0.5678880511397894  0.8833171046332623
  0.8066801148712506  0.6914148510389690  0.7499960478359754
  0.3870924009003361  0.5375832196458046  0.3445451925082889
  0.9358459584542614  0.9725508340113254  0.7513113531526150
  0.2339127626037526  0.8759668244370686  0.1855471140009557
  0.4203327649623569  0.9116517247701906  0.4080158946998276
  0.0316302715645386  0.5051949069041310  0.2244944512254580
  0.2983403085871180  0.0232673162639108  0.8879309065083798
  0.8670486655082245  0.9160748228175207  0.4997663809108162
  0.7038050320043041  0.2513773868728410  0.6232681877360493
  0.2255374904866383  0.3233269548123386  0.1201504994092460
  0.2938623593971816  0.0347838375735574  0.4510895075844507
  0.0171216751686178  0.4793126963374217  0.0208520407032704
  0.1944078098856324  0.7336337374788555  0.4328145853986852
  0.7768274058240623  0.1193701189939562  0.2315881006362708
  0.5188439994229661  0.7449260609704851  0.9798434460498799
  0.8558325197877402  0.5157800396685944  0.8178600668887658
  0.6336668111758532  0.8093001737717407  0.5345307533139896
  0.4554574954597578  0.8070490547697626  0.5807112433267368
  0.4986202903116040  0.5882392604945935  0.0766924418644767
  0.6575777951949641  0.9802307267412687  0.4994120465019649
  0.5806952219743278  0.3656992091951068  0.8143078480710286
  0.5857851336426266  0.8720128313799823  0.2349706715027729
  0.0229574400794765  0.4991950298871319  0.7018099197582101
  0.4667085702718270  0.0379141402722591  0.2800035038826884
  0.5616182616102643  0.1693885982297670  0.7113948519927799
  0.0489560580397313  0.5331389832604554  0.4041301003028001
  0.5835541429551242  0.2094342433279932  0.9410840155177642
  0.4466413473608209  0.7631069009471534  0.8125603217856476
  0.7383141010103962  0.1448254187083405  0.4571731513022858
  0.0210675983005026  0.1392143470931890  0.7037846612088584
  0.3941896243276599  0.2198618873785778  0.1600847005790422
  0.1567967723153073  0.1394778820517249  0.8214263001144108
  0.1187533731183119  0.0684500510955362  0.9856670540048661
  0.6339498855985934  0.7221461401607938  0.8153825260596891
  0.0203285302271175  0.4048204366359595  0.8619368585573874
  0.0419644501958634  0.1875604265370306  0.1507946145833387
  0.9208240545390247  0.3123897428563338  0.2870656848393576
  0.4247100980019948  0.3403156939859612  0.9202531569490309
  0.5955162782863470  0.4698704029971366  0.9818129088351295
  0.7487201673252495  0.0637962393685856  0.6336854974287514
  0.2462516091862586  0.5163666178772665  0.0320903057779999
  0.7711516138727780  0.9133284152699458  0.2705127231167894
  0.1719995256799275  0.9947909108124477  0.0652041948446837
  0.3291718220083910  0.9859395027242002  0.6646809678135170
  0.6366998786176634  0.3696659084448610  0.0333060009718686
  0.4043106005719714  0.4315963257580028  0.7225550698532380
  0.1778343270158957  0.0379372260341339  0.8858369849337396
  0.3244676860490929  0.8877163321807440  0.2634597684313264
  0.6849070885901748  0.4534053246284053  0.2742630915496593
  0.4106482517308107  0.1405687037069367  0.3133703543945421
  0.4560675305130830  0.6462492744162960  0.7878840713503640
  0.9014615291329662  0.9793961960027832  0.6281114377548974
  0.8779459721011302  0.8767814668341937  0.2301337977758913
  0.9757046957805777  0.3705990470272960  0.9808505109811194
  0.9730419560026851  0.2385162036310469  0.0709437800410798
  0.7491458058863032  0.0274632303572696  0.3043545178920755
  0.1663130440727344  0.6520877365846152  0.9320859489271670
  0.3354322446278675  0.1157297680153886  0.8154825445390153
  0.3445333043582430  0.3244474035289270  0.1183125966681108
  0.0768413191235303  0.3376436234930416  0.4521779958325211
  0.0751001052622448  0.6394744378180676  0.5334889791428570
  0.2738214733253447  0.0553689452120403  0.0961968724382812
  0.0658991415118614  0.8968965575497080  0.2235157718950964
  0.2698436519721629  0.6195290882086895  0.9800557622775080
  0.9759747587783967  0.3965755217122006  0.3458197639624204
  0.7519444207344123  0.5470070312110458  0.2343381232482294
  0.8120336948555560  0.8199146580680794  0.5505389504553364
  0.5808893483464744  0.9676737189929259  0.0397555300327564
  0.9776762578397540  0.8139427281550902  0.3705601115780024
  0.7688573457408583  0.9609503112634197  0.4534376175368615
  0.9762020515528074  0.6794041847877119  0.9807335756424295
  0.2288721824919298  0.1287704332140283  0.1775649501182778
  0.2501652002043541  0.8116071767340970  0.9768850978999434
  0.8876380533214689  0.7494900976673631  0.0234584937928192
  0.3239240741759067  0.5753651460410781  0.8818513188582626
  0.4107200350326396  0.3431852598970115  0.6428628561398654
  0.0605175871709501  0.8752139444358008  0.9298412466752030
  0.1124683694812851  0.9979950436611285  0.1762180573162508
  0.3187829514159922  0.1750519740343850  0.2432379769568140
  0.3413001162098839  0.3587487222275769  0.0018283008773084
  0.1849971431453681  0.9061657237803109  0.5435765215005864
  0.3282655553819827  0.6403954964414011  0.7815987629409170
  0.6381948899792221  0.0431800262037655  0.5990419305241891
  0.5703443479559415  0.9801550855031611  0.6772528365671675
  0.2694519023352259  0.4679148861138012  0.8599510407457789
  0.2239851290018273  0.6519849518653881  0.6276235073086542
  0.0715899434729359  0.9315335161529186  0.5103290641103225
  0.2145320320247445  0.2227295204952185  0.5297781933166928
  0.3948441395843947  0.4208932733051191  0.3731691997485039
  0.7288403026218407  0.8735336788624042  0.3781793030330825
  0.2313705368698420  0.1113361184791311  0.7257970070124654
  0.0868828135006836  0.4820249270757753  0.9217493577466630
  0.0928041579361962  0.7919465596206784  0.8467210849236386
  0.3778207918052003  0.7209809175784682  0.1232306833730220
  0.8841638699182705  0.6955981571358724  0.3048918800802372
  0.3176204923644642  0.5959084844834343  0.6712171129440240
  0.3854980121083034  0.4103131015837366  0.1932171338215785
  0.5838744360822841  0.3355308194717333  0.1378043734863396
  0.7754720565869104  0.6006113206719510  0.8164909468248392
  0.5765169107441573  0.0641533806906932  0.2232960581828142
  0.6886885218146237  0.3711295717885036  0.1857102928307440
  0.6225315858014655  0.1091275343068971  0.8949719829852381
  0.7566789332716505  0.6775168706051642  0.6023202900168212
  0.5818157482264263  0.1838998164855360  0.2235293906779089
  0.8755535538095351  0.7590559799084294  0.2065936031407234
  0.1641486134425076  0.8922500077221394  0.0000951712022589
  0.6869112507138513  0.3474391631078916  0.4359158574336282
  0.7317713449956996  0.7847147928961089  0.4635773946979310
  0.3890811119776183  0.0768193006878462  0.7128869836808468
  0.9438394118483177  0.2341020999916510  0.6945844038307607
  0.2243150028469324  0.8467757556710697  0.4414287908289745
  0.5078741739689979  0.0661171564988040  0.7307074985208283
  0.2005606401730331  0.7530190885128383  0.8827268053583492
  0.2564693017349289  0.0096490211807780  0.5642453070848452
  0.5289227838222210  0.7667355238399883  0.4959468059010781
  0.4763710108328423  0.3513166823055976  0.5419842991978422
  0.7879821476014397  0.6245292555757147  0.3201437152473651
  0.3050759583721133  0.7110954133829931  0.2791534168577046
  0.6999397818833318  0.4115081889840926  0.5384792679476048
  0.9716953568712319  0.9094533039364604  0.2996788684578289
  0.3056111701457828  0.4785088285505979  0.6723193567718332
  0.6400211242374836  0.5156016891699201  0.5352910454385089
  0.0789434943669783  0.8132808970909222  0.0299845093243776
  0.1522611781438735  0.8209140410445226  0.6322816232431123
  0.7373424626039684  0.0334372069353913  0.7472718451681917
  0.0195837763777909  0.8458947319069677  0.1271170114781244
  0.9184708167351879  0.9127508618844878  0.1238072809923172
  0.3091760287722275  0.2429366392398845  0.4486610777543494
  0.5207048727707581  0.0568404902259330  0.8485643422924508
  0.8851163921604329  0.8699305171714908  0.0191180315847356
  0.6432455043284645  0.0071692562346204  0.1328162517637361
  0.1997180078254736  0.3255495502166866  0.5966949021385971
  0.3760081091078999  0.7915116065040152  0.2210135809412517
  0.8094966550446243  0.0608532675896219  0.4006832332982009
  0.9548660428463764  0.7057626029898271  0.6680845564385608
  0.1971806631355244  0.4415549235974103  0.9530185311590819
  0.5772609028000721  0.6346350325932544  0.7624987656086949
  0.7445967686569497  0.2341136297590802  0.7334131560123806
  0.3277203224289913  0.8379767024455592  0.3777963665213150
  0.6865191228685249  0.9068395512141885  0.1846481533095923
 
  0.00000000E+00  0.00000000E+00  0.00000000E+00
  0.00000000E+00  0.00000000E+00  0.00000000E+00
  0.00000000E+00  0.00000000E+00  0.00000000E+00
  0.00000000E+00  0.00000000E+00  0.00000000E+00
  0.00000000E+00  0.00000000E+00  0.00000000E+00
  0.00000000E+00  0.00000000E+00  0.00000000E+00
  0.00000000E+00  0.00000000E+00  0.00000000E+00
  0.00000000E+00  0.00000000E+00  0.00000000E+00
  0.00000000E+00  0.00000000E+00  0.00000000E+00
  0.00000000E+00  0.00000000E+00  0.00000000E+00
  0.00000000E+00  0.00000000E+00  0.00000000E+00
  0.00000000E+00  0.00000000E+00  0.00000000E+00
  0.00000000E+00  0.00000000E+00  0.00000000E+00
  0.00000000E+00  0.00000000E+00  0.00000000E+00
  0.00000000E+00  0.00000000E+00  0.00000000E+00
  0.00000000E+00  0.00000000E+00  0.00000000E+00
  0.00000000E+00  0.00000000E+00  0.00000000E+00
  0.00000000E+00  0.00000000E+00  0.00000000E+00
  0.00000000E+00  0.00000000E+00  0.00000000E+00
  0.00000000E+00  0.00000000E+00  0.00000000E+00
  0.00000000E+00  0.00000000E+00  0.00000000E+00
  0.00000000E+00  0.00000000E+00  0.00000000E+00
  0.00000000E+00  0.00000000E+00  0.00000000E+00
  0.00000000E+00  0.00000000E+00  0.00000000E+00
  0.00000000E+00  0.00000000E+00  0.00000000E+00
  0.00000000E+00  0.00000000E+00  0.00000000E+00
  0.00000000E+00  0.00000000E+00  0.00000000E+00
  0.00000000E+00  0.00000000E+00  0.00000000E+00
  0.00000000E+00  0.00000000E+00  0.00000000E+00
  0.00000000E+00  0.00000000E+00  0.00000000E+00
  0.00000000E+00  0.00000000E+00  0.00000000E+00
  0.00000000E+00  0.00000000E+00  0.00000000E+00
  0.00000000E+00  0.00000000E+00  0.00000000E+00
  0.00000000E+00  0.00000000E+00  0.00000000E+00
  0.00000000E+00  0.00000000E+00  0.00000000E+00
  0.00000000E+00  0.00000000E+00  0.00000000E+00
  0.00000000E+00  0.00000000E+00  0.00000000E+00
  0.00000000E+00  0.00000000E+00  0.00000000E+00
  0.00000000E+00  0.00000000E+00  0.00000000E+00
  0.00000000E+00  0.00000000E+00  0.00000000E+00
  0.00000000E+00  0.00000000E+00  0.00000000E+00
  0.00000000E+00  0.00000000E+00  0.00000000E+00
  0.00000000E+00  0.00000000E+00  0.00000000E+00
  0.00000000E+00  0.00000000E+00  0.00000000E+00
  0.00000000E+00  0.00000000E+00  0.00000000E+00
  0.00000000E+00  0.00000000E+00  0.00000000E+00
  0.00000000E+00  0.00000000E+00  0.00000000E+00
  0.00000000E+00  0.00000000E+00  0.00000000E+00
  0.00000000E+00  0.00000000E+00  0.00000000E+00
  0.00000000E+00  0.00000000E+00  0.00000000E+00
  0.00000000E+00  0.00000000E+00  0.00000000E+00
  0.00000000E+00  0.00000000E+00  0.00000000E+00
  0.00000000E+00  0.00000000E+00  0.00000000E+00
  0.00000000E+00  0.00000000E+00  0.00000000E+00
  0.00000000E+00  0.00000000E+00  0.00000000E+00
  0.00000000E+00  0.00000000E+00  0.00000000E+00
  0.00000000E+00  0.00000000E+00  0.00000000E+00
  0.00000000E+00  0.00000000E+00  0.00000000E+00
  0.00000000E+00  0.00000000E+00  0.00000000E+00
  0.00000000E+00  0.00000000E+00  0.00000000E+00
  0.00000000E+00  0.00000000E+00  0.00000000E+00
  0.00000000E+00  0.00000000E+00  0.00000000E+00
  0.00000000E+00  0.00000000E+00  0.00000000E+00
  0.00000000E+00  0.00000000E+00  0.00000000E+00
  0.00000000E+00  0.00000000E+00  0.00000000E+00
  0.00000000E+00  0.00000000E+00  0.00000000E+00
  0.00000000E+00  0.00000000E+00  0.00000000E+00
  0.00000000E+00  0.00000000E+00  0.00000000E+00
  0.00000000E+00  0.00000000E+00  0.00000000E+00
  0.00000000E+00  0.00000000E+00  0.00000000E+00
  0.00000000E+00  0.00000000E+00  0.00000000E+00
  0.00000000E+00  0.00000000E+00  0.00000000E+00
  0.00000000E+00  0.00000000E+00  0.00000000E+00
  0.00000000E+00  0.00000000E+00  0.00000000E+00
  0.00000000E+00  0.00000000E+00  0.00000000E+00
  0.00000000E+00  0.00000000E+00  0.00000000E+00
  0.00000000E+00  0.00000000E+00  0.00000000E+00
  0.00000000E+00  0.00000000E+00  0.00000000E+00
  0.00000000E+00  0.00000000E+00  0.00000000E+00
  0.00000000E+00  0.00000000E+00  0.00000000E+00
  0.00000000E+00  0.00000000E+00  0.00000000E+00
  0.00000000E+00  0.00000000E+00  0.00000000E+00
  0.00000000E+00  0.00000000E+00  0.00000000E+00
  0.00000000E+00  0.00000000E+00  0.00000000E+00
  0.00000000E+00  0.00000000E+00  0.00000000E+00
  0.00000000E+00  0.00000000E+00  0.00000000E+00
  0.00000000E+00  0.00000000E+00  0.00000000E+00
  0.00000000E+00  0.00000000E+00  0.00000000E+00
  0.00000000E+00  0.00000000E+00  0.00000000E+00
  0.00000000E+00  0.00000000E+00  0.00000000E+00
  0.00000000E+00  0.00000000E+00  0.00000000E+00
  0.00000000E+00  0.00000000E+00  0.00000000E+00
  0.00000000E+00  0.00000000E+00  0.00000000E+00
  0.00000000E+00  0.00000000E+00  0.00000000E+00
  0.00000000E+00  0.00000000E+00  0.00000000E+00
  0.00000000E+00  0.00000000E+00  0.00000000E+00
  0.00000000E+00  0.00000000E+00  0.00000000E+00
  0.00000000E+00  0.00000000E+00  0.00000000E+00
  0.00000000E+00  0.00000000E+00  0.00000000E+00
  0.00000000E+00  0.00000000E+00  0.00000000E+00
  0.00000000E+00  0.00000000E+00  0.00000000E+00
  0.00000000E+00  0.00000000E+00  0.00000000E+00
  0.00000000E+00  0.00000000E+00  0.00000000E+00
  0.00000000E+00  0.00000000E+00  0.00000000E+00
  0.00000000E+00  0.00000000E+00  0.00000000E+00
  0.00000000E+00  0.00000000E+00  0.00000000E+00
  0.00000000E+00  0.00000000E+00  0.00000000E+00
  0.00000000E+00  0.00000000E+00  0.00000000E+00
  0.00000000E+00  0.00000000E+00  0.00000000E+00
  0.00000000E+00  0.00000000E+00  0.00000000E+00
  0.00000000E+00  0.00000000E+00  0.00000000E+00
  0.00000000E+00  0.00000000E+00  0.00000000E+00
  0.00000000E+00  0.00000000E+00  0.00000000E+00
  0.00000000E+00  0.00000000E+00  0.00000000E+00
  0.00000000E+00  0.00000000E+00  0.00000000E+00
  0.00000000E+00  0.00000000E+00  0.00000000E+00
  0.00000000E+00  0.00000000E+00  0.00000000E+00
  0.00000000E+00  0.00000000E+00  0.00000000E+00
  0.00000000E+00  0.00000000E+00  0.00000000E+00
  0.00000000E+00  0.00000000E+00  0.00000000E+00
  0.00000000E+00  0.00000000E+00  0.00000000E+00
  0.00000000E+00  0.00000000E+00  0.00000000E+00
  0.00000000E+00  0.00000000E+00  0.00000000E+00
  0.00000000E+00  0.00000000E+00  0.00000000E+00
  0.00000000E+00  0.00000000E+00  0.00000000E+00
  0.00000000E+00  0.00000000E+00  0.00000000E+00
  0.00000000E+00  0.00000000E+00  0.00000000E+00
  0.00000000E+00  0.00000000E+00  0.00000000E+00
  0.00000000E+00  0.00000000E+00  0.00000000E+00
  0.00000000E+00  0.00000000E+00  0.00000000E+00
  0.00000000E+00  0.00000000E+00  0.00000000E+00
  0.00000000E+00  0.00000000E+00  0.00000000E+00
  0.00000000E+00  0.00000000E+00  0.00000000E+00
  0.00000000E+00  0.00000000E+00  0.00000000E+00
  0.00000000E+00  0.00000000E+00  0.00000000E+00
  0.00000000E+00  0.00000000E+00  0.00000000E+00
  0.00000000E+00  0.00000000E+00  0.00000000E+00
  0.00000000E+00  0.00000000E+00  0.00000000E+00
  0.00000000E+00  0.00000000E+00  0.00000000E+00
  0.00000000E+00  0.00000000E+00  0.00000000E+00
  0.00000000E+00  0.00000000E+00  0.00000000E+00
  0.00000000E+00  0.00000000E+00  0.00000000E+00
  0.00000000E+00  0.00000000E+00  0.00000000E+00
  0.00000000E+00  0.00000000E+00  0.00000000E+00
  0.00000000E+00  0.00000000E+00  0.00000000E+00
  0.00000000E+00  0.00000000E+00  0.00000000E+00
  0.00000000E+00  0.00000000E+00  0.00000000E+00
  0.00000000E+00  0.00000000E+00  0.00000000E+00
  0.00000000E+00  0.00000000E+00  0.00000000E+00
  0.00000000E+00  0.00000000E+00  0.00000000E+00
  0.00000000E+00  0.00000000E+00  0.00000000E+00
  0.00000000E+00  0.00000000E+00  0.00000000E+00
  0.00000000E+00  0.00000000E+00  0.00000000E+00
  0.00000000E+00  0.00000000E+00  0.00000000E+00
  0.00000000E+00  0.00000000E+00  0.00000000E+00
  0.00000000E+00  0.00000000E+00  0.00000000E+00
  0.00000000E+00  0.00000000E+00  0.00000000E+00
  0.00000000E+00  0.00000000E+00  0.00000000E+00
  0.00000000E+00  0.00000000E+00  0.00000000E+00
  0.00000000E+00  0.00000000E+00  0.00000000E+00
  0.00000000E+00  0.00000000E+00  0.00000000E+00
  0.00000000E+00  0.00000000E+00  0.00000000E+00
  0.00000000E+00  0.00000000E+00  0.00000000E+00
  0.00000000E+00  0.00000000E+00  0.00000000E+00
  0.00000000E+00  0.00000000E+00  0.00000000E+00
  0.00000000E+00  0.00000000E+00  0.00000000E+00
  0.00000000E+00  0.00000000E+00  0.00000000E+00
  0.00000000E+00  0.00000000E+00  0.00000000E+00
  0.00000000E+00  0.00000000E+00  0.00000000E+00
  0.00000000E+00  0.00000000E+00  0.00000000E+00
  0.00000000E+00  0.00000000E+00  0.00000000E+00
  0.00000000E+00  0.00000000E+00  0.00000000E+00
  0.00000000E+00  0.00000000E+00  0.00000000E+00
  0.00000000E+00  0.00000000E+00  0.00000000E+00
  0.00000000E+00  0.00000000E+00  0.00000000E+00
  0.00000000E+00  0.00000000E+00  0.00000000E+00
  0.00000000E+00  0.00000000E+00  0.00000000E+00
  0.00000000E+00  0.00000000E+00  0.00000000E+00
  0.00000000E+00  0.00000000E+00  0.00000000E+00
  0.00000000E+00  0.00000000E+00  0.00000000E+00
  0.00000000E+00  0.00000000E+00  0.00000000E+00
  0.00000000E+00  0.00000000E+00  0.00000000E+00
  0.00000000E+00  0.00000000E+00  0.00000000E+00
  0.00000000E+00  0.00000000E+00  0.00000000E+00
  0.00000000E+00  0.00000000E+00  0.00000000E+00
  0.00000000E+00  0.00000000E+00  0.00000000E+00
  0.00000000E+00  0.00000000E+00  0.00000000E+00
  0.00000000E+00  0.00000000E+00  0.00000000E+00
  0.00000000E+00  0.00000000E+00  0.00000000E+00
  0.00000000E+00  0.00000000E+00  0.00000000E+00
  0.00000000E+00  0.00000000E+00  0.00000000E+00
  0.00000000E+00  0.00000000E+00  0.00000000E+00
  0.00000000E+00  0.00000000E+00  0.00000000E+00
  0.00000000E+00  0.00000000E+00  0.00000000E+00
  0.00000000E+00  0.00000000E+00  0.00000000E+00
  0.00000000E+00  0.00000000E+00  0.00000000E+00
  0.00000000E+00  0.00000000E+00  0.00000000E+00
  0.00000000E+00  0.00000000E+00  0.00000000E+00
  0.00000000E+00  0.00000000E+00  0.00000000E+00
  0.00000000E+00  0.00000000E+00  0.00000000E+00
  0.00000000E+00  0.00000000E+00  0.00000000E+00
  0.00000000E+00  0.00000000E+00  0.00000000E+00
  0.00000000E+00  0.00000000E+00  0.00000000E+00
  0.00000000E+00  0.00000000E+00  0.00000000E+00
  0.00000000E+00  0.00000000E+00  0.00000000E+00
  0.00000000E+00  0.00000000E+00  0.00000000E+00
  0.00000000E+00  0.00000000E+00  0.00000000E+00
  0.00000000E+00  0.00000000E+00  0.00000000E+00
  0.00000000E+00  0.00000000E+00  0.00000000E+00
  0.00000000E+00  0.00000000E+00  0.00000000E+00
  0.00000000E+00  0.00000000E+00  0.00000000E+00
  0.00000000E+00  0.00000000E+00  0.00000000E+00
  0.00000000E+00  0.00000000E+00  0.00000000E+00
  0.00000000E+00  0.00000000E+00  0.00000000E+00
  0.00000000E+00  0.00000000E+00  0.00000000E+00
  0.00000000E+00  0.00000000E+00  0.00000000E+00
  0.00000000E+00  0.00000000E+00  0.00000000E+00
  0.00000000E+00  0.00000000E+00  0.00000000E+00
  0.00000000E+00  0.00000000E+00  0.00000000E+00
  0.00000000E+00  0.00000000E+00  0.00000000E+00
  0.00000000E+00  0.00000000E+00  0.00000000E+00
  0.00000000E+00  0.00000000E+00  0.00000000E+00
  0.00000000E+00  0.00000000E+00  0.00000000E+00
  0.00000000E+00  0.00000000E+00  0.00000000E+00
  0.00000000E+00  0.00000000E+00  0.00000000E+00
  0.00000000E+00  0.00000000E+00  0.00000000E+00
  0.00000000E+00  0.00000000E+00  0.00000000E+00
  0.00000000E+00  0.00000000E+00  0.00000000E+00
  0.00000000E+00  0.00000000E+00  0.00000000E+00
  0.00000000E+00  0.00000000E+00  0.00000000E+00
  0.00000000E+00  0.00000000E+00  0.00000000E+00
  0.00000000E+00  0.00000000E+00  0.00000000E+00