Amorphous Sb                            
   1.00000000000000     
    20.2778869700586917    0.0000000000000000    0.0000000000000000
     0.0000000000000000   20.2778869700586917    0.0000000000000000
     0.0000000000000000    0.0000000000000000   20.2778869700586917
   Ge   As   Se
   120    60   120
Direct
  0.1797693491417246  0.2173149847915892  0.0616127783554106
  0.8669904647991048  0.6664635726499912  0.4468692394895070
  0.4271644936494162  0.2319191119918218  0.2248346474903499
  0.5145822739855654  0.5465049875493034  0.0210359492857431
  0.1014893499045023  0.5087498106021042  0.0081591191360134
  0.1227844030861166  0.9532340016468409  0.9488901650310142
  0.3099035308027970  0.5255519395688760  0.3614029145580291
  0.4755585603757814  0.0315192801566271  0.9883664216812936
  0.3043493797844936  0.5232729920679653  0.0443202716155616
  0.5479544541410042  0.0305537115280293  0.2811516205800346
  0.7583008739003663  0.2516372894215320  0.3017856724823771
  0.7742459468148857  0.0703488082516074  0.2170411306451979
  0.6081197915271547  0.3559145770440407  0.2349331869185951
  0.3271058636040599  0.4607017350536090  0.9349190303206394
  0.6733617627751303  0.3020675163328777  0.4021553928597426
  0.0040270270585443  0.8914164230240106  0.4647094221922668
  0.0249376135008173  0.8184061987835667  0.9831168592698351
  0.9718917549299610  0.5488912569018740  0.5607713446014423
  0.8483356801637977  0.3484057586421037  0.9188340144899536
  0.1382175016918168  0.2103750176939872  0.7178451319672553
  0.6677949898072079  0.1161512017688620  0.4136449078994704
  0.2964049846400418  0.1396050874870176  0.3718667047784653
  0.4812804151889056  0.8220337417955487  0.9182970397809418
  0.5618808127791264  0.7089097907418934  0.9501100747286534
  0.3076453100779131  0.4945492291897973  0.1954511172263251
  0.0457889332763862  0.1451320538969242  0.3508197959742559
  0.0522587151765089  0.9902697514964075  0.6583724323675180
  0.6685363217497209  0.3904634890461812  0.8424184280139008
  0.6883080304392016  0.7325933413358107  0.6517153766181022
  0.2258567235449776  0.3085724698049230  0.7246818248928361
  0.0945673685393073  0.4747198097552405  0.1708966295681034
  0.8744081001050354  0.2429148725237326  0.8404468714631367
  0.9477795955632907  0.3911075722596448  0.4754193069615927
  0.6467628451150572  0.0214744900848374  0.1103200720252538
  0.9637008720639800  0.4271267607623444  0.0400539289013351
  0.5318300554770939  0.9282290032794323  0.4560244642415129
  0.9519991118829743  0.3392561753591317  0.3099541185480099
  0.7373554014305790  0.5785494967360034  0.5320815324193641
  0.1590228793421002  0.9393072364929442  0.7840309118710235
  0.5586887927315813  0.3202908617941146  0.6751917457687461
  0.5070954363789806  0.4488485179000176  0.4932548366697221
  0.5130075841015146  0.6247743736113263  0.2306399420151596
  0.0648056462206495  0.4150068430784005  0.6684707540436866
  0.8839414003765632  0.3313816497241120  0.0713554216233516
  0.9081091141872636  0.8905972098474854  0.2807685659731152
  0.7874389046355293  0.1525577313558256  0.8256467875091611
  0.0912776887596392  0.3526280398781476  0.3312190044826631
  0.7215353974877010  0.6417939361934054  0.8220411135628329
  0.1913001293112691  0.4749014735135981  0.8261920554714167
  0.8599450748208352  0.1122955612030877  0.9868604058343642
  0.6662130823947189  0.6491786057897485  0.1125148522498829
  0.8446953287979704  0.0494899732991464  0.6173419022099447
  0.5268066639820180  0.3331940522604381  0.0651929086818172
  0.6783184469247636  0.2256522182216101  0.9942177232456534
  0.2109902855887748  0.7995791992638734  0.2920323240004067
  0.3800476628946637  0.1466873425261059  0.0569804247279109
  0.3861888553953461  0.7759446296478315  0.5823519229981629
  0.5191748109336382  0.0592485048543165  0.5695357995277908
  0.3780163492812326  0.0593278689757005  0.4879941610109403
  0.6038211540275582  0.4817021318747515  0.5655967746773199
  0.2168216360496236  0.1023271802381130  0.8748034007048295
  0.1590361280513912  0.3721403748383700  0.4899885773138249
  0.4381312673441422  0.9951028576788316  0.1011739205960263
  0.8266110974412136  0.2584060147739622  0.4333546677675328
  0.9774513095004996  0.5357240006302610  0.1908769985888769
  0.0153184666444858  0.8576105299844718  0.7827599055986706
  0.8234958106838917  0.9415008254337636  0.5470184957407699
  0.0445474707101726  0.8579667488576501  0.2895324901667645
  0.2924906601258361  0.2396385697394439  0.2084204954371951
  0.7016630643879814  0.4205930117927117  0.0631266013867201
  0.8647065471564004  0.3411960925662346  0.6392842869586699
  0.5484276015446680  0.0446089191017269  0.8306337916541784
  0.4372599987234164  0.4621026881340407  0.6537335048429920
  0.9310025628500475  0.9051558556898774  0.9505009825529397
  0.7573898589676765  0.9888092905622931  0.9109144377015786
  0.7574959739998149  0.7905125553907705  0.8152943424240764
  0.4050370200041998  0.2499730420680716  0.3778425373487934
  0.9060531935983325  0.1715303136887612  0.1581003752633187
  0.8063479991727893  0.2907630850217318  0.1915637647590353
  0.3069125866177332  0.8867913556365229  0.1605918708939948
  0.7212820765658251  0.0424700876577633  0.3220571072530475
  0.9774082788353086  0.2376833570403329  0.7604938028011545
  0.8917782305541190  0.5974322011394542  0.9927953286026771
  0.0090950925107194  0.4982330148469762  0.7705813853675867
  0.5174873273594432  0.4879651425794357  0.8446899134217544
  0.4706309966677483  0.5055793828480230  0.2996652053662654
  0.3440614097793848  0.7345790284712315  0.0235086283385658
  0.1527931903843162  0.0228432725910851  0.3872939504812950
  0.9341475399479192  0.7232759947825966  0.1378931148224785
  0.5561404422767444  0.2447925175579918  0.2572301857056430
  0.5903353023530011  0.8758260694749147  0.7448268495904153
  0.0433152940054930  0.5545238359102750  0.3658466658088940
  0.7465327497766031  0.9314766158877593  0.4487834680092118
  0.0072337140105791  0.0959707554506501  0.1332856097400506
  0.3123008913916415  0.5151175858018716  0.8208273967440686
  0.6127520203546865  0.9440587909759568  0.9471611055025653
  0.4320668687339891  0.1403784941693895  0.9385074520168316
  0.2935876759803426  0.6175897811601786  0.5251730225818216
  0.9327945495106589  0.6898817337074750  0.7267651603734260
  0.1018406049487426  0.6716680744521069  0.1051366065528513
  0.4871267738777686  0.7890858632062043  0.3840207022534490
  0.4975492447943875  0.7319254754916422  0.6703278584624736
  0.1636349744004223  0.0390187243650173  0.1832092352041798
  0.3888543604005145  0.6277101695400719  0.3755313340642732
  0.5325312283282373  0.3582514120109380  0.8934909090724955
  0.6287354300670297  0.5112582400244206  0.7042557992652040
  0.9301511889826923  0.9523641091402664  0.1317188908767460
  0.6536584341614308  0.4666174539024519  0.3970582993492452
  0.7940931518883882  0.7678900711388049  0.4769862511257171
  0.2306189192449367  0.8060016487339480  0.7373307432653587
  0.1639947370188171  0.6139413288556204  0.7199239806572195
  0.3528829423774724  0.2559733284646172  0.9290665714338049
  0.9247565142487126  0.7108869328848043  0.8583032260462985
  0.4156532989704663  0.2655752083429365  0.6199017547566298
  0.7575357734489619  0.8870150246518502  0.0513182329367999
  0.0183935402586668  0.2674438104679069  0.4896480397316511
  0.2645439963420838  0.2161359406864314  0.5716315350504491
  0.5817332061743838  0.3122267096237909  0.5523994430691062
  0.0923568772571474  0.6043654303878834  0.5778608386786114
  0.3635591871455660  0.2051758888169907  0.7979085067777263
  0.3498361989033939  0.8312591028503918  0.2689206848920162
  0.6691275723220014  0.3868403329018462  0.5094252089858101
  0.0489235984710375  0.9594251325689578  0.3663837289774756
  0.4020914365067112  0.8926168220977841  0.7632124050159327
  0.3508754144683938  0.7935291761064588  0.8163430470465352
  0.6394370180843638  0.9947079044647258  0.4503391813007028
  0.0613163297866188  0.6993238955827272  0.7234628637530361
  0.9749158613784338  0.0403654615185747  0.3120986876776245
  0.0730291265018373  0.1899914007362847  0.8231856693789131
  0.7166298086599365  0.8263138553264209  0.3951363814750542
  0.6149162545539691  0.5486632054308158  0.2665723384493224
  0.7607690105965637  0.7268502495220363  0.0942784564297363
  0.7359763606716466  0.2168466006164595  0.5502633331358210
  0.6635578085170943  0.1799457071909064  0.2550292851476575
  0.7053980299113939  0.1419327574388546  0.1448720353097143
  0.2236540578129737  0.0604502289118701  0.2936179044998271
  0.2385824599570846  0.6027393845174628  0.2858855234109155
  0.5183562505228694  0.7849799256005461  0.1059921242556092
  0.3302644074026235  0.6381587410624994  0.8443771683294895
  0.9967803795559980  0.8771704684499972  0.6626990869757863
  0.7896174725278411  0.5763371736026526  0.4142216750696411
  0.4773657194226017  0.8483230283624111  0.2730654545297094
  0.2807227389015269  0.3992447708125639  0.4883615331554109
  0.8005815206526563  0.2083612830617561  0.0960215824675029
  0.7051006750834508  0.3758313484460568  0.3058315107427294
  0.2165032226835237  0.6917712758316666  0.4604624003845225
  0.2739524203698950  0.4983597276820168  0.5670678293635085
  0.1111321000419977  0.0499407181152766  0.7490220443619726
  0.2791551861846032  0.6953880463865998  0.3543947452899928
  0.1152873977452393  0.8058328329770098  0.3795031284410262
  0.1503825643639252  0.0812956353108298  0.4984238141363827
  0.0403326542673047  0.7265536930630523  0.4390153665004149
  0.7545767442394795  0.7517234195900573  0.2158819222446930
  0.1101379621801548  0.6239295715813017  0.4541369991796140
  0.8236585046524126  0.5161736616280446  0.8656647073362620
  0.1386901027171912  0.8857465482004117  0.1032820793064115
  0.2334681422889269  0.8068686985422295  0.0978925094763374
  0.6145672972859082  0.1955669189894780  0.5314711743315178
  0.9479804652908272  0.5210935979255261  0.8783432335148096
  0.7756599567148550  0.6340956300977824  0.2534977342601244
  0.2226249071340668  0.3322923655994722  0.1530760688936810
  0.9318865822240626  0.2907744241118098  0.1851465412549664
  0.6666636144134086  0.8532316929260216  0.6429681618576709
  0.9843287375921508  0.5447682939300516  0.0645315456345655
  0.1042652533336587  0.9754698174841779  0.5450918910673812
  0.7163954141267098  0.1101723175236123  0.7303766394450721
  0.1888099304864863  0.7323867355974593  0.1831605273991106
  0.8870782212683256  0.0521067783282103  0.3983727945347272
  0.1988556397780171  0.8248581584467453  0.5372907977344594
  0.2604956817801383  0.9932671103007588  0.1135325997028170
  0.4133331138123040  0.6194172643309542  0.4966296209842249
  0.5938096517480432  0.1337465489162251  0.6366162777516717
  0.0646568727848203  0.1538060396600101  0.9650763386877967
  0.7045212465187647  0.5572933277483942  0.1843208402339171
  0.2836530297035223  0.6553544550278849  0.1827564317943357
  0.1968136189473198  0.7391865488201631  0.6291507325932151
  0.8130229266354293  0.9660800957922727  0.3518668417736924
  0.4937975786286745  0.9484422065558901  0.8994609918841668
  0.3502485108909392  0.0667474690925147  0.1503516164759871
  0.4744917448407180  0.7983797192596783  0.7883786976921200
  0.5997836928964281  0.8142784245342516  0.4374729384233632
  0.9320976977222472  0.2043985390096096  0.9400823721189130
  0.5484786519586119  0.8372294087234647  0.6253760428333547
  0.6048476459921132  0.8070617664105550  0.0269527673631032
  0.2053524560079971  0.9343053618428471  0.5949922464674295
  0.3263817591086824  0.4887348464533020  0.7056952596852391
  0.5696494896314612  0.4309546406457455  0.9885612575302024
  0.0843519531825014  0.3997389770320011  0.0729871278149495
  0.5368876234763754  0.9754115462531965  0.1665279416260370
  0.0963252753657939  0.7737420896742537  0.8108058757124272
  0.5548858078668634  0.2540399451371431  0.9709672319261629
  0.7683081264598355  0.1177592251668857  0.4898642033307459
  0.9941110010303610  0.7028300936238807  0.9595926261277036
  0.4757419162701928  0.1788469692918152  0.1256260727883723
  0.1810010253117478  0.1038930806965931  0.0000350563449740
  0.5964019449616426  0.6609042503691271  0.6748788205377541
  0.6405489266794628  0.5131433563360961  0.8419825529197494
  0.1449219473874629  0.9039947237508231  0.2246566173289750
  0.9520856873534931  0.2309508988188714  0.3726570969263970
  0.1064834425397384  0.3206939583442227  0.5852823834754111
  0.8985685698467984  0.2621368441855510  0.5478371922801191
  0.7797917406185907  0.6918406475613640  0.7166933688949415
  0.8722777857916167  0.7644356299611131  0.2432519892343586
  0.5935574146629531  0.0603369478742371  0.0028187170244567
  0.1052356921927739  0.5640633171306738  0.8249918002782861
  0.5358348121360298  0.4271582791384916  0.3753038138316978
  0.3436152343266509  0.0933629632314869  0.8603929610930683
  0.8077258211541790  0.7055561788600353  0.8991641720860029
  0.6654999107061225  0.9873572553962509  0.8334630018694483
  0.1048735424006877  0.2566216150830400  0.9187986690402212
  0.0297776262818486  0.1867818846246648  0.6638357040315738
  0.8116140640861942  0.9655419979927293  0.1704157038278762
  0.3124539774132777  0.2474551646823150  0.0501338122813587
  0.0410552142195361  0.9564906164855592  0.8442640705112049
  0.7274082674619013  0.3389490141978378  0.9682702298746504
  0.5504579981151374  0.4636389617939446  0.2036572902706386
  0.5337197181652404  0.2084850322221264  0.7108629929248577
  0.6463239921999986  0.9554558846743936  0.2871347126240424
  0.1412186924825070  0.8311467019701008  0.9515169029076999
  0.3115678928760116  0.6833535779729344  0.6275867962939105
  0.8910071520525223  0.4456283416096367  0.5715758228072165
  0.5637339608298902  0.2478451839327519  0.3763709458455750
  0.3089029698596092  0.8137496548000420  0.4910996949268843
  0.3018130469735582  0.3375484685554312  0.5918221582957901
  0.5930744072192289  0.7161236735975621  0.1843299061241928
  0.7988584716154603  0.4097123916313729  0.8149078004386388
  0.9631163197380695  0.6694975143606023  0.3656873868987103
  0.9862579338305841  0.4158504989165789  0.9197536920868382
  0.5037764701217233  0.6693552566617691  0.3505303802681818
  0.1541694682722941  0.4961099610504543  0.5854817703953347
  0.3991692347444981  0.5009189444213714  0.4790581743017900
  0.6318883165312276  0.6111237577621648  0.0048950581281748
  0.1972063199412104  0.1065103956874067  0.6905660525035237
  0.3673912630780540  0.4367886836200552  0.2945608129350698
  0.0633377900715064  0.7709378158950241  0.6273554761691543
  0.1307261325043942  0.3800569861475746  0.7731424055893671
  0.2529537175117913  0.9627322707392063  0.3622379774888947
  0.9288346198117881  0.9902049899481964  0.4949531527006468
  0.0404879314840374  0.1262630555920644  0.4763329074634473
  0.1234890052745908  0.4496496747788640  0.4011787999592167
  0.8517350089541819  0.0528021161803545  0.8704301248380522
  0.2276440751042164  0.9730425746610104  0.8832844643940346
  0.3546657910545400  0.8272214595999794  0.9339917110352617
  0.7749594754805996  0.1942100217310059  0.6642941012999215
  0.6548754722806123  0.3825173115639887  0.7107559725478910
  0.3359874996283672  0.8558373514860589  0.6670062228663552
  0.4716742489120811  0.3355155588103120  0.5082726588892159
  0.8531749658913793  0.3766540175518238  0.3950381920362988
  0.1678381631093277  0.5523689169822723  0.1110571878663755
  0.3374256015152138  0.1816872372045402  0.6733728450103901
  0.5505571173220992  0.9920168799574343  0.7211256369881343
  0.6437445635405921  0.3226078562598427  0.1218910452336306
  0.4658358442170756  0.6941923115485580  0.0449869282857752
  0.6204653470727939  0.5682473763534865  0.4827067068596535
  0.6849722357368100  0.1766502379362710  0.8797880550235241
  0.2560082687309344  0.2546483427474259  0.8366928466974258
  0.6242626777676966  0.9947214526339893  0.5696857021720609
  0.4002087133738452  0.5380399910851419  0.1194921619734075
  0.7797749529085706  0.8730165670410457  0.9247581623440357
  0.4529129836366467  0.3560396588014538  0.7198909133050678
  0.9626901872776726  0.3536557881085662  0.7222522132979183
  0.8579655221300821  0.1396724415261646  0.2655940090278227
  0.8070852604189431  0.4032036052407962  0.1401946155509862
  0.1895805765379430  0.1707636525464133  0.1813259249010379
  0.9039771567816194  0.6493681308836823  0.5594041824563430
  0.1780561544684375  0.4075419916998976  0.2400685416648250
  0.9551987582983825  0.0366108420119340  0.0337134639409779
  0.4075944658113563  0.3656582778592206  0.9398937909775429
  0.9367744262937343  0.0005863486486125  0.6908154520023756
  0.9337104798107650  0.5702102606163796  0.7040767417491764
  0.3674211891038386  0.1913081447211275  0.4988581456573848
  0.4675853577144500  0.9482823718160295  0.3399829120990743
  0.7656327634578105  0.0063986469124301  0.7004903504148928
  0.7122171135990055  0.6476400014852266  0.3552970337703386
  0.5066365493827830  0.5354244554607311  0.7276749394517565
  0.2258187176704446  0.6864080696072881  0.8021574351519878
  0.1385091625282992  0.2759480341396953  0.4161002359807108
  0.3143831678727786  0.4019718528624170  0.1144194444941788
  0.3987570355349139  0.8829712094564240  0.0811421355629787
  0.9232961049275228  0.8335716786308002  0.3895008664565959
  0.8189788580954936  0.4904782158444583  0.9829419856639835
  0.0432054680212671  0.2005782895132774  0.0746583328624508
  0.9117650530556544  0.8324177018514144  0.8387507765959812
  0.0443478286710511  0.8094792003926935  0.1061993122383610
  0.2081923226534638  0.4241760169980690  0.9342843447896035
  0.2931002804813378  0.6395921390652733  0.9587597266785148
  0.4747535405346542  0.5834900112536615  0.9086069061952056
  0.7600610067102321  0.0118534403350132  0.0282915102241201
  0.7058149809750062  0.7023383193899301  0.5339433241344561
  0.4980066495753770  0.0784389257360920  0.4534682214971650
  0.3770698281743062  0.7291686533623555  0.2105419407102524
  0.8463131585819053  0.8261564019715456  0.5692161505626959
  0.6456822945084129  0.7401732869103753  0.8412756637395535
  0.8420945647135369  0.6369589324337437  0.1101997589413999
  0.0246687658489432  0.6504010436107821  0.2030372471392217
  0.9535417364436281  0.5150482529254549  0.4391857192957094
  0.4150953590597887  0.0166683143345632  0.5999303632853265
  0.8822399103005429  0.8580564919972344  0.0616368078197908
  0.4099078671464650  0.1379032053222998  0.3145341732959417
  0.2817278515930412  0.2594021581901234  0.3327487755897342
 
  0.00000000E+00  0.00000000E+00  0.00000000E+00
  0.00000000E+00  0.00000000E+00  0.00000000E+00
  0.00000000E+00  0.00000000E+00  0.00000000E+00
  0.00000000E+00  0.00000000E+00  0.00000000E+00
  0.00000000E+00  0.00000000E+00  0.00000000E+00
  0.00000000E+00  0.00000000E+00  0.00000000E+00
  0.00000000E+00  0.00000000E+00  0.00000000E+00
  0.00000000E+00  0.00000000E+00  0.00000000E+00
  0.00000000E+00  0.00000000E+00  0.00000000E+00
  0.00000000E+00  0.00000000E+00  0.00000000E+00
  0.00000000E+00  0.00000000E+00  0.00000000E+00
  0.00000000E+00  0.00000000E+00  0.00000000E+00
  0.00000000E+00  0.00000000E+00  0.00000000E+00
  0.00000000E+00  0.00000000E+00  0.00000000E+00
  0.00000000E+00  0.00000000E+00  0.00000000E+00
  0.00000000E+00  0.00000000E+00  0.00000000E+00
  0.00000000E+00  0.00000000E+00  0.00000000E+00
  0.00000000E+00  0.00000000E+00  0.00000000E+00
  0.00000000E+00  0.00000000E+00  0.00000000E+00
  0.00000000E+00  0.00000000E+00  0.00000000E+00
  0.00000000E+00  0.00000000E+00  0.00000000E+00
  0.00000000E+00  0.00000000E+00  0.00000000E+00
  0.00000000E+00  0.00000000E+00  0.00000000E+00
  0.00000000E+00  0.00000000E+00  0.00000000E+00
  0.00000000E+00  0.00000000E+00  0.00000000E+00
  0.00000000E+00  0.00000000E+00  0.00000000E+00
  0.00000000E+00  0.00000000E+00  0.00000000E+00
  0.00000000E+00  0.00000000E+00  0.00000000E+00
  0.00000000E+00  0.00000000E+00  0.00000000E+00
  0.00000000E+00  0.00000000E+00  0.00000000E+00
  0.00000000E+00  0.00000000E+00  0.00000000E+00
  0.00000000E+00  0.00000000E+00  0.00000000E+00
  0.00000000E+00  0.00000000E+00  0.00000000E+00
  0.00000000E+00  0.00000000E+00  0.00000000E+00
  0.00000000E+00  0.00000000E+00  0.00000000E+00
  0.00000000E+00  0.00000000E+00  0.00000000E+00
  0.00000000E+00  0.00000000E+00  0.00000000E+00
  0.00000000E+00  0.00000000E+00  0.00000000E+00
  0.00000000E+00  0.00000000E+00  0.00000000E+00
  0.00000000E+00  0.00000000E+00  0.00000000E+00
  0.00000000E+00  0.00000000E+00  0.00000000E+00
  0.00000000E+00  0.00000000E+00  0.00000000E+00
  0.00000000E+00  0.00000000E+00  0.00000000E+00
  0.00000000E+00  0.00000000E+00  0.00000000E+00
  0.00000000E+00  0.00000000E+00  0.00000000E+00
  0.00000000E+00  0.00000000E+00  0.00000000E+00
  0.00000000E+00  0.00000000E+00  0.00000000E+00
  0.00000000E+00  0.00000000E+00  0.00000000E+00
  0.00000000E+00  0.00000000E+00  0.00000000E+00
  0.00000000E+00  0.00000000E+00  0.00000000E+00
  0.00000000E+00  0.00000000E+00  0.00000000E+00
  0.00000000E+00  0.00000000E+00  0.00000000E+00
  0.00000000E+00  0.00000000E+00  0.00000000E+00
  0.00000000E+00  0.00000000E+00  0.00000000E+00
  0.00000000E+00  0.00000000E+00  0.00000000E+00
  0.00000000E+00  0.00000000E+00  0.00000000E+00
  0.00000000E+00  0.00000000E+00  0.00000000E+00
  0.00000000E+00  0.00000000E+00  0.00000000E+00
  0.00000000E+00  0.00000000E+00  0.00000000E+00
  0.00000000E+00  0.00000000E+00  0.00000000E+00
  0.00000000E+00  0.00000000E+00  0.00000000E+00
  0.00000000E+00  0.00000000E+00  0.00000000E+00
  0.00000000E+00  0.00000000E+00  0.00000000E+00
  0.00000000E+00  0.00000000E+00  0.00000000E+00
  0.00000000E+00  0.00000000E+00  0.00000000E+00
  0.00000000E+00  0.00000000E+00  0.00000000E+00
  0.00000000E+00  0.00000000E+00  0.00000000E+00
  0.00000000E+00  0.00000000E+00  0.00000000E+00
  0.00000000E+00  0.00000000E+00  0.00000000E+00
  0.00000000E+00  0.00000000E+00  0.00000000E+00
  0.00000000E+00  0.00000000E+00  0.00000000E+00
  0.00000000E+00  0.00000000E+00  0.00000000E+00
  0.00000000E+00  0.00000000E+00  0.00000000E+00
  0.00000000E+00  0.00000000E+00  0.00000000E+00
  0.00000000E+00  0.00000000E+00  0.00000000E+00
  0.00000000E+00  0.00000000E+00  0.00000000E+00
  0.00000000E+00  0.00000000E+00  0.00000000E+00
  0.00000000E+00  0.00000000E+00  0.00000000E+00
  0.00000000E+00  0.00000000E+00  0.00000000E+00
  0.00000000E+00  0.00000000E+00  0.00000000E+00
  0.00000000E+00  0.00000000E+00  0.00000000E+00
  0.00000000E+00  0.00000000E+00  0.00000000E+00
  0.00000000E+00  0.00000000E+00  0.00000000E+00
  0.00000000E+00  0.00000000E+00  0.00000000E+00
  0.00000000E+00  0.00000000E+00  0.00000000E+00
  0.00000000E+00  0.00000000E+00  0.00000000E+00
  0.00000000E+00  0.00000000E+00  0.00000000E+00
  0.00000000E+00  0.00000000E+00  0.00000000E+00
  0.00000000E+00  0.00000000E+00  0.00000000E+00
  0.00000000E+00  0.00000000E+00  0.00000000E+00
  0.00000000E+00  0.00000000E+00  0.00000000E+00
  0.00000000E+00  0.00000000E+00  0.00000000E+00
  0.00000000E+00  0.00000000E+00  0.00000000E+00
  0.00000000E+00  0.00000000E+00  0.00000000E+00
  0.00000000E+00  0.00000000E+00  0.00000000E+00
  0.00000000E+00  0.00000000E+00  0.00000000E+00
  0.00000000E+00  0.00000000E+00  0.00000000E+00
  0.00000000E+00  0.00000000E+00  0.00000000E+00
  0.00000000E+00  0.00000000E+00  0.00000000E+00
  0.00000000E+00  0.00000000E+00  0.00000000E+00
  0.00000000E+00  0.00000000E+00  0.00000000E+00
  0.00000000E+00  0.00000000E+00  0.00000000E+00
  0.00000000E+00  0.00000000E+00  0.00000000E+00
  0.00000000E+00  0.00000000E+00  0.00000000E+00
  0.00000000E+00  0.00000000E+00  0.00000000E+00
  0.00000000E+00  0.00000000E+00  0.00000000E+00
  0.00000000E+00  0.00000000E+00  0.00000000E+00
  0.00000000E+00  0.00000000E+00  0.00000000E+00
  0.00000000E+00  0.00000000E+00  0.00000000E+00
  0.00000000E+00  0.00000000E+00  0.00000000E+00
  0.00000000E+00  0.00000000E+00  0.00000000E+00
  0.00000000E+00  0.00000000E+00  0.00000000E+00
  0.00000000E+00  0.00000000E+00  0.00000000E+00
  0.00000000E+00  0.00000000E+00  0.00000000E+00
  0.00000000E+00  0.00000000E+00  0.00000000E+00
  0.00000000E+00  0.00000000E+00  0.00000000E+00
  0.00000000E+00  0.00000000E+00  0.00000000E+00
  0.00000000E+00  0.00000000E+00  0.00000000E+00
  0.00000000E+00  0.00000000E+00  0.00000000E+00
  0.00000000E+00  0.00000000E+00  0.00000000E+00
  0.00000000E+00  0.00000000E+00  0.00000000E+00
  0.00000000E+00  0.00000000E+00  0.00000000E+00
  0.00000000E+00  0.00000000E+00  0.00000000E+00
  0.00000000E+00  0.00000000E+00  0.00000000E+00
  0.00000000E+00  0.00000000E+00  0.00000000E+00
  0.00000000E+00  0.00000000E+00  0.00000000E+00
  0.00000000E+00  0.00000000E+00  0.00000000E+00
  0.00000000E+00  0.00000000E+00  0.00000000E+00
  0.00000000E+00  0.00000000E+00  0.00000000E+00
  0.00000000E+00  0.00000000E+00  0.00000000E+00
  0.00000000E+00  0.00000000E+00  0.00000000E+00
  0.00000000E+00  0.00000000E+00  0.00000000E+00
  0.00000000E+00  0.00000000E+00  0.00000000E+00
  0.00000000E+00  0.00000000E+00  0.00000000E+00
  0.00000000E+00  0.00000000E+00  0.00000000E+00
  0.00000000E+00  0.00000000E+00  0.00000000E+00
  0.00000000E+00  0.00000000E+00  0.00000000E+00
  0.00000000E+00  0.00000000E+00  0.00000000E+00
  0.00000000E+00  0.00000000E+00  0.00000000E+00
  0.00000000E+00  0.00000000E+00  0.00000000E+00
  0.00000000E+00  0.00000000E+00  0.00000000E+00
  0.00000000E+00  0.00000000E+00  0.00000000E+00
  0.00000000E+00  0.00000000E+00  0.00000000E+00
  0.00000000E+00  0.00000000E+00  0.00000000E+00
  0.00000000E+00  0.00000000E+00  0.00000000E+00
  0.00000000E+00  0.00000000E+00  0.00000000E+00
  0.00000000E+00  0.00000000E+00  0.00000000E+00
  0.00000000E+00  0.00000000E+00  0.00000000E+00
  0.00000000E+00  0.00000000E+00  0.00000000E+00
  0.00000000E+00  0.00000000E+00  0.00000000E+00
  0.00000000E+00  0.00000000E+00  0.00000000E+00
  0.00000000E+00  0.00000000E+00  0.00000000E+00
  0.00000000E+00  0.00000000E+00  0.00000000E+00
  0.00000000E+00  0.00000000E+00  0.00000000E+00
  0.00000000E+00  0.00000000E+00  0.00000000E+00
  0.00000000E+00  0.00000000E+00  0.00000000E+00
  0.00000000E+00  0.00000000E+00  0.00000000E+00
  0.00000000E+00  0.00000000E+00  0.00000000E+00
  0.00000000E+00  0.00000000E+00  0.00000000E+00
  0.00000000E+00  0.00000000E+00  0.00000000E+00
  0.00000000E+00  0.00000000E+00  0.00000000E+00
  0.00000000E+00  0.00000000E+00  0.00000000E+00
  0.00000000E+00  0.00000000E+00  0.00000000E+00
  0.00000000E+00  0.00000000E+00  0.00000000E+00
  0.00000000E+00  0.00000000E+00  0.00000000E+00
  0.00000000E+00  0.00000000E+00  0.00000000E+00
  0.00000000E+00  0.00000000E+00  0.00000000E+00
  0.00000000E+00  0.00000000E+00  0.00000000E+00
  0.00000000E+00  0.00000000E+00  0.00000000E+00
  0.00000000E+00  0.00000000E+00  0.00000000E+00
  0.00000000E+00  0.00000000E+00  0.00000000E+00
  0.00000000E+00  0.00000000E+00  0.00000000E+00
  0.00000000E+00  0.00000000E+00  0.00000000E+00
  0.00000000E+00  0.00000000E+00  0.00000000E+00
  0.00000000E+00  0.00000000E+00  0.00000000E+00
  0.00000000E+00  0.00000000E+00  0.00000000E+00
  0.00000000E+00  0.00000000E+00  0.00000000E+00
  0.00000000E+00  0.00000000E+00  0.00000000E+00
  0.00000000E+00  0.00000000E+00  0.00000000E+00
  0.00000000E+00  0.00000000E+00  0.00000000E+00
  0.00000000E+00  0.00000000E+00  0.00000000E+00
  0.00000000E+00  0.00000000E+00  0.00000000E+00
  0.00000000E+00  0.00000000E+00  0.00000000E+00
  0.00000000E+00  0.00000000E+00  0.00000000E+00
  0.00000000E+00  0.00000000E+00  0.00000000E+00
  0.00000000E+00  0.00000000E+00  0.00000000E+00
  0.00000000E+00  0.00000000E+00  0.00000000E+00
  0.00000000E+00  0.00000000E+00  0.00000000E+00
  0.00000000E+00  0.00000000E+00  0.00000000E+00
  0.00000000E+00  0.00000000E+00  0.00000000E+00
  0.00000000E+00  0.00000000E+00  0.00000000E+00
  0.00000000E+00  0.00000000E+00  0.00000000E+00
  0.00000000E+00  0.00000000E+00  0.00000000E+00
  0.00000000E+00  0.00000000E+00  0.00000000E+00
  0.00000000E+00  0.00000000E+00  0.00000000E+00
  0.00000000E+00  0.00000000E+00  0.00000000E+00
  0.00000000E+00  0.00000000E+00  0.00000000E+00
  0.00000000E+00  0.00000000E+00  0.00000000E+00
  0.00000000E+00  0.00000000E+00  0.00000000E+00
  0.00000000E+00  0.00000000E+00  0.00000000E+00
  0.00000000E+00  0.00000000E+00  0.00000000E+00
  0.00000000E+00  0.00000000E+00  0.00000000E+00
  0.00000000E+00  0.00000000E+00  0.00000000E+00
  0.00000000E+00  0.00000000E+00  0.00000000E+00
  0.00000000E+00  0.00000000E+00  0.00000000E+00
  0.00000000E+00  0.00000000E+00  0.00000000E+00
  0.00000000E+00  0.00000000E+00  0.00000000E+00
  0.00000000E+00  0.00000000E+00  0.00000000E+00
  0.00000000E+00  0.00000000E+00  0.00000000E+00
  0.00000000E+00  0.00000000E+00  0.00000000E+00
  0.00000000E+00  0.00000000E+00  0.00000000E+00
  0.00000000E+00  0.00000000E+00  0.00000000E+00
  0.00000000E+00  0.00000000E+00  0.00000000E+00
  0.00000000E+00  0.00000000E+00  0.00000000E+00
  0.00000000E+00  0.00000000E+00  0.00000000E+00
  0.00000000E+00  0.00000000E+00  0.00000000E+00
  0.00000000E+00  0.00000000E+00  0.00000000E+00
  0.00000000E+00  0.00000000E+00  0.00000000E+00
  0.00000000E+00  0.00000000E+00  0.00000000E+00
  0.00000000E+00  0.00000000E+00  0.00000000E+00
  0.00000000E+00  0.00000000E+00  0.00000000E+00
  0.00000000E+00  0.00000000E+00  0.00000000E+00
  0.00000000E+00  0.00000000E+00  0.00000000E+00
  0.00000000E+00  0.00000000E+00  0.00000000E+00
  0.00000000E+00  0.00000000E+00  0.00000000E+00
  0.00000000E+00  0.00000000E+00  0.00000000E+00
  0.00000000E+00  0.00000000E+00  0.00000000E+00
  0.00000000E+00  0.00000000E+00  0.00000000E+00
  0.00000000E+00  0.00000000E+00  0.00000000E+00
  0.00000000E+00  0.00000000E+00  0.00000000E+00
  0.00000000E+00  0.00000000E+00  0.00000000E+00
  0.00000000E+00  0.00000000E+00  0.00000000E+00