Ge Se                                   
   1.00000000000000     
    20.1211986851800120    0.0000000000000000    0.0000000000000000
     0.0000000000000000   20.1211986851800155    0.0000000000000000
     0.0000000000000000    0.0000000000000000   20.1211986851800155
   Ge   Se
   200   100
Direct
  0.3159937113038708  0.2884939537943602  0.2425964923744988
  0.7161752020390931  0.7413198901202674  0.3216262685510223
  0.7787699598108531  0.3496562768811980  0.2898410752482841
  0.8583275059817428  0.2786490984935700  0.0696651674054475
  0.4607811942923981  0.6678514884792339  0.7866424782912436
  0.1127070488322183  0.1847503543469226  0.2571312138159487
  0.1953155379129887  0.3024105302815480  0.8780498057169206
  0.0477576788111425  0.4819607953655980  0.1885438978632699
  0.7069082960360088  0.3316800321871387  0.7198804440736116
  0.9873235534872967  0.1107637697870185  0.6604590078019179
  0.1091148301841849  0.9770587788335650  0.1804793870747565
  0.6920659586832566 -0.0339125721683339  0.2851604197743711
  0.8254196335116819  0.5101671194994244  0.8724726143432945
  0.7573919940686694  0.4472197132896817  0.7053758901545379
  0.0534996079323568  0.9569301872785738  0.5963527572286823
  0.4932438408342175  0.3603547270446780  0.1145700541640462
  0.3907677012886919  0.5706494772229135  0.8360945695154330
  0.9243801922889072  0.8747068477048549  0.2386841869901983
  0.4059362220396958  0.9690630106929796  0.5772971869317124
  0.7109358302963142  0.4463292570801791  0.2278406930182350
  0.2649979778682025  0.4739270788398260  0.7039941476159332
  0.4375072605987410  0.5328962952695198  0.0995900877103532
  0.1149240521988554  0.8378290932656931  0.7984119830816303
  0.3771606108027451  0.9145726172924028  0.1644772157817643
  0.6825441752958519  0.1455595104292692  0.0438821450610632
  0.2250736493969244  0.2988329210851864  0.4756102403375574
  0.3572414884900078  0.4598628449007348  0.0271184059685086
  0.7128436276988025  0.8638789695319343  0.4836144742012706
  0.0698740051557038  0.5295747169911268  0.0306175072706595
  0.2808344558551780  0.5523027799218237  0.6044420085818554
  0.1525524875048173  0.1537543321602588  0.7649084552538344
  0.9380432889691653  0.7294167308916792  0.5209080922902520
  0.2663274057239917  0.0887585072974696  0.1458293520204254
  0.4699579705310468  0.6001023649042548  0.5305679180781568
  0.3566350157844577  0.0270458250769021  0.4714397178725473
  0.7197122465975506 -0.0015942438392779  0.8336952370706024
  0.5764213485268935  0.8492854449468892  0.9693343229641189
  0.7480648811563531  0.6862013863469676  0.4827574704887958
  0.7166032167534050  0.1128903727679134  0.2590324576666662
  0.8545300940641787  0.4033333723123479  0.0747871165225540
  0.6287240169024996  0.4658969331321212  0.5658442573480811
  0.9184812487919802  0.8595058419955153  0.5664993531369757
  0.7556161024322248  0.5963237857531195  0.0303678133423783
  0.2864053006256328  0.9370576641114980 -0.0067901095397497
  0.6686279475983925  0.4995284443422628  0.0386668796231673
  0.7412597685933610  0.5201308187861240  0.6032834564818996
  0.7354032370333899  0.4211799971392861  0.1103087777402391
  0.9303409111806864  0.7952712325052644  0.6969780873111563
  0.7545794922472538  0.7795939980973983  0.2023350366575445
  0.7437782918830242  0.2428504186670423  0.1044632458631530
  0.3637081155252629  0.0893814477464158  0.2284069778727208
  0.4300245696121625  0.0337566876685139  0.6798174975889985
  0.1635098832731619  0.7942690255197260  0.0975986916548054
  0.8899941457230495  0.0742538981624311  0.8124062302289032
  0.0503335246662895  0.6406610018585579  0.3383351837809798
  0.7883910543043108  0.0868333280421118  0.8834472374859391
  0.5170134693694509  0.9403958045380839  0.5273347264593257
  0.2197963181287203  0.4943062940202904  0.8956442788304306
  0.7754840473942960  0.2673965335270981  0.4005686420977439
  0.2471024786623639  0.8369469526366617  0.7858660489408766
  0.7972688681858897  0.0444765944557398  0.4368041193442584
  0.5470421857555260  0.0677208198743134  0.6421153495622586
  0.6335583640419571  0.3852101491663312  0.4201329375610188
  0.2882972326707843  0.3463668680422612  0.0242623396439814
  0.8621262973122724  0.5898899327155450  0.5982445472093075
  0.8940562195180071  0.6709036934304444  0.8622907617909801
  0.4784876180042184  0.9253561112296397  0.0919708616558915
  0.0285250462596958  0.6054108771634671  0.1541400270620978
  0.3195798441972214  0.6986796678068520  0.0774718362329384
  0.5680928370878543  0.6715701455005634  0.5677484942179197
  0.7408144420830506  0.8128870673378643  0.7558591498895981
  0.5779102593789769  0.3243776395430748  0.8598886864265066
  0.1370951987759141 -0.0005244753536363  0.6784780351461333
  0.5987104722425930  0.0157465948357741  0.8400954870294496
  0.2104119331583965  0.1933907150162028  0.0901683770918861
  0.2015032691776920  0.6791360647964185  0.8189574758933306
  0.1554700653101075  0.0969378121914903  0.4970570266082595
  0.2478892407063377  0.7105017748133711  0.7036261798564380
  0.5656465332700299  0.9220236056292107  0.7629626299956398
  0.7076604533762393  0.5743754680370239  0.2231712249276039
  0.3035494648907897  0.2019445285523166  0.4109258148272826
  0.0734939165764174  0.3529874039207987  0.8773230041793306
  0.5446217017421481  0.9683026325911605  0.9399567540973618
  0.7639903836080371  0.3237883663114322  0.5200879749556953
  0.2165753236796781  0.5739562630517009  0.4167920882394675
  0.8777343572385324  0.9703757258088700  0.7389498517323002
  0.5726184904822130  0.8244178613920312  0.8445580696826985
  0.9370337622169059  0.9943303911505188  0.6284108714914638
  0.8613246591032744  0.5293801957947227  0.0563758561699498
  0.2750512765138448  0.9656984838101281  0.1135852239318853
  0.7398189536808840  0.4528717012077966  0.3866574884565117
  0.5735167240177843  0.0194169564620189  0.3163574350018311
  0.9285892463562337  0.4342280937322635  0.1720589372850602
  0.2047219052355129  0.8615157256190678  0.3076615845299602
  0.1106734464158070  0.4480735424222463  0.5381584356568482
  0.7499586287036950  0.9938691368408465  0.7137545337229705
  0.1520289861862508  0.3951535647650244  0.4285712927882579
  0.6222200687025661  0.1764988892691146  0.4495945759739330
  0.3807123690890729  0.9729496556098894  0.2790296993221010
  0.2153406883942688  0.5058240627484922  0.2243859955714917
  0.8010924855682463  0.1114766248098229  0.0053203301299659
  0.9848853517563505  0.1328530262055093  0.9817813945280189
  0.1250068223699194  0.6815112516079671  0.5717543645502026
  0.9326496667672020  0.1165096210012137  0.2365580702949922
  0.0880773437331618  0.1475725214857798  0.9085431163271255
  0.4357848073395681  0.4915502728800336  0.9297979434969645
  0.0151651603950084  0.2753851928902581  0.6633451766855966
  0.5951547928948979  0.9410520122486024  0.1337152722711669
  0.5533370038982645  0.0445182733221556  0.1953653017682639
  0.3730999615229726  0.8330009166458167  0.7370221406387145
  0.3757296039736539  0.7011306113307352  0.6973067475922281
  0.3804595809770955  0.3989557557049780  0.5795116994374696
  0.5930313990242742  0.7528972587014154  0.2376933051836763
  0.0563915272704325  0.8842807609321928  0.4446487360273955
  0.7230488446102682  0.6724421825681958  0.1346978142875988
  0.5849384775858401  0.6649809774653805  0.7349087971188715
  0.5849597492670113  0.4506508537184748  0.2205798039534837
  0.9271032978183406  0.2514592522562480  0.1743278425950232
  0.3474384061035146  0.6434069997824063  0.9603291493361172
  0.0401171640318613  0.8022740528747208  0.2246391779123795
  0.0698197816095568  0.6929008562445960  0.8234086710579742
  0.0049855349505023  0.6841783502237268  0.0465360384164568
  0.0556356843433140  0.2263317976638391  0.8126248385006937
  0.6233444579343502  0.7238448349890220  0.9954748151813732
  0.7523401771162848  0.2924376853975881  0.8332834875779792
  0.1504930206241536  0.6084099286842225  0.1879514215575215
  0.5463803189869945  0.5130291472038642  0.4768784660259529
  0.9188866126799129  0.4723576008713912  0.5779963742167894
  0.9621940020431986  0.8865626747130438  0.7824279925495727
  0.2092525250772538  0.8370042426933264 -0.0158215187269200
  0.0463709617510515  0.5663233356218522  0.8247169811294841
  0.6545795985243520  0.3279780956012386  0.0813579381480648
  0.0791112816926052  0.4088349520836784  0.7629242018176812
  0.3217512179154636  0.7733843479003669  0.3360492896164923
  0.1330508361256691  0.0448731188025916  0.3618235461398058
  0.8346305434978406  0.0224030833277371  0.5580702000391627
  0.1975170884458026  0.6747297657913981  0.0947598268517496
  0.9408830962919003  0.1804807240285489  0.7698655481339033
  0.4600159606782975 -0.0017660627760349  0.3769124422869656
  0.8005430878592252  0.3021062049240405  0.6409099376194943
  0.7119789753334030  0.5746613135067039  0.4178418223859410
  0.1569243921136436  0.3993299942055629  0.1716466572283679
  0.2674082887538174  0.5645345883871128  0.8014264644881174
  0.8634967006826977  0.0129185877493901  0.0581438162810573
  0.8818000149965175  0.2048743498087590  0.9732619827912808
  0.2359967915889340  0.0526692427627797  0.7365244124552962
  0.3362504628312650  0.1160022357338255  0.6965221882430216
  0.3244452357417726  0.7986387990163286  0.1634468582265708
  0.3797843874051066  0.6302906447015943  0.1680501138238228
  0.2808620123430047  0.1485415432183516  0.5788542112751839
  0.6875173571280492  0.3288940393830172  0.9392753268096260
  0.4429885686039139  0.9383368062224069  0.7591529609548152
  0.8688608198943786  0.4045847265541742  0.6700085545298018
  0.5987953432109392  0.1401677873063455  0.8064615623990337
  0.1843664375106910  0.6113379692461951  0.6562308744234724
  0.4681934896615479  0.2841194576750346  0.4598197243201904
  0.3926809364089088  0.5956874038878258  0.6296202049805814
  0.0546498712462446  0.1130500826655297  0.0904071940278278
  0.3844836542908818  0.7754118767567058  0.4541400082374593
  0.5183864271890591  0.3536540779597896  0.2742987120772211
  0.0715070987895474  0.3025700617853256  0.3877613639453738
  0.0726964184080343  0.9588804815275822  0.7810144255211637
  0.0342609820995308  0.3504246507583026  0.5612048433142760
  0.3449680554107637  0.1750456490111008  0.8165514281889708
  0.1923503443863582  0.4051440057579247  0.6259863104614312
  0.2072378282278868  0.7792452643024654  0.5956373564162868
  0.9113734022194980  0.8259435026089436  0.3606249273352393
  0.6662238866800591  0.6228800165629251  0.6347799206282438
  0.2173474361397054  0.8704507241300189  0.1791149153310891
  0.4270502707229815  0.5206284724360526  0.7249337742207342
  0.2217701138546742  0.0112321919775579  0.9153458036022979
  0.0970199818597657  0.0223367300332833  0.8904980560410199
  0.5900059299695655  0.1805305447158909  0.6847036511202164
  0.1677940253425080  0.4859164659508595  0.3411925977692952
  0.2702655956147529  0.6564569812839668  0.3373863173815769
  0.9615198311632928  0.3681762243120632  0.7394836022476956
  0.6597671890908403  0.8621439171934788  0.2127946429318001
  0.5858582431525186  0.2497215773781652  0.9893233957590912
  0.5515788095750538  0.4724410932109039  0.0976063598783787
  0.6299043782157432  0.9694397531363610  0.6678618573456286
  0.8707665293415382  0.2520845856741379  0.8545729201402509
  0.1019231218710786  0.5255032841726587  0.7182886996675517
  0.8583869879964673  0.1927776240005637  0.6676455347190394
  0.5938257361287916  0.5896400361928781  0.3853079891988780
  0.0329799461632552  0.5192014344164891  0.6121825485488180
 -0.0064784497476808  0.7425475773680141  0.9174411421643727
  0.5792013149351907  0.3126603653426792  0.7230127878771065
  0.1273699698268251  0.2691122836452876  0.1594675611954169
  0.7074424519106276  0.8685742257701290  0.9616232282118118
  0.3743891736360095  0.8716355248184556  0.9256350538495312
  0.7780464959591290  0.0961249521163532  0.6480242613150329
  0.0421685473632320  0.9515674019334815  0.9821697593735316
  0.1967191521605098  0.1986810891786296  0.9584688457206736
  0.0925096116697203  0.4800700572564437  0.9127326126733615
  0.5328261877593765  0.4054679648518920  0.9534667643193865
  0.8257736012965698  0.9667207078338894  0.2609644223847937
  0.0070498004165351  0.6473785794893275  0.5977990090317429
  0.5396327914458519  0.7038048545008854  0.3760256999979706
  0.3925865529200963  0.7648873668242686  0.5833782301674320
  0.3987138382439340  0.7339274513290177  0.2443210412406572
  0.5445693254499132  0.4216781014003931  0.6477447131548320
  0.6553728539849191  0.0012006203265435  0.0420858617486591
  0.7029687496037672  0.1782291266030806  0.8630125282965340
  0.1333193149388293  0.3214699310026333  0.6945365471940225
  0.4340840723531447  0.9738999818578573  0.8773015526505977
  0.9205792636116988  0.3643251383057379  0.8556089850350548
  0.3571155106686764  0.3172124616073473  0.4112704795413383
  0.0418187313074132  0.8074006305417910  0.0979044257646631
  0.3762779692231095  0.4093053064773002  0.7105985320028773
  0.1135464575141677  0.1177015508254038  0.6380800742567756
  0.6125462004833350  0.8863193070451849  0.5795245420350295
  0.9375588667309347  0.8507616364918696  0.8964153273906503
  0.2468919386070463  0.2413536924353526  0.7780845745347627
  0.5486931655860730  0.5088071990528551  0.7300686913147246
  0.4629664213752059  0.3083237753575542  0.0084997949567590
  0.7004215537467914 -0.0291789201593452  0.4130983886987585
  0.6398185323865662  0.3426496642462352  0.5357099077456209
  0.9236055497451079  0.5667441811508224  0.7973563816079196
  0.8217991652663338  0.0558464762918633  0.1744477682797447
  0.0985907933672071  0.2581739048224354  0.5043297247654778
  0.7465726386034405  0.5387368900044627  0.7804066775374493
  0.7407631440018988  0.7608795996037981  0.0038169418222460
  0.2863607425236005  0.1194192702092154  0.9221013685340312
  0.8717581323127963  0.5456945543656764  0.1766022396586705
  0.7490287748637872  0.7072682317551862  0.6070730461954751
  0.1031381030806980  0.8474736697687578  0.9264933232751096
  0.5702272182207870  0.2878556054793351  0.1745799956813640
  0.1786719789579460  0.2567549889293430  0.3312341113561389
  0.1725239834731371  0.3920050587788817  0.0505792395809301
  0.7872531028681315  0.4429088964471522  0.5024801781099257
  0.0290505301338359  0.7180914783651851  0.7038198896002211
  0.4555129489585077  0.3003061049949594  0.5812563537497518
  0.7835571778704021  0.6270869766307591  0.9102726285590647
  0.2810561239876230  0.9538522855449069  0.3456318395424388
  0.3171232591406658  0.2520450927404800  0.1196803756235464
  0.9813857177788511  0.6873117942043179  0.2389930257530535
  0.9428078807352909  0.3890117149524165  0.4905798865959539
  0.5825756759627080  0.5693374581866476  0.2618509704167351
  0.6681084391609896  0.4532609915476614  0.9253987605243830
  0.7760894483765142  0.8911732346010880  0.8572174858954750
  0.2787207098479096  0.9664236791739100  0.8135638528718815
  0.0557332257360713  0.8397678543442186  0.5750908582791734
  0.0574435186607306  0.0161656039399605  0.4867181924409480
  0.5476733836476760  0.0595028546723943  0.5192825567817356
  0.6542348946258744  0.7358233993197666  0.8187617113768781
  0.0480874221844608  0.5031658515687729  0.3142198419229162
  0.8393901364824343  0.7298629634498317  0.7616740609905991
  0.4562608762485325  0.1052388614781568  0.1527177268747608
  0.6350593586053561  0.1306861303054945  0.1656543484428150
  0.1203496014570870  0.6466117348975164 -0.0013053523023590
  0.4625521642442461  0.5966470901357126 -0.0043025746485653
  0.9387067590758593  0.0335251232382374  0.9188242743721214
  0.4881800011628301  0.8117776789654215  0.2194290312331221
  0.4534582182366376  0.8319718952313194  0.0158736787500489
  0.3788285811985297  0.1885794581026305  0.2971520701777972
  0.4109617309435775  0.3764214178325833  0.2069930874822959
  0.9055055285589865  0.3515316845583191  0.2607884204289473
  0.7698731447010758  0.6250389412128411  0.3186211065864018
 -0.0016754170200201  0.7516004960125212  0.4104759469838980
  0.2899566424736445  0.7145001505066461  0.5246838327030118
  0.4868531633700237  0.0286114009112978  0.0257488275181828
  0.5110480215279191  0.4096403541410572  0.4164040144565911
  0.9926607963591031  0.0287621983676799  0.1624789643309873
  0.9548342238291401  0.5647273445099151  0.9851143002473461
  0.9336078214015945  0.1789264555868786  0.5728216993733269
  0.2758641348407405  0.3234656908547275  0.5900690173054814
  0.7586825997787151  0.9381332700512170  0.0552103856015477
  0.1190505509400933  0.6227821103930942  0.4650201341360339
  0.1629727722115682  0.6883858889860389  0.2801959314548236
  0.5415947987642379  0.7498373546583935  0.6569326565323387
  0.4291165133659309  0.6587743972845526  0.4291766473275923
  0.2705578848158109  0.5466335897124580  0.0024892236071827
  0.0214128581125638  0.2971188598667486  0.1068151964373379
  0.3209033307865495  0.5672488009735259  0.2607217236810354
  0.2670678818537280  0.7678088627936721  0.8917403435289549
  0.7877080245499488  0.9078648696273111  0.5744615530021894
  0.5205015859044201  0.2095771093242499  0.8720788267782980
  0.4996976636985037  0.8888495872188840  0.4192322039074843
  0.6526735132771202  0.2785719767125411  0.3646138803743280
  0.3850183419869413  0.1449479386278530  0.5051314129702440
  0.2857499674720438  0.5076376021859551  0.4907989713954087
  0.6890050326255009  0.1707446333892655  0.6149322885571882
  0.1778637097913680  0.0759152990162427  0.2340406306766586
  0.9324983118622990  0.9145171156756533  0.4428796796441127
  0.8733597055686809  0.0494983661712850  0.3412763333060383
  0.8626336775669963  0.8064193602109980  0.1581232869197524
  0.7686022302706315  0.2297904936212352  0.2245776425976616
  0.2469365260428624  0.0256731622525400  0.5454239962434279
  0.7500069590929010  0.1551263046924295  0.4643035046612064
  0.8677515326305466  0.6328150735821160  0.4804010258059463
  0.6029715422816860  0.6908988868113505  0.1170864247450126
  0.1309703794036462  0.0179442433625704  0.0542811934766200
  0.6015924534372363  0.1364362658850002  0.3327916655853289
  0.3361962439219362  0.8734753972087064  0.6175358795173098
  0.0925257290183896  0.9358551709117711  0.3179654109138041
  0.5993265407848802  0.7448290721699180  0.4773270460975668
  0.0362240979314874  0.1259260331795459  0.3328742194988321
  0.8032369815940281  0.7891390334926923  0.4048629749960385
  0.4608518373768720  0.7725766484912353  0.8490876410948236
  0.2839626590431108  0.3890657538104344  0.8905857588520537
 
  0.00000000E+00  0.00000000E+00  0.00000000E+00
  0.00000000E+00  0.00000000E+00  0.00000000E+00
  0.00000000E+00  0.00000000E+00  0.00000000E+00
  0.00000000E+00  0.00000000E+00  0.00000000E+00
  0.00000000E+00  0.00000000E+00  0.00000000E+00
  0.00000000E+00  0.00000000E+00  0.00000000E+00
  0.00000000E+00  0.00000000E+00  0.00000000E+00
  0.00000000E+00  0.00000000E+00  0.00000000E+00
  0.00000000E+00  0.00000000E+00  0.00000000E+00
  0.00000000E+00  0.00000000E+00  0.00000000E+00
  0.00000000E+00  0.00000000E+00  0.00000000E+00
  0.00000000E+00  0.00000000E+00  0.00000000E+00
  0.00000000E+00  0.00000000E+00  0.00000000E+00
  0.00000000E+00  0.00000000E+00  0.00000000E+00
  0.00000000E+00  0.00000000E+00  0.00000000E+00
  0.00000000E+00  0.00000000E+00  0.00000000E+00
  0.00000000E+00  0.00000000E+00  0.00000000E+00
  0.00000000E+00  0.00000000E+00  0.00000000E+00
  0.00000000E+00  0.00000000E+00  0.00000000E+00
  0.00000000E+00  0.00000000E+00  0.00000000E+00
  0.00000000E+00  0.00000000E+00  0.00000000E+00
  0.00000000E+00  0.00000000E+00  0.00000000E+00
  0.00000000E+00  0.00000000E+00  0.00000000E+00
  0.00000000E+00  0.00000000E+00  0.00000000E+00
  0.00000000E+00  0.00000000E+00  0.00000000E+00
  0.00000000E+00  0.00000000E+00  0.00000000E+00
  0.00000000E+00  0.00000000E+00  0.00000000E+00
  0.00000000E+00  0.00000000E+00  0.00000000E+00
  0.00000000E+00  0.00000000E+00  0.00000000E+00
  0.00000000E+00  0.00000000E+00  0.00000000E+00
  0.00000000E+00  0.00000000E+00  0.00000000E+00
  0.00000000E+00  0.00000000E+00  0.00000000E+00
  0.00000000E+00  0.00000000E+00  0.00000000E+00
  0.00000000E+00  0.00000000E+00  0.00000000E+00
  0.00000000E+00  0.00000000E+00  0.00000000E+00
  0.00000000E+00  0.00000000E+00  0.00000000E+00
  0.00000000E+00  0.00000000E+00  0.00000000E+00
  0.00000000E+00  0.00000000E+00  0.00000000E+00
  0.00000000E+00  0.00000000E+00  0.00000000E+00
  0.00000000E+00  0.00000000E+00  0.00000000E+00
  0.00000000E+00  0.00000000E+00  0.00000000E+00
  0.00000000E+00  0.00000000E+00  0.00000000E+00
  0.00000000E+00  0.00000000E+00  0.00000000E+00
  0.00000000E+00  0.00000000E+00  0.00000000E+00
  0.00000000E+00  0.00000000E+00  0.00000000E+00
  0.00000000E+00  0.00000000E+00  0.00000000E+00
  0.00000000E+00  0.00000000E+00  0.00000000E+00
  0.00000000E+00  0.00000000E+00  0.00000000E+00
  0.00000000E+00  0.00000000E+00  0.00000000E+00
  0.00000000E+00  0.00000000E+00  0.00000000E+00
  0.00000000E+00  0.00000000E+00  0.00000000E+00
  0.00000000E+00  0.00000000E+00  0.00000000E+00
  0.00000000E+00  0.00000000E+00  0.00000000E+00
  0.00000000E+00  0.00000000E+00  0.00000000E+00
  0.00000000E+00  0.00000000E+00  0.00000000E+00
  0.00000000E+00  0.00000000E+00  0.00000000E+00
  0.00000000E+00  0.00000000E+00  0.00000000E+00
  0.00000000E+00  0.00000000E+00  0.00000000E+00
  0.00000000E+00  0.00000000E+00  0.00000000E+00
  0.00000000E+00  0.00000000E+00  0.00000000E+00
  0.00000000E+00  0.00000000E+00  0.00000000E+00
  0.00000000E+00  0.00000000E+00  0.00000000E+00
  0.00000000E+00  0.00000000E+00  0.00000000E+00
  0.00000000E+00  0.00000000E+00  0.00000000E+00
  0.00000000E+00  0.00000000E+00  0.00000000E+00
  0.00000000E+00  0.00000000E+00  0.00000000E+00
  0.00000000E+00  0.00000000E+00  0.00000000E+00
  0.00000000E+00  0.00000000E+00  0.00000000E+00
  0.00000000E+00  0.00000000E+00  0.00000000E+00
  0.00000000E+00  0.00000000E+00  0.00000000E+00
  0.00000000E+00  0.00000000E+00  0.00000000E+00
  0.00000000E+00  0.00000000E+00  0.00000000E+00
  0.00000000E+00  0.00000000E+00  0.00000000E+00
  0.00000000E+00  0.00000000E+00  0.00000000E+00
  0.00000000E+00  0.00000000E+00  0.00000000E+00
  0.00000000E+00  0.00000000E+00  0.00000000E+00
  0.00000000E+00  0.00000000E+00  0.00000000E+00
  0.00000000E+00  0.00000000E+00  0.00000000E+00
  0.00000000E+00  0.00000000E+00  0.00000000E+00
  0.00000000E+00  0.00000000E+00  0.00000000E+00
  0.00000000E+00  0.00000000E+00  0.00000000E+00
  0.00000000E+00  0.00000000E+00  0.00000000E+00
  0.00000000E+00  0.00000000E+00  0.00000000E+00
  0.00000000E+00  0.00000000E+00  0.00000000E+00
  0.00000000E+00  0.00000000E+00  0.00000000E+00
  0.00000000E+00  0.00000000E+00  0.00000000E+00
  0.00000000E+00  0.00000000E+00  0.00000000E+00
  0.00000000E+00  0.00000000E+00  0.00000000E+00
  0.00000000E+00  0.00000000E+00  0.00000000E+00
  0.00000000E+00  0.00000000E+00  0.00000000E+00
  0.00000000E+00  0.00000000E+00  0.00000000E+00
  0.00000000E+00  0.00000000E+00  0.00000000E+00
  0.00000000E+00  0.00000000E+00  0.00000000E+00
  0.00000000E+00  0.00000000E+00  0.00000000E+00
  0.00000000E+00  0.00000000E+00  0.00000000E+00
  0.00000000E+00  0.00000000E+00  0.00000000E+00
  0.00000000E+00  0.00000000E+00  0.00000000E+00
  0.00000000E+00  0.00000000E+00  0.00000000E+00
  0.00000000E+00  0.00000000E+00  0.00000000E+00
  0.00000000E+00  0.00000000E+00  0.00000000E+00
  0.00000000E+00  0.00000000E+00  0.00000000E+00
  0.00000000E+00  0.00000000E+00  0.00000000E+00
  0.00000000E+00  0.00000000E+00  0.00000000E+00
  0.00000000E+00  0.00000000E+00  0.00000000E+00
  0.00000000E+00  0.00000000E+00  0.00000000E+00
  0.00000000E+00  0.00000000E+00  0.00000000E+00
  0.00000000E+00  0.00000000E+00  0.00000000E+00
  0.00000000E+00  0.00000000E+00  0.00000000E+00
  0.00000000E+00  0.00000000E+00  0.00000000E+00
  0.00000000E+00  0.00000000E+00  0.00000000E+00
  0.00000000E+00  0.00000000E+00  0.00000000E+00
  0.00000000E+00  0.00000000E+00  0.00000000E+00
  0.00000000E+00  0.00000000E+00  0.00000000E+00
  0.00000000E+00  0.00000000E+00  0.00000000E+00
  0.00000000E+00  0.00000000E+00  0.00000000E+00
  0.00000000E+00  0.00000000E+00  0.00000000E+00
  0.00000000E+00  0.00000000E+00  0.00000000E+00
  0.00000000E+00  0.00000000E+00  0.00000000E+00
  0.00000000E+00  0.00000000E+00  0.00000000E+00
  0.00000000E+00  0.00000000E+00  0.00000000E+00
  0.00000000E+00  0.00000000E+00  0.00000000E+00
  0.00000000E+00  0.00000000E+00  0.00000000E+00
  0.00000000E+00  0.00000000E+00  0.00000000E+00
  0.00000000E+00  0.00000000E+00  0.00000000E+00
  0.00000000E+00  0.00000000E+00  0.00000000E+00
  0.00000000E+00  0.00000000E+00  0.00000000E+00
  0.00000000E+00  0.00000000E+00  0.00000000E+00
  0.00000000E+00  0.00000000E+00  0.00000000E+00
  0.00000000E+00  0.00000000E+00  0.00000000E+00
  0.00000000E+00  0.00000000E+00  0.00000000E+00
  0.00000000E+00  0.00000000E+00  0.00000000E+00
  0.00000000E+00  0.00000000E+00  0.00000000E+00
  0.00000000E+00  0.00000000E+00  0.00000000E+00
  0.00000000E+00  0.00000000E+00  0.00000000E+00
  0.00000000E+00  0.00000000E+00  0.00000000E+00
  0.00000000E+00  0.00000000E+00  0.00000000E+00
  0.00000000E+00  0.00000000E+00  0.00000000E+00
  0.00000000E+00  0.00000000E+00  0.00000000E+00
  0.00000000E+00  0.00000000E+00  0.00000000E+00
  0.00000000E+00  0.00000000E+00  0.00000000E+00
  0.00000000E+00  0.00000000E+00  0.00000000E+00
  0.00000000E+00  0.00000000E+00  0.00000000E+00
  0.00000000E+00  0.00000000E+00  0.00000000E+00
  0.00000000E+00  0.00000000E+00  0.00000000E+00
  0.00000000E+00  0.00000000E+00  0.00000000E+00
  0.00000000E+00  0.00000000E+00  0.00000000E+00
  0.00000000E+00  0.00000000E+00  0.00000000E+00
  0.00000000E+00  0.00000000E+00  0.00000000E+00
  0.00000000E+00  0.00000000E+00  0.00000000E+00
  0.00000000E+00  0.00000000E+00  0.00000000E+00
  0.00000000E+00  0.00000000E+00  0.00000000E+00
  0.00000000E+00  0.00000000E+00  0.00000000E+00
  0.00000000E+00  0.00000000E+00  0.00000000E+00
  0.00000000E+00  0.00000000E+00  0.00000000E+00
  0.00000000E+00  0.00000000E+00  0.00000000E+00
  0.00000000E+00  0.00000000E+00  0.00000000E+00
  0.00000000E+00  0.00000000E+00  0.00000000E+00
  0.00000000E+00  0.00000000E+00  0.00000000E+00
  0.00000000E+00  0.00000000E+00  0.00000000E+00
  0.00000000E+00  0.00000000E+00  0.00000000E+00
  0.00000000E+00  0.00000000E+00  0.00000000E+00
  0.00000000E+00  0.00000000E+00  0.00000000E+00
  0.00000000E+00  0.00000000E+00  0.00000000E+00
  0.00000000E+00  0.00000000E+00  0.00000000E+00
  0.00000000E+00  0.00000000E+00  0.00000000E+00
  0.00000000E+00  0.00000000E+00  0.00000000E+00
  0.00000000E+00  0.00000000E+00  0.00000000E+00
  0.00000000E+00  0.00000000E+00  0.00000000E+00
  0.00000000E+00  0.00000000E+00  0.00000000E+00
  0.00000000E+00  0.00000000E+00  0.00000000E+00
  0.00000000E+00  0.00000000E+00  0.00000000E+00
  0.00000000E+00  0.00000000E+00  0.00000000E+00
  0.00000000E+00  0.00000000E+00  0.00000000E+00
  0.00000000E+00  0.00000000E+00  0.00000000E+00
  0.00000000E+00  0.00000000E+00  0.00000000E+00
  0.00000000E+00  0.00000000E+00  0.00000000E+00
  0.00000000E+00  0.00000000E+00  0.00000000E+00
  0.00000000E+00  0.00000000E+00  0.00000000E+00
  0.00000000E+00  0.00000000E+00  0.00000000E+00
  0.00000000E+00  0.00000000E+00  0.00000000E+00
  0.00000000E+00  0.00000000E+00  0.00000000E+00
  0.00000000E+00  0.00000000E+00  0.00000000E+00
  0.00000000E+00  0.00000000E+00  0.00000000E+00
  0.00000000E+00  0.00000000E+00  0.00000000E+00
  0.00000000E+00  0.00000000E+00  0.00000000E+00
  0.00000000E+00  0.00000000E+00  0.00000000E+00
  0.00000000E+00  0.00000000E+00  0.00000000E+00
  0.00000000E+00  0.00000000E+00  0.00000000E+00
  0.00000000E+00  0.00000000E+00  0.00000000E+00
  0.00000000E+00  0.00000000E+00  0.00000000E+00
  0.00000000E+00  0.00000000E+00  0.00000000E+00
  0.00000000E+00  0.00000000E+00  0.00000000E+00
  0.00000000E+00  0.00000000E+00  0.00000000E+00
  0.00000000E+00  0.00000000E+00  0.00000000E+00
  0.00000000E+00  0.00000000E+00  0.00000000E+00
  0.00000000E+00  0.00000000E+00  0.00000000E+00
  0.00000000E+00  0.00000000E+00  0.00000000E+00
  0.00000000E+00  0.00000000E+00  0.00000000E+00
  0.00000000E+00  0.00000000E+00  0.00000000E+00
  0.00000000E+00  0.00000000E+00  0.00000000E+00
  0.00000000E+00  0.00000000E+00  0.00000000E+00
  0.00000000E+00  0.00000000E+00  0.00000000E+00
  0.00000000E+00  0.00000000E+00  0.00000000E+00
  0.00000000E+00  0.00000000E+00  0.00000000E+00
  0.00000000E+00  0.00000000E+00  0.00000000E+00
  0.00000000E+00  0.00000000E+00  0.00000000E+00
  0.00000000E+00  0.00000000E+00  0.00000000E+00
  0.00000000E+00  0.00000000E+00  0.00000000E+00
  0.00000000E+00  0.00000000E+00  0.00000000E+00
  0.00000000E+00  0.00000000E+00  0.00000000E+00
  0.00000000E+00  0.00000000E+00  0.00000000E+00
  0.00000000E+00  0.00000000E+00  0.00000000E+00
  0.00000000E+00  0.00000000E+00  0.00000000E+00
  0.00000000E+00  0.00000000E+00  0.00000000E+00
  0.00000000E+00  0.00000000E+00  0.00000000E+00
  0.00000000E+00  0.00000000E+00  0.00000000E+00
  0.00000000E+00  0.00000000E+00  0.00000000E+00
  0.00000000E+00  0.00000000E+00  0.00000000E+00
  0.00000000E+00  0.00000000E+00  0.00000000E+00
  0.00000000E+00  0.00000000E+00  0.00000000E+00
  0.00000000E+00  0.00000000E+00  0.00000000E+00
  0.00000000E+00  0.00000000E+00  0.00000000E+00
  0.00000000E+00  0.00000000E+00  0.00000000E+00
  0.00000000E+00  0.00000000E+00  0.00000000E+00
  0.00000000E+00  0.00000000E+00  0.00000000E+00
  0.00000000E+00  0.00000000E+00  0.00000000E+00
  0.00000000E+00  0.00000000E+00  0.00000000E+00
  0.00000000E+00  0.00000000E+00  0.00000000E+00
  0.00000000E+00  0.00000000E+00  0.00000000E+00
  0.00000000E+00  0.00000000E+00  0.00000000E+00
  0.00000000E+00  0.00000000E+00  0.00000000E+00
  0.00000000E+00  0.00000000E+00  0.00000000E+00