Amorphous GeAsSeSi                      
   1.00000000000000     
    19.0536188657994749    0.0000000000000000    0.0000000000000000
     0.0000000000000000   19.0536188657994749    0.0000000000000000
     0.0000000000000000    0.0000000000000000   19.0536188657994749
   Ge   In   Se
   108    24   108
Direct
  0.9821770444564983  0.1368448676057746  0.9514678209804638
  0.3747939509032255  0.3144553561334145  0.8636801149275912
  0.5875243977954411  0.4403755724384918  0.6916713491624136
  0.9225666633921907  0.0867404700271498  0.7804832764834396
  0.7408514908358874  0.0781527212498670  0.6825495124405720
  0.1460160495373955  0.9239996368112396  0.7320608366508836
  0.5598640782560529  0.2702062601084813  0.0452772050354989
  0.1727789996325935  0.4136729618798030  0.2929796560665600
  0.3859932381225418  0.7344959813511546  0.7370831659066553
  0.8894143620267544  0.6195998874339331 -0.0065878809556636
  0.2034880418182119  0.4991488521948112  0.5770360746691648
  0.1741385708998106  0.2354606301986535  0.3457569067210218
  0.4595468804645061  0.1771998197225729  0.9871219922797903
  0.7043325840581024  0.0646234104629282  0.4976974781669398
  0.1616552399984597  0.5282995363111863  0.3584216431229758
  0.1714709405917861  0.9398116845599261  0.5399139198959201
  0.9678997462331224  0.3476590382732974  0.6057249454253263
  0.2539409827423031  0.4703783312704017  0.7939240772980162
  0.3396100882501730  0.4660661220578052  0.4058816235088230
  0.3561868063928609  0.3437217246412101  0.0552055748101468
  0.4340051935877122  0.8649827259613109  0.4023469513767197
  0.5472146753284395  0.2494434970337488  0.6729282947283850
  0.2039182283090715  0.5861360936500988  0.1362716004795196
  0.4727327281238434  0.7084754156689459  0.1728765485812105
  0.7293625748597170  0.1562006203535575  0.3941592602740767
  0.9432588290697974  0.6329354866016994  0.5659881578051921
  0.1050228008533109  0.3717532232313697  0.1846085401864825
  0.7682529123383766  0.8484556724464084  0.4908449262417287
  0.6749694981080567  0.1859050403443697  0.2406938555733726
  0.8740651897847507  0.9337336028081785  0.5550784248671145
  0.3555006761767808  0.8798687009789610  0.1637906612723290
  0.4776531430058413  0.4978333789340187  0.0705701942398392
  0.3181966950419719  0.2580980986992855  0.5116472061248570
  0.1996590953071384  0.2152625278424107  0.7808616089695569
  0.0738736794253033  0.7842084112912842  0.1052477829748054
  0.3869096271571015  0.4200158774451393  0.6209051369037718
  0.4930855681315168  0.5293845669261780  0.6620523017096255
  0.0276435996989451  0.1625966203706517  0.1956495068731902
  0.1433087775111781  0.9379912933449647  0.9245653325488443
  0.4235301574363352  0.5738266141748929  0.5516705725056726
  0.6152293788234962  0.4759322801354290  0.8803162694959731
  0.2997455603097969  0.3715859854766833  0.3213430434728042
  0.6881023006027023  0.3260187301192985  0.0483839840068160
  0.4465681989302820  0.6851370857288659  0.6324304947640235
  0.3615789205839340  0.0153333881056030  0.5054836849795461
  0.9874261754655874  0.3514724564579408  0.2508673677627091
  0.5596709014184176  0.0136153350662688  0.5720460242851105
  0.7803629809211243  0.4262778360801366  0.6074248839748304
  0.6244589117473253  0.1983013509855903  0.8794367951234996
  0.8174886372674324  0.2190769520261416  0.2950771046207947
  0.1687506825502348  0.3638272351737175  0.5691433889884672
  0.7666814845960519  0.6399336065065631  0.8352824809171614
  0.2967589832526136  0.6679631036985724  0.2064760234165117
  0.2619486027113619  0.7842831963752954  0.1030519798317196
  0.8263493944161655  0.2475505284962107  0.6828054513587892
  0.7743863473604643  0.2238549402260376  0.0330123653449634
  0.0605956059179734  0.0526547761050552  0.3224272019403724
  0.7322735961637490  0.8840469678270795  0.0731585641470289
  0.2072932487392167  0.0941119370243549  0.8467322239104675
  0.7127789470672893  0.5843650234821262  0.4049120980165058
  0.0547748666096735  0.6616264724346255  0.4678339305097178
  0.5370792988983388  0.0221827189706095  0.8479801115589188
  0.2916421408067300  0.6653787080419139  0.9312052438405258
  0.3279824348075163  0.7634533122641375  0.3034558665510596
  0.8654417794189369  0.0203996850482385  0.2461287764818569
  0.8918576470878141  0.7519957206221614  0.9680994097521058
  0.4935726612166123  0.5729236438805064  0.7902509682661967
  0.8285431047993971  0.2071244229486223  0.1571910602320075
  0.1773371595187775  0.6699065157765207  0.8129387829547740
  0.8817536542100041  0.5078565909153284  0.4483701368551027
  0.2066487657624657  0.5175773836768275  0.9892022544495032
  0.5172478767541769  0.8738033856512101  0.6830232268404081
  0.9944431674427754  0.2881458134412312  0.3719288364638785
  0.7375183108641064  0.0327695347849570  0.0994055885480393
  0.3131163791744538  0.2409900491091420  0.3598399213296421
  0.8787503370066656  0.8220795602383111  0.3323874893547515
  0.8229131138102354  0.6682174332053219  0.4314672685410327
  0.9194530689820696  0.8888553039195924  0.1214599109597144
  0.6452746931682425  0.5839977064512339  0.0310682365765959
  0.2599435530556146  0.9912618092564933  0.3012338754878804
  0.4065022874785345  0.9945208534218769  0.9015895751266256
  0.7724365206785883  0.0500186048299023  0.8728703610443738
  0.1896806660405222  0.0825464579477711  0.4805417277897654
  0.7291381133910727  0.8567952055546227  0.6685895293003505
  0.6329275613384696  0.8965777817321302  0.8264509348462961
  0.8718103908820691  0.2123766722072007  0.9412062748448307
  0.7682762146477388  0.7367537508558111  0.0322716596620948
  0.0957035685515334  0.6203631341861017  0.7022839853661199
  0.9519714007205727  0.6360023447042209  0.8141622047807895
  0.0483441999047090  0.8523449886209234  0.6574378358584246
  0.5958724466009158  0.8958062166978243  0.5033037044083628
  0.7085886206193164  0.2806103617891941  0.5917434732525788
  0.0205896230990353  0.8680254910685438  0.4660744241466341
  0.2439779478359682  0.5341754916640279  0.4583781392923711
  0.4145795412217615  0.5594199369140206  0.3394257452844454
  0.4981765584929836  0.0119281805152200  0.0839417701006823
  0.3178379226951405  0.9138868860445361  0.7422729792260817
  0.2118376903609874  0.8648311581430133  0.3375346785235901
  0.1278705417159900  0.4263631415217682  0.7537424785322342
  0.8136848848260798  0.3672270164907379  0.3519805127600496
  0.4072748475447329  0.2853536872371741  0.1688958259397913
  0.9748557382652850  0.3048749903466449  0.8156990026158619
  0.6363879162255514  0.8786886891000545  0.9695692678525759
  0.0451955200816941  0.6846964405960513  0.0032691027760341
  0.1946671844111272  0.6365098547260674  0.2931861421677385
  0.1652159139873957  0.2895224325561855  0.8915045937875126
  0.6660259587305860  0.7373441389714740  0.1598324505540986
  0.5442818685668024  0.3803787156976500  0.8075961680482211
  0.8108834294674236  0.6894555212601441  0.2255244083828574
  0.5409962123334220  0.7381359286849589  0.9121988273876740
  0.5994773971293061  0.5684686881649597  0.2497861406867251
  0.3503169606298669  0.8793722009444380  0.9650213247941603
  0.5438976210671012  0.6826496364087418  0.4671046079498481
  0.0267631110348998  0.8416214067635066  0.2880611674519371
  0.3441707702758242  0.1193566611367567  0.6504433448514750
  0.8552212900294642  0.4536618519586145  0.1066959895717597
  0.0685147770696977  0.1410744252991181  0.6971226709768742
  0.3115143784345613  0.7860830909514479  0.5592751449881179
 -0.0062403804955150  0.8664736869844373  0.8877152215599400
  0.6250352746539354  0.3713939938385001  0.2426876312999587
  0.2728108782335364  0.6707145340128268  0.4745147148514934
  0.5053303130688319  0.3545530133434647  0.3606801802010082
  0.9619345274421682  0.5998591550509427  0.2624026601300568
  0.8990687296567569  0.1823685393929616  0.4742413073040829
  0.7819690255604304  0.4020138785527691  0.8416045409487843
  0.5822409153106717  0.9536345970370673  0.2907246625063515
  0.2638398403438356  0.1298461744391348  0.1224963351151788
  0.4541356321708662  0.1627469193788150  0.3991995515287990
  0.7223611821228239  0.6501028931016601  0.6746254308862683
  0.0879554648222864  0.1359747232925000  0.0538341883139783
  0.1241817207409927  0.9841894539510390  0.1267437625351466
  0.0270005771855822  0.3755664213189903  0.0385571038763883
  0.8910698069371217  0.5102020580597793  0.5823856703247559
  0.1101658681803817  0.9430456386715093  0.3923047695161478
  0.9835288531003280  0.6858854674941089  0.6818222634214164
  0.5862184989447005  0.3538781728339249  0.5952751640336682
  0.7421488699029536  0.9141395702075329  0.8961062691788036
  0.7563146593669543  0.7710057303879828  0.3827629358858763
  0.2728187047163071  0.7743456571891099  0.6937694748446150
  0.1034782428377059  0.0221053369399379  0.8049195893653407
  0.8603481561310571  0.0791895814863685  0.1228455024543321
  0.4671296490731719  0.9926815820730345  0.4266377795052839
  0.4514941903935781  0.8879383757478194  0.0763054782397258
  0.9993136024497895  0.5639423348663765  0.0257493111434106
  0.6960325224612711  0.4346872902579884  0.9743933333525674
  0.9142781422335226  0.1294893522288964  0.3041182457899163
  0.1554664795361902  0.8576173720685427  0.2128751313530707
  0.8602537170491327  0.7357081367905933  0.8402275244285946
  0.1440016393667474  0.6156010840857786  0.5793986532943575
  0.9379246614951730  0.7121986370022808  0.3815015626298526
  0.2902738101075350  0.9010353071356800  0.4791186847604996
  0.5348639479551549  0.5510039471756151  0.9569511982840740
  0.3269091998107883  0.2318544927867077  0.7754218810787437
  0.8022470503082673  0.6122258564753286  0.0890727265537801
  0.2267835812797544  0.8942782407193038  0.0348710338868924
  0.6323485679501021  0.1755923230831592  0.6025786562013511
  0.8238395800595733  0.9978267065905767  0.7557015487603815
  0.3940262900731297  0.0639741593492035  0.0159301323665398
  0.6946825117151484  0.9486229679667797  0.4296687318278588
  0.1653008674492580  0.7216732594479019  0.3864220261794759
  0.3987156338006452  0.3932324536361382  0.2405011255778281
  0.4349689572554653  0.8325122114288522  0.2611398518961112
  0.9859277781783341  0.9683945159905633  0.2129608289418558
  0.5563012371069735  0.6473926528638654  0.6946609443350429
  0.9093887927503403  0.3334878574943078  0.9301496480801782
  0.6943406459439067  0.1262524161848632  0.0171489036346870
  0.5381582929579745  0.2585000966160670  0.1731652803899890
  0.7360953042762175  0.5611022871136688  0.2780259128745924
  0.1924470370336297  0.0576829474730208  0.9695836655788921
  0.0239483312698329  0.8929364465692362  0.0392319751758890
  0.6558121696085079  0.9724902011631613  0.6633664576584597
  0.7554325825114734  0.4668940200826939  0.4462419210512894
  0.7080276246522175  0.4922286238370185  0.6976253810289568
  0.0757264477630026  0.3831903272218148  0.8670086049231998
  0.4426403040183695  0.8345822468269535  0.7934336316325894
  0.2232042144438353  0.1789393166247253  0.5633704807179235
  0.1044564913859449  0.6477369774977769  0.2020615168326260
  0.1373935718803563  0.2459281393583805  0.2167645426365127
  0.9573179190870981  0.7674520203502033  0.1653622149936623
  0.8243690686739056  0.0586266027062659  0.5537152566566657
  0.9157495295841926  0.3714892378146638  0.4403346252891605
  0.2972684114413827  0.0788883908329720  0.3972327009291710
  0.5712866854099342  0.7027273697555774  0.2616326018372988
  0.4955314424045346  0.1566362288251546  0.8627154837423588
  0.6358204888920602  0.2894030806956811  0.7786670397286120
  0.7611078633572457  0.2594740656266136  0.4700288917142655
  0.6578515601623560  0.0915508904628671  0.8070327267548645
  0.2859262853371260  0.3346983876623800  0.6239773655317095
  0.1434343021182361  0.2686234698338849  0.0161595052636506
  0.6928285045319514  0.6853897766527556  0.9352806883120014
  0.6587919547733192  0.7881332069448217  0.7585520355154386
  0.3431099147566457  0.2388791007574666  0.9736869108693113
  0.2191625872908462  0.8705966550606552  0.8321473329119262
  0.9039656232444216  0.9255812860771269  0.4211196800476447
  0.9390648973778133  0.2170676212217633  0.6210025443677955
  0.3638124084904749  0.7447414807168902  0.0105340184362329
  0.9531354119528407  0.2649831646579089  0.1480088403338977
  0.4788508135176917  0.3734519492710509  0.0133443607621077
  0.3312421789319606  0.5542550585544566  0.9859351138944448
  0.3182512838565105  0.5326955742913190  0.6341796891009336
  0.1777114039706063  0.6506307936195087  0.0220313595105154
  0.0936414285130121  0.3260007725323198  0.6759625511685862
  0.3944953007675912  0.6816847094415502  0.3875891690554328
  0.8424674087828818  0.5492990935291797  0.8950903705919224
  0.4592973920584756  0.8011910931412437  0.5769772452323001
  0.0363329526722145  0.5068230134412284  0.7158969817026063
  0.1707939601009410  0.0699309494491327  0.2502202008103840
  0.6479747899088077  0.8653263312748743  0.1715663809833483
  0.4001678722067552  0.5818584480941642  0.2132337712285848
  0.8339839251131915  0.1879767833830645  0.8174079823214614
  0.0147390183020598  0.9550607222216564  0.5735828154171253
  0.5939555050888808  0.4862648917836547  0.1390382797310269
  0.0966909397018061  0.1549902632045784  0.4130617575315037
  0.0597832118524253  0.7100751859622834  0.8694039133568501
  0.2302939076484552  0.9859780186907782  0.6558082662851552
  0.5711651961745140  0.6965088047203369  0.0726284391010889
  0.4249234613978437  0.4228139503984367  0.4899443715133809
  0.5344514394960727  0.5201167957605969  0.3636306410637367
  0.4282049779975037  0.1964160891591135  0.5455775137466521
  0.1205164336147503  0.3447943707113180  0.3938010487865823
  0.3234074971396907  0.0405415118156613  0.8123675498092060
  0.3771982993740776  0.6357145320256881  0.8165823838529385
  0.3527285439970666  0.1930662788962644  0.2379358329668588
  0.6642250379732768  0.7980352426793788  0.5628057490617567
  0.6776256936001511  0.0585280049915060  0.2128558338158068
  0.5806621295925457  0.0015685299311156  0.9756985871506538
  0.5609901275510206  0.8224931329669818  0.4012551282990655
  0.8702909778436554  0.3730037304821580  0.6993825485200652
  0.1387644549416797  0.8109336392502121  0.5726750060232603
  0.1650835157159551  0.5457099506603761  0.8610082759469040
  0.2623807622695770  0.3844925795101219  0.8982258555354180
  0.7464559893188177  0.3555521265262341  0.1589357249179757
  0.0417076063045556  0.5485496464313030  0.3970024735075602
  0.9331004483757548  0.0303617985972651  0.9001037234967537
  0.3467242394600881  0.0033621381490243  0.2035018163799416
  0.8361009545048930  0.7079174925016135  0.5547929897819417
  0.0407179731239077  0.1920458474389508  0.8488000440276577
  0.4552292031616276  0.9862531797464610  0.6473279880207272
  0.8960126285752703  0.4408275372715123  0.2586623185903233
  0.6087162675658653  0.1788211998671489  0.3534138118280511
 
  0.00000000E+00  0.00000000E+00  0.00000000E+00
  0.00000000E+00  0.00000000E+00  0.00000000E+00
  0.00000000E+00  0.00000000E+00  0.00000000E+00
  0.00000000E+00  0.00000000E+00  0.00000000E+00
  0.00000000E+00  0.00000000E+00  0.00000000E+00
  0.00000000E+00  0.00000000E+00  0.00000000E+00
  0.00000000E+00  0.00000000E+00  0.00000000E+00
  0.00000000E+00  0.00000000E+00  0.00000000E+00
  0.00000000E+00  0.00000000E+00  0.00000000E+00
  0.00000000E+00  0.00000000E+00  0.00000000E+00
  0.00000000E+00  0.00000000E+00  0.00000000E+00
  0.00000000E+00  0.00000000E+00  0.00000000E+00
  0.00000000E+00  0.00000000E+00  0.00000000E+00
  0.00000000E+00  0.00000000E+00  0.00000000E+00
  0.00000000E+00  0.00000000E+00  0.00000000E+00
  0.00000000E+00  0.00000000E+00  0.00000000E+00
  0.00000000E+00  0.00000000E+00  0.00000000E+00
  0.00000000E+00  0.00000000E+00  0.00000000E+00
  0.00000000E+00  0.00000000E+00  0.00000000E+00
  0.00000000E+00  0.00000000E+00  0.00000000E+00
  0.00000000E+00  0.00000000E+00  0.00000000E+00
  0.00000000E+00  0.00000000E+00  0.00000000E+00
  0.00000000E+00  0.00000000E+00  0.00000000E+00
  0.00000000E+00  0.00000000E+00  0.00000000E+00
  0.00000000E+00  0.00000000E+00  0.00000000E+00
  0.00000000E+00  0.00000000E+00  0.00000000E+00
  0.00000000E+00  0.00000000E+00  0.00000000E+00
  0.00000000E+00  0.00000000E+00  0.00000000E+00
  0.00000000E+00  0.00000000E+00  0.00000000E+00
  0.00000000E+00  0.00000000E+00  0.00000000E+00
  0.00000000E+00  0.00000000E+00  0.00000000E+00
  0.00000000E+00  0.00000000E+00  0.00000000E+00
  0.00000000E+00  0.00000000E+00  0.00000000E+00
  0.00000000E+00  0.00000000E+00  0.00000000E+00
  0.00000000E+00  0.00000000E+00  0.00000000E+00
  0.00000000E+00  0.00000000E+00  0.00000000E+00
  0.00000000E+00  0.00000000E+00  0.00000000E+00
  0.00000000E+00  0.00000000E+00  0.00000000E+00
  0.00000000E+00  0.00000000E+00  0.00000000E+00
  0.00000000E+00  0.00000000E+00  0.00000000E+00
  0.00000000E+00  0.00000000E+00  0.00000000E+00
  0.00000000E+00  0.00000000E+00  0.00000000E+00
  0.00000000E+00  0.00000000E+00  0.00000000E+00
  0.00000000E+00  0.00000000E+00  0.00000000E+00
  0.00000000E+00  0.00000000E+00  0.00000000E+00
  0.00000000E+00  0.00000000E+00  0.00000000E+00
  0.00000000E+00  0.00000000E+00  0.00000000E+00
  0.00000000E+00  0.00000000E+00  0.00000000E+00
  0.00000000E+00  0.00000000E+00  0.00000000E+00
  0.00000000E+00  0.00000000E+00  0.00000000E+00
  0.00000000E+00  0.00000000E+00  0.00000000E+00
  0.00000000E+00  0.00000000E+00  0.00000000E+00
  0.00000000E+00  0.00000000E+00  0.00000000E+00
  0.00000000E+00  0.00000000E+00  0.00000000E+00
  0.00000000E+00  0.00000000E+00  0.00000000E+00
  0.00000000E+00  0.00000000E+00  0.00000000E+00
  0.00000000E+00  0.00000000E+00  0.00000000E+00
  0.00000000E+00  0.00000000E+00  0.00000000E+00
  0.00000000E+00  0.00000000E+00  0.00000000E+00
  0.00000000E+00  0.00000000E+00  0.00000000E+00
  0.00000000E+00  0.00000000E+00  0.00000000E+00
  0.00000000E+00  0.00000000E+00  0.00000000E+00
  0.00000000E+00  0.00000000E+00  0.00000000E+00
  0.00000000E+00  0.00000000E+00  0.00000000E+00
  0.00000000E+00  0.00000000E+00  0.00000000E+00
  0.00000000E+00  0.00000000E+00  0.00000000E+00
  0.00000000E+00  0.00000000E+00  0.00000000E+00
  0.00000000E+00  0.00000000E+00  0.00000000E+00
  0.00000000E+00  0.00000000E+00  0.00000000E+00
  0.00000000E+00  0.00000000E+00  0.00000000E+00
  0.00000000E+00  0.00000000E+00  0.00000000E+00
  0.00000000E+00  0.00000000E+00  0.00000000E+00
  0.00000000E+00  0.00000000E+00  0.00000000E+00
  0.00000000E+00  0.00000000E+00  0.00000000E+00
  0.00000000E+00  0.00000000E+00  0.00000000E+00
  0.00000000E+00  0.00000000E+00  0.00000000E+00
  0.00000000E+00  0.00000000E+00  0.00000000E+00
  0.00000000E+00  0.00000000E+00  0.00000000E+00
  0.00000000E+00  0.00000000E+00  0.00000000E+00
  0.00000000E+00  0.00000000E+00  0.00000000E+00
  0.00000000E+00  0.00000000E+00  0.00000000E+00
  0.00000000E+00  0.00000000E+00  0.00000000E+00
  0.00000000E+00  0.00000000E+00  0.00000000E+00
  0.00000000E+00  0.00000000E+00  0.00000000E+00
  0.00000000E+00  0.00000000E+00  0.00000000E+00
  0.00000000E+00  0.00000000E+00  0.00000000E+00
  0.00000000E+00  0.00000000E+00  0.00000000E+00
  0.00000000E+00  0.00000000E+00  0.00000000E+00
  0.00000000E+00  0.00000000E+00  0.00000000E+00
  0.00000000E+00  0.00000000E+00  0.00000000E+00
  0.00000000E+00  0.00000000E+00  0.00000000E+00
  0.00000000E+00  0.00000000E+00  0.00000000E+00
  0.00000000E+00  0.00000000E+00  0.00000000E+00
  0.00000000E+00  0.00000000E+00  0.00000000E+00
  0.00000000E+00  0.00000000E+00  0.00000000E+00
  0.00000000E+00  0.00000000E+00  0.00000000E+00
  0.00000000E+00  0.00000000E+00  0.00000000E+00
  0.00000000E+00  0.00000000E+00  0.00000000E+00
  0.00000000E+00  0.00000000E+00  0.00000000E+00
  0.00000000E+00  0.00000000E+00  0.00000000E+00
  0.00000000E+00  0.00000000E+00  0.00000000E+00
  0.00000000E+00  0.00000000E+00  0.00000000E+00
  0.00000000E+00  0.00000000E+00  0.00000000E+00
  0.00000000E+00  0.00000000E+00  0.00000000E+00
  0.00000000E+00  0.00000000E+00  0.00000000E+00
  0.00000000E+00  0.00000000E+00  0.00000000E+00
  0.00000000E+00  0.00000000E+00  0.00000000E+00
  0.00000000E+00  0.00000000E+00  0.00000000E+00
  0.00000000E+00  0.00000000E+00  0.00000000E+00
  0.00000000E+00  0.00000000E+00  0.00000000E+00
  0.00000000E+00  0.00000000E+00  0.00000000E+00
  0.00000000E+00  0.00000000E+00  0.00000000E+00
  0.00000000E+00  0.00000000E+00  0.00000000E+00
  0.00000000E+00  0.00000000E+00  0.00000000E+00
  0.00000000E+00  0.00000000E+00  0.00000000E+00
  0.00000000E+00  0.00000000E+00  0.00000000E+00
  0.00000000E+00  0.00000000E+00  0.00000000E+00
  0.00000000E+00  0.00000000E+00  0.00000000E+00
  0.00000000E+00  0.00000000E+00  0.00000000E+00
  0.00000000E+00  0.00000000E+00  0.00000000E+00
  0.00000000E+00  0.00000000E+00  0.00000000E+00
  0.00000000E+00  0.00000000E+00  0.00000000E+00
  0.00000000E+00  0.00000000E+00  0.00000000E+00
  0.00000000E+00  0.00000000E+00  0.00000000E+00
  0.00000000E+00  0.00000000E+00  0.00000000E+00
  0.00000000E+00  0.00000000E+00  0.00000000E+00
  0.00000000E+00  0.00000000E+00  0.00000000E+00
  0.00000000E+00  0.00000000E+00  0.00000000E+00
  0.00000000E+00  0.00000000E+00  0.00000000E+00
  0.00000000E+00  0.00000000E+00  0.00000000E+00
  0.00000000E+00  0.00000000E+00  0.00000000E+00
  0.00000000E+00  0.00000000E+00  0.00000000E+00
  0.00000000E+00  0.00000000E+00  0.00000000E+00
  0.00000000E+00  0.00000000E+00  0.00000000E+00
  0.00000000E+00  0.00000000E+00  0.00000000E+00
  0.00000000E+00  0.00000000E+00  0.00000000E+00
  0.00000000E+00  0.00000000E+00  0.00000000E+00
  0.00000000E+00  0.00000000E+00  0.00000000E+00
  0.00000000E+00  0.00000000E+00  0.00000000E+00
  0.00000000E+00  0.00000000E+00  0.00000000E+00
  0.00000000E+00  0.00000000E+00  0.00000000E+00
  0.00000000E+00  0.00000000E+00  0.00000000E+00
  0.00000000E+00  0.00000000E+00  0.00000000E+00
  0.00000000E+00  0.00000000E+00  0.00000000E+00
  0.00000000E+00  0.00000000E+00  0.00000000E+00
  0.00000000E+00  0.00000000E+00  0.00000000E+00
  0.00000000E+00  0.00000000E+00  0.00000000E+00
  0.00000000E+00  0.00000000E+00  0.00000000E+00
  0.00000000E+00  0.00000000E+00  0.00000000E+00
  0.00000000E+00  0.00000000E+00  0.00000000E+00
  0.00000000E+00  0.00000000E+00  0.00000000E+00
  0.00000000E+00  0.00000000E+00  0.00000000E+00
  0.00000000E+00  0.00000000E+00  0.00000000E+00
  0.00000000E+00  0.00000000E+00  0.00000000E+00
  0.00000000E+00  0.00000000E+00  0.00000000E+00
  0.00000000E+00  0.00000000E+00  0.00000000E+00
  0.00000000E+00  0.00000000E+00  0.00000000E+00
  0.00000000E+00  0.00000000E+00  0.00000000E+00
  0.00000000E+00  0.00000000E+00  0.00000000E+00
  0.00000000E+00  0.00000000E+00  0.00000000E+00
  0.00000000E+00  0.00000000E+00  0.00000000E+00
  0.00000000E+00  0.00000000E+00  0.00000000E+00
  0.00000000E+00  0.00000000E+00  0.00000000E+00
  0.00000000E+00  0.00000000E+00  0.00000000E+00
  0.00000000E+00  0.00000000E+00  0.00000000E+00
  0.00000000E+00  0.00000000E+00  0.00000000E+00
  0.00000000E+00  0.00000000E+00  0.00000000E+00
  0.00000000E+00  0.00000000E+00  0.00000000E+00
  0.00000000E+00  0.00000000E+00  0.00000000E+00
  0.00000000E+00  0.00000000E+00  0.00000000E+00
  0.00000000E+00  0.00000000E+00  0.00000000E+00
  0.00000000E+00  0.00000000E+00  0.00000000E+00
  0.00000000E+00  0.00000000E+00  0.00000000E+00
  0.00000000E+00  0.00000000E+00  0.00000000E+00
  0.00000000E+00  0.00000000E+00  0.00000000E+00
  0.00000000E+00  0.00000000E+00  0.00000000E+00
  0.00000000E+00  0.00000000E+00  0.00000000E+00
  0.00000000E+00  0.00000000E+00  0.00000000E+00
  0.00000000E+00  0.00000000E+00  0.00000000E+00
  0.00000000E+00  0.00000000E+00  0.00000000E+00
  0.00000000E+00  0.00000000E+00  0.00000000E+00
  0.00000000E+00  0.00000000E+00  0.00000000E+00
  0.00000000E+00  0.00000000E+00  0.00000000E+00
  0.00000000E+00  0.00000000E+00  0.00000000E+00
  0.00000000E+00  0.00000000E+00  0.00000000E+00
  0.00000000E+00  0.00000000E+00  0.00000000E+00
  0.00000000E+00  0.00000000E+00  0.00000000E+00
  0.00000000E+00  0.00000000E+00  0.00000000E+00
  0.00000000E+00  0.00000000E+00  0.00000000E+00
  0.00000000E+00  0.00000000E+00  0.00000000E+00
  0.00000000E+00  0.00000000E+00  0.00000000E+00
  0.00000000E+00  0.00000000E+00  0.00000000E+00
  0.00000000E+00  0.00000000E+00  0.00000000E+00
  0.00000000E+00  0.00000000E+00  0.00000000E+00
  0.00000000E+00  0.00000000E+00  0.00000000E+00
  0.00000000E+00  0.00000000E+00  0.00000000E+00
  0.00000000E+00  0.00000000E+00  0.00000000E+00
  0.00000000E+00  0.00000000E+00  0.00000000E+00
  0.00000000E+00  0.00000000E+00  0.00000000E+00
  0.00000000E+00  0.00000000E+00  0.00000000E+00
  0.00000000E+00  0.00000000E+00  0.00000000E+00
  0.00000000E+00  0.00000000E+00  0.00000000E+00
  0.00000000E+00  0.00000000E+00  0.00000000E+00
  0.00000000E+00  0.00000000E+00  0.00000000E+00
  0.00000000E+00  0.00000000E+00  0.00000000E+00
  0.00000000E+00  0.00000000E+00  0.00000000E+00
  0.00000000E+00  0.00000000E+00  0.00000000E+00
  0.00000000E+00  0.00000000E+00  0.00000000E+00
  0.00000000E+00  0.00000000E+00  0.00000000E+00
  0.00000000E+00  0.00000000E+00  0.00000000E+00
  0.00000000E+00  0.00000000E+00  0.00000000E+00
  0.00000000E+00  0.00000000E+00  0.00000000E+00
  0.00000000E+00  0.00000000E+00  0.00000000E+00
  0.00000000E+00  0.00000000E+00  0.00000000E+00
  0.00000000E+00  0.00000000E+00  0.00000000E+00
  0.00000000E+00  0.00000000E+00  0.00000000E+00
  0.00000000E+00  0.00000000E+00  0.00000000E+00
  0.00000000E+00  0.00000000E+00  0.00000000E+00
  0.00000000E+00  0.00000000E+00  0.00000000E+00
  0.00000000E+00  0.00000000E+00  0.00000000E+00
  0.00000000E+00  0.00000000E+00  0.00000000E+00
  0.00000000E+00  0.00000000E+00  0.00000000E+00
  0.00000000E+00  0.00000000E+00  0.00000000E+00
  0.00000000E+00  0.00000000E+00  0.00000000E+00
  0.00000000E+00  0.00000000E+00  0.00000000E+00
  0.00000000E+00  0.00000000E+00  0.00000000E+00
  0.00000000E+00  0.00000000E+00  0.00000000E+00
  0.00000000E+00  0.00000000E+00  0.00000000E+00
  0.00000000E+00  0.00000000E+00  0.00000000E+00
  0.00000000E+00  0.00000000E+00  0.00000000E+00
  0.00000000E+00  0.00000000E+00  0.00000000E+00
  0.00000000E+00  0.00000000E+00  0.00000000E+00
  0.00000000E+00  0.00000000E+00  0.00000000E+00
  0.00000000E+00  0.00000000E+00  0.00000000E+00
  0.00000000E+00  0.00000000E+00  0.00000000E+00
  0.00000000E+00  0.00000000E+00  0.00000000E+00
  0.00000000E+00  0.00000000E+00  0.00000000E+00
  0.00000000E+00  0.00000000E+00  0.00000000E+00
  0.00000000E+00  0.00000000E+00  0.00000000E+00
  0.00000000E+00  0.00000000E+00  0.00000000E+00
