POSCAR file written by OVITO Basic 3.10.4
1
21.5751 0.0 0.0
0.0 21.5751 0.0
0.0 0.0 21.5751
Sb 
300 
Direct
0.1394079286 0.1394380559 0.2004046331
0.1304837521 0.0277664066 0.0208481073
0.9245009293 0.0573151457 0.4719143828
0.4245667459 0.0623719009 0.9837080709
0.2822758643 0.4213454399 0.8866841869
0.5921965599 0.5845164101 0.3494152982
0.870512767 0.2377467544 0.5256198117
0.3395377078 0.7977576002 0.1967091694
0.3751129775 0.5365768872 0.9747625735
0.7560567506 0.4794971982 0.8655672511
0.6263563089 0.8926540317 0.5594968274
0.1417268054 0.5187646871 0.1340651955
0.2254418288 0.39668275 0.5565211749
0.2479195925 0.6831022799 0.7421471975
0.4344410918 0.0236666342 0.7479918981
0.7857391159 0.2625433949 0.3567348471
0.9481392902 0.0240810008 0.1554834045
0.1826517606 0.5336429495 0.7234033678
0.6429077965 0.0190432489 0.3985752094
0.9762921145 0.4360095666 0.25921224
0.1152717716 0.275609383 0.563802717
0.8676020042 0.1186423238 0.0867416605
0.2068467817 0.6670838142 0.2274988297
0.1487881864 0.2115642569 0.4219943361
0.8204736015 0.3318608025 0.1593049395
0.3260137844 0.3680515965 0.1796362473
0.4908714212 0.1522801748 0.7563441189
0.8194956223 0.6809701925 0.5594041279
0.420734087 0.5317611506 0.7526036959
0.3408076903 0.6515242108 0.1745771746
0.0054599979 0.2391780339 0.8694420883
0.9432076792 0.7236397514 0.4192518227
0.2440614412 0.1112486153 0.7293778476
0.9620534783 0.7782165552 0.7626615867
0.7986521499 0.0096503377 0.1305912835
0.5968917873 0.5511677814 0.6462496118
0.3742796094 0.7814146864 0.9670036292
0.6937441773 0.6862355215 0.6603491988
0.1787996348 0.4714184407 0.9641206761
0.3339706421 0.0570602222 0.233130785
0.4238098549 0.2192198414 0.6228893493
0.9065172351 0.4676687478 0.7161403655
0.3926688636 0.1832112018 0.8564687997
0.4910938999 0.0477731274 0.318092616
0.2481249218 0.8069070364 0.5837516396
0.1525805211 0.8507909581 0.9721947986
0.4950707065 0.3942141635 0.5453045409
0.3792371762 0.3171132463 0.8076208222
0.378671246 0.4048426195 0.9936964371
0.4284731009 0.3436503191 0.4379307628
0.3657067638 0.8911152208 0.8812102841
0.6707825224 0.1994150664 0.4173690968
0.3335933553 0.4823662463 0.5704956176
0.6209102159 0.9016551488 0.919119726
0.3791505022 0.3414083828 0.582662421
0.5733600308 0.7226571372 0.7054335785
0.0025301435 0.3381912482 0.5881270539
0.7771041617 0.1401629656 0.5481828589
0.6604465333 0.6994359238 0.1931564628
0.5943054725 0.8952357115 0.421493759
0.4141561337 0.9175206604 0.1513490088
0.2145510334 0.3829340304 0.2541522403
0.2810012468 0.2236490213 0.5919694463
0.6702634055 0.6997696419 0.938999124
0.6262079898 0.8515047439 0.7143466311
0.7987263095 0.6152601842 0.1084565077
0.0493068398 0.3308295211 0.958544804
0.5487622305 0.0055935778 0.8204967764
0.3905590241 0.6349449133 0.6532901354
0.7052481796 0.878169742 0.0237733776
0.92863996 0.7617299572 0.5432002633
0.1246979157 0.7106479228 0.7030002178
0.8406867176 0.8398014378 0.9212425435
0.5315525768 0.7017626801 0.5086233668
0.2492090419 0.0952222701 0.59388369
0.525406603 0.5974016343 0.2142984274
0.6498695255 0.3161533434 0.6699945771
0.5289199123 0.9808529277 0.6133320355
0.8096741151 0.3593448003 0.4669735019
0.0197377996 0.0822740103 0.7587960195
0.2599960139 0.8717178599 0.8048815533
0.3809664845 0.057272504 0.5931884441
0.2180323614 0.5260694041 0.402552016
0.2221185533 0.9666235614 0.9370385305
0.7878712034 0.3252476234 0.8224063851
0.6930072167 0.2284360212 0.8451872761
0.8081909238 0.0505712604 0.742402121
0.6239183132 0.5099860487 0.1684367627
0.8865636776 0.0653698013 0.6028291874
0.2452109144 0.9854322807 0.1489017432
0.0410544563 0.4913998081 0.7242654727
0.0579700673 0.263981627 0.2829539608
0.1364012218 0.9739885331 0.2909409458
0.8841488568 0.1427659663 0.834837382
0.2560048389 0.5350751561 0.0525388063
0.5852023861 0.7316350793 0.0657164973
0.8489833187 0.7543418107 0.2351052834
0.1474097455 0.2515937354 0.8305129524
0.8108374932 0.9348369185 0.3112768886
0.3921673596 0.1521378812 0.3199099888
0.4786953479 0.8541188685 0.8178780168
0.6006600201 0.7296327711 0.3254807625
0.9568808488 0.7776835333 0.8967003629
0.1389254279 0.4938378038 0.5130219559
0.9380489546 0.3146400248 0.3032653383
0.3200550635 0.8078757457 0.328454561
0.7849882503 0.5108203438 0.5688733772
0.2129788506 0.1072648562 0.0895856798
0.4696247063 0.7560521156 0.224803593
0.4381805878 0.7500590959 0.3541684627
0.0259451405 0.9174511358 0.2265041645
0.5309593003 0.9736779899 0.9928204273
0.4746907314 0.4701994429 0.8726865692
0.2167864807 0.274336156 0.9671148685
0.1035346302 0.9060722778 0.0967411507
0.6101339044 0.2841349519 0.980621179
0.6458510042 0.5624261301 0.4754555019
0.5223104412 0.4124778101 0.235182224
0.4535024171 0.6933826494 0.0780218863
0.0069196435 0.9077640428 0.8871893989
0.7296976607 0.9878888163 0.8287933776
0.7302445875 0.3710295665 0.9809548971
0.130588966 0.6615867366 0.1042312666
0.9603339034 0.1789878147 0.4412832385
0.5999230595 0.4403877618 0.0537698551
0.6515149408 0.9937566917 0.2644479052
0.3658866008 0.6425091888 0.3156917002
0.935258701 0.9873604294 0.8069348462
0.5829266145 0.1263896807 0.1200740669
0.9812051856 0.9710685003 0.0076432554
0.1561735519 0.8448118433 0.316817535
0.7345921919 0.5816334571 0.9640696914
0.6306297537 0.0062186039 0.0886508058
0.1077561634 0.0025049108 0.823273125
0.4755296615 0.7544159703 0.6206831023
0.2148472081 0.5193440587 0.24443502
0.1272276838 0.1857367984 0.700770796
0.0904204384 0.4739259609 0.3351993734
0.8289463317 0.9452424322 0.6351998368
0.7137301797 0.199062345 0.7064949873
0.3635899718 0.0361998786 0.8578639265
0.8056741336 0.2684302738 0.035896705
0.3189125427 0.7925108111 0.7106479228
0.182166479 0.5940134692 0.909766351
0.4935921502 0.1784909456 0.9496502913
0.9956338557 0.6463284064 0.7152689906
0.7382306455 0.3732228356 0.2929821878
0.0115047902 0.6626064306 0.5668293542
0.0981279345 0.2233704595 0.0168770017
0.5224494904 0.4542203744 0.7033432058
0.4981112486 0.0420403613 0.4581786411
0.811036797 0.0992171531 0.4180782476
0.0611380712 0.3565698421 0.7199410431
0.5731653619 0.6145324935 0.8062674101
0.9237315238 0.561763329 0.5493091573
0.0925594783 0.8112963555 0.7969881947
0.8562046062 0.4051434292 0.6063981163
0.743931662 0.8169741971 0.657095448
0.5992880682 0.4766605949 0.8169000375
0.0571941729 0.1548711246 0.5349500118
0.6564836316 0.6131141918 0.0758573541
0.6035244333 0.1404864867 0.6654430339
0.9080977608 0.7046595381 0.1094933511
0.6025093742 0.3313389046 0.796427363
0.4110715593 0.3343530273 0.2857544113
0.7997181937 0.7875374853 0.368220773
0.7680057103 0.9753002304 0.4430408202
0.8946331651 0.0613512799 0.9665911166
0.240349755 0.9304707742 0.6185417449
0.1064393676 0.9163433773 0.7208494978
0.4681554199 0.5561828219 0.0735880714
0.3386705044 0.6871300712 0.8711709332
0.460157311 0.9109158243 0.4471617745
0.577735445 0.2629095578 0.3441810235
0.479177385 0.8593795626 0.0529911796
0.3625480299 0.0901163842 0.4619756108
0.018632544 0.6366181385 0.9853488512
0.6180272629 0.0118022628 0.7014984867
0.3398440795 0.4809108648 0.4372744506
0.3012602491 0.167720196 0.9705864631
0.4612358691 0.2238052199 0.2260554992
0.217837229 0.8523668488 0.4382524299
0.5576752831 0.5480669846 0.9780024195
0.1460795083 0.6019763524 0.6031814453
0.7842883695 0.983689531 0.9527371831
0.7683765081 0.6488822763 0.2609818726
0.3966771881 0.9253120495 0.332377602
0.5068667121 0.462961006 0.4224749827
0.2872617045 0.2388123346 0.4403145292
0.1122247406 0.8089742342 0.5953437064
0.6790652187 0.3079939375 0.496859806
0.2502685967 0.6736330307 0.3765071773
0.6559969595 0.4551608104 0.5636914777
0.2420711839 0.3761391604 0.0661554292
0.24970313 0.2465694249 0.7367335493
0.2183373426 0.1080921989 0.3112963555
0.6939991008 0.0885557888 0.9725795014
0.0372725503 0.7723625846 0.2029181788
0.5317194358 0.7991851718 0.9295669545
0.1650944839 0.9550639394 0.504850499
0.4959930661 0.2862846522 0.7240661689
0.685480021 0.2041246622 0.0709614324
0.305515154 0.9733535418 0.4199095253
0.2395196314 0.3619899792 0.4273746124
0.7726777628 0.0506607154 0.2479701137
0.1277361403 0.7402097789 0.4645447762
0.5770216592 0.1330353046 0.8556669494
0.1235470519 0.3843194238 0.1446352508
0.9706467177 0.5893414167 0.1569823547
0.7348981001 0.4201088292 0.1064449296
0.0292916371 0.4981066136 0.0112126943
0.4686930767 0.4105992556 0.1154149923
0.3381759528 0.5034553722 0.1775681225
0.631097886 0.379611682 0.3858457203
0.1670096546 0.8056787686 0.1863750342
0.4513870156 0.0560799255 0.1222974633
0.4213778847 0.6033622092 0.4400586788
0.0404083874 0.4738286265 0.8703134632
0.3217760288 0.9528159777 0.0416241871
0.2101376123 0.4013330182 0.7037140036
0.7911898438 0.1736701105 0.929817243
0.9442181033 0.3324304406 0.7910276198
0.1134599608 0.3553466728 0.4383896251
0.5531144699 0.2632687682 0.5509128579
0.67375354 0.7986521499 0.8268003393
0.4408364272 0.8895393301 0.6524326654
0.3528743783 0.9320049502 0.5491052185
0.3593651941 0.1667315563 0.14630106
0.9238613031 0.3477198252 0.0019529087
0.0411688938 0.8252754333 0.3994623432
0.0696863514 0.0122419827 0.3998674398
0.4889757174 0.2190803287 0.4391098998
0.2329523386 0.672562352 0.0200342524
0.2133640169 0.1030011448 0.8917780219
0.7383743297 0.2102247498 0.2192694356
0.9212935282 0.0753345292 0.2757878295
0.2733878406 0.5424679376 0.8215350103
0.0447197464 0.6325439975 0.4319349621
0.783857317 0.7540683473 0.9950591191
0.0853173334 0.1237899245 0.9307813174
0.7074544266 0.6630282131 0.8055350844
0.9706837975 0.9071707663 0.7009469249
0.8943875115 0.6194177547 0.8303599983
0.4934113863 0.592859361 0.5713762625
0.6164096574 0.1214209899 0.5223336161
0.0187704808 0.0273595951 0.6333968325
0.9333444573 0.6151489448 0.2756747362
0.8711153135 0.6232416072 0.9799398381
0.8986516864 0.4836176889 0.0016819065
0.95326557 0.3490648943 0.1299326538
0.2150414135 0.0887527752 0.4478542394
0.7383975045 0.8117644878 0.1731333806
0.8678152129 0.5941293435 0.6824302089
0.5329894184 0.8727607288 0.2425138238
0.8509207373 0.6084514093 0.438141654
0.408580725 0.2591640363 0.032240036
0.7334612586 0.5372072435 0.7382769952
0.4351993734 0.5162154521 0.2821850188
0.2099142067 0.7559037965 0.8601628729
0.956162428 0.9551798138 0.3414394371
0.283088375 0.233736576 0.3050604632
0.5999137895 0.8609925331 0.1160930888
0.037177487 0.8975207531 0.5107508192
0.8731917813 0.9002322121 0.5115526695
0.3471872668 0.4177510185 0.7145922846
0.4266575821 0.7347914958 0.7811875727
0.2676159091 0.8142998178 0.052169399
0.5029408902 0.3476850629 0.8949668831
0.2281528243 0.2417643487 0.1650912394
0.0354770082 0.1386834823 0.3248916575
0.4929571589 0.668474306 0.9018544526
0.884964612 0.9054002067 0.1783472614
0.7597137441 0.5037195656 0.4313050693
0.7159735065 0.6794684613 0.3742939778
0.5242015101 0.2822652039 0.0991531905
0.9852329769 0.4838865173 0.4228226057
0.6540224611 0.3260782105 0.1817845572
0.2796000946 0.6079183874 0.5702453291
0.3305991629 0.6972760265 0.4871031884
0.1570282409 0.3864997149 0.8261977928
0.6959967741 0.8415488225 0.2987874911
0.9618773494 0.2117436304 0.623960028
0.7540729823 0.3968315326 0.7036073993
0.6623005224 0.6977812386 0.531858485
0.7185737262 0.9913650458 0.5730912024
0.9684497407 0.3398348096 0.4374084014
0.0048188884 0.2202010651 0.162448378
0.044167443 0.6094711033 0.8622068959
0.8835416754 0.5053835208 0.3260077589
0.0679463826 0.6029357917 0.3023443692
0.6912691019 0.5334760905 0.2817734333
0.9135299489 0.8687004927 0.0482755584
0.5893924014 0.1237815815 0.2565587182
0.8633053844 0.2393059592 0.7362515122
0.0221246715 0.7911759389 0.075448086
0.8712682676 0.5087067963 0.1368735255
0.8842091114 0.1987786847 0.2211549425
0.7861099137 0.8682972501 0.7954540188
0.9025728734 0.4827926638 0.8614328555
0.7551761058 0.811222196 0.5163405963
