Amorphous GeAsSeSi                      
   1.00000000000000     
    18.4736188657994731    0.0000000000000000    0.0000000000000000
     0.0000000000000000   18.4736188657994731    0.0000000000000000
     0.0000000000000000    0.0000000000000000   18.4736188657994731
   Ge   N    Se
   102    36   102
Direct
  0.4111709425750693  0.8293205174212599  0.5593117109819402
  0.2696892911103091  0.0606265337497185  0.3995319316683441
  0.4613519635089183  0.0351975761248027  0.7472438081745274
  0.9345792357233322  0.4225441344666133  0.5037845842426315
  0.7852109874971438  0.9379793123424482  0.2775468185367498
  0.5538359804892615  0.0958074778696608  0.5961703649301731
  0.6244238691245864  0.2541500920564967  0.7104520423791971
  0.8278198224424509  0.6245330741561188  0.2952108944813533
  0.4598538157497888  0.3111136565871034  0.8296636072811883
  0.8871673302975415  0.2078612939398952  0.2058636680435284
  0.9707923535073424  0.7783567111305235  0.5837937728784111
  0.1548734655423116  0.5012732501053316  0.0973523495328703
  0.7683656494963033  0.0770592480449320  0.6713567339752817
  0.0708414110045057  0.1856217455238874  0.7898826548812812
  0.4849440374560308  0.1343484559601596  0.4133042529501884
  0.1853210903934946  0.9252417227630366  0.4037900002136151
  0.4401295257538686  0.5093550669386071  0.3725243752487731
  0.4683489972444398  0.9352910011638641  0.8697424375734136
  0.6444328516610075  0.0659945409063551  0.8118899187313395
  0.7894064762460049  0.5655294755396256  0.5038948494590691
  0.2670528557911921  0.6531552999333063  0.7120973066322340
  0.2572744314610266  0.9040000735465196  0.5553332224959722
  0.8268356322334908  0.7925250073827436  0.9569771630845089
  0.7102695828795058  0.8378076329051585  0.7003700335066898
  0.7763603504330567  0.0431599559328184  0.1287018448552660
  0.9772357276842626  0.1656237530301482  0.4764344158466962
  0.7717857503496672  0.9229432045945648  0.8052143048237655
  0.6017473935838704  0.6345692008103913  0.4892098651495329
  0.3697187498235420  0.8730869555993418  0.1413917181748482
  0.2801372102812812  0.4890530725924332  0.6277334181241875
  0.6523232797402018  0.3018205604482746  0.2736795902787937
  0.5938288632642214  0.8569171514804206  0.2065899469311734
  0.1998961732350729  0.0638798427691305  0.8240245103219436
  0.2280622161033979  0.4438175915767213  0.2835619926816576
  0.4798775856665563  0.1235410634177315  0.1002960948112383
  0.3627139285427229  0.0192967012172862  0.9628352367353793
  0.0927972846271830  0.0323986040732415  0.3083117788019096
  0.6677077562853329  0.6995816128466665  0.9925335735489382
  0.1207613777228170  0.4029805476833190  0.6272061155946314
  0.3774496817592652  0.3183015228042207  0.9648691212475126
  0.2429660125988277  0.5668661463602070  0.4018455713203287
  0.4997283930285196  0.6803874100038392  0.5762885996012713
  0.2831908694625405  0.3237403868602536  0.6174582900011037
  0.0606376061560653  0.3803557797687908  0.8760948034120065
  0.1137450895347309  0.6490832183645943  0.2657876446031666
  0.0279939512390710  0.9574855536758303  0.7692986322252747
  0.6701061006028579  0.9147597371647419  0.4053489964315058
  0.9201432456502070  0.3677783406348549  0.9740229499094557
  0.7221710209999324  0.2010746009060534  0.3748501401307973
  0.5912098108361367  0.8596633399827956  0.0144737482526073
  0.8237597878811993  0.3796481509129018  0.2121964730442460
  0.5853652906153464  0.0154070980459961  0.1112085668384591
  0.3312317058307488  0.8150742261529232  0.4036026405531409
  0.3748107958987401  0.9806455105001449  0.4479563965644772
  0.9157344718674868  0.2918932811361062  0.8130448005714790
  0.8060351968612313  0.4547322005947268  0.3615464592502278
  0.4821163009303260  0.6119458336108377  0.2283356998589180
  0.9902256862854815  0.1657951806745973  0.0270463635784786
  0.5895631545995637  0.3507470337913983  0.1517006328159388
  0.6877329771119132  0.9953266674033624  0.9702240389160466
  0.5037490928987665  0.7481371498326527  0.0925752017706533
  0.7188370044559335  0.1492699371596845  0.9704842578386600
  0.5446784817609837  0.2555798549850767  0.9939366864243696
  0.2691119729831402  0.3350073505886876  0.8260821962177842
  0.8359366524201579  0.9807433530656336  0.9596987210394695
  0.3073437404210675  0.1115262604990937  0.6882270910361203
  0.1394236375062861  0.5199504238218646  0.7213590709661594
  0.9332814498052505  0.6533278350426843  0.0213940710712857
  0.9884326314749623  0.0737181622379449  0.6054821496398103
  0.5094034456316068  0.4020738198895012 -0.0025167439699446
  0.7576862912802482  0.1664449078078986  0.5624053735001736
  0.4084107707662854  0.8746088927828158  0.3054595204386886
  0.7938440086115753  0.3981835610487853  0.6276574669798132
  0.3128548951156151  0.7828703365791805  0.9634606815957713
  0.3183751104609219  0.6870565114789678  0.5372378754187676
  0.1878298832706347  0.7125349314958600  0.0957555887464138
  0.9883907963803911  0.3461203822958257  0.2079053095087821
  0.5867846657369072  0.4681511567258173  0.4533168297177376
  0.2751903413849536  0.9889642657538713  0.2708548974570761
  0.5323653096478848  0.0935228470368612  0.9346592926602783
  0.3630182718029319  0.2750429307701550  0.4444409823849615
  0.0460099059859953  0.6519915064888556  0.7724802656304658
  0.7094831019980365  0.7444780148372449  0.4193512662140089
  0.1675919931539148  0.6673354057160695  0.8550713638273757
  0.8996383454823629 -0.0008976223943661  0.7941740438998486
  0.9259937784254099  0.0946939718372114  0.3681117486194781
  0.9423202564288852  0.4759485467824676  0.1082319273598076
  0.2283235016205621  0.3701430700053955  0.4819768439062633
  0.5683146612055838  0.5090913120728959  0.6456057098764153
  0.6172456664632510  0.7690532306612061  0.5859783819991781
  0.9184970234779277  0.5257644878600543  0.9500923971250470
  0.2459220843590812  0.2155182224758318  0.7519964366000189
  0.7458098578932518  0.3471090477733794  0.0351948019258290
  0.3351413223178537  0.6531673612112400  0.3130241489270572
  0.5771141249570568  0.9371149308403164  0.6576384367366567
  0.1495891904002775  0.4701018877676738  0.4345982703718936
  0.2004788388911593  0.6977049775440156  0.4264858857615768
  0.1672679061197255  0.2029006127613675  0.5899971508773814
  0.5251116035145792  0.5408436732758586  0.8404472915869228
  0.8364041982351534  0.7950749291536767  0.4371562842754917
  0.9865479943105636  0.7252608073550829  0.4318877874565037
  0.1340286440445478  0.2015404014762724  0.3574237953371167
  0.4174824488290062  0.7288216308420155  0.5422991959993945
  0.8278182851635565  0.6366613021999026  0.7166564578317484
  0.9143015590364018  0.7670846655976719  0.4980034902605074
  0.2417789283163738  0.8471460699257980  0.3624621241387670
  0.3382384320499538  0.9089974368311846  0.2368198853882786
  0.8543950553364250  0.6162065006866113  0.7670066853710837
  0.6465416433769247  0.7292372207703482  0.4962482427870947
  0.8481193976827798  0.6947465382437514  0.9783415141801233
  0.6943057357414927  0.9689430923267223  0.3172999642677880
  0.2222044044391606  0.4047959270314387  0.5880890606390526
  0.5391725483150870  0.3278132274419052  0.0647351080037004
  0.5070025502135705  0.1619704657629820  0.0050302251632928
  0.7702697142459903  0.0140221680695809  0.0295354035366762
  0.1685670053992480  0.1522863499577418  0.7841913332002771
  0.2990077270527418  0.3023854561533877  0.5181446849797114
  0.5371686396773653  0.0267866903634020  0.6746998130257346
  0.3483361447925559  0.8784226182697069  0.4873561968115480
  0.5586021606454757  0.8345176847784608  0.1138841934992381
  0.1665059343592596  0.7200844542522926  0.3289928497692927
  0.7538425607319971  0.9560973020118064  0.9019829892549341
  0.9710819450126378  0.3372378381886181  0.8922474292613417
  0.3031139941686528  0.7223467966078072  0.4351416239716281
  0.9679134784900985  0.4523482788954419  0.0112797849033032
  0.6737394662280666  0.8169124802449093  0.3564654764652579
  0.9059860858834005  0.3948195251156443  0.1568407868433407
  0.1634064860963243  0.9542697470826117  0.3004963990617934
  0.6141661110573334  0.9601818489756033  0.0284270932575057
  0.3639177508481447  0.3109672170905589  0.8648242569830757
  0.4818228419099549  0.3160188128348373  0.9377225473527308
  0.4085445776078303  0.1117453095900126  0.7002487700244130
  0.6398738140895310  0.0777712457620280  0.9253350219229186
  0.9481848615849057  0.8702875869309260  0.1623404777857925
  0.8951837796660160  0.8425533131053248  0.1717332491220959
  0.2160694338851786  0.2601447086077495  0.6595273072794924
  0.0523856527741435  0.5448162502607775  0.7759613742007941
  0.4627445336389602  0.0181551575134017  0.9367519239624935
  0.5968823198093692  0.7256601458091262  0.8860182974053443
  0.0710865702833809  0.8592346539209463  0.4503177165685464
  0.2728318861168062  0.9968354144811603  0.7400149194586894
  0.7352163235214945  0.4393581809368556  0.4706861408254266
  0.6585124916684357  0.2687134270454767  0.9348083450013244
  0.2154007579270475  0.7932462494370212  0.2841580830148525
  0.3236631971935637  0.3772257193160869  0.3679593226456367
  0.6369516212354214  0.6174240255284803  0.8271596740947603
  0.3714095241113540  0.5313345282901855  0.2534292490126797
  0.5300828438153971  0.8799566071343429  0.5427265534900215
  0.0479980665130137  0.1937280942392166  0.6467084842388355
  0.1554356914420126  0.2814882759948209  0.1718506044031435
  0.7472713390927268  0.4801939421011375  0.2462379657050320
  0.5895523376572797  0.6481396853770529  0.0852579228361672
  0.4008602967665926  0.7004485065316300  0.1553758527055064
  0.1049989619928809  0.0837167452910105  0.4293561159647409
  0.1544676995226303  0.7889101668024454  0.5206799418655891
  0.2484356209886450  0.1045199987949001  0.5626283300373741
  0.8171109723129487  0.9231585786352654  0.4228028352354424
  0.9971040849946438  0.2120128182941987  0.3359962729531439
  0.8182591344459900  0.1237352284281202  0.2939236108487665
  0.7579660630524955  0.2719368493381428  0.1718813407885751
  0.9567641631477114  0.3847770902740728  0.7207039645068919
  0.3288277379937447  0.9110965007649462  0.8961574122988955
  0.5954219986072606  0.4531368870972538  0.7572496508665486
  0.7224142472590833  0.1706020685519364  0.7625112355864119
  0.9066165161861383  0.3143598550670190  0.6004891612590374
  0.9054774593220991  0.8500653981002809  0.6752692670632346
  0.4902793629681755  0.4311853748822004  0.1855327065043093
  0.5284448873682098  0.1445839448413325  0.8155525917322791
  0.5849881036177299  0.8556020072145650  0.7554939938086657
  0.0803214128898457  0.7419547964313029  0.1649296771174320
  0.5108238574615815  0.7961807711716348  0.2869773755984896
  0.1059762888226539  0.9873693184000437  0.8724167558476792
  0.8120409589438642  0.4357497392342873  0.9400344775778268
  0.3706209490179421  0.3934300569851469  0.6778531825528034
  0.5400179643600337  0.3676603326107832  0.3722066557692411
  0.2555476064260357  0.7511458127446266  0.8060916477260169
  0.4104120205269477  0.2240215193043844  0.1525110006872608
  0.6774513990911232  0.4402870333621199  0.0999755193596525
  0.0785457217811190  0.9888596743686520  0.6551172898467974
  0.8013933788591424  0.7940874175982817  0.8319197401150954
  0.2742884305775409  0.1097753509011412  0.9255257599637450
  0.1221231017305519  0.2777478356173629  0.4891444537772292
  0.0605021042611416  0.4920278386665932  0.5276593865938465
  0.3340606704394065  0.8523313742397687  0.6580368928342438
  0.7049649003212120  0.1000886759797540  0.4630605583235100
  0.4873336506677227  0.2618789406240779  0.4778260445076680
  0.8696485893531353  0.3459062898399220  0.3325496418632470
  0.3858937026436487  0.4397632149723236  0.0154456106756487
  0.2442764344243270  0.8326586958466324  0.0779509036194230
  0.3653989921361366  0.0132171261752057  0.0928105430334873
  0.1084664079951751  0.4029405839001185  0.3318292208599549
  0.4281079775165526  0.0682928937783523  0.5288966626111475
  0.5395864320426124  0.4133098979663039  0.5632157118814161
  0.1091416076112137  0.3233991885107437  0.7720661919118652
  0.8997485063431436  0.1033592374703056  0.7094797809931854
  0.4630024113237237  0.1828431838956565  0.6519186037719709
  0.8643567123755006  0.5778893617347951  0.1127739249955390
  0.5571320299712109  0.4746695919991609  0.2857685679574444
  0.8510872612445354  0.2374819912632632  0.4943486001308154
  0.4626982822355769  0.6487301559502787  0.3630256555065308
  0.2399564306173908  0.0574232236357245  0.1613879407014606
  0.9148063879086490  0.1024041282945405  0.1234577468646804
  0.0489114265890155  0.2844323225445948  0.0973388422721431
  0.1207206258382287  0.8760074850422239  0.2393611234427174
  0.8891087785407951  0.2573642407101357  0.0355662464592333
  0.9054978885124462  0.0745313850486179  0.9049847402341723
  0.1285305994507681  0.1172752006550612  0.2182097298543111
  0.6746303543958805  0.2680462723567208  0.5899022400073992
  0.6679277119480985  0.1300488369110079  0.1025305808886059
  0.0461206329932676  0.5149366651607113  0.8727714722444121
  0.7103975809973249  0.8062562107436870  0.2610950829998000
  0.8804861150293469  0.5084156711032969  0.5939730583738231
  0.9986131704689740  0.8272776578346317  0.7615849682035409
  0.2300502146446365  0.3897928329178117  0.1552696834284641
  0.1314731963812951  0.6432733064511506  0.6635395135693842
  0.2099663661461562  0.2750022970973519  0.9394692149968632
  0.4732211342489417  0.9716982955032595  0.3625413208992284
  0.1986802233413114  0.6412623656005815  0.9877554158306123
  0.7723246472674897  0.6370941045029762  0.9410507498451648
  0.6144489591806108  0.1749432586398690  0.2938487527847975
  0.5916463506246828  0.4844040090222929  0.9468463475078436
  0.4495034848855217  0.7977802055647667  0.9837090690175281
  0.8354049226737242  0.4077107945084716  0.7631689414169740
  0.6663247913778791  0.5855042878148228  0.6010302202508118
  0.3275554143321973  0.2351817833474028  0.0536035310430573
  0.9179437318939905  0.8821639387641802  0.9821588635731108
  0.2368179663657163  0.5566661442101376  0.8118682638831464
  0.9731468698181894  0.9867063912757328  0.3038590911323117
  0.0488220773464123  0.4869553949928466  0.1829173902938787
  0.7304404138911359  0.8034037986649160  0.0478451067467117
  0.2217557879495602  0.6109196024328659  0.1778272210172319
  0.4619669279283634  0.5888708103813342  0.6605567812709862
  0.6946557378855612  0.9350750554020330  0.6028026857400270
  0.8927023386587924  0.5495430252302186  0.3943553527621614
  0.6229483573561470  0.9847146697086347  0.2481006450157608
  0.7023301509493206  0.6281173050373667  0.3617827589613821
  0.3565034883727595  0.1697289237819999  0.3614887087820744
  0.1555110981764379  0.3893355282176038  0.9666768324241007
  0.3326530345512522  0.5473680292349361  0.5003549550181443
  0.8972733605375415  0.7493318641069050  0.3273716756296857
 
  0.00000000E+00  0.00000000E+00  0.00000000E+00
  0.00000000E+00  0.00000000E+00  0.00000000E+00
  0.00000000E+00  0.00000000E+00  0.00000000E+00
  0.00000000E+00  0.00000000E+00  0.00000000E+00
  0.00000000E+00  0.00000000E+00  0.00000000E+00
  0.00000000E+00  0.00000000E+00  0.00000000E+00
  0.00000000E+00  0.00000000E+00  0.00000000E+00
  0.00000000E+00  0.00000000E+00  0.00000000E+00
  0.00000000E+00  0.00000000E+00  0.00000000E+00
  0.00000000E+00  0.00000000E+00  0.00000000E+00
  0.00000000E+00  0.00000000E+00  0.00000000E+00
  0.00000000E+00  0.00000000E+00  0.00000000E+00
  0.00000000E+00  0.00000000E+00  0.00000000E+00
  0.00000000E+00  0.00000000E+00  0.00000000E+00
  0.00000000E+00  0.00000000E+00  0.00000000E+00
  0.00000000E+00  0.00000000E+00  0.00000000E+00
  0.00000000E+00  0.00000000E+00  0.00000000E+00
  0.00000000E+00  0.00000000E+00  0.00000000E+00
  0.00000000E+00  0.00000000E+00  0.00000000E+00
  0.00000000E+00  0.00000000E+00  0.00000000E+00
  0.00000000E+00  0.00000000E+00  0.00000000E+00
  0.00000000E+00  0.00000000E+00  0.00000000E+00
  0.00000000E+00  0.00000000E+00  0.00000000E+00
  0.00000000E+00  0.00000000E+00  0.00000000E+00
  0.00000000E+00  0.00000000E+00  0.00000000E+00
  0.00000000E+00  0.00000000E+00  0.00000000E+00
  0.00000000E+00  0.00000000E+00  0.00000000E+00
  0.00000000E+00  0.00000000E+00  0.00000000E+00
  0.00000000E+00  0.00000000E+00  0.00000000E+00
  0.00000000E+00  0.00000000E+00  0.00000000E+00
  0.00000000E+00  0.00000000E+00  0.00000000E+00
  0.00000000E+00  0.00000000E+00  0.00000000E+00
  0.00000000E+00  0.00000000E+00  0.00000000E+00
  0.00000000E+00  0.00000000E+00  0.00000000E+00
  0.00000000E+00  0.00000000E+00  0.00000000E+00
  0.00000000E+00  0.00000000E+00  0.00000000E+00
  0.00000000E+00  0.00000000E+00  0.00000000E+00
  0.00000000E+00  0.00000000E+00  0.00000000E+00
  0.00000000E+00  0.00000000E+00  0.00000000E+00
  0.00000000E+00  0.00000000E+00  0.00000000E+00
  0.00000000E+00  0.00000000E+00  0.00000000E+00
  0.00000000E+00  0.00000000E+00  0.00000000E+00
  0.00000000E+00  0.00000000E+00  0.00000000E+00
  0.00000000E+00  0.00000000E+00  0.00000000E+00
  0.00000000E+00  0.00000000E+00  0.00000000E+00
  0.00000000E+00  0.00000000E+00  0.00000000E+00
  0.00000000E+00  0.00000000E+00  0.00000000E+00
  0.00000000E+00  0.00000000E+00  0.00000000E+00
  0.00000000E+00  0.00000000E+00  0.00000000E+00
  0.00000000E+00  0.00000000E+00  0.00000000E+00
  0.00000000E+00  0.00000000E+00  0.00000000E+00
  0.00000000E+00  0.00000000E+00  0.00000000E+00
  0.00000000E+00  0.00000000E+00  0.00000000E+00
  0.00000000E+00  0.00000000E+00  0.00000000E+00
  0.00000000E+00  0.00000000E+00  0.00000000E+00
  0.00000000E+00  0.00000000E+00  0.00000000E+00
  0.00000000E+00  0.00000000E+00  0.00000000E+00
  0.00000000E+00  0.00000000E+00  0.00000000E+00
  0.00000000E+00  0.00000000E+00  0.00000000E+00
  0.00000000E+00  0.00000000E+00  0.00000000E+00
  0.00000000E+00  0.00000000E+00  0.00000000E+00
  0.00000000E+00  0.00000000E+00  0.00000000E+00
  0.00000000E+00  0.00000000E+00  0.00000000E+00
  0.00000000E+00  0.00000000E+00  0.00000000E+00
  0.00000000E+00  0.00000000E+00  0.00000000E+00
  0.00000000E+00  0.00000000E+00  0.00000000E+00
  0.00000000E+00  0.00000000E+00  0.00000000E+00
  0.00000000E+00  0.00000000E+00  0.00000000E+00
  0.00000000E+00  0.00000000E+00  0.00000000E+00
  0.00000000E+00  0.00000000E+00  0.00000000E+00
  0.00000000E+00  0.00000000E+00  0.00000000E+00
  0.00000000E+00  0.00000000E+00  0.00000000E+00
  0.00000000E+00  0.00000000E+00  0.00000000E+00
  0.00000000E+00  0.00000000E+00  0.00000000E+00
  0.00000000E+00  0.00000000E+00  0.00000000E+00
  0.00000000E+00  0.00000000E+00  0.00000000E+00
  0.00000000E+00  0.00000000E+00  0.00000000E+00
  0.00000000E+00  0.00000000E+00  0.00000000E+00
  0.00000000E+00  0.00000000E+00  0.00000000E+00
  0.00000000E+00  0.00000000E+00  0.00000000E+00
  0.00000000E+00  0.00000000E+00  0.00000000E+00
  0.00000000E+00  0.00000000E+00  0.00000000E+00
  0.00000000E+00  0.00000000E+00  0.00000000E+00
  0.00000000E+00  0.00000000E+00  0.00000000E+00
  0.00000000E+00  0.00000000E+00  0.00000000E+00
  0.00000000E+00  0.00000000E+00  0.00000000E+00
  0.00000000E+00  0.00000000E+00  0.00000000E+00
  0.00000000E+00  0.00000000E+00  0.00000000E+00
  0.00000000E+00  0.00000000E+00  0.00000000E+00
  0.00000000E+00  0.00000000E+00  0.00000000E+00
  0.00000000E+00  0.00000000E+00  0.00000000E+00
  0.00000000E+00  0.00000000E+00  0.00000000E+00
  0.00000000E+00  0.00000000E+00  0.00000000E+00
  0.00000000E+00  0.00000000E+00  0.00000000E+00
  0.00000000E+00  0.00000000E+00  0.00000000E+00
  0.00000000E+00  0.00000000E+00  0.00000000E+00
  0.00000000E+00  0.00000000E+00  0.00000000E+00
  0.00000000E+00  0.00000000E+00  0.00000000E+00
  0.00000000E+00  0.00000000E+00  0.00000000E+00
  0.00000000E+00  0.00000000E+00  0.00000000E+00
  0.00000000E+00  0.00000000E+00  0.00000000E+00
  0.00000000E+00  0.00000000E+00  0.00000000E+00
  0.00000000E+00  0.00000000E+00  0.00000000E+00
  0.00000000E+00  0.00000000E+00  0.00000000E+00
  0.00000000E+00  0.00000000E+00  0.00000000E+00
  0.00000000E+00  0.00000000E+00  0.00000000E+00
  0.00000000E+00  0.00000000E+00  0.00000000E+00
  0.00000000E+00  0.00000000E+00  0.00000000E+00
  0.00000000E+00  0.00000000E+00  0.00000000E+00
  0.00000000E+00  0.00000000E+00  0.00000000E+00
  0.00000000E+00  0.00000000E+00  0.00000000E+00
  0.00000000E+00  0.00000000E+00  0.00000000E+00
  0.00000000E+00  0.00000000E+00  0.00000000E+00
  0.00000000E+00  0.00000000E+00  0.00000000E+00
  0.00000000E+00  0.00000000E+00  0.00000000E+00
  0.00000000E+00  0.00000000E+00  0.00000000E+00
  0.00000000E+00  0.00000000E+00  0.00000000E+00
  0.00000000E+00  0.00000000E+00  0.00000000E+00
  0.00000000E+00  0.00000000E+00  0.00000000E+00
  0.00000000E+00  0.00000000E+00  0.00000000E+00
  0.00000000E+00  0.00000000E+00  0.00000000E+00
  0.00000000E+00  0.00000000E+00  0.00000000E+00
  0.00000000E+00  0.00000000E+00  0.00000000E+00
  0.00000000E+00  0.00000000E+00  0.00000000E+00
  0.00000000E+00  0.00000000E+00  0.00000000E+00
  0.00000000E+00  0.00000000E+00  0.00000000E+00
  0.00000000E+00  0.00000000E+00  0.00000000E+00
  0.00000000E+00  0.00000000E+00  0.00000000E+00
  0.00000000E+00  0.00000000E+00  0.00000000E+00
  0.00000000E+00  0.00000000E+00  0.00000000E+00
  0.00000000E+00  0.00000000E+00  0.00000000E+00
  0.00000000E+00  0.00000000E+00  0.00000000E+00
  0.00000000E+00  0.00000000E+00  0.00000000E+00
  0.00000000E+00  0.00000000E+00  0.00000000E+00
  0.00000000E+00  0.00000000E+00  0.00000000E+00
  0.00000000E+00  0.00000000E+00  0.00000000E+00
  0.00000000E+00  0.00000000E+00  0.00000000E+00
  0.00000000E+00  0.00000000E+00  0.00000000E+00
  0.00000000E+00  0.00000000E+00  0.00000000E+00
  0.00000000E+00  0.00000000E+00  0.00000000E+00
  0.00000000E+00  0.00000000E+00  0.00000000E+00
  0.00000000E+00  0.00000000E+00  0.00000000E+00
  0.00000000E+00  0.00000000E+00  0.00000000E+00
  0.00000000E+00  0.00000000E+00  0.00000000E+00
  0.00000000E+00  0.00000000E+00  0.00000000E+00
  0.00000000E+00  0.00000000E+00  0.00000000E+00
  0.00000000E+00  0.00000000E+00  0.00000000E+00
  0.00000000E+00  0.00000000E+00  0.00000000E+00
  0.00000000E+00  0.00000000E+00  0.00000000E+00
  0.00000000E+00  0.00000000E+00  0.00000000E+00
  0.00000000E+00  0.00000000E+00  0.00000000E+00
  0.00000000E+00  0.00000000E+00  0.00000000E+00
  0.00000000E+00  0.00000000E+00  0.00000000E+00
  0.00000000E+00  0.00000000E+00  0.00000000E+00
  0.00000000E+00  0.00000000E+00  0.00000000E+00
  0.00000000E+00  0.00000000E+00  0.00000000E+00
  0.00000000E+00  0.00000000E+00  0.00000000E+00
  0.00000000E+00  0.00000000E+00  0.00000000E+00
  0.00000000E+00  0.00000000E+00  0.00000000E+00
  0.00000000E+00  0.00000000E+00  0.00000000E+00
  0.00000000E+00  0.00000000E+00  0.00000000E+00
  0.00000000E+00  0.00000000E+00  0.00000000E+00
  0.00000000E+00  0.00000000E+00  0.00000000E+00
  0.00000000E+00  0.00000000E+00  0.00000000E+00
  0.00000000E+00  0.00000000E+00  0.00000000E+00
  0.00000000E+00  0.00000000E+00  0.00000000E+00
  0.00000000E+00  0.00000000E+00  0.00000000E+00
  0.00000000E+00  0.00000000E+00  0.00000000E+00
  0.00000000E+00  0.00000000E+00  0.00000000E+00
  0.00000000E+00  0.00000000E+00  0.00000000E+00
  0.00000000E+00  0.00000000E+00  0.00000000E+00
  0.00000000E+00  0.00000000E+00  0.00000000E+00
  0.00000000E+00  0.00000000E+00  0.00000000E+00
  0.00000000E+00  0.00000000E+00  0.00000000E+00
  0.00000000E+00  0.00000000E+00  0.00000000E+00
  0.00000000E+00  0.00000000E+00  0.00000000E+00
  0.00000000E+00  0.00000000E+00  0.00000000E+00
  0.00000000E+00  0.00000000E+00  0.00000000E+00
  0.00000000E+00  0.00000000E+00  0.00000000E+00
  0.00000000E+00  0.00000000E+00  0.00000000E+00
  0.00000000E+00  0.00000000E+00  0.00000000E+00
  0.00000000E+00  0.00000000E+00  0.00000000E+00
  0.00000000E+00  0.00000000E+00  0.00000000E+00
  0.00000000E+00  0.00000000E+00  0.00000000E+00
  0.00000000E+00  0.00000000E+00  0.00000000E+00
  0.00000000E+00  0.00000000E+00  0.00000000E+00
  0.00000000E+00  0.00000000E+00  0.00000000E+00
  0.00000000E+00  0.00000000E+00  0.00000000E+00
  0.00000000E+00  0.00000000E+00  0.00000000E+00
  0.00000000E+00  0.00000000E+00  0.00000000E+00
  0.00000000E+00  0.00000000E+00  0.00000000E+00
  0.00000000E+00  0.00000000E+00  0.00000000E+00
  0.00000000E+00  0.00000000E+00  0.00000000E+00
  0.00000000E+00  0.00000000E+00  0.00000000E+00
  0.00000000E+00  0.00000000E+00  0.00000000E+00
  0.00000000E+00  0.00000000E+00  0.00000000E+00
  0.00000000E+00  0.00000000E+00  0.00000000E+00
  0.00000000E+00  0.00000000E+00  0.00000000E+00
  0.00000000E+00  0.00000000E+00  0.00000000E+00
  0.00000000E+00  0.00000000E+00  0.00000000E+00
  0.00000000E+00  0.00000000E+00  0.00000000E+00
  0.00000000E+00  0.00000000E+00  0.00000000E+00
  0.00000000E+00  0.00000000E+00  0.00000000E+00
  0.00000000E+00  0.00000000E+00  0.00000000E+00
  0.00000000E+00  0.00000000E+00  0.00000000E+00
  0.00000000E+00  0.00000000E+00  0.00000000E+00
  0.00000000E+00  0.00000000E+00  0.00000000E+00
  0.00000000E+00  0.00000000E+00  0.00000000E+00
  0.00000000E+00  0.00000000E+00  0.00000000E+00
  0.00000000E+00  0.00000000E+00  0.00000000E+00
  0.00000000E+00  0.00000000E+00  0.00000000E+00
  0.00000000E+00  0.00000000E+00  0.00000000E+00
  0.00000000E+00  0.00000000E+00  0.00000000E+00
  0.00000000E+00  0.00000000E+00  0.00000000E+00
  0.00000000E+00  0.00000000E+00  0.00000000E+00
  0.00000000E+00  0.00000000E+00  0.00000000E+00
  0.00000000E+00  0.00000000E+00  0.00000000E+00
  0.00000000E+00  0.00000000E+00  0.00000000E+00
  0.00000000E+00  0.00000000E+00  0.00000000E+00
  0.00000000E+00  0.00000000E+00  0.00000000E+00
  0.00000000E+00  0.00000000E+00  0.00000000E+00
  0.00000000E+00  0.00000000E+00  0.00000000E+00
  0.00000000E+00  0.00000000E+00  0.00000000E+00
  0.00000000E+00  0.00000000E+00  0.00000000E+00
  0.00000000E+00  0.00000000E+00  0.00000000E+00
  0.00000000E+00  0.00000000E+00  0.00000000E+00
  0.00000000E+00  0.00000000E+00  0.00000000E+00
  0.00000000E+00  0.00000000E+00  0.00000000E+00
  0.00000000E+00  0.00000000E+00  0.00000000E+00
  0.00000000E+00  0.00000000E+00  0.00000000E+00
  0.00000000E+00  0.00000000E+00  0.00000000E+00
  0.00000000E+00  0.00000000E+00  0.00000000E+00
  0.00000000E+00  0.00000000E+00  0.00000000E+00
  0.00000000E+00  0.00000000E+00  0.00000000E+00
  0.00000000E+00  0.00000000E+00  0.00000000E+00
  0.00000000E+00  0.00000000E+00  0.00000000E+00
  0.00000000E+00  0.00000000E+00  0.00000000E+00
  0.00000000E+00  0.00000000E+00  0.00000000E+00
  0.00000000E+00  0.00000000E+00  0.00000000E+00
  0.00000000E+00  0.00000000E+00  0.00000000E+00
