Sb2
1.0
   4.3475180000000000    0.0000000000000000    0.0000000000000000
   0.0000000000000000    3.1224020000000001    0.0000000000000000
   0.0000000000000000    0.0389150000000000    4.4058520000000003
Sb
2
direct
   0.7500000000000000    0.0113890000000000    0.7588340000000000 Sb
   0.2500000000000000    0.9886109999999991    0.2411660000000000 Sb
