Amorphous Sb                            
   1.00000000000000     
    22.6970374761353142    0.0000000000000000    0.0000000000000000
     0.0000000000000000   22.6970374761353142    0.0000000000000000
     0.0000000000000000    0.0000000000000000   22.6970374761353142
   In   Te
    90   210
Direct
  0.9527095446302527  0.8208042113006331  0.4726855769432877
  0.0480358677101099  0.8761303506582250  0.2205505354413821
  0.7296121170013402  0.1685657322848403  0.4402027546536563
  0.4546713807173665  0.5057143862647293  0.8886103442391634
  0.2641542637962232  0.3098566406134740  0.8363444579135577
  0.1001751978537841  0.5401709530889536  0.8490384198039410
  0.7184916578008819  0.5120770132246811  0.3315826019726084
  0.9395710544767342  0.7186286855128023  0.2716069434636588
 -0.0129726561535302  0.4822648146753571  0.9793747445694083
  0.9081949734247208  0.2369734820202237  0.5062346813703751
  0.7023903356738012  0.9621002952297839  0.2277251516373373
  0.0755160665083550  0.7522306591254155  0.1201199259575075
  0.3989924151324999  0.2180550232102850  0.5337323586067053
  0.1498954777812545  0.8477555835295301  0.9169522432203208
  0.6672619282063852  0.9556582636053441  0.5918933690808997
  0.8942211259407901  0.9685033534319281  0.6481395712690223
  0.4769522843588763  0.3253413736248795 -0.0099805402834487
  0.4647931223337717  0.5566289966997007  0.7089473662624118
  0.7471119385048105  0.6801103252741290  0.2784165356087930
  0.2308187600009640  0.2119957459873389  0.6589768600370584
  0.1496603693421475  0.5142460321526034  0.0332384628749618
  0.2978951613009140  0.6356882666640231  0.6960111279640903
  0.2780713846846516  0.2324092753479120  0.3009607821384759
  0.5945064841755703  0.4477362367345791  0.0324458384465842
  0.6431091131386798  0.1194467348480789  0.7979072462066610
  0.8394360762571862  0.7411238537259383  0.8481879964561259
  0.3746553623466147  0.0254070810677139  0.4223896898541201
  0.0521422811087171  0.4568004785056936  0.6145095751620897
  0.8350484406196537  0.9021074780363844  0.8929600961786566
  0.4445025087374809  0.7664999041987935  0.1447767730029953
  0.0161974139251240  0.2634331002062393  0.0987816743572970
  0.3321727194428867  0.8684564703291692  0.5340442392054928
  0.8332360585718053  0.5260646295224922  0.3840048011312336
  0.5390616321473843  0.2075544584854092  0.8871067737745763
  0.1352636909574807  0.2220878207082613  0.9824835925359602
  0.1469549195445949  0.7719744750366112  0.5376303277197549
  0.8110320723463870  0.5661907305463277  0.9461195365050937
  0.2981856860646224  0.1390710128124965  0.8195004528479519
  0.9944006655204760  0.8541110435216466  0.9709737787468132
  0.1351133833115676  0.4541620799704717  0.4573519367870693
  0.0304766381961712  0.0822946831580913  0.5314613519674479
  0.6932586541321524  0.6227954617600832  0.6781565530828094
  0.0996140094210681  0.1558448370540023  0.8486473322953499
  0.4726042996485079  0.9915651013558048  0.6552574385569367
  0.9483517191158191  0.6210145029900549  0.0669289984001830
  0.4914654332029191  0.2228953289552525  0.3057913027164814
  0.1063112295849415  0.6182271723806475  0.6743533890679454
  0.3510025280729882  0.5808268332649381  0.3372831306721003
  0.7408217585908825  0.0916280680760960  0.6251756445809813
  0.4861751089102515  0.0626159812959368  0.9462224398786240
  0.1905872210491237  0.4040561288805217  0.1734348760276697
  0.0123673517692924  0.0490131845924926  0.3594066584384294
  0.4842324322331620  0.3955026183032244  0.6011256497545223
  0.8683393283818129  0.2906464939759236  0.0393082382692328
  0.3377650984298058  0.5020325907374781  0.0545750346894367
  0.2884327733180369  0.9149232959595653  0.7456201575552088
  0.5363328507705436  0.5691826778426780  0.4151348654725210
  0.9245907739580814  0.6667844531060715  0.5956199035715519
  0.4116931171241762  0.7109104666196407  0.8304020885762756
  0.9993345389568404  0.5843130555323817  0.3834678008882896
  0.6895195804336134  0.8040316162390653  0.7751001502883896
  0.7315328218307737  0.2120211507019435  0.9614297479211793
  0.2934182453823430  0.0196480911600440  0.0727549227894385
  0.5046614520257843  0.7594658469870226  0.6816667360444073
  0.5223513601523421  0.1050245838923954  0.1744902467570917
  0.3800280118103998  0.6635281334388355  0.1674807060753311
  0.2062993175425567 -0.0045902355741193  0.4039535162840835
  0.9615173208823696  0.1792351245047328  0.9295087104990015
  0.9505507723360475  0.4066438959100477  0.4454874802205630
  0.4645690214998599  0.8913862447250018  0.0213522398223834
  0.8605574941218967  0.5558217555952374  0.7462041536044691
  0.3972901021686371  0.3912037880521603  0.4095960337600800
  0.6854921458126215  0.2251073462052615  0.2577561861673864
  0.5723222609348393  0.0340420246929599  0.3966189699547734
  0.1022249323806530  0.1590116137116678  0.2256618366250470
  0.2415794699732791  0.2340890643154126  0.1059968276584335
  0.5655548593639390  0.3960256834523787  0.7495304961699877
  0.8313555609411123  0.7265873215739727  0.4320083477006478
  0.2109460069928008  0.1831162948570924  0.4808486695385207
  0.5864029356559715  0.3921031035073307  0.3254834701479420
  0.4886136319625438  0.9372184385057220  0.8472644849376039
  0.3016498879516223  0.5387047560764339  0.5022757078539346
  0.4947548956657228  0.9347084836807414  0.2115124780674457
 -0.0029414691137157  0.7067956276437558  0.7512768686799054
  0.5793804830775143  0.7768139259850209  0.3656386291224852
  0.0600402265048052  0.9227698319965896  0.6625391994777257
  0.0083476150134996  0.5292389213125718  0.2013324020021021
  0.4894879853019312  0.8674814881153671  0.4978769526413551
  0.0876924473220368  0.7563775350603776  0.3693445011091515
  0.2519838737595895  0.5098917068847911  0.8986684074610939
  0.3883049039749695  0.3470224315259920  0.5293325820318693
  0.9560342274894316  0.5992464988604979  0.9431809361667113
  0.6281554779139662  0.7667438100723916  0.9393562265957746
  0.6313516186868123  0.4839684591757371  0.6834763417622157
  0.0043914035007841  0.0371679281814258  0.6472350445917573
  0.7840200973134609  0.9111426831748667  0.1199458687685491
  0.1847419161996780  0.4136346680017851  0.9562232091494406
 -0.0039172856570729  0.2974851519517476  0.7595087010726780
  0.5674289899264501  0.2228213543149145  0.2060613843229856
  0.4302602205701887  0.6790391088489146  0.3569586902229158
  0.3591420362174151  0.0334620203015516  0.6847841312378560
  0.6249978249390937  0.2417337365203417  0.4390572002454208
  0.5188799049431141  0.7845273057284696  0.0486407255736517
  0.3680661257006848  0.0245696660437798  0.9500994471146088
  0.9599979854327777  0.2753739697598737  0.6110688877102007
  0.6607919822571229  0.2409938535531564  0.0712181870724030
  0.1918553167212882  0.6606685546155751  0.7562230863642336
  0.6015816975689688  0.0575048622040738  0.5214044931868830
  0.8627759604215828  0.0449448216186295  0.2392973883959847
  0.9066572871434886  0.0000620648079289  0.0086500547960389
  0.7856502606339355  0.6090300383378930  0.5780141978164198
  0.3737446778379405  0.5951617209803834  0.7901750365519704
  0.2095087360678277  0.6763153475427860  0.2024908391680991
  0.3287108182561832  0.8231811021870261  0.1274855526668024
  0.0664178488060093  0.1162611878029803  0.9677316123202031
  0.9427652553181431  0.9435734154425016  0.4877611956399710
  0.1977628687269752  0.6627227525467300  0.4903380808972518
  0.9021617066606984  0.9908610689814870  0.3433527862659338
  0.3610074830867285  0.0308855736155087  0.8116317933048045
  0.8938023711111700  0.9640047145322238  0.1515514732841395
  0.4054618484199911  0.9423747069548550  0.1214651709769513
  0.1423156302626949  0.8958848953586714  0.5670825734966836
  0.3363205316947313  0.3128007959869412  0.1167955027751296
  0.8050673193242731  0.8556422333883851  0.7777667690337374
  0.9576840513239455  0.5320991519256079  0.5736335151360420
  0.1597234235312511  0.8285351935282993  0.1783216074633012
  0.4339589958118400  0.5848014826254528  0.5910049302688426
  0.7207413458728220  0.2201439582505660  0.6136948825002068
  0.6113054302112735  0.3257738750577966  0.9922957605428642
  0.8591468132456835  0.6244357844267011  0.2629650327555744
  0.1878974727187683  0.3892183300554923  0.7594521745035727
  0.2638766458620340  0.8871910601058970  0.0226832616196428
  0.4188330027271678  0.5443553650428482  0.1482428512221763
  0.2380502378426458  0.5622428178938882  0.3942832807177338
  0.4687309850615428  0.3489192258537541  0.3129398600208428
  0.8754547943866833  0.6768164220416648  0.7171740230802069
  0.6059283870906672  0.0400523282286166  0.1022710075489473
  0.5180422804909992  0.0992612828020742  0.8247339371370396
  0.5762990385601191  0.5972142121299282  0.9171544375135204
  0.2478147899875276  0.8236522324118110  0.6168468656596641
  0.9199981800150990  0.3346008553567670  0.1520481560546526
  0.7135511096036989  0.8099285358365365  0.0155866612526416
  0.3553903759493022  0.7539884170684727  0.9338708525209064
  0.8845071274228029  0.3078143836485401  0.4018329645828780
  0.5559126799654235  0.9620915531569469  0.9710492798081900
  0.7389920435620815  0.5585665618916791  0.7754302302982369
  0.8455526386448737  0.1389115720352624  0.9605667039747772
  0.7410325480783790 -0.0025825684873156  0.0386767912856671
  0.4764383351561979  0.0577461521085162  0.5486104553449664
  0.9750465356327902  0.7586180843266371  0.8589709803241099
  0.6955951209030335  0.8707399413953472  0.3844068590042486
  0.9097738508881499 -0.0001757255761929  0.8840501922025399
  0.1410720096908798  0.3973841276540483  0.3376107835356962
  0.8211166778903626  0.0528485541645086  0.7112829766396318
  0.8274891549397170  0.4243062520081224  0.4800178672619628
  0.7817092873059982  0.2630109709481727  0.5120246794058735
  0.5637611231883797  0.2968000594990959  0.6030266998466008
  0.3291422669973493  0.8876656009128993  0.3390817036486590
  0.3201997764373029  0.2387823140968263  0.7428234268623803
  0.1876372990657785  0.9628522718559230  0.9524959648453886
  0.1437577252922615  0.9291821612416918  0.7580540503053163
  0.6017416348624354  0.7960418420027899  0.2252797305426057
  0.1568123910025752  0.6009052918595655  0.9415247627111930
  0.5301724277440707  0.1637685101791274  0.0075180265628449
  0.1057205202304312  0.1809121536762451  0.5539198258821897
  0.5795772035082064  0.4729225727592916  0.5719511560502899
  0.7898572079335739  0.3244788381483266  0.9492144394518299
  0.8300311434621603  0.3998484699776119  0.7886846051840193
  0.6470362506657170  0.7447889657296995  0.5634980669495723
  0.7719967502441658  0.8729069909241054  0.2845610469351846
  0.2058850502502399  0.5120053208663315  0.7783766586122242
  0.3970128974433488  0.1252454201689662  0.1588729586691023
  0.6860230455702980  0.3148134405181152  0.3517515630601246
  0.7035891759256522  0.0746462935797627  0.1707918864501974
  0.6215277210632465  0.5474563612601012  0.1029183196464896
  0.1386565721340598  0.4940508666277645  0.2632586720382970
  0.6221896614637966  0.1041803546776819  0.6736580118089645
  0.3154995751416855  0.3819870884639344 -0.0036313945326322
  0.7141291230656255  0.7140924609349321  0.3954404536530377
  0.4405037157122249  0.8767667215376614  0.6116859341547546
  0.5731592932027921  0.8536197859622738  0.7637454511009194
  0.0204551661287767  0.5801293101887069  0.7613044071711996
  0.2280537008780295  0.1579173829415458  0.2034913562660796
  0.3753396154095437  0.8812510823650216  0.9306610711326898
  0.7195810936790401  0.9207075078103601  0.9422035846239288
  0.8895849519680622  0.3016798663095931  0.8287905704023338
  0.3496774777029288  0.7342261947697057  0.6361436316680948
  0.8756850890044006  0.8133417126822530  0.9722708459213607
  0.2731190828542922  0.7080825625046601  0.1021304824398282
  0.2496258891660808  0.1596803480898744  0.0002923019572696
  0.7470062190172996  0.1368512243551573  0.3201081649157798
  0.9829342278357202  0.2939324505539088  0.9794260235605061
  0.0401163457792646  0.8657694024045105  0.8487818199961941
  0.1845869843766479  0.0839519053505678  0.7947141580685037
  0.5387343177974456  0.6325763700571616  0.3080095407450729
  0.8702648129122327  0.2439685021782894  0.2167677257823116
  0.4601847538295658  0.3010933315902632  0.8657734667815684
  0.6074609582421274  0.9077740811753999  0.1580411071737666
  0.6849338037067596  0.7028226755786071  0.0955373096594475
  0.4197574501676151  0.5125819689847971  0.4373369116843302
  0.5608203350247372  0.4022985359560279  0.8743766032636920
  0.6883096092302609  0.9959788929707842  0.3571612585925669
  0.4737009458112933  0.8211579441696938  0.2591545465485233
  0.6972768647164901  0.7066121906197320  0.8554591917473411
  0.2543313400953736  0.2825310928134530  0.4162575528480276
  0.2062083044277165  0.7747791069722865  0.4073360623525788
  0.3053207687746062  0.3450884946144590  0.2465464844453551
  0.6136784614963022  0.8626653233055698  0.5045089735157935
  0.6021730680896146  0.2812486762282242  0.7216717408579442
  0.7417228848669476  0.0599585945463986  0.5029032776687181
  0.3870348213924562  0.1521172323922473  0.4213040756957410
  0.0343502014180827  0.7271656174471000  0.4786262198723968
  0.7995807273675321  0.2470612240138015  0.7084817965210228
  0.0433831640683808  0.7217044537182267  0.6353670848693591
  0.5759896380447008  0.5950548895977510  0.7547342090369570
  0.5224460527686764  0.1661015838245955  0.4136289567012218
  0.8688313365651742  0.4514853752098968  0.0167650126638014
  0.4324286598268078  0.2355869983299120  0.0619546387834646
  0.7300876664300623  0.7756614514436257  0.1943565485185500
  0.0782242631560993  0.9926945871734800  0.4550902053367934
  0.0499986468670277  0.3732592584872087  0.5158563066154004
  0.5865834224465962  0.9746691204919780  0.7106623571797348
  0.1603343431572040  0.9189034632876314  0.0889557536202829
  0.7358394176236467  0.4080462325672549  0.2576622819573630
  0.3814813818651518  0.7970638489169078  0.7442536276480811
  0.8974374399112449  0.8031372402242953  0.3568578758839644
  0.0496526856392908  0.4602851784684799  0.0861002924426773
  0.6800826455687863  0.0930341946296667  0.9517574170344838
  0.9631520879837510  0.7955164061784219  0.1710911755379622
  0.8628794308825173  0.1714292895526980  0.0791688512970646
  0.7824496448992813  0.4875746875975310  0.5803038890346400
  0.1415487559151223  0.2744442647429768  0.8679879418725569
  0.4696009064684391  0.4475197233189895  0.0159351444570848
 -0.0001121682949446  0.1686555538315705  0.3948041925974554
  0.0764205691801613  0.5647700453970226  0.4785414999153615
  0.9166399649588799  0.1126616697877423  0.4819713573776812
  0.9536506297527895  0.8642849462041031  0.6876708027958583
  0.1601452350072800  0.3044785605013257  0.6151895741196519
  0.3420108587489117  0.5773231569490269  0.9557803744719359
  0.8940321197372495  0.4621373961608644  0.6605306986667466
  0.6430503146073681  0.4908299453611845  0.9171714956453901
  0.5368620794576485  0.7034322122896475  0.8193886295148907
  0.5033465628504056  0.0387750603380156  0.2797933273668866
  0.8325863259561422  0.9327686950152834  0.5438453738743807
  0.8932118896585912  0.1848449351259721  0.6633186145316032
  0.2478320298960168  0.4158435828018111  0.5035191414467254
  0.5352885598912597  0.5991856415489325  0.0359659227262907
  0.3245707545330633  0.5292429175572605  0.6313919001275402
  0.2386594331852443  0.3958383046876539  0.6357654080984178
  0.3133685219840889  0.6899085129516577  0.2738333946848130
  0.0509074111927112  0.6603002456100527  0.2939736738707409
  0.0113520706959797  0.1502724381424625  0.1440367442852107
  0.6555051197371902  0.2380992530020693  0.8485496655193092
  0.7534372851784843  0.2673886317631063  0.1603362985526728
  0.2011034308491901  0.1187372119472735  0.3735684343656713
  0.2024631266511089  0.8835432769388935  0.3357275619588992
  0.6457592800089577  0.6143042999915006  0.5540575497013084
  0.3392862013351378  0.4099159575820817  0.8729410726850789
  0.3196723773587543  0.6717939573324332  0.5122132650046493
  0.1023059867769489  0.2270060204270252  0.3335365592078047
  0.7757717803472051  0.6170400773972319  0.0944364143843098
  0.8605067592591868  0.7725811589424879  0.5477063310639114
  0.3850177986706823  0.1550931959596960  0.2808069243518475
  0.8902054884462925  0.4902525790283782  0.8507200086476382
  0.2343118675804061  0.5241239759142020  0.1228038529604212
  0.5031054914007055  0.1829760993265339  0.5904368763468262
  0.1433731441703506  0.1261539816268368  0.6756311027222225
  0.1558219699221241  0.5250692440762985  0.6124250372567134
  0.6640244347371440  0.5908525514015349  0.2518015482219954
  0.1589047384502427  0.8037881055061492  0.7519162693540076
  0.0841713931876903  0.7671227761405224 -0.0046281488093774
  0.1030336588209716  0.0381884839673184  0.2715712052554879
  0.0338934767133036  0.3330653493692931  0.3235315147045206
  0.2976760260506072  0.1520009032797181  0.5694692266865535
 -0.0171043355654916  0.1702409529454192  0.8038907242242074
  0.1380240037471394  0.3047937575419023  0.0789749982299073
  0.5306855768836060  0.6497508196803200  0.5125057624627186
  0.8617133381352960  0.7062738238953222  0.0942170237202185
  0.2408788550197774  0.7939663278322006  0.8476710319624343
  0.0029863168025653  0.4256176354681458  0.7275682048962039
  0.0415626691631381  0.9907836966739149  0.1706472717777811
  0.3599479808209313  0.4907221583817342  0.2511515330569680
  0.8943302508370673  0.6172369411084878  0.4498565007821994
  0.3963552085840549  0.7931149081756029  0.4575276280982605
  0.0211394220546318  0.9591828070471040  0.0321806418989423
  0.0565219397527705  0.8746714929246844  0.3444633324368083
  0.6252569842818840  0.4193859471083793  0.2096756638422049
  0.3142746755132865  0.0061437165857166  0.3118598063976174
  0.9476511073390836  0.4767271594201312  0.3382151756987609
  0.0654955921233225  0.6269972173410864  0.1142867592625168
  0.3269966340920996  0.2146941454113568  0.9200266311570313
  0.2906906426639551  0.4224968503404485  0.3489301395746337
  0.4462444303424006  0.4283198401692512  0.7182541440413658
  0.7403872508851869  0.0621445374053533  0.8479658505355776
  0.6238205510783891  0.4752038679355584  0.4143440490771466
  0.7258719949323017  0.7468612369157318  0.6620278962576288
  0.0663305017896197  0.4282236617547184  0.8945061894142021
  0.4747537769818345  0.9505332158871163  0.4038614395387277
  0.8844229660213788  0.5209075743948475  0.1180724122468869
  0.2885743749868366  0.9857688121170762  0.5054591159130596
 
  0.00000000E+00  0.00000000E+00  0.00000000E+00
  0.00000000E+00  0.00000000E+00  0.00000000E+00
  0.00000000E+00  0.00000000E+00  0.00000000E+00
  0.00000000E+00  0.00000000E+00  0.00000000E+00
  0.00000000E+00  0.00000000E+00  0.00000000E+00
  0.00000000E+00  0.00000000E+00  0.00000000E+00
  0.00000000E+00  0.00000000E+00  0.00000000E+00
  0.00000000E+00  0.00000000E+00  0.00000000E+00
  0.00000000E+00  0.00000000E+00  0.00000000E+00
  0.00000000E+00  0.00000000E+00  0.00000000E+00
  0.00000000E+00  0.00000000E+00  0.00000000E+00
  0.00000000E+00  0.00000000E+00  0.00000000E+00
  0.00000000E+00  0.00000000E+00  0.00000000E+00
  0.00000000E+00  0.00000000E+00  0.00000000E+00
  0.00000000E+00  0.00000000E+00  0.00000000E+00
  0.00000000E+00  0.00000000E+00  0.00000000E+00
  0.00000000E+00  0.00000000E+00  0.00000000E+00
  0.00000000E+00  0.00000000E+00  0.00000000E+00
  0.00000000E+00  0.00000000E+00  0.00000000E+00
  0.00000000E+00  0.00000000E+00  0.00000000E+00
  0.00000000E+00  0.00000000E+00  0.00000000E+00
  0.00000000E+00  0.00000000E+00  0.00000000E+00
  0.00000000E+00  0.00000000E+00  0.00000000E+00
  0.00000000E+00  0.00000000E+00  0.00000000E+00
  0.00000000E+00  0.00000000E+00  0.00000000E+00
  0.00000000E+00  0.00000000E+00  0.00000000E+00
  0.00000000E+00  0.00000000E+00  0.00000000E+00
  0.00000000E+00  0.00000000E+00  0.00000000E+00
  0.00000000E+00  0.00000000E+00  0.00000000E+00
  0.00000000E+00  0.00000000E+00  0.00000000E+00
  0.00000000E+00  0.00000000E+00  0.00000000E+00
  0.00000000E+00  0.00000000E+00  0.00000000E+00
  0.00000000E+00  0.00000000E+00  0.00000000E+00
  0.00000000E+00  0.00000000E+00  0.00000000E+00
  0.00000000E+00  0.00000000E+00  0.00000000E+00
  0.00000000E+00  0.00000000E+00  0.00000000E+00
  0.00000000E+00  0.00000000E+00  0.00000000E+00
  0.00000000E+00  0.00000000E+00  0.00000000E+00
  0.00000000E+00  0.00000000E+00  0.00000000E+00
  0.00000000E+00  0.00000000E+00  0.00000000E+00
  0.00000000E+00  0.00000000E+00  0.00000000E+00
  0.00000000E+00  0.00000000E+00  0.00000000E+00
  0.00000000E+00  0.00000000E+00  0.00000000E+00
  0.00000000E+00  0.00000000E+00  0.00000000E+00
  0.00000000E+00  0.00000000E+00  0.00000000E+00
  0.00000000E+00  0.00000000E+00  0.00000000E+00
  0.00000000E+00  0.00000000E+00  0.00000000E+00
  0.00000000E+00  0.00000000E+00  0.00000000E+00
  0.00000000E+00  0.00000000E+00  0.00000000E+00
  0.00000000E+00  0.00000000E+00  0.00000000E+00
  0.00000000E+00  0.00000000E+00  0.00000000E+00
  0.00000000E+00  0.00000000E+00  0.00000000E+00
  0.00000000E+00  0.00000000E+00  0.00000000E+00
  0.00000000E+00  0.00000000E+00  0.00000000E+00
  0.00000000E+00  0.00000000E+00  0.00000000E+00
  0.00000000E+00  0.00000000E+00  0.00000000E+00
  0.00000000E+00  0.00000000E+00  0.00000000E+00
  0.00000000E+00  0.00000000E+00  0.00000000E+00
  0.00000000E+00  0.00000000E+00  0.00000000E+00
  0.00000000E+00  0.00000000E+00  0.00000000E+00
  0.00000000E+00  0.00000000E+00  0.00000000E+00
  0.00000000E+00  0.00000000E+00  0.00000000E+00
  0.00000000E+00  0.00000000E+00  0.00000000E+00
  0.00000000E+00  0.00000000E+00  0.00000000E+00
  0.00000000E+00  0.00000000E+00  0.00000000E+00
  0.00000000E+00  0.00000000E+00  0.00000000E+00
  0.00000000E+00  0.00000000E+00  0.00000000E+00
  0.00000000E+00  0.00000000E+00  0.00000000E+00
  0.00000000E+00  0.00000000E+00  0.00000000E+00
  0.00000000E+00  0.00000000E+00  0.00000000E+00
  0.00000000E+00  0.00000000E+00  0.00000000E+00
  0.00000000E+00  0.00000000E+00  0.00000000E+00
  0.00000000E+00  0.00000000E+00  0.00000000E+00
  0.00000000E+00  0.00000000E+00  0.00000000E+00
  0.00000000E+00  0.00000000E+00  0.00000000E+00
  0.00000000E+00  0.00000000E+00  0.00000000E+00
  0.00000000E+00  0.00000000E+00  0.00000000E+00
  0.00000000E+00  0.00000000E+00  0.00000000E+00
  0.00000000E+00  0.00000000E+00  0.00000000E+00
  0.00000000E+00  0.00000000E+00  0.00000000E+00
  0.00000000E+00  0.00000000E+00  0.00000000E+00
  0.00000000E+00  0.00000000E+00  0.00000000E+00
  0.00000000E+00  0.00000000E+00  0.00000000E+00
  0.00000000E+00  0.00000000E+00  0.00000000E+00
  0.00000000E+00  0.00000000E+00  0.00000000E+00
  0.00000000E+00  0.00000000E+00  0.00000000E+00
  0.00000000E+00  0.00000000E+00  0.00000000E+00
  0.00000000E+00  0.00000000E+00  0.00000000E+00
  0.00000000E+00  0.00000000E+00  0.00000000E+00
  0.00000000E+00  0.00000000E+00  0.00000000E+00
  0.00000000E+00  0.00000000E+00  0.00000000E+00
  0.00000000E+00  0.00000000E+00  0.00000000E+00
  0.00000000E+00  0.00000000E+00  0.00000000E+00
  0.00000000E+00  0.00000000E+00  0.00000000E+00
  0.00000000E+00  0.00000000E+00  0.00000000E+00
  0.00000000E+00  0.00000000E+00  0.00000000E+00
  0.00000000E+00  0.00000000E+00  0.00000000E+00
  0.00000000E+00  0.00000000E+00  0.00000000E+00
  0.00000000E+00  0.00000000E+00  0.00000000E+00
  0.00000000E+00  0.00000000E+00  0.00000000E+00
  0.00000000E+00  0.00000000E+00  0.00000000E+00
  0.00000000E+00  0.00000000E+00  0.00000000E+00
  0.00000000E+00  0.00000000E+00  0.00000000E+00
  0.00000000E+00  0.00000000E+00  0.00000000E+00
  0.00000000E+00  0.00000000E+00  0.00000000E+00
  0.00000000E+00  0.00000000E+00  0.00000000E+00
  0.00000000E+00  0.00000000E+00  0.00000000E+00
  0.00000000E+00  0.00000000E+00  0.00000000E+00
  0.00000000E+00  0.00000000E+00  0.00000000E+00
  0.00000000E+00  0.00000000E+00  0.00000000E+00
  0.00000000E+00  0.00000000E+00  0.00000000E+00
  0.00000000E+00  0.00000000E+00  0.00000000E+00
  0.00000000E+00  0.00000000E+00  0.00000000E+00
  0.00000000E+00  0.00000000E+00  0.00000000E+00
  0.00000000E+00  0.00000000E+00  0.00000000E+00
  0.00000000E+00  0.00000000E+00  0.00000000E+00
  0.00000000E+00  0.00000000E+00  0.00000000E+00
  0.00000000E+00  0.00000000E+00  0.00000000E+00
  0.00000000E+00  0.00000000E+00  0.00000000E+00
  0.00000000E+00  0.00000000E+00  0.00000000E+00
  0.00000000E+00  0.00000000E+00  0.00000000E+00
  0.00000000E+00  0.00000000E+00  0.00000000E+00
  0.00000000E+00  0.00000000E+00  0.00000000E+00
  0.00000000E+00  0.00000000E+00  0.00000000E+00
  0.00000000E+00  0.00000000E+00  0.00000000E+00
  0.00000000E+00  0.00000000E+00  0.00000000E+00
  0.00000000E+00  0.00000000E+00  0.00000000E+00
  0.00000000E+00  0.00000000E+00  0.00000000E+00
  0.00000000E+00  0.00000000E+00  0.00000000E+00
  0.00000000E+00  0.00000000E+00  0.00000000E+00
  0.00000000E+00  0.00000000E+00  0.00000000E+00
  0.00000000E+00  0.00000000E+00  0.00000000E+00
  0.00000000E+00  0.00000000E+00  0.00000000E+00
  0.00000000E+00  0.00000000E+00  0.00000000E+00
  0.00000000E+00  0.00000000E+00  0.00000000E+00
  0.00000000E+00  0.00000000E+00  0.00000000E+00
  0.00000000E+00  0.00000000E+00  0.00000000E+00
  0.00000000E+00  0.00000000E+00  0.00000000E+00
  0.00000000E+00  0.00000000E+00  0.00000000E+00
  0.00000000E+00  0.00000000E+00  0.00000000E+00
  0.00000000E+00  0.00000000E+00  0.00000000E+00
  0.00000000E+00  0.00000000E+00  0.00000000E+00
  0.00000000E+00  0.00000000E+00  0.00000000E+00
  0.00000000E+00  0.00000000E+00  0.00000000E+00
  0.00000000E+00  0.00000000E+00  0.00000000E+00
  0.00000000E+00  0.00000000E+00  0.00000000E+00
  0.00000000E+00  0.00000000E+00  0.00000000E+00
  0.00000000E+00  0.00000000E+00  0.00000000E+00
  0.00000000E+00  0.00000000E+00  0.00000000E+00
  0.00000000E+00  0.00000000E+00  0.00000000E+00
  0.00000000E+00  0.00000000E+00  0.00000000E+00
  0.00000000E+00  0.00000000E+00  0.00000000E+00
  0.00000000E+00  0.00000000E+00  0.00000000E+00
  0.00000000E+00  0.00000000E+00  0.00000000E+00
  0.00000000E+00  0.00000000E+00  0.00000000E+00
  0.00000000E+00  0.00000000E+00  0.00000000E+00
  0.00000000E+00  0.00000000E+00  0.00000000E+00
  0.00000000E+00  0.00000000E+00  0.00000000E+00
  0.00000000E+00  0.00000000E+00  0.00000000E+00
  0.00000000E+00  0.00000000E+00  0.00000000E+00
  0.00000000E+00  0.00000000E+00  0.00000000E+00
  0.00000000E+00  0.00000000E+00  0.00000000E+00
  0.00000000E+00  0.00000000E+00  0.00000000E+00
  0.00000000E+00  0.00000000E+00  0.00000000E+00
  0.00000000E+00  0.00000000E+00  0.00000000E+00
  0.00000000E+00  0.00000000E+00  0.00000000E+00
  0.00000000E+00  0.00000000E+00  0.00000000E+00
  0.00000000E+00  0.00000000E+00  0.00000000E+00
  0.00000000E+00  0.00000000E+00  0.00000000E+00
  0.00000000E+00  0.00000000E+00  0.00000000E+00
  0.00000000E+00  0.00000000E+00  0.00000000E+00
  0.00000000E+00  0.00000000E+00  0.00000000E+00
  0.00000000E+00  0.00000000E+00  0.00000000E+00
  0.00000000E+00  0.00000000E+00  0.00000000E+00
  0.00000000E+00  0.00000000E+00  0.00000000E+00
  0.00000000E+00  0.00000000E+00  0.00000000E+00
  0.00000000E+00  0.00000000E+00  0.00000000E+00
  0.00000000E+00  0.00000000E+00  0.00000000E+00
  0.00000000E+00  0.00000000E+00  0.00000000E+00
  0.00000000E+00  0.00000000E+00  0.00000000E+00
  0.00000000E+00  0.00000000E+00  0.00000000E+00
  0.00000000E+00  0.00000000E+00  0.00000000E+00
  0.00000000E+00  0.00000000E+00  0.00000000E+00
  0.00000000E+00  0.00000000E+00  0.00000000E+00
  0.00000000E+00  0.00000000E+00  0.00000000E+00
  0.00000000E+00  0.00000000E+00  0.00000000E+00
  0.00000000E+00  0.00000000E+00  0.00000000E+00
  0.00000000E+00  0.00000000E+00  0.00000000E+00
  0.00000000E+00  0.00000000E+00  0.00000000E+00
  0.00000000E+00  0.00000000E+00  0.00000000E+00
  0.00000000E+00  0.00000000E+00  0.00000000E+00
  0.00000000E+00  0.00000000E+00  0.00000000E+00
  0.00000000E+00  0.00000000E+00  0.00000000E+00
  0.00000000E+00  0.00000000E+00  0.00000000E+00
  0.00000000E+00  0.00000000E+00  0.00000000E+00
  0.00000000E+00  0.00000000E+00  0.00000000E+00
  0.00000000E+00  0.00000000E+00  0.00000000E+00
  0.00000000E+00  0.00000000E+00  0.00000000E+00
  0.00000000E+00  0.00000000E+00  0.00000000E+00
  0.00000000E+00  0.00000000E+00  0.00000000E+00
  0.00000000E+00  0.00000000E+00  0.00000000E+00
  0.00000000E+00  0.00000000E+00  0.00000000E+00
  0.00000000E+00  0.00000000E+00  0.00000000E+00
  0.00000000E+00  0.00000000E+00  0.00000000E+00
  0.00000000E+00  0.00000000E+00  0.00000000E+00
  0.00000000E+00  0.00000000E+00  0.00000000E+00
  0.00000000E+00  0.00000000E+00  0.00000000E+00
  0.00000000E+00  0.00000000E+00  0.00000000E+00
  0.00000000E+00  0.00000000E+00  0.00000000E+00
  0.00000000E+00  0.00000000E+00  0.00000000E+00
  0.00000000E+00  0.00000000E+00  0.00000000E+00
  0.00000000E+00  0.00000000E+00  0.00000000E+00
  0.00000000E+00  0.00000000E+00  0.00000000E+00
  0.00000000E+00  0.00000000E+00  0.00000000E+00
  0.00000000E+00  0.00000000E+00  0.00000000E+00
  0.00000000E+00  0.00000000E+00  0.00000000E+00
  0.00000000E+00  0.00000000E+00  0.00000000E+00
  0.00000000E+00  0.00000000E+00  0.00000000E+00
  0.00000000E+00  0.00000000E+00  0.00000000E+00
  0.00000000E+00  0.00000000E+00  0.00000000E+00
  0.00000000E+00  0.00000000E+00  0.00000000E+00
  0.00000000E+00  0.00000000E+00  0.00000000E+00
  0.00000000E+00  0.00000000E+00  0.00000000E+00
  0.00000000E+00  0.00000000E+00  0.00000000E+00
  0.00000000E+00  0.00000000E+00  0.00000000E+00
  0.00000000E+00  0.00000000E+00  0.00000000E+00
  0.00000000E+00  0.00000000E+00  0.00000000E+00
  0.00000000E+00  0.00000000E+00  0.00000000E+00
  0.00000000E+00  0.00000000E+00  0.00000000E+00
  0.00000000E+00  0.00000000E+00  0.00000000E+00
  0.00000000E+00  0.00000000E+00  0.00000000E+00
  0.00000000E+00  0.00000000E+00  0.00000000E+00