Amorphous GeTe6                         
   1.00000000000000     
    22.2044198496002423    0.0000000000000000    0.0000000000000000
     0.0000000000000000   22.2044198496002423    0.0000000000000000
     0.0000000000000000    0.0000000000000000   22.2044198496002423
   B    Te
    30   270
Direct
  0.8303711553389093  0.0754851856545571  0.8196291705742382
  0.2382454911290921  0.7687238638888374  0.8339078896876657
  0.6045048351139073  0.8534915979228686  0.3636827784451668
  0.2028795901744544  0.2191041846669464  0.9382869480878782
  0.5866281825495534  0.1559335671198525  0.4091752596011560
  0.7868750544674441  0.0129304367275935  0.8037111437683322
  0.5635426934072285  0.3635182284795917  0.2365326697214769
  0.7155136969864699  0.5251592210062626  0.9569652282075793
  0.2694801920426571  0.9673255816196047  0.2548781381939946
  0.0464318714152299  0.8193936313108665  0.3599323672305275
  0.0986019776070961  0.8045491019933380  0.3051392593369542
  0.2473825007699659  0.8964378975994336  0.2735183041097287
  0.8699178440235329  0.5259805371849282  0.1717079969339750
  0.9606859142834949  0.1350534964590580  0.2739576162093940
  0.3622901552093296  0.9624852581454277  0.0193921255590794
  0.1783147375178089  0.6145290502749887  0.2059533318480220
  0.6008635452397044  0.4120426473762748  0.2869453069333971
  0.4232873504642782  0.0472168447178021  0.6602191017015286
  0.2601627867590253  0.7101232360244367  0.7857719381683950
  0.4332216083609879  0.9420751454322698  0.9980706745074812
  0.2910453401748967  0.7129578538797858  0.8604997353681583
  0.4927974151294876  0.3519098030971577  0.2585114341740962
  0.5949390463234607  0.7822940990540985  0.3869981044107860
  0.6036002233785354  0.7217169608694149  0.3425752652718046
  0.2246974391835153  0.3174205050722421  0.8190102070406340
  0.6219544595682009  0.3363034164345891  0.2789752556849692
  0.5254813157682747  0.4229304276283798  0.2741707299996605
  0.0202404332865243  0.6691674664809568  0.6832698570927249
  0.9309963997272348  0.1045302878402978  0.3355843093684783
  0.3170303420058644  0.8122363181491536  0.6582466954487671
  0.0729506513245326  0.2777298635379637  0.4544205637714853
  0.6236686015805404  0.2684945332325839  0.8413162209806870
  0.8119905315563045  0.1417563509479436  0.5969077931088336
  0.4096628971829546  0.6152268763661652  0.9275807204200461
  0.1481630712945048  0.0890471433206059  0.4902439493547703
  0.5280232190677907  0.1303865052767890  0.1556179578082109
  0.9385463251256141  0.9726797766169710  0.9605646006679933
  0.4951888578238055  0.0074525468332070  0.0485112234547316
  0.4674231873646590  0.2016428745708581  0.8369268002481860
  0.7880342923035144  0.7581825588248918  0.9126923258907667
  0.9886300774237071  0.9471472791063107  0.8131688648662490
  0.3370361523114482  0.1814772762143164  0.8383550942343376
  0.7412586562091548  0.2906041621675897  0.1076638111590995
  0.9222925568064255  0.2102197425356280  0.6575528993453901
  0.8076730196350681  0.1409749203000317  0.2334072878829190
  0.6666208490228342  0.6108894222249077  0.9261464911341264
  0.4172573629685630  0.8225365788429428  0.4113247330327710
  0.5075203746655248  0.6908198014410516  0.1816466532626464
  0.2775435178112957  0.2198221264803095  0.4563253987637879
  0.4614148762371926  0.8503514456328318  0.0335671516278566
  0.4257537516833096  0.1325541472073937  0.3845960550076768
  0.5961710114544445  0.6750311251459493  0.7166305401015052
  0.6714851596618772  0.8180844006034818  0.7311297994281674
  0.8850216529496890  0.2788085177898694  0.3343801248862519
  0.3127049587053179  0.4824261841198307  0.0216343312454015
  0.7654218117279754  0.1386411020159670  0.1063780117676743
  0.5092052648390961  0.2026034681239395  0.4563967638690940
  0.6122751331968104  0.2837262761810706  0.5190266127906895
  0.5589540173867178  0.5686599743741709  0.7847713363106834
  0.7067247883459231  0.0372631266569954  0.7441158690782075
  0.9939759416807874  0.8493841569201024  0.9719991277826523
  0.5896191269736590  0.2464012720031263  0.6424001933301113
  0.8780561461339005  0.4685482038760043  0.5730066212519347
  0.1992905454657006  0.2179734558509239  0.8357989773531926
  0.4248824141182581  0.1605006687305490  0.0803922469927585
  0.4653527781225861  0.3793304542863964  0.8183480922735100
  0.9548493597536165  0.8958039285021471  0.5172617507261776
  0.1766996813174870  0.1859900786341058  0.3854902045369428
  0.7233429019288877  0.6297499842674483  0.7905196924663755
  0.6892008300904990  0.6632834242829588  0.0386636488119549
  0.8886933197124449  0.8424148312643354  0.1544582615439936
  0.3703888349711661  0.4759985906240303  0.5066954543474438
  0.1322826355125173  0.5370597932335883  0.8303039518067692
  0.2573450548418634  0.3595430606013252  0.9085068030952144
  0.2535827574292924  0.0999634302313837  0.5665362438641708
  0.0068162940664749  0.2633117233952476  0.9748136367843827
  0.2248087650769577  0.4906715309982488  0.9061941925178587
  0.0946883992058858  0.2838188601951259  0.6904183543615687
  0.2212515165172775  0.4060937348364462  0.2114314072959971
  0.2708660969494119  0.2984968700917889  0.0817028670676905
  0.3629350691087652  0.3827210212685230  0.0889714626949498
  0.0612090525123179  0.1262555416123590  0.2656353135419209
  0.5558159582367210  0.1234543036454951  0.7163649943335031
  0.2488963276656548  0.1173552278998926  0.1661535467280331
  0.2152482872604367  0.6774439617214725  0.5409225887684528
  0.2870056197504098  0.6171883984469915  0.8235478265460827
  0.1713295050074279  0.7395760477066489  0.3293821589840462
  0.0189952287297430  0.5319026853464663  0.4267128441472821
  0.7289800194547595  0.0637705352673521  0.9540603267061272
  0.4988697399612079  0.7363545607104030  0.7744460944501910
  0.7156305928737723  0.0783903202001994  0.5379903539768449
  0.3125688718786037  0.7186891234833936  0.7018073316486735
  0.3505024717100085  0.4313449903492526  0.8362606163713906
  0.1353150277534567  0.3891532372059103  0.6074024972403009
  0.4978313577590683  0.9235933573536954  0.5460784030526185
  0.5466170101014214  0.4322146295509697  0.5509250827689840
  0.6585936870264675  0.4877298344378787  0.2617463637490332
  0.7087194650087483  0.2962447937757702  0.2601376270676710
  0.4749496479513269  0.2937248017130116  0.6487743965830219
  0.8113109647482233  0.5454218433321785  0.9939592989574493
  0.9015254986111785  0.2670133703297353  0.8082662875732893
  0.6319032508153484  0.8943878761619999  0.8352562427223660
  0.0347943962227575  0.5822016882901124  0.6286514657095594
  0.6895059675869106  0.7308020113070555  0.4055198718493145
  0.9544686557413371  0.3869028821291138  0.8048102632561722
  0.0868630626974323  0.8706653290020370  0.4396031944330119
  0.2433964999306610  0.6068386759414111  0.4409436881205124
  0.9960493851419514  0.7386922379278005  0.4027723033587094
  0.3662468101493914  0.9737651996787449  0.2892239947018638
  0.9684678296753475  0.8705367312035293  0.3120088000502861
  0.5451957060213886  0.6405748117343180  0.3451489478072105
  0.2643239776949073  0.0293743853946182  0.7509821935088397
  0.9895926271077471  0.0476260272402129  0.3948939753112555
  0.8315032981777293  0.8288503941116900  0.5435362699354087
  0.2075581846089847  0.8175911660658812  0.4432060766531407
  0.8185144593469573  0.5587677265211326  0.8373535611430896
  0.2659383146647087  0.6686140246665531  0.2177890111888132
  0.3534913585705226  0.2297000984688111  0.3552372067909317
  0.6561733335200373  0.4741254634160157  0.0225293554694304
  0.4429346688511728  0.7489233704064588  0.2753203592697915
  0.9215161618186443  0.7025469680553300  0.9449908351815210
  0.4776691714884080  0.0232329555752528  0.7431792316075487
  0.7023700343307340  0.5371705289496020  0.4507782498487813
  0.6977717233721350  0.4053623341401078  0.6036433775742012
  0.9078056748398282  0.0463010810931834  0.2439951955299193
  0.4530731065001703  0.9364654642875792  0.8967960792662666
  0.3453259252562475  0.7483575820317512  0.4877811701158095
  0.7897664078325946  0.4997824616316748  0.1117614918836125
  0.2289764657828357  0.3089731688199180  0.5642755719333437
  0.2236879857599874  0.8273128960267044  0.6238558165460830
  0.4948234750288734  0.2946265102403700  0.0987900329884610
  0.8648728932803067  0.3682665893287194  0.4473697831510108
  0.1522794714817977  0.7177323416296275  0.8041857215721393
  0.8163455347034514  0.5600898869958399  0.2520813432501470
  0.5032904770783162  0.5152211882224833  0.2427302079878686
  0.3779488921889111  0.9846194544547373  0.1196614745802762
  0.7778685013064219  0.8269204532209002  0.3193005644049265
  0.4771407036029700  0.1064235870082015  0.5940539276178143
  0.8947471455754581  0.6841547159122428  0.8204418518847234
  0.7550639755639921  0.2184039465962755  0.6833003122814389
  0.0876781017438901  0.1960099678661180  0.5777547651950243
  0.6309364988573307  0.9149799197446811  0.1651305503453599
  0.8159702621312732  0.3813892784071200  0.6394466095362219
  0.7684633963509171  0.4242156445278269  0.2812605474183769
  0.7286074950687293  0.0743841163356649  0.3906908819258277
  0.0226791145463281  0.9888422610787728  0.2830631592532811
  0.1587249379358866  0.1389211987575933  0.9847512342377129
  0.4187988760631640  0.5682436763242791  0.6523083382115615
  0.4888887105663073  0.2877432096185188  0.9250522065051143
  0.8366660393177341  0.6022134746461916  0.4272263994148844
  0.3947030020880362  0.7971862820108413  0.5928670344212819
  0.5739865117470586  0.5068619742432787  0.4515515504627814
  0.4944279326070031  0.6740289410622680  0.0024371392393263
  0.6264968390398309  0.7496720667048535  0.2481402620761983
  0.7650731576569001  0.9124321338155639  0.1762143043709798
  0.7924209151318635  0.1707075403482392  0.8004234809673108
  0.5555766144964807  0.1703633951330943  0.3115073199267542
  0.7452479334262208  0.3987885763048240  0.4067566963063527
  0.8392303358074500  0.4221982447645942  0.9380150115767663
  0.0305936275973977  0.4814599330973479  0.9130263012429580
  0.0126714863047326  0.3514957975422774  0.0689466913540002
  0.6229122155310236  0.3774481940491583  0.9474967381590531
  0.0203514117313901  0.8235527545193335  0.8353122412716374
  0.9203729566179248  0.4375111610708515  0.1930572059000397
  0.4763831955519677  0.3771829309492389  0.3551319322236779
  0.2931014187405552  0.8887361074535818  0.3669710354423401
  0.8808063126693000  0.2371298566128459  0.0045050250509675
  0.1535059933753544  0.5527376327515867  0.2824332377283127
  0.2262743002203038  0.5686542476468688  0.1268090467272032
  0.7213710452245508  0.3196577681352863  0.7879023405697652
  0.5436954015170983  0.0268159330177085  0.3090212678496655
  0.1166109362200132  0.3753183812214118  0.3874917080695255
  0.0432549722659701  0.9860545571635626  0.1314579047933435
  0.5289318130473859  0.6372890980235724  0.4687971632038099
  0.2264985295696036  0.3996065298712423  0.4444726705735746
  0.6656463518467604  0.4761312086212612  0.7023669411873570
  0.2389309928516070  0.9118030392061911  0.5313779496016053
  0.3935369226084688  0.2141298830406555  0.5945446866881454
  0.7705010763117741  0.0124866910930663  0.0699249927408232
  0.3172636694950057  0.5783214879994674  0.2928346317399075
  0.2536313044646548  0.0532496118465033  0.3127302549905409
  0.1451384284685275  0.8919038371018644  0.2716958220269774
  0.8480726347087000  0.1062599584167003  0.9169598209970857
  0.4148934736416550  0.3154567008983946  0.2117440813897815
  0.9044276912223523  0.5502285645764147  0.6690191236263416
  0.8482982382572715  0.1469782906758752  0.3740950748818008
  0.2670589932481988  0.8638541449064974  0.8240981897856727
  0.0422939379600251  0.7784411852219790  0.2215950589172664
  0.3907581355414393  0.9625151225714816  0.6124771305057664
  0.7606783349012147  0.9510628061691833  0.8838058314351684
  0.7219663516898649  0.8418581809992176  0.0799632056643986
  0.8534858099240594  0.6505510128170116  0.6124165590798043
  0.1314524426621162  0.3576273385774513  0.7983784913173437
  0.8620158951271790  0.8513232790750536  0.4122863979313394
  0.6143061153901783  0.8425324118896995  0.5682830578295963
  0.9972750832151434  0.6267223127901360  0.7746356700431392
  0.7734477344604045  0.9652286170912419  0.5610181433965522
  0.5221111905490403  0.8999843854935108  0.3371257135835535
  0.9204036179192272  0.2143782711435591  0.2258058148533237
  0.0168175197305160  0.1242773275410016  0.6542042422693086
  0.9136383179961882  0.4077410112738988  0.3232597208989034
  0.2939014364028907  0.3346461687104139  0.7468446779192845
  0.6919933947443155  0.6497194408927811  0.5057990012368023
  0.2234274856912961  0.2483220358820191  0.2811212673596870
  0.2139874596384956  0.0312545040631278  0.9448540627857369
  0.1064749209400659  0.9914447296971431  0.8431369939088569
  0.1890189853469693  0.4847903894518382  0.5345753126120130
  0.3355164199089700  0.0549320718391115  0.9790878624988508
  0.7239386275237010  0.7731197143845989  0.5826614977774511
  0.8659315614438938  0.3239724469630545  0.0940533942527750
  0.2880270071796502  0.8336278672654913  0.2018044424379326
  0.9306811274581150  0.6011604991858732  0.1389780364639819
  0.5378367128810311  0.4658013602754565  0.8772112913400321
  0.9508661691535778  0.4486946033251655  0.0116996402485796
  0.6504392464844315  0.1596390400225545  0.2259381527561573
  0.2527214811951453  0.9879386655506508  0.1552931641366513
  0.3029509611091399  0.2329538835482552  0.9674393092087854
  0.9754033979675185  0.1578812512952865  0.8788851131801465
  0.1649403478161346  0.4573549939948336  0.1041370458776001
  0.9854385845722575  0.3453308628026903  0.5220257033784037
  0.3215156324034112  0.4884918028195955  0.2008288302184553
  0.4264010988084905  0.5883512001027498  0.7807926798580098
  0.4248898109534878  0.6157957061089832  0.1119736497478243
  0.5355965331505530  0.8565302147918672  0.7550266453460850
  0.5291536533377368  0.7723306206183764  0.4647219754472474
  0.1688270893473316  0.5978337312448758  0.6301975711479457
  0.5608887631876058  0.7399353558655122  0.9052598281376945
  0.7028069588821708  0.0485279832848349  0.2657674631133204
  0.0405488515725878  0.5348610583604696  0.1273157850981690
  0.6836601516691090  0.9093984697285720  0.3517660433800458
  0.8413330648336839  0.8054664867138399  0.0346766651000934
  0.3401669605011648  0.3926769979067544  0.2925646913005622
  0.2865776146305805  0.8982055650276166  0.9970232455840389
  0.1070024330676702  0.6708370570094928  0.1566615651045637
  0.6962972109925971  0.2723621529066591  0.9865936165658695
  0.9422332142879313  0.5954880618022500  0.5055271945529185
  0.9173381641488589  0.5568169270993693  0.3382251548986588
  0.5951852369556789  0.2034020141196606  0.0734207146244046
  0.1134366138060372  0.8726913776835588  0.9941675152068612
  0.8586233937018406  0.7409504020067885  0.2277664554457743
  0.0829176653744739  0.5710812567340824  0.9862064237089854
  0.0468141782312870  0.6850077362609142  0.9451850584949142
  0.5375078877243169  0.5010944935207675  0.6587826997130648
  0.2048551118577322  0.9969857074731721  0.4183801939525011
  0.8102758884142247  0.2942401108158563  0.8959270677681488
  0.6373787977375471  0.1147975814956013  0.8174481342236248
  0.1478010191371837  0.2990488024191080  0.9701706375008996
  0.6719897058641280  0.1997383776774839  0.4432315689679456
  0.7201783005261007  0.5887099771002440  0.6702670607644379
  0.1943298616162465  0.7558171648173939  0.1173057945568559
  0.1173275331456978  0.3057065889941626  0.2412055430796940
  0.6156034385625091  0.5954111416289649  0.1219229934655033
  0.5767624727583183  0.0147869193142682  0.5770685545201957
  0.0794882545526292  0.1246179230718880  0.1412333734509588
  0.3100772160500114  0.5027482237988750  0.6115011812750240
  0.3907000498758677  0.0491981025074040  0.8556707252003548
  0.1135929845270738  0.2544218466674479  0.1259510664119148
  0.0338209384289740  0.7899771758437169  0.5341072088256666
  0.6501082911349911  0.9273815125222100  0.6587064300294401
  0.0371295439990433  0.4924654666652017  0.2481583875028193
  0.3690173982995759  0.5918792330998528  0.4599417167274567
  0.0886917739236495  0.6432094945911757  0.3628698943955229
  0.9527131601237642  0.7390692135954993  0.6475747511626437
  0.1663917413858300  0.9166528062250876  0.7518633190463149
  0.1089389524187894  0.7238072482763869  0.6769811842039246
  0.5793588603310624  0.3816638784759618  0.1381164504572112
  0.6056721077469405  0.3564907770644439  0.3776638428534227
  0.9193425673529561  0.9872664018166830  0.0888274396260584
  0.2323323549756040  0.2437443573731031  0.6747133382554438
  0.4113483422967548  0.8607691058536773  0.2168947983880400
  0.1542147803895730  0.4622752905886571  0.7277041622047449
  0.7291729723721332  0.4686121142447064  0.8723367413805150
  0.1202709556954957  0.8721363320221300  0.1222373121379476
  0.3440519639819684  0.1099130498842555  0.6816208037514286
  0.6053793750663417  0.9403193208130887  0.0409294816919541
  0.9779502632576254  0.0137208912403182  0.5856442249259288
  0.1036968143552883  0.9778023575899297  0.6473035185026248
  0.1774286063081405  0.0781751991585011  0.6685936061559943
  0.0384697632163906  0.8312410914038821  0.7048363046571069
  0.8775390382114807  0.0092112900422734  0.5007552133972411
  0.3555011025014423  0.8878408805385547  0.7175007378530793
  0.6925785738688219  0.6514588427481769  0.2045412557018196
  0.6155699068773259  0.7660458247500017  0.0178665045674720
  0.7980997191641777  0.8096416100545909  0.7143763002941768
  0.3668994090958293  0.1441639051010242  0.1938563342396193
  0.5667939541621365  0.9899882919894267  0.9044027861566448
  0.8491536628201573  0.9642203173254984  0.7355165251055951
  0.5291171032990505  0.1700570411176301  0.9648470639289499
  0.9022986968132116  0.2494819259910628  0.5403633474327094
  0.2192792508076522  0.7349842189541818  0.9301822363161634
  0.4305145253712652  0.4932322688580228  0.9685024040147283
  0.3828526477404850  0.7504501071085556  0.8778836181168046
  0.5934236866174203  0.0522020467937949  0.4224177386276082
  0.9698822456870175  0.6851782250140346  0.2795382514576588
  0.9865991997976522  0.3691327333944727  0.6861314765803499
  0.9217603067835043  0.0657482890436469  0.7713540920864617
  0.0342601767755895  0.0641428563314648  0.9516929241193779
  0.8338992645792587  0.8474380890334743  0.8330720756704935
  0.3550426792373571  0.7920709881227737  0.0024688987501946
  0.4867900098432543  0.5003093651055579  0.1158871029716622
 
  0.00000000E+00  0.00000000E+00  0.00000000E+00
  0.00000000E+00  0.00000000E+00  0.00000000E+00
  0.00000000E+00  0.00000000E+00  0.00000000E+00
  0.00000000E+00  0.00000000E+00  0.00000000E+00
  0.00000000E+00  0.00000000E+00  0.00000000E+00
  0.00000000E+00  0.00000000E+00  0.00000000E+00
  0.00000000E+00  0.00000000E+00  0.00000000E+00
  0.00000000E+00  0.00000000E+00  0.00000000E+00
  0.00000000E+00  0.00000000E+00  0.00000000E+00
  0.00000000E+00  0.00000000E+00  0.00000000E+00
  0.00000000E+00  0.00000000E+00  0.00000000E+00
  0.00000000E+00  0.00000000E+00  0.00000000E+00
  0.00000000E+00  0.00000000E+00  0.00000000E+00
  0.00000000E+00  0.00000000E+00  0.00000000E+00
  0.00000000E+00  0.00000000E+00  0.00000000E+00
  0.00000000E+00  0.00000000E+00  0.00000000E+00
  0.00000000E+00  0.00000000E+00  0.00000000E+00
  0.00000000E+00  0.00000000E+00  0.00000000E+00
  0.00000000E+00  0.00000000E+00  0.00000000E+00
  0.00000000E+00  0.00000000E+00  0.00000000E+00
  0.00000000E+00  0.00000000E+00  0.00000000E+00
  0.00000000E+00  0.00000000E+00  0.00000000E+00
  0.00000000E+00  0.00000000E+00  0.00000000E+00
  0.00000000E+00  0.00000000E+00  0.00000000E+00
  0.00000000E+00  0.00000000E+00  0.00000000E+00
  0.00000000E+00  0.00000000E+00  0.00000000E+00
  0.00000000E+00  0.00000000E+00  0.00000000E+00
  0.00000000E+00  0.00000000E+00  0.00000000E+00
  0.00000000E+00  0.00000000E+00  0.00000000E+00
  0.00000000E+00  0.00000000E+00  0.00000000E+00
  0.00000000E+00  0.00000000E+00  0.00000000E+00
  0.00000000E+00  0.00000000E+00  0.00000000E+00
  0.00000000E+00  0.00000000E+00  0.00000000E+00
  0.00000000E+00  0.00000000E+00  0.00000000E+00
  0.00000000E+00  0.00000000E+00  0.00000000E+00
  0.00000000E+00  0.00000000E+00  0.00000000E+00
  0.00000000E+00  0.00000000E+00  0.00000000E+00
  0.00000000E+00  0.00000000E+00  0.00000000E+00
  0.00000000E+00  0.00000000E+00  0.00000000E+00
  0.00000000E+00  0.00000000E+00  0.00000000E+00
  0.00000000E+00  0.00000000E+00  0.00000000E+00
  0.00000000E+00  0.00000000E+00  0.00000000E+00
  0.00000000E+00  0.00000000E+00  0.00000000E+00
  0.00000000E+00  0.00000000E+00  0.00000000E+00
  0.00000000E+00  0.00000000E+00  0.00000000E+00
  0.00000000E+00  0.00000000E+00  0.00000000E+00
  0.00000000E+00  0.00000000E+00  0.00000000E+00
  0.00000000E+00  0.00000000E+00  0.00000000E+00
  0.00000000E+00  0.00000000E+00  0.00000000E+00
  0.00000000E+00  0.00000000E+00  0.00000000E+00
  0.00000000E+00  0.00000000E+00  0.00000000E+00
  0.00000000E+00  0.00000000E+00  0.00000000E+00
  0.00000000E+00  0.00000000E+00  0.00000000E+00
  0.00000000E+00  0.00000000E+00  0.00000000E+00
  0.00000000E+00  0.00000000E+00  0.00000000E+00
  0.00000000E+00  0.00000000E+00  0.00000000E+00
  0.00000000E+00  0.00000000E+00  0.00000000E+00
  0.00000000E+00  0.00000000E+00  0.00000000E+00
  0.00000000E+00  0.00000000E+00  0.00000000E+00
  0.00000000E+00  0.00000000E+00  0.00000000E+00
  0.00000000E+00  0.00000000E+00  0.00000000E+00
  0.00000000E+00  0.00000000E+00  0.00000000E+00
  0.00000000E+00  0.00000000E+00  0.00000000E+00
  0.00000000E+00  0.00000000E+00  0.00000000E+00
  0.00000000E+00  0.00000000E+00  0.00000000E+00
  0.00000000E+00  0.00000000E+00  0.00000000E+00
  0.00000000E+00  0.00000000E+00  0.00000000E+00
  0.00000000E+00  0.00000000E+00  0.00000000E+00
  0.00000000E+00  0.00000000E+00  0.00000000E+00
  0.00000000E+00  0.00000000E+00  0.00000000E+00
  0.00000000E+00  0.00000000E+00  0.00000000E+00
  0.00000000E+00  0.00000000E+00  0.00000000E+00
  0.00000000E+00  0.00000000E+00  0.00000000E+00
  0.00000000E+00  0.00000000E+00  0.00000000E+00
  0.00000000E+00  0.00000000E+00  0.00000000E+00
  0.00000000E+00  0.00000000E+00  0.00000000E+00
  0.00000000E+00  0.00000000E+00  0.00000000E+00
  0.00000000E+00  0.00000000E+00  0.00000000E+00
  0.00000000E+00  0.00000000E+00  0.00000000E+00
  0.00000000E+00  0.00000000E+00  0.00000000E+00
  0.00000000E+00  0.00000000E+00  0.00000000E+00
  0.00000000E+00  0.00000000E+00  0.00000000E+00
  0.00000000E+00  0.00000000E+00  0.00000000E+00
  0.00000000E+00  0.00000000E+00  0.00000000E+00
  0.00000000E+00  0.00000000E+00  0.00000000E+00
  0.00000000E+00  0.00000000E+00  0.00000000E+00
  0.00000000E+00  0.00000000E+00  0.00000000E+00
  0.00000000E+00  0.00000000E+00  0.00000000E+00
  0.00000000E+00  0.00000000E+00  0.00000000E+00
  0.00000000E+00  0.00000000E+00  0.00000000E+00
  0.00000000E+00  0.00000000E+00  0.00000000E+00
  0.00000000E+00  0.00000000E+00  0.00000000E+00
  0.00000000E+00  0.00000000E+00  0.00000000E+00
  0.00000000E+00  0.00000000E+00  0.00000000E+00
  0.00000000E+00  0.00000000E+00  0.00000000E+00
  0.00000000E+00  0.00000000E+00  0.00000000E+00
  0.00000000E+00  0.00000000E+00  0.00000000E+00
  0.00000000E+00  0.00000000E+00  0.00000000E+00
  0.00000000E+00  0.00000000E+00  0.00000000E+00
  0.00000000E+00  0.00000000E+00  0.00000000E+00
  0.00000000E+00  0.00000000E+00  0.00000000E+00
  0.00000000E+00  0.00000000E+00  0.00000000E+00
  0.00000000E+00  0.00000000E+00  0.00000000E+00
  0.00000000E+00  0.00000000E+00  0.00000000E+00
  0.00000000E+00  0.00000000E+00  0.00000000E+00
  0.00000000E+00  0.00000000E+00  0.00000000E+00
  0.00000000E+00  0.00000000E+00  0.00000000E+00
  0.00000000E+00  0.00000000E+00  0.00000000E+00
  0.00000000E+00  0.00000000E+00  0.00000000E+00
  0.00000000E+00  0.00000000E+00  0.00000000E+00
  0.00000000E+00  0.00000000E+00  0.00000000E+00
  0.00000000E+00  0.00000000E+00  0.00000000E+00
  0.00000000E+00  0.00000000E+00  0.00000000E+00
  0.00000000E+00  0.00000000E+00  0.00000000E+00
  0.00000000E+00  0.00000000E+00  0.00000000E+00
  0.00000000E+00  0.00000000E+00  0.00000000E+00
  0.00000000E+00  0.00000000E+00  0.00000000E+00
  0.00000000E+00  0.00000000E+00  0.00000000E+00
  0.00000000E+00  0.00000000E+00  0.00000000E+00
  0.00000000E+00  0.00000000E+00  0.00000000E+00
  0.00000000E+00  0.00000000E+00  0.00000000E+00
  0.00000000E+00  0.00000000E+00  0.00000000E+00
  0.00000000E+00  0.00000000E+00  0.00000000E+00
  0.00000000E+00  0.00000000E+00  0.00000000E+00
  0.00000000E+00  0.00000000E+00  0.00000000E+00
  0.00000000E+00  0.00000000E+00  0.00000000E+00
  0.00000000E+00  0.00000000E+00  0.00000000E+00
  0.00000000E+00  0.00000000E+00  0.00000000E+00
  0.00000000E+00  0.00000000E+00  0.00000000E+00
  0.00000000E+00  0.00000000E+00  0.00000000E+00
  0.00000000E+00  0.00000000E+00  0.00000000E+00
  0.00000000E+00  0.00000000E+00  0.00000000E+00
  0.00000000E+00  0.00000000E+00  0.00000000E+00
  0.00000000E+00  0.00000000E+00  0.00000000E+00
  0.00000000E+00  0.00000000E+00  0.00000000E+00
  0.00000000E+00  0.00000000E+00  0.00000000E+00
  0.00000000E+00  0.00000000E+00  0.00000000E+00
  0.00000000E+00  0.00000000E+00  0.00000000E+00
  0.00000000E+00  0.00000000E+00  0.00000000E+00
  0.00000000E+00  0.00000000E+00  0.00000000E+00
  0.00000000E+00  0.00000000E+00  0.00000000E+00
  0.00000000E+00  0.00000000E+00  0.00000000E+00
  0.00000000E+00  0.00000000E+00  0.00000000E+00
  0.00000000E+00  0.00000000E+00  0.00000000E+00
  0.00000000E+00  0.00000000E+00  0.00000000E+00
  0.00000000E+00  0.00000000E+00  0.00000000E+00
  0.00000000E+00  0.00000000E+00  0.00000000E+00
  0.00000000E+00  0.00000000E+00  0.00000000E+00
  0.00000000E+00  0.00000000E+00  0.00000000E+00
  0.00000000E+00  0.00000000E+00  0.00000000E+00
  0.00000000E+00  0.00000000E+00  0.00000000E+00
  0.00000000E+00  0.00000000E+00  0.00000000E+00
  0.00000000E+00  0.00000000E+00  0.00000000E+00
  0.00000000E+00  0.00000000E+00  0.00000000E+00
  0.00000000E+00  0.00000000E+00  0.00000000E+00
  0.00000000E+00  0.00000000E+00  0.00000000E+00
  0.00000000E+00  0.00000000E+00  0.00000000E+00
  0.00000000E+00  0.00000000E+00  0.00000000E+00
  0.00000000E+00  0.00000000E+00  0.00000000E+00
  0.00000000E+00  0.00000000E+00  0.00000000E+00
  0.00000000E+00  0.00000000E+00  0.00000000E+00
  0.00000000E+00  0.00000000E+00  0.00000000E+00
  0.00000000E+00  0.00000000E+00  0.00000000E+00
  0.00000000E+00  0.00000000E+00  0.00000000E+00
  0.00000000E+00  0.00000000E+00  0.00000000E+00
  0.00000000E+00  0.00000000E+00  0.00000000E+00
  0.00000000E+00  0.00000000E+00  0.00000000E+00
  0.00000000E+00  0.00000000E+00  0.00000000E+00
  0.00000000E+00  0.00000000E+00  0.00000000E+00
  0.00000000E+00  0.00000000E+00  0.00000000E+00
  0.00000000E+00  0.00000000E+00  0.00000000E+00
  0.00000000E+00  0.00000000E+00  0.00000000E+00
  0.00000000E+00  0.00000000E+00  0.00000000E+00
  0.00000000E+00  0.00000000E+00  0.00000000E+00
  0.00000000E+00  0.00000000E+00  0.00000000E+00
  0.00000000E+00  0.00000000E+00  0.00000000E+00
  0.00000000E+00  0.00000000E+00  0.00000000E+00
  0.00000000E+00  0.00000000E+00  0.00000000E+00
  0.00000000E+00  0.00000000E+00  0.00000000E+00
  0.00000000E+00  0.00000000E+00  0.00000000E+00
  0.00000000E+00  0.00000000E+00  0.00000000E+00
  0.00000000E+00  0.00000000E+00  0.00000000E+00
  0.00000000E+00  0.00000000E+00  0.00000000E+00
  0.00000000E+00  0.00000000E+00  0.00000000E+00
  0.00000000E+00  0.00000000E+00  0.00000000E+00
  0.00000000E+00  0.00000000E+00  0.00000000E+00
  0.00000000E+00  0.00000000E+00  0.00000000E+00
  0.00000000E+00  0.00000000E+00  0.00000000E+00
  0.00000000E+00  0.00000000E+00  0.00000000E+00
  0.00000000E+00  0.00000000E+00  0.00000000E+00
  0.00000000E+00  0.00000000E+00  0.00000000E+00
  0.00000000E+00  0.00000000E+00  0.00000000E+00
  0.00000000E+00  0.00000000E+00  0.00000000E+00
  0.00000000E+00  0.00000000E+00  0.00000000E+00
  0.00000000E+00  0.00000000E+00  0.00000000E+00
  0.00000000E+00  0.00000000E+00  0.00000000E+00
  0.00000000E+00  0.00000000E+00  0.00000000E+00
  0.00000000E+00  0.00000000E+00  0.00000000E+00
  0.00000000E+00  0.00000000E+00  0.00000000E+00
  0.00000000E+00  0.00000000E+00  0.00000000E+00
  0.00000000E+00  0.00000000E+00  0.00000000E+00
  0.00000000E+00  0.00000000E+00  0.00000000E+00
  0.00000000E+00  0.00000000E+00  0.00000000E+00
  0.00000000E+00  0.00000000E+00  0.00000000E+00
  0.00000000E+00  0.00000000E+00  0.00000000E+00
  0.00000000E+00  0.00000000E+00  0.00000000E+00
  0.00000000E+00  0.00000000E+00  0.00000000E+00
  0.00000000E+00  0.00000000E+00  0.00000000E+00
  0.00000000E+00  0.00000000E+00  0.00000000E+00
  0.00000000E+00  0.00000000E+00  0.00000000E+00
  0.00000000E+00  0.00000000E+00  0.00000000E+00
  0.00000000E+00  0.00000000E+00  0.00000000E+00
  0.00000000E+00  0.00000000E+00  0.00000000E+00
  0.00000000E+00  0.00000000E+00  0.00000000E+00
  0.00000000E+00  0.00000000E+00  0.00000000E+00
  0.00000000E+00  0.00000000E+00  0.00000000E+00
  0.00000000E+00  0.00000000E+00  0.00000000E+00
  0.00000000E+00  0.00000000E+00  0.00000000E+00
  0.00000000E+00  0.00000000E+00  0.00000000E+00
  0.00000000E+00  0.00000000E+00  0.00000000E+00
  0.00000000E+00  0.00000000E+00  0.00000000E+00
  0.00000000E+00  0.00000000E+00  0.00000000E+00
  0.00000000E+00  0.00000000E+00  0.00000000E+00
  0.00000000E+00  0.00000000E+00  0.00000000E+00
  0.00000000E+00  0.00000000E+00  0.00000000E+00
  0.00000000E+00  0.00000000E+00  0.00000000E+00
  0.00000000E+00  0.00000000E+00  0.00000000E+00
  0.00000000E+00  0.00000000E+00  0.00000000E+00
  0.00000000E+00  0.00000000E+00  0.00000000E+00
  0.00000000E+00  0.00000000E+00  0.00000000E+00
  0.00000000E+00  0.00000000E+00  0.00000000E+00
  0.00000000E+00  0.00000000E+00  0.00000000E+00