Amorphous GeAsSeSi                      
   1.00000000000000     
    19.6910369558319438    0.0000000000000000    0.0000000000000000
     0.0000000000000000   19.6910369558319438    0.0000000000000000
     0.0000000000000000    0.0000000000000000   19.6910369558319438
   Ge   Se   Si
   100   100   100
Direct
  0.4295145832344147  0.5351045148582116  0.2170414694016785
  0.9145175823276830  0.5674278662387735  0.0072351925322280
  0.6946548762127733  0.2153217983515106  0.2785407757688176
  0.3739674529072090  0.1356817768907916  0.4384797017009987
  0.8029572609292188  0.2946425780635096  0.5404499441785404
  0.7006785246004767  0.1406852798405964  0.8039098839277088
  0.9129724586271450  0.6459193564977923  0.4721620769056969
  0.5942193784821086  0.5073971452225905  0.1175756807644390
  0.5202139077871024  0.5761860349976970  0.3592076477888000
  0.3073043479085271  0.3854167507455912  0.5879435282161367
  0.8254256459489469  0.4931538150058401  0.9395755259617715
  0.0071611215416212  0.6961706889158989  0.8608233142427224
  0.2219717920689845  0.3200425235943740  0.9832772421975733
  0.0657128508410239  0.7289243211844365  0.6189369989200131
  0.5599572792480316  0.4745559867144991  0.2757958849014486
  0.7580447828926893  0.2547607770668634  0.3895640205098871
  0.8142777135711086  0.5672356035215387  0.4308276442530143
  0.9181966749447525  0.7447956985112825  0.7795387097608568
  0.0678773315589893  0.2972212317531984  0.7924120531680856
  0.4942963024567462  0.2368242167437131  0.8063244891057266
  0.8499117376017011  0.0491089145026891  0.9169958578384154
  0.5242308248094005  0.4658379836490667  0.5100666786058099
  0.1566430013044169  0.8295962963109034  0.2722241203173468
  0.1744387811919381  0.3382503713737890  0.7218858699987578
  0.2702728358113404  0.2584977897004208  0.3262100386186049
  0.0122004733332304  0.7125225683809546  0.3061445521123218
  0.2688784645003111  0.7175819631305984  0.0594562912714451
  0.8516229682132561  0.1740455115615660  0.7526724345340483
  0.5463310835447786  0.6208859396001571  0.9590797984925388
  0.6595091620487779  0.4165214549463272  0.7321490096611925
  0.8694601685499919  0.8451808852986389  0.8501047204032730
  0.8059606836217270  0.7570384930199268  0.9288332881444958
  0.2824903494922353  0.2847974541091176  0.7704265822354444
  0.9450800940288033  0.0076659002607258  0.3766357816725261
  0.2123569645643499  0.4585928097819689  0.7486634628647622
  0.0317119130360766  0.6572918995380377  0.4196449763919716
  0.3932702128723093  0.2479573668358981  0.7165930083792276
  0.4992250762334862  0.3673153326065162  0.2246375992590615
  0.5176280055373965  0.8341837941263535  0.3912110007794425
  0.1074289691196455  0.2166866960677183  0.4642917172906635
  0.7596340880174068  0.8527065347934553  0.0037373086009964
  0.8926339038763018  0.2548101600288462  0.3939032657738579
  0.5590355413716281  0.8245444867080280  0.8110030211338710
  0.2076087225173424  0.9250264516524282  0.8347196498776839
  0.4787229863110056  0.2401235180452943  0.2685691669595371
  0.1197444021071661  0.5475285927683302  0.7500258424648365
  0.3374680380703481  0.0129588001123793  0.2441003929638228
  0.2627191544507284  0.2054146152623559  0.8724407131142371
  0.1786979216995590  0.7046658975309654  0.3065011667975313
  0.1862530940023817  0.1981286682077936  0.0742576564682125
  0.9427264466751168  0.9292375703771327  0.9230906174728588
  0.8237551645200938  0.9686608051763272  0.8139309187023400
  0.9279473707231460  0.5798694785350804  0.6708638114743479
  0.1296642881704884  0.5095898031286694  0.3061276758792388
  0.8201218723667267  0.2996362506837187  0.0533946953721198
  0.0952906127874940  0.6901362912477680  0.0288590353208988
  0.8954040730948023  0.5986342086063203  0.1299100309302688
  0.3661557650977727  0.3571562500169563  0.4778003462772773
  0.7422005297637853  0.6598505420905525  0.4812294306443903
  0.5986713981805281  0.3234781867004415  0.3492493090271864
  0.9447520922992965  0.5173301311674905  0.3193668490726154
  0.5784164623763886  0.2797543992854230  0.5098116529126671
  0.6733892621770678  0.5484163550281096  0.7635216011293053
  0.4630418784758490  0.9957045620457095  0.0022927092905221
  0.6128130953611048  0.9089721082947690  0.3522585633738515
  0.6371445290614446  0.7119163188968542  0.2059044742107190
  0.6914463190760500  0.2698176946929536  0.9734910582306355
  0.9411765764608404  0.0890405544650719  0.8000764421456736
  0.6283574095455862  0.0332156661493386  0.3297573156780729
  0.6956482249924179  0.4871102779307606  0.9000936833042914
  0.5060416930967477  0.7160241710239674  0.1065936395886737
  0.4446508695043434  0.6108269452206656  0.6535312577278845
  0.6150550005392077  0.1070291653314825  0.4364003339984919
  0.3522908391329622  0.3817122730961273  0.8263626606387646
  0.3957848713907524  0.7377471547966366  0.9336529900546253
  0.5778358987653576  0.1511817284637829  0.5609880106106502
  0.0863460983173994  0.5912725164888357  0.8630614799871097
  0.6838350862288465  0.7697522757368205  0.6582739536230449
  0.9927527155157776  0.7348799812571229  0.1765915744692705
  0.5185891155473783  0.4163079624802322  0.3849115243846128
  0.8133524644257761  0.7009688274042389  0.1151799584839992
  0.8646000394166009  0.1481793953743349  0.3252730935143617
  0.6874315561795257  0.3582025641634772  0.8793620614302355
  0.0729895418420696  0.1120052692085238  0.5341011400966664
  0.4563827150040183  0.1135266968359616  0.5360962618356737
  0.3776894928533210  0.9083831911714171  0.5328622342985412
  0.0278586684430167  0.6122163288852533  0.1375417207870342
  0.9611624553095339  0.0941282095750182  0.5989329260696366
  0.1880367319331455  0.1753911475301635  0.3741895243546267
  0.3670028813112864  0.7169543166196632  0.3881885375735692
  0.4590572211170709  0.7581024296679075  0.3060727377980612
  0.6847514014412752  0.5795051588208153  0.6366568015428484
  0.6235225347976723  0.3546541706679704  0.6213188156309286
  0.1921681065029119  0.1158619777689722  0.5986263792659869
  0.5056053760342536  0.8696767789985529  0.6879350788746663
  0.8749415133849325  0.7155583775949665  0.5740888476970838
  0.1694649245378557  0.6645343988977075  0.1361075092876192
  0.0089215352219441  0.0692694609734659  0.1703554664584033
  0.4717696267009828  0.6596340452978922  0.4506006850335496
  0.7171224115844197  0.0469413416872868  0.9581537562341680
  0.7649834727159472  0.3453114407605185  0.7750357595354131
  0.9384680459479569  0.3463554828146584  0.1043373334300313
  0.0665811675703694  0.0252110643662746  0.4373848357300432
  0.4828997980598544  0.9526460329077011  0.8793903435098187
  0.7521304384928769  0.4251209510554332  0.3668345308578296
  0.7302673092134953  0.4238819201876751  0.0864733680360743
  0.3768436931426180  0.8875832060149804  0.7076258456883977
  0.6496471146414677  0.9561836905307430  0.7656689858880981
  0.1392222670508616  0.6692320031067425  0.7092366288777185
  0.3574673310894525  0.4724058377178721  0.0375280995352512
  0.4677165836925141  0.9952678350585771  0.5652679555904783
  0.1693174026501794  0.0644568852187319  0.2595744966957270
  0.2971812620860206  0.1469310545869718  0.0269934894686514
  0.3551661915132200  0.8569011350566669  0.9552851839629639
  0.8652376363565040  0.3652485393285474  0.9378916351584081
  0.7057864637350804  0.7104972801680347  0.3144429792024397
  0.8042871076710014  0.1766588510544835  0.8734145945596978
  0.2798528907639621  0.7493170994377678  0.7946112382162980
  0.5015588460003997  0.8896429306337623  0.0680411930246052
  0.7013765702042107  0.8167167416959629  0.1084430066232684
  0.8795935428677026  0.1823677603047500  0.0382354261384208
  0.0966120222241145  0.3725273323355580  0.3380774732554030
  0.0164785452953566  0.8299887996158475  0.4839597529647222
  0.6654853037368937  0.9301746774895250  0.9576858014775596
  0.2163975516052261  0.9881384456387821  0.7164440910225096
  0.3687824656789260  0.1569647005676131  0.6257219848088198
  0.7745987173808331  0.8643391302009391  0.6504611559682658
  0.9070703094987351  0.2169506759907236  0.5835062849156216
  0.0268879658896495  0.9597184794395162  0.6161137033571578
  0.8664033975105028  0.7743801062109839  0.3947553411211189
  0.1828000184324168  0.5352038712983926  0.1269219789798726
  0.2550966041177247  0.7646372948834070  0.6117089744349187
  0.7640443898436899  0.2840372848661303  0.2007657777737180
  0.4950577125891797  0.5038086468145124  0.7048117712697817
  0.8111189492430952  0.4160862249821591  0.5756328657389602
  0.6330708058742189  0.6007930297190782  0.4533133237064675
  0.0435594328655284  0.2746022332613194  0.9827625572935048
  0.9174736654884939  0.0292266770039475  0.1010145173549688
  0.6851337116084153  0.5994364041167515  0.1477368366313812
  0.7208736884287958  0.0783756256169781  0.0803262358409143
  0.4385333301692285  0.1394839991966350  0.8836417767092470
  0.3324149617094960  0.6288975861001376  0.1918837516751992
  0.5218880667938421  0.6616039279714343  0.2600006235393764
  0.7551939187690024  0.6390677987927305  0.9270435164577293
  0.4376486337575116  0.5601683227825731  0.5284633110620689
  0.5445926480570478  0.2158818104401306  0.3983517863410313
  0.3637933196603313  0.9862283956530717  0.1231848796161614
  0.1045769900778097  0.8583190910467380  0.7441951990362341
  0.9950821935893757  0.3357333026856466  0.6944994325932399
  0.1792800737605731  0.5839564938461166  0.5441482029942577
  0.1389125302503160  0.4017084359263450  0.5272437292108876
  0.5885671359800639  0.2191710295226414  0.1129848830048630
  0.9814753587249996  0.5639273108208087  0.5519369504199645
  0.9638346225723495  0.3693745890684426  0.4636184333043900
  0.9779120790923486  0.1013235709308660  0.2950413429093857
  0.1626209952983970  0.9116884904993157  0.3654429491635440
  0.5804185225228125  0.6543467366332933  0.6436749029498685
  0.3163459879697967  0.3827734942884220  0.2910390775182918
  0.8487703172340133  0.4966403013515404  0.1889587708703289
  0.4467049845414337  0.5678880511397892  0.8833171046332637
  0.8066801148712486  0.6914148510389708  0.7499960478359782
  0.3870924009003360  0.5375832196458035  0.3445451925082921
  0.9358459584542587  0.9725508340113223  0.7513113531526159
  0.2339127626037509  0.8759668244370715  0.1855471140009541
  0.4203327649623603  0.9116517247701879  0.4080158946998296
  0.0316302715645378  0.5051949069041299  0.2244944512254605
  0.2983403085871146  0.0232673162639117  0.8879309065083802
  0.8670486655082215  0.9160748228175208  0.4997663809108133
  0.7038050320043041  0.2513773868728393  0.6232681877360520
  0.2255374904866372  0.3233269548123374  0.1201504994092488
  0.2938623593971812  0.0347838375735563  0.4510895075844488
  0.0171216751686174  0.4793126963374235  0.0208520407032680
  0.1944078098856323  0.7336337374788542  0.4328145853986882
  0.7768274058240650  0.1193701189939560  0.2315881006362730
  0.5188439994229697  0.7449260609704851  0.9798434460498768
  0.8558325197877394  0.5157800396685914  0.8178600668887626
  0.6336668111758499  0.8093001737717387  0.5345307533139874
  0.4554574954597612  0.8070490547697631  0.5807112433267392
  0.4986202903116066  0.5882392604945963  0.0766924418644734
  0.6575777951949675  0.9802307267412687  0.4994120465019662
  0.5806952219743309  0.3656992091951068  0.8143078480710315
  0.5857851336426236  0.8720128313799833  0.2349706715027722
  0.0229574400794732  0.4991950298871330  0.7018099197582117
  0.4667085702718268  0.0379141402722567  0.2800035038826891
  0.5616182616102634  0.1693885982297658  0.7113948519927789
  0.0489560580397281  0.5331389832604572  0.4041301003028011
  0.5835541429551228  0.2094342433279905  0.9410840155177667
  0.4466413473608242  0.7631069009471503  0.8125603217856465
  0.7383141010103955  0.1448254187083435  0.4571731513022854
  0.0210675983005046  0.1392143470931870  0.7037846612088572
  0.3941896243276588  0.2198618873785776  0.1600847005790413
  0.1567967723153103  0.1394778820517217  0.8214263001144104
  0.1187533731183095  0.0684500510955388  0.9856670540048640
  0.6339498855985966  0.7221461401607954  0.8153825260596861
  0.0203285302271183  0.4048204366359585  0.8619368585573852
  0.0419644501958629  0.1875604265370328  0.1507946145833401
  0.9208240545390254  0.3123897428563325  0.2870656848393551
  0.4247100980019951  0.3403156939859642  0.9202531569490304
  0.5955162782863468  0.4698704029971381  0.9818129088351313
  0.7487201673252528  0.0637962393685854  0.6336854974287505
  0.2462516091862597  0.5163666178772672  0.0320903057779987
  0.7711516138727745  0.9133284152699446  0.2705127231167879
  0.1719995256799294  0.9947909108124477  0.0652041948446822
  0.3291718220083908  0.9859395027242002  0.6646809678135170
  0.6366998786176623  0.3696659084448584  0.0333060009718693
  0.4043106005719679  0.4315963257580009  0.7225550698532359
  0.1778343270158942  0.0379372260341313  0.8858369849337393
  0.3244676860490898  0.8877163321807444  0.2634597684313249
  0.6849070885901725  0.4534053246284060  0.2742630915496562
  0.4106482517308123  0.1405687037069399  0.3133703543945430
  0.4560675305130815  0.6462492744162986  0.7878840713503621
  0.9014615291329662  0.9793961960027815  0.6281114377548960
  0.8779459721011307  0.8767814668341956  0.2301337977758919
  0.9757046957805784  0.3705990470272980  0.9808505109811207
  0.9730419560026817  0.2385162036310504  0.0709437800410768
  0.7491458058863003  0.0274632303572702  0.3043545178920724
  0.1663130440727372  0.6520877365846118  0.9320859489271669
  0.3354322446278672  0.1157297680153917  0.8154825445390159
  0.3445333043582437  0.3244474035289286  0.1183125966681118
  0.0768413191235311  0.3376436234930438  0.4521779958325212
  0.0751001052622442  0.6394744378180661  0.5334889791428594
  0.2738214733253415  0.0553689452120381  0.0961968724382842
  0.0658991415118635  0.8968965575497094  0.2235157718950944
  0.2698436519721596  0.6195290882086866  0.9800557622775088
  0.9759747587783991  0.3965755217122009  0.3458197639624174
  0.7519444207344108  0.5470070312110451  0.2343381232482287
  0.8120336948555575  0.8199146580680789  0.5505389504553335
  0.5808893483464743  0.9676737189929270  0.0397555300327568
  0.9776762578397538  0.8139427281550908  0.3705601115780013
  0.7688573457408552  0.9609503112634172  0.4534376175368635
  0.9762020515528107  0.6794041847877139  0.9807335756424322
  0.2288721824919264  0.1287704332140294  0.1775649501182812
  0.2501652002043571  0.8116071767340998  0.9768850978999453
  0.8876380533214672  0.7494900976673620  0.0234584937928162
  0.3239240741759062  0.5753651460410794  0.8818513188582600
  0.4107200350326394  0.3431852598970124  0.6428628561398639
  0.0605175871709491  0.8752139444357994  0.9298412466752026
  0.1124683694812845  0.9979950436611276  0.1762180573162482
  0.3187829514159901  0.1750519740343819  0.2432379769568129
  0.3413001162098865  0.3587487222275740  0.0018283008773068
  0.1849971431453667  0.9061657237803118  0.5435765215005830
  0.3282655553819822  0.6403954964413998  0.7815987629409165
  0.6381948899792249  0.0431800262037640  0.5990419305241872
  0.5703443479559382  0.9801550855031635  0.6772528365671704
  0.2694519023352271  0.4679148861138032  0.8599510407457771
  0.2239851290018251  0.6519849518653871  0.6276235073086553
  0.0715899434729366  0.9315335161529177  0.5103290641103229
  0.2145320320247421  0.2227295204952213  0.5297781933166945
  0.3948441395843929  0.4208932733051185  0.3731691997485029
  0.7288403026218404  0.8735336788624011  0.3781793030330860
  0.2313705368698393  0.1113361184791302  0.7257970070124671
  0.0868828135006865  0.4820249270757770  0.9217493577466627
  0.0928041579361931  0.7919465596206763  0.8467210849236366
  0.3778207918051990  0.7209809175784656  0.1232306833730235
  0.8841638699182681  0.6955981571358691  0.3048918800802340
  0.3176204923644619  0.5959084844834308  0.6712171129440208
  0.3854980121083003  0.4103131015837391  0.1932171338215767
  0.5838744360822830  0.3355308194717352  0.1378043734863397
  0.7754720565869135  0.6006113206719519  0.8164909468248425
  0.5765169107441608  0.0641533806906907  0.2232960581828110
  0.6886885218146261  0.3711295717885008  0.1857102928307413
  0.6225315858014682  0.1091275343069000  0.8949719829852398
  0.7566789332716510  0.6775168706051673  0.6023202900168201
  0.5818157482264255  0.1838998164855354  0.2235293906779106
  0.8755535538095387  0.7590559799084318  0.2065936031407247
  0.1641486134425065  0.8922500077221400  0.0000951712022612
  0.6869112507138482  0.3474391631078930  0.4359158574336277
  0.7317713449956997  0.7847147928961107  0.4635773946979285
  0.3890811119776174  0.0768193006878448  0.7128869836808462
  0.9438394118483160  0.2341020999916523  0.6945844038307598
  0.2243150028469358  0.8467757556710680  0.4414287908289722
  0.5078741739690003  0.0661171564988052  0.7307074985208288
  0.2005606401730304  0.7530190885128363  0.8827268053583524
  0.2564693017349313  0.0096490211807776  0.5642453070848461
  0.5289227838222246  0.7667355238399907  0.4959468059010774
  0.4763710108328425  0.3513166823056011  0.5419842991978427
  0.7879821476014399  0.6245292555757160  0.3201437152473616
  0.3050759583721145  0.7110954133829921  0.2791534168577030
  0.6999397818833302  0.4115081889840937  0.5384792679476078
  0.9716953568712299  0.9094533039364592  0.2996788684578320
  0.3056111701457809  0.4785088285505950  0.6723193567718297
  0.6400211242374851  0.5156016891699196  0.5352910454385125
  0.0789434943669818  0.8132808970909196  0.0299845093243789
  0.1522611781438741  0.8209140410445244  0.6322816232431094
  0.7373424626039693  0.0334372069353890  0.7472718451681928
  0.0195837763777931  0.8458947319069665  0.1271170114781270
  0.9184708167351872  0.9127508618844900  0.1238072809923167
  0.3091760287722281  0.2429366392398862  0.4486610777543518
  0.5207048727707573  0.0568404902259303  0.8485643422924483
  0.8851163921604339  0.8699305171714897  0.0191180315847390
  0.6432455043284619  0.0071692562346186  0.1328162517637352
  0.1997180078254743  0.3255495502166852  0.5966949021385943
  0.3760081091079002  0.7915116065040166  0.2210135809412535
  0.8094966550446259  0.0608532675896214  0.4006832332982029
  0.9548660428463762  0.7057626029898287  0.6680845564385578
  0.1971806631355264  0.4415549235974083  0.9530185311590813
  0.5772609028000701  0.6346350325932519  0.7624987656086972
  0.7445967686569475  0.2341136297590793  0.7334131560123822
  0.3277203224289877  0.8379767024455589  0.3777963665213164
  0.6865191228685248  0.9068395512141905  0.1846481533095954
 
  0.00000000E+00  0.00000000E+00  0.00000000E+00
  0.00000000E+00  0.00000000E+00  0.00000000E+00
  0.00000000E+00  0.00000000E+00  0.00000000E+00
  0.00000000E+00  0.00000000E+00  0.00000000E+00
  0.00000000E+00  0.00000000E+00  0.00000000E+00
  0.00000000E+00  0.00000000E+00  0.00000000E+00
  0.00000000E+00  0.00000000E+00  0.00000000E+00
  0.00000000E+00  0.00000000E+00  0.00000000E+00
  0.00000000E+00  0.00000000E+00  0.00000000E+00
  0.00000000E+00  0.00000000E+00  0.00000000E+00
  0.00000000E+00  0.00000000E+00  0.00000000E+00
  0.00000000E+00  0.00000000E+00  0.00000000E+00
  0.00000000E+00  0.00000000E+00  0.00000000E+00
  0.00000000E+00  0.00000000E+00  0.00000000E+00
  0.00000000E+00  0.00000000E+00  0.00000000E+00
  0.00000000E+00  0.00000000E+00  0.00000000E+00
  0.00000000E+00  0.00000000E+00  0.00000000E+00
  0.00000000E+00  0.00000000E+00  0.00000000E+00
  0.00000000E+00  0.00000000E+00  0.00000000E+00
  0.00000000E+00  0.00000000E+00  0.00000000E+00
  0.00000000E+00  0.00000000E+00  0.00000000E+00
  0.00000000E+00  0.00000000E+00  0.00000000E+00
  0.00000000E+00  0.00000000E+00  0.00000000E+00
  0.00000000E+00  0.00000000E+00  0.00000000E+00
  0.00000000E+00  0.00000000E+00  0.00000000E+00
  0.00000000E+00  0.00000000E+00  0.00000000E+00
  0.00000000E+00  0.00000000E+00  0.00000000E+00
  0.00000000E+00  0.00000000E+00  0.00000000E+00
  0.00000000E+00  0.00000000E+00  0.00000000E+00
  0.00000000E+00  0.00000000E+00  0.00000000E+00
  0.00000000E+00  0.00000000E+00  0.00000000E+00
  0.00000000E+00  0.00000000E+00  0.00000000E+00
  0.00000000E+00  0.00000000E+00  0.00000000E+00
  0.00000000E+00  0.00000000E+00  0.00000000E+00
  0.00000000E+00  0.00000000E+00  0.00000000E+00
  0.00000000E+00  0.00000000E+00  0.00000000E+00
  0.00000000E+00  0.00000000E+00  0.00000000E+00
  0.00000000E+00  0.00000000E+00  0.00000000E+00
  0.00000000E+00  0.00000000E+00  0.00000000E+00
  0.00000000E+00  0.00000000E+00  0.00000000E+00
  0.00000000E+00  0.00000000E+00  0.00000000E+00
  0.00000000E+00  0.00000000E+00  0.00000000E+00
  0.00000000E+00  0.00000000E+00  0.00000000E+00
  0.00000000E+00  0.00000000E+00  0.00000000E+00
  0.00000000E+00  0.00000000E+00  0.00000000E+00
  0.00000000E+00  0.00000000E+00  0.00000000E+00
  0.00000000E+00  0.00000000E+00  0.00000000E+00
  0.00000000E+00  0.00000000E+00  0.00000000E+00
  0.00000000E+00  0.00000000E+00  0.00000000E+00
  0.00000000E+00  0.00000000E+00  0.00000000E+00
  0.00000000E+00  0.00000000E+00  0.00000000E+00
  0.00000000E+00  0.00000000E+00  0.00000000E+00
  0.00000000E+00  0.00000000E+00  0.00000000E+00
  0.00000000E+00  0.00000000E+00  0.00000000E+00
  0.00000000E+00  0.00000000E+00  0.00000000E+00
  0.00000000E+00  0.00000000E+00  0.00000000E+00
  0.00000000E+00  0.00000000E+00  0.00000000E+00
  0.00000000E+00  0.00000000E+00  0.00000000E+00
  0.00000000E+00  0.00000000E+00  0.00000000E+00
  0.00000000E+00  0.00000000E+00  0.00000000E+00
  0.00000000E+00  0.00000000E+00  0.00000000E+00
  0.00000000E+00  0.00000000E+00  0.00000000E+00
  0.00000000E+00  0.00000000E+00  0.00000000E+00
  0.00000000E+00  0.00000000E+00  0.00000000E+00
  0.00000000E+00  0.00000000E+00  0.00000000E+00
  0.00000000E+00  0.00000000E+00  0.00000000E+00
  0.00000000E+00  0.00000000E+00  0.00000000E+00
  0.00000000E+00  0.00000000E+00  0.00000000E+00
  0.00000000E+00  0.00000000E+00  0.00000000E+00
  0.00000000E+00  0.00000000E+00  0.00000000E+00
  0.00000000E+00  0.00000000E+00  0.00000000E+00
  0.00000000E+00  0.00000000E+00  0.00000000E+00
  0.00000000E+00  0.00000000E+00  0.00000000E+00
  0.00000000E+00  0.00000000E+00  0.00000000E+00
  0.00000000E+00  0.00000000E+00  0.00000000E+00
  0.00000000E+00  0.00000000E+00  0.00000000E+00
  0.00000000E+00  0.00000000E+00  0.00000000E+00
  0.00000000E+00  0.00000000E+00  0.00000000E+00
  0.00000000E+00  0.00000000E+00  0.00000000E+00
  0.00000000E+00  0.00000000E+00  0.00000000E+00
  0.00000000E+00  0.00000000E+00  0.00000000E+00
  0.00000000E+00  0.00000000E+00  0.00000000E+00
  0.00000000E+00  0.00000000E+00  0.00000000E+00
  0.00000000E+00  0.00000000E+00  0.00000000E+00
  0.00000000E+00  0.00000000E+00  0.00000000E+00
  0.00000000E+00  0.00000000E+00  0.00000000E+00
  0.00000000E+00  0.00000000E+00  0.00000000E+00
  0.00000000E+00  0.00000000E+00  0.00000000E+00
  0.00000000E+00  0.00000000E+00  0.00000000E+00
  0.00000000E+00  0.00000000E+00  0.00000000E+00
  0.00000000E+00  0.00000000E+00  0.00000000E+00
  0.00000000E+00  0.00000000E+00  0.00000000E+00
  0.00000000E+00  0.00000000E+00  0.00000000E+00
  0.00000000E+00  0.00000000E+00  0.00000000E+00
  0.00000000E+00  0.00000000E+00  0.00000000E+00
  0.00000000E+00  0.00000000E+00  0.00000000E+00
  0.00000000E+00  0.00000000E+00  0.00000000E+00
  0.00000000E+00  0.00000000E+00  0.00000000E+00
  0.00000000E+00  0.00000000E+00  0.00000000E+00
  0.00000000E+00  0.00000000E+00  0.00000000E+00
  0.00000000E+00  0.00000000E+00  0.00000000E+00
  0.00000000E+00  0.00000000E+00  0.00000000E+00
  0.00000000E+00  0.00000000E+00  0.00000000E+00
  0.00000000E+00  0.00000000E+00  0.00000000E+00
  0.00000000E+00  0.00000000E+00  0.00000000E+00
  0.00000000E+00  0.00000000E+00  0.00000000E+00
  0.00000000E+00  0.00000000E+00  0.00000000E+00
  0.00000000E+00  0.00000000E+00  0.00000000E+00
  0.00000000E+00  0.00000000E+00  0.00000000E+00
  0.00000000E+00  0.00000000E+00  0.00000000E+00
  0.00000000E+00  0.00000000E+00  0.00000000E+00
  0.00000000E+00  0.00000000E+00  0.00000000E+00
  0.00000000E+00  0.00000000E+00  0.00000000E+00
  0.00000000E+00  0.00000000E+00  0.00000000E+00
  0.00000000E+00  0.00000000E+00  0.00000000E+00
  0.00000000E+00  0.00000000E+00  0.00000000E+00
  0.00000000E+00  0.00000000E+00  0.00000000E+00
  0.00000000E+00  0.00000000E+00  0.00000000E+00
  0.00000000E+00  0.00000000E+00  0.00000000E+00
  0.00000000E+00  0.00000000E+00  0.00000000E+00
  0.00000000E+00  0.00000000E+00  0.00000000E+00
  0.00000000E+00  0.00000000E+00  0.00000000E+00
  0.00000000E+00  0.00000000E+00  0.00000000E+00
  0.00000000E+00  0.00000000E+00  0.00000000E+00
  0.00000000E+00  0.00000000E+00  0.00000000E+00
  0.00000000E+00  0.00000000E+00  0.00000000E+00
  0.00000000E+00  0.00000000E+00  0.00000000E+00
  0.00000000E+00  0.00000000E+00  0.00000000E+00
  0.00000000E+00  0.00000000E+00  0.00000000E+00
  0.00000000E+00  0.00000000E+00  0.00000000E+00
  0.00000000E+00  0.00000000E+00  0.00000000E+00
  0.00000000E+00  0.00000000E+00  0.00000000E+00
  0.00000000E+00  0.00000000E+00  0.00000000E+00
  0.00000000E+00  0.00000000E+00  0.00000000E+00
  0.00000000E+00  0.00000000E+00  0.00000000E+00
  0.00000000E+00  0.00000000E+00  0.00000000E+00
  0.00000000E+00  0.00000000E+00  0.00000000E+00
  0.00000000E+00  0.00000000E+00  0.00000000E+00
  0.00000000E+00  0.00000000E+00  0.00000000E+00
  0.00000000E+00  0.00000000E+00  0.00000000E+00
  0.00000000E+00  0.00000000E+00  0.00000000E+00
  0.00000000E+00  0.00000000E+00  0.00000000E+00
  0.00000000E+00  0.00000000E+00  0.00000000E+00
  0.00000000E+00  0.00000000E+00  0.00000000E+00
  0.00000000E+00  0.00000000E+00  0.00000000E+00
  0.00000000E+00  0.00000000E+00  0.00000000E+00
  0.00000000E+00  0.00000000E+00  0.00000000E+00
  0.00000000E+00  0.00000000E+00  0.00000000E+00
  0.00000000E+00  0.00000000E+00  0.00000000E+00
  0.00000000E+00  0.00000000E+00  0.00000000E+00
  0.00000000E+00  0.00000000E+00  0.00000000E+00
  0.00000000E+00  0.00000000E+00  0.00000000E+00
  0.00000000E+00  0.00000000E+00  0.00000000E+00
  0.00000000E+00  0.00000000E+00  0.00000000E+00
  0.00000000E+00  0.00000000E+00  0.00000000E+00
  0.00000000E+00  0.00000000E+00  0.00000000E+00
  0.00000000E+00  0.00000000E+00  0.00000000E+00
  0.00000000E+00  0.00000000E+00  0.00000000E+00
  0.00000000E+00  0.00000000E+00  0.00000000E+00
  0.00000000E+00  0.00000000E+00  0.00000000E+00
  0.00000000E+00  0.00000000E+00  0.00000000E+00
  0.00000000E+00  0.00000000E+00  0.00000000E+00
  0.00000000E+00  0.00000000E+00  0.00000000E+00
  0.00000000E+00  0.00000000E+00  0.00000000E+00
  0.00000000E+00  0.00000000E+00  0.00000000E+00
  0.00000000E+00  0.00000000E+00  0.00000000E+00
  0.00000000E+00  0.00000000E+00  0.00000000E+00
  0.00000000E+00  0.00000000E+00  0.00000000E+00
  0.00000000E+00  0.00000000E+00  0.00000000E+00
  0.00000000E+00  0.00000000E+00  0.00000000E+00
  0.00000000E+00  0.00000000E+00  0.00000000E+00
  0.00000000E+00  0.00000000E+00  0.00000000E+00
  0.00000000E+00  0.00000000E+00  0.00000000E+00
  0.00000000E+00  0.00000000E+00  0.00000000E+00
  0.00000000E+00  0.00000000E+00  0.00000000E+00
  0.00000000E+00  0.00000000E+00  0.00000000E+00
  0.00000000E+00  0.00000000E+00  0.00000000E+00
  0.00000000E+00  0.00000000E+00  0.00000000E+00
  0.00000000E+00  0.00000000E+00  0.00000000E+00
  0.00000000E+00  0.00000000E+00  0.00000000E+00
  0.00000000E+00  0.00000000E+00  0.00000000E+00
  0.00000000E+00  0.00000000E+00  0.00000000E+00
  0.00000000E+00  0.00000000E+00  0.00000000E+00
  0.00000000E+00  0.00000000E+00  0.00000000E+00
  0.00000000E+00  0.00000000E+00  0.00000000E+00
  0.00000000E+00  0.00000000E+00  0.00000000E+00
  0.00000000E+00  0.00000000E+00  0.00000000E+00
  0.00000000E+00  0.00000000E+00  0.00000000E+00
  0.00000000E+00  0.00000000E+00  0.00000000E+00
  0.00000000E+00  0.00000000E+00  0.00000000E+00
  0.00000000E+00  0.00000000E+00  0.00000000E+00
  0.00000000E+00  0.00000000E+00  0.00000000E+00
  0.00000000E+00  0.00000000E+00  0.00000000E+00
  0.00000000E+00  0.00000000E+00  0.00000000E+00
  0.00000000E+00  0.00000000E+00  0.00000000E+00
  0.00000000E+00  0.00000000E+00  0.00000000E+00
  0.00000000E+00  0.00000000E+00  0.00000000E+00
  0.00000000E+00  0.00000000E+00  0.00000000E+00
  0.00000000E+00  0.00000000E+00  0.00000000E+00
  0.00000000E+00  0.00000000E+00  0.00000000E+00
  0.00000000E+00  0.00000000E+00  0.00000000E+00
  0.00000000E+00  0.00000000E+00  0.00000000E+00
  0.00000000E+00  0.00000000E+00  0.00000000E+00
  0.00000000E+00  0.00000000E+00  0.00000000E+00
  0.00000000E+00  0.00000000E+00  0.00000000E+00
  0.00000000E+00  0.00000000E+00  0.00000000E+00
  0.00000000E+00  0.00000000E+00  0.00000000E+00
  0.00000000E+00  0.00000000E+00  0.00000000E+00
  0.00000000E+00  0.00000000E+00  0.00000000E+00
  0.00000000E+00  0.00000000E+00  0.00000000E+00
  0.00000000E+00  0.00000000E+00  0.00000000E+00
  0.00000000E+00  0.00000000E+00  0.00000000E+00
  0.00000000E+00  0.00000000E+00  0.00000000E+00
  0.00000000E+00  0.00000000E+00  0.00000000E+00
  0.00000000E+00  0.00000000E+00  0.00000000E+00
  0.00000000E+00  0.00000000E+00  0.00000000E+00
  0.00000000E+00  0.00000000E+00  0.00000000E+00
  0.00000000E+00  0.00000000E+00  0.00000000E+00
  0.00000000E+00  0.00000000E+00  0.00000000E+00
  0.00000000E+00  0.00000000E+00  0.00000000E+00
  0.00000000E+00  0.00000000E+00  0.00000000E+00
  0.00000000E+00  0.00000000E+00  0.00000000E+00
  0.00000000E+00  0.00000000E+00  0.00000000E+00
  0.00000000E+00  0.00000000E+00  0.00000000E+00
  0.00000000E+00  0.00000000E+00  0.00000000E+00
  0.00000000E+00  0.00000000E+00  0.00000000E+00
  0.00000000E+00  0.00000000E+00  0.00000000E+00
  0.00000000E+00  0.00000000E+00  0.00000000E+00
  0.00000000E+00  0.00000000E+00  0.00000000E+00
  0.00000000E+00  0.00000000E+00  0.00000000E+00
  0.00000000E+00  0.00000000E+00  0.00000000E+00
  0.00000000E+00  0.00000000E+00  0.00000000E+00