Ge2 Sb2 Te5                             
   1.00000000000000     
     2.1506483403587486   -3.7250321947150327    0.0000000000000000
     2.1506483403587486    3.7250321947150327    0.0000000000000000
     0.0000000000000001   -0.0000000000000003   17.5077126692488605
   Ge   Sb   Te
     2     2     5
Direct
  0.3333333333333357  0.6666666666666643  0.9004886870008114
  0.6666666666666643  0.3333333333333357  0.0995113129991884
  0.0000000000000000  0.0000000000000000  0.6890053743471107
  0.0000000000000000  0.0000000000000000  0.3109946256528893
  0.0000000000000000  0.0000000000000000  0.0000000000000000
  0.6666666666666643  0.3333333333333357  0.8059925018273258
  0.3333333333333357  0.6666666666666643  0.1940074981726741
  0.3333333333333357  0.6666666666666643  0.5930767188917875
  0.6666666666666643  0.3333333333333357  0.4069232811082121
 
  0.00000000E+00  0.00000000E+00  0.00000000E+00
  0.00000000E+00  0.00000000E+00  0.00000000E+00
  0.00000000E+00  0.00000000E+00  0.00000000E+00
  0.00000000E+00  0.00000000E+00  0.00000000E+00
  0.00000000E+00  0.00000000E+00  0.00000000E+00
  0.00000000E+00  0.00000000E+00  0.00000000E+00
  0.00000000E+00  0.00000000E+00  0.00000000E+00
  0.00000000E+00  0.00000000E+00  0.00000000E+00
  0.00000000E+00  0.00000000E+00  0.00000000E+00
