3D\Atomistic                            
   1.00000000000000     
    18.8173099491580764    0.0000000000000000    0.0000000000000000
     0.0000000000000000   18.8173099491580764    0.0000000000000000
     0.0000000000000000    0.0000000000000000   18.8173099491580764
   Sb
   216
Direct
  0.9878086799023793  0.0081278661078340  0.4696448943778980
  0.5340333804155900  0.6763216835815625  0.4019846367242095
  0.0145794371831175  0.9146369412554438  0.0305932823143979
  0.3907285786820063  0.3078877385914664  0.0396230925705950
  0.8096985406427011  0.9279502014940693  0.7960322718854703
  0.3768785288884441  0.0597955328079969  0.9732012374563109
  0.9453977668419423  0.1629285531663029  0.4579996507029665
  0.7196860758403564  0.2512459049962934  0.7741611386177839
  0.2816063468996818  0.7593134883806557  0.0732016131634285
  0.2434515499848713  0.9598738343410911  0.1857552206325317
  0.4216309832840281  0.8554177500447289  0.3868630886818462
  0.5222125087131030  0.3654068548921947  0.5359977849770774
  0.4765761339458947  0.0210164118861351  0.4357886395902145
  0.4943919752066317  0.9943705885494994  0.0662707571952908
  0.1964686680702348  0.2248577491075270  0.3793348896819447
  0.8766461486663564  0.2226254455506935  0.1695625978699882
  0.5223636114365696  0.7237388187942733  0.7608626308565352
  0.5299077169252657  0.3207052085594673  0.3341736553304649
  0.1095748893788512  0.8034127102184367  0.0307177573080001
  0.8093687456390651  0.1178713159974736  0.8550184387592258
  0.2059813447410289  0.1781686565626722  0.9792700351405169
  0.5178893931766602  0.7556378950118605  0.9065928469886770
  0.7919495535815277  0.9107608608803752  0.5673212564990833
  0.7804762157303751  0.1452233278298607  0.5163568384788904
  0.6244437629467883  0.8197540026099338  0.3550827071878693
  0.9292096316881444  0.4397001201723614  0.9275530518451387
  0.5824930601104944  0.5968687767516696  0.0573773547337036
  0.7564326951251176  0.5380135146802614  0.9283065901710706
  0.8441366424146663  0.8577588854190598  0.3686349437845308
  0.9502784903858317  0.3340084557695360  0.0384723075774324
  0.7486896443574172  0.6943625131653413  0.7792912397329058
  0.1656302570093108  0.4036646550668860  0.2419159094852045
  0.2661530221756748  0.3436243522492959  0.1516436569165286
  0.6992845576974360  0.6090919858644888  0.5637333161302245
  0.4609523428492314  0.4395023356872260  0.9955444460325276
  0.1028820097991927  0.2265993806994146  0.1331938572097159
  0.7143315128909292  0.6816810211448547  0.9874562656984466
  0.3599295695693279  0.1041589154630880  0.6366937153397876
  0.1645957947393903  0.6270235698751573  0.0797154444560208
  0.2790772451936414  0.5179031187826337  0.8947829974344879
  0.5762514221224235  0.8905794540425922  0.4959055774715101
  0.0448942322459037  0.4076710056916684  0.1475171115326886
  0.0729502320883877  0.2376325082060307  0.7960230660403854
  0.0543930729604472  0.7419415965164939  0.8892792276767330
  0.2134520552082287  0.3921287633663350  0.4085829414082374
  0.2633527188804144  0.5456967424586406  0.7318787787365689
  0.8018170526438395  0.4656492528868346  0.3896578731919074
  0.9883477002795725  0.7630279882567782  0.3834307300698280
  0.6356476499405161  0.8445089966661444  0.9066439544498084
  0.7631020599357535  0.9068360158014920  0.2195669867539763
  0.8830019469327978  0.5355399052457533  0.0279507358946861
  0.8242760349800393  0.7833403194736723  0.6862937102390267
  0.5403605941170897  0.6063632659396947  0.5481183484958899
  0.1491928221097353  0.6527178525522969  0.7311773014373992
  0.1025637911019743  0.8028210134854323  0.2152853481855408
  0.4845941555615272  0.2338500909070764  0.9415150878442660
  0.8187391217725436  0.7657700071632403  0.9262355082682081
  0.9797990844416935  0.7806504017570473  0.7237319751700143
  0.8132401174063664  0.1029779053042540  0.0756288507280288
  0.5181409201457837  0.7409353326907772  0.0760290386775758
  0.3955926527083418  0.4760308409648412  0.5809105416247121
  0.1706562830889424  0.6314285276407317  0.9254488520490008
  0.9338166069703678  0.8267390310817949  0.5144461237666683
  0.5214760825176084  0.7481123285894294  0.2316199392280525
  0.9638583875509052  0.6021467619577088  0.2188438397575024
  0.5579363240923740  0.9587005679101308  0.2738863715857397
  0.0277204375858586  0.5479928625652604  0.0917358218060785
  0.4231758991509522  0.9830229857057927  0.5647629413443234
  0.9327477230353164  0.7342810815675926  0.0587944625538267
  0.4713745918146889  0.1781165866745205  0.3872990335794804
  0.8012908884936977  0.6590831530178570  0.1206803229070897
  0.6791331993733711  0.1273927770315889  0.2992503099886125
  0.8582537661350121  0.0224897948048487  0.6871491307944372
  0.2702563632670750  0.9697868683830835  0.6873156006268406
  0.2693380777222628  0.9023366854256026  0.3761087128351820
  0.4707786685267307  0.2696803985107438  0.1913699693484247
  0.0673483114589651  0.8289375368757086  0.6044417148855115
  0.3349299968818212  0.0912672510792124  0.3628800327623709
  0.8678433191286558  0.3279291025780386  0.3983570574052082
  0.2646181315062781  0.3170330425397347  0.9449901600581968
  0.1086093359605010  0.8727726223628182  0.3510721470625396
  0.2099879087097041  0.1223339642550318  0.8269598113587469
  0.6340933660276690  0.1217140235667566  0.4917304553162016
  0.6651243866151541  0.8095751549697674  0.0758976664692845
  0.2811145633439612  0.9492966776031114  0.0307544228030612
  0.3108003723681406  0.2210304354921326  0.2509559296793349
  0.2466082208621032  0.5326279568278932  0.5632074758005442
  0.3939038324755024  0.6218486172995756  0.8957871463595491
  0.4882832668849452  0.4981652918373232  0.1377881140099247
  0.4229840884091694  0.8485656561585686  0.7240044350397997
  0.0715979999060938  0.2489220517197192  0.9525427955962155
  0.8077663244452701  0.6747176189746933  0.3241007505404576
  0.9802886923745450  0.9354845020008489  0.2783480324154645
  0.5555088588666314  0.9682490006354689  0.6913738691828786
  0.9972503684571723  0.1062688801746528  0.3143930685450804
  0.3735109801592124  0.1530157977976686  0.1056969463039378
  0.4526150215099638  0.2197501250155658  0.6070565940147463
  0.3301329826512139  0.3307140730380235  0.5630481580499906
  0.2694190757007125  0.7999560909844885  0.2254670283370551
  0.3918234503202460  0.4884344775273233  0.4250361239564945
  0.9625429228230286  0.3447509466688425  0.7863419611675971
  0.2840822390415690  0.1564355743068644  0.4968596690879214
  0.6839307971601809  0.6023325528060773  0.3940238777003570
  0.3777875327979643  0.3397401979220125  0.3805624803153126
  0.5863857968166297  0.1458900344310319  0.6327838539452645
  0.3808609779513515  0.6412652057453483  0.7131610734925733
  0.5905401922223537  0.5488861110616770  0.8589019422742182
  0.9303873296461064  0.3510115678102546  0.2548757345519594
  0.0423706838141822  0.5419161130243821  0.7665858188143228
  0.1814422529593920  0.3857491836492640  0.5604376519965899
  0.3661575091338598  0.6641129550916555  0.5431271815639193
  0.2391253872575409  0.7550699251719003  0.5607702104790967
  0.7002874576509659  0.4525610547501982  0.5131398953354590
  0.5878161982462821  0.3732706557976267  0.1589806057307694
  0.8501913075069144  0.6975371341581380  0.5585899727151716
  0.3718089341875011  0.4120198068687065  0.2290590201432423
  0.5950681819945969  0.3458345893977577  0.9933780718496875
  0.8345389432639598  0.1271647444477441  0.2842412402335649
  0.5223961284885218  0.1524999656421397  0.0686644829431339
  0.8283600623976768  0.8587641430813240  0.0659614675694025
  0.6336572261004780  0.9525458291854315  0.1378543684735878
  0.4154302655476769  0.8700563857963656  0.2229999114198519
  0.1738560855814983  0.0857327591160696  0.3205776263213523
  0.4843879782198757  0.2908501242930352  0.7535373622593100
  0.9358303269928185  0.7768810975181156  0.2334223000960037
  0.2726325170701471  0.5220154992922651  0.0722201994409998
  0.9183244922880559  0.5813477176275369  0.4287082653117363
  0.5033810872327199  0.5562855517147189  0.3026907223614869
  0.1122710615891055  0.6551780021952395  0.5763844406744060
  0.3166340263014725  0.0020626287795789  0.8304538759372256
  0.6745120890095161  0.1166803621730342  0.9360634700840231
  0.1909071479359156  0.8925534776804678  0.9077009496666492
  0.7400933033549425  0.9861034555391552  0.9926851739167836
  0.2733889551318511  0.9261876783948452  0.5372574346349180
  0.7587348434898469  0.3875399955116576  0.8694483581440231
  0.6971796373623941  0.9648873634669858  0.3464887551642726
  0.5623293198723628  0.4859989179029015  0.4340050828670458
  0.8275138262455283  0.0062358265210318  0.4451672476529967
  0.5963528766130959  0.7583008573965375  0.5851847668127720
  0.7075066349711688  0.7418777214563076  0.2197470532272478
  0.7396728389799477  0.7738225107715079  0.4493197374816353
  0.7855270514440547  0.5269054708998723  0.2264391134038787
  0.6641666867337710  0.0291742501678741  0.7876374916456645
  0.0049225345698968  0.5060829871886138  0.3263245864001513
  0.0575411773807676  0.9892123756741851  0.8072365366487547
  0.2159560327698369  0.1304598184035165  0.1732146497629798
  0.1382273806745966  0.0740830046225992  0.6485415998540649
  0.3743565318239974  0.2109073405297456  0.8248219569615336
  0.9988914039290230  0.1176405756114738  0.1501032459664303
  0.6319168581290868  0.2814467744060890  0.4526308889198956
  0.8670192491886863  0.2756238434413217  0.6862296404674485
  0.1685254694966701  0.8794994114784871  0.7408620608533878
  0.0777415993244601  0.2385242105258088  0.4861651426932315
  0.4437130386387433  0.0710284446076439  0.7825778630400871
  0.7373629979259878  0.1188407735105732  0.6742964849125150
  0.5836638481429322  0.1769647729680859  0.8084200849231901
  0.5311698160632141  0.1091518220619096  0.2535834853957132
  0.4014510698686778  0.0364660522913869  0.2051978892628519
  0.8745279958796716  0.5722273458056231  0.7889178433387289
  0.7621759626802750  0.2981407394242944  0.5457494539534914
  0.9783187574102329  0.1314868220180627  0.9703951771757777
  0.6028123841127278  0.3953486367422793  0.8479493479537941
  0.1072584349271776  0.2397261489273147  0.6343044357628737
  0.9603313043641200  0.1581211089464603  0.6350193419057201
  0.0532090230442575  0.2675276295570374  0.2826339100886356
  0.7239978750255242  0.2723179140698387  0.1562385254541675
  0.7269231841691188  0.2931562730918170  0.3303130616598020
  0.6804601959006268  0.1109784766676372  0.1458305796947512
  0.8356435038097317  0.4966230184871502  0.5772209594223684
  0.6569796261745231  0.4298841981483857  0.2964135782044385
  0.0640919618866683  0.4078266680573152  0.6806691542369410
  0.1706006856586404  0.4018184427803076  0.0375875769307475
  0.9204250820333468  0.6507864249584414  0.9243886144275244
  0.0132578627088768  0.5178802511950465  0.5425438475842806
  0.6367557073730213  0.6045411187822297  0.2178667115342933
  0.4625651785322970  0.5177417102351264  0.7702923546372110
  0.2754044733944674  0.7675914410983655  0.7324036504984265
  0.1228460547934797  0.6465702270156192  0.2416378433300912
  0.5675191420701556  0.4562590488894728  0.6657568732045179
  0.2767492129808773  0.3775083757389981  0.7083231275397049
  0.3874243395396423  0.6600825257270307  0.2391049336500085
  0.0511678860723748  0.3869663969753631  0.4485569832598359
  0.3825899823819080  0.4038905135186800  0.8470717401960358
  0.4196203298480337  0.8767307797613247  0.8922899068853272
  0.8735874863515063  0.0053819888784574  0.1885969099296795
  0.6627443178148236  0.9928270323358083  0.5786306377393439
  0.8134850511324797  0.4150646883548388  0.1225846200128284
  0.1539444230601504  0.3774753425572429  0.8260054103135995
  0.6799852585359463  0.5753636122982886  0.7149757999824209
  0.9629448297510820  0.8782900781641202  0.8470196509998746
  0.6894199345064430  0.4677879668253271  0.0410873735722845
  0.6260503614253585  0.8262776185244378  0.7118098911205231
  0.4391260824799704  0.8120384548555089  0.5672547722940274
  0.2548135026122852  0.5311685594506440  0.2327261231182065
  0.2382819115536112  0.5494839794222760  0.4024612630416433
  0.4035959628648746  0.8544454754556061  0.0543779272612449
  0.0916537394369239  0.6296465220986661  0.3967965113224828
  0.0823597687501153  0.9693014651095438  0.1652839539679347
  0.1742553430047984  0.0543350132730330  0.4993773934294928
  0.0956982989732882  0.0150871203531670  0.9611325597247317
  0.9391090612542062  0.6193097514647142  0.6563572369524115
  0.2607239464459691  0.2138286793845871  0.7177664578397999
  0.8732302578160099  0.2346327298574798  0.9211328330969947
  0.2782531003616086  0.7486873018001927  0.9014481120564506
  0.7882188201860398  0.4632508821032937  0.7249401306745624
  0.3840732624335254  0.6443438227287580  0.0578713782401556
  0.2191050988274015  0.7531719690564617  0.4107429666980966
  0.8822988536694738  0.9931937102614120  0.9171018874718253
  0.6337750872191243  0.3002762896559480  0.6483844194440143
  0.9383605044312336  0.3707652731947422  0.5682281961723957
  0.7374653446115588  0.2533603421766182  0.9927725143657685
  0.3690172365264759  0.7129424625681524  0.3835836237087248
  0.9556773275421011  0.1152411365803527  0.7892731779892476
  0.0834228327213550  0.4874450462003502  0.9100929029580597
  0.0124066591547155  0.9853295655066883  0.6228961856486404
  0.5469143934265459  0.9789474832393088  0.9094682289012231
 
  0.66818454E-03  0.31008292E-03  0.29254377E-02
  0.21267283E-02  0.54990463E-03 -0.34056592E-02
 -0.12123228E-02  0.13542587E-02  0.36492384E-03
  0.14088655E-03  0.20223698E-02  0.35368650E-03
 -0.12176068E-02 -0.59872051E-03 -0.26842570E-03
  0.15764045E-02  0.15519050E-02  0.37622229E-02
 -0.15819168E-02  0.39745131E-04 -0.99599060E-03
  0.39032545E-02  0.25457995E-02 -0.35595493E-02
  0.68176846E-03 -0.11736337E-02  0.65210562E-03
  0.18079043E-02 -0.65448172E-03  0.96435137E-03
 -0.17075140E-03  0.39144291E-02  0.71581105E-03
  0.12380279E-02 -0.17571965E-02  0.35496683E-02
 -0.16129401E-02  0.18118920E-02  0.26832727E-04
 -0.96685082E-03 -0.22116551E-02  0.54897087E-03
  0.74188805E-03  0.50903130E-03 -0.12998989E-02
 -0.17846771E-02  0.24659450E-03  0.22524500E-03
 -0.52950471E-03  0.54038603E-03  0.66405891E-03
  0.40577192E-03 -0.70019675E-03  0.21656589E-02
 -0.12963496E-02 -0.25628557E-02 -0.12018072E-02
 -0.21720641E-02 -0.61043894E-03  0.10873780E-02
  0.18102503E-02 -0.15667003E-02 -0.12223004E-02
 -0.68520653E-03 -0.18836246E-02  0.12650706E-03
  0.47484332E-03 -0.38643167E-03 -0.66386849E-02
  0.41505060E-03  0.48499617E-02  0.34631918E-02
 -0.93519774E-03  0.16196858E-02 -0.32279365E-03
 -0.28693589E-03 -0.26653066E-02 -0.21781501E-02
  0.38997982E-03 -0.68939702E-03  0.63510562E-04
  0.31811256E-03 -0.90377254E-03  0.38804549E-03
 -0.11525826E-02 -0.97664101E-03 -0.16330251E-02
 -0.74419483E-03  0.71201191E-03  0.12706733E-02
 -0.30488650E-02  0.15572933E-02  0.46680665E-02
 -0.15571742E-02 -0.19753773E-03 -0.22241065E-02
  0.19937134E-02 -0.28774886E-02 -0.16290708E-04
  0.11538396E-02  0.13324892E-02  0.98308812E-03
  0.98049367E-03  0.21454743E-02  0.39388200E-02
  0.65287848E-03 -0.60070101E-03 -0.62580365E-03
  0.11482062E-02 -0.40374364E-03  0.75008108E-03
 -0.24335619E-02 -0.22514448E-02 -0.35800861E-03
 -0.13673017E-02 -0.68868319E-03  0.55388017E-03
 -0.25850192E-02  0.16232711E-02  0.82427604E-03
  0.53521115E-03  0.28875477E-03  0.34900438E-02
 -0.23694913E-02  0.11454628E-02 -0.71824139E-03
  0.53482605E-03  0.13266724E-03  0.24450707E-02
 -0.80140153E-03 -0.17048717E-02  0.11081417E-02
 -0.83035567E-03 -0.22498397E-03 -0.30084427E-02
 -0.16825342E-02  0.16896409E-02  0.19856122E-02
 -0.30961891E-02  0.18881084E-02 -0.96938662E-03
 -0.80216483E-03 -0.12469974E-02  0.21754287E-03
 -0.24965381E-04  0.25227105E-02 -0.51882197E-03
  0.80746506E-03  0.36870039E-03  0.50560311E-03
 -0.60905984E-03 -0.91717133E-03 -0.11417414E-03
 -0.49154187E-03 -0.15534714E-02 -0.36375131E-03
  0.83001059E-04 -0.10192603E-02  0.16483686E-02
 -0.14109410E-02 -0.21407754E-02  0.26433275E-02
 -0.22851303E-02  0.17274745E-03 -0.32102524E-03
 -0.37961745E-03  0.14609781E-02  0.69668003E-04
  0.19290504E-03 -0.22883873E-02 -0.80659962E-03
 -0.13238302E-02  0.13127136E-02 -0.51077446E-03
  0.70472260E-03 -0.61696890E-03 -0.13832218E-02
 -0.20360880E-02 -0.33217688E-03 -0.32163178E-02
 -0.34932230E-02 -0.75265391E-03  0.15122741E-02
  0.69311026E-04 -0.11879495E-02 -0.14915875E-02
  0.18368206E-02  0.16688449E-03  0.12786049E-02
 -0.10309795E-02 -0.56106226E-03  0.12098733E-02
  0.16007453E-02 -0.74061263E-03 -0.72455394E-04
  0.34339277E-02 -0.27621647E-03 -0.32256297E-02
  0.15459164E-02 -0.27031441E-02 -0.16586843E-02
  0.23986964E-02 -0.24591085E-02  0.15421703E-02
  0.11151820E-02  0.16796699E-02 -0.16170824E-02
  0.23660980E-02  0.10814963E-03 -0.73492871E-03
 -0.35582376E-03 -0.35356996E-03 -0.48270888E-03
 -0.76101927E-04 -0.26800343E-03  0.12463884E-02
 -0.19900758E-02 -0.20186416E-02  0.10815041E-02
  0.75424005E-03 -0.15429514E-02  0.25678395E-02
  0.31167189E-02  0.68189488E-03 -0.18899870E-02
  0.21987740E-02  0.14059568E-02  0.10741657E-02
  0.10522849E-03 -0.17288459E-02  0.80803081E-03
  0.10537331E-02  0.20816287E-02 -0.36615374E-02
 -0.74995261E-03 -0.42320172E-02  0.64438215E-03
  0.71093248E-03 -0.75554413E-03 -0.13125902E-03
 -0.85607215E-03  0.19909324E-03 -0.45887495E-04
  0.24476649E-02 -0.31063587E-03 -0.45256902E-02
 -0.40486545E-02 -0.23017442E-02 -0.11080467E-02
 -0.20713941E-02  0.75986055E-03 -0.29155522E-02
 -0.33980677E-02  0.34039939E-03  0.21546233E-04
  0.12196819E-02  0.18913140E-03  0.29730336E-03
  0.14985399E-02 -0.98144916E-03 -0.16166634E-02
 -0.40137147E-03 -0.10581821E-02  0.23183011E-02
 -0.18430612E-02 -0.11721725E-03 -0.49323989E-03
 -0.23945220E-02 -0.16540071E-02  0.14239246E-03
 -0.11212811E-02  0.75877217E-03  0.14874612E-02
  0.82422820E-03  0.21490219E-02 -0.17709843E-02
 -0.62116223E-03  0.12913563E-03  0.14040464E-03
 -0.17281265E-02  0.16992754E-02  0.15665090E-03
 -0.14463069E-02 -0.15354315E-02  0.10576901E-02
 -0.25619037E-03  0.44647344E-03 -0.40621952E-03
  0.89946062E-04  0.24329168E-02  0.22331685E-02
 -0.14903129E-02 -0.90438954E-03  0.13742049E-02
 -0.11030469E-02 -0.57719208E-03  0.69409733E-03
  0.98221081E-03 -0.16822427E-02 -0.13429848E-02
 -0.56994473E-03  0.40861388E-02 -0.21813595E-03
 -0.25624982E-02  0.19203425E-02  0.13940109E-02
 -0.15534008E-02 -0.14676845E-02 -0.37287250E-02
 -0.51163041E-03 -0.49734705E-04  0.91350055E-03
  0.50733963E-03 -0.77025030E-03 -0.30594163E-03
 -0.91489309E-03 -0.93525928E-03  0.64292735E-03
 -0.25599781E-02 -0.96819034E-03  0.14416149E-03
 -0.59251236E-04  0.17275388E-02  0.12545893E-02
 -0.34897225E-03 -0.16525443E-02 -0.94923017E-03
 -0.24836989E-04 -0.42737772E-03 -0.15738156E-02
 -0.14896229E-02  0.12056738E-02 -0.71514947E-03
  0.39637728E-03 -0.19577315E-03 -0.86218196E-03
 -0.19302001E-02 -0.15729759E-02 -0.10800038E-02
 -0.15957629E-02 -0.81131337E-03 -0.70789467E-03
 -0.23469538E-02 -0.61123697E-02  0.11292861E-02
  0.13846425E-02  0.28476501E-02 -0.77995534E-03
  0.88840202E-03  0.21386163E-03  0.80001506E-03
  0.27577830E-02  0.15677020E-02  0.34910111E-02
 -0.12399019E-03 -0.80512565E-04  0.98967626E-03
 -0.30043287E-02 -0.24518886E-02  0.30432107E-02
 -0.35968709E-02  0.17830842E-02 -0.69976983E-03
 -0.28091415E-02 -0.38074592E-04 -0.22430251E-03
 -0.14001872E-02 -0.17263021E-02 -0.15057605E-02
  0.23049349E-02 -0.16343643E-02  0.69391794E-03
 -0.31349922E-03  0.21260893E-02 -0.18554774E-02
  0.45169964E-03 -0.15565687E-02  0.12719408E-02
 -0.77947101E-03  0.24939134E-03 -0.76027290E-03
 -0.10209387E-02  0.85035260E-03  0.20370394E-02
  0.71840901E-03  0.91493209E-03 -0.74885649E-03
  0.86539328E-03  0.27860525E-03 -0.72167110E-03
  0.26144253E-02  0.22539989E-02  0.14445642E-02
 -0.16945107E-02 -0.13708342E-02  0.25981748E-02
  0.58426005E-03  0.12730342E-02 -0.17106490E-02
  0.21136475E-02 -0.10416104E-02 -0.81660966E-03
 -0.72724223E-03 -0.82300637E-03  0.38188955E-03
  0.29298431E-02  0.26061147E-02 -0.96002080E-03
  0.13445959E-02  0.13125792E-03 -0.17049609E-02
  0.17998786E-02  0.75329619E-03  0.22236835E-03
  0.28838795E-02  0.78742397E-03 -0.22643611E-02
 -0.33500667E-03 -0.14127040E-02  0.70664879E-03
 -0.16083132E-02  0.10669355E-02  0.23625213E-02
  0.15933826E-02 -0.37799972E-03  0.16854418E-02
  0.56976363E-03 -0.21442078E-02 -0.19113324E-03
  0.32452515E-04 -0.54049448E-03  0.17977151E-03
  0.48297628E-03  0.94200840E-03  0.42395027E-02
 -0.10011508E-03 -0.89642636E-03  0.21609624E-02
  0.24105659E-02 -0.62760511E-03 -0.11569932E-02
 -0.56606884E-03 -0.12699560E-02 -0.47532138E-03
 -0.34780351E-04  0.20654972E-03  0.83988700E-03
 -0.22185138E-02 -0.44142743E-04  0.43316846E-03
  0.23030681E-02 -0.12977983E-02  0.95782035E-03
 -0.21971731E-02 -0.20829036E-02 -0.13367692E-03
  0.12614594E-02  0.41581616E-02  0.50623920E-04
 -0.12131246E-02  0.36987216E-03 -0.12719214E-02
  0.15969694E-02 -0.20900280E-03  0.16346828E-02
  0.20814437E-02 -0.76319880E-03 -0.11288575E-02
 -0.27978084E-04  0.19424706E-02  0.25151139E-02
 -0.23921642E-02  0.22396815E-02  0.15612849E-02
  0.60807355E-03  0.36781390E-02  0.32873908E-03
  0.51022562E-03  0.23458153E-02  0.19567683E-03
  0.90209057E-04  0.33269689E-02 -0.21475296E-02
  0.12625720E-02  0.76450838E-03 -0.14798422E-02
  0.27849473E-02  0.21925460E-02 -0.20051030E-02
 -0.25765826E-02  0.13086844E-02 -0.20314790E-02
 -0.23328329E-02  0.13323777E-02 -0.30385647E-02
 -0.65523974E-03  0.14794419E-02  0.47564757E-04
 -0.10143541E-02 -0.54790353E-04 -0.80654729E-03
  0.30554320E-02  0.52073683E-03  0.12922226E-02
  0.29551128E-02  0.28636195E-02  0.10097494E-02
  0.17482915E-02  0.23558983E-02 -0.51302242E-02
  0.17427562E-02 -0.68139077E-03 -0.98852976E-03
 -0.89776053E-03 -0.11158399E-03 -0.43011549E-03
  0.81995291E-03  0.19160624E-02  0.12636364E-02
  0.11061064E-03 -0.13598720E-02  0.14406368E-02
 -0.14815062E-03  0.21845686E-02  0.83354853E-03
  0.40360951E-02  0.15987542E-03  0.18896732E-02
  0.27493611E-03 -0.87204011E-03  0.40226547E-04
  0.36165855E-02  0.96984239E-03 -0.34630020E-04
  0.41116105E-03  0.22830246E-02 -0.84286487E-03
 -0.13823287E-02 -0.28028078E-02 -0.14838181E-02
  0.73849209E-03 -0.22112129E-03  0.10030173E-02
 -0.60407767E-03  0.48759017E-03 -0.96274994E-03
  0.76170211E-03  0.66455624E-03 -0.81524875E-03
 -0.14512469E-02 -0.34891229E-02  0.24316153E-03
  0.13126541E-03 -0.15154554E-02  0.78335290E-03
  0.15910174E-02 -0.12685875E-02 -0.97020719E-04
 -0.11033365E-02  0.31409028E-03  0.28301371E-03
 -0.35313678E-02 -0.45178273E-03 -0.55943456E-03
 -0.21711741E-03 -0.26962086E-03  0.59212161E-03
  0.32034736E-03 -0.76186769E-03 -0.36708744E-02
  0.25055856E-02 -0.12615474E-02 -0.41426622E-03
  0.30656798E-03  0.11401185E-02  0.15659534E-02
  0.47879046E-03 -0.14849487E-02  0.14264904E-02
  0.10095555E-02 -0.47449128E-03  0.17694403E-02
  0.41633993E-03  0.64390486E-03 -0.22565781E-02
 -0.47908408E-03  0.36927817E-03 -0.10647466E-02
 -0.17795779E-02 -0.17160442E-02  0.99934470E-03
  0.12543792E-02  0.13234494E-03  0.26844741E-03
  0.16784698E-02 -0.22207113E-02  0.10407012E-02
  0.22480973E-02  0.10102083E-02 -0.21433153E-03
  0.73885602E-03 -0.12328922E-02 -0.15261791E-02
  0.10697802E-03  0.43707118E-03 -0.97530553E-03
 -0.15245353E-02  0.17472330E-02  0.10087381E-02
 -0.35025601E-03 -0.45996591E-02  0.92759758E-03
 -0.25008699E-02 -0.94925146E-03 -0.19446813E-02
 -0.12061041E-04  0.24435718E-03 -0.10546664E-02
  0.54283662E-03  0.52910913E-04 -0.32659100E-03
  0.23968302E-02 -0.92170592E-03  0.72354456E-03
  0.46189559E-03 -0.20287770E-02 -0.54305024E-03
  0.20301164E-02  0.71013665E-04 -0.18801253E-02
  0.11268052E-02  0.14598205E-02 -0.21834222E-02
  0.20351232E-02  0.20437381E-02 -0.83663890E-03
 -0.29051902E-03 -0.71184589E-03  0.65460956E-03
  0.17272520E-02  0.39028272E-02  0.13309998E-02
  0.20516243E-02  0.80468629E-03 -0.16261690E-02
 -0.97567303E-03 -0.12338391E-02  0.29151112E-02
 
           1
   5.00000000000000     
  0.10000000E+01  0.00000000E+00  0.00000000E+00  0.00000000E+00
  0.98798623E+00  0.82102591E-02  0.47042222E+00
  0.53459848E+00  0.67646780E+00  0.40107971E+00
  0.14257308E-01  0.91499679E+00  0.30690247E-01
  0.39076601E+00  0.30842511E+00  0.39717072E-01
  0.80937501E+00  0.92779111E+00  0.79596095E+00
  0.37729740E+00  0.60207894E-01  0.97420091E+00
  0.94497743E+00  0.16293911E+00  0.45773500E+00
  0.72072322E+00  0.25192236E+00  0.77321532E+00
  0.28178750E+00  0.75900164E+00  0.73374886E-01
  0.24393193E+00  0.95969993E+00  0.18601146E+00
  0.42158561E+00  0.85645786E+00  0.38705329E+00
  0.52254147E+00  0.36493995E+00  0.53694098E+00
  0.47614756E+00  0.21497855E-01  0.43579577E+00
  0.49413507E+00  0.99378292E+00  0.66416626E-01
  0.19666580E+00  0.22499301E+00  0.37898949E+00
  0.87617194E+00  0.22269097E+00  0.16962245E+00
  0.52222292E+00  0.72388241E+00  0.76103908E+00
  0.53001554E+00  0.32051916E+00  0.33474910E+00
  0.10923043E+00  0.80273173E+00  0.30398422E-01
  0.80879160E+00  0.11770911E+00  0.85530737E+00
  0.20646235E+00  0.17775236E+00  0.97894525E+00
  0.51770733E+00  0.75513739E+00  0.90662646E+00
  0.79207573E+00  0.91065818E+00  0.56555727E+00
  0.78058650E+00  0.14651202E+00  0.51727705E+00
  0.62419527E+00  0.82018437E+00  0.35499694E+00
  0.92913339E+00  0.43899191E+00  0.92697429E+00
  0.58259668E+00  0.59668560E+00  0.57394230E-01
  0.75651722E+00  0.53777337E+00  0.92840970E+00
  0.84383039E+00  0.85749938E+00  0.36820103E+00
  0.95008075E+00  0.33419765E+00  0.38809942E-01
  0.74787952E+00  0.69477631E+00  0.78053160E+00
  0.16521650E+00  0.40361217E+00  0.24132494E+00
  0.26668278E+00  0.34285977E+00  0.15163933E+00
  0.69959115E+00  0.60944605E+00  0.56399454E+00
  0.46121287E+00  0.44007242E+00  0.99659104E+00
  0.10305549E+00  0.22643977E+00  0.13302757E+00
  0.71463661E+00  0.68157374E+00  0.98765557E+00
  0.35928294E+00  0.10356068E+00  0.63659859E+00
  0.16423249E+00  0.62684058E+00  0.79862618E-01
  0.27839037E+00  0.51833444E+00  0.89500202E+00
  0.57639363E+00  0.89065618E+00  0.49683293E+00
  0.44264628E-01  0.40797537E+00  0.14732627E+00
  0.73092342E-01  0.23766776E+00  0.79667275E+00
  0.54180130E-01  0.74148859E+00  0.88957368E+00
  0.21323142E+00  0.39206898E+00  0.40778356E+00
  0.26290565E+00  0.54614570E+00  0.73240638E+00
  0.80099436E+00  0.46615095E+00  0.38940029E+00
  0.98813455E+00  0.76269665E+00  0.38348853E+00
  0.63564102E+00  0.84517931E+00  0.90650610E+00
  0.76331661E+00  0.90693398E+00  0.21970133E+00
  0.88284011E+00  0.53529620E+00  0.27920398E-01
  0.82414543E+00  0.78292754E+00  0.68619706E+00
  0.54038265E+00  0.60609244E+00  0.54855634E+00
  0.14881792E+00  0.65214902E+00  0.73187967E+00
  0.10195660E+00  0.80286691E+00  0.21520005E+00
  0.48449329E+00  0.23423829E+00  0.94153360E+00
  0.81879038E+00  0.76516195E+00  0.92602118E+00
  0.97944733E+00  0.78099921E+00  0.72359626E+00
  0.81342737E+00  0.10281397E+00  0.75261311E-01
  0.51759991E+00  0.74084707E+00  0.75174422E-01
  0.39466446E+00  0.47583085E+00  0.58131237E+00
  0.17067470E+00  0.63111287E+00  0.92505252E+00
  0.93430467E+00  0.82678337E+00  0.51478587E+00
  0.52120214E+00  0.74796325E+00  0.23194142E+00
  0.96428373E+00  0.60194997E+00  0.21882459E+00
  0.55884876E+00  0.95862717E+00  0.27302928E+00
  0.28131207E-01  0.54727460E+00  0.91295088E-01
  0.42381326E+00  0.98236957E+00  0.56517272E+00
  0.93304404E+00  0.73472739E+00  0.58364783E-01
  0.47200329E+00  0.17814532E+00  0.38710375E+00
  0.80119634E+00  0.65898920E+00  0.12055206E+00
  0.67911298E+00  0.12732157E+00  0.29958149E+00
  0.85772498E+00  0.21953416E-01  0.68743650E+00
  0.27045677E+00  0.96937689E+00  0.68799791E+00
  0.27016623E+00  0.90251787E+00  0.37560652E+00
  0.47136291E+00  0.27005398E+00  0.19165539E+00
  0.67376272E-01  0.82847816E+00  0.60465642E+00
  0.33520999E+00  0.91820366E-01  0.36190712E+00
  0.86764405E+00  0.32680460E+00  0.39852828E+00
  0.26480704E+00  0.31683228E+00  0.94495528E+00
  0.10838187E+00  0.87282552E+00  0.35105995E+00
  0.21063828E+00  0.12225142E+00  0.82575728E+00
  0.63301759E+00  0.12110242E+00  0.49143603E+00
  0.66457399E+00  0.80977706E+00  0.75122967E-01
  0.28021165E+00  0.94938713E+00  0.30760148E-01
  0.31112446E+00  0.22108069E+00  0.25103493E+00
  0.24700640E+00  0.53236717E+00  0.56277791E+00
  0.39379718E+00  0.62156744E+00  0.89640315E+00
  0.48779354E+00  0.49813415E+00  0.13765705E+00
  0.42234783E+00  0.84812617E+00  0.72404227E+00
  0.71300061E-01  0.24912367E+00  0.95293803E+00
  0.80798533E+00  0.67528864E+00  0.32363018E+00
  0.98012364E+00  0.93551881E+00  0.27838534E+00
  0.55504967E+00  0.96870052E+00  0.69141549E+00
  0.99686607E+00  0.10586090E+00  0.31467411E+00
  0.37344291E+00  0.15313443E+00  0.10558901E+00
  0.45263892E+00  0.22039658E+00  0.60764998E+00
  0.32973699E+00  0.33047377E+00  0.56341330E+00
  0.26912598E+00  0.79980272E+00  0.22565146E+00
  0.39208444E+00  0.48798748E+00  0.42467928E+00
  0.96239148E+00  0.34583669E+00  0.78628400E+00
  0.28340135E+00  0.15694583E+00  0.49723008E+00
  0.68351804E+00  0.60194257E+00  0.39303311E+00
  0.37765159E+00  0.33972698E+00  0.38080521E+00
  0.58652060E+00  0.14568537E+00  0.63270256E+00
  0.38061788E+00  0.64101670E+00  0.71333191E+00
  0.58985997E+00  0.54862885E+00  0.85894025E+00
  0.93037159E+00  0.35147060E+00  0.25520909E+00
  0.42277957E-01  0.54147701E+00  0.76633360E+00
  0.18143565E+00  0.38563562E+00  0.56001947E+00
  0.36576170E+00  0.66443332E+00  0.54293716E+00
  0.23923071E+00  0.75501791E+00  0.56054112E+00
  0.69977458E+00  0.45214309E+00  0.51285292E+00
  0.58739218E+00  0.37305508E+00  0.15879251E+00
  0.84956769E+00  0.69591300E+00  0.55889004E+00
  0.37217685E+00  0.41277646E+00  0.22885178E+00
  0.59530424E+00  0.34589142E+00  0.99359065E+00
  0.83527172E+00  0.12758130E+00  0.28516885E+00
  0.52236318E+00  0.15247857E+00  0.68927453E-01