Amorphous Sb                            
   1.00000000000000     
    20.6071579077798077    0.0000000000000000    0.0000000000000000
     0.0000000000000000   20.6071579077798077    0.0000000000000000
     0.0000000000000000    0.0000000000000000   20.6071579077798077
   Al   Sb
    45   255
Direct
  0.9328899600656845  0.0440808906587804 -0.0305058705399621
  0.5791309724611097  0.3840743450573115  0.1887151345625722
  0.0051410116079273  0.6951379666152221  0.7720238906617719
  0.8792076110817175  0.5185610067445454  0.9874924566614121
  0.9647305068464370  0.2603115457312283  0.7855798887531049
  0.6278101548994520  0.3624197203929427  0.0642984020312670
  0.9374826073984148  0.2585692527281554  0.0320019893766713
  0.0216362575871767  0.4689784499177052  0.7408475712930874
  0.4360096856021612  0.2251466840998146  0.2958194352374162
  0.6560795055670126  0.1832437486449394  0.9483347575316329
  0.5880415192062025  0.1187573277745305  0.2224867694287916
  0.0229467795671092  0.5511601036619606  0.4449054212461923
  0.2650950666667848  0.1687355779753724  0.4636502044366505
  0.3434197587112754  0.6798039207704432  0.6718389688633102
  0.8152931513312653  0.7075867444831068  0.6622708741721828
  0.1193039955906475  0.2474364630277038  0.7694054362505710
  0.6788814931634288  0.6408727708138516  0.3961956146283473
  0.2301757296084823  0.8018094723928980  0.2222124652169926
  0.0381649228153197  0.8384460845321279  0.0969193103266843
  0.9273163794557199  0.3748721222905832  0.7050211123047299
  0.3956272019034072  0.8782772974310632  0.6639653603107317
  0.1123535316233579  0.7975590702920523  0.8092073389805099
  0.6340960288768455  0.0599420096385506  0.5296883073332233
  0.5204433213673701  0.5736946924151846  0.2603380214250589
  0.4756219654102746  0.6700611339521204  0.7782689439493444
  0.2231066260201214  0.7695688221266221  0.6234095769549186
  0.5963686785226262  0.2216937023728412  0.4035583672148395
  0.7330480936706305  0.3769324572355401  0.4044750710797963
  0.7092877749532684  0.6317396159896047  0.9380423493117988
  0.7975306229642285  0.1571715786509827  0.1452055214888353
  0.4426181034293708  0.1167280453364768  0.0066054045281077
  0.1756292224258496  0.0678859685170587  0.1817460341305847
  0.9678619675801495  0.6146720151430936  0.6777081724979914
  0.8124884347261022  0.1165051213911374  0.7821875676036889
  0.6923731426319247  0.3252327888355550  0.1733388794790108
  0.5973590207628152  0.0657422733838371  0.7599758502318443
  0.0576932366677122  0.8986729300910103  0.8772385498628612
  0.1883540897072089  0.8938076181413446  0.8546388137998743
  0.2369093813473604  0.7654862561657534  0.8261294435545354
  0.7424510892989012  0.4930025820289519  0.1928811029971771
  0.4067136395228108  0.9012440466256030  0.4213800898135700
  0.8009132721548560  0.5428176413940955  0.5274393899883749
  0.9766341813531516  0.0763641649879579  0.2478757614729693
  0.0020545165849076  0.4027903288821618  0.4412497306455738
  0.3920260762108252  0.7265569124905048  0.1942600510972217
  0.0842267233586057  0.9886121538063578  0.4242032482961581
  0.4984527009808267  0.4699299866185901  0.6177522934990546
  0.0482804052389306  0.1983981030304512  0.0773408930717527
  0.4117398738730326  0.3045837304377454  0.9939553823405861
  0.5519619183902824  0.3786214344046008  0.7333465759799870
  0.8849270607704670  0.3367932327009662  0.2818470759399052
  0.3864162335698926  0.0033360260875111  0.7008855090696475
  0.4713960927444995  0.4317901679728379  0.0162763442178253
  0.1527799865831214  0.4568400280734573  0.9626187871126860
  0.6918043172544964  0.1153336357710707  0.8364267462917221
  0.1964009597190241  0.8578571861328558  0.5285890923468786
  0.0179228630056903  0.7530594066481369  0.8916847756542932
  0.1213958525562844  0.9676342295962723  0.2625725491583018
  0.1246179272029716  0.7139349374303007  0.6983408861059912
  0.6147793225295931  0.4806020231068883  0.2736931328920003
  0.9143884067677179  0.9476380908285529  0.5122565097184225
  0.3548912533421668  0.6102959082496585  0.7838126479211300
  0.5146106768280889  0.1232016540403473  0.5644394887095323
  0.5550881274610808  0.0776429546857759  0.9469160328953778
  0.5140504285415305  0.0113632338274597  0.0989378213352280
  0.6153612857170390  0.2247592894157354  0.0711274105319726
  0.9358746946056888  0.5312480751860109  0.5424010581009311
  0.1828246259873124  0.5169709980232327  0.3497019714073156
  0.2127847767028111  0.2612725878348155  0.2755174401487320
  0.1761106139849485  0.3629135860005828  0.4021652353803111
  0.6084363370862470  0.3543328052441669  0.4495375325488816
  0.9860980512662766 -0.0046059516719057  0.6644444842369426
  0.8397934657160845  0.2374091587309971  0.8265292183135584
  0.5798999853945054  0.2999528216619671  0.6052820682883203
  0.3237363199954981  0.9869371471428497  0.8828181157574193
  0.0548877069234921  0.8487652278517476  0.5597940927171197
  0.6022066279480461  0.8548140661499192  0.6041142148751998
  0.6477783448827341  0.1987968809557719  0.5276137682089803
  0.8823684842270119  0.8303383296345203  0.4265182757114331
  0.4671126602032421  0.4326290724742787  0.8404946158913434
  0.0791306264223709  0.3512684353040814  0.6915397649759393
  0.9319385316369502  0.6844003332025885  0.5685806918140738
  0.1976732565092641  0.4231742076466629  0.6436701891273424
  0.0322865054798143  0.4852791275800458  0.3287241440137745
  0.7274371990662225  0.5138886693276465  0.4192381290995735
  0.7189505797769938  0.9757666329890492  0.8552865692742387
  0.1768036341046257  0.0230498098641114  0.9043158185066821
  0.3781398957437216  0.5526268767314509  0.5947448113144725
  0.2828779197461373  0.1278856591511387  0.7575810274024543
  0.5599087002882716  0.5393058105391484  0.4227342596961583
  0.2841722562709655  0.4570243229659767  0.0994061778828955
  0.0075207961075253  0.6810334722743172  0.4191554566956903
  0.2705590301856403  0.3024851958763902  0.4859305339246148
  0.9488055670843528  0.8130005869426612  0.7332734188768643
  0.9830087546391612  0.3779749332212595  0.9961561028118254
  0.8422624491676381  0.0703726304304496  0.2337139451806697
  0.3615897398767396  0.1601717614063870  0.5566693706133552
  0.4564100509330352  0.4211037201841325  0.1581913894549123
  0.5515790650091292  0.1844228351325636  0.6877262004350259
  0.1695388268574053  0.5546593281300097  0.8286711871858692
  0.3212198514041211  0.7738658764422676  0.3924513689457386
  0.6171181164849801  0.4720023369897062  0.5352940078692635
  0.7431282934809442  0.8087485046483472  0.9655686871684848
  0.6419227215899813  0.8491725030561743  0.1260126495730140
  0.6103742943255510  0.7084213744239991  0.7735583975754755
  0.3455950472410625  0.8425925751341981  0.0737721958245873
  0.3025777886094854  0.4559840570111613  0.5201455538451859
  0.6046516315602311  0.3827508249438920  0.9324443192898663
  0.5339735713895675  0.5931288756314561  0.9771312747711872
  0.6345001353678541  0.2693461380881962  0.7899433768712263
  0.2617007921256872  0.7334189387894270  0.0337609747345180
  0.0231179025559853  0.8361293195926266  0.3921779595306287
  0.2602315664106248  0.0518704933717881  0.2986786534721010
  0.0160037871264022  0.5408732575121779  0.9712221153944178
  0.1899651918055741  0.5877946339167986  0.6927593235596300
  0.8285969155865934  0.4592461159357044  0.0962303323131697
  0.1844399495139810  0.6553811151631210  0.3160774413731836
  0.4790244925732964  0.8301243638287941  0.3346611350944285
  0.9332024139143303  0.1060403749938484  0.0908426018005749
  0.7744407569739351  0.6119122036025347  0.2355987648884471
  0.8547738505831782  0.7140818781108735  0.7880572954212290
  0.3015483787389879  0.3894659088703384  0.2813818260448473
  0.3897473902256036  0.3304452067471778  0.6677650266095343
  0.0171133130845258  0.0117496738628380  0.8114295730997845
  0.0643000145541744  0.2638607631327439  0.5672268751470291
  0.2491099370844295  0.2646190429885789  0.7874176215589774
  0.4739435174356063  0.6923293412932376  0.6433924177961652
  0.4765704068825793  0.6698277990423378  0.3394960127578385
  0.0383669718314919  0.3451683117974915  0.2580120222677563
  0.6829048735983674  0.7444608540738877  0.6455796107134595
  0.6642548915887063  0.5025508734983503  0.8293730160167735
  0.1242465947987838  0.1485076467259682  0.2756565406796478
  0.3528847500130431  0.8501136692773991  0.2149940499699788
  0.9052560649739418  0.7315566721096669  0.0767512600460115
  0.3576020863566541  0.0184692657881075  0.5479340931736005
  0.3786402450805957  0.3084093031952780  0.1930626769908141
  0.8744723459594290  0.0108024257830062  0.8471203143669972
  0.6909417580448581  0.2027172410213965  0.2126393451656639
  0.4560611823368964  0.1254243933855012  0.2107897420996051
  0.5715454092197747  0.6786866077836963  0.4673646557621298
  0.9558379108181115  0.4110456210166274  0.1334735020039897
  0.4649282292517156  0.1861915675170196  0.4233044537533582
  0.7355546534563220  0.0850895637665120  0.3517829035178129
  0.8762711732444088  0.2063822653568046  0.3377859736596492
  0.7881009930947196  0.6690071647225807  0.4682966002911310
  0.7760296579281351  0.2730895169004199  0.5109431735183129
  0.3371877989672563  0.6663686331811638  0.3033555902546239
  0.4228799757042205  0.0077228920385283  0.2804922788797964
  0.7900173792508477  0.3653676170296636  0.7070824433301657
  0.6398979679107296  0.6515938495953375  0.2701828131056422
  0.2704250255994522  0.6603706152857102  0.5554467170409101
  0.8201456669503084  0.6368698846984926  0.0098530107948922
  0.9605022731887609  0.1361295906361815  0.7271006612544225
  0.8092321949725905  0.9963444283057735  0.0202712682191264
  0.7167072328225323  0.9381114898138728  0.3980969561787899
  0.7501533642105749  0.3869374036089522  0.2719591209843629
  0.5090067893006924  0.8886732057224787  0.1644915807625231
  0.2029728808376778  0.9975774365063429  0.5880573522550347
  0.5221724574352505  0.4016910662701221  0.3483607078911308
  0.7355847661011014  0.2287829602686492  0.3471902278585478
  0.7861016794044627  0.7764158593148348  0.2686155125754235
  0.8655128179275074  0.2693927804662917  0.1416795368047116
  0.4059595873741825  0.2703625088709650  0.8439978729332996
  0.5426866636344416  0.2539795211973257  0.8962972786106539
  0.4005907821781798  0.4948100197914428  0.2852601140207037
  0.1172567778209779  0.4212703611917111  0.5193655885683207
  0.8778839422180654  0.6943987085822496  0.3642730307625031
  0.7771801995101907  0.8279706990836876  0.8276942156440767
  0.6190804040740262  0.7088284132742525 -0.0073962761079451
  0.3606512795257310  0.1429835386456971  0.9041137039370506
  0.0703345920540982  0.5391981135339138  0.6345394086088534
  0.5919075478050224  0.7974528216217772  0.8828931413009424
  0.0525836902332650  0.7801785179649406  0.2602672776590982
  0.8936985626779087  0.0444356321457258  0.4119173588113945
  0.5152663814365843  0.9423142114599142  0.9723849495245215
  0.0512545139348629  0.0920113050581073  0.9242440162336076
  0.7202069945636005  0.6499622589417613  0.1102909566442216
  0.5504277101114081  0.9460567691606593  0.2870582421196476
  0.3858331898683278  0.7311868657390926  0.5129379379486489
  0.7788627515502942  0.7814130168429644  0.1263465919960255
  0.4738263302593504  0.7870311321597323  0.0425903829189985
  0.0625400391642904  0.7050658712349254  0.1048243201773341
  0.5379563083093210  0.8351793026264808  0.4649680155244028
  0.3284013994700190  0.1377394599430352  0.1091528487732186
  0.9292734330986400  0.1133235506599188  0.5324906328386293
  0.9052124854280986  0.4973136831296959  0.2591798486960420
  0.8688202574333169  0.5339713379668377  0.3904835849074559
  0.2826558416485174  0.4007251299259160  0.9286863717289908
  0.1150679267675008  0.3443247309608466  0.0396026309478672
  0.4772988998850540  0.2186839542152915  0.0869253351634933
  0.2408858865063858  0.1407233292709766  0.9865586684937392
  0.3111640995276828  0.1812710698815548  0.3384280607827517
  0.0540030070532635  0.2883448077741932  0.3918665992850677
  0.4831462197530131  0.0864810040423074  0.8258569702361053
  0.1497927831453671  0.8814805304284745  0.1541632460518001
  0.8710730970355994  0.3904642884654464  0.4137260748647092
  0.8862715682331291  0.8126283775314729  0.6069714142185214
  0.9213909689969104  0.6265801706963668  0.2070912697797955
  0.2931362926949904  0.3103639163970411  0.0740328329336609
  0.2559939725052461  0.2929752782460890  0.6371667680406656
  0.8012662297884913  0.4040449329042195  0.5690147282915264
  0.0439773290301883  0.6418644905615279  0.2872777764033140
  0.6454362521724157  0.0537076411640567  0.1230261642555586
  0.3036719467800046  0.8422091983586635  0.9136099044134165
  0.4972645499256049  0.5855434568461042  0.1290762660005474
  0.3541247113343156  0.8669628832091375  0.5389023889563125
  0.4147899034391823  0.2003346442987725  0.7179702224601469
  0.7615136684422469  0.0968701437685079  0.4914207024002457
  0.5995902151943858  0.9293215435735032  0.7922642585493463
  0.8293240219057001  0.9033729934157820  0.3179076909904129
  0.0942851304050797  0.6620367235137203  0.9739496433995144
  0.1494241788617121  0.5535294816531247  0.4839385492368964
  0.5729118010165964 -0.0198613214068610  0.4402100793296129
  0.3555563624201462  0.5100596362933856  0.9863054413300735
  0.0597627922215959  0.2313095748404405  0.8869816730688841
  0.1695309435765234  0.8323154269651503  0.9804858013810499
  0.6450682403696248  0.7942063626605388  0.2634459269928009
  0.8782749112257400  0.1744661899145091  0.9478546001995602
  0.0890454151718942  0.1648042493493324  0.6687608919552015
  0.6501635287804891  0.6262245699615896  0.5739429661953834
  0.0823126555144498  0.8818023016661166  0.6996511002780749
  0.6662181201658381  0.8047115100031644  0.4125481031840900
  0.8640620578615064  0.5615606252408214  0.8378735134571496
  0.7697612706315643  0.3373188241002579  0.0596260255738962
  0.1987250156957620  0.2656815458363815  0.9296158776660196
  0.1221491264553906  0.5278082482187502  0.1798249392661782
  0.2988153746029857  0.0094344869512917  0.1626394695200341
  0.1529229566386451  0.3900817858953968  0.1725733209645521
  0.3832283038443818  0.9901550180751102  0.0132921980864042
  0.0209004186012995  0.1060699207227315  0.3769719105150774
  0.5329146308675782  0.5587618423222722  0.8373529057530421
  0.9446643225429590  0.8394008164837159  0.1945820154025651
  0.9814363059788042  0.9410783328603695  0.2938472021733246
  0.6986335724813505  0.9057778917722328  0.6942856809311754
  0.4514116088861213  0.2943253491905997  0.5449707556946563
  0.0721935536481073  0.7082835212128613  0.5636428467677455
  0.2212715875576313  0.0362865651097258  0.4488546903505178
  0.4402392785703009  0.0327694381348313  0.4224917206549846
  0.2111647107019377  0.9533649998897435  0.0502067464148226
  0.6726051760424754  0.0378262969241123  0.6540529582548134
  0.0099907408330645  0.5687349031159671  0.8291599115358683
  0.9150482140330883  0.2461574791408279  0.4705742642927609
  0.2632997904414766  0.6461240955404676  0.8848773963048252
  0.6939195687182853  0.9518795036188055  0.2075476928578501
  0.3756709458201559  0.3226003905580502  0.3843634755737334
  0.7717183436538543  0.9551131906793712  0.5280285321055507
  0.4352156909697011  0.5962160057416499  0.4645796091059899
  0.6635358601456455  0.4618908842119935  0.6925690833081138
  0.1916634119476491  0.5573945757325347  0.0585107003966001
  0.9416137005921930  0.3912582170881082  0.5703487397465338
  0.4481525409148159  0.9507496519087461  0.8221223786475690
  0.5696942574741569  0.5761420954012400  0.6802975457789406
  0.2427866008426889  0.4343083431427094  0.7945832949566835
  0.1284753913051623  0.1738872178258902  0.4756948564391915
  0.1989700958999179  0.6917641691273576  0.1559038185955469
  0.8598712507493074  0.9491432166253079  0.7101928149237329
  0.7691844571928309  0.5799921940494860  0.6480992897963357
  0.4922525568325457  0.9900717816581831  0.6050042748980020
  0.3621296690064250  0.6286715226362980  0.1082072378027528
  0.2349337292811489  0.1381409166360163  0.6230518877256882
  0.0080229198325142  0.9256295174308544 -0.0025477475889940
  0.1017234970485680  0.3830959760536818  0.8353007662448306
  0.3707360977677784  0.4762185643967428  0.7425273517385599
 -0.0028822156189035  0.5455125259196882  0.1158764348561055
  0.4527018541324409  0.7749207377064632  0.8576902113653033
  0.3202675970696485  0.5432495817006170  0.3987299047568404
  0.1736048953249600  0.8466115469655463  0.3360446536092185
  0.6387827985495451  0.4980403608648157  0.1079232875606125
  0.9566448561831621  0.3842716185498009  0.8402096282360771
  0.7019342005211112  0.5014798128245731  0.9763250182172509
  0.0097381836966220  0.9973616055194797  0.1390576673510437
  0.1921609638629902  0.7364630342416409  0.4379274625900739
  0.8167230485538010  0.4398218263918903  0.8977192661190019
  0.5205246789149820  0.7218473407537399  0.1610480782133823
  0.2158945859727122  0.9405405099632618  0.7290465957268157
  0.9187437697804824  0.2438218474609470  0.6439943525254154
  0.2081965270173047  0.2055003032888192  0.1433875889742065
  0.1129516449370333  0.0609910218907611  0.0651486931910749
  0.7756554605128162  0.2325475719348242  0.6518667331688887
  0.8101830036710997  0.0770563157666934  0.6553509808100458
  0.5071991217520626  0.8189368302956727  0.7006839393096657
  0.2830924273421622  0.9309754836066599  0.3753608111983684
  0.9082467156707303  0.8677659795692165  0.8722254595582687
  0.5591692250751201  0.2806164349667257  0.2841210031161907
  0.0714212283793328  0.0629262860643511  0.5484015875185850
  0.8265471380031048  0.9524703014130087  0.1542907107890062
  0.4221407244602213  0.6813158498963080  0.9621867758688624
  0.7627840693046222  0.1311902862818554  0.0199348052257293
  0.3065118502357644  0.7973357964218007  0.7191697615317187
  0.6829720919104937  0.9349857253780908  0.9880709106159030
  0.2963956732060133  0.5519892047915546  0.2065737546246060
  0.8788539055857885  0.8553282581211982  0.0102962141561099
  0.0105931002082544  0.2089060552264360  0.2115612305241646
  0.8841524164156981  0.5158769021779470  0.7068203879197361
  0.4328771232086818  0.4200276135694424  0.4802257044045198
  0.7578034339365305  0.7986021543266689  0.5218666056203678
  0.7232357865188975  0.6307209828993517  0.8086721343586883
  0.7201438654389820  0.2990775549827271  0.9020956105119088
  0.1568059234608879  0.0617490154434295  0.7699573679623939
  0.5959339079410213  0.0987486274839430  0.3526342152405266
 
  0.00000000E+00  0.00000000E+00  0.00000000E+00
  0.00000000E+00  0.00000000E+00  0.00000000E+00
  0.00000000E+00  0.00000000E+00  0.00000000E+00
  0.00000000E+00  0.00000000E+00  0.00000000E+00
  0.00000000E+00  0.00000000E+00  0.00000000E+00
  0.00000000E+00  0.00000000E+00  0.00000000E+00
  0.00000000E+00  0.00000000E+00  0.00000000E+00
  0.00000000E+00  0.00000000E+00  0.00000000E+00
  0.00000000E+00  0.00000000E+00  0.00000000E+00
  0.00000000E+00  0.00000000E+00  0.00000000E+00
  0.00000000E+00  0.00000000E+00  0.00000000E+00
  0.00000000E+00  0.00000000E+00  0.00000000E+00
  0.00000000E+00  0.00000000E+00  0.00000000E+00
  0.00000000E+00  0.00000000E+00  0.00000000E+00
  0.00000000E+00  0.00000000E+00  0.00000000E+00
  0.00000000E+00  0.00000000E+00  0.00000000E+00
  0.00000000E+00  0.00000000E+00  0.00000000E+00
  0.00000000E+00  0.00000000E+00  0.00000000E+00
  0.00000000E+00  0.00000000E+00  0.00000000E+00
  0.00000000E+00  0.00000000E+00  0.00000000E+00
  0.00000000E+00  0.00000000E+00  0.00000000E+00
  0.00000000E+00  0.00000000E+00  0.00000000E+00
  0.00000000E+00  0.00000000E+00  0.00000000E+00
  0.00000000E+00  0.00000000E+00  0.00000000E+00
  0.00000000E+00  0.00000000E+00  0.00000000E+00
  0.00000000E+00  0.00000000E+00  0.00000000E+00
  0.00000000E+00  0.00000000E+00  0.00000000E+00
  0.00000000E+00  0.00000000E+00  0.00000000E+00
  0.00000000E+00  0.00000000E+00  0.00000000E+00
  0.00000000E+00  0.00000000E+00  0.00000000E+00
  0.00000000E+00  0.00000000E+00  0.00000000E+00
  0.00000000E+00  0.00000000E+00  0.00000000E+00
  0.00000000E+00  0.00000000E+00  0.00000000E+00
  0.00000000E+00  0.00000000E+00  0.00000000E+00
  0.00000000E+00  0.00000000E+00  0.00000000E+00
  0.00000000E+00  0.00000000E+00  0.00000000E+00
  0.00000000E+00  0.00000000E+00  0.00000000E+00
  0.00000000E+00  0.00000000E+00  0.00000000E+00
  0.00000000E+00  0.00000000E+00  0.00000000E+00
  0.00000000E+00  0.00000000E+00  0.00000000E+00
  0.00000000E+00  0.00000000E+00  0.00000000E+00
  0.00000000E+00  0.00000000E+00  0.00000000E+00
  0.00000000E+00  0.00000000E+00  0.00000000E+00
  0.00000000E+00  0.00000000E+00  0.00000000E+00
  0.00000000E+00  0.00000000E+00  0.00000000E+00
  0.00000000E+00  0.00000000E+00  0.00000000E+00
  0.00000000E+00  0.00000000E+00  0.00000000E+00
  0.00000000E+00  0.00000000E+00  0.00000000E+00
  0.00000000E+00  0.00000000E+00  0.00000000E+00
  0.00000000E+00  0.00000000E+00  0.00000000E+00
  0.00000000E+00  0.00000000E+00  0.00000000E+00
  0.00000000E+00  0.00000000E+00  0.00000000E+00
  0.00000000E+00  0.00000000E+00  0.00000000E+00
  0.00000000E+00  0.00000000E+00  0.00000000E+00
  0.00000000E+00  0.00000000E+00  0.00000000E+00
  0.00000000E+00  0.00000000E+00  0.00000000E+00
  0.00000000E+00  0.00000000E+00  0.00000000E+00
  0.00000000E+00  0.00000000E+00  0.00000000E+00
  0.00000000E+00  0.00000000E+00  0.00000000E+00
  0.00000000E+00  0.00000000E+00  0.00000000E+00
  0.00000000E+00  0.00000000E+00  0.00000000E+00
  0.00000000E+00  0.00000000E+00  0.00000000E+00
  0.00000000E+00  0.00000000E+00  0.00000000E+00
  0.00000000E+00  0.00000000E+00  0.00000000E+00
  0.00000000E+00  0.00000000E+00  0.00000000E+00
  0.00000000E+00  0.00000000E+00  0.00000000E+00
  0.00000000E+00  0.00000000E+00  0.00000000E+00
  0.00000000E+00  0.00000000E+00  0.00000000E+00
  0.00000000E+00  0.00000000E+00  0.00000000E+00
  0.00000000E+00  0.00000000E+00  0.00000000E+00
  0.00000000E+00  0.00000000E+00  0.00000000E+00
  0.00000000E+00  0.00000000E+00  0.00000000E+00
  0.00000000E+00  0.00000000E+00  0.00000000E+00
  0.00000000E+00  0.00000000E+00  0.00000000E+00
  0.00000000E+00  0.00000000E+00  0.00000000E+00
  0.00000000E+00  0.00000000E+00  0.00000000E+00
  0.00000000E+00  0.00000000E+00  0.00000000E+00
  0.00000000E+00  0.00000000E+00  0.00000000E+00
  0.00000000E+00  0.00000000E+00  0.00000000E+00
  0.00000000E+00  0.00000000E+00  0.00000000E+00
  0.00000000E+00  0.00000000E+00  0.00000000E+00
  0.00000000E+00  0.00000000E+00  0.00000000E+00
  0.00000000E+00  0.00000000E+00  0.00000000E+00
  0.00000000E+00  0.00000000E+00  0.00000000E+00
  0.00000000E+00  0.00000000E+00  0.00000000E+00
  0.00000000E+00  0.00000000E+00  0.00000000E+00
  0.00000000E+00  0.00000000E+00  0.00000000E+00
  0.00000000E+00  0.00000000E+00  0.00000000E+00
  0.00000000E+00  0.00000000E+00  0.00000000E+00
  0.00000000E+00  0.00000000E+00  0.00000000E+00
  0.00000000E+00  0.00000000E+00  0.00000000E+00
  0.00000000E+00  0.00000000E+00  0.00000000E+00
  0.00000000E+00  0.00000000E+00  0.00000000E+00
  0.00000000E+00  0.00000000E+00  0.00000000E+00
  0.00000000E+00  0.00000000E+00  0.00000000E+00
  0.00000000E+00  0.00000000E+00  0.00000000E+00
  0.00000000E+00  0.00000000E+00  0.00000000E+00
  0.00000000E+00  0.00000000E+00  0.00000000E+00
  0.00000000E+00  0.00000000E+00  0.00000000E+00
  0.00000000E+00  0.00000000E+00  0.00000000E+00
  0.00000000E+00  0.00000000E+00  0.00000000E+00
  0.00000000E+00  0.00000000E+00  0.00000000E+00
  0.00000000E+00  0.00000000E+00  0.00000000E+00
  0.00000000E+00  0.00000000E+00  0.00000000E+00
  0.00000000E+00  0.00000000E+00  0.00000000E+00
  0.00000000E+00  0.00000000E+00  0.00000000E+00
  0.00000000E+00  0.00000000E+00  0.00000000E+00
  0.00000000E+00  0.00000000E+00  0.00000000E+00
  0.00000000E+00  0.00000000E+00  0.00000000E+00
  0.00000000E+00  0.00000000E+00  0.00000000E+00
  0.00000000E+00  0.00000000E+00  0.00000000E+00
  0.00000000E+00  0.00000000E+00  0.00000000E+00
  0.00000000E+00  0.00000000E+00  0.00000000E+00
  0.00000000E+00  0.00000000E+00  0.00000000E+00
  0.00000000E+00  0.00000000E+00  0.00000000E+00
  0.00000000E+00  0.00000000E+00  0.00000000E+00
  0.00000000E+00  0.00000000E+00  0.00000000E+00
  0.00000000E+00  0.00000000E+00  0.00000000E+00
  0.00000000E+00  0.00000000E+00  0.00000000E+00
  0.00000000E+00  0.00000000E+00  0.00000000E+00
  0.00000000E+00  0.00000000E+00  0.00000000E+00
  0.00000000E+00  0.00000000E+00  0.00000000E+00
  0.00000000E+00  0.00000000E+00  0.00000000E+00
  0.00000000E+00  0.00000000E+00  0.00000000E+00
  0.00000000E+00  0.00000000E+00  0.00000000E+00
  0.00000000E+00  0.00000000E+00  0.00000000E+00
  0.00000000E+00  0.00000000E+00  0.00000000E+00
  0.00000000E+00  0.00000000E+00  0.00000000E+00
  0.00000000E+00  0.00000000E+00  0.00000000E+00
  0.00000000E+00  0.00000000E+00  0.00000000E+00
  0.00000000E+00  0.00000000E+00  0.00000000E+00
  0.00000000E+00  0.00000000E+00  0.00000000E+00
  0.00000000E+00  0.00000000E+00  0.00000000E+00
  0.00000000E+00  0.00000000E+00  0.00000000E+00
  0.00000000E+00  0.00000000E+00  0.00000000E+00
  0.00000000E+00  0.00000000E+00  0.00000000E+00
  0.00000000E+00  0.00000000E+00  0.00000000E+00
  0.00000000E+00  0.00000000E+00  0.00000000E+00
  0.00000000E+00  0.00000000E+00  0.00000000E+00
  0.00000000E+00  0.00000000E+00  0.00000000E+00
  0.00000000E+00  0.00000000E+00  0.00000000E+00
  0.00000000E+00  0.00000000E+00  0.00000000E+00
  0.00000000E+00  0.00000000E+00  0.00000000E+00
  0.00000000E+00  0.00000000E+00  0.00000000E+00
  0.00000000E+00  0.00000000E+00  0.00000000E+00
  0.00000000E+00  0.00000000E+00  0.00000000E+00
  0.00000000E+00  0.00000000E+00  0.00000000E+00
  0.00000000E+00  0.00000000E+00  0.00000000E+00
  0.00000000E+00  0.00000000E+00  0.00000000E+00
  0.00000000E+00  0.00000000E+00  0.00000000E+00
  0.00000000E+00  0.00000000E+00  0.00000000E+00
  0.00000000E+00  0.00000000E+00  0.00000000E+00
  0.00000000E+00  0.00000000E+00  0.00000000E+00
  0.00000000E+00  0.00000000E+00  0.00000000E+00
  0.00000000E+00  0.00000000E+00  0.00000000E+00
  0.00000000E+00  0.00000000E+00  0.00000000E+00
  0.00000000E+00  0.00000000E+00  0.00000000E+00
  0.00000000E+00  0.00000000E+00  0.00000000E+00
  0.00000000E+00  0.00000000E+00  0.00000000E+00
  0.00000000E+00  0.00000000E+00  0.00000000E+00
  0.00000000E+00  0.00000000E+00  0.00000000E+00
  0.00000000E+00  0.00000000E+00  0.00000000E+00
  0.00000000E+00  0.00000000E+00  0.00000000E+00
  0.00000000E+00  0.00000000E+00  0.00000000E+00
  0.00000000E+00  0.00000000E+00  0.00000000E+00
  0.00000000E+00  0.00000000E+00  0.00000000E+00
  0.00000000E+00  0.00000000E+00  0.00000000E+00
  0.00000000E+00  0.00000000E+00  0.00000000E+00
  0.00000000E+00  0.00000000E+00  0.00000000E+00
  0.00000000E+00  0.00000000E+00  0.00000000E+00
  0.00000000E+00  0.00000000E+00  0.00000000E+00
  0.00000000E+00  0.00000000E+00  0.00000000E+00
  0.00000000E+00  0.00000000E+00  0.00000000E+00
  0.00000000E+00  0.00000000E+00  0.00000000E+00
  0.00000000E+00  0.00000000E+00  0.00000000E+00
  0.00000000E+00  0.00000000E+00  0.00000000E+00
  0.00000000E+00  0.00000000E+00  0.00000000E+00
  0.00000000E+00  0.00000000E+00  0.00000000E+00
  0.00000000E+00  0.00000000E+00  0.00000000E+00
  0.00000000E+00  0.00000000E+00  0.00000000E+00
  0.00000000E+00  0.00000000E+00  0.00000000E+00
  0.00000000E+00  0.00000000E+00  0.00000000E+00
  0.00000000E+00  0.00000000E+00  0.00000000E+00
  0.00000000E+00  0.00000000E+00  0.00000000E+00
  0.00000000E+00  0.00000000E+00  0.00000000E+00
  0.00000000E+00  0.00000000E+00  0.00000000E+00
  0.00000000E+00  0.00000000E+00  0.00000000E+00
  0.00000000E+00  0.00000000E+00  0.00000000E+00
  0.00000000E+00  0.00000000E+00  0.00000000E+00
  0.00000000E+00  0.00000000E+00  0.00000000E+00
  0.00000000E+00  0.00000000E+00  0.00000000E+00
  0.00000000E+00  0.00000000E+00  0.00000000E+00
  0.00000000E+00  0.00000000E+00  0.00000000E+00
  0.00000000E+00  0.00000000E+00  0.00000000E+00
  0.00000000E+00  0.00000000E+00  0.00000000E+00
  0.00000000E+00  0.00000000E+00  0.00000000E+00
  0.00000000E+00  0.00000000E+00  0.00000000E+00
  0.00000000E+00  0.00000000E+00  0.00000000E+00
  0.00000000E+00  0.00000000E+00  0.00000000E+00
  0.00000000E+00  0.00000000E+00  0.00000000E+00
  0.00000000E+00  0.00000000E+00  0.00000000E+00
  0.00000000E+00  0.00000000E+00  0.00000000E+00
  0.00000000E+00  0.00000000E+00  0.00000000E+00
  0.00000000E+00  0.00000000E+00  0.00000000E+00
  0.00000000E+00  0.00000000E+00  0.00000000E+00
  0.00000000E+00  0.00000000E+00  0.00000000E+00
  0.00000000E+00  0.00000000E+00  0.00000000E+00
  0.00000000E+00  0.00000000E+00  0.00000000E+00
  0.00000000E+00  0.00000000E+00  0.00000000E+00
  0.00000000E+00  0.00000000E+00  0.00000000E+00
  0.00000000E+00  0.00000000E+00  0.00000000E+00
  0.00000000E+00  0.00000000E+00  0.00000000E+00
  0.00000000E+00  0.00000000E+00  0.00000000E+00
  0.00000000E+00  0.00000000E+00  0.00000000E+00
  0.00000000E+00  0.00000000E+00  0.00000000E+00
  0.00000000E+00  0.00000000E+00  0.00000000E+00
  0.00000000E+00  0.00000000E+00  0.00000000E+00
  0.00000000E+00  0.00000000E+00  0.00000000E+00
  0.00000000E+00  0.00000000E+00  0.00000000E+00
  0.00000000E+00  0.00000000E+00  0.00000000E+00
  0.00000000E+00  0.00000000E+00  0.00000000E+00
  0.00000000E+00  0.00000000E+00  0.00000000E+00
  0.00000000E+00  0.00000000E+00  0.00000000E+00
  0.00000000E+00  0.00000000E+00  0.00000000E+00
  0.00000000E+00  0.00000000E+00  0.00000000E+00
  0.00000000E+00  0.00000000E+00  0.00000000E+00
  0.00000000E+00  0.00000000E+00  0.00000000E+00
  0.00000000E+00  0.00000000E+00  0.00000000E+00
  0.00000000E+00  0.00000000E+00  0.00000000E+00
  0.00000000E+00  0.00000000E+00  0.00000000E+00
  0.00000000E+00  0.00000000E+00  0.00000000E+00
  0.00000000E+00  0.00000000E+00  0.00000000E+00