Amorphous GeAsSeSi                      
   1.00000000000000     
    19.0036188657994742    0.0000000000000000    0.0000000000000000
     0.0000000000000000   19.0036188657994742    0.0000000000000000
     0.0000000000000000    0.0000000000000000   19.0036188657994742
   Ge   Si   Se
   108    24   108
Direct
  0.1363297346020837  0.1025275619651598  0.6749053810246917
  0.0628221705632022  0.6398524646470317  0.8630867522474812
  0.3874868865642276  0.8946615923376685  0.4503317894385773
  0.6691816227866374  0.8258642280164330  0.0059328823444535
  0.6074114686018813  0.2771953159749421  0.2673605238775853
  0.9140792719529923  0.5143873172188697  0.3640501322479838
  0.2052045707339803  0.1566075704673654  0.8667551258578861
  0.1611121677170261  0.4093099215807030  0.4338357823619299
  0.8899080634235035  0.5202800592315020  0.7725574114115668
  0.5795861695338735  0.9303850746369879  0.0732377025278270
  0.0211287215662751  0.0952831003604041  0.5069177351451490
  0.2549537175875232  0.0679589566985572  0.1097007293553358
  0.6532004636964088  0.2015258412256300  0.0688093495778289
  0.8443369900507562  0.7716207988942626  0.8764652000655463
  0.1069080161377841  0.9824260295786521  0.9853955589828720
  0.2975419000251347  0.2087908763315632  0.7770270343340421
  0.2921288521956342  0.7659326971709701  0.7447076390280182
  0.2725755993484261  0.4560323804258692  0.5712687526174285
  0.4164036217869523  0.6285519997458539  0.0177831203616603
  0.2949744729600213  0.8724924377660618  0.1856921267957828
  0.6542376479452396  0.4118192967982005  0.1319659379924010
  0.6693723347416328  0.6787079107668138  0.8438350118468332
  0.0158569569265130  0.1860151820436036 -0.0063618505865385
  0.6554361727780655  0.9375693709167144  0.2913864194658999
  0.8322896775912662  0.3827028371971818  0.6299612260213082
  0.1039950119394656  0.2392934755102039  0.9071876081292911
  0.9381090257394390  0.7222170273170415  0.6630513410625344
  0.4238004151781444  0.8019017173266948  0.9142772829084358
  0.6836591779414277  0.9417316721012756  0.6513015481346610
  0.7040878731254746  0.7463192764056331  0.2143788552357151
  0.2042152082424046  0.8712332895110734  0.3594827175662855
  0.7908379467114058  0.1704864143581028  0.2922001895952719
  0.3207414147991238  0.9828179757641259  0.9625330014952790
  0.6085305185728351  0.1733141364067979  0.4413705027243620
  0.3731043909743811  0.3228548067289221  0.0780263459787875
  0.6756937093226495  0.1756048355500735  0.8454622301578105
  0.4694304942839348  0.1588765665214450  0.6549018238139733
  0.0246670358493276  0.7522630358355944  0.2637713719821576
  0.9812383303055735  0.7871044155652742  0.8992365378994913
  0.4908015344214627  0.0106676753769441  0.8624544583725740
  0.7409392513449123  0.8309429103432481  0.3085430324196479
  0.2758004378080523  0.6276868988752484  0.9209209366335356
  0.5896291957847821  0.3193770108674775  0.7582842402040041
  0.1556905190702316  0.8747943230214297  0.6871325394401441
  0.4949810312646927  0.6270590858016128  0.1339882355704001
  0.2534920324064729  0.9727080407296937  0.5776658643145575
  0.9902997640194880  0.2723425015810388  0.0936826278190261
  0.9940498027281840  0.5344577605926240  0.5442444872142143
  0.7384725415945378  0.3610657226624740  0.8034294842358566
  0.0839037765697586  0.0001726072748261  0.1982676838891262
  0.1218165441922359  0.3583912002546667  0.3126397997573017
  0.6894339744207273  0.5208685268801398  0.5844847819602603
  0.8015432887367863  0.7262744287547547  0.6782184276449271
  0.7269346575280786  0.0402716493031213  0.2427373785970055
  0.7087060442096752  0.0725088810312201  0.4674019436792741
  0.4227771680572863  0.7200394822051748  0.2081395932167760
  0.8029277519268695  0.2396942283389166  0.5518289598778886
  0.0150849487706295  0.7565053940798865  0.0269800598011335
  0.4836663644589546  0.2086804980592952  0.9815875446418562
  0.9543949607766180  0.7856129610605730  0.1463332667710562
  0.0514289485368591  0.7729289461271704  0.5188666538630640
  0.3503389204676270  0.2354830197012022  0.9704582834643559
  0.1386830898782888  0.6260475874991567  0.0714265432072822
  0.7974651012322762  0.9025983904438180  0.4587626222641969
  0.5646778731415432  0.9825420083064776  0.7066571419270862
  0.3469885783667365  0.4855256914587567  0.7471045146522035
  0.9866938942602889  0.8962707071700730  0.5742604356668874
  0.6724287491906653  0.3850155591196996  0.4100308952331784
  0.2527268789274993  0.6423963828527999  0.7805186034999285
  0.0192063256009201  0.6457876253714977  0.4678757134710966
  0.7334389725251423  0.8814785828942702  0.8887305501198497
  0.1053051500283489  0.4997077655878978  0.7088833055664890
  0.3371479346445439  0.7428535107751669  0.0017648350841837
  0.3819087450952499  0.3812483979593124  0.4034359678419775
  0.0782499443259353  0.8291853829772277  0.8116989280718168
  0.8311404028855963  0.6805769370667698  0.4515654775604532
  0.7406505261205205  0.6154241916878552  0.2141947737648995
  0.4298622982415934  0.0922258808997541  0.3257507946497680
  0.9151964329653333  0.7537536089081275  0.5339391044975645
  0.0245259599099675  0.2914211217971749  0.4135254511128593
  0.9354584842071152  0.2786963704198349  0.2788671162553842
  0.9599200996467824  0.5153060104039882  0.9827305849272790
  0.4774000773907294  0.2816564368170230  0.4581004140182880
  0.6663285857278993  0.3541645823467571  0.9203062774249465
  0.5738416427592792  0.8842769927088092  0.2014160701653295
  0.7446582304372888  0.1005001597304708  0.0480259090138199
  0.5532622945672744  0.4959589716192941  0.5656879459406906
  0.0515098135799304  0.3215104312682498  0.7186385016091607
  0.9818745335639518  0.1543383507541244  0.3198269296325987
  0.6053309638559969  0.7153170424635775  0.5418832593840396
  0.9012409753175988  0.0896088326864728  0.0969145870407388
  0.5407434961231808  0.7378945606624727  0.9059998658102733
  0.2246950508364032  0.3385763967272638  0.6532741679220954
  0.3690142511331672  0.3179527979720540  0.6599308549564109
  0.3808157297055376  0.5208553657613136  0.3822847973390116
  0.5712462376429752  0.5376986879129905  0.9653986400193504
  0.1828573490752718  0.7886011514858703  0.1601399470151230
  0.5298751402165531  0.1644226204290119  0.1017205946280619
  0.8556204717860472  0.0643735602272019  0.8746622353015521
  0.2018929243351982  0.9555277311790972  0.7881753961381069
  0.4615971029880240  0.3490281954792665  0.1814870733437070
  0.7172574001018596  0.0730678078572360  0.6643542251967387
  0.0138923668565585  0.9289831085034205  0.3562857968822123
  0.2383851931109153  0.4029283572612710  0.2622439493803151
  0.4899200858023198  0.0361168576350711  0.0986053615653465
  0.4720450636897789  0.7889181026637708  0.6111783138939824
  0.3219020890781155  0.4482888835930751  0.0933896433069317
  0.7861765996688781  0.5581892323755312  0.3933081507087163
  0.1781104364697708  0.3130680141011808  0.0939158409245122
  0.3853082135797469  0.9123969318560169  0.7242437163166786
  0.3516185356055808  0.5335688597128645  0.1876216413158818
  0.4050881337037729  0.8073534995577814  0.7876841585817754
  0.0149180432182912  0.1262271653309436  0.6364255558314863
  0.8987582201013279  0.8921745438456451  0.1970907678409508
  0.1393795439372948  0.0658138649908472  0.7994627594273684
  0.7497939228575045  0.8133454302486232  0.1137597770948741
  0.9570325296892777  0.9787823777589921  0.8619134646643221
  0.7611476566157740  0.1605693933388516  0.7490741761859719
  0.3191274840824435  0.0058909688076236  0.7693465164961456
  0.3161413280217330  0.1198959145461645  0.4249669978707903
  0.1216112559544917  0.0991641994577757  0.4249553540359797
  0.4266776724212165  0.3218739240758169  0.7770010863981748
  0.6230679699360788  0.6453147791205543  0.0214727435564367
  0.4746610708928067  0.2752729618068399  0.5922203347417994
  0.4813880577854247  0.9218916729549418  0.2804754096356168
  0.7724458722940138  0.4949116252001831  0.9428743429406893
  0.5883066709176628  0.2836662889926747 -0.0060972012444544
  0.1733048856370097  0.5338762542123399  0.4701918232931238
  0.7436581779616994  0.8393053342787921  0.7143897702980782
  0.7279998623287478  0.0799599745666760  0.9150026192082813
  0.2855601638147441  0.8696942497470557  0.6633798174434919
  0.9558860313841143  0.4007701990895267  0.2267626359096177
  0.0494118054312818  0.4608352748869683  0.2769043699662646
  0.4626572838213888  0.9277842915145401  0.6305149270082481
  0.1502035634719956  0.7583279206277745  0.0330250876121741
  0.3337344641981590  0.3138621802057369  0.8582091167057703
  0.6666701426252691  0.9903078789400946  0.8589413299765433
  0.8933970397309784  0.2176543717913115  0.1583325489430800
  0.0122204872144017  0.2964002064527714  0.8423942023074021
  0.3466124253584585  0.5187837938739229  0.9836722183490691
  0.7215390485933260  0.7011687694675077  0.9690067252033659
  0.4683198488641113  0.5204564344980739  0.2111804902318160
  0.0388090235365386  0.0906918861938031  0.0763888626925270
  0.1745462298140858  0.2372697004801835  0.7267776011400154
  0.8423993590916597  0.5789277077327755  0.9891297260466146
  0.7996445976433449  0.0597157988350204  0.3738817295411129
  0.0840213529140161  0.8182007515517697  0.3963568009667794
  0.1575646184582010  0.5783588765867458  0.9381803134034318
  0.9589026290157440  0.3955034705177182  0.1046323899251674
  0.3232575932701164  0.6437088944319399  0.1501042497712544
  0.5446630419238546  0.3754666782621291  0.0647951320516326
  0.9615700614077680 -0.0177925086624745  0.4721072234373416
  0.2374387711493574  0.9372358002460893  0.0825318666675982
  0.1331561972265238  0.0031512197704414  0.3478885779986474
  0.0057904361080843  0.5207642092256911  0.8516959646277503
  0.3939999114448305  0.4432080818059551  0.6252068611945578
  0.0485307207823894  0.0618588610707279  0.8849718441591733
  0.5562589516700394  0.7476304867238908  0.0417001857594427
  0.8036095672001753  0.6695171247665208  0.7968766569558406
  0.1274605647952330  0.6315297518894152  0.7443614544596422
  0.7579544946147480  0.4645980504460605  0.4837424228920186
  0.5028149211566705  0.4058384117711172  0.8141111012992793
  0.0828981666051489  0.3498841696482148  0.5166959406029336
  0.7390197117920836  0.4038581067742228  0.0226664826081351
  0.6935250811914981  0.2828231970512139  0.1637742759460029
  0.6769129372438284  0.5352795766781939  0.8772486885802272
  0.6557972952942387  0.1590949547130100  0.3109366090131191
  0.3728068371773924  0.0768338890385460  0.0432000336723748
  0.1078634155397534  0.1961290888991759  0.3515223379545329
  0.2053493736772204  0.0775628602979256  0.9801126174575043
  0.7603910913388420  0.2628739699584006  0.8967039821197672
  0.3334596478945162  0.7649452429351860  0.6162068905000663
  0.5884825488092472  0.0899158451051320  0.6284110580922297
  0.0814727337054221  0.8666718036805519  0.1933578089862881
  0.6813527443242895  0.9459211030150677  0.5174860549271311
  0.0045180959015262  0.9289524560486433  0.7620846600211714
  0.9336743384390302  0.6544779263689791  0.3623157559147032
  0.3389264918919300  0.0048387157363491  0.3864020236586427
  0.6330693090828288  0.5881496933443974  0.1323670915830514
  0.8918945620883815  0.1565056536469075  0.9683908940341267
  0.7540804749932972  0.4735766909087318  0.6855712622420025
  0.6825640129268510  0.2691301636007973  0.4910183468297981
  0.3432828044126672  0.3332456065375382  0.2861313224589249
  0.7398194864108839  0.7786558820512978  0.4281138345522205
  0.6802700422956354  0.5814656530801180  0.3290398328461069
  0.1328484071462112  0.6862157038151689  0.2208322532972066
  0.1234490067599121  0.9787574287740847  0.6066905391626651
  0.1487320985893314  0.3402844968348513  0.9805034495372268
  0.4009337964270586  0.8424926454780283  0.3252939271910539
  0.5533941728070451  0.9663657418532677  0.3696201619003622
  0.7544064871225193  0.2614497443198279  0.6778123554379167
  0.4977175909430063  0.2188350956329332  0.7766839289303116
  0.8654115324226538  0.4785285433255612  0.2468090292238468
  0.9834390545242074  0.2405754014627453  0.6287305300636915
  0.1704781808908834  0.8876043412102746  0.8925458234272490
  0.2860789697931901  0.0747831611746401  0.6735746641859556
  0.0041366085792038  0.6266963893765629  0.0543351572755366
  0.6559221878219259  0.8191876081404623  0.8002724798249053
  0.3923672930112962  0.8112128245491197  0.1138260096826018
  0.4173625718753144  0.0073211354857376  0.2161440666405822
  0.3682274369772993  0.0758390305709410  0.8556446375250070
  0.2747627517936758  0.3557586444572284  0.4765839975824027
  0.4547704823426861  0.9199373993762351  0.9583901854575632
  0.4952731354273909  0.7484139048327172  0.7327098266698167
  0.3113887589960340  0.1598596666462556  0.3134123309448181
  0.5317107087351391  0.6205678346350588  0.5121068986598710
  0.8721766798016832  0.8475036423200392  0.3090013553141997
  0.5430159850983103  0.0945036064528141  0.9555547577226622
  0.1964168966177462  0.4326934178443131  0.1312978068835170
  0.2169621747187895  0.4336742636179924  0.7489116199204442
  0.8764477476022533  0.1243458339480742  0.7637304252816876
  0.2607792345511754  0.8530939017144081  0.4716494545843475
  0.1218464210494021  0.6119863926811215  0.3935251749998034
  0.8251742533816014  0.2893520516300946  0.3420719219293499
  0.2808849220015865  0.5264518335278136  0.2904103273026572
  0.5672475525982171  0.3447885281222152  0.6306964759905572
  0.9316219333973268  0.4059001283715581  0.7096460412759530
  0.5552011534212590  0.4265877050385537  0.4533342409069686
  0.3186671695582008  0.5947110660929994  0.6835767406217315
  0.6547005230529068  0.0309416721912439  0.1195412169126404
  0.9514628139823504  0.0027432286424390  0.2196787737751339
  0.2748061146290651  0.2536741003147670  0.1322773346351559
  0.2166741051265825  0.1248234744753291  0.4962160660259962
  0.2950437991580694  0.5593737342345908  0.4821561375890989
  0.4828911244793233  0.6173643763183470  0.9007977483234015
  0.9446184242574428  0.1828228732345880  0.4470515243833353
  0.5785116406894125  0.7618091388603309  0.2380174742724937
  0.1232965114897488  0.5639367005911334  0.5782610794884115
  0.7940190800956244  0.9272550192342027  0.1445205960477567
  0.8420805223387965  0.4261480429220165  0.8724850837956889
  0.9439305971846024  0.9050208704685339  0.9556675173607307
  0.7934572923556178  0.1037328766490556  0.5622551135929467
  0.0975498550633769  0.2590613961911238  0.1655615898345726
  0.8438583322674710  0.7375331004265115  0.0938862357564895
  0.8501654744080663  0.8612866888252394  0.5763412199510592
  0.4057393707281706  0.1621738118302191  0.4911712083369628
  0.8355041935628088  0.8772268335195761  0.7855142762304109
  0.9512961609718225  0.5934693390872772  0.6550769896552422
  0.7129020231727052  0.6536360038215661  0.5981062867066473
  0.4966739189655041  0.2203739116899063  0.2155465532824622
 
  0.00000000E+00  0.00000000E+00  0.00000000E+00
  0.00000000E+00  0.00000000E+00  0.00000000E+00
  0.00000000E+00  0.00000000E+00  0.00000000E+00
  0.00000000E+00  0.00000000E+00  0.00000000E+00
  0.00000000E+00  0.00000000E+00  0.00000000E+00
  0.00000000E+00  0.00000000E+00  0.00000000E+00
  0.00000000E+00  0.00000000E+00  0.00000000E+00
  0.00000000E+00  0.00000000E+00  0.00000000E+00
  0.00000000E+00  0.00000000E+00  0.00000000E+00
  0.00000000E+00  0.00000000E+00  0.00000000E+00
  0.00000000E+00  0.00000000E+00  0.00000000E+00
  0.00000000E+00  0.00000000E+00  0.00000000E+00
  0.00000000E+00  0.00000000E+00  0.00000000E+00
  0.00000000E+00  0.00000000E+00  0.00000000E+00
  0.00000000E+00  0.00000000E+00  0.00000000E+00
  0.00000000E+00  0.00000000E+00  0.00000000E+00
  0.00000000E+00  0.00000000E+00  0.00000000E+00
  0.00000000E+00  0.00000000E+00  0.00000000E+00
  0.00000000E+00  0.00000000E+00  0.00000000E+00
  0.00000000E+00  0.00000000E+00  0.00000000E+00
  0.00000000E+00  0.00000000E+00  0.00000000E+00
  0.00000000E+00  0.00000000E+00  0.00000000E+00
  0.00000000E+00  0.00000000E+00  0.00000000E+00
  0.00000000E+00  0.00000000E+00  0.00000000E+00
  0.00000000E+00  0.00000000E+00  0.00000000E+00
  0.00000000E+00  0.00000000E+00  0.00000000E+00
  0.00000000E+00  0.00000000E+00  0.00000000E+00
  0.00000000E+00  0.00000000E+00  0.00000000E+00
  0.00000000E+00  0.00000000E+00  0.00000000E+00
  0.00000000E+00  0.00000000E+00  0.00000000E+00
  0.00000000E+00  0.00000000E+00  0.00000000E+00
  0.00000000E+00  0.00000000E+00  0.00000000E+00
  0.00000000E+00  0.00000000E+00  0.00000000E+00
  0.00000000E+00  0.00000000E+00  0.00000000E+00
  0.00000000E+00  0.00000000E+00  0.00000000E+00
  0.00000000E+00  0.00000000E+00  0.00000000E+00
  0.00000000E+00  0.00000000E+00  0.00000000E+00
  0.00000000E+00  0.00000000E+00  0.00000000E+00
  0.00000000E+00  0.00000000E+00  0.00000000E+00
  0.00000000E+00  0.00000000E+00  0.00000000E+00
  0.00000000E+00  0.00000000E+00  0.00000000E+00
  0.00000000E+00  0.00000000E+00  0.00000000E+00
  0.00000000E+00  0.00000000E+00  0.00000000E+00
  0.00000000E+00  0.00000000E+00  0.00000000E+00
  0.00000000E+00  0.00000000E+00  0.00000000E+00
  0.00000000E+00  0.00000000E+00  0.00000000E+00
  0.00000000E+00  0.00000000E+00  0.00000000E+00
  0.00000000E+00  0.00000000E+00  0.00000000E+00
  0.00000000E+00  0.00000000E+00  0.00000000E+00
  0.00000000E+00  0.00000000E+00  0.00000000E+00
  0.00000000E+00  0.00000000E+00  0.00000000E+00
  0.00000000E+00  0.00000000E+00  0.00000000E+00
  0.00000000E+00  0.00000000E+00  0.00000000E+00
  0.00000000E+00  0.00000000E+00  0.00000000E+00
  0.00000000E+00  0.00000000E+00  0.00000000E+00
  0.00000000E+00  0.00000000E+00  0.00000000E+00
  0.00000000E+00  0.00000000E+00  0.00000000E+00
  0.00000000E+00  0.00000000E+00  0.00000000E+00
  0.00000000E+00  0.00000000E+00  0.00000000E+00
  0.00000000E+00  0.00000000E+00  0.00000000E+00
  0.00000000E+00  0.00000000E+00  0.00000000E+00
  0.00000000E+00  0.00000000E+00  0.00000000E+00
  0.00000000E+00  0.00000000E+00  0.00000000E+00
  0.00000000E+00  0.00000000E+00  0.00000000E+00
  0.00000000E+00  0.00000000E+00  0.00000000E+00
  0.00000000E+00  0.00000000E+00  0.00000000E+00
  0.00000000E+00  0.00000000E+00  0.00000000E+00
  0.00000000E+00  0.00000000E+00  0.00000000E+00
  0.00000000E+00  0.00000000E+00  0.00000000E+00
  0.00000000E+00  0.00000000E+00  0.00000000E+00
  0.00000000E+00  0.00000000E+00  0.00000000E+00
  0.00000000E+00  0.00000000E+00  0.00000000E+00
  0.00000000E+00  0.00000000E+00  0.00000000E+00
  0.00000000E+00  0.00000000E+00  0.00000000E+00
  0.00000000E+00  0.00000000E+00  0.00000000E+00
  0.00000000E+00  0.00000000E+00  0.00000000E+00
  0.00000000E+00  0.00000000E+00  0.00000000E+00
  0.00000000E+00  0.00000000E+00  0.00000000E+00
  0.00000000E+00  0.00000000E+00  0.00000000E+00
  0.00000000E+00  0.00000000E+00  0.00000000E+00
  0.00000000E+00  0.00000000E+00  0.00000000E+00
  0.00000000E+00  0.00000000E+00  0.00000000E+00
  0.00000000E+00  0.00000000E+00  0.00000000E+00
  0.00000000E+00  0.00000000E+00  0.00000000E+00
  0.00000000E+00  0.00000000E+00  0.00000000E+00
  0.00000000E+00  0.00000000E+00  0.00000000E+00
  0.00000000E+00  0.00000000E+00  0.00000000E+00
  0.00000000E+00  0.00000000E+00  0.00000000E+00
  0.00000000E+00  0.00000000E+00  0.00000000E+00
  0.00000000E+00  0.00000000E+00  0.00000000E+00
  0.00000000E+00  0.00000000E+00  0.00000000E+00
  0.00000000E+00  0.00000000E+00  0.00000000E+00
  0.00000000E+00  0.00000000E+00  0.00000000E+00
  0.00000000E+00  0.00000000E+00  0.00000000E+00
  0.00000000E+00  0.00000000E+00  0.00000000E+00
  0.00000000E+00  0.00000000E+00  0.00000000E+00
  0.00000000E+00  0.00000000E+00  0.00000000E+00
  0.00000000E+00  0.00000000E+00  0.00000000E+00
  0.00000000E+00  0.00000000E+00  0.00000000E+00
  0.00000000E+00  0.00000000E+00  0.00000000E+00
  0.00000000E+00  0.00000000E+00  0.00000000E+00
  0.00000000E+00  0.00000000E+00  0.00000000E+00
  0.00000000E+00  0.00000000E+00  0.00000000E+00
  0.00000000E+00  0.00000000E+00  0.00000000E+00
  0.00000000E+00  0.00000000E+00  0.00000000E+00
  0.00000000E+00  0.00000000E+00  0.00000000E+00
  0.00000000E+00  0.00000000E+00  0.00000000E+00
  0.00000000E+00  0.00000000E+00  0.00000000E+00
  0.00000000E+00  0.00000000E+00  0.00000000E+00
  0.00000000E+00  0.00000000E+00  0.00000000E+00
  0.00000000E+00  0.00000000E+00  0.00000000E+00
  0.00000000E+00  0.00000000E+00  0.00000000E+00
  0.00000000E+00  0.00000000E+00  0.00000000E+00
  0.00000000E+00  0.00000000E+00  0.00000000E+00
  0.00000000E+00  0.00000000E+00  0.00000000E+00
  0.00000000E+00  0.00000000E+00  0.00000000E+00
  0.00000000E+00  0.00000000E+00  0.00000000E+00
  0.00000000E+00  0.00000000E+00  0.00000000E+00
  0.00000000E+00  0.00000000E+00  0.00000000E+00
  0.00000000E+00  0.00000000E+00  0.00000000E+00
  0.00000000E+00  0.00000000E+00  0.00000000E+00
  0.00000000E+00  0.00000000E+00  0.00000000E+00
  0.00000000E+00  0.00000000E+00  0.00000000E+00
  0.00000000E+00  0.00000000E+00  0.00000000E+00
  0.00000000E+00  0.00000000E+00  0.00000000E+00
  0.00000000E+00  0.00000000E+00  0.00000000E+00
  0.00000000E+00  0.00000000E+00  0.00000000E+00
  0.00000000E+00  0.00000000E+00  0.00000000E+00
  0.00000000E+00  0.00000000E+00  0.00000000E+00
  0.00000000E+00  0.00000000E+00  0.00000000E+00
  0.00000000E+00  0.00000000E+00  0.00000000E+00
  0.00000000E+00  0.00000000E+00  0.00000000E+00
  0.00000000E+00  0.00000000E+00  0.00000000E+00
  0.00000000E+00  0.00000000E+00  0.00000000E+00
  0.00000000E+00  0.00000000E+00  0.00000000E+00
  0.00000000E+00  0.00000000E+00  0.00000000E+00
  0.00000000E+00  0.00000000E+00  0.00000000E+00
  0.00000000E+00  0.00000000E+00  0.00000000E+00
  0.00000000E+00  0.00000000E+00  0.00000000E+00
  0.00000000E+00  0.00000000E+00  0.00000000E+00
  0.00000000E+00  0.00000000E+00  0.00000000E+00
  0.00000000E+00  0.00000000E+00  0.00000000E+00
  0.00000000E+00  0.00000000E+00  0.00000000E+00
  0.00000000E+00  0.00000000E+00  0.00000000E+00
  0.00000000E+00  0.00000000E+00  0.00000000E+00
  0.00000000E+00  0.00000000E+00  0.00000000E+00
  0.00000000E+00  0.00000000E+00  0.00000000E+00
  0.00000000E+00  0.00000000E+00  0.00000000E+00
  0.00000000E+00  0.00000000E+00  0.00000000E+00
  0.00000000E+00  0.00000000E+00  0.00000000E+00
  0.00000000E+00  0.00000000E+00  0.00000000E+00
  0.00000000E+00  0.00000000E+00  0.00000000E+00
  0.00000000E+00  0.00000000E+00  0.00000000E+00
  0.00000000E+00  0.00000000E+00  0.00000000E+00
  0.00000000E+00  0.00000000E+00  0.00000000E+00
  0.00000000E+00  0.00000000E+00  0.00000000E+00
  0.00000000E+00  0.00000000E+00  0.00000000E+00
  0.00000000E+00  0.00000000E+00  0.00000000E+00
  0.00000000E+00  0.00000000E+00  0.00000000E+00
  0.00000000E+00  0.00000000E+00  0.00000000E+00
  0.00000000E+00  0.00000000E+00  0.00000000E+00
  0.00000000E+00  0.00000000E+00  0.00000000E+00
  0.00000000E+00  0.00000000E+00  0.00000000E+00
  0.00000000E+00  0.00000000E+00  0.00000000E+00
  0.00000000E+00  0.00000000E+00  0.00000000E+00
  0.00000000E+00  0.00000000E+00  0.00000000E+00
  0.00000000E+00  0.00000000E+00  0.00000000E+00
  0.00000000E+00  0.00000000E+00  0.00000000E+00
  0.00000000E+00  0.00000000E+00  0.00000000E+00
  0.00000000E+00  0.00000000E+00  0.00000000E+00
  0.00000000E+00  0.00000000E+00  0.00000000E+00
  0.00000000E+00  0.00000000E+00  0.00000000E+00
  0.00000000E+00  0.00000000E+00  0.00000000E+00
  0.00000000E+00  0.00000000E+00  0.00000000E+00
  0.00000000E+00  0.00000000E+00  0.00000000E+00
  0.00000000E+00  0.00000000E+00  0.00000000E+00
  0.00000000E+00  0.00000000E+00  0.00000000E+00
  0.00000000E+00  0.00000000E+00  0.00000000E+00
  0.00000000E+00  0.00000000E+00  0.00000000E+00
  0.00000000E+00  0.00000000E+00  0.00000000E+00
  0.00000000E+00  0.00000000E+00  0.00000000E+00
  0.00000000E+00  0.00000000E+00  0.00000000E+00
  0.00000000E+00  0.00000000E+00  0.00000000E+00
  0.00000000E+00  0.00000000E+00  0.00000000E+00
  0.00000000E+00  0.00000000E+00  0.00000000E+00
  0.00000000E+00  0.00000000E+00  0.00000000E+00
  0.00000000E+00  0.00000000E+00  0.00000000E+00
  0.00000000E+00  0.00000000E+00  0.00000000E+00
  0.00000000E+00  0.00000000E+00  0.00000000E+00
  0.00000000E+00  0.00000000E+00  0.00000000E+00
  0.00000000E+00  0.00000000E+00  0.00000000E+00
  0.00000000E+00  0.00000000E+00  0.00000000E+00
  0.00000000E+00  0.00000000E+00  0.00000000E+00
  0.00000000E+00  0.00000000E+00  0.00000000E+00
  0.00000000E+00  0.00000000E+00  0.00000000E+00
  0.00000000E+00  0.00000000E+00  0.00000000E+00
  0.00000000E+00  0.00000000E+00  0.00000000E+00
  0.00000000E+00  0.00000000E+00  0.00000000E+00
  0.00000000E+00  0.00000000E+00  0.00000000E+00
  0.00000000E+00  0.00000000E+00  0.00000000E+00
  0.00000000E+00  0.00000000E+00  0.00000000E+00
  0.00000000E+00  0.00000000E+00  0.00000000E+00
  0.00000000E+00  0.00000000E+00  0.00000000E+00
  0.00000000E+00  0.00000000E+00  0.00000000E+00
  0.00000000E+00  0.00000000E+00  0.00000000E+00
  0.00000000E+00  0.00000000E+00  0.00000000E+00
  0.00000000E+00  0.00000000E+00  0.00000000E+00
  0.00000000E+00  0.00000000E+00  0.00000000E+00
  0.00000000E+00  0.00000000E+00  0.00000000E+00
  0.00000000E+00  0.00000000E+00  0.00000000E+00
  0.00000000E+00  0.00000000E+00  0.00000000E+00
  0.00000000E+00  0.00000000E+00  0.00000000E+00
  0.00000000E+00  0.00000000E+00  0.00000000E+00
  0.00000000E+00  0.00000000E+00  0.00000000E+00
  0.00000000E+00  0.00000000E+00  0.00000000E+00
  0.00000000E+00  0.00000000E+00  0.00000000E+00
  0.00000000E+00  0.00000000E+00  0.00000000E+00
  0.00000000E+00  0.00000000E+00  0.00000000E+00
  0.00000000E+00  0.00000000E+00  0.00000000E+00
  0.00000000E+00  0.00000000E+00  0.00000000E+00
  0.00000000E+00  0.00000000E+00  0.00000000E+00
  0.00000000E+00  0.00000000E+00  0.00000000E+00
  0.00000000E+00  0.00000000E+00  0.00000000E+00
  0.00000000E+00  0.00000000E+00  0.00000000E+00
  0.00000000E+00  0.00000000E+00  0.00000000E+00
  0.00000000E+00  0.00000000E+00  0.00000000E+00
  0.00000000E+00  0.00000000E+00  0.00000000E+00
  0.00000000E+00  0.00000000E+00  0.00000000E+00
  0.00000000E+00  0.00000000E+00  0.00000000E+00
  0.00000000E+00  0.00000000E+00  0.00000000E+00
  0.00000000E+00  0.00000000E+00  0.00000000E+00
  0.00000000E+00  0.00000000E+00  0.00000000E+00
  0.00000000E+00  0.00000000E+00  0.00000000E+00
  0.00000000E+00  0.00000000E+00  0.00000000E+00
  0.00000000E+00  0.00000000E+00  0.00000000E+00
  0.00000000E+00  0.00000000E+00  0.00000000E+00
  0.00000000E+00  0.00000000E+00  0.00000000E+00
  0.00000000E+00  0.00000000E+00  0.00000000E+00
  0.00000000E+00  0.00000000E+00  0.00000000E+00
  0.00000000E+00  0.00000000E+00  0.00000000E+00
