EAM refine                              
   1.00000000000000     
    18.5599999999999987    0.0000000000000000    0.0000000000000000
     0.0000000000000000   18.5599999999999987    0.0000000000000000
     0.0000000000000000    0.0000000000000000   18.5599999999999987
   Ge   Te
   100   100
Direct
  0.5127283704071417  0.8111121657337172  0.9107686252769382
  0.5716229226703312  0.1220935214697946 -0.0142199150188600
  0.5475456751304173  0.6386349175543712  0.5538173652704952
  0.6591453896507711  0.3604013260037239  0.9019980295146345
  0.5822519845214046  0.1983812251836492  0.2151619739430834
  0.0830388397040377  0.1876904518458230  0.5284826918097800
  0.0992016770894479  0.9722531730777276  0.0121142111551278
  0.8668422098052152  0.4802329375083152  0.4578051568424168
  0.7435350331653918  0.5725910858922676  0.6595399675019824
  0.2226713693564566  0.9090038387815005  0.2620192750467959
  0.4087091818638467  0.7369280572560953  0.4146316335310308
  0.9070831326344279  0.5292651292274101  0.8231920927602598
  0.5953864536900972  0.8562021497324734  0.8011136828916728
  0.5431431414209945  0.9931168449691683  0.6556042085039575
  0.9286551953210892  0.1202475571259995  0.3503976244314972
  0.7152643106334591  0.0564327868402038  0.7402506090588706
  0.9763441755654529  0.8009276434378324  0.1347350293523774
  0.5123921099189090  0.5551501593510416  0.0570496724323290
  0.7797624968682291  0.7815560270358262  0.6003090834554747
  0.2872792124632412  0.3036828675377950  0.3207147241081742
  0.8574879173316069  0.3278023836402874  0.3092305649314457
  0.7648827623656933  0.5695114093954061  0.1770930218858826
  0.5294216008251690  0.4297792768101892  0.6343192902167285
  0.4062277851132886  0.3679408013299675  0.4547010525315550
  0.9325369970528886  0.7010681154839908  0.2272893520790232
  0.3767415310849607  0.4657063596704529  0.2605557551144217
  0.4998697888886485  0.1735488936771050  0.5177278035556954
  0.0852643679707294  0.8405005672700079  0.3063660914758080
  0.1641443768044270  0.3933665855536562  0.2205997533022022
  0.9858201831448712  0.9278403242326599  0.9018037237921454
  0.3818718867600677  0.6327889591133183  0.7156580089509907
  0.4807417871357094  0.6744594809614103  0.2302334235024553
  0.2806515342300672  0.3109660319289421  0.8795422747504650
  0.9079729610135236  0.0067102319385255  0.7074014322261368
  0.9476064071251437  0.0969551581394662  0.1027356402188472
  0.1691540834564899  0.9357979311989226  0.1310983357107671
  0.4676168310543948  0.9186547260748843  0.5535065774889456
  0.6590401833956784  0.4114714806472988  0.2729630339862233
  0.3069654895058753  0.1161346696580043  0.2011217228401561
  0.3464522969690243  0.8785027568477113  0.2031677757974387
  0.5327511034690495  0.9869722353712169  0.1502736710367082
  0.8112013390792477  0.5000905225575119  0.9552125992731879
  0.5528903171398883  0.4438347490611474  0.3727654079995535
  0.0404787074689156  0.6320325237683593  0.0022508989550993
  0.1915126908524928  0.1088465273949426  0.7349592235914612
  0.1387996509802373  0.1689181875159806  0.9641873166131270
  0.1694121582040517  0.7988801142110060  0.1090331181858528
  0.6336942552653921  0.8312134435143971  0.4512664751198550
  0.9889093412220360  0.3897983044349422  0.6137324108494159
  0.5846832209669995  0.2364551893831569  0.6218935186491358
  0.1079606118128612  0.4478011846098632  0.8138622761838323
  0.1280351612742366  0.9919948153788251  0.7877347881108953
  0.8202274528192290  0.9140233156878207  0.5795560583319962
  0.4635756034078949  0.3056288610764334  0.0566801026428945
  0.7755927077938061  0.8139638093028437  0.8993052540425363
  0.3474748915998558  0.2149376646572167  0.6341542165326518
  0.9732884248231196  0.7542817034652629  0.8478823579656410
  0.6570225343196791  0.4100840044308129  0.0508486430421262
  0.1722304158653856  0.1217310484802795  0.3972401467063261
  0.9444288143191349  0.3053509281191679  0.0800139171448852
  0.8485558162887300  0.4643678557072576  0.2225236827555463
  0.3735791950786126  0.8439846575808485  0.7549657153190852
  0.4519676604032579  0.0587219048056982  0.0605165601672339
  0.1335796732862488  0.4316597803401688  0.0264004098433431
  0.0208194266724244  0.5900191781094452  0.1553872018771387
  0.1751509095417615  0.5605044056101172  0.7236225274951333
  0.1495150698939875  0.2394169499212980  0.7331401088620112
  0.0157711613004524  0.3898772548624435  0.4580136844223530
  0.2089366555299515  0.2111012038731393  0.1619592429454419
  0.3408718228090137  0.5086442718231525  0.4712851487811455
  0.9631681988327689  0.6843632968227018  0.4436501128700899
  0.0435324323246059  0.6805785793989251  0.6413818159046984
  0.5109724430396275  0.7621665684536129  0.1221372513048281
  0.3041164306336673  0.5536615137764421  0.9171699020851377
  0.7740606777046058  0.5645213478809818  0.5255617118705386
  0.8081909843555780  0.3571528288560431  0.7280565946846199
  0.0154738196949928  0.5487694057645817  0.2928565381458863
  0.1099407663765521  0.7588430138640365  0.7869698709236747
  0.0925847163906754  0.8836386325672732  0.6325561508272699
  0.8110659312537473  0.1420573404528135  0.1784382379268493
  0.7850090718736233  0.2165184684734925  0.0288713017852033
  0.7942912794385749  0.7437914937187781  0.0235285757905949
  0.0004069541737902  0.9539692009438558  0.4772433866253147
  0.6958561580611975  0.6465556987829313  0.3559833591796733
  0.7753136050372311  0.0226392748370145  0.8619045406138778
  0.7995187978246616  0.2423909862926660  0.8104579225635935
  0.3057338134906034  0.8209732533944760  0.5764969695466308
  0.3920265428835883  0.8198852319216391  0.0851787169377924
  0.6878801309671146  0.1361960432937943  0.3918033287434634
  0.7888135122259706  0.6923234738034949  0.7043670030241097
  0.7909941803363042  0.4889146309124769  0.7558872417483874
  0.1411200082841380  0.3874088822103208  0.6128829326551245
  0.2006337592739385  0.7317656857154267  0.5594795979240139
  0.0876658916054162  0.5143040105704336  0.4832018158185259
  0.7715721109841344  0.0226420207397394  0.3839118902960165
  0.8516920039431441  0.2113289084625467  0.5440058239188562
  0.4412074352472702  0.0103302310789717  0.3868402582038814
  0.2600517086590858  0.7136276452364337  0.9023031492624755
  0.2530607629618686  0.9953964489119558  0.5179572751017434
  0.3608475689759979  0.1061880734920180  0.9241131999694058
  0.5589677907498454  0.7057400739715528 -0.0003052233784146
  0.1475155025503383  0.3174382921812496  0.4842279128545885
  0.7055850293773315  0.5553948699088770  0.0456156586768148
  0.2977794638186372  0.3314660602238342  0.1732027119092598
  0.4797261609334340  0.9517976369727509  0.7843487719378501
  0.1496332060010623  0.2322586713064847  0.2978078934809705
  0.3036969902832147  0.5055755674103236  0.7770059999613644
  0.9015365976970184  0.6664016350425754  0.9509497263085165
  0.8517440473338013  0.8648344136099030  0.0873615713157917
  0.4406388047239929  0.1636391883514899  0.1666358025864574
  0.5316588253357822  0.4206775748105634  0.1291952989449022
  0.2445637572349838  0.6943012131807290  0.7002863876025781
  0.4216643521548220  0.0627086108422972  0.5765560861659492
  0.9430682827718089  0.2163108719449474  0.2036416920531544
  0.7550882736030892  0.4029595563436522  0.3905156298527901
  0.9308888204807321  0.2604310649576651  0.4234147370494107
  0.7870500668949080  0.7130156609001715  0.1922524199195738
  0.6409524269582341  0.5579630535970688  0.4666628920613927
  0.4493891172759565  0.5178042612996396  0.9264856177937506
  0.9939579388272144  0.0550961076848084  0.8219217489064484
  0.4282472350860742  0.5317414111293753  0.5932739836676990
  0.2865732458923177  0.6609699104102100  0.4643217370011826
  0.0548696789000511  0.0378840397030421  0.3623311235753121
  0.0972453616228318  0.0975546416226633  0.0942334567148456
  0.5864986807508592  0.7466285759511236  0.3457439485031970
  0.3570553927622529  0.8779981422211535  0.4478108406558743
  0.8862957229921754  0.5863498793365995  0.3504605396651057
  0.4087117978022236  0.7268956395955665  0.8468888611556341
  0.0577983324863185  0.7866544496107977  0.0146545826661583
  0.1568901111011907  0.5234636278956728  0.1340127868800392
  0.7112807987666385  0.1444435853983509  0.9171737744330311
  0.1178448384995102  0.6352709157462834  0.8682912760354985
  0.9744799962054580  0.4126340016652901  0.7603863714144468
  0.1944377225705090  0.8432736429789843  0.8678947547750776
  0.3168478110215118  0.0115639083331139  0.1023679818495009
  0.4648204621076112  0.3575661409019205  0.9155336181717060
  0.4689974304724234  0.9234995361065029  0.2672674212292513
  0.2054857496017184  0.5142480236686050  0.5749673231437549
  0.8373236135616772  0.3648401370452506  0.5873756679999148
  0.9314713330181673  0.4775497223630126  0.1037333354376635
  0.4290105751434393  0.7707079596300410  0.6358300508883356
  0.5410887990336131  0.1399250091230599  0.3786864327733785
  0.9231377058450384  0.1797656663597735 -0.0177254028306214
  0.6753579105798801  0.9234618753171121  0.9103925229930802
  0.2090956759481991  0.1286230127829337  0.5903482288213249
  0.4459310485084330  0.5512188053605575  0.3687954221405698
  0.4637435545207706  0.3020222765313268  0.6878112949341291
  0.7389791919832837  0.2221663029431216  0.2836852832978660
  0.8798724336680972  0.8609531132438929  0.8058800437652313
  0.8840018533727926  0.9844626720515597 -0.0060071326674741
  0.0175137581848125  0.4062199769636057  0.3104772385796449
  0.6992576665766163  0.9337292277304888  0.6674489461023927
  0.0276330761884259  0.4721315033754261  0.9391338630675968
  0.6043478949661144  0.5901496766008614  0.6807459121330851
  0.6408087318762279  0.0644478731700177  0.2013588466546974
  0.8709985183881915  0.0636651040934428  0.4800956502161457
  0.8090436802089106  0.7003199745353188  0.4833947457706707
  0.5453287502620777  0.3637761762438553  0.4992698127888867
  0.9787298450193710  0.5676874646210012  0.5650844171546746
  0.7074073309140350  0.2096877804918124  0.5111865614012522
  0.6045761724978495  0.8708906364344663  0.1111564073270560
  0.2830892131986285  0.7244366223080504  0.0559914027676801
  0.5841115738534586  0.1201467971781745  0.7215324985187869
  0.9414343592345141  0.8002754772837343  0.3364293959579369
  0.2741418524233006  0.0355203164749825  0.3220694670115854
  0.7708964314630344  0.8837112304149771  0.4360603800697179
  0.6901649137717196  0.5009007307253216  0.8588675684726050
  0.8265526340516839  0.1353306393031814  0.6912217850511884
  0.6328277628840444  0.7730183540148293  0.5847231234886140
  0.6025609871786609  0.2424429517902521  0.0667564056753210
  0.4807374705203881  0.1922787591242705  0.8944352395549618
  0.1085331862699051  0.6168467692218488  0.3807238859120960
  0.8054502996369773  0.3438291834270230  0.9410673657516713
  0.9288439346465696  0.6571403447810552  0.7425709340765658
  0.2439926597983012  0.4473946722255651  0.3386161285043466
  0.3996627509934570  0.5921363423820045  0.1410978170158341
  0.2713362557998358  0.4217060351006449  0.9843483383367266
  0.6361063569537244  0.5584984647282284  0.2458556831861806
  0.4535212193074605  0.3422182725257703  0.3176470205217569
  0.4173141495792957  0.9033089885866585  0.9717403446731828
  0.1250175221887102  0.7217822239537026  0.2216710701854622
  0.0243752727568326  0.2428226814534245  0.6563399051641221
  0.0251864783502041  0.0203005317650428  0.6112536634689671
  0.1257037416849220  0.3038817940230323  0.8593372022920774
  0.0312507387637313  0.9227364608320664  0.1915125029753491
  0.7086135262420022  0.7124726818587929  0.8203932155584507
  0.2779921360123447  0.9396563391947856  0.6531891628198239
  0.2808541059591786  0.2122857663762782  0.9950614227244666
  0.8460211284414099  0.0187612903294609  0.2584389325294016
  0.0961283989527285  0.3027684309941737  0.0773788728361390
  0.3241802269345605  0.1420962180510192  0.7800123510618729
  0.2561081641460574  0.3268825114662950  0.6856254802679365
  0.5719545758643488  0.9623612297015031  0.4550404296184353
  0.6730771451480076  0.3022192652979913  0.7533385099500259
  0.1418177792861327  0.8940999368676964  0.4926395638597210
  0.7548189533309905  0.3688776215684976  0.1559627492803737
  0.3541142129503763  0.7394838961848164  0.2754509811382795
  0.9779145189290884  0.7972366007563625  0.5810707045937507
  0.3693123316539943  0.2273110193114647  0.4790214002803027
  0.1937683034744719  0.0336667097676462  0.9161610326351157
 
  0.00000000E+00  0.00000000E+00  0.00000000E+00
  0.00000000E+00  0.00000000E+00  0.00000000E+00
  0.00000000E+00  0.00000000E+00  0.00000000E+00
  0.00000000E+00  0.00000000E+00  0.00000000E+00
  0.00000000E+00  0.00000000E+00  0.00000000E+00
  0.00000000E+00  0.00000000E+00  0.00000000E+00
  0.00000000E+00  0.00000000E+00  0.00000000E+00
  0.00000000E+00  0.00000000E+00  0.00000000E+00
  0.00000000E+00  0.00000000E+00  0.00000000E+00
  0.00000000E+00  0.00000000E+00  0.00000000E+00
  0.00000000E+00  0.00000000E+00  0.00000000E+00
  0.00000000E+00  0.00000000E+00  0.00000000E+00
  0.00000000E+00  0.00000000E+00  0.00000000E+00
  0.00000000E+00  0.00000000E+00  0.00000000E+00
  0.00000000E+00  0.00000000E+00  0.00000000E+00
  0.00000000E+00  0.00000000E+00  0.00000000E+00
  0.00000000E+00  0.00000000E+00  0.00000000E+00
  0.00000000E+00  0.00000000E+00  0.00000000E+00
  0.00000000E+00  0.00000000E+00  0.00000000E+00
  0.00000000E+00  0.00000000E+00  0.00000000E+00
  0.00000000E+00  0.00000000E+00  0.00000000E+00
  0.00000000E+00  0.00000000E+00  0.00000000E+00
  0.00000000E+00  0.00000000E+00  0.00000000E+00
  0.00000000E+00  0.00000000E+00  0.00000000E+00
  0.00000000E+00  0.00000000E+00  0.00000000E+00
  0.00000000E+00  0.00000000E+00  0.00000000E+00
  0.00000000E+00  0.00000000E+00  0.00000000E+00
  0.00000000E+00  0.00000000E+00  0.00000000E+00
  0.00000000E+00  0.00000000E+00  0.00000000E+00
  0.00000000E+00  0.00000000E+00  0.00000000E+00
  0.00000000E+00  0.00000000E+00  0.00000000E+00
  0.00000000E+00  0.00000000E+00  0.00000000E+00
  0.00000000E+00  0.00000000E+00  0.00000000E+00
  0.00000000E+00  0.00000000E+00  0.00000000E+00
  0.00000000E+00  0.00000000E+00  0.00000000E+00
  0.00000000E+00  0.00000000E+00  0.00000000E+00
  0.00000000E+00  0.00000000E+00  0.00000000E+00
  0.00000000E+00  0.00000000E+00  0.00000000E+00
  0.00000000E+00  0.00000000E+00  0.00000000E+00
  0.00000000E+00  0.00000000E+00  0.00000000E+00
  0.00000000E+00  0.00000000E+00  0.00000000E+00
  0.00000000E+00  0.00000000E+00  0.00000000E+00
  0.00000000E+00  0.00000000E+00  0.00000000E+00
  0.00000000E+00  0.00000000E+00  0.00000000E+00
  0.00000000E+00  0.00000000E+00  0.00000000E+00
  0.00000000E+00  0.00000000E+00  0.00000000E+00
  0.00000000E+00  0.00000000E+00  0.00000000E+00
  0.00000000E+00  0.00000000E+00  0.00000000E+00
  0.00000000E+00  0.00000000E+00  0.00000000E+00
  0.00000000E+00  0.00000000E+00  0.00000000E+00
  0.00000000E+00  0.00000000E+00  0.00000000E+00
  0.00000000E+00  0.00000000E+00  0.00000000E+00
  0.00000000E+00  0.00000000E+00  0.00000000E+00
  0.00000000E+00  0.00000000E+00  0.00000000E+00
  0.00000000E+00  0.00000000E+00  0.00000000E+00
  0.00000000E+00  0.00000000E+00  0.00000000E+00
  0.00000000E+00  0.00000000E+00  0.00000000E+00
  0.00000000E+00  0.00000000E+00  0.00000000E+00
  0.00000000E+00  0.00000000E+00  0.00000000E+00
  0.00000000E+00  0.00000000E+00  0.00000000E+00
  0.00000000E+00  0.00000000E+00  0.00000000E+00
  0.00000000E+00  0.00000000E+00  0.00000000E+00
  0.00000000E+00  0.00000000E+00  0.00000000E+00
  0.00000000E+00  0.00000000E+00  0.00000000E+00
  0.00000000E+00  0.00000000E+00  0.00000000E+00
  0.00000000E+00  0.00000000E+00  0.00000000E+00
  0.00000000E+00  0.00000000E+00  0.00000000E+00
  0.00000000E+00  0.00000000E+00  0.00000000E+00
  0.00000000E+00  0.00000000E+00  0.00000000E+00
  0.00000000E+00  0.00000000E+00  0.00000000E+00
  0.00000000E+00  0.00000000E+00  0.00000000E+00
  0.00000000E+00  0.00000000E+00  0.00000000E+00
  0.00000000E+00  0.00000000E+00  0.00000000E+00
  0.00000000E+00  0.00000000E+00  0.00000000E+00
  0.00000000E+00  0.00000000E+00  0.00000000E+00
  0.00000000E+00  0.00000000E+00  0.00000000E+00
  0.00000000E+00  0.00000000E+00  0.00000000E+00
  0.00000000E+00  0.00000000E+00  0.00000000E+00
  0.00000000E+00  0.00000000E+00  0.00000000E+00
  0.00000000E+00  0.00000000E+00  0.00000000E+00
  0.00000000E+00  0.00000000E+00  0.00000000E+00
  0.00000000E+00  0.00000000E+00  0.00000000E+00
  0.00000000E+00  0.00000000E+00  0.00000000E+00
  0.00000000E+00  0.00000000E+00  0.00000000E+00
  0.00000000E+00  0.00000000E+00  0.00000000E+00
  0.00000000E+00  0.00000000E+00  0.00000000E+00
  0.00000000E+00  0.00000000E+00  0.00000000E+00
  0.00000000E+00  0.00000000E+00  0.00000000E+00
  0.00000000E+00  0.00000000E+00  0.00000000E+00
  0.00000000E+00  0.00000000E+00  0.00000000E+00
  0.00000000E+00  0.00000000E+00  0.00000000E+00
  0.00000000E+00  0.00000000E+00  0.00000000E+00
  0.00000000E+00  0.00000000E+00  0.00000000E+00
  0.00000000E+00  0.00000000E+00  0.00000000E+00
  0.00000000E+00  0.00000000E+00  0.00000000E+00
  0.00000000E+00  0.00000000E+00  0.00000000E+00
  0.00000000E+00  0.00000000E+00  0.00000000E+00
  0.00000000E+00  0.00000000E+00  0.00000000E+00
  0.00000000E+00  0.00000000E+00  0.00000000E+00
  0.00000000E+00  0.00000000E+00  0.00000000E+00
  0.00000000E+00  0.00000000E+00  0.00000000E+00
  0.00000000E+00  0.00000000E+00  0.00000000E+00
  0.00000000E+00  0.00000000E+00  0.00000000E+00
  0.00000000E+00  0.00000000E+00  0.00000000E+00
  0.00000000E+00  0.00000000E+00  0.00000000E+00
  0.00000000E+00  0.00000000E+00  0.00000000E+00
  0.00000000E+00  0.00000000E+00  0.00000000E+00
  0.00000000E+00  0.00000000E+00  0.00000000E+00
  0.00000000E+00  0.00000000E+00  0.00000000E+00
  0.00000000E+00  0.00000000E+00  0.00000000E+00
  0.00000000E+00  0.00000000E+00  0.00000000E+00
  0.00000000E+00  0.00000000E+00  0.00000000E+00
  0.00000000E+00  0.00000000E+00  0.00000000E+00
  0.00000000E+00  0.00000000E+00  0.00000000E+00
  0.00000000E+00  0.00000000E+00  0.00000000E+00
  0.00000000E+00  0.00000000E+00  0.00000000E+00
  0.00000000E+00  0.00000000E+00  0.00000000E+00
  0.00000000E+00  0.00000000E+00  0.00000000E+00
  0.00000000E+00  0.00000000E+00  0.00000000E+00
  0.00000000E+00  0.00000000E+00  0.00000000E+00
  0.00000000E+00  0.00000000E+00  0.00000000E+00
  0.00000000E+00  0.00000000E+00  0.00000000E+00
  0.00000000E+00  0.00000000E+00  0.00000000E+00
  0.00000000E+00  0.00000000E+00  0.00000000E+00
  0.00000000E+00  0.00000000E+00  0.00000000E+00
  0.00000000E+00  0.00000000E+00  0.00000000E+00
  0.00000000E+00  0.00000000E+00  0.00000000E+00
  0.00000000E+00  0.00000000E+00  0.00000000E+00
  0.00000000E+00  0.00000000E+00  0.00000000E+00
  0.00000000E+00  0.00000000E+00  0.00000000E+00
  0.00000000E+00  0.00000000E+00  0.00000000E+00
  0.00000000E+00  0.00000000E+00  0.00000000E+00
  0.00000000E+00  0.00000000E+00  0.00000000E+00
  0.00000000E+00  0.00000000E+00  0.00000000E+00
  0.00000000E+00  0.00000000E+00  0.00000000E+00
  0.00000000E+00  0.00000000E+00  0.00000000E+00
  0.00000000E+00  0.00000000E+00  0.00000000E+00
  0.00000000E+00  0.00000000E+00  0.00000000E+00
  0.00000000E+00  0.00000000E+00  0.00000000E+00
  0.00000000E+00  0.00000000E+00  0.00000000E+00
  0.00000000E+00  0.00000000E+00  0.00000000E+00
  0.00000000E+00  0.00000000E+00  0.00000000E+00
  0.00000000E+00  0.00000000E+00  0.00000000E+00
  0.00000000E+00  0.00000000E+00  0.00000000E+00
  0.00000000E+00  0.00000000E+00  0.00000000E+00
  0.00000000E+00  0.00000000E+00  0.00000000E+00
  0.00000000E+00  0.00000000E+00  0.00000000E+00
  0.00000000E+00  0.00000000E+00  0.00000000E+00
  0.00000000E+00  0.00000000E+00  0.00000000E+00
  0.00000000E+00  0.00000000E+00  0.00000000E+00
  0.00000000E+00  0.00000000E+00  0.00000000E+00
  0.00000000E+00  0.00000000E+00  0.00000000E+00
  0.00000000E+00  0.00000000E+00  0.00000000E+00
  0.00000000E+00  0.00000000E+00  0.00000000E+00
  0.00000000E+00  0.00000000E+00  0.00000000E+00
  0.00000000E+00  0.00000000E+00  0.00000000E+00
  0.00000000E+00  0.00000000E+00  0.00000000E+00
  0.00000000E+00  0.00000000E+00  0.00000000E+00
  0.00000000E+00  0.00000000E+00  0.00000000E+00
  0.00000000E+00  0.00000000E+00  0.00000000E+00
  0.00000000E+00  0.00000000E+00  0.00000000E+00
  0.00000000E+00  0.00000000E+00  0.00000000E+00
  0.00000000E+00  0.00000000E+00  0.00000000E+00
  0.00000000E+00  0.00000000E+00  0.00000000E+00
  0.00000000E+00  0.00000000E+00  0.00000000E+00
  0.00000000E+00  0.00000000E+00  0.00000000E+00
  0.00000000E+00  0.00000000E+00  0.00000000E+00
  0.00000000E+00  0.00000000E+00  0.00000000E+00
  0.00000000E+00  0.00000000E+00  0.00000000E+00
  0.00000000E+00  0.00000000E+00  0.00000000E+00
  0.00000000E+00  0.00000000E+00  0.00000000E+00
  0.00000000E+00  0.00000000E+00  0.00000000E+00
  0.00000000E+00  0.00000000E+00  0.00000000E+00
  0.00000000E+00  0.00000000E+00  0.00000000E+00
  0.00000000E+00  0.00000000E+00  0.00000000E+00
  0.00000000E+00  0.00000000E+00  0.00000000E+00
  0.00000000E+00  0.00000000E+00  0.00000000E+00
  0.00000000E+00  0.00000000E+00  0.00000000E+00
  0.00000000E+00  0.00000000E+00  0.00000000E+00
  0.00000000E+00  0.00000000E+00  0.00000000E+00
  0.00000000E+00  0.00000000E+00  0.00000000E+00
  0.00000000E+00  0.00000000E+00  0.00000000E+00
  0.00000000E+00  0.00000000E+00  0.00000000E+00
  0.00000000E+00  0.00000000E+00  0.00000000E+00
  0.00000000E+00  0.00000000E+00  0.00000000E+00
  0.00000000E+00  0.00000000E+00  0.00000000E+00
  0.00000000E+00  0.00000000E+00  0.00000000E+00
  0.00000000E+00  0.00000000E+00  0.00000000E+00
  0.00000000E+00  0.00000000E+00  0.00000000E+00
  0.00000000E+00  0.00000000E+00  0.00000000E+00
  0.00000000E+00  0.00000000E+00  0.00000000E+00
  0.00000000E+00  0.00000000E+00  0.00000000E+00
  0.00000000E+00  0.00000000E+00  0.00000000E+00
  0.00000000E+00  0.00000000E+00  0.00000000E+00
  0.00000000E+00  0.00000000E+00  0.00000000E+00
  0.00000000E+00  0.00000000E+00  0.00000000E+00
  0.00000000E+00  0.00000000E+00  0.00000000E+00
  0.00000000E+00  0.00000000E+00  0.00000000E+00
  0.00000000E+00  0.00000000E+00  0.00000000E+00
  0.00000000E+00  0.00000000E+00  0.00000000E+00
