Sb                                      
   1.00000000000000     
    19.0273007965000005    0.0000000000000000    0.0000000000000000
     0.0000000000000000   18.0273007965000005    0.0000000000000000
     0.0000000000000000    0.0000000000000000   18.0273007965000005
   As   Te
    66   132
Direct
  0.4344666573967655  0.3423295618362494  0.4133030202030081
  0.9306903556187960  0.9958896671934601  0.4753322831464495
  0.2506837701964733  0.6295642188192596  0.6596109836385612
  0.0074772333891218  0.2018422050820919  0.2511592059611172
  0.0595459132862602  0.4777226717992046  0.6360861215006236
  0.3991685559526318  0.2647659127076959  0.1096614967418700
  0.4798630061721728  0.6315810734122855  0.9890600437266267
  0.1575981925079728  0.3356616107506335  0.5586782613623434
  0.1506462618575470  0.6041510459234608  0.1027664942908709
  0.2015920481013386  0.9867477944181089  0.8442408403763352
  0.9378903845710151  0.7849786753002097  0.5222458692842112
  0.8482833631268877  0.3446929089235597  0.2860896256415447
  0.8008785035541716  0.8386896913235030  0.0218931572230414
  0.6774216212476653  0.7934883961803557  0.1416009515498126
  0.7124958767407082  0.0458527266071194  0.3431164664501369
  0.6454607737424189  0.5481406788709877  0.3817758505187689
  0.3649160792857647  0.1233302415637135  0.2723045723926468
  0.3784410723654880  0.8879441448806725  0.4797057170277756
  0.9213581324535978  0.0861630927675398  0.8949783333854721
  0.8935042347540262  0.4889341444732698  0.7752818767995361
  0.2901807930926539  0.1783225988255037  0.9134572394909538
  0.5426748417594947  0.6325720988039851  0.7805237492235800
  0.8315503193930702  0.3089030877842175  0.6921568741812624
  0.5760533926352348  0.2383801905693762  0.5302974167669631
  0.2831406127236472  0.6735379285879182  0.9495992521039439
  0.1212605451725022  0.8321099276673467  0.9433985976292247
  0.4050707602207667  0.3315347756044625  0.6342661179869712
  0.1736306912317434  0.0238071696049021  0.1662952108350126
  0.0135632807775107  0.9714632619757086  0.2426022043060658
  0.8623785439871691  0.1393526515209169  0.4910398830954097
  0.1525038836213934  0.9745209469385929  0.4800542241906787
  0.2098063673953943  0.2074715599221127  0.8049240025553268
  0.8563062879480319  0.9068444331157779  0.5540087495014872
  0.2314136666536050  0.0273870219841419  0.9782370674722171
  0.6300390370041451  0.0935679044759974  0.0003745114974754
  0.0834879822770903  0.9265625320402207  0.8430044281444864
  0.5747173953753782  0.5408806807491121  0.9472770612973257
  0.0797453449577663  0.5177973218560444  0.8046603345394291
  0.0708789129990471  0.1857577376286987  0.9614609208939158
  0.8204453290664200  0.6520406844238055  0.8750210895555359
  0.6648260253881643  0.3875758081939327  0.0946928718890661
  0.3804008778113347  0.6002630192338941  0.6765562096203195
  0.5073268410504377  0.5420974454603757  0.5133355357022907
  0.0977121013880044  0.0871536549623229  0.5412115239889761
  0.3254553679536691  0.4022642562508279  0.4602575155660568
  0.0257865625860468  0.9816163784979569  0.0087058253006404
  0.3741687321149565  0.0059292669646246  0.6398303816987231
  0.6795563391980056  0.2374453315072032  0.2419944151212878
  0.5252998415635182  0.1066103367460233  0.3906454030256288
  0.0800960091068659  0.9013135231425180  0.6163056542657671
  0.6370629730034922  0.6524792796192579  0.6086431824419168
  0.3928573721891697  0.4031522799668198  0.1004869007343213
  0.9794228686676020  0.6234851416475959  0.3923465869404103
  0.3036922662413870  0.7673075371729589  0.1941985481071749
  0.4342153547267628  0.6520479956401715  0.8596702042099652
  0.8268460903587120  0.7901690003633441  0.7106537393281470
  0.7642596246959626  0.2224649727517946  0.9365976718812774
  0.5055894483503796  0.0598610283467872  0.1685986605140437
  0.7517936418148609  0.9154854206436251  0.3814558532206125
  0.3146507915233112  0.6192002648672261  0.3187290712305803
  0.3741760458061392  0.5118552890313295  0.7855994046838750
  0.4581315947798278  0.2099068056647604  0.8047656450196188
  0.7566483426179282  0.5335808465212084  0.0169417825995814
  0.1130204603574708  0.5673670725180627  0.9708936259566462
  0.7223248125934099  0.7309612623195554  0.3640592699153489
  0.4612123493147390  0.2228010616581763 -0.0103157061270738
  0.3507360149119108  0.0756197512985382  0.8520849585681458
  0.4392571218213503  0.8122681337639783  0.9831019986170971
  0.8184588378842592  0.5189011779731820  0.1324564824745445
  0.2784690558569406  0.7343337870254261  0.5735943931676502
  0.1372788100505045  0.8709107898912610  0.7329204790567218
  0.8027687421178586  0.6488960413476150  0.7428678336631769
  0.8625768106853297  0.4868785042580310  0.5990713786569547
  0.0773221129912281  0.2560043967393966  0.0807846413464850
 -0.0271921164216834  0.4770370159222438  0.2289995357674476
  0.8706970101323251  0.0725465957447295  0.2642792559299801
  0.2931605591481150  0.0388964239074709  0.5394047901558370
  0.3435271415871382  0.3885216683791405  0.7397752808997685
  0.5531482067953222  0.5081752617472602  0.2933562401674182
  0.9690096744092888  0.4654526454768494  0.5303499553186903
  0.9884828896344736  0.4885863368928220  0.3561882966099906
  0.5951469024658748  0.1316372207601104  0.6135965956430693
  0.7385057083180235  0.7219439020150541  0.0458779092909999
  0.7309795593678503  0.4404307120142011  0.1984489492757185
  0.1137523572880680  0.2462178976691874  0.6347629437890262
  0.6165358001650151  0.7898810230887325  0.3287676439415393
  0.1280905336980236  0.2784686869149668  0.8810519629391966
  0.9505192774224186  0.2138082786970366  0.9247336912901228
  0.5042608689988611  0.5015916067816026  0.7866034512807420
  0.0110550433522181  0.8506937996434325  0.0183830142188877
  0.5454992895655417  0.7471352539349938  0.9958135868917024
  0.1126310285293968  0.5465517364770240  0.5337350314173589
 -0.0021935450947749  0.4100377848042933  0.7929425506452223
  0.7553532936617368  0.2824651478798694  0.1315503522829124
  0.4009688832338811  0.5048029835114117  0.5839870650761162
  0.5926164750941462  0.0041916045622914  0.3270022077843548
  0.4618581730839368  0.9511240241380144  0.5592919249169012
  0.8503333183158477  0.9397184704123681  0.6779904886180880
  0.3950232541903725  0.6782856397368235  0.1616195443781403
  0.3848610697816754  0.9798832547996371  0.3760660008926993
  0.0343754379033954  0.6573521286130685  0.1065038562544413
  0.7040192849147546  0.7050976515447142  0.5006136973013934
  0.2368864089549912  0.5372548935159267  0.5597143134784097
  0.5304511095344547  0.3410430224592843  0.6581157376059038
  0.2081966849003409  0.1246604050089145  0.5977407775883912
  0.2119122484231265  0.1443316155411541  0.0959133386744786
  0.3811483908379197  0.0854004894653292  0.1402497736038741
  0.6941109832720437  0.9030199051519163  0.0637851569801595
  0.3524455309993738  0.4334789778117428  0.3362288859087247
  0.1884681057793933  0.6164758901102904  0.2807822395469532
  0.6395907597926289  0.6273903661826939  0.8672939195915579
  0.8784056544306253  0.9391494192337133  0.3623828635782636
  0.9003936794170051  0.1515902597100637  0.6107931190567690
  0.7255168456265998  0.6110466928370714  0.2993529314553301
  0.8542356306207441  0.8333634706024505  0.8373311748485377
  0.5278466611272811  0.4073180368252586  0.4822906252459536
  0.0161932405550864  0.5861974974586874  0.7057670654718322
  0.2530577662117314  0.2798539787977816  0.4693118224205137
  0.2251431911775200  0.5960751127161481  0.4166334657038409
  0.1777859523306996  0.4754690783167019  0.7363000931280383
  0.7172917822447076  0.1451859138623893  0.6266015754471870
  0.8689485553284222  0.8415294120654114  0.1361481498240098
  0.2957843157537823  0.3247822452606390  0.0608682112933271
  0.3941910903499904  0.2060007855432878  0.6916239227964468
  0.9048072493246530  0.0219925368546530  0.0144364522524497
  0.2711037454750211  0.9610657599450392  0.3263870112907137
  0.0332311639912985  0.7304184173170416  0.2169837658162139
  0.0484797436840161  0.0509997567170546  0.1324541798526932
  0.7573698490727433  0.0387295903014392  0.2163360578257824
  0.9227097812046192  0.7331493172600194  0.8802462008197798
  0.4938008633642182  0.7071163466620214  0.2423581781449725
  0.5323559639959462  0.3204494387005857  0.7883669451178882
  0.9786000179668781  0.3369997069425872  0.0846755719628309
  0.6973242444745140  0.7886814610655555  0.7261099101430883
  0.5399810440382584  0.3281008448337595  0.9726617580223489
  0.6335973566617906  0.9477922061268765  0.8925520989902169
  0.4875134282278259  0.6126349425313093  0.3339568610273640
  0.6351172368852470  0.5483766254220537  0.0697142368794459
  0.4546106409486913  0.4267900125473466 -0.0150275682468818
  0.1055605684921514  0.7218494259705465  0.8667336834360535
  0.3762417127231815  0.2799333920743981  0.8919145576955828
  0.9030819446687827  0.1803949058136139  0.1829879790295392
  0.7770998587095913  0.8176116524411974  0.2257524060266584
  0.3537220497072868  0.8897768606970539  0.1695686868505975
  0.4483123819691017  0.7886687153221611  0.4250251419740212
  0.0958118073765668  0.4512346665165920  0.1819454244637686
  0.4157918761386850  0.7853068858163390  0.8550769517903904
  0.8902045701423260  0.5405442409168731  0.9033616106273044
  0.7094412279646719  0.4328926916598156  0.4148418895238223
  0.1186882972462269  0.4317657013286589 -0.0226800193295047
  0.7972389549200017  0.1079146071335408  0.8733302293495098
  0.1199731658204256  0.9051054405491554  0.2454384053649604
  0.2112493273536965  0.7164788663197458  0.0511218392548696
  0.3043155173190488  0.2426938019778589  0.2597111948914539
  0.6051718649089026  0.5215280625793308  0.5952889708689793
  0.0184799860932889  0.0874939756637668  0.3269850145421982
  0.1938687221482566  0.1984754396018379  0.2191633494746338
  0.0162544295649041  0.0188996525103523  0.6282284125192201
  0.5640743825733846  0.1633016743544556  0.0954812650919714
  0.7457052957497097  0.4031264862769807  0.9857774763399738
  0.5383631337660374  0.0255682779528239  0.9303580238975081
  0.5183487573589151  0.9478399226772296  0.0904876208996870
  0.7869143356825167  0.3850988243702665  0.5893368063357697
  0.5672357561874177  0.7753021842321087  0.4704768757731430
  0.4784837411893656  0.1838581209584910  0.2868517642979361
 -0.0029918431475576  0.7999777978786732  0.6373382523417037
  0.7704637225944077  0.2549821323166470  0.3395128045334544
  0.3024227650237681  0.7543020265126349  0.3290631348543899
  0.6446762294370745  0.9013944070708781  0.6885044649060919
  0.6127266426765272  0.3475576001651411  0.2432585763085318
  0.2334113069539653  0.5522687440279563  0.9267644132826800
  0.1973957223500187  0.9332657985485520  0.0675282688618990
  0.4755855409422748  0.8936491786454842  0.2035392824628880
  0.9463653225754993  0.2362453082904130  0.4748356931511468
  0.3558567867224704  0.9981782374752114  0.9601540348824168
  0.3299800541655185  0.8965245857110845  0.7075639514258368
  0.7437651138795527  0.9497570383105542  0.5132550965291092
  0.3707202755182588  0.7925819389664021  0.6396479645231721
  0.8858946243671104  0.6709119668058906  0.5608244985973841
  0.6401601396434360  0.1939181371450843  0.9090328236484573
  0.9625509862831552  0.2929380809386778  0.3520153271108460
  0.7176900087490099  0.2509496438773167  0.7111365790564946
 -0.0003731882559867  0.3950492259823806  0.9656090876761491
  0.6814077788201585 -0.0110038170597831  0.7784577999998133
  0.4554204870408075  0.2146951593257720  0.5045024522965150
  0.1931994640094152  0.0517850876192393  0.3789746770897202
  0.8585045054182441  0.6296792213033564  0.4379640612759339
  0.0360925300609593  0.9246430164919943  0.4357975892605528
  0.1646641948324726  0.4803219650152746  0.2814717280174762
  0.5237049179760626  0.7021775250277266  0.5809025593057681
  0.8061958461308156  0.3865053718694203  0.7998193678199573
  0.8276724935712400  0.4486290145207787  0.3769317741671265
  0.1384831586751301  0.3053713708445512  0.4242689748446711
  0.1354094698628329  0.0967694265788346  0.8118824118942416
  0.7661721021397682  0.1668421117721994  0.0608730773910154
  0.9350746092598442  0.6861540541328032  0.2829410067639141
  0.2271103596325403  0.7451678751434218  0.8468575741271085
  0.6243354482944793  0.1864877011440199  0.4091390456120112
 
  0.00000000E+00  0.00000000E+00  0.00000000E+00
  0.00000000E+00  0.00000000E+00  0.00000000E+00
  0.00000000E+00  0.00000000E+00  0.00000000E+00
  0.00000000E+00  0.00000000E+00  0.00000000E+00
  0.00000000E+00  0.00000000E+00  0.00000000E+00
  0.00000000E+00  0.00000000E+00  0.00000000E+00
  0.00000000E+00  0.00000000E+00  0.00000000E+00
  0.00000000E+00  0.00000000E+00  0.00000000E+00
  0.00000000E+00  0.00000000E+00  0.00000000E+00
  0.00000000E+00  0.00000000E+00  0.00000000E+00
  0.00000000E+00  0.00000000E+00  0.00000000E+00
  0.00000000E+00  0.00000000E+00  0.00000000E+00
  0.00000000E+00  0.00000000E+00  0.00000000E+00
  0.00000000E+00  0.00000000E+00  0.00000000E+00
  0.00000000E+00  0.00000000E+00  0.00000000E+00
  0.00000000E+00  0.00000000E+00  0.00000000E+00
  0.00000000E+00  0.00000000E+00  0.00000000E+00
  0.00000000E+00  0.00000000E+00  0.00000000E+00
  0.00000000E+00  0.00000000E+00  0.00000000E+00
  0.00000000E+00  0.00000000E+00  0.00000000E+00
  0.00000000E+00  0.00000000E+00  0.00000000E+00
  0.00000000E+00  0.00000000E+00  0.00000000E+00
  0.00000000E+00  0.00000000E+00  0.00000000E+00
  0.00000000E+00  0.00000000E+00  0.00000000E+00
  0.00000000E+00  0.00000000E+00  0.00000000E+00
  0.00000000E+00  0.00000000E+00  0.00000000E+00
  0.00000000E+00  0.00000000E+00  0.00000000E+00
  0.00000000E+00  0.00000000E+00  0.00000000E+00
  0.00000000E+00  0.00000000E+00  0.00000000E+00
  0.00000000E+00  0.00000000E+00  0.00000000E+00
  0.00000000E+00  0.00000000E+00  0.00000000E+00
  0.00000000E+00  0.00000000E+00  0.00000000E+00
  0.00000000E+00  0.00000000E+00  0.00000000E+00
  0.00000000E+00  0.00000000E+00  0.00000000E+00
  0.00000000E+00  0.00000000E+00  0.00000000E+00
  0.00000000E+00  0.00000000E+00  0.00000000E+00
  0.00000000E+00  0.00000000E+00  0.00000000E+00
  0.00000000E+00  0.00000000E+00  0.00000000E+00
  0.00000000E+00  0.00000000E+00  0.00000000E+00
  0.00000000E+00  0.00000000E+00  0.00000000E+00
  0.00000000E+00  0.00000000E+00  0.00000000E+00
  0.00000000E+00  0.00000000E+00  0.00000000E+00
  0.00000000E+00  0.00000000E+00  0.00000000E+00
  0.00000000E+00  0.00000000E+00  0.00000000E+00
  0.00000000E+00  0.00000000E+00  0.00000000E+00
  0.00000000E+00  0.00000000E+00  0.00000000E+00
  0.00000000E+00  0.00000000E+00  0.00000000E+00
  0.00000000E+00  0.00000000E+00  0.00000000E+00
  0.00000000E+00  0.00000000E+00  0.00000000E+00
  0.00000000E+00  0.00000000E+00  0.00000000E+00
  0.00000000E+00  0.00000000E+00  0.00000000E+00
  0.00000000E+00  0.00000000E+00  0.00000000E+00
  0.00000000E+00  0.00000000E+00  0.00000000E+00
  0.00000000E+00  0.00000000E+00  0.00000000E+00
  0.00000000E+00  0.00000000E+00  0.00000000E+00
  0.00000000E+00  0.00000000E+00  0.00000000E+00
  0.00000000E+00  0.00000000E+00  0.00000000E+00
  0.00000000E+00  0.00000000E+00  0.00000000E+00
  0.00000000E+00  0.00000000E+00  0.00000000E+00
  0.00000000E+00  0.00000000E+00  0.00000000E+00
  0.00000000E+00  0.00000000E+00  0.00000000E+00
  0.00000000E+00  0.00000000E+00  0.00000000E+00
  0.00000000E+00  0.00000000E+00  0.00000000E+00
  0.00000000E+00  0.00000000E+00  0.00000000E+00
  0.00000000E+00  0.00000000E+00  0.00000000E+00
  0.00000000E+00  0.00000000E+00  0.00000000E+00
  0.00000000E+00  0.00000000E+00  0.00000000E+00
  0.00000000E+00  0.00000000E+00  0.00000000E+00
  0.00000000E+00  0.00000000E+00  0.00000000E+00
  0.00000000E+00  0.00000000E+00  0.00000000E+00
  0.00000000E+00  0.00000000E+00  0.00000000E+00
  0.00000000E+00  0.00000000E+00  0.00000000E+00
  0.00000000E+00  0.00000000E+00  0.00000000E+00
  0.00000000E+00  0.00000000E+00  0.00000000E+00
  0.00000000E+00  0.00000000E+00  0.00000000E+00
  0.00000000E+00  0.00000000E+00  0.00000000E+00
  0.00000000E+00  0.00000000E+00  0.00000000E+00
  0.00000000E+00  0.00000000E+00  0.00000000E+00
  0.00000000E+00  0.00000000E+00  0.00000000E+00
  0.00000000E+00  0.00000000E+00  0.00000000E+00
  0.00000000E+00  0.00000000E+00  0.00000000E+00
  0.00000000E+00  0.00000000E+00  0.00000000E+00
  0.00000000E+00  0.00000000E+00  0.00000000E+00
  0.00000000E+00  0.00000000E+00  0.00000000E+00
  0.00000000E+00  0.00000000E+00  0.00000000E+00
  0.00000000E+00  0.00000000E+00  0.00000000E+00
  0.00000000E+00  0.00000000E+00  0.00000000E+00
  0.00000000E+00  0.00000000E+00  0.00000000E+00
  0.00000000E+00  0.00000000E+00  0.00000000E+00
  0.00000000E+00  0.00000000E+00  0.00000000E+00
  0.00000000E+00  0.00000000E+00  0.00000000E+00
  0.00000000E+00  0.00000000E+00  0.00000000E+00
  0.00000000E+00  0.00000000E+00  0.00000000E+00
  0.00000000E+00  0.00000000E+00  0.00000000E+00
  0.00000000E+00  0.00000000E+00  0.00000000E+00
  0.00000000E+00  0.00000000E+00  0.00000000E+00
  0.00000000E+00  0.00000000E+00  0.00000000E+00
  0.00000000E+00  0.00000000E+00  0.00000000E+00
  0.00000000E+00  0.00000000E+00  0.00000000E+00
  0.00000000E+00  0.00000000E+00  0.00000000E+00
  0.00000000E+00  0.00000000E+00  0.00000000E+00
  0.00000000E+00  0.00000000E+00  0.00000000E+00
  0.00000000E+00  0.00000000E+00  0.00000000E+00
  0.00000000E+00  0.00000000E+00  0.00000000E+00
  0.00000000E+00  0.00000000E+00  0.00000000E+00
  0.00000000E+00  0.00000000E+00  0.00000000E+00
  0.00000000E+00  0.00000000E+00  0.00000000E+00
  0.00000000E+00  0.00000000E+00  0.00000000E+00
  0.00000000E+00  0.00000000E+00  0.00000000E+00
  0.00000000E+00  0.00000000E+00  0.00000000E+00
  0.00000000E+00  0.00000000E+00  0.00000000E+00
  0.00000000E+00  0.00000000E+00  0.00000000E+00
  0.00000000E+00  0.00000000E+00  0.00000000E+00
  0.00000000E+00  0.00000000E+00  0.00000000E+00
  0.00000000E+00  0.00000000E+00  0.00000000E+00
  0.00000000E+00  0.00000000E+00  0.00000000E+00
  0.00000000E+00  0.00000000E+00  0.00000000E+00
  0.00000000E+00  0.00000000E+00  0.00000000E+00
  0.00000000E+00  0.00000000E+00  0.00000000E+00
  0.00000000E+00  0.00000000E+00  0.00000000E+00
  0.00000000E+00  0.00000000E+00  0.00000000E+00
  0.00000000E+00  0.00000000E+00  0.00000000E+00
  0.00000000E+00  0.00000000E+00  0.00000000E+00
  0.00000000E+00  0.00000000E+00  0.00000000E+00
  0.00000000E+00  0.00000000E+00  0.00000000E+00
  0.00000000E+00  0.00000000E+00  0.00000000E+00
  0.00000000E+00  0.00000000E+00  0.00000000E+00
  0.00000000E+00  0.00000000E+00  0.00000000E+00
  0.00000000E+00  0.00000000E+00  0.00000000E+00
  0.00000000E+00  0.00000000E+00  0.00000000E+00
  0.00000000E+00  0.00000000E+00  0.00000000E+00
  0.00000000E+00  0.00000000E+00  0.00000000E+00
  0.00000000E+00  0.00000000E+00  0.00000000E+00
  0.00000000E+00  0.00000000E+00  0.00000000E+00
  0.00000000E+00  0.00000000E+00  0.00000000E+00
  0.00000000E+00  0.00000000E+00  0.00000000E+00
  0.00000000E+00  0.00000000E+00  0.00000000E+00
  0.00000000E+00  0.00000000E+00  0.00000000E+00
  0.00000000E+00  0.00000000E+00  0.00000000E+00
  0.00000000E+00  0.00000000E+00  0.00000000E+00
  0.00000000E+00  0.00000000E+00  0.00000000E+00
  0.00000000E+00  0.00000000E+00  0.00000000E+00
  0.00000000E+00  0.00000000E+00  0.00000000E+00
  0.00000000E+00  0.00000000E+00  0.00000000E+00
  0.00000000E+00  0.00000000E+00  0.00000000E+00
  0.00000000E+00  0.00000000E+00  0.00000000E+00
  0.00000000E+00  0.00000000E+00  0.00000000E+00
  0.00000000E+00  0.00000000E+00  0.00000000E+00
  0.00000000E+00  0.00000000E+00  0.00000000E+00
  0.00000000E+00  0.00000000E+00  0.00000000E+00
  0.00000000E+00  0.00000000E+00  0.00000000E+00
  0.00000000E+00  0.00000000E+00  0.00000000E+00
  0.00000000E+00  0.00000000E+00  0.00000000E+00
  0.00000000E+00  0.00000000E+00  0.00000000E+00
  0.00000000E+00  0.00000000E+00  0.00000000E+00
  0.00000000E+00  0.00000000E+00  0.00000000E+00
  0.00000000E+00  0.00000000E+00  0.00000000E+00
  0.00000000E+00  0.00000000E+00  0.00000000E+00
  0.00000000E+00  0.00000000E+00  0.00000000E+00
  0.00000000E+00  0.00000000E+00  0.00000000E+00
  0.00000000E+00  0.00000000E+00  0.00000000E+00
  0.00000000E+00  0.00000000E+00  0.00000000E+00
  0.00000000E+00  0.00000000E+00  0.00000000E+00
  0.00000000E+00  0.00000000E+00  0.00000000E+00
  0.00000000E+00  0.00000000E+00  0.00000000E+00
  0.00000000E+00  0.00000000E+00  0.00000000E+00
  0.00000000E+00  0.00000000E+00  0.00000000E+00
  0.00000000E+00  0.00000000E+00  0.00000000E+00
  0.00000000E+00  0.00000000E+00  0.00000000E+00
  0.00000000E+00  0.00000000E+00  0.00000000E+00
  0.00000000E+00  0.00000000E+00  0.00000000E+00
  0.00000000E+00  0.00000000E+00  0.00000000E+00
  0.00000000E+00  0.00000000E+00  0.00000000E+00
  0.00000000E+00  0.00000000E+00  0.00000000E+00
  0.00000000E+00  0.00000000E+00  0.00000000E+00
  0.00000000E+00  0.00000000E+00  0.00000000E+00
  0.00000000E+00  0.00000000E+00  0.00000000E+00
  0.00000000E+00  0.00000000E+00  0.00000000E+00
  0.00000000E+00  0.00000000E+00  0.00000000E+00
  0.00000000E+00  0.00000000E+00  0.00000000E+00
  0.00000000E+00  0.00000000E+00  0.00000000E+00
  0.00000000E+00  0.00000000E+00  0.00000000E+00
  0.00000000E+00  0.00000000E+00  0.00000000E+00
  0.00000000E+00  0.00000000E+00  0.00000000E+00
  0.00000000E+00  0.00000000E+00  0.00000000E+00
  0.00000000E+00  0.00000000E+00  0.00000000E+00
  0.00000000E+00  0.00000000E+00  0.00000000E+00
  0.00000000E+00  0.00000000E+00  0.00000000E+00
  0.00000000E+00  0.00000000E+00  0.00000000E+00
  0.00000000E+00  0.00000000E+00  0.00000000E+00
  0.00000000E+00  0.00000000E+00  0.00000000E+00
  0.00000000E+00  0.00000000E+00  0.00000000E+00
  0.00000000E+00  0.00000000E+00  0.00000000E+00
  0.00000000E+00  0.00000000E+00  0.00000000E+00
  0.00000000E+00  0.00000000E+00  0.00000000E+00
  0.00000000E+00  0.00000000E+00  0.00000000E+00
  0.00000000E+00  0.00000000E+00  0.00000000E+00
  0.00000000E+00  0.00000000E+00  0.00000000E+00
