GeSe                                    
   1.00000000000000     
    20.1278870000000012    0.0000000000000000    0.0000000000000000
     0.0000000000000000   20.1278870000000012    0.0000000000000000
     0.0000000000000000    0.0000000000000000   20.1278870000000012
   Ge   Se
   150   150
Direct
  0.0080370960969557  0.7930149896371587  0.7275425849362007
  0.7916179239679413  0.5174354483829781  0.7566937166190506
  0.8686068425485880  0.1170232626871365  0.1894316023680996
  0.7195872658363330  0.6446335744686725  0.8694081485354452
  0.8034495627332678  0.1067245301945160  0.6645198574245539
  0.8657436138644193  0.4175193047014732  0.1366161297050802
  0.7731808596237492  0.9140994646259142  0.7380412860732145
  0.5894021189627942  0.0118337994286938  0.4918511519084567
  0.2231257350202291  0.8407390721370437  0.7522320192823723
  0.3906876209050820 -0.0087423214582858  0.5427716864373977
  0.9565398934612098  0.3829250055097300  0.3834748699137205
  0.6995742749216352  0.2863159808880376  0.8521990028561912
  0.2088132158018789  0.5406877884666129  0.6119598139304642
  0.6897539262014603  0.9716894052268689  0.1404673368872597
  0.1296259975284154  0.9309233271751213  0.7269879454611962
  0.9173476984450109  0.7511399970619402  0.9760591764899526
  0.7461457014615785  0.2621122457904810  0.2257494353718178
  0.1847296971201535  0.7531330462682660  0.8331477137769043
  0.5664150680817903  0.1855733424451100 -0.0155873842918581
  0.3389565912886502  0.7173287658890267  0.2276978793317435
  0.2063502464425677  0.2537796000249157  0.2224803458096992
  0.5320169462392489  0.5703835644507875  0.6670037659063137
  0.2295970990871748  0.5817991773021250  0.1696956766131652
  0.8169722626089412  0.5903169745346118  0.0155499515765553
  0.5845740466475102  0.4359697529984209  0.9206650439874343
  0.3170778334323759  0.8412444905413901  0.9190839731081278
  0.7007162958071340  0.1854966732849906  0.4707856475859263
  0.4002344132434780  0.3610175785266381  0.4347834386352514
  0.4057601565144772  0.1488599284715372  0.1017006052484200
  0.7123748006516063  0.7989788701299867  0.3730739141663028
  0.8929716573085684  0.9342071868582762  0.5926512840008933
  0.2244041641729305  0.3112133501144884  0.0332727176010362
  0.0623473396840781  0.1716460004095851  0.0190269215699403
  0.8733641347751130  0.6566003751837431  0.7326560557104298
  0.2497191531565445  0.1071332749042055  0.3780033710333555
  0.4242008561805228  0.5359756469749744  0.2567389352698901
  0.5938889967036316  0.4138192543051919  0.3721742026199112
  0.2899416109361522  0.5937320015115393  0.3619394117713569
  0.1822774118822613  0.6246808849577692  0.5228913430897270
  0.1012639213897261  0.8231755853196788  0.8966150206734979
  0.7961423335526100  0.4518952980702748  0.9762921157719334
  0.0691321894214931  0.4908812506258504  0.8547377044855078
  0.8066873024025679  0.7840916925875323  0.6498981389076635
  0.1276704464069232  0.7551896946785891  0.2186633609030568
  0.7013147958071668  0.3270138753733896  0.4971489022130041
  0.0323460263399502  0.8549572928252352  0.1759382788878161
  0.0111727139877928  0.6537050321042623  0.8528854871636811
  0.2279803280855152  0.5106995057885177  0.8997582921887981
  0.6183453769670824  0.3353234363897983  0.2048473790718415
  0.3607275199147404  0.4112919381368152  0.6443267568912517
  0.6257237108539410  0.5172366961241410  0.0931987999934882
  0.2469136446960715  0.6529076601134154  0.8834791886120037
  0.1423967676246121  0.1540354241998744  0.9175615837217755
  0.6474750819156537  0.5274868405942463  0.7225882913878499
  0.1567463449967478  0.6006037126928351  0.0494272555414395
  0.1577253382388857  0.2653822671821127  0.5901285800274124
  0.6808898683443345  0.3140102042421021  0.6661130000498239
  0.4684343237375111  0.2392178538963711  0.2815414021903033
  0.7228092977092684  0.8053628635046683  0.1058549796341528
  0.3925360543411613  0.2312394163195281  0.4212598384100696
  0.8219675157984165  0.0524225555054000  0.9450312661598598
  0.9077547934265755  0.5262681142583916  0.2777313370307055
  0.3739800301375152  0.4486690705831232  0.9742457810493719
  0.6909285390166588  0.6212796930564407  0.2106901037868281
  0.9344813801381509  0.3301486027100161  0.0121465141554716
 -0.0086947157744467  0.6261542014598072  0.4943848349589671
  0.9665135343008627  0.3169999360222872  0.5547246556578980
  0.8808902426164033  0.7932955503244676  0.2414730645586851
  0.0015066963869836  0.0405323553915865  0.8585613870673597
  0.8643975757311608  0.7262327810713041  0.4871282500106573
  0.3823281515499181  0.2117413067295693  0.9415885594469541
  0.7722751279058473  0.8852005091275079  0.9384830383560756
  0.5742419202035274  0.1732394521688610  0.6322429891696447
  0.8282056920280223  0.9168039709905844  0.3333437704813560
  0.2660200116187399  0.1287526862192247  0.0614016035789650
  0.1002124358474284  0.3805836321889889  0.0037124484770569
  0.5046377400376986  0.4776545133601928  0.5436954761513264
  0.9410167738428163  0.6657309473289948  0.1456962681166840
  0.2789284184513118  0.1101659089554924  0.5911212364650467
  0.1563110920193520  0.0793628859702134  0.7189136157701461
  0.0328337106162918  0.1141387262556566  0.3652544074707826
  0.7021309102138631  0.5061622012170433  0.6022568379950602
  0.1998946861695037  0.4944635928352529  0.3164406068500528
  0.7446034657516785  0.9710128289803552  0.4808947071789060
  0.1760270620966455  0.9056141246321286  0.0950032801202297
  0.0629734734351460  0.5779790552796154  0.2268494553342878
 -0.0265240665595470  0.9111591673210827  0.0293170849213583
  0.8404031179777383  0.3845087279485543  0.7837321631420427
  0.5054448582701612  0.4074931472131458  0.7088238009730948
  0.3314696960107695  0.7952705332467326  0.6966190753033538
  0.4909144651811453  0.1692531315858066  0.7985171362959960
  0.3789096506446742  0.6300779155183353  0.5445940741743471
  0.5899296671396990 -0.0019124123064585  0.9471377036015056
  0.5952320544774777  0.8426007559450798  0.5228294888781059
  0.3052521641338102  0.0948838635738771  0.2546460864456946
  0.5110723573795596  0.0055707564336990  0.6922128947941115
  0.3386562183778580  0.9473663814994359  0.6516139444708258
  0.4475891035634860  0.9663185386694012  0.0152034804378594
  0.0011780428056698 -0.0098323505368223  0.2844406041190118
  0.6550356499773716  0.0960857936686748  0.7765089370622942
  0.8320938276871568  0.0134151040370791  0.7993725061444634
  0.5693232204456239  0.5225209416884867  0.3029436940825405
  0.4543622572142263  0.0723626879750641  0.3611665642612880
  0.3806776823717892  0.6274669630566869  0.7653294563526700
  0.4989784714795936  0.7865332901792306  0.0994798776379230
  0.5241701551343895  0.6354111494051581  0.8830929585177343
  0.0551908060985250  0.4808694253910872  0.5219372014421719
  0.8550847425317198  0.6408191587473394  0.3174571032141908
  0.6337377477030363  0.8698596930583511  0.8492093711239375
  0.9281555049402772  0.5156351588824931  0.5651701520021987
  0.3192264105917172  0.6019415604414901  0.0543823110585395
  0.1066091388242663  0.1608127936888324  0.5441449749674120
  0.1823895658263421  0.8575395324412887  0.5867483987199735
  0.0030604248318274  0.2071568964466330  0.2662972952846097
  0.7370164706037483  0.1251375048903067  0.0687873567590984
  0.3807547256573424  0.3051868939469634  0.8084347899342801
  0.2210370810505016  0.5468595860438278  0.7433196604390954
  0.2969145783029952  0.8324120615399907  0.4514505994504616
  0.1695163546455609  0.4066931410311902  0.2261773925667587
  0.5484215757836308  0.7911920012163747  0.7381492528308519
  0.1684313194766819  0.9760966927732578  0.3880624063711234
  0.4672792736549619  0.7661654939368090  0.9100294164868170
  0.8928458760806980  0.2449030704134796  0.1340233517992194
  0.9463356545106236  0.4642840138003420  0.8712384143785166
  0.5783166782782408  0.7020911712730865  0.4118258158008349
  0.2691288103114343  0.8895396900797639  0.2223545511377290
  0.8457911388730512  0.1446870770424452  0.8157586925151515
  0.2747918308734541  0.3281272700501330  0.3172587547640779
  0.5338710687414214  0.9063923842668344  0.0860045676565668
  0.6876454389411114  0.8644781750626601  0.6420271233326221
  0.4542576623836786  0.8830714514905564  0.3682685315576780
  0.0474774616840976  0.3857251075488151  0.7108380003514241
  0.7203096468660150  0.4448067833856004  0.2462622866283954
  0.4769423639255111  0.0557505530427470  0.1854385578650717
  0.3417337799229093  0.4783191403962927  0.4313002344117526
  0.5387687816632298  0.6655402536112389  0.2098877038175821
  0.7732371161467259  0.2294190770088633 -0.0037906895741388
  0.9746037484248058  0.1507390066323178  0.6896366535295920
  0.8652416561227424  0.0877706343580989  0.4110918071875820
  0.4227048045327653  0.5133438192044678  0.7013128389101075
  0.4397396705378772  0.1085658196644116  0.5457645787402086
  0.8397836248242373  0.2527279304247887  0.5804015500908911
  0.7993062454079316  0.5171978800910511  0.4307011834309010
  0.5494278202414441  0.6296192587426338  0.5435206493225192
  0.6400235696465953  0.6451613219254807  0.0126853722186079
  0.4953192815322062  0.5807404900523045  0.0196373621881775
  0.3402007544552448  0.4193833481646319  0.8414082646758707
  0.1203527442731030  0.0396189741442588  0.2117055922241961
  0.3297307809904763  0.0320252824590037  0.8984312693915113
  0.3084258623467303  0.2077984587658934  0.8433989293845260
  0.8018695278427744  0.0206649876137163  0.0758300438904863
  0.5049348345705064  0.9526063717577592  0.5674521081723755
  0.7377320300502883  0.0807028264126674  0.4102123348249844
  0.0966701025203767  0.7012124256734860  0.7672525524032815
  0.8730275493424750  0.2297122109670606  0.2615186782122879
  0.8047605311978668  0.6734492217173926  0.2066250312582336
  0.4643778574501998  0.7710234564551879  0.2144378442873821
  0.0104946962311136  0.9693767441939364  0.1329405359170314
  0.4350518558782527  0.8430550373515399  0.7391896000486641
  0.2181730488340265  0.1899891114605609  0.6701477531119772
  0.3878473630431828  0.5713261459700805  0.9490677151892550
  0.5654793287649661  0.4516992151540275  0.1986555558781087
  0.7539955655732622  0.3920979772236596  0.5951167953161189
  0.0979729472130597  0.5210830124103367  0.7417485384982293
  0.9450346307680141  0.4093292357043457  0.6381566935038698
  0.0520537383761565  0.6293639888732742  0.6068802556989470
  0.7581470493426768  0.6950974120648850  0.9907089840532110
  0.5031617062264597  0.6594874827657993  0.7508305098517323
  0.3018313546745900  0.4992644504995482  0.2306081349184727
  0.2807933634463051  0.9229149618108844  0.0190059046650756
  0.4656887292235556  0.5664493890796234  0.4635866715891777
  0.6190064669369194  0.0837107276893899  0.0397754431143358
  0.2419489577163081  0.0471121219171613  0.1568347978728855
  0.8833216860239793  0.4339601744907809  0.4778617832982097
  0.2198569365294051  0.7958066115849629  0.1425949169955481
  0.0998180728080736  0.3123539509493191  0.2561225348349437
  0.4720027519334249  0.2776470573486804  0.8878860164418610
  0.1504321530002308  0.9259377872034860  0.2698614667480530
  0.8825552856009682  0.8666082996433883  0.7058439163830438
  0.6013461345257024  0.7274626171182613  0.9247000213919243
  0.4996422761879980  0.2961065566163647  0.1641623118162007
  0.1295961786312662  0.7153397050625159  0.5795661558535772
  0.5312373223104851  0.1933647004251637  0.1122321527181721
  0.0410446977970361  0.7318399357318063  0.9499767875139206
  0.9439596712339957  0.0261249089796129  0.7450500295519012
  0.9321408199670760  0.6310055254961704  0.0054115120666696
  0.9051346200223800  0.7068255463254405  0.6289754255306923
  0.8718371109028005  0.9651166311211588  0.4457339509006140
  0.2700295149267342  0.2367907938186826  0.4037542381993424
  0.7540046431536991  0.6434500932950824  0.7318416510224058
  0.3587068335936083  0.9478908350622716  0.4319287755614592
  0.9325939289016033  0.8101275327582528  0.0979621728624161
  0.6174739736828976  0.5250611570490488  0.5116083305171893
  0.0074699445997805  0.4883115319370792  0.3385543481615710
  0.1488528031253951  0.4041657142548200  0.8876606677861205
  0.5053165098787004  0.4545450977921169  0.0190743108968086
  0.4525074497093091  0.1223995364882116  0.6669459745491185
  0.5965914664215559  0.3038098895493572  0.3243382935522822
  0.8019763397696611  0.5439165432307301  0.8848794460401150
  0.6562182098636313  0.2712690791792409 -0.0063449932847194
  0.0620883175082769  0.0801608456127384  0.6294512273032654
  0.2194427120250355  0.9738691654331362  0.6240478224220791
  0.8067574111315640  0.3484583356676083  0.9008294747201799
  0.9632610377289148  0.3530625510710136  0.8091163421305134
  0.9616446661990131  0.6955689194709471  0.2770513856905810
  0.0514000427547550  0.3671539787088115  0.4686355758776113
  0.4975348744869101  0.7950723551153462  0.4555928888335270
  0.2820903795857304  0.6719204571960758  0.4646726594340380
  0.6067164196026323  0.7222888610976480  0.1141755901210865
  0.5340528253041433  0.1245553076792688  0.2745593689085424
  0.2037774205493706  0.6541641441113627  0.2674417195732682
  0.7800175616684918  0.2823190448873985  0.7394855980339313
  0.9840649118295622  0.7458710249296420  0.4696640689833998
  0.0016704527066592  0.1427691980504695  0.1659658916982863
  0.3432979301735710  0.8407271053686953  0.5829476035039498
  0.2720286864637511  0.4245736503155303  0.7351946468732752
  0.6477496829819700  0.8928171997916555  0.0421900033141058
  0.9235913150525210  0.1283749227017210  0.9168016271701120
  0.4224310394983584  0.1020476657271701 -0.0366093685986767
  0.7824866453160494  0.3177144970280462  0.1188002032931301
  0.7404054889488895  0.1688826085762975  0.8843590439004146
  0.0657324431763684  0.8817059446988799  0.6334604237606883
  0.8217375237335863  0.8386216530572487  0.5366130752922073
  0.6111952945560004  0.9099325545012057  0.7309363533346406
  0.4351557518923927  0.8917970041545661  0.9140325252384096
  0.0768112476611865  0.6736292154633665  0.1321870743501780
  0.3933364902706402  0.0054902189963585  0.2651698651643326
  0.1747219997888650  0.8661197872829191  0.4565890302132243
  0.6746600646878171  0.4357101748440625  0.0099342292954413
  0.2650714544281974  0.9184627544884493  0.8366176603395786
  0.3172947818545210  0.6764217047615315  0.6723526869472434
  0.1196261218009217  0.5815125958510843  0.9195798034341655
  0.3508659993917966  0.7186760132274430  0.8506401360959929
  0.6986245880037876  0.9792919648759071  0.8874427549094498
  0.7236009986028054  0.1444986339522811  0.1891683719843333
  0.2537066924503764  0.3525961223341467  0.1515859297985377
  0.8805300969629783  0.0384814806021898  0.2912036061282862
  0.4524216075620053  0.5965846786487556  0.1444229236120664
  0.2552306717753954  0.4887054187682316  0.0233048809722258
  0.3139750345843008  0.1009140694508086  0.7947224919616984
  0.0439332881201305  0.2680001922669157  0.6461072942832892
  0.2038414512487554  0.2517213506435834  0.8775639252564427
  0.7214892765182961  0.1809759771459961  0.5981189662662355
  0.2397810684954311  0.6896781466695103  0.0040405305845340
  0.8772679968552325  0.9460248876136920  0.8979749436526516
  0.7808417114014653  0.9928965558766444  0.6163476820048023
  0.7151806021543422  0.4149356570797770  0.4095184165464592
  0.8056848887651665  0.2603075002603465  0.4579995005193423
  0.4244515015880567  0.7310229971284106  0.0240081446402118
  0.4358883041545837  0.3016806251463401  0.7014638384586861
  0.3617792623059877  0.1975379207333941  0.2125012507976642
  0.1005593020020222  0.9013716277086381 -0.0094076091954247
  0.6017964120879542  0.2130676822678636  0.7591767980771076
  0.9113499586108584  0.7305534125069426  0.8200694520950301
  0.1271975395509865  0.4957312470462718  0.1513440164910539
  0.4544359247490052  0.4638293949139296  0.8131340690516424
  0.9715955220352021  0.3415450803409064  0.1371655771234234
  0.6791065614048031  0.7494936002248164  0.4779386032269923
  0.1530912049652784  0.4390805907195425  0.5816080881997315
  0.2183904473884961  0.0655567345927097  0.9590338255396967
  0.0439367283340745  0.9955708266246706  0.4098419799658518
  0.3522371816454354  0.2710700122633388  0.0406628689156375
  0.0386147553164965  0.2787974640523902  0.9582011506569608
  0.0321285568569454  0.8814015565836029  0.8174388427371774
  0.5435284423651060  0.1308246152612499  0.4888097562295304
  0.9809445711264086  0.8663681413955976  0.2928365450080320
  0.8463701011650258  0.4184435988459063  0.2648150346997573
  0.7392934716783716  0.8739030832067883  0.2021923855953629
  0.9560598905248574  0.5376443546004223  0.1645875882879524
  0.9137467930209506  0.5449043797283866  0.7347303491110693
  0.0217150473051585  0.1847998676111097  0.4633971552611454
  0.3672895747600458  0.2045887042112672  0.5413227310399975
  0.3686814806366580  0.9128560026451973  0.0973141883270547
  0.3965772382222316  0.6456831430718553  0.3201291497075688
  0.0799991149855001  0.1337566619717679  0.8127975286718084
  0.7483550339036000  0.8209876342366014  0.8309570444004617
  0.6371097356897195  0.7402577052384649  0.3027171988561117
  0.1469019631141865  0.1283326781391551  0.3098654225996012
  0.5980990627983648  0.7619177579357886  0.6243491715211023
 -0.0134125442972056  0.4433155837810372  0.9918644356060479
  0.6187156518812181  0.5547704298275786  0.8738106904687312
  0.3221055840098863  0.5146999559398125  0.5587352290444124
  0.2341862353424963  0.4116230832257788  0.4052222810302057
  0.6943951254741297  0.5507041708473551  0.3169032638346785
  0.7836060019345548  0.5733425858504365  0.5432543493899463
  0.1677162659518910  0.2085344475869689  0.0845638681794903
  0.5382722577183287  0.9781886986587705  0.3793576303836973
  0.8331007653961735  0.7839431097078773  0.3671071683238026
  0.1944028321790459  0.0902624244530288  0.4989299840424062
  0.6199925381443516  0.0583487718469037  0.6549165932468970
  0.6992537591849046  0.9172941000056197  0.3656431351485074
  0.1028103393585872  0.5751687368931661  0.4423528991250302
  0.3934362400773547  0.3693349458873871  0.3116522785672641
  0.7419809060649959  0.5201633349372928  0.1459753280502787
  0.6265210799011168  0.4064958057026699  0.7469442802046113
  0.5483759440380306  0.0591392944249557  0.8359508394951899
  0.3086722407318325  0.8088248893740336  0.3095843933545619
  0.8973214863138945  0.1367425981956877  0.5859373129540442
  0.5509784452282268  0.9525275839412856  0.1953687442226065
  0.5224561950766788  0.3751152773537736  0.4674437043688237
 
  0.00000000E+00  0.00000000E+00  0.00000000E+00
  0.00000000E+00  0.00000000E+00  0.00000000E+00
  0.00000000E+00  0.00000000E+00  0.00000000E+00
  0.00000000E+00  0.00000000E+00  0.00000000E+00
  0.00000000E+00  0.00000000E+00  0.00000000E+00
  0.00000000E+00  0.00000000E+00  0.00000000E+00
  0.00000000E+00  0.00000000E+00  0.00000000E+00
  0.00000000E+00  0.00000000E+00  0.00000000E+00
  0.00000000E+00  0.00000000E+00  0.00000000E+00
  0.00000000E+00  0.00000000E+00  0.00000000E+00
  0.00000000E+00  0.00000000E+00  0.00000000E+00
  0.00000000E+00  0.00000000E+00  0.00000000E+00
  0.00000000E+00  0.00000000E+00  0.00000000E+00
  0.00000000E+00  0.00000000E+00  0.00000000E+00
  0.00000000E+00  0.00000000E+00  0.00000000E+00
  0.00000000E+00  0.00000000E+00  0.00000000E+00
  0.00000000E+00  0.00000000E+00  0.00000000E+00
  0.00000000E+00  0.00000000E+00  0.00000000E+00
  0.00000000E+00  0.00000000E+00  0.00000000E+00
  0.00000000E+00  0.00000000E+00  0.00000000E+00
  0.00000000E+00  0.00000000E+00  0.00000000E+00
  0.00000000E+00  0.00000000E+00  0.00000000E+00
  0.00000000E+00  0.00000000E+00  0.00000000E+00
  0.00000000E+00  0.00000000E+00  0.00000000E+00
  0.00000000E+00  0.00000000E+00  0.00000000E+00
  0.00000000E+00  0.00000000E+00  0.00000000E+00
  0.00000000E+00  0.00000000E+00  0.00000000E+00
  0.00000000E+00  0.00000000E+00  0.00000000E+00
  0.00000000E+00  0.00000000E+00  0.00000000E+00
  0.00000000E+00  0.00000000E+00  0.00000000E+00
  0.00000000E+00  0.00000000E+00  0.00000000E+00
  0.00000000E+00  0.00000000E+00  0.00000000E+00
  0.00000000E+00  0.00000000E+00  0.00000000E+00
  0.00000000E+00  0.00000000E+00  0.00000000E+00
  0.00000000E+00  0.00000000E+00  0.00000000E+00
  0.00000000E+00  0.00000000E+00  0.00000000E+00
  0.00000000E+00  0.00000000E+00  0.00000000E+00
  0.00000000E+00  0.00000000E+00  0.00000000E+00
  0.00000000E+00  0.00000000E+00  0.00000000E+00
  0.00000000E+00  0.00000000E+00  0.00000000E+00
  0.00000000E+00  0.00000000E+00  0.00000000E+00
  0.00000000E+00  0.00000000E+00  0.00000000E+00
  0.00000000E+00  0.00000000E+00  0.00000000E+00
  0.00000000E+00  0.00000000E+00  0.00000000E+00
  0.00000000E+00  0.00000000E+00  0.00000000E+00
  0.00000000E+00  0.00000000E+00  0.00000000E+00
  0.00000000E+00  0.00000000E+00  0.00000000E+00
  0.00000000E+00  0.00000000E+00  0.00000000E+00
  0.00000000E+00  0.00000000E+00  0.00000000E+00
  0.00000000E+00  0.00000000E+00  0.00000000E+00
  0.00000000E+00  0.00000000E+00  0.00000000E+00
  0.00000000E+00  0.00000000E+00  0.00000000E+00
  0.00000000E+00  0.00000000E+00  0.00000000E+00
  0.00000000E+00  0.00000000E+00  0.00000000E+00
  0.00000000E+00  0.00000000E+00  0.00000000E+00
  0.00000000E+00  0.00000000E+00  0.00000000E+00
  0.00000000E+00  0.00000000E+00  0.00000000E+00
  0.00000000E+00  0.00000000E+00  0.00000000E+00
  0.00000000E+00  0.00000000E+00  0.00000000E+00
  0.00000000E+00  0.00000000E+00  0.00000000E+00
  0.00000000E+00  0.00000000E+00  0.00000000E+00
  0.00000000E+00  0.00000000E+00  0.00000000E+00
  0.00000000E+00  0.00000000E+00  0.00000000E+00
  0.00000000E+00  0.00000000E+00  0.00000000E+00
  0.00000000E+00  0.00000000E+00  0.00000000E+00
  0.00000000E+00  0.00000000E+00  0.00000000E+00
  0.00000000E+00  0.00000000E+00  0.00000000E+00
  0.00000000E+00  0.00000000E+00  0.00000000E+00
  0.00000000E+00  0.00000000E+00  0.00000000E+00
  0.00000000E+00  0.00000000E+00  0.00000000E+00
  0.00000000E+00  0.00000000E+00  0.00000000E+00
  0.00000000E+00  0.00000000E+00  0.00000000E+00
  0.00000000E+00  0.00000000E+00  0.00000000E+00
  0.00000000E+00  0.00000000E+00  0.00000000E+00
  0.00000000E+00  0.00000000E+00  0.00000000E+00
  0.00000000E+00  0.00000000E+00  0.00000000E+00
  0.00000000E+00  0.00000000E+00  0.00000000E+00
  0.00000000E+00  0.00000000E+00  0.00000000E+00
  0.00000000E+00  0.00000000E+00  0.00000000E+00
  0.00000000E+00  0.00000000E+00  0.00000000E+00
  0.00000000E+00  0.00000000E+00  0.00000000E+00
  0.00000000E+00  0.00000000E+00  0.00000000E+00
  0.00000000E+00  0.00000000E+00  0.00000000E+00
  0.00000000E+00  0.00000000E+00  0.00000000E+00
  0.00000000E+00  0.00000000E+00  0.00000000E+00
  0.00000000E+00  0.00000000E+00  0.00000000E+00
  0.00000000E+00  0.00000000E+00  0.00000000E+00
  0.00000000E+00  0.00000000E+00  0.00000000E+00
  0.00000000E+00  0.00000000E+00  0.00000000E+00
  0.00000000E+00  0.00000000E+00  0.00000000E+00
  0.00000000E+00  0.00000000E+00  0.00000000E+00
  0.00000000E+00  0.00000000E+00  0.00000000E+00
  0.00000000E+00  0.00000000E+00  0.00000000E+00
  0.00000000E+00  0.00000000E+00  0.00000000E+00
  0.00000000E+00  0.00000000E+00  0.00000000E+00
  0.00000000E+00  0.00000000E+00  0.00000000E+00
  0.00000000E+00  0.00000000E+00  0.00000000E+00
  0.00000000E+00  0.00000000E+00  0.00000000E+00
  0.00000000E+00  0.00000000E+00  0.00000000E+00
  0.00000000E+00  0.00000000E+00  0.00000000E+00
  0.00000000E+00  0.00000000E+00  0.00000000E+00
  0.00000000E+00  0.00000000E+00  0.00000000E+00
  0.00000000E+00  0.00000000E+00  0.00000000E+00
  0.00000000E+00  0.00000000E+00  0.00000000E+00
  0.00000000E+00  0.00000000E+00  0.00000000E+00
  0.00000000E+00  0.00000000E+00  0.00000000E+00
  0.00000000E+00  0.00000000E+00  0.00000000E+00
  0.00000000E+00  0.00000000E+00  0.00000000E+00
  0.00000000E+00  0.00000000E+00  0.00000000E+00
  0.00000000E+00  0.00000000E+00  0.00000000E+00
  0.00000000E+00  0.00000000E+00  0.00000000E+00
  0.00000000E+00  0.00000000E+00  0.00000000E+00
  0.00000000E+00  0.00000000E+00  0.00000000E+00
  0.00000000E+00  0.00000000E+00  0.00000000E+00
  0.00000000E+00  0.00000000E+00  0.00000000E+00
  0.00000000E+00  0.00000000E+00  0.00000000E+00
  0.00000000E+00  0.00000000E+00  0.00000000E+00
  0.00000000E+00  0.00000000E+00  0.00000000E+00
  0.00000000E+00  0.00000000E+00  0.00000000E+00
  0.00000000E+00  0.00000000E+00  0.00000000E+00
  0.00000000E+00  0.00000000E+00  0.00000000E+00
  0.00000000E+00  0.00000000E+00  0.00000000E+00
  0.00000000E+00  0.00000000E+00  0.00000000E+00
  0.00000000E+00  0.00000000E+00  0.00000000E+00
  0.00000000E+00  0.00000000E+00  0.00000000E+00
  0.00000000E+00  0.00000000E+00  0.00000000E+00
  0.00000000E+00  0.00000000E+00  0.00000000E+00
  0.00000000E+00  0.00000000E+00  0.00000000E+00
  0.00000000E+00  0.00000000E+00  0.00000000E+00
  0.00000000E+00  0.00000000E+00  0.00000000E+00
  0.00000000E+00  0.00000000E+00  0.00000000E+00
  0.00000000E+00  0.00000000E+00  0.00000000E+00
  0.00000000E+00  0.00000000E+00  0.00000000E+00
  0.00000000E+00  0.00000000E+00  0.00000000E+00
  0.00000000E+00  0.00000000E+00  0.00000000E+00
  0.00000000E+00  0.00000000E+00  0.00000000E+00
  0.00000000E+00  0.00000000E+00  0.00000000E+00
  0.00000000E+00  0.00000000E+00  0.00000000E+00
  0.00000000E+00  0.00000000E+00  0.00000000E+00
  0.00000000E+00  0.00000000E+00  0.00000000E+00
  0.00000000E+00  0.00000000E+00  0.00000000E+00
  0.00000000E+00  0.00000000E+00  0.00000000E+00
  0.00000000E+00  0.00000000E+00  0.00000000E+00
  0.00000000E+00  0.00000000E+00  0.00000000E+00
  0.00000000E+00  0.00000000E+00  0.00000000E+00
  0.00000000E+00  0.00000000E+00  0.00000000E+00
  0.00000000E+00  0.00000000E+00  0.00000000E+00
  0.00000000E+00  0.00000000E+00  0.00000000E+00
  0.00000000E+00  0.00000000E+00  0.00000000E+00
  0.00000000E+00  0.00000000E+00  0.00000000E+00
  0.00000000E+00  0.00000000E+00  0.00000000E+00
  0.00000000E+00  0.00000000E+00  0.00000000E+00
  0.00000000E+00  0.00000000E+00  0.00000000E+00
  0.00000000E+00  0.00000000E+00  0.00000000E+00
  0.00000000E+00  0.00000000E+00  0.00000000E+00
  0.00000000E+00  0.00000000E+00  0.00000000E+00
  0.00000000E+00  0.00000000E+00  0.00000000E+00
  0.00000000E+00  0.00000000E+00  0.00000000E+00
  0.00000000E+00  0.00000000E+00  0.00000000E+00
  0.00000000E+00  0.00000000E+00  0.00000000E+00
  0.00000000E+00  0.00000000E+00  0.00000000E+00
  0.00000000E+00  0.00000000E+00  0.00000000E+00
  0.00000000E+00  0.00000000E+00  0.00000000E+00
  0.00000000E+00  0.00000000E+00  0.00000000E+00
  0.00000000E+00  0.00000000E+00  0.00000000E+00
  0.00000000E+00  0.00000000E+00  0.00000000E+00
  0.00000000E+00  0.00000000E+00  0.00000000E+00
  0.00000000E+00  0.00000000E+00  0.00000000E+00
  0.00000000E+00  0.00000000E+00  0.00000000E+00
  0.00000000E+00  0.00000000E+00  0.00000000E+00
  0.00000000E+00  0.00000000E+00  0.00000000E+00
  0.00000000E+00  0.00000000E+00  0.00000000E+00
  0.00000000E+00  0.00000000E+00  0.00000000E+00
  0.00000000E+00  0.00000000E+00  0.00000000E+00
  0.00000000E+00  0.00000000E+00  0.00000000E+00
  0.00000000E+00  0.00000000E+00  0.00000000E+00
  0.00000000E+00  0.00000000E+00  0.00000000E+00
  0.00000000E+00  0.00000000E+00  0.00000000E+00
  0.00000000E+00  0.00000000E+00  0.00000000E+00
  0.00000000E+00  0.00000000E+00  0.00000000E+00
  0.00000000E+00  0.00000000E+00  0.00000000E+00
  0.00000000E+00  0.00000000E+00  0.00000000E+00
  0.00000000E+00  0.00000000E+00  0.00000000E+00
  0.00000000E+00  0.00000000E+00  0.00000000E+00
  0.00000000E+00  0.00000000E+00  0.00000000E+00
  0.00000000E+00  0.00000000E+00  0.00000000E+00
  0.00000000E+00  0.00000000E+00  0.00000000E+00
  0.00000000E+00  0.00000000E+00  0.00000000E+00
  0.00000000E+00  0.00000000E+00  0.00000000E+00
  0.00000000E+00  0.00000000E+00  0.00000000E+00
  0.00000000E+00  0.00000000E+00  0.00000000E+00
  0.00000000E+00  0.00000000E+00  0.00000000E+00
  0.00000000E+00  0.00000000E+00  0.00000000E+00
  0.00000000E+00  0.00000000E+00  0.00000000E+00
  0.00000000E+00  0.00000000E+00  0.00000000E+00
  0.00000000E+00  0.00000000E+00  0.00000000E+00
  0.00000000E+00  0.00000000E+00  0.00000000E+00
  0.00000000E+00  0.00000000E+00  0.00000000E+00
  0.00000000E+00  0.00000000E+00  0.00000000E+00
  0.00000000E+00  0.00000000E+00  0.00000000E+00
  0.00000000E+00  0.00000000E+00  0.00000000E+00
  0.00000000E+00  0.00000000E+00  0.00000000E+00
  0.00000000E+00  0.00000000E+00  0.00000000E+00
  0.00000000E+00  0.00000000E+00  0.00000000E+00
  0.00000000E+00  0.00000000E+00  0.00000000E+00
  0.00000000E+00  0.00000000E+00  0.00000000E+00
  0.00000000E+00  0.00000000E+00  0.00000000E+00
  0.00000000E+00  0.00000000E+00  0.00000000E+00
  0.00000000E+00  0.00000000E+00  0.00000000E+00
  0.00000000E+00  0.00000000E+00  0.00000000E+00
  0.00000000E+00  0.00000000E+00  0.00000000E+00
  0.00000000E+00  0.00000000E+00  0.00000000E+00
  0.00000000E+00  0.00000000E+00  0.00000000E+00
  0.00000000E+00  0.00000000E+00  0.00000000E+00
  0.00000000E+00  0.00000000E+00  0.00000000E+00
  0.00000000E+00  0.00000000E+00  0.00000000E+00
  0.00000000E+00  0.00000000E+00  0.00000000E+00
  0.00000000E+00  0.00000000E+00  0.00000000E+00
  0.00000000E+00  0.00000000E+00  0.00000000E+00
  0.00000000E+00  0.00000000E+00  0.00000000E+00
  0.00000000E+00  0.00000000E+00  0.00000000E+00
  0.00000000E+00  0.00000000E+00  0.00000000E+00
  0.00000000E+00  0.00000000E+00  0.00000000E+00
  0.00000000E+00  0.00000000E+00  0.00000000E+00
  0.00000000E+00  0.00000000E+00  0.00000000E+00
  0.00000000E+00  0.00000000E+00  0.00000000E+00
  0.00000000E+00  0.00000000E+00  0.00000000E+00
  0.00000000E+00  0.00000000E+00  0.00000000E+00
  0.00000000E+00  0.00000000E+00  0.00000000E+00
  0.00000000E+00  0.00000000E+00  0.00000000E+00
  0.00000000E+00  0.00000000E+00  0.00000000E+00
  0.00000000E+00  0.00000000E+00  0.00000000E+00