Ge1 Sb2 Te4
1.0
  13.9526520000000005   -2.1547299999999998    0.0000000000000000
  13.9526520000000005    2.1547299999999998    0.0000000000000000
  13.6198929999999994    0.0000000000000000    3.7172380000000000
Ge Sb Te
1 2 4
direct
   0.4295430000000000    0.4295430000000000    0.4295430000000000 Ge
   0.5734720000000000    0.5734720000000000    0.5734720000000000 Sb
   0.0020120000000000    0.0020120000000000    0.0020120000000000 Sb
   0.1302300000000000    0.1302300000000000    0.1302300000000000 Te
   0.8658349999999990    0.8658349999999990    0.8658349999999990 Te
   0.2886300000000000    0.2886300000000000    0.2886300000000000 Te
   0.7102790000000000    0.7102790000000000    0.7102790000000000 Te
