Sb                                      
   1.00000000000000     
    19.4273007964999991    0.0000000000000000    0.0000000000000000
     0.0000000000000000   19.4273007964999991    0.0000000000000000
     0.0000000000000000    0.0000000000000000   19.4273007964999991
   Ge  Sb   Te
     7    59   132
Direct
  0.0924231778865787  0.1474912019366341  0.3716543957064455
  0.3031823488275901  0.1433718440301086  0.7204654759306991
  0.1391232436753332  0.3813188969471697  0.9873858994794422
  0.1872969826819908  0.8100104646937443  0.8097844136325979
  0.8782387488620768  0.0691381579998794  0.8160785836298019
  0.3613712445335516  0.9521596470139285  0.4378517225013649
  0.3574122865830485  0.7637861114672682  0.6818398807044921
  0.7059722677486194  0.4278548220437776  0.4543436367376147
  0.3639988506278106  0.7572441333534015  0.3302696963150829
  0.9080321610265251  0.1832028192936478  0.2596293899197613
  0.2478992496491560  0.0250405374367613  0.2229500727491515
  0.5721687326462034  0.3553365574808537  0.6314536434165727
  0.0647635879997033  0.0481411725822167  0.9426173768529549
  0.6916389524780436  0.0198427009778263  0.9521871545036761
  0.6432907286395111  0.1719182837436335  0.3740720539729057
  0.2173565929564505  0.5047742269572657  0.2861324939937446
  0.0529487362359894  0.9382241111819716  0.6209025776039580
  0.8408229681569546  0.1288084208794428  0.9507532422483540
  0.1198634196815314  0.3358456690857931  0.7603348452349690
  0.6572929464828076  0.0606682744063993  0.6634845951483661
  0.4121873024023925  0.3840515695937998  0.3637896703470542
  0.5112713206270418  0.6701126986856225  0.0168095523879425
  0.6091173384198321  0.0942982474904658  0.2543894284200587
  0.8202738200333629  0.2833557080801040  0.0856379625980138
  0.9645305580960770  0.5012157474516203  0.9264492847251716
  0.5029279181703298  0.6305886466628717  0.3687767906892577
  0.2286592642769532  0.2431479752895757  0.8691742028804366
  0.5415867626368802  0.6790346742921752  0.5925275708397754
  0.7021671553904262  0.2420611271175598  0.7217679793930969
  0.3185926255692426  0.8635120086550814  0.9560137173384359
  0.6374218590950433  0.6856939191087158  0.9315989501226857
  0.9467827304684280  0.5087413019866174  0.1882117842005630
  0.2698844434409590  0.2574154377445362  0.1112727075062549
  0.0846144305306571  0.2827625984797844  0.2224810697297869
  0.1906135309263377  0.7363560152790026  0.0944827049319991
  0.1234976612922062  0.7588771141392584  0.3017418516281894
  0.1605705967435324  0.5741933571261939  0.9953855298793143
  0.4791971033476062  0.6732733406644458  0.7330501398783507
  0.1277980292513275  0.3400864042051426  0.3968105374151635
  0.5099291446912466  0.3022054699757321  0.2489292488262125
  0.6361801606584894  0.7161328627551258  0.2000589267212916
  0.4506818624215480  0.5077776563672077  0.1804392040604618
  0.1440210115241011  0.6965959542146187  0.6273617988297895
  0.7780372874396055  0.3876442405229802  0.8865235533719591
  0.6040933320728983  0.3149604467437500  0.8799064352264480
  0.2530743329961759  0.8702884147300488  0.1469282851413551
  0.9955257141647607  0.2967927660736518  0.6517994083687136
  0.8701557406726462  0.5019298269561230  0.7181079208150480
  0.4556099267368635  0.1252682228719775  0.5682559441101105
  0.7268882538740296  0.5861566023951735  0.1552979125017212
  0.6520019710145718  0.7426966950217088  0.4668609077077805
  0.0909564663954911  0.4252461956120347  0.2763078948072982
  0.2999732881027754  0.6469799947195817  0.9222607110036473
  0.6528579422140007  0.5911553820144012  0.6517795286519734
  0.9091631773636882  0.3925105769534889  0.4830850819106100
  0.4328166176814525  0.2538352777357902  0.4864384064949007
  0.0745128823709991  0.5883270814521785  0.1746328436124637
  0.9003702172016459  0.7864600081080718  0.7685867521165067
  0.0085363920634438  0.9768287408262326  0.8257345565232588
  0.5594551499040255  0.9183772417234669  0.7921987472617547
  0.4033129040758387  0.4613718981682074  0.9223879120842563
  0.5129752643990748  0.4529614743399386  0.5352957305632052
  0.7422583602194200  0.7873918928382518  0.7825776186624350
  0.8682590566387542  0.9465165029366850  0.9371658941490183
  0.7903536545952985  0.4670969110502954  0.0949123158662090
  0.7486763138939879  0.8094466293528515  0.2523291659718500
  0.9369302043059230  0.5134329061765281  0.3354548153316299
  0.0466372320253084  0.1083838744547664  0.2291580004286358
  0.2190210224101795  0.3379930262582643  0.6446075775537877
  0.1040664862325065  0.3225034898761033  0.5461974858259467
  0.4081248154810638  0.9369157423782559  0.7687715747971794
  0.9401591974215431  0.0349497996803749  0.0290486455359397
  0.5464419821033335  0.8318606987697468  0.2344791135450122
  0.6035396613803695  0.4531948325841084  0.9390149183165751
  0.0274093705061997  0.9591556680421718  0.4779844779945602
  0.8086002016468234  0.1518109887998397  0.1540705671361439
  0.0179362549938549  0.5958369371499650  0.5223642931477258
  0.9350702142963317  0.0315994300660751  0.6587232063886881
  0.4076721881853761  0.9704812339735140  0.9203517991328113
  0.3193408338641657  0.4015069282556897  0.2459484608259285
  0.2234189326452559  0.1609892951501200  0.2375048567874835
  0.3003256734192298  0.0678021007598579  0.3689758990049570
  0.9445767893861540  0.8322920414134563  0.3393058372315615
  0.4274383195617198  0.8972052593106929  0.6262075443213044
  0.5150124317008475  0.4043792098711068  0.7816518978854424
  0.3677410384022476  0.0468092931054413  0.1282193877016543
  0.9094728251885454  0.2557352581414705  0.9659027527787566
  0.2369928014840078  0.6782722086734514  0.7460464319195392
  0.1970121224010987  0.9744474040772217  0.8635927011773312
  0.1007562754899349  0.9116290512622011  0.0043406129768958
  0.5390561340820645  0.7964310854373914  0.9244612067456031
  0.7050870022427013  0.4407698950891483  0.7723714966569383
  0.7950464500011349  0.3901872604263483  0.2448378145632820
  0.2863164571914816  0.5171399958690975  0.8418493089684373
  0.0425291096809695  0.7625476111612113  0.1343451461740295
  0.7872014486864380  0.8008558821213826  0.9276843146170488
  0.4772953744519272  0.2769450214488415  0.9473428542179088
  0.0914273306340795  0.8838347914522433  0.2117443044649017
  0.4872268909406572  0.0291053376208727  0.4636695728283149
  0.7146290097927392  0.9455978400020519  0.5810581339373520
  0.0671303663469259  0.7720103789471942  0.7340562073322746
  0.6635237191043531  0.2652041009047025  0.0423128654751825
  0.8301145530194110  0.0429371084307570  0.2903758143184105
  0.8982556353263054  0.6850562801667784  0.8755397344383161
  0.7929044171338511  0.7896880419828464  0.4745553096601119
  0.8014827133446983  0.5342828083848643  0.9535133178791221
  0.2247997074506028  0.9778476326792391  0.0576183759311039
  0.5391265449917814  0.0441728794449014  0.9879329058168059
  0.5786474146987793  0.5638750583742534  0.1119602881313996
  0.5298479778000679  0.0597884386204897  0.8049064808279306
  0.7935295010520845  0.1646646055068359  0.3752342939954046
  0.2768887726113571  0.2969811499377950  0.3727976642500346
  0.2129448635387350  0.8095557022793004  0.4118182717603112
  0.4751970374595649  0.1142156660919638  0.3056029612739891
  0.2825057852844251  0.2202878689591508  0.4930879527451478
  0.5322644086186441  0.4825956134113444  0.3118092845100096
  0.8212210410026700  0.4971709273731584  0.5180508248655235
  0.1655650285192689  0.1984062752012416  0.7155980082167862
  0.9791410959795463  0.4387622690224792  0.6202343321335435
  0.9811450365505282  0.5968452940659154  0.7374362882860556
  0.6513422341286811  0.2412977775219440  0.2357423713597025
  0.7238008833334920  0.9332821282325893  0.7668731916207012
  0.0309291089521063  0.6207068028593055  0.0417332077904139
  0.2581911517274827  0.8753397813510065  0.6341136725881298
  0.9046703574671505  0.6920879685854731  0.3254406819422139
  0.7883874532307453  0.6036553189920069  0.8216945198193522
  0.3981256849653149  0.8995669438657738  0.3021446760493903
  0.4377618011593391  0.1943014079421908  0.1883257277357194
  0.3668421461711137  0.7674705190792951  0.8507021957481538
  0.4441943189646366  0.7587574360572779  0.4522252903170555
  0.0732616432348831  0.2829485287218946  0.9001981271945326
  0.5950583107666617  0.1631977639161844  0.5826151134701780
  0.9612897380729640  0.8149301569185812  0.5898968419688131
  0.4441297770580062  0.5979279814562684  0.8967465543805955
  0.9243507200700289  0.4055962210743599  0.8262914070172145
  0.3420626729114354  0.6836157566540363  0.0772885895758975
  0.2222920785238787  0.6675963265369854  0.4163582874254508
  0.6226271360224662  0.5469341348409444  0.4876665729622229
  0.7917838465783614  0.9291225989645104  0.0769787347782432
  0.4593645264167545  0.6747527224547748  0.2406191414638398
  0.6457201412540198  0.4110936278824104  0.0767328635324329
  0.4375246719471920  0.5818460710841616  0.6221049057893416
  0.0766045835923083  0.8026635692540413  0.5044714498883222
  0.5639111334144796  0.8565780669943925  0.4449857497769719
  0.9833831360810329  0.4050704185873771  0.0370412092465979
  0.4381008296561908  0.2630717815054095  0.8095684273632311
  0.7801859080913545  0.3609115925951004  0.6593463655187466
  0.5210244587086409  0.9403322444637401  0.0884940925359388
  0.3472838105101572  0.5089566507303646  0.0624042099472502
  0.6593892265739244  0.1051944496995133  0.0588514447139402
  0.7081520134382689  0.7261654537780025  0.6365908812462353
  0.1607078252343826  0.5528047176601635  0.5865149530888278
  0.9410039836753821  0.3170564258842512  0.1838567293866283
  0.1735992333415836  0.4811387925014992  0.1200680476298072
  0.8722793278060705  0.6286824321932185  0.1685114951863434
  0.9756366948545907  0.8499996680447548  0.9103449965440499
  0.2276453013784184  0.0129878289039789  0.7254941901870413
  0.3153868777420743  0.1424583672461715  0.0296158069971590
  0.8999720272374134  0.6907313852463629  0.4743195742307321
  0.8503629815967727  0.9922141069998577  0.5455883017466489
  0.3889536917368184  0.8326891864590409  0.0811042917469181
  0.9807184691437133  0.9773377099173667  0.2598627427807984
  0.0058853436998352  0.1276782085320669  0.7906481584748459
  0.7887419054017022  0.2373140575018742  0.8381185733256048
  0.7017162973583077  0.4890483199985628  0.3095975343156621
  0.2964920365129345  0.3377861465387044  0.7853656983503683
  0.2205257502275026  0.0144949874818253  0.5413180907179900
  0.6664178958286179  0.9203915850448005  0.2124009177927061
  0.5996845942755115  0.6060234684822094  0.7889679873201249
  0.1623670471422894  0.0010005275661279  0.4094727415725779
  0.8209669992932719  0.9010220470480711  0.3735675985646481
  0.8617110791151031  0.8291630865711516  0.1617136427131030
  0.5733662316086485  0.8930165436389610  0.6469234286384224
  0.3677094991863707  0.5220397837626326  0.4153016531061154
  0.2904265858630824  0.3374188024211408  0.9709901410905827
  0.7281353339313348  0.7104878600384902  0.0565617028318607
  0.6796880146427797  0.8680380292345908  0.0005708732882670
  0.2807519988303872  0.7363231200192055  0.5625370682981902
  0.3563364167115934  0.1328198377434261  0.8545581442626105
  0.6462334783881846  0.1352787166065365  0.8362877778585704
  0.2312532932030327  0.4873168023267765  0.4357249895681868
  0.1118107214841866  0.4975791691007174  0.8789996367498244
  0.9770998141456779  0.1081189547818963  0.4497717369798876
  0.6869753144182136  0.9620787877285406  0.4383714892446627
  0.6504453023722875  0.6655565233069379  0.3395173869701945
  0.2368444140967457  0.7011642648399921  0.2322990333093425
  0.1218325686684319  0.2539409585209822  0.0805307138314615
  0.4316193518668050  0.3268623825178578  0.6156182399306603
  0.9959133429307807  0.2695595558697391  0.3677741874255681
  0.4765091938303695  0.3689432850384230  0.1241845752395145
  0.8093748275265485  0.3281822607170277  0.3797087714195856
  0.8639519953906745  0.2775974555695663  0.5622910819995672
  0.7764438396518137  0.1484888790694105  0.6450631037701634
  0.5776125446057916  0.3269904701760607  0.4679027241850678
  0.0589968721297845  0.5670170181091997  0.3899735655206271
  0.1545910516071272  0.7469472897309770  0.9347884144638544
  0.2738527655830290  0.4815166065730356  0.6293328039425570
  0.8631841846986825  0.6712504718686751  0.6692203436294226
 
 -0.19493847E-04  0.95257548E-04 -0.10785247E-02
  0.62361401E-03 -0.79151336E-03  0.58012959E-03
 -0.15464045E-02 -0.95278196E-03  0.41779052E-03
  0.23596947E-02 -0.19558949E-02 -0.60593271E-04
  0.21282052E-02  0.26409491E-02  0.12761118E-04
  0.29775922E-03  0.10138188E-02  0.48462460E-03
  0.17639105E-02 -0.33628016E-02  0.60685032E-03
  0.17637948E-02  0.11874823E-03 -0.11458555E-02
 -0.27045276E-03  0.75453647E-03 -0.52994027E-03
 -0.33118253E-03  0.30914080E-02 -0.68276175E-03
 -0.34149619E-02  0.13043530E-02  0.16228427E-02
 -0.13914224E-02 -0.27013494E-02 -0.69159202E-03
  0.16548953E-03  0.34647561E-02 -0.11055900E-02
 -0.17487401E-02  0.37566609E-03  0.16305636E-02
 -0.12844696E-02 -0.45404553E-03 -0.27208707E-03
  0.21297237E-02  0.15309699E-02 -0.21564062E-02
  0.18715596E-03  0.16383406E-02 -0.10748847E-02
  0.11214993E-02 -0.10486160E-02  0.26563322E-02
 -0.92708561E-03 -0.10311311E-03  0.11808125E-02
 -0.11937338E-02  0.14438378E-02 -0.14452829E-02
  0.15694261E-02  0.11494274E-02 -0.14594982E-02
 -0.63697070E-03  0.68523581E-03 -0.20858141E-03
  0.31840842E-02  0.24856854E-03 -0.83824666E-03
 -0.24844356E-03 -0.73959088E-03  0.50853702E-03
  0.13521918E-02  0.12402082E-03  0.23231330E-02
 -0.10106255E-02  0.27348177E-03 -0.34404751E-03
  0.19878913E-02  0.49713863E-03 -0.11823834E-02
 -0.46011253E-03  0.12690346E-02 -0.20093345E-04
 -0.22599746E-02  0.14394296E-02 -0.36921849E-02
 -0.12703851E-03  0.74359435E-03 -0.22280883E-02
  0.63312218E-03 -0.18473743E-02  0.66468852E-03
  0.53867853E-03 -0.25975094E-02 -0.58383477E-03
 -0.15492938E-02 -0.73006732E-03  0.22579793E-02
  0.26456041E-02  0.12699160E-02 -0.18013215E-02
  0.10272413E-02 -0.75660076E-04  0.10520682E-02
  0.11411117E-02  0.41741662E-02 -0.25273825E-03
  0.12707958E-02 -0.10348206E-02 -0.10884088E-02
  0.13646825E-02  0.85849889E-03  0.42733605E-03
  0.15844781E-02  0.47019778E-03  0.17529995E-02
 -0.25262654E-02  0.11047422E-02 -0.71466561E-03
  0.92488724E-03 -0.80262104E-03  0.11183839E-03
 -0.14297343E-02 -0.70917558E-03  0.29421191E-03
  0.29364725E-02  0.22634262E-02 -0.15468386E-02
  0.24681679E-02 -0.40186435E-03 -0.12590469E-03
  0.20313283E-02  0.48345817E-03  0.21856998E-02
  0.48734115E-03 -0.27824383E-03 -0.10206708E-02
 -0.13653465E-02  0.55799599E-03  0.20950610E-04
  0.92159801E-03  0.34130744E-02  0.48808541E-03
 -0.71532624E-03 -0.43006381E-03 -0.26894069E-03
 -0.11057603E-02  0.17940887E-02 -0.65913074E-03
  0.15801567E-02  0.12875093E-03  0.10983851E-02
  0.46547214E-02  0.45818378E-03 -0.24382295E-02
  0.30078936E-03 -0.22042502E-03 -0.35200195E-02
  0.11632117E-02  0.14978311E-03 -0.86136829E-03
  0.23161634E-02 -0.33102043E-02 -0.15603092E-02
 -0.79431652E-04 -0.36269205E-03  0.29712273E-02
  0.81225156E-03  0.32800899E-04  0.14401273E-02
 -0.34458436E-02  0.11164911E-02 -0.24040546E-02
 -0.24318097E-02  0.10759472E-02  0.93977336E-03
 -0.68207997E-03 -0.14029977E-02  0.18120315E-03
 -0.15601237E-02  0.74074133E-03 -0.87481952E-03
  0.18725259E-02  0.80527200E-03 -0.12164979E-02
 -0.59817200E-03  0.12201016E-02  0.11622344E-03
  0.47355450E-03 -0.11035772E-02 -0.79993711E-03
 -0.39150530E-03  0.94846288E-04  0.18414352E-02
 -0.12102415E-02  0.43721102E-03 -0.28422386E-04
 -0.17380498E-02  0.88582143E-04 -0.96234382E-03
 -0.96902963E-03 -0.15153178E-02 -0.77634085E-03
 -0.33414632E-03  0.30807196E-03 -0.11799167E-02
 -0.37308353E-03 -0.17147833E-02 -0.71672568E-03
 -0.12632063E-03  0.20578707E-02  0.16648933E-02
  0.13034313E-02 -0.11635318E-03  0.91505008E-03
  0.30926067E-02  0.23551091E-03  0.70923415E-03
 -0.17290505E-02  0.16768341E-02 -0.12120230E-02
  0.95392982E-03 -0.93930044E-03 -0.71532801E-03
  0.26753103E-02 -0.29278896E-04  0.12751932E-02
  0.34697085E-03 -0.96295378E-03 -0.12545527E-02
 -0.27483754E-03 -0.31494537E-03  0.32532485E-04
 -0.15781223E-02  0.19147052E-02 -0.20008125E-03
 -0.84637685E-03  0.25411055E-03 -0.82759749E-03
  0.29465800E-03 -0.66448847E-03  0.98380492E-04
 -0.13187326E-02 -0.17773163E-02  0.14071593E-03
 -0.42768475E-03  0.26755259E-04 -0.14334173E-02
 -0.10457494E-02  0.36315199E-03  0.13694351E-02
  0.18963591E-03 -0.34318890E-02  0.42473033E-03
 -0.53304119E-04 -0.16192725E-02 -0.38980630E-03
  0.21140406E-02 -0.14107153E-02  0.21545877E-02
 -0.14366249E-02 -0.16433434E-02 -0.20073931E-02
 -0.23593419E-02 -0.10355712E-02 -0.17634828E-02
 -0.24361734E-03  0.21896717E-02 -0.21850178E-04
  0.13715152E-03 -0.70843188E-03 -0.22575975E-03
  0.11796806E-02  0.95733983E-03 -0.97592237E-03
 -0.13671192E-02  0.15451360E-03  0.54642682E-03
 -0.63883256E-03  0.24534123E-02  0.22879167E-02
 -0.13304826E-02  0.26239857E-02 -0.25575754E-03
 -0.13100499E-02 -0.80856539E-03 -0.47014483E-03
  0.25151873E-02  0.47835587E-03  0.23739866E-02
  0.26396989E-03  0.34450906E-02  0.49263321E-03
  0.97278378E-03 -0.40344470E-04  0.22334741E-02
  0.84360917E-04  0.65982804E-03  0.10829627E-02
  0.66377330E-03 -0.19358347E-03 -0.55939849E-03
  0.75802345E-03  0.34201396E-03  0.73511441E-03
  0.34877502E-02 -0.22636329E-02  0.25595515E-02
 -0.49318563E-03  0.39485778E-03  0.14043393E-02
  0.16925929E-02 -0.89667836E-03  0.12502184E-02
  0.14532629E-03 -0.18846550E-02  0.11270723E-02
  0.78086802E-03 -0.21382700E-03  0.10382839E-02
 -0.20080585E-04 -0.30777334E-03 -0.17126862E-03
 -0.71034234E-03 -0.55810424E-03  0.76782598E-03
  0.23862692E-04  0.15212414E-02  0.15166760E-02
 -0.16786542E-02 -0.18185051E-02  0.31195217E-02
  0.56602243E-03  0.25544167E-02  0.18133603E-02
 -0.55747303E-03  0.18950486E-02  0.15636799E-02
 -0.18040467E-02 -0.68551549E-03 -0.12730076E-02
  0.12414215E-02  0.40054110E-03  0.11158827E-02
  0.65457597E-03  0.19239649E-02  0.22252924E-04
 -0.11133559E-02  0.42242073E-04 -0.54647384E-03
 -0.12836501E-03  0.61933432E-03  0.90425965E-04
 -0.20682786E-02  0.37470233E-03 -0.91928140E-03
  0.14328210E-03  0.81456446E-03 -0.14209299E-02
 -0.22699530E-02 -0.13257828E-02  0.45740455E-03
 -0.16219900E-03 -0.70023014E-03 -0.84123262E-03
 -0.12329307E-02  0.73011819E-03 -0.32475038E-05
  0.22709516E-03 -0.25407608E-03  0.20658553E-02
 -0.21373188E-03  0.53394044E-03  0.22207437E-02
  0.18966415E-03  0.33493541E-04 -0.31538128E-02
 -0.22606937E-02 -0.34218023E-03 -0.43088591E-03
 -0.14386946E-02  0.88789280E-03  0.26402868E-02
  0.12301286E-02  0.55106420E-03  0.72966493E-03
  0.22216221E-02 -0.10394594E-03 -0.14233553E-02
 -0.51223542E-04  0.13479015E-02  0.12259103E-02
 -0.84880591E-03 -0.36204040E-03 -0.36579841E-02
  0.55160481E-03  0.76849969E-03 -0.11037850E-02
  0.30904533E-03 -0.73115558E-03 -0.63734267E-03
  0.33934930E-02  0.14982573E-02  0.16808663E-02
  0.29815832E-02 -0.20996771E-02 -0.11701451E-02
 -0.63579300E-03  0.87222164E-04 -0.18606224E-02
 -0.10342482E-03 -0.15137592E-02 -0.66000897E-03
 -0.15624203E-02 -0.13778264E-02  0.10812994E-02
 -0.21944345E-02  0.70627628E-03  0.12018497E-03
 -0.14324957E-02 -0.10678248E-02 -0.24440498E-02
  0.11496958E-02 -0.78682417E-03 -0.27360365E-03
  0.46037494E-03  0.48528597E-03 -0.80824945E-04
  0.18381093E-02 -0.41115961E-02 -0.17853138E-02
  0.11864357E-02 -0.11722220E-02  0.38502039E-03
 -0.12855144E-02 -0.86680693E-03 -0.80486625E-04
 -0.14774329E-03 -0.24531762E-02 -0.34465284E-03
 -0.10466027E-02  0.62358205E-03 -0.18523234E-02
 -0.15124542E-02 -0.11243728E-02  0.43101166E-03
  0.21714581E-02  0.23023751E-02  0.54244085E-03
 -0.95088803E-03  0.11270443E-02  0.93786890E-03
 -0.17499834E-02 -0.34208630E-03  0.93840574E-04
 -0.12803687E-02 -0.17723048E-03  0.19542367E-02
 -0.40949136E-03  0.41135092E-02 -0.80549333E-03
 -0.25128321E-02  0.52946907E-03  0.32109902E-03
 -0.41849995E-03 -0.15877075E-02  0.15731156E-02
 -0.16945859E-02  0.57545295E-03  0.21818087E-03
  0.13352110E-02 -0.15272863E-02 -0.16347996E-02
 -0.65639589E-03 -0.19533710E-02 -0.16058853E-02
  0.44099682E-03  0.16209798E-03  0.24529738E-02
 -0.52453746E-03  0.13070512E-02 -0.93727363E-03
 -0.12665668E-02  0.11622233E-02  0.16002121E-03
 -0.24632792E-02 -0.32739965E-03  0.19991124E-02
 -0.12427176E-02  0.20316376E-03  0.10772089E-02
  0.27636381E-03  0.22917231E-02  0.21663892E-03
 -0.29037813E-02 -0.17628022E-02  0.21654828E-03
  0.67910448E-03 -0.12598700E-03 -0.85618341E-03
 -0.24058376E-02  0.62783494E-03 -0.37182998E-03
 -0.17403021E-02 -0.12607187E-02 -0.12375069E-02
  0.17465683E-02 -0.15115659E-02  0.47208894E-04
  0.21902850E-02 -0.20023261E-02  0.21645821E-02
 -0.52667744E-04 -0.17343755E-02  0.33866409E-02
  0.10115419E-03 -0.21581482E-02  0.72807219E-03
  0.18319659E-02 -0.38860326E-03  0.12102062E-02
  0.27698960E-04 -0.10991342E-02  0.18196269E-02
 -0.68186892E-03 -0.80295520E-03  0.82728243E-03
  0.22654161E-03  0.36430416E-03  0.93011138E-03
 -0.85200314E-03  0.29168677E-02 -0.58279582E-03
 -0.53302068E-03 -0.76358516E-03 -0.14888652E-02
  0.14876778E-03  0.70368500E-03 -0.47370393E-03
 -0.39390674E-03  0.55819299E-03  0.22929153E-02
  0.10020834E-02 -0.43312110E-03 -0.24307793E-02
  0.27528029E-03  0.14121465E-02 -0.13485539E-02
 -0.10685831E-02 -0.14721204E-02  0.13706438E-02
  0.32535068E-03 -0.67171901E-03  0.25750857E-04
 -0.17931738E-02 -0.10128066E-02 -0.11010274E-03
 -0.27460885E-02 -0.10413557E-02 -0.48413933E-03
  0.50373215E-03  0.20041155E-03 -0.38121769E-04
  0.33318712E-02 -0.41083578E-03 -0.36266251E-03
 -0.51297033E-03 -0.24804909E-03  0.11421793E-03
  0.12249408E-02  0.11489177E-02  0.44866380E-03
 -0.21217621E-02 -0.45664059E-03 -0.77487227E-03
 -0.58972817E-03  0.54760648E-03 -0.76063168E-03
  0.14575657E-02  0.94640463E-03  0.54218774E-04
 -0.15584498E-03  0.14318100E-03 -0.22614357E-02
  0.21970428E-02  0.52938077E-03  0.15072132E-02
 -0.96061704E-04 -0.99705214E-04 -0.46473237E-03
  0.12983771E-02  0.46212659E-03 -0.28110872E-03
 
           1
   3.00000000000000     
  0.10000000E+01  0.00000000E+00  0.00000000E+00  0.00000000E+00
  0.92420168E-01  0.14750591E+00  0.37148785E+00
  0.30327865E+00  0.14324962E+00  0.72055506E+00
  0.13888445E+00  0.38117177E+00  0.98745042E+00
  0.18766137E+00  0.80970843E+00  0.80977506E+00
  0.87856739E+00  0.69545978E-01  0.81608055E+00
  0.36141723E+00  0.95231620E+00  0.43792656E+00
  0.35768467E+00  0.76326682E+00  0.68193359E+00
  0.70624464E+00  0.42787316E+00  0.45416669E+00
  0.36395709E+00  0.75736065E+00  0.33018786E+00
  0.90798102E+00  0.18368020E+00  0.25952396E+00
  0.24737190E+00  0.25241958E-01  0.22320068E+00
  0.57195387E+00  0.35491941E+00  0.63134685E+00
  0.64789143E-01  0.48676207E-01  0.94244665E+00
  0.69136891E+00  0.19900712E-01  0.95243895E+00
  0.64309238E+00  0.17184817E+00  0.37403004E+00
  0.21768547E+00  0.50501064E+00  0.28579950E+00
  0.52977637E-01  0.93847711E+00  0.62073659E+00
  0.84099615E+00  0.12864649E+00  0.95116344E+00
  0.11972026E+00  0.33582975E+00  0.76051719E+00
  0.65710861E+00  0.60891235E-01  0.66326141E+00
  0.41242966E+00  0.38422907E+00  0.36356429E+00
  0.51117296E+00  0.67021851E+00  0.16777343E-01
  0.60960903E+00  0.94336632E-01  0.25425998E+00
  0.82023545E+00  0.28324150E+00  0.85716492E-01
  0.96473937E+00  0.50123490E+00  0.92680803E+00
  0.50277186E+00  0.63063088E+00  0.36872366E+00
  0.22896624E+00  0.24322474E+00  0.86899162E+00
  0.54151571E+00  0.67923064E+00  0.59252447E+00
  0.70181817E+00  0.24228341E+00  0.72119783E+00
  0.31857301E+00  0.86362684E+00  0.95566965E+00
  0.63751963E+00  0.68540864E+00  0.93170159E+00
  0.94686591E+00  0.50834019E+00  0.18812163E+00
  0.26964520E+00  0.25730270E+00  0.11162139E+00
  0.85022970E-01  0.28295870E+00  0.22220291E+00
  0.19077216E+00  0.73634433E+00  0.94645167E-01
  0.12367387E+00  0.75952170E+00  0.30170282E+00
  0.16076684E+00  0.57403356E+00  0.99521746E+00
  0.47940784E+00  0.67340591E+00  0.73311613E+00
  0.12804271E+00  0.34015901E+00  0.39708124E+00
  0.50953903E+00  0.30237607E+00  0.24881889E+00
  0.63632298E+00  0.71600892E+00  0.20007620E+00
  0.45046108E+00  0.50766814E+00  0.18048464E+00
  0.14447447E+00  0.69694548E+00  0.62712293E+00
  0.77841843E+00  0.38758218E+00  0.88650411E+00
  0.60440701E+00  0.31503510E+00  0.88024396E+00
  0.25314959E+00  0.87024545E+00  0.14677067E+00
  0.99531487E+00  0.29687893E+00  0.65180264E+00
  0.87029806E+00  0.50245688E+00  0.71818329E+00
  0.45549946E+00  0.12520181E+00  0.56821441E+00
  0.72671750E+00  0.58643365E+00  0.15519613E+00
  0.65224598E+00  0.74271658E+00  0.46703052E+00
  0.91675257E-01  0.42531695E+00  0.27593138E+00
  0.30001974E+00  0.64694596E+00  0.92171714E+00
  0.65303757E+00  0.59117851E+00  0.65164651E+00
  0.90952084E+00  0.39199941E+00  0.48284414E+00
  0.43280435E+00  0.25377927E+00  0.48689723E+00
  0.74638312E-01  0.58833215E+00  0.17485523E+00
  0.89983810E+00  0.78663242E+00  0.76821551E+00
  0.81608675E-02  0.97699489E+00  0.82587968E+00
  0.55934982E+00  0.91816059E+00  0.79222673E+00
  0.40307199E+00  0.46148628E+00  0.92225282E+00
  0.51326442E+00  0.45308583E+00  0.53510788E+00
  0.74216599E+00  0.78758030E+00  0.78259557E+00
  0.86833218E+00  0.94634609E+00  0.93704237E+00
  0.79029320E+00  0.46711156E+00  0.95196674E-01
  0.74848943E+00  0.80951414E+00  0.25232478E+00
  0.93666181E+00  0.51344659E+00  0.33530621E+00
  0.46487593E-01  0.10814988E+00  0.22903812E+00
  0.21896942E+00  0.33804060E+00  0.64442537E+00
  0.10400887E+00  0.32223869E+00  0.54608681E+00
  0.40810531E+00  0.93723352E+00  0.76902867E+00
  0.94036048E+00  0.34931832E-01  0.29189949E-01
  0.54691955E+00  0.83189707E+00  0.23458863E+00
  0.60327266E+00  0.45345377E+00  0.93882776E+00
  0.27556678E-01  0.95901062E+00  0.47787402E+00
  0.80901333E+00  0.15180647E+00  0.15426748E+00
  0.17989835E-01  0.59568824E+00  0.52217056E+00
  0.93502777E+00  0.31550796E-01  0.65872823E+00
  0.40742849E+00  0.97077691E+00  0.92032090E+00
  0.31921013E+00  0.40154617E+00  0.24582066E+00
  0.22346443E+00  0.16088668E+00  0.23752005E+00
  0.30012203E+00  0.67527644E-01  0.36899763E+00
  0.94451075E+00  0.83229617E+00  0.33908449E+00
  0.42727683E+00  0.89726134E+00  0.62641902E+00
  0.51504172E+00  0.40384925E+00  0.78171749E+00
  0.36773281E+00  0.46559242E-01  0.12815919E+00
  0.90979928E+00  0.25551741E+00  0.96623547E+00
  0.23677096E+00  0.67801844E+00  0.74573645E+00
  0.19664779E+00  0.97428749E+00  0.86332038E+00
  0.10071866E+00  0.91196718E+00  0.43372388E-02
  0.53907731E+00  0.79632169E+00  0.92442634E+00
  0.70526917E+00  0.44091773E+00  0.77222079E+00
  0.79483534E+00  0.39021112E+00  0.24492219E+00
  0.28621781E+00  0.51751886E+00  0.84220261E+00
  0.42323654E-01  0.76295281E+00  0.13430565E+00
  0.78699915E+00  0.80073102E+00  0.92761171E+00
  0.47768377E+00  0.27701889E+00  0.94770945E+00
  0.91468093E-01  0.88436679E+00  0.21182038E+00
  0.48737711E+00  0.29099108E-01  0.46401447E+00
  0.71464204E+00  0.94569973E+00  0.58122537E+00
  0.67232867E-01  0.77198049E+00  0.73396982E+00
  0.66364077E+00  0.26525692E+00  0.42426383E-01
  0.83065314E+00  0.42587554E-01  0.29077107E+00
  0.89817948E+00  0.68511725E+00  0.87575660E+00
  0.79316579E+00  0.78954958E+00  0.47474837E+00
  0.80150515E+00  0.53399178E+00  0.95368736E+00
  0.22492029E+00  0.97781461E+00  0.57778710E-01
  0.53912344E+00  0.44125353E-01  0.98790646E+00
  0.57853772E+00  0.56378887E+00  0.11207886E+00
  0.52985166E+00  0.60023352E-01  0.80514069E+00
  0.79327028E+00  0.16438379E+00  0.37571602E+00
  0.27697618E+00  0.29737561E+00  0.37307769E+00
  0.21285878E+00  0.80984834E+00  0.41205974E+00
  0.47491845E+00  0.11410981E+00  0.30540638E+00
  0.28269749E+00  0.22034972E+00  0.49326027E+00
  0.53236549E+00  0.48289272E+00  0.31181272E+00
  0.82104911E+00  0.49717745E+00  0.51796644E+00
  0.16554521E+00  0.19850191E+00  0.71561197E+00
  0.97882171E+00  0.43882013E+00  0.62009237E+00
  0.98116716E+00  0.59697108E+00  0.73721687E+00
  0.65099170E+00  0.24109305E+00  0.23581300E+00
  0.72377584E+00  0.93317400E+00  0.76674329E+00
  0.30738717E-01  0.62081955E+00  0.41732706E-01
  0.25822622E+00  0.87530055E+00  0.63443269E+00
  0.90463735E+00  0.69217042E+00  0.32578361E+00
  0.78841674E+00  0.60366049E+00  0.82120750E+00
  0.39777658E+00  0.89951410E+00  0.30207814E+00
  0.43753964E+00  0.19443852E+00  0.18873345E+00
  0.36703210E+00  0.76755562E+00  0.85081487E+00
  0.44453739E+00  0.75874138E+00  0.45200549E+00
  0.73253733E-01  0.28315667E+00  0.90038743E+00
  0.59492724E+00  0.16314186E+00  0.58205024E+00
  0.96137492E+00  0.81504883E+00  0.58972639E+00
  0.44417750E+00  0.59781508E+00  0.89664813E+00
  0.92487475E+00  0.40582758E+00  0.82655097E+00
  0.34252309E+00  0.68329152E+00  0.77107894E-01
  0.22219390E+00  0.66760980E+00  0.41607097E+00
  0.62261116E+00  0.54670038E+00  0.48756465E+00
  0.79154257E+00  0.92890983E+00  0.77145711E-01
  0.45902566E+00  0.67486179E+00  0.24063770E+00
  0.64549893E+00  0.41092873E+00  0.76355449E-01
  0.43770221E+00  0.58172457E+00  0.62206266E+00
  0.76675676E-01  0.80273851E+00  0.50445897E+00
  0.56419498E+00  0.85594315E+00  0.44471006E+00
  0.98356635E+00  0.40488940E+00  0.37100665E-01
  0.43790232E+00  0.26293793E+00  0.80955600E+00
  0.78016309E+00  0.36053277E+00  0.65929314E+00
  0.52086284E+00  0.94042854E+00  0.88208053E-01
  0.34705025E+00  0.50878302E+00  0.62470768E-01
  0.65972455E+00  0.10554999E+00  0.58935209E-01
  0.70800518E+00  0.72633949E+00  0.63673571E+00
  0.16043759E+00  0.55275189E+00  0.58652944E+00
  0.94080627E+00  0.31702906E+00  0.18415851E+00
  0.17353600E+00  0.48177401E+00  0.11994366E+00
  0.87189129E+00  0.62876419E+00  0.16856108E+00
  0.97557207E+00  0.84975449E+00  0.91058792E+00
  0.22738362E+00  0.13076691E-01  0.72552788E+00
  0.31559306E+00  0.14222252E+00  0.29363358E-01
  0.89987067E+00  0.69042974E+00  0.47407159E+00