Cr8 Te24
1.0
   8.2062507599999996   -0.1034873700000000    0.0000000000000000
  -2.6146434699999999   10.3676317800000000    0.0000000000000000
   0.0000000000000000    0.0000000000000000   11.5575034700000003
Cr Te
8 24
direct
   0.6721939300000001    0.6740472100000000    0.0002458600000000 Cr
   0.8278239300000000    0.8260007100000000    0.5002442000000000 Cr
   0.3278239300000000    0.3260007100000000    0.9997558000000000 Cr
   0.1721939300000000    0.1740472100000000    0.4997541400000000 Cr
   0.4876344900000000    0.5061550200000000    0.2841888200000000 Cr
   0.0123928900000000    0.9938547300000000    0.7841653300000000 Cr
   0.5123928900000000    0.4938547300000000    0.7158346700000000 Cr
   0.9876344900000000    0.0061550200000000    0.2158111800000000 Cr
   0.3595068900000000    0.5674026100000000    0.9061403400000000 Te
   0.1404487600000000    0.9325407600000000    0.4061050900000000 Te
   0.6404487600000001    0.4325407600000000    0.0938949100000000 Te
   0.8595068900000000    0.0674016100000000    0.5938596600000000 Te
   0.9861244800000000    0.2365423800000000    0.3227866800000000 Te
   0.5138602500000000    0.2634157300000000    0.8227941400000001 Te
   0.0138602500000000    0.7634157300000001    0.6772058600000000 Te
   0.4861244800000000    0.7365423800000001    0.1772133200000000 Te
   0.1791351500000000    0.4288840800000000    0.1746892700000000 Te
   0.3208697400000000    0.0711318000000000    0.6746664999999999 Te
   0.8208697400000000    0.5711318000000000    0.8253334999999991 Te
   0.6791351500000000    0.9288840800000000    0.3253107300000000 Te
   0.1979201000000000    0.4023567100000000    0.6160001300000000 Te
   0.3020386600000000    0.0976759200000000    0.1159863000000000 Te
   0.8020386600000000    0.5976759200000000    0.3840136999999990 Te
   0.6979200999999990    0.9023567100000001    0.8839998700000000 Te
   0.3023592300000000    0.5976618100000000    0.4484000300000000 Te
   0.1976555800000000    0.9023375700000000    0.9483891800000001 Te
   0.6976555800000001    0.4023375700000000    0.5516108200000001 Te
   0.8023592300000000    0.0976618100000000    0.0515999700000000 Te
   0.5293133300000000    0.7315997800000000    0.6161572500000000 Te
   0.9707225900000001    0.7683921900000000    0.1161203200000000 Te
   0.4707225900000000    0.2683921900000000    0.3838796800000000 Te
   0.0293133300000000    0.2315997800000000    0.8838427500000000 Te
