Ge4 Te4                                 
   1.00000000000000     
    18.0257282257000000    0.0000000000000000    0.0000000000000000
     0.0000000000000000   18.0257282257000000    0.0000000000000000
     0.0000000000000000    0.0000000000000000   18.0257282257000000
   Ge   Te
   108   108
Selective dynamics
Direct
  0.0000000000000000  0.0000000000000000  0.6666667020000006   F   F   F
  0.0000000000000000  0.3333333510000003  0.6666667020000006   F   F   F
  0.0000000000000000  0.6666667020000006  0.6666667020000006   F   F   F
  0.3333333510000003  0.0000000000000000  0.6666667020000006   F   F   F
  0.3333333510000003  0.3333333510000003  0.6666667020000006   F   F   F
  0.3333333510000003  0.6666667020000006  0.6666667020000006   F   F   F
  0.6666667020000006  0.0000000000000000  0.6666667020000006   F   F   F
  0.6666667020000006  0.3333333510000003  0.6666667020000006   F   F   F
  0.6666667020000006  0.6666667020000006  0.6666667020000006   F   F   F
  0.0000000000000000  0.1666666750000019  0.5000000000000000   F   F   F
  0.0000000000000000  0.1666666750000019  0.8333333510000003   F   F   F
  0.0000000000000000  0.5000000000000000  0.5000000000000000   F   F   F
  0.0000000000000000  0.5000000000000000  0.8333333510000003   F   F   F
  0.0000000000000000  0.8333333510000003  0.5000000000000000   F   F   F
  0.0000000000000000  0.8333333510000003  0.8333333510000003   F   F   F
  0.3333333510000003  0.1666666750000019  0.5000000000000000   F   F   F
  0.3333333510000003  0.1666666750000019  0.8333333510000003   F   F   F
  0.3333333510000003  0.5000000000000000  0.5000000000000000   F   F   F
  0.3333333510000003  0.5000000000000000  0.8333333510000003   F   F   F
  0.3333333510000003  0.8333333510000003  0.5000000000000000   F   F   F
  0.3333333510000003  0.8333333510000003  0.8333333510000003   F   F   F
  0.6666667020000006  0.1666666750000019  0.5000000000000000   F   F   F
  0.6666667020000006  0.1666666750000019  0.8333333510000003   F   F   F
  0.6666667020000006  0.5000000000000000  0.5000000000000000   F   F   F
  0.6666667020000006  0.5000000000000000  0.8333333510000003   F   F   F
  0.6666667020000006  0.8333333510000003  0.5000000000000000   F   F   F
  0.6666667020000006  0.8333333510000003  0.8333333510000003   F   F   F
  0.1666666750000019  0.0000000000000000  0.5000000000000000   F   F   F
  0.1666666750000019  0.0000000000000000  0.8333333510000003   F   F   F
  0.1666666750000019  0.3333333510000003  0.5000000000000000   F   F   F
  0.1666666750000019  0.3333333510000003  0.8333333510000003   F   F   F
  0.1666666750000019  0.6666667020000006  0.5000000000000000   F   F   F
  0.1666666750000019  0.6666667020000006  0.8333333510000003   F   F   F
  0.5000000000000000  0.0000000000000000  0.5000000000000000   F   F   F
  0.5000000000000000  0.0000000000000000  0.8333333510000003   F   F   F
  0.5000000000000000  0.3333333510000003  0.5000000000000000   F   F   F
  0.5000000000000000  0.3333333510000003  0.8333333510000003   F   F   F
  0.5000000000000000  0.6666667020000006  0.5000000000000000   F   F   F
  0.5000000000000000  0.6666667020000006  0.8333333510000003   F   F   F
  0.8333333510000003  0.0000000000000000  0.5000000000000000   F   F   F
  0.8333333510000003  0.0000000000000000  0.8333333510000003   F   F   F
  0.8333333510000003  0.3333333510000003  0.5000000000000000   F   F   F
  0.8333333510000003  0.3333333510000003  0.8333333510000003   F   F   F
  0.8333333510000003  0.6666667020000006  0.5000000000000000   F   F   F
  0.8333333510000003  0.6666667020000006  0.8333333510000003   F   F   F
  0.1666666750000019  0.1666666750000019  0.6666667020000006   F   F   F
  0.1666666750000019  0.5000000000000000  0.6666667020000006   F   F   F
  0.1666666750000019  0.8333333510000003  0.6666667020000006   F   F   F
  0.5000000000000000  0.1666666750000019  0.6666667020000006   F   F   F
  0.5000000000000000  0.5000000000000000  0.6666667020000006   F   F   F
  0.5000000000000000  0.8333333510000003  0.6666667020000006   F   F   F
  0.8333333510000003  0.1666666750000019  0.6666667020000006   F   F   F
  0.8333333510000003  0.5000000000000000  0.6666667020000006   F   F   F
  0.8333333510000003  0.8333333510000003  0.6666667020000006   F   F   F
  0.5990759221218200  0.2341480262174751  0.2329549225534792   T   T   T
  0.0991757102237338  0.9730818857185521  0.0101676464087202   T   T   T
  0.9047653740904674  0.4518499946999089  0.4011031861325378   T   T   T
  0.2173706252235643  0.9156703234973609  0.2545460964981425   T   T   T
  0.4169674172170197  0.7396572192825376  0.4120271099413902   T   T   T
  0.9331502793882266  0.1212449716334160  0.3331030917655090   T   T   T
  0.9759002371230444  0.7995547260545779  0.1350053937243429   T   T   T
  0.5153632032702294  0.5548829731178110  0.0551533637100914   T   T   T
  0.2878257782982520  0.3020003903127889  0.3200872833404791   T   T   T
  0.8325648497817726  0.3445594371324015  0.3030571794396576   T   T   T
  0.7663603994201613  0.5671100610443045  0.1745259394397732   T   T   T
  0.4195054923829746  0.4025779334876062  0.4273026037541910   T   T   T
  0.9346719446416439  0.6982424574028762  0.2243321425530825   T   T   T
  0.3766463097640076  0.4643875045583243  0.2557813582561862   T   T   T
  0.0880549195714522  0.8406691988475997  0.3060791299552911   T   T   T
  0.1624774604496232  0.3931140619023689  0.2176331611392835   T   T   T
  0.4919284349109690  0.6666097521800903  0.2351895947883499   T   T   T
  0.9539275858887440  0.1043893204371634  0.0959837516456114   T   T   T
  0.1693541538150098  0.9371830912917075  0.1290744582432471   T   T   T
  0.6582505276973513  0.4056462281758258  0.2724810681832905   T   T   T
  0.2996878808005868  0.1147005866308718  0.2020031806162982   T   T   T
  0.3448348572949816  0.8812036415269857  0.2009656201617199   T   T   T
  0.5305568346042540  0.9815712112646494  0.1485259797374859   T   T   T
  0.5574091772329239  0.4391779270335049  0.3697072720589178   T   T   T
  0.0402331971997636  0.6324608480930783  0.0016543146761754   T   T   T
  0.1707812746811237  0.7991485055295912  0.1091387114750721   T   T   T
  0.6064046070301393  0.7588149144983790  0.4391368316252999   T   T   T
  0.4649216770018187  0.3051572752849481  0.0555020219724370   T   T   T
  0.6574627201598497  0.4090651671985206  0.0476091296744355   T   T   T
  0.1744236878958842  0.1128936738541864  0.3772944934828273   T   T   T
  0.9428539545741708  0.3070823519875102  0.0776085961767098   T   T   T
  0.8495184639044182  0.4643629607758131  0.2233664758272227   T   T   T
  0.4516617227620056  0.0586020048319671  0.0562220162881270   T   T   T
  0.1338544991564362  0.4332279688401564  0.0207936564086532   T   T   T
  0.0204075018097564  0.5911163614810733  0.1541007115220250   T   T   T
  0.0434396506065463  0.4237314082239957  0.4199108478910208   T   T   T
  0.2077436978138679  0.2097904325816763  0.1596366095173815   T   T   T
  0.3363504298098365  0.5307349786516544  0.3849745624187984   T   T   T
  0.9310165281313791  0.6963613265684734  0.3993936997691565   T   T   T
  0.5165034817144559  0.7594841105067465  0.1178022580342082   T   T   T
  0.0159497656762603  0.5505867251260596  0.2885964702609778   T   T   T
  0.8076075838301495  0.1417238790244391  0.1744237186214516   T   T   T
  0.7858093979438617  0.2170917587060252  0.0305985150136902   T   T   T
  0.7926476291945985  0.7405028787050272  0.0219748745752852   T   T   T
  0.9777201411137963  0.9106112981559830  0.4000740561969180   T   T   T
  0.7079148708398789  0.6440678530578623  0.3523172798540156   T   T   T
  0.3922187558644201  0.8264556085567815  0.0781013505427007   T   T   T
  0.6903308242559290  0.1329566668237971  0.3794910950248851   T   T   T
  0.1244893998572401  0.5184961376091609  0.3825076470401524   T   T   T
  0.7683888617760527  0.0292124484855425  0.3770683586414043   T   T   T
  0.4373172239615621  0.0213083410212433  0.3773957284376294   T   T   T
  0.3889424121998934  0.7228858486647287  0.1614014725047462   T   T   T
  0.6644735502339733  0.6743631221154659  0.2310877712970406   T   T   T
  0.2587337927153337  0.8360207721877767  0.3510992392169874   T   T   T
  0.1666666750000019  0.0000000000000000  0.6666667020000006   F   F   F
  0.1666666750000019  0.3333333510000003  0.6666667020000006   F   F   F
  0.1666666750000019  0.6666667020000006  0.6666667020000006   F   F   F
  0.5000000000000000  0.0000000000000000  0.6666667020000006   F   F   F
  0.5000000000000000  0.3333333510000003  0.6666667020000006   F   F   F
  0.5000000000000000  0.6666667020000006  0.6666667020000006   F   F   F
  0.8333333510000003  0.0000000000000000  0.6666667020000006   F   F   F
  0.8333333510000003  0.3333333510000003  0.6666667020000006   F   F   F
  0.8333333510000003  0.6666667020000006  0.6666667020000006   F   F   F
  0.1666666750000019  0.1666666750000019  0.5000000000000000   F   F   F
  0.1666666750000019  0.1666666750000019  0.8333333510000003   F   F   F
  0.1666666750000019  0.5000000000000000  0.8333333510000003   F   F   F
  0.1666666750000019  0.5000000000000000  0.8333333510000003   F   F   F
  0.1666666750000019  0.8333333510000003  0.5000000000000000   F   F   F
  0.1666666750000019  0.8333333510000003  0.8333333510000003   F   F   F
  0.5000000000000000  0.1666666750000019  0.5000000000000000   F   F   F
  0.5000000000000000  0.1666666750000019  0.8333333510000003   F   F   F
  0.5000000000000000  0.5000000000000000  0.5000000000000000   F   F   F
  0.5000000000000000  0.5000000000000000  0.8333333510000003   F   F   F
  0.5000000000000000  0.8333333510000003  0.5000000000000000   F   F   F
  0.5000000000000000  0.8333333510000003  0.8333333510000003   F   F   F
  0.8333333510000003  0.1666666750000019  0.5000000000000000   F   F   F
  0.8333333510000003  0.1666666750000019  0.8333333510000003   F   F   F
  0.8333333510000003  0.5000000000000000  0.5000000000000000   F   F   F
  0.8333333510000003  0.5000000000000000  0.8333333510000003   F   F   F
  0.8333333510000003  0.8333333510000003  0.5000000000000000   F   F   F
  0.8333333510000003  0.8333333510000003  0.8333333510000003   F   F   F
  0.0000000000000000  0.0000000000000000  0.5000000000000000   F   F   F
  0.0000000000000000  0.0000000000000000  0.8333333510000003   F   F   F
  0.0000000000000000  0.3333333510000003  0.5000000000000000   F   F   F
  0.0000000000000000  0.3333333510000003  0.8333333510000003   F   F   F
  0.0000000000000000  0.6666667020000006  0.5000000000000000   F   F   F
  0.0000000000000000  0.6666667020000006  0.8333333510000003   F   F   F
  0.3333333510000003  0.0000000000000000  0.5000000000000000   F   F   F
  0.3333333510000003  0.0000000000000000  0.8333333510000003   F   F   F
  0.3333333510000003  0.3333333510000003  0.5000000000000000   F   F   F
  0.3333333510000003  0.3333333510000003  0.8333333510000003   F   F   F
  0.3333333510000003  0.6666667020000006  0.5000000000000000   F   F   F
  0.3333333510000003  0.6666667020000006  0.8333333510000003   F   F   F
  0.6666667020000006  0.0000000000000000  0.5000000000000000   F   F   F
  0.6666667020000006  0.0000000000000000  0.8333333510000003   F   F   F
  0.6666667020000006  0.3333333510000003  0.5000000000000000   F   F   F
  0.6666667020000006  0.3333333510000003  0.8333333510000003   F   F   F
  0.6666667020000006  0.6666667020000006  0.5000000000000000   F   F   F
  0.6666667020000006  0.6666667020000006  0.8333333510000003   F   F   F
  0.0000000000000000  0.1666666750000019  0.6666667020000006   F   F   F
  0.0000000000000000  0.5000000000000000  0.6666667020000006   F   F   F
  0.0000000000000000  0.8333333510000003  0.6666667020000006   F   F   F
  0.3333333510000003  0.1666666750000019  0.6666667020000006   F   F   F
  0.3333333510000003  0.5000000000000000  0.6666667020000006   F   F   F
  0.3333333510000003  0.8333333510000003  0.6666667020000006   F   F   F
  0.6666667020000006  0.1666666750000019  0.6666667020000006   F   F   F
  0.6666667020000006  0.5000000000000000  0.6666667020000006   F   F   F
  0.6666667020000006  0.8333333510000003  0.6666667020000006   F   F   F
  0.0947711047598550  0.2654145250372503  0.4231006886420284   T   T   T
  0.7053384065922530  0.5563178348333292  0.0444566084662335   T   T   T
  0.2989526018824251  0.3320537156477141  0.1722100195578892   T   T   T
  0.1502326508944976  0.2320631766052102  0.2924228955972910   T   T   T
  0.8489236280832233  0.8542416296419502  0.0852892011585499   T   T   T
  0.4160661409456727  0.1755286614703149  0.1640596596112699   T   T   T
  0.5302522181320909  0.4212762850721091  0.1300024260796548   T   T   T
  0.9446622831683218  0.2059414619638003  0.1859180713172267   T   T   T
  0.7502046692082935  0.4059236130631794  0.3888132723508797   T   T   T
  0.9195378019078856  0.2517609970847138  0.4267756859068362   T   T   T
  0.7896001932949270  0.7159438048859923  0.1891640201839977   T   T   T
  0.6064716783419624  0.5750580147779970  0.4201295989950540   T   T   T
  0.2464286166807096  0.6524028726783345  0.4000881519201619   T   T   T
  0.0560488822751193  0.0408621689538579  0.3543120857703790   T   T   T
  0.0973980946880800  0.0976758598479448  0.0934211107494400   T   T   T
  0.5751847892990409  0.7337425913438436  0.3220439732510895   T   T   T
  0.3751663686310880  0.9011727898783622  0.4036377785208001   T   T   T
  0.8830538717864598  0.5847161061205014  0.3452124962714602   T   T   T
  0.0571928571480177  0.7857468181798025  0.0126588115151900   T   T   T
  0.1579729649943422  0.5242680280425960  0.1349919278651485   T   T   T
  0.3163220035409808  0.0102370056025860  0.1014908175756396   T   T   T
  0.4693115864957302  0.9228445489623216  0.2656542953269377   T   T   T
  0.9318869215424600  0.4771525094789285  0.1024146249110338   T   T   T
  0.5434600852389171  0.1395995259187260  0.3666677461237370   T   T   T
  0.4601574173194599  0.5593491878674500  0.3560260309559812   T   T   T
  0.7400002977019533  0.2229549643531387  0.2832992378065352   T   T   T
  0.8834484252438042  0.9912963493933084  0.1036359348266555   T   T   T
  0.0207387463767377  0.4086012096083921  0.2963102785261302   T   T   T
  0.6574560823778316  0.0538336732300401  0.2053744696296740   T   T   T
  0.9103948394618062  0.0781503331479739  0.4520918570151779   T   T   T
  0.7622682511521013  0.7434150844635549  0.4344630516920479   T   T   T
  0.6064570014787741  0.8693055209008252  0.1103159131133078   T   T   T
  0.2815597504454663  0.7240275982872747  0.0539030990969090   T   T   T
  0.9391588675475160  0.8044858203092168  0.3297855317544355   T   T   T
  0.2757480601788050  0.0354054205738044  0.3214358903872782   T   T   T
  0.7577743877934943  0.8978778529069001  0.4077145752010083   T   T   T
  0.6041013394286322  0.2440689400599243  0.0648513643320281   T   T   T
  0.1057068259048684  0.6157284252967739  0.3727863576132798   T   T   T
  0.2411111101007721  0.4465302853177801  0.3379881670934414   T   T   T
  0.3983103658499672  0.5863543424929413  0.1395858859509949   T   T   T
  0.6294522030907916  0.5421998715876866  0.2448462512499033   T   T   T
  0.4546095754590720  0.3401078792774282  0.3107937962242917   T   T   T
  0.1252113289516984  0.7208749621356613  0.2223769504026593   T   T   T
  0.0312385624419136  0.9232799409124005  0.1925710922734035   T   T   T
  0.8464168318725865  0.0181633062826449  0.2599587499976099   T   T   T
  0.0956403184249175  0.3017012535858115  0.0778362953563020   T   T   T
  0.5751939051629799  0.9698002158006982  0.4218669900797620   T   T   T
  0.0909373302588784  0.9199360383600349  0.3665480422006927   T   T   T
  0.7550249784573931  0.3675433020736290  0.1544079550359463   T   T   T
  0.3470124812711488  0.7403494506369749  0.2863480244399259   T   T   T
  0.4080216036609743  0.2427258283048433  0.4395776750271478   T   T   T
  0.6040767205354030  0.8701015615448289  0.3541842254956437   T   T   T
  0.5443112325291902  0.1250060126858450  0.1685304085165647   T   T   T
  0.9489173099030928  0.2782659404025268  0.2992335957453278   T   T   T
 
  0.00000000E+00  0.00000000E+00  0.00000000E+00
  0.00000000E+00  0.00000000E+00  0.00000000E+00
  0.00000000E+00  0.00000000E+00  0.00000000E+00
  0.00000000E+00  0.00000000E+00  0.00000000E+00
  0.00000000E+00  0.00000000E+00  0.00000000E+00
  0.00000000E+00  0.00000000E+00  0.00000000E+00
  0.00000000E+00  0.00000000E+00  0.00000000E+00
  0.00000000E+00  0.00000000E+00  0.00000000E+00
  0.00000000E+00  0.00000000E+00  0.00000000E+00
  0.00000000E+00  0.00000000E+00  0.00000000E+00
  0.00000000E+00  0.00000000E+00  0.00000000E+00
  0.00000000E+00  0.00000000E+00  0.00000000E+00
  0.00000000E+00  0.00000000E+00  0.00000000E+00
  0.00000000E+00  0.00000000E+00  0.00000000E+00
  0.00000000E+00  0.00000000E+00  0.00000000E+00
  0.00000000E+00  0.00000000E+00  0.00000000E+00
  0.00000000E+00  0.00000000E+00  0.00000000E+00
  0.00000000E+00  0.00000000E+00  0.00000000E+00
  0.00000000E+00  0.00000000E+00  0.00000000E+00
  0.00000000E+00  0.00000000E+00  0.00000000E+00
  0.00000000E+00  0.00000000E+00  0.00000000E+00
  0.00000000E+00  0.00000000E+00  0.00000000E+00
  0.00000000E+00  0.00000000E+00  0.00000000E+00
  0.00000000E+00  0.00000000E+00  0.00000000E+00
  0.00000000E+00  0.00000000E+00  0.00000000E+00
  0.00000000E+00  0.00000000E+00  0.00000000E+00
  0.00000000E+00  0.00000000E+00  0.00000000E+00
  0.00000000E+00  0.00000000E+00  0.00000000E+00
  0.00000000E+00  0.00000000E+00  0.00000000E+00
  0.00000000E+00  0.00000000E+00  0.00000000E+00
  0.00000000E+00  0.00000000E+00  0.00000000E+00
  0.00000000E+00  0.00000000E+00  0.00000000E+00
  0.00000000E+00  0.00000000E+00  0.00000000E+00
  0.00000000E+00  0.00000000E+00  0.00000000E+00
  0.00000000E+00  0.00000000E+00  0.00000000E+00
  0.00000000E+00  0.00000000E+00  0.00000000E+00
  0.00000000E+00  0.00000000E+00  0.00000000E+00
  0.00000000E+00  0.00000000E+00  0.00000000E+00
  0.00000000E+00  0.00000000E+00  0.00000000E+00
  0.00000000E+00  0.00000000E+00  0.00000000E+00
  0.00000000E+00  0.00000000E+00  0.00000000E+00
  0.00000000E+00  0.00000000E+00  0.00000000E+00
  0.00000000E+00  0.00000000E+00  0.00000000E+00
  0.00000000E+00  0.00000000E+00  0.00000000E+00
  0.00000000E+00  0.00000000E+00  0.00000000E+00
  0.00000000E+00  0.00000000E+00  0.00000000E+00
  0.00000000E+00  0.00000000E+00  0.00000000E+00
  0.00000000E+00  0.00000000E+00  0.00000000E+00
  0.00000000E+00  0.00000000E+00  0.00000000E+00
  0.00000000E+00  0.00000000E+00  0.00000000E+00
  0.00000000E+00  0.00000000E+00  0.00000000E+00
  0.00000000E+00  0.00000000E+00  0.00000000E+00
  0.00000000E+00  0.00000000E+00  0.00000000E+00
  0.00000000E+00  0.00000000E+00  0.00000000E+00
  0.24654681E-03  0.37372086E-02  0.87025281E-03
  0.78022628E-05  0.18663906E-03 -0.66927848E-03
  0.85903514E-03 -0.25956464E-02 -0.31627890E-02
 -0.80313200E-03  0.94379930E-03 -0.68208504E-03
  0.17523457E-02  0.65245787E-03 -0.46213248E-03
  0.13526705E-02  0.11601382E-02 -0.63693436E-02
 -0.13555516E-04 -0.18575524E-03 -0.11489432E-03
  0.77607129E-03 -0.48724228E-04 -0.50648653E-03
  0.34847023E-03 -0.55646256E-03 -0.27430802E-03
 -0.11543567E-02  0.89613803E-03 -0.22745247E-02
 -0.39522951E-04 -0.48138558E-03 -0.48521983E-03
 -0.58614132E-03  0.50789552E-02 -0.26296083E-02
  0.74718951E-03 -0.97504751E-03 -0.10270982E-02
  0.15853624E-03 -0.42562498E-03 -0.15916825E-02
  0.11295611E-02  0.42882570E-04 -0.29287713E-03
 -0.38021848E-03 -0.18280228E-03 -0.11255775E-02
  0.41051645E-03 -0.21369513E-02 -0.56228184E-03
  0.15605604E-02  0.85982815E-03 -0.28799984E-02
 -0.13540016E-03  0.47894222E-03 -0.99516731E-03
 -0.40159839E-03 -0.20035514E-02 -0.31938162E-03
 -0.21171404E-02 -0.53452788E-03 -0.52681903E-04
 -0.55412328E-03  0.58736967E-03 -0.67502926E-03
 -0.47377625E-03 -0.93600332E-03 -0.58271577E-03
  0.11987812E-02 -0.17440487E-02 -0.84043008E-03
 -0.62939002E-04  0.11454849E-03 -0.25150286E-03
  0.19774916E-03  0.14569188E-03  0.53113600E-04
 -0.65753332E-02 -0.23752259E-02  0.90049366E-03
  0.39860533E-03 -0.12982185E-03 -0.37258758E-03
 -0.34701879E-04 -0.30118544E-03 -0.92145320E-03
  0.50696271E-03 -0.91056271E-03 -0.27189421E-02
 -0.52175409E-03  0.57151291E-03 -0.87239897E-03
  0.40141866E-03  0.18146821E-03 -0.90964718E-04
 -0.62911710E-04  0.27054086E-04 -0.10304798E-02
  0.13599388E-04  0.51209498E-03 -0.16372308E-02
 -0.53037448E-04  0.27414585E-03 -0.56106341E-03
  0.64046223E-02  0.10077568E-02 -0.23470801E-02
 -0.18569578E-03 -0.25245230E-03 -0.10601613E-02
 -0.22553850E-02  0.17289678E-02 -0.38419907E-02
 -0.25495754E-02  0.43631202E-04 -0.12227820E-02
  0.12969023E-02 -0.92249352E-03 -0.11465668E-02
 -0.24244442E-03  0.47274155E-03 -0.14942417E-02
 -0.12880163E-02 -0.34703798E-03 -0.13212980E-02
  0.19335222E-03  0.26976807E-03  0.57846274E-03
 -0.63080009E-03 -0.12231326E-02 -0.56172578E-03
 -0.60045993E-02  0.13892344E-02 -0.66308919E-02
  0.29360772E-02 -0.20751671E-02 -0.23248958E-02
  0.22028741E-03  0.20743917E-02 -0.21276393E-02
 -0.21650131E-03 -0.20632709E-03 -0.20031921E-02
  0.46538233E-02  0.33864899E-04  0.85006424E-03
 -0.92419205E-04  0.20796774E-02 -0.11861693E-02
 -0.91837157E-03  0.38456670E-02 -0.23875922E-02
 -0.93136819E-03  0.30599670E-03 -0.19326959E-02
 -0.10183575E-02  0.20504340E-02 -0.29206687E-02
 -0.18628768E-02 -0.13927164E-02  0.14594616E-02
  0.00000000E+00  0.00000000E+00  0.00000000E+00
  0.00000000E+00  0.00000000E+00  0.00000000E+00
  0.00000000E+00  0.00000000E+00  0.00000000E+00
  0.00000000E+00  0.00000000E+00  0.00000000E+00
  0.00000000E+00  0.00000000E+00  0.00000000E+00
  0.00000000E+00  0.00000000E+00  0.00000000E+00
  0.00000000E+00  0.00000000E+00  0.00000000E+00
  0.00000000E+00  0.00000000E+00  0.00000000E+00
  0.00000000E+00  0.00000000E+00  0.00000000E+00
  0.00000000E+00  0.00000000E+00  0.00000000E+00
  0.00000000E+00  0.00000000E+00  0.00000000E+00
  0.00000000E+00  0.00000000E+00  0.00000000E+00
  0.00000000E+00  0.00000000E+00  0.00000000E+00
  0.00000000E+00  0.00000000E+00  0.00000000E+00
  0.00000000E+00  0.00000000E+00  0.00000000E+00
  0.00000000E+00  0.00000000E+00  0.00000000E+00
  0.00000000E+00  0.00000000E+00  0.00000000E+00
  0.00000000E+00  0.00000000E+00  0.00000000E+00
  0.00000000E+00  0.00000000E+00  0.00000000E+00
  0.00000000E+00  0.00000000E+00  0.00000000E+00
  0.00000000E+00  0.00000000E+00  0.00000000E+00
  0.00000000E+00  0.00000000E+00  0.00000000E+00
  0.00000000E+00  0.00000000E+00  0.00000000E+00
  0.00000000E+00  0.00000000E+00  0.00000000E+00
  0.00000000E+00  0.00000000E+00  0.00000000E+00
  0.00000000E+00  0.00000000E+00  0.00000000E+00
  0.00000000E+00  0.00000000E+00  0.00000000E+00
  0.00000000E+00  0.00000000E+00  0.00000000E+00
  0.00000000E+00  0.00000000E+00  0.00000000E+00
  0.00000000E+00  0.00000000E+00  0.00000000E+00
  0.00000000E+00  0.00000000E+00  0.00000000E+00
  0.00000000E+00  0.00000000E+00  0.00000000E+00
  0.00000000E+00  0.00000000E+00  0.00000000E+00
  0.00000000E+00  0.00000000E+00  0.00000000E+00
  0.00000000E+00  0.00000000E+00  0.00000000E+00
  0.00000000E+00  0.00000000E+00  0.00000000E+00
  0.00000000E+00  0.00000000E+00  0.00000000E+00
  0.00000000E+00  0.00000000E+00  0.00000000E+00
  0.00000000E+00  0.00000000E+00  0.00000000E+00
  0.00000000E+00  0.00000000E+00  0.00000000E+00
  0.00000000E+00  0.00000000E+00  0.00000000E+00
  0.00000000E+00  0.00000000E+00  0.00000000E+00
  0.00000000E+00  0.00000000E+00  0.00000000E+00
  0.00000000E+00  0.00000000E+00  0.00000000E+00
  0.00000000E+00  0.00000000E+00  0.00000000E+00
  0.00000000E+00  0.00000000E+00  0.00000000E+00
  0.00000000E+00  0.00000000E+00  0.00000000E+00
  0.00000000E+00  0.00000000E+00  0.00000000E+00
  0.00000000E+00  0.00000000E+00  0.00000000E+00
  0.00000000E+00  0.00000000E+00  0.00000000E+00
  0.00000000E+00  0.00000000E+00  0.00000000E+00
  0.00000000E+00  0.00000000E+00  0.00000000E+00
  0.00000000E+00  0.00000000E+00  0.00000000E+00
  0.00000000E+00  0.00000000E+00  0.00000000E+00
 -0.14276318E-02 -0.18876307E-02 -0.44269732E-02
 -0.63930658E-04  0.22607534E-03 -0.37267364E-03
  0.26585465E-03  0.14682888E-03 -0.29838884E-03
  0.41506574E-03 -0.16249818E-03 -0.22927744E-02
 -0.43994678E-03 -0.17432840E-02 -0.43146622E-03
 -0.25538917E-02  0.23454328E-02 -0.46868632E-03
 -0.29702011E-03  0.14188932E-03  0.16173988E-03
  0.17167951E-03 -0.14249055E-02 -0.27865865E-02
 -0.15241679E-02  0.11404539E-02 -0.17575539E-03
 -0.29171067E-02 -0.11899034E-02 -0.72433942E-03
  0.91711488E-03  0.75119536E-03 -0.95676897E-03
 -0.32815592E-02 -0.13674477E-03 -0.57907402E-02
 -0.29737485E-04 -0.30333224E-03 -0.62826474E-02
  0.37775767E-03  0.83052208E-03 -0.24849737E-02
  0.25698620E-03 -0.16319594E-05 -0.26287596E-03
 -0.23897139E-02 -0.19916744E-02 -0.40914294E-02
  0.15392300E-02  0.18720931E-03 -0.47756646E-02
 -0.11166330E-02 -0.92582933E-03 -0.16538255E-02
 -0.16245599E-03 -0.29316879E-03 -0.53376498E-03
  0.30834165E-03  0.21994207E-03  0.17714937E-03
 -0.10226265E-03 -0.39995696E-03 -0.31646451E-03
 -0.22703118E-04 -0.19948925E-03 -0.74632830E-03
  0.10878556E-03 -0.10607454E-03 -0.39317694E-03
  0.60722358E-03  0.24714937E-03 -0.30872847E-02
  0.14104382E-02  0.15492725E-02 -0.24795237E-02
  0.37282187E-03  0.24026561E-03 -0.26794238E-03
 -0.31331066E-03  0.11466091E-02 -0.99129836E-03
  0.72292754E-03  0.74695800E-03 -0.44855221E-02
  0.33367638E-02 -0.22107240E-02  0.64689162E-03
  0.20205966E-02  0.27395267E-03 -0.53654800E-02
 -0.15733505E-02  0.95739126E-03 -0.72020228E-02
  0.65816496E-03 -0.50918514E-03 -0.31783349E-03
 -0.36356072E-03 -0.12532543E-03 -0.72495746E-03
 -0.10657208E-02  0.62992781E-03 -0.28324227E-02
  0.68699110E-03 -0.24988596E-03 -0.21304604E-03
 -0.84943956E-03  0.11826631E-02 -0.47957155E-02
  0.42737027E-03  0.41575970E-03 -0.50753118E-03
 -0.11407226E-02 -0.33874327E-03 -0.18061343E-02
 -0.14358063E-02 -0.71323870E-03 -0.35969768E-03
 -0.38183575E-03 -0.15200717E-02 -0.44846422E-03
 -0.58385298E-03 -0.10446192E-02 -0.59034040E-03
  0.37274280E-03 -0.58232398E-03 -0.24415098E-02
  0.87831174E-04 -0.24980156E-03  0.10438536E-03
 -0.67315354E-04  0.11139987E-03  0.16316529E-03
  0.15382018E-03 -0.20682311E-03  0.17785011E-03
 -0.13982556E-03 -0.19744351E-03  0.12958858E-03
 -0.34435020E-03  0.24157115E-02 -0.85957250E-02
 -0.23187074E-02 -0.11376598E-02 -0.65856368E-02
  0.93725784E-04 -0.43198538E-03 -0.63831526E-03
 -0.82140399E-03 -0.14553649E-03  0.31836530E-03
  0.23357691E-02  0.34618961E-04 -0.77150612E-02
  0.25370149E-02 -0.28947067E-02 -0.70498993E-02
  0.74442073E-03 -0.37959759E-03 -0.64011155E-03
  0.25637423E-02  0.91565509E-03 -0.13598370E-02
 
           1
   3.00000000000000     
  0.10000000E+01  0.00000000E+00  0.00000000E+00  0.00000000E+00
  0.00000000E+00  0.00000000E+00  0.66666670E+00
  0.00000000E+00  0.33333335E+00  0.66666670E+00
  0.00000000E+00  0.66666670E+00  0.66666670E+00
  0.33333335E+00  0.00000000E+00  0.66666670E+00
  0.33333335E+00  0.33333335E+00  0.66666670E+00
  0.33333335E+00  0.66666670E+00  0.66666670E+00
  0.66666670E+00  0.00000000E+00  0.66666670E+00
  0.66666670E+00  0.33333335E+00  0.66666670E+00
  0.66666670E+00  0.66666670E+00  0.66666670E+00
  0.00000000E+00  0.16666668E+00  0.50000000E+00
  0.00000000E+00  0.16666668E+00  0.83333335E+00
  0.00000000E+00  0.50000000E+00  0.50000000E+00
  0.00000000E+00  0.50000000E+00  0.83333335E+00
  0.00000000E+00  0.83333335E+00  0.50000000E+00
  0.00000000E+00  0.83333335E+00  0.83333335E+00
  0.33333335E+00  0.16666668E+00  0.50000000E+00
  0.33333335E+00  0.16666668E+00  0.83333335E+00
  0.33333335E+00  0.50000000E+00  0.50000000E+00
  0.33333335E+00  0.50000000E+00  0.83333335E+00
  0.33333335E+00  0.83333335E+00  0.50000000E+00
  0.33333335E+00  0.83333335E+00  0.83333335E+00
  0.66666670E+00  0.16666668E+00  0.50000000E+00
  0.66666670E+00  0.16666668E+00  0.83333335E+00
  0.66666670E+00  0.50000000E+00  0.50000000E+00
  0.66666670E+00  0.50000000E+00  0.83333335E+00
  0.66666670E+00  0.83333335E+00  0.50000000E+00
  0.66666670E+00  0.83333335E+00  0.83333335E+00
  0.16666668E+00  0.00000000E+00  0.50000000E+00
  0.16666668E+00  0.00000000E+00  0.83333335E+00
  0.16666668E+00  0.33333335E+00  0.50000000E+00
  0.16666668E+00  0.33333335E+00  0.83333335E+00
  0.16666668E+00  0.66666670E+00  0.50000000E+00
  0.16666668E+00  0.66666670E+00  0.83333335E+00
  0.50000000E+00  0.00000000E+00  0.50000000E+00
  0.50000000E+00  0.00000000E+00  0.83333335E+00
  0.50000000E+00  0.33333335E+00  0.50000000E+00
  0.50000000E+00  0.33333335E+00  0.83333335E+00
  0.50000000E+00  0.66666670E+00  0.50000000E+00
  0.50000000E+00  0.66666670E+00  0.83333335E+00
  0.83333335E+00  0.00000000E+00  0.50000000E+00
  0.83333335E+00  0.00000000E+00  0.83333335E+00
  0.83333335E+00  0.33333335E+00  0.50000000E+00
  0.83333335E+00  0.33333335E+00  0.83333335E+00
  0.83333335E+00  0.66666670E+00  0.50000000E+00
  0.83333335E+00  0.66666670E+00  0.83333335E+00
  0.16666668E+00  0.16666668E+00  0.66666670E+00
  0.16666668E+00  0.50000000E+00  0.66666670E+00
  0.16666668E+00  0.83333335E+00  0.66666670E+00
  0.50000000E+00  0.16666668E+00  0.66666670E+00
  0.50000000E+00  0.50000000E+00  0.66666670E+00
  0.50000000E+00  0.83333335E+00  0.66666670E+00
  0.83333335E+00  0.16666668E+00  0.66666670E+00
  0.83333335E+00  0.50000000E+00  0.66666670E+00
  0.83333335E+00  0.83333335E+00  0.66666670E+00
  0.59911695E+00  0.23477001E+00  0.23309976E+00