guize-2                                 
   1.00000000000000     
    17.3953091344837780    0.0058565224704926    0.0147213143999308
    -8.6924907542251688   14.9819206031504173   -0.0072658247146633
     0.0194937369309682    0.0015847899632694   21.8119830797817436
   Ge   Sb   Te
    38    42    96
Direct
  0.1620353110778336  0.3308924870748799  0.1415766455699556
  0.1673248515077336  0.5843156857621777  0.6274351819897800
  0.0760499245916268  0.4115135430535469  0.9707015852937403
  0.7508796314865940  0.2523488591238969  0.8017873940247047
  0.9199102624296370  0.3344412999290350  0.6267556584387427
  0.6656980019953146  0.5827165987161438  0.6269227592240233
  0.1651974163466861  0.5777889033491865  0.1412494761660227
 -0.0007690433173215  0.2429802495556970  0.3115687681736682
  0.0042808516359714  0.0063642561096596  0.3115669530179427
  0.5895284622393465  0.1665152257494386  0.9746355678757964
  0.8352805864360362  0.4144065062150630  0.9767931222537258
  0.6648539975866175  0.3356981567543542  0.6266477163067675
  0.4170470048766985  0.8361628590919730  0.1419073149500939
  0.0776755578612346  0.9164887210375892  0.9671945896864654
  0.2514976940142706  0.5001286980482801  0.7978274322528234
  0.2438243521926605  0.0014853288502876  0.3110090768439944
  0.3360827660454081  0.4237553930383867  0.9717732856227632
  0.8277204716325448  0.9160606250361364  0.9710268103116797
  0.7577099790987031  0.0029884542943380  0.3107251354251301
  0.2472944120384802  0.7490018347213193  0.3110990553172295
  0.6703072026717264  0.0838273532589320  0.1434027442962544
  0.2440141273256166  0.2435872537769695  0.3117369917743854
  0.5024139359737506  0.5048353341167281  0.7944135973772521
  0.4947630445665837  0.4940931970553165  0.3083428545754475
  0.0855040208945412  0.6598340065101674  0.9725908556086139
  0.9181790780690954  0.0866511333537118  0.1402993399668872
  0.5871018482824651  0.4184338125211586  0.9643117584916836
  0.8361199688674613  0.1697261762021895  0.9730136565128507
  0.6662548527448114  0.5816654346926126  0.1387604659759653
  0.1735723067384818  0.0937227451271450  0.6278550583639875
  0.9164065732627591  0.3278260111651189  0.1434983925985173
  0.4999909466083895  0.7456235270139415  0.7964461865424197
  0.1702082733437514  0.3340983356101554  0.6266529472722011
  0.3376256883356109  0.9122165814949027  0.9742670237386788
  0.6680374720483189  0.8319001677913511  0.6264446661817993
  0.7459635352091027  0.7483310262420244  0.7950283032519848
  0.1678087356605337  0.8360032791299558  0.6282016081497088
  0.4152897685955718  0.3342988361083516  0.6263014104612296
  0.3309250451827105  0.6615211815703886  0.9692466571295049
  0.5037245795768848  0.2539965401677394  0.8046901030196433
  0.6681994822835000  0.3324361151727056  0.1365620813195492
  0.9146365868435480  0.8324014881432225  0.6215767404706497
  0.7497839199200594  0.0011135407887606  0.8021719098485266
  0.0046345592327002  0.7548429446940151  0.3116735547820747
  0.1625256770151726  0.0858006970826937  0.1347663439091642
  0.4997384100207928 -0.0004922852741596  0.3145831795232903
  0.9163450521948237  0.8329162801115330  0.1359239028474254
  0.5901965100366393  0.9219124400983923  0.9684095828414677
  0.4142607479067778  0.0803122463205093  0.1379312806672315
  0.7475603477184701  0.4986124357387275  0.3126146718704845
  0.0004493333667394  0.7504044073204584  0.8034131029310840
  0.0799049495083647  0.1699557161958178  0.9705382121133325
 -0.0020124444699610 -0.0003448804598216  0.8007282258200635
  0.0009761077837626  0.4959842016855719  0.3132364851599758
  0.6709316344315391  0.0876861704220082  0.6246004974476669
  0.1675060081023333  0.8332768985097390  0.1368452352016147
  0.2456225999585608  0.4940210516524778  0.3125726232450118
  0.5796001012952814  0.6650946651049841  0.9684875339382202
  0.2531049345262047  0.2586675017646305  0.8015311856511536
  0.4135134489866285  0.0888639998575511  0.6249293389317474
  0.4156217161595638  0.3315728585580974  0.1340187467219354
  0.6704462874495158  0.8373618003248652  0.1395908185135819
  0.9143092843452244  0.5799815729884658  0.6248895696640575
  0.7489313638236172  0.4964371950995639  0.7993558515844347
  0.9183977465300733  0.5808876641126839  0.1358989975255807
  0.7499049437223518  0.7496606244066775  0.3139295730380605
  0.4985675874919733  0.7482625556970527  0.3105428219509085
  0.4171293674868690  0.5824225637977912  0.6199792004091410
  0.3370299845000390  0.1718463937683285  0.9685193744915098
  0.7511684821772826  0.2439871296288663  0.3156887289280220
  0.4131848169835117  0.8297880729103680  0.6254516403422810
  0.9227392278342895  0.0903716964321135  0.6232473504062260
  0.4910758184807331  0.2464379340240282  0.3131972406505528
  0.2497116732182001  0.7474973514430552  0.8042178124377641
  0.2509466644516790 -0.0006416399315450  0.8059596214425988
  0.8315220682498276  0.6646153684577296  0.9667647052824635
  0.5046404945225978  0.0019008658935240  0.7992801830530754
  0.4106109502765182  0.5789640132072724  0.1377962995722749
 -0.0020255457609328  0.4966744104908590  0.8007290487732521
  0.0025164755466294  0.2563348018345618  0.8026657085627676
  0.2495873228962765 -0.0023114150301058  0.0499534521824442
  0.2432486045249791  0.4934578890507750  0.0486721929452525
  0.7569158920832464  0.0059679394808532  0.0486179213338244
  0.7480584599642900  0.4970248149683916  0.0505412483151076
  0.0794534514533250  0.1686394828601834  0.2108479615232130
  0.0867755363096651  0.6615435813972623  0.2136672630703229
  0.5859359895109505  0.1611260209521735  0.2149638675822267
  0.5839592383664630  0.6636969837940868  0.2116243102055304
  0.4083824592313688  0.3333189090831777  0.3775822140764106
  0.4077602419328326  0.8251527245930854  0.3805442676818596
  0.9218515797304841  0.3250362599709357  0.3826520863401101
  0.9238232034813088  0.8417624168913685  0.3800755062094681
  0.2433039580973370  0.0015825710885979  0.5607281931024105
  0.2428697671014102  0.4981174213720514  0.5596545036112902
  0.7490737467607702 -0.0037796572235948  0.5576640204312798
  0.7428101200845105  0.4981469545149271  0.5592893404808397
  0.0870821201412124  0.1725764864274476  0.7252768736092147
  0.0843823167888961  0.6684712715513935  0.7243843190782814
  0.5901139326930385  0.1733110787859695  0.7259955912232207
  0.5847454079101448  0.6684209986242584  0.7267440026269067
  0.4224600071825380  0.3418851185356418  0.8915068670481634
  0.4171719236378323  0.8353808074390060  0.8894552765973008
  0.9127631012115793  0.3333989208402162  0.8910678251454146
  0.9179235233157018  0.8377972245054143  0.8910305154205416
 -0.0047342305667313  0.2531979635782854  0.0486939932056474
  0.0032935244333108  0.7499401450424665  0.0496520491940436
  0.5056240954561609  0.2513148108495398  0.0502067637738498
  0.4983549784960740  0.7526793053227937  0.0500645404052090
  0.3250325328937498  0.4103500677140527  0.2114451975309392
  0.3353635571940558  0.9134252885335010  0.2156693867561665
  0.8380892500029213  0.4130133482386653  0.2150053511670570
  0.8380203477476299  0.9235552563277269  0.2120642885430442
  0.1637964034391181  0.0825811025512964  0.3780674091127887
  0.1706630920722106  0.5883065232219667  0.3821676507326143
  0.6727290227770898  0.0755137308298125  0.3832164095481881
  0.6559384565451727  0.5774536196540702  0.3790895926535294
  0.0076108381172545  0.2599766634263698  0.5591490447081051
  0.0069295219374613  0.7528878594954626  0.5575747971197054
  0.5019064404842243  0.2588424558960120  0.5590368245214395
  0.5107777887471511  0.7553928611657418  0.5555744782498736
  0.3382855151388015  0.4245943887327274  0.7269925340411354
  0.3336033181440011  0.9149006333344031  0.7235720728084791
  0.8290416980710471  0.4117527940277220  0.7240849815576823
  0.8282499025271580  0.9107665538783767  0.7260306828754878
  0.1642281771797424  0.0812798134887371  0.8903101840800550
  0.1617408730091737  0.5795092416422107  0.8895965818933219
  0.6708103783201171  0.0935567306883617  0.8885774215403868
  0.6626337306976423  0.5795823698814037  0.8897565212963113
  0.2496388299895878  0.2549493000242600  0.0488507357957844
  0.2490680712226149  0.7497566731347296  0.0493724235853744
  0.7527280961245538  0.2488150198368464  0.0490447564949173
  0.7497125644392052  0.7517654439823128  0.0500344181532905
  0.0821079645385255  0.4141741571632920  0.2109505213731791
  0.0832730493842987  0.9177151051183704  0.2137666490459947
  0.5852253261810723  0.4199614277627909  0.2112984710716293
  0.5802179709744160  0.9201040918553296  0.2131085896739410
  0.4038244793316200  0.0791933839569651  0.3812880307625865
  0.4186254400500710  0.5774555693736275  0.3789763602341650
  0.9180944975944231  0.0819419330061307  0.3777101506510259
  0.9170740115689279  0.5827417766835820  0.3825656667192824
  0.2533464144238560  0.2538788499821462  0.5609760014756964
  0.2425573260409541  0.7483741390435632  0.5599377978694270
  0.7541033271223863  0.2582598025384640  0.5606865494641464
  0.7431141187951404  0.7449236405115874  0.5582844393240655
  0.0903275040437671  0.4204135170765217  0.7253148787170476
  0.0860291718388040  0.9179796839575703  0.7255367188735807
  0.5817283405062305  0.4199527081122220  0.7253449415530153
  0.5806173641047934  0.9082813302439224  0.7241696981092257
  0.4210639510154220  0.0829471455245037  0.8905632021620771
  0.4139329739682759  0.5786546530285736  0.8885470791661427
  0.9098275125764408  0.0817665568465804  0.8898569789994918
  0.9190960571467353  0.5802968724731382  0.8906254661521430
 -0.0039047892453205 -0.0035924332787696  0.0483512466789478
  0.0006528262058983  0.4984613546388662  0.0486800533658732
  0.5004040059901761  0.0011036868374168  0.0490801345953259
  0.4982523341119552  0.4962621813043647  0.0495949639528527
  0.3270506696413739  0.1615997932988981  0.2145348206939377
  0.3288259446953549  0.6688569278783575  0.2111363270876968
  0.8340219005353243  0.1640678306184676  0.2110522170043455
  0.8252709348908032  0.6590675900642372  0.2139148791154335
  0.1611198768381842  0.3238359290522050  0.3784150526984597
  0.1699665787472504  0.8355775814381527  0.3788460580393008
  0.6605146135641424  0.3227133271942018  0.3835908754223302
  0.6673749670868057  0.8391665986265268  0.3797371979995813
  0.0131781957237165  0.0114533774519420  0.5580121632688612
  0.0056569771541607  0.4986939858695231  0.5608208946452292
  0.4991893673794689  0.0016000552466025  0.5560918520141038
  0.5062074683791895  0.4969821442368572  0.5582842563108518
  0.3345800666174193  0.1702921069875387  0.7262999695600809
  0.3371884382960063  0.6637369627855304  0.7270782776702460
  0.8331227525773534  0.1749606418019972  0.7268937034217507
  0.8314211489310661  0.6706489498005495  0.7244685060772065
  0.1695169357120647  0.3416787974556061  0.8910821717416024
  0.1666467295343367  0.8335185649543276  0.8909111180907751
  0.6684299893577984  0.3342820066724615  0.8915106600739544
  0.6713757371329548  0.8343963273375754  0.8884563899841249
 
  0.00000000E+00  0.00000000E+00  0.00000000E+00
  0.00000000E+00  0.00000000E+00  0.00000000E+00
  0.00000000E+00  0.00000000E+00  0.00000000E+00
  0.00000000E+00  0.00000000E+00  0.00000000E+00
  0.00000000E+00  0.00000000E+00  0.00000000E+00
  0.00000000E+00  0.00000000E+00  0.00000000E+00
  0.00000000E+00  0.00000000E+00  0.00000000E+00
  0.00000000E+00  0.00000000E+00  0.00000000E+00
  0.00000000E+00  0.00000000E+00  0.00000000E+00
  0.00000000E+00  0.00000000E+00  0.00000000E+00
  0.00000000E+00  0.00000000E+00  0.00000000E+00
  0.00000000E+00  0.00000000E+00  0.00000000E+00
  0.00000000E+00  0.00000000E+00  0.00000000E+00
  0.00000000E+00  0.00000000E+00  0.00000000E+00
  0.00000000E+00  0.00000000E+00  0.00000000E+00
  0.00000000E+00  0.00000000E+00  0.00000000E+00
  0.00000000E+00  0.00000000E+00  0.00000000E+00
  0.00000000E+00  0.00000000E+00  0.00000000E+00
  0.00000000E+00  0.00000000E+00  0.00000000E+00
  0.00000000E+00  0.00000000E+00  0.00000000E+00
  0.00000000E+00  0.00000000E+00  0.00000000E+00
  0.00000000E+00  0.00000000E+00  0.00000000E+00
  0.00000000E+00  0.00000000E+00  0.00000000E+00
  0.00000000E+00  0.00000000E+00  0.00000000E+00
  0.00000000E+00  0.00000000E+00  0.00000000E+00
  0.00000000E+00  0.00000000E+00  0.00000000E+00
  0.00000000E+00  0.00000000E+00  0.00000000E+00
  0.00000000E+00  0.00000000E+00  0.00000000E+00
  0.00000000E+00  0.00000000E+00  0.00000000E+00
  0.00000000E+00  0.00000000E+00  0.00000000E+00
  0.00000000E+00  0.00000000E+00  0.00000000E+00
  0.00000000E+00  0.00000000E+00  0.00000000E+00
  0.00000000E+00  0.00000000E+00  0.00000000E+00
  0.00000000E+00  0.00000000E+00  0.00000000E+00
  0.00000000E+00  0.00000000E+00  0.00000000E+00
  0.00000000E+00  0.00000000E+00  0.00000000E+00
  0.00000000E+00  0.00000000E+00  0.00000000E+00
  0.00000000E+00  0.00000000E+00  0.00000000E+00
  0.00000000E+00  0.00000000E+00  0.00000000E+00
  0.00000000E+00  0.00000000E+00  0.00000000E+00
  0.00000000E+00  0.00000000E+00  0.00000000E+00
  0.00000000E+00  0.00000000E+00  0.00000000E+00
  0.00000000E+00  0.00000000E+00  0.00000000E+00
  0.00000000E+00  0.00000000E+00  0.00000000E+00
  0.00000000E+00  0.00000000E+00  0.00000000E+00
  0.00000000E+00  0.00000000E+00  0.00000000E+00
  0.00000000E+00  0.00000000E+00  0.00000000E+00
  0.00000000E+00  0.00000000E+00  0.00000000E+00
  0.00000000E+00  0.00000000E+00  0.00000000E+00
  0.00000000E+00  0.00000000E+00  0.00000000E+00
  0.00000000E+00  0.00000000E+00  0.00000000E+00
  0.00000000E+00  0.00000000E+00  0.00000000E+00
  0.00000000E+00  0.00000000E+00  0.00000000E+00
  0.00000000E+00  0.00000000E+00  0.00000000E+00
  0.00000000E+00  0.00000000E+00  0.00000000E+00
  0.00000000E+00  0.00000000E+00  0.00000000E+00
  0.00000000E+00  0.00000000E+00  0.00000000E+00
  0.00000000E+00  0.00000000E+00  0.00000000E+00
  0.00000000E+00  0.00000000E+00  0.00000000E+00
  0.00000000E+00  0.00000000E+00  0.00000000E+00
  0.00000000E+00  0.00000000E+00  0.00000000E+00
  0.00000000E+00  0.00000000E+00  0.00000000E+00
  0.00000000E+00  0.00000000E+00  0.00000000E+00
  0.00000000E+00  0.00000000E+00  0.00000000E+00
  0.00000000E+00  0.00000000E+00  0.00000000E+00
  0.00000000E+00  0.00000000E+00  0.00000000E+00
  0.00000000E+00  0.00000000E+00  0.00000000E+00
  0.00000000E+00  0.00000000E+00  0.00000000E+00
  0.00000000E+00  0.00000000E+00  0.00000000E+00
  0.00000000E+00  0.00000000E+00  0.00000000E+00
  0.00000000E+00  0.00000000E+00  0.00000000E+00
  0.00000000E+00  0.00000000E+00  0.00000000E+00
  0.00000000E+00  0.00000000E+00  0.00000000E+00
  0.00000000E+00  0.00000000E+00  0.00000000E+00
  0.00000000E+00  0.00000000E+00  0.00000000E+00
  0.00000000E+00  0.00000000E+00  0.00000000E+00
  0.00000000E+00  0.00000000E+00  0.00000000E+00
  0.00000000E+00  0.00000000E+00  0.00000000E+00
  0.00000000E+00  0.00000000E+00  0.00000000E+00
  0.00000000E+00  0.00000000E+00  0.00000000E+00
  0.00000000E+00  0.00000000E+00  0.00000000E+00
  0.00000000E+00  0.00000000E+00  0.00000000E+00
  0.00000000E+00  0.00000000E+00  0.00000000E+00
  0.00000000E+00  0.00000000E+00  0.00000000E+00
  0.00000000E+00  0.00000000E+00  0.00000000E+00
  0.00000000E+00  0.00000000E+00  0.00000000E+00
  0.00000000E+00  0.00000000E+00  0.00000000E+00
  0.00000000E+00  0.00000000E+00  0.00000000E+00
  0.00000000E+00  0.00000000E+00  0.00000000E+00
  0.00000000E+00  0.00000000E+00  0.00000000E+00
  0.00000000E+00  0.00000000E+00  0.00000000E+00
  0.00000000E+00  0.00000000E+00  0.00000000E+00
  0.00000000E+00  0.00000000E+00  0.00000000E+00
  0.00000000E+00  0.00000000E+00  0.00000000E+00
  0.00000000E+00  0.00000000E+00  0.00000000E+00
  0.00000000E+00  0.00000000E+00  0.00000000E+00
  0.00000000E+00  0.00000000E+00  0.00000000E+00
  0.00000000E+00  0.00000000E+00  0.00000000E+00
  0.00000000E+00  0.00000000E+00  0.00000000E+00
  0.00000000E+00  0.00000000E+00  0.00000000E+00
  0.00000000E+00  0.00000000E+00  0.00000000E+00
  0.00000000E+00  0.00000000E+00  0.00000000E+00
  0.00000000E+00  0.00000000E+00  0.00000000E+00
  0.00000000E+00  0.00000000E+00  0.00000000E+00
  0.00000000E+00  0.00000000E+00  0.00000000E+00
  0.00000000E+00  0.00000000E+00  0.00000000E+00
  0.00000000E+00  0.00000000E+00  0.00000000E+00
  0.00000000E+00  0.00000000E+00  0.00000000E+00
  0.00000000E+00  0.00000000E+00  0.00000000E+00
  0.00000000E+00  0.00000000E+00  0.00000000E+00
  0.00000000E+00  0.00000000E+00  0.00000000E+00
  0.00000000E+00  0.00000000E+00  0.00000000E+00
  0.00000000E+00  0.00000000E+00  0.00000000E+00
  0.00000000E+00  0.00000000E+00  0.00000000E+00
  0.00000000E+00  0.00000000E+00  0.00000000E+00
  0.00000000E+00  0.00000000E+00  0.00000000E+00
  0.00000000E+00  0.00000000E+00  0.00000000E+00
  0.00000000E+00  0.00000000E+00  0.00000000E+00
  0.00000000E+00  0.00000000E+00  0.00000000E+00
  0.00000000E+00  0.00000000E+00  0.00000000E+00
  0.00000000E+00  0.00000000E+00  0.00000000E+00
  0.00000000E+00  0.00000000E+00  0.00000000E+00
  0.00000000E+00  0.00000000E+00  0.00000000E+00
  0.00000000E+00  0.00000000E+00  0.00000000E+00
  0.00000000E+00  0.00000000E+00  0.00000000E+00
  0.00000000E+00  0.00000000E+00  0.00000000E+00
  0.00000000E+00  0.00000000E+00  0.00000000E+00
  0.00000000E+00  0.00000000E+00  0.00000000E+00
  0.00000000E+00  0.00000000E+00  0.00000000E+00
  0.00000000E+00  0.00000000E+00  0.00000000E+00
  0.00000000E+00  0.00000000E+00  0.00000000E+00
  0.00000000E+00  0.00000000E+00  0.00000000E+00
  0.00000000E+00  0.00000000E+00  0.00000000E+00
  0.00000000E+00  0.00000000E+00  0.00000000E+00
  0.00000000E+00  0.00000000E+00  0.00000000E+00
  0.00000000E+00  0.00000000E+00  0.00000000E+00
  0.00000000E+00  0.00000000E+00  0.00000000E+00
  0.00000000E+00  0.00000000E+00  0.00000000E+00
  0.00000000E+00  0.00000000E+00  0.00000000E+00
  0.00000000E+00  0.00000000E+00  0.00000000E+00
  0.00000000E+00  0.00000000E+00  0.00000000E+00
  0.00000000E+00  0.00000000E+00  0.00000000E+00
  0.00000000E+00  0.00000000E+00  0.00000000E+00
  0.00000000E+00  0.00000000E+00  0.00000000E+00
  0.00000000E+00  0.00000000E+00  0.00000000E+00
  0.00000000E+00  0.00000000E+00  0.00000000E+00
  0.00000000E+00  0.00000000E+00  0.00000000E+00
  0.00000000E+00  0.00000000E+00  0.00000000E+00
  0.00000000E+00  0.00000000E+00  0.00000000E+00
  0.00000000E+00  0.00000000E+00  0.00000000E+00
  0.00000000E+00  0.00000000E+00  0.00000000E+00
  0.00000000E+00  0.00000000E+00  0.00000000E+00
  0.00000000E+00  0.00000000E+00  0.00000000E+00
  0.00000000E+00  0.00000000E+00  0.00000000E+00
  0.00000000E+00  0.00000000E+00  0.00000000E+00
  0.00000000E+00  0.00000000E+00  0.00000000E+00
  0.00000000E+00  0.00000000E+00  0.00000000E+00
  0.00000000E+00  0.00000000E+00  0.00000000E+00
  0.00000000E+00  0.00000000E+00  0.00000000E+00
  0.00000000E+00  0.00000000E+00  0.00000000E+00
  0.00000000E+00  0.00000000E+00  0.00000000E+00
  0.00000000E+00  0.00000000E+00  0.00000000E+00
  0.00000000E+00  0.00000000E+00  0.00000000E+00
  0.00000000E+00  0.00000000E+00  0.00000000E+00
  0.00000000E+00  0.00000000E+00  0.00000000E+00
  0.00000000E+00  0.00000000E+00  0.00000000E+00
  0.00000000E+00  0.00000000E+00  0.00000000E+00
  0.00000000E+00  0.00000000E+00  0.00000000E+00
  0.00000000E+00  0.00000000E+00  0.00000000E+00
  0.00000000E+00  0.00000000E+00  0.00000000E+00
  0.00000000E+00  0.00000000E+00  0.00000000E+00
  0.00000000E+00  0.00000000E+00  0.00000000E+00
  0.00000000E+00  0.00000000E+00  0.00000000E+00
  0.00000000E+00  0.00000000E+00  0.00000000E+00
  0.00000000E+00  0.00000000E+00  0.00000000E+00
  0.00000000E+00  0.00000000E+00  0.00000000E+00
