Bi24 Te21                               
   1.00000000000000     
     2.2417391778279399   -3.8828061533156726    0.0000000000000000
     2.2417391778279399    3.8828061533156726    0.0000000000000000
    -0.0000000000000001    0.0000000000000004   93.0816106456381220
   Bi   Te
    24    21
Direct
  0.3333333333333357  0.6666666666666643  0.3521513558469101
  0.6666666666666643  0.3333333333333357  0.6478486441530901
  0.0000000000000000  0.0000000000000000  0.3342015943641515
  0.0000000000000000  0.0000000000000000  0.6657984056358484
  0.3333333333333357  0.6666666666666643  0.0865032052385720
  0.6666666666666643  0.3333333333333357  0.9134967947614280
  0.3333333333333357  0.6666666666666643  0.4909361405943374
  0.6666666666666643  0.3333333333333357  0.5090638594056626
  0.0000000000000000  0.0000000000000000  0.0685383037289924
  0.0000000000000000  0.0000000000000000  0.9314616962710077
  0.3333333333333357  0.6666666666666643  0.8228718782507984
  0.6666666666666643  0.3333333333333357  0.1771281217492015
  0.3333333333333357  0.6666666666666643  0.0218314051366993
  0.6666666666666643  0.3333333333333357  0.9781685948633008
  0.0000000000000000  0.0000000000000000  0.3997699157507287
  0.0000000000000000  0.0000000000000000  0.6002300842492713
  0.3333333333333357  0.6666666666666643  0.7561886500549045
  0.6666666666666643  0.3333333333333357  0.2438113499450955
  0.0000000000000000  0.0000000000000000  0.1335373104330339
  0.0000000000000000  0.0000000000000000  0.8664626895669660
  0.3333333333333357  0.6666666666666643  0.2873414890966602
  0.6666666666666643  0.3333333333333357  0.7126585109033396
  0.3333333333333357  0.6666666666666643  0.5567090125418086
  0.6666666666666643  0.3333333333333357  0.4432909874581914
  0.3333333333333357  0.6666666666666643  0.6186784876274489
  0.6666666666666643  0.3333333333333357  0.3813215123725512
  0.3333333333333357  0.6666666666666643  0.4215449820963579
  0.6666666666666643  0.3333333333333357  0.5784550179036422
  0.3333333333333357  0.6666666666666643  0.1553170017769517
  0.6666666666666643  0.3333333333333357  0.8446829982230482
  0.0000000000000000  0.0000000000000000  0.1953274879682895
  0.0000000000000000  0.0000000000000000  0.8046725120317105
  0.3333333333333357  0.6666666666666643  0.2255449718984039
  0.6666666666666643  0.3333333333333357  0.7744550281015962
  0.3333333333333357  0.6666666666666643  0.6940442184632802
  0.6666666666666643  0.3333333333333357  0.3059557815367195
  0.3333333333333357  0.6666666666666643  0.9596988438723446
  0.6666666666666643  0.3333333333333357  0.0403011561276554
  0.3333333333333357  0.6666666666666643  0.8849815209712888
  0.6666666666666643  0.3333333333333357  0.1150184790287113
  0.0000000000000000  0.0000000000000000  0.4617226303588864
  0.0000000000000000  0.0000000000000000  0.5382773696411136
  0.0000000000000000  0.0000000000000000  0.2656870349738665
  0.0000000000000000  0.0000000000000000  0.7343129650261336
  0.0000000000000000  0.0000000000000000  0.0000000000000000
 
  0.00000000E+00  0.00000000E+00  0.00000000E+00
  0.00000000E+00  0.00000000E+00  0.00000000E+00
  0.00000000E+00  0.00000000E+00  0.00000000E+00
  0.00000000E+00  0.00000000E+00  0.00000000E+00
  0.00000000E+00  0.00000000E+00  0.00000000E+00
  0.00000000E+00  0.00000000E+00  0.00000000E+00
  0.00000000E+00  0.00000000E+00  0.00000000E+00
  0.00000000E+00  0.00000000E+00  0.00000000E+00
  0.00000000E+00  0.00000000E+00  0.00000000E+00
  0.00000000E+00  0.00000000E+00  0.00000000E+00
  0.00000000E+00  0.00000000E+00  0.00000000E+00
  0.00000000E+00  0.00000000E+00  0.00000000E+00
  0.00000000E+00  0.00000000E+00  0.00000000E+00
  0.00000000E+00  0.00000000E+00  0.00000000E+00
  0.00000000E+00  0.00000000E+00  0.00000000E+00
  0.00000000E+00  0.00000000E+00  0.00000000E+00
  0.00000000E+00  0.00000000E+00  0.00000000E+00
  0.00000000E+00  0.00000000E+00  0.00000000E+00
  0.00000000E+00  0.00000000E+00  0.00000000E+00
  0.00000000E+00  0.00000000E+00  0.00000000E+00
  0.00000000E+00  0.00000000E+00  0.00000000E+00
  0.00000000E+00  0.00000000E+00  0.00000000E+00
  0.00000000E+00  0.00000000E+00  0.00000000E+00
  0.00000000E+00  0.00000000E+00  0.00000000E+00
  0.00000000E+00  0.00000000E+00  0.00000000E+00
  0.00000000E+00  0.00000000E+00  0.00000000E+00
  0.00000000E+00  0.00000000E+00  0.00000000E+00
  0.00000000E+00  0.00000000E+00  0.00000000E+00
  0.00000000E+00  0.00000000E+00  0.00000000E+00
  0.00000000E+00  0.00000000E+00  0.00000000E+00
  0.00000000E+00  0.00000000E+00  0.00000000E+00
  0.00000000E+00  0.00000000E+00  0.00000000E+00
  0.00000000E+00  0.00000000E+00  0.00000000E+00
  0.00000000E+00  0.00000000E+00  0.00000000E+00
  0.00000000E+00  0.00000000E+00  0.00000000E+00
  0.00000000E+00  0.00000000E+00  0.00000000E+00
  0.00000000E+00  0.00000000E+00  0.00000000E+00
  0.00000000E+00  0.00000000E+00  0.00000000E+00
  0.00000000E+00  0.00000000E+00  0.00000000E+00
  0.00000000E+00  0.00000000E+00  0.00000000E+00
  0.00000000E+00  0.00000000E+00  0.00000000E+00
  0.00000000E+00  0.00000000E+00  0.00000000E+00
  0.00000000E+00  0.00000000E+00  0.00000000E+00
  0.00000000E+00  0.00000000E+00  0.00000000E+00
  0.00000000E+00  0.00000000E+00  0.00000000E+00
