Sb                                      
   1.00000000000000     
    18.6888989090225550    0.0000000000000000    0.0000000000000000
     0.0000000000000000   18.6888989090225550    0.0000000000000000
     0.0000000000000000    0.0000000000000000   18.6888989090225550
   Sb   C 
   195    21
Direct
  0.9141822821789874  0.7388227052909611  0.5348387912044403
  0.5697129903742231  0.7736882645947942  0.3024268057805056
  0.2642730353182108  0.4402254047119971  0.0119308104241730
  0.7272384265585878  0.8875490963636300  0.8805226052713753
  0.8270118418351922  0.2524510724377408  0.5271807361327355
  0.6128278250120240  0.2287759085408931  0.6758700798608187
  0.3087560618452310  0.6056562797828421  0.1762534322018892
  0.2421627564480792  0.1182840002951435  0.2371900534898836
  0.2188333222562263  0.9253068686607675  0.2154881116342951
  0.5695222590227176  0.9152278516323648  0.8905736794650256
  0.0723012147631676  0.8949596852823491  0.5516993703287324
  0.7517119849384208  0.2476117855501840  0.1869312308158519
  0.4152389460204622  0.7745052479862201  0.5202115695224111
  0.2300430056867565  0.4679613335531095  0.1792218045778210
  0.0227851863050464  0.7372503473890235  0.8641738510180380
  0.9143414089392546  0.0848729779100717  0.0446586439575929
  0.4170834574810840  0.0996392741702293  0.0536499292277507
  0.7317503760935277  0.7260858595418032  0.8698086247733763
  0.8972123935248563  0.8650129941759118  0.3809170308366503
  0.7685727673965218  0.2250257620428788  0.6947917538234581
  0.7111878316916539  0.0808866749532411  0.3595841142445899
  0.0707098518056690  0.4388847913308683  0.0131432046308298
  0.5997840587606933  0.5415488519616379  0.0243893715550205
  0.7726208993197279  0.5767973847335625  0.0006988153037098
  0.7540913003442825  0.0707514563403733  0.1961592107835533
  0.9209721401559708  0.3995806965856913  0.7002582412949606
  0.7476469019543255  0.7475555294591544  0.5293076200942050
  0.8693656395401068  0.4143254115149654  0.0333427466830695
  0.9128173723722178  0.3791329926979629  0.3558188688270619
  0.9018582904819717  0.4070884778636022  0.8552267129751170
  0.4196496013778808  0.4318417736862876  0.0275952518944107
  0.0793302834106448  0.1131641235374747  0.2183418464934295
  0.7144903188992693  0.5684854877385197  0.1687290334943973
  0.2711218825318223  0.0679887011493781  0.7321455792496984
  0.1086405806306692  0.6028684165532717  0.0305280878776550
  0.4501826697267916  0.6006476942613649  0.0188596224087714
  0.7040172435517910  0.8894184919356338  0.3911984618320289
  0.9185489038767138  0.2796174110096242  0.2251060138232884
  0.0750101319060485  0.2726269312122852  0.2092726157764755
  0.0609282918911816  0.9323858279613981  0.8895464163227697
  0.5908857849713413  0.2556268783459797  0.1835127097845440
  0.0862588966253968  0.5553765630266405  0.6773952677492031
  0.7392895393109880  0.5650632587990055  0.3319584545327927
  0.2357478512962132  0.7702469806583894  0.1979374539358275
  0.2102803836339182  0.0706012022276171  0.5324268776972769
  0.9443604709025638  0.5876480071198613  0.0336754551246227
  0.9081649294870118  0.8893363462908892  0.7053383468291173
  0.2503070597714589  0.7413306395643300  0.5467015908688870
  0.1124129285635988  0.5780605661345033  0.1854736379148207
  0.4096640245003033  0.1984707322498255  0.8662982515253038
  0.8154339360799039  0.7572047491106686  0.0524833519611158
  0.1049611650810552  0.0643347295367129  0.7308101981919852
  0.5802898513871304  0.2531054590185825  0.0134057342641816
  0.6308751944196351  0.6976429702546119  0.0081643337561267
  0.8942270704301400  0.0915984328414603  0.4709183314023098
  0.5145219499970046  0.6292261677715193  0.1698905177008604
  0.0572108840782627  0.7573924460978506  0.2031169214820522
  0.5615037876730881  0.9173668158226057  0.2231374565865227
  0.0840921834487086  0.7612358639917366  0.0126615209361591
  0.1054391385597851  0.2263891659925771  0.7146909525908717
  0.8831932161847708  0.8404497399777596  0.2291622832809941
  0.9110051511364542  0.4134581623713944  0.5157243993594627
  0.5925615030846837  0.8854422769013018  0.5993991547165382
  0.3754252080343950  0.9568774540182849  0.3725714385692789
  0.2379658117913806  0.4443478466786697  0.3400634242620443
  0.9347796210015050  0.0606943287219608  0.7066338415834545
  0.4144033969025379  0.9322296618524771  0.5344494083048557
  0.7424436875071007  0.5665068350543837  0.5088291469221469
  0.2597469254843549  0.1370919399343254  0.8962311208282642
  0.0812819858401646  0.7385011560973381  0.5354802366309337
  0.5012817785486020  0.1073039269961138  0.3827707868745446
  0.7374338795670333  0.7323798293236436  0.1853888624695188
  0.5869064189787508  0.8592582900814446  0.0759132418418781
  0.1487302748663547  0.0403556846739614  0.3921115249718085
  0.2221886128859034  0.7574124328814267  0.7518526587733342
  0.4223587021548293  0.5972330465352256  0.8583351422492352
  0.4197275492133361  0.4510770202346546  0.1898567042235943
  0.7667600577435790  0.0534390247140079  0.7011417141765010
  0.0803762779749400  0.2711591538479370  0.0484573067001363
  0.0579507961270819  0.8556295909663799  0.3655969598800144
  0.4207068451695801  0.1081384316921092  0.2144945039245597
  0.7382579358078067  0.9043727108147885  0.5477334516062976
  0.6668204569541061  0.2343767873245909  0.5154619043008842
  0.2476652722354684  0.9333532491673502  0.0267290858960392
  0.1883519308065232  0.2453043939946768  0.5246618929765834
  0.3534417024059779  0.2464374731819688  0.5443613893477979
  0.0782087777398855  0.0982539237371002  0.0609092583081755
  0.0696888702760599  0.8893387680248971  0.7109719074412219
  0.2640645564718245  0.2822716389586571  0.7652161700041828
  0.7524650797180831  0.5634359906733949  0.6714721883866469
  0.1506238517792390  0.2240983181150981  0.3732478905537549
  0.5471180848491296  0.0665555706779388  0.5365669929594514
  0.2660110742286301  0.5960973192729687  0.6788862621618135
  0.6035407096843481  0.5840501227163531  0.8500363848778628
  0.7178317038995957  0.4102957565805562  0.4929498098832278
  0.9105308504953793  0.2622791234692613  0.0306572196740753
  0.2122562952312014  0.4086344409946639  0.5071939865354558
  0.3954827278244852  0.7465853399411778  0.6766390489829591
  0.6899492531895830  0.4003138256218117  0.8546529024692884
  0.7419184153458471  0.7242893269523412  0.6834266610237366
  0.0105087382264674  0.4573448167634760  0.1739112367650012
  0.4205820860667900  0.2646147035119392  0.0263917721872440
  0.7969062342071024  0.2221121065421615  0.3561745929243059
  0.5801730508034055  0.0579270616161813  0.0194338213982684
  0.9207845813230149  0.9296896018542958  0.0255884143492199
  0.7373169534713258  0.9022340214944771  0.2138477778736553
  0.0922107107205420  0.3925405092780142  0.6935704353653797
  0.4037560314607472  0.2565543102256643  0.6995850674106789
  0.0821110907054101  0.2533743461811344  0.8700171103404764
  0.9720010504769393  0.2117552064202284  0.4029024070786386
  0.3900024387278569  0.2662188545330945  0.3633894400861646
  0.4261433620873826  0.9373429397531565  0.0272690482649516
  0.7415634610623415  0.8955056523839002  0.0514368965437034
  0.2405030549362610  0.7718144152396217  0.0262076554547111
  0.4167650305634050  0.9233523570958497  0.7065390812083201
  0.2288361594359721  0.9106109228101297  0.5454636973430770
  0.7476892639675146  0.2303429615485546  0.8541968896422242
  0.9648773486770472  0.0076488520141193  0.3646164094665764
  0.7361575259207876  0.8932895217739883  0.7198071548703768
  0.8248674086073233  0.6994995530433981  0.3556660427165581
  0.0093346154572639  0.0907813054842088  0.5728717895298957
  0.9269515119793333  0.6522534612464211  0.2036886266039611
  0.5697964903418292  0.0897756023423757  0.8574704894857328
  0.0592303862727291  0.9175160141015104  0.2168280967483358
  0.9186856828700389  0.0615415194272084  0.8871754081256450
  0.7624683409123476  0.0667568258618809  0.8615737885448752
  0.4067270820662844  0.9291022355466876  0.1949654260945984
  0.2509157579862937  0.2763575447355437  0.2091838979283228
  0.5881440655464737  0.2453028282666271  0.8485612278950329
  0.2589120665941392  0.9127994314435326  0.7029562413612638
  0.9480487474933793  0.6010764325878677  0.3560980884398944
  0.3995003393150752 -0.0090746433375786  0.8617668019571569
  0.4386557447841385  0.0898880623328479  0.7128383568708824
  0.6033565176300931  0.2467213477057133  0.3475728221093645
  0.5870951933110539  0.0991590273412350  0.2146127765539116
  0.0483418419942426  0.4601149706315999  0.8607591963813146
  0.7704754748965952  0.3842427919419760  0.6658888155803750
  0.9544594171692985  0.2122400492976133  0.6644140033661203
  0.7514319606695395  0.2351353953509049  0.0258251135571428
  0.0443893695579271  0.3407527283175203  0.5504429539693839
  0.3190596246897846  0.1046067189207270  0.4221154504856381
  0.7708602611797321  0.4094772590935621  0.1582822862435492
  0.2533190160681253  0.1034757619404241  0.0468393614527589
  0.4117247828752768  0.2637846226106790  0.2037310919465441
  0.9260795692042655  0.2534882406412222  0.8729194421797108
  0.7412029708020198  0.3951173706162642  0.3418442211239906
  0.0811416101991270  0.5440337066998613  0.5201878285721635
  0.2231879465407816  0.6034817983713844  0.8313458128276693
  0.0804511755634420  0.9316721479166559  0.0481414313907324
  0.0811176329095561  0.4035726112772773  0.3745628682975272
  0.5755639673348342  0.4338297213303835  0.1785060221220300
  0.4471454899070553  0.7674125318491223 -0.0031870066980505
  0.0919962974804416  0.6676245299388366  0.3807681787231084
  0.9162744514107541  0.5767267365912534  0.5264738413384866
  0.4130354343042313  0.4401498303558070  0.8518327685905231
  0.6011519564799837  0.0718956609223808  0.6935655770246337
  0.6632670791493217  0.3883661830936226  0.0077899021125790
  0.8800665083485550  0.4937285266451924  0.2503131972277035
  0.8939095868663272  0.8538592631983253  0.8549140060009378
  0.5838521296276169  0.7609409128385991  0.5019708765593613
  0.5536923382962411  0.9345079813141731  0.4055180107060671
  0.2303014486025430  0.9020024389770271  0.3731175276814321
  0.2503385546774701  0.6035463852947039  0.3443622291534114
  0.3899174589099523  0.7744399520834482  0.1787957021199986
  0.0762000190058705  0.7283135585501994  0.7102533540805426
  0.7012943999628928  0.0805661511931768  0.5176062500273043
  0.2448518293534955  0.2693129949164797  0.0503790755993226
  0.2322485382708890  0.9342788294510053  0.8713287493378544
  0.9545620136694598  0.5892754637701970  0.8699614468904960
  0.2456492925355893  0.4118043025017561  0.6736843901696993
  0.9134557232584566  0.0922791689776183  0.2438043170664268
  0.5234215825445523  0.7656029248547913  0.8584072010041329
  0.7561769081399520  0.5435522450415998  0.8449110649345373
  0.2771008090752072  0.6050549551509664  0.0093624439695848
  0.2461143981598267  0.5825610272190171  0.5035487452837915
  0.2580082453986403  0.4346699490423820  0.8449997635769727
  0.5062986522805527  0.2523009950796380  0.5120389482808233
  0.9257295649795358  0.5591417528881306  0.6921945467388426
  0.8983794049045153  0.7326143786040448  0.6894651852817754
  0.4155290997957292  0.7578267184608088  0.3319138821860180
  0.1018712660511813  0.0907628480094898  0.8823110775152641
  0.3298905611534478  0.7545603764891354  0.8889330835967687
  0.7479794666733118  0.0738571858315813  0.0345274003405366
  0.4059543217008496  0.4223862449043219  0.3639203099949275
  0.4132642276894399  0.5981915670637769  0.3278442426910101
  0.5770840319945668  0.4302751391877386  0.3363735204531508
  0.4121823021394493  0.5820253603421706  0.5155213431264261
  0.5789890046998896  0.5882293153466650  0.3450771899369638
  0.4246021384078907  0.4192675202034762  0.6946883552512672
  0.3940445023176108  0.4266466198211502  0.5238643045398008
  0.5750555975810263  0.5812327457662658  0.5021896447257868
  0.5948593260692642  0.5781599333485542  0.6896745312026354
  0.4253948753775411  0.5878166574015692  0.6740557011895505
  0.5824639787533660  0.4204351642999046  0.6828983676618378
  0.5474982713796819  0.4111588282183251  0.5249063131375555
  0.9386589211559399  0.9462273148612785  0.9107209136011287
  0.5474921003260839  0.9441956075015078  0.0034564568867761
  0.4965686777627354  0.2272404985712392  0.3975222539543829
  0.6061114937845763  0.1273331951023937  0.3306579774470024
  0.8419705438647873  0.7278937162559226  0.2418659644698832
  0.3175292299357262  0.6368700101400728  0.8948150963558607
  0.9676334742814121  0.4738083677027266  0.0631476516730946
  0.5328129180634154  0.9498329343779421  0.5201835020955353
  0.8101050629331266  0.3670894391638141  0.5519126240162673
  0.2907025212254872  0.0356938496407230  0.8452816432818169
  0.4192058370053349  0.5695809518310696  0.2097393372237011
  0.0741514724000062  0.7552621688122456  0.3147585915793756
  0.2802814228685583  0.7143897985026681  0.6587520261238261
  0.6001495183262311  0.8256456419555954  0.4044441256981536
  0.2237052169980473  0.1242901241157363  0.3535840416844555
  0.4538230933084832  0.0925116485420530  0.8331297226884763
  0.0955359739305736  0.4293628027413852  0.4909773224375521
  0.9043367850983342  0.1931670467993254  0.3061820581141256
  0.7465887372945070  0.6922641507686651  0.9833609241258511
  0.5975646620283982  0.5466561270825167  0.1447676656763601
  0.6165499757753702  0.6978183523361990  0.8899156799205277
 
  0.00000000E+00  0.00000000E+00  0.00000000E+00
  0.00000000E+00  0.00000000E+00  0.00000000E+00
  0.00000000E+00  0.00000000E+00  0.00000000E+00
  0.00000000E+00  0.00000000E+00  0.00000000E+00
  0.00000000E+00  0.00000000E+00  0.00000000E+00
  0.00000000E+00  0.00000000E+00  0.00000000E+00
  0.00000000E+00  0.00000000E+00  0.00000000E+00
  0.00000000E+00  0.00000000E+00  0.00000000E+00
  0.00000000E+00  0.00000000E+00  0.00000000E+00
  0.00000000E+00  0.00000000E+00  0.00000000E+00
  0.00000000E+00  0.00000000E+00  0.00000000E+00
  0.00000000E+00  0.00000000E+00  0.00000000E+00
  0.00000000E+00  0.00000000E+00  0.00000000E+00
  0.00000000E+00  0.00000000E+00  0.00000000E+00
  0.00000000E+00  0.00000000E+00  0.00000000E+00
  0.00000000E+00  0.00000000E+00  0.00000000E+00
  0.00000000E+00  0.00000000E+00  0.00000000E+00
  0.00000000E+00  0.00000000E+00  0.00000000E+00
  0.00000000E+00  0.00000000E+00  0.00000000E+00
  0.00000000E+00  0.00000000E+00  0.00000000E+00
  0.00000000E+00  0.00000000E+00  0.00000000E+00
  0.00000000E+00  0.00000000E+00  0.00000000E+00
  0.00000000E+00  0.00000000E+00  0.00000000E+00
  0.00000000E+00  0.00000000E+00  0.00000000E+00
  0.00000000E+00  0.00000000E+00  0.00000000E+00
  0.00000000E+00  0.00000000E+00  0.00000000E+00
  0.00000000E+00  0.00000000E+00  0.00000000E+00
  0.00000000E+00  0.00000000E+00  0.00000000E+00
  0.00000000E+00  0.00000000E+00  0.00000000E+00
  0.00000000E+00  0.00000000E+00  0.00000000E+00
  0.00000000E+00  0.00000000E+00  0.00000000E+00
  0.00000000E+00  0.00000000E+00  0.00000000E+00
  0.00000000E+00  0.00000000E+00  0.00000000E+00
  0.00000000E+00  0.00000000E+00  0.00000000E+00
  0.00000000E+00  0.00000000E+00  0.00000000E+00
  0.00000000E+00  0.00000000E+00  0.00000000E+00
  0.00000000E+00  0.00000000E+00  0.00000000E+00
  0.00000000E+00  0.00000000E+00  0.00000000E+00
  0.00000000E+00  0.00000000E+00  0.00000000E+00
  0.00000000E+00  0.00000000E+00  0.00000000E+00
  0.00000000E+00  0.00000000E+00  0.00000000E+00
  0.00000000E+00  0.00000000E+00  0.00000000E+00
  0.00000000E+00  0.00000000E+00  0.00000000E+00
  0.00000000E+00  0.00000000E+00  0.00000000E+00
  0.00000000E+00  0.00000000E+00  0.00000000E+00
  0.00000000E+00  0.00000000E+00  0.00000000E+00
  0.00000000E+00  0.00000000E+00  0.00000000E+00
  0.00000000E+00  0.00000000E+00  0.00000000E+00
  0.00000000E+00  0.00000000E+00  0.00000000E+00
  0.00000000E+00  0.00000000E+00  0.00000000E+00
  0.00000000E+00  0.00000000E+00  0.00000000E+00
  0.00000000E+00  0.00000000E+00  0.00000000E+00
  0.00000000E+00  0.00000000E+00  0.00000000E+00
  0.00000000E+00  0.00000000E+00  0.00000000E+00
  0.00000000E+00  0.00000000E+00  0.00000000E+00
  0.00000000E+00  0.00000000E+00  0.00000000E+00
  0.00000000E+00  0.00000000E+00  0.00000000E+00
  0.00000000E+00  0.00000000E+00  0.00000000E+00
  0.00000000E+00  0.00000000E+00  0.00000000E+00
  0.00000000E+00  0.00000000E+00  0.00000000E+00
  0.00000000E+00  0.00000000E+00  0.00000000E+00
  0.00000000E+00  0.00000000E+00  0.00000000E+00
  0.00000000E+00  0.00000000E+00  0.00000000E+00
  0.00000000E+00  0.00000000E+00  0.00000000E+00
  0.00000000E+00  0.00000000E+00  0.00000000E+00
  0.00000000E+00  0.00000000E+00  0.00000000E+00
  0.00000000E+00  0.00000000E+00  0.00000000E+00
  0.00000000E+00  0.00000000E+00  0.00000000E+00
  0.00000000E+00  0.00000000E+00  0.00000000E+00
  0.00000000E+00  0.00000000E+00  0.00000000E+00
  0.00000000E+00  0.00000000E+00  0.00000000E+00
  0.00000000E+00  0.00000000E+00  0.00000000E+00
  0.00000000E+00  0.00000000E+00  0.00000000E+00
  0.00000000E+00  0.00000000E+00  0.00000000E+00
  0.00000000E+00  0.00000000E+00  0.00000000E+00
  0.00000000E+00  0.00000000E+00  0.00000000E+00
  0.00000000E+00  0.00000000E+00  0.00000000E+00
  0.00000000E+00  0.00000000E+00  0.00000000E+00
  0.00000000E+00  0.00000000E+00  0.00000000E+00
  0.00000000E+00  0.00000000E+00  0.00000000E+00
  0.00000000E+00  0.00000000E+00  0.00000000E+00
  0.00000000E+00  0.00000000E+00  0.00000000E+00
  0.00000000E+00  0.00000000E+00  0.00000000E+00
  0.00000000E+00  0.00000000E+00  0.00000000E+00
  0.00000000E+00  0.00000000E+00  0.00000000E+00
  0.00000000E+00  0.00000000E+00  0.00000000E+00
  0.00000000E+00  0.00000000E+00  0.00000000E+00
  0.00000000E+00  0.00000000E+00  0.00000000E+00
  0.00000000E+00  0.00000000E+00  0.00000000E+00
  0.00000000E+00  0.00000000E+00  0.00000000E+00
  0.00000000E+00  0.00000000E+00  0.00000000E+00
  0.00000000E+00  0.00000000E+00  0.00000000E+00
  0.00000000E+00  0.00000000E+00  0.00000000E+00
  0.00000000E+00  0.00000000E+00  0.00000000E+00
  0.00000000E+00  0.00000000E+00  0.00000000E+00
  0.00000000E+00  0.00000000E+00  0.00000000E+00
  0.00000000E+00  0.00000000E+00  0.00000000E+00
  0.00000000E+00  0.00000000E+00  0.00000000E+00
  0.00000000E+00  0.00000000E+00  0.00000000E+00
  0.00000000E+00  0.00000000E+00  0.00000000E+00
  0.00000000E+00  0.00000000E+00  0.00000000E+00
  0.00000000E+00  0.00000000E+00  0.00000000E+00
  0.00000000E+00  0.00000000E+00  0.00000000E+00
  0.00000000E+00  0.00000000E+00  0.00000000E+00
  0.00000000E+00  0.00000000E+00  0.00000000E+00
  0.00000000E+00  0.00000000E+00  0.00000000E+00
  0.00000000E+00  0.00000000E+00  0.00000000E+00
  0.00000000E+00  0.00000000E+00  0.00000000E+00
  0.00000000E+00  0.00000000E+00  0.00000000E+00
  0.00000000E+00  0.00000000E+00  0.00000000E+00
  0.00000000E+00  0.00000000E+00  0.00000000E+00
  0.00000000E+00  0.00000000E+00  0.00000000E+00
  0.00000000E+00  0.00000000E+00  0.00000000E+00
  0.00000000E+00  0.00000000E+00  0.00000000E+00
  0.00000000E+00  0.00000000E+00  0.00000000E+00
  0.00000000E+00  0.00000000E+00  0.00000000E+00
  0.00000000E+00  0.00000000E+00  0.00000000E+00
  0.00000000E+00  0.00000000E+00  0.00000000E+00
  0.00000000E+00  0.00000000E+00  0.00000000E+00
  0.00000000E+00  0.00000000E+00  0.00000000E+00
  0.00000000E+00  0.00000000E+00  0.00000000E+00
  0.00000000E+00  0.00000000E+00  0.00000000E+00
  0.00000000E+00  0.00000000E+00  0.00000000E+00
  0.00000000E+00  0.00000000E+00  0.00000000E+00
  0.00000000E+00  0.00000000E+00  0.00000000E+00
  0.00000000E+00  0.00000000E+00  0.00000000E+00
  0.00000000E+00  0.00000000E+00  0.00000000E+00
  0.00000000E+00  0.00000000E+00  0.00000000E+00
  0.00000000E+00  0.00000000E+00  0.00000000E+00
  0.00000000E+00  0.00000000E+00  0.00000000E+00
  0.00000000E+00  0.00000000E+00  0.00000000E+00
  0.00000000E+00  0.00000000E+00  0.00000000E+00
  0.00000000E+00  0.00000000E+00  0.00000000E+00
  0.00000000E+00  0.00000000E+00  0.00000000E+00
  0.00000000E+00  0.00000000E+00  0.00000000E+00
  0.00000000E+00  0.00000000E+00  0.00000000E+00
  0.00000000E+00  0.00000000E+00  0.00000000E+00
  0.00000000E+00  0.00000000E+00  0.00000000E+00
  0.00000000E+00  0.00000000E+00  0.00000000E+00
  0.00000000E+00  0.00000000E+00  0.00000000E+00
  0.00000000E+00  0.00000000E+00  0.00000000E+00
  0.00000000E+00  0.00000000E+00  0.00000000E+00
  0.00000000E+00  0.00000000E+00  0.00000000E+00
  0.00000000E+00  0.00000000E+00  0.00000000E+00
  0.00000000E+00  0.00000000E+00  0.00000000E+00
  0.00000000E+00  0.00000000E+00  0.00000000E+00
  0.00000000E+00  0.00000000E+00  0.00000000E+00
  0.00000000E+00  0.00000000E+00  0.00000000E+00
  0.00000000E+00  0.00000000E+00  0.00000000E+00
  0.00000000E+00  0.00000000E+00  0.00000000E+00
  0.00000000E+00  0.00000000E+00  0.00000000E+00
  0.00000000E+00  0.00000000E+00  0.00000000E+00
  0.00000000E+00  0.00000000E+00  0.00000000E+00
  0.00000000E+00  0.00000000E+00  0.00000000E+00
  0.00000000E+00  0.00000000E+00  0.00000000E+00
  0.00000000E+00  0.00000000E+00  0.00000000E+00
  0.00000000E+00  0.00000000E+00  0.00000000E+00
  0.00000000E+00  0.00000000E+00  0.00000000E+00
  0.00000000E+00  0.00000000E+00  0.00000000E+00
  0.00000000E+00  0.00000000E+00  0.00000000E+00
  0.00000000E+00  0.00000000E+00  0.00000000E+00
  0.00000000E+00  0.00000000E+00  0.00000000E+00
  0.00000000E+00  0.00000000E+00  0.00000000E+00
  0.00000000E+00  0.00000000E+00  0.00000000E+00
  0.00000000E+00  0.00000000E+00  0.00000000E+00
  0.00000000E+00  0.00000000E+00  0.00000000E+00
  0.00000000E+00  0.00000000E+00  0.00000000E+00
  0.00000000E+00  0.00000000E+00  0.00000000E+00
  0.00000000E+00  0.00000000E+00  0.00000000E+00
  0.00000000E+00  0.00000000E+00  0.00000000E+00
  0.00000000E+00  0.00000000E+00  0.00000000E+00
  0.00000000E+00  0.00000000E+00  0.00000000E+00
  0.00000000E+00  0.00000000E+00  0.00000000E+00
  0.00000000E+00  0.00000000E+00  0.00000000E+00
  0.00000000E+00  0.00000000E+00  0.00000000E+00
  0.00000000E+00  0.00000000E+00  0.00000000E+00
  0.00000000E+00  0.00000000E+00  0.00000000E+00
  0.00000000E+00  0.00000000E+00  0.00000000E+00
  0.00000000E+00  0.00000000E+00  0.00000000E+00
  0.00000000E+00  0.00000000E+00  0.00000000E+00
  0.00000000E+00  0.00000000E+00  0.00000000E+00
  0.00000000E+00  0.00000000E+00  0.00000000E+00
  0.00000000E+00  0.00000000E+00  0.00000000E+00
  0.00000000E+00  0.00000000E+00  0.00000000E+00
  0.00000000E+00  0.00000000E+00  0.00000000E+00
  0.00000000E+00  0.00000000E+00  0.00000000E+00
  0.00000000E+00  0.00000000E+00  0.00000000E+00
  0.00000000E+00  0.00000000E+00  0.00000000E+00
  0.00000000E+00  0.00000000E+00  0.00000000E+00
  0.00000000E+00  0.00000000E+00  0.00000000E+00
  0.00000000E+00  0.00000000E+00  0.00000000E+00
  0.00000000E+00  0.00000000E+00  0.00000000E+00
  0.00000000E+00  0.00000000E+00  0.00000000E+00
  0.00000000E+00  0.00000000E+00  0.00000000E+00
  0.00000000E+00  0.00000000E+00  0.00000000E+00
  0.00000000E+00  0.00000000E+00  0.00000000E+00
  0.00000000E+00  0.00000000E+00  0.00000000E+00
  0.00000000E+00  0.00000000E+00  0.00000000E+00
  0.00000000E+00  0.00000000E+00  0.00000000E+00
  0.00000000E+00  0.00000000E+00  0.00000000E+00
  0.00000000E+00  0.00000000E+00  0.00000000E+00
  0.00000000E+00  0.00000000E+00  0.00000000E+00
  0.00000000E+00  0.00000000E+00  0.00000000E+00
  0.00000000E+00  0.00000000E+00  0.00000000E+00
  0.00000000E+00  0.00000000E+00  0.00000000E+00
  0.00000000E+00  0.00000000E+00  0.00000000E+00
  0.00000000E+00  0.00000000E+00  0.00000000E+00
  0.00000000E+00  0.00000000E+00  0.00000000E+00
  0.00000000E+00  0.00000000E+00  0.00000000E+00
  0.00000000E+00  0.00000000E+00  0.00000000E+00
  0.00000000E+00  0.00000000E+00  0.00000000E+00
  0.00000000E+00  0.00000000E+00  0.00000000E+00
  0.00000000E+00  0.00000000E+00  0.00000000E+00
  0.00000000E+00  0.00000000E+00  0.00000000E+00
  0.00000000E+00  0.00000000E+00  0.00000000E+00
  0.00000000E+00  0.00000000E+00  0.00000000E+00
 
           1
   4.00000000000000     
  0.10000000E+01  0.00000000E+00  0.00000000E+00  0.00000000E+00
  0.91418228E+00  0.73882271E+00  0.53483879E+00
  0.56971299E+00  0.77368826E+00  0.30242681E+00
  0.26427304E+00  0.44022540E+00  0.11930810E-01
  0.72723843E+00  0.88754910E+00  0.88052261E+00
  0.82701184E+00  0.25245107E+00  0.52718074E+00
  0.61282783E+00  0.22877591E+00  0.67587008E+00
  0.30875606E+00  0.60565628E+00  0.17625343E+00
  0.24216276E+00  0.11828400E+00  0.23719005E+00
  0.21883332E+00  0.92530687E+00  0.21548811E+00
  0.56952226E+00  0.91522785E+00  0.89057368E+00
  0.72301215E-01  0.89495969E+00  0.55169937E+00
  0.75171198E+00  0.24761179E+00  0.18693123E+00
  0.41523895E+00  0.77450525E+00  0.52021157E+00
  0.23004301E+00  0.46796133E+00  0.17922180E+00
  0.22785186E-01  0.73725035E+00  0.86417385E+00
  0.91434141E+00  0.84872978E-01  0.44658644E-01
  0.41708346E+00  0.99639274E-01  0.53649929E-01
  0.73175038E+00  0.72608586E+00  0.86980862E+00
  0.89721239E+00  0.86501299E+00  0.38091703E+00
  0.76857277E+00  0.22502576E+00  0.69479175E+00
  0.71118783E+00  0.80886675E-01  0.35958411E+00
  0.70709852E-01  0.43888479E+00  0.13143205E-01
  0.59978406E+00  0.54154885E+00  0.24389372E-01
  0.77262090E+00  0.57679738E+00  0.69881530E-03
  0.75409130E+00  0.70751456E-01  0.19615921E+00
  0.92097214E+00  0.39958070E+00  0.70025824E+00
  0.74764690E+00  0.74755553E+00  0.52930762E+00
  0.86936564E+00  0.41432541E+00  0.33342747E-01
  0.91281737E+00  0.37913299E+00  0.35581887E+00
  0.90185829E+00  0.40708848E+00  0.85522671E+00
  0.41964960E+00  0.43184177E+00  0.27595252E-01
  0.79330283E-01  0.11316412E+00  0.21834185E+00
  0.71449032E+00  0.56848549E+00  0.16872903E+00
  0.27112188E+00  0.67988701E-01  0.73214558E+00
  0.10864058E+00  0.60286842E+00  0.30528088E-01
  0.45018267E+00  0.60064769E+00  0.18859622E-01
  0.70401724E+00  0.88941849E+00  0.39119846E+00
  0.91854890E+00  0.27961741E+00  0.22510601E+00
  0.75010132E-01  0.27262693E+00  0.20927262E+00
  0.60928292E-01  0.93238583E+00  0.88954642E+00
  0.59088578E+00  0.25562688E+00  0.18351271E+00
  0.86258897E-01  0.55537656E+00  0.67739527E+00
  0.73928954E+00  0.56506326E+00  0.33195845E+00
  0.23574785E+00  0.77024698E+00  0.19793745E+00
  0.21028038E+00  0.70601202E-01  0.53242688E+00
  0.94436047E+00  0.58764801E+00  0.33675455E-01
  0.90816493E+00  0.88933635E+00  0.70533835E+00
  0.25030706E+00  0.74133064E+00  0.54670159E+00
  0.11241293E+00  0.57806057E+00  0.18547364E+00
  0.40966402E+00  0.19847073E+00  0.86629825E+00
  0.81543394E+00  0.75720475E+00  0.52483352E-01
  0.10496117E+00  0.64334730E-01  0.73081020E+00
  0.58028985E+00  0.25310546E+00  0.13405734E-01
  0.63087519E+00  0.69764297E+00  0.81643338E-02
  0.89422707E+00  0.91598433E-01  0.47091833E+00
  0.51452195E+00  0.62922617E+00  0.16989052E+00
  0.57210884E-01  0.75739245E+00  0.20311692E+00
  0.56150379E+00  0.91736682E+00  0.22313746E+00
  0.84092183E-01  0.76123586E+00  0.12661521E-01
  0.10543914E+00  0.22638917E+00  0.71469095E+00
  0.88319322E+00  0.84044974E+00  0.22916228E+00
  0.91100515E+00  0.41345816E+00  0.51572440E+00
  0.59256150E+00  0.88544228E+00  0.59939915E+00
  0.37542521E+00  0.95687745E+00  0.37257144E+00
  0.23796581E+00  0.44434785E+00  0.34006342E+00
  0.93477962E+00  0.60694329E-01  0.70663384E+00
  0.41440340E+00  0.93222966E+00  0.53444941E+00
  0.74244369E+00  0.56650684E+00  0.50882915E+00
  0.25974693E+00  0.13709194E+00  0.89623112E+00
  0.81281986E-01  0.73850116E+00  0.53548024E+00
  0.50128178E+00  0.10730393E+00  0.38277079E+00
  0.73743388E+00  0.73237983E+00  0.18538886E+00
  0.58690642E+00  0.85925829E+00  0.75913242E-01
  0.14873027E+00  0.40355685E-01  0.39211152E+00
  0.22218861E+00  0.75741243E+00  0.75185266E+00
  0.42235870E+00  0.59723305E+00  0.85833514E+00
  0.41972755E+00  0.45107702E+00  0.18985670E+00
  0.76676006E+00  0.53439025E-01  0.70114171E+00
  0.80376278E-01  0.27115915E+00  0.48457307E-01
  0.57950796E-01  0.85562959E+00  0.36559696E+00
  0.42070685E+00  0.10813843E+00  0.21449450E+00
  0.73825794E+00  0.90437271E+00  0.54773345E+00
  0.66682046E+00  0.23437679E+00  0.51546190E+00
  0.24766527E+00  0.93335325E+00  0.26729086E-01
  0.18835193E+00  0.24530439E+00  0.52466189E+00
  0.35344170E+00  0.24643747E+00  0.54436139E+00
  0.78208778E-01  0.98253924E-01  0.60909258E-01
  0.69688870E-01  0.88933877E+00  0.71097191E+00
  0.26406456E+00  0.28227164E+00  0.76521617E+00
  0.75246508E+00  0.56343599E+00  0.67147219E+00
  0.15062385E+00  0.22409832E+00  0.37324789E+00
  0.54711808E+00  0.66555571E-01  0.53656699E+00
  0.26601107E+00  0.59609732E+00  0.67888626E+00
  0.60354071E+00  0.58405012E+00  0.85003638E+00
  0.71783170E+00  0.41029576E+00  0.49294981E+00
  0.91053085E+00  0.26227912E+00  0.30657220E-01
  0.21225630E+00  0.40863444E+00  0.50719399E+00
  0.39548273E+00  0.74658534E+00  0.67663905E+00
  0.68994925E+00  0.40031383E+00  0.85465290E+00
  0.74191842E+00  0.72428933E+00  0.68342666E+00
  0.10508738E-01  0.45734482E+00  0.17391124E+00
  0.42058209E+00  0.26461470E+00  0.26391772E-01
  0.79690623E+00  0.22211211E+00  0.35617459E+00
  0.58017305E+00  0.57927062E-01  0.19433821E-01
  0.92078458E+00  0.92968960E+00  0.25588414E-01
  0.73731695E+00  0.90223402E+00  0.21384778E+00
  0.92210711E-01  0.39254051E+00  0.69357044E+00
  0.40375603E+00  0.25655431E+00  0.69958507E+00
  0.82111091E-01  0.25337435E+00  0.87001711E+00
  0.97200105E+00  0.21175521E+00  0.40290241E+00
  0.39000244E+00  0.26621885E+00  0.36338944E+00
  0.42614336E+00  0.93734294E+00  0.27269048E-01
  0.74156346E+00  0.89550565E+00  0.51436897E-01
  0.24050305E+00  0.77181442E+00  0.26207655E-01
  0.41676503E+00  0.92335236E+00  0.70653908E+00
  0.22883616E+00  0.91061092E+00  0.54546370E+00
  0.74768926E+00  0.23034296E+00  0.85419689E+00
  0.96487735E+00  0.76488520E-02  0.36461641E+00
  0.73615753E+00  0.89328952E+00  0.71980715E+00