Amorphous Sb                            
   1.00000000000000     
    20.8656461905629627    0.0000000000000000    0.0000000000000000
     0.0000000000000000   20.8656461905629627    0.0000000000000000
     0.0000000000000000    0.0000000000000000   20.8656461905629627
   Ge   Te
   150   150
Direct
  0.2660479639342047  0.6902270114672036  0.5902877301264351
  0.9178516427427209  0.6475294070015886  0.0088966692194526
  0.1327132701019234  0.2202294471010380  0.9386690579691193
  0.3129054740641716  0.3184864738979036  0.7495999770330152
  0.4487005344827390  0.0674637122561828  0.8114583983166717
  0.0306747622178038  0.2882907691431676  0.1906162639699910
  0.0569188359043264  0.9343034777825664  0.5733082927966443
  0.0048129381201557  0.0448739095648618  0.9641007069376807
  0.8158525975222619  0.1990690384389464  0.5269382658212287
  0.9210252533610351  0.6028862014153619  0.8790363533564083
  0.5388884686489834  0.4485439346010971  0.8224931529352063
  0.1552711458969947  0.8610555447561451  0.5490746558861608
  0.7696997449914711  0.8375368176500839  0.3227973327235485
  0.2986612167390436  0.8141608421460624  0.1288494628616786
  0.3269891303444850  0.2633747421825453  0.3780436543295231
  0.4770300516827649  0.7345267173104755  0.7343005493221867
  0.8154006919096439  0.3075648208052453  0.7757745371296214
  0.0815749883420422  0.7180712268557891  0.6917822607578012
  0.7136746667228273  0.1063440481072849  0.3574666012888292
  0.9428379797985504  0.9560009119290134  0.2559776298150797
  0.5881978743306042  0.2445150880519110  0.1414890302146045
  0.6685739541121122  0.7521706904034013  0.6293323226112205
  0.2548020161048846  0.9031145679939001  0.6095743470708215
  0.2919600870466628  0.5286448729611510  0.6926368871046037
  0.3907941983035370  0.8962539995382784  0.8757781124443458
  0.2102987073403337  0.3930418294674010  0.2659986764262381
  0.0344276282511556  0.7821268581587127  0.9700900666898635
  0.8995243880204068  0.0390602867466421  0.4393842814275586
  0.5276896172884533  0.8951213868090657  0.6535876311811163
  0.1426606066730354  0.0090517530552680  0.1537008237319205
  0.4850875670905330  0.3504494316746388  0.5289941030326264
  0.0276411746102009  0.4565610178695168  0.1267442393268203
  0.3383511493648005  0.6139042691793885 -0.0001050508718368
  0.9800248646169062  0.0658115867506111  0.5305057680922357
  0.2481435578404389  0.1462865807241451  0.0692785575075314
  0.4791072402859018  0.2710160130878566  0.8107438770826829
  0.7492578708573776  0.4887693800055553  0.5350391901688927
  0.0498295313717038  0.4984666357404805  0.9205066640433600
  0.1544069105650239  0.4314861609862473  0.7399245727855848
  0.9729212330172639  0.3063482411265781  0.4960308482054641
  0.2591653933933721  0.1346733319109377  0.7875110963598326
  0.1113309977424333  0.2193710764812019  0.7407016550926424
  0.1049428966449613  0.0116300832307132  0.6615935614135919
  0.7932148585444084  0.5980047426921405  0.6946012737839681
  0.7759872614231457  0.8376752470402510  0.8734079962445301
  0.4314361705958771  0.7925330269646083  0.9977405462692240
  0.4451454405000538  0.7592928131686569  0.5223255098549880
  0.1757076134941550  0.5435733243235350  0.0492719537447603
  0.4912602295081435  0.2792231258207725  0.9406096509049554
  0.1445204677924464  0.5341004112764303  0.2692293926272075
  0.1221584841258113  0.7221558862129374  0.1206385410303678
  0.2721684429266271  0.0162038807589911  0.7417137440889667
  0.2491016304181139  0.9461320512599636 -0.0085814846481870
  0.0069607149904075  0.9879221077190550  0.7719490197069359
  0.3565729704970209  0.4280454053911024  0.0629840921720305
  0.4259406192413286  0.9125640954665220  0.9940025240232259
  0.0428597605059898  0.4689519503934731  0.3108522818577320
  0.9332632902590547  0.0578886849494941  0.3231572495116712
  0.5624031334682740  0.5161655707523570  0.5135673546403021
  0.7261825237005284  0.6890250315755182  0.9523081434546240
  0.6510502888410120  0.5101646023431243  0.8124032176435816
  0.6779902084630862  0.1048891885460522  0.5827346382696738
  0.5897759865830655  0.3398784174943350  0.6709785181272983
  0.0319167858247414  0.7476640386550581  0.4545736693662618
  0.7498041676991101  0.2019603349899415  0.0215324940008868
  0.8141213264242370  0.4362447943038654  0.7919324908009551
  0.3421255809524916  0.9253182530847739  0.0847811099558557
  0.9608731824206260  0.5741558771387272  0.6055221682484073
  0.8413292942143752  0.9401350034112648  0.8813338772608167
  0.8981473377135797  0.2704143366298272  0.5944037485569114
  0.9316977311070034  0.9043083571496329  0.5771652728364700
  0.1728539275182568  0.3402211075259686  0.5541286087833066
  0.5549388669411872  0.0130308518590400  0.3008962982910467
  0.1152980669921809  0.2960728924685775  0.8433675379706327
  0.9495289957326331  0.7861829008115151  0.5416071001361115
  0.3569695850043777  0.4326952635206607  0.2502217313413221
  0.8495681966923252  0.7655008291096465  0.8049081500345097
  0.0016740177584621  0.3018569611117954  0.0191432882269517
  0.2962426801710087  0.5102903289684301  0.5061589826303146
  0.3810626492463946  0.5727164587409533  0.1511595110601493
  0.6702936250922308  0.8170755260171602  0.2493316914855280
  0.2287270174150902  0.9441637719895403  0.3704921458722683
  0.7837414615464605  0.0209533440351816  0.8073404532435966
  0.4140440115303151  0.2522883385033018  0.0334565768782304
  0.1577203306000300  0.2002517051550861  0.2366240864097209
  0.9223894168257363  0.6966949793772499  0.1225580648489213
  0.7312031413782715  0.8381309253377152  0.5246323777503610
  0.1806976805598295  0.7779434003624722  0.8875269675532417
  0.7568543027643098  0.0133942616381306  0.5481423715915147
  0.3095908879242214  0.0108323550530016  0.4420708284111161
  0.8845606749291081  0.0731539022811728  0.9628805623744181
  0.5515939109742980  0.1999557571079082  0.3559181766046691
  0.5423123371616787  0.1907919190469531  0.6548161088531124
  0.8594456959330562  0.1870016569156315  0.3897456573427217
  0.6045007915545856  0.9407837341685994  0.9116968390870319
  0.4033500245196806  0.1719864003109509  0.5278511970793405
  0.9720815227796058  0.3916545275416393  0.6970625428991952
  0.6855133753532399  0.9020241877037368  0.1570931377006828
  0.0388689275138691  0.1810999879405449  0.0080706457486603
  0.5697537508462737  0.1228483536279313  0.9487449257255226
  0.7705895020793528  0.9587354292233777  0.3484491477645358
  0.3087105479593840  0.8883340752347433  0.7237720543264388
  0.9510943044209067  0.0984585688508644  0.7444990972659368
  0.8578978158790318  0.1297340476010483  0.8503841684737073
  0.3260300530893915  0.7849146010320037  0.4802121837319139
  0.6805750915197474  0.7785003197565755  0.4050302772601241
  0.5016887576431126  0.5818003793872801  0.3076871265064140
  0.4068971318811426  0.8835790789513317  0.2824330053769583
  0.0339534710276865  0.1317775087407311  0.3091621933332594
  0.3842687024198658  0.6131831587316738  0.6315161314799842
  0.6144279242321871  0.0355465194859606  0.7188251837726698
  0.0976778893406415  0.2093398503199611  0.1240245141498858
  0.4713168925256820  0.7097331505198193  0.0794569802683506
  0.8295909738787512  0.0541059496376368  0.1275351477435381
  0.3454758631027962  0.0347208617034368  0.2637392363709693
  0.2601059240621392  0.1662096215759547  0.5115364485843894
  0.5383183381432869  0.9485563191682370  0.0192302283904509
  0.0404472734626203  0.3806615655086810  0.4026237436072035
  0.4999463408848359  0.7288045181710902  0.3251470314111063
  0.1260484413703520  0.1950683571576746  0.3929422908092367
  0.2267858948333238  0.8092138551376613  0.7738455828115437
  0.7928770158833844  0.0956745585443427  0.4560054696481138
  0.1808935058340434  0.6153535425872100  0.4408315043813468
  0.8056980114652097  0.6197317904375548  0.3754003908508262
  0.8614284405290797  0.2242490915366754  0.2030168168982775
  0.1651603372177528  0.3485370297275706  0.1247860002702168
  0.4086442376420208  0.2888471069384986  0.2471393848892211
  0.2021923453707587  0.2573494972286920  0.0338052796102553
  0.6855358168341676  0.3597342343750782  0.9515824602013211
  0.7120757406406510  0.8089388338736259  0.9761436228986244
  0.9455924942650912  0.0117966985311530  0.1471535641503418
  0.8995519955272107  0.8584720247070498  0.0655066449063093
  0.6795958320051770  0.0438593156541567  0.0766796709960273
  0.0244412354980889  0.8834836179762342  0.4245985613576466
  0.4969194829401809  0.3836986115817254  0.4022750535618316
  0.4017556436232966  0.0975562247386825  0.9233306250930831
  0.4086393228809382  0.1595425542537834  0.2429228889346463
  0.8400397946031769  0.7443031547491331  0.3620922038951341
  0.7924876182653326  0.8915397085429387  0.6220758910314120
  0.0895108858175968  0.3882973035930031  0.2261170386518945
  0.6141431080711810  0.7453806947544146  0.5110993305425912
  0.9034687624384692  0.4521939965025117  0.4034001061876801
  0.3882550746950350  0.5584229288149453  0.3553537623845992
  0.1317833647933513  0.9764266714851619  0.7824469715995414
  0.7820804225431454  0.4674676685691215  0.2638896157896147
  0.1948093819172391  0.5775471095535243  0.7594099566005448
  0.4251636656567468  0.4575304416547145  0.6889307887728474
  0.0562067280636278  0.6285772495054471  0.8630008146857526
  0.8394664495156172  0.9612276470056810  0.7123549184537961
  0.6832461417788028  0.3330902821972835  0.1581766365313839
  0.0537681383791248  0.6516742110960576 -0.0021814873198801
  0.0412796254012716  0.0991965638726441  0.1747980803494656
  0.0569324576468468  0.7602019460122559  0.8382268431706070
  0.6355428632542444  0.6939776434486605  0.2252009247185305
  0.2220281444154628  0.3666695851299791  0.8353074315269353
  0.9283420269021257  0.2617696950608318  0.7231520247344251
  0.0937176063359281  0.3357179268278084  0.6640115653786134
  0.7960771842341867  0.6021390917217734  0.2440259868375813
  0.6711135042632854  0.5965161377129644  0.5161002296875377
  0.5668370557913306  0.4934103269055496  0.3815264245128617
  0.3670948072700387  0.5386746317726490  0.8423911799437056
  0.4197418692207525  0.9884167044071718  0.1667564516343561
  0.8732597211569731  0.1598462321602331  0.0576533799374535
  0.3278109355310310  0.6769192455720724  0.8842972287114728
  0.6103150716901369  0.5862670057625690  0.0793711761939118
  0.7646875903164737  0.2990726911636014  0.2594411921663469
  0.4542544938769141  0.7323263014906501  0.8875806533097916
  0.0891545547521793  0.5742617032478896  0.1547884221215820
  0.5464207049122581  0.0668330657136835  0.0695399642904323
  0.5129972421629816  0.6772031376978799  0.4466444100217500
  0.3498425243795969  0.9107063393269188  0.5192021588661169
  0.0211864025024030  0.6122752821864554  0.4881745181962581
  0.9657967342693509  0.7580034762983924  0.3378267372265547
  0.4020105714732063  0.4024250189926879  0.8219059526444198
  0.0467735109130208  0.8861341129094165  0.2932402944225530
  0.5457260713791305  0.1515968680713585  0.7923992839807503
  0.4079550376577374  0.1810205694228609  0.6644840497437803
  0.6236688781761734  0.6119220566265947  0.9420362150197922
  0.6051444767087754  0.4229657809788286  0.0368538803304993
  0.5370096018636843  0.1344484831089884  0.2360118112959358
  0.6285768537681111  0.6376445180041944  0.7986037882814089
  0.2323869627544500  0.1026551249787360  0.1905685663656574
  0.5999787045372397  0.7261935871596268  0.0881569059683848
  0.2511387675309328  0.1510697984850283  0.3768096341326185
  0.6952335200308314  0.9225755312035838  0.8093618907935145
  0.3022608686015212  0.7971356582355947  0.9973394318096843
  0.7687285239608259  0.2261282088826196  0.8664448713113281
  0.1731001812694318  0.8474000633279435  0.1192147239514121
  0.1375442904571256  0.7339006831756856  0.5651252713997881
  0.2410531789729402  0.4543091178837839  0.1317491034075796
  0.5621653381317885  0.8761783700046887  0.1216089360797221
  0.9691004254490707  0.2005369459880831  0.8808953968523744
  0.0927608699464270  0.4468121266362829  0.5046045689820351
  0.7001504280816272  0.2385143705315254  0.3750423475972219
  0.7904384588033144  0.7697402591335064  0.6783399573250739
  0.4666478013935024  0.5912713176043858  0.0309925835389389
  0.1734745702516043  0.0533509031328407  0.0202933199701800
  0.2812899481529659  0.9116004369305583  0.2576306433391666
  0.9121258124384996  0.5187643268860881  0.7658781935867599
  0.0413752737026913  0.4025194566569164  0.8260476960617910
  0.8311950090455912  0.1032612612801115  0.2550458971938025
  0.6715692371305021  0.6546626878896561  0.3605481458290520
  0.2118954005769869  0.5686127574679307  0.5913974060808165
  0.2542873389344146  0.2830412256132542  0.2038150395652674
  0.4737786642457040  0.4950034460151087  0.2129747079639676
  0.7499192756972638  0.4769132234138353  0.8969636099036169
  0.6904136048876194  0.9465217836114463  0.4561925789987870
  0.1349562446336209  0.2099870801079314  0.5268500516511763
  0.7359512283093045  0.2925780203741233  0.6765343096083091
  0.4203652152735080  0.1676007884462015  0.3734559744979620
  0.2570560412811395  0.6925476514700237  0.7233732767396870
  0.2929063572072172  0.4978953142837250  0.9669491811377255
  0.4041275334285975  0.8232680842162549  0.6656097131256264
  0.5940198713387234  0.0758450605582442  0.4097455204400042
  0.9188015645195737  0.4835970326745409  0.9412632110510455
  0.2247442790734886  0.0305090545748165  0.6109744445220388
  0.1817623455947839  0.8361620818430492  0.4216046989004835
  0.3195914239162532  0.6252633457313815  0.4449446603284790
  0.7037218845560063  0.1310015850086292  0.7052657704502353
  0.8251828229646554  0.3764544181270890  0.6147803289330166
  0.7770101095928131  0.6410231742367475  0.0599629879047985
  0.4505723405283192  0.5872532900979370  0.7449049918734045
  0.6870876846242382  0.2245194962375736  0.5264409608007418
  0.9121793153607366  0.3129482610642440  0.9292292970980178
  0.9801148184570927  0.1749484472781792  0.4533607099924898
  0.6124117431468619  0.3943821355834222  0.5318741688366995
  0.1281311544898201  0.8643642008673293  0.7106536178913814
  0.9347966561984310  0.3380938877247052  0.1231860132961587
  0.1297205117966757  0.0020767112111853  0.3035128556114628
  0.4625986306350185  0.3193387406802312  0.1317852167069528
  0.9191420572914178  0.5214001909420911  0.0753729629041289
  0.7011994515416438  0.1602501000141910  0.1380499328248033
  0.0795327031902431  0.0014561435946966  0.4644476291244634
  0.6607423906306048  0.6231230234014782  0.6566165458174478
  0.3130702537645783  0.3209827986715556  0.9939239654620756
  0.8743769132540455  0.0631036791625916  0.6441130795520787
  0.0114126926022152  0.9509868928713759  0.0570697222822648
  0.7720820503500431  0.4757680521803347  0.4013656825554334
  0.5233804928873658  0.2267383706328899  0.5104242305420670
  0.6937741758161238  0.0783287732171353  0.9472652281081498
  0.2486577155751130  0.6458307928323634  0.0873125927153918
  0.9559911828859604  0.7100354299410493  0.6478197695417376
  0.5990531632063641  0.3322084314687345  0.8124555857111377
  0.5545852829326225  0.0689621492010643  0.6024101363661548
  0.3417231276251846  0.1980555935225239  0.8640985330115870
  0.3763025567087030  0.7759819496355235  0.3577219258406286
  0.1440150413102520  0.1248417733134790  0.8488255411481064
  0.4130106530365689  0.6949242026595362  0.1904127301869511
  0.5284446570137232  0.3228703694974500  0.2898592473590432
  0.0443453385418493  0.1323466839666635  0.6542406289366109
  0.1704596214866411  0.7543973108853617  0.2389933405873194
  0.0841805604009786  0.4074771771096385  0.0144339534475883
  0.9594977645836041  0.4313942283007882  0.5649117493428369
  0.5578255626548337  0.4670980634833271  0.6888142282961883
  0.3770642123144779  0.1329935454752076  0.0669083487072970
  0.9289951348956126  0.5980210437093767  0.2089611059682276
  0.4918087162344189  0.4073617301336960  0.9638845565264034
  0.4245667546053157  0.5102824991721916  0.5582699714067453
  0.9214030756908245  0.4351310218756327  0.2728751153364711
  0.7975963351529867  0.6510759187733675  0.8485922109242144
  0.0734753690099784  0.5861405233047421  0.7180588906056217
  0.3744604993269279  0.4311864069519960  0.3825335901749300
  0.8475211595299068  0.3049550314686341  0.4489492220639489
  0.6680223855317755  0.9395415383730084  0.6387594788323795
  0.5368814702242006  0.8525770758480228  0.5258826747675091
  0.5815027538624514  0.8398550455840984  0.3439687897900037
  0.4168572924978375  0.9845800460887790  0.3682472817589710
  0.8426795753641751  0.8862029527220662  0.2158340239913014
  0.1843356423981929  0.6005865888796899  0.8842344262320552
  0.5989380100463193  0.2436395187143536  0.0039300071023847
  0.8942253101803339  0.9119324372346732  0.4354436722713321
  0.4988552417548885  0.6815744082998191  0.6134883634681824
  0.3123176183275985  0.0059089157562940  0.8880352362207344
  0.5043338626223224  0.9475462861319650  0.8228383641782990
  0.1565178642512488  0.3215399575055450  0.3731597556045425
  0.0029945312343757  0.7910653104202892  0.1392134447482225
  0.8081807386395206  0.7562602742261558  0.1276182809156125
  0.7287636367091094  0.4803733698869515  0.7048118990257224
  0.2311082875416178  0.2182505044564370  0.6907756630193651
  0.9731409828512324  0.9395672472794199  0.8868584505755325
  0.9469958340265737  0.8872407480345432  0.7165537301381530
  0.4526781250504184  0.3218395046273675  0.6638115023161477
  0.5957941733824620  0.8112494846626823  0.9164635915883658
  0.1938563985091487  0.4862214387489533  0.4126009716381566
  0.6759321076513040  0.4583680343954177  0.1889297639881437
  0.9626943695004585  0.2447941465275736  0.2912534204409856
  0.9531648856973739  0.5739606056450391  0.3780977653484867
  0.3001472452365253  0.5556736019904690  0.2633657729235320
  0.1236824144194318  0.6514014100484308  0.3241722153871452
  0.2696220129415630  0.4043566461432081  0.6544247179697670
  0.8303531757646474  0.7520779493470602  0.4928697475152743
  0.9021148960693871  0.7785780959254319  0.9568211824255560
  0.7670967534101303  0.3327307241464996  0.0565183222951080
  0.8172600577573186  0.9678075227521021  0.0056294359260648
  0.8345836531871048  0.5866126016034254  0.5678036655679863
  0.3300991650430004  0.2819297357809420  0.5117812025946281
  0.3975094775424765  0.0397291040691001  0.6924429877020102
  0.1492613240317575  0.9042262289059868  0.9140506327783340
  0.5939803757529746  0.8021468855773568  0.7233829295071501
  0.6792151930335907  0.9975117980035574  0.2498309905582597
 
  0.00000000E+00  0.00000000E+00  0.00000000E+00
  0.00000000E+00  0.00000000E+00  0.00000000E+00
  0.00000000E+00  0.00000000E+00  0.00000000E+00
  0.00000000E+00  0.00000000E+00  0.00000000E+00
  0.00000000E+00  0.00000000E+00  0.00000000E+00
  0.00000000E+00  0.00000000E+00  0.00000000E+00
  0.00000000E+00  0.00000000E+00  0.00000000E+00
  0.00000000E+00  0.00000000E+00  0.00000000E+00
  0.00000000E+00  0.00000000E+00  0.00000000E+00
  0.00000000E+00  0.00000000E+00  0.00000000E+00
  0.00000000E+00  0.00000000E+00  0.00000000E+00
  0.00000000E+00  0.00000000E+00  0.00000000E+00
  0.00000000E+00  0.00000000E+00  0.00000000E+00
  0.00000000E+00  0.00000000E+00  0.00000000E+00
  0.00000000E+00  0.00000000E+00  0.00000000E+00
  0.00000000E+00  0.00000000E+00  0.00000000E+00
  0.00000000E+00  0.00000000E+00  0.00000000E+00
  0.00000000E+00  0.00000000E+00  0.00000000E+00
  0.00000000E+00  0.00000000E+00  0.00000000E+00
  0.00000000E+00  0.00000000E+00  0.00000000E+00
  0.00000000E+00  0.00000000E+00  0.00000000E+00
  0.00000000E+00  0.00000000E+00  0.00000000E+00
  0.00000000E+00  0.00000000E+00  0.00000000E+00
  0.00000000E+00  0.00000000E+00  0.00000000E+00
  0.00000000E+00  0.00000000E+00  0.00000000E+00
  0.00000000E+00  0.00000000E+00  0.00000000E+00
  0.00000000E+00  0.00000000E+00  0.00000000E+00
  0.00000000E+00  0.00000000E+00  0.00000000E+00
  0.00000000E+00  0.00000000E+00  0.00000000E+00
  0.00000000E+00  0.00000000E+00  0.00000000E+00
  0.00000000E+00  0.00000000E+00  0.00000000E+00
  0.00000000E+00  0.00000000E+00  0.00000000E+00
  0.00000000E+00  0.00000000E+00  0.00000000E+00
  0.00000000E+00  0.00000000E+00  0.00000000E+00
  0.00000000E+00  0.00000000E+00  0.00000000E+00
  0.00000000E+00  0.00000000E+00  0.00000000E+00
  0.00000000E+00  0.00000000E+00  0.00000000E+00
  0.00000000E+00  0.00000000E+00  0.00000000E+00
  0.00000000E+00  0.00000000E+00  0.00000000E+00
  0.00000000E+00  0.00000000E+00  0.00000000E+00
  0.00000000E+00  0.00000000E+00  0.00000000E+00
  0.00000000E+00  0.00000000E+00  0.00000000E+00
  0.00000000E+00  0.00000000E+00  0.00000000E+00
  0.00000000E+00  0.00000000E+00  0.00000000E+00
  0.00000000E+00  0.00000000E+00  0.00000000E+00
  0.00000000E+00  0.00000000E+00  0.00000000E+00
  0.00000000E+00  0.00000000E+00  0.00000000E+00
  0.00000000E+00  0.00000000E+00  0.00000000E+00
  0.00000000E+00  0.00000000E+00  0.00000000E+00
  0.00000000E+00  0.00000000E+00  0.00000000E+00
  0.00000000E+00  0.00000000E+00  0.00000000E+00
  0.00000000E+00  0.00000000E+00  0.00000000E+00
  0.00000000E+00  0.00000000E+00  0.00000000E+00
  0.00000000E+00  0.00000000E+00  0.00000000E+00
  0.00000000E+00  0.00000000E+00  0.00000000E+00
  0.00000000E+00  0.00000000E+00  0.00000000E+00
  0.00000000E+00  0.00000000E+00  0.00000000E+00
  0.00000000E+00  0.00000000E+00  0.00000000E+00
  0.00000000E+00  0.00000000E+00  0.00000000E+00
  0.00000000E+00  0.00000000E+00  0.00000000E+00
  0.00000000E+00  0.00000000E+00  0.00000000E+00
  0.00000000E+00  0.00000000E+00  0.00000000E+00
  0.00000000E+00  0.00000000E+00  0.00000000E+00
  0.00000000E+00  0.00000000E+00  0.00000000E+00
  0.00000000E+00  0.00000000E+00  0.00000000E+00
  0.00000000E+00  0.00000000E+00  0.00000000E+00
  0.00000000E+00  0.00000000E+00  0.00000000E+00
  0.00000000E+00  0.00000000E+00  0.00000000E+00
  0.00000000E+00  0.00000000E+00  0.00000000E+00
  0.00000000E+00  0.00000000E+00  0.00000000E+00
  0.00000000E+00  0.00000000E+00  0.00000000E+00
  0.00000000E+00  0.00000000E+00  0.00000000E+00
  0.00000000E+00  0.00000000E+00  0.00000000E+00
  0.00000000E+00  0.00000000E+00  0.00000000E+00
  0.00000000E+00  0.00000000E+00  0.00000000E+00
  0.00000000E+00  0.00000000E+00  0.00000000E+00
  0.00000000E+00  0.00000000E+00  0.00000000E+00
  0.00000000E+00  0.00000000E+00  0.00000000E+00
  0.00000000E+00  0.00000000E+00  0.00000000E+00
  0.00000000E+00  0.00000000E+00  0.00000000E+00
  0.00000000E+00  0.00000000E+00  0.00000000E+00
  0.00000000E+00  0.00000000E+00  0.00000000E+00
  0.00000000E+00  0.00000000E+00  0.00000000E+00
  0.00000000E+00  0.00000000E+00  0.00000000E+00
  0.00000000E+00  0.00000000E+00  0.00000000E+00
  0.00000000E+00  0.00000000E+00  0.00000000E+00
  0.00000000E+00  0.00000000E+00  0.00000000E+00
  0.00000000E+00  0.00000000E+00  0.00000000E+00
  0.00000000E+00  0.00000000E+00  0.00000000E+00
  0.00000000E+00  0.00000000E+00  0.00000000E+00
  0.00000000E+00  0.00000000E+00  0.00000000E+00
  0.00000000E+00  0.00000000E+00  0.00000000E+00
  0.00000000E+00  0.00000000E+00  0.00000000E+00
  0.00000000E+00  0.00000000E+00  0.00000000E+00
  0.00000000E+00  0.00000000E+00  0.00000000E+00
  0.00000000E+00  0.00000000E+00  0.00000000E+00
  0.00000000E+00  0.00000000E+00  0.00000000E+00
  0.00000000E+00  0.00000000E+00  0.00000000E+00
  0.00000000E+00  0.00000000E+00  0.00000000E+00
  0.00000000E+00  0.00000000E+00  0.00000000E+00
  0.00000000E+00  0.00000000E+00  0.00000000E+00
  0.00000000E+00  0.00000000E+00  0.00000000E+00
  0.00000000E+00  0.00000000E+00  0.00000000E+00
  0.00000000E+00  0.00000000E+00  0.00000000E+00
  0.00000000E+00  0.00000000E+00  0.00000000E+00
  0.00000000E+00  0.00000000E+00  0.00000000E+00
  0.00000000E+00  0.00000000E+00  0.00000000E+00
  0.00000000E+00  0.00000000E+00  0.00000000E+00
  0.00000000E+00  0.00000000E+00  0.00000000E+00
  0.00000000E+00  0.00000000E+00  0.00000000E+00
  0.00000000E+00  0.00000000E+00  0.00000000E+00
  0.00000000E+00  0.00000000E+00  0.00000000E+00
  0.00000000E+00  0.00000000E+00  0.00000000E+00
  0.00000000E+00  0.00000000E+00  0.00000000E+00
  0.00000000E+00  0.00000000E+00  0.00000000E+00
  0.00000000E+00  0.00000000E+00  0.00000000E+00
  0.00000000E+00  0.00000000E+00  0.00000000E+00
  0.00000000E+00  0.00000000E+00  0.00000000E+00
  0.00000000E+00  0.00000000E+00  0.00000000E+00
  0.00000000E+00  0.00000000E+00  0.00000000E+00
  0.00000000E+00  0.00000000E+00  0.00000000E+00
  0.00000000E+00  0.00000000E+00  0.00000000E+00
  0.00000000E+00  0.00000000E+00  0.00000000E+00
  0.00000000E+00  0.00000000E+00  0.00000000E+00
  0.00000000E+00  0.00000000E+00  0.00000000E+00
  0.00000000E+00  0.00000000E+00  0.00000000E+00
  0.00000000E+00  0.00000000E+00  0.00000000E+00
  0.00000000E+00  0.00000000E+00  0.00000000E+00
  0.00000000E+00  0.00000000E+00  0.00000000E+00
  0.00000000E+00  0.00000000E+00  0.00000000E+00
  0.00000000E+00  0.00000000E+00  0.00000000E+00
  0.00000000E+00  0.00000000E+00  0.00000000E+00
  0.00000000E+00  0.00000000E+00  0.00000000E+00
  0.00000000E+00  0.00000000E+00  0.00000000E+00
  0.00000000E+00  0.00000000E+00  0.00000000E+00
  0.00000000E+00  0.00000000E+00  0.00000000E+00
  0.00000000E+00  0.00000000E+00  0.00000000E+00
  0.00000000E+00  0.00000000E+00  0.00000000E+00
  0.00000000E+00  0.00000000E+00  0.00000000E+00
  0.00000000E+00  0.00000000E+00  0.00000000E+00
  0.00000000E+00  0.00000000E+00  0.00000000E+00
  0.00000000E+00  0.00000000E+00  0.00000000E+00
  0.00000000E+00  0.00000000E+00  0.00000000E+00
  0.00000000E+00  0.00000000E+00  0.00000000E+00
  0.00000000E+00  0.00000000E+00  0.00000000E+00
  0.00000000E+00  0.00000000E+00  0.00000000E+00
  0.00000000E+00  0.00000000E+00  0.00000000E+00
  0.00000000E+00  0.00000000E+00  0.00000000E+00
  0.00000000E+00  0.00000000E+00  0.00000000E+00
  0.00000000E+00  0.00000000E+00  0.00000000E+00
  0.00000000E+00  0.00000000E+00  0.00000000E+00
  0.00000000E+00  0.00000000E+00  0.00000000E+00
  0.00000000E+00  0.00000000E+00  0.00000000E+00
  0.00000000E+00  0.00000000E+00  0.00000000E+00
  0.00000000E+00  0.00000000E+00  0.00000000E+00
  0.00000000E+00  0.00000000E+00  0.00000000E+00
  0.00000000E+00  0.00000000E+00  0.00000000E+00
  0.00000000E+00  0.00000000E+00  0.00000000E+00
  0.00000000E+00  0.00000000E+00  0.00000000E+00
  0.00000000E+00  0.00000000E+00  0.00000000E+00
  0.00000000E+00  0.00000000E+00  0.00000000E+00
  0.00000000E+00  0.00000000E+00  0.00000000E+00
  0.00000000E+00  0.00000000E+00  0.00000000E+00
  0.00000000E+00  0.00000000E+00  0.00000000E+00
  0.00000000E+00  0.00000000E+00  0.00000000E+00
  0.00000000E+00  0.00000000E+00  0.00000000E+00
  0.00000000E+00  0.00000000E+00  0.00000000E+00
  0.00000000E+00  0.00000000E+00  0.00000000E+00
  0.00000000E+00  0.00000000E+00  0.00000000E+00
  0.00000000E+00  0.00000000E+00  0.00000000E+00
  0.00000000E+00  0.00000000E+00  0.00000000E+00
  0.00000000E+00  0.00000000E+00  0.00000000E+00
  0.00000000E+00  0.00000000E+00  0.00000000E+00
  0.00000000E+00  0.00000000E+00  0.00000000E+00
  0.00000000E+00  0.00000000E+00  0.00000000E+00
  0.00000000E+00  0.00000000E+00  0.00000000E+00
  0.00000000E+00  0.00000000E+00  0.00000000E+00
  0.00000000E+00  0.00000000E+00  0.00000000E+00
  0.00000000E+00  0.00000000E+00  0.00000000E+00
  0.00000000E+00  0.00000000E+00  0.00000000E+00
  0.00000000E+00  0.00000000E+00  0.00000000E+00
  0.00000000E+00  0.00000000E+00  0.00000000E+00
  0.00000000E+00  0.00000000E+00  0.00000000E+00
  0.00000000E+00  0.00000000E+00  0.00000000E+00
  0.00000000E+00  0.00000000E+00  0.00000000E+00
  0.00000000E+00  0.00000000E+00  0.00000000E+00
  0.00000000E+00  0.00000000E+00  0.00000000E+00
  0.00000000E+00  0.00000000E+00  0.00000000E+00
  0.00000000E+00  0.00000000E+00  0.00000000E+00
  0.00000000E+00  0.00000000E+00  0.00000000E+00
  0.00000000E+00  0.00000000E+00  0.00000000E+00
  0.00000000E+00  0.00000000E+00  0.00000000E+00
  0.00000000E+00  0.00000000E+00  0.00000000E+00
  0.00000000E+00  0.00000000E+00  0.00000000E+00
  0.00000000E+00  0.00000000E+00  0.00000000E+00
  0.00000000E+00  0.00000000E+00  0.00000000E+00
  0.00000000E+00  0.00000000E+00  0.00000000E+00
  0.00000000E+00  0.00000000E+00  0.00000000E+00
  0.00000000E+00  0.00000000E+00  0.00000000E+00
  0.00000000E+00  0.00000000E+00  0.00000000E+00
  0.00000000E+00  0.00000000E+00  0.00000000E+00
  0.00000000E+00  0.00000000E+00  0.00000000E+00
  0.00000000E+00  0.00000000E+00  0.00000000E+00
  0.00000000E+00  0.00000000E+00  0.00000000E+00
  0.00000000E+00  0.00000000E+00  0.00000000E+00
  0.00000000E+00  0.00000000E+00  0.00000000E+00
  0.00000000E+00  0.00000000E+00  0.00000000E+00
  0.00000000E+00  0.00000000E+00  0.00000000E+00
  0.00000000E+00  0.00000000E+00  0.00000000E+00
  0.00000000E+00  0.00000000E+00  0.00000000E+00
  0.00000000E+00  0.00000000E+00  0.00000000E+00
  0.00000000E+00  0.00000000E+00  0.00000000E+00
  0.00000000E+00  0.00000000E+00  0.00000000E+00
  0.00000000E+00  0.00000000E+00  0.00000000E+00
  0.00000000E+00  0.00000000E+00  0.00000000E+00
  0.00000000E+00  0.00000000E+00  0.00000000E+00
  0.00000000E+00  0.00000000E+00  0.00000000E+00
  0.00000000E+00  0.00000000E+00  0.00000000E+00
  0.00000000E+00  0.00000000E+00  0.00000000E+00
  0.00000000E+00  0.00000000E+00  0.00000000E+00
  0.00000000E+00  0.00000000E+00  0.00000000E+00
  0.00000000E+00  0.00000000E+00  0.00000000E+00
  0.00000000E+00  0.00000000E+00  0.00000000E+00
  0.00000000E+00  0.00000000E+00  0.00000000E+00
  0.00000000E+00  0.00000000E+00  0.00000000E+00
  0.00000000E+00  0.00000000E+00  0.00000000E+00
  0.00000000E+00  0.00000000E+00  0.00000000E+00
  0.00000000E+00  0.00000000E+00  0.00000000E+00
  0.00000000E+00  0.00000000E+00  0.00000000E+00
  0.00000000E+00  0.00000000E+00  0.00000000E+00
  0.00000000E+00  0.00000000E+00  0.00000000E+00
  0.00000000E+00  0.00000000E+00  0.00000000E+00