GeSe                                    
   1.00000000000000     
    20.1278870000000012    0.0000000000000000    0.0000000000000000
     0.0000000000000000   20.1278870000000012    0.0000000000000000
     0.0000000000000000    0.0000000000000000   20.1278870000000012
   Ge   Se
   150   150
Direct
  0.1309972287659811  0.8297546825279236  0.1562637822401407
  0.6520747114304464  0.2952587406889944  0.7403914582022987
  0.2762752271437839  0.0279873709386913  0.7002820044173951
  0.2093370275464603  0.1602257158044188  0.7963788181548265
  0.4393930030365450  0.5667221143025543  0.8628461301014541
  0.2430714027143298  0.2875196095422036  0.1833952540956707
  0.4544704686571769  0.6762698183792607  0.2374146150007203
  0.0938410489083490  0.5160077450320766  0.0406950016365484
  0.8766197368455271  0.3189780319715539  0.0678146745171509
  0.7050738917781799  0.3445370892484086  0.0696241939435297
  0.9796991320486926  0.9288850156240528  0.3843873171195333
  0.8746577227624617  0.5826336822848063  0.0991071034463478
  0.4652085579750448  0.9147805664439090  0.4553667301521799
  0.3590966504433251  0.7644100835622820  0.7309439965145828
 -0.0218665710407851  0.4042464804375560  0.5834670637460394
  0.5763298164186360  0.0948107141825639 -0.0103519878051439
  0.3234525415324921  0.5411260815307347  0.6375315055789991
  0.0001261698336615  0.1756027868915058  0.6127406351640163
  0.3189588604559904  0.3992919822059561  0.4307864615182251
  0.8551259918361458  0.7846047089769215  0.0311586427598207
  0.7115453674163471  0.2270896689545023  0.1300049620481800
  0.8358826140970576  0.0145268447744263  0.8481207509761243
  0.6519967566894078  0.1551440156561943  0.3366840490198524
  0.1700804850477956  0.7431504045607684  0.8603627497439796
  0.0006062301662484  0.4760882715395400  0.8787463307158796
  0.7068717248290342  0.6095612787595436  0.5843149054380002
  0.6609668141646186  0.9767714873022222  0.8359819969320315
  0.8363223617469756  0.5219774146833622  0.5004008061161317
  0.5479810090071443  0.1419991813084565  0.7873287038468516
  0.3637947878309660  0.4421309505787753  0.2071448387873376
  0.6040211750600483  0.2289032604630352  0.6347429823111242
  0.2296502722452008  0.3798964956863424  0.7061542471114682
  0.3849987297176002  0.0802252072067860  0.9491988078905574
  0.7370481753690666  0.6247888871088716  0.2334523445550580
  0.9562698655290364  0.6577657417857160  0.3174207553536102
  0.0701771391069538  0.8985693999951206  0.6535567609256728
  0.2487583335368027  0.1139043854612821  0.5273257907788194
  0.0494366927719080  0.6626105105103807  0.7208649609715361
  0.8971583485454148  0.1655502524928383  0.4664633819269182
  0.1437036565936098  0.0330303859377001  0.4676277225978379
  0.2054660685357172  0.9192973654573739  0.0256895139241788
  0.2242969419097441  0.1620217202386935  0.1894332709819386
  0.3944755378075422  0.6894738522390111  0.5445047839608982
  0.1007210594745412  0.5818964764006542  0.8698381986608016
  0.1314804001813112  0.0603672351382989  0.3343588429851357
  0.0037027460312246  0.7325589208456427  0.9319671075779203
  0.3192882640318312  0.3820228758625636  0.9612211907318702
  0.4598644330693070  0.9856616799516993  0.6635859224899410
  0.7850665809673650  0.7252162977831934  0.4039326942496661
  0.9631164127763183  0.3676374996818724  0.7328361243497034
  0.8526049093381214  0.2963464280312828  0.3469313848035883
  0.6041348547710569  0.2813553702328723  0.3372542996612772
  0.8403268843010900  0.0903006750221286  0.3742208734496305
  0.0855331375571589  0.5809275939702717  0.3849185926955087
  0.0944740846479518  0.9284935277390954  0.8372290474562749
  0.0444050418456652  0.0000701457518882  0.9412825215321620
  0.3086439742545294  0.9834504170892771  0.2723762390758628
  0.8206222009235614  0.8878509017881211  0.8218177929008434
  0.8057477829302145  0.5010112149025907  0.6849702474751994
  0.4739524533866448  0.5244969613129578  0.0635991340901853
  0.3081131928496835  0.7773852063900077  0.2830054100843974
  0.1732567593070569  0.6703418183947790  0.5000006602528134
  0.5754876680897841  0.1261665595829178  0.2370083470132186
  0.6339149153426145  0.7382479993944103  0.1867372262579699
  0.8120361488928790  0.2488129335815002  0.9885646721018545
  0.7403719189388569  0.4338842032275143  0.4797963989307649
  0.7255548117151110 -0.0381066746923315  0.0292852135621319
  0.3572368413770987  0.3038682856653472  0.7929747959106077
  0.7412882071965989  0.5511183129546740  0.3443045751452338
  0.5320338682519015  0.4967553786941206  0.5429464859011895
  0.2873886591132674 -0.0068492148141709  0.8753085337334356
  0.2852044917560072  0.7324019111971831  0.1231847130894702
  0.4202302234240467  0.2420554683297713  0.9063800435455686
  0.7796117423703689  0.7665908705382115  0.6802920724501857
  0.7806215751336173  0.2559226062886228  0.2394236037320799
  0.4220039166217693  0.3365829689425257  0.0838549289834876
  0.0749275266154544  0.2278459170651443  0.8433151900940158
  0.9313749955872286  0.8133625266332153  0.7636298037610145
  0.6087768657929233  0.9243834899651927  0.2331872155581243
  0.1333814695603339  0.4239766452750905  0.1206242747658726
  0.0082628085167998  0.2210316758656525  0.4318168010249326
  0.9731215820987882  0.2818465901450349  0.9049200698753709
  0.9651364345989009  0.9738563643727255  0.2621652496384211
  0.4866986278998565  0.2007902505870970  0.0732476672653366
  0.4675173496860862  0.9328267831919027  0.8467289959596700
  0.8640033977670571  0.4452703050104855  0.2375968282485020
  0.6292088292565796  0.4135831145061924  0.6820237197347561
  0.5593647302858969  0.1002115991174190  0.4055624921564105
  0.8381800532678153  0.2195657152698980  0.7787862261697017
  0.3963886895776932  0.0297692621572134  0.4449253331472884
  0.7380857063612573  0.7735061874225453  0.8481083442309286
  0.3063078147405453  0.1577227362343948  0.3362809995354840
  0.2405507849598271  0.2060465604729376  0.9171783510850232
  0.3307957960729105  0.2416820305929742  0.6834309020205886
  0.3833964776150164  0.5822580767034299  0.4500944119898974
  0.3200682881280325  0.7291903339241970  0.9570648814239222
  0.0718370165096899  0.4781546710747945  0.2791287205545674
  0.2935191134576486  0.3778654258811902  0.5601930679884380
  0.7757725880710777  0.6329132867221996  0.9646301494434294
  0.3900021750323627  0.6254271302234243  0.0719791190619005
  0.9624338181401533  0.8009278550632587  0.3653237790318938
  0.0640175906288894  0.0129441284339377  0.1501177176784235
  0.5201650405167063  0.8114300914610556  0.5995144069043801
  0.0017732584730858  0.5917660460686708  0.5546490150128233
  0.4672642955536723  0.7505415327303915  0.8159560530832006
  0.1717363335676154  0.3499877493386879  0.2673031886717017
  0.0114784199613108  0.7737864372536104  0.1412512794491381
  0.4813518654371463  0.7221385357560756  0.3718537413490935
  0.3247650504567310  0.8486711361322532  0.4778838698037938
  0.7018734517144181  0.4315548528535945  0.8333783811416735
  0.1916230103066306  0.6165163518423666  0.2365316387869082
  0.6420575044387219  0.0640354649665856  0.5785845203770440
  0.4320431206233443  0.1892607151432678  0.5112865209730613
  0.6413056196062973  0.7622175829027636  0.0409336527896652
  0.2345067762029294  0.9235637344178670  0.6124307739213181
  0.5470837424710383  0.3256205861648644  0.1785052154628898
  0.2830062359991694  0.5249929401009412  0.7760943500563856
  0.2318635873006045  0.2083542677465181  0.6124194270774058
  0.7086468656081496  0.9002244535745335  0.5611850416632179
  0.8221790293308375  0.8034108864547218  0.4952021015145666
  0.1004717112595484  0.6301221793939898  0.1030322541732601
  0.9131883720378862 -0.0134056352631721  0.9476127224902665
  0.1250600726399046  0.3925795107947569  0.8830577192172747
  0.6109831500056054  0.7154723963122493  0.6822396200940267
  0.9058933041259457  0.8799232550339743  0.5601149904937852
  0.0243766819226184  0.1235705868125133  0.9663147489003518
  0.7825238836296456  0.9122657315103159  0.1916390210331426
  0.0681486919269026  0.0739081140737742  0.7174598638942177
  0.9681236987224681  0.6462827783484132  0.8400053578278075
  0.4421189921117744  0.3521790784320414  0.5805546664309240
  0.1482702290466040  0.8740698467784739  0.3167735565484869
  0.5629101057803817  0.5803106537675207  0.2489571198487153
  0.1694977175748774  0.2600149608892270  0.4425693060389394
  0.6224540982369261  0.5323260102358142  0.0777849464165550
  0.5956534963581923  0.6537026506344457  0.4799566595569940
  0.6732073037073716  0.7998806642829227  0.3793975408337870
  0.0200041064491383  0.8062242586733231  0.5750231281099824
  0.6367167906052869  0.9435785850504649  0.7104110257490064
  0.2277050980669637  0.7561591880609648  0.6462715635563109
  0.4561837251621201  0.9813935534737909  0.3100950464523223
  0.0196220380040870  0.1657938646886046  0.1836975969404958
  0.4505858277349998  0.8030419583089482  0.2063415753922292
  0.3129024004584069 -0.0114796610026303  0.0686066204531303
  0.4720441397305757  0.4316990403043197  0.3650489184599108
  0.0773332624542082  0.4354476693701394  0.6719413285338822
  0.4973019537569175  0.4025310737375882  0.8198141444082460
  0.4883089792315040  0.5764143968134334  0.7412985155589947
  0.0471477342782780  0.3051207272973052  0.2519209714974137
  0.7877241249949416  0.4422666581748874  0.9370763847047391
  0.7176688456655734  0.0893241309946936  0.7278187411936838
  0.6395238637535889  0.5084479089113068  0.7635435955657076
  0.8730886977204383  0.1785640734550075  0.2939641433020825
  0.9865124026811568  0.3172426015294142  0.0213465349761101
  0.0526921221017139  0.7952961135533976  0.8292282993879299
  0.7125198581449458  0.1625163812450978  0.6205659240475000
  0.2344766120314305  0.3256434609835844  0.8678268110677057
  0.9564475044195029  0.4866905787017654  0.4927481296607353
  0.8447666318130155  0.0032671749731314  0.0453010914090177
  0.7782323001578555  0.4363278031075284  0.3305147166264191
  0.6555215025230240  0.3381811633151859  0.2400757437660609
  0.5100354427403194  0.4351602482212896  0.6532469109998104
  0.3606263998961374  0.3121543380526230  0.1991824588443727
  0.5594348803619335  0.9778166640485552  0.3901321918677462
  0.2004991541666645  0.6076673127343108  0.3627374392705696
  0.1282109132749177  0.1258294659767741  0.1246564526799669
  0.7484186996736941  0.8417167399326887  0.0734013268799648
  0.2694471777396069  0.8725293769377431  0.3587007374629670
  0.2766221573203731  0.6316571974426106  0.0233631030222677
  0.8134097520627571  0.9258243962525032  0.6256319721917570
  0.9510294251841748  0.7439683035753711  0.6590583676286749
  0.3797819642199957  0.6434496199797127  0.7215342946873241
  0.9208242561113555  0.8472007579603489  0.1184976039942908
  0.7841139386952108  0.6670411113646781  0.0875864343214781
  0.7527838310702518  0.8896299117845683  0.4383530935945667
  0.3418885398916786  0.2629066232093797  0.0171751592261479
  0.8729023400566814  0.7130907756091222  0.8093075312611934
  0.7201603057360265  0.0767917470386875  0.3964620050456631
  0.4341611220401089  0.6814460920472138  0.9132674037709033
  0.8589803557283043  0.5740636172623238  0.2244783964755755
  0.1875006681363848  0.3233953879461883  0.0816333508386113
  0.1698857680819585  0.4969018411598091  0.9464402213800406
  0.6061654248854700  0.1579011166644414  0.1211146763353350
  0.5528817504227725  0.0319924308551839  0.8701408667884974
  0.3536134351588403  0.7364444814584707  0.4344594651314731
  0.3639672081638143  0.4538927913237010  0.0760970571940581
  0.7567764975034570  0.1585920452935055  0.0394453125223164
  0.1887419919820164  0.7489342713988374  0.2423350767730547
  0.5022684837166191  0.5953796206219105  0.4092635329810230
  0.3966109867734132  0.7500415056173199  0.0581704970780398
  0.0930124883018460  0.9154210096686709  0.4290036306370574
  0.9553617812868858  0.2459029518486172  0.7315512961352333
  0.3906714458507123  0.8035295586853762  0.6115782459458270
 -0.0168613620439564  0.5013305635293502 -0.0013487683857307
  0.1796271405207288  0.9831108988976408  0.2488601167664953
  0.5290954269218566  0.3232746812703288  0.4937387721148517
  0.2078284077788572  0.8985564661184847  0.9045461895234788
  0.4062679987357762  0.3255029945072382  0.3942139963128522
  0.4648024776852829  0.0767883818399334  0.0500170512726132
  0.0099621518211900  0.2858746256373602  0.5410604462417676
  0.0032565461418507  0.7070184757417149  0.4321059100505928
  0.3562257965688033  0.4937911811343479  0.3585546945699690
  0.3480446589427273  0.4177230365277342  0.7323630571674455
  0.9126373476465012  0.9693978848870630  0.4740327160851075
  0.1931761355539588  0.7977115444881991  0.0528173783772233
  0.7186159212488690  0.6509745114983231  0.7036628606258113
  0.4427350565224956  0.2293691925232350  0.6317480907946109
  0.5104422812415930  0.2261220138884159  0.2737820942653710
  0.9049009818104476  0.5452468618990787  0.8427098348898032
  0.1286818945943738 -0.0068161786556847  0.5986124671119434
  0.5082625330031260  0.0282960943004737  0.2065373376312689
  0.6717234137437009  0.5243750689599060  0.1969622193527842
  0.8223942194412404  0.2612423388327346  0.4585448982492331
  0.6061602599416176  0.6892842106481932  0.3048606065468994
  0.8919442602476748  0.1266100759428380  0.5786003018253588
  0.6019626290133224  0.4056823337101153  0.0704845387065813
  0.7318990486480396  0.0558346366348016  0.8956261714028917
  0.6630752431468504  0.5194651514948553  0.4328393080694808
  0.0644912713497915  0.5926018273685670  0.2233937751411684
  0.8895551184554267  0.2681749018425471  0.1734421824519635
  0.4438625843819715  0.1206248007816767  0.3749549013806056
  0.4027190594795891  0.4951199922127495  0.5383439449875884
  0.5491792075026893  0.8349525190780339 -0.0025436002430007
  0.8714399937674113  0.3920460718386931  0.6458059550205558
  0.2856001233573912  0.0412631009219865  0.3878970571255411
  0.8610657322789973  0.7548000104613732  0.3119755879135204
  0.1779736863324719  0.1743086609445250  0.3040565114355434
  0.8058181842540900  0.4181490969753939  0.0820298641548332
  0.5249023421461434  0.9358722866232472  0.5639120751226173
  0.0826663146194792  0.9371096679623153  0.0445997405239173
  0.1764913209530856  0.8669381017741298  0.7110610169208439
  0.6930040687930084  0.9919054563355364  0.1595345673854882
  0.5193059350320354  0.8961062018589121  0.7322642984578407
  0.5374627482813426  0.6537645990370379  0.1448132649959527
  0.4817555444729023  0.2855255409130584  0.7764349176745990
  0.6087063120756985  0.3469314514715032  0.8484617360689571
  0.0147338713469919  0.1173393998597627  0.8304566318109015
  0.5408700404829129  0.2140795549818160  0.9599998263004119
  0.9746311913875727  0.0857319257246626  0.1003848128174206
  0.0799260700585736  0.1405056989385932  0.4997010966046717
  0.3560388973813573  0.6174849682136252  0.1910697564957549
  0.0164085310158025  0.0869824521195639  0.2937249088339987
  0.3421528092601819  0.9468780266122211  0.7683140184765107
  0.7612104733789682  0.3488930323480067  0.7599990591229611
  0.0256230220431893  0.7579326313583445  0.2677780056777381
  0.2133919077504504  0.8186267199845924  0.5338632031310958
  0.7076993899519659  0.4786606324473619  0.6029601390676670
  0.8369377769679378  0.6069096447997524  0.4083281595839104
  0.8979013221083014  0.8675815177505698  0.9187376677421299
  0.8463029825171740  0.0921381263512374  0.7499645489660890
  0.3262371905174756  0.1381838065030545  0.7548988854015403
  0.0036742103830224  0.9627944897733643  0.7338025660579972
  0.7071708394588355  0.8324863613861758  0.2610705704200609
  0.2767292849718536  0.6434023017190901  0.5739539872008521
  0.9153052706050002  0.3794540452383136  0.8518004502408496
  0.8439668119743046  0.5900766789825991  0.6001545325659013
  0.9805798476841100  0.6671414408270053  0.0836083794154064
  0.7162760774080897  0.8855686529679065  0.9025619523804356
  0.3763370436831754  0.9498773506609227  0.9624356598649451
  0.5588639447820801  0.6116523367949930  0.5937788373177147
  0.9818486492012120  0.3490476895790676  0.3550585929694567
  0.1494668464080398  0.2101503984310946  0.7008587708841539
  0.3702496751712872  0.0817094868549891  0.5563128475719635
  0.0252467716651375  0.4064916099423009  0.1799256944950796
  0.2178756860293438  0.4686473633738048  0.6087334003353899
  0.6757831441960740  0.8144030523678909  0.7418940388174016
  0.1220022186708099  0.2071076377515198  0.9604306714393990
  0.4869382577223048  0.8542257641426658  0.3107182945923392
  0.1762573759027606  0.0399536195372481  0.7836508889866218
  0.6333571513394898  0.3183419906568672  0.5535763299642442
  0.5577487551802391  0.6699853560551987  0.7896079323072445
  0.2863173540114353  0.2110560254991700  0.4562243921671183
  0.6715786569914891  0.7020308481583447  0.9358497643386027
  0.2760963899688782  0.0913787659163689  0.0107605278774093
  0.6680294198642514  0.1787308285167137  0.8049319113308254
  0.5568570800982588  0.1392950419958475  0.5203708900516953
  0.3217412208172132  0.0956718715535696  0.2010334129780351
  0.5679803637210785  0.0601972093888535  0.6858826785328853
  0.3287192365307322  0.5226595476019310  0.8897872880035594
  0.9513526452163119  0.4663530279265239  0.3283233096841783
  0.1143875556481290  0.6750263308733035 -0.0442759713321889
  0.5127825021609472  0.5209619173570177  0.9473237879625784
  0.0131882934492841  0.5426650448820609  0.6725610481678193
  0.3389434322057894  0.8547675993372212  0.1857833287574736
  0.2040030510545545  0.4588030735249750  0.2134760969198946
  0.8804984820052997  0.1966432966398504  0.9044070968881585
  0.7231384538886283  0.7704261368850804  0.5652148165677331
  0.4892784585545175  0.4290334981107005  0.2340568103410932
  0.1837168962955864  0.3095145275252735  0.5602212430067721
  0.8479608394791791  0.9995691694911383  0.2888118524765889
  0.4444838074496394  0.3625982721417295  0.9324560033697941
  0.7255798308792403  0.3231199370751593  0.9475221531732351
  0.1608749408674430  0.4621105794838091  0.7823679633227745
  0.2061731955772579  0.3719103304618050  0.3828804350185245
  0.5540344593815346  0.8415299413266982  0.1469531002000931
  0.5436228061872614  0.7756269681795973  0.4785572295268699
  0.1126131734046006  0.7096188670653195  0.6160386703192270
  0.1153235155241695  0.5562144544970500  0.5044429548639181
  0.1712031379502999  0.6422360139941365  0.7827368905117423
  0.7030187343374736  0.5286702607086541  0.9765905184964877
  0.5476580928988177  0.8325872601145032  0.8776988294489495
 
  0.00000000E+00  0.00000000E+00  0.00000000E+00
  0.00000000E+00  0.00000000E+00  0.00000000E+00
  0.00000000E+00  0.00000000E+00  0.00000000E+00
  0.00000000E+00  0.00000000E+00  0.00000000E+00
  0.00000000E+00  0.00000000E+00  0.00000000E+00
  0.00000000E+00  0.00000000E+00  0.00000000E+00
  0.00000000E+00  0.00000000E+00  0.00000000E+00
  0.00000000E+00  0.00000000E+00  0.00000000E+00
  0.00000000E+00  0.00000000E+00  0.00000000E+00
  0.00000000E+00  0.00000000E+00  0.00000000E+00
  0.00000000E+00  0.00000000E+00  0.00000000E+00
  0.00000000E+00  0.00000000E+00  0.00000000E+00
  0.00000000E+00  0.00000000E+00  0.00000000E+00
  0.00000000E+00  0.00000000E+00  0.00000000E+00
  0.00000000E+00  0.00000000E+00  0.00000000E+00
  0.00000000E+00  0.00000000E+00  0.00000000E+00
  0.00000000E+00  0.00000000E+00  0.00000000E+00
  0.00000000E+00  0.00000000E+00  0.00000000E+00
  0.00000000E+00  0.00000000E+00  0.00000000E+00
  0.00000000E+00  0.00000000E+00  0.00000000E+00
  0.00000000E+00  0.00000000E+00  0.00000000E+00
  0.00000000E+00  0.00000000E+00  0.00000000E+00
  0.00000000E+00  0.00000000E+00  0.00000000E+00
  0.00000000E+00  0.00000000E+00  0.00000000E+00
  0.00000000E+00  0.00000000E+00  0.00000000E+00
  0.00000000E+00  0.00000000E+00  0.00000000E+00
  0.00000000E+00  0.00000000E+00  0.00000000E+00
  0.00000000E+00  0.00000000E+00  0.00000000E+00
  0.00000000E+00  0.00000000E+00  0.00000000E+00
  0.00000000E+00  0.00000000E+00  0.00000000E+00
  0.00000000E+00  0.00000000E+00  0.00000000E+00
  0.00000000E+00  0.00000000E+00  0.00000000E+00
  0.00000000E+00  0.00000000E+00  0.00000000E+00
  0.00000000E+00  0.00000000E+00  0.00000000E+00
  0.00000000E+00  0.00000000E+00  0.00000000E+00
  0.00000000E+00  0.00000000E+00  0.00000000E+00
  0.00000000E+00  0.00000000E+00  0.00000000E+00
  0.00000000E+00  0.00000000E+00  0.00000000E+00
  0.00000000E+00  0.00000000E+00  0.00000000E+00
  0.00000000E+00  0.00000000E+00  0.00000000E+00
  0.00000000E+00  0.00000000E+00  0.00000000E+00
  0.00000000E+00  0.00000000E+00  0.00000000E+00
  0.00000000E+00  0.00000000E+00  0.00000000E+00
  0.00000000E+00  0.00000000E+00  0.00000000E+00
  0.00000000E+00  0.00000000E+00  0.00000000E+00
  0.00000000E+00  0.00000000E+00  0.00000000E+00
  0.00000000E+00  0.00000000E+00  0.00000000E+00
  0.00000000E+00  0.00000000E+00  0.00000000E+00
  0.00000000E+00  0.00000000E+00  0.00000000E+00
  0.00000000E+00  0.00000000E+00  0.00000000E+00
  0.00000000E+00  0.00000000E+00  0.00000000E+00
  0.00000000E+00  0.00000000E+00  0.00000000E+00
  0.00000000E+00  0.00000000E+00  0.00000000E+00
  0.00000000E+00  0.00000000E+00  0.00000000E+00
  0.00000000E+00  0.00000000E+00  0.00000000E+00
  0.00000000E+00  0.00000000E+00  0.00000000E+00
  0.00000000E+00  0.00000000E+00  0.00000000E+00
  0.00000000E+00  0.00000000E+00  0.00000000E+00
  0.00000000E+00  0.00000000E+00  0.00000000E+00
  0.00000000E+00  0.00000000E+00  0.00000000E+00
  0.00000000E+00  0.00000000E+00  0.00000000E+00
  0.00000000E+00  0.00000000E+00  0.00000000E+00
  0.00000000E+00  0.00000000E+00  0.00000000E+00
  0.00000000E+00  0.00000000E+00  0.00000000E+00
  0.00000000E+00  0.00000000E+00  0.00000000E+00
  0.00000000E+00  0.00000000E+00  0.00000000E+00
  0.00000000E+00  0.00000000E+00  0.00000000E+00
  0.00000000E+00  0.00000000E+00  0.00000000E+00
  0.00000000E+00  0.00000000E+00  0.00000000E+00
  0.00000000E+00  0.00000000E+00  0.00000000E+00
  0.00000000E+00  0.00000000E+00  0.00000000E+00
  0.00000000E+00  0.00000000E+00  0.00000000E+00
  0.00000000E+00  0.00000000E+00  0.00000000E+00
  0.00000000E+00  0.00000000E+00  0.00000000E+00
  0.00000000E+00  0.00000000E+00  0.00000000E+00
  0.00000000E+00  0.00000000E+00  0.00000000E+00
  0.00000000E+00  0.00000000E+00  0.00000000E+00
  0.00000000E+00  0.00000000E+00  0.00000000E+00
  0.00000000E+00  0.00000000E+00  0.00000000E+00
  0.00000000E+00  0.00000000E+00  0.00000000E+00
  0.00000000E+00  0.00000000E+00  0.00000000E+00
  0.00000000E+00  0.00000000E+00  0.00000000E+00
  0.00000000E+00  0.00000000E+00  0.00000000E+00
  0.00000000E+00  0.00000000E+00  0.00000000E+00
  0.00000000E+00  0.00000000E+00  0.00000000E+00
  0.00000000E+00  0.00000000E+00  0.00000000E+00
  0.00000000E+00  0.00000000E+00  0.00000000E+00
  0.00000000E+00  0.00000000E+00  0.00000000E+00
  0.00000000E+00  0.00000000E+00  0.00000000E+00
  0.00000000E+00  0.00000000E+00  0.00000000E+00
  0.00000000E+00  0.00000000E+00  0.00000000E+00
  0.00000000E+00  0.00000000E+00  0.00000000E+00
  0.00000000E+00  0.00000000E+00  0.00000000E+00
  0.00000000E+00  0.00000000E+00  0.00000000E+00
  0.00000000E+00  0.00000000E+00  0.00000000E+00
  0.00000000E+00  0.00000000E+00  0.00000000E+00
  0.00000000E+00  0.00000000E+00  0.00000000E+00
  0.00000000E+00  0.00000000E+00  0.00000000E+00
  0.00000000E+00  0.00000000E+00  0.00000000E+00
  0.00000000E+00  0.00000000E+00  0.00000000E+00
  0.00000000E+00  0.00000000E+00  0.00000000E+00
  0.00000000E+00  0.00000000E+00  0.00000000E+00
  0.00000000E+00  0.00000000E+00  0.00000000E+00
  0.00000000E+00  0.00000000E+00  0.00000000E+00
  0.00000000E+00  0.00000000E+00  0.00000000E+00
  0.00000000E+00  0.00000000E+00  0.00000000E+00
  0.00000000E+00  0.00000000E+00  0.00000000E+00
  0.00000000E+00  0.00000000E+00  0.00000000E+00
  0.00000000E+00  0.00000000E+00  0.00000000E+00
  0.00000000E+00  0.00000000E+00  0.00000000E+00
  0.00000000E+00  0.00000000E+00  0.00000000E+00
  0.00000000E+00  0.00000000E+00  0.00000000E+00
  0.00000000E+00  0.00000000E+00  0.00000000E+00
  0.00000000E+00  0.00000000E+00  0.00000000E+00
  0.00000000E+00  0.00000000E+00  0.00000000E+00
  0.00000000E+00  0.00000000E+00  0.00000000E+00
  0.00000000E+00  0.00000000E+00  0.00000000E+00
  0.00000000E+00  0.00000000E+00  0.00000000E+00
  0.00000000E+00  0.00000000E+00  0.00000000E+00
  0.00000000E+00  0.00000000E+00  0.00000000E+00
  0.00000000E+00  0.00000000E+00  0.00000000E+00
  0.00000000E+00  0.00000000E+00  0.00000000E+00
  0.00000000E+00  0.00000000E+00  0.00000000E+00
  0.00000000E+00  0.00000000E+00  0.00000000E+00
  0.00000000E+00  0.00000000E+00  0.00000000E+00
  0.00000000E+00  0.00000000E+00  0.00000000E+00
  0.00000000E+00  0.00000000E+00  0.00000000E+00
  0.00000000E+00  0.00000000E+00  0.00000000E+00
  0.00000000E+00  0.00000000E+00  0.00000000E+00
  0.00000000E+00  0.00000000E+00  0.00000000E+00
  0.00000000E+00  0.00000000E+00  0.00000000E+00
  0.00000000E+00  0.00000000E+00  0.00000000E+00
  0.00000000E+00  0.00000000E+00  0.00000000E+00
  0.00000000E+00  0.00000000E+00  0.00000000E+00
  0.00000000E+00  0.00000000E+00  0.00000000E+00
  0.00000000E+00  0.00000000E+00  0.00000000E+00
  0.00000000E+00  0.00000000E+00  0.00000000E+00
  0.00000000E+00  0.00000000E+00  0.00000000E+00
  0.00000000E+00  0.00000000E+00  0.00000000E+00
  0.00000000E+00  0.00000000E+00  0.00000000E+00
  0.00000000E+00  0.00000000E+00  0.00000000E+00
  0.00000000E+00  0.00000000E+00  0.00000000E+00
  0.00000000E+00  0.00000000E+00  0.00000000E+00
  0.00000000E+00  0.00000000E+00  0.00000000E+00
  0.00000000E+00  0.00000000E+00  0.00000000E+00
  0.00000000E+00  0.00000000E+00  0.00000000E+00
  0.00000000E+00  0.00000000E+00  0.00000000E+00
  0.00000000E+00  0.00000000E+00  0.00000000E+00
  0.00000000E+00  0.00000000E+00  0.00000000E+00
  0.00000000E+00  0.00000000E+00  0.00000000E+00
  0.00000000E+00  0.00000000E+00  0.00000000E+00
  0.00000000E+00  0.00000000E+00  0.00000000E+00
  0.00000000E+00  0.00000000E+00  0.00000000E+00
  0.00000000E+00  0.00000000E+00  0.00000000E+00
  0.00000000E+00  0.00000000E+00  0.00000000E+00
  0.00000000E+00  0.00000000E+00  0.00000000E+00
  0.00000000E+00  0.00000000E+00  0.00000000E+00
  0.00000000E+00  0.00000000E+00  0.00000000E+00
  0.00000000E+00  0.00000000E+00  0.00000000E+00
  0.00000000E+00  0.00000000E+00  0.00000000E+00
  0.00000000E+00  0.00000000E+00  0.00000000E+00
  0.00000000E+00  0.00000000E+00  0.00000000E+00
  0.00000000E+00  0.00000000E+00  0.00000000E+00
  0.00000000E+00  0.00000000E+00  0.00000000E+00
  0.00000000E+00  0.00000000E+00  0.00000000E+00
  0.00000000E+00  0.00000000E+00  0.00000000E+00
  0.00000000E+00  0.00000000E+00  0.00000000E+00
  0.00000000E+00  0.00000000E+00  0.00000000E+00
  0.00000000E+00  0.00000000E+00  0.00000000E+00
  0.00000000E+00  0.00000000E+00  0.00000000E+00
  0.00000000E+00  0.00000000E+00  0.00000000E+00
  0.00000000E+00  0.00000000E+00  0.00000000E+00
  0.00000000E+00  0.00000000E+00  0.00000000E+00
  0.00000000E+00  0.00000000E+00  0.00000000E+00
  0.00000000E+00  0.00000000E+00  0.00000000E+00
  0.00000000E+00  0.00000000E+00  0.00000000E+00
  0.00000000E+00  0.00000000E+00  0.00000000E+00
  0.00000000E+00  0.00000000E+00  0.00000000E+00
  0.00000000E+00  0.00000000E+00  0.00000000E+00
  0.00000000E+00  0.00000000E+00  0.00000000E+00
  0.00000000E+00  0.00000000E+00  0.00000000E+00
  0.00000000E+00  0.00000000E+00  0.00000000E+00
  0.00000000E+00  0.00000000E+00  0.00000000E+00
  0.00000000E+00  0.00000000E+00  0.00000000E+00
  0.00000000E+00  0.00000000E+00  0.00000000E+00
  0.00000000E+00  0.00000000E+00  0.00000000E+00
  0.00000000E+00  0.00000000E+00  0.00000000E+00
  0.00000000E+00  0.00000000E+00  0.00000000E+00
  0.00000000E+00  0.00000000E+00  0.00000000E+00
  0.00000000E+00  0.00000000E+00  0.00000000E+00
  0.00000000E+00  0.00000000E+00  0.00000000E+00
  0.00000000E+00  0.00000000E+00  0.00000000E+00
  0.00000000E+00  0.00000000E+00  0.00000000E+00
  0.00000000E+00  0.00000000E+00  0.00000000E+00
  0.00000000E+00  0.00000000E+00  0.00000000E+00
  0.00000000E+00  0.00000000E+00  0.00000000E+00
  0.00000000E+00  0.00000000E+00  0.00000000E+00
  0.00000000E+00  0.00000000E+00  0.00000000E+00
  0.00000000E+00  0.00000000E+00  0.00000000E+00
  0.00000000E+00  0.00000000E+00  0.00000000E+00
  0.00000000E+00  0.00000000E+00  0.00000000E+00
  0.00000000E+00  0.00000000E+00  0.00000000E+00
  0.00000000E+00  0.00000000E+00  0.00000000E+00
  0.00000000E+00  0.00000000E+00  0.00000000E+00
  0.00000000E+00  0.00000000E+00  0.00000000E+00
  0.00000000E+00  0.00000000E+00  0.00000000E+00
  0.00000000E+00  0.00000000E+00  0.00000000E+00
  0.00000000E+00  0.00000000E+00  0.00000000E+00
  0.00000000E+00  0.00000000E+00  0.00000000E+00
  0.00000000E+00  0.00000000E+00  0.00000000E+00
  0.00000000E+00  0.00000000E+00  0.00000000E+00
  0.00000000E+00  0.00000000E+00  0.00000000E+00
  0.00000000E+00  0.00000000E+00  0.00000000E+00
  0.00000000E+00  0.00000000E+00  0.00000000E+00
  0.00000000E+00  0.00000000E+00  0.00000000E+00
  0.00000000E+00  0.00000000E+00  0.00000000E+00
  0.00000000E+00  0.00000000E+00  0.00000000E+00
  0.00000000E+00  0.00000000E+00  0.00000000E+00
  0.00000000E+00  0.00000000E+00  0.00000000E+00
  0.00000000E+00  0.00000000E+00  0.00000000E+00
  0.00000000E+00  0.00000000E+00  0.00000000E+00
  0.00000000E+00  0.00000000E+00  0.00000000E+00
  0.00000000E+00  0.00000000E+00  0.00000000E+00
  0.00000000E+00  0.00000000E+00  0.00000000E+00
  0.00000000E+00  0.00000000E+00  0.00000000E+00
  0.00000000E+00  0.00000000E+00  0.00000000E+00
  0.00000000E+00  0.00000000E+00  0.00000000E+00
  0.00000000E+00  0.00000000E+00  0.00000000E+00
  0.00000000E+00  0.00000000E+00  0.00000000E+00
  0.00000000E+00  0.00000000E+00  0.00000000E+00
  0.00000000E+00  0.00000000E+00  0.00000000E+00
  0.00000000E+00  0.00000000E+00  0.00000000E+00