Amorphous GeTe6                         
  0.980000000000000     
    22.2628235405677266    0.0000000000000000    0.0000000000000000
     0.0000000000000000   22.2628235405677266    0.0000000000000000
     0.0000000000000000    0.0000000000000000   22.2628235405677266
   Ge   Te
    43   257
Direct
  0.9338973231466442  0.4905869228511689  0.9596955469149103
  0.7649662313305795  0.6366572525577134  0.8736550000800889
  0.5704281052410795  0.9126459780997093  0.6123116915515308
  0.7642654132532762  0.4217375255150020  0.9384970823767455
  0.0255851178354246  0.0850581530082933  0.0463606202537233
  0.8156225067006370  0.3748295032977393  0.3759110895440173
  0.0202673330346001  0.5546125692065420  0.2163593263536178
  0.6118095081840268  0.9104391520022982  0.9317316399333921
  0.8380356509987474  0.3169961645036956  0.5427982752577123
  0.9937085123397481  0.0373755416350478  0.3814316659659680
  0.7548189556528307  0.0242154395657280  0.7018906476665919
  0.7248355295305099  0.4635809350598311  0.5119766971011425
  0.9494279834608497  0.2217002326488504  0.9130433557532091
  0.1897692480939139  0.3797094792931282  0.1910212155751596
  0.1432706606405867  0.3369128681900159  0.7858786161824868
  0.0758139894690028  0.7214495884359977  0.2505219611698901
  0.4553879618020623  0.1757800226277058  0.6969839576149490
  0.4423337951452339  0.0312155756727385  0.1403109089412863
  0.3341936367856839  0.9571065385124015  0.5789288768880484
  0.5840770056246124  0.9443098559308035  0.2569257805268613
  0.3011456295314932  0.1734189514593351  0.9023541712763340
  0.6223743371541233  0.5155089440120634  0.5756126660672785
  0.1454469482074448  0.8149539560831359  0.2252787441527440
  0.7488449893266753  0.0749323359448817  0.2351913034384137
  0.0214301866171554  0.3158820776046410  0.8957768256456207
  0.7535434871964021  0.8842170562974687  0.0012059537810318
  0.3596530988426948  0.2066415465150281  0.3378230980412977
  0.7355958368534424  0.2994533135281894  0.8823467726984578
  0.8193190442483043  0.8642828955622520  0.7205158094988127
  0.3000292586839601  0.7405534159559263  0.3991335204356882
  0.1071129944845503  0.2703904784922962  0.3072153165701565
  0.9824250929370834  0.1525652809501591  0.6255904884478963
  0.4886129824390270  0.4065174187326432  0.5563451147862694
  0.7936834062296344  0.5904108290532288  0.6864871384732681
  0.9571782204893946  0.6362207962920048  0.8431009222734609
  0.3090194089452939  0.4882581426702363  0.2431600118969335
 -0.0182296549140290  0.9834726330383954  0.5501091997670826
  0.6491479666894110  0.1506630252243006  0.7820900192327898
  0.9310928767776262  0.9564245438674897  0.0700959881345698
  0.8949797775919621  0.0181493005913997  0.9150638801563952
  0.7559102532691834  0.5768966783850660  0.4992077815091907
  0.5247379167670154  0.9164956265154484  0.0291631290272716
  0.3329874635563586  0.3512343720003647  0.5298227502300755
  0.0317910708798637  0.8378932257747895  0.7520080867529803
  0.4173788985652161  0.7285508058173833  0.7237329134311685
  0.0382496108880828  0.8961251891971636  0.2481043927833800
  0.4059833206461886  0.9025958172359806  0.7431134343554563
  0.9249808473550059  0.2054764599679667  0.7916175252253330
  0.6810582003579296  0.0522008738860913  0.5295867994515181
  0.4598737359333020  0.2067387796217741  0.9622358097079654
  0.0811301768952617  0.1593226307845800  0.5433839665566684
  0.0323254893211254  0.0398508992384960  0.6557562620086630
  0.2029288243606640  0.6420167712527224  0.8338354944591820
  0.8655932413216165  0.3155310808749992  0.9424173194390278
  0.4411848613607156  0.4560740131979024  0.8636119299492344
  0.2790185759888543  0.2482336069004219  0.0587396994859219
  0.8636942951424806  0.5979581634227421  0.4457122059401690
  0.9204690917462728  0.8817498153153207  0.6544372931487095
  0.5837709481017146  0.3633048484436778  0.9950510176548923
  0.8665205387562660  0.4380588123613040  0.8646606806513401
  0.2987817183279164  0.8157667515975161  0.8526317924395157
  0.5116569501786199  0.0586249780371449  0.5504155396222356
  0.8375871074502665  0.9277534510550589  0.8253655505663985
  0.7072042256568153  0.9565575137175448  0.2463970392096786
  0.3414534497357528  0.8329477061558171  0.6491507864150593
  0.1452783864829134  0.3935136858329158  0.3072522651926149
  0.7277495213463159  0.7099497592259112  0.2460696393480769
  0.2816863506179634  0.0468864751568252  0.8686157249427744
  0.5253011087290487  0.8475236320493582  0.7283002575741663
  0.2140147687016882  0.2139326761367004  0.3428329027812534
  0.4928935272631825  0.2093663668406937  0.5808371468451905
  0.9729984429430149  0.3734968035877309 -0.0032897188902486
  0.0260137688471775  0.3937635324415011  0.8011002435624102
  0.7520435371630066  0.4746939326631960  0.6429353164776686
  0.2657404547362046  0.8988815489172588  0.4742719013257894
  0.5679784152391343  0.2394752454683851  0.7574359214784835
  0.1819785127732156  0.0726974224271348  0.7917002152163009
  0.8294779779725747  0.7222907834732214  0.4288628537890004
  0.5559044643749834  0.4972065395639086  0.4699709441971260
  0.2517237647919168  0.7498333905144875  0.1769279858357300
  0.7449974865943243  0.1554502401834426  0.3266278922123772
  0.3867835052709862  0.1628354190600159  0.4538427619850224
  0.7371050481732483  0.2189724487740467  0.0080246301690357
  0.6737970867122621  0.3156725086625350  0.5261555221398302
  0.7076219676644846  0.5354505639588399  0.1925510882546513
  0.6282118030249794  0.2683079154871686  0.1549198845880758
  0.1149983430237943  0.8334933152449718  0.9406393988666950
  0.6279590986438588  0.0160943496518815  0.1111891826901883
  0.6236286700914762  0.1223690513949118  0.3991380822973442
  0.4246073684436648  0.6645751706917883  0.1036039598491826
  0.1971298669502057  0.0778101708271844  0.5046191987529758
  0.3720811956488615  0.0299652282019095  0.6917543406353693
  0.1080226307584318  0.7402001486921331  0.4260707802692336
  0.6307172233647610  0.3703655639515516  0.3334708429694375
  0.5966651476004841  0.9837877341265137  0.8270772141884054
  0.7638642925786755  0.1985286644319537  0.8056233565703291
  0.8613796868783008  0.8513103580244130  0.1954977400928364
  0.2736200427711886  0.4168980102453227  0.3448994722365725
  0.1045826227463569  0.5157615410778520  0.7390164274346561
  0.1374990836284426  0.2460158919784570  0.1861756444008417
  0.4056409604258000  0.6715311015433928  0.3885957006469931
  0.1246980166936573  0.9561491366359532  0.7956944684738686
  0.1108062935782373  0.6722799558023431  0.6222071391723265
  0.2747947136857306  0.9675791116215480  0.1553197504224546
  0.8697106157397203  0.0592226046484120  0.2190689059494793
  0.6710412325640298  0.8005244700945435  0.3195659282451973
  0.4745902632716465  0.6272101299409368  0.7821991729180783
  0.1420762725341880  0.8380745759900607  0.6297397341452048
  0.8222905279047672  0.3144544092503826  0.1736896009703465
  0.8541964098254800  0.9882727037016381  0.5793787730256701
  0.7088994038176510  0.8385063164552273  0.8946553887949349
  0.6866432480050537  0.6323183885250448  0.4148090546207483
  0.7241752917867583  0.2931755909665917  0.4076998646495528
  0.7200830048633836  0.1219341047819689  0.1243354151405213
  0.0787397021688822  0.9726177444856426  0.0462090777108466
  0.0418753670846557  0.5504854381476261  0.4831779240368450
  0.5168385434516014  0.8082590257919433  0.8730509355670236
  0.5425015322083182  0.5962421439851316  0.6391594968517268
  0.4779545005193552  0.6266134901248679  0.9209655849439368
  0.6096607263908719  0.2438839597965268  0.6325879953491220
  0.5625370755534730  0.6332182343076757  0.4688146207060225
  0.5181026696870015  0.0541375509840290  0.0403987081481210
  0.2815146292060304  0.6420895541058322  0.2484889906329855
  0.7029098276592163  0.5307550796012089  0.9145484818051114
  0.2533373356219991  0.9546937486737196  0.2988754206174699
  0.3847646297663735  0.4469789392176731  0.6751638251241172
  0.3115027498305533  0.0236477804829513  0.4624197908084315
  0.0111950263764764  0.9692509386741225  0.9080973848472037
  0.8227443767821500  0.9614138398729639  0.1329233277778926
  0.1978250513865327  0.0174437961887232  0.9692015796348575
  0.8314657706812819  0.8873398279758438  0.4967730306141683
  0.2036769459012999  0.4077106429572084  0.4755679725458557
  0.1903973782215149  0.5138447686948789  0.2022505731285011
  0.0908794142109366  0.3925455261563399  0.1006847028396403
  0.5798658394422921  0.6912937244313455  0.1519454292168966
  0.2833724635956170  0.2328815101901102  0.5211196581159604
  0.6995659840618346  0.9470595532677407  0.3858269522670938
  0.4705231559206206  0.9307024460328741  0.5379704051624140
  0.8166730345771748  0.4584871573570459  0.0505777185286546
  0.9521691985644158  0.4444967987695000  0.6044451820086360
  0.7916869263334342  0.7477674497903296  0.7412599271570783
  0.2340891520912650  0.1365158730505335  0.2285600353722697
  0.1877931104014796  0.6569473728521836  0.4919716482441552
  0.8032526740649286  0.0752066851449450  0.4929180635061644
  0.8995045343274396  0.6049505985200868  0.0539618326414783
  0.4391336612954852  0.9087238775026097  0.9329689007027286
  0.3730514249737221  0.5453542955501699  0.9493302563091274
  0.3210281972639412  0.6415943708370057  0.6905063900691057
  0.3490477995460752  0.0940742039170869  0.2756320398857697
  0.7704507498544192  0.5486781207763347  0.3063331570813579
  0.9620803407601772  0.2910423754886241  0.5443931973872963
  0.4116169811856372  0.3230968431647963  0.4301088122823443
  0.0985078711803394  0.7571607657536087  0.0447336043462724
  0.3399121782625373  0.9580249185153515  0.0416949709602525
  0.3237380957568076  0.5869480669046122  0.8103266054025452
  0.6043392231942027  0.1057969884098292  0.8856510856025126
  0.9451052066439025  0.2710285183897941  0.2566610611998330
  0.9716017749163226  0.0870642455644977  0.8353559594880446
  0.7873839778238444  0.1930348966179538  0.6000753459850529
  0.3749388611535441  0.8431335827822800  0.4156913827522207
  0.9656445404859381  0.5415922757568848  0.6884142318587990
  0.3457581711933814  0.7114643378524925  0.9110035910196302
  0.1700201772152480  0.4928127333025716  0.0727768195192506
  0.5979602127992785  0.6254016143899068  0.0307090097928122
  0.9780113540002572  0.8406360516459840  0.1433545955377163
  0.1939515923652904  0.8451808600468876  0.3356139125359158
  0.4820704537862306  0.2411259744782734  0.2983178527852967
  0.4977082927217080  0.0881781058925023  0.4195043790304888
  0.9861504342205201  0.4691750046928139  0.1311404410609883
  0.5481498581144382  0.3271947497499281  0.4763026279022163
  0.7433067388343203  0.2804302538309266  0.6882688925527310
  0.2085608182050239  0.3272771165733950  0.6460957211285674
  0.0239227881282596  0.1364512012979536  0.3201018986334443
  0.6701159118430161  0.4959004297406120  0.3803794583691843
  0.5546635548558667  0.5153523417580164  0.8910666138330754
  0.1165624421817518  0.3891106784556644  0.5726039195317226
  0.6387807437813960  0.7855705671693741  0.4791875674893968
  0.3377621369498941  0.3780242595828092  0.7956874038928867
  0.3229362162790872  0.3628732361220405  0.2240836646532433
  0.7416223964442229  0.0183137078706179  0.8244491676563843
  0.3379584744980863  0.1486237624629514  0.6373502803311422
  0.2187877823358192  0.6860903651871463  0.0622635491872892
  0.5563272133824405  0.6133387148886283  0.3268695950340735
  0.1926973484270897  0.8714420729059794  0.1191167090300757
  0.5066668964660926  0.2740592562786264  0.1098103930333127
  0.2176477324357742  0.9080054086687930  0.7184973402525772
 -0.0003949713005515  0.7837417332956416  0.3223896071882277
  0.9585993539288692  0.8493707181852121  0.8574818113835863
  0.7256255594715114  0.6505851595554994  0.5936132429186539
 -0.0011258232954775  0.3303856884320155  0.6675598883031586
  0.6289274230347528  0.2456623202029194  0.9236755006730244
  0.2113876373886449  0.7108551668144911  0.7171602759086160
  0.9004209266687512  0.9717545153919245  0.3362994503573368
  0.8429705430758253  0.4346060633913533  0.4802069482875540
  0.3971772323472511  0.5221740166103060  0.4921679040207293
  0.7052975708134933  0.3906024418225260  0.7986569476402413
  0.9069095823900616  0.2887275807769137  0.3936675618807934
  0.7101105253630475  0.5519047786819236  0.0439841286257285
  0.2266333090845495  0.2140780418158134  0.8055601346235030
  0.8511646010792133  0.1069035746200886  0.6742257167076975
  0.9930393871367870  0.3989284860619391  0.2697466002649220
  0.3734453711104062  0.8782345380246170  0.2871777094387999
  0.7349753610673623  0.3615973273792241  0.0868819804225015
  0.8746005884209440  0.8793912903399845  0.9877043121434071
  0.4503463026928271  0.4617276157945901  0.1054934565633600
  0.8552803279083619  0.5654140495451383  0.8197444755296874
  0.0940640379950093  0.7381450356085980  0.8144323454670208
  0.4103723901231391  0.1969497478649910  0.8428068449308698
  0.1655366363524505  0.4473105644888570  0.9350675714904373
  0.8918348367491538  0.7153298539479048  0.1240335560307503
  0.5182410217301568  0.7773819487909298  0.0023692326085722
  0.1496249531181205  0.0421439265225064  0.3109697894913006
  0.4404881771157531  0.9803719442135728  0.3391456046293087
  0.7799674642622848  0.7156663603945592  0.0567792039761766
  0.1840574997561766  0.1335630502665916  0.0207033667586868
  0.0014774959069178  0.3754397932089830  0.3988771472617008
  0.1607729023105048  0.2027898442217417  0.6430555819480364
  0.8638784460361559  0.4542276244546745  0.2800934115431142
  0.0360086392282105  0.6629404696784491  0.1530879382427925
  0.6996982655667213  0.6182972583790576  0.7670764851865829
  0.2710283996174113  0.5317887555842197  0.5222291966142887
  0.4657741200274334 -0.0001750247064618  0.8463855952589024
  0.3853536882987570  0.7756894877992681  0.0160451984630576
  0.4358660615936572  0.5632111497040377  0.1903558700656095
  0.7132871217849827  0.9054542675868900  0.6776190617194642
  0.8470530786818075  0.7298109989892757  0.2914177364024883
  0.6532283590342612  0.0888568386254686  0.6766106435394659
  0.9392087570282810  0.9965784137075555  0.7392203886090755
  0.3196756517780010  0.1339919636281204  0.0997437369510562
  0.5742115111159468  0.4699390236407525  0.0737044399420049
  0.1337673004800033  0.6365679150334067  0.3207854633552129
  0.3914699864206528  0.0946707366512007  0.9923177826736695
  0.0500656703146237  0.2133946156518961  0.7201556580492278
  0.5437579501292413  0.0507256075617841  0.2161603586372800
  0.8899173670893842  0.1511584686202244  0.3198073636250596
  0.8608537501176448  0.7399386446961738  0.8511073464384760
  0.0689470711323261  0.1696105883576238  0.9707271848486837
  0.6976050317520269  0.9922950176557863  0.9895333656514841
  0.4263004982179073  0.7963348588464969  0.5463725115424636
  0.5739680918408031  0.5669701657596010  0.2019263073496347
  0.4025279280850636  0.6931482573239510  0.2607116573867562
  0.2116240669076428  0.4490684595617866  0.7798943788877006
  0.0247714091849594  0.6732419716572271  0.7240100033161332
  0.2167101229364339  0.0122716328426124  0.6238490508946227
  0.5009583625076482  0.0547586243990990  0.6923288862861822
  0.0320774991115259  0.1092310207389765  0.1654115458260580
  0.7807787212250785  0.1324532211935887  0.9210846029798070
  0.4398158072571046  0.1904564873758662  0.1877952524857444
  0.6718796334341693  0.9179394315276664  0.5133619289080681
  0.5801908282123281  0.3965209552297518  0.8234167525957565
  0.2943187651547371  0.7254509599480387  0.5232194958327573
  0.5552115915613693  0.8529748645080921  0.1835074187073475
  0.0831244175510293  0.9547645297239533  0.3855492322787201
  0.0321255888477690  0.5310463832669291  0.8866538532900653
  0.4358659369817638  0.9025749961233221  0.1218213039611422
  0.6557574973067717  0.7291259630041631  0.9635887923239032
  0.1423685491019033  0.3141827560833483  0.9169930845852728
  0.9014114397248049  0.6321755621042061  0.6209685682858157
  0.2384483748042432  0.8658624244432638  0.9524444704297831
  0.0584340239173826  0.8194321178276600  0.5188353001040056
  0.3169669778176916  0.2557084839614690  0.7236333504718454
  0.4533383977504636  0.3498251069224385  0.9516459907406325
  0.9446019169155709  0.6840539203368847  0.9600888390878545
  0.8084470873739052  0.7476479811750604  0.5642892783768111
  0.3202173633237588  0.5970158853502310  0.0688536861718171
  0.0155887172205745  0.2567955986193700  0.1411586991614307
  0.6351511036378531  0.3980490329256942  0.1899982738436231
  0.3223634347059546  0.3203299776328582  0.9138702046808899
  0.6582295047488749  0.7792477231095915  0.6964723155801316
  0.5748762371912073  0.7856597126102058  0.5946147279704006
  0.9437447127978146  0.8910861411406940  0.4315111133158404
  0.5297630981636666  0.4281270037057767  0.2618960389530438
  0.2685632689877344  0.4038423410334219  0.0058461841470890
  0.5886029872032921  0.6921037544240135  0.8545708938347704
  0.0028380920707315  0.6621749588949279  0.5325585305508946
  0.5462669254579392  0.7372233655680789  0.2769907493385214
  0.1051979030867025 -0.0005321725052473  0.1767822851860968
  0.5883562098167938  0.4078685801352490  0.6359050910667760
  0.2622698595816567  0.4768886848438519  0.6494512069057121
  0.5578154404016324  0.9300882293788729  0.3744474360244437
  0.9053652091165623  0.0785378715512765  0.0265722895693879
  0.5482815509081058  0.4899678506819304  0.7277689602924783
  0.0728195928160649  0.6323350754045960  0.9634944204540150
  0.2012171993994727  0.5855729168705472  0.9553653011949915
  0.0295083692156494  0.5667238495068035  0.3542539791429948
  0.7130128315437139  0.8160419732844992  0.0943970079689132
  0.1254146492085954  0.5285918357805656  0.6129557702963896
  0.8949319345024094  0.5596637969301456  0.2002351563490819
  0.1766307332287464  0.2776194339538082  0.4574019668734513
  0.1379420243188582  0.9384227452905515  0.5440487047156015
  0.7887921372126679  0.8500917392969187  0.3532522768835475
  0.6082618748290816  0.1998587664291815  0.2951508197065544
  0.4100413539660971  0.4403193143651595  0.3772016758473082
  0.4195633964951896  0.3193591371750409  0.6238173871197996
  0.9652921065007285  0.0933452467606845  0.4872793425430809
  0.3657271342269970  0.3355174510657735  0.0987515270274651
  0.4414044403047686  0.6274952841096570  0.5644809412500572
  0.8328880063609887  0.1999000901944427  0.1150204336211560
  0.5071848373286335  0.7604856458628775  0.4341010298586684
  0.8449579777063747  0.3800745272329135  0.6569785878243655
 
  0.00000000E+00  0.00000000E+00  0.00000000E+00
  0.00000000E+00  0.00000000E+00  0.00000000E+00
  0.00000000E+00  0.00000000E+00  0.00000000E+00
  0.00000000E+00  0.00000000E+00  0.00000000E+00
  0.00000000E+00  0.00000000E+00  0.00000000E+00
  0.00000000E+00  0.00000000E+00  0.00000000E+00
  0.00000000E+00  0.00000000E+00  0.00000000E+00
  0.00000000E+00  0.00000000E+00  0.00000000E+00
  0.00000000E+00  0.00000000E+00  0.00000000E+00
  0.00000000E+00  0.00000000E+00  0.00000000E+00
  0.00000000E+00  0.00000000E+00  0.00000000E+00
  0.00000000E+00  0.00000000E+00  0.00000000E+00
  0.00000000E+00  0.00000000E+00  0.00000000E+00
  0.00000000E+00  0.00000000E+00  0.00000000E+00
  0.00000000E+00  0.00000000E+00  0.00000000E+00
  0.00000000E+00  0.00000000E+00  0.00000000E+00
  0.00000000E+00  0.00000000E+00  0.00000000E+00
  0.00000000E+00  0.00000000E+00  0.00000000E+00
  0.00000000E+00  0.00000000E+00  0.00000000E+00
  0.00000000E+00  0.00000000E+00  0.00000000E+00
  0.00000000E+00  0.00000000E+00  0.00000000E+00
  0.00000000E+00  0.00000000E+00  0.00000000E+00
  0.00000000E+00  0.00000000E+00  0.00000000E+00
  0.00000000E+00  0.00000000E+00  0.00000000E+00
  0.00000000E+00  0.00000000E+00  0.00000000E+00
  0.00000000E+00  0.00000000E+00  0.00000000E+00
  0.00000000E+00  0.00000000E+00  0.00000000E+00
  0.00000000E+00  0.00000000E+00  0.00000000E+00
  0.00000000E+00  0.00000000E+00  0.00000000E+00
  0.00000000E+00  0.00000000E+00  0.00000000E+00
  0.00000000E+00  0.00000000E+00  0.00000000E+00
  0.00000000E+00  0.00000000E+00  0.00000000E+00
  0.00000000E+00  0.00000000E+00  0.00000000E+00
  0.00000000E+00  0.00000000E+00  0.00000000E+00
  0.00000000E+00  0.00000000E+00  0.00000000E+00
  0.00000000E+00  0.00000000E+00  0.00000000E+00
  0.00000000E+00  0.00000000E+00  0.00000000E+00
  0.00000000E+00  0.00000000E+00  0.00000000E+00
  0.00000000E+00  0.00000000E+00  0.00000000E+00
  0.00000000E+00  0.00000000E+00  0.00000000E+00
  0.00000000E+00  0.00000000E+00  0.00000000E+00
  0.00000000E+00  0.00000000E+00  0.00000000E+00
  0.00000000E+00  0.00000000E+00  0.00000000E+00
  0.00000000E+00  0.00000000E+00  0.00000000E+00
  0.00000000E+00  0.00000000E+00  0.00000000E+00
  0.00000000E+00  0.00000000E+00  0.00000000E+00
  0.00000000E+00  0.00000000E+00  0.00000000E+00
  0.00000000E+00  0.00000000E+00  0.00000000E+00
  0.00000000E+00  0.00000000E+00  0.00000000E+00
  0.00000000E+00  0.00000000E+00  0.00000000E+00
  0.00000000E+00  0.00000000E+00  0.00000000E+00
  0.00000000E+00  0.00000000E+00  0.00000000E+00
  0.00000000E+00  0.00000000E+00  0.00000000E+00
  0.00000000E+00  0.00000000E+00  0.00000000E+00
  0.00000000E+00  0.00000000E+00  0.00000000E+00
  0.00000000E+00  0.00000000E+00  0.00000000E+00
  0.00000000E+00  0.00000000E+00  0.00000000E+00
  0.00000000E+00  0.00000000E+00  0.00000000E+00
  0.00000000E+00  0.00000000E+00  0.00000000E+00
  0.00000000E+00  0.00000000E+00  0.00000000E+00
  0.00000000E+00  0.00000000E+00  0.00000000E+00
  0.00000000E+00  0.00000000E+00  0.00000000E+00
  0.00000000E+00  0.00000000E+00  0.00000000E+00
  0.00000000E+00  0.00000000E+00  0.00000000E+00
  0.00000000E+00  0.00000000E+00  0.00000000E+00
  0.00000000E+00  0.00000000E+00  0.00000000E+00
  0.00000000E+00  0.00000000E+00  0.00000000E+00
  0.00000000E+00  0.00000000E+00  0.00000000E+00
  0.00000000E+00  0.00000000E+00  0.00000000E+00
  0.00000000E+00  0.00000000E+00  0.00000000E+00
  0.00000000E+00  0.00000000E+00  0.00000000E+00
  0.00000000E+00  0.00000000E+00  0.00000000E+00
  0.00000000E+00  0.00000000E+00  0.00000000E+00
  0.00000000E+00  0.00000000E+00  0.00000000E+00
  0.00000000E+00  0.00000000E+00  0.00000000E+00
  0.00000000E+00  0.00000000E+00  0.00000000E+00
  0.00000000E+00  0.00000000E+00  0.00000000E+00
  0.00000000E+00  0.00000000E+00  0.00000000E+00
  0.00000000E+00  0.00000000E+00  0.00000000E+00
  0.00000000E+00  0.00000000E+00  0.00000000E+00
  0.00000000E+00  0.00000000E+00  0.00000000E+00
  0.00000000E+00  0.00000000E+00  0.00000000E+00
  0.00000000E+00  0.00000000E+00  0.00000000E+00
  0.00000000E+00  0.00000000E+00  0.00000000E+00
  0.00000000E+00  0.00000000E+00  0.00000000E+00
  0.00000000E+00  0.00000000E+00  0.00000000E+00
  0.00000000E+00  0.00000000E+00  0.00000000E+00
  0.00000000E+00  0.00000000E+00  0.00000000E+00
  0.00000000E+00  0.00000000E+00  0.00000000E+00
  0.00000000E+00  0.00000000E+00  0.00000000E+00
  0.00000000E+00  0.00000000E+00  0.00000000E+00
  0.00000000E+00  0.00000000E+00  0.00000000E+00
  0.00000000E+00  0.00000000E+00  0.00000000E+00
  0.00000000E+00  0.00000000E+00  0.00000000E+00
  0.00000000E+00  0.00000000E+00  0.00000000E+00
  0.00000000E+00  0.00000000E+00  0.00000000E+00
  0.00000000E+00  0.00000000E+00  0.00000000E+00
  0.00000000E+00  0.00000000E+00  0.00000000E+00
  0.00000000E+00  0.00000000E+00  0.00000000E+00
  0.00000000E+00  0.00000000E+00  0.00000000E+00
  0.00000000E+00  0.00000000E+00  0.00000000E+00
  0.00000000E+00  0.00000000E+00  0.00000000E+00
  0.00000000E+00  0.00000000E+00  0.00000000E+00
  0.00000000E+00  0.00000000E+00  0.00000000E+00
  0.00000000E+00  0.00000000E+00  0.00000000E+00
  0.00000000E+00  0.00000000E+00  0.00000000E+00
  0.00000000E+00  0.00000000E+00  0.00000000E+00
  0.00000000E+00  0.00000000E+00  0.00000000E+00
  0.00000000E+00  0.00000000E+00  0.00000000E+00
  0.00000000E+00  0.00000000E+00  0.00000000E+00
  0.00000000E+00  0.00000000E+00  0.00000000E+00
  0.00000000E+00  0.00000000E+00  0.00000000E+00
  0.00000000E+00  0.00000000E+00  0.00000000E+00
  0.00000000E+00  0.00000000E+00  0.00000000E+00
  0.00000000E+00  0.00000000E+00  0.00000000E+00
  0.00000000E+00  0.00000000E+00  0.00000000E+00
  0.00000000E+00  0.00000000E+00  0.00000000E+00
  0.00000000E+00  0.00000000E+00  0.00000000E+00
  0.00000000E+00  0.00000000E+00  0.00000000E+00
  0.00000000E+00  0.00000000E+00  0.00000000E+00
  0.00000000E+00  0.00000000E+00  0.00000000E+00
  0.00000000E+00  0.00000000E+00  0.00000000E+00
  0.00000000E+00  0.00000000E+00  0.00000000E+00
  0.00000000E+00  0.00000000E+00  0.00000000E+00
  0.00000000E+00  0.00000000E+00  0.00000000E+00
  0.00000000E+00  0.00000000E+00  0.00000000E+00
  0.00000000E+00  0.00000000E+00  0.00000000E+00
  0.00000000E+00  0.00000000E+00  0.00000000E+00
  0.00000000E+00  0.00000000E+00  0.00000000E+00
  0.00000000E+00  0.00000000E+00  0.00000000E+00
  0.00000000E+00  0.00000000E+00  0.00000000E+00
  0.00000000E+00  0.00000000E+00  0.00000000E+00
  0.00000000E+00  0.00000000E+00  0.00000000E+00
  0.00000000E+00  0.00000000E+00  0.00000000E+00
  0.00000000E+00  0.00000000E+00  0.00000000E+00
  0.00000000E+00  0.00000000E+00  0.00000000E+00
  0.00000000E+00  0.00000000E+00  0.00000000E+00
  0.00000000E+00  0.00000000E+00  0.00000000E+00
  0.00000000E+00  0.00000000E+00  0.00000000E+00
  0.00000000E+00  0.00000000E+00  0.00000000E+00
  0.00000000E+00  0.00000000E+00  0.00000000E+00
  0.00000000E+00  0.00000000E+00  0.00000000E+00
  0.00000000E+00  0.00000000E+00  0.00000000E+00
  0.00000000E+00  0.00000000E+00  0.00000000E+00
  0.00000000E+00  0.00000000E+00  0.00000000E+00
  0.00000000E+00  0.00000000E+00  0.00000000E+00
  0.00000000E+00  0.00000000E+00  0.00000000E+00
  0.00000000E+00  0.00000000E+00  0.00000000E+00
  0.00000000E+00  0.00000000E+00  0.00000000E+00
  0.00000000E+00  0.00000000E+00  0.00000000E+00
  0.00000000E+00  0.00000000E+00  0.00000000E+00
  0.00000000E+00  0.00000000E+00  0.00000000E+00
  0.00000000E+00  0.00000000E+00  0.00000000E+00
  0.00000000E+00  0.00000000E+00  0.00000000E+00
  0.00000000E+00  0.00000000E+00  0.00000000E+00
  0.00000000E+00  0.00000000E+00  0.00000000E+00
  0.00000000E+00  0.00000000E+00  0.00000000E+00
  0.00000000E+00  0.00000000E+00  0.00000000E+00
  0.00000000E+00  0.00000000E+00  0.00000000E+00
  0.00000000E+00  0.00000000E+00  0.00000000E+00
  0.00000000E+00  0.00000000E+00  0.00000000E+00
  0.00000000E+00  0.00000000E+00  0.00000000E+00
  0.00000000E+00  0.00000000E+00  0.00000000E+00
  0.00000000E+00  0.00000000E+00  0.00000000E+00
  0.00000000E+00  0.00000000E+00  0.00000000E+00
  0.00000000E+00  0.00000000E+00  0.00000000E+00
  0.00000000E+00  0.00000000E+00  0.00000000E+00
  0.00000000E+00  0.00000000E+00  0.00000000E+00
  0.00000000E+00  0.00000000E+00  0.00000000E+00
  0.00000000E+00  0.00000000E+00  0.00000000E+00
  0.00000000E+00  0.00000000E+00  0.00000000E+00
  0.00000000E+00  0.00000000E+00  0.00000000E+00
  0.00000000E+00  0.00000000E+00  0.00000000E+00
  0.00000000E+00  0.00000000E+00  0.00000000E+00
  0.00000000E+00  0.00000000E+00  0.00000000E+00
  0.00000000E+00  0.00000000E+00  0.00000000E+00
  0.00000000E+00  0.00000000E+00  0.00000000E+00
  0.00000000E+00  0.00000000E+00  0.00000000E+00
  0.00000000E+00  0.00000000E+00  0.00000000E+00
  0.00000000E+00  0.00000000E+00  0.00000000E+00
  0.00000000E+00  0.00000000E+00  0.00000000E+00
  0.00000000E+00  0.00000000E+00  0.00000000E+00
  0.00000000E+00  0.00000000E+00  0.00000000E+00
  0.00000000E+00  0.00000000E+00  0.00000000E+00
  0.00000000E+00  0.00000000E+00  0.00000000E+00
  0.00000000E+00  0.00000000E+00  0.00000000E+00
  0.00000000E+00  0.00000000E+00  0.00000000E+00
  0.00000000E+00  0.00000000E+00  0.00000000E+00
  0.00000000E+00  0.00000000E+00  0.00000000E+00
  0.00000000E+00  0.00000000E+00  0.00000000E+00
  0.00000000E+00  0.00000000E+00  0.00000000E+00
  0.00000000E+00  0.00000000E+00  0.00000000E+00
  0.00000000E+00  0.00000000E+00  0.00000000E+00
  0.00000000E+00  0.00000000E+00  0.00000000E+00
  0.00000000E+00  0.00000000E+00  0.00000000E+00
  0.00000000E+00  0.00000000E+00  0.00000000E+00
  0.00000000E+00  0.00000000E+00  0.00000000E+00
  0.00000000E+00  0.00000000E+00  0.00000000E+00
  0.00000000E+00  0.00000000E+00  0.00000000E+00
  0.00000000E+00  0.00000000E+00  0.00000000E+00
  0.00000000E+00  0.00000000E+00  0.00000000E+00
  0.00000000E+00  0.00000000E+00  0.00000000E+00
  0.00000000E+00  0.00000000E+00  0.00000000E+00
  0.00000000E+00  0.00000000E+00  0.00000000E+00
  0.00000000E+00  0.00000000E+00  0.00000000E+00
  0.00000000E+00  0.00000000E+00  0.00000000E+00
  0.00000000E+00  0.00000000E+00  0.00000000E+00
  0.00000000E+00  0.00000000E+00  0.00000000E+00
  0.00000000E+00  0.00000000E+00  0.00000000E+00
  0.00000000E+00  0.00000000E+00  0.00000000E+00
  0.00000000E+00  0.00000000E+00  0.00000000E+00
  0.00000000E+00  0.00000000E+00  0.00000000E+00
  0.00000000E+00  0.00000000E+00  0.00000000E+00
  0.00000000E+00  0.00000000E+00  0.00000000E+00
  0.00000000E+00  0.00000000E+00  0.00000000E+00
  0.00000000E+00  0.00000000E+00  0.00000000E+00
  0.00000000E+00  0.00000000E+00  0.00000000E+00
  0.00000000E+00  0.00000000E+00  0.00000000E+00
  0.00000000E+00  0.00000000E+00  0.00000000E+00
  0.00000000E+00  0.00000000E+00  0.00000000E+00
  0.00000000E+00  0.00000000E+00  0.00000000E+00
  0.00000000E+00  0.00000000E+00  0.00000000E+00
  0.00000000E+00  0.00000000E+00  0.00000000E+00
  0.00000000E+00  0.00000000E+00  0.00000000E+00
  0.00000000E+00  0.00000000E+00  0.00000000E+00
  0.00000000E+00  0.00000000E+00  0.00000000E+00
  0.00000000E+00  0.00000000E+00  0.00000000E+00
  0.00000000E+00  0.00000000E+00  0.00000000E+00
  0.00000000E+00  0.00000000E+00  0.00000000E+00
  0.00000000E+00  0.00000000E+00  0.00000000E+00
  0.00000000E+00  0.00000000E+00  0.00000000E+00
  0.00000000E+00  0.00000000E+00  0.00000000E+00