Amorphous Sb2Se3                        
  0.913000000000000     
    20.9867606951059749    0.0000000000000000    0.0000000000000000
     0.0000000000000000   20.9867606951059749    0.0000000000000000
     0.0000000000000000    0.0000000000000000   20.9867606951059749
   Sb   Se
   120   180
Direct
  0.2467897227729779  0.5844105091720683  0.1710084625156621
  0.2048077982858577  0.5590768210558705  0.4535212094625339
  0.5655444938075820  0.9652742939137318  0.1401609518225638
  0.5949853056615803  0.2485441508185987  0.0239508300445572
  0.3679126962558527  0.8607454401644994  0.6058391974465493
  0.7284544014960983  0.8929513891278551  0.3249042414279427
  0.5942931608378725  0.4285921308929049  0.3227713149126916
  0.9836956905235530  0.7723229046187307  0.2453804475371319
  0.9862771415005048  0.0085948256783051  0.6144344711339863
  0.4762257694160708  0.7193402820143036  0.1035457116672501
  0.9368461845385024  0.5608610105022828  0.2829427042428012
  0.5126216631328127  0.5656948654304820  0.5779249356716796
  0.8250473208397247  0.9474662434776451  0.7228917774153368
  0.7327089299174936  0.0666279951362565  0.2775366965999516
  0.4887841193341845  0.5464467236124927  0.3082148144795455
  0.3017498926099947  0.2613897105232400  0.9098204669491430
  0.8990523871978715  0.6182071330664652  0.4637451402307802
  0.9885622065836733  0.8772662669286381  0.7908891911730149
  0.5957010304137715  0.6482686787796360  0.2438039534377350
  0.4819724932652422  0.3230700322892337  0.1434561042712164
  0.7111606318886226  0.3151333378037504  0.8705559203270887
  0.6312773021538047  0.5074384618519641  0.9042350829765046
  0.3851632398204746  0.5480057746027952  0.9085949279789969
  0.9705812375523439  0.3401659783270615  0.1068658945832574
  0.7830344431092426  0.4821185299253987  0.9677657275391801
  0.6860424118985433  0.0835420609443606  0.6029188067325258
  0.5523268080461615  0.8217653908469833  0.3191345353952940
  0.4880436958989986  0.3301007672810629  0.9371599354824868
  0.3599860419878216  0.3806457204512908  0.5265269877887417
  0.7121227558033477  0.1919812963966898  0.1028962941112390
  0.8999166983443740  0.7912744697643705  0.9307596443693079
  0.7257667464983050  0.3849853091247967  0.1491374267025019
  0.7773558292477385  0.4595429935920413  0.5128705955373918
  0.3412919066164429  0.8100201745459029  0.2313469555647532
  0.0931788822501996  0.8652854985248497  0.5462795488628330
  0.4724559160432781  0.5250304625168752  0.1533869213256532
  0.7396725398672175  0.6047806498178114  0.3693927039634778
  0.0043605356665068  0.4773655685448860  0.1587527630483800
  0.6528198809891061  0.3042151856449901  0.5705810975070412
  0.6468386428665187  0.0349309438547096  0.4470743440956931
  0.6119588729643438  0.9603460237909330  0.8918677157408279
  0.4946909810618563  0.6219083693642766  0.4327226606298586
  0.6207705248936902  0.8466603163379876  0.7460897411604800
  0.0404080945489588  0.3097096345343459  0.6316690263037315
  0.8128779271949627  0.2500093926503299  0.9888082153707194
  0.1077558478666797  0.4299021884535872  0.3704042114765593
  0.8723686368014100  0.2426820390507028  0.5894527884348527
  0.3700259779464690  0.9944008078822273  0.3074950209833258
  0.0604533691720286  0.7055193103502854  0.3988558917106923
  0.0584740146225083  0.6613618287188275  0.7809577348464404
  0.2895824254574037  0.6115867704655998  0.7225020966096385
  0.1666131455795950  0.2021870680608000  0.7438696105178669
  0.0167740641540607  0.4971798586637316  0.6647375020407584
  0.5207146661819217  0.2997478699919107  0.4547678541959725
  0.0583020500633137  0.1424197754180740  0.0392633187211015
  0.8763464253362582  0.7535983095473268  0.7180181521585022
  0.9761289501118638  0.2805376085421462  0.9707292091956069
  0.7744191816063829  0.0441367818188653  0.0540412275459047
  0.0318509723933990  0.6500370451565153  0.0046383917671055
  0.5544419217290653  0.1954624356493023  0.6487715617291224
  0.9502519793000116  0.8168822060087262  0.4942803666904719
  0.6394149700145615  0.3998615423516661  0.7620656743240010
  0.0767826816354681  0.8696097414088857  0.9912602503471964
  0.1941747435525648  0.8478500530516109  0.7542419180146398
  0.6016185395925153  0.6599269075560250  0.8452712278279445
  0.1746985866304711  0.7915921842860321  0.1230037226267970
  0.4716801733962724  0.4109938563095284  0.6900813255650711
  0.5792720898459303  0.9837896181366935  0.3021391768629716
  0.2585734672128783  0.0417242995614664  0.5892873947467059
  0.4636377079102802  0.7159268159939487  0.7993208488455208
  0.7278313004429303  0.1350412464461090  0.8912184774978741
  0.4481627627553517  0.1405644074008410  0.3773624727621537
  0.3909405184084634  0.8350071236520490  0.9662456373601499
  0.1023646634132292  0.4880847877610675  0.8650058061964905
  0.2224021572335803  0.0332202526675798  0.9827253921115161
  0.2078066058155048  0.2918107853218563  0.0381600501011706
  0.1532844306156013  0.0625225805026324  0.1912204688299816
  0.6586000406016596  0.9306277348658049  0.6039017824328060
  0.3380686686940627  0.0945764980415644  0.8182454597654127
  0.1424980988689981  0.9947274210081903  0.3949046190247160
  0.3384513937520539  0.7058227855544814  0.5033961744219657
  0.8501930890486008  0.3637970705840288  0.3360482287181174
  0.4871849911864545  0.1105614767528917  0.9459321125545260
  0.2196323100004454  0.5407272414040849  0.0102861871403388
  0.8412582804094717  0.5466865137633200  0.1342627647228103
  0.6689726701464989  0.6336210013203714  0.5275005213668542
  0.6753121485480679  0.2293094759359394  0.3677505040286380
  0.8517321164672836  0.1826788380994352  0.3616059291729019
  0.9595726501971280  0.1572851492894420  0.2019080622371087
  0.9817144270543322  0.3890126487798652  0.5059100581217326
  0.6169819478335447  0.8132059878504324  0.9865861505355625
  0.3660033203103007  0.2947802320916103  0.7375146278575262
  0.4334420090928420  0.9497125172261456  0.7819320731282600
  0.6270739552433950  0.7731634185270868  0.5907339446477414
  0.9874087190909007  0.1735959475123963  0.6937862915726215
  0.9604523596365896  0.3402036167453518  0.7906550561171389
  0.9270388717863132  0.9032674187870063  0.1187082193452224
  0.2158221458958121  0.2570775909856620  0.4338064943707918
  0.8341530463262706  0.9273893521834868  0.4905769693668601
  0.9243351898195582  0.0748902783795798  0.9171444593900051
  0.1073658165832254  0.0426914667432590  0.8179584767017682
  0.2390404847189772  0.8370101380052662  0.3820930973097433
  0.0746059112059137  0.1429548106738877  0.5604056373500277
  0.6738709847478820  0.5230330497800831  0.6603546713608468
  0.7257123441809802  0.8673743421950589  0.1640037032679106
  0.5188793989727488  0.0022082518800417  0.5778662919698105
  0.3358046395923559  0.2877013119502912  0.2838795766676098
  0.8407537617330565  0.1223244348149333  0.7410878467192614
  0.1326939793357945  0.6862369839475478  0.6097006394581843
  0.5425499913186795  0.5472366359321995  0.7214890177940871
  0.3676352866440989  0.0083459415604547  0.0887407789523234
  0.4141645385070508  0.1482677982620731  0.5354629167356320
  0.0181504159509268  0.0934645345901332  0.3856415999716662
  0.2845940847147060  0.5234483948312072  0.3106915904829355
  0.1869042716511472  0.3901595889863812  0.1881384048095079
  0.4289996882299720  0.7571586228331034  0.3964184226604136
  0.6872876540369252  0.2540102140409959  0.7314803873207720
  0.1884794303169021  0.4591735549738660  0.6236102142549549
  0.1625184212920578  0.6585221541416084  0.2871020208639399
  0.3532193227071678  0.1909712620052023  0.1089962482118602
  0.6387127265829082  0.5227320893414978  0.4483577246456687
  0.4854072421681976  0.4387492369832557  0.4568196551009353
  0.0587613962799481  0.2420814892666612  0.1424623133407669
  0.4403318252569845  0.2087142673064004  0.2231988027398815
  0.8835269386279130  0.1311298011313536  0.0487279562381193
  0.5305525087445645  0.8942113310907548  0.4732973545315678
  0.0229302968120966  0.6374285700247520  0.2118333524566934
  0.8209023830946367  0.2641879144146170  0.7278412513931385
  0.7055211596734147  0.3691588935432643  0.0099237825741993
  0.8723692639994270  0.1949663688679945  0.8636912916133541
  0.0712923312960192  0.5158281063181709  0.0319074280963725
  0.4176727449129948  0.8628581345500189  0.1007920647150089
  0.0821823582525055  0.5159371544313834  0.5295491490279320
  0.5332898519546971  0.2942375621233461  0.7507329304426593
  0.8187971436816768  0.9901925740349710  0.1721709872381250
  0.9831226301097378  0.9310268046049959  0.2576225463429593
  0.2849474484911102  0.3341131486439147  0.6276316575822689
  0.7500762814968008  0.7580171802309953  0.3427357232050561
  0.9448588002503202  0.9228887478086678  0.9676094857320681
  0.1424448717199894  0.0698917035476418  0.6742232091667978
  0.7394449450706235  0.3856865912297986  0.6348277378301533
  0.3019573461325977  0.1584677680966405  0.7017533168014267
  0.6733643419547126  0.7787240338917647  0.8542493254074764
  0.0483929602801008  0.7822504771299096  0.6990867839015493
  0.1281067131442643  0.5486402927049105  0.7341992211482922
  0.7471818733938680  0.2011593311520375  0.5410218758692911
  0.9671110590112035  0.4374743545475838  0.3817295679691781
  0.3642665759426644  0.8770238149856631  0.4212943451805152
  0.6313753558408023  0.2742446898664250  0.1698890786304516
  0.3792651264415425  0.6010466135811835  0.2493258846528018
  0.5758069263610983  0.6134809383437859  0.1071627128036278
  0.2417613996493653  0.9856425958807838  0.8307385437849603
  0.1916832231618169  0.7095035196091456  0.7706563464713224
  0.1300356747424363  0.6220329827837313  0.9101830123046393
  0.5929025944267862  0.2180250539333422  0.8851662608297723
  0.3826395740019943  0.5972270241662850  0.0510927098981375
  0.3160893394415277  0.0955502466338874  0.3978473985017872
  0.4983421172191934  0.9736396448558228  0.0013775776922122
  0.6828345148090256  0.7142502843334415  0.0638128711767967
  0.2905722063528737  0.9364949728608752  0.6858602646300341
  0.4215634248888918  0.6725527836702753  0.6021372688822108
  0.7152099917904435  0.3515337335712189  0.2968205251476065
  0.2868315445973229  0.1801893464681413  0.5447814016054641
  0.7931149448897876  0.6467230291327711  0.8762155650405522
  0.8566295853000441  0.7254838196141340  0.5612442134048220
  0.9110007236797298  0.1324154860950521  0.4949295311769959
  0.7861707934345956  0.5775831937425827  0.5874860276096533
  0.8270403066666470  0.6375182725255528  0.2501516331573108
  0.5044068111521443  0.7348839200765390  0.9661503774965667
  0.0181422137430014  0.7924418171011584  0.1014804229745714
  0.3790354121476787  0.0030447698324293  0.5295325328224869
  0.4961241415486924  0.7795895988474359  0.5338221252351735
  0.6795198644442324  0.3519575697301851  0.4453406417267045
  0.1084143842440859  0.9446990942144726  0.2503428337077504
  0.2047532706643286  0.4059585035417700  0.9495296515048365
  0.8812122596402987  0.6737234680348134  0.0897894360516315
  0.4604346986986625  0.1037436258079185  0.6744316758856547
  0.2312786206838408  0.4190917616116137  0.4908106114194464
  0.3166370807158436  0.7020881474016227  0.0016072681143976
  0.0163860425203832  0.0418663137624722  0.1268761203865224
  0.9202401169901256  0.6814548574847817  0.8357423877936562
  0.3868687650259368  0.9673184147376541  0.9202423713756174
  0.2925360097028136  0.7074736208207338  0.3353094326146120
  0.3494410529062220  0.1209128646103855  0.9689399684023525
  0.6383416692384560  0.0733363495572191  0.9780594934986881
  0.1662994053132894  0.9526013171400355  0.0885907896077712
  0.6833566558115458  0.6372341149272802  0.9657239585510502
  0.4633210319246744  0.9001410082394551  0.2604656822094275
  0.2379704374817089  0.5865162270681019  0.5913942838347636
  0.3495800045100889  0.5860174577727170  0.4449829637881142
  0.8146910972833112  0.8306886767398215  0.8189822884598977
  0.3764502678786250  0.3776142936370356  0.8698146957401279
  0.2797429768971402  0.8924494884601409  0.1101394255249419
  0.6012310847286129  0.1282345612585198  0.2981998852979019
  0.3782075177973023  0.3057532208888876  0.0472817223119272
  0.8377795204530889  0.3800693668978449  0.8699475470717550
  0.8577523531060739  0.4327858284593633  0.2183804029532939
  0.8587088931331991  0.9070560740766100  0.3550370600938915
  0.5881499981138245  0.4260391175377918  0.0229761307543655
  0.1899812964863526  0.1412232553423811  0.0658817414139748
  0.0894416588608533  0.2970218208661810  0.3848573477666161
  0.4903601549321512  0.8968183445291045  0.6628758848576797
  0.0365037877881612  0.1959568358347532  0.8168396988025013
  0.2413226020909576  0.3180526224358016  0.7957564176078118
  0.6583797994547793  0.0700245061347987  0.1500079860461418
  0.3170004111780564  0.8273732666546140  0.8247446680469395
  0.4039531900374209  0.4442763621690972  0.3592907008644190
  0.7593992366604460  0.8697290696286701  0.9623496227813261
  0.4882725315375484  0.0140333247942257  0.3991843471407190
  0.1601392607103829  0.2505844526530440  0.5963346340312101
  0.5919020614579862  0.1703792973447951  0.4819421758269294
  0.2914732229411786  0.7189172234474446  0.1388416230754364
  0.5443889243332800  0.2935021773323003  0.3160054725453408
  0.6885976540287758  0.8949143623356619  0.4744306612190164
  0.2090248854452714  0.7989796807757420  0.6099769902145371
  0.4556245202999272  0.4440715607426760  0.0233551597520329
  0.9181969623230428  0.4793092328053802  0.7624817079589931
  0.5812827173753626  0.4317033470919279  0.1834815475883003
  0.6886568120479121  0.1141665356017572  0.7553595904721954
  0.9143460004977978  0.3871388632893509  0.6439834433667271
  0.0818002608657761  0.1520415823735223  0.2834981168976456
  0.3581470280986635  0.7690082545479929  0.7130345581490842
  0.8049312277568957  0.0176819979859017  0.8853196675921694
  0.3885484268718860  0.3975435188778649  0.2064558198095614
  0.8010007025505214  0.6353084958280015  0.7395488870801225
  0.1069686830023227  0.9065447149431183  0.8544271852213762
  0.0793557138041002  0.8590370186593027  0.3960017718527465
  0.1511111665341396  0.1353528270628954  0.4489579366211679
  0.8694543307897473  0.6161266037261260  0.9780864500919985
  0.5238264772811019  0.5852571149545643  0.9508184474196729
  0.5853111661245602  0.8154902548553077  0.1436399680211387
  0.4530987277479839  0.2748838282472307  0.5925413516829900
  0.5354220623054231  0.0356592949186245  0.8077328693054533
  0.2050962376626198  0.9438947203500139  0.5041632292419561
  0.9949531745244199  0.2292900915275612  0.4692991073327032
  0.9683293120031243  0.5426018374909228  0.8588881989498871
  0.8282710300315448  0.0492345305186001  0.5980447996910697
  0.7838299520023564  0.1874628819402878  0.2275918363811568
  0.6806677827061869  0.6646739728219776  0.7098642977097924
  0.1423865875235222  0.7886263612550918  0.2562716879224526
  0.1885106921031902  0.7055804343101030  0.4781272200768912
  0.0337803761062517  0.7704022240375423  0.9037760554956196
  0.6778707342932673  0.5373606624133398  0.2630714391815921
  0.4598768914473916  0.7254031269556875  0.2509942710894463
  0.6899861958916182  0.9687059618649506  0.7675641856254120
  0.0552520121549519  0.3798899454171359  0.2564146634247357
  0.9160687780194390  0.7428880168571295  0.3730994848363020
  0.0937546789915762  0.3676402471116725  0.7453019146506941
  0.8574529415549889  0.3329117733798165  0.4853755110589542
  0.2520244328897172  0.8753588090914041  0.9436976605163715
  0.2957777869912070  0.0669981967233501  0.1991388746229294
  0.9210760754372307  0.8857989111411881  0.6381282920316885
  0.4564926604047636  0.0510676085294785  0.1785446234784822
  0.5473950504120395  0.7105142865935850  0.6841206388567644
  0.5043294047065559  0.1574432934248527  0.0773523750032792
  0.8596202718479385  0.8075110429815846  0.2091485460111547
  0.2583025224777565  0.1662760433668237  0.3068549259874112
  0.8328424021860195  0.2867268125017075  0.1280378480153052
  0.1451367415504095  0.6580894538482692  0.0843193530161740
  0.9144800051837622  0.5097616946267671  0.5455552847820356
  0.2393938447103816  0.3867103773249539  0.3268492332781307
  0.1368052241463356  0.5153300336394138  0.2224978732625052
  0.2428069162953918  0.2542601398148222  0.1849744071051777
  0.2937353421157055  0.4569929129628051  0.1136868993685279
  0.9985855575263185  0.9642710737405203  0.4866138958892582
  0.8999127939483028  0.0650324089101336  0.3100826385476030
  0.0201328370310872  0.5760303144965569  0.3948958392210326
  0.1875927798485317  0.7749260710944187  0.9780541127830478
  0.1110854831520690  0.2546414565137605  0.9383824316811102
  0.9750059581097020  0.6273482512888309  0.6706707846264186
  0.5229639769700074  0.4293680627055576  0.8438373995634669
  0.9876304673776050  0.4029670626896780  0.9115924106304564
  0.5635208838312414  0.4232334099179495  0.5801586892491341
  0.9614587862107298  0.0254165748998887  0.7828154183108940
  0.0818974760668391  0.9336109861165862  0.6818335158874749
  0.2161438424398751  0.1506918684772682  0.8697600698189938
  0.7568460452781643  0.8337937048280271  0.6688361995862921
  0.3851924706311114  0.2732087006208787  0.4219030190839247
  0.7192600824406141  0.7275421292682250  0.2219920422867847
  0.5096511344852158  0.8546753957604631  0.8466357335357307
  0.4198855811299063  0.5827915908376063  0.7703813613343602
  0.2628346709649214  0.5120574001951878  0.8373822348944095
  0.4256100318309242  0.2118578589722086  0.8449423298062836
  0.7564814449046504  0.7597488303537822  0.4995306028844912
  0.2550928084038627  0.9274001934236610  0.2789443554238382
  0.7405561603299491  0.5019807827614813  0.7821109901680907
  0.0833555900393023  0.0325863325559401  0.9554418793564428
  0.8119727553703159  0.8155011151336387  0.0621149679674951
  0.6776367646038586  0.9399685077119490  0.0481081843032977
  0.7732318196934861  0.0652299939948258  0.4238710214512750
  0.3053078806334132  0.4724337248162684  0.7197759692982605
  0.9452708476743633  0.2643666943213138  0.2991218231581739
  0.6065706778369769  0.6967761420063834  0.3931509625433761
  0.7168223997865157  0.5371012436414094  0.0836414955811477
  0.0062885189370907  0.6816365893837204  0.5363391621092289
  0.9055058983127217  0.4591556236955960  0.0376343127672837
  0.8288051573575848  0.5021337718327121  0.3831848939495196
  0.1060399506948828  0.3859356070151126  0.0614341823957409
  0.3809894858608754  0.4996297867789046  0.5921812228647846
  0.3350899091716317  0.6714840287463590  0.8798439683336928
 
  0.97978728E-03 -0.18468788E-02 -0.28294231E-02
 -0.31627567E-03 -0.14839964E-02 -0.64575164E-03
  0.11103104E-02 -0.28157448E-02 -0.21415632E-02
 -0.94192592E-03 -0.22252697E-02 -0.61602733E-04
  0.34463064E-03 -0.14884307E-02  0.14064163E-02
  0.10481300E-02  0.12162613E-02  0.15219279E-02
 -0.79762461E-04  0.77638870E-04  0.10920904E-02
  0.47737603E-03 -0.37880134E-03  0.12520374E-02
  0.14496907E-02 -0.46177354E-03 -0.49480733E-03
  0.96003501E-04  0.67519790E-04  0.90926118E-03
  0.21189741E-02  0.26302599E-02  0.76999224E-03
 -0.14172644E-02  0.25641740E-02  0.20393789E-03
  0.93360651E-03  0.91135592E-03 -0.15228037E-02
 -0.34152363E-04  0.11316150E-02 -0.34809406E-03
 -0.72988344E-03 -0.23474561E-02 -0.18304044E-03
  0.72165923E-03 -0.27396816E-02  0.69744528E-03
  0.38256019E-03 -0.10699811E-03 -0.14785535E-02
  0.10247901E-02  0.19074360E-02  0.29402747E-02
  0.11839324E-04  0.22628010E-02  0.92764532E-03
  0.28433100E-02 -0.18285723E-02 -0.19447159E-02
  0.22874605E-03  0.11770017E-03  0.20096895E-02
 -0.19436126E-02  0.24502256E-02  0.33355706E-02
  0.18328031E-02  0.48413061E-03 -0.58817791E-03
 -0.15979135E-02 -0.15521812E-02 -0.42135725E-03
 -0.55924244E-03 -0.21003839E-02  0.11226028E-02
  0.30196241E-02  0.21207909E-02 -0.90300254E-03
  0.92126794E-03 -0.19463035E-02 -0.42837846E-03
 -0.27042671E-02 -0.44668083E-03  0.14390608E-02
  0.89955434E-03  0.28399881E-02 -0.89818961E-03
 -0.13741803E-02  0.53249673E-03 -0.14829041E-02
 -0.48860827E-03 -0.24668134E-02 -0.63161472E-03
 -0.14254686E-02  0.11945475E-02  0.24346657E-02
  0.37540612E-02  0.12124216E-02  0.10017094E-02
 -0.85114190E-03 -0.24336731E-03  0.39325294E-03
 -0.24846357E-02  0.20552620E-02 -0.11140907E-04
 -0.27985690E-03  0.48448294E-03  0.14203733E-02
 -0.76142019E-03  0.21309299E-02  0.25682299E-02
 -0.18675383E-03 -0.44256416E-03  0.33773652E-03
 -0.11264808E-03 -0.15691866E-02  0.39714501E-03
  0.13516807E-02 -0.99014313E-04 -0.18806908E-02
  0.63166998E-03  0.56012550E-03 -0.50215525E-03
 -0.22667840E-04 -0.16099476E-02 -0.23795283E-02
  0.13189488E-02  0.55589072E-03  0.75119580E-04
 -0.19411826E-02  0.24852091E-02 -0.14193201E-03
 -0.16561331E-02 -0.51961476E-03  0.24502646E-03
 -0.17734379E-02  0.38715179E-03 -0.45283453E-03
 -0.42530739E-03 -0.14488507E-02 -0.91042324E-03
  0.49516344E-03 -0.21029227E-02  0.18747132E-02
  0.75001982E-03  0.33004495E-03 -0.17224643E-02
 -0.48112851E-03 -0.82592800E-03  0.23332066E-02
  0.23784101E-03  0.10629667E-02  0.20907117E-05
 -0.63682997E-03 -0.40965099E-03 -0.19028275E-03
  0.11349870E-02 -0.21193367E-02  0.70171752E-03
 -0.15132361E-02  0.62315484E-03  0.75846601E-03
  0.32359500E-02  0.70362350E-03 -0.35829242E-03
 -0.33709812E-03 -0.11295316E-02 -0.10365074E-02
  0.47751899E-04 -0.10908750E-02  0.23113633E-02
  0.68326767E-03  0.23542687E-02 -0.26662429E-02
 -0.73816854E-03 -0.91777238E-03 -0.18700816E-02
  0.16404805E-02 -0.14786448E-02 -0.14322785E-02
 -0.68234772E-03  0.58407929E-03 -0.20639754E-02
  0.15546003E-02  0.12967426E-03 -0.25584040E-02
 -0.33323270E-02 -0.92590494E-03  0.17786080E-02
 -0.17735060E-02  0.10529186E-02 -0.43279930E-03
 -0.40049945E-03  0.73821668E-03  0.14572138E-02
  0.13700295E-02 -0.11697736E-02 -0.27883108E-02
  0.19842466E-02 -0.71928521E-03 -0.21539657E-03
 -0.14494620E-03 -0.14428781E-02  0.79281483E-03
  0.44735875E-02  0.59366194E-03 -0.18600375E-02
  0.43434505E-03  0.81905154E-03 -0.61373569E-03
 -0.21071985E-02 -0.23080401E-02 -0.31708856E-03
 -0.13726083E-02 -0.31902533E-03  0.13110562E-04
 -0.10019715E-02  0.15296539E-03 -0.65380724E-03
  0.15676696E-02 -0.21857463E-02 -0.19631094E-02
  0.14764442E-02  0.15792901E-02 -0.20517538E-02
 -0.18416970E-02 -0.66316981E-03  0.14630456E-02
 -0.15438174E-03  0.83217825E-03 -0.19188896E-02
  0.85151528E-03 -0.74957308E-03  0.50526762E-03
 -0.19940270E-03 -0.11584159E-02  0.23885729E-02
  0.11666910E-03  0.11539464E-02  0.24261117E-02
  0.79033602E-04  0.86607009E-03 -0.29470235E-02
 -0.17509729E-03 -0.23338176E-02 -0.24360583E-03
 -0.22809504E-04  0.66548527E-04 -0.11036132E-03
 -0.28585006E-02  0.40438857E-03 -0.18414426E-02
  0.10732468E-02  0.23107839E-02 -0.46161270E-03
 -0.13689891E-02  0.62774192E-04  0.11740110E-02
  0.26062832E-04 -0.15041100E-03 -0.78399913E-03
  0.24970636E-02  0.48482474E-03 -0.11713658E-02
  0.20239396E-02  0.26697261E-03  0.23016020E-02
 -0.28279548E-02  0.16648694E-02  0.97248641E-03
  0.78488794E-03  0.11742393E-02 -0.30456535E-02
  0.90112770E-03 -0.13254653E-02  0.13652824E-02
 -0.41412543E-02  0.12063404E-02 -0.22880891E-02
  0.32681471E-02  0.76543762E-03 -0.20670656E-02
 -0.45753915E-03  0.10414121E-02  0.46497162E-02
  0.71116566E-03 -0.10467300E-03 -0.94461795E-03
 -0.12316108E-02  0.10559553E-02  0.99902429E-03
  0.21761438E-02 -0.63448579E-03  0.93134054E-03
  0.66847156E-03  0.29703167E-02 -0.90518639E-03
  0.75239696E-03 -0.18430326E-02  0.16004604E-02
  0.96847504E-04 -0.29855415E-03 -0.20188492E-03
  0.32570489E-03  0.22347712E-02 -0.11374079E-03
 -0.21995996E-02 -0.29147118E-02  0.23742335E-02
 -0.11831691E-02  0.16371490E-02 -0.14812767E-02
 -0.26787905E-02  0.65941377E-03  0.53878126E-04
  0.18270515E-02 -0.15015052E-02 -0.15278918E-02
 -0.14332916E-02  0.15058863E-02  0.10944478E-02
 -0.24136947E-02 -0.16255534E-02 -0.80776331E-03
  0.15868195E-02 -0.66770639E-03 -0.15212719E-02
  0.58963381E-03  0.25308558E-02  0.85175229E-04
 -0.27737525E-02  0.13761886E-02  0.25456772E-02
  0.56110352E-03 -0.26680407E-02 -0.15501593E-02
 -0.19614163E-03  0.28388048E-02 -0.26887505E-02
  0.18796096E-02 -0.79295311E-03 -0.61596481E-03
  0.23803801E-02 -0.23789604E-03  0.37341141E-03
  0.50055623E-03 -0.27764537E-02 -0.26248109E-03
 -0.12962706E-02 -0.37499322E-03  0.60410419E-03
  0.98110842E-03  0.16413708E-02 -0.12601380E-02
  0.13675936E-02  0.20678197E-02 -0.16903480E-02
 -0.24683218E-03  0.32896386E-03  0.61494597E-03
 -0.17918029E-03  0.67878159E-03  0.10000009E-02
  0.84541034E-03 -0.65648339E-03  0.12510723E-02
 -0.75901659E-03 -0.28225070E-02  0.90951358E-03
 -0.10736125E-02 -0.96671707E-03  0.12198838E-02
  0.37127406E-02  0.26467410E-02 -0.96686569E-03
 -0.59347959E-03 -0.43979746E-03 -0.12949350E-02
  0.11111363E-02 -0.14126444E-02  0.23254607E-02
 -0.16502594E-02 -0.59736150E-03  0.96984588E-03
  0.26469816E-03  0.20113247E-02  0.24056715E-02
  0.22435705E-02  0.61349067E-03  0.36575834E-03
  0.48399767E-03  0.56125197E-03 -0.10000843E-02
  0.75393217E-03  0.63804950E-04  0.74924095E-04
  0.10041891E-03 -0.52550121E-03 -0.14681448E-02
 -0.25480166E-03  0.12391200E-02  0.17016011E-03
  0.15433340E-02  0.11236317E-02  0.12279643E-03
 -0.86159836E-03  0.19847887E-02  0.12010810E-02
  0.31139350E-02  0.25479478E-02  0.30367395E-02
 -0.16316859E-02 -0.11723298E-02 -0.24736496E-02
 -0.36127104E-02  0.32436610E-03  0.49915417E-03
  0.51361878E-03  0.28537403E-05  0.83289697E-03
 -0.14770321E-02  0.77659435E-03  0.23592195E-02
 -0.89599020E-03 -0.28051026E-02 -0.68907491E-03
 -0.10228661E-02  0.13760821E-03  0.15897352E-03
 -0.11223967E-02 -0.67422701E-03  0.61986047E-03
  0.14306758E-02 -0.28544292E-02 -0.10061822E-02
  0.39439174E-02 -0.23928499E-02 -0.80460752E-04
  0.41866347E-03 -0.35018535E-02  0.56011335E-03
 -0.15519130E-02  0.16230350E-02  0.10100721E-02
 -0.22976083E-02  0.15128590E-02 -0.57346105E-03
 -0.17436530E-03  0.43838715E-03  0.81302307E-03
  0.16737798E-03 -0.10325798E-02  0.10485605E-02
  0.28517078E-03  0.36196876E-03  0.20552212E-02
 -0.95884038E-05 -0.71640427E-04 -0.28124090E-03
  0.71186434E-03 -0.31933922E-02  0.11179008E-02
 -0.21355772E-05  0.10779524E-02 -0.15356902E-02
 -0.13353679E-02  0.99536026E-03 -0.28511535E-03
  0.13531335E-02  0.10371415E-02  0.15879793E-02
 -0.63117459E-03 -0.16602017E-02 -0.66475960E-03
 -0.43908687E-03  0.24032227E-02  0.17242491E-02
 -0.18829510E-02 -0.13300078E-02  0.77245767E-03
 -0.13584171E-02  0.39322100E-03  0.31255589E-02
  0.16350726E-02 -0.16630091E-02  0.12534031E-02
  0.23276097E-02 -0.33755279E-02  0.38911326E-03
 -0.13839757E-02 -0.51161564E-03 -0.12210429E-02
 -0.40928150E-03 -0.13850412E-02  0.34892445E-02
 -0.18119181E-02 -0.22651303E-02 -0.11375320E-02
  0.25767584E-03 -0.66783012E-04 -0.18760246E-03
  0.23571404E-02  0.17830197E-02  0.51058098E-03
 -0.10309956E-02  0.68543183E-03 -0.11998489E-02
 -0.14315372E-02 -0.16122587E-03  0.12798918E-02
  0.15559905E-02 -0.55372203E-03 -0.14235499E-02
 -0.37374690E-02 -0.21082671E-03 -0.57514460E-03
  0.11189418E-02 -0.17885750E-02  0.64636062E-03
 -0.48881632E-03  0.10014956E-02  0.25095954E-04
  0.33828616E-02 -0.22721598E-02  0.33504529E-03
 -0.43411158E-02  0.39049180E-02 -0.21564277E-02
  0.27633769E-03  0.20344738E-03 -0.27552689E-02
 -0.11616049E-02 -0.39911857E-03 -0.34029734E-02
  0.79086744E-03  0.19566097E-02 -0.10310845E-02
  0.15146367E-02  0.69776449E-03  0.16624148E-02
  0.56638399E-03  0.36618973E-02 -0.52382623E-03
  0.43505423E-02  0.47871068E-03 -0.93244380E-03
 -0.21305373E-02  0.35094194E-04 -0.16908215E-02
  0.83995490E-03  0.55854184E-03 -0.21426111E-03
  0.11582317E-02 -0.17822757E-02  0.23896439E-02
  0.13927167E-02 -0.22551716E-03  0.94081746E-03
  0.25442995E-02  0.12368574E-02 -0.42991044E-03
 -0.15549270E-03  0.10501353E-02  0.10446467E-02
  0.19001957E-02 -0.48999576E-03  0.37005439E-02
  0.26259924E-03  0.15005983E-02  0.19700582E-03
  0.98156587E-03 -0.13945279E-02  0.10972028E-02
 -0.13471741E-02 -0.34791307E-03  0.59133952E-04
  0.23582847E-03 -0.54559058E-03  0.79617597E-03
  0.15071083E-02 -0.93198287E-03  0.98612864E-03
 -0.24416168E-02 -0.40038932E-03  0.36927483E-02
 -0.20377415E-02  0.44179134E-02 -0.16904781E-02
 -0.92921192E-03  0.23381647E-03  0.10442578E-02
 -0.24340216E-02  0.15861920E-02 -0.13834416E-02
  0.82495137E-03  0.35940909E-02  0.17661800E-02
 -0.56997540E-03  0.97996597E-03 -0.17078183E-02
 -0.16144659E-02  0.26503335E-04  0.33902694E-02
 -0.22034878E-02  0.16488683E-02 -0.84391199E-03
 -0.17846566E-02 -0.18482673E-02  0.14359538E-02
  0.14672934E-02  0.16859663E-02 -0.10699062E-02
  0.26313202E-02  0.88801938E-03 -0.16917133E-02
 -0.27627797E-02  0.14218201E-03  0.57832778E-03
 -0.94484131E-03  0.10256002E-02  0.35373003E-03
  0.42469075E-02 -0.11290238E-02 -0.19403569E-02
 -0.19034063E-03  0.22086443E-02  0.10435247E-03
  0.26852921E-02  0.17497522E-02 -0.23981408E-02
  0.31858488E-04  0.16290844E-03  0.26239375E-02
  0.30284815E-02  0.12846911E-02 -0.11144102E-02
  0.17612826E-02  0.85501096E-03  0.14754512E-02
  0.26790762E-03  0.28260674E-03 -0.43313758E-02
  0.43231518E-03 -0.15294473E-02  0.23089790E-02
  0.17880190E-02  0.24159169E-02  0.97747146E-03
 -0.61704686E-04  0.82485981E-03  0.18616584E-02
 -0.20328565E-02 -0.27686562E-03  0.57242251E-03
  0.12208656E-02 -0.16391649E-02 -0.19418127E-02
  0.53413514E-03  0.14295760E-02  0.37918194E-03
 -0.11407281E-02 -0.37395197E-03  0.18998350E-02
  0.16147720E-02  0.12521327E-02 -0.76917746E-03
 -0.19607830E-02 -0.34949437E-02 -0.11635876E-02
 -0.11880280E-02  0.41159183E-03 -0.15534912E-02
 -0.48630151E-03 -0.56431970E-03 -0.23657640E-03
 -0.17247160E-02 -0.17368745E-03 -0.34516175E-04
  0.59072792E-03 -0.60921022E-03 -0.10281699E-02
  0.52506196E-03 -0.83269740E-03  0.36895146E-02
  0.27107519E-02  0.17377763E-02 -0.45081312E-02
  0.24114348E-02  0.18282361E-02 -0.63506680E-03
 -0.20837825E-02 -0.14936942E-02  0.98043787E-03
  0.40074146E-02  0.10178517E-02 -0.85921419E-03