Amorphous Sb                            
   1.00000000000000     
    22.6470374761353135    0.0000000000000000    0.0000000000000000
     0.0000000000000000   22.6470374761353135    0.0000000000000000
     0.0000000000000000    0.0000000000000000   22.6470374761353135
   In   Te
    90   210
Direct
  0.0721902818003725  0.3914924494745931  0.2815690318596751
  0.4785994724366701  0.0507466773564071  0.1853801438067059
  0.9584833806391949  0.1636843377250007  0.3476346099930993
  0.3649898060838209  0.3234888188046078  0.0273083368833852
  0.7826239934673664  0.1182529685010209  0.9088888079765914
  0.8215226638448454  0.6821021823813147  0.2261207401653929
  0.1671180586450118  0.6986941399076064  0.0136495742568456
  0.5797671553346760  0.4661205794435527  0.2099243464993325
  0.7403965073609347  0.2858959197751793  0.2299256027739202
  0.6916956765187736  0.3310101428285219  0.4515650272405709
  0.2590589674528254  0.8734291126415349  0.6215473078789976
  0.2320255255806335  0.2549962881708508  0.7592253213764131
  0.0982952635180256  0.1965163176210079  0.9196647632042361
  0.5020688710080516  0.9146256903211936  0.7276951301680659
  0.7083722378333177  0.2948332120236658  0.6381574951761658
  0.6767387676569223  0.4740023276580188  0.8092601245026386
  0.9238422183664530  0.2342253937482959  0.0318690586551481
  0.1205888031442541  0.2187111771151239  0.2789896658181096
  0.6180776619568750  0.8854858954627034  0.1886927758453350
  0.9308076730216407  0.9822161300347375  0.9285071333549710
  0.8736817259432516  0.8074819034023900  0.8061843747802713
  0.9022958029509245  0.4587308674266865  0.7096825689552198
  0.7346214080041491  0.1207353375359994  0.7406464196200981
  0.3031507555815666  0.5408392364029452  0.9196518770376387
  0.9590590834831650  0.1551470635280829  0.2252717883106758
  0.5137680864531685  0.3315530362298513  0.6165365702257898
  0.1686089728742325  0.6245558536651525  0.8253300570332064
  0.4823252548598020  0.5205571335355630  0.6891307711590384
  0.8179774735987176  0.7251802769059433  0.4504294544033102
  0.9952282636767832  0.9868689659497001  0.3955627123457682
  0.9718509572838724  0.9791974508399525  0.2714920231731233
  0.6283482348448374  0.4250755998134051  0.9538839598208556
  0.6058512856744758  0.1018694137218612  0.3695070075409507
  0.6117809598068922  0.2907420624772868  0.2209580134164141
  0.7509746379302358  0.4441676687900327  0.0755816386211775
  0.3422302755258164  0.4679539598062472  0.5580189763695530
  0.6733541698359308  0.1000213721344390  0.2168540090912583
  0.1447743521286519  0.7722973582738897  0.7116449096572460
  0.7603666870532279  0.9157225573663917  0.9415872394226034
  0.1436329284963495  0.8714560876689345  0.0534334394723916
  0.1253563532139240  0.8828234407384210  0.4611976019482859
  0.1738436610013947  0.0723903366362824  0.7583287264957135
  0.0130739764024529  0.4481429845025302  0.0855275406453672
  0.3219191877546027  0.7242594464647069  0.6681379614656383
  0.9803208900659006  0.1001874034484461  0.5235270001774933
  0.5181390385711431  0.6186935122301178  0.0917173079635889
  0.3933566056585906  0.9969569841734247  0.4791874652842004
  0.1144884527214906  0.5286303324551616  0.9380380226747055
  0.2179182299484059  0.8057641253687666  0.1589850806729131
  0.5174920923996530  0.7302042670909951  0.8285883135238412
  0.3303298188988718  0.0803244765122908  0.1215840568911344
  0.4250093506875212  0.2457915163779916  0.8678850164211198
  0.5808754656389106  0.2625395626886612  0.7739612202248445
  0.8659799795055768  0.2508769097351595  0.7427206032494086
  0.5847598215167976  0.1687697041448794  0.5562239179815769
  0.7519192389670476  0.5391937731710256  0.3701872802459368
  0.7147033417368601  0.6746660723094124  0.9023516669274577
  0.7616563553502411  0.4590641288097117  0.6167919826299491
  0.2702635245439627  0.9631869155649868  0.3658310319667368
  0.9424228339531299  0.6809133607430007  0.6730374226972013
  0.5221755364702031  0.1786996136546790  0.9736849197970426
  0.9905033336179558  0.6407022335478052  0.1988719579508212
  0.1091129517414670  0.9813341256143516  0.9646265658868040
  0.3358088307881720  0.6046060493099681  0.7686485918577901
  0.2050574787182531  0.4131050233585633  0.4313419023503605
  0.2856278130597013  0.5373699247293504  0.1690467987951096
  0.1415564251551526  0.0535141585207193  0.6014841463583780
  0.9063455302905082  0.4707878044661943  0.2040132324441528
  0.2894284397850590  0.1338890999226717  0.4283285872280684
  0.4795825412314368  0.4909370767668979  0.4222652914312932
  0.4273035791333755  0.2086934627057132  0.5357243126371578
  0.6637471367123393  0.0301157376056017  0.7926560040368528
  0.8950207129071366  0.9330076407526604  0.1022649015195584
  0.9569479108432342  0.0460841606395873  0.1015755839824832
  0.3497185536730392  0.9630491659049240  0.7694243836783382
  0.1854050884386009  0.3517617719311528  0.6063331660473377
  0.6021202263694431  0.5880610702876942  0.5607005237375535
  0.9107682888333791  0.5466171518976567  0.5119778759936808
  0.4031177399386933  0.3636385340022914  0.1778904034696513
  0.3300839815721589  0.0741281977577157  0.9043054658354194
  0.6383459733945849  0.7817574892863809  0.5200429140445864
  0.2560154121032079  0.9354723562749161  0.8538234218622877
  0.7626129785866321  0.7935583957645435  0.5454307809325253
  0.7272190723018024  0.6565647860196322  0.0721270375963524
  0.7736589472756399  0.0317913687123791  0.3496892143701791
  0.8971356086781591  0.8363396690234882  0.1788791946183666
  0.5703892267655692  0.7240270557920692  0.2631694500246301
  0.7295134813133669  0.6906403687416227  0.7057661728608721
  0.7997170464833400  0.9949549161213784  0.5733648230129623
  0.9894881540680144  0.8082904359009323  0.3420763988809106
  0.4610222320898577  0.9040075025106079  0.5286691290960926
  0.5806073874557375  0.0134646188885223  0.0981771492483363
  0.9567148811313878  0.6332232799240590  0.3219370475824574
  0.6043031189956584  0.6536906930145483  0.6761740558127280
  0.5783097799649182  0.8154757940946139  0.7132788190404763
  0.2510013115600952  0.9865421180035310  0.0359319002577943
  0.9526880247522261  0.2153274592777996  0.5746547502745224
  0.8149628594951703  0.2394955879482054  0.9318954894092600
  0.3772271869174991  0.0961982767081951  0.7846419533022778
  0.4794979631817968  0.8842172651248864  0.2696069558771071
  0.9501404174669680  0.3446823604309293  0.7427500908571857
  0.9183738935218029  0.0136084419428628  0.5980612686636585
  0.4561940135753465  0.4629323744344221  0.8248677792967198
  0.3263598109325422  0.0695892657330181  0.3196345415394142
  0.2052467675964139  0.0539074662817045  0.8793550514028857
  0.9738874474551414  0.0257343378039655  0.7505601769728714
  0.0417606336927623  0.0578128255581184  0.2019248194689736
  0.3962611187768950  0.9144837461153922  0.6593441787994647
  0.8786520283228032  0.1603191932273587  0.6569077843305703
  0.4622909483890749  0.9392727978564132  0.8441445070469858
  0.0091057436406938  0.8298123086400538  0.9017064081083634
  0.9045480072553915  0.0787092659819663  0.4240494907399006
  0.2318945133176393  0.2898049713684940  0.1239276110421089
  0.0752082051924954  0.7481468804452360  0.0825992204352189
  0.5484892801452972  0.3044277910225148  0.3321034006540811
  0.1627765679256748  0.4978344644833111  0.8244166655869418
  0.7949055518416874  0.3377079627134320  0.3379659566020922
  0.0610987896147646  0.7059709036024214  0.3461726578398830
  0.7694076259738877  0.4258579239298540  0.7379400012019413
  0.2164888239080946  0.4641727058349477  0.5627282779330434
  0.4972713115306526  0.1449046044489235  0.8536184050803304
  0.6532418860366862  0.8039748565415213  0.3118955919442522
  0.5666970641180975  0.4322491277763116  0.3425298437512782
  0.3335726897433845  0.7665395318601169  0.5496348568109911
  0.4755000498065983  0.3007122393157330  0.9707779316326191
  0.8620248928869455  0.0677619330547116  0.9921997056963769
  0.6386063005890271  0.0068153260378921  0.2925615800198722
  0.8511168158261029  0.1190220876919947  0.1655870194524305
  0.7890649508116681  0.3523758134863512  0.5614631745905175
 -0.0009163751051103  0.4884937819908612  0.9624381968383937
  0.9346170337025874  0.7302862206917388  0.8814493654096092
  0.0628080586677477  0.4094177655816034  0.4585963307568829
  0.2617299258536318  0.8038993582747771  0.7449106414798669
  0.6364755524474844  0.2215178652289735  0.9338370602448948
  0.4146496537460790  0.5394445501726802  0.9782843867599259
  0.3769168502794528  0.5768567298119553  0.6089888879130027
  0.3524499517605002  0.2499115002752740  0.1331626829567392
  0.3595887254514952  0.9353550470098324  0.0913041954057642
  0.1137803715906092  0.6433770801819800  0.5346548233681448
  0.3321408158909743  0.5615369929816879  0.3485736481138581
  0.7364546763144515  0.2482956032514967  0.7551384008562355
  0.2492841868724210  0.8026787672478122  0.3942341287182221
  0.2818926990332103  0.6579116395334216  0.8694820754932155
  0.9523148507868190  0.8230652956612822  0.7078864903780633
  0.1479791702631943  0.9504299584169271  0.3341531880404359
  0.4253600009272556  0.6807179297374202  0.7278225875947980
  0.4553575399464275  0.6086716357189764  0.3749036965379313
  0.7806510722119628  0.9681268730963050  0.0573218737203387
  0.7261637555574335  0.9702706548891799  0.4711522087416937
  0.8394468471164641  0.4099445689875497  0.9925719037434667
  0.6115337700586786  0.8647507447579272  0.4153344678538691
  0.8394915442809213  0.2520453878031331  0.4159638940029839
  0.7124058957581137  0.7191184599635062  0.1792244142390093
  0.2928030001748100  0.1516472548343755  0.7043937140885762
  0.9283184384925121  0.6655245957804407  0.4809633707100036
  0.2457843827316198  0.2329370275383112  0.2648900529036421
  0.7051886892031798  0.0686013135108518  0.6249998151361515
  0.5860260276537773  0.3899543946767068  0.8420803346325757
  0.5618413642708181  0.7586321995950808  0.9694405222887833
  0.8435164550724235  0.0933990587815137  0.7997815539339281
  0.3546780219836591  0.2799744805094166  0.6918613869019841
  0.4477828809165355  0.3240420851782371  0.7742601782161814
  0.6509222802206136  0.9560506243750803  0.8938086660773975
  0.9786816989402854  0.5226714876180626  0.7908514546436436
  0.1620223667214277  0.3533538978259459  0.7282662618797207
  0.0945903871222721  0.1661027005831566  0.4608115830366719
  0.0304596896783163  0.5042619109946594  0.5406954254707813
  0.0446044547737078  0.2404277037728876  0.1744106918318779
  0.7233789131694032  0.2419716651208294  0.0321637928892427
  0.4464560613341458  0.7453769494976962  0.1332417688935900
  0.3449002929013044  0.9548025364317464  0.9481800350427061
  0.2657043216949658  0.3213028648414417  0.9473092172059795
  0.2193741192458759  0.1057693614844987  0.2183937337100469
  0.9776677864019525  0.4075405157443933  0.8633511459192420
  0.3636126126693474  0.1480855640922422 -0.0017722790635657
  0.2123350246685024  0.5059112936260715  0.3232395564789951
  0.8157244546535722  0.2557903683505169  0.1306712895208659
  0.7266739973754690  0.4955116392867384  0.9232260516969202
  0.6651011017864009  0.1041511409972162  0.0928411098387351
  0.0766119208338185  0.4727411217718713  0.7240131263725765
  0.7731611800893828  0.4187527418099321  0.2002484337337936
  0.8640288611777303  0.5879497909157654  0.9872057729728410
  0.3126233710368967  0.7402842808085957  0.0783089183155586
  0.9737911759071269  0.3399582862365678  0.2234539853048637
  0.6372529352710753  0.5146715970168844  0.0999643273909979
  0.5429998595718940  0.4822403289668024  0.0259795856819892
  0.3516886835859550  0.3052689260498440  0.5065421912029303
  0.3749406070646902  0.3949839932769304  0.2946169312153327
  0.9100859304455281  0.3745845279292874  0.0891609637055383
  0.5662542859904478  0.1705149971003621  0.2001940058061328
  0.4353168648130218  0.0278000409649080  0.3661144582237568
  0.7475445866205819  0.8051801337088103  0.7637091372660969
  0.0501025225638864  0.5658686408377706  0.1170949467353142
  0.7047315212684844  0.1953399388906152  0.5585496065456278
  0.5257387436740083  0.2290206834754547  0.4599622472472319
  0.5672711094757985  0.0211839506746707  0.7056786441671690
  0.6600239049657843  0.3474137333562364  0.0546446250968703
  0.5529823844059677  0.0645727485332329  0.4837058758211257
  0.6016750750384838  0.6060777959552068  0.2987514132113743
  0.9631412722679236  0.2725240130455000  0.4065005421580555
  0.3566615217094934  0.1069174348436835  0.5347783458873603
  0.0825281050122158  0.7278896625196902  0.2112086651055910
  0.2864928564106514  0.2544061813735904  0.3847488475966224
  0.7558160381500740  0.6078420141121815  0.8000999734516572
  0.9917883765434067  0.2841454161362613  0.9162638166398915
  0.0563341167957343  0.8376300445375646  0.7775446881289155
  0.6127989288607126  0.9618727957822604  0.5237343626937891
  0.5117620742294930  0.1679537141586611  0.3134475071740384
  0.9145571969763758  0.2003599212966848  0.8532568636951228
  0.1373947367011942  0.1811686052670129  0.6071962573867111
  0.2610651593263805  0.6232833192541566  0.0532061123099339
  0.4121077328075848  0.2881622502751778  0.3383400491711092
  0.2702058247455078  0.9641298386015572  0.4916927896025204
  0.1856498620610499  0.0740642992521323  0.4714613013734503
  0.0274109686787401  0.1196827735764541  0.0187901582305479
  0.7173580245403208  0.5423791084283586  0.5327637907581649
  0.8465700650059818  0.9260633701118633  0.8510986024753303
  0.8449940786088639  0.5709504728567046  0.2780334551371798
  0.5310068287059297  0.3626539358825422  0.1505743694677815
  0.9840302172689797  0.9029257617541163  0.0102847510178066
  0.3605069714567515  0.4491708267169459  0.4353218449535929
  0.7914852966194170  0.8820030887370830  0.6338819593189541
  0.8207064917565230  0.8615164458081851  0.2766694674668631
  0.7654803047665732  0.1592107523988835  0.2823034393764626
  0.1224980418572790  0.1409667412197838  0.0998240511128266
  0.9152852267256364  0.4202910337838765  0.3392775344125749
  0.0373665979450822  0.1952056682970898  0.6766296426173302
  0.2424549676000795  0.0083722637305873  0.6680372585136841
  0.6580576720101011  0.0937333933721620  0.9202305836136663
  0.8094072068829580  0.7035602229754023  0.9846566761565759
  0.8432420221219810  0.4685193030977239  0.4368448059710410
  0.5051990704213358  0.5678130028326116  0.2293281764396606
  0.7136876888018355  0.8125159648516648 -0.0024584380005581
  0.1590581278294075  0.5647227451230252  0.2228072380531574
  0.1252893893995367  0.8257819388793280  0.5983880156492553
  0.6987936634192718  0.5140472290932375  0.2460203916813657
  0.4582064259851085  0.8304818216869749  0.9143730068573575
  0.2624356533232997  0.6089642306819221  0.6616991196581452
  0.2407956041307605  0.7988514350296043  0.9809278116333908
  0.5381092056679118  0.3516770278245676  0.4959320496572013
  0.5203348250852495  0.4913621524584147  0.5438707761329377
  0.2106285076069218  0.6869081891083426  0.2416276383577197
  0.1175381849479219  0.1830405015086852  0.7832450866885721
  0.4773923718160170  0.5753659933380295  0.8778521905973072
  0.1609182604171781  0.8625314430032003  0.8908739198923750
  0.2694104567697077  0.2552793923656531  0.5862165420048830
  0.0574581766093599  0.9937740844385204  0.5232813640940774
  0.0861415383904142  0.9939116803282748  0.7080359630535455
  0.3561944928194911  0.4342566178188130  0.0855992017718925
  0.1870742419437726  0.6786830121193446  0.4419375710428091
  0.1882695315467383  0.2259172368751999  0.0254914023103650
  0.9038799626954758  0.7147623835747029  0.1365716719631778
  0.8528989403277103  0.0022579148542743  0.2278763847340003
  0.1236127465498412  0.3874715303241116  0.0959223862088572
  0.4077571028516727  0.3976137490579733  0.6457905221280923
  0.1968630945594638  0.9873713487126816  0.1656459082707323
  0.5878291528637298  0.6717538768519119  0.4644413577919967
  0.5731669016656020  0.7454768180577680  0.1387442684439313
  0.1672261684613811  0.4289376379186864  0.2057281412489160
  0.7455852606254161  0.8558032446408728  0.1124119248609781
  0.8696308007156849  0.7547845324119493  0.3255736210836751
  0.3318013082827891  0.4825716153176862  0.8044454484177409
  0.0815591076285047  0.1158275177854566  0.3462710406536371
  0.8572603688571278  0.5451171734350322  0.6294626530663101
  0.2956202683271269  0.6606373009076661  0.4975588753867257
  0.4470639052199148  0.7220237383790740  0.0046852544886815
  0.6149515329323521  0.3700547329746730  0.6774077587825171
  0.4716313270551760  0.0846280038421060  0.0404155371055034
  0.4991179787383485  0.2052048417146962  0.6432107839265293
  0.3452092002167529  0.8641896980236801  0.3433440180178236
  0.0178296817057482  0.0469491278535470  0.8655637988071748
  0.6781337766133083  0.9521162619823067  0.6754676632727412
  0.0223579216877615  0.4895741532628654  0.3423243901942122
  0.0917986772099356  0.6541188213499918  0.9218652987366978
  0.0014628547936944  0.4205489827186977  0.6292614278923774
  0.1055071542999802  0.3074716852168946  0.3687540173623794
  0.6587915053537642  0.4773333611973821  0.4395721880242187
  0.6290876062115360  0.6426483891143051  0.9916056216003596
  0.4597572166615471  0.6711722051317730  0.4817969129142764
  0.4484178084211868  0.7614235656544136  0.2736632689786889
  0.6021032182404294  0.5733544731657074  0.7754389832809130
  0.8088902069866341  0.6932506521867843  0.6120070018273773
  0.0133419456791711  0.8663819787753806  0.2325972277753144
  0.5419286898839074  0.7703049899025655  0.6044601859950344
  0.2175670943787800  0.4985604743741168  0.0033603819333643
  0.8792909282717698  0.6286645035197939  0.8050873628417871
  0.2960496189117508  0.2288019014331859  0.8720347204682868
  0.3304218254680456  0.6439382402076356  0.2512794189655340
  0.7198476370563028  0.6580652670227007  0.3983222495870858
  0.1675938657281408  0.8296210533314119  0.3058921572114771
  0.4772874619586798  0.9085034794404336  0.1474784607050780
  0.2969918812632955  0.9260668934930871  0.2027195315152275
  0.8135321538812147  0.5629614228270062  0.0963265564215299
  0.0878952930763858  0.3144446618059538  0.5366328711998817
  0.1320302577391653  0.6486647238238987  0.7091765493678294
  0.4843602564942658  0.8527479704883771  0.4153032794725532
  0.7072376788192078  0.1710646796789065  0.3945439228423413
  0.9776692557328783  0.8718152173064900  0.4469644181244266
  0.6689862075994527  0.7857944552568205  0.8612456797881547
  0.0442767694728389  0.7412368166552040  0.5534228138932303
 
  0.00000000E+00  0.00000000E+00  0.00000000E+00
  0.00000000E+00  0.00000000E+00  0.00000000E+00
  0.00000000E+00  0.00000000E+00  0.00000000E+00
  0.00000000E+00  0.00000000E+00  0.00000000E+00
  0.00000000E+00  0.00000000E+00  0.00000000E+00
  0.00000000E+00  0.00000000E+00  0.00000000E+00
  0.00000000E+00  0.00000000E+00  0.00000000E+00
  0.00000000E+00  0.00000000E+00  0.00000000E+00
  0.00000000E+00  0.00000000E+00  0.00000000E+00
  0.00000000E+00  0.00000000E+00  0.00000000E+00
  0.00000000E+00  0.00000000E+00  0.00000000E+00
  0.00000000E+00  0.00000000E+00  0.00000000E+00
  0.00000000E+00  0.00000000E+00  0.00000000E+00
  0.00000000E+00  0.00000000E+00  0.00000000E+00
  0.00000000E+00  0.00000000E+00  0.00000000E+00
  0.00000000E+00  0.00000000E+00  0.00000000E+00
  0.00000000E+00  0.00000000E+00  0.00000000E+00
  0.00000000E+00  0.00000000E+00  0.00000000E+00
  0.00000000E+00  0.00000000E+00  0.00000000E+00
  0.00000000E+00  0.00000000E+00  0.00000000E+00
  0.00000000E+00  0.00000000E+00  0.00000000E+00
  0.00000000E+00  0.00000000E+00  0.00000000E+00
  0.00000000E+00  0.00000000E+00  0.00000000E+00
  0.00000000E+00  0.00000000E+00  0.00000000E+00
  0.00000000E+00  0.00000000E+00  0.00000000E+00
  0.00000000E+00  0.00000000E+00  0.00000000E+00
  0.00000000E+00  0.00000000E+00  0.00000000E+00
  0.00000000E+00  0.00000000E+00  0.00000000E+00
  0.00000000E+00  0.00000000E+00  0.00000000E+00
  0.00000000E+00  0.00000000E+00  0.00000000E+00
  0.00000000E+00  0.00000000E+00  0.00000000E+00
  0.00000000E+00  0.00000000E+00  0.00000000E+00
  0.00000000E+00  0.00000000E+00  0.00000000E+00
  0.00000000E+00  0.00000000E+00  0.00000000E+00
  0.00000000E+00  0.00000000E+00  0.00000000E+00
  0.00000000E+00  0.00000000E+00  0.00000000E+00
  0.00000000E+00  0.00000000E+00  0.00000000E+00
  0.00000000E+00  0.00000000E+00  0.00000000E+00
  0.00000000E+00  0.00000000E+00  0.00000000E+00
  0.00000000E+00  0.00000000E+00  0.00000000E+00
  0.00000000E+00  0.00000000E+00  0.00000000E+00
  0.00000000E+00  0.00000000E+00  0.00000000E+00
  0.00000000E+00  0.00000000E+00  0.00000000E+00
  0.00000000E+00  0.00000000E+00  0.00000000E+00
  0.00000000E+00  0.00000000E+00  0.00000000E+00
  0.00000000E+00  0.00000000E+00  0.00000000E+00
  0.00000000E+00  0.00000000E+00  0.00000000E+00
  0.00000000E+00  0.00000000E+00  0.00000000E+00
  0.00000000E+00  0.00000000E+00  0.00000000E+00
  0.00000000E+00  0.00000000E+00  0.00000000E+00
  0.00000000E+00  0.00000000E+00  0.00000000E+00
  0.00000000E+00  0.00000000E+00  0.00000000E+00
  0.00000000E+00  0.00000000E+00  0.00000000E+00
  0.00000000E+00  0.00000000E+00  0.00000000E+00
  0.00000000E+00  0.00000000E+00  0.00000000E+00
  0.00000000E+00  0.00000000E+00  0.00000000E+00
  0.00000000E+00  0.00000000E+00  0.00000000E+00
  0.00000000E+00  0.00000000E+00  0.00000000E+00
  0.00000000E+00  0.00000000E+00  0.00000000E+00
  0.00000000E+00  0.00000000E+00  0.00000000E+00
  0.00000000E+00  0.00000000E+00  0.00000000E+00
  0.00000000E+00  0.00000000E+00  0.00000000E+00
  0.00000000E+00  0.00000000E+00  0.00000000E+00
  0.00000000E+00  0.00000000E+00  0.00000000E+00
  0.00000000E+00  0.00000000E+00  0.00000000E+00
  0.00000000E+00  0.00000000E+00  0.00000000E+00
  0.00000000E+00  0.00000000E+00  0.00000000E+00
  0.00000000E+00  0.00000000E+00  0.00000000E+00
  0.00000000E+00  0.00000000E+00  0.00000000E+00
  0.00000000E+00  0.00000000E+00  0.00000000E+00
  0.00000000E+00  0.00000000E+00  0.00000000E+00
  0.00000000E+00  0.00000000E+00  0.00000000E+00
  0.00000000E+00  0.00000000E+00  0.00000000E+00
  0.00000000E+00  0.00000000E+00  0.00000000E+00
  0.00000000E+00  0.00000000E+00  0.00000000E+00
  0.00000000E+00  0.00000000E+00  0.00000000E+00
  0.00000000E+00  0.00000000E+00  0.00000000E+00
  0.00000000E+00  0.00000000E+00  0.00000000E+00
  0.00000000E+00  0.00000000E+00  0.00000000E+00
  0.00000000E+00  0.00000000E+00  0.00000000E+00
  0.00000000E+00  0.00000000E+00  0.00000000E+00
  0.00000000E+00  0.00000000E+00  0.00000000E+00
  0.00000000E+00  0.00000000E+00  0.00000000E+00
  0.00000000E+00  0.00000000E+00  0.00000000E+00
  0.00000000E+00  0.00000000E+00  0.00000000E+00
  0.00000000E+00  0.00000000E+00  0.00000000E+00
  0.00000000E+00  0.00000000E+00  0.00000000E+00
  0.00000000E+00  0.00000000E+00  0.00000000E+00
  0.00000000E+00  0.00000000E+00  0.00000000E+00
  0.00000000E+00  0.00000000E+00  0.00000000E+00
  0.00000000E+00  0.00000000E+00  0.00000000E+00
  0.00000000E+00  0.00000000E+00  0.00000000E+00
  0.00000000E+00  0.00000000E+00  0.00000000E+00
  0.00000000E+00  0.00000000E+00  0.00000000E+00
  0.00000000E+00  0.00000000E+00  0.00000000E+00
  0.00000000E+00  0.00000000E+00  0.00000000E+00
  0.00000000E+00  0.00000000E+00  0.00000000E+00
  0.00000000E+00  0.00000000E+00  0.00000000E+00
  0.00000000E+00  0.00000000E+00  0.00000000E+00
  0.00000000E+00  0.00000000E+00  0.00000000E+00
  0.00000000E+00  0.00000000E+00  0.00000000E+00
  0.00000000E+00  0.00000000E+00  0.00000000E+00
  0.00000000E+00  0.00000000E+00  0.00000000E+00
  0.00000000E+00  0.00000000E+00  0.00000000E+00
  0.00000000E+00  0.00000000E+00  0.00000000E+00
  0.00000000E+00  0.00000000E+00  0.00000000E+00
  0.00000000E+00  0.00000000E+00  0.00000000E+00
  0.00000000E+00  0.00000000E+00  0.00000000E+00
  0.00000000E+00  0.00000000E+00  0.00000000E+00
  0.00000000E+00  0.00000000E+00  0.00000000E+00
  0.00000000E+00  0.00000000E+00  0.00000000E+00
  0.00000000E+00  0.00000000E+00  0.00000000E+00
  0.00000000E+00  0.00000000E+00  0.00000000E+00
  0.00000000E+00  0.00000000E+00  0.00000000E+00
  0.00000000E+00  0.00000000E+00  0.00000000E+00
  0.00000000E+00  0.00000000E+00  0.00000000E+00
  0.00000000E+00  0.00000000E+00  0.00000000E+00
  0.00000000E+00  0.00000000E+00  0.00000000E+00
  0.00000000E+00  0.00000000E+00  0.00000000E+00
  0.00000000E+00  0.00000000E+00  0.00000000E+00
  0.00000000E+00  0.00000000E+00  0.00000000E+00
  0.00000000E+00  0.00000000E+00  0.00000000E+00
  0.00000000E+00  0.00000000E+00  0.00000000E+00
  0.00000000E+00  0.00000000E+00  0.00000000E+00
  0.00000000E+00  0.00000000E+00  0.00000000E+00
  0.00000000E+00  0.00000000E+00  0.00000000E+00
  0.00000000E+00  0.00000000E+00  0.00000000E+00
  0.00000000E+00  0.00000000E+00  0.00000000E+00
  0.00000000E+00  0.00000000E+00  0.00000000E+00
  0.00000000E+00  0.00000000E+00  0.00000000E+00
  0.00000000E+00  0.00000000E+00  0.00000000E+00
  0.00000000E+00  0.00000000E+00  0.00000000E+00
  0.00000000E+00  0.00000000E+00  0.00000000E+00
  0.00000000E+00  0.00000000E+00  0.00000000E+00
  0.00000000E+00  0.00000000E+00  0.00000000E+00
  0.00000000E+00  0.00000000E+00  0.00000000E+00
  0.00000000E+00  0.00000000E+00  0.00000000E+00
  0.00000000E+00  0.00000000E+00  0.00000000E+00
  0.00000000E+00  0.00000000E+00  0.00000000E+00
  0.00000000E+00  0.00000000E+00  0.00000000E+00
  0.00000000E+00  0.00000000E+00  0.00000000E+00
  0.00000000E+00  0.00000000E+00  0.00000000E+00
  0.00000000E+00  0.00000000E+00  0.00000000E+00
  0.00000000E+00  0.00000000E+00  0.00000000E+00
  0.00000000E+00  0.00000000E+00  0.00000000E+00
  0.00000000E+00  0.00000000E+00  0.00000000E+00
  0.00000000E+00  0.00000000E+00  0.00000000E+00
  0.00000000E+00  0.00000000E+00  0.00000000E+00
  0.00000000E+00  0.00000000E+00  0.00000000E+00
  0.00000000E+00  0.00000000E+00  0.00000000E+00
  0.00000000E+00  0.00000000E+00  0.00000000E+00
  0.00000000E+00  0.00000000E+00  0.00000000E+00
  0.00000000E+00  0.00000000E+00  0.00000000E+00
  0.00000000E+00  0.00000000E+00  0.00000000E+00
  0.00000000E+00  0.00000000E+00  0.00000000E+00
  0.00000000E+00  0.00000000E+00  0.00000000E+00
  0.00000000E+00  0.00000000E+00  0.00000000E+00
  0.00000000E+00  0.00000000E+00  0.00000000E+00
  0.00000000E+00  0.00000000E+00  0.00000000E+00
  0.00000000E+00  0.00000000E+00  0.00000000E+00
  0.00000000E+00  0.00000000E+00  0.00000000E+00
  0.00000000E+00  0.00000000E+00  0.00000000E+00
  0.00000000E+00  0.00000000E+00  0.00000000E+00
  0.00000000E+00  0.00000000E+00  0.00000000E+00
  0.00000000E+00  0.00000000E+00  0.00000000E+00
  0.00000000E+00  0.00000000E+00  0.00000000E+00
  0.00000000E+00  0.00000000E+00  0.00000000E+00
  0.00000000E+00  0.00000000E+00  0.00000000E+00
  0.00000000E+00  0.00000000E+00  0.00000000E+00
  0.00000000E+00  0.00000000E+00  0.00000000E+00
  0.00000000E+00  0.00000000E+00  0.00000000E+00
  0.00000000E+00  0.00000000E+00  0.00000000E+00
  0.00000000E+00  0.00000000E+00  0.00000000E+00
  0.00000000E+00  0.00000000E+00  0.00000000E+00
  0.00000000E+00  0.00000000E+00  0.00000000E+00
  0.00000000E+00  0.00000000E+00  0.00000000E+00
  0.00000000E+00  0.00000000E+00  0.00000000E+00
  0.00000000E+00  0.00000000E+00  0.00000000E+00
  0.00000000E+00  0.00000000E+00  0.00000000E+00
  0.00000000E+00  0.00000000E+00  0.00000000E+00
  0.00000000E+00  0.00000000E+00  0.00000000E+00
  0.00000000E+00  0.00000000E+00  0.00000000E+00
  0.00000000E+00  0.00000000E+00  0.00000000E+00
  0.00000000E+00  0.00000000E+00  0.00000000E+00
  0.00000000E+00  0.00000000E+00  0.00000000E+00
  0.00000000E+00  0.00000000E+00  0.00000000E+00
  0.00000000E+00  0.00000000E+00  0.00000000E+00
  0.00000000E+00  0.00000000E+00  0.00000000E+00
  0.00000000E+00  0.00000000E+00  0.00000000E+00
  0.00000000E+00  0.00000000E+00  0.00000000E+00
  0.00000000E+00  0.00000000E+00  0.00000000E+00
  0.00000000E+00  0.00000000E+00  0.00000000E+00
  0.00000000E+00  0.00000000E+00  0.00000000E+00
  0.00000000E+00  0.00000000E+00  0.00000000E+00
  0.00000000E+00  0.00000000E+00  0.00000000E+00
  0.00000000E+00  0.00000000E+00  0.00000000E+00
  0.00000000E+00  0.00000000E+00  0.00000000E+00
  0.00000000E+00  0.00000000E+00  0.00000000E+00
  0.00000000E+00  0.00000000E+00  0.00000000E+00
  0.00000000E+00  0.00000000E+00  0.00000000E+00
  0.00000000E+00  0.00000000E+00  0.00000000E+00
  0.00000000E+00  0.00000000E+00  0.00000000E+00
  0.00000000E+00  0.00000000E+00  0.00000000E+00
  0.00000000E+00  0.00000000E+00  0.00000000E+00
  0.00000000E+00  0.00000000E+00  0.00000000E+00
  0.00000000E+00  0.00000000E+00  0.00000000E+00
  0.00000000E+00  0.00000000E+00  0.00000000E+00
  0.00000000E+00  0.00000000E+00  0.00000000E+00
  0.00000000E+00  0.00000000E+00  0.00000000E+00
  0.00000000E+00  0.00000000E+00  0.00000000E+00
  0.00000000E+00  0.00000000E+00  0.00000000E+00
  0.00000000E+00  0.00000000E+00  0.00000000E+00
  0.00000000E+00  0.00000000E+00  0.00000000E+00
  0.00000000E+00  0.00000000E+00  0.00000000E+00
  0.00000000E+00  0.00000000E+00  0.00000000E+00
  0.00000000E+00  0.00000000E+00  0.00000000E+00
  0.00000000E+00  0.00000000E+00  0.00000000E+00
  0.00000000E+00  0.00000000E+00  0.00000000E+00
  0.00000000E+00  0.00000000E+00  0.00000000E+00
  0.00000000E+00  0.00000000E+00  0.00000000E+00
  0.00000000E+00  0.00000000E+00  0.00000000E+00
  0.00000000E+00  0.00000000E+00  0.00000000E+00
  0.00000000E+00  0.00000000E+00  0.00000000E+00
  0.00000000E+00  0.00000000E+00  0.00000000E+00
  0.00000000E+00  0.00000000E+00  0.00000000E+00
  0.00000000E+00  0.00000000E+00  0.00000000E+00
  0.00000000E+00  0.00000000E+00  0.00000000E+00
  0.00000000E+00  0.00000000E+00  0.00000000E+00
  0.00000000E+00  0.00000000E+00  0.00000000E+00
  0.00000000E+00  0.00000000E+00  0.00000000E+00
  0.00000000E+00  0.00000000E+00  0.00000000E+00
  0.00000000E+00  0.00000000E+00  0.00000000E+00