Amorphous GeAsSeSi                            
   1.00000000000000     
     20.399000000000000    0.0000000000000000     0.0000000000000000
     0.0000000000000000    20.399000000000000     0.0000000000000000
     0.0000000000000000    0.0000000000000000     20.399000000000000
   Ge   Ga   Sb          
   45   75   180
Direct
  0.3836796279594560  0.6203525911232828  0.8004855824830195
  0.9042387994002675  0.7382955864726309  0.0882043308896571
  0.0857166952541022  0.0439269502150426  0.9483848549086197
  0.1653917020250631  0.5236773010187574  0.7512431172451320
  0.5133049115638988  0.0625207184012206  0.0054822399890167
  0.9394292720275482  0.0522023332553609  0.2204348686602863
  0.7862015923117434  0.0362786346513254  0.3623002049863254
  0.0982373586362828  0.9064828369872129  0.2518987776193857
  0.0170240552052681  0.3335399550743527  0.4254818717250443
  0.9121416741683892  0.7871054784565080  0.5580158513607325
  0.7324547156698112  0.2754128492891267  0.0515343654976523
  0.9643624700579688  0.4940311549713243  0.4086717776169610
  0.8747933226545279  0.3895123295986724  0.7799616260069211
  0.3544985904277318  0.5563886165228463  0.9108369841442278
  0.2180292033303945  0.6484708259448034  0.4064460968709661
  0.0969514678839316  0.7290475124407229  0.6624357934145734
  0.6487039774071913  0.4957907003449260  0.7520752628786130
  0.6799630214832297  0.9057569140195295  0.6867532092618475
  0.1029266430902178  0.8559186831540869  0.0472742738357110
  0.9607109131379705  0.9568181684302934  0.1427950104760425
  0.5444612904312710  0.9784067014585472  0.1030455199838880
  0.5981934519452285  0.6325956738185724  0.6816799310343278
  0.0734389356184858  0.7712514317039253  0.5468361275287303
  0.8698597335919908  0.1893943518204507  0.7282107045301703
  0.2600894555185860  0.0073180908961787  0.5597559253204490
  0.5957363575461938  0.5614850133514309  0.9956374112600328
  0.5754077621717476  0.5283607943255532  0.8451575803956671
  0.8319296650223450  0.7456901391422804  0.7284465913733925
  0.6080187086371243  0.8198325490759224  0.9004461411144632
  0.7051443672310307  0.2472319656444620  0.2270553583063905
  0.5031884661586642  0.5988529336970906  0.4267748781380576
  0.0982174447607170  0.0848876353976525  0.2486805177555115
  0.2705279126487999  0.4335917253889487  0.0866714533190977
  0.8608032346528843  0.9709787864053357  0.6281551390071689
  0.9072428641314730  0.5364127056255420  0.8010671384549154
  0.3755158055102455  0.7445185769780789  0.2182032402529476
  0.5535765817781243  0.9051172925081432  0.4567246263275481
  0.6796321062254884  0.2801143294830031  0.8121149624447933
  0.3252487536264866  0.5849281144485670  0.3186908832614703
  0.2135787971108307  0.8164957164551861  0.9411159188388537
  0.7018532840766323  0.8326845691416087  0.3855315005367979
  0.0551303675497778  0.1378681494580803  0.7712937552804341
  0.3852519277270118  0.2537502758130047  0.6538500472291466
  0.8669239114903473  0.9267678828105740  0.7875229481615725
  0.6440836692565308  0.8724356396029543  0.5034918735543239
  0.3615307072316228  0.0222610885529032  0.4345846180298310
  0.1297430769505805  0.9282376138829042  0.3854448042490454
  0.0628788764147871  0.9787244312178341  0.7800851019500342
  0.9359029269445255  0.9672281384259839  0.9966352203041936
  0.2727379921202723  0.1327294300896624  0.6175939575427569
  0.8704902518761234  0.0819208698703917  0.5415097232266119
  0.1685018460686678  0.0692199097356448  0.8374258299861348
  0.2870324630338481  0.5343452799098141  0.7599329026209396
  0.8464032116620768  0.8698786059610283  0.0523985063015138
  0.0296284352182989  0.5311930762135078  0.7309485897557509
  0.6466786520927531  0.2966741603126574  0.9471932576473678
  0.9208255337666574  0.7358392615826248  0.3876189944370132
  0.7357687512692663  0.8298091200321088  0.9005079364437323
  0.7284224471039973  0.3648648321394607  0.2076612243712097
  0.6939532941918650  0.5781657692387423  0.8629497988341623
  0.4739736563017318  0.7334904636957675  0.8950086404792479
  0.7811671058140547  0.3264502396066433  0.8180755977275903
  0.6336238757329290  0.4955663269533475  0.4103479349019148
  0.8412990844806213  0.9712129741789371  0.1292640919964157
  0.6938278962815061  0.2926979441191611  0.5602596437174873
  0.0152014125061103  0.6379733561337930  0.3518136930508988
  0.4421296107637554  0.4724572378890416  0.4614261060248713
  0.0807044473849646  0.4734654609504763  0.8206194868623149
  0.4305453538235283  0.8770704160628991  0.3916855001038683
  0.3474094735524564  0.3670066200979525  0.6687190494985361
  0.5706611626424298  0.3857731244461137  0.3167892652099844
  0.0523609974371463  0.6242496636640151  0.6824038818349617
  0.2043756755843528  0.3670228996817543  0.6587231393314412
  0.7467038617189095  0.4630616839491743  0.8122640333305177
  0.2401652856349578  0.6726696799468109  0.5578463054636715
  0.6075854952175602  0.2005477486411755  0.5996662132470774
  0.1402991481174807  0.5351529954537482  0.4177667568743387
  0.1081189808271830  0.6037855735599643  0.8575365212080064
  0.8529619359587938  0.5183962688746213  0.2785652603367193
  0.2397416206370440  0.2990505177752952  0.0612941811823867
  0.6207648232941669  0.1922166176868803  0.1225678857974292
  0.9640920940603149  0.4240649486571281  0.2618774853575021
  0.7456177835640873  0.3174054825045715  0.6734210600119753
  0.6959911293676614  0.3845226495439241  0.4722892604933141
  0.5638754203105225  0.5998274465911186  0.5270615243001878
  0.8853812740568282  0.7933506892276769  0.2751234875561737
  0.1937888193306069  0.6878135386108541  0.8345089154107647
  0.9772450077412528  0.0524141015526753  0.9317660820511210
  0.4723813842794720  0.2403886732760412  0.1823244606983681
  0.4351709659624604  0.4392322305848879  0.1639280579347557
  0.4728488336878021  0.2619864221705971  0.7304749100050588
  0.6076304570444669  0.2893716523978984  0.4032908179838704
  0.8577790208756993  0.4511872720717300  0.5354501890152280
  0.0864837979161828  0.9054531493084648  0.9088023865864863
  0.4651262082708215  0.6161729856985304  0.9508553908359316
  0.2288004688657413  0.7907105607117777  0.6204243610231556
  0.8638188079286150  0.5709991649997951  0.9299769740248106
  0.3292531582935954  0.4031905234021425  0.4411544650446833
  0.5709009580568364  0.5286179280133815  0.2706649397078642
  0.8155706070649150  0.4082412361766314  0.0908389494920276
  0.1931143887496050  0.3749910311071050  0.3804629018790772
  0.1889834656252886  0.2137692381379773  0.9884908180583732
  0.0754907206154545  0.3374387568237915  0.6307021022174181
  0.2275105772623180  0.0543857927795741  0.0412927308139258
  0.7412902853652756  0.9364317489074470  0.4043205069428913
  0.7674796531012946  0.7551532694989455  0.2482986570483249
  0.7810770609020021  0.7006459004975276  0.8631410666950097
  0.3345294201378433  0.8653826007298023  0.7775100648797754
  0.1242956622830537  0.8994190450192631  0.7102454856596943
  0.5985978285996081  0.1958172834007607  0.0049604242727146
  0.4437754643361861  0.0789730305542942  0.5719594610866631
  0.4529933637298880  0.6891322535504014  0.3674478577319554
  0.3514629693306875  0.9801110388861904  0.2011113313608185
  0.9737512639853699  0.8425505943024710  0.0906105870837835
  0.1845439725708887  0.6893259473870764  0.1011326213905618
  0.7856430034933783  0.5457473836983603  0.4964885145749572
  0.5264831396384125  0.7298620022079050  0.6992930583394512
  0.7461272905021139  0.3669241736453918  0.9376007759086207
  0.3272088824969158  0.9391746537967552  0.3383764615381777
  0.4787847777179579  0.0939692023432427  0.3909496758624054
  0.5698461534598426  0.3337511898856343  0.5092538489861460
  0.9703767672008287  0.8678647413998868  0.2144037067550880
  0.4193053864141557  0.9698202025455572  0.6233378365965734
  0.9200560937939568  0.0865984713026518  0.8312653778155179
  0.9938860895841471  0.1498843188638551  0.3558810622167211
  0.3265385162533392  0.5495484957407055  0.5397801335081424
  0.4798664502030703  0.7061570379911333  0.6104040430411606
  0.1115231015350401  0.2819303292442236  0.0688150448133870
  0.1022765598432898  0.0441351426260593  0.3736500478341158
  0.4008173272767641  0.0382641493923257  0.9535477174494353
  0.5032668426119590  0.8170865657506197  0.0399272165156540
  0.9947994502930924  0.5509984515650220  0.5089793497397720
  0.5918060235623805  0.3264242445531656  0.2247408978102514
  0.1699155357209388  0.5098478685120906  0.0728890245374576
  0.6243334443458272  0.8026351002907338  0.6031701906166921
  0.4400186218150340  0.8393767610340482  0.2810903779235555
  0.3012968886466615  0.1946161376003832  0.8365177483806280
  0.5440016458590659  0.2290501493698497  0.2880729864405608
  0.7355372386719962  0.4847496432848574  0.1615674065892914
  0.8578740164602415  0.4506970071581367  0.8950027211487324
  0.5234932717946380  0.6433392611870108  0.8121529271283786
  0.4562102826728160  0.5607711848502899  0.5651578085186546
  0.2045631101391504  0.5881973603612185  0.2887162740149666
  0.9983550068147058  0.9491018469054430  0.6839897832646811
  0.8726526308517345  0.3711423881947331  0.9938760000407879
  0.3795056890320245  0.3657549115389351  0.7866209336375672
  0.5541845362366840  0.2364492111529267  0.8469140739007865
  0.9578493990992056  0.7819490246043322  0.9651399565899593
  0.8982173747872207  0.2783964814898451  0.8012145118814643
  0.8179834337111636  0.3970281454265691  0.4386879358762437
  0.9026830813018946  0.1857979625578670  0.2218588279499500
  0.0519916013600988  0.2915432186425053  0.3005763207863344
  0.2050921138196081  0.9259314562707901  0.1461449970362561
  0.3677323086060518  0.1910013193288955  0.3585139405133707
  0.5310218700052327  0.1216022800144987  0.1279546623428494
  0.9383718557869353  0.1295958864492337  0.0365904216625009
  0.0815643087540783  0.1578144355365672  0.9024001780934569
  0.0979800231121677  0.6626806467043848  0.4472795275086762
  0.6053685017934527  0.0163308754552181  0.3974019063327027
  0.5329021779021502  0.7450782241972332  0.4875178291907318
  0.0155042897947427  0.6800532134032926  0.7968916832326245
  0.2295722213463093  0.6546869223938713  0.7292161212297364
  0.0608171003047072  0.3090317137881048  0.9675709498845114
  0.5897928876874663  0.7189948019810319  0.9687364863028941
  0.2687196860929875  0.7021873170465188  0.2688793968747553
  0.7818550716693060  0.0847268959604895  0.2389688816489038
  0.7693707551909139  0.4965807356300856  0.9700357893921522
  0.1570812894128534  0.1947124013658839  0.2309768704643548
  0.8142235843250388  0.2414946769073186  0.9408965927592738
  0.3582859637522290  0.1231175723669487  0.2515639413089983
  0.2688633263977193  0.2114181043915273  0.5178160149474281
  0.7687110522625337  0.6211352491260907  0.5987321976221528
  0.9390330010949830  0.6566276358005351  0.2311690290489798
  0.7657189815223274  0.4524122933808068  0.6838842396866351
  0.2548102017806617  0.5473089759344247  0.1573777599166800
  0.7598241569044099  0.1557790998775471  0.1165235152351156
  0.6127315974667565  0.4691767575261667  0.5270829024806392
  0.3727849826237495  0.7877792228959690  0.6090807131778585
  0.5960854569827833  0.5238097386863375  0.1304297646685246
  0.6949117746103374  0.0988090403207640  0.6734881529506811
  0.4503108330622642  0.1407806305223485  0.8562869935176911
  0.2287759009535526  0.8192221921327947  0.3605300099978215
  0.4269349538380204  0.4360719607357309  0.3328274098753131
  0.3821020210019195  0.7968261228682940  0.4623028144213684
  0.5506620427852004  0.0873696890164940  0.7030433305814136
  0.3084857932351989  0.0710815518995142  0.8587633684111420
  0.8639586295674294  0.0615926876219394  0.7160563535929253
  0.2152541364146900  0.6527774271152536  0.9767573216074513
  0.5634405612246561  0.9028325974770310  0.7605762441285059
  0.1386461307407950  0.6050023967582761  0.5755866582762723
  0.4390577212104590  0.3164428420769248  0.0782230243686848
  0.1259787245004657  0.1893672112875848  0.6311117974992656
  0.9147639640353730  0.0431312240033334  0.3610247697529672
  0.8775327317954115  0.2360244658932015  0.3887250631470897
  0.6072415360792168  0.7295751918895769  0.8184753760142747
  0.3157941355466382  0.3322854718637554  0.9515971365403260
  0.9846612024784321  0.2490799916009785  0.0922026921257310
  0.7156366534592211  0.6439644645704993  0.9887417707942100
  0.2453226362720071  0.2348966086794350  0.7175171960739016
  0.2178464927038739  0.3360391463473222  0.5189943450270501
  0.6885535724553815  0.1518126337626970  0.8058975734866037
  0.4678975580076652  0.1871639402774083  0.5037749301387986
  0.5262611157171617  0.9436920225007522  0.8987430442923324
  0.3258879827163244  0.4602519561740043  0.2320809834232219
  0.4816292990401196  0.2024922626250191  0.9940627876902826
  0.6150144111502300  0.8642556777085783  0.0635673228759346
  0.7896427781956172  0.6292771494500308  0.7678473308113846
  0.1813845898757711  0.8115743109850664  0.4966599762395162
  0.9719035167377331  0.2542070804141509  0.6651815387062324
  0.6744455691024106  0.7259632915353472  0.4731496534859771
  0.3807755443312393  0.6319836820989104  0.4428412523788289
  0.9230615684623640  0.9381591914992132  0.5154240313063927
  0.2026548466726264  0.0633773303972140  0.2083686289894155
  0.9262434880005875  0.5072788349122832  0.6751974517388343
  0.0025472734151090  0.3898416322627100  0.5182255535188127
  0.0532916984627005  0.2989083861201092  0.7944401958671324
  0.1612481032126788  0.4674940045353939  0.5138619381840969
  0.0841384982699441  0.7670294176773029  0.1692918737977408
  0.8947010888937241  0.6357455148814460  0.4426258261566234
  0.9264006936244069  0.6731438394549160  0.6272665154055311
  0.9388407282829052  0.5277352995968286  0.1744604834686500
  0.4673368974133915  0.4406780137612485  0.7308775916470700
  0.0724979404885538  0.7851350473436846  0.9238540476170534
  0.5693207042327241  0.3937339908325317  0.9679440602234795
  0.2233979720655836  0.9674559776554773  0.9570744697905599
  0.6782018931000333  0.5713785427283735  0.2466442433076469
  0.0897782299443421  0.9074241531154857  0.5839739341686907
  0.0671276385485958  0.0309499262076233  0.1282614543338344
  0.2695959718572253  0.7915692203139517  0.0861968286990026
  0.2222006651784541  0.3263259812599904  0.2291829882820210
  0.0373180039425101  0.6822972466963452  0.0768443573606037
  0.7385697278767334  0.0613296517101880  0.0410137481505892
  0.1632372454920960  0.0601019004970452  0.4959180157996630
  0.5705728620805126  0.0612030637164354  0.8849928399514477
  0.5817462321373743  0.3717692525357402  0.1141147598545438
  0.5550588973035444  0.9590352033193699  0.5912459701648978
  0.9723982475014710  0.8947774152610245  0.8779080346647644
  0.3794793736084064  0.8745380065442088  0.1621025425769012
  0.2525642841168905  0.9170894547213262  0.6901809844191925
  0.4546966400859123  0.6768810685796567  0.0687390628508326
  0.0648701208455933  0.4989562858085113  0.3201072167440427
  0.9662200391471699  0.8394493639502703  0.7396865280145698
  0.7154033676044013  0.7316661519262095  0.6658425797059281
  0.3240501494396805  0.9166445648923527  0.5042219478796395
  0.3982828598444210  0.0970738862767134  0.7045275871493257
  0.0243738857748522  0.7791891569529942  0.3700501637960583
  0.0131054118550874  0.1021605411282116  0.6105173828112664
  0.3189343251293658  0.1943145352509622  0.0836136352819294
  0.7601634035075711  0.4516042770154700  0.3283976414157168
  0.8767533497615644  0.8444847288761753  0.4186022659966779
  0.3132479803745198  0.7306109598964053  0.9220103485071482
  0.1351017820952111  0.4288828171594396  0.1825451025686084
  0.0835840856657978  0.5776564506668944  0.1739063794140043
  0.3442077782076857  0.9996864214718784  0.0705615703675955
  0.4535197626383191  0.0237078899312617  0.2629568666697522
  0.8357088695723530  0.6472343787873275  0.0422958031690460
  0.3561344727933042  0.1677633071776441  0.9494710412701188
  0.7248966668068125  0.2744860182460237  0.4260285896220211
  0.9878166050169103  0.3976678918817806  0.1418317117265650
  0.7874391910280663  0.7821813295039419  0.5155979197408739
  0.2163979358193300  0.4166660149647405  0.7895164033959974
  0.7004879633443390  0.1314973038598727  0.9391982273672372
  0.8609557192230359  0.3272527910242403  0.2092234783562597
  0.5023131680360363  0.7367668692165991  0.2434270237262625
  0.5656693753478041  0.8918430796798554  0.2934524981386188
  0.3935737693951020  0.3111510545901323  0.2737528490201428
  0.7793459179482179  0.0409458753154011  0.8864403979520287
  0.7327676214372874  0.8502086026728456  0.1840246816501067
  0.2107845084555427  0.8139725372922778  0.7794235329095069
  0.3983583591867698  0.8788328895445869  0.9444120268781492
  0.8155968932589508  0.2032101463624599  0.5910916626575820
  0.4396784891820610  0.3154972968023882  0.4608222880391576
  0.4559341371113997  0.5159715996892505  0.8605906400237950
  0.8669450367532404  0.7843580584055314  0.8889555905343619
  0.1270412255019867  0.2648271145788156  0.4169471689464261
  0.6738866966867983  0.7194112649370898  0.3090399245381717
  0.7446419624836793  0.7987899866191766  0.0585234769377850
  0.6166122863746066  0.3085427111703760  0.7019708267069924
  0.2913845996210843  0.4908447166121369  0.6473378435407371
  0.7088746894132274  0.1170609787279723  0.4115928601406664
  0.0118547200950311  0.9170809845321130  0.3852129045241691
  0.5057877909647168  0.3132494045194157  0.6213017687480470
  0.4523863117071270  0.5776316785756433  0.2805050603949505
  0.1629531772284687  0.0550599213711156  0.7050614192535605
  0.0313048134978978  0.4297920611268683  0.9576893126968311
  0.6369557577640631  0.9824983961659475  0.1966830356579737
  0.7182705685815848  0.5988033003335074  0.4138520219239852
  0.1160082918032878  0.6989851612264059  0.2691531822195238
  0.3798258932657954  0.5055559896841573  0.0622698229713330
  0.0119418457362436  0.0916033304726647  0.4755057028347989
  0.8362811163195982  0.9163931652776931  0.2805301324042255
  0.9530621557948930  0.2054280900295899  0.5441577342482714
  0.4713717306472355  0.3222420749484556  0.8522093012222017
  0.6370898698092594  0.1118217688135432  0.2977498559761148
  0.7348122115782580  0.9971969697182299  0.5764211162089710
  0.1921435417434970  0.2835812780723803  0.8730095932645913
  0.4197923819558513  0.9643641602511107  0.7596892958004350
  0.9865625069203919  0.5700942999689859  0.9558953315777545
  0.4511029145179524  0.5734163573290769  0.6873944620523569
  0.7474699798864360  0.9097651271295044  0.7956007227745618
 
 -0.43573775E-02 -0.30935781E-03 -0.62681272E-02
 -0.59949718E-02  0.10106814E-01 -0.10762544E-01
  0.21971899E-02 -0.19894052E-02 -0.17252241E-02
 -0.57850795E-03 -0.65813040E-02 -0.43947772E-02
  0.20346379E-02  0.66514399E-03  0.32688280E-03
  0.66664850E-02  0.35324172E-02 -0.60534335E-03
  0.66307425E-02  0.86804448E-02  0.12096109E-01
  0.10047751E-01 -0.38951208E-02 -0.91685264E-04
 -0.55913697E-02 -0.29988665E-02 -0.73543792E-02
  0.19956197E-02  0.12552489E-02 -0.33362595E-02
 -0.68303681E-02  0.35843033E-02 -0.25172530E-02
  0.56130385E-02  0.10845951E-01 -0.66204285E-02
 -0.78802461E-02  0.10796108E-01  0.16296428E-01
  0.15437566E-01  0.17389456E-02  0.94727222E-02
 -0.40101744E-02 -0.14675905E-03 -0.42089760E-02
  0.51013528E-02 -0.36583656E-04  0.43987986E-02
 -0.60173077E-02 -0.64644224E-02 -0.15649649E-02
 -0.52805338E-02 -0.40409594E-02  0.22328603E-02
  0.86167095E-02  0.45899441E-02  0.18305326E-02
  0.12059743E-02 -0.13281266E-02 -0.12246519E-02
 -0.16142539E-02  0.42572225E-02 -0.11542278E-02
  0.38256392E-02 -0.62713146E-02  0.80093495E-02
 -0.73749839E-03 -0.35681069E-02  0.52460715E-03
  0.82865056E-02 -0.21821511E-02  0.66419656E-02
  0.47778564E-02  0.11670225E-01 -0.70991182E-02
 -0.31139199E-02  0.69352426E-02  0.42231490E-02
  0.13592210E-02 -0.49929652E-02 -0.10895030E-01
 -0.11256740E-01  0.14662612E-01 -0.59961286E-02
  0.65909784E-02 -0.59549942E-02 -0.32940106E-02
  0.13539306E-02  0.19264943E-02 -0.20780032E-02
 -0.30078481E-02 -0.19939718E-02 -0.57956322E-02
 -0.53972526E-02  0.11077017E-01 -0.99867091E-02
  0.11298988E-01  0.91903280E-02 -0.17465810E-02
  0.11689518E-01  0.32429923E-02 -0.27509926E-02
  0.17034715E-02 -0.50464500E-02  0.91373600E-02
  0.15362120E-02 -0.58530599E-02 -0.48909537E-02
 -0.81375915E-03  0.49466616E-02 -0.44124638E-03
  0.20208192E-02 -0.42829269E-02 -0.53414552E-02
 -0.14566441E-02  0.65204962E-02 -0.37467390E-03
 -0.75325424E-02 -0.12333046E-01 -0.16423415E-02
 -0.25522869E-02 -0.16191501E-01  0.37489458E-02
  0.82231017E-02 -0.43205174E-02  0.64220029E-02
 -0.83861655E-02  0.46475770E-02  0.79898949E-02
  0.33162479E-02  0.11621170E-02  0.58783204E-02
  0.35156707E-03  0.32517347E-02  0.20135765E-02
  0.23259501E-02 -0.59597976E-02 -0.28332389E-02
  0.37290613E-02 -0.26224722E-02  0.70454288E-02
  0.13195326E-01  0.32792964E-02 -0.86152767E-02
 -0.30206726E-02  0.85102280E-02  0.10351391E-02
 -0.23931672E-02 -0.12639171E-02  0.29007024E-02
 -0.11153348E-01  0.20914069E-02 -0.10489378E-01
 -0.64714803E-02  0.27048489E-02  0.11932563E-01
 -0.16225467E-02 -0.39071144E-02 -0.16451160E-02
  0.56454987E-02 -0.59644526E-02  0.76419228E-03
 -0.46468491E-02 -0.76112244E-02  0.35678385E-02
 -0.14334171E-02  0.13065562E-03 -0.24188642E-02
 -0.10115608E-01  0.16709781E-02 -0.20991846E-02
 -0.29749363E-03  0.38818217E-02 -0.18340237E-02
  0.63729685E-03  0.81909692E-02 -0.35821584E-02
 -0.59045315E-02 -0.10008741E-02 -0.23679291E-03
  0.97491026E-02  0.88648400E-03 -0.38836790E-02
  0.38449217E-02 -0.37105792E-02 -0.15635413E-01
 -0.13550117E-01 -0.10234252E-01  0.46457400E-02
 -0.10971619E-01  0.30807880E-02  0.35347644E-03
  0.45134166E-03  0.84930698E-03  0.31668942E-02
 -0.42995989E-02  0.65615864E-02  0.12766405E-02
 -0.28621826E-02 -0.15371307E-01  0.32682264E-02
  0.14465351E-02  0.67939777E-02  0.15178250E-02
  0.15983586E-02  0.11559898E-01 -0.49864270E-02
 -0.44720525E-02 -0.75073335E-03  0.10060169E-01
  0.26495469E-02  0.17469347E-02 -0.52394068E-02
  0.13100481E-01 -0.74770521E-02  0.83996519E-02
 -0.36420458E-03  0.38089078E-02 -0.35358565E-02
 -0.13628497E-01  0.38127369E-03  0.13593291E-02
  0.26686933E-02  0.17079590E-02 -0.17299618E-02
 -0.10684532E-02  0.11864844E-03  0.59459479E-02
  0.45187189E-02 -0.68363558E-02  0.93467735E-03
  0.71758959E-02  0.17938664E-02 -0.11428835E-02
  0.65384584E-02 -0.74697651E-02  0.36783055E-02
  0.46805559E-03 -0.74328580E-03  0.55799309E-02
 -0.59116291E-02  0.43215109E-02 -0.10477249E-02
  0.11331837E-02  0.27000861E-02  0.34373561E-02
  0.11127517E-02  0.39104462E-02 -0.95966526E-02
 -0.22652586E-02  0.37678760E-02  0.51207580E-03
  0.55201804E-03  0.39135948E-02  0.15450197E-02
  0.42124096E-02  0.21353655E-02 -0.10631426E-02
  0.92344124E-02  0.46502813E-02 -0.16975717E-02
 -0.21361837E-02 -0.51231594E-03 -0.43323958E-02
  0.82278688E-02  0.61389133E-03 -0.60024293E-02
 -0.49477814E-02 -0.44673871E-02  0.13330455E-02
 -0.79666561E-02 -0.39238691E-02 -0.24970793E-02
  0.28554162E-02  0.53703711E-03 -0.78717552E-02
 -0.78984355E-02 -0.87818524E-02  0.50449548E-02
 -0.70493239E-03  0.54410411E-02  0.10741332E-01
  0.46856136E-02 -0.24441546E-02 -0.57694954E-02
  0.35942140E-02 -0.30363771E-02 -0.22904664E-04
 -0.78146263E-02 -0.70622635E-02 -0.10504321E-01
  0.36378194E-02 -0.12928182E-01 -0.16490810E-01
 -0.36492961E-02  0.29634587E-03  0.84877616E-02
 -0.49800222E-02 -0.18872604E-02 -0.40968609E-02
  0.73325706E-02 -0.84229081E-03  0.22798972E-02
  0.10588028E-01  0.13452384E-03 -0.46702047E-02
 -0.49707625E-02  0.53533824E-02 -0.40401987E-02
  0.69496989E-02 -0.10328009E-01  0.62570862E-03
 -0.38114013E-02 -0.31692406E-02  0.21533350E-02
 -0.35477717E-02 -0.27571476E-02 -0.10147071E-03
 -0.90357104E-02  0.65801147E-02  0.27260391E-02
  0.38199883E-02  0.41144561E-02  0.77252463E-02
 -0.23394561E-03 -0.57864805E-02 -0.19095195E-02
 -0.58679875E-02 -0.73213746E-02 -0.12884018E-02
 -0.14714393E-02 -0.52756448E-03  0.35492873E-02
 -0.17408363E-02  0.16927079E-02 -0.39589261E-02
  0.35192838E-02  0.24482299E-02  0.77405873E-02
  0.59673103E-03  0.26865695E-02 -0.72026384E-03
 -0.72275323E-03  0.38071087E-02 -0.78670235E-04
 -0.90797946E-03  0.93787179E-03 -0.24703374E-02
 -0.31544876E-02 -0.24503277E-02  0.82622296E-02
  0.75094121E-02  0.85026090E-02  0.24378585E-02
 -0.33356346E-02  0.47002675E-02 -0.46136757E-02
 -0.40713075E-02 -0.12473099E-01 -0.47222890E-02
 -0.14352452E-02  0.40637371E-03  0.45005268E-02
  0.51858829E-03  0.13192359E-01  0.36576420E-02
 -0.14943781E-02 -0.27398074E-02  0.53526662E-02
 -0.82807513E-03  0.98792660E-04  0.11599264E-01
  0.26296065E-02  0.65494114E-02  0.18083407E-01
  0.18982967E-02 -0.16879116E-02 -0.62211478E-02
 -0.88279887E-03  0.66828958E-02  0.25623920E-02
  0.42537845E-02 -0.40922238E-02  0.40556456E-02
 -0.58523552E-02 -0.34391843E-02  0.12010169E-02
 -0.11424134E-01  0.33383819E-02  0.51920683E-02
  0.77044843E-02  0.38305017E-02  0.77427947E-02
 -0.61443869E-02  0.41182506E-02  0.73127797E-02
 -0.19452804E-02  0.79390179E-02  0.75920499E-02
  0.39650473E-02  0.26504795E-02 -0.51326340E-02
  0.93119133E-02 -0.32386663E-02 -0.18548612E-03
 -0.14091382E-02 -0.36864883E-02 -0.29920109E-02
  0.11926179E-02  0.52979022E-02 -0.56022878E-03
  0.43696966E-02  0.56559595E-02  0.93892730E-04
 -0.20335631E-02 -0.10649786E-01  0.16570805E-02
  0.66560778E-02  0.65313470E-02 -0.41703458E-02
 -0.37742968E-02 -0.63003137E-02  0.66853652E-03
  0.54952015E-02  0.79210507E-04  0.18408201E-02
 -0.69482202E-02 -0.81142941E-02  0.40266651E-02
  0.52935737E-02  0.10241277E-01 -0.11215412E-01
  0.97470356E-02 -0.68817195E-02  0.76534337E-03
 -0.17968663E-01 -0.50040688E-02 -0.32331483E-02
  0.27859957E-02  0.26309564E-02  0.48639044E-02
  0.36033629E-03 -0.84489708E-02 -0.18197468E-02
  0.52314010E-02  0.85695078E-02  0.20607280E-02
 -0.77479679E-02 -0.76184789E-03 -0.28616060E-02
  0.29188940E-02 -0.25512474E-02 -0.19468432E-03
 -0.17160527E-02 -0.54893900E-02 -0.39840940E-02
 -0.89521681E-03  0.77584326E-03  0.42041810E-02
  0.31036023E-02 -0.26209606E-02 -0.83369689E-02
  0.71427004E-03 -0.56659385E-03  0.46571545E-03
  0.19727738E-02  0.42336703E-02 -0.37095697E-02
  0.16371041E-02  0.46583324E-02  0.49794477E-02
  0.58134390E-03  0.59552347E-03  0.22513937E-02
  0.37787488E-02 -0.53867032E-02  0.83612570E-03
 -0.12315241E-01 -0.23143291E-02 -0.96849509E-03
  0.74022680E-02  0.40788523E-02 -0.17297708E-02
 -0.50944726E-03 -0.21713875E-02  0.28790639E-02
  0.44303977E-02  0.34460822E-02 -0.41085849E-02
 -0.70795034E-03  0.40076500E-02 -0.14230256E-02
  0.41125829E-02 -0.19674783E-02  0.47047906E-02
  0.31347085E-02  0.46505247E-02 -0.27045946E-02
  0.55341063E-03 -0.50000768E-02 -0.56103374E-02
 -0.35806169E-02  0.90352285E-02 -0.30786123E-02
 -0.16762173E-02 -0.49678921E-02 -0.23440710E-02
 -0.30027903E-02 -0.29211119E-02  0.18068573E-02
  0.55837324E-02  0.18535142E-02 -0.82328316E-03
  0.18658928E-04  0.75979555E-02 -0.64294955E-02
 -0.34301666E-02  0.36667032E-02  0.57656733E-02
 -0.97104937E-03  0.77783311E-03  0.77143681E-03
 -0.22265627E-02  0.38879518E-02 -0.10447722E-01
  0.52247275E-02  0.32242632E-02  0.14020294E-02
  0.13126455E-02 -0.74489406E-03 -0.17258511E-02
 -0.29059610E-02  0.73206263E-02  0.25316600E-02
  0.49638745E-02 -0.48036907E-02  0.53497694E-02
 -0.19226183E-02  0.94377464E-02  0.33990258E-02
  0.80263333E-02  0.11061075E-02  0.66351419E-02
 -0.10244952E-02  0.38345599E-03 -0.10993996E-02
 -0.24832947E-02 -0.53550363E-02 -0.25328464E-02
  0.34228846E-02  0.45429970E-02 -0.15671481E-02
  0.57046968E-02  0.40805548E-02  0.48988804E-02
  0.59753418E-02 -0.51313510E-02  0.99903795E-03
 -0.14483931E-02  0.12071250E-02 -0.66986212E-03
 -0.13254197E-03  0.22028582E-03 -0.64736928E-02
 -0.63629154E-02 -0.10528928E-02 -0.11963068E-02
 -0.26999903E-04 -0.45195504E-02  0.22956997E-02
 -0.60627154E-02 -0.34360346E-02  0.51059636E-02
 -0.48549433E-02  0.73602980E-03 -0.28796219E-02
 -0.36453038E-02 -0.20222701E-02  0.10862331E-02
 -0.63624383E-02  0.79816715E-02  0.71239006E-02
  0.93239668E-03  0.20735201E-02 -0.11156352E-01
  0.68149798E-03  0.53536227E-02 -0.51949478E-03
  0.65660484E-02 -0.23886406E-02 -0.74994656E-02
  0.52441805E-02  0.17046145E-03  0.74307702E-02
  0.99659391E-03 -0.18970182E-02  0.52508969E-02
 -0.86097498E-03  0.30509262E-02 -0.12171039E-02
  0.12644521E-02  0.39472064E-02  0.48070918E-02
 -0.24085611E-02 -0.45225055E-03  0.27133687E-02
 -0.36386064E-02 -0.27765125E-02 -0.67554567E-02
  0.12963456E-02  0.79398658E-04  0.43576130E-03
  0.43329528E-02 -0.23325117E-02 -0.52458622E-02
  0.29564396E-02  0.63996688E-02 -0.37022638E-02
 -0.25874381E-02  0.61505311E-03  0.32074498E-02
  0.41387938E-02  0.79563341E-03  0.18177468E-02
  0.86294816E-03 -0.13611572E-03 -0.16817720E-02
  0.32967748E-02  0.30099393E-02 -0.69990224E-02
 -0.65985419E-02  0.14427198E-02  0.60557968E-02
  0.30825600E-02 -0.25137463E-02 -0.30586302E-03
  0.14450824E-02  0.47518541E-03  0.93433596E-02
  0.10987775E-02 -0.31561251E-03 -0.10321316E-01
 -0.38781887E-02 -0.14034875E-01 -0.63788035E-03
  0.44822456E-02  0.56111982E-02 -0.53055163E-02
 -0.23093121E-02 -0.31293447E-02 -0.10370356E-01
  0.34779577E-02  0.37224074E-02 -0.86192267E-03
  0.88211380E-03  0.54135350E-02 -0.18383223E-02
 -0.16157806E-02 -0.18066980E-02 -0.31671414E-02
 -0.37142328E-02  0.27807438E-02  0.47693224E-02