In2O3 structure 27 - random placement wi
   1.00000000000000     
     8.1900641212023935    0.0931310476467600    0.0202444538362373
     0.0917887615890046    8.1832493664953727    0.0207437588937086
     0.0194949975585132    0.0201987940053433    8.0202529281768360
   In   O 
    16    24
Direct
  0.7014400001898106  0.5607752052740952  0.5181685598704675
  0.9241206143466990  0.7836765361675113  0.7678913244660702
  0.8916829867934929  0.2761306594783547  0.7743285466190626
  0.6673866045560856  0.5402314362513615  0.0310473968577068
  0.9444473947759516  0.8174667302854093  0.2557091241050680
  0.2082872170252498  0.5936011427649125  0.5129753925323621
  0.4429045737188101  0.3190196816128535  0.2525348608512505
  0.4042921673406526  0.7966064033821110  0.7695337068123559
  0.1639424653196404  0.5384662161081260  0.0278912775443677
  0.6894920692130819  0.0814381807626819  0.5160554122840409
  0.4434598812770741  0.8183597898545830  0.2482817518805797
  0.1870524384937828  0.0586936737203906  0.5304286837761562
  0.9464923863172373  0.3209177173769643  0.2581845314399583
  0.6658372348063967  0.0405517284354799  0.0388027830340187
  0.1658632360077137  0.0410424901271434  0.0338507790854225
  0.4281288121414907  0.2982569726984632  0.7564305258585928
  0.4142439281152834  0.4309600040808992  0.9927003618535840
  0.7010338875114280  0.2833720482898524  0.1397791092232690
  0.9438905048956043  0.6870285782965200  0.4987281233859591
  0.0485967105628990  0.2852962940360649 -0.0058856447965200
  0.7975720827632822  0.5406024736423608  0.7881009675587859
  0.1668579457597833  0.6938390326412327  0.8019741576948518
  0.4112872796769803  0.0725858623653604  0.1434632144284334
  0.1902100313083812  0.4018381782391363  0.6945892972213259
  0.4395334236741527  0.1912795557971824  0.4962954620974540
  0.9100342080237294  0.5744320915682539  0.1430422142802033
  0.6923778870308843  0.9181322548132196  0.3071936638714959
  0.7943955958733844  0.3184160977534687  0.4861930691866329
  0.6536842075297280  0.1570390399712915  0.7892885044339055
  0.3275936381390395  0.8320598774685232  0.4975320064999946
  0.9262186569685793  0.0168450045477570  0.6406143787308353
  0.1987441359558817  0.4363826251499790  0.2932037583132842
  0.5557528794851527  0.5734518330044784  0.2879387067824471
  0.2943286304658937  0.0466733876154353  0.7905232608822270
  0.2001770000653966  0.7827390410933021  0.1486747475178059
  0.0857185285735979  0.2974516647084318  0.5960737720162064
  0.4681357828365972  0.5593374774995956  0.6445178896132402
  0.9107088293349345  0.9288478844785061 -0.0018432003595905
  0.5653825885648943  0.7923280972489587  0.9803483829111037
  0.0540848754680239  0.0706411080454305  0.2942422708898645
 
  0.00000000E+00  0.00000000E+00  0.00000000E+00
  0.00000000E+00  0.00000000E+00  0.00000000E+00
  0.00000000E+00  0.00000000E+00  0.00000000E+00
  0.00000000E+00  0.00000000E+00  0.00000000E+00
  0.00000000E+00  0.00000000E+00  0.00000000E+00
  0.00000000E+00  0.00000000E+00  0.00000000E+00
  0.00000000E+00  0.00000000E+00  0.00000000E+00
  0.00000000E+00  0.00000000E+00  0.00000000E+00
  0.00000000E+00  0.00000000E+00  0.00000000E+00
  0.00000000E+00  0.00000000E+00  0.00000000E+00
  0.00000000E+00  0.00000000E+00  0.00000000E+00
  0.00000000E+00  0.00000000E+00  0.00000000E+00
  0.00000000E+00  0.00000000E+00  0.00000000E+00
  0.00000000E+00  0.00000000E+00  0.00000000E+00
  0.00000000E+00  0.00000000E+00  0.00000000E+00
  0.00000000E+00  0.00000000E+00  0.00000000E+00
  0.00000000E+00  0.00000000E+00  0.00000000E+00
  0.00000000E+00  0.00000000E+00  0.00000000E+00
  0.00000000E+00  0.00000000E+00  0.00000000E+00
  0.00000000E+00  0.00000000E+00  0.00000000E+00
  0.00000000E+00  0.00000000E+00  0.00000000E+00
  0.00000000E+00  0.00000000E+00  0.00000000E+00
  0.00000000E+00  0.00000000E+00  0.00000000E+00
  0.00000000E+00  0.00000000E+00  0.00000000E+00
  0.00000000E+00  0.00000000E+00  0.00000000E+00
  0.00000000E+00  0.00000000E+00  0.00000000E+00
  0.00000000E+00  0.00000000E+00  0.00000000E+00
  0.00000000E+00  0.00000000E+00  0.00000000E+00
  0.00000000E+00  0.00000000E+00  0.00000000E+00
  0.00000000E+00  0.00000000E+00  0.00000000E+00
  0.00000000E+00  0.00000000E+00  0.00000000E+00
  0.00000000E+00  0.00000000E+00  0.00000000E+00
  0.00000000E+00  0.00000000E+00  0.00000000E+00
  0.00000000E+00  0.00000000E+00  0.00000000E+00
  0.00000000E+00  0.00000000E+00  0.00000000E+00
  0.00000000E+00  0.00000000E+00  0.00000000E+00
  0.00000000E+00  0.00000000E+00  0.00000000E+00
  0.00000000E+00  0.00000000E+00  0.00000000E+00
  0.00000000E+00  0.00000000E+00  0.00000000E+00
  0.00000000E+00  0.00000000E+00  0.00000000E+00
