Amorphous AlTe                          
   1.00000000000000     
    19.6072922372385534    0.0000000000000000    0.0000000000000000
     0.0000000000000000   19.6072922372385534    0.0000000000000000
     0.0000000000000000    0.0000000000000000   19.6072922372385534
   B    Te
   120   180
Direct
  0.8603367556170016  0.8359808444356821  0.8142819656308679
  0.6611177928402248  0.6928278304335943  0.5239990084776527
  0.3164905824998627  0.9055468614250867  0.8405659394701266
  0.7556039370630774  0.7669857450499870  0.9626579550922161
  0.5215370653805446  0.0647037818191403  0.4649757131624040
  0.9421917416506148  0.4421183545681736  0.6839283265382240
  0.5772443436914546  0.7843471096906427  0.9546239591172366
  0.0244082081781285  0.5903414329917257  0.3426496374022561
  0.2347998902605813  0.2486670523224531  0.6461708717780640
  0.5582551025552478  0.1682445885854875  0.5561711819733005
  0.2071801863948812  0.1689268530707434  0.6265469000562599
  0.6215969244086907  0.3225899045313823  0.6258763512979660
  0.9510687177784085  0.0899510569504030  0.1615552706643995
  0.5939352133741828  0.9130552194697060  0.5538690016898208
  0.5755116661753772  0.1625404685801259  0.8948759214593751
  0.5806872496696519  0.6054014906156060  0.0992592220477691
  0.4171871594686724  0.8098262534911467  0.2805061670879357
  0.5314729719426973  0.3492407754966609  0.3687781204278768
  0.6489817438370451  0.8626499438228641  0.5086484347141100
  0.8798939292886180  0.1277315529901522  0.2017358157720638
  0.6580058296631267  0.2078992479253796  0.8750828831894470
  0.9720444082220122  0.4805611265657679  0.7535463568339431
  0.3512352515337645  0.0585904106486390  0.6541534477607353
  0.8859210361584542  0.1267971349491612  0.1089294513699590
  0.6402716821540217  0.2440378518989375  0.3728348357480196
  0.1334157981653369  0.2816724466966035  0.0002198566983714
  0.0489145029231449  0.3064197316283668  0.3882290725726719
  0.8163124007565353  0.7047682788294087  0.9318429263567288
  0.5699663738297933  0.4843397410830447  0.5668433144267268
  0.7045947383911896  0.1743432649601950  0.6361469786443981
  0.6885213227384516  0.6236778370979335  0.4799965281766213
  0.8368852958374161  0.5165867838844087  0.9065975658235980
  0.9557345982262141  0.7800969178530642  0.9199252907071155
  0.3269631965953667  0.2284170934455174  0.7569996213333132
  0.0093096688117310  0.3411071941769032  0.5765870449573408
  0.7819272683544670  0.4527402987547148  0.8644349407613738
  0.9433127218094042  0.8199453058127512  0.3300258812554303
  0.3975095009285769  0.5144179680781105  0.4028673715074367
  0.9802393946766614  0.8996140508561027  0.4537387444344802
  0.4793162587340892  0.2941281897278255  0.4075003314545857
  0.6778194640438031  0.0981224431405500  0.9962002299479061
  0.8809764583684088  0.7151678496446744  0.5870222248027834
  0.1664303726785973  0.6542755090106073  0.3733677104348651
  0.8675987482034049  0.4154114393024432  0.0138704301875165
  0.5075784010087182  0.0905651572920899  0.1901904382262188
  0.6193619797881039  0.6175450816419875  0.5403557494042110
  0.2943602878703057  0.8246165514191891  0.6903741623212165
  0.0209641033685836  0.0971533079310462  0.8134847774573014
  0.8806359034274344  0.7655634455690736  0.1770010937848725
  0.6911391686566125  0.0642070921898575  0.9148824171191966
  0.5860490843284760  0.4300603569314722  0.0974389168967827
  0.0149077503144824  0.1965759680498875  0.6942257995082144
  0.6239150940649187  0.6859882178422072  0.6035790936153569
  0.0249517943874938  0.5643479333577689  0.4234246470030664
  0.8709035695895597  0.5162211447007098  0.3001585724924853
  0.6453610169093525  0.1195994587381794  0.8621830354234673
  0.2738531044139175  0.7573998474241977  0.6426075625673514
  0.0539975550652301  0.1454562681488345  0.7505074737898961
  0.3000606648192921  0.3927514363626320  0.5678827515784727
  0.4456884866321526  0.0476355871288289  0.8840884998086345
  0.6078780671757217  0.0937154634009965  0.9417905527107971
  0.3778438056369345  0.0617892743941311  0.0679991284250445
  0.0012622110216989  0.4049597937480793  0.6341409855743637
  0.1479238531973081  0.2493860862364769  0.2513301297103508
  0.7414405283476918  0.4674442256006934  0.1083554151174738
  0.2551546786891772  0.3899626307835665  0.7251550386447599
  0.3369382779311534  0.9741086536741581  0.6483212639134055
  0.5230243040538365  0.7295045071844449  0.2069663843912822
  0.7223663704804830  0.4598319858949693  0.1931647056079740
  0.7405206682511147  0.5588469551245960  0.3579555825940171
  0.4898514342948809  0.6969677510052332  0.8581961237320169
  0.0155096186086837  0.2357930831477345  0.1647280089777101
  0.1028662628707565  0.2483105982717315  0.1768225552087082
  0.3270514292823575  0.6380338077035645  0.7885252487567878
  0.5325656140880113  0.7309021779423350  0.0093388119245986
  0.6873174226075036  0.3590320072492004  0.3401527493429625
  0.2787639456095646  0.3056763490590997  0.5984706296468042
  0.6092019775440076  0.3201149970119190  0.3382367677883307
  0.2782514720542677  0.6753885472202310  0.0503680513589154
  0.3776837482551091  0.4939953998400152  0.4848143274709996
  0.2931310055053071  0.3551599229565495  0.0231066349777595
  0.2178294795968396  0.6726930101589390  0.1127875342830481
  0.5665506022208752  0.5539218202028778  0.5198310294562631
  0.6915144783792259  0.6188668979158183  0.3937877144076730
  0.6468480612278378  0.1782598390235782  0.7015818242891030
  0.2587169173822880  0.4635151475389738  0.6006295377292747
  0.1198821613007262  0.3276759758241112  0.2189690637021015
  0.9142401255066336  0.9824674338009614  0.2941509982308406
  0.0258565568810534  0.8555978279896643  0.1515126924566535
  0.5396891140744635  0.1185795396529361  0.3971960868653092
  0.7469013929970241  0.6774125256706510  0.5233417886094861
  0.7628030799353065  0.1023354851903686  0.9615907589062302
  0.0396283779316890  0.7061674667224920  0.0430700019056220
  0.9910698356202454  0.0144142677589954  0.1753563097425790
  0.3297337544066300  0.3175032890592154  0.0894284007328239
  0.2539843341913902  0.3867637142726053  0.6362362208731996
  0.2679995770163141  0.0164633710882747  0.9680781408958523
  0.8402687285086194  0.4323820595788244  0.9329616907434743
  0.8984731397728796  0.7249801220551956  0.9536302066293733
  0.9917197298480736  0.9814154348775690  0.2574003676485039
  0.2590775982183172  0.2889032891073640  0.1345920117244347
  0.2261720958605454  0.4664718786352803  0.7584724997847384
  0.2940603496164381  0.8706101300382910  0.5059029360637763
  0.6120777475264887  0.7048832939166370  0.9747107453907859
  0.0622307655947035  0.3212062906418003  0.1512929131944356
  0.7085670308377928  0.7223607477136105  0.5941620444515441
  0.8327437059394728  0.7477687847076354  0.0097789524617645
  0.3572251398781678  0.4127975633219468  0.5072767825748299
  0.5795114741306240  0.6626772505025897  0.0387676242439344
  0.5029463372661931  0.1047414856561938  0.5376805352966981
  0.2810492524651367  0.6987813777206768  0.8321201521087471
  0.6742440234951517  0.7627282795567091  0.9916186723562548
  0.2866786500824011  0.9099796979645625  0.6746610712681740
  0.4988969871727601  0.7935032838265346  0.2579228683101800
  0.0573368977315886  0.4796151083750496  0.7557170891985638
  0.2926803410002156  0.8794612107431952  0.4182316540249694
  0.2108598630039588  0.4548320029164371  0.6730590183360989
  0.8872911167901859  0.4921669874451735  0.9751859882852568
  0.4649254105594541  0.1309202437132173  0.3556710832099016
  0.2431235069835922  0.7743274641044428  0.2716990488529987
  0.0974988551938911  0.4790499283663884  0.6503137315297141
  0.9609217926176659  0.9094777083822099  0.5676669862813905
  0.8008703619478421  0.0824682477747806  0.8535064970551954
  0.9336777872152280  0.3263618541285090  0.0269682992595281
  0.2682869137711369  0.0250019878557137  0.0856149516722490
  0.2235527652087399  0.2824100594827734  0.7570881043121892
  0.5402038009239295  0.8871827271234111  0.2957148646584752
  0.8089282508702323  0.8606933536910222  0.0110136507181829
  0.9970545801224509  0.3585796577720153  0.7597603651432498
  0.3079803939915641  0.5039994601746177  0.3312442453444777
  0.3007420401825017  0.3600406030001391  0.2902477135719330
  0.6406238482862573  0.1320830322118360  0.3352308648309569
  0.1178369334804036  0.6237073934754848  0.0714834034213738
  0.8317525193024942  0.7405742113057635  0.4857527104232355
  0.7252971785911612  0.2809466408555059  0.5954520094167690
  0.4402821362727357  0.0519667166230522  0.2758588559517129
  0.4519208121631211  0.5726744742718847  0.5414387307345406
  0.4326034707744447  0.2368328115017167  0.3205661271699899
  0.1970322065628306  0.8374567235645483  0.3617530665680634
  0.3822106706227225  0.2504214993976384  0.8576364712238772
  0.2597315042067444  0.2241716309939506  0.2345056238668785
  0.0715647075565808  0.6916659938897102  0.3175729513082645
  0.9922329354240372  0.1668078034790133  0.0750954219168699
  0.7082303379036619  0.4556774878653256  0.4041704685282573
  0.4672933154915447  0.0632802547779696  0.6391122488136308
  0.6763746832149404  0.9488216159488172  0.4329231355647210
  0.1574614957211898  0.1039530890875177  0.7096156086126284
  0.5574041308195832  0.2209264448706215  0.4521709653607998
  0.8616104297136971  0.4071981863998393  0.3351953560550401
  0.8879423608946679  0.9099373077760156  0.3800874940291082
  0.4064816522323590  0.1043839557967412  0.4567201575129425
  0.5541781704479103  0.2313154305205289  0.6523933190909441
  0.0613049389068921  0.7858685912274092  0.9655508729032752
  0.4235580285914813  0.3191591571243066  0.5025509947077507
  0.6656686716558057  0.1230090930855890  0.5403052500584424
  0.1743417591460172  0.2180468736638722  0.0883105128998578
  0.7423653638232967  0.2790059634515469  0.4086034596344039
  0.4134843880058325  0.2514329234192359  0.0414563892757839
  0.7970412459722219  0.7030615898425966  0.6716731551115718
  0.0498961623092671  0.6209309182877895  0.5197522390617876
  0.2123166240441048  0.9160405404564469  0.5815711260431026
  0.4190687389655693  0.9588964157909436  0.8140809805407111
  0.7721425097121842  0.5521862752229177  0.2470925451743701
  0.6183277535524593  0.0795486010264105  0.7579766748553248
  0.2613874593964223  0.5905044263948339  0.1842452753170278
  0.6746747660295165  0.7845325440656559  0.1108656014128327
  0.0302792864910858  0.8714415749839900  0.2667920930924861
  0.2890240343158918  0.9905530880777964  0.3798797690573364
  0.0502753371169156  0.3785236949345726  0.2965194229746637
  0.7233790667863266  0.2088044600661070  0.9754814138563358
  0.8502772186172469  0.5794008532497736  0.3998168766156592
  0.5244501580093855  0.9517573698597489  0.4664371296835930
  0.7569040365646158  0.3697989177728286  0.0475705947964031
  0.0717881510909425  0.0135055714151816  0.8787469367998950
  0.4839580748326000  0.4343962566167917  0.0431567731240426
  0.2430163187361087  0.7183141167994235  0.9468355536213096
  0.6486350302825346  0.5183730364623841  0.0515052220496534
  0.5986511047823083  0.6525574657295496  0.8707279285404242
  0.3132868477723737  0.5215766674791165  0.8112700132440779
  0.5180159778931182  0.7924949793043381  0.1063179980039351
  0.9652570252660075  0.7850396422659782  0.7999417871894758
  0.7648210653591198  0.5632857675339780  0.5403198620905554
  0.6326113492148502  0.3826420083538232  0.7260889922845700
  0.3232584512930666  0.5642436966119064  0.0521337246623869
  0.5408262524599133  0.8708772589590000  0.6475086980793663
  0.5862536930608754  0.3813290579462061  0.5327213446423825
  0.6605635873245500  0.6066272651309438  0.6765328784940213
  0.3604055548171090  0.7547532939333375  0.0663902160961353
  0.9405767437902536  0.2656319838515952  0.4021315574768793
  0.6836556616902062  0.8727592825878668  0.7138696637673121
  0.9781372692278979  0.1680450426409174  0.2503943757273084
  0.0761900199765579  0.2529417251152097  0.9021980121246318
  0.3607836453905823  0.0905742583657223  0.9546054770274744
  0.4873117602916888  0.1389454105178420  0.8194239046585449
  0.7368648668508833  0.8334622758170254  0.5769085866350974
  0.7546232930821061  0.3610302116469357  0.2447925868072933
  0.3278024210460396  0.8286296704103349  0.2138513434022754
  0.4126326228809944  0.1449758107595026  0.1403754610488971
  0.9093620476946893  0.2447310951144397  0.7067749878874474
  0.3767425330977208  0.2664600259371224  0.6607460945937188
  0.2602931560921514  0.4495127175989473  0.9790708062712049
  0.8534216445627167  0.5039571740948088  0.0902219338206958
  0.2660177441167062  0.6474330051426830  0.6823127943692966
  0.5362667510531679  0.8023697298519167  0.8488463873918815
  0.6277354869053855  0.8814360110755201  0.9932523756164529
  0.8396481532938959  0.0521747909188536  0.0338749781085280
  0.8525360376333928  0.0399121411953009  0.5798430355496003
  0.9088922583511264  0.8860364440955535  0.9071291379467868
  0.4849836181586993  0.4531128911493734  0.3436740443848331
  0.9462568229320404  0.6462846985572388  0.0173909312815463
  0.1275172447221715  0.8851394344877661  0.1055992380400501
  0.8151993572677944  0.2061077589162936  0.1503814877921285
  0.7805554968302957  0.5099554637593378  0.7620202405164264
  0.6905202986144484  0.0403787106500615  0.0930786069163254
  0.1513749369236599  0.6053810464556179  0.9239774567919875
  0.9958540453484862  0.7458807849282088  0.1481415595058534
  0.3151105400880806  0.1112541434429740  0.7555715713395896
  0.5542238930177210  0.3125187928539800  0.2360856645798155
  0.4124136853159973  0.9591137502183007  0.0966023595807150
  0.9127829733869819  0.5516450455520389  0.8215688281353679
  0.4431919538563129  0.6772336098901950  0.9634581978422628
  0.1685594064004276  0.7508142485439602  0.1851625839887038
  0.5695565245280838  0.2718697395146809  0.9258197723946350
  0.9637900914183858  0.4716184969664091  0.4536755339581291
  0.5200013627022277  0.7349109677745981  0.6114272936529448
  0.3958897325846163  0.8267864598951515  0.3877009020178690
  0.6831580539704124  0.9050895831996993  0.2965979982581662
  0.2334305075595880  0.2978766709457229  0.9411802203681510
  0.9683997551343225  0.5522638367223681  0.2517809205249696
  0.8300691543369766  0.0529954048429783  0.2723590499549374
  0.2658296817434090  0.6705299391345254  0.3165657060728357
  0.8296812251786345  0.9062290506060026  0.7308152333841715
  0.5958665811740921  0.1618368677166950  0.2016000234949832
  0.2625273702032271  0.3902248808912884  0.4381663791563935
  0.7016318967581616  0.2486398831837096  0.7775033767391512
  0.8335267320606908  0.4236441745123901  0.6597611322380484
  0.9496835297491913  0.0335254827358159  0.7457174548469035
  0.5530965341828742  0.5012694860681453  0.6769364965357875
  0.9282257695352104  0.6108174460377476  0.5983793696101906
  0.3928480046850473  0.3949717515603117  0.1524543479814797
  0.0726453457444141  0.3727170009183107  0.4839824313398206
  0.8798145622339592  0.7340883750370054  0.2882536504524572
  0.6028910310258055  0.4613740634149735  0.2088010047836506
  0.9114627262687053  0.2846107125563900  0.5546065267762247
  0.9514319663120712  0.3411174910164284  0.1736158963236019
  0.1095282150856239  0.8995167393940700  0.7876865912718879
  0.1623167665365892  0.7943947060560123  0.6499529554739334
  0.8095138774540689  0.7009455123271797  0.1131069651479194
  0.9638025168128908  0.1610143386404452  0.8907593783779975
  0.5288598561687397  0.0162098440904488  0.9564094490285953
  0.6017386869913818  0.7679348025257230  0.4585496865941929
  0.3908154111829795  0.9216612493446745  0.5554448208995748
  0.2017413135603299  0.9678076280085013  0.2681530694551079
  0.6744504946535426  0.4244388325624405  0.9008283067911396
  0.2779222246486217  0.0946897069033348  0.5719787009689290
  0.0813421985286005  0.2763534485184114  0.6397888014149549
  0.1354561575967493  0.5415441916753885  0.3786629696099270
  0.4373307466095087  0.6578732944584892  0.2346545646504391
  0.2879302608639561  0.2513519559784010  0.4934000468888143
  0.0180231689821569  0.0975233955805759  0.6294253800862142
  0.5510367952711380  0.9973959316800093  0.1395752584209849
  0.8494352749197783  0.8761623246947561  0.1906856004896872
  0.4782574101094856  0.5602923986120127  0.1339152891666212
  0.3750227390673329  0.4083798826405006  0.7218963595169864
  0.2784193555691979  0.5473727773835838  0.5302366282142547
  0.9852310542302133  0.1291174758280886  0.4327804539801288
  0.0905749983425399  0.0261712171365380  0.1133128317990095
  0.8385305150945999  0.3493606782319695  0.8580483576993283
  0.4414958043346959  0.6236597900368361  0.3966939472781286
  0.1739369087690661  0.7235131199607474  0.4680231762973472
  0.4421550936122160  0.6388826933383692  0.7723766793469625
  0.7636481358777537  0.6020715665946891  0.9316000598258831
  0.7181401052103525  0.9579808820627886  0.8848292393067050
  0.9516481256448389  0.9304020700784810  0.1058549290415475
  0.3106084619986937  0.7576148933325517  0.5331061430763068
  0.1913854883554585  0.0842155101392750  0.9142287389796458
  0.2041357751182666  0.3886139163669821  0.1700003209870856
  0.6614628307830133  0.9932692551648792  0.6092429603747082
  0.6865314020791030  0.7217489438983387  0.3478023062427024
  0.2397641950651445  0.9575270499445746  0.7712183635293109
  0.1337991172722641  0.1880123631552310  0.5371455402435329
  0.8488596823179475  0.0863115296460973  0.4467988925926666
  0.8004543612633509  0.1277792135586809  0.6800469494157131
  0.5614234994087293  0.5084208902336075  0.8675887752410438
  0.0663477783823595  0.9744118954005114  0.4524600076910056
  0.9978707699062324  0.7864336321210805  0.4269561556223339
  0.1251881744174238  0.2242151886770130  0.3606678397778763
  0.2846188395799473  0.9062749693140043  0.9489469957463866
  0.9725180155172196  0.7752122959470161  0.6168501268167371
  0.0745589202898721  0.0369523678264932  0.3202501579701357
  0.7714217889593318  0.7673780375450103  0.8437629159989819
  0.0894811407572642  0.3744645131435394  0.0527066750742570
  0.9960687972807863  0.5228856165343393  0.9538223143279686
  0.6193102180908119  0.6652497344618433  0.1937652718023743
  0.5863516902003263  0.5456904546156522  0.4032753726024171
  0.1365762320783381  0.4667305638807481  0.8304981437915308
  0.6218575296807860  0.3206043795141829  0.0939902414740868
  0.1724654253018634  0.6845789071992869  0.7887780338020690
  0.4872696436317594  0.3406809138778838  0.8123686090076927
  0.3377911023331969  0.7999218725326215  0.7944236294880520
 
  0.00000000E+00  0.00000000E+00  0.00000000E+00
  0.00000000E+00  0.00000000E+00  0.00000000E+00
  0.00000000E+00  0.00000000E+00  0.00000000E+00
  0.00000000E+00  0.00000000E+00  0.00000000E+00
  0.00000000E+00  0.00000000E+00  0.00000000E+00
  0.00000000E+00  0.00000000E+00  0.00000000E+00
  0.00000000E+00  0.00000000E+00  0.00000000E+00
  0.00000000E+00  0.00000000E+00  0.00000000E+00
  0.00000000E+00  0.00000000E+00  0.00000000E+00
  0.00000000E+00  0.00000000E+00  0.00000000E+00
  0.00000000E+00  0.00000000E+00  0.00000000E+00
  0.00000000E+00  0.00000000E+00  0.00000000E+00
  0.00000000E+00  0.00000000E+00  0.00000000E+00
  0.00000000E+00  0.00000000E+00  0.00000000E+00
  0.00000000E+00  0.00000000E+00  0.00000000E+00
  0.00000000E+00  0.00000000E+00  0.00000000E+00
  0.00000000E+00  0.00000000E+00  0.00000000E+00
  0.00000000E+00  0.00000000E+00  0.00000000E+00
  0.00000000E+00  0.00000000E+00  0.00000000E+00
  0.00000000E+00  0.00000000E+00  0.00000000E+00
  0.00000000E+00  0.00000000E+00  0.00000000E+00
  0.00000000E+00  0.00000000E+00  0.00000000E+00
  0.00000000E+00  0.00000000E+00  0.00000000E+00
  0.00000000E+00  0.00000000E+00  0.00000000E+00
  0.00000000E+00  0.00000000E+00  0.00000000E+00
  0.00000000E+00  0.00000000E+00  0.00000000E+00
  0.00000000E+00  0.00000000E+00  0.00000000E+00
  0.00000000E+00  0.00000000E+00  0.00000000E+00
  0.00000000E+00  0.00000000E+00  0.00000000E+00
  0.00000000E+00  0.00000000E+00  0.00000000E+00
  0.00000000E+00  0.00000000E+00  0.00000000E+00
  0.00000000E+00  0.00000000E+00  0.00000000E+00
  0.00000000E+00  0.00000000E+00  0.00000000E+00
  0.00000000E+00  0.00000000E+00  0.00000000E+00
  0.00000000E+00  0.00000000E+00  0.00000000E+00
  0.00000000E+00  0.00000000E+00  0.00000000E+00
  0.00000000E+00  0.00000000E+00  0.00000000E+00
  0.00000000E+00  0.00000000E+00  0.00000000E+00
  0.00000000E+00  0.00000000E+00  0.00000000E+00
  0.00000000E+00  0.00000000E+00  0.00000000E+00
  0.00000000E+00  0.00000000E+00  0.00000000E+00
  0.00000000E+00  0.00000000E+00  0.00000000E+00
  0.00000000E+00  0.00000000E+00  0.00000000E+00
  0.00000000E+00  0.00000000E+00  0.00000000E+00
  0.00000000E+00  0.00000000E+00  0.00000000E+00
  0.00000000E+00  0.00000000E+00  0.00000000E+00
  0.00000000E+00  0.00000000E+00  0.00000000E+00
  0.00000000E+00  0.00000000E+00  0.00000000E+00
  0.00000000E+00  0.00000000E+00  0.00000000E+00
  0.00000000E+00  0.00000000E+00  0.00000000E+00
  0.00000000E+00  0.00000000E+00  0.00000000E+00
  0.00000000E+00  0.00000000E+00  0.00000000E+00
  0.00000000E+00  0.00000000E+00  0.00000000E+00
  0.00000000E+00  0.00000000E+00  0.00000000E+00
  0.00000000E+00  0.00000000E+00  0.00000000E+00
  0.00000000E+00  0.00000000E+00  0.00000000E+00
  0.00000000E+00  0.00000000E+00  0.00000000E+00
  0.00000000E+00  0.00000000E+00  0.00000000E+00
  0.00000000E+00  0.00000000E+00  0.00000000E+00
  0.00000000E+00  0.00000000E+00  0.00000000E+00
  0.00000000E+00  0.00000000E+00  0.00000000E+00
  0.00000000E+00  0.00000000E+00  0.00000000E+00
  0.00000000E+00  0.00000000E+00  0.00000000E+00
  0.00000000E+00  0.00000000E+00  0.00000000E+00
  0.00000000E+00  0.00000000E+00  0.00000000E+00
  0.00000000E+00  0.00000000E+00  0.00000000E+00
  0.00000000E+00  0.00000000E+00  0.00000000E+00
  0.00000000E+00  0.00000000E+00  0.00000000E+00
  0.00000000E+00  0.00000000E+00  0.00000000E+00
  0.00000000E+00  0.00000000E+00  0.00000000E+00
  0.00000000E+00  0.00000000E+00  0.00000000E+00
  0.00000000E+00  0.00000000E+00  0.00000000E+00
  0.00000000E+00  0.00000000E+00  0.00000000E+00
  0.00000000E+00  0.00000000E+00  0.00000000E+00
  0.00000000E+00  0.00000000E+00  0.00000000E+00
  0.00000000E+00  0.00000000E+00  0.00000000E+00
  0.00000000E+00  0.00000000E+00  0.00000000E+00
  0.00000000E+00  0.00000000E+00  0.00000000E+00
  0.00000000E+00  0.00000000E+00  0.00000000E+00
  0.00000000E+00  0.00000000E+00  0.00000000E+00
  0.00000000E+00  0.00000000E+00  0.00000000E+00
  0.00000000E+00  0.00000000E+00  0.00000000E+00
  0.00000000E+00  0.00000000E+00  0.00000000E+00
  0.00000000E+00  0.00000000E+00  0.00000000E+00
  0.00000000E+00  0.00000000E+00  0.00000000E+00
  0.00000000E+00  0.00000000E+00  0.00000000E+00
  0.00000000E+00  0.00000000E+00  0.00000000E+00
  0.00000000E+00  0.00000000E+00  0.00000000E+00
  0.00000000E+00  0.00000000E+00  0.00000000E+00
  0.00000000E+00  0.00000000E+00  0.00000000E+00
  0.00000000E+00  0.00000000E+00  0.00000000E+00
  0.00000000E+00  0.00000000E+00  0.00000000E+00
  0.00000000E+00  0.00000000E+00  0.00000000E+00
  0.00000000E+00  0.00000000E+00  0.00000000E+00
  0.00000000E+00  0.00000000E+00  0.00000000E+00
  0.00000000E+00  0.00000000E+00  0.00000000E+00
  0.00000000E+00  0.00000000E+00  0.00000000E+00
  0.00000000E+00  0.00000000E+00  0.00000000E+00
  0.00000000E+00  0.00000000E+00  0.00000000E+00
  0.00000000E+00  0.00000000E+00  0.00000000E+00
  0.00000000E+00  0.00000000E+00  0.00000000E+00
  0.00000000E+00  0.00000000E+00  0.00000000E+00
  0.00000000E+00  0.00000000E+00  0.00000000E+00
  0.00000000E+00  0.00000000E+00  0.00000000E+00
  0.00000000E+00  0.00000000E+00  0.00000000E+00
  0.00000000E+00  0.00000000E+00  0.00000000E+00
  0.00000000E+00  0.00000000E+00  0.00000000E+00
  0.00000000E+00  0.00000000E+00  0.00000000E+00
  0.00000000E+00  0.00000000E+00  0.00000000E+00
  0.00000000E+00  0.00000000E+00  0.00000000E+00
  0.00000000E+00  0.00000000E+00  0.00000000E+00
  0.00000000E+00  0.00000000E+00  0.00000000E+00
  0.00000000E+00  0.00000000E+00  0.00000000E+00
  0.00000000E+00  0.00000000E+00  0.00000000E+00
  0.00000000E+00  0.00000000E+00  0.00000000E+00
  0.00000000E+00  0.00000000E+00  0.00000000E+00
  0.00000000E+00  0.00000000E+00  0.00000000E+00
  0.00000000E+00  0.00000000E+00  0.00000000E+00
  0.00000000E+00  0.00000000E+00  0.00000000E+00
  0.00000000E+00  0.00000000E+00  0.00000000E+00
  0.00000000E+00  0.00000000E+00  0.00000000E+00
  0.00000000E+00  0.00000000E+00  0.00000000E+00
  0.00000000E+00  0.00000000E+00  0.00000000E+00
  0.00000000E+00  0.00000000E+00  0.00000000E+00
  0.00000000E+00  0.00000000E+00  0.00000000E+00
  0.00000000E+00  0.00000000E+00  0.00000000E+00
  0.00000000E+00  0.00000000E+00  0.00000000E+00
  0.00000000E+00  0.00000000E+00  0.00000000E+00
  0.00000000E+00  0.00000000E+00  0.00000000E+00
  0.00000000E+00  0.00000000E+00  0.00000000E+00
  0.00000000E+00  0.00000000E+00  0.00000000E+00
  0.00000000E+00  0.00000000E+00  0.00000000E+00
  0.00000000E+00  0.00000000E+00  0.00000000E+00
  0.00000000E+00  0.00000000E+00  0.00000000E+00
  0.00000000E+00  0.00000000E+00  0.00000000E+00
  0.00000000E+00  0.00000000E+00  0.00000000E+00
  0.00000000E+00  0.00000000E+00  0.00000000E+00
  0.00000000E+00  0.00000000E+00  0.00000000E+00
  0.00000000E+00  0.00000000E+00  0.00000000E+00
  0.00000000E+00  0.00000000E+00  0.00000000E+00
  0.00000000E+00  0.00000000E+00  0.00000000E+00
  0.00000000E+00  0.00000000E+00  0.00000000E+00
  0.00000000E+00  0.00000000E+00  0.00000000E+00
  0.00000000E+00  0.00000000E+00  0.00000000E+00
  0.00000000E+00  0.00000000E+00  0.00000000E+00
  0.00000000E+00  0.00000000E+00  0.00000000E+00
  0.00000000E+00  0.00000000E+00  0.00000000E+00
  0.00000000E+00  0.00000000E+00  0.00000000E+00
  0.00000000E+00  0.00000000E+00  0.00000000E+00
  0.00000000E+00  0.00000000E+00  0.00000000E+00
  0.00000000E+00  0.00000000E+00  0.00000000E+00
  0.00000000E+00  0.00000000E+00  0.00000000E+00
  0.00000000E+00  0.00000000E+00  0.00000000E+00
  0.00000000E+00  0.00000000E+00  0.00000000E+00
  0.00000000E+00  0.00000000E+00  0.00000000E+00
  0.00000000E+00  0.00000000E+00  0.00000000E+00
  0.00000000E+00  0.00000000E+00  0.00000000E+00
  0.00000000E+00  0.00000000E+00  0.00000000E+00
  0.00000000E+00  0.00000000E+00  0.00000000E+00
  0.00000000E+00  0.00000000E+00  0.00000000E+00
  0.00000000E+00  0.00000000E+00  0.00000000E+00
  0.00000000E+00  0.00000000E+00  0.00000000E+00
  0.00000000E+00  0.00000000E+00  0.00000000E+00
  0.00000000E+00  0.00000000E+00  0.00000000E+00
  0.00000000E+00  0.00000000E+00  0.00000000E+00
  0.00000000E+00  0.00000000E+00  0.00000000E+00
  0.00000000E+00  0.00000000E+00  0.00000000E+00
  0.00000000E+00  0.00000000E+00  0.00000000E+00
  0.00000000E+00  0.00000000E+00  0.00000000E+00
  0.00000000E+00  0.00000000E+00  0.00000000E+00
  0.00000000E+00  0.00000000E+00  0.00000000E+00
  0.00000000E+00  0.00000000E+00  0.00000000E+00
  0.00000000E+00  0.00000000E+00  0.00000000E+00
  0.00000000E+00  0.00000000E+00  0.00000000E+00
  0.00000000E+00  0.00000000E+00  0.00000000E+00
  0.00000000E+00  0.00000000E+00  0.00000000E+00
  0.00000000E+00  0.00000000E+00  0.00000000E+00
  0.00000000E+00  0.00000000E+00  0.00000000E+00
  0.00000000E+00  0.00000000E+00  0.00000000E+00
  0.00000000E+00  0.00000000E+00  0.00000000E+00
  0.00000000E+00  0.00000000E+00  0.00000000E+00
  0.00000000E+00  0.00000000E+00  0.00000000E+00
  0.00000000E+00  0.00000000E+00  0.00000000E+00
  0.00000000E+00  0.00000000E+00  0.00000000E+00
  0.00000000E+00  0.00000000E+00  0.00000000E+00
  0.00000000E+00  0.00000000E+00  0.00000000E+00
  0.00000000E+00  0.00000000E+00  0.00000000E+00
  0.00000000E+00  0.00000000E+00  0.00000000E+00
  0.00000000E+00  0.00000000E+00  0.00000000E+00
  0.00000000E+00  0.00000000E+00  0.00000000E+00
  0.00000000E+00  0.00000000E+00  0.00000000E+00
  0.00000000E+00  0.00000000E+00  0.00000000E+00
  0.00000000E+00  0.00000000E+00  0.00000000E+00
  0.00000000E+00  0.00000000E+00  0.00000000E+00
  0.00000000E+00  0.00000000E+00  0.00000000E+00
  0.00000000E+00  0.00000000E+00  0.00000000E+00
  0.00000000E+00  0.00000000E+00  0.00000000E+00
  0.00000000E+00  0.00000000E+00  0.00000000E+00
  0.00000000E+00  0.00000000E+00  0.00000000E+00
  0.00000000E+00  0.00000000E+00  0.00000000E+00
  0.00000000E+00  0.00000000E+00  0.00000000E+00
  0.00000000E+00  0.00000000E+00  0.00000000E+00
  0.00000000E+00  0.00000000E+00  0.00000000E+00
  0.00000000E+00  0.00000000E+00  0.00000000E+00
  0.00000000E+00  0.00000000E+00  0.00000000E+00
  0.00000000E+00  0.00000000E+00  0.00000000E+00
  0.00000000E+00  0.00000000E+00  0.00000000E+00
  0.00000000E+00  0.00000000E+00  0.00000000E+00
  0.00000000E+00  0.00000000E+00  0.00000000E+00
  0.00000000E+00  0.00000000E+00  0.00000000E+00
  0.00000000E+00  0.00000000E+00  0.00000000E+00
  0.00000000E+00  0.00000000E+00  0.00000000E+00
  0.00000000E+00  0.00000000E+00  0.00000000E+00
  0.00000000E+00  0.00000000E+00  0.00000000E+00
  0.00000000E+00  0.00000000E+00  0.00000000E+00
  0.00000000E+00  0.00000000E+00  0.00000000E+00
  0.00000000E+00  0.00000000E+00  0.00000000E+00
  0.00000000E+00  0.00000000E+00  0.00000000E+00
  0.00000000E+00  0.00000000E+00  0.00000000E+00
  0.00000000E+00  0.00000000E+00  0.00000000E+00
  0.00000000E+00  0.00000000E+00  0.00000000E+00
  0.00000000E+00  0.00000000E+00  0.00000000E+00
  0.00000000E+00  0.00000000E+00  0.00000000E+00
  0.00000000E+00  0.00000000E+00  0.00000000E+00
  0.00000000E+00  0.00000000E+00  0.00000000E+00
  0.00000000E+00  0.00000000E+00  0.00000000E+00
  0.00000000E+00  0.00000000E+00  0.00000000E+00
  0.00000000E+00  0.00000000E+00  0.00000000E+00
  0.00000000E+00  0.00000000E+00  0.00000000E+00
  0.00000000E+00  0.00000000E+00  0.00000000E+00
  0.00000000E+00  0.00000000E+00  0.00000000E+00
  0.00000000E+00  0.00000000E+00  0.00000000E+00