Amorphous GeAsSeSi                      
   1.00000000000000     
    19.4649999999999999    0.0000000000000000    0.0000000000000000
     0.0000000000000000   19.4649999999999999    0.0000000000000000
     0.0000000000000000    0.0000000000000000   19.4649999999999999
   Ge   Se
   150   150
Direct
  0.4469948367166363  0.7791548785181569  0.6671138290497912
  0.6737880206103959  0.5995109455421515  0.3436469292097203
  0.0939935653561171  0.1030808638601040  0.7029731503408481
  0.2359086205795676  0.4422077873934983  0.7657791288406725
  0.7899981766151283  0.0332152855205880  0.1239880381361979
  0.9945151756802567  0.0970880671958363  0.2031677437705975
  0.8427437735127713  0.2651532006124702  0.2407583236475870
  0.9124805935687195  0.9793493371651398  0.3250018106141206
  0.8915278162683601  0.3702501861319109 -0.0098523731658593
  0.1992764595917510  0.7829377299514302  0.7141738991808766
  0.7937979347722474  0.1776309213183966  0.0009868039245697
  0.9204075502324991  0.5336553205747642  0.2265838696240687
  0.7468380372729834  0.6646883420280992  0.8353728532889620
  0.2369133289365073  0.5940172820868088  0.0630417193102525
  0.0529876150320833  0.4803977190545793  0.4359363230925967
  0.0175881921162907  0.7814316443855793  0.5087691193741323
  0.7639129987258205  0.6428568599027513  0.6060689320530778
  0.6093902821140189  0.8107373157284410  0.8337197699535546
  0.1631300888240095  0.7612981339436310  0.9013075843528293
  0.9146738686333669  0.0772861598286761  0.0267116443755937
  0.5475168336556034  0.9318172548936695  0.2090340312495343
  0.8403056524285707  0.5662535673706730  0.0076795374504143
  0.1464760558716661  0.7745999774588879  0.4021947196377905
  0.8395605527194698  0.0461960291956292  0.5450095887402947
  0.4091218585909527  0.9602767680475729  0.4518538762650312
  0.4801671241972309  0.6863157603113945  0.0710709358069550
  0.4018951416684483  0.7103136355440326  0.9075435920474278
  0.8899018408790695  0.6719855974954453  0.6012610631961529
  0.4592578097837670  0.0728251328438575  0.6937062442820372
  0.7362277975827600  0.1832735790547947  0.2609436701125252
  0.6765947335308717  0.3639769726890075  0.6020002941438239
  0.1038671766497316  0.1822269860479513  0.1158003710952497
  0.4036644154670556  0.4903567003017025  0.1291966326639994
  0.9128796932639854  0.1638227706764739  0.3863971914502415
  0.9312707706521625  0.5649599190044086  0.5391192260226881
  0.5577475142570535  0.8017181500778116  0.1937351556433864
  0.3798094670714986  0.7800263368374712  0.4695858775930940
  0.8256402504403448  0.1380294886781223  0.7155957217731552
  0.1758649187392031  0.5823680013215601  0.4094230091639818
  0.2934361209206102  0.9852617054494406  0.9343762544288606
  0.7701109622037881  0.9883682968155719  0.3745933697409641
  0.0275946391426696  0.2810955384019898  0.5922674589630980
  0.3956606563045521  0.1942629547989235  0.7464536262392714
  0.7746956693757969  0.2655390970484288  0.7201934610317106
  0.5452715778947997  0.1119083165764682  0.5294573914573758
  0.2554814836454429  0.7697150842527900  0.2295193804592337
  0.8263497149686856  0.8479562013759278  0.6337883851730498
  0.1265431389935830  0.9184261504459632  0.9352798786522718
  0.7178263347608488  0.8854298328529842  0.9569284514334986
  0.2390642882629088  0.1195230271065006  0.3388300677629547
  0.6518036539116527  0.2046085028497765  0.6809972115558569
  0.0762908227519551  0.0070488649786637  0.0283624156991709
  0.3892475481280445  0.5100326932325163  0.9282025561298691
  0.9670707053572323  0.8065831585463259  0.0324604968448950
  0.7920300738219145  0.4929490809332773  0.4616166901918621
  0.4893165289125180  0.3812138432975788  0.9721058544117505
  0.9172148695983081  0.8427755607813552  0.3494716136092839
  0.9720789038674810  0.0175074121376827  0.6853889855344842
  0.6231498594263014  0.0646725539608503  0.1579643362099551
  0.8715305249272446  0.7731671635148620  0.1371799189933589
  0.4626456513366243  0.9374473831052506  0.8532786099561436
  0.7463430841033010  0.5246877377206594  0.6716290056916007
  0.8435508464173469  0.4399810799215225  0.3423732688091292
  0.7791775122157323  0.7604327987244311  0.2425906744464975
  0.4381053134590979  0.5166362655729896  0.7360545085062025
  0.0893578805822984  0.6150705408942769  0.2730186745331267
  0.5212245643014504  0.3580595764855334  0.7260192896387458
  0.0485475001489299  0.4085171892327398  0.9112163483977082
  0.2810158963436440  0.0407668318082166  0.0848589662761384
  0.1121793035459166  0.2432056582699180  0.4584128829045039
  0.5253606924001810  0.4055707865814213  0.4899244763746558
  0.0588659489764459  0.8048548072237850  0.6330283512704413
  0.1770139658678868  0.0234719194892060  0.4817798874249344
  0.7482516165969407  0.4675522323908043  0.8443846796665700
 -0.0064719092153491  0.4146837337690022  0.6365524598132999
  0.7148455157279737  0.2845018527725375  0.8689392788922329
  0.3340876847965869  0.5284890628200510  0.5121844660551983
  0.0596992064329795  0.5487038535209197  0.8305063118475795
  0.6986319226778703  0.4040183100856113  0.1671575170743548
  0.4547712780954239  0.0815977696221254  0.1845615409389980
  0.5219884169689860  0.5508313362892630  0.1197071519475019
  0.9946455316567753  0.2668664908218932  0.1148130415222970
  0.6602683814026158  0.7226016973697347  0.7550348616105970
  0.5875267741356752  0.4457345892402166  0.6562035900725250
  0.7353394828976744  0.9511241866567769  0.7618250769318552
  0.7746099609976768  0.5785145830609785  0.1968169145645478
  0.1808186531985581  0.6723646337742188  0.6280793930131294
  0.8962874473981592  0.0628124456826781  0.8140098540885459
  0.4110364084831795  0.0907111323025467  0.9509238891681231
  0.3990693374782162  0.4379424897944129  0.3303673314200843
  0.2391316914385014  0.1965249768123155  0.8380261527618552
  0.6734655829509165  0.3486673593725508  0.3449119723034468
  0.9600296105801422  0.3839809274652273  0.3069765685782347
  0.2423610943778226  0.5955712505926481  0.8682975831460268
  0.5497763832419346  0.5702492548024998  0.8679733180462045
  0.2515122858607908  0.8757946570472183  0.4264931612609593
  0.9010145591742164  0.8684601792744620  0.8538651459462759
  0.5520774657088758  0.5230402553898323  0.3399678653438391
  0.3869079216057395  0.6059478343171196  0.4077978222648030
  0.6538710902331316  0.4074061704716062  0.0256597036476166
  0.3459013781440738  0.1328284134460294  0.5135243939385347
  0.0730055565948888  0.8699893193661115  0.2125540688680495
  0.2834876432132481  0.3449829169685524  0.3322839272693907
  0.3850193401940838  0.9500134545404703  0.0577607645056575
  0.6361052958110491  0.9844156998663930  0.3734724035029257
  0.9400807568490341  0.6906610635473444  0.3724145331048692
  0.6710873704022425  0.6326413740680646  0.0340186743971908
  0.3074388052468075  0.9244490556671631  0.7364435835015446
  0.3098395826909868  0.6279462930099614  0.6993107882934131
  0.5460254581521089  0.1936518990665582  0.0506225814529995
  0.6859010110636043  0.9784304814912960  0.5836566142656876
  0.3734423038765516  0.7990278288839333  0.1641959432376152
  0.2784454552328037  0.7827368624136672 -0.0112124263923863
  0.0976868899433411  0.7137209716955119  0.1185852711475719
  0.0153026197912671  0.7181716730753083  0.9406591250965144
  0.7497965459682646  0.7448447726157738  0.4229435675343598
  0.8299264571002437  0.7363969557821910  0.9119001381776598
  0.0688598361595407  0.2960136450820879  0.7716615714734024
  0.0634300964329842  0.0571108470712272  0.4043739357713089
  0.7742634080156049  0.2290592120245410  0.5087399134932454
  0.3316215630545951  0.3227055226958497  0.4569367496300353
  0.3057261648071092  0.9565696943846558  0.2817899408244159
  0.3140536800379145  0.0520217476228154  0.6896145682042072
  0.6662397439956367  0.0801948666070182  0.8889487849993576
  0.0837597839453016  0.3829600463255530  0.1424328385427247
  0.1700840462240689  0.4066958036900866  0.4660543054995765
  0.2858840066423971  0.6880458383740256  0.5080571743123722
  0.2090634778381682  0.3931806742049523  0.0218262738175710
  0.9360918954726808  0.1445084820089299  0.6079998490335830
  0.7007110662017096  0.8650066264100527  0.1452832444357778
  0.6527120732030701  0.7435070528910585  0.2554255076579716
  0.8925936274620001  0.7070370639584553  0.7304564205438284
  0.4771722594364162  0.2317912423822122  0.3494573541258773
  0.9367073058957351  0.4043594535554857  0.1077100122622547
  0.5776228678229334  0.8221972575627741  0.5125134556775910
  0.5250295814817766  0.5962451917824974  0.6538013037896363
  0.2812269467631635  0.2083399687761337  0.1903947088769207
  0.6533482750781328  0.1464741901412827  0.4418345399058886
  0.5179032567696672  0.3423151303655284  0.2082663446552322
 -0.0055136030116527  0.1947067773068823  0.8727528331721539
  0.6795755570621107  0.7392023703287968  0.6297715692879896
  0.3148310003240298  0.3193841756328628  0.6781493974936429
  0.2096607937953751  0.5066300407733433  0.2272973568740769
  0.1589117942870213  0.9277858283821847  0.6202981804941502
  0.1387599980932542  0.2242453412184236  0.9226122641197037
  0.3462087021943768  0.2511900178734159  0.0820177724431353
  0.4951547917719619  0.1935551384607743  0.8363194234615142
  0.0110220448723350  0.6587288873145346  0.7694903064679387
  0.9281886518496179  0.3839256589254324  0.8039190739308248
  0.6321216750368737  0.5402302868509337  0.5485895183838957
  0.1554121493392864  0.0576233090837292  0.1184346265488123
  0.8271360190245108  0.3621115621997926  0.1603962485532633
  0.3665077202560693  0.8619303238425764  0.3612572291068386
  0.5460607995915527  0.9079589327632545  0.3360585846630164
  0.6626432339408856  0.1965951484843408  0.9491486487398799
  0.0156767010325255  0.0365661473139254  0.8593254364509916
  0.0929271857706983  0.4549640664368884  0.0262775429717684
  0.9881742712923418  0.3708833738711433  0.4304857661868461
  0.5846986183045270  0.0933353335897225  0.6532100848306786
  0.5815805411216184  0.6970394423528189  0.5651478938684353
  0.2536439693337914  0.7319205337678162  0.8175237151364516
  0.0439264482564323  0.5119546193349308  0.5647133036195835
  0.3720664462169258  0.4195766122933638  0.0291456629074801
  0.6719605618156912  0.7658450250158931  0.9330611836344173
  0.1235799411717619  0.5737524314106776  0.1540195053098339
  0.8957780593308288  0.1836583418507831  0.1038323863610702
  0.8903081585672262  0.4601819584262832  0.9053055529849957
  0.2142528784098076  0.3962468042488210  0.1583248843025296
  0.8654796435268601  0.1729367444168426  0.8787880599823927
  0.1621538325489827  0.2142226040951926  0.2246399310781151
  0.4368919091999446  0.0483157846049860  0.5662679730523775
  0.6802497814261618  0.4239988548544993  0.4892686403938476
  0.5250847471315793  0.3962642656220257  0.3551184712141234
  0.5448380412860621  0.6613331930975450  0.7642804673599239
  0.3119059053702879  0.5699325040388595  0.1698200777654990
  0.7824135992187875  0.3082916934729358 -0.0130251154249487
  0.7754172310654611  0.8219014530125313  0.7537169258745224
  0.4120223714343364  0.6571142581101878  0.6196780753278007
  0.4526827716431837  0.2078381770092435  0.1489703545512794
  0.8185202585984059  0.9727322405925539  0.8660939236475269
  0.4579323578285236  0.2237102455402793  0.9553269593052928
  0.5868339591151169  0.7639229564732968  0.0787732291630691
  0.2345575474374252  0.3204680666311223  0.5382782292270604
  0.1897382979646514  0.7693389033104189  0.5340790394598093
  0.7513340175623434  0.1353131826226085  0.5989934033097628
  0.1758072457095637  0.9052986210217261  0.7522281727046266
  0.9387197578119304  0.0430605307376470  0.4374783355943387
  0.1553469667063250  0.3428480635665817  0.8698643075699433
  0.4626058310622601  0.9488687016151308  0.7232368566145218
 -0.0286476235298823  0.4902723480836219  0.7398506023730439
  0.3907246689083551  0.3911896722308403  0.2063278206878748
  0.2107015560226234  0.1529421113517319  0.4631270336602641
  0.9717386323137821  0.2661167789833727  0.2486627374389803
  0.7357101456690178  0.4789512185560272  0.2744948542105081
  0.8468923333306954  0.9784988191838807  0.6610600660626902
  0.1814860929305598  0.0274898906349043  0.8914735463147634
  0.0306774852583823  0.1254075856618974  0.9879901129435233
  0.6471094625001339  0.6227733419437065  0.2142937722142972
  0.1122022900397274  0.3654091511869638  0.6690715240588552
  0.2632338231654536  0.4792916361184327  0.4083125057565169
  0.7232452535084817  0.1510414440863796  0.1355834644916887
  0.6045753177375068  0.2651637034427637  0.5784142786299881
  0.8091251577341071  0.8755325116939777  0.0803809634194752
  0.4346478619656393  0.5609491347389718  0.2940539825627150
  0.5528637732419587  0.4945718784788102  0.0071899431388869
  0.7102167729638629  0.9793209278384752  0.2134012419126305
  0.8143109062401935  0.5739133716421517  0.7715479936604088
  0.0533755398099489  0.8653359493346093  0.4222505025080948
  0.8066318758091194  0.3890440436468824  0.7503245452529810
  0.5890329195611838  0.9856408631299685  0.4942699298919518
  0.2744465999000485  0.6701344002013481  0.3756133920567232
  0.0536072797735435  0.6699667440282953  0.6459789708018072
  0.0497091535117755  0.1763286344429384  0.3649487531477653
  0.9259134090360654  0.5633535298731550  0.4124853048137225
  0.0406046348410561  0.4659768768885683  0.2517778886962095
  0.1697489167336950  0.5580079367772909  0.7590876844380339
  0.1997833798041373  0.5743631748935024  0.5397184215938463
  0.1184268321241556  0.7453487283779229  0.2476798277491817
  0.8910650458051733  0.7563570969628568  0.5052398082791181
  0.9434469435993118  0.8217163587072230  0.6908177875683299
  0.8012917989188822  0.6652078290624018  0.3287795686522669
  0.4521815706906740  0.4152391923475700  0.8125389584540130
  0.2710287696789687  0.4660336475590151  0.8926869286912648
  0.5208919778830566  0.6747414859772541  0.9421317530592275
  0.1963224475460593  0.0532793547345695  0.6375610333219434
  0.5715227024983246  0.4653061167116685  0.2027607623468213
  0.0343059961879365  0.9537174597754806  0.5940695520618915
  0.2320959142046353  0.9021545230684991  0.0174011183935574
  0.2301017649077730  0.7230868858228209  0.0991032255423746
  0.3270832541329810  0.2238885925641715  0.3074515180870136
  0.0804023157869062  0.8434577586238799  0.0815560513455033
  0.8727229280221015  0.0724880263737916  0.2449512264431414
  0.3577387655488961  0.0682666231088487  0.3868976359307262
  0.5431200621955828  0.0813101963399808  0.8417533820742115
  0.6804014404936699  0.5829997342299187  0.9089345886797701
  0.4546513826892856  0.8492093759617297  0.5494108520813245
  0.9390740669049279  0.8508859237598947  0.2215973502148370
  0.4772886461945950  0.0405292096362861  0.0541109617470817
  0.2969399539640931  0.9510145534337942  0.5207474852446000
  0.4039319974113326  0.8013068298773969  0.0336631319295660
  0.3958584029196834  0.4101072810450239  0.5210970811475170
  0.0529784044781176  0.7685138797962018  0.8245286852029535
  0.8572234311352364  0.4690613723526438  0.5674977997081594
  0.1949949224476220  0.9740786206926954  0.3579169500043982
  0.3116057200746845  0.1900517036523023  0.6427932502760895
  0.2263976028908435  0.8902166221526617  0.1992425591911223
  0.9529359049514033  0.2423727209660272  0.6954283524063265
  0.3179110063845043  0.0826806639729435  0.2007553919909098
  0.6605261343076467  0.2894137119893984  0.2286840523458234
  0.0383979953737564  0.0022278670638805  0.2875743035334731
  0.3175743372124538  0.8201399516463500  0.6627099347360216
  0.1809475041391980  0.2585442427121210  0.0388943768536549
  0.9377109030151547  0.5355563205125080  0.0962303888155850
  0.3081710145952842  0.1452338132152683  0.0142123791324058
  0.4177317524741099  0.9194552279740682  0.1855890207426734
  0.7376010285416212  0.5229002670321705  0.0833828381615919
  0.0000042400153492  0.9371622479070014  0.7849679551189864
  0.8083917304906605  0.3144524901259357  0.3601238734391460
  0.9922170414620259  0.2964671209433691  0.9624982404902885
  0.6340209249212495  0.8608058833870244  0.6259443681983481
  0.3786989122786620  0.6059301833265164  0.8128281111844488
  0.9777250083951509  0.0012303846380775  0.1141181911440427
  0.5543604726899333  0.3252190983306225  0.0737265857242636
  0.5223509549515293  0.5364619025835534  0.4787966931920593
  0.4642673967821240  0.7031636147982061  0.4212113907490176
  0.4793581713064006  0.0995890377868083  0.3458207345741073
  0.9541095570682981  0.9103481274622290  0.9643570197799605
  0.7820503916340045  0.8450750821422240  0.3372916025279714
  0.6207361549338707  0.9111351491132262  0.0476283859321307
  0.6682350938224548  0.0272433852888992  0.0406385582647168
  0.7131818444699808  0.1032623961030589  0.7677404213695540
  0.4247217221930644  0.2342401730692954  0.4746000693475795
  0.3348096297738978  0.8897626088001440  0.8565661329412049
  0.7930173725970296  0.6877258442068347  0.0326299909527030
  0.1592418616620742  0.3279798640829882  0.3640786684590514
  0.7302319698725326  0.6088203444556316  0.4873677942520003
  0.6259349688045448  0.7218820164913748  0.3759846059755852
  0.6373950801215765  0.3853201953396683  0.8982822958419010
  0.3253526910958205  0.4956382531600089  0.6769680233059777
  0.5874902142200853  0.2651413799495506  0.7861445405758909
  0.7759490741801496  0.1174289082171169  0.4025238131387399
  0.3252649855477929  0.2865772855500089  0.8125116409251312
  0.4603406054161281  0.7280237905668299  0.2203105782015949
  0.0633270704190662  0.1497398281609556  0.5817027760600944
  0.9244890669490534  0.6413620435311137  0.9049750878739777
  0.6134415480625843  0.0998997011895616  0.3223046988188107
  0.4441315496154573  0.2861751436947881  0.6598750687007247
  0.0588692230871336  0.6785940715075085  0.4407904988993145
  0.3538053423931499  0.6148100460392332 -0.0037739261800347
  0.9068474985938835  0.2249124127839438  0.5053964731806655
  0.9685656137259269  0.6524595077473454  0.2416860027181750
  0.7955758143705847  0.3193170114448226  0.6025430017164521
  0.6435394244616128  0.5051789211919752  0.7525541704665788
  0.6007701073675056  0.2587136753824704  0.4090984831143686
  0.6346708192564867  0.9310857217641120  0.8534571604615092
  0.1637146885529301  0.2115694850274410  0.7337715311168804
  0.3174513235585876  0.0971667871386262  0.8124887963092460
  0.1231507561434561  0.6441215262825956  0.9492475526611321
  0.4843732207172112  0.8105947977878238  0.8312066866987987
  0.7779952883638981  0.9384663369764772  0.4950613433198645
 
  0.00000000E+00  0.00000000E+00  0.00000000E+00
  0.00000000E+00  0.00000000E+00  0.00000000E+00
  0.00000000E+00  0.00000000E+00  0.00000000E+00
  0.00000000E+00  0.00000000E+00  0.00000000E+00
  0.00000000E+00  0.00000000E+00  0.00000000E+00
  0.00000000E+00  0.00000000E+00  0.00000000E+00
  0.00000000E+00  0.00000000E+00  0.00000000E+00
  0.00000000E+00  0.00000000E+00  0.00000000E+00
  0.00000000E+00  0.00000000E+00  0.00000000E+00
  0.00000000E+00  0.00000000E+00  0.00000000E+00
  0.00000000E+00  0.00000000E+00  0.00000000E+00
  0.00000000E+00  0.00000000E+00  0.00000000E+00
  0.00000000E+00  0.00000000E+00  0.00000000E+00
  0.00000000E+00  0.00000000E+00  0.00000000E+00
  0.00000000E+00  0.00000000E+00  0.00000000E+00
  0.00000000E+00  0.00000000E+00  0.00000000E+00
  0.00000000E+00  0.00000000E+00  0.00000000E+00
  0.00000000E+00  0.00000000E+00  0.00000000E+00
  0.00000000E+00  0.00000000E+00  0.00000000E+00
  0.00000000E+00  0.00000000E+00  0.00000000E+00
  0.00000000E+00  0.00000000E+00  0.00000000E+00
  0.00000000E+00  0.00000000E+00  0.00000000E+00
  0.00000000E+00  0.00000000E+00  0.00000000E+00
  0.00000000E+00  0.00000000E+00  0.00000000E+00
  0.00000000E+00  0.00000000E+00  0.00000000E+00
  0.00000000E+00  0.00000000E+00  0.00000000E+00
  0.00000000E+00  0.00000000E+00  0.00000000E+00
  0.00000000E+00  0.00000000E+00  0.00000000E+00
  0.00000000E+00  0.00000000E+00  0.00000000E+00
  0.00000000E+00  0.00000000E+00  0.00000000E+00
  0.00000000E+00  0.00000000E+00  0.00000000E+00
  0.00000000E+00  0.00000000E+00  0.00000000E+00
  0.00000000E+00  0.00000000E+00  0.00000000E+00
  0.00000000E+00  0.00000000E+00  0.00000000E+00
  0.00000000E+00  0.00000000E+00  0.00000000E+00
  0.00000000E+00  0.00000000E+00  0.00000000E+00
  0.00000000E+00  0.00000000E+00  0.00000000E+00
  0.00000000E+00  0.00000000E+00  0.00000000E+00
  0.00000000E+00  0.00000000E+00  0.00000000E+00
  0.00000000E+00  0.00000000E+00  0.00000000E+00
  0.00000000E+00  0.00000000E+00  0.00000000E+00
  0.00000000E+00  0.00000000E+00  0.00000000E+00
  0.00000000E+00  0.00000000E+00  0.00000000E+00
  0.00000000E+00  0.00000000E+00  0.00000000E+00
  0.00000000E+00  0.00000000E+00  0.00000000E+00
  0.00000000E+00  0.00000000E+00  0.00000000E+00
  0.00000000E+00  0.00000000E+00  0.00000000E+00
  0.00000000E+00  0.00000000E+00  0.00000000E+00
  0.00000000E+00  0.00000000E+00  0.00000000E+00
  0.00000000E+00  0.00000000E+00  0.00000000E+00
  0.00000000E+00  0.00000000E+00  0.00000000E+00
  0.00000000E+00  0.00000000E+00  0.00000000E+00
  0.00000000E+00  0.00000000E+00  0.00000000E+00
  0.00000000E+00  0.00000000E+00  0.00000000E+00
  0.00000000E+00  0.00000000E+00  0.00000000E+00
  0.00000000E+00  0.00000000E+00  0.00000000E+00
  0.00000000E+00  0.00000000E+00  0.00000000E+00
  0.00000000E+00  0.00000000E+00  0.00000000E+00
  0.00000000E+00  0.00000000E+00  0.00000000E+00
  0.00000000E+00  0.00000000E+00  0.00000000E+00
  0.00000000E+00  0.00000000E+00  0.00000000E+00
  0.00000000E+00  0.00000000E+00  0.00000000E+00
  0.00000000E+00  0.00000000E+00  0.00000000E+00
  0.00000000E+00  0.00000000E+00  0.00000000E+00
  0.00000000E+00  0.00000000E+00  0.00000000E+00
  0.00000000E+00  0.00000000E+00  0.00000000E+00
  0.00000000E+00  0.00000000E+00  0.00000000E+00
  0.00000000E+00  0.00000000E+00  0.00000000E+00
  0.00000000E+00  0.00000000E+00  0.00000000E+00
  0.00000000E+00  0.00000000E+00  0.00000000E+00
  0.00000000E+00  0.00000000E+00  0.00000000E+00
  0.00000000E+00  0.00000000E+00  0.00000000E+00
  0.00000000E+00  0.00000000E+00  0.00000000E+00
  0.00000000E+00  0.00000000E+00  0.00000000E+00
  0.00000000E+00  0.00000000E+00  0.00000000E+00
  0.00000000E+00  0.00000000E+00  0.00000000E+00
  0.00000000E+00  0.00000000E+00  0.00000000E+00
  0.00000000E+00  0.00000000E+00  0.00000000E+00
  0.00000000E+00  0.00000000E+00  0.00000000E+00
  0.00000000E+00  0.00000000E+00  0.00000000E+00
  0.00000000E+00  0.00000000E+00  0.00000000E+00
  0.00000000E+00  0.00000000E+00  0.00000000E+00
  0.00000000E+00  0.00000000E+00  0.00000000E+00
  0.00000000E+00  0.00000000E+00  0.00000000E+00
  0.00000000E+00  0.00000000E+00  0.00000000E+00
  0.00000000E+00  0.00000000E+00  0.00000000E+00
  0.00000000E+00  0.00000000E+00  0.00000000E+00
  0.00000000E+00  0.00000000E+00  0.00000000E+00
  0.00000000E+00  0.00000000E+00  0.00000000E+00
  0.00000000E+00  0.00000000E+00  0.00000000E+00
  0.00000000E+00  0.00000000E+00  0.00000000E+00
  0.00000000E+00  0.00000000E+00  0.00000000E+00
  0.00000000E+00  0.00000000E+00  0.00000000E+00
  0.00000000E+00  0.00000000E+00  0.00000000E+00
  0.00000000E+00  0.00000000E+00  0.00000000E+00
  0.00000000E+00  0.00000000E+00  0.00000000E+00
  0.00000000E+00  0.00000000E+00  0.00000000E+00
  0.00000000E+00  0.00000000E+00  0.00000000E+00
  0.00000000E+00  0.00000000E+00  0.00000000E+00
  0.00000000E+00  0.00000000E+00  0.00000000E+00
  0.00000000E+00  0.00000000E+00  0.00000000E+00
  0.00000000E+00  0.00000000E+00  0.00000000E+00
  0.00000000E+00  0.00000000E+00  0.00000000E+00
  0.00000000E+00  0.00000000E+00  0.00000000E+00
  0.00000000E+00  0.00000000E+00  0.00000000E+00
  0.00000000E+00  0.00000000E+00  0.00000000E+00
  0.00000000E+00  0.00000000E+00  0.00000000E+00
  0.00000000E+00  0.00000000E+00  0.00000000E+00
  0.00000000E+00  0.00000000E+00  0.00000000E+00
  0.00000000E+00  0.00000000E+00  0.00000000E+00
  0.00000000E+00  0.00000000E+00  0.00000000E+00
  0.00000000E+00  0.00000000E+00  0.00000000E+00
  0.00000000E+00  0.00000000E+00  0.00000000E+00
  0.00000000E+00  0.00000000E+00  0.00000000E+00
  0.00000000E+00  0.00000000E+00  0.00000000E+00
  0.00000000E+00  0.00000000E+00  0.00000000E+00
  0.00000000E+00  0.00000000E+00  0.00000000E+00
  0.00000000E+00  0.00000000E+00  0.00000000E+00
  0.00000000E+00  0.00000000E+00  0.00000000E+00
  0.00000000E+00  0.00000000E+00  0.00000000E+00
  0.00000000E+00  0.00000000E+00  0.00000000E+00
  0.00000000E+00  0.00000000E+00  0.00000000E+00
  0.00000000E+00  0.00000000E+00  0.00000000E+00
  0.00000000E+00  0.00000000E+00  0.00000000E+00
  0.00000000E+00  0.00000000E+00  0.00000000E+00
  0.00000000E+00  0.00000000E+00  0.00000000E+00
  0.00000000E+00  0.00000000E+00  0.00000000E+00
  0.00000000E+00  0.00000000E+00  0.00000000E+00
  0.00000000E+00  0.00000000E+00  0.00000000E+00
  0.00000000E+00  0.00000000E+00  0.00000000E+00
  0.00000000E+00  0.00000000E+00  0.00000000E+00
  0.00000000E+00  0.00000000E+00  0.00000000E+00
  0.00000000E+00  0.00000000E+00  0.00000000E+00
  0.00000000E+00  0.00000000E+00  0.00000000E+00
  0.00000000E+00  0.00000000E+00  0.00000000E+00
  0.00000000E+00  0.00000000E+00  0.00000000E+00
  0.00000000E+00  0.00000000E+00  0.00000000E+00
  0.00000000E+00  0.00000000E+00  0.00000000E+00
  0.00000000E+00  0.00000000E+00  0.00000000E+00
  0.00000000E+00  0.00000000E+00  0.00000000E+00
  0.00000000E+00  0.00000000E+00  0.00000000E+00
  0.00000000E+00  0.00000000E+00  0.00000000E+00
  0.00000000E+00  0.00000000E+00  0.00000000E+00
  0.00000000E+00  0.00000000E+00  0.00000000E+00
  0.00000000E+00  0.00000000E+00  0.00000000E+00
  0.00000000E+00  0.00000000E+00  0.00000000E+00
  0.00000000E+00  0.00000000E+00  0.00000000E+00
  0.00000000E+00  0.00000000E+00  0.00000000E+00
  0.00000000E+00  0.00000000E+00  0.00000000E+00
  0.00000000E+00  0.00000000E+00  0.00000000E+00
  0.00000000E+00  0.00000000E+00  0.00000000E+00
  0.00000000E+00  0.00000000E+00  0.00000000E+00
  0.00000000E+00  0.00000000E+00  0.00000000E+00
  0.00000000E+00  0.00000000E+00  0.00000000E+00
  0.00000000E+00  0.00000000E+00  0.00000000E+00
  0.00000000E+00  0.00000000E+00  0.00000000E+00
  0.00000000E+00  0.00000000E+00  0.00000000E+00
  0.00000000E+00  0.00000000E+00  0.00000000E+00
  0.00000000E+00  0.00000000E+00  0.00000000E+00
  0.00000000E+00  0.00000000E+00  0.00000000E+00
  0.00000000E+00  0.00000000E+00  0.00000000E+00
  0.00000000E+00  0.00000000E+00  0.00000000E+00
  0.00000000E+00  0.00000000E+00  0.00000000E+00
  0.00000000E+00  0.00000000E+00  0.00000000E+00
  0.00000000E+00  0.00000000E+00  0.00000000E+00
  0.00000000E+00  0.00000000E+00  0.00000000E+00
  0.00000000E+00  0.00000000E+00  0.00000000E+00
  0.00000000E+00  0.00000000E+00  0.00000000E+00
  0.00000000E+00  0.00000000E+00  0.00000000E+00
  0.00000000E+00  0.00000000E+00  0.00000000E+00
  0.00000000E+00  0.00000000E+00  0.00000000E+00
  0.00000000E+00  0.00000000E+00  0.00000000E+00
  0.00000000E+00  0.00000000E+00  0.00000000E+00
  0.00000000E+00  0.00000000E+00  0.00000000E+00
  0.00000000E+00  0.00000000E+00  0.00000000E+00
  0.00000000E+00  0.00000000E+00  0.00000000E+00
  0.00000000E+00  0.00000000E+00  0.00000000E+00
  0.00000000E+00  0.00000000E+00  0.00000000E+00
  0.00000000E+00  0.00000000E+00  0.00000000E+00
  0.00000000E+00  0.00000000E+00  0.00000000E+00
  0.00000000E+00  0.00000000E+00  0.00000000E+00
  0.00000000E+00  0.00000000E+00  0.00000000E+00
  0.00000000E+00  0.00000000E+00  0.00000000E+00
  0.00000000E+00  0.00000000E+00  0.00000000E+00
  0.00000000E+00  0.00000000E+00  0.00000000E+00
  0.00000000E+00  0.00000000E+00  0.00000000E+00
  0.00000000E+00  0.00000000E+00  0.00000000E+00
  0.00000000E+00  0.00000000E+00  0.00000000E+00
  0.00000000E+00  0.00000000E+00  0.00000000E+00
  0.00000000E+00  0.00000000E+00  0.00000000E+00
  0.00000000E+00  0.00000000E+00  0.00000000E+00
  0.00000000E+00  0.00000000E+00  0.00000000E+00
  0.00000000E+00  0.00000000E+00  0.00000000E+00
  0.00000000E+00  0.00000000E+00  0.00000000E+00
  0.00000000E+00  0.00000000E+00  0.00000000E+00
  0.00000000E+00  0.00000000E+00  0.00000000E+00
  0.00000000E+00  0.00000000E+00  0.00000000E+00
  0.00000000E+00  0.00000000E+00  0.00000000E+00
  0.00000000E+00  0.00000000E+00  0.00000000E+00
  0.00000000E+00  0.00000000E+00  0.00000000E+00
  0.00000000E+00  0.00000000E+00  0.00000000E+00
  0.00000000E+00  0.00000000E+00  0.00000000E+00
  0.00000000E+00  0.00000000E+00  0.00000000E+00
  0.00000000E+00  0.00000000E+00  0.00000000E+00
  0.00000000E+00  0.00000000E+00  0.00000000E+00
  0.00000000E+00  0.00000000E+00  0.00000000E+00
  0.00000000E+00  0.00000000E+00  0.00000000E+00
  0.00000000E+00  0.00000000E+00  0.00000000E+00
  0.00000000E+00  0.00000000E+00  0.00000000E+00
  0.00000000E+00  0.00000000E+00  0.00000000E+00
  0.00000000E+00  0.00000000E+00  0.00000000E+00
  0.00000000E+00  0.00000000E+00  0.00000000E+00
  0.00000000E+00  0.00000000E+00  0.00000000E+00
  0.00000000E+00  0.00000000E+00  0.00000000E+00
  0.00000000E+00  0.00000000E+00  0.00000000E+00
  0.00000000E+00  0.00000000E+00  0.00000000E+00
  0.00000000E+00  0.00000000E+00  0.00000000E+00
  0.00000000E+00  0.00000000E+00  0.00000000E+00
  0.00000000E+00  0.00000000E+00  0.00000000E+00
  0.00000000E+00  0.00000000E+00  0.00000000E+00
  0.00000000E+00  0.00000000E+00  0.00000000E+00
  0.00000000E+00  0.00000000E+00  0.00000000E+00
  0.00000000E+00  0.00000000E+00  0.00000000E+00
  0.00000000E+00  0.00000000E+00  0.00000000E+00
  0.00000000E+00  0.00000000E+00  0.00000000E+00
  0.00000000E+00  0.00000000E+00  0.00000000E+00
  0.00000000E+00  0.00000000E+00  0.00000000E+00
  0.00000000E+00  0.00000000E+00  0.00000000E+00
  0.00000000E+00  0.00000000E+00  0.00000000E+00
  0.00000000E+00  0.00000000E+00  0.00000000E+00
  0.00000000E+00  0.00000000E+00  0.00000000E+00
  0.00000000E+00  0.00000000E+00  0.00000000E+00