Ge Se                                   
   1.00000000000000     
    19.7402305603027344    0.0000000000000000    0.0000000000000000
     0.0000000000000000   19.7402305603027344    0.0000000000000000
     0.0000000000000000    0.0000000000000000   19.7402305603027344
   Ge   Se
   150   150
Direct
  0.2570323187968784  0.5162586432748092  0.9181594209872510
  0.2608378370311486  0.5313593907369589  0.2379377965269515
  0.7313240838214277  0.4958238945347034  0.8148932322841742
  0.6129303176492082  0.7966786357054895  0.3968699461308758
  0.1449893928823764  0.0219630986182777  0.3363628294767348
  0.8407818761760647  0.9388361497025236  0.6105598174293496
  0.3714578318456725  0.8411938970270040  0.6918586274473068
  0.4312220646890274  0.2547630390338551  0.9479304091994678
  0.7597242749691188  0.9852502161942895  0.7787954224077785
  0.9452479913561052  0.2921922389065522  0.7562478667032241
  0.3529069956266073  0.4991318621458236  0.7977676639377100
  0.9417642441041436  0.6164518087897027  0.6535405089585218
  0.0161011687433846  0.3857492502194207  0.8242073650026212
  0.9109274542682378  0.6457154869053296  0.3755277569516480
  0.8160175557394003  0.7715429478503945  0.3843578410643546
  0.2304954090098018  0.7157098057411532  0.9658672536320702
 -0.0153846629260965  0.7701736256209764  0.9136623597090497
  0.7632899833592128  0.2561564359115970  0.7821646011463199
  0.3976963173655669  0.7166322213289712  0.2239071531100004
  0.4303987766482429  0.0135400642362912  0.7504822712050471
  0.1839437954303188  0.5859690596353216  0.0846695170026476
  0.5662124832596260  0.0990626136887321  0.2726349268752427
  0.8145815768197104  0.6107432683652487  0.5136166783779472
  0.6141588009171346  0.8207579860318802  0.5728630822973985
  0.2687020357290673  0.8265963359897335  0.1053125096517545
  0.0197112779579689  0.8806606036212486  0.7668154592074470
  0.2040476658432290  0.8966924504822003  0.9093101542905231
  0.6889553896738271  0.8859170490940079  0.4860361117774053
  0.9766924258315298  0.0820959203743613  0.6195364506939911
  0.2638801934060324  0.6794026880084796  0.6117817041795167
  0.4448946053619027  0.3539893602649322  0.4351362975583745
  0.7934999753390205  0.0563114510697086  0.2703558682832808
  0.9327217708022946  0.8519957073121590  0.4798202178810364
  0.3745300335085482  0.8012521760731506  0.4955422272160081
  0.6032154341776760  0.0975605954154005  0.5391745437372811
  0.9174359411140195  0.2473459368774582  0.5811498477319187
  0.6094913657039788  0.3622175456184240  0.1388157017321701
  0.7694695249310163  0.6615104038630628  0.6480003362052146
  0.6733374440638030  0.1434451624026110  0.6765983830716342
  0.6260451222971438  0.3728585832217990  0.3780208481516862
  0.2075359348514139  0.3845186140297104  0.4396214877712664
  0.2892633215467740  0.1579511991440073  0.0957032323598303
  0.8229138548649418  0.9718159850526400  0.4201960845743153
  0.5728757582839877  0.7045435915284711  0.2353115777378488
  0.8996445491062732  0.2961193948126539  0.4001174166048148
  0.5504462807370921  0.4138066414542929  0.7874112344643397
  0.6965049963284881  0.6794083907447102  0.1963123621464161
  0.0349271266636658  0.2141139800389956  0.8908878598274480
  0.1873565912241992  0.0182389636592556  0.5423074552227380
  0.0011019450345034  0.5019694454977272  0.2037440251432308
  0.6936972537871474  0.9347913350642342  0.3222503061477075
  0.1107587647256859  0.1695425201180894  0.1375965880669213
  0.1449012325444008  0.1280274360385707  0.4786934861425858
  0.2239552036741645  0.2875378036721403  0.5235547710609969
  0.4083620862429501  0.4521249414290947  0.5082657006232163
  0.1061177644301677  0.9087948368698280  0.1799223698848298
  0.1029086085013758  0.4879904208985249  0.7909248704993379
  0.4191368677307190  0.3131645888657766  0.0635052647375797
  0.5535975322152310  0.9779707247784906  0.6930082409119166
  0.2919415516147431  0.1778582850784625  0.6677438456860529
  0.0932607008704042  0.4198901965854068  0.2730660804178810
  0.1140505784617155  0.8272978661190686  0.3386457828726042
  0.7273428894031539  0.5807204362823860  0.3127364432744059
  0.3831643878662841  0.3779762640719316  0.6359875804278090
  0.8594669068282604  0.3425510526715401  0.1420918021693370
  0.7181528545173047  0.6429707176723544  0.9144761938734756
  0.5895897967740310  0.9814529816834324  0.4456587847326883
  0.4367741144645610  0.1543004156230081  0.4156105456582954
  0.6932611494623133  0.5442132763397636  0.6472292163466072
  0.6062705125778969  0.9864830966549607  0.0802651975199041
  0.7622180124986371  0.4340388131139696  0.9237195572356819
  0.6556318659649714  0.8208481075330233  0.6924487522657167
  0.1413726964993048  0.3153912205308572  0.6969456604232589
  0.2313671495742397  0.0626332372190725  0.2446088574386840
  0.1872600456433616  0.7499403259394225  0.5281883263759681
  0.5507300165046698  0.5110571682880629  0.9156732303724694
  0.3676498190004565  0.8245641245779290  0.8374838707638155
  0.5321634755083554  0.7863619448236786  0.0765605013797961
  0.1396947951954345  0.1627579201747636  0.0103079226953309
  0.4886899989707904  0.2478397366160996  0.4898669928398944
  0.8862619070822876  0.5568209141153746  0.1771823184041329
  0.8654394740951048  0.8328978967331888  0.0524721302112586
  0.5163425060678178  0.5216565082143834  0.7166602988289564
  0.4328688048536248  0.0339968920039059  0.2428058109638337
  0.2731003883142973  0.1621185195142348  0.8786614918324305
  0.4740035555019370  0.2376178262360378  0.7066209782710046
  0.1831144042599692  0.8220355258399071  0.7079156245224821
  0.2229076639427391  0.0374828338323143  0.8993805232328552
  0.3038938422288928  0.2951119665823290  0.8543301449620515
  0.5980656229049480  0.6666077374911693  0.6349332035528683
  0.5560147170706804  0.7331039023249258  0.8300594162342974
  0.9958388617087799  0.7583379386624262  0.5870869484977366
  0.8884304369676118  0.0192251973912063  0.7778905329910029
  0.1971176589016124  0.6665020906189635  0.1886818163226327
  0.7337489185940843  0.5059336108561174  0.0657514839357972
  0.6795165134027720  0.1489436245982897  0.9157784257606891
  0.8149378162690815  0.1359668470615541  0.8134984156617490
  0.4095728043539044  0.6519160513503502  0.9448321880399438
  0.5802830601125470  0.9846749489145412  0.8426357267237280
  0.0699502854229406  0.3770037567069672  0.5822670127698457
  0.0929228221217655  0.6411185844307165  0.3052899070601084
  0.1141688398821239  0.2410815835423079  0.3300483289126311
  0.8556244442787576  0.9127907700694393  0.8842021801583243
  0.0348562443513409  0.7139383307178223  0.0717288284478306
  0.3348143783366322  0.9682785855460460  0.1762078114999072
  0.7920885055687653  0.2153919865559109  0.6009555853512673
  0.3924558082478558  0.9745939589564594  0.5558210052913425
  0.9630976191249372  0.7278134460229198  0.1965401251545825
  0.4042922366503698  0.2600195042553570  0.2406184724026885
  0.9172659354134716  0.5178873912926959  0.7488294286961922
  0.6406220686891113  0.6345388573977017  0.0258737989693686
  0.1577305358471656  0.8699086153332335  0.5842571752536055
  0.4870206497791848  0.0596877115244758  0.9593330689883606
  0.6802930808797027  0.9462539504143421  0.6875933626607088
  0.1535641433396187  0.1873018633588091  0.8216695523778024
  0.7929778164048803  0.4947125591847790  0.2377600361541500
  0.3175453906338264  0.9531960076517214  0.3569474971502177
  0.9684930902865619  0.2410192735533422  0.0936872967761480
 -0.0057740661153866  0.8530427594726736  0.0449549034546718
  0.0120995102999506  0.7294201715004992  0.4590902238937452
  0.2300580107180908  0.6564135363059282  0.3656208206725144
  0.3069862348097250  0.4659332601695820  0.4302575034569063
  0.8120515659826744  0.9046609560524286  0.2280943955022319
  0.1686644898246089  0.6109299666554345  0.7892471092699118
  0.6393564547004131  0.3424517311329106  0.5993006063827413
  0.7338998810023414  0.0431760733638293  0.0900837216423918
  0.6778019858028321  0.2758827481445250  0.0589202427907583
  0.6335704384608901  0.5293636366787505  0.4757928122052028
  0.1145521652219525  0.5649427159835209  0.5929832197152766
  0.4310351379797258  0.8429635766406951  0.2435558097952638
  0.8959242182519771  0.3283404347367440  0.9487507886940671
  0.3922300397169548  0.4631558395418287  0.9487388336225484
  0.5093727863032612  0.6506688977802095  0.7419938914142593
  0.6564604984501513  0.1886880363917091  0.2358993413598520
  0.8731821370939330  0.9704065608301583  0.1344406324446107
  0.3145173178976309  0.4406848161562854  0.0912666906079958
  0.9895215709556466  0.4623321427576489  0.4421342098910560
  0.4422141209525729  0.7343482831454505  0.6595027281813196
  0.6962767739696684  0.2041861966300695  0.4048178303560274
  0.3957373137122733  0.6500546619872156  0.4349849219348648
  0.8436223290797783  0.5411480529776344 -0.0095097907752985
  0.3161140347082666  0.2021274401817383  0.4771708843565391
  0.6281016924539838  0.2683853111623973  0.9364086841265863
  0.2106767324592415  0.0249364408095274  0.7207618891961829
  0.1260989982999872  0.7357135649682714  0.7866646648986970
  0.4622493675755718  0.5097233888202463  0.3136274027172825
  0.8747553306539207  0.1621653842504845  0.4180260073312801
  0.5219989915585839  0.1467075716672263  0.1260832407656016
  0.1936190862954795  0.9632893603927224  0.0656035583962526
  0.0241043942910295  0.5395764160986575  0.9535687939393016
  0.4709403440741149  0.5402558186901718  0.4406957302278390
  0.1543234463952252  0.4628956393250657  0.0791059182927649
  0.0360972391335482  0.3294677958188382  0.9371579896469936
  0.4844820133956733  0.6455377594652548  0.1728516106239594
  0.1403088126670675  0.0323980211061636  0.1608659612796174
  0.7544622147301934  0.3110350356312719  0.8946685210792024
  0.4150980876080272  0.2399630939098127  0.5889120009639572
  0.5121615057373771  0.3592365975464674  0.6754510926771267
  0.3518365022699406  0.6357050358555142  0.3069406742688681
  0.1927427211606222  0.4220649634218767  0.1882928026557910
  0.8352536061228084  0.3260730638095906  0.7080991816256607
  0.1297428555018534  0.4734328781222663  0.9261262480340671
  0.7712603509507520  0.1815196008458744  0.2896281239189248
  0.7963682539136051  0.1236072536761666  0.9379057373705660
  0.2066313154091130  0.9581426812939466  0.4267416177037402
  0.7730616339869524  0.3223802824048773  0.4257890661296678
  0.4640586900841387  0.7633368064527042  0.9089314513686086
  0.9177502528867498  0.9749820565765623  0.5113448611143270
  0.1927949478329476  0.1873244056758768  0.2307466228297833
  0.7473824075589903  0.4138803523514555  0.1538909239893587
  0.1944430947928866  0.3452449383048929  0.3231223618769831
  0.8573671920074067  0.7821855358723158  0.8753324320426221
  0.6572337039025382  0.7428045196554660  0.0853269833708542
  0.6882868155475947  0.6931152474548704  0.5525413646405773
  0.3495915134474892  0.2790486994586867  0.7333800138706109
  0.5511059448649004  0.8251983936283628  0.1996070445558825
  0.6364729111287064  0.5759241084614821  0.8401319613532682
  0.0086210875429129  0.1562540894152696 -0.0009241259964850
  0.8212675547827440  0.5528856116986217  0.3966371830822643
  0.3943332217858345  0.9494311747268579  0.8550938309900602
  0.5202002408136456  0.7361981038636302  0.5585449862932393
  0.3067463977962935  0.8307875902126211  0.9502890357319639
  0.9926062992583018  0.9650225066274687  0.1061401403129380
  0.0521642250914744  0.6162984533959632  0.1811644153056016
  0.8904729233348435  0.7340574105951255  0.6478022047197058
  0.5667794161497405  0.5453404122399401  0.6021957366774582
  0.7494432345670650  0.5008446916095687  0.5437041991979404
  0.8703759854113118  0.6571689353927729  0.2515738015708572
  0.3955309851831552  0.8686127622677301  0.1227143247695910
  0.3923383318455321  0.1413789228066886  0.1789333014925883
  0.1291344368214675  0.0530223189987815  0.8132744653997136
  0.2851280866908472  0.7455022751179193  0.7166494675428461
  0.6068564595026652  0.2323590127136334  0.5242682163498583
  0.2641008235175054  0.7754773838779543  0.4324314032931110
  0.5110639737627076  0.1993709472372211  0.3258106888826884
  0.5977070029299322  0.8818184446211237  0.0130477484961212
  0.9043727075240933  0.4280273916124903  0.8631893426111683
  0.0313845323174110  0.8711478732186964  0.6328940313367352
  0.5498802812116869  0.8328406149378241  0.7580796026924271
  0.0152112854335146  0.4589569308621417  0.0792916197754224
  0.2216071457244522  0.5783073291067871  0.6743528799933259
  0.1384954389458993  0.7809415585054549  0.9030148332737300
  0.3974748328132562  0.5078182037964262  0.6789883689826959
  0.9396347196041406  0.5787823343684017  0.5329336367552635
  0.6482001175940224  0.0669568609693737  0.3679646813581793
  0.7725739477175690  0.1398498475755291  0.4887066347157359
  0.1346106794446417  0.7649375256628590  0.1356608990972948
  0.7104029865698428  0.7959498567048172  0.3113220890827318
  0.6358569075453078  0.4984829373723361  0.3437811603389266
  0.2975171272608801  0.5649486274088115  0.0325559885223263
  0.8427003371894244  0.0893851346244888  0.1526732367120379
  0.2419994263790465  0.8881852302554183  0.2194251019734534
  0.3203818573681154  0.2926269431709221  0.1349886440880878
  0.5004142162292018  0.9233761700330523  0.9302262257377997
  0.4275885898922410  0.3991070176384094  0.8381606036149662
  0.8825986184843384  0.4277696316474596  0.2928912188835781
  0.8121355991419530  0.7464717596752899  0.9822790043474843
  0.6884477077380803  0.4368363671235159  0.7142445042108112
 -0.0030967217364150  0.1485541220329524  0.1767462491273275
  0.7206354877495208  0.9808498416149545  0.5730621873409528
  0.5209013284654715  0.5998095252117668  0.0039875392588057
  0.4408605244264041  0.5884774151872084  0.8377869280229227
  0.1099759387831345  0.2392750731715093  0.5268740767873666
  0.0107123849842323  0.5766478362300095  0.8180005614060739
  0.3062608042109620  0.0201594710624668  0.0645792905139377
  0.0155232633074539  0.3574631272037587  0.3662588174054624
  0.4481096553073152  0.4359800832368257  0.0635092058797041
  0.4058329924144988  0.9154316912415282  0.4386314530931353
  0.3103128965531429  0.7063963823506293  0.1340661467071859
  0.8020601559702584  0.2642677336579140  0.0634490363576754
  0.0375633426567229  0.3131315480123895  0.2291021100851079
  0.6552492823423761  0.3101970226775833  0.2447606236210758
  0.5288461738112052  0.1912970346591299 -0.0015768232063714
  0.6483230777272069  0.5662258405582051  0.1369403086502437
  0.0605183272936074  0.6677856398105847  0.6561075275619882
  0.1859517146040993  0.3316941268183521  0.8154098032620838
  0.6826041613835439  0.0898931057520304  0.7951684317036165
  0.0669898515615569  0.8491384369644893  0.4572919573482116
  0.4897749268518404  0.0632742482341673  0.4818642080949987
  0.8115439466280157  0.5848612029337360  0.7887037161079040
  0.8824900115385033  0.6272276735831950  0.0774443210959119
  0.5344849803763992  0.7079804958309104  0.3519400042297954
  0.9417130326681487  0.3639215460801291  0.5494486330721507
  0.8940108122609627  0.4371624330031822  0.0482687333955897
  0.9945162919638663  0.2096903492317914  0.6714853509358496
  0.7908787215311824  0.8152696135546356  0.5025640186313693
  0.5011881962068692  0.3827567664263755  0.3289076407011713
  0.3132478361021835  0.0964968543935908  0.7691045955449608
  0.4891580249644609  0.0183852137313184  0.0990967370905293
  0.6948701967700376  0.9560913256377541  0.1883829851052650
  0.0620482988314905  0.0920052173082404  0.3932570835028004
  0.3811436771581467  0.6521481101875819  0.5863030901948975
  0.3577172751140527  0.0750741358918743  0.3429211390042681
  0.5250560378271253  0.9143401277430876  0.5877073308670850
  0.7640307399824223  0.3300194990739076  0.5491528528183891
  0.5867208538903855  0.4111674813215270  0.4991474896661145
  0.0048332447638078  0.7595580371064947  0.3122603816770357
  0.1639077485870747  0.1866785334876702  0.6931429461885640
  0.8891699875048539  0.8775388279140055  0.3591908682950297
  0.3461872173566465  0.2947742310253418  0.3891779139240017
  0.8379579657625751  0.3132259910306288  0.2857933179521542
  0.2253398527002146  0.1680500157988963  0.3946238645249404
  0.6624734883694047  0.1615936059124615  0.1136892313304242
  0.2314383634434778  0.3673975295123656  0.6190722320119726
  0.2982225949335066  0.3814340793417735  0.9783092175808136
  0.0025343504485942  0.7547901407362178  0.7867688507674960
  0.8118005738849368  0.9430389846989263  0.0259482754173721
  0.1288923055676348  0.0396412449056504  0.9861387894828717
  0.3001584669386811  0.0686767331890304  0.5553278411052461
  0.1208133839476733  0.6608164015387388  0.4696765189557879
  0.5028783092713525  0.2849089514746019  0.1534735709677824
  0.6486568887873730  0.7485857369399336  0.9075107000317195
  0.7238978716998199  0.9065714123107156  0.8615225148843625
  0.2836795529958292  0.5859288414675037  0.4624077766677617
  0.6500234776026766  0.4456231314992669  0.9896991788177184
  0.8271354004128280  0.7973555560786807  0.1631470934571051
  0.1709426360374829  0.5336863369851745  0.3268492574143800
  0.5663073612482057  0.9083128582177179  0.3418949302825572
  0.0014248554210911  0.8966219400416816  0.9268843406104507
  0.8967805847458867  0.0568699679910266  0.3508700856848258
  0.8928640025977403  0.8883628049686492  0.7519356644986480
  0.0447479035478265  0.4787811642614416  0.6609154485194977
  0.2676816103611383  0.6417411710565095  0.8673910779115482
  0.4998272962480898  0.0906300182051274  0.8244242112293952
  0.8564564909203567  0.0629999425101097  0.6574157051750638
  0.2407933658685426  0.9068046100233691  0.7808148016350747
  0.1139884459999713  0.4593830866283325  0.4845150553628864
  0.3421670805930203  0.4547563723833137  0.3101767757282032
  0.0853314957652465  0.2951515339499599  0.1144767154866736
  0.6214694921002394  0.0440369692532431  0.9549050826387336
  0.1093019329216430  0.6335635530117038 -0.0057339577485694
  0.7267365934800869  0.7352860485816604  0.7407174066408819
  0.3078393911058026  0.8715482510089810  0.5836014508829772
  0.5494075730755138  0.1037499172826289  0.6549978252633005
  0.3551815379712782  0.1575020560769301  0.9798905762686371
  0.6505778850655322  0.2574432161344550  0.7294184667950548
  0.9654688023137156  0.1542602832989048  0.5097329227364354
  0.9130719480922507  0.2210243864222402  0.8524245377890179
  0.0591780611701571  0.9371660207586118  0.2974666884417290
  0.0001832682359752  0.5566008021629086  0.3455536272445380
 
  0.00000000E+00  0.00000000E+00  0.00000000E+00
  0.00000000E+00  0.00000000E+00  0.00000000E+00
  0.00000000E+00  0.00000000E+00  0.00000000E+00
  0.00000000E+00  0.00000000E+00  0.00000000E+00
  0.00000000E+00  0.00000000E+00  0.00000000E+00
  0.00000000E+00  0.00000000E+00  0.00000000E+00
  0.00000000E+00  0.00000000E+00  0.00000000E+00
  0.00000000E+00  0.00000000E+00  0.00000000E+00
  0.00000000E+00  0.00000000E+00  0.00000000E+00
  0.00000000E+00  0.00000000E+00  0.00000000E+00
  0.00000000E+00  0.00000000E+00  0.00000000E+00
  0.00000000E+00  0.00000000E+00  0.00000000E+00
  0.00000000E+00  0.00000000E+00  0.00000000E+00
  0.00000000E+00  0.00000000E+00  0.00000000E+00
  0.00000000E+00  0.00000000E+00  0.00000000E+00
  0.00000000E+00  0.00000000E+00  0.00000000E+00
  0.00000000E+00  0.00000000E+00  0.00000000E+00
  0.00000000E+00  0.00000000E+00  0.00000000E+00
  0.00000000E+00  0.00000000E+00  0.00000000E+00
  0.00000000E+00  0.00000000E+00  0.00000000E+00
  0.00000000E+00  0.00000000E+00  0.00000000E+00
  0.00000000E+00  0.00000000E+00  0.00000000E+00
  0.00000000E+00  0.00000000E+00  0.00000000E+00
  0.00000000E+00  0.00000000E+00  0.00000000E+00
  0.00000000E+00  0.00000000E+00  0.00000000E+00
  0.00000000E+00  0.00000000E+00  0.00000000E+00
  0.00000000E+00  0.00000000E+00  0.00000000E+00
  0.00000000E+00  0.00000000E+00  0.00000000E+00
  0.00000000E+00  0.00000000E+00  0.00000000E+00
  0.00000000E+00  0.00000000E+00  0.00000000E+00
  0.00000000E+00  0.00000000E+00  0.00000000E+00
  0.00000000E+00  0.00000000E+00  0.00000000E+00
  0.00000000E+00  0.00000000E+00  0.00000000E+00
  0.00000000E+00  0.00000000E+00  0.00000000E+00
  0.00000000E+00  0.00000000E+00  0.00000000E+00
  0.00000000E+00  0.00000000E+00  0.00000000E+00
  0.00000000E+00  0.00000000E+00  0.00000000E+00
  0.00000000E+00  0.00000000E+00  0.00000000E+00
  0.00000000E+00  0.00000000E+00  0.00000000E+00
  0.00000000E+00  0.00000000E+00  0.00000000E+00
  0.00000000E+00  0.00000000E+00  0.00000000E+00
  0.00000000E+00  0.00000000E+00  0.00000000E+00
  0.00000000E+00  0.00000000E+00  0.00000000E+00
  0.00000000E+00  0.00000000E+00  0.00000000E+00
  0.00000000E+00  0.00000000E+00  0.00000000E+00
  0.00000000E+00  0.00000000E+00  0.00000000E+00
  0.00000000E+00  0.00000000E+00  0.00000000E+00
  0.00000000E+00  0.00000000E+00  0.00000000E+00
  0.00000000E+00  0.00000000E+00  0.00000000E+00
  0.00000000E+00  0.00000000E+00  0.00000000E+00
  0.00000000E+00  0.00000000E+00  0.00000000E+00
  0.00000000E+00  0.00000000E+00  0.00000000E+00
  0.00000000E+00  0.00000000E+00  0.00000000E+00
  0.00000000E+00  0.00000000E+00  0.00000000E+00
  0.00000000E+00  0.00000000E+00  0.00000000E+00
  0.00000000E+00  0.00000000E+00  0.00000000E+00
  0.00000000E+00  0.00000000E+00  0.00000000E+00
  0.00000000E+00  0.00000000E+00  0.00000000E+00
  0.00000000E+00  0.00000000E+00  0.00000000E+00
  0.00000000E+00  0.00000000E+00  0.00000000E+00
  0.00000000E+00  0.00000000E+00  0.00000000E+00
  0.00000000E+00  0.00000000E+00  0.00000000E+00
  0.00000000E+00  0.00000000E+00  0.00000000E+00
  0.00000000E+00  0.00000000E+00  0.00000000E+00
  0.00000000E+00  0.00000000E+00  0.00000000E+00
  0.00000000E+00  0.00000000E+00  0.00000000E+00
  0.00000000E+00  0.00000000E+00  0.00000000E+00
  0.00000000E+00  0.00000000E+00  0.00000000E+00
  0.00000000E+00  0.00000000E+00  0.00000000E+00
  0.00000000E+00  0.00000000E+00  0.00000000E+00
  0.00000000E+00  0.00000000E+00  0.00000000E+00
  0.00000000E+00  0.00000000E+00  0.00000000E+00
  0.00000000E+00  0.00000000E+00  0.00000000E+00
  0.00000000E+00  0.00000000E+00  0.00000000E+00
  0.00000000E+00  0.00000000E+00  0.00000000E+00
  0.00000000E+00  0.00000000E+00  0.00000000E+00
  0.00000000E+00  0.00000000E+00  0.00000000E+00
  0.00000000E+00  0.00000000E+00  0.00000000E+00
  0.00000000E+00  0.00000000E+00  0.00000000E+00
  0.00000000E+00  0.00000000E+00  0.00000000E+00
  0.00000000E+00  0.00000000E+00  0.00000000E+00
  0.00000000E+00  0.00000000E+00  0.00000000E+00
  0.00000000E+00  0.00000000E+00  0.00000000E+00
  0.00000000E+00  0.00000000E+00  0.00000000E+00
  0.00000000E+00  0.00000000E+00  0.00000000E+00
  0.00000000E+00  0.00000000E+00  0.00000000E+00
  0.00000000E+00  0.00000000E+00  0.00000000E+00
  0.00000000E+00  0.00000000E+00  0.00000000E+00
  0.00000000E+00  0.00000000E+00  0.00000000E+00
  0.00000000E+00  0.00000000E+00  0.00000000E+00
  0.00000000E+00  0.00000000E+00  0.00000000E+00
  0.00000000E+00  0.00000000E+00  0.00000000E+00
  0.00000000E+00  0.00000000E+00  0.00000000E+00
  0.00000000E+00  0.00000000E+00  0.00000000E+00
  0.00000000E+00  0.00000000E+00  0.00000000E+00
  0.00000000E+00  0.00000000E+00  0.00000000E+00
  0.00000000E+00  0.00000000E+00  0.00000000E+00
  0.00000000E+00  0.00000000E+00  0.00000000E+00
  0.00000000E+00  0.00000000E+00  0.00000000E+00
  0.00000000E+00  0.00000000E+00  0.00000000E+00
  0.00000000E+00  0.00000000E+00  0.00000000E+00
  0.00000000E+00  0.00000000E+00  0.00000000E+00
  0.00000000E+00  0.00000000E+00  0.00000000E+00
  0.00000000E+00  0.00000000E+00  0.00000000E+00
  0.00000000E+00  0.00000000E+00  0.00000000E+00
  0.00000000E+00  0.00000000E+00  0.00000000E+00
  0.00000000E+00  0.00000000E+00  0.00000000E+00
  0.00000000E+00  0.00000000E+00  0.00000000E+00
  0.00000000E+00  0.00000000E+00  0.00000000E+00
  0.00000000E+00  0.00000000E+00  0.00000000E+00
  0.00000000E+00  0.00000000E+00  0.00000000E+00
  0.00000000E+00  0.00000000E+00  0.00000000E+00
  0.00000000E+00  0.00000000E+00  0.00000000E+00
  0.00000000E+00  0.00000000E+00  0.00000000E+00
  0.00000000E+00  0.00000000E+00  0.00000000E+00
  0.00000000E+00  0.00000000E+00  0.00000000E+00
  0.00000000E+00  0.00000000E+00  0.00000000E+00
  0.00000000E+00  0.00000000E+00  0.00000000E+00
  0.00000000E+00  0.00000000E+00  0.00000000E+00
  0.00000000E+00  0.00000000E+00  0.00000000E+00
  0.00000000E+00  0.00000000E+00  0.00000000E+00
  0.00000000E+00  0.00000000E+00  0.00000000E+00
  0.00000000E+00  0.00000000E+00  0.00000000E+00
  0.00000000E+00  0.00000000E+00  0.00000000E+00
  0.00000000E+00  0.00000000E+00  0.00000000E+00
  0.00000000E+00  0.00000000E+00  0.00000000E+00
  0.00000000E+00  0.00000000E+00  0.00000000E+00
  0.00000000E+00  0.00000000E+00  0.00000000E+00
  0.00000000E+00  0.00000000E+00  0.00000000E+00
  0.00000000E+00  0.00000000E+00  0.00000000E+00
  0.00000000E+00  0.00000000E+00  0.00000000E+00
  0.00000000E+00  0.00000000E+00  0.00000000E+00
  0.00000000E+00  0.00000000E+00  0.00000000E+00
  0.00000000E+00  0.00000000E+00  0.00000000E+00
  0.00000000E+00  0.00000000E+00  0.00000000E+00
  0.00000000E+00  0.00000000E+00  0.00000000E+00
  0.00000000E+00  0.00000000E+00  0.00000000E+00
  0.00000000E+00  0.00000000E+00  0.00000000E+00
  0.00000000E+00  0.00000000E+00  0.00000000E+00
  0.00000000E+00  0.00000000E+00  0.00000000E+00
  0.00000000E+00  0.00000000E+00  0.00000000E+00
  0.00000000E+00  0.00000000E+00  0.00000000E+00
  0.00000000E+00  0.00000000E+00  0.00000000E+00
  0.00000000E+00  0.00000000E+00  0.00000000E+00
  0.00000000E+00  0.00000000E+00  0.00000000E+00
  0.00000000E+00  0.00000000E+00  0.00000000E+00
  0.00000000E+00  0.00000000E+00  0.00000000E+00
  0.00000000E+00  0.00000000E+00  0.00000000E+00
  0.00000000E+00  0.00000000E+00  0.00000000E+00
  0.00000000E+00  0.00000000E+00  0.00000000E+00
  0.00000000E+00  0.00000000E+00  0.00000000E+00
  0.00000000E+00  0.00000000E+00  0.00000000E+00
  0.00000000E+00  0.00000000E+00  0.00000000E+00
  0.00000000E+00  0.00000000E+00  0.00000000E+00
  0.00000000E+00  0.00000000E+00  0.00000000E+00
  0.00000000E+00  0.00000000E+00  0.00000000E+00
  0.00000000E+00  0.00000000E+00  0.00000000E+00
  0.00000000E+00  0.00000000E+00  0.00000000E+00
  0.00000000E+00  0.00000000E+00  0.00000000E+00
  0.00000000E+00  0.00000000E+00  0.00000000E+00
  0.00000000E+00  0.00000000E+00  0.00000000E+00
  0.00000000E+00  0.00000000E+00  0.00000000E+00
  0.00000000E+00  0.00000000E+00  0.00000000E+00
  0.00000000E+00  0.00000000E+00  0.00000000E+00
  0.00000000E+00  0.00000000E+00  0.00000000E+00
  0.00000000E+00  0.00000000E+00  0.00000000E+00
  0.00000000E+00  0.00000000E+00  0.00000000E+00
  0.00000000E+00  0.00000000E+00  0.00000000E+00
  0.00000000E+00  0.00000000E+00  0.00000000E+00
  0.00000000E+00  0.00000000E+00  0.00000000E+00
  0.00000000E+00  0.00000000E+00  0.00000000E+00
  0.00000000E+00  0.00000000E+00  0.00000000E+00
  0.00000000E+00  0.00000000E+00  0.00000000E+00
  0.00000000E+00  0.00000000E+00  0.00000000E+00
  0.00000000E+00  0.00000000E+00  0.00000000E+00
  0.00000000E+00  0.00000000E+00  0.00000000E+00
  0.00000000E+00  0.00000000E+00  0.00000000E+00
  0.00000000E+00  0.00000000E+00  0.00000000E+00
  0.00000000E+00  0.00000000E+00  0.00000000E+00
  0.00000000E+00  0.00000000E+00  0.00000000E+00
  0.00000000E+00  0.00000000E+00  0.00000000E+00
  0.00000000E+00  0.00000000E+00  0.00000000E+00
  0.00000000E+00  0.00000000E+00  0.00000000E+00
  0.00000000E+00  0.00000000E+00  0.00000000E+00
  0.00000000E+00  0.00000000E+00  0.00000000E+00
  0.00000000E+00  0.00000000E+00  0.00000000E+00
  0.00000000E+00  0.00000000E+00  0.00000000E+00
  0.00000000E+00  0.00000000E+00  0.00000000E+00
  0.00000000E+00  0.00000000E+00  0.00000000E+00
  0.00000000E+00  0.00000000E+00  0.00000000E+00
  0.00000000E+00  0.00000000E+00  0.00000000E+00
  0.00000000E+00  0.00000000E+00  0.00000000E+00
  0.00000000E+00  0.00000000E+00  0.00000000E+00
  0.00000000E+00  0.00000000E+00  0.00000000E+00
  0.00000000E+00  0.00000000E+00  0.00000000E+00
  0.00000000E+00  0.00000000E+00  0.00000000E+00
  0.00000000E+00  0.00000000E+00  0.00000000E+00
  0.00000000E+00  0.00000000E+00  0.00000000E+00
  0.00000000E+00  0.00000000E+00  0.00000000E+00
  0.00000000E+00  0.00000000E+00  0.00000000E+00
  0.00000000E+00  0.00000000E+00  0.00000000E+00
  0.00000000E+00  0.00000000E+00  0.00000000E+00
  0.00000000E+00  0.00000000E+00  0.00000000E+00
  0.00000000E+00  0.00000000E+00  0.00000000E+00
  0.00000000E+00  0.00000000E+00  0.00000000E+00
  0.00000000E+00  0.00000000E+00  0.00000000E+00
  0.00000000E+00  0.00000000E+00  0.00000000E+00
  0.00000000E+00  0.00000000E+00  0.00000000E+00
  0.00000000E+00  0.00000000E+00  0.00000000E+00
  0.00000000E+00  0.00000000E+00  0.00000000E+00
  0.00000000E+00  0.00000000E+00  0.00000000E+00
  0.00000000E+00  0.00000000E+00  0.00000000E+00
  0.00000000E+00  0.00000000E+00  0.00000000E+00
  0.00000000E+00  0.00000000E+00  0.00000000E+00
  0.00000000E+00  0.00000000E+00  0.00000000E+00
  0.00000000E+00  0.00000000E+00  0.00000000E+00
  0.00000000E+00  0.00000000E+00  0.00000000E+00
  0.00000000E+00  0.00000000E+00  0.00000000E+00
  0.00000000E+00  0.00000000E+00  0.00000000E+00
  0.00000000E+00  0.00000000E+00  0.00000000E+00
  0.00000000E+00  0.00000000E+00  0.00000000E+00
  0.00000000E+00  0.00000000E+00  0.00000000E+00
  0.00000000E+00  0.00000000E+00  0.00000000E+00
  0.00000000E+00  0.00000000E+00  0.00000000E+00
  0.00000000E+00  0.00000000E+00  0.00000000E+00
  0.00000000E+00  0.00000000E+00  0.00000000E+00
  0.00000000E+00  0.00000000E+00  0.00000000E+00
  0.00000000E+00  0.00000000E+00  0.00000000E+00
  0.00000000E+00  0.00000000E+00  0.00000000E+00
  0.00000000E+00  0.00000000E+00  0.00000000E+00
  0.00000000E+00  0.00000000E+00  0.00000000E+00
  0.00000000E+00  0.00000000E+00  0.00000000E+00