Amorphous Sb                            
   1.00000000000000     
    22.2283632703415037    0.0000000000000000    0.0000000000000000
     0.0000000000000000   22.2283632703415037    0.0000000000000000
     0.0000000000000000    0.0000000000000000   22.2283632703415037
   Sb   Se   Te
   120   108    72
Direct
  0.8117661370203509  0.9962086697620796  0.6719744177064964
  0.1649820400113771  0.8984700188859042  0.1642709219376437
  0.4294716641854017  0.4810436968635193  0.7246875573657232
  0.6826488969072012  0.9695814388621861  0.8013897806203673
  0.6166021530509384  0.5804579078420129 -0.0093506932482157
  0.8353096144309472  0.8426482606456321  0.2551935606533132
  0.9285525604492557  0.6965212250599230  0.6252964627142555
  0.5293348897887951  0.9294821891755187  0.1733461079742454
  0.7408181894112977  0.4817066130437854  0.5528866268209843
  0.9790311198690711  0.3808773538753448  0.4042634900852787
  0.0630576674384789  0.3035574319246752  0.9673252271372983
  0.5945873378250229  0.7417103274291421  0.4672070624631137
  0.1579224386948997  0.5883276310513927  0.3915525230654663
  0.6262888700474644  0.1072408530517546  0.9402261547434222
  0.0935116938757766  0.4086326334080437  0.8245206187885271
  0.0101129462158678  0.0349911828877309  0.6678460153936264
  0.0592475303056511  0.8071071712481960  0.5296210800210751
  0.4808512096897926  0.2113303030581322  0.2117957183846759
  0.4060520122614743  0.1380745086298743  0.4369207321610460
  0.1668663634789129  0.1043717335680639  0.0438896574807731
  0.0255557185365872  0.8340856684798577  0.8687068471376730
  0.6175701553257739  0.9087127690836313  0.9139129546579737
  0.2053819796402379  0.3962070771378076  0.3298522752556209
  0.3381046246904825  0.0282258345788423  0.0472522146571992
  0.0856767187684958  0.5316006653625898  0.5655348182887432
  0.3922922981950902  0.3662236405787767  0.0182039512096564
  0.8109443582378510  0.9063389749158702  0.4227390510500261
  0.3150599759858034  0.0373804454147471  0.2948838767673116
  0.6422398304516537  0.9727531006446926  0.2260023370684160
  0.6966311092478910  0.4997299441959885  0.7414215326071845
  0.3176013997034368  0.5251661493267075  0.9444155308407652
  0.2379700900519345  0.2078654633109681  0.7547786956545657
  0.8170652563613012  0.4832504202732000  0.2526957157652941
  0.8574060217708520  0.5054268791555444  0.4117990000783621
  0.4304352157332687  0.5843634084753850  0.5299429663250202
  0.6720349397142273  0.3454489213536366  0.6587156199955377
  0.6680739253222415  0.3063666172054803  0.0763649335013858
  0.9432246187866412  0.2862056298850560  0.5559350153758804
  0.8977184121088156  0.1701215735908165  0.1906218962386604
  0.5727056313257520  0.5879648700745566  0.3065683278417098
  0.5670820892829006  0.6121963297780109  0.7101267374655479
  0.7482425319625823  0.3660076617872430  0.3979946896365985
  0.7544193591314734  0.6204304323437548  0.8883560574959717
  0.6649498917011734  0.4938151955924781  0.3040421158126100
  0.6777414717688612  0.9474945193373739  0.0703896072101785
  0.3690089785031822  0.2857499182142307  0.3097581444798357
  0.1942850323114955  0.4696856545353936  0.9601188711208012
  0.4093227564155528  0.9442310943395990  0.7523895580002935
  0.1339782277524076  0.8310522319278201  0.3751593885507435
  0.2628835092877593  0.7253954380675500  0.7413164807333273
  0.4859227612027948  0.4394772715912115  0.9647751515965273
  0.9894410220172146  0.6720065493323499  0.7400313378258893
  0.0137656254139930  0.4530821289823951  0.2426633517405866
  0.0879857087370760  0.2538449084084336  0.4086294119495926
  0.8435082503611050  0.4706287813184745  0.8390574623086372
  0.8613680328895226  0.7456604523268816  0.3437495797165962
  0.8754258617219709  0.2579819324942567  0.9111469666148767
  0.5637074405871496  0.0363032797101580  0.6635469014960359
  0.7446234407388728  0.2360840035153853  0.2634197135749827
  0.2382063753226532  0.3029660008358137  0.0192664066502648
  0.9981492708336648  0.4708476164317195  0.7585390325543302
  0.4205107710450297  0.1438388494892494  0.7429677449838061
  0.5611890517371426  0.5505540684468848  0.4322016483217732
  0.2500618325227489  0.0268365530651781  0.6869195662159538
  0.6451294911622766  0.8931162939441519  0.5409573319574433
  0.6366060741388052  0.7528098012574984  0.9320178245029774
  0.5310607761133926  0.0931838923595636  0.1834258253544868
  0.1038228035157992  0.9462770308350499  0.7030072705617672
  0.2588127460396661  0.5061498160490900  0.4630784524409164
  0.9326594526949312  0.9226395249855417  0.5576821160616257
  0.4685024771870782  0.8884674189346999  0.4497012939591175
  0.6388156412430664  0.5676176076736706  0.8618504413762741
  0.3324648507661183  0.3969483869801680  0.4611713034045172
  0.9619972653819562  0.6670408990563672  0.9207176820914384
  0.9430397106410617  0.3513339816217136  0.7431971911942280
  0.3424205149978676  0.0734496239181316  0.5357404847930145
  0.3873761327661077  0.5810358290355797  0.2478511981159278
  0.6361366993162728  0.8327280284211577  0.3218238648702477
  0.6425441437945061  0.0048888579369902  0.4616723976256035
  0.5127626292109433  0.6609791030790985  0.9794050090545664
  0.8515648856261652  0.5856786872085791  0.0396836377954570
  0.3211490288541756  0.3847578522857512  0.6460761562825914
  0.5355887339943440  0.4987494052075919  0.6506306669778241
  0.3003961016046883  0.8535268659609315  0.0134925371249759
  0.2637756286247273  0.6545880777364936  0.3507056546662103
  0.3528175408927542  0.2034847678308668  0.0618477530294126
  0.4116994807617210  0.6625781178872791  0.6750312028634289
  0.4497072051177640  0.9477628841690033  0.2770635763944205
  0.4614295132129622  0.2671055374619604  0.4056542567022474
  0.7560829278447533  0.4505181885755154  0.1358087883608340
  0.1340815171699571  0.6742114961638169  0.2308982243528720
  0.2630975175647491  0.9676178287199317  0.9571779439501684
  0.3010682768898641  0.7265734177453537  0.9457454550306215
  0.3133878496026745  0.1566718431140130  0.2383812265909453
  0.8528259048156008  0.7044849074471473  0.9829784860745260
  0.6955356388982127  0.0986061883748372  0.7587666069669935
  0.4566082955459835  0.9398406975517416  0.9233319228266212
  0.5275015296204825  0.1489987723290988  0.4917815455619783
  0.7300859342249043  0.8293991513207126  0.6982900891416594
  0.9417781982967161  0.4413018220280147  0.9958343814685736
  0.8124162927339785  0.6967833393188978  0.1606084539689299
  0.2260535965012704  0.8655305914911474  0.5178177253406642
  0.0007983742542406  0.9884237918631800  0.9361440782660320
  0.8543645209540052  0.1835240150679965  0.7360513232120570
  0.1859137604657699  0.2413782194961250  0.6015612714422515
  0.7452091961314212  0.6873715715921614  0.5758499918612160
  0.3030798724631915  0.9273518417257247  0.4318363575535537
  0.0082212351821027  0.2347530352190252  0.1624049342723096
  0.5124775933771774  0.3266801095741492  0.8344114866829687
  0.4441569476716540  0.7330599027236573  0.1457622653707637
  0.1438845459221264  0.6848823024264503  0.7771906174823586
  0.0492336851959779  0.9606174426107073  0.1560534501582664
  0.3395159428883743  0.8127865699186227  0.6161678739582337
  0.4505821953127452  0.5140926338417806  0.1318304712922732
  0.5341683469443989  0.3768550183087241  0.1842019303801170
  0.5106461888385212  0.3694314901983630  0.3291254964016400
  0.0416216185932341  0.8000600297434043  0.1026152609308855
  0.6907396553309503  0.2899741066940031  0.8961343449739609
  0.2454490423039135  0.5401828093431329  0.6601566331425320
  0.9652769386168923  0.2318663923812551  0.3653196388617713
  0.3049418152891305  0.1168319011745770  0.7887832811521224
  0.4062482184311496  0.8391304163376158  0.9635315145987948
  0.3533934529324191  0.5761795790177130  0.3603170510690697
  0.7697832997478889  0.9230560307236233  0.3119891372875863
  0.0930410015111098  0.9253741879295737  0.9007034629240857
  0.2611056339334581  0.4457061865593362  0.7327822929277181
  0.3427218914472328  0.3994010683828625  0.3429572910600475
  0.2960923777540270  0.2513447974428042  0.6554696406982217
  0.8062998250985079  0.5636149402289853  0.7780085864262116
 -0.0016091479248698  0.9033467081035123  0.0668951137685934
  0.4193844163390673  0.0418681241724294  0.6815104220947052
  0.7908342541303149  0.9275477252447663  0.7672064671115170
  0.8949207260861612  0.6909959698264262  0.2455530638432943
  0.6003772560680599  0.4180860435323753  0.3857186951509137
  0.0758974407166811  0.3734554406905025  0.3319021093190175
  0.5333607084371437  0.2730186507337980  0.1235998281089119
  0.9551973228596000  0.5108067465064723  0.8623384750532946
  0.8154926885389113  0.2853472882148563  0.3461499620319727
  0.7629234287677290  0.4212161681129055  0.6770191284803847
  0.9568485716992401  0.1458893044758992  0.4458233126727376
  0.9256793775753291  0.9548646665670890  0.6931901345171001
  0.7171991174765840  0.8416167537665606  0.9194654124209489
  0.3597604420210887  0.9747718421970893  0.2031543606743224
  0.3797524299459040  0.8045457143891054  0.4522493057809910
  0.0507995267603798  0.4066079380899442  0.0266210280898284
  0.8962435174315206  0.7421206746207363  0.0878143239218272
  0.1094395949272816  0.6907718276959208  0.3445284187279476
  0.0508998430974987  0.0767450393906908  0.0714209982959257
  0.8799454509031822  0.1157286599450101  0.0877988359418698
  0.5402741690634479  0.0375280446152997  0.5303873086896506
  0.6699880586376049  0.6980149909735051  0.8337478800184588
  0.2484518376086737  0.7357442697827379  0.6261404904437308
  0.4503358923837157  0.0136791441415712  0.0136634848085653
  0.5309118397409882  0.8412708733979108  0.5371836515562695
  0.5897644440102155  0.8837456126962266  0.0314059454784309
  0.4596002604704827  0.5742609990565306  0.9287217231498039
  0.1638515142308688  0.1539201621757514  0.6802457432451054
  0.6566717841192731  0.6908260576751359  0.3660098184462215
  0.3127004367263632  0.6019701327664426  0.5050310081430467
  0.7123069029624344  0.6487249978755087  0.0052586369939170
  0.4880172615812027  0.1160916991240653  0.8363808176989719
  0.4906509746711768  0.6475704052496214  0.4452140186114095
  0.1701425720154140  0.9766022569200031  0.6101563074067294
  0.1595079315438258  0.5032782819904522  0.8491694560002911
  0.9871315299834053  0.9471952686858789  0.3716562330824121
  0.0431037230007336  0.1938653251298798  0.2837747598517819
  0.6854255225029583  0.8247738375269028  0.4526795778368407
  0.3551683423598296  0.4840755763856219  0.0539226035400954
  0.3307901651509670  0.7286929921268442  0.1130282212152219
  0.7446399545277294  0.2230311321026269  0.7210053249530858
  0.5892883738155454  0.4320326586031017  0.7310056999765862
  0.9010910736466797  0.9852509527959651  0.4271825525271549
  0.3056678803189328  0.6122834626155741  0.7575110545670370
  0.2722907458819340  0.8158302147937473  0.8712480122222495
  0.7959724790558645  0.3168890593793803  0.8466795917228213
  0.3043047338251975  0.1254606785767161  0.9869623244643394
  0.0700361414762852  0.7514095500108284  0.7102575744059801
  0.8186862291579308  0.2582803166685184  0.1720403855012886
  0.0424585555743175  0.1204259246179470  0.1709917511185689
  0.4376500627618227  0.6870660768376644  0.2547222903275360
  0.9589453791373674  0.3331143210826942  0.8820695388292570
  0.8932760384407507  0.4176922043257522  0.1092555448060829
  0.3891955749093110  0.4028428188971312  0.9029475574791188
  0.9665205922163709  0.5550515923565430  0.0294039919671577
  0.7526974531900840  0.3611962865844572  0.0170414431673954
  0.3689577034405734  0.9833611800867287  0.8569130484852726
  0.9731536363440421  0.2083883922309518  0.6407630603564712
  0.5000737900377890  0.6382015968765897  0.0979118120158556
  0.4032810027076821  0.7452680652281420  0.5377549345393499
  0.3006014942330785  0.9183620999227503  0.7132748374772727
  0.7392183404717850  0.5834162691816440  0.2423294979555476
  0.0090877340922804  0.8554165607331268  0.6234460483249784
  0.6918820337918111  0.3613695150944001  0.1808868453754202
  0.1837845389490466  0.9846561583225306  0.0448385464770189
  0.7841069684103927  0.1291090110009238  0.2913618047669250
  0.4025594882091318  0.1237517171351663  0.1292577447241901
  0.7428770961986395  0.1743180527859333  0.4589335354210010
  0.1404522861135412  0.0799529840297213  0.9275478556396998
  0.2021006031450787  0.3572686333128817  0.9206860547638899
  0.6861686353755810  0.0570760713352065  0.6489693578450695
  0.6415390576802845  0.0900131952573106  0.2259268666815559
  0.5542450788940846  0.8156754506031045  0.8735585631760292
  0.1125741124033714  0.0738889596379031  0.3838754453521737
  0.8827749355382176  0.1448691273243555  0.6286620379273783
  0.8407000326012390  0.4004663776141598  0.4671099567493501
  0.1683219347127853  0.0218052776574655  0.7702505733859607
  0.1557686944601881  0.8170436753213024  0.0780431028232012
  0.3679776073796951  0.5028099815263685  0.6246702207083848
  0.7479567755405865  0.7870468561421636  0.2009028786925425
  0.3737468074143377  0.2377020557768305  0.4932460989907378
  0.1382412422532841  0.2513853009456905  0.0519055273018146
  0.6683656483178469  0.5338851746720760  0.1735976740675003
  0.0478696832236421  0.6003162187717174  0.2058974338910742
  0.2035093341383795  0.1791431578476056  0.5064254327573550
  0.4201335514649388  0.3611886114435569  0.7025667925160214
  0.5582216494318000  0.3440216160674239  0.9403796426345394
  0.9813472690263598  0.4964347806182645  0.4298499556926364
  0.5186673759164733  0.6721442799718128  0.6208781222426429
  0.5801953832105280  0.8301212770674535  0.2095377025009806
  0.2053504981496949  0.7714803317977613  0.4470235317098292
  0.4625990536738528  0.6201580558051922  0.7713359398693242
  0.4861479313788679  0.5119093574469580  0.2664667218483548
  0.2263891415212064  0.6012708277061291  0.2505095740125365
  0.0097741310427197  0.0133723519414903  0.5509779305238982
  0.7680078105338838  0.0020508014903983  0.4726874873448952
  0.4021116352188157  0.7763678789868343  0.7098717032548807
  0.0665884460535978  0.8553857730117620  0.2214380417412430
  0.8130090173330619  0.0791672191603050  0.7784419310732716
  0.7135921528827411  0.1911397770387302  0.1071077086469147
  0.2055313633297968  0.2915756438901422  0.2577286338317695
  0.3296237791672660  0.8434849478351012  0.1425404600727813
  0.5909910401016673  0.9523876341004782  0.3463355392654449
  0.7819299360686202  0.8866427595722941  0.5963734603823251
  0.2147204781875438  0.3425689374658668  0.4451495469815129
  0.8521507567416042  0.5919478513766270  0.5107880445744307
  0.0705369912058620  0.1440398750615670  0.4794576218330649
  0.6383942015527119  0.4035061935571227  0.5455905151736864
  0.4596846878007895  0.4770120410972848  0.4654583368553282
  0.6911170808389832  0.2798928878543354  0.4794576366307164
  0.5652959067333251  0.4652714576731934  0.0917788534935006
  0.9132930990157276  0.7364856800012518  0.8224977929928668
  0.9168261452291495  0.3810526564986680  0.2851193719035587
 -0.0036372314550715  0.1644648793839599  0.8505226444400292
  0.4630678650890948  0.1985700852129554  0.5901576206244529
  0.9127133591070372  0.5175623133052956  0.1715000381331242
  0.6921102025130293  0.4425853042047592  0.8569691350837585
  0.1382539150777456  0.6343482558979061  0.5110447469331209
  0.1214131960992236  0.1770087564070425  0.8683313055620258
  0.2303112402215649  0.8966958661557538  0.3218640385242416
  0.8382270872037584  0.9378899601859590  0.1372180242971824
  0.0604548916279593  0.3240154507671315  0.5158344481780126
  0.3885228373020845  0.9531583925871645  0.5418536153567931
  0.4078341214230520  0.3949312372312332  0.1726160089270849
  0.9764909732841363  0.2263025076645891  0.0292015986650878
  0.2787163211716457  0.2103695553702565  0.3567069173586344
  0.6016256110021920  0.1503107360865584  0.0592917162309933
  0.0525306261814309  0.2827410594072841  0.7304063833096809
  0.7170224371680788  0.5272394754294837  0.4270315443737957
  0.0185634216335501  0.0503179468443950  0.3248586995296925
  0.0472904490303992  0.7523022170446879  0.9697791530295471
  0.5643451462411214  0.2532538464203728  0.3066296714636881
  0.4211828892022301  0.2353521604539209  0.8709276533502127
  0.9778631023046910  0.0463410274804014  0.8215127681876797
  0.5266298405856172  0.7829597217132369  0.3663523395817929
  0.1930832069516283  0.1371003183454140  0.1988014816731740
  0.4717473962388433  0.0714893790817806  0.3008631859508329
  0.9437155124769572  0.3965622671195589  0.6198118491791946
  0.6729770134218193  0.5823570396189751  0.5996252629239659
  0.1469164106628768  0.3670449932706109  0.7157436757879231
  0.8148318074126856  0.6980112456831140  0.6828294033010163
  0.2472970440012607  0.0412679407366291  0.4576105819580578
  0.6215391195273002  0.8996155353847148  0.7120427347150547
  0.7409028358073753  0.2494331467541488  0.6012405384348328
  0.9529878299097652  0.8239325964845472  0.4651285006678106
  0.6933336939891607  0.1304596973979340  0.3652467257076866
  0.1142073350432545  0.9157744445151987  0.4753881849078690
  0.1895909254176665  0.0229541728635764  0.2648829340534618
  0.8627489450022885  0.3009503407108649  0.0331619143242025
  0.2490651073829106  0.6314134146226934  0.8664665836973222
  0.1131001222523337  0.5631726944252665  0.6867363908177289
  0.5423491738945273  0.0160765923344081  0.7978574322449088
  0.6479235088218240  0.7560103792431906  0.6227137711903263
  0.1424530451862788  0.3707820838552876  0.1772356669874071
  0.9192981053159837  0.8958708557888815  0.9011169359230757
  0.2367943902619248  0.4028797414860636  0.1031124322574666
  0.2692860188601868  0.5948589120667647  0.0437953596212266
  0.7957117293935037  0.5037715674273087  0.9563160447164136
  0.7932932421378016  0.0533114215814324  0.1339211487826488
  0.7111346600184977  0.0126137377850855  0.9635555689188238
  0.1993188899009806  0.4545894384600586  0.5665714281717436
  0.1906208899638796  0.6767057472025259  0.9859186450114853
  0.9392524565754383  0.5694533150300400  0.6013081629768499
  0.7329095615955750  0.1684962284229342  0.9129280480882086
  0.0127877108618171  0.5584494097259930  0.3145081212967398
  0.6119294639683320  0.2546416466634097  0.7978372835715413
  0.7819266944756368  0.8833658121425441  0.0342003240000187
  0.7703227476651335  0.6667515764459985  0.3886078939075683
  0.1637660500847336  0.8063077169589640  0.8279272016791654
  0.4583618560654210  0.2420992300989851 -0.0085512769925133
  0.5525303712875773  0.1646397043150261  0.6762485712406946
 
  0.00000000E+00  0.00000000E+00  0.00000000E+00
  0.00000000E+00  0.00000000E+00  0.00000000E+00
  0.00000000E+00  0.00000000E+00  0.00000000E+00
  0.00000000E+00  0.00000000E+00  0.00000000E+00
  0.00000000E+00  0.00000000E+00  0.00000000E+00
  0.00000000E+00  0.00000000E+00  0.00000000E+00
  0.00000000E+00  0.00000000E+00  0.00000000E+00
  0.00000000E+00  0.00000000E+00  0.00000000E+00
  0.00000000E+00  0.00000000E+00  0.00000000E+00
  0.00000000E+00  0.00000000E+00  0.00000000E+00
  0.00000000E+00  0.00000000E+00  0.00000000E+00
  0.00000000E+00  0.00000000E+00  0.00000000E+00
  0.00000000E+00  0.00000000E+00  0.00000000E+00
  0.00000000E+00  0.00000000E+00  0.00000000E+00
  0.00000000E+00  0.00000000E+00  0.00000000E+00
  0.00000000E+00  0.00000000E+00  0.00000000E+00
  0.00000000E+00  0.00000000E+00  0.00000000E+00
  0.00000000E+00  0.00000000E+00  0.00000000E+00
  0.00000000E+00  0.00000000E+00  0.00000000E+00
  0.00000000E+00  0.00000000E+00  0.00000000E+00
  0.00000000E+00  0.00000000E+00  0.00000000E+00
  0.00000000E+00  0.00000000E+00  0.00000000E+00
  0.00000000E+00  0.00000000E+00  0.00000000E+00
  0.00000000E+00  0.00000000E+00  0.00000000E+00
  0.00000000E+00  0.00000000E+00  0.00000000E+00
  0.00000000E+00  0.00000000E+00  0.00000000E+00
  0.00000000E+00  0.00000000E+00  0.00000000E+00
  0.00000000E+00  0.00000000E+00  0.00000000E+00
  0.00000000E+00  0.00000000E+00  0.00000000E+00
  0.00000000E+00  0.00000000E+00  0.00000000E+00
  0.00000000E+00  0.00000000E+00  0.00000000E+00
  0.00000000E+00  0.00000000E+00  0.00000000E+00
  0.00000000E+00  0.00000000E+00  0.00000000E+00
  0.00000000E+00  0.00000000E+00  0.00000000E+00
  0.00000000E+00  0.00000000E+00  0.00000000E+00
  0.00000000E+00  0.00000000E+00  0.00000000E+00
  0.00000000E+00  0.00000000E+00  0.00000000E+00
  0.00000000E+00  0.00000000E+00  0.00000000E+00
  0.00000000E+00  0.00000000E+00  0.00000000E+00
  0.00000000E+00  0.00000000E+00  0.00000000E+00
  0.00000000E+00  0.00000000E+00  0.00000000E+00
  0.00000000E+00  0.00000000E+00  0.00000000E+00
  0.00000000E+00  0.00000000E+00  0.00000000E+00
  0.00000000E+00  0.00000000E+00  0.00000000E+00
  0.00000000E+00  0.00000000E+00  0.00000000E+00
  0.00000000E+00  0.00000000E+00  0.00000000E+00
  0.00000000E+00  0.00000000E+00  0.00000000E+00
  0.00000000E+00  0.00000000E+00  0.00000000E+00
  0.00000000E+00  0.00000000E+00  0.00000000E+00
  0.00000000E+00  0.00000000E+00  0.00000000E+00
  0.00000000E+00  0.00000000E+00  0.00000000E+00
  0.00000000E+00  0.00000000E+00  0.00000000E+00
  0.00000000E+00  0.00000000E+00  0.00000000E+00
  0.00000000E+00  0.00000000E+00  0.00000000E+00
  0.00000000E+00  0.00000000E+00  0.00000000E+00
  0.00000000E+00  0.00000000E+00  0.00000000E+00
  0.00000000E+00  0.00000000E+00  0.00000000E+00
  0.00000000E+00  0.00000000E+00  0.00000000E+00
  0.00000000E+00  0.00000000E+00  0.00000000E+00
  0.00000000E+00  0.00000000E+00  0.00000000E+00
  0.00000000E+00  0.00000000E+00  0.00000000E+00
  0.00000000E+00  0.00000000E+00  0.00000000E+00
  0.00000000E+00  0.00000000E+00  0.00000000E+00
  0.00000000E+00  0.00000000E+00  0.00000000E+00
  0.00000000E+00  0.00000000E+00  0.00000000E+00
  0.00000000E+00  0.00000000E+00  0.00000000E+00
  0.00000000E+00  0.00000000E+00  0.00000000E+00
  0.00000000E+00  0.00000000E+00  0.00000000E+00
  0.00000000E+00  0.00000000E+00  0.00000000E+00
  0.00000000E+00  0.00000000E+00  0.00000000E+00
  0.00000000E+00  0.00000000E+00  0.00000000E+00
  0.00000000E+00  0.00000000E+00  0.00000000E+00
  0.00000000E+00  0.00000000E+00  0.00000000E+00
  0.00000000E+00  0.00000000E+00  0.00000000E+00
  0.00000000E+00  0.00000000E+00  0.00000000E+00
  0.00000000E+00  0.00000000E+00  0.00000000E+00
  0.00000000E+00  0.00000000E+00  0.00000000E+00
  0.00000000E+00  0.00000000E+00  0.00000000E+00
  0.00000000E+00  0.00000000E+00  0.00000000E+00
  0.00000000E+00  0.00000000E+00  0.00000000E+00
  0.00000000E+00  0.00000000E+00  0.00000000E+00
  0.00000000E+00  0.00000000E+00  0.00000000E+00
  0.00000000E+00  0.00000000E+00  0.00000000E+00
  0.00000000E+00  0.00000000E+00  0.00000000E+00
  0.00000000E+00  0.00000000E+00  0.00000000E+00
  0.00000000E+00  0.00000000E+00  0.00000000E+00
  0.00000000E+00  0.00000000E+00  0.00000000E+00
  0.00000000E+00  0.00000000E+00  0.00000000E+00
  0.00000000E+00  0.00000000E+00  0.00000000E+00
  0.00000000E+00  0.00000000E+00  0.00000000E+00
  0.00000000E+00  0.00000000E+00  0.00000000E+00
  0.00000000E+00  0.00000000E+00  0.00000000E+00
  0.00000000E+00  0.00000000E+00  0.00000000E+00
  0.00000000E+00  0.00000000E+00  0.00000000E+00
  0.00000000E+00  0.00000000E+00  0.00000000E+00
  0.00000000E+00  0.00000000E+00  0.00000000E+00
  0.00000000E+00  0.00000000E+00  0.00000000E+00
  0.00000000E+00  0.00000000E+00  0.00000000E+00
  0.00000000E+00  0.00000000E+00  0.00000000E+00
  0.00000000E+00  0.00000000E+00  0.00000000E+00
  0.00000000E+00  0.00000000E+00  0.00000000E+00
  0.00000000E+00  0.00000000E+00  0.00000000E+00
  0.00000000E+00  0.00000000E+00  0.00000000E+00
  0.00000000E+00  0.00000000E+00  0.00000000E+00
  0.00000000E+00  0.00000000E+00  0.00000000E+00
  0.00000000E+00  0.00000000E+00  0.00000000E+00
  0.00000000E+00  0.00000000E+00  0.00000000E+00
  0.00000000E+00  0.00000000E+00  0.00000000E+00
  0.00000000E+00  0.00000000E+00  0.00000000E+00
  0.00000000E+00  0.00000000E+00  0.00000000E+00
  0.00000000E+00  0.00000000E+00  0.00000000E+00
  0.00000000E+00  0.00000000E+00  0.00000000E+00
  0.00000000E+00  0.00000000E+00  0.00000000E+00
  0.00000000E+00  0.00000000E+00  0.00000000E+00
  0.00000000E+00  0.00000000E+00  0.00000000E+00
  0.00000000E+00  0.00000000E+00  0.00000000E+00
  0.00000000E+00  0.00000000E+00  0.00000000E+00
  0.00000000E+00  0.00000000E+00  0.00000000E+00
  0.00000000E+00  0.00000000E+00  0.00000000E+00
  0.00000000E+00  0.00000000E+00  0.00000000E+00
  0.00000000E+00  0.00000000E+00  0.00000000E+00
  0.00000000E+00  0.00000000E+00  0.00000000E+00
  0.00000000E+00  0.00000000E+00  0.00000000E+00
  0.00000000E+00  0.00000000E+00  0.00000000E+00
  0.00000000E+00  0.00000000E+00  0.00000000E+00
  0.00000000E+00  0.00000000E+00  0.00000000E+00
  0.00000000E+00  0.00000000E+00  0.00000000E+00
  0.00000000E+00  0.00000000E+00  0.00000000E+00
  0.00000000E+00  0.00000000E+00  0.00000000E+00
  0.00000000E+00  0.00000000E+00  0.00000000E+00
  0.00000000E+00  0.00000000E+00  0.00000000E+00
  0.00000000E+00  0.00000000E+00  0.00000000E+00
  0.00000000E+00  0.00000000E+00  0.00000000E+00
  0.00000000E+00  0.00000000E+00  0.00000000E+00
  0.00000000E+00  0.00000000E+00  0.00000000E+00
  0.00000000E+00  0.00000000E+00  0.00000000E+00
  0.00000000E+00  0.00000000E+00  0.00000000E+00
  0.00000000E+00  0.00000000E+00  0.00000000E+00
  0.00000000E+00  0.00000000E+00  0.00000000E+00
  0.00000000E+00  0.00000000E+00  0.00000000E+00
  0.00000000E+00  0.00000000E+00  0.00000000E+00
  0.00000000E+00  0.00000000E+00  0.00000000E+00
  0.00000000E+00  0.00000000E+00  0.00000000E+00
  0.00000000E+00  0.00000000E+00  0.00000000E+00
  0.00000000E+00  0.00000000E+00  0.00000000E+00
  0.00000000E+00  0.00000000E+00  0.00000000E+00
  0.00000000E+00  0.00000000E+00  0.00000000E+00
  0.00000000E+00  0.00000000E+00  0.00000000E+00
  0.00000000E+00  0.00000000E+00  0.00000000E+00
  0.00000000E+00  0.00000000E+00  0.00000000E+00
  0.00000000E+00  0.00000000E+00  0.00000000E+00
  0.00000000E+00  0.00000000E+00  0.00000000E+00
  0.00000000E+00  0.00000000E+00  0.00000000E+00
  0.00000000E+00  0.00000000E+00  0.00000000E+00
  0.00000000E+00  0.00000000E+00  0.00000000E+00
  0.00000000E+00  0.00000000E+00  0.00000000E+00
  0.00000000E+00  0.00000000E+00  0.00000000E+00
  0.00000000E+00  0.00000000E+00  0.00000000E+00
  0.00000000E+00  0.00000000E+00  0.00000000E+00
  0.00000000E+00  0.00000000E+00  0.00000000E+00
  0.00000000E+00  0.00000000E+00  0.00000000E+00
  0.00000000E+00  0.00000000E+00  0.00000000E+00
  0.00000000E+00  0.00000000E+00  0.00000000E+00
  0.00000000E+00  0.00000000E+00  0.00000000E+00
  0.00000000E+00  0.00000000E+00  0.00000000E+00
  0.00000000E+00  0.00000000E+00  0.00000000E+00
  0.00000000E+00  0.00000000E+00  0.00000000E+00
  0.00000000E+00  0.00000000E+00  0.00000000E+00
  0.00000000E+00  0.00000000E+00  0.00000000E+00
  0.00000000E+00  0.00000000E+00  0.00000000E+00
  0.00000000E+00  0.00000000E+00  0.00000000E+00
  0.00000000E+00  0.00000000E+00  0.00000000E+00
  0.00000000E+00  0.00000000E+00  0.00000000E+00
  0.00000000E+00  0.00000000E+00  0.00000000E+00
  0.00000000E+00  0.00000000E+00  0.00000000E+00
  0.00000000E+00  0.00000000E+00  0.00000000E+00
  0.00000000E+00  0.00000000E+00  0.00000000E+00
  0.00000000E+00  0.00000000E+00  0.00000000E+00
  0.00000000E+00  0.00000000E+00  0.00000000E+00
  0.00000000E+00  0.00000000E+00  0.00000000E+00
  0.00000000E+00  0.00000000E+00  0.00000000E+00
  0.00000000E+00  0.00000000E+00  0.00000000E+00
  0.00000000E+00  0.00000000E+00  0.00000000E+00
  0.00000000E+00  0.00000000E+00  0.00000000E+00
  0.00000000E+00  0.00000000E+00  0.00000000E+00
  0.00000000E+00  0.00000000E+00  0.00000000E+00
  0.00000000E+00  0.00000000E+00  0.00000000E+00
  0.00000000E+00  0.00000000E+00  0.00000000E+00
  0.00000000E+00  0.00000000E+00  0.00000000E+00
  0.00000000E+00  0.00000000E+00  0.00000000E+00
  0.00000000E+00  0.00000000E+00  0.00000000E+00
  0.00000000E+00  0.00000000E+00  0.00000000E+00
  0.00000000E+00  0.00000000E+00  0.00000000E+00
  0.00000000E+00  0.00000000E+00  0.00000000E+00
  0.00000000E+00  0.00000000E+00  0.00000000E+00
  0.00000000E+00  0.00000000E+00  0.00000000E+00
  0.00000000E+00  0.00000000E+00  0.00000000E+00
  0.00000000E+00  0.00000000E+00  0.00000000E+00
  0.00000000E+00  0.00000000E+00  0.00000000E+00
  0.00000000E+00  0.00000000E+00  0.00000000E+00
  0.00000000E+00  0.00000000E+00  0.00000000E+00
  0.00000000E+00  0.00000000E+00  0.00000000E+00
  0.00000000E+00  0.00000000E+00  0.00000000E+00
  0.00000000E+00  0.00000000E+00  0.00000000E+00
  0.00000000E+00  0.00000000E+00  0.00000000E+00
  0.00000000E+00  0.00000000E+00  0.00000000E+00
  0.00000000E+00  0.00000000E+00  0.00000000E+00
  0.00000000E+00  0.00000000E+00  0.00000000E+00
  0.00000000E+00  0.00000000E+00  0.00000000E+00
  0.00000000E+00  0.00000000E+00  0.00000000E+00
  0.00000000E+00  0.00000000E+00  0.00000000E+00
  0.00000000E+00  0.00000000E+00  0.00000000E+00
  0.00000000E+00  0.00000000E+00  0.00000000E+00
  0.00000000E+00  0.00000000E+00  0.00000000E+00
  0.00000000E+00  0.00000000E+00  0.00000000E+00
  0.00000000E+00  0.00000000E+00  0.00000000E+00
  0.00000000E+00  0.00000000E+00  0.00000000E+00
  0.00000000E+00  0.00000000E+00  0.00000000E+00
  0.00000000E+00  0.00000000E+00  0.00000000E+00
  0.00000000E+00  0.00000000E+00  0.00000000E+00
  0.00000000E+00  0.00000000E+00  0.00000000E+00
  0.00000000E+00  0.00000000E+00  0.00000000E+00
  0.00000000E+00  0.00000000E+00  0.00000000E+00
  0.00000000E+00  0.00000000E+00  0.00000000E+00
  0.00000000E+00  0.00000000E+00  0.00000000E+00
  0.00000000E+00  0.00000000E+00  0.00000000E+00
  0.00000000E+00  0.00000000E+00  0.00000000E+00
  0.00000000E+00  0.00000000E+00  0.00000000E+00
  0.00000000E+00  0.00000000E+00  0.00000000E+00
  0.00000000E+00  0.00000000E+00  0.00000000E+00
  0.00000000E+00  0.00000000E+00  0.00000000E+00
  0.00000000E+00  0.00000000E+00  0.00000000E+00