Ge
 1.0000000000000000
    19.3459416213081710    0.0000000000000000    0.0000000000000000
     0.0000000000000000   19.3459416213081674    0.0000000000000000
     0.0000000000000000    0.0000000000000000   19.3459416213081674
 Ge 
 300
Direct
  0.0498868982185352  0.3944661402074121  0.6753354048915885
  0.1213734654685069  0.8220888758313145  0.8159641319223995
  0.1830527227133731  0.0796057207909691  0.7624412312897981
  0.0171599600535731  0.5888047543380682  0.0231437486053093
  0.0763306649565253  0.2071907356658882  0.4877970771780928
  0.1951495799613200  0.8013424660506604  0.3765054898205155
  0.6892612610137800  0.6140127380499779  0.2004592491233968
  0.1099199563122021  0.9398802144994054  0.5136088010948883
  0.1719423157373891  0.8839233657775493  0.2662924731809806
  0.6315315195247426  0.7175666610474951  0.6231379706560609
  0.0725704690125646  0.0913722238800344  0.4119033416802433
  0.7525161537971143  0.3050454407826715  0.9551170927960074
  0.4218343940866945  0.6673879680446881  0.8749281492863475
  0.0568400146617746  0.4855229544756842  0.5228526750434503
  0.8059890485248704  0.8112200811004397  0.9646701541640784
  0.1358960157618550  0.3908916474154948  0.5713158498145309
  0.8924500799140600  0.2996368044891707  0.5487816181224313
  0.7282899707760937  0.0307210902982627  0.6030974291161469
  0.9598605437201537  0.2525310612112602  0.4403737608232766
  0.3708096348464773  0.8986618538048560  0.0610312204482511
  0.7912437002191871  0.1306319063470252  0.6606366197874080
  0.7269053677676179  0.8761156440531686  0.8845769342664098
  0.0327324133182200  0.5959584351231587  0.3597132804557276
  0.5681536787034909  0.5217603248966673  0.0567557908394650
  0.2899964078937494  0.7900187373209019  0.7815443364707807
  0.2001484226709045  0.1606686066920400  0.6591451426071148
  0.9128630820419524  0.1463105343184353  0.8090553759881781
  0.2351676839981627  0.7753605686345451  0.9902978493710600
  0.5892256313722675  0.5473646264528405  0.9247200714409427
  0.4405251685449659  0.6561857028131598  0.0044430124311550
  0.1056787517898692  0.4984679704843342  0.4042940927939195
  0.9359679593664508  0.4379052183209076  0.8974738999515286
  0.5888974088538603  0.0673205694501635  0.9003643427672509
  0.5652453535909159  0.4610406727314514  0.2553690548020407
  0.6668093324172141  0.6573956087676396  0.9125319777229036
  0.3363396014168435  0.2921582460030365  0.1162299689942390
  0.1691873841668432  0.3862623542683248  0.3727804993403377
  0.6158681519027247  0.7028315571215749  0.4924727321212596
  0.2841094432910911  0.0009896462745283  0.3545985905115867
  0.9328156121338086  0.7340926024412397  0.1118382634807916
  0.7110644464711571  0.6796131897587240  0.7924436446215262
  0.2864932084729631  0.1201226636865346  0.2968874741889488
  0.1311336175311102  0.6179420538266421  0.0865261764697678
  0.0606022848105578  0.1933596581895927  0.3126575994454855
  0.4893499486797380  0.5663516377453430  0.8395468081118114
  0.2514613260105222  0.4460226409143944  0.5990686819264314
  0.6735498730545051  0.3150923434128945  0.1689096678721832
  0.7884751501754552  0.2187896939946509  0.5662771851205349
  0.7699958495635221  0.8520436571723882  0.0852189862725864
  0.2147604931437291  0.5923276123166604  0.8881815022255668
  0.6884649651555081  0.5445781169829448  0.4941134009737606
  0.3955265621719835  0.6843846184747705  0.5165323855096775
  0.7799015707004179  0.0101118486222997  0.2381246077462732
  0.4300167401693095  0.7959692327215029  0.1260951429981305
  0.8398010280365220  0.6603167253956133  0.7736566821050490
  0.2612122775554945  0.4856314811444226  0.2201286242656526
  0.3750534580285127  0.0643776337236829  0.2131346343572993
  0.6535430316991037  0.4390374582295923  0.7423764448719358
  0.8729148976667612  0.8373615385514026  0.2838778809982723
  0.8592171526565681  0.2449631546448410  0.0042260232845399
  0.8043116058666094  0.9740235867588114  0.4163268811169942
  0.3423967204146040  0.9441138576260857  0.2472585124335903
  0.8708589892541831  0.5161207789664850  0.3885735169182977
  0.6280966281220406  0.4128789641530189  0.9755796311265467
  0.6898385491187933  0.5002615655940099  0.2707365004030372
  0.2653699679146349  0.2829857750171512  0.0082322346982385
  0.5708649901783179  0.9583080557958956  0.1526089710280852
  0.0760472087768995  0.2304899266836883  0.7895108227642385
  0.9891909644093241  0.6540262438801058  0.4706470393077531
  0.6053219587321531  0.5306582270834074  0.6699104813910913
  0.3433064033703094  0.9916224660818788  0.4724523149010890
  0.7860875946385093  0.6211377809049088  0.4081793895448843
  0.3455103946973390  0.5832076731910980  0.4506106516022149
  0.7601080641628906  0.9022094421841397  0.3148083641437871
  0.3869867224715516  0.4052701693474836  0.0679322722113641
  0.6549990321522307  0.8128812180499140  0.3197601994869461
  0.5181579595274889  0.9701184546099950  0.3716231996838074
  0.2345296901805614  0.8803668833501767  0.8680332569707895
  0.3812075008131023  0.7902388144001282  0.4422770316709473
  0.7852116325234526  0.6250262493607486  0.0883833766057451
  0.7713492186142966  0.9857142590753619  0.8262785278111839
  0.0576307959832949  0.8247003848033393  0.5599320080861921
  0.1125410253734367  0.7440774580971483  0.1219538333723625
  0.3062175049832918  0.3400393766676210  0.8012081952179738
  0.2627531039676951  0.1017281025182057  0.0786202912667987
  0.0791796739014439  0.0048795048770194  0.1208946468524025
  0.4349347846366293  0.8025746912434215  0.6601186045880377
  0.1079266196518733  0.7228216827877645  0.4863806316406528
  0.6961659004047951  0.6189607845117809  0.6789052965157465
  0.8472034442831390  0.2285825987599008  0.2740562645926067
  0.6471573412875639  0.3357922856711759  0.4734236956327637
  0.7072018742129605  0.2743457067478653  0.8341824713523485
  0.6295397921209163  0.9037790893134910  0.5471048025119727
  0.5595966045706352  0.8965031316409408  0.2713360827561593
  0.7023248500597320  0.9808807183587760  0.1040519571850743
  0.0154767202425666  0.9053195433088426  0.0693471106196768
  0.6437090559221735  0.9918441820410223  0.8036756682214100
  0.3210897457212852  0.3430098973492719  0.6531383897504816
  0.3540202377249577  0.3178909981581179  0.2871263932605214
  0.7319374222246651  0.8070841649890316  0.7730066993344921
  0.4876729652142743  0.2339153267052571  0.9214694389088399
  0.7739556656732387  0.7463141245323442  0.5003667546465675
  0.2347114028805713  0.1165678469799857  0.5380244280140604
  0.4196351337682490  0.1790246080789128  0.7025862181371058
  0.8691594554689243  0.1710936377349181  0.3862918180989362
  0.0477513426351057  0.6022541319097663  0.5860362829155330
  0.9627338263903672  0.1778049177885673  0.2159182939308575
  0.9060715835142471  0.3305156912646126  0.0962554359369857
  0.5708793380967334  0.2149161651612768  0.6383399071290643
  0.4516965301956675  0.4458976301426099  0.8426765155308941
  0.6672218214182329  0.2343824796473054  0.3880272269130926
  0.8885963011023247  0.5748828295369630  0.5116657371849527
  0.3302908110664301  0.6711083959967896  0.2761326615422942
  0.3359350329853401  0.7074671720149499  0.1531289282686995
  0.0407382670237367  0.8502844982954672  0.2533144093963741
  0.2415471321866941  0.1820273931711442  0.1826536099556691
  0.4756938091104325  0.5469964878600757  0.2091839529955714
  0.9013875814389585  0.5565408540633483  0.0754672140241704
  0.2512924047987790  0.4666435986659568  0.8958827152220130
  0.2071502502005299  0.5434008582291064  0.6751007585624719
  0.5312019687873090  0.7303750766654219  0.0704558541286041
  0.2262654503436756  0.7381402551312751  0.5878455522467819
  0.1833959727968364  0.3744656979759527  0.9623242308041449
  0.1995568231822733  0.9894639279365763  0.0735337709939655
  0.5105873627615790  0.6285907426475049  0.4999823205640623
  0.5247049179596660  0.7166487862577818  0.7010523281440851
  0.5081123178188804  0.0161649581065315  0.5845037588242467
  0.9916123888320251  0.0213332019876358  0.3284406431985576
  0.5424672785326904  0.4118548087732766  0.4845414235658165
  0.8943208296469646  0.9601193994865056  0.5113011198873746
  0.0986639640148358  0.0013177324102167  0.7015955523975711
  0.1083812662863070  0.4784390639921746  0.0530994853342587
  0.5512825727918966  0.3509019907586405  0.1925962185189248
  0.4377114483932494  0.8525573125147907  0.2452361675642578
  0.0803822928134140  0.8509953341691138  0.4170107881377842
  0.7710488344137894  0.4365868917186241  0.9769918214748785
  0.1097953630527997  0.6516342209605257  0.2745981449373041
  0.8451928900995136  0.9558403412009105  0.1349199429085872
  0.6165482502368679  0.8768009178243965  0.9564533864125945
  0.8752866914326565  0.6279698095010027  0.8925319395976379
  0.3672899624566107  0.7683276450958425  0.9898194227121520
  0.0089059818026407  0.0284355923284064  0.5112725430605539
  0.2584049222354113  0.8196794380248632  0.4883394794272631
  0.9746518708845594  0.2858527663415341  0.6531598462127953
  0.9316257194835573  0.5113604918496955  0.1897118200501071
  0.5800396511050232  0.9036439364004366  0.7316244011094662
  0.5821607319223103  0.0410583989973984  0.4659490846349409
  0.9369255093860135  0.8589322262318045  0.1647875749064464
  0.5722253012633707  0.5226313521983083  0.5469107334221756
  0.3589215598085292  0.8797916389470840  0.9250420952311926
  0.8951346503577953  0.4354059542468110  0.0207106202706662
  0.4574658282725889  0.1780853894586489  0.5738620136935424
  0.5175581195042142  0.9623955471959185  0.9408715444508018
  0.3350148158748490  0.6118383015504663  0.0664309811238541
  0.5163090218063514  0.3923282496204534  0.0725536144140234
  0.4727009904997908  0.9822423035184455  0.0637188812331742
  0.0502649253977841  0.4882405601258666  0.9277083738029278
  0.5727540026849136  0.2827906391680053  0.8313702508404063
  0.1772652922180572  0.6197594121955496  0.5521155619072113
  0.5636165575300446  0.0895001733111562  0.1873027554155675
  0.6976958530512536  0.0297128939570981  0.9785563328151861
  0.2771067297310835  0.9868979225233359  0.7733284403428997
  0.5757910600958301  0.0988423192072920  0.0328298476643830
  0.9486023991965844  0.4313469843417379  0.4651660898064992
  0.8054249664406091  0.7447888066716810  0.1565930405673764
  0.6794150010888509  0.8328615116182454  0.6525111829960623
  0.4792012768848652  0.1890845590034304  0.1300396558109657
  0.2148685753965753  0.5814453263528420  0.4244108431387310
  0.9938483389010334  0.1042862159846096  0.1066169760653987
  0.7211434656903131  0.3628038665738058  0.6571231902276117
  0.1544212982711952  0.9292296204265883  0.9638734657473758
  0.2704517906238701  0.4726627275009108  0.3522471355095779
  0.1817392227253227  0.1618629001848878  0.8708714180767613
  0.1466396239334975  0.5517561511044549  0.1996307971078776
  0.8597228750319451  0.7070272880915823  0.3160213896855128
  0.0929792201579551  0.5749702620121078  0.8391513926505270
  0.0531706894430690  0.3581374452893267  0.9890201083110366
  0.3449031278391820  0.7091275227649430  0.6332290795852931
  0.4666968960084193  0.1884668830257803  0.3518370150560303
  0.3658462151279103  0.5107436647980028  0.1413033055697528
  0.0214428790084819  0.7278888500870452  0.2141528386729633
  0.5135369085601799  0.4639761781811897  0.3703105117765023
  0.0924935721987379  0.8164518852643430  0.0143439636958393
  0.7281136604192572  0.1596618941545428  0.7762363113418558
  0.6542565447961964  0.6203298425625529  0.3865921907126585
  0.9841702992285131  0.3216277809554545  0.8574048833214938
  0.0490038270115442  0.9260322596655676  0.7919928443758647
  0.4886596086565157  0.1052768784699277  0.7963393316796776
  0.7766151121809299  0.4715301422338358  0.7705809587108980
  0.3896270263741605  0.4153111298940654  0.3671090798015442
  0.1884376899121839  0.8063312384071578  0.6972192577327286
  0.7729930999003196  0.4373149082375895  0.3561202808547632
  0.6718256942082851  0.2722126698167955  0.5824051720019028
  0.2101869315911307  0.9337503278807989  0.6692652271390165
  0.9046888195803656  0.2699724271725980  0.7651784955220675
  0.5179367300736556  0.5938947260657979  0.3766661812693546
  0.6922877670838922  0.1104539544327014  0.2153775863032573
  0.8066972815792625  0.1227055275284475  0.0010651454317026
  0.4167029727491295  0.3854392596900595  0.4918148773621053
  0.9062579390589544  0.0827736862264731  0.6985119705896126
  0.8660290683133218  0.0543556755777155  0.3326018600952145
  0.3708052308058464  0.0454481973947277  0.6932326517329520
  0.7348381833361604  0.7178628934876721  0.2668951973813178
  0.0299496417830116  0.7773963588176521  0.9081743636061189
  0.9689539734612124  0.8942911611220603  0.3590783116539175
  0.4785118333286841  0.0716678966609609  0.2950799380007307
  0.9135511655926518  0.4952347965712052  0.6169063388670301
  0.0577484575417421  0.0004014341717020  0.8997539740232458
  0.3636920216254267  0.0828562911707085  0.5640329164494728
  0.8216349805554071  0.4082225778813725  0.5751246394610328
  0.8035349321891632  0.1036756828505111  0.8688503223724986
  0.9180883746403302  0.8499572818233105  0.9093334571974065
  0.5587073674598443  0.6476366828646370  0.1784574502118609
  0.2166849665416488  0.6807704904430710  0.3378261536327629
  0.8914240315618617  0.7384511553396098  0.4422146044024533
  0.4061697904008231  0.9893815703055698  0.8675159332903917
  0.5395807441556995  0.2634701125756636  0.0363266741219012
  0.5012473908088225  0.8825801554955330  0.5708900353456523
  0.8546243412541485  0.7818506745329772  0.7280724632689585
  0.2661392208566709  0.9055360786738675  0.1471689458737491
  0.0270785834479976  0.1300180771352457  0.8703660697784716
  0.3641694975700759  0.4915442597140670  0.5440776242507680
  0.4391084551393374  0.9042844528551752  0.4596513572586570
  0.8557488268561536  0.4058871051118973  0.1892902625011532
  0.4126840198758595  0.8500699560382948  0.7837045168187873
  0.2986737200066383  0.2250248134304147  0.7219806375954372
  0.7177674337669276  0.2308252295623859  0.2611455285672635
  0.1646441906670581  0.2934101664915820  0.2801291478092859
  0.4165382400062416  0.1206364433243435  0.9128156570662175
  0.8588027398155876  0.3531760634431909  0.3039884385053090
  0.7595155937058727  0.1679907284624302  0.4524227059412525
  0.3643073880278088  0.2895089512885671  0.9189757398370673
  0.4069019887982992  0.5194017655094263  0.6675276600395889
  0.3173485609672475  0.6049703380894147  0.7092265336981500
  0.2405293534446669  0.9401361937376025  0.5389352338427282
  0.1495754060530466  0.1200404887792795  0.2497823483017186
  0.0573534643488951  0.3579996419747414  0.2445759161746323
  0.5004243509041308  0.2891956246961734  0.7211508325950138
  0.8209741042073295  0.5628507401114682  0.6878263409560715
  0.7142720211898215  0.0484187544429471  0.4748682595369401
  0.6052890333744950  0.1311096591639026  0.7355173674553303
  0.8596416573337148  0.9683436202471586  0.7327183932120493
  0.9225769845497384  0.5878758870367958  0.2946358169128248
  0.7832060629232352  0.6818056747300132  0.9692176669783176
  0.0052425290486186  0.6491296548486180  0.9089071910858905
  0.6700344862157804  0.2601855290907435  0.0501466406663140
  0.7382833923961393  0.4266446287672124  0.4777941137670084
  0.8195599957321489  0.9397727192415648  0.6148009515256577
  0.0178964258422489  0.0770288253616874  0.6323294676453611
  0.3981814748330613  0.0934944097285370  0.0843692640226094
  0.7315407274870268  0.4322164852951281  0.1674419062460315
  0.5783945194556814  0.7542513512431306  0.9381080905726570
  0.0759098319095012  0.5331244684866454  0.7088107913391450
  0.0922461712977623  0.3961456518970855  0.8047230238798567
  0.3028360447361823  0.6643601968085439  0.8233989244118973
  0.3768282459449168  0.2799294372632304  0.5509190208597654
  0.4189480651442340  0.3988540766920873  0.7243880059284123
  0.9773810676496381  0.3572485108632606  0.3570275339956994
  0.1730624464092651  0.3248323404877837  0.7094034653987079
  0.7034069836707354  0.5107174174515057  0.0666325065047911
  0.0632603636072959  0.2069874246821034  0.0531335544806073
  0.0953026802386356  0.0009732994744321  0.2498990219158649
  0.0716220612044424  0.1959367702026067  0.6223562639376193
  0.3130249161460670  0.1853249480581789  0.8517973187872732
  0.3365951524411711  0.2170185468028477  0.3694248485472967
  0.2569528166107614  0.3535855122061686  0.2037579501968783
  0.8028635523162261  0.8127020692558266  0.6110634742614984
  0.8945539192940700  0.0396839068935785  0.0461239085257650
  0.5424010256699948  0.7045230392329491  0.3035357412289344
  0.5776441317227454  0.4109730993749224  0.8485944089501901
  0.1868510041589370  0.1788308551611217  0.0028513178939715
  0.3943414981687673  0.5661310901537268  0.3215119785010704
  0.5038186139275729  0.5904833841670566  0.7142606459293265
  0.9557638294931923  0.9587771792136381  0.9677186908547101
  0.1655349400383640  0.3048344377041318  0.4754945023956775
  0.5012871721888501  0.7590955477766678  0.8272766136303321
  0.6653691968537541  0.8147033431694169  0.4526153552729735
  0.1836164489411784  0.2959734153719575  0.8505730983097154
  0.2361235814216935  0.7823843746116445  0.1225093103067201
  0.9486860286595363  0.8462794844234219  0.4849892012253225
  0.4671320575960229  0.9756730480064346  0.7481121876526217
  0.6148743949654444  0.0189095078137278  0.6652293423078557
  0.6993929402397864  0.1353973274080461  0.0796651188786757
  0.4171653061085553  0.7530463783551005  0.3238893097375335
  0.5580183732459817  0.1774124606304310  0.4462977854681345
  0.0110120345140219  0.2799019250133855  0.1521429811857437
  0.2256841974129364  0.6443116033774341  0.0036938914275172
  0.4646819887500448  0.2631537838895509  0.2404781704519650
  0.2757311324879866  0.2315368243718992  0.4864497797783943
  0.0519300629371265  0.4668711610783213  0.1758528036930260
  0.7701846043444980  0.6265212983118085  0.5563838831339070
  0.8262009056267362  0.5060129472574041  0.8814157557237328
  0.6320699047373080  0.8513866928100912  0.0849757812952159
  0.2201009305425371  0.4458833353905491  0.7678968777811643
  0.1544116610208293  0.9827175871588554  0.3782604567483593
  0.9289917474876276  0.8747160627210856  0.7823916474369188
  0.9799254302760712  0.2244053977175658  0.9515042968221044
  0.6140383567734490  0.0984982783290207  0.3394489648090324
  0.7927918833460721  0.3403602535606271  0.7614171137073362
  0.3668680403590245  0.4203206954894743  0.9372315952863001
