Sb                                      
   1.00000000000000     
    17.0273007965000041    0.0000000000000000    0.0000000000000000
     0.0000000000000000   17.0273007965000041    0.0000000000000000
     0.0000000000000000    0.0000000000000000   17.0273007965000041
   As   S 
    66   132
Direct
  0.0422611926696030  0.4686620868166345  0.5777730311876752
  0.3064314964546103  0.1599684904725283  0.5249465768437054
  0.6567193286379961  0.9091818526974054  0.1630645022377355
  0.0475453621668720  0.6073692462168010 -0.0147163802808344
  0.9121033038186792  0.1921457976198429  0.0118561384635527
  0.7084517662654213  0.6823950295566534  0.3494096154966170
  0.6035583896056019  0.7833102273783622  0.5772128797608791
  0.7490020271958667  0.9263796088916850  0.9544754365468661
  0.8532189440115368  0.9751964802853064  0.5559316786412760
  0.5676208149218858  0.0986039901955998  0.3567197252041557
  0.5359606963545783  0.4786486455235230  0.6527974891939751
  0.9958985874109610  0.7221038957924876  0.8908148508120038
  0.9246376501641013  0.3297770674373735  0.7522312241909302
  0.1179280825359121  0.7638324629842490  0.4390257816199018
  0.3338927269018119  0.0469991173156774  0.7589871559973365
  0.2686291245631691  0.4928799134142536  0.3589074221321495
  0.9035994677496272  0.5291447189824572  0.3485359518912591
  0.7673155228204331  0.3809231662476661  0.8579788536035711
  0.9049365484750225  0.1546736852179533  0.6543775760236099
  0.6614779236799463  0.5633195937330514  0.9191726874543394
  0.3349092449691908  0.2909410514238992  0.3322536285280730
  0.7533122350654277  0.9799508271385132  0.3549683565886395
  0.8828301602535862  0.1476646183720846  0.4113758293128867
  0.2496713423540735  0.1788081341430776  0.9115055022162875
  0.0439547103983148  0.0777648841630161  0.8083413520236926
  0.2517713177095821  0.5822974275695879  0.5949877639564063
  0.9185478319323732  0.3191886820164706  0.2851641202977175
  0.7243397446083116  0.5254007861001020  0.2633652950328900
  0.1085827313021982  0.0338825954163729  0.6436940045919113
  0.6155872636904124  0.1562784502092448  0.1308311725674571
  0.1469204271478981  0.6935414334461892  0.1343209425174839
  0.5847090114383638  0.9883369826884431  0.0028016040644754
  0.9806618915373676  0.8698578073661490  0.7362480040620131
  0.8669348195738817  0.8899308705057412  0.1481024461220028
  0.4725885634193071  0.3747498970468375  0.5167861112150773
  0.0722978030730292  0.6342088985896183  0.6932234880952005
  0.9827023789737126  0.3524865472287532  0.4493512237043714
  0.6652740470955921  0.6829456064048092  0.1549825402561407
  0.2212741130857295  0.9389143423065448  0.4852308870705718
  0.5385239980862480  0.2137668625672547  0.7719975191857219
  0.6848776146380814  0.7355419949041478  0.9258393729804891
  0.2143422531790480  0.8799554620242891  0.9103535649250288
  0.3077044369878872  0.0720629389580453  0.3212880929361433
  0.6016738544654943  0.9882142988531908  0.5010766082773205
  0.8696030677107711  0.6873671038837090  0.2077576846911785
  0.4753281435714254  0.2117291284153097  0.2146247629378976
  0.9639427178668415  0.9417953457202568  0.9370261357694628
  0.6460470973791858  0.6430878313242531  0.7168951476377686
  0.3173148721482998  0.6330068419967325  0.0295494485585931
  0.2900973070653487  0.5815531701976850  0.7843721965424938
  0.1520949153890866  0.2614746014410246  0.3754343437764358
  0.3529820916360038  0.4532308268001991  0.9117548102428495
  0.7805609785478215  0.7900642590099830  0.5048548623537290
  0.4755550239281445  0.3989944727210012  0.2947021842398326
  0.1865071928789388  0.4561015426213387  0.0614042135888743
  0.3675647307444558  0.3386948038337901  0.6925000148458433
  0.3320531114615551  0.0149126922314271  0.9826960821238713
  0.1581016745393401  0.4517404950096099  0.7483433813212291
  0.9550111822524154  0.0758564540813959  0.2107625230438205
  0.0616303405478273  0.2787106079606497  0.8888753371118527
  0.3463376673481980  0.5912571528341964  0.1975931054562731
  0.0915919955782030  0.0699327594803228  0.4178222899149366
  0.1558999666230725  0.9269073349273637  0.0881378459382487
  0.0731711303224259  0.8960693098863166  0.2763624555956740
  0.9132702415254128  0.7311198439736014  0.3828133004280578
  0.6576975240899484  0.1759329355030338  0.9342851296908724
  0.7699885951617363  0.9654955881912239  0.2130871627849509
  0.0910869922451568  0.9772675493232259  0.5217460338056708
  0.8863020304744198  0.4440828791162834  0.2485147149157349
  0.9358001517470211  0.2401175397327286  0.8510544027054776
  0.4975430458377769  0.1978277903209733  0.0865272485224498
  0.9675190998519323  0.6390165739750884  0.2964258877532216
  0.2437682236609251  0.1964250217382857  0.2928721332378149
  0.1478771442468011  0.8279796862624976  0.1856879341839460
  0.7647532466951608  0.6953864056083685  0.6795912782385534
  0.0912894836489840  0.9557526810887841  0.7559284716770059
  0.6696802217558339  0.3632010806423748  0.0263463924778924
  0.9781358034774831  0.5485917429576146  0.6616879793902695
  0.6463794313353346  0.3212614424488598  0.4922361517872429
  0.4251461093947969  0.8727124899210392  0.1719496914717715
  0.0194439161603284  0.3124338133863795  0.0146449537251099
  0.9212955901279263  0.8419164329104619  0.8572152238708887
  0.5571256049487581  0.1131734337916445  0.4881319506050215
  0.4641678789220487  0.8662603280098995  0.2877972488082302
  0.0441317325983664  0.1448167492247676  0.6894617397003876
  0.2691522982656753  0.9316073679863813  0.6161370078455708
  0.6720767735076395  0.0335890819572458  0.9102317548212904
  0.5329144286515053  0.4798499716520768  0.4480371601769986
  0.7802568714152216  0.3943411504058925 -0.0071397470669504
  0.6167369879801110  0.6152678307361589  0.2691356010548500
  0.3734056399530093  0.8267860524053675  0.3533127277470300
  0.3928148867084458  0.6513102946183398  0.4594550007253328
  0.8680115886550820  0.2848082325165098  0.4101512836266882
  0.6864932927484406  0.3983076627673164  0.2577705185674259
  0.5978771865016370  0.6605515942818385  0.8448610959296963
  0.2853164677072493  0.9946190686652931  0.2128477144343422
  0.2574097247340714  0.0031534916052583  0.8641236692349643
  0.5772515833788023  0.4073760065900308  0.2088922546283730
  0.2363684859618165  0.8072069641187792  0.4607346814362764
  0.4571643835240891  0.3062268783169038  0.3957238403646586
  0.0719911365851582  0.3509312173364646  0.7684082975842448
  0.7805906768096861  0.6320826706842969  0.9533233047371639
  0.3445944867608504  0.8381435492529956  0.7692019203613629
  0.2775215362729636  0.5981970539444326  0.4574124694917515
  0.2957555111264958  0.4392298748839208  0.7830235156663157
  0.5469515943827888  0.6788759501288625  0.6349334169886234
  0.3539274462096711  0.3932433613155443  0.5731235791843349
  0.2150824286933398  0.3109987514781742  0.9052462179467835
  0.7312496314790824  0.8054508596804560  0.6363792900074365
  0.1076758668808973  0.2841859405218422  0.0931233059595809
  0.7126638479665333  0.4173599015662759  0.5077104566270680
  0.1354392796809631  0.5085839991839260  0.9539412273870901
  0.2083135153244041  0.7089671504842301  0.0168371903234728
  0.8605160615932722  0.9626088544099631  0.0289929378547238
 -0.0031541071841666  0.1261618502639314  0.3357781230541864
  0.7354773681516420  0.2434375790596409  0.8375080969049502
  0.7169298953121089  0.1948034316261712  0.0524461520218112
  0.4618801665036704  0.9714958775227674  0.9366730528850502
  0.6610372385948482  0.7664012869576812  0.4440721938905133
  0.9471824773817357  0.4817666955144549  0.4671836569383309
  0.3905931222287458  0.3228959838310047  0.2130189782296951
  0.3087477351085636  0.5106537934326574  0.0935681909908877
  0.1516189419282907  0.5812062894368049  0.7927807173593394
  0.2482101877949618  0.3660106702968113  0.4059936737475412
  0.4494668834119170  0.8085874970121402  0.8256674971870623
  0.2789382913281199  0.8977197279721389  0.0308948396818788
  0.8162136885229474  0.0763153552747956  0.7234337005917065
  0.3938963239293601  0.9897307328375288  0.1603652250071445
  0.6505315661867921  0.4596135890080371  0.8251598317806570
  0.4604476916034826  0.0240804752231193  0.7271600753064527
  0.5304111621336143  0.1785251032710089  0.9004432986253744
  0.3446653307992110  0.6308376562947060  0.6751818149751336
  0.2519731963616191  0.7837243116716864  0.8228907744974036
  0.6176431844368951  0.9653745086231803  0.3613059126053025
  0.6797417423426757  0.5066774306409794  0.7158605521360146
  0.9501591116337414  0.9428145607394215  0.2445424902461241
  0.0396086307437244  0.6196803728164709  0.1197166973373440
  0.0533583913117470  0.3429554132068399  0.3305628857470294
  0.7196580748924117  0.0954713896404068  0.6541025763990889
  0.8335752486577754  0.9035151086747673  0.4383334735348474
  0.3339208471986760  0.1807459992589067  0.7995920869039771
  0.8931180563278983  0.7690243293382564  0.1053555358117167
  0.0233651422835222  0.0827641031077628  0.0953054193424461
  0.8946444565408741  0.2513728922674386  0.1717691188800483
  0.3620277856139192  0.5912408758321517  0.9022257931291670
  0.7742091130765796  0.5653892265187440  0.3841087193227821
  0.4086797668388466  0.7031861754531472  0.3564317870970310
  0.0538664945355730  0.3376003001884192  0.5583188168354790
  0.1526058225778078  0.6818577532672201  0.5923600777841899
  0.1359026675905126  0.0511918016079888  0.1332177384340393
  0.6694019682151782  0.2442557190427909  0.7358893038772215
  0.6316989236714524  0.7940942049425600  0.2233594917245481
  0.2503700180769656  0.0491499031376991  0.6429447547046312
  0.7810083403868437  0.5980204285627864  0.1572581083222187
  0.4096274049668103  0.6766553661237795  0.1193339955658235
  0.5773187674536240  0.0203434462756857  0.1347128046079135
  0.4465266989382653  0.8483513823660166  0.9378941396996693
  0.1416913954592816  0.1782227191011931  0.4801643567244585
  0.8533992139821084  0.4376486700727859  0.7773554954504850
  0.7197390338491194  0.9853068735660311  0.5891921203173492
  0.3194476797689423  0.1403847999486664  0.0172861676616743
  0.2774979407723583  0.3670198669070988 -0.0077915286050176
  0.3921058193643434  0.5170747410065546  0.3050601359223911
  0.1818158975119555  0.4671735551916458  0.6100967351079574
  0.4780766354550280  0.4039218362129802  0.9248166473588132
  0.5010247087574220  0.4627993356184852  0.0310201987312607
  0.0171650102346463  0.8278281462443801  0.3848276545497225
  0.4360530259689270  0.1195053676925531  0.3067419350640275
  0.5717132935261974  0.3182903884956585  0.5908117077207549
  0.4814053340141801  0.3395985996361369  0.7568112998188414
  0.6504779083020414  0.8702155112110785  0.0323101661568196
  0.1575533234271509  0.9813839396522871  0.3385150591061106
  0.1173234320492634  0.1492361855709786  0.8999329094696762
  0.5300152309147067  0.8918630352835147  0.5591161991481367
  0.6254307604894269  0.5094396848202970  0.5167445083477947
  0.4853120778115566  0.1309722468079556  0.6758452935577806
  0.8416949943082428  0.1461043390710953  0.2010367374512539
  0.9348317164982243  0.0562082046321265  0.8783132050367755
  0.7608071531171455  0.1078203718420927  0.3849594837135001
  0.2754463370139361  0.2393738661956226  0.7104406694710964
  0.3185888215484123  0.0261987441159978  0.4468142229784045
  0.6154994928007710  0.6725323221133721  0.0287136847490684
  0.8739489839730147  0.2804311926508563  0.6394115994441438
  0.0862010070830783  0.6475593645591908  0.4952206896712956
  0.6079445512829209  0.1965382700861875  0.2655979645501774
  0.2243986672162580  0.6434700950937010  0.2488075560198698
  0.9263674659935912  0.8773990108333635  0.6157092601188444
  0.0868105323233954  0.8858360840091298  0.9751967652447410
  0.1693370384505305  0.5377688621635808  0.2789834262289328
  0.9222658069690310  0.0902859515882194  0.5312213939390741
  0.8085788214333417  0.7680577403715336  0.3019672507094011
  0.6190176827035945  0.4832583120132552  0.0306413637863874
  0.9462924156978612  0.5352964485572220  0.9223109289546797
  0.0459623746649845  0.7475383384221266  0.7600942564769329
  0.8759467631786544  0.6158495070557881  0.8716664896822329
  0.1292534217529101  0.3848583163050966  0.1573707208874947
  0.8783157304801171  0.7005194042403313  0.5051845982920955
  0.7299971621773784  0.8370999155662792  0.8566731570249316
 
  0.00000000E+00  0.00000000E+00  0.00000000E+00
  0.00000000E+00  0.00000000E+00  0.00000000E+00
  0.00000000E+00  0.00000000E+00  0.00000000E+00
  0.00000000E+00  0.00000000E+00  0.00000000E+00
  0.00000000E+00  0.00000000E+00  0.00000000E+00
  0.00000000E+00  0.00000000E+00  0.00000000E+00
  0.00000000E+00  0.00000000E+00  0.00000000E+00
  0.00000000E+00  0.00000000E+00  0.00000000E+00
  0.00000000E+00  0.00000000E+00  0.00000000E+00
  0.00000000E+00  0.00000000E+00  0.00000000E+00
  0.00000000E+00  0.00000000E+00  0.00000000E+00
  0.00000000E+00  0.00000000E+00  0.00000000E+00
  0.00000000E+00  0.00000000E+00  0.00000000E+00
  0.00000000E+00  0.00000000E+00  0.00000000E+00
  0.00000000E+00  0.00000000E+00  0.00000000E+00
  0.00000000E+00  0.00000000E+00  0.00000000E+00
  0.00000000E+00  0.00000000E+00  0.00000000E+00
  0.00000000E+00  0.00000000E+00  0.00000000E+00
  0.00000000E+00  0.00000000E+00  0.00000000E+00
  0.00000000E+00  0.00000000E+00  0.00000000E+00
  0.00000000E+00  0.00000000E+00  0.00000000E+00
  0.00000000E+00  0.00000000E+00  0.00000000E+00
  0.00000000E+00  0.00000000E+00  0.00000000E+00
  0.00000000E+00  0.00000000E+00  0.00000000E+00
  0.00000000E+00  0.00000000E+00  0.00000000E+00
  0.00000000E+00  0.00000000E+00  0.00000000E+00
  0.00000000E+00  0.00000000E+00  0.00000000E+00
  0.00000000E+00  0.00000000E+00  0.00000000E+00
  0.00000000E+00  0.00000000E+00  0.00000000E+00
  0.00000000E+00  0.00000000E+00  0.00000000E+00
  0.00000000E+00  0.00000000E+00  0.00000000E+00
  0.00000000E+00  0.00000000E+00  0.00000000E+00
  0.00000000E+00  0.00000000E+00  0.00000000E+00
  0.00000000E+00  0.00000000E+00  0.00000000E+00
  0.00000000E+00  0.00000000E+00  0.00000000E+00
  0.00000000E+00  0.00000000E+00  0.00000000E+00
  0.00000000E+00  0.00000000E+00  0.00000000E+00
  0.00000000E+00  0.00000000E+00  0.00000000E+00
  0.00000000E+00  0.00000000E+00  0.00000000E+00
  0.00000000E+00  0.00000000E+00  0.00000000E+00
  0.00000000E+00  0.00000000E+00  0.00000000E+00
  0.00000000E+00  0.00000000E+00  0.00000000E+00
  0.00000000E+00  0.00000000E+00  0.00000000E+00
  0.00000000E+00  0.00000000E+00  0.00000000E+00
  0.00000000E+00  0.00000000E+00  0.00000000E+00
  0.00000000E+00  0.00000000E+00  0.00000000E+00
  0.00000000E+00  0.00000000E+00  0.00000000E+00
  0.00000000E+00  0.00000000E+00  0.00000000E+00
  0.00000000E+00  0.00000000E+00  0.00000000E+00
  0.00000000E+00  0.00000000E+00  0.00000000E+00
  0.00000000E+00  0.00000000E+00  0.00000000E+00
  0.00000000E+00  0.00000000E+00  0.00000000E+00
  0.00000000E+00  0.00000000E+00  0.00000000E+00
  0.00000000E+00  0.00000000E+00  0.00000000E+00
  0.00000000E+00  0.00000000E+00  0.00000000E+00
  0.00000000E+00  0.00000000E+00  0.00000000E+00
  0.00000000E+00  0.00000000E+00  0.00000000E+00
  0.00000000E+00  0.00000000E+00  0.00000000E+00
  0.00000000E+00  0.00000000E+00  0.00000000E+00
  0.00000000E+00  0.00000000E+00  0.00000000E+00
  0.00000000E+00  0.00000000E+00  0.00000000E+00
  0.00000000E+00  0.00000000E+00  0.00000000E+00
  0.00000000E+00  0.00000000E+00  0.00000000E+00
  0.00000000E+00  0.00000000E+00  0.00000000E+00
  0.00000000E+00  0.00000000E+00  0.00000000E+00
  0.00000000E+00  0.00000000E+00  0.00000000E+00
  0.00000000E+00  0.00000000E+00  0.00000000E+00
  0.00000000E+00  0.00000000E+00  0.00000000E+00
  0.00000000E+00  0.00000000E+00  0.00000000E+00
  0.00000000E+00  0.00000000E+00  0.00000000E+00
  0.00000000E+00  0.00000000E+00  0.00000000E+00
  0.00000000E+00  0.00000000E+00  0.00000000E+00
  0.00000000E+00  0.00000000E+00  0.00000000E+00
  0.00000000E+00  0.00000000E+00  0.00000000E+00
  0.00000000E+00  0.00000000E+00  0.00000000E+00
  0.00000000E+00  0.00000000E+00  0.00000000E+00
  0.00000000E+00  0.00000000E+00  0.00000000E+00
  0.00000000E+00  0.00000000E+00  0.00000000E+00
  0.00000000E+00  0.00000000E+00  0.00000000E+00
  0.00000000E+00  0.00000000E+00  0.00000000E+00
  0.00000000E+00  0.00000000E+00  0.00000000E+00
  0.00000000E+00  0.00000000E+00  0.00000000E+00
  0.00000000E+00  0.00000000E+00  0.00000000E+00
  0.00000000E+00  0.00000000E+00  0.00000000E+00
  0.00000000E+00  0.00000000E+00  0.00000000E+00
  0.00000000E+00  0.00000000E+00  0.00000000E+00
  0.00000000E+00  0.00000000E+00  0.00000000E+00
  0.00000000E+00  0.00000000E+00  0.00000000E+00
  0.00000000E+00  0.00000000E+00  0.00000000E+00
  0.00000000E+00  0.00000000E+00  0.00000000E+00
  0.00000000E+00  0.00000000E+00  0.00000000E+00
  0.00000000E+00  0.00000000E+00  0.00000000E+00
  0.00000000E+00  0.00000000E+00  0.00000000E+00
  0.00000000E+00  0.00000000E+00  0.00000000E+00
  0.00000000E+00  0.00000000E+00  0.00000000E+00
  0.00000000E+00  0.00000000E+00  0.00000000E+00
  0.00000000E+00  0.00000000E+00  0.00000000E+00
  0.00000000E+00  0.00000000E+00  0.00000000E+00
  0.00000000E+00  0.00000000E+00  0.00000000E+00
  0.00000000E+00  0.00000000E+00  0.00000000E+00
  0.00000000E+00  0.00000000E+00  0.00000000E+00
  0.00000000E+00  0.00000000E+00  0.00000000E+00
  0.00000000E+00  0.00000000E+00  0.00000000E+00
  0.00000000E+00  0.00000000E+00  0.00000000E+00
  0.00000000E+00  0.00000000E+00  0.00000000E+00
  0.00000000E+00  0.00000000E+00  0.00000000E+00
  0.00000000E+00  0.00000000E+00  0.00000000E+00
  0.00000000E+00  0.00000000E+00  0.00000000E+00
  0.00000000E+00  0.00000000E+00  0.00000000E+00
  0.00000000E+00  0.00000000E+00  0.00000000E+00
  0.00000000E+00  0.00000000E+00  0.00000000E+00
  0.00000000E+00  0.00000000E+00  0.00000000E+00
  0.00000000E+00  0.00000000E+00  0.00000000E+00
  0.00000000E+00  0.00000000E+00  0.00000000E+00
  0.00000000E+00  0.00000000E+00  0.00000000E+00
  0.00000000E+00  0.00000000E+00  0.00000000E+00
  0.00000000E+00  0.00000000E+00  0.00000000E+00
  0.00000000E+00  0.00000000E+00  0.00000000E+00
  0.00000000E+00  0.00000000E+00  0.00000000E+00
  0.00000000E+00  0.00000000E+00  0.00000000E+00
  0.00000000E+00  0.00000000E+00  0.00000000E+00
  0.00000000E+00  0.00000000E+00  0.00000000E+00
  0.00000000E+00  0.00000000E+00  0.00000000E+00
  0.00000000E+00  0.00000000E+00  0.00000000E+00
  0.00000000E+00  0.00000000E+00  0.00000000E+00
  0.00000000E+00  0.00000000E+00  0.00000000E+00
  0.00000000E+00  0.00000000E+00  0.00000000E+00
  0.00000000E+00  0.00000000E+00  0.00000000E+00
  0.00000000E+00  0.00000000E+00  0.00000000E+00
  0.00000000E+00  0.00000000E+00  0.00000000E+00
  0.00000000E+00  0.00000000E+00  0.00000000E+00
  0.00000000E+00  0.00000000E+00  0.00000000E+00
  0.00000000E+00  0.00000000E+00  0.00000000E+00
  0.00000000E+00  0.00000000E+00  0.00000000E+00
  0.00000000E+00  0.00000000E+00  0.00000000E+00
  0.00000000E+00  0.00000000E+00  0.00000000E+00
  0.00000000E+00  0.00000000E+00  0.00000000E+00
  0.00000000E+00  0.00000000E+00  0.00000000E+00
  0.00000000E+00  0.00000000E+00  0.00000000E+00
  0.00000000E+00  0.00000000E+00  0.00000000E+00
  0.00000000E+00  0.00000000E+00  0.00000000E+00
  0.00000000E+00  0.00000000E+00  0.00000000E+00
  0.00000000E+00  0.00000000E+00  0.00000000E+00
  0.00000000E+00  0.00000000E+00  0.00000000E+00
  0.00000000E+00  0.00000000E+00  0.00000000E+00
  0.00000000E+00  0.00000000E+00  0.00000000E+00
  0.00000000E+00  0.00000000E+00  0.00000000E+00
  0.00000000E+00  0.00000000E+00  0.00000000E+00
  0.00000000E+00  0.00000000E+00  0.00000000E+00
  0.00000000E+00  0.00000000E+00  0.00000000E+00
  0.00000000E+00  0.00000000E+00  0.00000000E+00
  0.00000000E+00  0.00000000E+00  0.00000000E+00
  0.00000000E+00  0.00000000E+00  0.00000000E+00
  0.00000000E+00  0.00000000E+00  0.00000000E+00
  0.00000000E+00  0.00000000E+00  0.00000000E+00
  0.00000000E+00  0.00000000E+00  0.00000000E+00
  0.00000000E+00  0.00000000E+00  0.00000000E+00
  0.00000000E+00  0.00000000E+00  0.00000000E+00
  0.00000000E+00  0.00000000E+00  0.00000000E+00
  0.00000000E+00  0.00000000E+00  0.00000000E+00
  0.00000000E+00  0.00000000E+00  0.00000000E+00
  0.00000000E+00  0.00000000E+00  0.00000000E+00
  0.00000000E+00  0.00000000E+00  0.00000000E+00
  0.00000000E+00  0.00000000E+00  0.00000000E+00
  0.00000000E+00  0.00000000E+00  0.00000000E+00
  0.00000000E+00  0.00000000E+00  0.00000000E+00
  0.00000000E+00  0.00000000E+00  0.00000000E+00
  0.00000000E+00  0.00000000E+00  0.00000000E+00
  0.00000000E+00  0.00000000E+00  0.00000000E+00
  0.00000000E+00  0.00000000E+00  0.00000000E+00
  0.00000000E+00  0.00000000E+00  0.00000000E+00
  0.00000000E+00  0.00000000E+00  0.00000000E+00
  0.00000000E+00  0.00000000E+00  0.00000000E+00
  0.00000000E+00  0.00000000E+00  0.00000000E+00
  0.00000000E+00  0.00000000E+00  0.00000000E+00
  0.00000000E+00  0.00000000E+00  0.00000000E+00
  0.00000000E+00  0.00000000E+00  0.00000000E+00
  0.00000000E+00  0.00000000E+00  0.00000000E+00
  0.00000000E+00  0.00000000E+00  0.00000000E+00
  0.00000000E+00  0.00000000E+00  0.00000000E+00
  0.00000000E+00  0.00000000E+00  0.00000000E+00
  0.00000000E+00  0.00000000E+00  0.00000000E+00
  0.00000000E+00  0.00000000E+00  0.00000000E+00
  0.00000000E+00  0.00000000E+00  0.00000000E+00
  0.00000000E+00  0.00000000E+00  0.00000000E+00
  0.00000000E+00  0.00000000E+00  0.00000000E+00
  0.00000000E+00  0.00000000E+00  0.00000000E+00
  0.00000000E+00  0.00000000E+00  0.00000000E+00
  0.00000000E+00  0.00000000E+00  0.00000000E+00
  0.00000000E+00  0.00000000E+00  0.00000000E+00
  0.00000000E+00  0.00000000E+00  0.00000000E+00
  0.00000000E+00  0.00000000E+00  0.00000000E+00
  0.00000000E+00  0.00000000E+00  0.00000000E+00
  0.00000000E+00  0.00000000E+00  0.00000000E+00
  0.00000000E+00  0.00000000E+00  0.00000000E+00
  0.00000000E+00  0.00000000E+00  0.00000000E+00
  0.00000000E+00  0.00000000E+00  0.00000000E+00
  0.00000000E+00  0.00000000E+00  0.00000000E+00
