Ge4 Se4                                 
   1.00000000000000     
     3.9109958925636104   -0.0000000000000002    0.0000000000000000
    -0.0000000000000002    4.4661719323992939    0.0000000000000000
     0.0000000000000000    0.0000000000000000   11.3407315525365266
   Ge   Se
     4     4
Direct
  0.2500000000000000  0.1182395239396186  0.1299330512122797
  0.7500000000000000  0.8817604610603762  0.8700669337877157
  0.7500000000000000  0.6182395389396238  0.3700669337877152
  0.2500000000000000  0.3817604610603763  0.6299330662122843
  0.7500000000000000  0.5060330807361091  0.1464009610032110
  0.2500000000000000  0.4939669482638898  0.8535990089967866
  0.2500000000000000  0.0060330517361104  0.3535990389967884
  0.7500000000000000 -0.0060330807361094  0.6464009910032134
 
  0.00000000E+00  0.00000000E+00  0.00000000E+00
  0.00000000E+00  0.00000000E+00  0.00000000E+00
  0.00000000E+00  0.00000000E+00  0.00000000E+00
  0.00000000E+00  0.00000000E+00  0.00000000E+00
  0.00000000E+00  0.00000000E+00  0.00000000E+00
  0.00000000E+00  0.00000000E+00  0.00000000E+00
  0.00000000E+00  0.00000000E+00  0.00000000E+00
  0.00000000E+00  0.00000000E+00  0.00000000E+00
