Ge Se                                   
   1.00000000000000     
    20.8706398010253906    0.0000000000000000    0.0000000000000000
     0.0000000000000000   20.8706398010253906    0.0000000000000000
     0.0000000000000000    0.0000000000000000   20.8706398010253906
   Ge   Se
   150   150
Direct
  0.0056670066466856  0.0285581770673625  0.4194471723514316
  0.0198602178484663  0.2383873361413421  0.2495726841652547
  0.9132881927079612  0.7581273516796426  0.0023424650812193
  0.2013849538647031  0.0780488665695191  0.9213162729991889
  0.2369270574234220  0.2623498511777240  0.5715810597538602
  0.0161955654015742  0.6826634341506348  0.6879844998179008
  0.9813842774532914  0.3972790321884270  0.2543627857503873
  0.0378739410468065  0.0877253194392941  0.2128506906509074
  0.7837157667924638  0.5120878086587911  0.9655487062011737
  0.6405078643901201  0.6658955204546394  0.3738328333123258
  0.2285063075530652  0.7818403977549707  0.1874351618925235
  0.8657411497388063  0.2257240007318912 -0.0003609956261191
  0.1986716861807779  0.6089004083221707  0.7482549054942264
  0.7789711578611906  0.3184372029365140  0.5833154931099163
  0.3188449695110073  0.1934975234186462  0.1109394810107207
  0.8053938188981274  0.8743662897955959  0.1123467555028201
  0.1171674694968636  0.8241189159183926  0.6091815655581208
  0.1220487173579419  0.9084115350171159  0.1338216423649460
  0.1454654773539605  0.6483467955184287  0.3776334483147556
  0.8092833040629930  0.8049968904112317  0.8602760826467581
  0.7116418202578043  0.0060674815402815  0.9529963353447632
  0.2582494849874140  0.2993911030479646  0.4574245042238710
  0.5557778978771899  0.8917419352350991  0.2583479962103131
  0.2380446559021843  0.7298507990003712  0.8510636464163384
  0.4194709181494736  0.6764803361692971  0.0902474834958823
  0.2632786949180298  0.8540633032483305  0.9741931538643969
  0.2952455696865943  0.1215269947947750  0.2822110896665044
  0.6834199229207150  0.2905401002735358  0.4675046895773523
  0.7514044114852749  0.3372342171044803  0.6980610929040031
  0.8715748104473912  0.4499433332410991  0.5433642631127011
  0.1387808618836175  0.3470884824153426  0.7126724922249346
  0.5681078549258458  0.6911130152635464  0.1662856540204581
  0.5110006824533185  0.9892638135329994  0.5472974403691011
  0.0486658342581350  0.7794175553990528  0.2091766635525048
  0.1874465885938328  0.9929047068466248  0.7691618711011980
  0.8292565611295574  0.2775447830871166  0.8654531415072590
  0.3885722987979760  0.1670906659122063  0.4657228728703525
  0.4210613868484007  0.7872033972908559  0.9372768754519281
  0.8484685025314724  0.1285154495487051  0.3712083482100993
  0.2333518783645779  0.6782284458240320  0.6528353962470770
  0.2286879980406714  0.0525120308872697  0.1540029471889983
  0.7396164717665169  0.4602275713004425  0.0670536562128298
  0.4692628209735520  0.8647217150954835  0.7776731505567126
  0.7361680907267469  0.9318164100802113  0.3010955516456633
  0.5371415912654028  0.0958849833221050  0.4209576493925483
  0.0816498006823768  0.4881170363579568  0.3210289833368792
  0.0626141672484894  0.0395428743043100  0.5869929593566481
  0.5840040156704480  0.4835377437765516  0.2032492831176217
  0.4580868546427117  0.5515838627600160  0.0560627416849249
  0.6661760812462876  0.6993613355777117  0.7714279429126923
  0.9865277465854498  0.3028908378610508  0.0731904530552224
  0.8068271316013492  0.0173412343297809  0.4832140269565854
  0.5287593704820405  0.6457307214186525  0.9333538282559505
  0.3482094122342195  0.1013054223514657  0.8420800059652064
  0.6076419984064114  0.0923962009247933  0.2680479617499211
  0.1884948958615645  0.4300919086805458  0.7868773849850150
  0.0093879753968451  0.9083792030856733  0.7080870816635431
  0.5130485578465901  0.0394580057676070  0.9501323432646788
  0.8975829656277508  0.3065238221572536  0.4372784636128286
  0.4901343763621676  0.3095165209630651  0.1293935615519073
  0.5779200297908884  0.8814077585741066  0.8915003309436028
  0.3747361031436297  0.2923268827627359  0.4105879905109661
  0.9895526595265454  0.8672987996639716  0.4150890681142825
  0.7008099952959409  0.9609707241643010  0.1836859386411661
  0.8907545045856837  0.4391399842622457  0.8022173742819109
  0.9749206950547858  0.8327583495743197  0.8784587678754795
  0.6163059689668169  0.4747203614014846  0.8466056061146608
  0.2011068099146801  0.9301648447682880  0.5207294529260968
  0.4470670200549746  0.0729302716678386  0.7082391098686422
  0.1464146109730211  0.8098505097082154  0.9702579697398308
  0.3967893671939209  0.7010592714189998  0.2361874846207920
  0.5055957502112003  0.6321017064504679  0.6970530103446168
  0.1331195075458810  0.8104153558882030  0.7337924623037144
  0.4392337893802512  0.5942429688582843  0.2772487618492120
  0.8887666363539584  0.0159163131362489  0.3901767460053672
  0.5570340117682059  0.3284206936915998  0.8787498112983253
  0.7446191762753728  0.1233608651931283  0.4389192770447590
  0.6608743743660436  0.2993255160634573  0.2718933418195618
  0.7314923450778480  0.3436044330533016  0.1101367289950222
  0.2513689440631278  0.0748149145495385  0.6244940658280516
  0.4200267961857280  0.1154631607882980  0.1105948464647352
  0.6459516517534416  0.6554166528504041  0.8864394420431216
  0.3397576509779677  0.5683124870648016  0.5668783604121906
  0.8599207060434743  0.6074227554828809  0.9809393784916325
  0.2214098310528732  0.6788553528211271  0.0291442793596953
  0.6709191777323948  0.6776742160572108  0.5630260477286086
  0.9781928716473661  0.6937938492638145  0.3834591589871513
  0.8403152439034448  0.9759323235166529  0.5972855959638548
  0.9762607273275726  0.2691789044979124  0.7191594480564102
  0.2180454728378912  0.5760650653360109  0.9192751360270688
  0.5609699510888106  0.3129211757210070  0.4359244700873004
  0.6240093884190681  0.5572576908476734  0.5425261053464869
  0.9591623792106387  0.4362725398358548  0.9459242025715602
  0.1284559660128040  0.1576354447041979  0.4651625643682176
  0.8933618984279766  0.1255653439317415  0.6774316771371565
  0.8010115650968336  0.6965317680567054  0.2135066262481012
  0.2671904967888479  0.6656529163118408  0.3948513759391947
  0.7551803934296414  0.3941111160476575  0.2221429397893801
  0.4160436840507185  0.0579172258439181  0.3227277628829037
  0.4760901180897326  0.7599604425509984  0.3067748908654662
  0.6640704951983064  0.2188237922047483  0.7710748430626928
  0.4583230270896988  0.4470934726356292  0.5033470320498746
  0.6681354256997813  0.9546893543510948  0.5982388121188761
  0.4492713772815919  0.4725221877148144  0.2610767537904783
  0.3448174057804146  0.8171738322071992  0.4420812739681291
  0.0858298319082837  0.5146241658428441  0.6375891187556226
  0.2379079361191025  0.4693869405830610  0.3581553595653356
  0.6020480678232606  0.7827943912223011  0.7129076253740196
  0.1869634962198866  0.7994311975599653  0.3877726871814453
 -0.0015558523808009  0.9718699778890459  0.2505365468177731
  0.4590631332875558  0.1987004579420442  0.8821103512534427
  0.7919707164033412  0.5588730119473917  0.4830990475793255
 -0.0006155318047821  0.5860574686347725  0.0615204431733144
  0.8891604054648850  0.6899190035642293  0.5754200848226353
  0.5495699422778727  0.2086212460269642  0.2662190062373461
  0.3470560820453978  0.9165266925933410  0.6483905628066290
  0.8519758136379023  0.8448069812134611  0.3341387464057942
  0.3590056276540482  0.4826849551387513  0.8455055530433729
  0.8023332190453610  0.9681652075936066  0.7846650373068166
  0.3403892146370433  0.8515154559532429  0.0725370429089230
  0.0807760443032763  0.1519135072084690  0.6580063703428097
  0.0688684328229372  0.9384764179408004  0.8846405482709352
  0.0309512679115515  0.1474305729987811  0.3849466055794092
  0.0176252888773977  0.5739667231621896  0.2518612128135751
  0.4821586013946796  0.8665333918963296  0.0093808997875046
  0.0699444289926886  0.6891771713240314  0.4705965744768268
  0.4461604441826639  0.1706351725212946  0.6233148635713148
  0.3103465833134147  0.3762916174211010  0.9469914859465772
  0.7429581636333998  0.3920202020074759  0.3530872472652694
  0.4921125954110256  0.4745764605427734  0.9591642915330179
  0.0840177225498406  0.3760984438765401  0.3764160009862733
  0.4528434830646366  0.6093805824232488  0.3982843118369818
  0.5745838730037693  0.2777339621452735  0.6110059601433029
  0.6281823044844705  0.9790969791543409  0.4223567025256138
  0.7487210747224842  0.6633951013699450  0.0251072184687266
  0.8913802348515644  0.1686232687793957  0.8631739877282024
  0.6172364020895220  0.1817040378418832  0.9498153237085118
  0.1030948019182434  0.6062299927548057  0.8261893562203294
  0.6754264980592264  0.5366713637788968  0.1400085375467777
  0.3660105112622645  0.3395452666840437  0.2344360721942705
  0.7522849702815091  0.8538326985620392  0.6894229393500488
  0.3111655427953210  0.2298467573495744  0.9386397146907050
  0.5097561596724924  0.5587011181685142  0.4935934875328766
  0.4877709914398630  0.7884341724902777  0.5459697485223352
  0.2812320715513381  0.9774110662038401  0.9947973758307760
  0.7273787785099225  0.1223651266823596  0.9198542736875401
  0.8374607971965115  0.2499035788534823  0.2198752419515057
  0.7928274491001607  0.6677911814195576  0.4266355484471024
  0.8546381820694685  0.4738847343017395  0.1117335620601252
  0.2713281781048036  0.5359831130412879  0.0912725429856431
  0.3256373625973771  0.8174246367893300  0.8746308817924174
  0.1086487240684885  0.0503114010267668  0.8422202617810955
  0.4789052681042210  0.4670656316449383  0.1375095885740469
  0.2470961191361075  0.7706419884491775  0.7338157733591623
  0.6008330041455862  0.0541581356370212  0.5746797409270293
  0.0620656484573907  0.7340933711752974  0.7888253263259399
  0.7010261566321448  0.7382130214854788  0.9469199342091915
  0.5293098232565747  0.0159828732239771  0.3168679774736340
 -0.0012713147702897  0.8287511054203853  0.6206960930307664
  0.7996383364870029  0.0105056936126416  0.1329034222656957
  0.6189849646387652  0.3843807838113294  0.3492327338682215
  0.6071716648273138  0.9798867776670950  0.9980033765349007
  0.6235182194890824  0.3562314335329476  0.1652589163016877
  0.3122636152854230  0.5089040804522321  0.9598087991312670
  0.7707449524466286  0.1581966426546072  0.0222674441589594
  0.2335055867891968  0.1742993514492898  0.1916233648895397
  0.1174132137869036  0.6951374702424047  0.6154826016639491
  0.6349370146106946  0.3293631786843137  0.7149383871877444
  0.8398083688838650  0.4204489176131865  0.9170363331525461
  0.7282101763525397  0.3931742747751766  0.5118808729619954
  0.4797247819282098  0.3300621769233280  0.2509303875839528
  0.9443686392959896  0.5952793844556787  0.5239850093529753
  0.8692958016215119  0.1406864574950821  0.2578067404267407
  0.7505168432791829  0.0264375404960516  0.6513579528920947
  0.6756862224360760  0.5555278356357898  0.4367429318499798
  0.0475402580992215  0.3336058663531755  0.1734453813717097
  0.1237621337145067  0.2258317664184857  0.5647750419972443
  0.1523127276056901  0.7647786757247411  0.0869509433579727
  0.2382354819914478  0.2052682763257846  0.0283698042393301
  0.4412681137599763  0.7982820567565607  0.1106983660491918
  0.5524220142851587  0.1173820954119516  0.8641049605829287
  0.3118994612678868  0.7376688552920678  0.3142771456008975
  0.7508421334353688  0.6499807553136137  0.3178249397141741
  0.1302015775500892  0.9291491114125409  0.9897661589120560
  0.5676653270081828  0.5940019168923857  0.0351890532689979
  0.4520321234687459  0.6204258847669739  0.5753569313334591
  0.5048011075272492  0.7729888017889120  0.8536353361260650
  0.1018472524128338  0.2718223531005213  0.3329588972690802
  0.4560658179892355  0.8710860447531052  0.3233323825923639
  0.5125241106029563  0.1868694485087587  0.1521051209640555
  0.9454854254615473  0.1426094687797190  0.9594117848639114
  0.9041052449385841  0.7240210309664249  0.8910870272320170
  0.1409442136070750  0.5371046010121585  0.4172836748579604
  0.3059147853629644  0.2803489746362648  0.3112319841740483
  0.3047021249723094  0.9873292306486294  0.5581506425042613
  0.0577513015112314  0.3962262269883273  0.6502299651509404
  0.3217559491215382  0.1729081123930498  0.5834970568918446
  0.8062942819484512  0.0896173487214488  0.8326428175729954
  0.3548314457665413  0.3089208319581172  0.1219828073897442
  0.6248894793760376  0.0469513042639686  0.1636411980117865
  0.9706143581611901  0.7916022704561796  0.3119528586581661
  0.8727428157057370  0.4491869723854971  0.2253637516985335
  0.5489796636016093  0.8905419266241192  0.5054620910960808
  0.5119302539185021  0.5447719421865279  0.8617904089495495
  0.9525306973325585  0.5186757070068835  0.6091594567440892
  0.4949067340601277  0.7542273194563777  0.6784762978756276
  0.4607322635589057  0.9653612168124834  0.6500522684991816
  0.3336904966845637  0.4500622940658722  0.2405184536552393
  0.9331097212871916  0.3274944660305039  0.8287159179204923
  0.7923744082446358  0.4371594961178032  0.7314224196435956
  0.8027652647050262  0.9718614524440222  0.0255288681181664
  0.8839651960492282  0.9572604990406312  0.2863946760303786
  0.1100099996657686  0.6493899280339966  0.2660036040122932
  0.4829459337373260  0.7203125614775023  0.4199594478382995
  0.9273667204612301  0.1798970701043388  0.4456159948332807
  0.1813569706259516  0.3884508935325638  0.4479572384165271
  0.2883169938474704  0.9974522184294340  0.8744333268147391
  0.2163013919427519  0.5028093326029006  0.7005030108242931
  0.9340239550895600  0.4457152857400122  0.4370502808366032
  0.9652500947316255  0.5591908023347201  0.9439062022373786
  0.9514831382076132  0.4245881720811480  0.0670602035586876
  0.9239396584653734  0.2999780917963674  0.2977841078897588
  0.3979288329486046  0.6774690714529351  0.9698512101611564
  0.2770994939890958  0.8899887177743918  0.1615430276975866
  0.2934546814165911  0.6225670985516074  0.8226118149203961
  0.4234399494103173  0.3915328426029204  0.8995561856411912
  0.6278382717212719  0.6169224494551669  0.6941875096867823
  0.8913330716289577  0.8769594972367275  0.7984353825093876
  0.1365816269204527  0.4883439018363515  0.8704287424297855
  0.5871869433411243  0.7647559007080864  0.2640727764711991
  0.0316750779090318  0.5651172403393561  0.7382035629765714
  0.0881503791067834  0.8097807163193015  0.4627245509612125
 -0.0024626932623923  0.9654301874984293  0.5170441849353804
  0.0034873493123048  0.7065801751866774  0.0497590807888181
  0.6655444313711363  0.7912725359772209  0.6136943404043033
  0.3745656233225006  0.0560541066055805  0.2081432077476920
  0.4384786698535360  0.0390052286220379  0.4687012029181810
  0.6841454249948253  0.8711230434454060  0.1147795616179316
  0.5560182651321379  0.6023106248787304  0.2510627196351913
  0.7776235004710272  0.6245402449402926  0.5860613424096407
  0.3744177834390932  0.8239539524400851  0.5673083862789396
  0.7771468574196704  0.7438626493691497  0.7501666572236136
  0.2891725588843342  0.3801983883033753  0.8240998409435304
  0.8349503334529375  0.8588815912577485  0.6047733703120479
  0.3675612926242056  0.4522106287432442  0.5728017290107343
  0.7012832868331995  0.0511095278784621  0.3396077104460146
  0.7225286087667473  0.9277078717822418  0.8667328347202908
  0.9763784451478126  0.1830246809664128  0.6092454278216366
  0.7106896304538430  0.5493629644167469  0.8769492935350998
  0.6677306190638482  0.2709242053235298  0.8812976365784720
  0.1733985275871754  0.4527686878440189  0.2597203630304998
  0.7025298072941354  0.7374857162808849  0.4581801991694207
  0.3407085126645416  0.5795589217927477  0.4357934157622245
  0.4939328799358658  0.2004190111533390  0.5181834860455000
  0.9661412280830627  0.1530130423446469  0.7721607248401333
  0.9356631115873321  0.8685808101494723 -0.0112790054853610
  0.9288325077538294  0.6072750294552395  0.3258683682960858
  0.7873413103957144  0.2390288794149881  0.7485742159298964
  0.1633576242639195  0.8830003889277588  0.8258823594795511
  0.5556453017997074  0.3852618638840612  0.5363074229328900
  0.7573287993530922  0.2729901662449865  0.3768885695592700
  0.0602131586115956  0.9447599391897089  0.3515125000288129
  0.8939885455976812  0.3291349627711269  0.5714514062780730
  0.4272723366374178  0.4010203628561475  0.3997059137149334
  0.2526635588466698  0.9013084194620115  0.4136691048291061
  0.5881673427013070  0.8896839580849711  0.7564927145508462
  0.8870043989864226  0.7376540339636275  0.4550931618960659
  0.1436212861950543  0.8467081522958835  0.2485043528657139
  0.2471265042162711  0.1703932015046047  0.8505107386228237
  0.9287489131718806  0.0055520142010396  0.6711379207931935
  0.7864670388503766  0.8154695618786171  0.2380702061908435
  0.3985698231143568  0.9504281103517171  0.0397437699655649
  0.8796838523800649  0.5883594624725577  0.1020264067945432
  0.5992928281243065  0.4181327936167992  0.9550175037073265
  0.0013823828173454  0.8899668943990557  0.1646713851091289
  0.6918071714090912  0.6611195514474718  0.1477801732981084
  0.4830691675251458  0.2606965142267894  0.6860023002164094
  0.8191347111676056  0.7486403339658992  0.0731176537885879
  0.1654006219231429  0.5750911102187435  0.0584830749080720
  0.3009349360179489  0.6534134187806482  0.1195848151883058
  0.7247234599517427  0.5062449440753279  0.2440393754224534
  0.0074651224768721  0.3635605679103926  0.4687077107620336
  0.2454350139619906  0.3249714723146718  0.6672095154574995
  0.1597584264074620  0.0514997416806495  0.5108367026810247
  0.3308066742277470  0.0535040407177898  0.7197350993781395
  0.7330454023705386  0.2172472159604887  0.5487711910379345
  0.9091968137038977  0.2238160431290632  0.1207566819787947
  0.5151239780157042  0.2628464064340401  0.9705629742740941
  0.0940313838379323  0.2492319313539519  0.7533099909408303
  0.1084453705424768  0.0363263395171980  0.1305654016920774
  0.1168699610438547  0.9608542568262326  0.6619591049684501
  0.2524675352063530  0.7417681004560400  0.4828502564129036
  0.3907752760969562  0.1398937190880905  0.9649408110744638
  0.2303572269875294  0.1914549239681201  0.4182385883978328
  0.2130993836575638  0.0267055159076588  0.2735316808485336
  0.7251147192042374  0.9326234232363594  0.4840590726523820
  0.6388774581884876  0.8811759603971043  0.3503205545184313
  0.1226219264394412  0.0978466433972151  0.2991784021570439
  0.4740931590731658  0.9438965450962425  0.8772780417613573
  0.4620570738782817  0.1697225196676949  0.3452933230821207
 
  0.00000000E+00  0.00000000E+00  0.00000000E+00
  0.00000000E+00  0.00000000E+00  0.00000000E+00
  0.00000000E+00  0.00000000E+00  0.00000000E+00
  0.00000000E+00  0.00000000E+00  0.00000000E+00
  0.00000000E+00  0.00000000E+00  0.00000000E+00
  0.00000000E+00  0.00000000E+00  0.00000000E+00
  0.00000000E+00  0.00000000E+00  0.00000000E+00
  0.00000000E+00  0.00000000E+00  0.00000000E+00
  0.00000000E+00  0.00000000E+00  0.00000000E+00
  0.00000000E+00  0.00000000E+00  0.00000000E+00
  0.00000000E+00  0.00000000E+00  0.00000000E+00
  0.00000000E+00  0.00000000E+00  0.00000000E+00
  0.00000000E+00  0.00000000E+00  0.00000000E+00
  0.00000000E+00  0.00000000E+00  0.00000000E+00
  0.00000000E+00  0.00000000E+00  0.00000000E+00
  0.00000000E+00  0.00000000E+00  0.00000000E+00
  0.00000000E+00  0.00000000E+00  0.00000000E+00
  0.00000000E+00  0.00000000E+00  0.00000000E+00
  0.00000000E+00  0.00000000E+00  0.00000000E+00
  0.00000000E+00  0.00000000E+00  0.00000000E+00
  0.00000000E+00  0.00000000E+00  0.00000000E+00
  0.00000000E+00  0.00000000E+00  0.00000000E+00
  0.00000000E+00  0.00000000E+00  0.00000000E+00
  0.00000000E+00  0.00000000E+00  0.00000000E+00
  0.00000000E+00  0.00000000E+00  0.00000000E+00
  0.00000000E+00  0.00000000E+00  0.00000000E+00
  0.00000000E+00  0.00000000E+00  0.00000000E+00
  0.00000000E+00  0.00000000E+00  0.00000000E+00
  0.00000000E+00  0.00000000E+00  0.00000000E+00
  0.00000000E+00  0.00000000E+00  0.00000000E+00
  0.00000000E+00  0.00000000E+00  0.00000000E+00
  0.00000000E+00  0.00000000E+00  0.00000000E+00
  0.00000000E+00  0.00000000E+00  0.00000000E+00
  0.00000000E+00  0.00000000E+00  0.00000000E+00
  0.00000000E+00  0.00000000E+00  0.00000000E+00
  0.00000000E+00  0.00000000E+00  0.00000000E+00
  0.00000000E+00  0.00000000E+00  0.00000000E+00
  0.00000000E+00  0.00000000E+00  0.00000000E+00
  0.00000000E+00  0.00000000E+00  0.00000000E+00
  0.00000000E+00  0.00000000E+00  0.00000000E+00
  0.00000000E+00  0.00000000E+00  0.00000000E+00
  0.00000000E+00  0.00000000E+00  0.00000000E+00
  0.00000000E+00  0.00000000E+00  0.00000000E+00
  0.00000000E+00  0.00000000E+00  0.00000000E+00
  0.00000000E+00  0.00000000E+00  0.00000000E+00
  0.00000000E+00  0.00000000E+00  0.00000000E+00
  0.00000000E+00  0.00000000E+00  0.00000000E+00
  0.00000000E+00  0.00000000E+00  0.00000000E+00
  0.00000000E+00  0.00000000E+00  0.00000000E+00
  0.00000000E+00  0.00000000E+00  0.00000000E+00
  0.00000000E+00  0.00000000E+00  0.00000000E+00
  0.00000000E+00  0.00000000E+00  0.00000000E+00
  0.00000000E+00  0.00000000E+00  0.00000000E+00
  0.00000000E+00  0.00000000E+00  0.00000000E+00
  0.00000000E+00  0.00000000E+00  0.00000000E+00
  0.00000000E+00  0.00000000E+00  0.00000000E+00
  0.00000000E+00  0.00000000E+00  0.00000000E+00
  0.00000000E+00  0.00000000E+00  0.00000000E+00
  0.00000000E+00  0.00000000E+00  0.00000000E+00
  0.00000000E+00  0.00000000E+00  0.00000000E+00
  0.00000000E+00  0.00000000E+00  0.00000000E+00
  0.00000000E+00  0.00000000E+00  0.00000000E+00
  0.00000000E+00  0.00000000E+00  0.00000000E+00
  0.00000000E+00  0.00000000E+00  0.00000000E+00
  0.00000000E+00  0.00000000E+00  0.00000000E+00
  0.00000000E+00  0.00000000E+00  0.00000000E+00
  0.00000000E+00  0.00000000E+00  0.00000000E+00
  0.00000000E+00  0.00000000E+00  0.00000000E+00
  0.00000000E+00  0.00000000E+00  0.00000000E+00
  0.00000000E+00  0.00000000E+00  0.00000000E+00
  0.00000000E+00  0.00000000E+00  0.00000000E+00
  0.00000000E+00  0.00000000E+00  0.00000000E+00
  0.00000000E+00  0.00000000E+00  0.00000000E+00
  0.00000000E+00  0.00000000E+00  0.00000000E+00
  0.00000000E+00  0.00000000E+00  0.00000000E+00
  0.00000000E+00  0.00000000E+00  0.00000000E+00
  0.00000000E+00  0.00000000E+00  0.00000000E+00
  0.00000000E+00  0.00000000E+00  0.00000000E+00
  0.00000000E+00  0.00000000E+00  0.00000000E+00
  0.00000000E+00  0.00000000E+00  0.00000000E+00
  0.00000000E+00  0.00000000E+00  0.00000000E+00
  0.00000000E+00  0.00000000E+00  0.00000000E+00
  0.00000000E+00  0.00000000E+00  0.00000000E+00
  0.00000000E+00  0.00000000E+00  0.00000000E+00
  0.00000000E+00  0.00000000E+00  0.00000000E+00
  0.00000000E+00  0.00000000E+00  0.00000000E+00
  0.00000000E+00  0.00000000E+00  0.00000000E+00
  0.00000000E+00  0.00000000E+00  0.00000000E+00
  0.00000000E+00  0.00000000E+00  0.00000000E+00
  0.00000000E+00  0.00000000E+00  0.00000000E+00
  0.00000000E+00  0.00000000E+00  0.00000000E+00
  0.00000000E+00  0.00000000E+00  0.00000000E+00
  0.00000000E+00  0.00000000E+00  0.00000000E+00
  0.00000000E+00  0.00000000E+00  0.00000000E+00
  0.00000000E+00  0.00000000E+00  0.00000000E+00
  0.00000000E+00  0.00000000E+00  0.00000000E+00
  0.00000000E+00  0.00000000E+00  0.00000000E+00
  0.00000000E+00  0.00000000E+00  0.00000000E+00
  0.00000000E+00  0.00000000E+00  0.00000000E+00
  0.00000000E+00  0.00000000E+00  0.00000000E+00
  0.00000000E+00  0.00000000E+00  0.00000000E+00
  0.00000000E+00  0.00000000E+00  0.00000000E+00
  0.00000000E+00  0.00000000E+00  0.00000000E+00
  0.00000000E+00  0.00000000E+00  0.00000000E+00
  0.00000000E+00  0.00000000E+00  0.00000000E+00
  0.00000000E+00  0.00000000E+00  0.00000000E+00
  0.00000000E+00  0.00000000E+00  0.00000000E+00
  0.00000000E+00  0.00000000E+00  0.00000000E+00
  0.00000000E+00  0.00000000E+00  0.00000000E+00
  0.00000000E+00  0.00000000E+00  0.00000000E+00
  0.00000000E+00  0.00000000E+00  0.00000000E+00
  0.00000000E+00  0.00000000E+00  0.00000000E+00
  0.00000000E+00  0.00000000E+00  0.00000000E+00
  0.00000000E+00  0.00000000E+00  0.00000000E+00
  0.00000000E+00  0.00000000E+00  0.00000000E+00
  0.00000000E+00  0.00000000E+00  0.00000000E+00
  0.00000000E+00  0.00000000E+00  0.00000000E+00
  0.00000000E+00  0.00000000E+00  0.00000000E+00
  0.00000000E+00  0.00000000E+00  0.00000000E+00
  0.00000000E+00  0.00000000E+00  0.00000000E+00
  0.00000000E+00  0.00000000E+00  0.00000000E+00
  0.00000000E+00  0.00000000E+00  0.00000000E+00
  0.00000000E+00  0.00000000E+00  0.00000000E+00
  0.00000000E+00  0.00000000E+00  0.00000000E+00
  0.00000000E+00  0.00000000E+00  0.00000000E+00
  0.00000000E+00  0.00000000E+00  0.00000000E+00
  0.00000000E+00  0.00000000E+00  0.00000000E+00
  0.00000000E+00  0.00000000E+00  0.00000000E+00
  0.00000000E+00  0.00000000E+00  0.00000000E+00
  0.00000000E+00  0.00000000E+00  0.00000000E+00
  0.00000000E+00  0.00000000E+00  0.00000000E+00
  0.00000000E+00  0.00000000E+00  0.00000000E+00
  0.00000000E+00  0.00000000E+00  0.00000000E+00
  0.00000000E+00  0.00000000E+00  0.00000000E+00
  0.00000000E+00  0.00000000E+00  0.00000000E+00
  0.00000000E+00  0.00000000E+00  0.00000000E+00
  0.00000000E+00  0.00000000E+00  0.00000000E+00
  0.00000000E+00  0.00000000E+00  0.00000000E+00
  0.00000000E+00  0.00000000E+00  0.00000000E+00
  0.00000000E+00  0.00000000E+00  0.00000000E+00
  0.00000000E+00  0.00000000E+00  0.00000000E+00
  0.00000000E+00  0.00000000E+00  0.00000000E+00
  0.00000000E+00  0.00000000E+00  0.00000000E+00
  0.00000000E+00  0.00000000E+00  0.00000000E+00
  0.00000000E+00  0.00000000E+00  0.00000000E+00
  0.00000000E+00  0.00000000E+00  0.00000000E+00
  0.00000000E+00  0.00000000E+00  0.00000000E+00
  0.00000000E+00  0.00000000E+00  0.00000000E+00
  0.00000000E+00  0.00000000E+00  0.00000000E+00
  0.00000000E+00  0.00000000E+00  0.00000000E+00
  0.00000000E+00  0.00000000E+00  0.00000000E+00
  0.00000000E+00  0.00000000E+00  0.00000000E+00
  0.00000000E+00  0.00000000E+00  0.00000000E+00
  0.00000000E+00  0.00000000E+00  0.00000000E+00
  0.00000000E+00  0.00000000E+00  0.00000000E+00
  0.00000000E+00  0.00000000E+00  0.00000000E+00
  0.00000000E+00  0.00000000E+00  0.00000000E+00
  0.00000000E+00  0.00000000E+00  0.00000000E+00
  0.00000000E+00  0.00000000E+00  0.00000000E+00
  0.00000000E+00  0.00000000E+00  0.00000000E+00
  0.00000000E+00  0.00000000E+00  0.00000000E+00
  0.00000000E+00  0.00000000E+00  0.00000000E+00
  0.00000000E+00  0.00000000E+00  0.00000000E+00
  0.00000000E+00  0.00000000E+00  0.00000000E+00
  0.00000000E+00  0.00000000E+00  0.00000000E+00
  0.00000000E+00  0.00000000E+00  0.00000000E+00
  0.00000000E+00  0.00000000E+00  0.00000000E+00
  0.00000000E+00  0.00000000E+00  0.00000000E+00
  0.00000000E+00  0.00000000E+00  0.00000000E+00
  0.00000000E+00  0.00000000E+00  0.00000000E+00
  0.00000000E+00  0.00000000E+00  0.00000000E+00
  0.00000000E+00  0.00000000E+00  0.00000000E+00
  0.00000000E+00  0.00000000E+00  0.00000000E+00
  0.00000000E+00  0.00000000E+00  0.00000000E+00
  0.00000000E+00  0.00000000E+00  0.00000000E+00
  0.00000000E+00  0.00000000E+00  0.00000000E+00
  0.00000000E+00  0.00000000E+00  0.00000000E+00
  0.00000000E+00  0.00000000E+00  0.00000000E+00
  0.00000000E+00  0.00000000E+00  0.00000000E+00
  0.00000000E+00  0.00000000E+00  0.00000000E+00
  0.00000000E+00  0.00000000E+00  0.00000000E+00
  0.00000000E+00  0.00000000E+00  0.00000000E+00
  0.00000000E+00  0.00000000E+00  0.00000000E+00
  0.00000000E+00  0.00000000E+00  0.00000000E+00
  0.00000000E+00  0.00000000E+00  0.00000000E+00
  0.00000000E+00  0.00000000E+00  0.00000000E+00
  0.00000000E+00  0.00000000E+00  0.00000000E+00
  0.00000000E+00  0.00000000E+00  0.00000000E+00
  0.00000000E+00  0.00000000E+00  0.00000000E+00
  0.00000000E+00  0.00000000E+00  0.00000000E+00
  0.00000000E+00  0.00000000E+00  0.00000000E+00
  0.00000000E+00  0.00000000E+00  0.00000000E+00
  0.00000000E+00  0.00000000E+00  0.00000000E+00
  0.00000000E+00  0.00000000E+00  0.00000000E+00
  0.00000000E+00  0.00000000E+00  0.00000000E+00
  0.00000000E+00  0.00000000E+00  0.00000000E+00
  0.00000000E+00  0.00000000E+00  0.00000000E+00
  0.00000000E+00  0.00000000E+00  0.00000000E+00
  0.00000000E+00  0.00000000E+00  0.00000000E+00
  0.00000000E+00  0.00000000E+00  0.00000000E+00
  0.00000000E+00  0.00000000E+00  0.00000000E+00
  0.00000000E+00  0.00000000E+00  0.00000000E+00
  0.00000000E+00  0.00000000E+00  0.00000000E+00
  0.00000000E+00  0.00000000E+00  0.00000000E+00
  0.00000000E+00  0.00000000E+00  0.00000000E+00
  0.00000000E+00  0.00000000E+00  0.00000000E+00
  0.00000000E+00  0.00000000E+00  0.00000000E+00
  0.00000000E+00  0.00000000E+00  0.00000000E+00
  0.00000000E+00  0.00000000E+00  0.00000000E+00
  0.00000000E+00  0.00000000E+00  0.00000000E+00
  0.00000000E+00  0.00000000E+00  0.00000000E+00
  0.00000000E+00  0.00000000E+00  0.00000000E+00
  0.00000000E+00  0.00000000E+00  0.00000000E+00
  0.00000000E+00  0.00000000E+00  0.00000000E+00
  0.00000000E+00  0.00000000E+00  0.00000000E+00
  0.00000000E+00  0.00000000E+00  0.00000000E+00
  0.00000000E+00  0.00000000E+00  0.00000000E+00
  0.00000000E+00  0.00000000E+00  0.00000000E+00
  0.00000000E+00  0.00000000E+00  0.00000000E+00
  0.00000000E+00  0.00000000E+00  0.00000000E+00
  0.00000000E+00  0.00000000E+00  0.00000000E+00
  0.00000000E+00  0.00000000E+00  0.00000000E+00
  0.00000000E+00  0.00000000E+00  0.00000000E+00
  0.00000000E+00  0.00000000E+00  0.00000000E+00
  0.00000000E+00  0.00000000E+00  0.00000000E+00
  0.00000000E+00  0.00000000E+00  0.00000000E+00
  0.00000000E+00  0.00000000E+00  0.00000000E+00
  0.00000000E+00  0.00000000E+00  0.00000000E+00
  0.00000000E+00  0.00000000E+00  0.00000000E+00
  0.00000000E+00  0.00000000E+00  0.00000000E+00
  0.00000000E+00  0.00000000E+00  0.00000000E+00
  0.00000000E+00  0.00000000E+00  0.00000000E+00