Amorphous Sb                            
   1.00000000000000     
    19.9078869700586907    0.0000000000000000    0.0000000000000000
     0.0000000000000000   19.9078869700586907    0.0000000000000000
     0.0000000000000000    0.0000000000000000   19.9078869700586907
   Ge   As   Se
   135    30   135
Direct
  0.0486125943298113  0.3378647507111888  0.2152140628334659
  0.7641167330938780  0.0598093194282429  0.3952564273359506
  0.6491144350287268  0.6106301267193901  0.7938391699939148
  0.3613495964411866  0.8272109680696710  0.5503600404816017
  0.3357967403725590  0.2553622805404231  0.4918809889182593
  0.3824219643533144  0.6947475710010850  0.2532659021710675
  0.4521824826768776  0.8945477357306427  0.9722532468154698
  0.4019488879011324  0.1052063149953270  0.5425309379366824
  0.9943364148372431  0.7941183653037196  0.6205987565619986
  0.2329346789754774  0.4579892473052867  0.9228524577074732
  0.6988881341486952  0.5659108336395953  0.1155758936122745
  0.4452032885377378  0.2567692899792918  0.9128447989773946
  0.5797855412580525  0.5121483007249777  0.2414640901070178
  0.1244331104339283  0.1631458507135489  0.9496820381651311
  0.5054070071075554  0.4417033069647347  0.8270339373836196
  0.3857139692019213  0.1576313898458582  0.8436050508521662
  0.5986377538202532  0.3137993767107116 -0.0018388518392434
  0.8244796380129106  0.4068080188473432  0.5655124728311088
  0.2835065967637220  0.5098324073927686  0.2762620671932438
  0.1463197458240904  0.7694519493887549  0.1091474606529623
  0.0279827086559925  0.1860016115392464  0.7983396866154304
  0.3291566001707136  0.1792901357600308  0.0250448372253653
  0.8523825779139527  0.8916881206840506  0.2007159829832457
  0.9889479131254472  0.7363806336277257  0.2454968105058253
  0.8053351974346395  0.1695602931299443  0.6665676933746847
  0.7690045466237448  0.8676342382155739  0.3943782576198890
  0.8894305201204401  0.2089818457961387  0.2748470270938160
  0.9393049837665625  0.1627384183717077  0.4361345182136503
  0.9050134108652723  0.6372074418215025  0.3392136547489021
  0.7863081046941138  0.4802509312248346  0.9272496127867065
  0.9887235455098050  0.2750792689593137  0.5231192835019595
  0.2889577693146594  0.0544850319123396  0.1804175105041272
  0.1106903568463823  0.5392701262528610  0.2939112000349141
  0.0142295096406613  0.4573677290679000  0.6720988099786344
  0.2114831438884047  0.6289178336748673  0.0077067723704167
  0.0020772074741732  0.6921549662620682  0.7090445522995547
  0.5414297719806218  0.7734181144906129  0.1302816572115365
  0.7047613341486033  0.0415911073459144  0.1916384924053211
  0.4957271137039344  0.6139157797838283  0.9625529726988866
  0.4011469130169069  0.4322272603881007  0.1402062960372862
  0.5091846908942699  0.6199524118876898  0.1214598433399868
  0.6877992035253490  0.0229469759644926  0.8317595874525208
  0.6509951801809110  0.4030261434516205  0.5029668072755388
  0.6942310354770743  0.9447513098296652  0.5291197643615221
  0.6701768633827173  0.8678692738556592  0.6992976803685071
  0.4880748558936894  0.4870505574414411  0.5822563264470307
  0.1470491391886853  0.3000586616659052  0.6980047228668992
  0.3860789576530190  0.1619461753782717  0.2670886567015833
  0.7811975634534518  0.8223705621969608  0.1110608240343379
  0.9621689748451357  0.5387827755388266  0.0471081335421772
  0.1168720429048944  0.8054444158299801  0.9559890813918180
  0.1754144583233765  0.3410007675779384  0.2991593944343092
  0.8280678773967002  0.5514927140802007  0.7238089608052013
  0.3887492906645652  0.7179788292076535  0.0456306550305984
  0.3834026263697196  0.9438576436457524  0.6852758576882308
  0.2258406575198822  0.2622584163959252  0.1890124233301380
  0.6254973958008851  0.1893658064766121  0.1493915379282414
  0.8065484940237728  0.3448370437972469  0.7720526572844295
  0.1173588143917290  0.9627246296021379  0.8463279397828667
  0.0436599961503307  0.4391280236946258  0.4645528012470153
  0.5014569012991088  0.3071225656686352  0.7217350506680444
  0.5694931851772992  0.7453144903014256  0.8687095921939404
  0.1734829606125047  0.7177799673469473  0.2286359845682108
  0.9943904459994291  0.4885904620903738  0.8834148470364500
  0.5285499717469666  0.2479352038076459  0.2121099452654046
  0.1215187778621297  0.8865226364878424  0.3086702775175211
  0.8278341937903451  0.2098147579463367  0.4772787715216023
  0.7362384263229514  0.5404861894846897  0.6290581540778157
  0.8006964996608996  0.0023914114816190  0.0282469571120383
  0.3003082810415531  0.3093057249532297  0.0311190752692654
  0.6535406386167010  0.7020765402417939  0.6008821075002556
  0.2091632348080294  0.1621809555960715  0.3654481799768873
  0.3065961375832339  0.5283263577403965  0.4643172603746740
  0.5091954795788363  0.0219590460993091  0.5438275408984787
  0.6282869644289852  0.9315375789579583  0.0242990061209670
  0.2788734831274832  0.1344905886956475  0.7025265230842522
  0.8747682100845946  0.5379731594568189  0.4942605246906422
  0.2744140746336141  0.8693999454348786  0.4158286268217115
  0.1452914704172640  0.0509043576592470  0.2117102296343400
  0.3049711172060321  0.8640216393788167  0.8250271053838530
  0.0187972952396227  0.0197492943491868  0.3556038114497154
  0.2284803743997391  0.1909875698904884  0.5989413694002876
  0.4805903628144286  0.8191700558501350  0.5995459647315377
  0.1008567301695360  0.3918688588360370  0.8491796960131021
  0.6449260176744090  0.6827401932187136  0.2606302412149269
  0.6849504961161669  0.7244648354538537  0.9909377198505818
  0.7396108107575834  0.7226066828212577  0.8492639297148152
  0.9227928013860108  0.6589099390523196  0.5243740318932421
  0.2709422528292858  0.8900884834226334  0.2836702983394779
  0.8751192589380925  0.7878577778022884  0.2773387408446672
  0.4774992945037984  0.7685984299194893  0.7197634938339533
  0.5366518704725378  0.1027757451428838  0.9072044971316210
  0.0767984740078778  0.3032299603235255  0.3740580100316266
  0.4990457444234285  0.5909748518229679  0.7740513274707228
  0.6145571695986995  0.9304787649917574  0.4212840928428052
  0.9432321839574828  0.9394695520349242  0.8897165208686910
  0.8587346882448009  0.6535752003490607  0.1488596267171089
  0.1639818771962595  0.4113374152165770  0.5050498327881668
  0.6105442032662418  0.0979635058706022  0.3358680903324388
  0.3787466289173153  0.5365892435116989  0.7765279717783650
  0.1029716481236966  0.1461742953234421  0.5880394077733201
  0.4796893101431813  0.4582666998898127  0.4104027483895059
  0.6428705009261774  0.9222798523523641  0.2939426974327616
  0.5090258801355694  0.6575252211894064  0.4228323982230126
  0.6078721324707940  0.8007467927352507  0.4490914747821010
  0.7007947010045373  0.1917919177772749  0.7830432925988294
  0.4861947335285891  0.3596656203039585  0.0771013278370375
  0.1379846273204060  0.9528989577363760  0.5301032261725338
  0.8201372429230808  0.8034789290383612  0.6976634388349594
  0.3572254120840145  0.2944410243327649  0.2730558143859427
  0.4263416008541178  0.9632973881339050  0.1546394992141930
  0.1237415435228600  0.4253223078839703  0.0853584006704713
  0.7988240293024926  0.3199926638958275  0.1130947789490123
  0.9283055718917955  0.1279021255056995  0.6276783179214177
  0.3490963749276031  0.6478569978994524  0.6171719692955265
 -0.0001552329530979  0.0945200565398699  0.5267891932944612
  0.5031978817664993  0.2729759775181621  0.4979979237398438
  0.8113063279621651  0.1987990757122804  0.8522610330829683
  0.1749629561520152  0.9922867059030074  0.0409349788253356
  0.3124590958792343  0.0296927887857720  0.8811229689278582
  0.0846815702858062  0.5908833492155349  0.5611023899048559
  0.4606399139398893  0.2745544510152382  0.3750132298661058
  0.1742424046891868  0.7669494948513885  0.6127703172607493
  0.2348810546596976  0.6312343022194682  0.7772719015012641
  0.9753689273412327  0.8365125755780586  0.4499183919668795
  0.0699611651323179  0.6728568997135909  0.8710869338675824
  0.7224326114738583  0.5447498360336689  0.4009158620756265
  0.1432053301271889  0.5223013677311708  0.8351540724533537
  0.6425676025227939  0.9177931967667050  0.8952515225992588
  0.6955201408292120  0.1037405787323019  0.0735541255095287
  0.2867828459647843  0.8056700320883238  0.6528218041416178
  0.9894936899177252  0.6820973689187307  0.0711056733763793
  0.5457606751368512  0.3786368435128430  0.2373959384368750
  0.4921825013973863  0.8617723064468026  0.3358862827635529
  0.1809949340961939  0.0791367174906334  0.7677626341629449
  0.2534247766394025  0.4959819333273703  0.0451811521512168
  0.5403212793811406  0.1516763636649196  0.6437265974887098
  0.7625741638552037  0.9563899114347091  0.2733865121885615
  0.8198589922058989  0.0088832750880216  0.8429027861876799
  0.9442280110367421  0.3499158656820615  0.1326648978083157
  0.8445778046811709  0.2821913532620771  0.9452852635015263
  0.6829767556476476  0.3184496901613589  0.8117299835467094
  0.8627153525555235  0.0350950499217213  0.1377787060355575
  0.0142524832882189  0.0515562728840089  0.2190836381603013
  0.5431827286341842  0.7311594563159490  0.5304144799940610
  0.7196337403549812  0.9322156787422918  0.1054140818893679
  0.2990315604965866  0.3662997712443332  0.8610488878676679
  0.6310772873548377  0.2771073057497774  0.5174145352972855
  0.2817469953221860  0.3974035907230442  0.1213099638373727
  0.9745470010269466  0.9802064062278948  0.1248594714247606
  0.4422211700884317  0.2203967034512253  0.5938659515743909
  0.0552889764141774  0.2635679816407189  0.9029100742751127
  0.3162633573590738  0.7528465771587447  0.4548361872733582
  0.5662526942944721  0.9152601452884684  0.5908299392216941
 -0.0012726951799196  0.0450213832106476  0.0167265839007574
  0.5036097972917769  0.1725327180365062  0.3129605043919028
  0.3979839396037418  0.0117468420422394  0.9833277145950590
  0.7893179754167150  0.8345999306440715  0.9839552534837540
  0.9578348219405005  0.8194539676180878  0.8383880123994224
  0.9067475874431484  0.8592823038278363  0.5594372129331709
  0.8626512627148899  0.5207078701166263  0.1273204559754104
  0.5239584072104915  0.8898568399311445  0.0763447023092368
  0.9009465929249719  0.4348563708253970  0.2148956992785039
  0.5672477652297608  0.9455039336451216  0.7137036461454760
  0.8987152064269267  0.1479849753994371  0.0975826822470419
  0.8801276604393622  0.0942328177962343  0.3429057831342096
  0.6616975314581499  0.1300060431660360  0.8903104877564582
  0.7046986852269589  0.7235005584736796  0.1164966226485958
  0.8335340093152606  0.0338291947164549  0.7232901372095561
  0.6608623231917623  0.3053561323003726  0.1145732485056734
  0.5775755465448583  0.5026386692774678  0.4860300396561739
  0.6063552290385170  0.2517938026771883  0.6708509087142702
  0.2448630814389887  0.1461160094742947  0.9326325311470658
  0.4393135448823716  0.3839781196054344  0.5108294551548647
  0.4278762198816060  0.4251003332662759  0.2586650716387692
  0.0112853739320126  0.7915673650240076  0.1398102488458393
  0.0221743934058656  0.5560134930423192  0.4477119591671345
  0.8054300719212826  0.6839552161835308  0.2683140399931900
  0.1951137915125971  0.7227895651731360  0.4922940886494271
  0.0819922585900134  0.8281139209219012  0.8300813038651387
  0.3215945522622569  0.7361385866134534  0.7447203947984620
  0.5244264918139289  0.2020532785443588 -0.0064435470556533
  0.7123230697443517  0.3289261362412887  0.9291934227513869
  0.2422027542925108  0.1557467550491651  0.1123632471455172
  0.9830052088807492  0.1691482930256927  0.1870699547980930
  0.2102094980841000  0.3864809161303548  0.7743803258092008
  0.0382738668584845  0.3510966852295495  0.7482456805689436
  0.0836311035510196  0.5612412733416133  0.9414462298253239
  0.4106214364587102  0.5777392319433982  0.5226127137657549
  0.8490919233586736  0.7518736343038264  0.5799191821150133
  0.5802791512169800  0.5111406861166837  0.1118151474602751
  0.3986679839455203  0.9554802263687481  0.8102643373428317
  0.1906316083397802  0.7099696004199838  0.9065752960729566
  0.1491200962901212  0.0116538526158511  0.3359732306792100
  0.9602932585411156  0.5995903958908189  0.6285529937940919
  0.2244154464454678  0.9317193683585427  0.9093671970542300
  0.5364766415445767  0.3184519287634640  0.8506863148196184
  0.2672556289478943  0.2816643335531329  0.3715328076011147
  0.0234592308478853  0.7258251027932987  0.5013493924440333
  0.0854055443683910  0.7283674448207847  0.3178213461211869
  0.7728749306076317  0.2623160417788327  0.3831644689173731
  0.1479598317783158  0.1921067970904326  0.2572592893960494
  0.0153258157607491  0.9772132387869792  0.4934802364908461
  0.8086836615271129  0.1963993522088582  0.1647296586526679
  0.0570722334556666  0.9423443446212839  0.9670240644048863
  0.0689185944295069  0.4631081169530172  0.1962917674531062
  0.6868254413696518  0.1649663450861090  0.2573609002266649
  0.6498674703446096  0.0390278394740682  0.7140992288100741
  0.1098952806554848  0.6475590683304973  0.0888722103728842
  0.0164970071551458  0.2219612314712297  0.6402566111311839
  0.0937039531875211  0.1073902533044688  0.0609829026544490
  0.8769701449607731  0.2416629202274395  0.7521123962472874
  0.2792375388347086  0.1361091118148308  0.5019868966973557
  0.7996298116553401  0.3712010309072669  0.2298893777729257
  0.8637269155804248  0.4218924337609741  0.6934719561645346
  0.9646737289091399  0.6162723168777229  0.2194324469299423
  0.1220273170951735  0.3002222374611783  0.1171802171315360
  0.7585944096929242  0.5965124657335318  0.5217196931122280
  0.9658994720821179  0.2483562754688401  0.9814770847243287
  0.9704391071259112  0.3948907340631864  0.5560470723552144
  0.6978046526002604  0.5544806434661705  0.2546494599521995
  0.1468358586664037  0.9337763636131765  0.1457550308010088
  0.7324371356009294  0.5128860212595596  0.7995517967484433
  0.5902299049818159  0.0470083284301023  0.0396429397636639
  0.4286764123434334  0.2637539066345659  0.1378331030491191
  0.4572013496289507  0.6797830021261880  0.8570326474424029
  0.9575159992949188  0.0453241863544395  0.7131674488004583
  0.8940481166859906  0.5550137739332087  0.9388441166056253
  0.3628124192739587  0.5500901168611535  0.0163576002686723
  0.1543668494428331  0.2057039233287305  0.7863812118365270
  0.6950709259725786  0.5955347291020632  0.9752488462715430
  0.1138052831952128  0.2872846957895239  0.4930725401991605
  0.5086557335884510 -0.0101812712511860  0.4237553567836732
  0.3430201526236698  0.5809973770655120  0.3582921644161968
  0.8725223041384726  0.1041788455709341  0.8979301227904358
  0.2590986321861043  0.9145691899726378  0.7052910087907052
  0.8736990733954056  0.3771668092109748  0.8729612689895295
  0.2667628830369449  0.3063759813238061  0.5833438080807075
  0.5535675582309760  0.3612667981388776  0.3620491109651334
  0.8307336042914749  0.7283778070199133  0.9430390487193776
  0.2720952634919592  0.7599662533352924  0.2925829462662403
  0.3213935256320697  0.9683044387174287  0.0704978682491359
  0.0223779369547689  0.1940648536524814  0.3508498828960498
  0.4120713107481894  0.0945966202170277  0.1636295440701140
  0.2011570682022829  0.5935158950642651  0.2186138692041930
  0.3345832695481957  0.2288042065743321  0.7546176103525664
  0.5841659592283366  0.8203888108223182  0.2502523195973466
  0.6339572268112573  0.6909769221105628  0.3921195137227298
  0.2705745649439391  0.7049971911599326  0.0882112222387695
  0.3663069706853798  0.8125441585498068  0.9600970072229773
  0.3099689442679929  0.5721272388812989  0.8705829035190047
  0.7727202084082960  0.1128169241210281  0.5153086229802499
  0.6011212551879506  0.5521579465340234  0.9104935555852205
  0.7007815870703219  0.4195228771126531  0.6160881296194302
 -0.0015214962979357  0.4118754728930228  0.0397176309518646
  0.3794478110390564  0.0708969215463820  0.6627518907390255
  0.2981746167601706  0.5521595060734651  0.6846014611907270
  0.5001047105788156  0.1536337640924307  0.7969820930994229
  0.8153334703038717  0.9619354840140046  0.4596229835100412
  0.9312650825132514  0.8658228770477562  0.7261799387698219
  0.5282366334329535  0.8724122038120702  0.8683958851445907
  0.7241158677196262  0.8546607003689786  0.8232539081540011
  0.0573026782187815  0.0899180494687830  0.8774556041594607
  0.7178042502457480  0.8208899959569153  0.5056767437894647
  0.4152308603550801  0.7840813897676165  0.1547331465969427
  0.7385324894433452  0.4205279285901332  0.4234198239317323
  0.5853326731051186  0.0146471396459067  0.2335717724677531
  0.6258033310922239  0.5867911762546479  0.6526453548913494
  0.1048103264993419  0.0516092577846244  0.6688269388241483
  0.9845052765463360  0.3824343341182199  0.3724501064859142
  0.3863922791414589  0.4132296724383709  0.7769439409426975
  0.5993472554725761  0.1098731829876478  0.5437256948312871
  0.8236368310913854  0.6937123439359412  0.7593349291948560
  0.8363045212243461  0.2756581137245253  0.5792587685745478
  0.6573042522767172  0.2368054183044397  0.4019053340133161
  0.2014507967698300  0.3354151098437012  0.9601870061573482
  0.5532307473625587  0.7227366165912854  0.9949256769119832
  0.4340025454083624  0.7505214091079794  0.3621415237378305
  0.7701332456724044  0.4646480178020625  0.0723802723643376
  0.3180446497148254  0.9351390720113555  0.5132263053334146
  0.1928177223799425  0.4578212669660660  0.3571728941534304
  0.2219350264082322  0.6074688141871156  0.5263985758064773
  0.5553001197171131  0.4246638642841166  0.7152269904112093
  0.1295340542584031  0.4771022298929362  0.6143253778797201
  0.1290942141643251  0.6786027146565361  0.6814551677983265
 -0.0032858450335867  0.9057707717597770  0.3044525194196020
  0.3063994359343069  0.0889439543470391  0.3230573757954793
  0.8912408904376593  0.9027834221294574  0.0022968107773324
  0.8668819716892660  0.7837370391518775  0.4008067310549448
  0.6087954049809920  0.7557127705221708  0.7102279810161797
  0.1490328758213325  0.8590831287745745  0.4396934601732094
  0.8496061712325254  0.5270568834685093  0.3693233151287267
  0.0031512926026968  0.7416965805411794  0.9609997543345429
  0.3947756113367816  0.9257175998351345  0.2760050525148104
  0.3918158110129310  0.5586823141235079  0.1351704876752539
  0.4044822311029174  0.3607847841225067  0.9759829505010105
  0.4710670009841901  0.6529093745769242  0.6663450698832306
  0.5207512185179561  0.6328859816359550  0.2493949964364074
  0.0228145936966078  0.5489154900145162  0.7753417880273887
  0.1018397352270556  0.8651928502226069  0.6247150860542585
 
  0.00000000E+00  0.00000000E+00  0.00000000E+00
  0.00000000E+00  0.00000000E+00  0.00000000E+00
  0.00000000E+00  0.00000000E+00  0.00000000E+00
  0.00000000E+00  0.00000000E+00  0.00000000E+00
  0.00000000E+00  0.00000000E+00  0.00000000E+00
  0.00000000E+00  0.00000000E+00  0.00000000E+00
  0.00000000E+00  0.00000000E+00  0.00000000E+00
  0.00000000E+00  0.00000000E+00  0.00000000E+00
  0.00000000E+00  0.00000000E+00  0.00000000E+00
  0.00000000E+00  0.00000000E+00  0.00000000E+00
  0.00000000E+00  0.00000000E+00  0.00000000E+00
  0.00000000E+00  0.00000000E+00  0.00000000E+00
  0.00000000E+00  0.00000000E+00  0.00000000E+00
  0.00000000E+00  0.00000000E+00  0.00000000E+00
  0.00000000E+00  0.00000000E+00  0.00000000E+00
  0.00000000E+00  0.00000000E+00  0.00000000E+00
  0.00000000E+00  0.00000000E+00  0.00000000E+00
  0.00000000E+00  0.00000000E+00  0.00000000E+00
  0.00000000E+00  0.00000000E+00  0.00000000E+00
  0.00000000E+00  0.00000000E+00  0.00000000E+00
  0.00000000E+00  0.00000000E+00  0.00000000E+00
  0.00000000E+00  0.00000000E+00  0.00000000E+00
  0.00000000E+00  0.00000000E+00  0.00000000E+00
  0.00000000E+00  0.00000000E+00  0.00000000E+00
  0.00000000E+00  0.00000000E+00  0.00000000E+00
  0.00000000E+00  0.00000000E+00  0.00000000E+00
  0.00000000E+00  0.00000000E+00  0.00000000E+00
  0.00000000E+00  0.00000000E+00  0.00000000E+00
  0.00000000E+00  0.00000000E+00  0.00000000E+00
  0.00000000E+00  0.00000000E+00  0.00000000E+00
  0.00000000E+00  0.00000000E+00  0.00000000E+00
  0.00000000E+00  0.00000000E+00  0.00000000E+00
  0.00000000E+00  0.00000000E+00  0.00000000E+00
  0.00000000E+00  0.00000000E+00  0.00000000E+00
  0.00000000E+00  0.00000000E+00  0.00000000E+00
  0.00000000E+00  0.00000000E+00  0.00000000E+00
  0.00000000E+00  0.00000000E+00  0.00000000E+00
  0.00000000E+00  0.00000000E+00  0.00000000E+00
  0.00000000E+00  0.00000000E+00  0.00000000E+00
  0.00000000E+00  0.00000000E+00  0.00000000E+00
  0.00000000E+00  0.00000000E+00  0.00000000E+00
  0.00000000E+00  0.00000000E+00  0.00000000E+00
  0.00000000E+00  0.00000000E+00  0.00000000E+00
  0.00000000E+00  0.00000000E+00  0.00000000E+00
  0.00000000E+00  0.00000000E+00  0.00000000E+00
  0.00000000E+00  0.00000000E+00  0.00000000E+00
  0.00000000E+00  0.00000000E+00  0.00000000E+00
  0.00000000E+00  0.00000000E+00  0.00000000E+00
  0.00000000E+00  0.00000000E+00  0.00000000E+00
  0.00000000E+00  0.00000000E+00  0.00000000E+00
  0.00000000E+00  0.00000000E+00  0.00000000E+00
  0.00000000E+00  0.00000000E+00  0.00000000E+00
  0.00000000E+00  0.00000000E+00  0.00000000E+00
  0.00000000E+00  0.00000000E+00  0.00000000E+00
  0.00000000E+00  0.00000000E+00  0.00000000E+00
  0.00000000E+00  0.00000000E+00  0.00000000E+00
  0.00000000E+00  0.00000000E+00  0.00000000E+00
  0.00000000E+00  0.00000000E+00  0.00000000E+00
  0.00000000E+00  0.00000000E+00  0.00000000E+00
  0.00000000E+00  0.00000000E+00  0.00000000E+00
  0.00000000E+00  0.00000000E+00  0.00000000E+00
  0.00000000E+00  0.00000000E+00  0.00000000E+00
  0.00000000E+00  0.00000000E+00  0.00000000E+00
  0.00000000E+00  0.00000000E+00  0.00000000E+00
  0.00000000E+00  0.00000000E+00  0.00000000E+00
  0.00000000E+00  0.00000000E+00  0.00000000E+00
  0.00000000E+00  0.00000000E+00  0.00000000E+00
  0.00000000E+00  0.00000000E+00  0.00000000E+00
  0.00000000E+00  0.00000000E+00  0.00000000E+00
  0.00000000E+00  0.00000000E+00  0.00000000E+00
  0.00000000E+00  0.00000000E+00  0.00000000E+00
  0.00000000E+00  0.00000000E+00  0.00000000E+00
  0.00000000E+00  0.00000000E+00  0.00000000E+00
  0.00000000E+00  0.00000000E+00  0.00000000E+00
  0.00000000E+00  0.00000000E+00  0.00000000E+00
  0.00000000E+00  0.00000000E+00  0.00000000E+00
  0.00000000E+00  0.00000000E+00  0.00000000E+00
  0.00000000E+00  0.00000000E+00  0.00000000E+00
  0.00000000E+00  0.00000000E+00  0.00000000E+00
  0.00000000E+00  0.00000000E+00  0.00000000E+00
  0.00000000E+00  0.00000000E+00  0.00000000E+00
  0.00000000E+00  0.00000000E+00  0.00000000E+00
  0.00000000E+00  0.00000000E+00  0.00000000E+00
  0.00000000E+00  0.00000000E+00  0.00000000E+00
  0.00000000E+00  0.00000000E+00  0.00000000E+00
  0.00000000E+00  0.00000000E+00  0.00000000E+00
  0.00000000E+00  0.00000000E+00  0.00000000E+00
  0.00000000E+00  0.00000000E+00  0.00000000E+00
  0.00000000E+00  0.00000000E+00  0.00000000E+00
  0.00000000E+00  0.00000000E+00  0.00000000E+00
  0.00000000E+00  0.00000000E+00  0.00000000E+00
  0.00000000E+00  0.00000000E+00  0.00000000E+00
  0.00000000E+00  0.00000000E+00  0.00000000E+00
  0.00000000E+00  0.00000000E+00  0.00000000E+00
  0.00000000E+00  0.00000000E+00  0.00000000E+00
  0.00000000E+00  0.00000000E+00  0.00000000E+00
  0.00000000E+00  0.00000000E+00  0.00000000E+00
  0.00000000E+00  0.00000000E+00  0.00000000E+00
  0.00000000E+00  0.00000000E+00  0.00000000E+00
  0.00000000E+00  0.00000000E+00  0.00000000E+00
  0.00000000E+00  0.00000000E+00  0.00000000E+00
  0.00000000E+00  0.00000000E+00  0.00000000E+00
  0.00000000E+00  0.00000000E+00  0.00000000E+00
  0.00000000E+00  0.00000000E+00  0.00000000E+00
  0.00000000E+00  0.00000000E+00  0.00000000E+00
  0.00000000E+00  0.00000000E+00  0.00000000E+00
  0.00000000E+00  0.00000000E+00  0.00000000E+00
  0.00000000E+00  0.00000000E+00  0.00000000E+00
  0.00000000E+00  0.00000000E+00  0.00000000E+00
  0.00000000E+00  0.00000000E+00  0.00000000E+00
  0.00000000E+00  0.00000000E+00  0.00000000E+00
  0.00000000E+00  0.00000000E+00  0.00000000E+00
  0.00000000E+00  0.00000000E+00  0.00000000E+00
  0.00000000E+00  0.00000000E+00  0.00000000E+00
  0.00000000E+00  0.00000000E+00  0.00000000E+00
  0.00000000E+00  0.00000000E+00  0.00000000E+00
  0.00000000E+00  0.00000000E+00  0.00000000E+00
  0.00000000E+00  0.00000000E+00  0.00000000E+00
  0.00000000E+00  0.00000000E+00  0.00000000E+00
  0.00000000E+00  0.00000000E+00  0.00000000E+00
  0.00000000E+00  0.00000000E+00  0.00000000E+00
  0.00000000E+00  0.00000000E+00  0.00000000E+00
  0.00000000E+00  0.00000000E+00  0.00000000E+00
  0.00000000E+00  0.00000000E+00  0.00000000E+00
  0.00000000E+00  0.00000000E+00  0.00000000E+00
  0.00000000E+00  0.00000000E+00  0.00000000E+00
  0.00000000E+00  0.00000000E+00  0.00000000E+00
  0.00000000E+00  0.00000000E+00  0.00000000E+00
  0.00000000E+00  0.00000000E+00  0.00000000E+00
  0.00000000E+00  0.00000000E+00  0.00000000E+00
  0.00000000E+00  0.00000000E+00  0.00000000E+00
  0.00000000E+00  0.00000000E+00  0.00000000E+00
  0.00000000E+00  0.00000000E+00  0.00000000E+00
  0.00000000E+00  0.00000000E+00  0.00000000E+00
  0.00000000E+00  0.00000000E+00  0.00000000E+00
  0.00000000E+00  0.00000000E+00  0.00000000E+00
  0.00000000E+00  0.00000000E+00  0.00000000E+00
  0.00000000E+00  0.00000000E+00  0.00000000E+00
  0.00000000E+00  0.00000000E+00  0.00000000E+00
  0.00000000E+00  0.00000000E+00  0.00000000E+00
  0.00000000E+00  0.00000000E+00  0.00000000E+00
  0.00000000E+00  0.00000000E+00  0.00000000E+00
  0.00000000E+00  0.00000000E+00  0.00000000E+00
  0.00000000E+00  0.00000000E+00  0.00000000E+00
  0.00000000E+00  0.00000000E+00  0.00000000E+00
  0.00000000E+00  0.00000000E+00  0.00000000E+00
  0.00000000E+00  0.00000000E+00  0.00000000E+00
  0.00000000E+00  0.00000000E+00  0.00000000E+00
  0.00000000E+00  0.00000000E+00  0.00000000E+00
  0.00000000E+00  0.00000000E+00  0.00000000E+00
  0.00000000E+00  0.00000000E+00  0.00000000E+00
  0.00000000E+00  0.00000000E+00  0.00000000E+00
  0.00000000E+00  0.00000000E+00  0.00000000E+00
  0.00000000E+00  0.00000000E+00  0.00000000E+00
  0.00000000E+00  0.00000000E+00  0.00000000E+00
  0.00000000E+00  0.00000000E+00  0.00000000E+00
  0.00000000E+00  0.00000000E+00  0.00000000E+00
  0.00000000E+00  0.00000000E+00  0.00000000E+00
  0.00000000E+00  0.00000000E+00  0.00000000E+00
  0.00000000E+00  0.00000000E+00  0.00000000E+00
  0.00000000E+00  0.00000000E+00  0.00000000E+00
  0.00000000E+00  0.00000000E+00  0.00000000E+00
  0.00000000E+00  0.00000000E+00  0.00000000E+00
  0.00000000E+00  0.00000000E+00  0.00000000E+00
  0.00000000E+00  0.00000000E+00  0.00000000E+00
  0.00000000E+00  0.00000000E+00  0.00000000E+00
  0.00000000E+00  0.00000000E+00  0.00000000E+00
  0.00000000E+00  0.00000000E+00  0.00000000E+00
  0.00000000E+00  0.00000000E+00  0.00000000E+00
  0.00000000E+00  0.00000000E+00  0.00000000E+00
  0.00000000E+00  0.00000000E+00  0.00000000E+00
  0.00000000E+00  0.00000000E+00  0.00000000E+00
  0.00000000E+00  0.00000000E+00  0.00000000E+00
  0.00000000E+00  0.00000000E+00  0.00000000E+00
  0.00000000E+00  0.00000000E+00  0.00000000E+00
  0.00000000E+00  0.00000000E+00  0.00000000E+00
  0.00000000E+00  0.00000000E+00  0.00000000E+00
  0.00000000E+00  0.00000000E+00  0.00000000E+00
  0.00000000E+00  0.00000000E+00  0.00000000E+00
  0.00000000E+00  0.00000000E+00  0.00000000E+00
  0.00000000E+00  0.00000000E+00  0.00000000E+00
  0.00000000E+00  0.00000000E+00  0.00000000E+00
  0.00000000E+00  0.00000000E+00  0.00000000E+00
  0.00000000E+00  0.00000000E+00  0.00000000E+00
  0.00000000E+00  0.00000000E+00  0.00000000E+00
  0.00000000E+00  0.00000000E+00  0.00000000E+00
  0.00000000E+00  0.00000000E+00  0.00000000E+00
  0.00000000E+00  0.00000000E+00  0.00000000E+00
  0.00000000E+00  0.00000000E+00  0.00000000E+00
  0.00000000E+00  0.00000000E+00  0.00000000E+00
  0.00000000E+00  0.00000000E+00  0.00000000E+00
  0.00000000E+00  0.00000000E+00  0.00000000E+00
  0.00000000E+00  0.00000000E+00  0.00000000E+00
  0.00000000E+00  0.00000000E+00  0.00000000E+00
  0.00000000E+00  0.00000000E+00  0.00000000E+00
  0.00000000E+00  0.00000000E+00  0.00000000E+00
  0.00000000E+00  0.00000000E+00  0.00000000E+00
  0.00000000E+00  0.00000000E+00  0.00000000E+00
  0.00000000E+00  0.00000000E+00  0.00000000E+00
  0.00000000E+00  0.00000000E+00  0.00000000E+00
  0.00000000E+00  0.00000000E+00  0.00000000E+00
  0.00000000E+00  0.00000000E+00  0.00000000E+00
  0.00000000E+00  0.00000000E+00  0.00000000E+00
  0.00000000E+00  0.00000000E+00  0.00000000E+00
  0.00000000E+00  0.00000000E+00  0.00000000E+00
  0.00000000E+00  0.00000000E+00  0.00000000E+00
  0.00000000E+00  0.00000000E+00  0.00000000E+00
  0.00000000E+00  0.00000000E+00  0.00000000E+00
  0.00000000E+00  0.00000000E+00  0.00000000E+00
  0.00000000E+00  0.00000000E+00  0.00000000E+00
  0.00000000E+00  0.00000000E+00  0.00000000E+00
  0.00000000E+00  0.00000000E+00  0.00000000E+00
  0.00000000E+00  0.00000000E+00  0.00000000E+00
  0.00000000E+00  0.00000000E+00  0.00000000E+00
  0.00000000E+00  0.00000000E+00  0.00000000E+00
  0.00000000E+00  0.00000000E+00  0.00000000E+00
  0.00000000E+00  0.00000000E+00  0.00000000E+00
  0.00000000E+00  0.00000000E+00  0.00000000E+00
  0.00000000E+00  0.00000000E+00  0.00000000E+00
  0.00000000E+00  0.00000000E+00  0.00000000E+00
  0.00000000E+00  0.00000000E+00  0.00000000E+00
  0.00000000E+00  0.00000000E+00  0.00000000E+00
  0.00000000E+00  0.00000000E+00  0.00000000E+00
  0.00000000E+00  0.00000000E+00  0.00000000E+00
  0.00000000E+00  0.00000000E+00  0.00000000E+00
  0.00000000E+00  0.00000000E+00  0.00000000E+00
  0.00000000E+00  0.00000000E+00  0.00000000E+00
  0.00000000E+00  0.00000000E+00  0.00000000E+00
  0.00000000E+00  0.00000000E+00  0.00000000E+00
  0.00000000E+00  0.00000000E+00  0.00000000E+00
  0.00000000E+00  0.00000000E+00  0.00000000E+00
  0.00000000E+00  0.00000000E+00  0.00000000E+00