GeSe                                    
   1.00000000000000     
    20.1278870000000012    0.0000000000000000    0.0000000000000000
     0.0000000000000000   20.1278870000000012    0.0000000000000000
     0.0000000000000000    0.0000000000000000   20.1278870000000012
   Ge   Se
   150   150
Direct
  0.5556710210834206  0.2424696506981013  0.4066027053138547
  0.6949150781941617  0.8883545319364817  0.1689458077680282
  0.6516451668680318  0.5746982288289594  0.5974851271765440
  0.8009093949417142  0.3368283137274050  0.9289217326262468
  0.6688445411878758  0.2545737410629081  0.5827092967579784
  0.4165484230305057  0.3739474050736787  0.3994158379983275
  0.8237637036550222  0.9280273009504361  0.7256956506587218
  0.7917953901342247  0.7983030973903080  0.9521829285054907
  0.6186413852813943  0.9000717572189694  0.3474979272014210
  0.4775355175998616  0.2175435274938032  0.6567129417361733
  0.8124452680868777  0.3623804723411346  0.5111377483418058
  0.2140683097857297  0.0103241549719512  0.7605827717501498
  0.9375277854995002  0.1815181390653571  0.5309563091727626
  0.8089720196073648  0.0792667907346251  0.4341585566399478
  0.7390957235560527  0.6483783727466579  0.4211108644759947
  0.3234698162189606  0.1742173767461591  0.8294007874780279
  0.4263731770169568  0.0463542755976032  0.6967431165496634
  0.2453739878980861  0.5708210049553641  0.8344256163731284
  0.1615911662178488  0.8984427896436428  0.9116719759393866
  0.3259547003802598  0.6410140954697072  0.2364311823745097
  0.6648804369796906  0.3710580853748061  0.9801690808115155
  0.1890282285121431  0.4469703895038329  0.3611872701977803
  0.0935577373811273  0.1723550651428430  0.4014339612560737
  0.9759297941056798  0.6605280383762274  0.2383105875196292
  0.2025783759082598  0.8069154692972266  0.7388418720651425
  0.3228819438153919  0.2284059117963630  0.6575612789359329
  0.7061006667809642  0.7512701398536766  0.1045254275852669
  0.0878556841368825  0.9753049185568913  0.3451458298478200
  0.8412012809887132  0.7727677367597793  0.7566421886403180
  0.0472184106040869  0.5134463362510007  0.3687513392464944
  0.2652448068787422  0.1418227200107130  0.3952470334006924
  0.0474716774222059  0.2504078400469143  0.0731504669707349
  0.4854698325352846  0.3958594698573830  0.6096082420978904
  0.8031821626153692  0.5318696901780248  0.7244847879023248
  0.8226905663922163  0.5041628125913913  0.1662770431184458
  0.8494327090464874  0.0581549885812364  0.6982745713868760
  0.6641987205646859  0.4125736505076309  0.6955846995201044
  0.2420990927650388  0.6949962278504729  0.6916122667643747
  0.5030638626181960  0.5747984102936485  0.4052095401388013
  0.1542977621763352  0.1028580858992082  0.5643338263826602
  0.2096291738548715  0.9784086813366186  0.5577286657303983
  0.8892081944247170 -0.0256755322893260  0.8972566645775915
  0.7058823497645322  0.1456021387615155  0.9434671077991457
  0.5107029446171479  0.8149973187759532  0.6639633638552052
  0.9117743617250507  0.0090333846540989  0.3926502794302494
  0.1508733498260976  0.0745689510649998  0.0796437105215628
  0.9150277363487554  0.0089613050092615  0.5435420352828010
  0.8654420362569725  0.5141897763380227 -0.0031650651121458
  0.0820390299134264  0.4217362513190751  0.7652275142862615
  0.1072567254236106  0.3740161554971601  0.1953869547327668
  0.6906139108042882  0.9380719217197704  0.5417637822040714
  0.8918507172333560  0.1799636201431628  0.9624993389020787
  0.5889425381064365  0.1771517532662364  0.9762741314754557
  0.1689901912891023  0.7950550222367923  0.0578706243331192
  0.4166971227548191  0.1386669335204783  0.5102880667714378
  0.4914904418015432  0.3655949890360312  0.2159798208401786
  0.5832479889295874  0.9425790653969948  0.7427940147965395
  0.4337715315410457  0.8784077072873550  0.0545000769423789
  0.2527201014016803  0.4659526822333913  0.2479469597958888
  0.7417298648521131  0.7936497077252144  0.2857057769612825
  0.9472108257530235  0.6903890425403371  0.6471393995790397
  0.1402116825341315  0.8648374682690616  0.4411411070535206
  0.3080312681806234  0.4336940235492474  0.9322193770200057
  0.6150154529107357  0.8024370422667521  0.9374762640600803
  0.9422523834659194  0.2289162454859813  0.7269621283879287
  0.8977750542881636  0.6223488635397975  0.8212447293892989
  0.7261076080692214  0.7687928155573548  0.6257733964395999
  0.8266594927600538  0.5198144149944121  0.3285260284176328
  0.0299346117959195  0.7126566622059415  0.7568514676161923
  0.4440554539585273  0.5183212311102965  0.1125299154946175
  0.5199677932880687  0.8986014945679537  0.1538935939217827
  0.6207482721756451  0.7083115487695740  0.8024366874393739
  0.7819268858894250  0.3497866579939056  0.7080413878314764
  0.3669200174162551  0.5715480860678795  0.3390623857275178
  0.3494140757894594  0.9291728678493382  0.3888714090205424
  0.6721132552701906  0.3861838044694971  0.1319622085843519
  0.9600239007733710  0.4998437560046379  0.1904465831255401
  0.6097162187666239  0.0780740995690504  0.6815685012543444
  0.3538992249103512  0.9651959684741920  0.2097209288674564
  0.3688884395442957  0.3286250291675217  0.7937814633384737
  0.4206293098581194  0.7765780943574165  0.1554028800817358
  0.6219492031916528 -0.0024268529179015  0.0194288313906398
  0.2674319546283150  0.2352366841606560  0.4856580685151913
  0.0186892525090419  0.0906341271957244  0.8170579829859954
  0.5581573408289900  0.7690862945134699  0.3452202694717426
  0.0006496147291280  0.6791255725522523  0.9477148075079238
  0.1363792981525589  0.4657469572656319  0.6052272030519790
  0.8132971551826264  0.9297040311251871  0.5384881700447969
  0.2722904392179555  0.5697284913382099  0.5060366799557674
  0.2071116680806942  0.3203372830036296  0.0638527925865801
  0.3350472839532521  0.1824718100034830  0.0185438423224197
  0.2056138692571078  0.4741251479759729  0.7565413323369100
  0.6618595037328981  0.6737307449662602  0.6857722716511088
  0.8058734111589680  0.1533747711355341  0.1030410852321126
  0.2830388010714679  0.4910247934549437  0.6562724254510305
  0.1352769408950059  0.2036214157968171  0.2627568295340384
  0.9240875374993667  0.7869464449677721  0.5697955286723280
  0.1527817875024318  0.1888239677729786  0.7603389905256214
  0.7254577499864006  0.5439560328203644  0.9001301939130044
  0.0398783411301914  0.7166001886037038  0.4163254558849137
  0.9633101706723347  0.8861778937007212  0.4933478006505463
  0.7384610075308108  0.0231513982038425  0.9699203660089989
  0.1348773585026949  0.7280467627748435  0.5767466292356570
  0.1295000851843354  0.9030693452356617  0.6926943935713155
  0.2164404719175223  0.2851812606027326  0.7084608213454744
  0.8548020484932307  0.8626053782352274  0.0961924955481406
  0.2678785023251131  0.7661687166319887  0.8898470353301798
 -0.0000136497900908 -0.0329737999994367  0.1690429822774133
  0.9474697929723398  0.9126232188290357  0.7390457149952087
  0.3435973809750342  0.6837815177772590  0.6183421384365703
  0.1494947477844354  0.5972554199330822  0.5785512906773054
  0.8879783257204844  0.2694223805512576  0.4564254232089390
  0.3759939329906870  0.5801114975837379  0.6833334836689104
  0.0648147900178278  0.9626385712761366  0.0425091480080518
  0.2904858170489508  0.0017649754232469  0.0292410074081627
  0.8915464020853368  0.1632667187372555  0.2680905090084087
  0.5899454407183375  0.2676052700606182  0.8247986812401835
  0.6988035156709316  0.6999811175101056  0.9096159603320890
  0.1538377624106113  0.6449991441089656  0.8859178288960364
  0.2074841913599318  0.0080887515864037  0.2363077982009750
  0.5705483731112586  0.9198462321597137  0.9352864891863778
  0.6975906993906674  0.2008304918440728  0.8280348658959849
  0.3837576797700265  0.8991155357513440  0.5667887033903214
  0.4009109593275626  0.7532558655750878  0.4152467182321926
  0.5225873687213665  0.5170940215693671  0.9080700646306538
  0.1670730621715009  0.6934428010072917  0.2056737234491399
  0.5359617692148133  0.6809743513207225  0.0730368784657274
  0.6671416777584973  0.3802972518336333  0.4516377540097715
  0.3055738380857721  0.2891806160787454  0.2868492678243303
  0.7437019239575744  0.0582214738268409  0.2324711266010791
  0.2540905168204280  0.5756680733611372  0.0406420607679363
  0.4668468752675391  0.1334327429694629  0.3226306163251674
  0.8946416021480159  0.3327416123261692  0.0852744613361871
  0.9072754895320814  0.6021940643254534  0.4883128257990170
  0.6752398622440763  0.0947692545966659  0.4499252168279139
 -0.0405263993091516  0.4223930900758197  0.4062390992845910
  0.8741468871746352  0.7273860113253859  0.2063684555717940
  0.4967020470851943  0.6100818670994416  0.7127405803832728
  0.4743686210918819  0.3079462429734616  0.0058205580411843
  0.7688176437420774  0.6854692356108576  0.5410885245757678
  0.3276896212825144  0.3253933948769961  0.5738527392941951
  0.8267641991566147  0.8448001982238998  0.6286198811138520
  0.9568136541964394  0.3769374924548946  0.6403748709851779
  0.0479812343497910  0.3234900003972636  0.5258792077533837
  0.2663150003813451  0.4252464143505638  0.5211873305918580
  0.6083066783633919  0.6554948222007394  0.3115570657280941
  0.2745509733339940  0.3955491382066906  0.1420054030545335
  0.0944270334474452  0.4523788854538553  0.0746022250819195
  0.3311909004761323  0.8165790459472761  0.2962056937336738
  0.4835725294181888  0.0549390179243415  0.8960267966941765
  0.9501925593382403  0.4535523372288420  0.0605987789589982
  0.0059764983495114  0.1064666867023271  0.4624012875417395
  0.1327263973414652  0.0861127336895899  0.6936936998854195
  0.4167428082081602  0.4078743319676595  0.8777242455711436
  0.8614186894098923  0.7943488457410377  0.3061832763201398
  0.4368964860035423  0.2067368377570173  0.0721276824574591
  0.6099545928991074  0.3753071719302636  0.8692063629988500
  0.0059355100589770  0.1838675234191477  0.6288056167261572
  0.8509938675286300  0.8946569909157056  0.4283552573503073
  0.0202543123204696  0.8405047939148504  0.3919106165670231
  0.5743934096542593  0.1656417241431945  0.5937471694625832
  0.6474347858963142  0.0816318282180265  0.3230289898769010
  0.9953022135863213  0.3165474548321208  0.1678047772589927
  0.7703445438004329  0.8593877531933442  0.8110097272529762
  0.6206355045125854  0.9768218122886272  0.4531366756733445
  0.5115661345082707  0.4120876119011516  0.0983761465368309
  0.3226173539242745  0.6890678812293507  0.5013487548548760
  0.9660497297026535  0.0092043747990116  0.6611476136582298
  0.1389313519918708  0.3199315746345325  0.3018618717442028
  0.2255323473349254  0.5740463516552257  0.1885295458041900
  0.0825894663114519  0.6734052421865852  0.2983758809347425
  0.2771619610952277  0.1428931940691145  0.5743270193632847
  0.7864380834264676  0.0370797899571509  0.0857377862322284
  0.8297894908506349  0.7419654370245409  0.0606303808928559
  0.8936986437400483  0.8711048524646388  0.9739925268438951
  0.7499799408856491  0.2265035091223772  0.0244445657434323
  0.3369161692389349  0.4644069904923038  0.0607106169899123
  0.5877443174423802  0.2715367269916630  0.0509640826717531
  0.8653038134979173  0.7273532619523670  0.4740826223188016
  0.4380051668785986  0.3182830006873767  0.5169123299205707
  0.6113266867876084  0.0009114848413296  0.8536215790780896
  0.5322585756441705  0.3067155537683275  0.7270789103663968
  0.7998360829432932  0.5417392570129016  0.4496655306896666
  0.1596799097220405  0.2293892350199331  0.1307513060776909
  0.5285969289093344  0.0801355368041770  0.0178332058444772
  0.1153357533788385  0.3423778513282198  0.6707186427875452
  0.7101047458450709  0.6598757277452186  0.2386504538557266
  0.0465567905452806  0.5933487377234530  0.8690735675937874
  0.5102129458519602  0.7711694914502767  0.9908597264974301
  0.7958767547190839  0.2743179444514285  0.8138308012863175
  0.9422660365312427  0.7442163082143909  0.8429611091547595
  0.0780795777847849  0.4828948114857443  0.2506858787063641
  0.5171034921217318  0.5826157166827566  0.2766108753917194
  0.5101266960664617  0.6999692584126479  0.4438756232566191
  0.5507478898159697  0.8129257553733854  0.7855318083032243
  0.6978299992134692  0.8534506980903666  0.0204921576958704
  0.1412112524151432  0.7621150060007551  0.8428739379721927
  0.5472550486294063  0.4056482146309313  0.3962315390675498
  0.2443477958921250  0.5648618905585797  0.3831896098166448
  0.3152445415920748  0.8475915572232756  0.1767301471267013
  0.3418689455988870  0.3003409868121534  0.1659283668152216
  0.5221970660749837  0.6370261303992851  0.8286988887790194
  0.5624601222509684  0.5167037943792701  0.6694910498438300
  0.1692446032758642  0.4959525394049845  0.9900328662436477
  0.5923773020183742  0.1853035013994657  0.2953579506613154
  0.8668857514636366  0.0384083455100818  0.2729387478756431
  0.1020824932732172  0.3458822874490239  0.0042400929597172
  0.6940354300902589  0.5100887373875809  0.7855369508760516
  0.4605953357272024  0.5141884313976741  0.5686000945327702
  0.6775181378125449  0.2508559656568929  0.4540543560076902
 -0.0017821016948283  0.6035770896950986  0.1351752127536956
  0.8375357007418800  0.1149478091420727  0.5529164634764870
  0.1431854085342343  0.0204742070110931  0.9613979683250521
  0.5208423400128229  0.1213954779426961  0.4363518428259012
  0.1750895747938108  0.9013325843005975  0.2955972294041198
  0.7140689141860188  0.1295266383473032  0.7346229595552002
  0.9203620402535310  0.1790588157974823  0.0879669966817187
  0.8277034131516040  0.1927503927328739  0.3784608376272115
  0.8825074715094232  0.6260105899410426  0.9489563147080040
  0.7750820038944257  0.1888322368448259  0.2139878193735530
  0.4826946299205444  0.1361331864273716  0.7514667497292815
  0.5959482957688651  0.8119062045908855  0.1951976217258713
  0.4503566357325768  0.9333604624059477  0.9333274160095345
  0.8296333406168619  0.2862352716270910  0.6134617941761339
  0.6803059655396824  0.7974281518844819  0.3964256913983783
  0.4748212934777901  0.5841305585364585  0.0058006741231993
  0.4428473805228309  0.0322283483791759  0.5784564412479342
  0.1591177760509275  0.6770687901284198  0.0038400173810047
  0.0001847637056954  0.9453010773137654  0.8421651091766064
  0.3514677562965025  0.6779189013590512  0.1241758355601075
  0.2708549403687200  0.3661772543953438  0.4118718406634658
  0.6247134495733055  0.5011311768283538  0.1590305051102987
  0.1591836550058881  0.7388527527556096  0.4529778421951965
  0.9404978647767095  0.5781529292140146  0.3281660925929616
  0.7274240957005295  0.9272190675285300  0.2865371460277448
  0.6341299717673320  0.4970290508660771  0.9742542260630469
  0.3213070018914068  0.6527286985047526  0.7800503698930258
  0.0733761189939565  0.0426734118196943  0.2371779138616970
  0.2766712986252808  0.2764221524909575  0.9724050991664482
  0.1573104468966657  0.6082918213945288  0.7039043906247570
  0.8968195636564079  0.1212667657748188  0.7978225206395353
  0.3628605071592793  0.3962609870642422  0.6775756054945331
  0.0193219345380445  0.8243757683894649  0.6903261502336767
  0.0265252198074222  0.4852262418959070  0.6703776640172026
  0.3237149318395447  0.5626261723905175  0.9252415414516265
  0.8263449548902997  0.4608666619454262  0.8947815089829531
  0.4438570222651931  0.8712003846484444  0.4520386357979163
  0.1414006334833866  0.2311145408857063  0.5045446950191689
  0.3810497470779059  0.7899861511700724  0.6573492847426254
  0.3550768889870303  0.1016815206019550  0.9298371474122170
  0.1984834376821774  0.9612325474953392  0.1177499046244769
  0.3731205407682070  0.4697270165621123  0.2694259296352706
  0.6123143636360494  0.9865090743931604  0.1429220988885191
  0.6168643070825430  0.3369567902948823  0.2387832805093023
  0.4561773242786452  0.9439823467797890  0.7492898084743872
  0.5065485731269004  0.2119008073518327  0.8943651897280908
  0.0710601456248056  0.8486509822843920 -0.0078133881301880
  0.4282493974319784  0.7386116900561231  0.2770662198231801
  0.8603432980080581  0.4025121520334405  0.3414088397527897
  0.9615451690813467  0.7963423393405509  0.1358543005223845
  0.2411742524327331  0.3541364872613360  0.8089613201780818
  0.2886894575492980  0.8564988600911588  0.8074980821554434
  0.9559302515502969  0.0266088757389041 -0.0061808075870366
  0.9153208697277494  0.4359690229977314  0.5261850460243210
  0.8791995447025643  0.4181360290361935  0.7345177265651300
  0.9230299825218983  0.3043169135688199  0.9536419583081215
  0.4188223024382989  0.2555507332526800  0.3372745222421596
  0.5756452353033991  0.4487987105063435  0.2768869775805353
  0.6534531581492797  0.6623186704708043  0.0306058375926880
  0.2786371954797272  0.8941089313611779  0.4907700219391472
  0.0087977629700624  0.1226270711753654  0.9446394208614649
  0.7405547364082860  0.4849069854864377  0.6228200252517703
  0.2489936632649652  0.7196630378849805  0.2977650971928897
  0.6140778714172194  0.3710493462377109  0.5667114970280306
  0.2051833179306911  0.1392804011049147  0.8553353450676293
 -0.0046972253039836  0.3034700798325838  0.4041692446211254
  0.0407270634814300  0.8570481044533669  0.2048415833314123
  0.3179188448280548  0.0826412622065084  0.7412789570383487
  0.7814430188621277  0.6697350051230846  0.7903074630015482
  0.1102954401489042  0.9025960261308725  0.5659421121658799
  0.7183659195803362  0.5350594294195280  0.2338963044657778
  0.1040672873780562  0.4275073014791715  0.4908506675157634
  0.7701709781897177  0.5403019834967085  0.0607410529480423
  0.6359168824002244  0.8363734946164162  0.5799600572393354
  0.2615484485111165  0.9394936896715963  0.6622256216958574
  0.7863618874905413  0.3887575137825023  0.1863800122299896
  0.2733316951575861  0.1105960205810919  0.0950629998259394
  0.5448161255965301  0.6937287099632091  0.6357620637091133
  0.3623756362401448  0.0715911306350867  0.4123733755676890
  0.8522566974254921  0.6137090281329842  0.6070399871082779
  0.2613200929303778  0.1678206318724015  0.2752519457588022
  0.7040851081576209  0.0366658057774534  0.6080362425555699
  0.2568684636464807  0.8507316815135035  0.9841121414401491
  0.6370579678716248  0.5773470457363674  0.4013746976220764
  0.3976964711237141 -0.0044696290538450  0.0977305059036036
  0.0329587948469231  0.6514378157922890  0.5627155504005732
  0.1676208119226576  0.0677290115499687  0.4116541316033810
  0.4661583953696770  0.9376220297879905  0.2566496285647752
  0.3729603014420726  0.4920263385158692  0.4846497163590505
  0.0452309350687121  0.2235759829610828  0.8064637442299922
 
  0.00000000E+00  0.00000000E+00  0.00000000E+00
  0.00000000E+00  0.00000000E+00  0.00000000E+00
  0.00000000E+00  0.00000000E+00  0.00000000E+00
  0.00000000E+00  0.00000000E+00  0.00000000E+00
  0.00000000E+00  0.00000000E+00  0.00000000E+00
  0.00000000E+00  0.00000000E+00  0.00000000E+00
  0.00000000E+00  0.00000000E+00  0.00000000E+00
  0.00000000E+00  0.00000000E+00  0.00000000E+00
  0.00000000E+00  0.00000000E+00  0.00000000E+00
  0.00000000E+00  0.00000000E+00  0.00000000E+00
  0.00000000E+00  0.00000000E+00  0.00000000E+00
  0.00000000E+00  0.00000000E+00  0.00000000E+00
  0.00000000E+00  0.00000000E+00  0.00000000E+00
  0.00000000E+00  0.00000000E+00  0.00000000E+00
  0.00000000E+00  0.00000000E+00  0.00000000E+00
  0.00000000E+00  0.00000000E+00  0.00000000E+00
  0.00000000E+00  0.00000000E+00  0.00000000E+00
  0.00000000E+00  0.00000000E+00  0.00000000E+00
  0.00000000E+00  0.00000000E+00  0.00000000E+00
  0.00000000E+00  0.00000000E+00  0.00000000E+00
  0.00000000E+00  0.00000000E+00  0.00000000E+00
  0.00000000E+00  0.00000000E+00  0.00000000E+00
  0.00000000E+00  0.00000000E+00  0.00000000E+00
  0.00000000E+00  0.00000000E+00  0.00000000E+00
  0.00000000E+00  0.00000000E+00  0.00000000E+00
  0.00000000E+00  0.00000000E+00  0.00000000E+00
  0.00000000E+00  0.00000000E+00  0.00000000E+00
  0.00000000E+00  0.00000000E+00  0.00000000E+00
  0.00000000E+00  0.00000000E+00  0.00000000E+00
  0.00000000E+00  0.00000000E+00  0.00000000E+00
  0.00000000E+00  0.00000000E+00  0.00000000E+00
  0.00000000E+00  0.00000000E+00  0.00000000E+00
  0.00000000E+00  0.00000000E+00  0.00000000E+00
  0.00000000E+00  0.00000000E+00  0.00000000E+00
  0.00000000E+00  0.00000000E+00  0.00000000E+00
  0.00000000E+00  0.00000000E+00  0.00000000E+00
  0.00000000E+00  0.00000000E+00  0.00000000E+00
  0.00000000E+00  0.00000000E+00  0.00000000E+00
  0.00000000E+00  0.00000000E+00  0.00000000E+00
  0.00000000E+00  0.00000000E+00  0.00000000E+00
  0.00000000E+00  0.00000000E+00  0.00000000E+00
  0.00000000E+00  0.00000000E+00  0.00000000E+00
  0.00000000E+00  0.00000000E+00  0.00000000E+00
  0.00000000E+00  0.00000000E+00  0.00000000E+00
  0.00000000E+00  0.00000000E+00  0.00000000E+00
  0.00000000E+00  0.00000000E+00  0.00000000E+00
  0.00000000E+00  0.00000000E+00  0.00000000E+00
  0.00000000E+00  0.00000000E+00  0.00000000E+00
  0.00000000E+00  0.00000000E+00  0.00000000E+00
  0.00000000E+00  0.00000000E+00  0.00000000E+00
  0.00000000E+00  0.00000000E+00  0.00000000E+00
  0.00000000E+00  0.00000000E+00  0.00000000E+00
  0.00000000E+00  0.00000000E+00  0.00000000E+00
  0.00000000E+00  0.00000000E+00  0.00000000E+00
  0.00000000E+00  0.00000000E+00  0.00000000E+00
  0.00000000E+00  0.00000000E+00  0.00000000E+00
  0.00000000E+00  0.00000000E+00  0.00000000E+00
  0.00000000E+00  0.00000000E+00  0.00000000E+00
  0.00000000E+00  0.00000000E+00  0.00000000E+00
  0.00000000E+00  0.00000000E+00  0.00000000E+00
  0.00000000E+00  0.00000000E+00  0.00000000E+00
  0.00000000E+00  0.00000000E+00  0.00000000E+00
  0.00000000E+00  0.00000000E+00  0.00000000E+00
  0.00000000E+00  0.00000000E+00  0.00000000E+00
  0.00000000E+00  0.00000000E+00  0.00000000E+00
  0.00000000E+00  0.00000000E+00  0.00000000E+00
  0.00000000E+00  0.00000000E+00  0.00000000E+00
  0.00000000E+00  0.00000000E+00  0.00000000E+00
  0.00000000E+00  0.00000000E+00  0.00000000E+00
  0.00000000E+00  0.00000000E+00  0.00000000E+00
  0.00000000E+00  0.00000000E+00  0.00000000E+00
  0.00000000E+00  0.00000000E+00  0.00000000E+00
  0.00000000E+00  0.00000000E+00  0.00000000E+00
  0.00000000E+00  0.00000000E+00  0.00000000E+00
  0.00000000E+00  0.00000000E+00  0.00000000E+00
  0.00000000E+00  0.00000000E+00  0.00000000E+00
  0.00000000E+00  0.00000000E+00  0.00000000E+00
  0.00000000E+00  0.00000000E+00  0.00000000E+00
  0.00000000E+00  0.00000000E+00  0.00000000E+00
  0.00000000E+00  0.00000000E+00  0.00000000E+00
  0.00000000E+00  0.00000000E+00  0.00000000E+00
  0.00000000E+00  0.00000000E+00  0.00000000E+00
  0.00000000E+00  0.00000000E+00  0.00000000E+00
  0.00000000E+00  0.00000000E+00  0.00000000E+00
  0.00000000E+00  0.00000000E+00  0.00000000E+00
  0.00000000E+00  0.00000000E+00  0.00000000E+00
  0.00000000E+00  0.00000000E+00  0.00000000E+00
  0.00000000E+00  0.00000000E+00  0.00000000E+00
  0.00000000E+00  0.00000000E+00  0.00000000E+00
  0.00000000E+00  0.00000000E+00  0.00000000E+00
  0.00000000E+00  0.00000000E+00  0.00000000E+00
  0.00000000E+00  0.00000000E+00  0.00000000E+00
  0.00000000E+00  0.00000000E+00  0.00000000E+00
  0.00000000E+00  0.00000000E+00  0.00000000E+00
  0.00000000E+00  0.00000000E+00  0.00000000E+00
  0.00000000E+00  0.00000000E+00  0.00000000E+00
  0.00000000E+00  0.00000000E+00  0.00000000E+00
  0.00000000E+00  0.00000000E+00  0.00000000E+00
  0.00000000E+00  0.00000000E+00  0.00000000E+00
  0.00000000E+00  0.00000000E+00  0.00000000E+00
  0.00000000E+00  0.00000000E+00  0.00000000E+00
  0.00000000E+00  0.00000000E+00  0.00000000E+00
  0.00000000E+00  0.00000000E+00  0.00000000E+00
  0.00000000E+00  0.00000000E+00  0.00000000E+00
  0.00000000E+00  0.00000000E+00  0.00000000E+00
  0.00000000E+00  0.00000000E+00  0.00000000E+00
  0.00000000E+00  0.00000000E+00  0.00000000E+00
  0.00000000E+00  0.00000000E+00  0.00000000E+00
  0.00000000E+00  0.00000000E+00  0.00000000E+00
  0.00000000E+00  0.00000000E+00  0.00000000E+00
  0.00000000E+00  0.00000000E+00  0.00000000E+00
  0.00000000E+00  0.00000000E+00  0.00000000E+00
  0.00000000E+00  0.00000000E+00  0.00000000E+00
  0.00000000E+00  0.00000000E+00  0.00000000E+00
  0.00000000E+00  0.00000000E+00  0.00000000E+00
  0.00000000E+00  0.00000000E+00  0.00000000E+00
  0.00000000E+00  0.00000000E+00  0.00000000E+00
  0.00000000E+00  0.00000000E+00  0.00000000E+00
  0.00000000E+00  0.00000000E+00  0.00000000E+00
  0.00000000E+00  0.00000000E+00  0.00000000E+00
  0.00000000E+00  0.00000000E+00  0.00000000E+00
  0.00000000E+00  0.00000000E+00  0.00000000E+00
  0.00000000E+00  0.00000000E+00  0.00000000E+00
  0.00000000E+00  0.00000000E+00  0.00000000E+00
  0.00000000E+00  0.00000000E+00  0.00000000E+00
  0.00000000E+00  0.00000000E+00  0.00000000E+00
  0.00000000E+00  0.00000000E+00  0.00000000E+00
  0.00000000E+00  0.00000000E+00  0.00000000E+00
  0.00000000E+00  0.00000000E+00  0.00000000E+00
  0.00000000E+00  0.00000000E+00  0.00000000E+00
  0.00000000E+00  0.00000000E+00  0.00000000E+00
  0.00000000E+00  0.00000000E+00  0.00000000E+00
  0.00000000E+00  0.00000000E+00  0.00000000E+00
  0.00000000E+00  0.00000000E+00  0.00000000E+00
  0.00000000E+00  0.00000000E+00  0.00000000E+00
  0.00000000E+00  0.00000000E+00  0.00000000E+00
  0.00000000E+00  0.00000000E+00  0.00000000E+00
  0.00000000E+00  0.00000000E+00  0.00000000E+00
  0.00000000E+00  0.00000000E+00  0.00000000E+00
  0.00000000E+00  0.00000000E+00  0.00000000E+00
  0.00000000E+00  0.00000000E+00  0.00000000E+00
  0.00000000E+00  0.00000000E+00  0.00000000E+00
  0.00000000E+00  0.00000000E+00  0.00000000E+00
  0.00000000E+00  0.00000000E+00  0.00000000E+00
  0.00000000E+00  0.00000000E+00  0.00000000E+00
  0.00000000E+00  0.00000000E+00  0.00000000E+00
  0.00000000E+00  0.00000000E+00  0.00000000E+00
  0.00000000E+00  0.00000000E+00  0.00000000E+00
  0.00000000E+00  0.00000000E+00  0.00000000E+00
  0.00000000E+00  0.00000000E+00  0.00000000E+00
  0.00000000E+00  0.00000000E+00  0.00000000E+00
  0.00000000E+00  0.00000000E+00  0.00000000E+00
  0.00000000E+00  0.00000000E+00  0.00000000E+00
  0.00000000E+00  0.00000000E+00  0.00000000E+00
  0.00000000E+00  0.00000000E+00  0.00000000E+00
  0.00000000E+00  0.00000000E+00  0.00000000E+00
  0.00000000E+00  0.00000000E+00  0.00000000E+00
  0.00000000E+00  0.00000000E+00  0.00000000E+00
  0.00000000E+00  0.00000000E+00  0.00000000E+00
  0.00000000E+00  0.00000000E+00  0.00000000E+00
  0.00000000E+00  0.00000000E+00  0.00000000E+00
  0.00000000E+00  0.00000000E+00  0.00000000E+00
  0.00000000E+00  0.00000000E+00  0.00000000E+00
  0.00000000E+00  0.00000000E+00  0.00000000E+00
  0.00000000E+00  0.00000000E+00  0.00000000E+00
  0.00000000E+00  0.00000000E+00  0.00000000E+00
  0.00000000E+00  0.00000000E+00  0.00000000E+00
  0.00000000E+00  0.00000000E+00  0.00000000E+00
  0.00000000E+00  0.00000000E+00  0.00000000E+00
  0.00000000E+00  0.00000000E+00  0.00000000E+00
  0.00000000E+00  0.00000000E+00  0.00000000E+00
  0.00000000E+00  0.00000000E+00  0.00000000E+00
  0.00000000E+00  0.00000000E+00  0.00000000E+00
  0.00000000E+00  0.00000000E+00  0.00000000E+00
  0.00000000E+00  0.00000000E+00  0.00000000E+00
  0.00000000E+00  0.00000000E+00  0.00000000E+00
  0.00000000E+00  0.00000000E+00  0.00000000E+00
  0.00000000E+00  0.00000000E+00  0.00000000E+00
  0.00000000E+00  0.00000000E+00  0.00000000E+00
  0.00000000E+00  0.00000000E+00  0.00000000E+00
  0.00000000E+00  0.00000000E+00  0.00000000E+00
  0.00000000E+00  0.00000000E+00  0.00000000E+00
  0.00000000E+00  0.00000000E+00  0.00000000E+00
  0.00000000E+00  0.00000000E+00  0.00000000E+00
  0.00000000E+00  0.00000000E+00  0.00000000E+00
  0.00000000E+00  0.00000000E+00  0.00000000E+00
  0.00000000E+00  0.00000000E+00  0.00000000E+00
  0.00000000E+00  0.00000000E+00  0.00000000E+00
  0.00000000E+00  0.00000000E+00  0.00000000E+00
  0.00000000E+00  0.00000000E+00  0.00000000E+00
  0.00000000E+00  0.00000000E+00  0.00000000E+00
  0.00000000E+00  0.00000000E+00  0.00000000E+00
  0.00000000E+00  0.00000000E+00  0.00000000E+00
  0.00000000E+00  0.00000000E+00  0.00000000E+00
  0.00000000E+00  0.00000000E+00  0.00000000E+00
  0.00000000E+00  0.00000000E+00  0.00000000E+00
  0.00000000E+00  0.00000000E+00  0.00000000E+00
  0.00000000E+00  0.00000000E+00  0.00000000E+00
  0.00000000E+00  0.00000000E+00  0.00000000E+00
  0.00000000E+00  0.00000000E+00  0.00000000E+00
  0.00000000E+00  0.00000000E+00  0.00000000E+00
  0.00000000E+00  0.00000000E+00  0.00000000E+00
  0.00000000E+00  0.00000000E+00  0.00000000E+00
  0.00000000E+00  0.00000000E+00  0.00000000E+00
  0.00000000E+00  0.00000000E+00  0.00000000E+00
  0.00000000E+00  0.00000000E+00  0.00000000E+00
  0.00000000E+00  0.00000000E+00  0.00000000E+00
  0.00000000E+00  0.00000000E+00  0.00000000E+00
  0.00000000E+00  0.00000000E+00  0.00000000E+00
  0.00000000E+00  0.00000000E+00  0.00000000E+00
  0.00000000E+00  0.00000000E+00  0.00000000E+00
  0.00000000E+00  0.00000000E+00  0.00000000E+00
  0.00000000E+00  0.00000000E+00  0.00000000E+00
  0.00000000E+00  0.00000000E+00  0.00000000E+00
  0.00000000E+00  0.00000000E+00  0.00000000E+00
  0.00000000E+00  0.00000000E+00  0.00000000E+00
  0.00000000E+00  0.00000000E+00  0.00000000E+00
  0.00000000E+00  0.00000000E+00  0.00000000E+00
  0.00000000E+00  0.00000000E+00  0.00000000E+00
  0.00000000E+00  0.00000000E+00  0.00000000E+00
  0.00000000E+00  0.00000000E+00  0.00000000E+00
  0.00000000E+00  0.00000000E+00  0.00000000E+00
  0.00000000E+00  0.00000000E+00  0.00000000E+00
  0.00000000E+00  0.00000000E+00  0.00000000E+00
  0.00000000E+00  0.00000000E+00  0.00000000E+00
  0.00000000E+00  0.00000000E+00  0.00000000E+00
  0.00000000E+00  0.00000000E+00  0.00000000E+00
  0.00000000E+00  0.00000000E+00  0.00000000E+00
  0.00000000E+00  0.00000000E+00  0.00000000E+00
  0.00000000E+00  0.00000000E+00  0.00000000E+00
  0.00000000E+00  0.00000000E+00  0.00000000E+00
  0.00000000E+00  0.00000000E+00  0.00000000E+00