As16 S16                                
   1.00000000000000     
     0.0000000000000000    7.1228374005092467    0.0473001268004880
    15.3663017625016973    0.0000000000000000    0.0000000000000000
     0.0000000000000000   -4.2713763141269263   -9.3792863913063620
   As   S 
    16    16
Direct
  0.3501298281108798  0.0057006192595400  0.1280268375056543
  0.6498701718891201  0.5057006192595394  0.3719731624943454
  0.6498701718891201  0.9942993807404606  0.8719731624943459
  0.3501298281108798  0.4942993807404596  0.6280268375056541
  0.5397985686833395  0.8635572020614225  0.4230843122594710
  0.4602014313166601  0.3635572020614232  0.0769156877405288
  0.4602014313166601  0.1364427979385766  0.5769156877405276
  0.5397985686833395  0.6364427979385775  0.9230843122594725
  0.1351797565895297  0.8801493027669550  0.3166070962200661
  0.8648202434104699  0.3801493027669546  0.1833929037799341
  0.8648202434104699  0.1198506972330453  0.6833929037799349
  0.1351797565895297  0.6198506972330450  0.8166070962200651
  0.3073702780906266  0.8408435011886254  0.0498814931325891
  0.6926297219093732  0.3408435011886246  0.4501185068674114
  0.6926297219093732  0.1591564988113752  0.9501185068674113
  0.3073702780906266  0.6591564988113746  0.5498814931325887
  0.6167513044144716 -0.0092050015857660  0.3456159213257629
  0.3832486955855286  0.4907949984142347  0.1543840786742366
  0.3832486955855286  0.0092050015857660  0.6543840786742356
  0.6167513044144716  0.5092050015857656  0.8456159213257644
  0.1059348649920386  0.0125784772815160  0.2136355595177886
  0.8940651350079623  0.5125784772815156  0.2863644404822111
  0.8940651350079623  0.9874215227184844  0.7863644404822108
  0.1059348649920386  0.4874215227184841  0.7136355595177892
  0.5621030763215342  0.7835315866740291  0.2461598398834274
  0.4378969236784657  0.2835315866740302  0.2538401601165726
  0.4378969236784657  0.2164684133259702  0.7538401601165715
  0.5621030763215342  0.7164684133259709  0.7461598398834285
  0.0492366212824657  0.8047948316219632  0.1116298279640156
  0.9507633787175340  0.3047948316219639  0.3883701720359846
  0.9507633787175340  0.1952051683780363  0.8883701720359850
  0.0492366212824657  0.6952051683780368  0.6116298279640150
 
  0.00000000E+00  0.00000000E+00  0.00000000E+00
  0.00000000E+00  0.00000000E+00  0.00000000E+00
  0.00000000E+00  0.00000000E+00  0.00000000E+00
  0.00000000E+00  0.00000000E+00  0.00000000E+00
  0.00000000E+00  0.00000000E+00  0.00000000E+00
  0.00000000E+00  0.00000000E+00  0.00000000E+00
  0.00000000E+00  0.00000000E+00  0.00000000E+00
  0.00000000E+00  0.00000000E+00  0.00000000E+00
  0.00000000E+00  0.00000000E+00  0.00000000E+00
  0.00000000E+00  0.00000000E+00  0.00000000E+00
  0.00000000E+00  0.00000000E+00  0.00000000E+00
  0.00000000E+00  0.00000000E+00  0.00000000E+00
  0.00000000E+00  0.00000000E+00  0.00000000E+00
  0.00000000E+00  0.00000000E+00  0.00000000E+00
  0.00000000E+00  0.00000000E+00  0.00000000E+00
  0.00000000E+00  0.00000000E+00  0.00000000E+00
  0.00000000E+00  0.00000000E+00  0.00000000E+00
  0.00000000E+00  0.00000000E+00  0.00000000E+00
  0.00000000E+00  0.00000000E+00  0.00000000E+00
  0.00000000E+00  0.00000000E+00  0.00000000E+00
  0.00000000E+00  0.00000000E+00  0.00000000E+00
  0.00000000E+00  0.00000000E+00  0.00000000E+00
  0.00000000E+00  0.00000000E+00  0.00000000E+00
  0.00000000E+00  0.00000000E+00  0.00000000E+00
  0.00000000E+00  0.00000000E+00  0.00000000E+00
  0.00000000E+00  0.00000000E+00  0.00000000E+00
  0.00000000E+00  0.00000000E+00  0.00000000E+00
  0.00000000E+00  0.00000000E+00  0.00000000E+00
  0.00000000E+00  0.00000000E+00  0.00000000E+00
  0.00000000E+00  0.00000000E+00  0.00000000E+00
  0.00000000E+00  0.00000000E+00  0.00000000E+00
  0.00000000E+00  0.00000000E+00  0.00000000E+00
