Ge4 Se4                                 
   1.00000000000000     
    23.0107764352829562    0.0000000000000000   -0.1266875054554705
     0.0000000000000000    7.9082427806198163    0.0000000000000000
    -0.0472459578403461    0.0000000000000000    8.5726869395458820
   Ge   As   Se
    30     2    32
Direct
  0.0673551644285389  0.1250000000000000  0.0606075656521445
  0.9368003152055412  0.8668399632826080  0.9243966621042767
  0.1822754131059661  0.8728284789317178  0.3153647839769102
  0.3184404764454592  0.1250000000000000  0.2063082979674685
  0.9368003152055412  0.3831600367173923  0.9243966621042767
  0.1822754131059661  0.3771715210682814  0.3153647839769102
  0.0689265121359047  0.1250000000000000  0.5601222278549122
  0.9343911362994375  0.8723438511295060  0.4344202071440899
  0.1838165794850773  0.8748777828548190  0.8144516270521580
  0.3165278078303699  0.1250000000000000  0.7023246182606995
  0.9343911362994375  0.3776561488704942  0.4344202071440899
  0.1838165794850773  0.3751222171451816  0.8144516270521580
  0.0677517525838855  0.6250000000000000  0.0595654251463276
  0.3173407022819227  0.6250000000000000  0.2049449361287166
  0.0647759771604188  0.6250000000000000  0.5645631785794492
  0.3129048736120291  0.6250000000000000  0.7029652380224863
  0.5643504572380119  0.1250000000000000  0.0670601905644463
  0.4315428082918854  0.8742102984924371  0.9550945304598502
  0.6877742832222246  0.8719289587031874  0.3123753151738741
  0.8144747452853225  0.1250000000000000  0.1648112638985328
  0.4315428082918854  0.3757897015075623  0.9550945304598502
  0.6877742832222246  0.3780710412968121  0.3123753151738741
  0.5673243540219195  0.1250000000000000  0.5414460870069625
  0.4324013097678157  0.8719232652598691  0.4597080144226700
  0.6831934702833540  0.8699390247141200  0.8009415706045002
  0.8210263727563023  0.1250000000000000  0.6926592816336927
  0.4324013097678157  0.3780767347401302  0.4597080144226700
  0.6831934702833540  0.3800609752858801  0.8009415706045002
  0.5656267509390225  0.6250000000000000  0.0589592647858790
  0.8179842458742952  0.6250000000000000  0.1710727448439710
  0.5617653855486066  0.6250000000000000  0.5597439429820862
  0.8038926988486991  0.6250000000000000  0.6444468272576325
  0.0714810582761462  0.3750209925201245  0.2632187419207125
  0.9315089009367323  0.6250000000000000  0.7263116817028836
  0.1765797796292566  0.6250000000000000  0.5172773114864084
  0.3219668724215530  0.3740311978690244  0.0032265649159080
  0.0714810582761462  0.8749790074798749  0.2632187419207125
  0.3219668724215530  0.8759688021309761  0.0032265649159080
  0.0732255334479710  0.3739767265066529  0.7641800467781771
  0.9277743817394093  0.6250000000000000  0.2270192350707674
  0.1783313073984203  0.6250000000000000  0.0167712798317621
  0.3213193102783055  0.3756882049569581  0.5010950422371560
  0.0732255334479710  0.8760232734933470  0.7641800467781771
  0.3213193102783055  0.8743117950430419  0.5010950422371560
  0.9310052720448192  0.1250000000000000  0.7242134394267580
  0.1789668259867438  0.1250000000000000  0.5165641979085887
  0.9248728063830816  0.1250000000000000  0.2369800456238263
  0.1780559211768696  0.1250000000000000  0.0167571881881683
  0.5760686354508331  0.3772917863895010  0.2638827825513793
  0.4234657068039659  0.6250000000000000  0.7533416116446086
  0.6821479513796688  0.6250000000000000  0.5217556578212841
  0.8235541309346228  0.3758340815973496  0.9670537121199289
  0.5760686354508331  0.8727082136104989  0.2638827825513793
  0.8235541309346228  0.8741659184026503  0.9670537121199289
  0.5707873525394225  0.3831574887737260  0.7455881409207870
  0.4279700056264841  0.6250000000000000  0.2549454060079417
  0.6756323424875941  0.6250000000000000  0.0075046977506341
  0.8215775901492398  0.3751098826224680  0.4751347647606031
  0.5707873525394225  0.8668425112262738  0.7455881409207870
  0.8215775901492398  0.8748901173775319  0.4751347647606031
  0.4271803598755201  0.1250000000000000  0.7533476601919715
  0.6785973529140674  0.1250000000000000  0.5112136784285602
  0.4291502002225348  0.1250000000000000  0.2563019306005676
  0.6739409780853280  0.1250000000000000 -0.0021711385561078
 
  0.00000000E+00  0.00000000E+00  0.00000000E+00
  0.00000000E+00  0.00000000E+00  0.00000000E+00
  0.00000000E+00  0.00000000E+00  0.00000000E+00
  0.00000000E+00  0.00000000E+00  0.00000000E+00
  0.00000000E+00  0.00000000E+00  0.00000000E+00
  0.00000000E+00  0.00000000E+00  0.00000000E+00
  0.00000000E+00  0.00000000E+00  0.00000000E+00
  0.00000000E+00  0.00000000E+00  0.00000000E+00
  0.00000000E+00  0.00000000E+00  0.00000000E+00
  0.00000000E+00  0.00000000E+00  0.00000000E+00
  0.00000000E+00  0.00000000E+00  0.00000000E+00
  0.00000000E+00  0.00000000E+00  0.00000000E+00
  0.00000000E+00  0.00000000E+00  0.00000000E+00
  0.00000000E+00  0.00000000E+00  0.00000000E+00
  0.00000000E+00  0.00000000E+00  0.00000000E+00
  0.00000000E+00  0.00000000E+00  0.00000000E+00
  0.00000000E+00  0.00000000E+00  0.00000000E+00
  0.00000000E+00  0.00000000E+00  0.00000000E+00
  0.00000000E+00  0.00000000E+00  0.00000000E+00
  0.00000000E+00  0.00000000E+00  0.00000000E+00
  0.00000000E+00  0.00000000E+00  0.00000000E+00
  0.00000000E+00  0.00000000E+00  0.00000000E+00
  0.00000000E+00  0.00000000E+00  0.00000000E+00
  0.00000000E+00  0.00000000E+00  0.00000000E+00
  0.00000000E+00  0.00000000E+00  0.00000000E+00
  0.00000000E+00  0.00000000E+00  0.00000000E+00
  0.00000000E+00  0.00000000E+00  0.00000000E+00
  0.00000000E+00  0.00000000E+00  0.00000000E+00
  0.00000000E+00  0.00000000E+00  0.00000000E+00
  0.00000000E+00  0.00000000E+00  0.00000000E+00
  0.00000000E+00  0.00000000E+00  0.00000000E+00
  0.00000000E+00  0.00000000E+00  0.00000000E+00
  0.00000000E+00  0.00000000E+00  0.00000000E+00
  0.00000000E+00  0.00000000E+00  0.00000000E+00
  0.00000000E+00  0.00000000E+00  0.00000000E+00
  0.00000000E+00  0.00000000E+00  0.00000000E+00
  0.00000000E+00  0.00000000E+00  0.00000000E+00
  0.00000000E+00  0.00000000E+00  0.00000000E+00
  0.00000000E+00  0.00000000E+00  0.00000000E+00
  0.00000000E+00  0.00000000E+00  0.00000000E+00
  0.00000000E+00  0.00000000E+00  0.00000000E+00
  0.00000000E+00  0.00000000E+00  0.00000000E+00
  0.00000000E+00  0.00000000E+00  0.00000000E+00
  0.00000000E+00  0.00000000E+00  0.00000000E+00
  0.00000000E+00  0.00000000E+00  0.00000000E+00
  0.00000000E+00  0.00000000E+00  0.00000000E+00
  0.00000000E+00  0.00000000E+00  0.00000000E+00
  0.00000000E+00  0.00000000E+00  0.00000000E+00
  0.00000000E+00  0.00000000E+00  0.00000000E+00
  0.00000000E+00  0.00000000E+00  0.00000000E+00
  0.00000000E+00  0.00000000E+00  0.00000000E+00
  0.00000000E+00  0.00000000E+00  0.00000000E+00
  0.00000000E+00  0.00000000E+00  0.00000000E+00
  0.00000000E+00  0.00000000E+00  0.00000000E+00
  0.00000000E+00  0.00000000E+00  0.00000000E+00
  0.00000000E+00  0.00000000E+00  0.00000000E+00
  0.00000000E+00  0.00000000E+00  0.00000000E+00
  0.00000000E+00  0.00000000E+00  0.00000000E+00
  0.00000000E+00  0.00000000E+00  0.00000000E+00
  0.00000000E+00  0.00000000E+00  0.00000000E+00
  0.00000000E+00  0.00000000E+00  0.00000000E+00
  0.00000000E+00  0.00000000E+00  0.00000000E+00
  0.00000000E+00  0.00000000E+00  0.00000000E+00
  0.00000000E+00  0.00000000E+00  0.00000000E+00
