Amorphous Sb                            
   1.00000000000000     
    22.8119198510770396    0.0000000000000000    0.0000000000000000
     0.0000000000000000   22.8119198510770396    0.0000000000000000
     0.0000000000000000    0.0000000000000000   22.8119198510770396
   In   Te
    60   240
Direct
  0.1613117021286004  0.5827612612181051  0.1544479090823938
  0.4146353416528897  0.2574054702001731  0.3042713418642531
  0.1593830160478814  0.1017176032549084  0.1009298741401703
  0.4959411778788195  0.8139132553331974  0.6814263849003904
  0.9784437486715933  0.0412095515712185  0.1504555053356332
  0.3677002799723729  0.5848149482603043  0.1283940827142834
  0.8903053649474097  0.0232225754283070  0.5045157364805702
  0.4717192754659866  0.2009803788924934  0.9059878802509196
  0.9707014965816940  0.7773000633591892  0.1879028199728066
  0.1973155240674683  0.9225440679128530  0.1099288699985793
  0.3102142289893124  0.7252971772617690  0.2965570897652038
  0.7590175345883494  0.4818917583963114  0.6958104506129066
  0.5074728073807793  0.0851237320332446  0.7629737336116053
  0.6135025544747800  0.6159975379640317  0.0342234555280132
  0.2918480234415893  0.6574982087788199  0.9350018509431304
  0.9882400833407460  0.5330748193328808  0.3409501750815453
  0.1774617680804528  0.9375613268634612  0.5203111672674199
  0.6115404760661884  0.5502176950363190  0.2090038186719521
  0.6967098507267292  0.5338771846296123  0.9139035563944603
  0.6079688466397585  0.0668204574830428  0.2783227235880830
  0.7437743931138826  0.5431284569684438  0.0937349299303444
  0.0953190832164800  0.9198123754589489  0.1854234923462164
  0.8889058837816718  0.3377502990014778  0.9724205417942420
  0.4347925611185609  0.0342969865576347  0.0000295696151033
  0.1615997326663514  0.8744699724420877  0.7161945923853629
  0.9245319270823521  0.1484319672914543  0.0200358147818763
  0.2251255242661130  0.0499661426591887  0.6695066698946540
  0.6232607046877253  0.5553120261562998  0.3883029866998023
  0.9052927934336764  0.3876586705529219  0.4015421693794599
  0.4323180951459961  0.9735047033119846  0.2910996418331209
  0.3471391075740011  0.8540887392533631  0.5118581135318591
  0.3117243375269414  0.9615934120752396  0.1429093098334446
  0.5640552043401722  0.3423117886410989  0.7709064033965787
  0.0623733370267308  0.9814159725126420  0.0012339145377614
  0.0288830061438000  0.0825657379645673  0.4022982067189840
  0.1797228494588234  0.7246029231754533  0.0533164600313570
  0.7413812179346885  0.9361637926272052  0.4345867407850886
  0.8154466073858051  0.7876524286880093  0.1490377353644497
  0.2646034293758559  0.9773625275749935  0.8321754328850114
  0.1258681817060701  0.3114690336975626  0.7298546522686382
  0.3387994852642100  0.7957840116294690  0.1542818956785333
  0.2471714742165708  0.7017683446247684  0.6420339919691125
  0.0069932460135202  0.4943726574389259  0.0095482775677777
  0.1957397439563906  0.4981316569396191  0.9992065227713756
  0.1179397431831669  0.4848373239339986  0.7586171714815024
  0.5427616503189883  0.7982308200706768  0.9392192401410971
  0.0581570552822633  0.2835940984249940  0.9612032603695030
  0.4473882919549029  0.7981011529166370  0.8471169188110824
  0.0461945375383889  0.3301520696921210  0.0765101232121739
  0.7116482816939848  0.8108909639511451  0.5837361252290436
  0.9892925610340613  0.2126589993169585  0.1922585852068469
  0.4797341634784475 -0.0032755273812836  0.5467820468888455
  0.2813128912137057  0.4050582765975431  0.4082969058870212
  0.3408399606202414  0.2239920263549974  0.1567479068833220
  0.0046142539481266  0.6294787038075307  0.6817817888844135
  0.5843195013573009  0.1983023233055400  0.3790514066186885
  0.2999031853262280  0.2843959477502211  0.8890196934805824
  0.4538912254469613  0.6256688848430951  0.5988217237258965
  0.8720893195845337  0.3924846724088634  0.5976856581303619
  0.6918586695441569  0.1636454663765435  0.7229434633394548
  0.4754292262829223  0.6702180977945905  0.4250654408999571
  0.6863206566932726  0.2046684933103994  0.4489266797532850
  0.9107178677342841  0.4975767955818383  0.0875806698056688
  0.5982546688550048  0.8209314333916899  0.5357111420165886
  0.3981744355187552  0.7682674765836383  0.3804718712316609
  0.0890180100359160  0.4091936157271938  0.6576706665264760
  0.1666447872754490  0.7082120706913392  0.1827953380619094
  0.4435427896518142  0.4340461838954336  0.7718904058494077
  0.0536144267714545  0.0262769660194438  0.2498394119554351
  0.1831122794180600  0.8449691420052938  0.9211925250752571
  0.7097691997811559  0.3755698802510574  0.4134224064089508
  0.3569603762344780  0.5002983097957336  0.4453152180927985
  0.1203556708650030 -0.0039436161517628  0.7178735204847941
  0.7721290827602607  0.3446157046456685  0.9314785348855595
  0.7399413853664265  0.0924669798716942  0.0161309957177943
  0.7400261611742195  0.1981665354338117  0.2619910518849111
  0.0575326092776281  0.9087633279945666  0.8917397355871837
  0.9455065872319595  0.1916562228467546  0.7726815733342850
  0.0076447934911542  0.7974802669202217  0.9301571075567781
  0.3750496119787499  0.7419009605200709  0.9714932628833525
  0.3635890945070809  0.6437533547402235  0.4863255845536846
  0.6113076251562453  0.1932711353682475  0.2547831735832610
  0.0973392655408608  0.2305965372136272  0.4731413574347961
  0.4508780317484883  0.5440326981184553  0.9265105238544457
  0.4881974590080961  0.1678964811420540  0.6474231466678971
  0.2845290501730135  0.5538711694494813  0.8696685125065468
  0.7063232242335905  0.5594760191434979  0.2915541925397493
  0.5803001932443506  0.1424517528491715  0.9103643574493061
  0.7094482631135589  0.9588638297686652  0.8821800195902015
  0.5882302690127489  0.1947289040059332  0.7777670992967750
  0.2713703407318854  0.4117414936345018  0.6951943886341986
  0.0396790451868899  0.7338610276888310  0.8333776920374956
  0.0365785155893592  0.6045740446463168  0.9593021706485274
  0.9601517882856192  0.3706952851610243  0.5128513618441148
  0.5261242220606125  0.0829222898198063  0.3785907686524779
  0.7176066129384366  0.8250262202791458  0.0014877588524261
  0.2467589611129989  0.8533985642749948  0.8026448765669575
  0.8835374684553432  0.2244965410977905  0.1222416673933592
  0.9438348044773521  0.2317050562534897  0.9299020463697407
  0.4398425177712760  0.2949150495158424  0.1829623543766081
  0.1680969627799380  0.5103176177309894  0.2558227342250119
  0.9847674235037118  0.7137596582739988  0.5835430074729762
  0.4272233976376688  0.9317017451609334  0.4534835157426783
  0.6504441471856507  0.4930343490454860  0.0259787695546258
  0.5448795943213846  0.3690736547202566  0.2797409915305927
  0.4056145818753898  0.3710251079381940  0.6728460397970822
  0.0801670913598627  0.6426716277751827  0.0711956370344011
  0.4314883541488036  0.9288464680834506  0.8542615466499781
  0.2923366639566206  0.1407520923126078  0.9215669981488518
  0.7786246191671629  0.4698024342321573  0.1889594332884889
  0.6688636805267603  0.6584766892065740  0.9304335764435457
  0.2475721791861160  0.6541404175038795  0.3769679752781195
  0.4335120205009797  0.2744493931588876  0.8129943934625266
  0.8512128356420116  0.0476368789173949  0.0412850977382975
  0.1871791123353237  0.3843553635325906  0.5798900636411038
  0.0797355155271537  0.7983863169877481  0.2487769154092228
  0.5020323811651063  0.2912208341789407  0.3918543355876413
  0.6990053529556429  0.6802728655721123  0.7070958316147031
  0.9199347970535803  0.9314613504253555  0.4257603249705224
  0.3676829256074875  0.3814765017594252  0.3192798386096723
  0.1384139033371147  0.6392768659110090  0.3157666755182535
  0.0311863659446763  0.3519785001278730  0.8554052492159961
  0.0809909820349243  0.1874716151062364  0.3616000670632561
  0.5360309527897443  0.5718062354266753  0.4818651418530652
  0.7359592920359067  0.8159438074585482  0.7058501129371453
  0.6607382663148947  0.9491364596844347  0.9970623928351300
  0.4506022464088157  0.5277574090668365  0.0490527643461270
  0.1434298753110118  0.7644424870374827  0.4537761617844846
  0.0266023178783841  0.8553103831155934  0.5979996000214168
  0.4911212063054542  0.8379789618774807  0.3391234639172296
  0.8213908951998018  0.5262957158440194  0.9109175852615190
  0.8672263479666539  0.7969084196224600  0.0333985855832580
  0.9315884484155560  0.5301403896859508  0.7001958364050126
  0.4023386806960841  0.0958384568166173  0.8917200619785114
  0.5604160953515197  0.8559068294165650  0.7842434801482772
  0.9336969469981103  0.3735256484657239  0.7050201855318734
  0.5444983627114958  0.7764656854743170  0.0615639666135689
  0.9237472786231262  0.1518697606544285  0.2788729499226654
  0.5455581248168596  0.4284856328036162  0.9165625966544373
  0.1622772856629368  0.4181406761333119  0.3729297119734032
  0.5167339739725170  0.6779787920194227  0.7970969359853828
  0.9320030929097438  0.0276166782012681  0.3450520391161779
  0.4752528836372165  0.1465401506033736  0.2716122062703639
  0.2581583572039804  0.5889569559569058  0.5537738422049592
  0.3952196174380956  0.3171456968637999  0.5295835442794316
  0.8179895616062990  0.3440829231030459  0.8180995381525704
  0.0724044288015273  0.3014326020920652  0.1943605473627522
  0.9218926474870425  0.6852119467214416  0.2656341993428983
  0.0090962076826945  0.0755960375327036  0.9368447301777022
  0.7196160492956272  0.0209980853939326  0.2897677032340670
  0.7862035891202891  0.6521668783186648  0.3841359865964900
  0.0165430340061826  0.5486309098188292  0.7963524181255908
  0.8960509551167226  0.5707707718505445  0.4180006110107026
  0.3174605061589783  0.3855532662455760  0.2022423278332866
  0.8891499527198438  0.8655262377817186  0.2109525459207870
  0.2868129180393837  0.4121656531500866  0.8186906405430715
  0.6566109691099257  0.9189452168703345  0.7007481811540986
  0.3029487665594874  0.2384957781436937  0.0339578150868547
  0.8778893643292505  0.8615855494514163  0.8507913111173498
  0.1480555592913535  0.0192226666883229  0.8414962153481022
  0.5037371260763330  0.5759571522071083  0.2644957160247208
  0.9390235975823938  0.7240997909632495  0.7537333145040096
  0.4989372974438307  0.1933446406885788  0.0964730103653480
  0.7664163935020233  0.3152083267763699  0.5849798596690750
  0.1522613545707688  0.9193306757917786  0.3306017261719770
  0.7798948522639492  0.7124315003379476  0.9825063064935072
  0.8284436252026179  0.1861215288180727  0.8121101406794183
  0.6219178233200460  0.7645169549981675  0.8432615493389419
  0.6028665071993300  0.9317227633695780  0.1382474565959761
  0.8905469259794676  0.9608016885983021  0.7821166021274552
  0.6044533150530349  0.6736956623616631  0.3071407255108842
  0.7298918509615738  0.2843367495631246  0.0591509868774565
  0.2398605461430124  0.2900496505967241  0.6741443381743165
  0.2411885658656546  0.1105000989076141  0.3727652221080886
  0.7088977278900941  0.9257354463521532  0.2061470195404897
  0.2570958860687305  0.8268507035177360  0.2461776442790955
  0.3185660630911498  0.0432745085301497  0.2396789945364928
  0.0322167810710404  0.8791375522442382  0.3379335538147060
  0.1906030255584188  0.1253290604792044  0.5053258383966301
  0.6939928464359045  0.8261971782823817  0.2980751695995153
  0.3342637224335080  0.0321679691735394  0.4091828818943525
  0.5000245040241499  0.6599970628478571  0.0606914274826233
  0.4846725354556750  0.6653374958938344  0.9195943381057204
  0.5624762407772735  0.7297217351033788  0.6191082581755890
  0.5828201766907348  0.4271272056730112  0.1713226264782649
  0.8347318880571353  0.5106504834357800  0.6014975809264290
  0.4848264860508406  0.5226425711990816  0.6965851603792760
  0.1845101756796749  0.1636446446435816  0.6290284600059949
  0.4414686738862509  0.2042120001367146  0.4831041916306951
  0.9410645995354942  0.9735645641107938  0.9070654002694535
  0.8217120603760101  0.6699970723900170  0.1965872722044066
  0.8426823307189751  0.9164923152797683  0.6696202058791371
  0.7209343613358624  0.5488525423739908  0.4796550135305024
  0.7726865428740111  0.3120384289675012  0.2947088180564040
  0.3285653898469055  0.0641261837627351  0.0638895381543407
  0.1597221891762676  0.5724447678766958  0.9042078738866128
  0.8066163586821925  0.7631648524594552  0.4523149052080571
  0.6850942936129660  0.7290887900914973  0.3894990476908469
  0.7743911732435889  0.6257752794732577  0.7930711989973137
  0.9107569707715029  0.0114259522181156  0.6284434945646585
  0.2662757194785302  0.3598373586286241  0.0764992902870204
  0.3968835309030159  0.1068468371644512  0.1621650229880008
  0.1202448550627675  0.5906551003821220  0.6414895387204286
  0.7512407121663216  0.8477849670770694  0.8629575796172492
  0.3983363497873676  0.4571331249844707  0.5503780308359963
  0.1963357008836839  0.3931989669151295  0.2228236273182891
  0.7623982377900065  0.2026718302265088  0.9707000246137213
  0.0346546354769810  0.1389307986344784  0.0942506288521772
  0.7542895915863642  0.1285654201777231  0.3805844149637923
  0.9921839510775639  0.4141730986155650  0.3188016897439288
  0.1408616709239939  0.4886718953731268  0.4707841639784410
  0.5994873750239587  0.3169155665573004  0.9133073311421341
  0.8732882462995966  0.7443098240623379  0.6320616378308186
  0.0538852516925950  0.8154871672659000  0.7157945003400209
  0.5446275437635023  0.9311552243694914  0.9336057476610694
  0.2961970344330639  0.9350425507836999  0.3376706563936768
  0.1111184623934173  0.2125269899218640  0.8076970201781027
  0.8443656969062078  0.5862445202851129  0.0311022937267436
  0.3690908653319173  0.7405143742020854  0.5661217705405447
  0.9658461261815608  0.7318789338742508  0.0714713519652032
  0.0483934801948819  0.8418848285467980  0.4621394134224927
  0.6628880929396624  0.5586176725172464  0.7179730520233536
  0.2956656129481302  0.4277288456856797  0.9787348162817691
  0.6109440413157042  0.2901503698204584  0.0325162279634028
  0.2572725105262133  0.2090305521104796  0.7750315988550277
  0.3278396976191325  0.8983843372010640  0.6296522974299772
  0.4087188891107350  0.6559166800042115  0.7369663248042977
  0.5472500554550912  0.0983622343939401  0.0253923575922571
  0.7815244215192356  0.0804163898857072  0.7517780177833964
  0.4754357197291929  0.9206699017416854  0.0427214595382119
  0.8380621144952877  0.4645923425779045  0.7947346894121149
  0.6751306854531357  0.6389744398284933  0.1411676644731137
  0.1620723979664069  0.3953249562946730  0.8385920347061732
  0.2872603501588115  0.8010591780156238  0.0403252853114124
  0.2570428561272194  0.5970024195844835  0.0646414233714158
  0.3369048479904020  0.9436428017093860  0.9298584132868600
  0.8499060585535275  0.2767357533818305  0.3847474223557421
  0.2355716646548462  0.2226704362834012  0.2195684248000898
  0.6122205010359726  0.4923244140084899  0.8341707682678826
  0.2655605106912798  0.0267976227028241  0.5523932347850755
  0.7679958102908130  0.0500704202962672  0.4830848327292643
  0.0693621146382548  0.2079437563066622  0.6621357943447651
  0.7449213107595059  0.9925506180610367  0.6494973556032186
  0.2153295779746712  0.8442704687042233  0.6068439607097149
  0.2446991406027061  0.8539525670924204  0.4348741580419593
  0.0087601004156931  0.6029827427632465  0.2380534305609936
  0.8030256658825924  0.8751092306575161  0.5273467471573283
  0.1826711731519249  0.0127544125031233  0.0151429844592049
  0.5242875437600258  0.3405038954002141  0.6358269080099348
  0.7790353772818926  0.7002405749539248  0.5597002981302788
  0.9909043584590116  0.9328187551211449  0.0911403411413253
  0.3770406749585460  0.1762908784300521  0.7574679716042901
  0.2771877245436956  0.3153040110772853  0.4959896688608603
  0.6752879365150614  0.4367210326914872  0.5142988343842765
  0.5479056474301895  0.7729444119882527  0.2548543251020713
  0.9644631021119192  0.2362296837000440  0.5060983079399157
  0.9858783940058768  0.1059018556125039  0.5179525477407155
  0.4620609960912981  0.9364201753922756  0.6570654500126111
  0.5806734802782625  0.0270371470559297  0.6611127764286947
  0.8168802634935428  0.4778589366577030  0.3969956588300186
  0.4103930572344696  0.1096167355695370  0.5704834373260731
  0.3252980572596339  0.0360589934817830  0.7398569595998981
  0.6939936984686994  0.8037539867499615  0.1229057364261306
  0.3365767342394259  0.5392249722148409  0.6295051937728906
  0.1593041076213917  0.2225662874252002  0.9229756153130374
  0.9439082348416975  0.2547954731210381  0.6691615410958265
  0.1760951853933347  0.7147760852914944  0.9188065568492323
  0.6341873523756798  0.6155350820444301  0.5439990738826720
  0.6955627427504366  0.3743693920549369  0.6788710981131537
  0.5900707778503552  0.0288929814213989  0.4857267658944214
  0.1966249482326806  0.5811948642184439  0.7398770593889504
  0.8274172453117765  0.1466455501265099  0.6292625714323032
  0.8346384793125353  0.2134442053160932  0.5232761122361677
  0.8503808383427557  0.7049109946234753  0.8440395898988602
  0.6992339804854516  0.3824953912460243  0.1645536707088877
  0.0730426657503658  0.9710468596697952  0.5865669002160194
  0.6416286320343318  0.4358077035425282  0.3291376931011405
  0.0825854135058856  0.5849086258885341  0.4159322029792897
  0.1426699454910071  0.0137402095562426  0.4139574892873732
  0.4161673531937170  0.8946116357901824  0.1623113511549345
  0.9539541552967136  0.4302316740933632  0.9119463759301071
  0.1862535967686741  0.2233351327667956  0.0865800183882732
  0.1303584927626388  0.6931842681890020  0.5612270472789112
  0.1711337427897153  0.0566405098902307  0.2160760396419704
  0.5357638604701840  0.0236734949496626  0.1878448402283074
  0.1040470073941194  0.4519576915002182  0.0752766133064505
  0.5724926585213215  0.1731068963353079  0.5527900200995002
  0.1251856664491503  0.8390481001513188  0.0409966230215558
  0.8702240402684505  0.0930780077732807  0.1801036548905857
  0.7860727011676987  0.2504212548115768  0.6952577947840793
  0.4276429320683384  0.5008636415918859  0.2023879556722810
  0.3891527524406151  0.6904428336719389  0.1994284935369077
  0.6161790539349066  0.9180134039749376  0.4354663531171880
  0.6640267054485666  0.1097153503836324  0.6122326154851283
  0.7990020799286540  0.8718105204875609  0.3443456001119242
  0.5820266163869562  0.4514497590074948  0.6570286257788205
  0.2926261550158721  0.2224962851668335  0.3351195767947983
  0.3816125901071555  0.7756992685901850  0.7329276887257372
  0.9147953938705486  0.3461926099004706  0.0942205460505045
  0.4447107104444580  0.2640329277915924  0.0118621803324474
 
  0.00000000E+00  0.00000000E+00  0.00000000E+00
  0.00000000E+00  0.00000000E+00  0.00000000E+00
  0.00000000E+00  0.00000000E+00  0.00000000E+00
  0.00000000E+00  0.00000000E+00  0.00000000E+00
  0.00000000E+00  0.00000000E+00  0.00000000E+00
  0.00000000E+00  0.00000000E+00  0.00000000E+00
  0.00000000E+00  0.00000000E+00  0.00000000E+00
  0.00000000E+00  0.00000000E+00  0.00000000E+00
  0.00000000E+00  0.00000000E+00  0.00000000E+00
  0.00000000E+00  0.00000000E+00  0.00000000E+00
  0.00000000E+00  0.00000000E+00  0.00000000E+00
  0.00000000E+00  0.00000000E+00  0.00000000E+00
  0.00000000E+00  0.00000000E+00  0.00000000E+00
  0.00000000E+00  0.00000000E+00  0.00000000E+00
  0.00000000E+00  0.00000000E+00  0.00000000E+00
  0.00000000E+00  0.00000000E+00  0.00000000E+00
  0.00000000E+00  0.00000000E+00  0.00000000E+00
  0.00000000E+00  0.00000000E+00  0.00000000E+00
  0.00000000E+00  0.00000000E+00  0.00000000E+00
  0.00000000E+00  0.00000000E+00  0.00000000E+00
  0.00000000E+00  0.00000000E+00  0.00000000E+00
  0.00000000E+00  0.00000000E+00  0.00000000E+00
  0.00000000E+00  0.00000000E+00  0.00000000E+00
  0.00000000E+00  0.00000000E+00  0.00000000E+00
  0.00000000E+00  0.00000000E+00  0.00000000E+00
  0.00000000E+00  0.00000000E+00  0.00000000E+00
  0.00000000E+00  0.00000000E+00  0.00000000E+00
  0.00000000E+00  0.00000000E+00  0.00000000E+00
  0.00000000E+00  0.00000000E+00  0.00000000E+00
  0.00000000E+00  0.00000000E+00  0.00000000E+00
  0.00000000E+00  0.00000000E+00  0.00000000E+00
  0.00000000E+00  0.00000000E+00  0.00000000E+00
  0.00000000E+00  0.00000000E+00  0.00000000E+00
  0.00000000E+00  0.00000000E+00  0.00000000E+00
  0.00000000E+00  0.00000000E+00  0.00000000E+00
  0.00000000E+00  0.00000000E+00  0.00000000E+00
  0.00000000E+00  0.00000000E+00  0.00000000E+00
  0.00000000E+00  0.00000000E+00  0.00000000E+00
  0.00000000E+00  0.00000000E+00  0.00000000E+00
  0.00000000E+00  0.00000000E+00  0.00000000E+00
  0.00000000E+00  0.00000000E+00  0.00000000E+00
  0.00000000E+00  0.00000000E+00  0.00000000E+00
  0.00000000E+00  0.00000000E+00  0.00000000E+00
  0.00000000E+00  0.00000000E+00  0.00000000E+00
  0.00000000E+00  0.00000000E+00  0.00000000E+00
  0.00000000E+00  0.00000000E+00  0.00000000E+00
  0.00000000E+00  0.00000000E+00  0.00000000E+00
  0.00000000E+00  0.00000000E+00  0.00000000E+00
  0.00000000E+00  0.00000000E+00  0.00000000E+00
  0.00000000E+00  0.00000000E+00  0.00000000E+00
  0.00000000E+00  0.00000000E+00  0.00000000E+00
  0.00000000E+00  0.00000000E+00  0.00000000E+00
  0.00000000E+00  0.00000000E+00  0.00000000E+00
  0.00000000E+00  0.00000000E+00  0.00000000E+00
  0.00000000E+00  0.00000000E+00  0.00000000E+00
  0.00000000E+00  0.00000000E+00  0.00000000E+00
  0.00000000E+00  0.00000000E+00  0.00000000E+00
  0.00000000E+00  0.00000000E+00  0.00000000E+00
  0.00000000E+00  0.00000000E+00  0.00000000E+00
  0.00000000E+00  0.00000000E+00  0.00000000E+00
  0.00000000E+00  0.00000000E+00  0.00000000E+00
  0.00000000E+00  0.00000000E+00  0.00000000E+00
  0.00000000E+00  0.00000000E+00  0.00000000E+00
  0.00000000E+00  0.00000000E+00  0.00000000E+00
  0.00000000E+00  0.00000000E+00  0.00000000E+00
  0.00000000E+00  0.00000000E+00  0.00000000E+00
  0.00000000E+00  0.00000000E+00  0.00000000E+00
  0.00000000E+00  0.00000000E+00  0.00000000E+00
  0.00000000E+00  0.00000000E+00  0.00000000E+00
  0.00000000E+00  0.00000000E+00  0.00000000E+00
  0.00000000E+00  0.00000000E+00  0.00000000E+00
  0.00000000E+00  0.00000000E+00  0.00000000E+00
  0.00000000E+00  0.00000000E+00  0.00000000E+00
  0.00000000E+00  0.00000000E+00  0.00000000E+00
  0.00000000E+00  0.00000000E+00  0.00000000E+00
  0.00000000E+00  0.00000000E+00  0.00000000E+00
  0.00000000E+00  0.00000000E+00  0.00000000E+00
  0.00000000E+00  0.00000000E+00  0.00000000E+00
  0.00000000E+00  0.00000000E+00  0.00000000E+00
  0.00000000E+00  0.00000000E+00  0.00000000E+00
  0.00000000E+00  0.00000000E+00  0.00000000E+00
  0.00000000E+00  0.00000000E+00  0.00000000E+00
  0.00000000E+00  0.00000000E+00  0.00000000E+00
  0.00000000E+00  0.00000000E+00  0.00000000E+00
  0.00000000E+00  0.00000000E+00  0.00000000E+00
  0.00000000E+00  0.00000000E+00  0.00000000E+00
  0.00000000E+00  0.00000000E+00  0.00000000E+00
  0.00000000E+00  0.00000000E+00  0.00000000E+00
  0.00000000E+00  0.00000000E+00  0.00000000E+00
  0.00000000E+00  0.00000000E+00  0.00000000E+00
  0.00000000E+00  0.00000000E+00  0.00000000E+00
  0.00000000E+00  0.00000000E+00  0.00000000E+00
  0.00000000E+00  0.00000000E+00  0.00000000E+00
  0.00000000E+00  0.00000000E+00  0.00000000E+00
  0.00000000E+00  0.00000000E+00  0.00000000E+00
  0.00000000E+00  0.00000000E+00  0.00000000E+00
  0.00000000E+00  0.00000000E+00  0.00000000E+00
  0.00000000E+00  0.00000000E+00  0.00000000E+00
  0.00000000E+00  0.00000000E+00  0.00000000E+00
  0.00000000E+00  0.00000000E+00  0.00000000E+00
  0.00000000E+00  0.00000000E+00  0.00000000E+00
  0.00000000E+00  0.00000000E+00  0.00000000E+00
  0.00000000E+00  0.00000000E+00  0.00000000E+00
  0.00000000E+00  0.00000000E+00  0.00000000E+00
  0.00000000E+00  0.00000000E+00  0.00000000E+00
  0.00000000E+00  0.00000000E+00  0.00000000E+00
  0.00000000E+00  0.00000000E+00  0.00000000E+00
  0.00000000E+00  0.00000000E+00  0.00000000E+00
  0.00000000E+00  0.00000000E+00  0.00000000E+00
  0.00000000E+00  0.00000000E+00  0.00000000E+00
  0.00000000E+00  0.00000000E+00  0.00000000E+00
  0.00000000E+00  0.00000000E+00  0.00000000E+00
  0.00000000E+00  0.00000000E+00  0.00000000E+00
  0.00000000E+00  0.00000000E+00  0.00000000E+00
  0.00000000E+00  0.00000000E+00  0.00000000E+00
  0.00000000E+00  0.00000000E+00  0.00000000E+00
  0.00000000E+00  0.00000000E+00  0.00000000E+00
  0.00000000E+00  0.00000000E+00  0.00000000E+00
  0.00000000E+00  0.00000000E+00  0.00000000E+00
  0.00000000E+00  0.00000000E+00  0.00000000E+00
  0.00000000E+00  0.00000000E+00  0.00000000E+00
  0.00000000E+00  0.00000000E+00  0.00000000E+00
  0.00000000E+00  0.00000000E+00  0.00000000E+00
  0.00000000E+00  0.00000000E+00  0.00000000E+00
  0.00000000E+00  0.00000000E+00  0.00000000E+00
  0.00000000E+00  0.00000000E+00  0.00000000E+00
  0.00000000E+00  0.00000000E+00  0.00000000E+00
  0.00000000E+00  0.00000000E+00  0.00000000E+00
  0.00000000E+00  0.00000000E+00  0.00000000E+00
  0.00000000E+00  0.00000000E+00  0.00000000E+00
  0.00000000E+00  0.00000000E+00  0.00000000E+00
  0.00000000E+00  0.00000000E+00  0.00000000E+00
  0.00000000E+00  0.00000000E+00  0.00000000E+00
  0.00000000E+00  0.00000000E+00  0.00000000E+00
  0.00000000E+00  0.00000000E+00  0.00000000E+00
  0.00000000E+00  0.00000000E+00  0.00000000E+00
  0.00000000E+00  0.00000000E+00  0.00000000E+00
  0.00000000E+00  0.00000000E+00  0.00000000E+00
  0.00000000E+00  0.00000000E+00  0.00000000E+00
  0.00000000E+00  0.00000000E+00  0.00000000E+00
  0.00000000E+00  0.00000000E+00  0.00000000E+00
  0.00000000E+00  0.00000000E+00  0.00000000E+00
  0.00000000E+00  0.00000000E+00  0.00000000E+00
  0.00000000E+00  0.00000000E+00  0.00000000E+00
  0.00000000E+00  0.00000000E+00  0.00000000E+00
  0.00000000E+00  0.00000000E+00  0.00000000E+00
  0.00000000E+00  0.00000000E+00  0.00000000E+00
  0.00000000E+00  0.00000000E+00  0.00000000E+00
  0.00000000E+00  0.00000000E+00  0.00000000E+00
  0.00000000E+00  0.00000000E+00  0.00000000E+00
  0.00000000E+00  0.00000000E+00  0.00000000E+00
  0.00000000E+00  0.00000000E+00  0.00000000E+00
  0.00000000E+00  0.00000000E+00  0.00000000E+00
  0.00000000E+00  0.00000000E+00  0.00000000E+00
  0.00000000E+00  0.00000000E+00  0.00000000E+00
  0.00000000E+00  0.00000000E+00  0.00000000E+00
  0.00000000E+00  0.00000000E+00  0.00000000E+00
  0.00000000E+00  0.00000000E+00  0.00000000E+00
  0.00000000E+00  0.00000000E+00  0.00000000E+00
  0.00000000E+00  0.00000000E+00  0.00000000E+00
  0.00000000E+00  0.00000000E+00  0.00000000E+00
  0.00000000E+00  0.00000000E+00  0.00000000E+00
  0.00000000E+00  0.00000000E+00  0.00000000E+00
  0.00000000E+00  0.00000000E+00  0.00000000E+00
  0.00000000E+00  0.00000000E+00  0.00000000E+00
  0.00000000E+00  0.00000000E+00  0.00000000E+00
  0.00000000E+00  0.00000000E+00  0.00000000E+00
  0.00000000E+00  0.00000000E+00  0.00000000E+00
  0.00000000E+00  0.00000000E+00  0.00000000E+00
  0.00000000E+00  0.00000000E+00  0.00000000E+00
  0.00000000E+00  0.00000000E+00  0.00000000E+00
  0.00000000E+00  0.00000000E+00  0.00000000E+00
  0.00000000E+00  0.00000000E+00  0.00000000E+00
  0.00000000E+00  0.00000000E+00  0.00000000E+00
  0.00000000E+00  0.00000000E+00  0.00000000E+00
  0.00000000E+00  0.00000000E+00  0.00000000E+00
  0.00000000E+00  0.00000000E+00  0.00000000E+00
  0.00000000E+00  0.00000000E+00  0.00000000E+00
  0.00000000E+00  0.00000000E+00  0.00000000E+00
  0.00000000E+00  0.00000000E+00  0.00000000E+00
  0.00000000E+00  0.00000000E+00  0.00000000E+00
  0.00000000E+00  0.00000000E+00  0.00000000E+00
  0.00000000E+00  0.00000000E+00  0.00000000E+00
  0.00000000E+00  0.00000000E+00  0.00000000E+00
  0.00000000E+00  0.00000000E+00  0.00000000E+00
  0.00000000E+00  0.00000000E+00  0.00000000E+00
  0.00000000E+00  0.00000000E+00  0.00000000E+00
  0.00000000E+00  0.00000000E+00  0.00000000E+00
  0.00000000E+00  0.00000000E+00  0.00000000E+00
  0.00000000E+00  0.00000000E+00  0.00000000E+00
  0.00000000E+00  0.00000000E+00  0.00000000E+00
  0.00000000E+00  0.00000000E+00  0.00000000E+00
  0.00000000E+00  0.00000000E+00  0.00000000E+00
  0.00000000E+00  0.00000000E+00  0.00000000E+00
  0.00000000E+00  0.00000000E+00  0.00000000E+00
  0.00000000E+00  0.00000000E+00  0.00000000E+00
  0.00000000E+00  0.00000000E+00  0.00000000E+00
  0.00000000E+00  0.00000000E+00  0.00000000E+00
  0.00000000E+00  0.00000000E+00  0.00000000E+00
  0.00000000E+00  0.00000000E+00  0.00000000E+00
  0.00000000E+00  0.00000000E+00  0.00000000E+00
  0.00000000E+00  0.00000000E+00  0.00000000E+00
  0.00000000E+00  0.00000000E+00  0.00000000E+00
  0.00000000E+00  0.00000000E+00  0.00000000E+00
  0.00000000E+00  0.00000000E+00  0.00000000E+00
  0.00000000E+00  0.00000000E+00  0.00000000E+00
  0.00000000E+00  0.00000000E+00  0.00000000E+00
  0.00000000E+00  0.00000000E+00  0.00000000E+00
  0.00000000E+00  0.00000000E+00  0.00000000E+00
  0.00000000E+00  0.00000000E+00  0.00000000E+00
  0.00000000E+00  0.00000000E+00  0.00000000E+00
  0.00000000E+00  0.00000000E+00  0.00000000E+00
  0.00000000E+00  0.00000000E+00  0.00000000E+00
  0.00000000E+00  0.00000000E+00  0.00000000E+00
  0.00000000E+00  0.00000000E+00  0.00000000E+00
  0.00000000E+00  0.00000000E+00  0.00000000E+00
  0.00000000E+00  0.00000000E+00  0.00000000E+00
  0.00000000E+00  0.00000000E+00  0.00000000E+00
  0.00000000E+00  0.00000000E+00  0.00000000E+00
  0.00000000E+00  0.00000000E+00  0.00000000E+00
  0.00000000E+00  0.00000000E+00  0.00000000E+00
  0.00000000E+00  0.00000000E+00  0.00000000E+00
  0.00000000E+00  0.00000000E+00  0.00000000E+00
  0.00000000E+00  0.00000000E+00  0.00000000E+00
  0.00000000E+00  0.00000000E+00  0.00000000E+00
  0.00000000E+00  0.00000000E+00  0.00000000E+00
  0.00000000E+00  0.00000000E+00  0.00000000E+00
  0.00000000E+00  0.00000000E+00  0.00000000E+00
  0.00000000E+00  0.00000000E+00  0.00000000E+00
  0.00000000E+00  0.00000000E+00  0.00000000E+00
  0.00000000E+00  0.00000000E+00  0.00000000E+00
  0.00000000E+00  0.00000000E+00  0.00000000E+00