In2O3                                   
   1.00000000000000     
     8.0082093180901222    0.0005064223516099    0.0823596928357983
     0.0006481813347602    8.0860416439808223    0.0026813127288682
     0.0819350839930337    0.0027756218271376    8.0163877925120932
   In   O 
    16    24
Direct
  0.0031365969332953  0.9901067347374308  0.0647574211671440
  0.0054424951707901  0.9901754922020629  0.5624683596956643
  0.0350500298332221  0.4903084925114527  0.0918061019308141
  0.7856486703920069  0.7626807710192409  0.3423574068761965
  0.2855256571973328  0.7628573872088396  0.8423300934808466
  0.5033204765407291  0.9902297641428532  0.5646088579033091
  0.5327322048398173  0.4903926496008708  0.0940882555936398
  0.5351524404358230  0.4902534491863193  0.5918205753621919
  0.2549008589115047  0.2629528332319282  0.3120498581743334
  0.2528834604193264  0.2628041936692966  0.8145348784970921
  0.2830151255919802  0.7628008763568843  0.3450007264653792
  0.0328960975269368  0.4900496381913584  0.5944903229471237
  0.7527500344111004  0.2630061312466765  0.3142443643333337
  0.7550233742681058  0.2625233035522143  0.8118822605524869
  0.5052160639296304  0.9901824835085407  0.0626582573360395
  0.7829415710717598  0.7629518669715125  0.8447568354785702
  0.2872720464642597  0.5266963138580465  0.7069599260517805
  0.4989365412639657  0.3769938167759292  0.3481555819336393
  0.0007106748956787  0.2260065569229965  0.1993536444296140
  0.3901394920806851  0.0270875914944142  0.3101348251105520
  0.7491863809337431  0.8764706307829755  0.0988938918359210
  0.1407144868308023  0.2260704946643699  0.5600683673240141
  0.7889473221749910  0.3767957851423702  0.5582568143955982
  0.3976831678472408  0.7262518465782932  0.0972390950892148
  0.5392328483411077  0.8769659887256793  0.8089395807494384
  0.2508234488231196  0.0271679463501258  0.9495699792016978
  0.8979687562127197  0.7260658349778808  0.5971044767111806
  0.8903008849457095  0.0265571803450371  0.8100636900070057
  0.7872253875028790  0.5266657359485762  0.2067000833836801
  0.6404144345544012  0.2260955002083094  0.0597905267880634
  0.9988146113259475  0.3761853207501815  0.8485383304324685
  0.7512628477663981  0.0270383601591035  0.4494434400152443
  0.5376911848716688  0.7267918187510318  0.4574128723890638
  0.6477225902091774  0.5271440708482231  0.8460361160810308
  0.5007047555394735  0.2261537178214894  0.6990770518266132
  0.0375531850806112  0.7266185603493653  0.9572783644011267
  0.0393624710368385  0.8767261752227569  0.3088731950813468
  0.2888035053317282  0.3770105753503685  0.0583166097060257
  0.2495864439790338  0.8766323297787793  0.5989602152808899
  0.1475693146472352  0.5269142478902538  0.3464744629680894
 
  0.00000000E+00  0.00000000E+00  0.00000000E+00
  0.00000000E+00  0.00000000E+00  0.00000000E+00
  0.00000000E+00  0.00000000E+00  0.00000000E+00
  0.00000000E+00  0.00000000E+00  0.00000000E+00
  0.00000000E+00  0.00000000E+00  0.00000000E+00
  0.00000000E+00  0.00000000E+00  0.00000000E+00
  0.00000000E+00  0.00000000E+00  0.00000000E+00
  0.00000000E+00  0.00000000E+00  0.00000000E+00
  0.00000000E+00  0.00000000E+00  0.00000000E+00
  0.00000000E+00  0.00000000E+00  0.00000000E+00
  0.00000000E+00  0.00000000E+00  0.00000000E+00
  0.00000000E+00  0.00000000E+00  0.00000000E+00
  0.00000000E+00  0.00000000E+00  0.00000000E+00
  0.00000000E+00  0.00000000E+00  0.00000000E+00
  0.00000000E+00  0.00000000E+00  0.00000000E+00
  0.00000000E+00  0.00000000E+00  0.00000000E+00
  0.00000000E+00  0.00000000E+00  0.00000000E+00
  0.00000000E+00  0.00000000E+00  0.00000000E+00
  0.00000000E+00  0.00000000E+00  0.00000000E+00
  0.00000000E+00  0.00000000E+00  0.00000000E+00
  0.00000000E+00  0.00000000E+00  0.00000000E+00
  0.00000000E+00  0.00000000E+00  0.00000000E+00
  0.00000000E+00  0.00000000E+00  0.00000000E+00
  0.00000000E+00  0.00000000E+00  0.00000000E+00
  0.00000000E+00  0.00000000E+00  0.00000000E+00
  0.00000000E+00  0.00000000E+00  0.00000000E+00
  0.00000000E+00  0.00000000E+00  0.00000000E+00
  0.00000000E+00  0.00000000E+00  0.00000000E+00
  0.00000000E+00  0.00000000E+00  0.00000000E+00
  0.00000000E+00  0.00000000E+00  0.00000000E+00
  0.00000000E+00  0.00000000E+00  0.00000000E+00
  0.00000000E+00  0.00000000E+00  0.00000000E+00
  0.00000000E+00  0.00000000E+00  0.00000000E+00
  0.00000000E+00  0.00000000E+00  0.00000000E+00
  0.00000000E+00  0.00000000E+00  0.00000000E+00
  0.00000000E+00  0.00000000E+00  0.00000000E+00
  0.00000000E+00  0.00000000E+00  0.00000000E+00
  0.00000000E+00  0.00000000E+00  0.00000000E+00
  0.00000000E+00  0.00000000E+00  0.00000000E+00
  0.00000000E+00  0.00000000E+00  0.00000000E+00
