POSCAR file written by OVITO Basic 3.10.4
1
22.6638 0.0 0.0
0.0 22.6638 0.0
0.0 0.0 22.6638
Sb Te 
120 180 
Direct
0.2620240207 0.7872289731 0.0092330059
0.0880915822 0.6107801869 0.9196163044
0.71953953 0.09281365 0.8834308457
0.4805063582 0.1055802646 0.8165135591
0.8264721715 0.2282781352 0.5515800528
0.1877509509 0.8390737652 0.7215074259
0.3236182811 0.1878581703 0.3989556032
0.5348573496 0.8113026059 0.3694111314
0.8578790847 0.0175420274 0.6966616366
0.2236240172 0.9293675377 0.4734554664
0.5238309551 0.6542548028 0.4930726533
0.822364299 0.892882041 0.8615898481
0.4060475295 0.6486070297 0.0946271146
0.4562827063 0.9413822925 0.0784837494
0.367835491 0.3295303524 0.8491515103
0.988748577 0.9014287101 0.6564565519
0.2132404981 0.3734766456 0.9672076174
0.0270799248 0.3070111808 0.0737065276
0.9200001765 0.9057660234 0.0199194751
0.117305571 0.6593201493 0.4133393341
0.5343543448 0.3361647208 0.4038925511
0.6700729798 0.4827081072 0.1816301768
0.87342811 0.1614967481 0.7145315437
0.8677053274 0.1870268887 0.005620152
0.9586124127 0.177877055 0.3948468483
0.1555123148 0.2168700747 0.6638869033
0.2540681616 0.7147389229 0.1201453419
0.5188053195 0.3004129934 0.2469996205
0.6602423248 0.4019255376 0.3043205464
0.8403754004 0.0987124842 0.4578711425
0.876777063 0.5083039914 0.2390728827
0.5362251697 0.9435399183 0.5332468518
0.0470658054 0.4883073448 0.2809564151
0.7811973279 0.3650535215 0.4007818636
0.8017146286 0.9051615351 0.3508524608
0.9353241734 0.2457178408 0.2158252367
0.5273916995 0.0438439273 0.9329326944
0.0100715679 0.0520517301 0.9462667337
0.5163520681 0.3569864718 0.7592460223
0.9391364202 0.6773312507 0.9901649326
0.2758491515 0.9349800122 0.7374094371
0.2205305377 0.3825907394 0.3102034963
0.4207207088 0.1625826207 0.9914268569
0.6338610471 0.6724688711 0.3541665564
0.0206953379 0.7746891519 0.8441479364
0.7688075257 0.0973901111 0.2758337084
0.1370176228 0.078724221 0.3329198987
0.985302553 0.8405739549 0.2496170104
0.4939462932 0.4775192157 0.5591515986
0.3351710658 0.9698373618 0.3584204767
0.9801533723 0.6789946964 0.2503309242
0.832631774 0.5493915407 0.7391302429
0.1987901411 0.1596850484 0.8985165771
0.7511802963 0.9664001624 0.0372631245
0.6817744597 0.3988497075 0.7230208526
0.7703386016 0.7755142562 0.0290100071
0.3395860359 0.2522652865 0.758407681
0.9462181982 0.9467256153 0.4487464591
0.4182237754 0.5887538718 0.7585797616
0.2400947767 0.2778585233 0.0856643634
0.6831202181 0.2729003962 0.8502898896
0.9805548937 0.3860129369 0.7473239263
0.1664976747 0.2082289819 0.4888456481
0.3958374147 0.7682912839 0.5769376715
0.0917705769 0.9152436926 0.037290172
0.3323268825 0.2870846901 0.5607620964
0.8571466391 0.7600181788 0.6984353904
0.3585625535 0.3824685181 0.4147786338
0.0183034619 0.5162373477 0.6484349491
0.4998543933 0.9764073103 0.3021730689
0.335992199 0.8388002012 0.1787789338
0.8093700086 0.5614195325 0.5986727733
0.9362992967 0.2166759325 0.8143691702
0.5344514159 0.8980885818 0.6551725659
0.4401406648 0.4793194433 0.0311716041
0.6636309886 0.0647181849 0.41957174
0.493055004 0.4532514406 0.154399527
0.583820895 0.8957059275 0.9878440509
0.1840159197 0.7940327747 0.3592080763
0.1423671229 0.532743847 0.7802575032
0.6642222399 0.5083613516 0.4529293411
0.2110890495 0.5310848137 0.0391170942
0.9214341814 0.5190391726 0.0622975847
0.1303108923 0.2187907588 0.2070575102
0.3662699989 0.8092288142 0.7531261307
0.489445724 0.0957169583 0.4698417741
0.8017852258 0.7131328374 0.2714319752
0.2548191389 0.6537120871 0.55301847
0.9109240286 0.7212868098 0.4649087973
0.5128222099 0.7325867683 0.8129484023
0.2578680539 0.0984477449 0.2182506905
0.7347488065 0.2980201908 0.1200045888
0.5372620655 0.3138220422 0.0251910536
0.1353047591 0.6820436114 0.0732374977
0.3237713887 0.3278841148 0.0052091882
0.2653690026 0.7443014852 0.8434507894
0.5880037769 0.7790705883 0.6727512597
0.9659898164 0.7834608495 0.0806299032
0.2590924735 0.488775051 0.6429107211
0.9891545107 0.3529390482 0.3124096577
0.4367656792 0.8174092606 0.977250064
0.7596122451 0.1000101483 0.1259294558
0.7637818901 0.570067685 0.02350259
0.3397523804 0.0523508856 0.5366752266
0.6460964181 0.4262806767 0.0309862865
0.586309445 0.7172671838 0.0626492468
0.1368764285 0.4959406631 0.5233323626
0.2128010307 0.8132969758 0.1951782137
0.4218154061 0.9567504126 0.9320281683
0.3131456331 0.4990204644 0.8764329018
0.1631487218 0.0198456128 0.6186782446
0.5048094318 0.9922960845 0.7608035722
0.3360222028 0.5585471104 0.5121427122
0.7079792444 0.8026544534 0.6496571625
0.6239642072 0.2315119265 0.4422162215
0.3686500057 0.4882808708 0.2388200567
0.4700623902 0.1414568607 0.6938377501
0.1495142033 0.9887574017 0.8549801887
0.6464052807 0.5561070959 0.8045605768
0.9880249561 0.1517508097 0.6628544198
0.7407319161 0.1683001085 0.4164491392
0.0217241151 0.78226511 0.5028856591
0.3046144071 0.6052956697 0.8261059487
0.5665378268 0.1822377536 0.5500445645
0.0464538162 0.0948389061 0.4216075857
0.4403326009 0.7213176961 0.6979632718
0.5208967605 0.5891862794 0.180247796
0.1839731201 0.5776612925 0.1536119274
0.7736390191 0.9982968434 0.4340062126
0.6017525746 0.1465438276 0.9714037364
0.8189270996 0.4889383069 0.4310481914
0.1218215833 0.9702388832 0.7234179617
0.9125742373 0.4899575535 0.5332645011
0.7339281144 0.6362834123 0.7767497066
0.0800726268 0.4886779799 0.8980797571
0.5959856688 0.3639349977 0.1351745956
0.3708799936 0.044872881 0.8377103575
0.0622693458 0.7658424448 0.9789752822
0.1190493209 0.3860641199 0.2273180137
0.7642981318 0.9981909477 0.7739037584
0.9710551629 0.0783204935 0.798630415
0.3893592425 0.5329732878 0.6275514256
0.8219980762 0.8868106849 0.100921293
0.7862362005 0.432682957 0.1430307362
0.78294902 0.4755160211 0.8247513656
0.8920260504 0.658905391 0.6086049118
0.7425321438 0.1507584783 0.9968849001
0.870515977 0.3238578703 0.809061146
0.0040064773 0.9513585542 0.126421871
0.6150027798 0.3885094291 0.4873454584
0.100341955 0.2815781113 0.569096974
0.9145200717 0.9536132511 0.322415482
0.1115267519 0.0426876781 0.0414539486
0.714685975 0.2982814003 0.5581147027
0.6278647005 0.0681990664 0.5436113979
0.0506424342 0.8688437067 0.4154753395
0.548301697 0.7493933056 0.9450842312
0.0435733196 0.9369699697 0.912980171
0.6225302023 0.7793882756 0.7941827937
0.7258535638 0.8742090911 0.9545751374
0.8921804816 0.3093845692 0.3986498292
0.8131866677 0.643484323 0.4941536724
0.294305015 0.7647570134 0.3035872184
0.2068629268 0.5849769236 0.4527969714
0.8050238707 0.2159037761 0.194709625
0.3742077675 0.1937755363 0.1065505343
0.2045994052 0.6306224022 0.9620099013
0.6089976085 0.393645814 0.8274870057
0.4033639549 0.6243392547 0.2204925917
0.6785358148 0.5207070306 0.9325532347
0.2739072883 0.1296000671 0.8113908524
0.523747121 0.4298815733 0.2867069953
0.5395608856 0.4207568898 0.9604302897
0.2583798833 0.4096228347 0.816950379
0.8677715123 0.8745311907 0.6442653041
0.4222703165 0.0321360054 0.6551769783
0.2442105913 0.1767572075 0.5801763164
0.1109191751 0.4424853732 0.6969969731
0.9861629559 0.5530008207 0.1806374041
0.1320343455 0.7235988669 0.7921531252
0.6260468236 0.5064684651 0.6712334207
0.0032597402 0.2037751833 0.5541215507
0.2673452819 0.8773639019 0.8645769906
0.513303153 0.8049003256 0.520684969
0.5579426222 0.1497030507 0.3803364837
0.6779004403 0.6532840918 0.5014472419
0.1120160785 0.4481287339 0.4098081522
0.4413911171 0.3432112002 0.1181227332
0.0293210318 0.5880831988 0.0388032016
0.6465552996 0.070890142 0.2631782843
0.4750792012 0.5855990611 0.9950405492
0.4893618899 0.2902094971 0.8629488435
0.3806365217 0.1434446121 0.2355046374
0.6411943275 0.5516682992 0.0802045553
0.6083445848 0.8391708363 0.0972952462
0.6692743494 0.7934812344 0.3648686452
0.859851393 0.2714549193 0.660710031
0.8556729233 0.0026898843 0.9743158694
0.8785419921 0.0972925988 0.0861303047
0.9328223864 0.9224578403 0.7682118621
0.0966920816 0.6134452298 0.2803060387
0.2620729975 0.8095420891 0.4668149207
0.8568157149 0.6280676674 0.1036904667
0.3071510515 0.970988978 0.2012751613
0.5215674335 0.1779083825 0.0832494992
0.0781298811 0.6242289466 0.7304335548
0.5179316796 0.5895833885 0.6070120633
0.5781245863 0.0732573531 0.6989251582
0.3947449236 0.6694376053 0.4680283095
0.4254895472 0.2983762652 0.6677873966
0.6620557894 0.284343314 0.9761469833
0.2547088308 0.4439899752 0.5289051262
0.6634897943 0.789060087 0.531512809
0.1977594225 0.9139729436 0.3487124842
0.8747341576 0.7886188547 0.9505246252
0.277647173 0.9549237109 0.6079563004
0.0034145951 0.1740092129 0.1305751904
0.9405439511 0.4126465994 0.6317519569
0.3242002665 0.8877681589 0.0548817939
0.0777596873 0.103844898 0.8500119133
0.675681042 0.9240198025 0.6671123113
0.0821556844 0.9650985272 0.3120818221
0.5745329556 0.6974690917 0.2189125389
0.2409966555 0.3028927188 0.7058480926
0.6287251035 0.2618298785 0.2978639946
0.0493937469 0.2312542469 0.3104267599
0.0336768327 0.3544286483 0.4347929297
0.0412806326 0.2421403295 0.7417908736
0.6749750704 0.9866527237 0.1795360884
0.2603402783 0.0817435735 0.4306974117
0.7016828599 0.6483599396 0.6319284498
0.7869907076 0.2008524608 0.8391487747
0.461692214 0.7714946302 0.0912680133
0.6914242095 0.8206390808 0.2427545248
0.8738075698 0.7739787679 0.1913500825
0.8727265507 0.5559791385 0.9481375586
0.9645602238 0.6650605812 0.8517415438
0.1876935907 0.587977303 0.6336845542
0.9633380104 0.5189200399 0.7685913218
0.3843539036 0.5008957015 0.3724472507
0.2118312022 0.0543496678 0.9720258739
0.3821349465 0.042815459 0.0253716499
0.7100089129 0.6680168374 0.9729656986
0.4723259118 0.8634121374 0.8354247743
0.2695196745 0.7381065841 0.7046347038
0.3958934512 0.9556208579 0.4770691587
0.2335235044 0.2171639354 0.2691658063
0.6555873243 0.1902253814 0.1432120827
0.1647592195 0.9271834379 0.1572026756
0.3208270458 0.526248908 0.0973186315
0.7884203002 0.9856290649 0.2284537456
0.2642544498 0.4986101183 0.3089724583
0.9031186297 0.1186914816 0.300877611
0.3132696194 0.2335182097 0.9179307971
0.8056901314 0.1116264704 0.5916130569
0.4072370917 0.877761011 0.6443976738
0.0313068859 0.5980903467 0.4738172769
0.1090329071 0.9349050027 0.536913492
0.8708292519 0.8508679039 0.4543015734
0.1586971293 0.2654550428 0.9906458758
0.6195121736 0.1542499493 0.843733178
0.5027532894 0.6851013511 0.3461789285
0.9770250355 0.7687016299 0.7071762017
0.5720620549 0.8266751383 0.2467494418
0.405556438 0.8660021709 0.329024259
0.4497039331 0.3516321182 0.5048314934
0.8363645991 0.3025344382 0.0438611354
0.1212215074 0.8184020332 0.6225478516
0.522749936 0.6015760817 0.8181417062
0.681094962 0.5286977471 0.3045654303
0.8817056275 0.6173104246 0.3116172045
0.7437058216 0.6617160406 0.1736937319
0.399135626 0.18998138 0.4922607859
0.6588656801 0.9256655989 0.5365472692
0.9877160935 0.2545892569 0.9697755893
0.3139266142 0.3515182803 0.2261800757
0.0584368023 0.7673293975 0.1840018002
0.7723903317 0.3929972026 0.6093417697
0.7900616843 0.3914868645 0.2815882597
0.2657069865 0.1353696203 0.09138141
0.9525851799 0.3779741261 0.8963368897
0.3615051315 0.7142403304 0.9652397215
0.0260534862 0.4240092129 0.9988836823
0.410571484 0.2912296261 0.3342259462
0.7818238777 0.7919280968 0.7952196895
0.6103874902 0.9782560736 0.8611221419
0.5744491215 0.0031855646 0.0588167033
0.2493990416 0.2869302588 0.4400850696
0.1725129943 0.3886581244 0.0972965699
0.4277504214 0.0730226176 0.352855214
0.4164570813 0.4653897405 0.7962301115
0.5451777725 0.5346764444 0.4307905117
0.9486802743 0.0069082413 0.6034513188
0.9397320838 0.3554911356 0.1614936595
0.6083136985 0.3037712122 0.6888694747
0.9427765865 0.466435461 0.3420185494
0.115713605 0.093714205 0.2058083816
0.9962848243 0.7555617328 0.3471593466
0.4282282759 0.0264010007 0.1845017164
0.5745153063 0.9428074727 0.3982474254
