W2 Se4                                  
   1.00000000000000     
    13.2797317504999999    0.0000000000000000    0.0000000000000000
    -6.6398658751999999   11.5005850513999999    0.0000000000000000
     0.0000000000000000    0.0000000000000000   13.7371873856000004
   W    Se
    16    32
Direct
  0.0833333555467994  0.1666667262469848  0.2500023149560893
  0.0833333790893690  0.4166666573052847  0.2500023177476482
  0.0833333421257666  0.6666667078281072  0.2500023173285154
  0.0833333648637595  0.9166666369090639  0.2500023259809822
  0.3333333481095386  0.1666666832070647  0.2500023075894108
  0.3333332799561988  0.4166666428453455  0.2500023170518391
  0.3333333522932588  0.6666667183355260  0.2500023228858792
  0.3333333048381875  0.9166665989584015  0.2500022198273625
  0.5833333534308035  0.1666667238520076  0.2500023007583304
  0.5833333513816441  0.4166667006763293  0.2500022698864376
  0.5833333868197130  0.6666666824572151  0.2500022980044908
  0.5833332877942266  0.9166665871859319  0.2500022620232008
  0.8333333652004076  0.1666666866613054  0.2500023251919550
  0.8333333374135128  0.4166666641229362  0.2500023150878207
  0.8333333131791878  0.6666666517228622  0.2500023285968677
  0.8333333048082954  0.9166666615458176  0.2500023186886596
  0.1666665975882933  0.0833333273051231  0.3719473818229285
  0.1666666504239922  0.3333333298040096  0.3719472620048250
  0.1666666045637822  0.5833332729360308  0.3719473628239857
  0.1666667438397266  0.8333333809407827  0.3719472809537956
  0.4166666083045402  0.0833332095593817  0.3719474091559840
  0.4166667542768728  0.3333334349506565  0.3719473486267824
  0.4166666918998549  0.5833332976148122  0.3719473801438603
  0.4166666913948972  0.8333334344851016  0.3719472911195016
  0.6666666486344561  0.0833332597529837  0.3719474209820900
  0.6666666905550005  0.3333334340892070  0.3719473340433899
  0.6666666229224683  0.5833332722668865  0.3719473007964443
  0.6666666671346098  0.8333333611238358  0.3719472931874910
  0.9166667172420414  0.0833333302427129  0.3719473492882540
  0.9166667130501404  0.3333334005436562  0.3719473392318379
  0.9166666620105945  0.5833333042161062  0.3719473425183906
  0.9166666744944345  0.8333333616703268  0.3719473466292135
  0.1666665830594131  0.0833333200805293  0.1280503043023386
  0.1666666388134550  0.3333333177430519  0.1280504261907694
  0.1666665936939258  0.5833332578132856  0.1280503357251425
  0.1666667401122336  0.8333333816091436  0.1280504153043469
  0.4166666102290602  0.0833332074560929  0.1280502867559036
  0.4166667467030057  0.3333334309911304  0.1280503487813756
  0.4166666775510791  0.5833332835979483  0.1280503226646849
  0.4166666968168627  0.8333334462622528  0.1280504131947419
  0.6666666489295657  0.0833332604248920  0.1280502745781732
  0.6666666938902970  0.3333334306426323  0.1280503646011211
  0.6666666197797025  0.5833332566931245  0.1280504019455899
  0.6666666732048381  0.8333333698857327  0.1280504041912115
  0.9166667235154758  0.0833333275426380  0.1280503414640824
  0.9166667154036684  0.3333333999372551  0.1280503506624999
  0.9166666570596201  0.5833332885886866  0.1280503580209279
  0.9166666812420439  0.8333333715935795  0.1280503452851613
 
  0.00000000E+00  0.00000000E+00  0.00000000E+00
  0.00000000E+00  0.00000000E+00  0.00000000E+00
  0.00000000E+00  0.00000000E+00  0.00000000E+00
  0.00000000E+00  0.00000000E+00  0.00000000E+00
  0.00000000E+00  0.00000000E+00  0.00000000E+00
  0.00000000E+00  0.00000000E+00  0.00000000E+00
  0.00000000E+00  0.00000000E+00  0.00000000E+00
  0.00000000E+00  0.00000000E+00  0.00000000E+00
  0.00000000E+00  0.00000000E+00  0.00000000E+00
  0.00000000E+00  0.00000000E+00  0.00000000E+00
  0.00000000E+00  0.00000000E+00  0.00000000E+00
  0.00000000E+00  0.00000000E+00  0.00000000E+00
  0.00000000E+00  0.00000000E+00  0.00000000E+00
  0.00000000E+00  0.00000000E+00  0.00000000E+00
  0.00000000E+00  0.00000000E+00  0.00000000E+00
  0.00000000E+00  0.00000000E+00  0.00000000E+00
  0.00000000E+00  0.00000000E+00  0.00000000E+00
  0.00000000E+00  0.00000000E+00  0.00000000E+00
  0.00000000E+00  0.00000000E+00  0.00000000E+00
  0.00000000E+00  0.00000000E+00  0.00000000E+00
  0.00000000E+00  0.00000000E+00  0.00000000E+00
  0.00000000E+00  0.00000000E+00  0.00000000E+00
  0.00000000E+00  0.00000000E+00  0.00000000E+00
  0.00000000E+00  0.00000000E+00  0.00000000E+00
  0.00000000E+00  0.00000000E+00  0.00000000E+00
  0.00000000E+00  0.00000000E+00  0.00000000E+00
  0.00000000E+00  0.00000000E+00  0.00000000E+00
  0.00000000E+00  0.00000000E+00  0.00000000E+00
  0.00000000E+00  0.00000000E+00  0.00000000E+00
  0.00000000E+00  0.00000000E+00  0.00000000E+00
  0.00000000E+00  0.00000000E+00  0.00000000E+00
  0.00000000E+00  0.00000000E+00  0.00000000E+00
  0.00000000E+00  0.00000000E+00  0.00000000E+00
  0.00000000E+00  0.00000000E+00  0.00000000E+00
  0.00000000E+00  0.00000000E+00  0.00000000E+00
  0.00000000E+00  0.00000000E+00  0.00000000E+00
  0.00000000E+00  0.00000000E+00  0.00000000E+00
  0.00000000E+00  0.00000000E+00  0.00000000E+00
  0.00000000E+00  0.00000000E+00  0.00000000E+00
  0.00000000E+00  0.00000000E+00  0.00000000E+00
  0.00000000E+00  0.00000000E+00  0.00000000E+00
  0.00000000E+00  0.00000000E+00  0.00000000E+00
  0.00000000E+00  0.00000000E+00  0.00000000E+00
  0.00000000E+00  0.00000000E+00  0.00000000E+00
  0.00000000E+00  0.00000000E+00  0.00000000E+00
  0.00000000E+00  0.00000000E+00  0.00000000E+00
  0.00000000E+00  0.00000000E+00  0.00000000E+00
  0.00000000E+00  0.00000000E+00  0.00000000E+00
