Amorphous GeAsSeSi                      
   1.00000000000000     
    19.6538541945511795    0.0000000000000000    0.0000000000000000
     0.0000000000000000   19.6538541945511795    0.0000000000000000
     0.0000000000000000    0.0000000000000000   19.6538541945511795
   Ge   Se   Si
   100   100   100
Direct
  0.4298186995701343  0.5354149343135362  0.2168410955665365
  0.9141431540797242  0.5670219271780397  0.0075369877826432
  0.6947613567648645  0.2154475009305798  0.2786380827106854
  0.3734682918351737  0.1352604754142348  0.4381242234917835
  0.8033736838548577  0.2957646852004103  0.5398409986031041
  0.7004257341243729  0.1416343538534122  0.8038995860014992
  0.9129381888781225  0.6457601060329807  0.4718519408314563
  0.5934204415487230  0.5069085463515108  0.1175590760304388
  0.5203733336395686  0.5758119850327503  0.3596959898696994
  0.3075895675869305  0.3848586306575612  0.5882026432775120
  0.8253657609660650  0.4927517130140515  0.9395283930606340
  0.0068505791506652  0.6959213024486317  0.8610200804599728
  0.2214761991145906  0.3196020036377405  0.9834522142777260
  0.0661318258064796  0.7289968735028154  0.6183284386533430
  0.5597684202302560  0.4747625804452227  0.2753804288442296
  0.7586994851637670  0.2554157066835501  0.3898900789268609
  0.8138979765504928  0.5666000498166284  0.4313286012786079
  0.9184059476373534  0.7452806346321026  0.7794376333064861
  0.0673475874003557  0.2968422170025775  0.7925729246161239
  0.4946325540742507  0.2367431499405726  0.8082727390055595
  0.8507246732032669  0.0497316960033274  0.9174124132644792
  0.5240587666460712  0.4657963633983826  0.5099898744146500
  0.1564304363846531  0.8281736234248100  0.2714526141401521
  0.1741325812727865  0.3380986108408024  0.7220769267907983
  0.2697966763596469  0.2589469727063189  0.3257569010391705
  0.0125787717676431  0.7123497746100327  0.3054423457698618
  0.2689898791588945  0.7182783495425298  0.0599488897725067
  0.8518993750381156  0.1733877550743586  0.7524887021774589
  0.5476443292102431  0.6212784349265661  0.9584235794051068
  0.6594142637798299  0.4165493041784956  0.7322681455776063
  0.8689930592843709  0.8454942798672036  0.8500875965623749
  0.8057171734787048  0.7566286352136089  0.9285617499286474
  0.2824642526292465  0.2844781951993767  0.7705607786518200
  0.9449564985440801  0.0080273424260398  0.3767634380338265
  0.2128281930324576  0.4584346570395326  0.7487950813388480
  0.0319972401387432  0.6572902861264467  0.4192391639510475
  0.3937768243918285  0.2471982817341569  0.7174567208539244
  0.4988454295864102  0.3672243015342218  0.2243790109447801
  0.5174089309331436  0.8343635169618864  0.3921171466781033
  0.1069885264659902  0.2162959965317270  0.4631610876145018
  0.7589144343135885  0.8524490458090241  0.0033627742982389
  0.8936331070250318  0.2553118386808748  0.3941040796539497
  0.5598307949806909  0.8255294849589276  0.8123636254198630
  0.2063158958134323  0.9248668569312031  0.8357652534594493
  0.4783114227223777  0.2400943455665185  0.2682669336584169
  0.1200533399162396  0.5474626913349212  0.7495374216759743
  0.3368637079290195  0.0132642445871767  0.2449772014390348
  0.2615441968886785  0.2059673717797708  0.8734162877808771
  0.1785669876269012  0.7028941526249355  0.3054574152224774
  0.1854320106709508  0.1983825179092236  0.0739137120388449
  0.9422895350315841  0.9296831690643330  0.9232000251143475
  0.8237093479642397  0.9691751388149470  0.8143519325321904
  0.9278459963394070  0.5793613561415896  0.6707597855227689
  0.1305262200537669  0.5102526793815159  0.3051284544928095
  0.8195840427785086  0.2992811389108354  0.0538477636929500
  0.0959521556591909  0.6899955355670215  0.0289544341227526
  0.8945497544071657  0.5984425951126511  0.1302419622229749
  0.3662665764514159  0.3568908468954675  0.4777524452679671
  0.7422084625632408  0.6601742581779888  0.4815866903692694
  0.5991834762101220  0.3238134001538100  0.3481563275445581
  0.9442878566968176  0.5180258973467033  0.3190070926189179
  0.5789622315823379  0.2796140384685017  0.5092732901661492
  0.6736039587653693  0.5481185467762941  0.7639891220226858
  0.4614487410853272  0.9950231180255500  0.0020857083907799
  0.6127017674773327  0.9092360671599096  0.3529085767237135
  0.6367297383603443  0.7124120714128708  0.2057875130795210
  0.6917892984100362  0.2691100592417826  0.9736780418525015
  0.9421712865431644  0.0886104647561083  0.8001128863926965
  0.6285373136073105  0.0336028548835259  0.3299077833883786
  0.6953242148041454  0.4868509758509845  0.8996909258853023
  0.5071714909622003  0.7166133921696698  0.1062487907448926
  0.4455920709394050  0.6106987327051101  0.6540717524610287
  0.6151945178549312  0.1079631142314312  0.4362606558982449
  0.3529789094521831  0.3812978693895346  0.8268727777515181
  0.3965898297863930  0.7380124233518188  0.9344848418519547
  0.5775723677274911  0.1514727304136088  0.5607678948529156
  0.0862719710043720  0.5911083492399172  0.8627141209009821
  0.6841457429444873  0.7705394979798328  0.6593005988385201
  0.9927376007932907  0.7344116343958405  0.1757186110359044
  0.5182808162376560  0.4160009504171711  0.3845557075377428
  0.8119236580153455  0.7006636468973397  0.1149162921195312
  0.8646095905241822  0.1490755528663996  0.3246905581131543
  0.6882358745793482  0.3575759827204195  0.8792575512791103
  0.0722237140637674  0.1119518817774221  0.5337307464112016
  0.4560778262292473  0.1129102582695509  0.5358659516815933
  0.3779491674243189  0.9064285008534227  0.5356020408459656
  0.0272982415902874  0.6113053980123340  0.1363817437453534
  0.9595715326644267  0.0925631568710727  0.5972477946487871
  0.1880779199182996  0.1741606569169605  0.3732796723882856
  0.3660928099465650  0.7163797219837065  0.3885944156154935
  0.4589587960807719  0.7580020627107942  0.3067475124501655
  0.6849922638842116  0.5794970327168087  0.6368472304068575
  0.6228369919423145  0.3553436955322979  0.6214066532969511
  0.1917276439594886  0.1159318761292880  0.5985877420677213
  0.5063122579188857  0.8696383883594478  0.6888690076690196
  0.8754828518533913  0.7156570277168228  0.5741198044863367
  0.1698413145898883  0.6651589333128953  0.1369759534717474
  0.0093910242886750  0.0696556043237564  0.1710278995803094
  0.4716223882597603  0.6596147268153558  0.4507874331286033
  0.7176145601171058  0.0469648315646793  0.9578936169972394
  0.7657592822075330  0.3457404087890765  0.7744309708124888
  0.9381957494595170  0.3465856284614048  0.1047734371984106
  0.0666375045938850  0.0247754943681429  0.4368979614846680
  0.4821859717338413  0.9516526720065883  0.8788534272808377
  0.7527906236426389  0.4251411358122965  0.3667481701718387
  0.7304405671377694  0.4242707990717633  0.0857866791578985
  0.3766233821938343  0.8873065863402658  0.7073527997413009
  0.6499061860029300  0.9565164633693612  0.7657525277633397
  0.1397607224141240  0.6693920531679112  0.7091648425527097
  0.3580650499318168  0.4722774870760702  0.0373569765909636
  0.4692870008246217  0.9942328238131140  0.5642201293588585
  0.1699238616293570  0.0641200349232491  0.2605714838559550
  0.2973205881300700  0.1474836796218995  0.0267731725509819
  0.3553884386767905  0.8575366138375529  0.9552661104436524
  0.8649303981905874  0.3646752752953688  0.9377484643923495
  0.7058849918335568  0.7111026053277030  0.3145711976066750
  0.8047988646284807  0.1777695076272749  0.8734709905993654
  0.2800510264855447  0.7501074450901228  0.7944483932177135
  0.5012008284757812  0.8894950656259084  0.0686875073745199
  0.6998907520505284  0.8163254872167087  0.1080242551079351
  0.8798131097795192  0.1819164884384747  0.0384393886354246
  0.0969546658601743  0.3726876126386287  0.3370729716927272
  0.0167778764314690  0.8290116207660745  0.4841809616860075
  0.6650920313171085  0.9301305359119780  0.9569253581224046
  0.2157376769685584  0.9882966910010751  0.7165753322873556
  0.3681735784756412  0.1569981519438812  0.6251198515613439
  0.7760392867045454  0.8654319462370026  0.6515392213920421
  0.9068414028441651  0.2167928125780421  0.5822278802012448
  0.0252478622773680  0.9591696763478552  0.6162454934930395
  0.8662105827754445  0.7743772598111462  0.3946199583522159
  0.1832390984378236  0.5351891590029183  0.1285587448604844
  0.2558660949821103  0.7648017880638562  0.6113980760298645
  0.7646168106553901  0.2841522731310420  0.2004912244735380
  0.4968352648319296  0.5033260372855537  0.7050750513442878
  0.8113370979452625  0.4173816712902223  0.5761555174531878
  0.6322043177510679  0.6023286824683964  0.4533777236065717
  0.0440314365237100  0.2742966957552397  0.9827645218561116
  0.9175582691812920  0.0299024544345912  0.1013126523985903
  0.6843029126302937  0.5993424201295454  0.1472585374424966
  0.7212054544803337  0.0786379065922560  0.0802260445405523
  0.4380807283383348  0.1387858316635402  0.8849012230986446
  0.3330617877680382  0.6286921485959027  0.1909300004152499
  0.5219226455586607  0.6613743501389706  0.2601741958241561
  0.7551570643061112  0.6382062095017105  0.9274718308373480
  0.4371671404260482  0.5599850010540948  0.5287601642107802
  0.5442535517075910  0.2161478051374317  0.3978752723020236
  0.3640338517132449  0.9866192782316290  0.1236628745279944
  0.1041015906659624  0.8584455370869861  0.7439003607824333
  0.9952456472342064  0.3354452632010450  0.6936565095428051
  0.1798228794344325  0.5829497129521570  0.5440334863698482
  0.1390397618664210  0.4020714454444558  0.5268280856477432
  0.5883315663448840  0.2185940600055005  0.1121438685732272
  0.9815407519976915  0.5634052655370141  0.5514847965370535
  0.9636397116240261  0.3696918937416669  0.4633315771844906
  0.9785852427724038  0.1021783379256149  0.2955072860916701
  0.1622256145427698  0.9108480257728857  0.3646536982478210
  0.5809516637577516  0.6555227512207580  0.6440463041020905
  0.3148857936004461  0.3835287074371081  0.2906769784873546
  0.8483825956658748  0.4959204013726506  0.1892353863056755
  0.4474625447534706  0.5676432261067035  0.8833265649054809
  0.8066611745451766  0.6917345394146039  0.7500012064423487
  0.3865396527882368  0.5379464058200725  0.3446599082134014
  0.9359658582787773  0.9716661822615080  0.7517684302911363
  0.2337559069444808  0.8752452744395853  0.1844666323836108
  0.4195440392681675  0.9115457758135719  0.4095493957065344
  0.0314444474904008  0.5051690351379960  0.2239550904047007
  0.2972541747403454  0.0233235239865905  0.8886697396266428
  0.8681658716538863  0.9168329696650019  0.4999619760338945
  0.7036893720964699  0.2518468225563169  0.6223929020588130
  0.2250750319964965  0.3235652234492861  0.1209298368372416
  0.2919444074511617  0.0354253017971971  0.4497733499617880
  0.0172413549263482  0.4790522458286759  0.0214352346232189
  0.1939880139470063  0.7325753103701231  0.4325929073194672
  0.7770257883206000  0.1193377064450729  0.2308015676842032
  0.5204766424337564  0.7458824817864951  0.9792396050546870
  0.8575292517054862  0.5160568161593062  0.8178532909242904
  0.6341369282998031  0.8102864320986001  0.5353684419539206
  0.4562193774742198  0.8052219876825930  0.5822687374224884
  0.4984687171983566  0.5886237052717647  0.0760534026432325
  0.6578907427618574  0.9803594303829612  0.4994106019860993
  0.5807320280698534  0.3649335374089446  0.8146937708958646
  0.5847238274341322  0.8726904367812764  0.2352634251570080
  0.0233857924391216  0.4983734497955936  0.7009705581295691
  0.4667869171824961  0.0370699407233914  0.2804710300817348
  0.5622157113387516  0.1700484183020663  0.7122362061049685
  0.0495595850214841  0.5329305795083812  0.4036554265413130
  0.5831115512735181  0.2094085918234683  0.9411361515036063
  0.4469502292842904  0.7637954889646963  0.8128598994611025
  0.7388933497338144  0.1454438157273046  0.4578964059193638
  0.0209458470647235  0.1376767963669892  0.7018843787825801
  0.3946192422065735  0.2192927068123396  0.1593969258548569
  0.1553240494778123  0.1401325877605544  0.8215456777914696
  0.1172664192112194  0.0691542818027528  0.9862841350893419
  0.6349870822797001  0.7226593721361212  0.8164412885880381
  0.0198218387807714  0.4048443819716994  0.8616477418675572
  0.0426184560195537  0.1884241975953600  0.1518768751970185
  0.9211461293882621  0.3122395709701067  0.2862419534719720
  0.4255772956080222  0.3394743721959586  0.9209757864321801
  0.5947338218854767  0.4696776790888038  0.9810160407943798
  0.7495613791045628  0.0645131833760146  0.6333427567178163
  0.2463762988620601  0.5162283465696333  0.0330053444132972
  0.7710387462327404  0.9132723095661746  0.2703032666208287
  0.1716323154949180  0.9952273514815460  0.0653641778428877
  0.3286545134929639  0.9861666269030351  0.6650605387923108
  0.6366592508871847  0.3695790842352764  0.0326979272685861
  0.4054940690450337  0.4313601943660146  0.7231191418181382
  0.1765002766155988  0.0383396517678065  0.8862095593995818
  0.3237368130760458  0.8876386081694179  0.2636652823157135
  0.6846390671858273  0.4531117753654925  0.2743734694492090
  0.4104081931003165  0.1401110723966141  0.3132854757128243
  0.4564211130396814  0.6466392908998202  0.7880499733063075
  0.8987691132019933  0.9780318612510541  0.6284328265737074
  0.8779259714301588  0.8764222772528214  0.2301735522038086
  0.9756598079172036  0.3703572535813535  0.9807543168173183
  0.9733042196638024  0.2385825215646875  0.0713992860001369
  0.7496284516523133  0.0277058482012791  0.3044782639064891
  0.1667241794313767  0.6517162622828465  0.9318759304241766
  0.3344979932723291  0.1162176036709113  0.8159028304130800
  0.3443478028666647  0.3240776414158830  0.1185598879151755
  0.0770019715048562  0.3376723127800716  0.4514769231287090
  0.0756214619036513  0.6390427949968824  0.5330847294136305
  0.2737734850722546  0.0556628661290475  0.0961124758273186
  0.0657239473711897  0.8963663889794233  0.2233922610895291
  0.2703015857061146  0.6196241969396681  0.9807801421171263
  0.9759346090570844  0.3970611101343451  0.3450062983326632
  0.7512652349909885  0.5469806845298564  0.2342699289457997
  0.8128584779967127  0.8204904768659489  0.5510830627341434
  0.5802044162338973  0.9680907987389133  0.0392804815176646
  0.9778661658691590  0.8137406245128318  0.3704757531204521
  0.7692880957136197  0.9614371214916488  0.4534670691154474
  0.9761950914915118  0.6790934145154779  0.9813058125800609
  0.2283777247343863  0.1290747881681540  0.1776183540083878
  0.2501577327649400  0.8120567095049793  0.9769218975804179
  0.8872760227818333  0.7493481220089748  0.0237566735456269
  0.3243985228919897  0.5754395849824192  0.8823411715677878
  0.4113270984832695  0.3425531071623027  0.6434071761151898
  0.0601622331824601  0.8757301099506520  0.9293654356911318
  0.1126500378991224  0.9976708613580030  0.1766634504406426
  0.3187316377854970  0.1753156304662724  0.2429711946086002
  0.3412872121341692  0.3581575484186743  0.0020103412343460
  0.1847979549574745  0.9062440066116935  0.5436733038971866
  0.3283437554899038  0.6407592798760575  0.7818474250548419
  0.6385882057338961  0.0437784034206743  0.5990059487945629
  0.5702668754199465  0.9805103240264899  0.6769245258655943
  0.2698478062659859  0.4677739336470310  0.8603740061964871
  0.2245985945362534  0.6518651851743655  0.6271865001384498
  0.0710705003658276  0.9312774005061613  0.5106664669348788
  0.2141639438935812  0.2226690552945456  0.5293325260968444
  0.3942077898073890  0.4209023806281920  0.3729116437121078
  0.7291178714119724  0.8735764206165371  0.3782048746470750
  0.2307018086752137  0.1118156601732565  0.7260015544498444
  0.0867794668817794  0.4819877019596035  0.9218288273591710
  0.0924227110352902  0.7918502714329634  0.8465524096766828
  0.3786717911023558  0.7215513223356567  0.1227215517644069
  0.8842609909003869  0.6950814120888538  0.3047049340344614
  0.3183091600630235  0.5959022356591390  0.6712751828199330
  0.3850108651743582  0.4107881276321237  0.1928766424996553
  0.5835677021329744  0.3352510884362800  0.1372703766275905
  0.7761169937943322  0.6002875323521337  0.8164354192279433
  0.5762443742302850  0.0640468734315078  0.2231778602344008
  0.6886563349028236  0.3711216392108057  0.1852710241322271
  0.6224374534088923  0.1087920851434561  0.8949461729060886
  0.7569573874779252  0.6779317976702544  0.6029567496057524
  0.5818053689654903  0.1840109609742200  0.2232808019906827
  0.8752011916544475  0.7585292091490246  0.2060876338409017
  0.1641404138832669  0.8930819406407053  0.9994918848931533
  0.6867068229065296  0.3476208606176527  0.4362462662930753
  0.7322834661927047  0.7852774303798284  0.4640882391175651
  0.3886792421138168  0.0773756314650740  0.7131715790578710
  0.9440272085684498  0.2333880509896531  0.6936032714960092
  0.2236795173824788  0.8461148309727307  0.4415755273044937
  0.5077515332201514  0.0665831725214261  0.7306727291520971
  0.2005603360439210  0.7531795260850487  0.8826574435348888
  0.2563069949326433  0.0097507546597981  0.5639326613532987
  0.5297328995363344  0.7662070181983296  0.4966272913648311
  0.4767518148906120  0.3509069943289091  0.5420757479071909
  0.7876665470170821  0.6242827648543994  0.3204435064437448
  0.3052003094272990  0.7109268086738254  0.2784644012318864
  0.6999124197463331  0.4123417255681687  0.5387055043419764
  0.9716869670265353  0.9096086260572136  0.2997895312940528
  0.3065673077938840  0.4782035305695373  0.6724987985061901
  0.6396529031607514  0.5163194492212995  0.5350936561902913
  0.0790700848990724  0.8133010913753438  0.0293208886082112
  0.1525978938694763  0.8210479155710502  0.6323285658505498
  0.7377332254329687  0.0343010088636575  0.7473629605621639
  0.0193563483092234  0.8459001392912739  0.1264568539947888
  0.9182144762980613  0.9131188254964755  0.1238281012657012
  0.3090530730098138  0.2430079699807379  0.4483003019640535
  0.5203858410768447  0.0563324432544761  0.8486770424824357
  0.8844260665497643  0.8700948580098853  0.0192000135692965
  0.6429922083367430  0.0073783724287964  0.1325073265738297
  0.1993908399054121  0.3254154134751417  0.5967053839349319
  0.3766379998361842  0.7919724111475830  0.2208959079513022
  0.8104608596799139  0.0614939597934594  0.4009828242348803
  0.9554643795317190  0.7054819548568076  0.6681464075658425
  0.1971491524315283  0.4414149567506414  0.9533989663807674
  0.5779916646600824  0.6351294530761677  0.7633076209833760
  0.7450614631954835  0.2343895993469829  0.7326556281536440
  0.3273047929737487  0.8377111544000329  0.3782016672302007
  0.6859108044364106  0.9067599095505443  0.1845114401670855
 
  0.00000000E+00  0.00000000E+00  0.00000000E+00
  0.00000000E+00  0.00000000E+00  0.00000000E+00
  0.00000000E+00  0.00000000E+00  0.00000000E+00
  0.00000000E+00  0.00000000E+00  0.00000000E+00
  0.00000000E+00  0.00000000E+00  0.00000000E+00
  0.00000000E+00  0.00000000E+00  0.00000000E+00
  0.00000000E+00  0.00000000E+00  0.00000000E+00
  0.00000000E+00  0.00000000E+00  0.00000000E+00
  0.00000000E+00  0.00000000E+00  0.00000000E+00
  0.00000000E+00  0.00000000E+00  0.00000000E+00
  0.00000000E+00  0.00000000E+00  0.00000000E+00
  0.00000000E+00  0.00000000E+00  0.00000000E+00
  0.00000000E+00  0.00000000E+00  0.00000000E+00
  0.00000000E+00  0.00000000E+00  0.00000000E+00
  0.00000000E+00  0.00000000E+00  0.00000000E+00
  0.00000000E+00  0.00000000E+00  0.00000000E+00
  0.00000000E+00  0.00000000E+00  0.00000000E+00
  0.00000000E+00  0.00000000E+00  0.00000000E+00
  0.00000000E+00  0.00000000E+00  0.00000000E+00
  0.00000000E+00  0.00000000E+00  0.00000000E+00
  0.00000000E+00  0.00000000E+00  0.00000000E+00
  0.00000000E+00  0.00000000E+00  0.00000000E+00
  0.00000000E+00  0.00000000E+00  0.00000000E+00
  0.00000000E+00  0.00000000E+00  0.00000000E+00
  0.00000000E+00  0.00000000E+00  0.00000000E+00
  0.00000000E+00  0.00000000E+00  0.00000000E+00
  0.00000000E+00  0.00000000E+00  0.00000000E+00
  0.00000000E+00  0.00000000E+00  0.00000000E+00
  0.00000000E+00  0.00000000E+00  0.00000000E+00
  0.00000000E+00  0.00000000E+00  0.00000000E+00
  0.00000000E+00  0.00000000E+00  0.00000000E+00
  0.00000000E+00  0.00000000E+00  0.00000000E+00
  0.00000000E+00  0.00000000E+00  0.00000000E+00
  0.00000000E+00  0.00000000E+00  0.00000000E+00
  0.00000000E+00  0.00000000E+00  0.00000000E+00
  0.00000000E+00  0.00000000E+00  0.00000000E+00
  0.00000000E+00  0.00000000E+00  0.00000000E+00
  0.00000000E+00  0.00000000E+00  0.00000000E+00
  0.00000000E+00  0.00000000E+00  0.00000000E+00
  0.00000000E+00  0.00000000E+00  0.00000000E+00
  0.00000000E+00  0.00000000E+00  0.00000000E+00
  0.00000000E+00  0.00000000E+00  0.00000000E+00
  0.00000000E+00  0.00000000E+00  0.00000000E+00
  0.00000000E+00  0.00000000E+00  0.00000000E+00
  0.00000000E+00  0.00000000E+00  0.00000000E+00
  0.00000000E+00  0.00000000E+00  0.00000000E+00
  0.00000000E+00  0.00000000E+00  0.00000000E+00
  0.00000000E+00  0.00000000E+00  0.00000000E+00
  0.00000000E+00  0.00000000E+00  0.00000000E+00
  0.00000000E+00  0.00000000E+00  0.00000000E+00
  0.00000000E+00  0.00000000E+00  0.00000000E+00
  0.00000000E+00  0.00000000E+00  0.00000000E+00
  0.00000000E+00  0.00000000E+00  0.00000000E+00
  0.00000000E+00  0.00000000E+00  0.00000000E+00
  0.00000000E+00  0.00000000E+00  0.00000000E+00
  0.00000000E+00  0.00000000E+00  0.00000000E+00
  0.00000000E+00  0.00000000E+00  0.00000000E+00
  0.00000000E+00  0.00000000E+00  0.00000000E+00
  0.00000000E+00  0.00000000E+00  0.00000000E+00
  0.00000000E+00  0.00000000E+00  0.00000000E+00
  0.00000000E+00  0.00000000E+00  0.00000000E+00
  0.00000000E+00  0.00000000E+00  0.00000000E+00
  0.00000000E+00  0.00000000E+00  0.00000000E+00
  0.00000000E+00  0.00000000E+00  0.00000000E+00
  0.00000000E+00  0.00000000E+00  0.00000000E+00
  0.00000000E+00  0.00000000E+00  0.00000000E+00
  0.00000000E+00  0.00000000E+00  0.00000000E+00
  0.00000000E+00  0.00000000E+00  0.00000000E+00
  0.00000000E+00  0.00000000E+00  0.00000000E+00
  0.00000000E+00  0.00000000E+00  0.00000000E+00
  0.00000000E+00  0.00000000E+00  0.00000000E+00
  0.00000000E+00  0.00000000E+00  0.00000000E+00
  0.00000000E+00  0.00000000E+00  0.00000000E+00
  0.00000000E+00  0.00000000E+00  0.00000000E+00
  0.00000000E+00  0.00000000E+00  0.00000000E+00
  0.00000000E+00  0.00000000E+00  0.00000000E+00
  0.00000000E+00  0.00000000E+00  0.00000000E+00
  0.00000000E+00  0.00000000E+00  0.00000000E+00
  0.00000000E+00  0.00000000E+00  0.00000000E+00
  0.00000000E+00  0.00000000E+00  0.00000000E+00
  0.00000000E+00  0.00000000E+00  0.00000000E+00
  0.00000000E+00  0.00000000E+00  0.00000000E+00
  0.00000000E+00  0.00000000E+00  0.00000000E+00
  0.00000000E+00  0.00000000E+00  0.00000000E+00
  0.00000000E+00  0.00000000E+00  0.00000000E+00
  0.00000000E+00  0.00000000E+00  0.00000000E+00
  0.00000000E+00  0.00000000E+00  0.00000000E+00
  0.00000000E+00  0.00000000E+00  0.00000000E+00
  0.00000000E+00  0.00000000E+00  0.00000000E+00
  0.00000000E+00  0.00000000E+00  0.00000000E+00
  0.00000000E+00  0.00000000E+00  0.00000000E+00
  0.00000000E+00  0.00000000E+00  0.00000000E+00
  0.00000000E+00  0.00000000E+00  0.00000000E+00
  0.00000000E+00  0.00000000E+00  0.00000000E+00
  0.00000000E+00  0.00000000E+00  0.00000000E+00
  0.00000000E+00  0.00000000E+00  0.00000000E+00
  0.00000000E+00  0.00000000E+00  0.00000000E+00
  0.00000000E+00  0.00000000E+00  0.00000000E+00
  0.00000000E+00  0.00000000E+00  0.00000000E+00
  0.00000000E+00  0.00000000E+00  0.00000000E+00
  0.00000000E+00  0.00000000E+00  0.00000000E+00
  0.00000000E+00  0.00000000E+00  0.00000000E+00
  0.00000000E+00  0.00000000E+00  0.00000000E+00
  0.00000000E+00  0.00000000E+00  0.00000000E+00
  0.00000000E+00  0.00000000E+00  0.00000000E+00
  0.00000000E+00  0.00000000E+00  0.00000000E+00
  0.00000000E+00  0.00000000E+00  0.00000000E+00
  0.00000000E+00  0.00000000E+00  0.00000000E+00
  0.00000000E+00  0.00000000E+00  0.00000000E+00
  0.00000000E+00  0.00000000E+00  0.00000000E+00
  0.00000000E+00  0.00000000E+00  0.00000000E+00
  0.00000000E+00  0.00000000E+00  0.00000000E+00
  0.00000000E+00  0.00000000E+00  0.00000000E+00
  0.00000000E+00  0.00000000E+00  0.00000000E+00
  0.00000000E+00  0.00000000E+00  0.00000000E+00
  0.00000000E+00  0.00000000E+00  0.00000000E+00
  0.00000000E+00  0.00000000E+00  0.00000000E+00
  0.00000000E+00  0.00000000E+00  0.00000000E+00
  0.00000000E+00  0.00000000E+00  0.00000000E+00
  0.00000000E+00  0.00000000E+00  0.00000000E+00
  0.00000000E+00  0.00000000E+00  0.00000000E+00
  0.00000000E+00  0.00000000E+00  0.00000000E+00
  0.00000000E+00  0.00000000E+00  0.00000000E+00
  0.00000000E+00  0.00000000E+00  0.00000000E+00
  0.00000000E+00  0.00000000E+00  0.00000000E+00
  0.00000000E+00  0.00000000E+00  0.00000000E+00
  0.00000000E+00  0.00000000E+00  0.00000000E+00
  0.00000000E+00  0.00000000E+00  0.00000000E+00
  0.00000000E+00  0.00000000E+00  0.00000000E+00
  0.00000000E+00  0.00000000E+00  0.00000000E+00
  0.00000000E+00  0.00000000E+00  0.00000000E+00
  0.00000000E+00  0.00000000E+00  0.00000000E+00
  0.00000000E+00  0.00000000E+00  0.00000000E+00
  0.00000000E+00  0.00000000E+00  0.00000000E+00
  0.00000000E+00  0.00000000E+00  0.00000000E+00
  0.00000000E+00  0.00000000E+00  0.00000000E+00
  0.00000000E+00  0.00000000E+00  0.00000000E+00
  0.00000000E+00  0.00000000E+00  0.00000000E+00
  0.00000000E+00  0.00000000E+00  0.00000000E+00
  0.00000000E+00  0.00000000E+00  0.00000000E+00
  0.00000000E+00  0.00000000E+00  0.00000000E+00
  0.00000000E+00  0.00000000E+00  0.00000000E+00
  0.00000000E+00  0.00000000E+00  0.00000000E+00
  0.00000000E+00  0.00000000E+00  0.00000000E+00
  0.00000000E+00  0.00000000E+00  0.00000000E+00
  0.00000000E+00  0.00000000E+00  0.00000000E+00
  0.00000000E+00  0.00000000E+00  0.00000000E+00
  0.00000000E+00  0.00000000E+00  0.00000000E+00
  0.00000000E+00  0.00000000E+00  0.00000000E+00
  0.00000000E+00  0.00000000E+00  0.00000000E+00
  0.00000000E+00  0.00000000E+00  0.00000000E+00
  0.00000000E+00  0.00000000E+00  0.00000000E+00
  0.00000000E+00  0.00000000E+00  0.00000000E+00
  0.00000000E+00  0.00000000E+00  0.00000000E+00
  0.00000000E+00  0.00000000E+00  0.00000000E+00
  0.00000000E+00  0.00000000E+00  0.00000000E+00
  0.00000000E+00  0.00000000E+00  0.00000000E+00
  0.00000000E+00  0.00000000E+00  0.00000000E+00
  0.00000000E+00  0.00000000E+00  0.00000000E+00
  0.00000000E+00  0.00000000E+00  0.00000000E+00
  0.00000000E+00  0.00000000E+00  0.00000000E+00
  0.00000000E+00  0.00000000E+00  0.00000000E+00
  0.00000000E+00  0.00000000E+00  0.00000000E+00
  0.00000000E+00  0.00000000E+00  0.00000000E+00
  0.00000000E+00  0.00000000E+00  0.00000000E+00
  0.00000000E+00  0.00000000E+00  0.00000000E+00
  0.00000000E+00  0.00000000E+00  0.00000000E+00
  0.00000000E+00  0.00000000E+00  0.00000000E+00
  0.00000000E+00  0.00000000E+00  0.00000000E+00
  0.00000000E+00  0.00000000E+00  0.00000000E+00
  0.00000000E+00  0.00000000E+00  0.00000000E+00
  0.00000000E+00  0.00000000E+00  0.00000000E+00
  0.00000000E+00  0.00000000E+00  0.00000000E+00
  0.00000000E+00  0.00000000E+00  0.00000000E+00
  0.00000000E+00  0.00000000E+00  0.00000000E+00
  0.00000000E+00  0.00000000E+00  0.00000000E+00
  0.00000000E+00  0.00000000E+00  0.00000000E+00
  0.00000000E+00  0.00000000E+00  0.00000000E+00
  0.00000000E+00  0.00000000E+00  0.00000000E+00
  0.00000000E+00  0.00000000E+00  0.00000000E+00
  0.00000000E+00  0.00000000E+00  0.00000000E+00
  0.00000000E+00  0.00000000E+00  0.00000000E+00
  0.00000000E+00  0.00000000E+00  0.00000000E+00
  0.00000000E+00  0.00000000E+00  0.00000000E+00
  0.00000000E+00  0.00000000E+00  0.00000000E+00
  0.00000000E+00  0.00000000E+00  0.00000000E+00
  0.00000000E+00  0.00000000E+00  0.00000000E+00
  0.00000000E+00  0.00000000E+00  0.00000000E+00
  0.00000000E+00  0.00000000E+00  0.00000000E+00
  0.00000000E+00  0.00000000E+00  0.00000000E+00
  0.00000000E+00  0.00000000E+00  0.00000000E+00
  0.00000000E+00  0.00000000E+00  0.00000000E+00
  0.00000000E+00  0.00000000E+00  0.00000000E+00
  0.00000000E+00  0.00000000E+00  0.00000000E+00
  0.00000000E+00  0.00000000E+00  0.00000000E+00
  0.00000000E+00  0.00000000E+00  0.00000000E+00
  0.00000000E+00  0.00000000E+00  0.00000000E+00
  0.00000000E+00  0.00000000E+00  0.00000000E+00
  0.00000000E+00  0.00000000E+00  0.00000000E+00
  0.00000000E+00  0.00000000E+00  0.00000000E+00
  0.00000000E+00  0.00000000E+00  0.00000000E+00
  0.00000000E+00  0.00000000E+00  0.00000000E+00
  0.00000000E+00  0.00000000E+00  0.00000000E+00
  0.00000000E+00  0.00000000E+00  0.00000000E+00
  0.00000000E+00  0.00000000E+00  0.00000000E+00
  0.00000000E+00  0.00000000E+00  0.00000000E+00
  0.00000000E+00  0.00000000E+00  0.00000000E+00
  0.00000000E+00  0.00000000E+00  0.00000000E+00
  0.00000000E+00  0.00000000E+00  0.00000000E+00
  0.00000000E+00  0.00000000E+00  0.00000000E+00
  0.00000000E+00  0.00000000E+00  0.00000000E+00
  0.00000000E+00  0.00000000E+00  0.00000000E+00
  0.00000000E+00  0.00000000E+00  0.00000000E+00
  0.00000000E+00  0.00000000E+00  0.00000000E+00
  0.00000000E+00  0.00000000E+00  0.00000000E+00
  0.00000000E+00  0.00000000E+00  0.00000000E+00
  0.00000000E+00  0.00000000E+00  0.00000000E+00
  0.00000000E+00  0.00000000E+00  0.00000000E+00
  0.00000000E+00  0.00000000E+00  0.00000000E+00
  0.00000000E+00  0.00000000E+00  0.00000000E+00
  0.00000000E+00  0.00000000E+00  0.00000000E+00
  0.00000000E+00  0.00000000E+00  0.00000000E+00
  0.00000000E+00  0.00000000E+00  0.00000000E+00
  0.00000000E+00  0.00000000E+00  0.00000000E+00
  0.00000000E+00  0.00000000E+00  0.00000000E+00
  0.00000000E+00  0.00000000E+00  0.00000000E+00
  0.00000000E+00  0.00000000E+00  0.00000000E+00
  0.00000000E+00  0.00000000E+00  0.00000000E+00
  0.00000000E+00  0.00000000E+00  0.00000000E+00
  0.00000000E+00  0.00000000E+00  0.00000000E+00
  0.00000000E+00  0.00000000E+00  0.00000000E+00
  0.00000000E+00  0.00000000E+00  0.00000000E+00