In2O3 structure 4 - random placement wit
   1.00000000000000     
     7.9490060392832431    0.0385377609211425   -0.0993701612513822
     0.0381624881939042    8.0010889228335689   -0.0433600564946604
    -0.0993254980295485   -0.0440504017441824    7.9089446093797333
   In   Ga   O 
    14     2    24
Direct
  0.4034382267066653  0.0401267224754762  0.7401666254193757
  0.6896293490010942  0.8062371739466202  0.9654601348901604
  0.9051606424159390  0.0414037873569786  0.2504478897095784
  0.4108763709501622  0.0448663088472068  0.2604815031899799
  0.4407096265255830  0.5236350566901393  0.7089058023590886
  0.6613170575484153  0.3038906830867721  0.9911723963544389
  0.1635004983990876  0.3031553766545014  0.9933540417432228
  0.6877208955239943  0.8051242554289686  0.4643556572486187
  0.9398628988562929  0.5256736526595956  0.7083883361114841
  0.1905732410552584  0.8052046198124849  0.9658385244356472
  0.4410201868779715  0.5285637451096583  0.2188993212666548
  0.1888534796893926  0.8030418963875160  0.4673871304994888
  0.9091626299172100  0.0387083731972487  0.7439973418814810
  0.9438986903248249  0.5301542340378377  0.2172303591774587
  0.1634209825514860  0.3092921683665826  0.4908051401996097
  0.6755685037371806  0.3134914968596662  0.4891383271691540
  0.1515863124700646  0.0833779700019318  0.3760689838323724
  0.0567536107945831  0.5661549427082606  0.9610103244767682
  0.3967516082128035  0.2685613562797453  0.5879224483627149
  0.6524933872035044  0.0662855869557260  0.8586040355155894
  0.5656296660667525  0.2717576203489628  0.2623066066815001
  0.1525064375093008  0.9165394124919999  0.7128522424491764
  0.1906317766583422  0.5578725397590010  0.5894010060035442
  0.9413483986745933  0.7705257823881349  0.3524668431778225
  0.7776519728512120  0.0831917548436532  0.5014662734319878
  0.4422834346715123  0.7631761758801129  0.8453823879608232
  0.3039040595597829  0.7666370608116931  0.2153947590681624
  0.6520037142267102  0.9212255183149685  0.2121185720437179
  0.3012007424739357  0.0685755719802721  0.0051196841555767
  0.9113287702287276  0.2686262338532877  0.0998955785079128
  0.0612887883647092  0.2669808676675380  0.7332149648193187
  0.4084279282131396  0.4141775551832740  0.9594699452123489
  0.9064432576088235  0.4019917027151546  0.4536870414935259
  0.9449540363860823  0.9230753034434827  0.0029124047759451
  0.6967086555260331  0.3992086905549841  0.7319379262369707
  0.4415427015240327  0.9123143705856450  0.5022015180895664
  0.8069264981820614  0.7660263066515062  0.7107722366856294
  0.1994646078484359  0.4084469215009228  0.2621588139510100
  0.5685345466420382  0.5594055307077113  0.4627228665527850
  0.6952054266143882  0.5676647340501816  0.0966598769440220
 
  0.00000000E+00  0.00000000E+00  0.00000000E+00
  0.00000000E+00  0.00000000E+00  0.00000000E+00
  0.00000000E+00  0.00000000E+00  0.00000000E+00
  0.00000000E+00  0.00000000E+00  0.00000000E+00
  0.00000000E+00  0.00000000E+00  0.00000000E+00
  0.00000000E+00  0.00000000E+00  0.00000000E+00
  0.00000000E+00  0.00000000E+00  0.00000000E+00
  0.00000000E+00  0.00000000E+00  0.00000000E+00
  0.00000000E+00  0.00000000E+00  0.00000000E+00
  0.00000000E+00  0.00000000E+00  0.00000000E+00
  0.00000000E+00  0.00000000E+00  0.00000000E+00
  0.00000000E+00  0.00000000E+00  0.00000000E+00
  0.00000000E+00  0.00000000E+00  0.00000000E+00
  0.00000000E+00  0.00000000E+00  0.00000000E+00
  0.00000000E+00  0.00000000E+00  0.00000000E+00
  0.00000000E+00  0.00000000E+00  0.00000000E+00
  0.00000000E+00  0.00000000E+00  0.00000000E+00
  0.00000000E+00  0.00000000E+00  0.00000000E+00
  0.00000000E+00  0.00000000E+00  0.00000000E+00
  0.00000000E+00  0.00000000E+00  0.00000000E+00
  0.00000000E+00  0.00000000E+00  0.00000000E+00
  0.00000000E+00  0.00000000E+00  0.00000000E+00
  0.00000000E+00  0.00000000E+00  0.00000000E+00
  0.00000000E+00  0.00000000E+00  0.00000000E+00
  0.00000000E+00  0.00000000E+00  0.00000000E+00
  0.00000000E+00  0.00000000E+00  0.00000000E+00
  0.00000000E+00  0.00000000E+00  0.00000000E+00
  0.00000000E+00  0.00000000E+00  0.00000000E+00
  0.00000000E+00  0.00000000E+00  0.00000000E+00
  0.00000000E+00  0.00000000E+00  0.00000000E+00
  0.00000000E+00  0.00000000E+00  0.00000000E+00
  0.00000000E+00  0.00000000E+00  0.00000000E+00
  0.00000000E+00  0.00000000E+00  0.00000000E+00
  0.00000000E+00  0.00000000E+00  0.00000000E+00
  0.00000000E+00  0.00000000E+00  0.00000000E+00
  0.00000000E+00  0.00000000E+00  0.00000000E+00
  0.00000000E+00  0.00000000E+00  0.00000000E+00
  0.00000000E+00  0.00000000E+00  0.00000000E+00
  0.00000000E+00  0.00000000E+00  0.00000000E+00
  0.00000000E+00  0.00000000E+00  0.00000000E+00
