Amorphous Sb                            
   1.00000000000000     
    20.1778869700586903    0.0000000000000000    0.0000000000000000
     0.0000000000000000   20.1778869700586903    0.0000000000000000
     0.0000000000000000    0.0000000000000000   20.1778869700586903
   Ge   Se
   150   150
Direct
  0.6853622326952191  0.7014213768633581  0.5196296942133998
  0.5154008914769079  0.6891683215140461  0.7878032893098279
  0.2115718300577853  0.4268989915734451  0.8027793809340551
  0.3864511264805088  0.3154255274686051  0.6076760523180411
  0.8254788360037395  0.0289093257593649  0.6505415490601365
  0.9003666658369127  0.6248378349054846  0.6650397380126449
  0.2222927031386419  0.7106998933752138  0.9275859538248312
  0.1195130408583438  0.1634576533216219  0.3630563566299756
  0.3297982855727284  0.6308827140331417  0.8055273534672693
  0.3534903018179278  0.8504435824285181  0.2204327229614265
  0.3685020648192960  0.0170408718903445  0.4210182331125765
  0.0099730646873439  0.0323231116143532  0.4553927225451915
  0.6062588642224966  0.3338516855959952  0.8502394336951440
  0.6041769416714331  0.4383777254214039  0.5885188096633556
  0.2554269005776959  0.0166326362107583  0.8612554086308961
  0.6801549974415693  0.9517568295314689  0.3948268427538792
  0.0403874289565493  0.7754798296573853  0.0829254221654026
  0.0475214126994601  0.7639482060773659  0.3335016194684570
  0.8166175239794171  0.3948229074645369  0.3575416678851511
  0.1075110389784086  0.4558389120284616  0.9664907091796948
  0.0575837213389008  0.9144324022693411  0.5044452184149861
  0.1498955828734623  0.8305839519441420  0.2005191544800127
  0.4311799340274973  0.7585533607923338  0.9575727917051466
  0.9824437836323909  0.1592290336933360  0.9364907792675652
  0.0338920538924654  0.0755480686556567  0.1293191424557136
  0.5522343833155929  0.3332910425587059  0.1876723526371009
  0.3749268659356844  0.1383533893307742  0.5831264247445915
  0.4367300840866335  0.7538316154392604  0.5224934266515859
  0.7995793721051641  0.9199581991900843  0.9995365837702366
  0.7582189396809227  0.5499780095886067  0.6038960331122567
  0.9519553035119941  0.7715410682524748  0.5853635470848459
  0.0837795117071494  0.3535416884992628  0.7487954236665999
  0.0347602878231115  0.1002053619753198  0.2564455188165056
  0.9008295718890835  0.4908834024624298  0.4842778642385355
  0.3987248646952466  0.4535418019944331  0.2782546655649725
  0.0338661271816534  0.5443879268369827  0.5866543466763829
  0.7498409921560167  0.6804391810553696  0.1864402207303044
  0.4474013168461184  0.4712594314016556  0.9196355389569391
  0.2729978647394447  0.0488905820411176  0.2287628729310924
  0.2515159027620655  0.3733765406085610  0.1326890552164315
  0.7441059961956142  0.3796473794484072  0.7721387057667215
  0.8410886560723512  0.8267452350989402  0.3790518480464087
  0.9197637512537398  0.1866241332680829  0.5606642272006681
  0.5941452387863748  0.8539744786844281  0.5236282442553062
  0.3743828787112520  0.9824439803970293  0.0945544161230529
  0.3503242291523705  0.6495684705688873  0.2133880208545236
  0.3990487375716043  0.4519824704742845  0.5043093209973080
  0.9026718964707285  0.7731914981249446  0.1783135661539177
  0.0361758141581348  0.3511556972156455  0.4060619526374083
  0.9906788902225472  0.7387322137767569  0.8028317623298236
  0.5513365953046403  0.0735767571621153  0.2959304529632476
  0.2599645038330678  0.4370902877101130  0.9519955613267896
  0.0521782992715103  0.2813888246822600  0.1520983135625187
  0.6255524391140739  0.7514398180527095  0.8083243994678639
  0.5774110812924960  0.2905128122994469  0.7319646293637447
  0.0542061469785224  0.5797157527482852  0.3525238091046603
  0.0322889878342778  0.9233732673405299  0.2187389181202732
  0.1905538481694791  0.5803878615545983  0.4542028286818649
  0.9514293914716916  0.3288464352581286  0.5899805889213354
  0.0989616053143010  0.0602589845599866  0.8243183983069571
  0.5189087331482725  0.4502946695716261  0.3360106510923018
  0.6873389186094059  0.1042243180911768  0.1526212867178245
  0.5312945459350900  0.6768265347375930  0.2038322485758641
  0.9240025189163035  0.6566581943813148  0.3276024652149374
  0.8585923125270298  0.0216089095464014  0.8372918295761309
  0.5621219840912559  0.8214425037269777  0.0061598081437424
  0.0689634040972820  0.3365594927935476  0.9311209769881899
  0.8229384817785430  0.8627965980277068  0.5331459551298323
  0.7426454100844353  0.7507519415258272  0.6828898592599373
  0.8233159325484891  0.2306761886251607  0.1555341539081425
  0.8345330507821132  0.3226237146229778  0.0373107108563246
  0.9496338604505610  0.4088773123036731  0.7441685771784350
  0.4078277725360522  0.1619567610247898  0.1649280374756259
  0.3595930005416434  0.5525295263702645  0.4333357846269408
  0.4904891349648111  0.8387166577303660  0.3714638174256493
  0.3300908297772764  0.4468667849897585  0.6575649219741493
  0.6846976445274962  0.9368014051306162  0.0925568377111929
  0.2477755454880253  0.2484919702776693  0.1758514943694109
  0.8713922923146882  0.0496392031802202  0.0652058887148996
  0.2596726329773276  0.8568612520324450  0.9262712744734145
  0.3583286069691027  0.2601949277375155  0.0269890713807186
  0.6457631574278295  0.9949124507758924  0.8824986772529257
  0.9688457671981467  0.5916227921068398  0.8428794080085424
  0.7943565853799583  0.4836852841348005  0.0636264869149912
  0.7699024275072617  0.5198919243981663  0.3524927038358427
  0.3521033787905665  0.0793313992133520  0.7086781471173964
  0.5976490593305428  0.1371347016023279  0.0306250590279618
  0.5423633796332652  0.6540078694052269  0.6159261621891332
  0.7569644324112019  0.3360364838496892  0.5190011729044599
  0.6548456372206388  0.5657826014343428  0.1684420410255143
  0.5219300620707017  0.2340521008088459  0.3494590089337066
  0.6076215971824439  0.1156831922783113  0.9006599588296496
  0.1112858281301357  0.1198275654967276  0.5790571154060942
  0.3010497168753119  0.5951729610231098  0.5989789814635245
  0.7585247997274678  0.0474509899230071  0.4829623422818088
  0.6653608411283471  0.9307180462982529  0.6139624214547510
  0.4232916449243618  0.9623483942121922  0.9332325528174081
  0.1629961754165947  0.4659340806120724  0.6473480162251875
  0.1589291577119738  0.7598940620770378  0.4687673731829278
  0.2048630488456595  0.1309075041964292  0.8374712964219384
  0.1088649660210379  0.4274134685136346  0.2345974250876992
  0.5312317670433728  0.2896512626136385  0.9428610054108688
  0.2366848257677034  0.5107712899518617  0.0837086499516815
  0.8738429997618837  0.0617549161003836  0.1998029773565122
  0.4415086178237217  0.8427073722384009  0.7109581016837083
  0.7236407334813748  0.7187421022758897  0.9741828179089893
  0.9881043833999001  0.4724392426514044  0.0120351235493885
  0.0589084935964479  0.6541064401416818  0.0363869696705450
  0.6910775530992481  0.1721654133912054  0.7267357831840187
  0.7101390587484246  0.9242226744021451  0.7949861455949616
  0.1118665893691855  0.8906205356057910  0.6822495743167281
  0.1616994489903831  0.9602069730895479  0.0612280374669609
  0.1565094818952204  0.9603586534439401  0.3649060169007328
  0.7430288801098470  0.1493622282460336  0.3125252002459007
  0.7438455338504681  0.8139855044714963  0.2939475250988366
  0.7312442335833609  0.6469748480230066  0.4006158557179589
  0.4101941606497448  0.2864414228933754  0.3016259741210874
  0.6814296992313587  0.5920014802398157  0.7322568399967579
  0.3078982778828276  0.2296493261259300  0.4571844823093443
  0.0827815287646416  0.9358972293530741  0.7972579212813216
  0.9213241251430730  0.4465093784307612  0.2031800872337470
  0.8361610891585158  0.2159356492090225  0.3788184482209971
  0.8049889442571398  0.6276056134869563  0.8207761365586066
  0.9539821333956553  0.9062357814835096  0.9499904036010705
  0.2179432583234160  0.4211443249611122  0.4017227330951911
  0.2282063399467447  0.7031641126659878  0.6748334466164749
  0.3812316003464318  0.9470383664954696  0.5426313673522927
  0.5521677097197966  0.8582639061201363  0.7824007615985806
  0.1578016950595043  0.1518442850591271  0.9853847474727147
  0.2790552973747253  0.8125126045435778  0.0631650684340030
  0.5500731440860491  0.5878749324211796  0.4283763583977986
  0.8954050199515819  0.7358487807781700  0.8963536666104943
  0.4616884062394035  0.1848105154664168  0.9293782078986297
  0.4446202122219844  0.5083376737703418  0.0953811195753786
  0.0556745243779844  0.7135212793953372  0.6323381211750743
  0.1755534028753161  0.6341157960983637  0.2020558912461752
  0.3007898165701945  0.2737049264492128  0.8062737489651397
  0.5405724190597709  0.0735916756544128  0.4830501972086623
  0.3625852330540695  0.7074616708244577  0.3441095007352430
  0.3105109021046317  0.8543035325853694  0.7208137400143997
  0.7210419417893945  0.3972729635017060  0.2196476278333463
  0.6029664976663867  0.4544036231874884  0.0336556664710983
  0.1801427814162082  0.9807912391321594  0.6144078701978586
  0.9099009596944967  0.2300086187205537  0.7564735947238432
  0.5801771437110474  0.2059771590687731  0.5553960789870445
  0.0923387596772187  0.2318972369254766  0.5104203037296102
  0.1372813405883662  0.6036365226849227  0.8268208669821462
  0.5331202262862718  0.8667872514534807  0.1788105372723905
  0.4370292993829779  0.4110658842667263  0.7454082690228816
  0.9080519047034343  0.4398536966862423  0.9164993026764137
  0.8649588131177453  0.1041319723848275  0.9176686872301900
  0.8587100926951194  0.9815638481795119  0.5129618993533995
  0.0749501320601951  0.7287053601443318  0.1980939190613640
  0.9418025587849996  0.4596191788137531  0.6245978581790155
  0.3265727645887821  0.7083025217160781  0.0051565346248452
  0.1252828680792817  0.0084698798595042  0.2478491391528621
  0.5747625448852745  0.4621109061241100  0.1601613050409725
  0.7054294918863349  0.0504122871336179  0.6026019273816061
  0.6063622256721359  0.2599178856880400  0.0303334633783052
  0.1309300543075551  0.0748508702947888  0.4622287130448441
  0.9303919014697897  0.8252723482046349  0.2891055134472325
  0.7605143827018708  0.0386434144776473  0.7694815860725157
  0.7937480772326637  0.7034589567011338  0.5802698679481963
  0.2910936415422753  0.7908305002254323  0.6160667390406687
  0.8717927942784272  0.6537204061600690  0.2116227992927620
  0.4742265360463094  0.1160945516694909  0.0286052331643489
  0.2868763620203794  0.1686783662518181  0.0901165997504805
  0.3782282635672019  0.8157398891318337  0.4288157494780904
  0.9468940780235471  0.0037678222465161  0.7555425425859781
  0.7082741766505549  0.2179214653754826  0.2146627667177015
  0.7094684455676799  0.0114260854082104  0.9890286119556251
  0.5654656528426401  0.1796949092728966  0.6816282442354975
  0.1491656039125928  0.0925565126702139  0.0955383540261039
  0.8805710602907908  0.4936122430306895  0.8094086401875984
  0.2042314712667164  0.3819624307806038  0.2834574464476560
  0.3258027116975910  0.3955207194336054  0.8499216447827678
  0.2692243944039561  0.7584870541687039  0.1789005660442982
  0.2813310607935975  0.9740488826156763  0.3348694348929016
  0.3395476665315442  0.5177281169361052  0.0126184990811069
  0.4012858747262840  0.0405589581282868  0.2072427928481204
  0.4546342177588940  0.2291185668283831  0.5379680166533234
  0.4233825950104375  0.3543765683792302  0.1982885427496868
  0.9517102295101196  0.0050458701476472  0.2799237472397138
  0.4170862537539861  0.8602725914840050  0.1125457450193466
  0.0990606545622725  0.4859517838039835  0.4217410880223369
  0.0659987862159852  0.4985760766398926  0.8532636039708166
  0.5304885284528709  0.4353134335061313  0.8276034677068438
  0.3030653969974679  0.9698422748518425  0.6498970491240570
  0.5291745474671075  0.1839902684003718  0.2343512036393562
  0.8968980449956376  0.5343504518412345  0.3522023080981285
  0.6074108483137124  0.5344662111166727  0.3301027000141374
  0.3418037044241871  0.2023954516910678  0.9123870416910762
  0.1789433318881493  0.9035275341157742  0.5179543407719649
  0.0147023447808152  0.2158995425683585  0.4140360337135363
  0.5412164554069605  0.9196757329825118  0.8931037773135202
  0.6065974084620365  0.9560934855674006  0.7269564166342732
  0.6948610547828338  0.4665620565266906  0.6842364189989141
  0.1568612764350945  0.8353176251255618  0.3273253793328976
  0.9104631191813439  0.3677505853799445  0.4377310760423612
  0.5461802997204046  0.7532233195725837  0.4471899878612930
  0.8508473316668912  0.3381033494897707  0.7115428027390749
  0.3144606604273150  0.6511666892807142  0.4870036443738002
  0.6756370546975816  0.2019644751958225  0.8488870505277575
  0.3015925136252235  0.1021888135600690  0.4857088842011734
  0.7782330522699468  0.8068004744206547  0.1748381090064655
  0.7632330906788383  0.5181014507827513  0.2186388000192991
  0.1472607386917346  0.6697596773147154  0.3691018632303766
  0.0314137989285967  0.8491684555803332  0.8674259391462726
  0.7955608633206737  0.4134641306564717  0.9520139986318554
  0.9919460377902709  0.0766909552492976  0.5727795604832977
  0.2620929339884341  0.9462976787199224  0.1504351455332866
  0.5539408679148821  0.5878561123005852  0.7255878021879880
  0.0072163316313407  0.8944306608827333  0.6188127111995385
  0.1283330860608984  0.2818116951173550  0.8418545526837562
  0.5186030890108313  0.3696144500646810  0.6551450421043299
  0.2831363259947608  0.2498039154851668  0.5776415209195207
  0.2671605339189114  0.9763602978082986  0.9768080109041719
  0.7810211574298975  0.1391684116116849  0.0757367947811503
  0.8746041227690711  0.6180196751294247  0.9302667485789229
  0.8988938556284438  0.1741548680498042  0.2378309573356887
  0.5180357200587409  0.4661395047144126  0.4620098468422711
  0.5806953467564142  0.3464317000180586  0.3098003908289186
  0.6439545812919363  0.5856112158771509  0.5547826655622714
  0.6867436168260994  0.7021937821795774  0.2978227042010886
  0.4481145603188423  0.7610753503090422  0.2658882292006055
  0.1209928168346508  0.7730118564646560  0.7199701042193354
  0.7771007038709214  0.7505607195781323  0.8622261057387632
  0.5863917442045690  0.7628681770980208  0.1280534136269509
  0.9026398010720129  0.7508901012674656  0.7056406786449898
  0.0758932599061950  0.2476776538742627  0.0163274134013207
  0.8448431382459702  0.9088716564675678  0.8780332706248970
  0.6972825419743245  0.8439213235702354  0.9948554840282213
  0.7625593633956598  0.0424281387513616  0.2517158452576496
  0.2483169594659103  0.5233254228296715  0.7259375551051050
  0.7735604417934994  0.4707587017914889  0.4980518920123984
  0.4086689822930012  0.2852106890130699  0.7373575952176949
  0.0085734663354771  0.9597622801080092  0.1010246427247310
  0.4379409994618868  0.6029591655701836  0.3538495626108968
  0.1375200283950662  0.2175358291830420  0.2181381080381826
  0.0359571294386356  0.7970224098205705  0.4653306098786274
  0.7418488741453828  0.3049481014619602  0.3934765536580542
  0.4388845804493329  0.7199515307596798  0.6995294335303299
  0.6495686349794383  0.8864228631718660  0.2892118281753753
  0.3822581141598036  0.8515031302775924  0.8853370705062886
  0.1515254018155119  0.8173815448717150  0.0368174540962229
  0.8126646308839653  0.1664822028887372  0.4941152567101099
  0.7141977206663981  0.8464765009193584  0.4655664239425832
  0.0129217763533092  0.2638183036476036  0.6849192489349534
  0.6997044356376776  0.5714538538501230  0.8504297677418364
  0.2518693371655232  0.3272627658589826  0.0142496619241115
  0.4377328433468790  0.6557197147389928  0.8791399627301359
  0.0684419811155053  0.6706093752272295  0.9141077074161998
  0.5645336925784008  0.9446465205523609  0.0838047392528907
  0.4583648126097373  0.3709464257765944  0.9949295895457553
  0.9086738139985684  0.7989594523437304  0.9984365070920660
  0.6390561662703718  0.1279248365827996  0.3724771076609059
  0.2412114906575553  0.5843967141776787  0.8950905183301572
  0.2485158330195034  0.4841366107206255  0.5548370171203842
  0.5036412171100793  0.1203521022876686  0.8390328807855596
  0.4124824411062065  0.5339562142244674  0.6063594626523354
  0.2062255895114262  0.9103279782654425  0.8178492698614050
  0.0650554954760807  0.0623888414062108  0.9417590367256423
  0.2647082799419422  0.5324967291521006  0.3600410510653163
  0.9552993441046169  0.1449731254169322  0.0627957289514782
  0.2067207224126264  0.3532569473966163  0.6957121033554188
  0.3235592427874678  0.2041483248787443  0.2661240673094909
  0.2711640568389413  0.7398905361556345  0.8081609171486903
  0.8413526444982864  0.7041881793876712  0.4110672464552323
  0.0802911958872343  0.5444284005268116  0.2292677692242364
  0.9713119147952511  0.5756615974356265  0.0701510101273328
  0.1831279333267233  0.2547523990515401  0.4275698792001137
  0.2485004673185003  0.1431473316094340  0.7232422534686549
  0.9517216998566127  0.3289040778409884  0.8899644286901776
  0.8427822832189236  0.3525078302704401  0.2439048796962027
  0.5603692811799945  0.9547535365024018  0.4385682436392528
  0.6891915074016808  0.5517233751008135  0.0456087847368991
  0.3703419923834517  0.0147760075938095  0.8273025790989976
  0.5193116442078178  0.5440284689941635  0.0002365887881624
  0.6299402193775663  0.3318387726312295  0.5247391748315522
  0.6220670022072170  0.7560677902009019  0.6255365858707336
  0.2830937449987019  0.5460596402004185  0.1928125919231221
  0.0661082121494090  0.3493840870719254  0.5367327191129689
  0.7721622425446952  0.8789075137985591  0.6534863907906541
  0.4371706219986891  0.6376155182285004  0.1262606870158933
  0.1743479549408562  0.6267987289441024  0.0738655308913891
  0.6055584090109889  0.7196220876449431  0.9278369756747296
  0.6939291019805296  0.2966724432684202  0.6907411624846844
  0.4688797195251055  0.8650610841678770  0.5886100304079278
  0.3580535317533204  0.3753682837710741  0.3703098803781018
  0.1466411922966699  0.6715145507311817  0.5644001651751083
  0.8501428199205066  0.1623087241243226  0.6619820366177791
  0.0074869920249796  0.3699807777923070  0.2615436648433871
  0.9388721339823860  0.3849312634388298  0.0866220923346930
  0.1241927809408665  0.3845232843780195  0.1213545979411421
  0.4628055547038059  0.1029046869175048  0.3861337321363152
  0.9446445080219874  0.6280779453626693  0.5456469501774919
  0.0068176131976259  0.1044084154197336  0.7565272223611146
  0.0297282522928768  0.6105659748038335  0.6978285621122993
  0.7340351621180474  0.3768714755093967  0.0959373951484466
  0.4606351980503334  0.0395111468908382  0.5739662478321392
 
  0.00000000E+00  0.00000000E+00  0.00000000E+00
  0.00000000E+00  0.00000000E+00  0.00000000E+00
  0.00000000E+00  0.00000000E+00  0.00000000E+00
  0.00000000E+00  0.00000000E+00  0.00000000E+00
  0.00000000E+00  0.00000000E+00  0.00000000E+00
  0.00000000E+00  0.00000000E+00  0.00000000E+00
  0.00000000E+00  0.00000000E+00  0.00000000E+00
  0.00000000E+00  0.00000000E+00  0.00000000E+00
  0.00000000E+00  0.00000000E+00  0.00000000E+00
  0.00000000E+00  0.00000000E+00  0.00000000E+00
  0.00000000E+00  0.00000000E+00  0.00000000E+00
  0.00000000E+00  0.00000000E+00  0.00000000E+00
  0.00000000E+00  0.00000000E+00  0.00000000E+00
  0.00000000E+00  0.00000000E+00  0.00000000E+00
  0.00000000E+00  0.00000000E+00  0.00000000E+00
  0.00000000E+00  0.00000000E+00  0.00000000E+00
  0.00000000E+00  0.00000000E+00  0.00000000E+00
  0.00000000E+00  0.00000000E+00  0.00000000E+00
  0.00000000E+00  0.00000000E+00  0.00000000E+00
  0.00000000E+00  0.00000000E+00  0.00000000E+00
  0.00000000E+00  0.00000000E+00  0.00000000E+00
  0.00000000E+00  0.00000000E+00  0.00000000E+00
  0.00000000E+00  0.00000000E+00  0.00000000E+00
  0.00000000E+00  0.00000000E+00  0.00000000E+00
  0.00000000E+00  0.00000000E+00  0.00000000E+00
  0.00000000E+00  0.00000000E+00  0.00000000E+00
  0.00000000E+00  0.00000000E+00  0.00000000E+00
  0.00000000E+00  0.00000000E+00  0.00000000E+00
  0.00000000E+00  0.00000000E+00  0.00000000E+00
  0.00000000E+00  0.00000000E+00  0.00000000E+00
  0.00000000E+00  0.00000000E+00  0.00000000E+00
  0.00000000E+00  0.00000000E+00  0.00000000E+00
  0.00000000E+00  0.00000000E+00  0.00000000E+00
  0.00000000E+00  0.00000000E+00  0.00000000E+00
  0.00000000E+00  0.00000000E+00  0.00000000E+00
  0.00000000E+00  0.00000000E+00  0.00000000E+00
  0.00000000E+00  0.00000000E+00  0.00000000E+00
  0.00000000E+00  0.00000000E+00  0.00000000E+00
  0.00000000E+00  0.00000000E+00  0.00000000E+00
  0.00000000E+00  0.00000000E+00  0.00000000E+00
  0.00000000E+00  0.00000000E+00  0.00000000E+00
  0.00000000E+00  0.00000000E+00  0.00000000E+00
  0.00000000E+00  0.00000000E+00  0.00000000E+00
  0.00000000E+00  0.00000000E+00  0.00000000E+00
  0.00000000E+00  0.00000000E+00  0.00000000E+00
  0.00000000E+00  0.00000000E+00  0.00000000E+00
  0.00000000E+00  0.00000000E+00  0.00000000E+00
  0.00000000E+00  0.00000000E+00  0.00000000E+00
  0.00000000E+00  0.00000000E+00  0.00000000E+00
  0.00000000E+00  0.00000000E+00  0.00000000E+00
  0.00000000E+00  0.00000000E+00  0.00000000E+00
  0.00000000E+00  0.00000000E+00  0.00000000E+00
  0.00000000E+00  0.00000000E+00  0.00000000E+00
  0.00000000E+00  0.00000000E+00  0.00000000E+00
  0.00000000E+00  0.00000000E+00  0.00000000E+00
  0.00000000E+00  0.00000000E+00  0.00000000E+00
  0.00000000E+00  0.00000000E+00  0.00000000E+00
  0.00000000E+00  0.00000000E+00  0.00000000E+00
  0.00000000E+00  0.00000000E+00  0.00000000E+00
  0.00000000E+00  0.00000000E+00  0.00000000E+00
  0.00000000E+00  0.00000000E+00  0.00000000E+00
  0.00000000E+00  0.00000000E+00  0.00000000E+00
  0.00000000E+00  0.00000000E+00  0.00000000E+00
  0.00000000E+00  0.00000000E+00  0.00000000E+00
  0.00000000E+00  0.00000000E+00  0.00000000E+00
  0.00000000E+00  0.00000000E+00  0.00000000E+00
  0.00000000E+00  0.00000000E+00  0.00000000E+00
  0.00000000E+00  0.00000000E+00  0.00000000E+00
  0.00000000E+00  0.00000000E+00  0.00000000E+00
  0.00000000E+00  0.00000000E+00  0.00000000E+00
  0.00000000E+00  0.00000000E+00  0.00000000E+00
  0.00000000E+00  0.00000000E+00  0.00000000E+00
  0.00000000E+00  0.00000000E+00  0.00000000E+00
  0.00000000E+00  0.00000000E+00  0.00000000E+00
  0.00000000E+00  0.00000000E+00  0.00000000E+00
  0.00000000E+00  0.00000000E+00  0.00000000E+00
  0.00000000E+00  0.00000000E+00  0.00000000E+00
  0.00000000E+00  0.00000000E+00  0.00000000E+00
  0.00000000E+00  0.00000000E+00  0.00000000E+00
  0.00000000E+00  0.00000000E+00  0.00000000E+00
  0.00000000E+00  0.00000000E+00  0.00000000E+00
  0.00000000E+00  0.00000000E+00  0.00000000E+00
  0.00000000E+00  0.00000000E+00  0.00000000E+00
  0.00000000E+00  0.00000000E+00  0.00000000E+00
  0.00000000E+00  0.00000000E+00  0.00000000E+00
  0.00000000E+00  0.00000000E+00  0.00000000E+00
  0.00000000E+00  0.00000000E+00  0.00000000E+00
  0.00000000E+00  0.00000000E+00  0.00000000E+00
  0.00000000E+00  0.00000000E+00  0.00000000E+00
  0.00000000E+00  0.00000000E+00  0.00000000E+00
  0.00000000E+00  0.00000000E+00  0.00000000E+00
  0.00000000E+00  0.00000000E+00  0.00000000E+00
  0.00000000E+00  0.00000000E+00  0.00000000E+00
  0.00000000E+00  0.00000000E+00  0.00000000E+00
  0.00000000E+00  0.00000000E+00  0.00000000E+00
  0.00000000E+00  0.00000000E+00  0.00000000E+00
  0.00000000E+00  0.00000000E+00  0.00000000E+00
  0.00000000E+00  0.00000000E+00  0.00000000E+00
  0.00000000E+00  0.00000000E+00  0.00000000E+00
  0.00000000E+00  0.00000000E+00  0.00000000E+00
  0.00000000E+00  0.00000000E+00  0.00000000E+00
  0.00000000E+00  0.00000000E+00  0.00000000E+00
  0.00000000E+00  0.00000000E+00  0.00000000E+00
  0.00000000E+00  0.00000000E+00  0.00000000E+00
  0.00000000E+00  0.00000000E+00  0.00000000E+00
  0.00000000E+00  0.00000000E+00  0.00000000E+00
  0.00000000E+00  0.00000000E+00  0.00000000E+00
  0.00000000E+00  0.00000000E+00  0.00000000E+00
  0.00000000E+00  0.00000000E+00  0.00000000E+00
  0.00000000E+00  0.00000000E+00  0.00000000E+00
  0.00000000E+00  0.00000000E+00  0.00000000E+00
  0.00000000E+00  0.00000000E+00  0.00000000E+00
  0.00000000E+00  0.00000000E+00  0.00000000E+00
  0.00000000E+00  0.00000000E+00  0.00000000E+00
  0.00000000E+00  0.00000000E+00  0.00000000E+00
  0.00000000E+00  0.00000000E+00  0.00000000E+00
  0.00000000E+00  0.00000000E+00  0.00000000E+00
  0.00000000E+00  0.00000000E+00  0.00000000E+00
  0.00000000E+00  0.00000000E+00  0.00000000E+00
  0.00000000E+00  0.00000000E+00  0.00000000E+00
  0.00000000E+00  0.00000000E+00  0.00000000E+00
  0.00000000E+00  0.00000000E+00  0.00000000E+00
  0.00000000E+00  0.00000000E+00  0.00000000E+00
  0.00000000E+00  0.00000000E+00  0.00000000E+00
  0.00000000E+00  0.00000000E+00  0.00000000E+00
  0.00000000E+00  0.00000000E+00  0.00000000E+00
  0.00000000E+00  0.00000000E+00  0.00000000E+00
  0.00000000E+00  0.00000000E+00  0.00000000E+00
  0.00000000E+00  0.00000000E+00  0.00000000E+00
  0.00000000E+00  0.00000000E+00  0.00000000E+00
  0.00000000E+00  0.00000000E+00  0.00000000E+00
  0.00000000E+00  0.00000000E+00  0.00000000E+00
  0.00000000E+00  0.00000000E+00  0.00000000E+00
  0.00000000E+00  0.00000000E+00  0.00000000E+00
  0.00000000E+00  0.00000000E+00  0.00000000E+00
  0.00000000E+00  0.00000000E+00  0.00000000E+00
  0.00000000E+00  0.00000000E+00  0.00000000E+00
  0.00000000E+00  0.00000000E+00  0.00000000E+00
  0.00000000E+00  0.00000000E+00  0.00000000E+00
  0.00000000E+00  0.00000000E+00  0.00000000E+00
  0.00000000E+00  0.00000000E+00  0.00000000E+00
  0.00000000E+00  0.00000000E+00  0.00000000E+00
  0.00000000E+00  0.00000000E+00  0.00000000E+00
  0.00000000E+00  0.00000000E+00  0.00000000E+00
  0.00000000E+00  0.00000000E+00  0.00000000E+00
  0.00000000E+00  0.00000000E+00  0.00000000E+00
  0.00000000E+00  0.00000000E+00  0.00000000E+00
  0.00000000E+00  0.00000000E+00  0.00000000E+00
  0.00000000E+00  0.00000000E+00  0.00000000E+00
  0.00000000E+00  0.00000000E+00  0.00000000E+00
  0.00000000E+00  0.00000000E+00  0.00000000E+00
  0.00000000E+00  0.00000000E+00  0.00000000E+00
  0.00000000E+00  0.00000000E+00  0.00000000E+00
  0.00000000E+00  0.00000000E+00  0.00000000E+00
  0.00000000E+00  0.00000000E+00  0.00000000E+00
  0.00000000E+00  0.00000000E+00  0.00000000E+00
  0.00000000E+00  0.00000000E+00  0.00000000E+00
  0.00000000E+00  0.00000000E+00  0.00000000E+00
  0.00000000E+00  0.00000000E+00  0.00000000E+00
  0.00000000E+00  0.00000000E+00  0.00000000E+00
  0.00000000E+00  0.00000000E+00  0.00000000E+00
  0.00000000E+00  0.00000000E+00  0.00000000E+00
  0.00000000E+00  0.00000000E+00  0.00000000E+00
  0.00000000E+00  0.00000000E+00  0.00000000E+00
  0.00000000E+00  0.00000000E+00  0.00000000E+00
  0.00000000E+00  0.00000000E+00  0.00000000E+00
  0.00000000E+00  0.00000000E+00  0.00000000E+00
  0.00000000E+00  0.00000000E+00  0.00000000E+00
  0.00000000E+00  0.00000000E+00  0.00000000E+00
  0.00000000E+00  0.00000000E+00  0.00000000E+00
  0.00000000E+00  0.00000000E+00  0.00000000E+00
  0.00000000E+00  0.00000000E+00  0.00000000E+00
  0.00000000E+00  0.00000000E+00  0.00000000E+00
  0.00000000E+00  0.00000000E+00  0.00000000E+00
  0.00000000E+00  0.00000000E+00  0.00000000E+00
  0.00000000E+00  0.00000000E+00  0.00000000E+00
  0.00000000E+00  0.00000000E+00  0.00000000E+00
  0.00000000E+00  0.00000000E+00  0.00000000E+00
  0.00000000E+00  0.00000000E+00  0.00000000E+00
  0.00000000E+00  0.00000000E+00  0.00000000E+00
  0.00000000E+00  0.00000000E+00  0.00000000E+00
  0.00000000E+00  0.00000000E+00  0.00000000E+00
  0.00000000E+00  0.00000000E+00  0.00000000E+00
  0.00000000E+00  0.00000000E+00  0.00000000E+00
  0.00000000E+00  0.00000000E+00  0.00000000E+00
  0.00000000E+00  0.00000000E+00  0.00000000E+00
  0.00000000E+00  0.00000000E+00  0.00000000E+00
  0.00000000E+00  0.00000000E+00  0.00000000E+00
  0.00000000E+00  0.00000000E+00  0.00000000E+00
  0.00000000E+00  0.00000000E+00  0.00000000E+00
  0.00000000E+00  0.00000000E+00  0.00000000E+00
  0.00000000E+00  0.00000000E+00  0.00000000E+00
  0.00000000E+00  0.00000000E+00  0.00000000E+00
  0.00000000E+00  0.00000000E+00  0.00000000E+00
  0.00000000E+00  0.00000000E+00  0.00000000E+00
  0.00000000E+00  0.00000000E+00  0.00000000E+00
  0.00000000E+00  0.00000000E+00  0.00000000E+00
  0.00000000E+00  0.00000000E+00  0.00000000E+00
  0.00000000E+00  0.00000000E+00  0.00000000E+00
  0.00000000E+00  0.00000000E+00  0.00000000E+00
  0.00000000E+00  0.00000000E+00  0.00000000E+00
  0.00000000E+00  0.00000000E+00  0.00000000E+00
  0.00000000E+00  0.00000000E+00  0.00000000E+00
  0.00000000E+00  0.00000000E+00  0.00000000E+00
  0.00000000E+00  0.00000000E+00  0.00000000E+00
  0.00000000E+00  0.00000000E+00  0.00000000E+00
  0.00000000E+00  0.00000000E+00  0.00000000E+00
  0.00000000E+00  0.00000000E+00  0.00000000E+00
  0.00000000E+00  0.00000000E+00  0.00000000E+00
  0.00000000E+00  0.00000000E+00  0.00000000E+00
  0.00000000E+00  0.00000000E+00  0.00000000E+00
  0.00000000E+00  0.00000000E+00  0.00000000E+00
  0.00000000E+00  0.00000000E+00  0.00000000E+00
  0.00000000E+00  0.00000000E+00  0.00000000E+00
  0.00000000E+00  0.00000000E+00  0.00000000E+00
  0.00000000E+00  0.00000000E+00  0.00000000E+00
  0.00000000E+00  0.00000000E+00  0.00000000E+00
  0.00000000E+00  0.00000000E+00  0.00000000E+00
  0.00000000E+00  0.00000000E+00  0.00000000E+00
  0.00000000E+00  0.00000000E+00  0.00000000E+00
  0.00000000E+00  0.00000000E+00  0.00000000E+00
  0.00000000E+00  0.00000000E+00  0.00000000E+00
  0.00000000E+00  0.00000000E+00  0.00000000E+00
  0.00000000E+00  0.00000000E+00  0.00000000E+00
  0.00000000E+00  0.00000000E+00  0.00000000E+00
  0.00000000E+00  0.00000000E+00  0.00000000E+00
  0.00000000E+00  0.00000000E+00  0.00000000E+00
  0.00000000E+00  0.00000000E+00  0.00000000E+00
  0.00000000E+00  0.00000000E+00  0.00000000E+00
  0.00000000E+00  0.00000000E+00  0.00000000E+00
  0.00000000E+00  0.00000000E+00  0.00000000E+00
  0.00000000E+00  0.00000000E+00  0.00000000E+00