Ge Se                                   
   1.00000000000000     
    19.7402305603027344    0.0000000000000000    0.0000000000000000
     0.0000000000000000   19.7402305603027344    0.0000000000000000
     0.0000000000000000    0.0000000000000000   19.7402305603027344
   Ge   Se
   150   150
Direct
  0.7673989814345825  0.2457154937745759  0.0527431015922371
  0.6989172974903834  0.7566898325393442  0.8721152561583101
  0.9083510958136776  0.7852728296910696  0.1716067428470415
  0.0043534062823982  0.3577578953156597  0.5764462702160995
  0.8423705564491816  0.4575361856104667  0.1414556761821194
  0.0799752182833953  0.1024600125739549  0.5663352049211856
  0.3453230489962437  0.3983250217297215  0.0211631579331795
  0.1847814625107168  0.8512761330248084  0.0195880416914304
  0.2452858358892114  0.6813596048519085  0.4780537387123073
  0.9017427455017570  0.0964988405573977  0.3893113161671633
  0.8609941873066920  0.7224629133598236  0.9943363200741181
  0.6011977595036364  0.5080181686867822  0.1692209021426710
  0.9193886275155003  0.4462403411403018  0.8205935513218321
  0.5923156631062173  0.8823335007288879  0.8637265172017364
  0.7787592578438001  0.2745091856413899  0.1806439612367782
  0.8237412807627309  0.0295253766053006  0.8766861020721748
  0.7973701354170402  0.2448019110868101  0.3593699914484054
  0.5736539660269551  0.0984969428881077  0.8221452716148434
  0.1641064770388958  0.6809542464052193  0.6508974520202526
  0.0146078435138895  0.0725971192535099  0.4578752923392859
  0.0350570016519159  0.1390813394016590  0.0715034578380997
  0.0858499258281955  0.5705299229197018  0.7534968357652542
  0.0465760586769433  0.6755824970876233  0.2447148236995595
  0.0727519482831512  0.8035276949143076  0.2767781854026969
  0.6574057913707980  0.8172711928175462  0.6910817584092281
  0.5278858282284641  0.2838811119738170  0.6749228737490240
  0.1997351843515426  0.1269379237763582  0.4256222662344776
  0.4296378368339670  0.2274728920851564  0.9423057791556708
  0.9482427724408862  0.4664499750647177  0.3243658088558683
  0.1714630137470868  0.2957357654176601  0.5683235602472148
  0.1091743207416794  0.3378383591845932  0.9082996704628635
  0.4098606695983107  0.6398913348779022  0.4038140197621899
  0.1477334120034145  0.6337696339416978  0.8899401673880135
  0.2267844289148230  0.5256479659265110  0.3608127649290321
  0.8124773816237254  0.6285515160267188  0.4084461322360095
  0.1726063414368855  0.8119814042917266  0.7043961896935875
  0.9130012255785885  0.7616587323583390  0.3840913126678013
  0.2980101702177539  0.8450357577699023  0.7540327700825353
  0.1175234386787120  0.2491592985123366  0.6783126303725844
  0.0414366383949883  0.8201497711884599  0.6356973932279170
  0.6248298184894390  0.4591781939487533  0.7948719775592260
  0.4951636325123578  0.4810476851536981  0.4748729804895552
  0.6152661599518108  0.1975553248086728  0.3387888191288770
  0.7603796611627920  0.9539222319139719  0.3514799744098185
  0.2876965953297379  0.6976828426608286  0.2218366923137520
  0.3542472055573677  0.0739343650623043  0.1008000752001228
  0.9873401770344880  0.8787407828986845  0.9530848404760097
  0.1365892475134881  0.3042641563417276  0.4407342526552097
  0.3841213251589788  0.2627627806944834  0.3315070583266250
  0.5523492157439202  0.8867803229935353  0.3576689709967407
  0.7811861212175925  0.3039356205800779  0.8704694759504703
  0.1693799562697100  0.8404452069761877  0.8828550265475508
  0.5334026231490309  0.7988796600159650  0.2007615856236605
  0.3725310561343607  0.9445742359976699  0.7129278206052776
  0.2297442663096996  0.2732049978528985  0.1427856387513239
  0.6214716155890856  0.3541453179992055  0.6165054433032843
  0.3338463492642952  0.5443256043498474  0.1600888312116754
  0.5233535291248200  0.3354406019814734  0.0829096629272013
  0.9678074532900858  0.2654529294245369  0.7781652807367825
  0.3972386550529480  0.1118324966320296  0.8348484984046138
  0.0604738927758576  0.4588605243553993  0.1436629186356091
  0.9094204389164471  0.6101346904966183  0.7630471787564946
  0.6748130996393554  0.6715530655851499  0.1517573390393582
  0.1619605921267306  0.9039387921640722  0.4507108448017527
  0.3140381513051348  0.3714462089598254  0.3013896542272370
  0.4924459874247700  0.2182860212667777  0.1161233530770916
  0.7210417971830805  0.1412618249794290  0.5059213345781430
  0.4046612132051435  0.1530444948480613  0.1834206743862736
  0.1492613309535828  0.1935991589875867  0.7931394941486825
  0.3578461111754935  0.2394524009940510  0.5172305148397437
  0.6058182985299945  0.2616089737972492  0.9573646954367269
  0.5797371112954983  0.9156075529253330  0.4959110839558465
  0.3565023734516948  0.9362451495778734  0.5404807017110217
  0.2483952133933212  0.5150860668145943  0.5918077871590997
  0.2130027844058326  0.4897725622170246  0.1416768233514838
  0.0573580184815295  0.4868619569686414  0.4896141583376391
  0.0549988846496564  0.1486204833740538  0.8887580922763325
  0.6155732763109268  0.0172759799957379  0.3933322033596108
  0.8338818861472258  0.7858723041278131  0.5941557126386655
  0.8730734806026446  0.3829357068751622  0.4635173156145171
  0.1139531657512838  0.0214592264952683  0.0200760813657532
  0.5302568070818978  0.9754760188467997  0.6005560783727864
  0.3229560982492010  0.9457397903202127  0.3543420926238192
  0.6550870471196332  0.6144129500800061  0.3615449454880864
  0.7603179009474389  0.2696214383385536  0.5137852027988221
  0.6709844162456230  0.8122361255952820  0.4779201464653333
  0.5227653694271436  0.4736072828440235  0.3476229238028389
  0.3879047792754911  0.3959950430699020  0.7287991274728334
  0.7646906610373100  0.0814192386701191  0.6808272138155513
  0.4260016542136804  0.9306401220948556  0.1786596673744724
  0.4880002363020899  0.6141126491309863  0.0198613133375034
  0.5569038907277264  0.6977492558760013  0.8842061096463303
  0.2160306497187926  0.6328837768310741  0.0812235774816004
  0.5031009279667219  0.4905395331318935  0.8797750423692918
  0.3958810436737803  0.3092409805719142  0.8278361168740400
  0.1862629466025046  0.3489187940706336  0.3254206264804513
  0.0750977563405954  0.9182572799884727  0.5549103562221789
  0.1434307111499724  0.1589167311885842  0.2828274646986669
  0.9073808497842847  0.9919354971523431  0.6560287342603909
  0.7499523007968190  0.5558757145865292  0.8847331694088897
  0.5173492813668756  0.1634642564032341  0.6208098304986706
  0.6299467189258163 -0.0110976604978910  0.6859105548282660
  0.7079438672801024  0.9148041354956985  0.9784255626730213
  0.2046426575769667  0.8399942968259867  0.5719111587955318
 -0.0063882451779524  0.9310867286650274  0.3812694385146331
  0.8404997600483116  0.4171937071802571  0.9383245488960883
  0.2555044762402675  0.1319914401110117  0.7514002115318367
  0.6087319714658626  0.1942285330751108  0.1681561496625872
  0.3638029692903080  0.0831127218105382  0.4211555158641740
  0.5221574976482691  0.7501902947259451  0.3397306502554374
  0.6598307813783778  0.5754681319583682  0.9903931893981188
  0.8191739289433679  0.5204873637925339  0.6093831132580168
  0.9843549806056772  0.6432767624205966  0.5983813411183052
  0.2997396104457219  0.6249427350465270  0.3270663617136778
  0.0254169602471484  0.4964151824943241  0.9697420735669577
  0.9228911234789939  0.9615752679616677  0.2761448513932216
  0.4602573102247245  0.9161588814647413 -0.0024520709435202
  0.7344685622614918  0.0639875164138948  0.2050824475918087
  0.7099332864015242  0.6340438247546200  0.6951958895235312
  0.7701884741592676  0.0135255692067892  0.0386740573492909
  0.2485014740965473  0.4505722375171025  0.8437563509742237
  0.3189494522202668  0.1002098890846588  0.6358884605377797
  0.8746216807020309  0.1645946637332242  0.0760513336040841
  0.2574970268171272  0.8211231972981824  0.3554061137826999
  0.5277927469805563  0.7470570859621555  0.6126865054640644
  0.8002893832161774  0.9666234125496382  0.4824163903248426
  0.7711730809079915  0.5265921697605537  0.2468172042248017
  0.5301260486272735  0.0906777969616926  0.4609151186525899
  0.9698970193181840  0.9892393119369974  0.8844920181435187
  0.6862587392214413  0.5094142006904377  0.4442846230230976
  0.0595601514029596  0.0438300693567687  0.1583774502018206
  0.4472972584186597  0.0650069524152021  0.2716567619290344
  0.4949591526566897  0.4343681310641193  0.1570183879139822
  0.3215456379934055  0.5693353293972612  0.9535882544954938
  0.4675679259179588  0.8340049321461118  0.7892622455833381
  0.7594446451566303  0.8530928996232732  0.1440974545377662
  0.3430913829948523  0.7396506992867772  0.8784600102943663
  0.0174719683626363  0.9005113702613624  0.8013920406221644
  0.5334822429674723  0.6133244409917827  0.3146892920457418
  0.7442491683469139  0.1504454796058678  0.7895463406821128
  0.4442489493719751  0.4053408366033936  0.2706359797664138
  0.9529803523834021  0.6148357311906266  0.0896736485891586
  0.3874329020793336  0.6163557249827288  0.5364413670260577
  0.4450027823943473  0.0651094931054106  0.5588216564132839
  0.2588123847646022 -0.0065255394690742  0.1386920109184654
  0.9453126944505427  0.1343115176587586  0.7648918615474453
  0.9357036107653928  0.5693396078279513  0.9050807433517571
  0.9606629554793618  0.2362949779362470  0.2548147415728349
  0.2290679811530349  0.8560481384706237  0.1673746782604373
  0.8005371300165034  0.3699133200498315  0.6337026889540890
  0.6006565305242298  0.7136284447859161  0.4366592203718410
  0.4386534657814234  0.5994998935649173  0.7275855243824031
  0.4884032115553818  0.6219485529349146  0.6173275618317342
  0.9628597748722554  0.9584655526735751  0.5009964311257772
  0.3919813242634435  0.4916139483126293  0.5417716069987828
  0.6111416465673409  0.1191250750294281  0.6959978476774078
  0.1234371054625413  0.4133203282852317  0.5875667485423929
  0.0654427651362394  0.8842803037969921  0.0486542988223811
  0.3771027738183625  0.7480181953732093  0.7497466004770811
  0.2771284189168979  0.4454375478939454  0.7158547267225676
  0.1835613197097734  0.5648736125655173  0.4697077188023767
  0.0457577118217651  0.3427759807575808  0.7202024690150900
  0.9555415103184235  0.5146366270359490  0.1990881586445377
  0.9698155074155456  0.2380076126283335  0.1165828205955034
  0.5844957273284626  0.1905482459691582  0.5137977201737237
  0.8369648865044375  0.1850428153275793  0.2462040573171917
  0.5253264520445544  0.1636413065573825  0.0068918546372040
  0.2754320242323149  0.9777001974925913  0.6381434316383330
  0.7462344386652793  0.7465679010941050  0.7508656784476956
  0.9476328279038781  0.8680541404310957  0.7053039277324578
  0.3050485679033954  0.2113973055896233  0.2275267722575204
  0.7019496082019949  0.5243829672079804  0.1014932722154556
  0.5881369903231101  0.5455178972904934  0.5189073278074919
  0.5844012130551022  0.9536549734013910  0.9687949711597206
  0.5951190377442901  0.1019509279796639  0.2523749966684366
  0.1188884633567626  0.3421409225658700  0.0320459338126351
  0.1788718968206684  0.0917881886512104  0.1558439201131916
  0.8450482407628641  0.3595761962845231  0.0488958572444686
  0.5493430238280665 -0.0242697974209473  0.7868071178654091
  0.4361120497030433  0.9666671903769710  0.4098595799150211
  0.4793138795963083  0.4869788280105301  0.7376769648195162
  0.0978602017442763  0.4561468037901978  0.8751715116657175
  0.7256043516377063  0.1350709373572557  0.3781713872592354
  0.4614021141981946  0.1521188105900083  0.3682290890293546
  0.8266149737568863  0.6813668171450692  0.1024787144977598
  0.3385273140317374  0.2497981738447894  0.0277541445571946
  0.1310987443196224  0.5601645233615867  0.6313941466268316
  0.6896715334885212  0.2600243682899572  0.7989715894452314
  0.1696718185589694  0.8869549723073540  0.2775199494424920
  0.0384285301481409  0.8149074350551495  0.3972708853892135
  0.2832193456805502  0.0559452270024876  0.8426797250459001
  0.4159666827794152  0.3288747528870798  0.4403202268951986
  0.6809201282774140  0.8547595412596833  0.3559389437470670
  0.6919124706348114  0.9653797776305206  0.1311392709242096
  0.2882494188446595  0.3860165692187618  0.1724948685185800
  0.0006595358186282  0.2810296307953086  0.9002993125337436
  0.1424295322360104  0.9147020659761950  0.7751331282864129
  0.2556731593850279  0.5801591140661465  0.8429949200423670
  0.6583642069537426  0.7882624695895016  0.2041398781340449
  0.3589956315771461  0.2095134019726317  0.7546726002274003
  0.3137786593985692  0.0612808176542434  0.3016211445782119
  0.9194306371080669  0.7001385231215369  0.2715626430161210
  0.8450498014262018  0.0824520231958703  0.5055533469568473
  0.7244024167955466  0.8854278858999716  0.8569567798374870
  0.4126661441497222  0.7637856580684772  0.3987914807138062
  0.5553235351535168  0.7506344582060455  0.7397696385700159
  0.6436259462675027  0.3229164406126968  0.0655023510680468
  0.2593780330219609  0.9846171428241834  0.4637197919523335
  0.0213149280290325  0.1190289457937693  0.2614024084868599
  0.3165874211724592  0.1312908159331739 -0.0023868320455842
  0.8710748550797002  0.1461469168208661  0.6635146744517258
  0.4168333134641939  0.4943919883954347  0.0802085388920304
  0.1939442409534948  0.7079039354116007  0.3572575571082713
  0.4992135258156096  0.3418616246028838  0.9612080309384666
  0.0211915301822243  0.1904931839898417  0.6267250395936549
  0.6551699839964419  0.4721438686177064  0.2746347199836645
  0.0054043856615741  0.3878388812548564  0.0381467363942036
  0.2878011137787472  0.3167664538412186  0.5896944069955320
  0.0816196447780809  0.5604235768442262  0.0628812664651736
  0.2339532164981067  0.9762057187795117  0.0122488435653119
  0.4642646383994035  0.7882360211938141  0.9165850317001006
  0.5566393113108047  0.5050900636748077  0.0047556021230417
  0.5465311412838689  0.9220544499921682  0.2314925310950776
  0.9793858090011934  0.5113461952641630  0.7176200315627816
  0.4906513211116993  0.2892018360456355  0.2613190176642257
  0.1947911259826606  0.1452465141862262  0.5553477097930138
  0.8177234166251353  0.9871917884034429  0.7543782154884902
  0.8197362405870577  0.5153817151277478  0.7752635187132431
  0.8683848575204097  0.0599955066254281  0.1575921936344621
  0.3464739968426620  0.6620562334994422  0.1162177604174948
  0.6746506554847722  0.0041743290271312  0.5077961916117937
  0.1773566733737604  0.7194695128960268  0.1711553172446026
  0.3939727058738679  0.5483330527469716  0.2650966470710816
  0.0874655283984268  0.1957792167335972  0.4051443323388854
  0.5184562765059967  0.2942883871186472  0.7975960166258546
  0.7157898272660701  0.8064040204034477  0.0307072807843317
  0.6421626290697526  0.5881924591285097  0.8039586996016088
  0.2420891081011970  0.4735276251114580  0.0149762705705923
  0.1925473633367141  0.7359615770609033  0.8140680325381325
  0.2942150856551760  0.6334506329417786  0.6188346491395755
  0.0257785063527525  0.7967281240632013  0.8688125031008641
  0.1375383053361481  0.4642334652777115  0.3000878220832164
  0.1303733975684156  0.1628775858919560 -0.0060236656943475
  0.3092445471277327  0.4464791631583137  0.3998855184881575
  0.4528560325518438  0.8342561973104529  0.0939457601892508
  0.8397154606901951  0.3670810587119528  0.2328668246471873
  0.5972701025253379  0.6863632811004634  0.0110496258141193
  0.5361726923257416  0.3586388301225858  0.4974186339283544
  0.8752459842210705  0.9578939032035869  0.0880563025859661
  0.9417427933119331  0.6393229309418800  0.4437623991979280
  0.2115008766000777  0.7033784006110528  0.9780011841497844
  0.9454188289614328  0.1103852544811443  0.9878403988130589
  0.4527448722097506  0.8836805281531828  0.6369515640596684
  0.9297279082585950  0.4696531814892683  0.5443196850406381
  0.8607511948152138  0.6387846969644537  0.6427494024048888
  0.0833989638361692  0.0068907114487467  0.6415559021220251
  0.8773246752191366  0.2871093899076680  0.5568478140279217
  0.2764623970245422  0.2304716059499731  0.4157119703492688
  0.7149689142616140  0.2684276429020533  0.6326381075374896
  0.3723996218122045  0.4547470817294462  0.9040527387019275
  0.9600980840393112  0.7673749425103824  0.5535086162933140
  0.8461542245860438  0.5345434884026531  0.9876004944804715
  0.8082051342326495  0.6905017309172357  0.8892729416732732
  0.0164896264697587  0.7218126562100188  0.1276008197934302
  0.7572980340992579  0.5904185224616292  0.5188398261342020
  0.0972600709887273  0.0032622670399385  0.3862153865452238
  0.3173124824250292  0.8099369145227883  0.5408516545133694
  0.0277905118889386  0.3692486704447827  0.4376754363669428
  0.1392880123250030  0.7336940511075697  0.5360513854676726
  0.4216509021947800  0.0595611260460981  0.7144334853437985
  0.4359734073727475  0.3471780416649083  0.6231272499618948
  0.6023745901648612  0.3842727625023727  0.3965955050044714
  0.0118298209913736  0.5680592925994153  0.3741664167976828
  0.3020281360220874  0.8668065048120109  0.8775480597314803
  0.6959533430081831  0.1369119914623406  0.1015011712095173
  0.9153784472440569  0.2200609945539262  0.3996453451287747
  0.1291064966482356  0.2821850220286125  0.2329505068082435
  0.5524951769234673  0.6230216761232491  0.1875952405208110
  0.6909140055826039  0.0820906548778403  0.8788752058091348
  0.0387439161405870  0.6859972875882038  0.7122003235204672
  0.4555771754750267  0.6112956259576223  0.8885806018881257
  0.6742476900525954  0.4493138237836425  0.6776830004880123
  0.8640937620637649  0.3378488083377200  0.7680479612162403
  0.2050743076084722  0.2884327991672856  0.8525965229211503
  0.9739306159672283  0.6728908288065990  0.9697849236819078
  0.7487597157487155  0.3977160743785780  0.5081417627559361
  0.7131193124548570  0.4174614573784646  0.8963345073682863
  0.3304419446373946  0.8127581032621608  0.2390072809332880
  0.8521293248502513  0.1556723769191213  0.8559670570892107
  0.8295592658756531  0.5054983470697064  0.3624624842288905
  0.8414279237328525  0.8695548592451859  0.3055079640650772
  0.7353731740821118  0.6487479355836699  0.2663744104306188
  0.0937794020274202  0.0148616422931982  0.8933327325354865
  0.8087336050744619  0.9196267156933778  0.5983984585319267
  0.6656527560842838  0.2794838959926477  0.2412719216731685
  0.4656882655932195  0.0170455380527508  0.0908620824253344
  0.7957267684674934  0.7794266541300519  0.4718148898184161
  0.0001361751895749  0.8825208817677396  0.2115151568261378
  0.8748962929538991  0.8447337314135378  0.9903097911024439
  0.6559049829189617  0.7221996947412826  0.6026245697859248
 
  0.00000000E+00  0.00000000E+00  0.00000000E+00
  0.00000000E+00  0.00000000E+00  0.00000000E+00
  0.00000000E+00  0.00000000E+00  0.00000000E+00
  0.00000000E+00  0.00000000E+00  0.00000000E+00
  0.00000000E+00  0.00000000E+00  0.00000000E+00
  0.00000000E+00  0.00000000E+00  0.00000000E+00
  0.00000000E+00  0.00000000E+00  0.00000000E+00
  0.00000000E+00  0.00000000E+00  0.00000000E+00
  0.00000000E+00  0.00000000E+00  0.00000000E+00
  0.00000000E+00  0.00000000E+00  0.00000000E+00
  0.00000000E+00  0.00000000E+00  0.00000000E+00
  0.00000000E+00  0.00000000E+00  0.00000000E+00
  0.00000000E+00  0.00000000E+00  0.00000000E+00
  0.00000000E+00  0.00000000E+00  0.00000000E+00
  0.00000000E+00  0.00000000E+00  0.00000000E+00
  0.00000000E+00  0.00000000E+00  0.00000000E+00
  0.00000000E+00  0.00000000E+00  0.00000000E+00
  0.00000000E+00  0.00000000E+00  0.00000000E+00
  0.00000000E+00  0.00000000E+00  0.00000000E+00
  0.00000000E+00  0.00000000E+00  0.00000000E+00
  0.00000000E+00  0.00000000E+00  0.00000000E+00
  0.00000000E+00  0.00000000E+00  0.00000000E+00
  0.00000000E+00  0.00000000E+00  0.00000000E+00
  0.00000000E+00  0.00000000E+00  0.00000000E+00
  0.00000000E+00  0.00000000E+00  0.00000000E+00
  0.00000000E+00  0.00000000E+00  0.00000000E+00
  0.00000000E+00  0.00000000E+00  0.00000000E+00
  0.00000000E+00  0.00000000E+00  0.00000000E+00
  0.00000000E+00  0.00000000E+00  0.00000000E+00
  0.00000000E+00  0.00000000E+00  0.00000000E+00
  0.00000000E+00  0.00000000E+00  0.00000000E+00
  0.00000000E+00  0.00000000E+00  0.00000000E+00
  0.00000000E+00  0.00000000E+00  0.00000000E+00
  0.00000000E+00  0.00000000E+00  0.00000000E+00
  0.00000000E+00  0.00000000E+00  0.00000000E+00
  0.00000000E+00  0.00000000E+00  0.00000000E+00
  0.00000000E+00  0.00000000E+00  0.00000000E+00
  0.00000000E+00  0.00000000E+00  0.00000000E+00
  0.00000000E+00  0.00000000E+00  0.00000000E+00
  0.00000000E+00  0.00000000E+00  0.00000000E+00
  0.00000000E+00  0.00000000E+00  0.00000000E+00
  0.00000000E+00  0.00000000E+00  0.00000000E+00
  0.00000000E+00  0.00000000E+00  0.00000000E+00
  0.00000000E+00  0.00000000E+00  0.00000000E+00
  0.00000000E+00  0.00000000E+00  0.00000000E+00
  0.00000000E+00  0.00000000E+00  0.00000000E+00
  0.00000000E+00  0.00000000E+00  0.00000000E+00
  0.00000000E+00  0.00000000E+00  0.00000000E+00
  0.00000000E+00  0.00000000E+00  0.00000000E+00
  0.00000000E+00  0.00000000E+00  0.00000000E+00
  0.00000000E+00  0.00000000E+00  0.00000000E+00
  0.00000000E+00  0.00000000E+00  0.00000000E+00
  0.00000000E+00  0.00000000E+00  0.00000000E+00
  0.00000000E+00  0.00000000E+00  0.00000000E+00
  0.00000000E+00  0.00000000E+00  0.00000000E+00
  0.00000000E+00  0.00000000E+00  0.00000000E+00
  0.00000000E+00  0.00000000E+00  0.00000000E+00
  0.00000000E+00  0.00000000E+00  0.00000000E+00
  0.00000000E+00  0.00000000E+00  0.00000000E+00
  0.00000000E+00  0.00000000E+00  0.00000000E+00
  0.00000000E+00  0.00000000E+00  0.00000000E+00
  0.00000000E+00  0.00000000E+00  0.00000000E+00
  0.00000000E+00  0.00000000E+00  0.00000000E+00
  0.00000000E+00  0.00000000E+00  0.00000000E+00
  0.00000000E+00  0.00000000E+00  0.00000000E+00
  0.00000000E+00  0.00000000E+00  0.00000000E+00
  0.00000000E+00  0.00000000E+00  0.00000000E+00
  0.00000000E+00  0.00000000E+00  0.00000000E+00
  0.00000000E+00  0.00000000E+00  0.00000000E+00
  0.00000000E+00  0.00000000E+00  0.00000000E+00
  0.00000000E+00  0.00000000E+00  0.00000000E+00
  0.00000000E+00  0.00000000E+00  0.00000000E+00
  0.00000000E+00  0.00000000E+00  0.00000000E+00
  0.00000000E+00  0.00000000E+00  0.00000000E+00
  0.00000000E+00  0.00000000E+00  0.00000000E+00
  0.00000000E+00  0.00000000E+00  0.00000000E+00
  0.00000000E+00  0.00000000E+00  0.00000000E+00
  0.00000000E+00  0.00000000E+00  0.00000000E+00
  0.00000000E+00  0.00000000E+00  0.00000000E+00
  0.00000000E+00  0.00000000E+00  0.00000000E+00
  0.00000000E+00  0.00000000E+00  0.00000000E+00
  0.00000000E+00  0.00000000E+00  0.00000000E+00
  0.00000000E+00  0.00000000E+00  0.00000000E+00
  0.00000000E+00  0.00000000E+00  0.00000000E+00
  0.00000000E+00  0.00000000E+00  0.00000000E+00
  0.00000000E+00  0.00000000E+00  0.00000000E+00
  0.00000000E+00  0.00000000E+00  0.00000000E+00
  0.00000000E+00  0.00000000E+00  0.00000000E+00
  0.00000000E+00  0.00000000E+00  0.00000000E+00
  0.00000000E+00  0.00000000E+00  0.00000000E+00
  0.00000000E+00  0.00000000E+00  0.00000000E+00
  0.00000000E+00  0.00000000E+00  0.00000000E+00
  0.00000000E+00  0.00000000E+00  0.00000000E+00
  0.00000000E+00  0.00000000E+00  0.00000000E+00
  0.00000000E+00  0.00000000E+00  0.00000000E+00
  0.00000000E+00  0.00000000E+00  0.00000000E+00
  0.00000000E+00  0.00000000E+00  0.00000000E+00
  0.00000000E+00  0.00000000E+00  0.00000000E+00
  0.00000000E+00  0.00000000E+00  0.00000000E+00
  0.00000000E+00  0.00000000E+00  0.00000000E+00
  0.00000000E+00  0.00000000E+00  0.00000000E+00
  0.00000000E+00  0.00000000E+00  0.00000000E+00
  0.00000000E+00  0.00000000E+00  0.00000000E+00
  0.00000000E+00  0.00000000E+00  0.00000000E+00
  0.00000000E+00  0.00000000E+00  0.00000000E+00
  0.00000000E+00  0.00000000E+00  0.00000000E+00
  0.00000000E+00  0.00000000E+00  0.00000000E+00
  0.00000000E+00  0.00000000E+00  0.00000000E+00
  0.00000000E+00  0.00000000E+00  0.00000000E+00
  0.00000000E+00  0.00000000E+00  0.00000000E+00
  0.00000000E+00  0.00000000E+00  0.00000000E+00
  0.00000000E+00  0.00000000E+00  0.00000000E+00
  0.00000000E+00  0.00000000E+00  0.00000000E+00
  0.00000000E+00  0.00000000E+00  0.00000000E+00
  0.00000000E+00  0.00000000E+00  0.00000000E+00
  0.00000000E+00  0.00000000E+00  0.00000000E+00
  0.00000000E+00  0.00000000E+00  0.00000000E+00
  0.00000000E+00  0.00000000E+00  0.00000000E+00
  0.00000000E+00  0.00000000E+00  0.00000000E+00
  0.00000000E+00  0.00000000E+00  0.00000000E+00
  0.00000000E+00  0.00000000E+00  0.00000000E+00
  0.00000000E+00  0.00000000E+00  0.00000000E+00
  0.00000000E+00  0.00000000E+00  0.00000000E+00
  0.00000000E+00  0.00000000E+00  0.00000000E+00
  0.00000000E+00  0.00000000E+00  0.00000000E+00
  0.00000000E+00  0.00000000E+00  0.00000000E+00
  0.00000000E+00  0.00000000E+00  0.00000000E+00
  0.00000000E+00  0.00000000E+00  0.00000000E+00
  0.00000000E+00  0.00000000E+00  0.00000000E+00
  0.00000000E+00  0.00000000E+00  0.00000000E+00
  0.00000000E+00  0.00000000E+00  0.00000000E+00
  0.00000000E+00  0.00000000E+00  0.00000000E+00
  0.00000000E+00  0.00000000E+00  0.00000000E+00
  0.00000000E+00  0.00000000E+00  0.00000000E+00
  0.00000000E+00  0.00000000E+00  0.00000000E+00
  0.00000000E+00  0.00000000E+00  0.00000000E+00
  0.00000000E+00  0.00000000E+00  0.00000000E+00
  0.00000000E+00  0.00000000E+00  0.00000000E+00
  0.00000000E+00  0.00000000E+00  0.00000000E+00
  0.00000000E+00  0.00000000E+00  0.00000000E+00
  0.00000000E+00  0.00000000E+00  0.00000000E+00
  0.00000000E+00  0.00000000E+00  0.00000000E+00
  0.00000000E+00  0.00000000E+00  0.00000000E+00
  0.00000000E+00  0.00000000E+00  0.00000000E+00
  0.00000000E+00  0.00000000E+00  0.00000000E+00
  0.00000000E+00  0.00000000E+00  0.00000000E+00
  0.00000000E+00  0.00000000E+00  0.00000000E+00
  0.00000000E+00  0.00000000E+00  0.00000000E+00
  0.00000000E+00  0.00000000E+00  0.00000000E+00
  0.00000000E+00  0.00000000E+00  0.00000000E+00
  0.00000000E+00  0.00000000E+00  0.00000000E+00
  0.00000000E+00  0.00000000E+00  0.00000000E+00
  0.00000000E+00  0.00000000E+00  0.00000000E+00
  0.00000000E+00  0.00000000E+00  0.00000000E+00
  0.00000000E+00  0.00000000E+00  0.00000000E+00
  0.00000000E+00  0.00000000E+00  0.00000000E+00
  0.00000000E+00  0.00000000E+00  0.00000000E+00
  0.00000000E+00  0.00000000E+00  0.00000000E+00
  0.00000000E+00  0.00000000E+00  0.00000000E+00
  0.00000000E+00  0.00000000E+00  0.00000000E+00
  0.00000000E+00  0.00000000E+00  0.00000000E+00
  0.00000000E+00  0.00000000E+00  0.00000000E+00
  0.00000000E+00  0.00000000E+00  0.00000000E+00
  0.00000000E+00  0.00000000E+00  0.00000000E+00
  0.00000000E+00  0.00000000E+00  0.00000000E+00
  0.00000000E+00  0.00000000E+00  0.00000000E+00
  0.00000000E+00  0.00000000E+00  0.00000000E+00
  0.00000000E+00  0.00000000E+00  0.00000000E+00
  0.00000000E+00  0.00000000E+00  0.00000000E+00
  0.00000000E+00  0.00000000E+00  0.00000000E+00
  0.00000000E+00  0.00000000E+00  0.00000000E+00
  0.00000000E+00  0.00000000E+00  0.00000000E+00
  0.00000000E+00  0.00000000E+00  0.00000000E+00
  0.00000000E+00  0.00000000E+00  0.00000000E+00
  0.00000000E+00  0.00000000E+00  0.00000000E+00
  0.00000000E+00  0.00000000E+00  0.00000000E+00
  0.00000000E+00  0.00000000E+00  0.00000000E+00
  0.00000000E+00  0.00000000E+00  0.00000000E+00
  0.00000000E+00  0.00000000E+00  0.00000000E+00
  0.00000000E+00  0.00000000E+00  0.00000000E+00
  0.00000000E+00  0.00000000E+00  0.00000000E+00
  0.00000000E+00  0.00000000E+00  0.00000000E+00
  0.00000000E+00  0.00000000E+00  0.00000000E+00
  0.00000000E+00  0.00000000E+00  0.00000000E+00
  0.00000000E+00  0.00000000E+00  0.00000000E+00
  0.00000000E+00  0.00000000E+00  0.00000000E+00
  0.00000000E+00  0.00000000E+00  0.00000000E+00
  0.00000000E+00  0.00000000E+00  0.00000000E+00
  0.00000000E+00  0.00000000E+00  0.00000000E+00
  0.00000000E+00  0.00000000E+00  0.00000000E+00
  0.00000000E+00  0.00000000E+00  0.00000000E+00
  0.00000000E+00  0.00000000E+00  0.00000000E+00
  0.00000000E+00  0.00000000E+00  0.00000000E+00
  0.00000000E+00  0.00000000E+00  0.00000000E+00
  0.00000000E+00  0.00000000E+00  0.00000000E+00
  0.00000000E+00  0.00000000E+00  0.00000000E+00
  0.00000000E+00  0.00000000E+00  0.00000000E+00
  0.00000000E+00  0.00000000E+00  0.00000000E+00
  0.00000000E+00  0.00000000E+00  0.00000000E+00
  0.00000000E+00  0.00000000E+00  0.00000000E+00
  0.00000000E+00  0.00000000E+00  0.00000000E+00
  0.00000000E+00  0.00000000E+00  0.00000000E+00
  0.00000000E+00  0.00000000E+00  0.00000000E+00
  0.00000000E+00  0.00000000E+00  0.00000000E+00
  0.00000000E+00  0.00000000E+00  0.00000000E+00
  0.00000000E+00  0.00000000E+00  0.00000000E+00
  0.00000000E+00  0.00000000E+00  0.00000000E+00
  0.00000000E+00  0.00000000E+00  0.00000000E+00
  0.00000000E+00  0.00000000E+00  0.00000000E+00
  0.00000000E+00  0.00000000E+00  0.00000000E+00
  0.00000000E+00  0.00000000E+00  0.00000000E+00
  0.00000000E+00  0.00000000E+00  0.00000000E+00
  0.00000000E+00  0.00000000E+00  0.00000000E+00
  0.00000000E+00  0.00000000E+00  0.00000000E+00
  0.00000000E+00  0.00000000E+00  0.00000000E+00
  0.00000000E+00  0.00000000E+00  0.00000000E+00
  0.00000000E+00  0.00000000E+00  0.00000000E+00
  0.00000000E+00  0.00000000E+00  0.00000000E+00
  0.00000000E+00  0.00000000E+00  0.00000000E+00
  0.00000000E+00  0.00000000E+00  0.00000000E+00
  0.00000000E+00  0.00000000E+00  0.00000000E+00
  0.00000000E+00  0.00000000E+00  0.00000000E+00
  0.00000000E+00  0.00000000E+00  0.00000000E+00
  0.00000000E+00  0.00000000E+00  0.00000000E+00
  0.00000000E+00  0.00000000E+00  0.00000000E+00
  0.00000000E+00  0.00000000E+00  0.00000000E+00
  0.00000000E+00  0.00000000E+00  0.00000000E+00
  0.00000000E+00  0.00000000E+00  0.00000000E+00
  0.00000000E+00  0.00000000E+00  0.00000000E+00
  0.00000000E+00  0.00000000E+00  0.00000000E+00
  0.00000000E+00  0.00000000E+00  0.00000000E+00
  0.00000000E+00  0.00000000E+00  0.00000000E+00