Te1 Pb2 Se1
1.0
   7.4488476300000004   -2.2470989700000001   -0.0000545400000000
   7.4488476300000004    2.2470989700000001   -0.0000545400000000
   6.7709903499999999   -0.0000000000000000    3.8325522999999988
Te Pb Se
1 2 1
direct
   0.5000000000000000    0.5000000000000000    0.5000000000000000 Te
   0.2553026300000000    0.2553026300000000    0.2553026300000000 Pb
   0.7446973700000000    0.7446973700000000    0.7446973700000000 Pb
   0.0000000000000000   -0.0000000000000000    0.0000000000000000 Se
