Y  Ge Sb Te                             
   1.00000000000000     
    17.5777520202113777    0.0000000000000000    0.0000000000000000
     0.0000000000000000   17.5777520202113777    0.0000000000000000
     0.0000000000000000    0.0000000000000000   17.5777520202113777
   Y    Ge   Sb   Te
     8    32    32    80
Direct
  0.2268914889693111  0.8492961045996785  0.7029698787742195
  0.3774893715357827  0.0736639362064301  0.3570742247778911
  0.4278374000980791  0.9424255408613799  0.1006653921985251
  0.2020913680032551  0.5395863413109966  0.5671514448300362
  0.7875896166081062  0.4603955918358582  0.0357604380079021
  0.8217039788394580  0.3961540711087987  0.4479952490111016
  0.1662385820374354  0.4299255096468191  0.8641641852337426
  0.5473307843377662  0.0377640224815248  0.8934652924781662
  0.8665859533957865  0.4970979102245756  0.2437785573314794
  0.6430129103252225  0.4187455707150798  0.9137781607902398
  0.3655608664515568  0.6963331090911813  0.1313324320116367
  0.4088793583651450  0.3136513613353988  0.2563961939407936
  0.9142254664283654  0.9856820109766076  0.2650669092175288
  0.9375560529000097  0.8438539289048010  0.2750098954299466
  0.3535908726550346  0.8895029843554785  0.5769395322701252
  0.1844623210236263  0.6186927475622955  0.7330082979707124
  0.6557857113278531  0.3335155908852689  0.7356525493876584
  0.0755397098438936  0.0559920649404241  0.6084507244352252
  0.6122457156034087  0.8937603585214543  0.3502260825669649
  0.5034532508902236  0.8780814132553150  0.6136379791242188
  0.9357234393970817  0.5711949011230560  0.5492569376436822
  0.4920742958531852  0.1598214794823831  0.0385958911857901
  0.3460637975004680  0.3243986075813300  0.9764199020723797
  0.4601878569254079  0.4249465521569483  0.0860230531273286
  0.9096769620663958  0.3218981780267188  0.6375008009027353
  0.2202677758024397  0.3290217340588465  0.6497761452701061
  0.6164017941836115  0.5120724495034047  0.6940180176301396
  0.2611548167466202  0.7462173352381349  0.9685058146152545
  0.9542150147855130  0.3624885435689849  0.9233094070021463
  0.2319654229966698  0.1355008308251455  0.7097643456055946
  0.8125026030710629  0.8052858910222275  0.3414624329405649
  0.7316538016050682  0.7487454228001865  0.6733763009732675
  0.6355869620071486  0.5011426271118495  0.2272089711669139
  0.1707801575083085  0.9290516774108273  0.2969682176286193
  0.7787492710502347  0.1710498653745265  0.6892524784402601
  0.2865073836317902  0.4963970642617506  0.1834704179865666
  0.9860611658742531  0.6403692621295471  0.7767784171007400
  0.7423592575173111  0.5376786821035513  0.3752938434674990
  0.4662295604116404  0.7032254092372067  0.5458233102182386
  0.0952768428248643  0.2163491656264789  0.7737698411622126
  0.1154419602589298  0.1096905444630902  0.3367704023659340
  0.9178985493695121  0.1473536148162726  0.1616280321534105
  0.6433090722424032  0.8927676321769513  0.5366651395430926
  0.6235523365054961  0.7259590514998853  0.8914471101154814
  0.8086523966277438  0.8524512129794855  0.4938274366839167
  0.4585913329591031  0.3531690743595236  0.5285006658213348
  0.5348386532601800  0.4461440271275993  0.4085570338628330
  0.1796282678964495  0.7654865585316811  0.2905073752425363
  0.6439692961264172  0.2562878691021067  0.8796983766308870
  0.3432702598326943  0.6238235277203429  0.6125481517114054
  0.6248504394438507  0.0910287548748077  0.1439570034042544
  0.1840394782712808  0.2808639856714421  0.0447950015568973
  0.7819556763200473  0.2625289210868245  0.1344980998271544
  0.1983154773400142  0.5968605959448221  0.2681683516350204
  0.0416306103047078  0.3459760228265883  0.2818821456786157
  0.9377853634452332  0.9613344421916261  0.0043612281811103
  0.2515232370615288  0.2578647308080139  0.8662474672701655
  0.5333941500039692  0.1770738212735295  0.3908346271420867
  0.3036003328107360  0.7473311551846847  0.4004245917385055
  0.4506273263079221  0.4219840974638061  0.9065921466284854
  0.9802682015904505  0.2143026690785816  0.4787625697122451
  0.4811743230471268  0.3521007026230032  0.7623989712104622
  0.3384990314179635  0.0316084920032393  0.6464860708458917
  0.0623955732858813  0.0044294328006840  0.2134124085548507
  0.2641799044173482  0.4501010985250443  0.0403270106026782
  0.9353393107493121  0.7343425803664151  0.5033048184054759
  0.0059854572157080  0.8659432601362487  0.6505871159878800
  0.0700454083313974  0.7301641550237137  0.1334259319314993
  0.2264193331393226  0.0249488181881102  0.4335103924390392
  0.6091758319222308  0.2774744031475898  0.5103470958841522
  0.4866339915807207  0.8063925000601576  0.7441135443348251
  0.9589179232565836  0.9946109241081402  0.7503045729795179
  0.2585984155587823  0.1595221436569781  0.2432802885694832
  0.9048780031910602  0.3868663882841638  0.1338798254986983
  0.7874329888766769  0.7353101803193688  0.8685106014280628
  0.3228958140639133  0.7083473555443821  0.7597132291072795
  0.9564073985631386  0.1625586499477176  0.7223778320076751
  0.2225990506536838  0.7236482980424144  0.5551179262045300
  0.0531515815953164  0.2344780044669282  0.1747924435701670
  0.0809183265853398  0.5691493140178018  0.1661173763021740
  0.5628107099278973  0.0179282585338247  0.6234374186580061
  0.7062501587493052  0.1409087215968033  0.3561811269663069
  0.7032884217855032  0.0041148876514640  0.2749940487340177
  0.4443419301641020  0.7249406751241290  0.2622979765673756
  0.3814643650541066  0.9463538502220994  0.7785238678994360
  0.6198920773753626  0.4395247385019795  0.0670830999182619
  0.2198855559817670  0.3601844118931000  0.2301563674837224
  0.8012633320803646  0.2985969174488020  0.9642094514901893
  0.3656744553860211  0.9145390355265608  0.4300675907857522
  0.4645973647307745  0.8847778741886827  0.2596209188792915
  0.9220176443542093  0.7381298071852681  0.1719148678298442
  0.8475529820561742  0.6618311880413756  0.3685930226076758
  0.6154171959401641  0.6131916985024890  0.3366280587588484
  0.3265691151784126  0.5353620403834710  0.9171780878683543
  0.0985956748382148  0.4073560861898774  0.5146218389509599
  0.8176641427403550  0.8910934449047343  0.8352647611510564
  0.2719502195416047  0.3774932619515207  0.5175178190586642
  0.3899625020207758  0.2565720587276335  0.1020986664567382
  0.7213292387795625  0.9137153090731210  0.6860444723803372
  0.0906236121690985  0.9121240800332758  0.0741852732941822
  0.1348170751095760  0.9095287862085579  0.5549871059160920
  0.6871842291835056  0.1073266399151829  0.8456453659757975
  0.4636913969245977  0.7688121262942451  0.0295428076359059
  0.8096636603920503  0.3054289006639458  0.7634499092364619
  0.8388757212518270  0.9742264851080805  0.1338065728863744
  0.0981299977137009  0.7781557694677463  0.9767328010840922
  0.9196090195165808  0.5108489756806546  0.9302911097744607
  0.0471083769053529  0.8031135712565431  0.3734351662097187
  0.6065469501581938  0.9671286077251324  0.0446959553628661
  0.3870298760571740  0.0631419975266346  0.9795091875544450
  0.5725148265007290  0.6697798675349769  0.6655190188873324
  0.1539104495862658  0.0023795053676114  0.7730920756609924
  0.0426742899409012  0.5439879069639579  0.6541850913344684
  0.6170079792722873  0.7427784112020023  0.0507302523302155
  0.8984520354788393  0.2689943427218117  0.3369419368069104
  0.6234769948961544  0.2041777702099853  0.6558324808244654
  0.0016355386429510  0.0575537094698328  0.4525355993485004
  0.1286286634551699  0.2638399289092916  0.4020634809637863
  0.7484131255679786  0.3959443654674601  0.2772950393132481
  0.6681123589606454  0.4599054296344958  0.5079608959590891
  0.2917882689621002  0.0045290337476897  0.2077428225870583
  0.8146528659250224  0.2409778208462887  0.5383775597400404
  0.3537968291264078  0.2559758598671822  0.7013893295038237
  0.5807526747795596  0.5458775957742230  0.8559293021342143
  0.2907483779358276  0.8286548422236343  0.0982292409481939
  0.2484948787120115  0.8690710072154024  0.8727362204158858
  0.5626476461945438  0.2939524589983239  0.2835725543058386
  0.8413435949081196  0.4611919851392353  0.6026122240778730
  0.1238843539015901  0.1682804314787620  0.9285391946910172
  0.7588739515022620  0.5409447680524022  0.8786424833195765
  0.1300248885639328  0.5953850797948232  0.8730907041588433
  0.0782284295877490  0.4097367966945993  0.0109776263938469
  0.1920404611102079  0.1582856888411327  0.5619366528186794
  0.8586644008845590  0.9934096600767440  0.6178359094407416
  0.7032300547146977  0.7343273096869012  0.5247237677599534
  0.6920122900709939  0.8011894668347908  0.2539333030624323
  0.7550886275033885  0.5798932733798388  0.1637875656825728
  0.4627693407565953  0.4837652932375675  0.6585213001913566
  0.9546904577245482  0.1259391765921728  0.0048491847355135
  0.4401655816205211  0.1116862732723154  0.5362258839138906
  0.4529164169493077  0.5873591690045041  0.4378479834488367
  0.3794741926848637  0.2487359813235153  0.4030828525472916
  0.6090877033064762  0.8752191607783807  0.8318378109451369
  0.2884125129701786  0.5594996385228631  0.4146624991726630
  0.4774564146549605  0.0763744278882707  0.2074136396020048
  0.0862309035612950  0.7670808234025459  0.7517878521111755
  0.8842532557745671  0.7143170960104159  0.6626493224229052
  0.4292639713830319  0.4655890363442188  0.2333719186505794
  0.9632659728200923  0.4808509960762574  0.4061078736394620
  0.4905655694455223  0.2076721485945750  0.8841889576845058
  0.2588017934731016  0.4710928230801888  0.7222061811260131
  0.0279140738298254  0.3585353691494764  0.7775189759855918
 
  0.97860789E-03  0.14733859E-02  0.33604316E-03
  0.85455744E-04  0.46228768E-03 -0.20537043E-02
 -0.31676333E-03 -0.19231605E-02  0.16764111E-02
 -0.10685052E-02  0.20979578E-02  0.10707366E-02
 -0.80452493E-03 -0.11100741E-03  0.41805410E-02
  0.69267791E-03  0.84656861E-04 -0.93084368E-03
  0.26577449E-02 -0.19466810E-02 -0.17329244E-02
 -0.85581441E-03 -0.41765221E-03  0.16008671E-02
  0.14578006E-03 -0.16998024E-02  0.19471407E-02
  0.18513035E-02 -0.36831026E-03 -0.25988775E-02
 -0.16460600E-02  0.18359617E-02  0.30124824E-03
  0.25225143E-02 -0.20712808E-02  0.38363631E-02
  0.28495963E-02 -0.22030685E-02  0.24616262E-02
  0.52760852E-02  0.65471815E-03  0.47498975E-03
 -0.15366402E-02  0.84180465E-03 -0.78364248E-03
 -0.18031016E-02 -0.24443319E-02 -0.44247280E-03
  0.55357817E-03  0.44680263E-03 -0.50832464E-03
  0.35584430E-03 -0.18352734E-02 -0.29307079E-02
  0.28111148E-02 -0.17164580E-02 -0.12871845E-02
 -0.34823155E-03  0.18308558E-02 -0.12412788E-02
  0.23468406E-02  0.26412845E-02  0.53677741E-03
 -0.37687095E-02  0.33308601E-04  0.22752707E-03
  0.24379731E-02  0.14200516E-02 -0.29379850E-02
  0.14852385E-02 -0.60343911E-03  0.27946568E-02
  0.20743116E-02 -0.36443486E-02  0.10925765E-03
 -0.36876374E-02 -0.16633442E-02 -0.42106396E-03
 -0.24782723E-02  0.51872857E-03 -0.29966109E-03
 -0.27426321E-02  0.84155031E-03 -0.60243146E-03
  0.40208245E-02 -0.33604424E-02 -0.18036467E-02
 -0.87587956E-03  0.13247136E-03  0.27098608E-02
 -0.17662132E-03 -0.13357491E-02  0.54526035E-03
 -0.13743812E-02 -0.76559466E-03  0.35527076E-02
  0.32481060E-03 -0.11397807E-03 -0.26352770E-03
  0.53184680E-03  0.69057290E-04  0.19737752E-02
  0.20449203E-02  0.12505488E-02  0.59904904E-03
  0.17725888E-02  0.97370953E-03  0.21596942E-03
 -0.17862144E-02 -0.27657038E-02 -0.30659615E-02
  0.21633518E-03 -0.52661482E-03  0.32404606E-02
 -0.24334258E-02 -0.93070509E-03  0.10598951E-02
 -0.21502665E-02 -0.95363749E-03 -0.46975037E-04
 -0.12206935E-02 -0.98859747E-03  0.14465238E-02
  0.11967663E-02 -0.17173186E-02 -0.44412920E-03
 -0.33728140E-02  0.74055547E-03  0.38568027E-03
 -0.22606598E-02 -0.19090052E-02  0.76760949E-03
  0.64740431E-04  0.27525232E-03 -0.67377934E-03
 -0.50451723E-03  0.29418204E-02 -0.19310860E-03
 -0.95020119E-03  0.30394427E-02  0.40472669E-03
  0.15052057E-02 -0.98534118E-03  0.77339940E-04
 -0.44061961E-03  0.23581780E-02 -0.82408863E-04
 -0.15951658E-02  0.57094006E-03  0.24638358E-03
  0.40012025E-02  0.95086850E-03 -0.19719176E-02
 -0.68448645E-03  0.19180899E-02  0.97460387E-03
 -0.10948643E-03 -0.64189322E-04 -0.19250549E-03
 -0.51740332E-03  0.13801235E-02  0.92171245E-03
 -0.40467279E-03 -0.15340915E-02  0.73345174E-03
  0.50897351E-03  0.10646442E-02 -0.54282492E-03
 -0.15154623E-02 -0.24954786E-02  0.12776180E-02
 -0.11763336E-02  0.24429433E-02  0.67613996E-03
  0.67139066E-03  0.65439483E-03 -0.41098505E-03
  0.19863252E-02 -0.20073006E-02  0.14965883E-04
  0.20928304E-03  0.13120435E-02 -0.21872016E-02
  0.94810758E-04 -0.24137699E-02  0.11707446E-02
 -0.19523029E-02  0.71123693E-03  0.14564887E-02
 -0.56640562E-04  0.11290696E-02  0.48616035E-03
 -0.87759005E-04 -0.28073338E-02  0.11824207E-02
  0.16102244E-02 -0.79294821E-03  0.91263218E-03
 -0.94126900E-03 -0.17697608E-02 -0.11763010E-02
  0.16652529E-02  0.22975019E-02  0.18329824E-02
 -0.33220703E-03  0.13228516E-02  0.43467977E-03
  0.15074990E-02 -0.37174026E-03  0.24313544E-04
  0.12567620E-02  0.17472008E-02  0.26259114E-02
  0.10159385E-02 -0.22712311E-02 -0.85302616E-03
  0.26664310E-03 -0.11160932E-02  0.63971013E-03
 -0.20652260E-03  0.19249447E-02 -0.36577276E-02
 -0.11579331E-02  0.69806500E-03 -0.14713726E-02
 -0.47983006E-03  0.12450959E-02  0.24260187E-02
  0.51726371E-03  0.25162081E-02 -0.97443263E-03
 -0.17079426E-02  0.95208818E-03  0.23880849E-03
 -0.39025919E-03 -0.74364529E-03 -0.12547615E-02
 -0.59533537E-03  0.14293624E-02 -0.66363171E-03
  0.84463211E-03 -0.62320168E-03 -0.25114136E-03
 -0.61476481E-03  0.17633551E-02  0.60167185E-03
 -0.22406633E-02 -0.32049140E-02 -0.90164114E-05
  0.55619154E-03  0.15467279E-02  0.11180446E-02
 -0.18496291E-02 -0.65852130E-03 -0.82719520E-03
 -0.73923622E-03 -0.82999313E-03 -0.18366035E-02
  0.16419324E-02  0.14219134E-02 -0.66625631E-03
 -0.14082369E-02  0.20318354E-03  0.30329207E-02
  0.19803617E-03  0.11500720E-02 -0.17792789E-02
  0.12396345E-02  0.79385608E-04  0.10092439E-02
  0.61158462E-03  0.54776876E-03 -0.16587083E-02
  0.18039083E-03  0.50281268E-03  0.53617645E-03
 -0.21899168E-04 -0.11330897E-02 -0.11293038E-02
  0.63587522E-03  0.93653810E-03  0.15602558E-03
  0.43242990E-03 -0.27589916E-02  0.41771881E-03
 -0.16641368E-03 -0.13466417E-02 -0.20428893E-02
  0.31403040E-03 -0.14328011E-04 -0.63251255E-03
  0.18126440E-02 -0.22912001E-03 -0.23304859E-02
 -0.13974150E-02 -0.26216262E-03 -0.34189681E-03
 -0.87366464E-04 -0.30911641E-03  0.31121899E-03
 -0.53412260E-03 -0.41834072E-03  0.29405254E-02
  0.16270713E-02  0.56036474E-03  0.38333573E-03
 -0.17579395E-02  0.60652346E-03 -0.12977936E-02
  0.11955802E-02 -0.12487130E-02  0.28771103E-02
 -0.43424695E-03 -0.10938447E-03  0.15884101E-02
  0.86131408E-03 -0.14334136E-02 -0.10287895E-03
  0.48834560E-03 -0.22390710E-03 -0.23730949E-03
  0.11482722E-02 -0.11127702E-02 -0.12811064E-02
 -0.45600103E-03 -0.14939812E-02 -0.27012392E-03
 -0.15079117E-02  0.26421529E-03 -0.34697642E-03
 -0.11805367E-02  0.23817623E-02 -0.15179271E-02
  0.87547633E-04 -0.64574645E-03  0.17909949E-02
 -0.77722703E-03  0.10282463E-02 -0.47128476E-04
 -0.89952561E-03  0.15366986E-02  0.52411574E-04
  0.21954704E-03 -0.11488475E-02 -0.20345566E-02
 -0.52883721E-04 -0.19805571E-02 -0.50191826E-03
  0.75895440E-03 -0.23381923E-02 -0.29436285E-02
 -0.19443171E-02 -0.35195578E-03  0.28861159E-03
  0.54760278E-03  0.22985465E-02 -0.22108343E-03
  0.16783338E-02 -0.33538587E-03  0.63987083E-03
 -0.14127441E-02 -0.61243902E-03 -0.13716664E-02
 -0.21450894E-02  0.23728312E-02 -0.57697286E-03
 -0.16415075E-02 -0.17936134E-03  0.19796386E-03
 -0.18181771E-03  0.60619673E-03 -0.10510441E-02
 -0.57796836E-03  0.16711547E-02  0.76240434E-03
 -0.37144310E-02  0.17807572E-02  0.56141944E-04
 -0.67708900E-03  0.13326967E-02  0.11553335E-02
  0.24518628E-03  0.34214859E-03 -0.10974976E-02
 -0.84006649E-03  0.14951992E-03 -0.50540997E-03
  0.26386450E-02 -0.93144051E-04  0.56177998E-03
  0.34842514E-03 -0.72902662E-03 -0.72336527E-03
  0.10097380E-02  0.17718972E-02 -0.16360489E-02
 -0.10665857E-02 -0.29901352E-02  0.24849993E-02
  0.12495227E-02 -0.80483662E-03  0.53894348E-03
  0.27906351E-02 -0.18359319E-03  0.24564774E-02
  0.19269389E-02  0.30312460E-03 -0.29971059E-02
  0.75473588E-03  0.98359781E-03 -0.50267088E-03
  0.60432610E-03 -0.47246378E-03  0.15694671E-02
  0.41588453E-03  0.94104234E-05  0.22975544E-02
 -0.42707851E-04 -0.14165269E-02  0.94994039E-03
 -0.18094481E-03  0.80089969E-04 -0.16689175E-03
 -0.19650356E-02  0.14671255E-02 -0.39481527E-04
 -0.56735065E-03  0.84203192E-03  0.10637703E-02
  0.31945493E-02 -0.90634909E-03 -0.23068540E-02
  0.30372078E-03 -0.43382223E-03 -0.15961645E-03
  0.24900264E-02  0.34045375E-02 -0.30470742E-02
  0.94038850E-03  0.89242528E-03 -0.22963864E-02
  0.97196200E-03 -0.42841068E-02  0.51103941E-03
 -0.15931371E-04 -0.66615161E-04  0.20599367E-02
 -0.24581722E-02 -0.45633295E-03 -0.88414960E-03
 -0.94342086E-04 -0.64968532E-04 -0.22850859E-02
 -0.15991711E-02  0.67088035E-03  0.29138540E-03
 
           1
   3.00000000000000     
  0.10000000E+01  0.00000000E+00  0.00000000E+00  0.00000000E+00
  0.22705851E+00  0.84954757E+00  0.70302723E+00
  0.37750396E+00  0.73742835E-01  0.35672372E+00
  0.42778334E+00  0.94209731E+00  0.10095151E+00
  0.20190901E+00  0.53994440E+00  0.56733419E+00
  0.78745231E+00  0.46037665E+00  0.36473932E-01
  0.82182220E+00  0.39616852E+00  0.44783638E+00
  0.16669218E+00  0.42959327E+00  0.86386843E+00
  0.54718472E+00  0.37692742E-01  0.89373851E+00
  0.86661083E+00  0.49680780E+00  0.24411088E+00
  0.64332887E+00  0.41868271E+00  0.91333461E+00
  0.36527993E+00  0.69664645E+00  0.13138385E+00
  0.40930988E+00  0.31329786E+00  0.25705095E+00
  0.91471181E+00  0.98530601E+00  0.26548704E+00
  0.93845652E+00  0.84396567E+00  0.27509096E+00
  0.35332861E+00  0.88964666E+00  0.57680579E+00
  0.18415459E+00  0.61827557E+00  0.73293278E+00
  0.65588019E+00  0.33359185E+00  0.73556579E+00
  0.75600442E-01  0.55678838E-01  0.60795054E+00
  0.61272549E+00  0.89346741E+00  0.35000640E+00
  0.50339382E+00  0.87839389E+00  0.61342613E+00
  0.93612398E+00  0.57164569E+00  0.54934855E+00
  0.49143109E+00  0.15982716E+00  0.38634723E-01
  0.34647989E+00  0.32464097E+00  0.97591848E+00
  0.46044134E+00  0.42484356E+00  0.86500018E-01
  0.91003099E+00  0.32127620E+00  0.63751945E+00
  0.21963841E+00  0.32873785E+00  0.64970428E+00
  0.61597883E+00  0.51216098E+00  0.69396687E+00
  0.26068673E+00  0.74636096E+00  0.96840300E+00
  0.95490125E+00  0.36191502E+00  0.92300158E+00
  0.23181594E+00  0.13552344E+00  0.71022684E+00
  0.81247246E+00  0.80505792E+00  0.34155549E+00
  0.73141924E+00  0.74861476E+00  0.67398264E+00
  0.63564240E+00  0.50112317E+00  0.22716399E+00
  0.17087093E+00  0.92906346E+00  0.29730508E+00
  0.77909828E+00  0.17126330E+00  0.68935472E+00
  0.28680991E+00  0.49656325E+00  0.18350728E+00
  0.98575631E+00  0.63989724E+00  0.77625515E+00
  0.74239618E+00  0.53758880E+00  0.37584689E+00
  0.46581425E+00  0.70306657E+00  0.54600420E+00
  0.94909856E-01  0.21618641E+00  0.77376182E+00
  0.11523362E+00  0.10952182E+00  0.33701728E+00
  0.91810280E+00  0.14706052E+00  0.16155223E+00
  0.64273343E+00  0.89289402E+00  0.53673096E+00
  0.62316651E+00  0.72563324E+00  0.89157812E+00
  0.80866345E+00  0.85249819E+00  0.49371244E+00
  0.45850523E+00  0.35367116E+00  0.52846771E+00
  0.53467648E+00  0.44666277E+00  0.40862611E+00
  0.17988516E+00  0.76531839E+00  0.29052057E+00
  0.64389410E+00  0.25669034E+00  0.87968431E+00
  0.34299801E+00  0.62392097E+00  0.61259020E+00
  0.62553333E+00  0.91191040E-01  0.14362046E+00
  0.18392266E+00  0.28119135E+00  0.44961337E-01
  0.78193699E+00  0.26251797E+00  0.13446524E+00
  0.19822717E+00  0.59709614E+00  0.26832566E+00
  0.41561545E-01  0.34571420E+00  0.28200732E+00
  0.93787223E+00  0.96151615E+00  0.42685841E-02
  0.25126459E+00  0.25743883E+00  0.86646552E+00
  0.53319338E+00  0.17749076E+00  0.39095002E+00
  0.30371492E+00  0.74744284E+00  0.40035445E+00
  0.45096633E+00  0.42164151E+00  0.90659470E+00
  0.98030392E+00  0.21452660E+00  0.47838928E+00
  0.48119050E+00  0.35168874E+00  0.76259878E+00
  0.33816583E+00  0.31729879E-01  0.64673465E+00
  0.62385906E-01  0.46221314E-02  0.21349538E+00
  0.26416493E+00  0.44962197E+00  0.40528815E-01
  0.93561413E+00  0.73420725E+00  0.50346058E+00
  0.58248106E-02  0.86564121E+00  0.65038636E+00
  0.70329618E-01  0.73055627E+00  0.13373877E+00
  0.22636264E+00  0.25174590E-01  0.43358458E+00
  0.60943312E+00  0.27741096E+00  0.51035125E+00
  0.48684848E+00  0.80669070E+00  0.74456171E+00
  0.95909131E+00  0.99422329E+00  0.75015899E+00
  0.25864392E+00  0.15933166E+00  0.24338947E+00
  0.90484276E+00  0.38719492E+00  0.13325556E+00
  0.78723536E+00  0.73542932E+00  0.86825948E+00
  0.32281392E+00  0.70855986E+00  0.76012728E+00
  0.95649568E+00  0.16298809E+00  0.72221153E+00
  0.22230756E+00  0.72381079E+00  0.55515868E+00
  0.53084976E-01  0.23435109E+00  0.17457829E+00
  0.80816721E-01  0.56939326E+00  0.16600411E+00
  0.56295486E+00  0.17821897E-01  0.62339456E+00
  0.70614524E+00  0.14120967E+00  0.35628381E+00
  0.70290601E+00  0.35679041E-02  0.27499251E+00
  0.44443686E+00  0.72520466E+00  0.26248879E+00
  0.38114869E+00  0.94624146E+00  0.77838269E+00
  0.61976591E+00  0.43938308E+00  0.66769646E-01
  0.22016579E+00  0.36042709E+00  0.23004266E+00
  0.80102299E+00  0.29863159E+00  0.96472708E+00
  0.36570825E+00  0.91473532E+00  0.42976392E+00
  0.46480893E+00  0.88479142E+00  0.25979317E+00
  0.92212202E+00  0.73822330E+00  0.17163178E+00
  0.84758377E+00  0.66191700E+00  0.36868453E+00
  0.61541346E+00  0.61299831E+00  0.33643532E+00
  0.32667764E+00  0.53552188E+00  0.91720472E+00
  0.98669478E-01  0.40688521E+00  0.51469313E+00
  0.81763574E+00  0.89086361E+00  0.83491610E+00
  0.27200382E+00  0.37749082E+00  0.51740987E+00
  0.39027187E+00  0.25653295E+00  0.10170092E+00
  0.72109074E+00  0.91367057E+00  0.68598612E+00
  0.90608701E-01  0.91207132E+00  0.74238389E-01
  0.13472592E+00  0.90945739E+00  0.55548897E+00
  0.68746192E+00  0.10742228E+00  0.84571079E+00
  0.46339137E+00  0.76891564E+00  0.29321313E-01
  0.80986771E+00  0.30521578E+00  0.76394095E+00
  0.83880161E+00  0.97420782E+00  0.13407767E+00
  0.98276998E-01  0.77791113E+00  0.97671524E+00
  0.91969237E+00  0.51081076E+00  0.93025061E+00
  0.47304353E-01  0.80292365E+00  0.37321652E+00
  0.60646912E+00  0.96687363E+00  0.44649853E-01
  0.38677252E+00  0.63187091E-01  0.97944997E+00
  0.57231334E+00  0.67018636E+00  0.66525995E+00
  0.15392539E+00  0.22692956E-02  0.77339775E+00
  0.42541640E-01  0.54416340E+00  0.65417705E+00
  0.61685446E+00  0.74304068E+00  0.50739197E-01
  0.89848951E+00  0.26879827E+00  0.33659470E+00
  0.62346797E+00  0.20383975E+00  0.65574682E+00
  0.17650696E-02  0.57154650E-01  0.45203321E+00
  0.12829683E+00  0.26377986E+00  0.40211274E+00
  0.74850659E+00  0.39633666E+00  0.27725731E+00
  0.66839880E+00  0.45984819E+00  0.50807010E+00
  0.29154716E+00  0.44245086E-02  0.20750872E+00
  0.81428676E+00  0.24138279E+00  0.53827909E+00
  0.35351667E+00  0.25594525E+00  0.70142312E+00
  0.58072164E+00  0.54598106E+00  0.85574992E+00
  0.29064974E+00  0.82894006E+00  0.98359361E-01
  0.24786094E+00  0.86937493E+00  0.87274580E+00
  0.56253209E+00  0.29417991E+00  0.28376974E+00
  0.84138544E+00  0.46125038E+00  0.60242491E+00
  0.12374098E+00  0.16830595E+00  0.92845294E+00
  0.75932429E+00  0.54092887E+00  0.87873836E+00
  0.13008435E+00  0.59526066E+00  0.87296725E+00
  0.78400762E-01  0.41003921E+00  0.10698401E-01
  0.19185843E+00  0.15777536E+00  0.56236077E+00
  0.85887766E+00  0.99327230E+00  0.61792789E+00
  0.70370633E+00  0.73429598E+00  0.52514302E+00
  0.69234116E+00  0.80124120E+00  0.25342179E+00
  0.75521744E+00  0.58006114E+00  0.16370177E+00
  0.46287248E+00  0.48368466E+00  0.65878916E+00
  0.95476144E+00  0.12594078E+00  0.52413090E-02
  0.44015829E+00  0.11144451E+00  0.53638801E+00
  0.45288554E+00  0.58737284E+00  0.43781950E+00
  0.37913882E+00  0.24898638E+00  0.40307611E+00
  0.60899087E+00  0.87536287E+00  0.83201936E+00
  0.28895773E+00  0.55934495E+00  0.41426879E+00
  0.47750825E+00  0.76300387E-01  0.20738640E+00
  0.86655877E-01  0.76766188E+00  0.75126781E+00
  0.88441375E+00  0.71446941E+00  0.66225740E+00
  0.42942986E+00  0.46485787E+00  0.23345914E+00
  0.96326325E+00  0.48083963E+00  0.40645944E+00
  0.49014603E+00  0.20759427E+00  0.88403806E+00
  0.25878569E+00  0.47108173E+00  0.72181618E+00
  0.27641143E-01  0.35864987E+00  0.77756871E+00
  0.15651101E-03  0.24535226E-03  0.77318392E-04
  0.11686306E-04  0.60365685E-04 -0.34892172E-03
 -0.66535879E-04 -0.32720363E-03  0.29996560E-03
 -0.16638737E-03  0.37144469E-03  0.17717315E-03
 -0.13483802E-03 -0.31355192E-04  0.71727756E-03
  0.12134294E-03  0.27957228E-04 -0.13850529E-03
  0.44280809E-03 -0.32585004E-03 -0.28764980E-03
 -0.12227898E-03 -0.58143835E-04  0.26361686E-03
  0.29795445E-04 -0.28814815E-03  0.33389439E-03
  0.31201698E-03 -0.66015025E-04 -0.44849662E-03
 -0.28444801E-03  0.31998164E-03  0.51854627E-04
  0.43262647E-03 -0.33985465E-03  0.64330867E-03
  0.47278983E-03 -0.38544412E-03  0.40980596E-03
  0.90504999E-03  0.11377512E-03  0.78636235E-04
 -0.26688929E-03  0.14647226E-03 -0.15437404E-03
 -0.31227575E-03 -0.43005767E-03 -0.68592459E-04
  0.98367301E-04  0.68190283E-04 -0.92210201E-04
  0.51804180E-04 -0.29945466E-03 -0.49714973E-03
  0.48529489E-03 -0.29433177E-03 -0.20141878E-03
 -0.47706846E-04  0.30758120E-03 -0.17784272E-03
  0.40544292E-03  0.45533514E-03  0.11180157E-03
 -0.65015933E-03  0.14845790E-04  0.43029643E-04
  0.43399793E-03  0.23643099E-03 -0.48026319E-03
  0.25712003E-03 -0.90426275E-04  0.48947291E-03
  0.35243490E-03 -0.62237499E-03  0.15341219E-04
 -0.62505394E-03 -0.28125543E-03 -0.87522406E-04
 -0.40746201E-03  0.84587306E-04 -0.56827492E-04
 -0.45412667E-03  0.14600367E-03 -0.95602747E-04
  0.68040877E-03 -0.55947895E-03 -0.30232812E-03
 -0.14328440E-03  0.34206836E-04  0.45339055E-03
 -0.38505734E-04 -0.23031147E-03  0.82724259E-04
 -0.23205117E-03 -0.12760407E-03  0.58659580E-03
  0.53996538E-04 -0.16662962E-04 -0.41506532E-04
  0.78040914E-04  0.91201060E-06  0.32305464E-03
  0.34584944E-03  0.22330474E-03  0.10620744E-03
  0.31141869E-03  0.17133032E-03  0.14203359E-04
 -0.31917005E-03 -0.47040899E-03 -0.50803321E-03
  0.37988395E-04 -0.98439834E-04  0.54043926E-03
 -0.41571536E-03 -0.15563902E-03  0.17174828E-03
 -0.36133020E-03 -0.16500700E-03 -0.11792152E-04
 -0.21728206E-03 -0.16659776E-03  0.25019683E-03
  0.21671129E-03 -0.29479809E-03 -0.76907131E-04
 -0.56032616E-03  0.12572966E-03  0.68231737E-04
 -0.39082148E-03 -0.31718224E-03  0.12496669E-03
 -0.20028121E-05  0.50648897E-04 -0.10134259E-03
 -0.81751224E-04  0.50340994E-03 -0.32295349E-04
 -0.16509170E-03  0.52486351E-03  0.69025853E-04
  0.25002443E-03 -0.16984061E-03  0.25815142E-04
 -0.78575350E-04  0.39349773E-03 -0.11583383E-04
 -0.28863223E-03  0.78411268E-04  0.35099932E-04
  0.67923180E-03  0.16198583E-03 -0.34120026E-03
 -0.99319642E-04  0.32456390E-03  0.17219887E-03
 -0.35778928E-04 -0.23551325E-04 -0.25644278E-04
 -0.91630907E-04  0.23878261E-03  0.15525087E-03
 -0.66228942E-04 -0.27208203E-03  0.11016992E-03
  0.79923848E-04  0.17843490E-03 -0.97912510E-04
 -0.26345045E-03 -0.43333993E-03  0.21738143E-03
 -0.21489269E-03  0.42079365E-03  0.11413035E-03
  0.10541905E-03  0.12396793E-03 -0.79051480E-04
  0.34058176E-03 -0.34887222E-03 -0.35106538E-05
  0.40963752E-04  0.21832889E-03 -0.36607817E-03
  0.26663034E-04 -0.41041165E-03  0.21416644E-03
 -0.33614395E-03  0.12261750E-03  0.25671210E-03
 -0.61523431E-05  0.18955962E-03  0.80921238E-04
 -0.22238981E-04 -0.47831227E-03  0.20884761E-03
  0.27720614E-03 -0.13542398E-03  0.15738348E-03
 -0.15637733E-03 -0.29832972E-03 -0.19421904E-03
  0.26554560E-03  0.39362287E-03  0.31026164E-03
 -0.47569603E-04  0.22698985E-03  0.77293785E-04
  0.25508682E-03 -0.62234839E-04  0.10771084E-04
  0.22215360E-03  0.29941159E-03  0.43256636E-03
  0.17224848E-03 -0.38499115E-03 -0.14478859E-03
  0.43315990E-04 -0.19217274E-03  0.10996339E-03
 -0.32542475E-04  0.33888098E-03 -0.62619363E-03
 -0.19830724E-03  0.11701774E-03 -0.25121301E-03
 -0.80189966E-04  0.21971938E-03  0.42295542E-03
  0.83685981E-04  0.43536198E-03 -0.16448459E-03
 -0.28961512E-03  0.16195672E-03  0.41294429E-04
 -0.78096058E-04 -0.11381851E-03 -0.19827845E-03
 -0.95797522E-04  0.24549748E-03 -0.10640857E-03
  0.15066110E-03 -0.11835919E-03 -0.41890072E-04
 -0.10363108E-03  0.30189295E-03  0.10191431E-03
 -0.37572994E-03 -0.55003888E-03 -0.22933421E-05
  0.10115603E-03  0.25862666E-03  0.18636291E-03
 -0.32123914E-03 -0.10990633E-03 -0.14319344E-03
 -0.11552390E-03 -0.13687292E-03 -0.31312468E-03
  0.27534114E-03  0.23945481E-03 -0.10731933E-03
 -0.23996050E-03  0.40941467E-04  0.50650437E-03
  0.32974537E-04  0.20943881E-03 -0.30405141E-03
  0.19767712E-03  0.14924090E-04  0.17229318E-03
  0.12246954E-03  0.95311681E-04 -0.27697372E-03
  0.22991024E-04  0.90936322E-04  0.83303616E-04
 -0.69157145E-05 -0.19171895E-03 -0.19685248E-03
  0.10865070E-03  0.16605095E-03  0.29454024E-04
  0.68758936E-04 -0.47009744E-03  0.76502016E-04
 -0.31083884E-04 -0.23011745E-03 -0.35502138E-03
  0.58301268E-04 -0.11775904E-04 -0.10519653E-03
  0.30777953E-03 -0.42777882E-04 -0.40403003E-03
 -0.24847629E-03 -0.50539481E-04 -0.58254093E-04
 -0.10589646E-04 -0.58313852E-04  0.60922262E-04
 -0.89971936E-04 -0.81033392E-04  0.49601588E-03
  0.26035568E-03  0.10492201E-03  0.73658325E-04
 -0.29463871E-03  0.92507422E-04 -0.22169470E-03
  0.20024575E-03 -0.21782950E-03  0.49170768E-03
 -0.73961820E-04 -0.16635039E-04  0.28155241E-03
  0.14410209E-03 -0.23874840E-03 -0.12117994E-04
  0.87134595E-04 -0.47076935E-04 -0.38977937E-04
  0.20456212E-03 -0.19630708E-03 -0.22723926E-03
 -0.71092570E-04 -0.25139356E-03 -0.43958955E-04
 -0.26088311E-03  0.51422448E-04 -0.61360163E-04