Ge3 Sb6 Te12                            
   1.00000000000000     
     2.1575673566177551   -3.7370162824140292    0.0000000000000000
     2.1575673566177551    3.7370162824140292    0.0000000000000000
    -0.0000000000000002    0.0000000000000000   41.8360377285379670
   Ge   Sb   Te
     3     6    12
Direct
  0.3333333333333357  0.6666666666666643  0.2373133232984557
  0.0000000000000000  0.0000000000000000  0.5706466566317842
  0.6666666666666643  0.3333333333333357  0.9039799899651199
  0.3333333333333357  0.6666666666666643  0.0930825508593487
  0.6666666666666643  0.3333333333333357  0.3307216136125696
  0.0000000000000000  0.0000000000000000  0.4264158841926775
  0.3333333333333357  0.6666666666666643  0.6640549469458985
  0.6666666666666643  0.3333333333333357  0.7597492175260129
  0.0000000000000000  0.0000000000000000  0.9973882802792342
  0.6666666666666643  0.3333333333333357  0.2042805354232455
  0.0000000000000000  0.0000000000000000  0.1337086317694163
  0.6666666666666643  0.3333333333333357  0.0444690260431948
  0.0000000000000000  0.0000000000000000  0.2897566523271076
  0.3333333333333357  0.6666666666666643  0.5376138687565811
  0.6666666666666643  0.3333333333333357  0.4670419651027450
  0.3333333333333357  0.6666666666666643  0.3778023593765307
  0.6666666666666643  0.3333333333333357  0.6230899856604430
  0.0000000000000000  0.0000000000000000  0.8709472020899168
  0.3333333333333357  0.6666666666666643  0.8003752984360808
  0.0000000000000000  0.0000000000000000  0.7111356927098664
  0.3333333333333357  0.6666666666666643  0.9564233189937716
 
  0.00000000E+00  0.00000000E+00  0.00000000E+00
  0.00000000E+00  0.00000000E+00  0.00000000E+00
  0.00000000E+00  0.00000000E+00  0.00000000E+00
  0.00000000E+00  0.00000000E+00  0.00000000E+00
  0.00000000E+00  0.00000000E+00  0.00000000E+00
  0.00000000E+00  0.00000000E+00  0.00000000E+00
  0.00000000E+00  0.00000000E+00  0.00000000E+00
  0.00000000E+00  0.00000000E+00  0.00000000E+00
  0.00000000E+00  0.00000000E+00  0.00000000E+00
  0.00000000E+00  0.00000000E+00  0.00000000E+00
  0.00000000E+00  0.00000000E+00  0.00000000E+00
  0.00000000E+00  0.00000000E+00  0.00000000E+00
  0.00000000E+00  0.00000000E+00  0.00000000E+00
  0.00000000E+00  0.00000000E+00  0.00000000E+00
  0.00000000E+00  0.00000000E+00  0.00000000E+00
  0.00000000E+00  0.00000000E+00  0.00000000E+00
  0.00000000E+00  0.00000000E+00  0.00000000E+00
  0.00000000E+00  0.00000000E+00  0.00000000E+00
  0.00000000E+00  0.00000000E+00  0.00000000E+00
  0.00000000E+00  0.00000000E+00  0.00000000E+00
  0.00000000E+00  0.00000000E+00  0.00000000E+00
