Sb300                                   
   1.00000000000000     
    21.2291714401205631    0.0000000000000000    0.0000000000000000
     0.0000000000000000   21.2291714401205631    0.0000000000000000
     0.0000000000000000    0.0000000000000000   21.2291714401205631
   Sb
   300
Direct
  0.4760168408394312  0.0858324265996576  0.7123239740251893
  0.8935824511247092  0.0206622000788978  0.1885468206820536
  0.8278174674812934  0.6168717619573331  0.2939598483464942
  0.2026938284618512  0.8027604939639762  0.7739831171880287
  0.3982028222525256  0.7647987067773411  0.1610309205861464
  0.3607938938966541  0.5437180278822334  0.8995748636963183
  0.0362639232169836  0.0446103561252738  0.8759125153179831
  0.7528988314831706  0.4304799708712570  0.0217244847196772
  0.4485973962567560  0.1327607523622532  0.5814111042211502
  0.1257742833605491  0.4047196584666892  0.7854036227195808
  0.6652477359109937  0.6782078928058536  0.8551285282228431
  0.8133478495617245  0.4501273648623614  0.6730169090360140
  0.5879853532754457  0.1515751244742770  0.8816458938866110
  0.2386950877457393  0.2826018219735492  0.7721418388221422
  0.0880116805699303  0.9206601296564896  0.8167572845234707
  0.2955597269244034  0.0035435331190831  0.6037722941108440
  0.0351524765655689  0.3005526470187109  0.7178008190836509
  0.1583194692302997  0.7983978988670969  0.1085682295675034
  0.7325605274864870  0.4716006131432419  0.3078499889095836
  0.8518265741589429  0.3623206257895729  0.7709737953909834
  0.7397603554737179  0.1518856130997272  0.5973369494589572
  0.9434952043619019  0.4946604278409601  0.7628453115903719
  0.3629805234777702  0.3290431853297168  0.8389846847723128
  0.7491086881945562  0.5181865136613439  0.4590273606691636
  0.5378422466231562  0.8189663266628739  0.8525308836263911
  0.3365648553204039  0.4709424460275957  0.0342553243184509
  0.8454518476070887  0.1279343550882483  0.0139676898469984
  0.0114184794885804  0.0977418281031869  0.4827949321753235
  0.6749935284254729  0.7102679539187426  0.9951301582774021
  0.0495227954946594  0.5754283389869641  0.9072305594409193
  0.6882208253800082  0.8330316801399833  0.8380844523207570
  0.9211736581485592  0.6734966251258852  0.4507031881995929
  0.8443962553341702  0.8306933866072284  0.9699333940363867
  0.4784173190444462  0.5681361317689803  0.6301045173431148
  0.5407895932995892  0.9091616313006119  0.7274806625249164
  0.0213784215119012  0.4079517862512042  0.4897724619352430
  0.7736867309370069  0.0788837996864129  0.1224197712953959
  0.6673730417902121  0.4046968188308637  0.7616832363937860
  0.7664403208491229  0.7177234296315692  0.7168507043332466
  0.4162448527719534  0.1595543598342948  0.3002675034476534
  0.9318609363563845  0.8000826986341109  0.5132562852987860
  0.5932745059067661  0.7250174432322496  0.5745243537681687
  0.0076781696497161  0.0986809601190410  0.7562537002261718
  0.9902332095969301  0.8497871485193275  0.9790146146403268
  0.2673183862329939  0.9281388435805660  0.9169711315390661
  0.3999644132929935  0.2382126596138308  0.1831066410019670
  0.5974625668877114  0.4678115030810057  0.4634063649372008
  0.7599329906521949  0.5804045757267451  0.7148189114990328
  0.7271197275078993  0.1220220241828124  0.4422844311979140
  0.3041626693602579  0.4358978999415433  0.4886480524434070
  0.0656724282998760  0.8144837492020071  0.3590490098424877
  0.9467820321217079  0.1942415533114872  0.9133117826093582
  0.9802528074647429  0.5457333802702850  0.2322316790451583
  0.0391046618868969  0.2914355299511237  0.5681745771313563
  0.1588792272387806  0.1631563746947008  0.9903668775681406
  0.6537436662373375  0.1249413788414597  0.1560547491309948
  0.8873563920741537  0.3630989783543810  0.4895427674086208
  0.7299391679629985  0.7585386949781753  0.1193890983243999
  0.4463015309934122  0.2854410844357805  0.6086121439068199
  0.4039170153415446  0.6728371762366970  0.5097320815542054
  0.0752851961323815  0.4420136508035053  0.9389706195869086
  0.7276429170923593  0.0000960711313269  0.9284576842340868
  0.3226632004224468  0.7338240881057911  0.8445161760246592
  0.0619031219453527  0.0745913655290094  0.0193448772959091
  0.0005564019413515  0.3784974822746157  0.3469127994695996
  0.6077128909681404  0.3119713668216573  0.4824383581683773
  0.6428019819343900  0.6610942680184744  0.1915478024687518
  0.9021415765204702  0.2789426590229229  0.1443140139005467
  0.0597883562614191  0.4048248006705873  0.0812964369971160
  0.4481791784009580  0.7115848461533424  0.7951315332390677
  0.2238482158160086  0.4675476897381080  0.9237451651876223
  0.1092736379047542  0.1112079398326201  0.3014938758902893
  0.6160504298317830  0.7232462179799548  0.7087792195791205
  0.0773784744919163  0.5495918559460503  0.7720103842021535
  0.3907990058944017  0.8503108290326795  0.8881026781361775
  0.2699826706686993  0.8774953834040863  0.0589343600566007
  0.8665385063186083  0.2389604327670286  0.4487882404490544
  0.5664239922361325  0.0119831629783451  0.2869552850196770
  0.2927023629795306  0.5872893434882277  0.4739185813310821
  0.1542049305608778  0.4460265115269984  0.2092806655381870
  0.6091980058048851  0.3835037859277256  0.0405526619350589
  0.7131378437637987  0.0963343303747566  0.7195649156827353
  0.1054205932683235  0.5822814269036148  0.0877599711517439
  0.5987741455888467  0.1745480144988808  0.7366831506888918
  0.1316474107852716  0.4394695775983648  0.3549268728142684
  0.4535451980337168  0.4265524100737412  0.7617154709802092
  0.0919982476218623  0.8635358588686933  0.5128951535402978
  0.1558511428519112  0.9063178173173719  0.2245092571381399
  0.7420682555545469  0.3713544551826937  0.4895418829288245
  0.2092016150550290  0.0196180834100648  0.1649881704189690
  0.9006255561204127  0.0000731582577767  0.8507455893399902
  0.2792489750577897  0.6080048329492642  0.7669432093418602
  0.8309164219249405  0.1085465225717817  0.8114285591944855
  0.6054248802121032  0.4875361616560082  0.1308251020298410
  0.7068726373840882  0.9545409269358723  0.2140060606505365
  0.8306253530257078  0.9128567683837522  0.7413263700120222
  0.3119534858592494  0.1400955533958391  0.4621961833123590
  0.0307163097132728  0.5861066983489506  0.5786981678006806
  0.5089155618571448  0.2020407684118985  0.0352215420335766
  0.6394825882231369  0.2063735024300306  0.0351724473970201
  0.0192020811601953  0.4028775458405626  0.2107677827820962
  0.4050599998572245  0.8755809611060351  0.7382857379728082
  0.5960498052496267  0.4708206581788420  0.3235958458028981
  0.1755862518054433  0.0847827211097236  0.8555267113271113
  0.6395616420102308  0.7362589375274156  0.3124622311244149
  0.0658821432281560  0.7309144353990106  0.5394637909261482
  0.2699197690533848  0.0617451910279060  0.9434122063391059
  0.3669644450882221  0.0667706863144950  0.0660832646349663
  0.5366993820482934  0.0570910469018822  0.4158280570278239
  0.4534908800627858  0.3187588663204869  0.4762130082210679
  0.0251061748818393  0.1459202690834600  0.6051413238473984
  0.9346758366626100  0.5752124184128421  0.1034231943224773
  0.4134496749176485  0.8408195835354851  0.5880609341217468
  0.0012880629731265  0.2282231786107024  0.4216911391480438
  0.0328651969785601  0.2709805643410224  0.0468395751124985
  0.2929507496150540  0.4589340998521492  0.8103971126844862
  0.4531784909808708  0.1696017804470518  0.4358444725092065
  0.1723904597610874  0.2705653512138639  0.5364552366597360
  0.8736221817052749  0.6474830653563876  0.8699442783567701
  0.1515881130539724  0.2365900492597927  0.1119568839027680
  0.8048175720306894  0.6020013336476141  0.1576755653501508
  0.7036967869088363  0.8462286502901457  0.9712541491000102
  0.1619002650541259  0.5539759748297096  0.6360550663383291
  0.4761676986575389  0.6279990378106377  0.3803644380367371
  0.8738010465580939  0.4065523846469244  0.1931595571655109
  0.1549884353987087  0.4073931304120061  0.6381985224066734
  0.5552581039393891  0.3263310668362931  0.7665004829605884
  0.6902034627944013  0.6245645333386439  0.3737254946140631
  0.7278628739452524  0.2792312752031305  0.7544201611634784
  0.4624336314582692  0.8810589356392367  0.1662556527410327
  0.7168342795121396  0.8777697049301326  0.6557434787996985
  0.8829659443922866  0.3296637878208593  0.6217919814245149
  0.4617415689057074  0.4164789677150743  0.6259299966539452
  0.4781816092077693  0.4572761117864925  0.9101843248133059
  0.6199233052641947  0.5667939395244139  0.0208266598570757
  0.4788679294173469  0.3437085037687539  0.0580133032006581
  0.3633801597501661  0.7899402382284290  0.4509083053902645
  0.5766876703569789  0.0092367595168865  0.1074212541917370
  0.1423546400485426  0.3045825760434628  0.3664254404454572
  0.3018546282280490  0.7111919531197421  0.6304975583988338
  0.7533485561443825  0.7047054308989872  0.5791664885912526
  0.1630015909107137  0.0051950920499523  0.4933851595063172
  0.4802966857830317  0.5937735613694508  0.2384738056672623
  0.6711516521746510  0.9400330880660372  0.3745302925447135
  0.8818079242535891  0.9561971821181970  0.5188331852849829
  0.8892365533388374  0.6989518788070089  0.0061337385222172
  0.8258219063012119  0.9452318584402479  0.3834690604795524
  0.0251810360334841  0.0024029235746112  0.3511393843921520
  0.8555656885828460  0.9780014046177546  0.9821814214549588
  0.5062455780661570  0.7952345289425840  0.4612077609515166
  0.2280787495261312  0.5846974862632899  0.3489320023665403
  0.8409699453931688  0.8671029168738742  0.1110125429087032
  0.4026837927584981  0.9090968092958194  0.3484553717689547
  0.5594086399294004  0.8647156390015484  0.0740408174570015
  0.6662904414550197  0.8220801961856212  0.4551550340782201
  0.4420254462847414  0.9738863321096786  0.9860522296375155
  0.7418798684066553  0.4501648056843127  0.1612364735882634
  0.8391483841856768  0.7884621238462045  0.8274788324705634
  0.7103032597370792  0.9671594825776713  0.0749020847683179
  0.8091016168866362  0.2631130274081004  0.0464175936460136
  0.5667519336090163  0.0141561754542336  0.8153436724127068
  0.7365454058652239  0.0608151067928814  0.3174827345153133
  0.2781672517051976  0.1752173847970438  0.1285348706651029
  0.3355635426889925  0.4533046838398384  0.1824750636679134
  0.4360233183801083  0.9731784615539185  0.5700873157622166
  0.7056585088674320  0.1981317748165959  0.2610668110801233
  0.3411724682726739  0.2627986136904062  0.0411475796483054
  0.9567499488754545  0.8833850865573059  0.4152797854739587
  0.2027002624106425  0.3276158001316469  0.9209563876632650
  0.1594718397803458  0.0132274650762863  0.6554460934757421
  0.6192319431739362  0.4770824243558659  0.9087379487280800
  0.5788135297668645  0.6037724017187043  0.4670288432195518
  0.1860418734447650  0.6807116823944576  0.0207934799399557
  0.7670537998465645  0.5729554257592768  0.0080863652236221
  0.3408243736321953  0.9655876959792878  0.1475344741245490
  0.2690049133748370  0.9993751958916474  0.3025779425353434
  0.1190157279843062  0.1972827575554775  0.7667921814102996
  0.2994058451352910  0.2266797520076344  0.9138665004928412
  0.7442434360652708  0.2890049101183793  0.6110593390314442
  0.3412359146513036  0.6070090390424212  0.2615624349518423
  0.0266472102426375  0.9590818336549660  0.2102531940136186
  0.2689240463513050  0.3403314300970457  0.1986426308755532
  0.9095491275479379  0.4448363028458653  0.0449385795395560
  0.8777092585856411  0.7301273887408183  0.1373552654917854
  0.5372198284811835  0.0660059100131608  0.9894127295994637
  0.5805235968456971  0.9271144468438685  0.9254336347454400
  0.5991613448016251  0.3062372837319903  0.9013307142089495
  0.6356703309086171  0.8352648037653528  0.1816065534688488
  0.9605946388912515  0.6726790193306502  0.2887935278287818
  0.3066311309919898  0.3011403470020809  0.4807823328559260
  0.9890486784907088  0.9591253764994663  0.6126285556024547
  0.9919782686399631  0.3800655912914244  0.8380336199332644
  0.0157131111327959  0.7325654573078787  0.8670828455987057
  0.1583941756625359  0.9494368376502655  0.3690042919389357
  0.8593404697022996  0.5106521861643467  0.5389344468700619
  0.0977237730189276  0.8181885895700082  0.6481276192809906
  0.0960698177234052  0.2925906594492361  0.2371080661292732
  0.3023574510198030  0.1524206129353994  0.6180405318601591
  0.0634153466867274  0.6779118922990351  0.3887858643039689
  0.5879712400378209  0.2728786751557490  0.6152282820655951
  0.1467016036615615  0.7490612833104269  0.8863272548865668
  0.3007579126053627  0.0027512813699717  0.4581584061111725
  0.9595319719192067  0.8398327274220910  0.6715018993186221
  0.4293723823134603  0.2226641455539630  0.7601595905621852
  0.8767693530999334  0.0658711348679469  0.3113918184184069
  0.3076699054601009  0.6478331307692918  0.1415857865428759
  0.6700751172579059  0.0097962241589742  0.4824320941302177
  0.9572744903685717  0.9319431340715557  0.0704741388692032
  0.6898281918414674  0.4290833569541621  0.6195958689210362
  0.3202431465663960  0.4294358897874739  0.6334670643174396
  0.7870191862409064  0.8319193194869823  0.5436458083277392
  0.3089251425274936  0.1521661723005751  0.7703519073907951
  0.4974280515120639  0.9352460492112851  0.4526477952647599
  0.5993143464307922  0.1888209706357395  0.4172962710058032
  0.7337349941628011  0.3317744691841066  0.3461787416517786
  0.2706223651990148  0.1512542103156884  0.3375959549831402
  0.1477016142221007  0.5668443751113300  0.4917552118165332
  0.2332877381253443  0.5317422916331851  0.1268084576554966
  0.0236670447372170  0.7195105072401603  0.0182437430631235
  0.3443093871980276  0.7483979085566652  0.3247212393315670
  0.7731154158520739  0.4285772938519462  0.8695739070119227
  0.3118251162197948  0.5657265702671599  0.6322695603626571
  0.7835690489646910  0.7180258579247014  0.4270787991968422
  0.2043601564606733  0.3480824178551877  0.0597011362913425
  0.9991053003903791  0.1889328538986802  0.2910590500796791
  0.1690826014154988  0.1434558044560756  0.6363914070622968
  0.2317361353846629  0.9677583987589825  0.7784690329839905
  0.8620884557792406  0.0830664286105622  0.4826694020069690
  0.5106348866779415  0.6729952893381441  0.1333734746725857
  0.4711762467060195  0.4610682533841928  0.2078090089932036
  0.6682080817594400  0.2971990568313997  0.1401037554206323
  0.9837809472304916  0.8382205384702726  0.2568000405854308
  0.1203029781560196  0.5813991739236092  0.2264734503759947
  0.4208533438010274  0.0285279194495112  0.2685871780954860
  0.7523280995361155  0.0034936051107471  0.5996176990433234
  0.7509491096923069  0.5744744462384570  0.8745884198435677
  0.9694690232708748  0.8585941197501226  0.8252961367459350
  0.5466485723334350  0.3017574541655523  0.2023048760429614
  0.4660385038315250  0.7048400194339612  0.6593536121187599
  0.2954521698626367  0.8334999861954533  0.2267312421062448
  0.3975066566548553  0.0497786534365464  0.8708167750551300
  0.5766801684897164  0.3358118587311698  0.3331731180598187
  0.1825987183314872  0.6915337230105132  0.7053509935968408
  0.6058297092065262  0.1433134935012420  0.5594214686915034
  0.2149264387568658  0.7283006355998429  0.2092290305483903
  0.3825390482071729  0.8050198781853523  0.0221500342867959
  0.8235304022150568  0.8809278491250008  0.2539438685289097
  0.3592198661400098  0.0089926508796243  0.7323161481810180
  0.0772597229902804  0.2523061735332323  0.9203524097771930
  0.9246442039819134  0.2017061273042049  0.7714490801517199
  0.6884971456123840  0.5565995361562693  0.5854077627104954
  0.0155042501390941  0.4517450674619024  0.6235232347251669
  0.2715208951846861  0.8669097272833859  0.5947045006193915
  0.7605568541793472  0.2867128528869372  0.8883069615766211
  0.2934185362590885  0.2875128045992769  0.6215424318142168
  0.3421303897721531  0.6770577066426660  0.9871641909742105
  0.7341942380684523  0.1420691400133476  0.9178102060295680
  0.5556155012009785  0.1720215503578994  0.2600739689534906
  0.0319664605843275  0.6739128398560497  0.7256712530138544
  0.9548033191658367  0.1216865409389013  0.1186958586813200
  0.8595420431954411  0.2985704725967749  0.3145034851468894
  0.5991954732502528  0.8691625359692122  0.5645482112333945
  0.1646006841985303  0.4329783838972256  0.5009352607192628
  0.7731876961602278  0.7459681854909008  0.2832609712742196
  0.9732595824320597  0.5341889276732452  0.4475237161316938
  0.0851030237343218  0.0981311189207344  0.1620118048246086
  0.4868117092978542  0.7367614410688855  0.3005122517533085
  0.8995167211738792  0.6350509336829525  0.7333058996541070
  0.8848327909092365  0.6395278724139568  0.5841142523744897
  0.4836101020369709  0.1151338827568607  0.1534837161039436
  0.4714962896600912  0.4955697665206775  0.0499344439141402
  0.8911198882046515  0.3120735909952982  0.9428743155279351
  0.2304544014765641  0.8555111531264817  0.4671998588569570
  0.1979179685725582  0.7283070433122958  0.3700446571686218
  0.5287557906617862  0.8839402974017645  0.2951193519265153
  0.4318998918150802  0.3219152448953559  0.3246032070027808
  0.1254483173751709  0.8804006341234188  0.9459823463767892
  0.4268370101003652  0.4568931431977802  0.3473573433693708
  0.1576880336173354  0.1360050600595707  0.4565797395524188
  0.4476700838038566  0.4565351569827559  0.4843578776654592
  0.8482401661417258  0.1932662053877621  0.2375484285508152
  0.4747576674190775  0.6341106984765577  0.9906526824960827
  0.1641070901166598  0.9792803686904347  0.0302527050381293
  0.5613426605128168  0.0041637918258517  0.6350165657951121
  0.8964650253968901  0.4987198793627495  0.9092695623269627
  0.5433704619691736  0.7548961454802319  0.9810773250557149
  0.5671955935134751  0.5901484517306347  0.8489747188312552
  0.8964492633410970  0.0267035624714322  0.6851692742265716
  0.4300333935772323  0.5641378113349880  0.7684040963490948
  0.2942348833602260  0.4414435864430885  0.3243492405253762
  0.6112347180812804  0.5893963541672942  0.7064558534368257
  0.7113611289779415  0.9579066985342258  0.7902231734349892
  0.4752970970623747  0.3126391840974850  0.9239357934670325
  0.1780576082123854  0.6038835964475285  0.9049399178451029
  0.8963058871715051  0.4790938012664381  0.3271330256714282
  0.2949805223387832  0.2971851134940910  0.3330667350944089
  0.2112270814538950  0.7070928626948062  0.5234822102604895
  0.8820132275745758  0.1446321818636283  0.6113008815429269
  0.4472040911857600  0.1737159426566507  0.8925959845486576
  0.0262494059206316  0.7350755905871458  0.1789341773525476
 
 -0.19395571E-02 -0.92300227E-03 -0.26693557E-02
 -0.62540379E-03  0.50987287E-03  0.21875760E-02
  0.18139994E-02  0.12479657E-02 -0.16137639E-02
  0.10162552E-02 -0.28853551E-03  0.27465618E-02
 -0.20063608E-03  0.15528524E-02  0.12476872E-02
 -0.10105444E-02  0.25510067E-03  0.33674446E-02
  0.35651006E-03 -0.11410810E-02 -0.16143585E-02
 -0.13688445E-02  0.29329402E-02 -0.12791998E-02
 -0.93358790E-03  0.17394659E-04 -0.58560774E-03
 -0.21482932E-02 -0.97191238E-03  0.20158514E-02
 -0.18403201E-02  0.20143599E-02 -0.37062679E-02
 -0.64868154E-03  0.24324015E-03 -0.44149799E-02
 -0.30869084E-02 -0.62182393E-03 -0.14420406E-02
 -0.10788300E-02  0.20623611E-02  0.13681179E-02
 -0.41409373E-03  0.13727291E-02 -0.99021274E-03
 -0.22024492E-02 -0.15596542E-02  0.29852744E-03
  0.11266754E-02 -0.17803457E-03  0.30476019E-02
  0.68284387E-03 -0.47362265E-02  0.34910501E-02
  0.40427609E-03 -0.71186740E-03 -0.13850334E-02
  0.26317938E-02 -0.38332526E-03  0.17757610E-03
 -0.55618167E-02  0.96989668E-03  0.63272649E-03
 -0.11206148E-02  0.15370020E-02  0.23561646E-03
 -0.16092912E-03 -0.37048734E-03  0.93294574E-03
  0.27465506E-02  0.38389426E-03  0.10927616E-02
  0.14978022E-03  0.27946945E-02  0.60701956E-03
  0.21716850E-02  0.22930129E-02  0.65589216E-03
 -0.44343129E-03 -0.97924744E-03  0.33178683E-03
 -0.98978455E-03 -0.48793960E-03 -0.10892361E-02
  0.26150187E-02 -0.31822320E-03  0.10699560E-02
  0.19397584E-02 -0.40869060E-03 -0.12481246E-03
 -0.18113304E-02 -0.72743151E-03  0.45444218E-03
  0.49491656E-02  0.44766217E-03  0.51040716E-03
 -0.12193407E-03 -0.67564045E-03  0.12277186E-03
 -0.16116836E-03 -0.12792175E-02 -0.34535822E-02
 -0.21707202E-02 -0.86553074E-03 -0.10007756E-02
  0.53745722E-03  0.15209847E-02 -0.19673328E-02
  0.21085310E-02 -0.13865940E-03 -0.64482172E-03
  0.77835930E-03  0.23760917E-02  0.72049236E-04
 -0.16885333E-02  0.27303533E-02 -0.20778428E-02
  0.37100113E-03 -0.15840910E-02 -0.97977785E-03
 -0.84156797E-03 -0.12971211E-03  0.84160070E-03
 -0.25569803E-03  0.12058405E-02  0.12472435E-02
 -0.53330673E-03  0.23485728E-02 -0.19637058E-02
  0.38760056E-03 -0.15259721E-02  0.90285011E-03
  0.98648786E-03  0.16847098E-02  0.55300038E-03
  0.28133367E-02  0.61328654E-03  0.13231291E-02
 -0.23310779E-02 -0.13752084E-02 -0.76408797E-05
  0.48483702E-03  0.37432080E-03 -0.56840911E-03
 -0.15226453E-02  0.24724382E-02 -0.26154499E-04
  0.14546120E-02 -0.15039179E-02 -0.12304597E-02
 -0.19881424E-02  0.11763517E-03 -0.87465269E-03
 -0.26636715E-02 -0.20706300E-02 -0.10456253E-02
  0.18960585E-04 -0.13595146E-03 -0.21737061E-02
  0.18171174E-02 -0.15012751E-02 -0.14902456E-02
 -0.41104375E-04  0.58587942E-03  0.20555092E-02
  0.20452831E-02 -0.15649382E-02  0.15288535E-02
  0.19917923E-02  0.55135779E-03  0.28796506E-02
  0.28160746E-02  0.73929666E-03  0.77783752E-03
  0.44822301E-03  0.99715435E-03 -0.10616144E-02
 -0.75213331E-03 -0.20374519E-03  0.11843575E-03
  0.10077140E-03  0.53742850E-03 -0.14187503E-02
 -0.13746159E-02 -0.26447774E-02  0.20446231E-02
  0.29646897E-02  0.22030132E-02 -0.12642602E-02
 -0.20690912E-03  0.54356967E-03 -0.25944579E-03
  0.92327213E-03  0.12024916E-02  0.13744749E-03
  0.80499955E-03  0.75424432E-03  0.13103208E-02
 -0.10676196E-02 -0.21271947E-03  0.43263788E-03
  0.39879374E-03  0.32497558E-02 -0.15579565E-02
  0.19489524E-03 -0.26335491E-02  0.18488298E-02
  0.23463814E-02  0.81832364E-03  0.34876512E-04
  0.26893940E-02 -0.84759808E-03 -0.44106173E-02
 -0.18933090E-02 -0.14789095E-02  0.83777543E-03
  0.67652104E-03 -0.16851199E-02 -0.87760093E-03
 -0.79551607E-03 -0.24285966E-02  0.21764126E-02
 -0.88512179E-04 -0.12444370E-02  0.22609417E-02
 -0.32397596E-03  0.88875212E-03  0.22828200E-02
 -0.14118591E-02 -0.15849192E-02 -0.99692447E-04
  0.44244445E-03  0.37554587E-02  0.83352571E-04
  0.26933978E-02 -0.21978828E-02  0.13654491E-02
  0.13553649E-03 -0.21783362E-02 -0.16761926E-02
 -0.21428618E-02  0.75404894E-04  0.14434705E-02
 -0.11090312E-02 -0.32138330E-02  0.47569153E-03
 -0.85880820E-03  0.88477344E-03 -0.14169290E-02
 -0.13037613E-02  0.18344966E-02  0.23873837E-02
  0.23210017E-02 -0.18968872E-03 -0.13953635E-02
  0.50945670E-03  0.42991088E-02 -0.11078088E-02
  0.11846881E-02 -0.11717550E-02  0.36693123E-03
  0.32828514E-03  0.98202421E-03 -0.51982120E-03
 -0.33634975E-02  0.72124821E-03  0.17924939E-02
 -0.24430690E-02 -0.12112909E-02 -0.47011746E-04
  0.12629091E-02  0.13660996E-02 -0.76038010E-03
 -0.14530264E-02 -0.54245457E-04  0.22264421E-02
 -0.33458190E-03  0.72233238E-04  0.18783092E-02
 -0.34774056E-02 -0.35315884E-02  0.40103779E-02
 -0.22847059E-03 -0.43400667E-02  0.16269380E-02
 -0.10462100E-02 -0.25137990E-02 -0.19554711E-02
 -0.18715217E-02 -0.78697096E-03  0.10891509E-02
 -0.32767264E-02  0.15157250E-02  0.11521089E-02
  0.97414786E-03 -0.30536245E-02  0.10723432E-02
  0.13811467E-02 -0.11694210E-02  0.16610100E-02
  0.14148120E-04  0.62656806E-03  0.20196802E-02
  0.19132537E-02 -0.17878354E-02 -0.11463147E-02
 -0.16507391E-02  0.70977922E-03  0.19269684E-03
 -0.39006469E-03  0.27150679E-03  0.18933632E-03
 -0.26713057E-02 -0.23527736E-03  0.10853325E-02
  0.27808439E-02 -0.17006027E-03 -0.24381954E-02
  0.19749449E-02  0.68164085E-03 -0.11017008E-02
  0.50810943E-03  0.99601338E-03  0.20893783E-02
 -0.56364859E-03  0.10427105E-02 -0.13629941E-02
  0.15672347E-02  0.26535653E-02  0.31622780E-02
  0.15348137E-02 -0.20388799E-02 -0.21445715E-02
 -0.65300270E-03 -0.36174064E-04 -0.25663850E-02
  0.70208429E-03  0.23393205E-02  0.56452698E-04
 -0.11981582E-03 -0.11297166E-02 -0.35732885E-02
  0.11814113E-02 -0.19881951E-03  0.14403452E-02
  0.86634705E-03  0.12813963E-02 -0.30712866E-02
 -0.21881377E-02 -0.21526260E-02  0.91740009E-03
 -0.25655909E-02 -0.88911577E-03  0.60988870E-03
  0.23568417E-02 -0.33985587E-02  0.23035167E-02
 -0.19628724E-02 -0.13763448E-02 -0.18747351E-03
  0.37088036E-03  0.61742719E-05 -0.34865227E-02
 -0.10557456E-02 -0.47593292E-03  0.58562676E-03
  0.16641041E-02 -0.27211363E-02 -0.14489643E-02
  0.89673839E-03  0.87528693E-03  0.37843590E-03
 -0.21890346E-02 -0.18308020E-02  0.25391525E-03
 -0.13676557E-02  0.37841694E-03 -0.20571574E-02
  0.19244010E-02 -0.58406664E-03  0.17275945E-02
 -0.10231064E-02 -0.29032899E-03  0.28096728E-02
  0.56078438E-02  0.13570266E-02  0.30926271E-02
  0.32183232E-03 -0.19728667E-02  0.22318318E-02
  0.10493621E-02 -0.17925396E-02 -0.14213565E-02
 -0.13598009E-02 -0.41681057E-03  0.51283694E-03
 -0.99422192E-03 -0.81920569E-03 -0.95776896E-03
  0.68361137E-03 -0.16336782E-02  0.96288115E-03
  0.18859107E-04 -0.77018958E-03  0.12300324E-03
 -0.28606560E-03 -0.66040445E-03  0.22958763E-03
  0.24715873E-02  0.21479190E-02 -0.50383295E-03
  0.29266970E-03  0.23289202E-02 -0.43884631E-03
 -0.15680018E-02 -0.19087363E-02  0.11407024E-02
 -0.56488716E-04  0.21542308E-02  0.15602438E-02
  0.22285760E-02  0.36973079E-03 -0.15980507E-02
 -0.39012051E-02 -0.83491439E-03 -0.26936102E-02
  0.94780834E-03 -0.10118680E-02  0.79705996E-03
 -0.33729686E-02  0.28494325E-02  0.26644975E-02
  0.13459701E-02 -0.18970859E-03 -0.62904259E-02
  0.33232487E-02  0.14790101E-02  0.16144970E-02
  0.16682709E-02 -0.55874503E-03 -0.27232564E-02
  0.19744955E-02 -0.38905543E-02  0.39090995E-04
 -0.21356720E-02  0.18826537E-02 -0.21837502E-02
 -0.42043472E-03 -0.14529796E-02 -0.69949675E-03
 -0.26855435E-02  0.27284340E-02  0.26254049E-02
 -0.14531752E-02  0.31077208E-02  0.11852072E-02
 -0.16694288E-02  0.86070477E-03 -0.15709228E-02
  0.20221769E-02 -0.27862722E-02 -0.49343732E-03
 -0.80732604E-03 -0.67680844E-03  0.13750973E-02
  0.12895257E-02  0.16437671E-02 -0.27777736E-02
  0.81467629E-03 -0.14301369E-02  0.58474153E-04
 -0.15079144E-02 -0.52132714E-03  0.78457310E-03
  0.15446821E-02  0.51816407E-03  0.24493791E-02
 -0.90563327E-03 -0.80217407E-03 -0.64558102E-03
  0.14066003E-02 -0.28551258E-03  0.10271475E-02
 -0.24852399E-03 -0.11753658E-02  0.45627988E-03
 -0.26682910E-02  0.31163818E-02 -0.36825713E-03
  0.15143773E-02 -0.35645124E-02  0.16328561E-02
 -0.74260510E-03 -0.16961473E-02  0.27087299E-02
  0.25503740E-03  0.11253770E-02 -0.10340426E-02
 -0.26018145E-02 -0.45651374E-03 -0.88999040E-03
  0.46345622E-03  0.96568077E-03 -0.29378415E-02
 -0.25642543E-03  0.20747422E-02 -0.31021932E-02
  0.22627834E-02  0.16367280E-02  0.11223961E-02
 -0.59772455E-03 -0.23018387E-02  0.85379972E-03
 -0.13755370E-02 -0.26916568E-02 -0.10732254E-02
  0.48277621E-04  0.19249321E-02  0.31096091E-02
  0.20582140E-02 -0.42547547E-03 -0.26774872E-02
 -0.19102149E-03  0.11018006E-02 -0.27306416E-02
  0.18984058E-02  0.20826676E-02  0.11223693E-02
 -0.22199196E-03 -0.28842544E-02 -0.66358461E-03
  0.21396162E-02 -0.12803955E-02  0.21214284E-02
 -0.68770037E-03  0.11399316E-02 -0.12009994E-02
  0.51115767E-03  0.19287649E-02 -0.29290107E-03
  0.27487680E-02  0.14093248E-02  0.53755474E-03
  0.34578795E-02  0.79761335E-03 -0.41714829E-02
  0.22215282E-02  0.44678028E-03  0.22746327E-02
  0.15059876E-02 -0.97496691E-04  0.13794610E-03
 -0.28442484E-02  0.20468527E-02 -0.93048560E-03
  0.18744204E-03 -0.36747302E-02  0.51959644E-03
  0.16777329E-02  0.30798187E-02 -0.17352435E-02
 -0.69078466E-04 -0.91738634E-05 -0.42669311E-03
 -0.61300090E-03 -0.65530729E-03  0.49549173E-03
 -0.33305996E-02  0.67045260E-03  0.13644235E-02
 -0.25777761E-02  0.12567561E-02 -0.24494107E-03
  0.11794607E-02 -0.26316249E-02  0.21456576E-02
 -0.23689980E-02  0.18000807E-02  0.92082912E-03
 -0.55509423E-03  0.22030907E-02  0.33274030E-02
  0.11878710E-02  0.80562615E-03  0.44843542E-02
  0.24031116E-03  0.14559916E-02 -0.22005164E-02
 -0.86995834E-03  0.17377143E-03  0.30319866E-02
 -0.17031664E-03  0.30491348E-03 -0.20955510E-02
 -0.26289820E-04  0.18418397E-02 -0.20976220E-02
 -0.10318277E-02 -0.26739819E-02 -0.44272607E-03
 -0.62374655E-03 -0.12149110E-02 -0.82002406E-03
  0.16888823E-02  0.16010521E-02 -0.13358484E-02
 -0.77971854E-03  0.14110570E-02  0.18784039E-02
  0.63885065E-03 -0.14185907E-03 -0.24813312E-02
  0.57391380E-03  0.13565749E-03 -0.15687447E-02
  0.54861257E-03  0.43752093E-04 -0.20369713E-02
 -0.19117696E-02  0.14767504E-03 -0.16358044E-03
  0.91312911E-03  0.15069231E-02  0.20207685E-02
 -0.82905977E-03 -0.31738668E-02  0.67386159E-03
 -0.16065603E-02 -0.17666947E-02 -0.31415603E-02
  0.11327971E-02 -0.10771900E-02  0.26144640E-03
 -0.91419436E-03  0.32143141E-02  0.74500609E-03
  0.10232745E-04 -0.70772731E-03  0.19460043E-02
 -0.23796249E-02  0.19485962E-02 -0.75322855E-03
 -0.32616768E-02  0.34235008E-02 -0.69499901E-03
 -0.81268593E-03 -0.10811118E-02  0.63928121E-04
 -0.32454440E-02 -0.34501137E-02  0.12189117E-02
 -0.49972218E-03 -0.10286269E-03 -0.60868943E-03
  0.14519496E-02  0.29909133E-02 -0.25455758E-03
 -0.56998404E-03 -0.22350290E-02  0.30030343E-02
 -0.19212372E-02 -0.22385857E-02 -0.23771431E-02
 -0.36048617E-02 -0.11531628E-02 -0.87095586E-03
  0.20547550E-02  0.35467265E-02  0.14108396E-02
  0.70599764E-03 -0.74549709E-03  0.10511747E-02
 -0.20757298E-02  0.34017502E-03 -0.84617728E-03
  0.19340362E-02  0.27101331E-02 -0.22940340E-02
 -0.17959008E-03  0.38909001E-03  0.61390776E-03
  0.83184709E-03 -0.20153639E-02  0.22953862E-02
  0.64235941E-03 -0.41008652E-03  0.17237765E-02
 -0.94505654E-03 -0.20244947E-02 -0.29218260E-02
  0.42094802E-03  0.15262353E-02  0.10650948E-02
  0.80503343E-03  0.12946169E-02 -0.13881669E-02