Sn4 Se4                                 
   1.00000000000000     
     4.2908615859939525    0.0000000000000000    0.0000000000000003
     0.0000000000000019   12.1366812094215231    0.0000000000000007
     0.0000000000000000    0.0000000000000000    4.3050443546493558
   Sn   Se
     4     4
Direct
  0.5000000000000000  0.3691511219547003  0.2500000000000000
  0.0000000000000000  0.1308488780452997  0.7500000000000000
  0.0000000000000000  0.8691511219547006  0.2500000000000000
  0.5000000000000000  0.6308488780452994  0.7500000000000000
  0.5000000000000000  0.1433287813154760  0.2500000000000000
  0.0000000000000000  0.3566712186845242  0.7500000000000000
  0.0000000000000000  0.6433287813154760  0.2500000000000000
  0.5000000000000000  0.8566712186845240  0.7500000000000000
 
  0.00000000E+00  0.00000000E+00  0.00000000E+00
  0.00000000E+00  0.00000000E+00  0.00000000E+00
  0.00000000E+00  0.00000000E+00  0.00000000E+00
  0.00000000E+00  0.00000000E+00  0.00000000E+00
  0.00000000E+00  0.00000000E+00  0.00000000E+00
  0.00000000E+00  0.00000000E+00  0.00000000E+00
  0.00000000E+00  0.00000000E+00  0.00000000E+00
  0.00000000E+00  0.00000000E+00  0.00000000E+00
