Sb6 Te3                                 
   1.00000000000000     
    12.8901813262761049    0.0000000000000000    0.0000000000000000
    -6.4450906631380525   11.1632244878913784    0.0000000000000000
     0.0000000000000000    0.0000000000000000   18.1755905604228687
   Sb   Te   Ag   In
    49    24     4     4
Direct
  0.2284551774022603  0.1238490514040294  0.1139544958728109
  0.2266160568043887  0.4314803142039807  0.1109105050362231
  0.2339444043642658  0.7822360012768002  0.1199077667818784
  0.5364437694162945  0.4323517878133245  0.1049913553594735
  0.5459143049925075  0.0973254284760685  0.1195516106874095
  0.8831128330615954  0.1049860283167590  0.1101300374790597
  0.8881905414094788  0.4421411208836261  0.1089213961220636
  0.8856365464499021  0.7771597523475364  0.1137841977590597
  0.0061313676811068  0.0075360722353111  0.3406787087674488
  0.9906567417653989  0.3443432180310353  0.3488871277857939
  0.0078702629041487  0.6705818987217285  0.3434670227913585
  0.3413395811667002  0.0010429589253675  0.3444708912823842
  0.6574899724990786  0.0016257339912471  0.3397211077774855
  0.3401398817295771  0.6880875371351891  0.3394725005658898
  0.6841459564474448  0.3426732343135868  0.3542597046438658
  0.6725698468182628  0.6749762948907190  0.3455400237074500
  0.2237896675784867  0.4592658187851839  0.4214803228247135
  0.2261545895388792  0.7849000720582211  0.4340832008685354
  0.2290299161918981  0.1170413119112581  0.4230584930967254
  0.5583700352194043  0.1139385281513086  0.4342775512408821
  0.5622767683260221  0.4492738249850277  0.4259522889200653
  0.5547825109189901  0.7884564380524708  0.4308325548758987
  0.8876025211997032  0.1124881252427699  0.4267060368358386
  0.8998739420768231  0.7871849105951156  0.4259717211665901
  0.1080706375327267  0.2223366165716598  0.5641832014203132
  0.4184698350662330  0.5466352009282573  0.5531463868464215
  0.4489111191158983  0.2286821387290630  0.5628083635626808
  0.1168605991656335  0.8941412375007829  0.5672423822806465
  0.1110282703399506  0.5568525839692597  0.5713852168293201
  0.7835950145072701  0.8962818762486293  0.5586297563241018
  0.8108319921911189  0.5391403475095515  0.5516852632478262
  0.7818211305039000  0.2227512623980346  0.5698628911651795
  0.9953197790308650  0.0002548400000251  0.6497312120856265
  0.0007870410459603  0.3302602425770615  0.6577237980823440
  0.0057569446132106  0.6725591451388553  0.6553478972058926
  0.3372206882578652  0.6645597411503914  0.6500846723851481
  0.3346525769818669  0.3383776150742008  0.6457827738431874
  0.3388829739521952  0.0108892288398650  0.6495717670254493
  0.6715320781873544  0.3379369948860571  0.6506621757726521
  0.6840660992146610  0.0016549164248616  0.6541089462980239
  0.4349012388843647  0.5373542281427817  0.8988414705922949
  0.4399731587736539  0.8843392380373061  0.9005875974572390
  0.7752663727672058  0.2201055256628592  0.8866511970120072
  0.7755895286779833  0.8862888417272856  0.8918127931011810
  0.7725058410969154  0.5518899313841032  0.9038604134340815
  0.1220301992065416  0.2258461946153503  0.8870308478726585
  0.1101943117726663  0.5524980094522789  0.8965592390861659
  0.4353676344283102  0.2276896683770531  0.8954026842013931
  0.1092397355627881  0.8885383029072074  0.8957529650351432
  0.0029991280723820  0.0033579699926420  0.0057410597622791
  0.0020307146446186  0.3315808214569103  0.0055744013449299
  0.0017379520375016  0.6689156714190361  0.0034150094794327
  0.3312197051741848  0.0010898102468317  0.0028565287875537
  0.6607926737058563  0.9951642961829492  0.0092752454825060
  0.3300893682408557  0.6624717793261041  0.0023859232852601
  0.6557890507193918  0.3268123137004366  0.0060132650577813
  0.6559988684753435  0.6610106337585862  0.0084273418509326
  0.1132744842825062  0.2232414462474708  0.2106041535320742
  0.1129993682866157  0.5532983276786041  0.2023664012921316
  0.1085852426933016  0.8749528036835343  0.2131413806881284
  0.4459292710898382  0.2211706942241065  0.2114590048122764
  0.4344709730573442  0.5376234031511729  0.2151975507591715
  0.7764007044923744  0.2243354434975586  0.2061450675699490
  0.7831459043939404  0.8914069771534230  0.2085702519785144
  0.7672827644826938  0.5502979020286531  0.2021262830766375
  0.8820403088923996  0.7743192898122402  0.8040646085709753
  0.5550425844568991  0.1131482411613334  0.8038361073182259
  0.5548793575666977  0.4450332623855857  0.8006904249913021
  0.5525175319265543  0.7663168762471813  0.8087377904480988
  0.8842110057908315  0.4434626248015761  0.8009345141053785
  0.2221540881018242  0.4453442417811360  0.7961206630561435
  0.2210051067979180  0.7762353739672605  0.8016660639193773
  0.2223537686551111  0.1095345337602751  0.7939830624985049
  0.3209109910913739  0.3204325009537285  0.0015485151626535
  0.4369949470592402  0.8919871108347337  0.2211573612904090
  0.8977890281933654  0.4495323045618846  0.4420116501526934
  0.6674252172449329  0.6434665798234178  0.5447370663508693
  0.5401869851305392  0.7809000818979683  0.1229694803682833
  0.3335011999216206  0.3424241585259225  0.3372444313005900
  0.4508071321215184  0.8933531266533521  0.5697167316028526
  0.8820233233606629  0.1049707550839045  0.7878162606881745
 
  0.00000000E+00  0.00000000E+00  0.00000000E+00
  0.00000000E+00  0.00000000E+00  0.00000000E+00
  0.00000000E+00  0.00000000E+00  0.00000000E+00
  0.00000000E+00  0.00000000E+00  0.00000000E+00
  0.00000000E+00  0.00000000E+00  0.00000000E+00
  0.00000000E+00  0.00000000E+00  0.00000000E+00
  0.00000000E+00  0.00000000E+00  0.00000000E+00
  0.00000000E+00  0.00000000E+00  0.00000000E+00
  0.00000000E+00  0.00000000E+00  0.00000000E+00
  0.00000000E+00  0.00000000E+00  0.00000000E+00
  0.00000000E+00  0.00000000E+00  0.00000000E+00
  0.00000000E+00  0.00000000E+00  0.00000000E+00
  0.00000000E+00  0.00000000E+00  0.00000000E+00
  0.00000000E+00  0.00000000E+00  0.00000000E+00
  0.00000000E+00  0.00000000E+00  0.00000000E+00
  0.00000000E+00  0.00000000E+00  0.00000000E+00
  0.00000000E+00  0.00000000E+00  0.00000000E+00
  0.00000000E+00  0.00000000E+00  0.00000000E+00
  0.00000000E+00  0.00000000E+00  0.00000000E+00
  0.00000000E+00  0.00000000E+00  0.00000000E+00
  0.00000000E+00  0.00000000E+00  0.00000000E+00
  0.00000000E+00  0.00000000E+00  0.00000000E+00
  0.00000000E+00  0.00000000E+00  0.00000000E+00
  0.00000000E+00  0.00000000E+00  0.00000000E+00
  0.00000000E+00  0.00000000E+00  0.00000000E+00
  0.00000000E+00  0.00000000E+00  0.00000000E+00
  0.00000000E+00  0.00000000E+00  0.00000000E+00
  0.00000000E+00  0.00000000E+00  0.00000000E+00
  0.00000000E+00  0.00000000E+00  0.00000000E+00
  0.00000000E+00  0.00000000E+00  0.00000000E+00
  0.00000000E+00  0.00000000E+00  0.00000000E+00
  0.00000000E+00  0.00000000E+00  0.00000000E+00
  0.00000000E+00  0.00000000E+00  0.00000000E+00
  0.00000000E+00  0.00000000E+00  0.00000000E+00
  0.00000000E+00  0.00000000E+00  0.00000000E+00
  0.00000000E+00  0.00000000E+00  0.00000000E+00
  0.00000000E+00  0.00000000E+00  0.00000000E+00
  0.00000000E+00  0.00000000E+00  0.00000000E+00
  0.00000000E+00  0.00000000E+00  0.00000000E+00
  0.00000000E+00  0.00000000E+00  0.00000000E+00
  0.00000000E+00  0.00000000E+00  0.00000000E+00
  0.00000000E+00  0.00000000E+00  0.00000000E+00
  0.00000000E+00  0.00000000E+00  0.00000000E+00
  0.00000000E+00  0.00000000E+00  0.00000000E+00
  0.00000000E+00  0.00000000E+00  0.00000000E+00
  0.00000000E+00  0.00000000E+00  0.00000000E+00
  0.00000000E+00  0.00000000E+00  0.00000000E+00
  0.00000000E+00  0.00000000E+00  0.00000000E+00
  0.00000000E+00  0.00000000E+00  0.00000000E+00
  0.00000000E+00  0.00000000E+00  0.00000000E+00
  0.00000000E+00  0.00000000E+00  0.00000000E+00
  0.00000000E+00  0.00000000E+00  0.00000000E+00
  0.00000000E+00  0.00000000E+00  0.00000000E+00
  0.00000000E+00  0.00000000E+00  0.00000000E+00
  0.00000000E+00  0.00000000E+00  0.00000000E+00
  0.00000000E+00  0.00000000E+00  0.00000000E+00
  0.00000000E+00  0.00000000E+00  0.00000000E+00
  0.00000000E+00  0.00000000E+00  0.00000000E+00
  0.00000000E+00  0.00000000E+00  0.00000000E+00
  0.00000000E+00  0.00000000E+00  0.00000000E+00
  0.00000000E+00  0.00000000E+00  0.00000000E+00
  0.00000000E+00  0.00000000E+00  0.00000000E+00
  0.00000000E+00  0.00000000E+00  0.00000000E+00
  0.00000000E+00  0.00000000E+00  0.00000000E+00
  0.00000000E+00  0.00000000E+00  0.00000000E+00
  0.00000000E+00  0.00000000E+00  0.00000000E+00
  0.00000000E+00  0.00000000E+00  0.00000000E+00
  0.00000000E+00  0.00000000E+00  0.00000000E+00
  0.00000000E+00  0.00000000E+00  0.00000000E+00
  0.00000000E+00  0.00000000E+00  0.00000000E+00
  0.00000000E+00  0.00000000E+00  0.00000000E+00
  0.00000000E+00  0.00000000E+00  0.00000000E+00
  0.00000000E+00  0.00000000E+00  0.00000000E+00
  0.00000000E+00  0.00000000E+00  0.00000000E+00
  0.00000000E+00  0.00000000E+00  0.00000000E+00
  0.00000000E+00  0.00000000E+00  0.00000000E+00
  0.00000000E+00  0.00000000E+00  0.00000000E+00
  0.00000000E+00  0.00000000E+00  0.00000000E+00
  0.00000000E+00  0.00000000E+00  0.00000000E+00
  0.00000000E+00  0.00000000E+00  0.00000000E+00
  0.00000000E+00  0.00000000E+00  0.00000000E+00
