Amorphous Sb                            
   1.00000000000000     
    22.0038363270341506    0.0000000000000000    0.0000000000000000
     0.0000000000000000   22.0038363270341506    0.0000000000000000
     0.0000000000000000    0.0000000000000000   22.0038363270341506
   Sb   Te
   200   100
Direct
  0.2354208419178842  0.7307046005825708  0.3575034241952746
  0.6333988825567171  0.9077012415531984  0.6055537189644419
  0.6686553988884469  0.1055028345085143  0.8940132919550721
  0.5996266051678260  0.7482653089825991  0.7429563414297268
  0.3712140349841164  0.6119599598691281  0.4018102055639824
  0.7230233579242987  0.1483953106152350  0.1651800981403157
  0.8704477701199645  0.6906117053889596  0.2645317973324300
  0.8642174027107631  0.0756880812353049  0.2172644784691526
  0.4585414060834914  0.0501566308670479  0.5506887162308745
  0.7000584217766387  0.3423523650392235  0.7922047800912597
  0.6913487737168247  0.5790523792666591  0.3344602924195543
  0.7228849960704851  0.5439503415114514  0.0487512691301025
  0.5386507995789696  0.0737850950623070  0.7482590724265150
  0.3501953948523604  0.3376061728531770  0.9666653209628298
  0.8450726541527487  0.0398357316516487  0.5092810647118717
  0.6790491364833930  0.0322013527906127  0.7108816381684736
  0.9772225581923067  0.0269757395427359  0.2493332740054263
  0.6114842976997801  0.1886703542328443  0.3830292562217160
  0.0931459598053189  0.5171716535442128  0.5063379936140496
  0.1694688410917048  0.2329112782600156  0.7128687207165272
  0.9175444572908797  0.1510529596582907  0.5132235846957928
  0.7922746199597653  0.0604302008385394  0.6586456641159395
  0.1617189592504948  0.9013131724239811  0.4102610141861270
  0.7999227904023404  0.2202047115683288  0.5900867318959070
  0.9077080951465007  0.9516985202757237  0.5828841632870926
  0.6002895194776317  0.8662298505307652  0.7948249310487084
  0.8362462746912260  0.3325769718234300  0.5551334822523472
  0.4564790044586122  0.5192018854332471  0.5297371486438157
  0.1595098467310029  0.0700313903096557  0.9816393188607488
  0.1869389956405230  0.3632394421743874  0.4670680660023375
  0.1735957138780071  0.2860444606623392  0.5714636107748827
  0.4855014507389746  0.2934667554983574  0.1687610085717270
  0.8113745308121646  0.5377119165070315  0.8543955303325536
  0.3391301935740206  0.0816085463406760  0.5547374391814482
  0.6269075816240411  0.6026439802151323  0.8837455355007898
  0.9660187820929000  0.3153217470171766  0.2149935878990767
  0.0904644607010649  0.9071785694890330  0.2442864734411886
  0.5194608849537268  0.5306645237265224  0.8581498638445064
  0.6933381201429364  0.5213085199851699  0.8151015869252149
  0.4040268965001451  0.7248303790234910  0.2520090952452342
  0.2444717265463664  0.9480012446008578  0.3247375901839390
  0.7590062348865749  0.1702686133761844  0.4781629653887335
  0.4910972434601740  0.5833498213565182  0.3273689585001208
  0.9093595631169900  0.5290655484739772  0.9948511161275534
  0.9257437379818089  0.3679525113570901  0.7564224062031933
  0.4713123241621148  0.4368811327818035  0.4257675839253461
  0.8200759089259896  0.5754158525223239  0.6722162071981994
  0.9419856336264226  0.0730877173857940  0.4155527284794194
  0.8408745112169814  0.1370723256566345  0.7498473397307954
  0.9823716460113584  0.0606738854541789  0.5995541033557373
  0.2941478619883755  0.4550896062881359  0.2667503544648656
  0.0745126058274120  0.4736946931495225  0.6329240718758439
  0.8571311880637797  0.7933727367991102  0.5172088754420379
  0.8402496446699753  0.7377235053560603  0.9171076724319779
  0.1210205645147253  0.6570487913635541  0.3763154899273715
  0.2907140725461847  0.5685279933295186  0.5984962936939815
  0.0813165211061584  0.0028937612389840  0.5114182368278832
  0.5775025748754974  0.7733542835369603  0.9511293949702568
  0.4701238483324817  0.4191344327096158  0.1875670631065480
  0.0910931990098381  0.1790190299554730  0.9042720595804389
  0.7699657007047511  0.4191386697797279  0.9119309059014997
  0.3461268452693266  0.9479081619103435  0.4002253822676932
  0.3652785838383296  0.9302923074661442  0.6519377976283606
  0.0735606224942055  0.5471251344117364  0.9520638797950456
  0.9219743216119800  0.3360607774350549  0.1070232773674969
  0.8661035036601433  0.3773508474470811  0.2796369223269520
  0.6364517058919537  0.0441139039973242  0.0947410983446069
  0.6600299408506872  0.4539174914724275  0.1465993147179777
  0.0566867590716545  0.9809836425368111  0.3832762094605228
  0.9965493916580727  0.4453695246568624  0.9146842957284906
  0.2899946900630431  0.1175326199288675  0.9045299334757496
  0.7491397730289181  0.3642556689958136  0.1899903100950562
  0.1941522046153659  0.1868715556363148  0.2507991657351017
  0.0118532073384623  0.5184324056137496  0.0671133632539722
  0.9568034593958658  0.5556253874761420  0.6566461404143865
  0.1474450371867371  0.7635863657170339  0.8598528644406502
  0.9838272972442041  0.2511641872351454  0.8963185638792579
  0.9595995395861164  0.9033903246961955  0.4228760607763372
  0.8943845856145448  0.9696941946589388  0.0291198960290124
  0.1417699042177198  0.7585415757379473  0.5722478768020286
  0.9538505362892764  0.6642754611362861  0.1466455625865690
  0.1374948988247094  0.0358781419924718  0.2285999601473646
  0.5846883103757478  0.7792510979889247  0.4664145141831424
  0.7755654110801200  0.3020935907717901  0.0810764335582125
  0.1611548853145250  0.7733122953788686  0.9936377827903706
  0.7376952828887001  0.6024964920532636  0.5268335421248020
  0.3652841638869542  0.0545394358567571  0.0585109152859440
  0.5492948633688981  0.1915847094445271  0.8005220989929290
  0.5916994535039454  0.4485686846704733  0.2490667960375005
  0.0439242777704153  0.1059518317060410  0.1822414009694813
  0.6250922450154207  0.9465996910698043  0.4332326830288225
  0.3985863852827510  0.5609697945255940  0.9704071464424495
  0.9621175007459390  0.4549582411167181  0.3287106942991554
  0.3013013784808747  0.2644605040448103  0.5924962344687154
  0.1332904434196188  0.4807066897300021  0.2902992998476061
  0.5589067128408122  0.4655620249639962  0.7563956381948630
  0.6806017250605603  0.3116878770669072  0.9218392003723893
  0.8364800995240987  0.0652287409188941  0.3497224235196745
  0.9494440850920643  0.6823436445516251  0.9568368784023791
  0.2999369554535743  0.5005250770212556  0.1425150279508096
  0.4974923698727051  0.6500317894788511  0.7959326897665147
  0.2014396469872760  0.3725190612625612  0.2485401569791115
  0.5345235029121665  0.4398217422428919  0.9855128751966943
  0.3171824171228243  0.3604070513409373  0.7629719277551528
  0.3874272443010143  0.4241898312219193  0.0872012431608274
  0.1217129538601436  0.6603696232631232  0.2489681124559486
  0.1878524566034135  0.1713749276056600  0.5148948947873015
  0.4155127461981172  0.1226914382083935  0.8725255430891860
  0.4992470326041157  0.8573665144343482  0.8785773834646671
  0.8379212521794036  0.2182090059934582  0.1618724868168841
  0.6601642236748509  0.8719263839395139  0.3042467042420789
  0.1123268908542443  0.7937409968912986  0.7045766289550121
  0.0114237892764737  0.9496362592953937  0.1481658050744917
  0.4515231140600471  0.2544485846741561  0.5114725792702286
  0.8887868904808082  0.1441730991362067  0.0744112474431844
  0.9577548674538926  0.8038286161616002  0.3350165375599282
  0.8109989972078927  0.9642841416963952  0.1982482914744217
  0.4658074771498332  0.6614528380207474  0.1481233276801477
  0.9659353208575905  0.7958026918473537  0.0281234988548885
  0.7134844073509542  0.9608841745301985  0.8074223483659446
  0.4261553983746045  0.9483126027688102  0.1029946324401201
  0.6860966343362520  0.8210900099470950  0.8898621355944423
  0.9308450350643585  0.3183632094087149  0.4650958669945135
  0.3936084568022237  0.5972123906711245  0.2365485769659569
  0.8185959715135303  0.7945827121239650  0.0336549879122308
  0.1271317246507982  0.1385364462026906  0.7881281582515294
  0.4222299733382056  0.8234875777047087  0.6035242803238549
  0.2776064030539577  0.6072128722602999  0.3176787128517914
  0.0209471138839396  0.0705423228301306  0.9122317182762788
  0.5868112409819212  0.0501385186298772  0.2694362266766673
  0.4751329602447584  0.5260572453350906  0.0633942914458425
  0.2712806501169494  0.8420221082446340  0.2561165475703576
  0.4002662098458471  0.3739956363902672  0.2877405692299995
  0.7176483758615927  0.7332278023575910  0.1913494169116910
  0.7228064497288641  0.9366283472545641  0.5165013621857867
  0.6933231591929810  0.2040405627266696  0.0513604205266916
  0.4501061387287970  0.4156282007926714  0.6116207581314501
  0.4756230587084830  0.7175356094994242  0.4325607854116791
  0.7281304205651422  0.1871839714515689  0.3188324718583138
  0.6702796391811583  0.4561705619461929  0.4572695639099785
  0.9009857245657968  0.8890162138289079  0.1337306629397780
  0.8549046991044100  0.9574729594138958  0.7046467767712414
  0.6918205407290888  0.1462140293722131  0.7719301923268871
  0.3251642512124244  0.6486545066262638  0.8784456076289808
  0.7619431800673345  0.2773979765800606  0.4029362644761798
  0.0720712512678043  0.0171933505214570  0.8006246813391686
  0.2710164739725923  0.2280238647648235  0.9757918940362458
  0.8112881738920945  0.9019783915440392  0.9564372465887226
  0.4372021966024427  0.4774242271756496  0.7244641139853569
  0.0382807298348883  0.7573214966467234  0.1240163000408471
  0.1455913812942975  0.1101115593242753  0.3407182668225320
  0.5634077967341108  0.9618377649548625  0.1744152744966271
  0.5202501913927504  0.7089699120865991  0.3130437584581645
  0.5267238741172183  0.1125903727283278  0.0709841766500600
  0.3624927332443650  0.7123065433648589  0.0982473870605968
  0.0468988755153986  0.3877033696245938  0.0747031176238781
  0.4268827043341929  0.7834934426074077  0.0116492876276447
  0.0233918770704802  0.5741586084195076  0.2228806549659274
  0.6103449532963180  0.0709947264687748  0.4570754774600528
  0.4206627240471627  0.7888404849808758  0.8031013999352463
  0.7858337045354187  0.1376795621342886  0.9953057713598487
  0.3292231649454119  0.7766266010828236  0.8967117865026437
  0.2107901531879882  0.3993969857458728  0.7081717933946210
  0.3325876466472601  0.1984014410412885  0.0840088821620405
  0.6928183885746448  0.4574551598535501  0.6596940636430759
  0.2058323551052350  0.9719310966561163  0.5083148809337795
  0.5717057413356955  0.3573858427007808  0.4553140552424384
  0.8068614733755332  0.4458974076719100  0.0348053260590636
  0.5103877257839543  0.9695562666608452  0.3457914047336715
  0.3263481498278435  0.3866588738283366  0.5743757504974939
  0.2635757403388815  0.8132676869209902  0.5577943872755571
  0.8752621545006629  0.6454238768751269  0.0516279902014991
  0.1883614701428100  0.4487068847068760  0.0887679675446141
  0.0367466247957013  0.1716525651534779  0.7054045492389325
  0.2338595819998349  0.5186519025493003  0.7489637021960974
  0.1310497181911227  0.5800674261191882  0.6833636421999224
  0.4785014479713100  0.0099924866324376  0.9981433765911765
  0.1238552904441937  0.9242204079064424  0.8750381226279766
  0.3899949594105054  0.9050257034417906  0.7723189235064875
  0.3282392355927089  0.0034709743584800  0.9500814855085484
  0.3374869191430314  0.1962305971231825  0.4852874003985056
  0.2490199194294001  0.2795932400834454  0.3280697966970480
  0.9997532665565653  0.7241063233267814  0.7268241823869916
  0.6306299329266785  0.2578991989893393  0.7176239432146277
  0.3939749744304517  0.9965598962404842  0.2932261639886165
  0.1750352154119301  0.4469978090071856  0.8351113965940760
  0.3814468431152385  0.3517209104956038  0.4593221612767543
  0.4158248101233636  0.2318259191544967  0.7984878584501057
  0.3320554065945590  0.7546985529133218  0.6601567992914743
  0.3018540414161523  0.7007341857690700  0.4678779441591423
  0.9464423935222530  0.5546253317375412  0.7879664658321586
  0.9559108783646143  0.0737900913648822  0.7293403489129542
  0.7946303870426580  0.7150246367365690  0.3711576992315414
  0.2836081012960899  0.0509701171420474  0.4441597365537769
  0.2507747020384077  0.7982554918524807  0.7969672409632523
  0.0317073997399819  0.8886517884363119  0.6531044945280797
  0.3331156356282864  0.5219024351923093  0.4828633093724149
  0.6062918539106289  0.8442793623900543  0.0603000583050004
  0.6517846696453162  0.4948306410845915  0.9568899131221268
  0.2416221638237370  0.0378042951484101  0.1494829230020694
  0.6920016072395858  0.9959304226612774  0.3242731488259304
  0.8894569445381151  0.8595084525774888  0.8703365836585544
  0.9067132740897754  0.4454078409134377  0.4464952992957903
  0.3858807446023619  0.8852066676788558  0.2326981101208192
  0.6797349623059447  0.8890023331804242  0.1824315875876026
  0.9998026708130671  0.6648267984898795  0.6200642486198390
  0.3779630652499180  0.2618478031075371  0.2263760116619750
  0.6284455753885279  0.9673103060538576  0.9918551510968345
  0.6101940487474581  0.0468772512199242  0.5767436942602088
  0.1826451571655022  0.6252103312028143  0.5749326330952167
  0.0429893207445236  0.6441758221776018  0.8088162910268978
  0.9107209638661340  0.1260336709755172  0.8995783321257937
  0.7661487166378349  0.6204810645058558  0.9512854010387923
  0.1902889525133360  0.5500721582851279  0.4020050684810865
  0.3037262990471049  0.1218854921520228  0.2251190184001431
  0.2367878653981833  0.9248366556099877  0.8005849907737870
  0.7816151126430283  0.4899017354704743  0.5704915699583452
  0.8230910635773740  0.4591843909071845  0.7383493198218377
  0.8459873259667927  0.6449456557269502  0.7820401431786400
  0.2170602357494149  0.9577718382872975  0.0007123456008040
  0.7043647400737536  0.7234933555636192  0.8105673016555612
  0.5048473000889458  0.8843190658609844  0.6975881118301882
  0.9356185905078545  0.7252467068673166  0.4378133501607966
  0.3764714610924056  0.6574800447057702  0.5894536259333868
  0.5816619041073593  0.3650465603669975  0.8426350752344413
  0.5372827261687833  0.8581309585705191  0.2903369667230264
  0.8137900845451189  0.0414946010021927  0.8306334873830770
  0.5866952647618998  0.5813482893980293  0.2400457879742708
  0.5684404427558480  0.7222972688588328  0.5782675182419631
  0.1004189979646132  0.9950606085757302  0.6592437912824900
  0.1758064426471669  0.5528350044955123  0.2019164075692577
  0.4038451322074351  0.0754270627569974  0.7567638583263631
  0.7733768246408644  0.2180002979521615  0.8951569492598477
  0.7043784034737588  0.4481463615177264  0.3182226132373017
  0.3727312721769064  0.7992228152364954  0.4290840006885931
  0.6108337421041061  0.5632778164181365  0.4331783114233331
  0.4517551213603016  0.3092287039568854  0.8979990213003113
  0.2696125687523247  0.2993714793502589  0.1458841968676998
  0.1939527310399626  0.1302073886175697  0.6418470259159521
  0.1886914087132855  0.4583732871921045  0.5651678704662503
  0.1892642431123503  0.1351859037750854  0.0839008186446373
  0.4832913975281689  0.0740241863846748  0.1819362203177242
  0.1904332330722741  0.5151699376067049  0.9791755941832395
  0.2477324979960034  0.9008798905275598  0.6465837161932704
  0.5759811367109194  0.1924634486952317  0.9233474409863287
  0.8245913169609140  0.6829517810204728  0.5827683843107820
  0.0132041543756470  0.8994572699360316  0.8108745386125765
  0.2024915487387724  0.6460749533109581  0.8479730748824440
  0.1901762729156304  0.8749826050378249  0.1650977940456607
  0.5740954853731860  0.0172216118750627  0.8582734019019543
  0.7061058057160206  0.3065076375708172  0.6278997200073633
  0.4392123815171159  0.2591955830455214  0.0517141161894990
  0.0998477233120534  0.6768929506213307  0.0445670503635936
  0.7502144529851166  0.8893228756385504  0.7027488467182847
  0.6996610357348938  0.7463993927966689  0.0525017897988084
  0.6594372647033354  0.2439736971703288  0.2199359890865604
  0.6043744545274543  0.3675497124958388  0.0702973905034743
  0.0822405595461513  0.7836951216989628  0.3243677358938972
  0.4877857520095885  0.0994893877375600  0.4342064621407645
  0.2695396294864105  0.2416412202437286  0.7907653722422070
  0.0765072438221227  0.3465584997554214  0.9394817200187237
  0.1473384908928750  0.2581035951608761  0.3945596632660997
  0.0446804543744398  0.0428061607763469  0.0365370798633537
  0.9750309297671496  0.2350568936859883  0.0475893715629944
  0.5169727325629295  0.5720878633723567  0.6841046168555476
  0.7991778689747637  0.5918139812854566  0.4156748520619310
  0.8635399486013178  0.9372684121582446  0.3370379352525059
  0.1964856105420303  0.3343143564908690  0.0441009502648014
  0.4907152364415439  0.8080312898745005  0.1190431085615227
  0.0633284986135604  0.8667789495683360  0.5307073701600895
  0.4538041042470761  0.2630052903674787  0.6319246817463554
  0.5281525764349823  0.8837579925680809  0.5068551374897939
  0.9254385707197905  0.3080509279190319  0.6402905679838622
  0.7870587392387336  0.6223984258330486  0.2033008084570261
  0.8083520646900527  0.8001232735655547  0.2295212665553550
  0.8456791868107646  0.4587346533936778  0.1830370584517726
  0.6803613122295129  0.5782523856607704  0.6949664181581265
  0.8801308791815705  0.3524594675151527  0.8839098942233260
  0.0282487536286178  0.4221006730463744  0.2076980360687519
  0.5175438932158122  0.1495506742788358  0.6199975657391459
  0.5960091787494299  0.4539477434178283  0.5714792987040925
  0.3085829313226335  0.6173988666711350  0.0381594226386015
  0.8839195566977163  0.2635099932286787  0.3620115866062060
  0.3396467809123336  0.8825558684712511  0.0285835857138673
  0.4815919512916695  0.6553949067134774  0.9487314468409769
  0.9407305028498512  0.5845382625118493  0.3210152017695000
  0.0521227169587400  0.1764282241450206  0.2932292563556196
  0.3761318370268401  0.6312805307815065  0.7592179355940049
  0.7544464726277862  0.8197092150438834  0.4558386702159778
  0.0314043516095042  0.2793679801478537  0.7796511244521558
  0.7884882292599544  0.0125638307066035  0.0808107271090119
  0.6729732006074545  0.7187246093084556  0.3276528802972520
  0.6649051771939620  0.7736960108415876  0.6370588079099924
  0.0726143938038284  0.8638932030891808  0.0032068487750145
  0.3029041488679244  0.4207116365951115  0.8717593735358418
  0.0605619901827518  0.1379442508116593  0.4883287028373836
  0.5573041443352756  0.3013697930223145  0.3318820146385955
  0.0722745174444940  0.4044048116527155  0.4441691164702304
  0.0265180239070390  0.4473697679040812  0.7857001143100489
  0.6459231573482003  0.2404443317676600  0.4964448092824975
 
 -0.52032235E-04  0.40305420E-03  0.98790709E-03
 -0.18458795E-02 -0.11968032E-02 -0.83080572E-03
  0.13963375E-03  0.32437528E-03  0.62870845E-03
  0.25955470E-02 -0.24864328E-02  0.56886620E-03
  0.89602765E-03 -0.14769652E-02 -0.91485262E-03
 -0.11595988E-02  0.13715042E-02 -0.71123874E-03
 -0.14583378E-02  0.13149824E-02 -0.71857306E-03
  0.10448196E-02 -0.10379886E-02  0.13606185E-02
 -0.19304983E-02  0.21816835E-02 -0.15291650E-03
  0.78000467E-03  0.59517085E-04 -0.22436320E-02
 -0.53020216E-03 -0.84576052E-03 -0.13011607E-02
 -0.63969039E-03  0.23697057E-03 -0.22926771E-02
  0.18000571E-02 -0.17197796E-02  0.56408527E-03
  0.92418235E-04  0.29528204E-02 -0.16158286E-02
  0.97310742E-03 -0.39607838E-03 -0.14529012E-02
  0.16931159E-02 -0.32560637E-03  0.85799173E-03
  0.82484874E-03  0.99864000E-03 -0.52088264E-04
  0.68134440E-03 -0.12183967E-02 -0.12309673E-02
  0.12270212E-02  0.50959213E-03 -0.96543402E-03
  0.10338920E-02  0.36438647E-03  0.51318717E-03
  0.89578321E-03  0.29221097E-02  0.12783175E-02
  0.53117539E-03 -0.11147126E-02 -0.12798884E-04
 -0.36276282E-03  0.85454415E-03  0.19754707E-02
  0.53940668E-03 -0.16494077E-02  0.22846687E-02
 -0.79259346E-03  0.40109999E-03 -0.13836761E-02
  0.18189741E-02  0.35419923E-02 -0.19577528E-02
  0.13182354E-02 -0.37128089E-03  0.98654951E-03
  0.19681187E-02 -0.11345032E-02 -0.68711135E-03
  0.26365891E-03  0.55715231E-03  0.16922524E-02
  0.35262276E-03  0.11896780E-02  0.75093048E-03
 -0.13678681E-04  0.18488592E-02  0.67044725E-03
 -0.42808467E-03  0.17107296E-02 -0.58789481E-03
  0.62785602E-03 -0.26484332E-02  0.15241344E-02
  0.13450597E-02  0.17022021E-03  0.40567116E-03
 -0.12150764E-04  0.74176506E-03  0.28623724E-02
  0.77934897E-04  0.97077250E-03 -0.23191230E-02
  0.14325097E-02  0.56223932E-03  0.33825797E-02
 -0.13191350E-02 -0.16853324E-02  0.22027753E-02
  0.14114932E-02  0.20619224E-03  0.29538237E-03
  0.24285958E-02  0.12146242E-02 -0.34553622E-03
 -0.88447079E-03 -0.17323404E-02 -0.25025115E-03
  0.19166761E-03  0.86143735E-03 -0.67982819E-03
  0.17925997E-02 -0.43299347E-03  0.17804998E-02
  0.17396056E-02  0.16210323E-02 -0.99452595E-03
  0.64894174E-03  0.19414396E-02 -0.34487141E-02
 -0.33382713E-02  0.10157284E-02  0.22382035E-02
 -0.22827815E-03 -0.39401911E-03 -0.99701311E-03
 -0.20633343E-02  0.94940075E-03 -0.59769149E-03
  0.97191104E-03 -0.28007341E-02  0.82986269E-03
 -0.91232055E-03 -0.23044283E-02  0.23581592E-03
 -0.14538620E-02 -0.10283312E-03  0.97816510E-03
 -0.20298457E-03  0.57720998E-03 -0.95259973E-03
 -0.15850740E-03  0.26766319E-03 -0.80129100E-03
 -0.18689926E-02  0.14837545E-02 -0.75555642E-04
  0.17342036E-02 -0.15725060E-02  0.75362426E-03
  0.62368900E-03 -0.14222573E-02 -0.11891035E-02
  0.62203350E-03  0.23066071E-02 -0.33259252E-05
  0.12973966E-03 -0.78719975E-03  0.68210533E-03
  0.99203354E-06 -0.17253099E-02 -0.82960405E-03
 -0.20763947E-03 -0.30875173E-02  0.15816823E-02
  0.25113562E-02 -0.10962191E-02 -0.13256360E-02
  0.12532157E-02 -0.23130776E-02 -0.86804592E-03
  0.77244405E-03  0.46432147E-03 -0.18106035E-02
  0.27870573E-03 -0.25459903E-03  0.10375387E-02
  0.40134291E-03 -0.37528979E-03 -0.24285059E-02
  0.21348270E-02  0.22391701E-02 -0.59612597E-04
  0.79696754E-03  0.15862745E-03  0.62321912E-03
  0.28524830E-02  0.15752567E-02 -0.10169374E-02
  0.63917016E-03  0.12264143E-02  0.12131676E-02
 -0.16086515E-02 -0.57238535E-03  0.12830082E-02
 -0.10197467E-02 -0.94208806E-03 -0.50560957E-03
 -0.16500502E-02  0.14764296E-02 -0.23991691E-02
  0.12890185E-02  0.93819092E-03 -0.21823943E-03
 -0.83433982E-04 -0.55708432E-03  0.17598566E-02
 -0.36073725E-03 -0.34003594E-03  0.95267231E-03
  0.19944881E-02  0.32025040E-03  0.35284967E-02
  0.53466076E-03 -0.16788298E-02 -0.43043633E-03
 -0.60717886E-03 -0.36521774E-03 -0.11720253E-02
  0.11946649E-02 -0.10067530E-02  0.15605798E-02
 -0.88516652E-03 -0.64978582E-03 -0.80129004E-03
 -0.62183128E-03 -0.42366506E-02 -0.31578157E-03
  0.11328321E-02 -0.68613490E-03  0.20478333E-03
 -0.89229276E-03 -0.76341858E-03 -0.33492462E-04
  0.68173289E-03 -0.55975841E-03 -0.53701715E-03
 -0.13273479E-03 -0.40541948E-05  0.98499751E-03
  0.17432389E-02 -0.36958863E-03 -0.16711721E-02
 -0.80639818E-03  0.93494703E-03  0.60705516E-03
  0.10756327E-02 -0.68756808E-03  0.31779337E-03
  0.12283189E-03  0.10891824E-02  0.23429841E-03
  0.18486734E-03  0.31078901E-02 -0.10462425E-02
  0.12562854E-02 -0.14549476E-03  0.34524848E-03
  0.64795093E-04 -0.11850010E-02 -0.12316090E-02
  0.94327881E-03 -0.54186802E-03 -0.46801553E-03
 -0.11629537E-02  0.29850563E-02  0.11954460E-02
 -0.74141211E-03 -0.22463518E-03 -0.87947834E-03
  0.32845002E-03  0.15597466E-02 -0.10255966E-02
 -0.13491407E-03 -0.14750208E-02 -0.18249830E-02
  0.10205248E-02  0.24397296E-02 -0.14673043E-02
 -0.25379401E-02  0.20286981E-02  0.66658038E-03
 -0.14330976E-02 -0.72502932E-03  0.11743463E-02
 -0.14710676E-02  0.52540465E-04 -0.83107851E-03
  0.58347765E-04  0.10288224E-02  0.35798469E-02
 -0.86722737E-03 -0.14858228E-02  0.14393289E-02
  0.69119398E-03 -0.70835799E-04 -0.91023242E-04
 -0.11372306E-02 -0.15757141E-02  0.16324813E-02
 -0.90386010E-04  0.12095641E-02 -0.33424996E-03
 -0.49098483E-03  0.19932594E-03 -0.61087249E-03
  0.49506072E-03 -0.10760204E-02 -0.11925791E-02
 -0.85775466E-03  0.56925916E-03 -0.93035534E-03
 -0.47210765E-03  0.80237986E-05 -0.20486490E-02
 -0.13436485E-02  0.38157902E-02 -0.29877325E-02
 -0.50880095E-03  0.17600079E-02 -0.83659963E-03
  0.26007606E-02 -0.30681281E-03  0.16209412E-02
  0.17844000E-02  0.20104823E-02  0.83499404E-04
  0.58676620E-03  0.14707347E-02  0.12276478E-03
  0.35061356E-03 -0.13022480E-03 -0.91773339E-03
 -0.10771244E-04  0.99031055E-04 -0.17711615E-03
  0.62047828E-04 -0.12795329E-02 -0.66816354E-03
  0.15087042E-02 -0.45998039E-03 -0.11612939E-02
 -0.34494587E-02  0.21296307E-02  0.20775913E-02
 -0.10899832E-02 -0.18094794E-02 -0.78587215E-03
 -0.95488805E-03  0.21445788E-02  0.44296137E-03
 -0.52297877E-03  0.12682266E-02  0.58971662E-03
  0.10430776E-02 -0.68404489E-03  0.13195451E-02
 -0.23972283E-02  0.11540627E-03 -0.39652430E-03
  0.18923297E-02 -0.74626919E-03 -0.59035541E-03
 -0.79784250E-03 -0.91223435E-03  0.93454751E-03
  0.11904925E-02  0.16473013E-02  0.16356017E-02
 -0.10456920E-02 -0.10790434E-02 -0.11993298E-02
  0.46858502E-03  0.78075578E-04  0.61111601E-03
  0.23642994E-02  0.13734277E-02 -0.70942489E-03
  0.35083962E-02 -0.18126739E-02  0.65266719E-03
  0.87713314E-03  0.12948970E-02 -0.11617516E-02
  0.18097828E-02  0.36687686E-03  0.14693270E-02
  0.30084704E-03 -0.62425958E-03 -0.53487766E-03
 -0.59841933E-03 -0.16512343E-03  0.57605667E-03
 -0.37693570E-03  0.96316524E-03 -0.53420169E-03
 -0.48984581E-03 -0.24256433E-02  0.26217159E-02
 -0.85126059E-03 -0.37874444E-03 -0.12340317E-02
 -0.10638852E-02  0.42772026E-03 -0.58585989E-03
  0.16883724E-03  0.50705784E-03  0.19906354E-02
  0.31766937E-02  0.36032592E-03  0.11531797E-02
  0.35166981E-03  0.12923837E-02  0.17075109E-02
 -0.27720868E-02 -0.73846187E-03 -0.22429513E-02
  0.91688221E-03 -0.11924317E-03 -0.11132557E-02
  0.31827448E-03 -0.11559617E-02  0.16927059E-03
 -0.18777997E-02 -0.29675796E-03  0.34839722E-03
  0.12706655E-03  0.17110216E-02  0.23992406E-02
  0.11242990E-02  0.15409217E-02 -0.44341802E-03
  0.75471187E-03  0.72995559E-03  0.21911509E-02
 -0.24904258E-03  0.16177325E-02 -0.15247991E-03
  0.18023151E-02 -0.71119033E-03 -0.74157390E-03
  0.71344076E-03 -0.11384797E-02  0.10631884E-02
  0.81542608E-03 -0.12345600E-02  0.61561993E-03
 -0.11983335E-03 -0.85645647E-03  0.12434882E-02
 -0.90355859E-03 -0.93035925E-03  0.93202061E-03
  0.25693758E-03  0.60341296E-04  0.11547924E-02
  0.12783646E-02 -0.73181513E-03  0.23942995E-02
  0.85412151E-03  0.52365517E-03 -0.19666354E-03
 -0.37145474E-02  0.66935945E-03 -0.24234096E-02
 -0.97083255E-03  0.12633543E-02 -0.63802051E-03
  0.21170342E-02 -0.38933375E-03  0.56417393E-03
 -0.10774905E-02 -0.25830330E-02 -0.15833794E-02
  0.21335299E-02  0.27255657E-02  0.17710465E-02
 -0.11009687E-02 -0.14545226E-02  0.19988114E-03
  0.27569557E-03  0.13251344E-02  0.18312289E-02
 -0.12109293E-02  0.29675599E-02 -0.34168390E-02
 -0.19163719E-02  0.17121825E-02  0.17351216E-02
 -0.22339983E-02  0.95168521E-03  0.36834111E-03
 -0.16919134E-02 -0.85241764E-04  0.17811104E-03
  0.25360543E-02 -0.34084343E-03 -0.30203570E-02
 -0.27182507E-02 -0.81927060E-03  0.83268185E-03
  0.18706918E-02 -0.25034084E-02  0.84761215E-03
 -0.16653847E-02  0.13236204E-02  0.16186217E-02
 -0.37130308E-02 -0.49145173E-03  0.35688810E-02
 -0.33623723E-02  0.16121714E-02  0.28964956E-02
 -0.71189247E-03 -0.13777535E-02  0.11270571E-03
  0.39584156E-03 -0.12886298E-02  0.22576167E-03
  0.28650220E-02 -0.31063030E-02  0.32889066E-04
 -0.83077136E-03 -0.35322386E-03  0.17795322E-03
 -0.20580454E-03 -0.26139658E-03  0.20605550E-03
  0.13953564E-04  0.20206653E-02  0.72070875E-03
  0.93373553E-03 -0.13559180E-02  0.35942706E-02
  0.15123981E-02 -0.95946492E-03 -0.20523901E-02
  0.20169341E-02  0.32148543E-02 -0.18629505E-02
 -0.21024165E-02 -0.18157731E-03  0.14927641E-02
 -0.34225110E-03 -0.24400963E-02 -0.85274938E-03
 -0.73172560E-03  0.37133052E-03 -0.23092762E-03
  0.15544245E-02  0.76214820E-03 -0.34225279E-02
 -0.10639443E-05 -0.30258891E-02  0.12306273E-02
  0.84348967E-03 -0.23388008E-03  0.40330209E-03
 -0.49810776E-03  0.58581816E-03 -0.47871143E-03
 -0.60279789E-03  0.17191884E-02  0.16113495E-02
 -0.25047349E-02  0.81614157E-03  0.93253945E-03
 -0.15789820E-02 -0.57046178E-04 -0.54939658E-03
 -0.45031182E-03 -0.19753451E-03 -0.10885987E-03
  0.76777035E-03 -0.91076630E-03  0.60408829E-03
  0.17568680E-02 -0.27935883E-02  0.60490174E-03
  0.18718236E-03  0.31524132E-03  0.68212935E-03
  0.99052610E-03  0.99403658E-03  0.64931252E-03
  0.22823739E-02 -0.16057801E-06 -0.12225752E-03
  0.54999923E-03 -0.16320736E-02 -0.10865631E-02
 -0.25296575E-03 -0.11378778E-02 -0.15947841E-02
  0.97648034E-03  0.21719612E-02 -0.30962240E-03
  0.39600447E-03 -0.10895197E-02  0.27432541E-02
 -0.24243999E-02 -0.53629123E-03 -0.18422303E-02
  0.29340378E-02 -0.27015721E-03 -0.15327482E-03
  0.10804448E-02 -0.41995443E-03  0.41726812E-04
  0.60386945E-03  0.14881596E-02 -0.13474550E-02
 -0.72306541E-03 -0.93778144E-03  0.70626066E-04
 -0.95099490E-03  0.22553256E-03 -0.29529624E-02
 -0.15205763E-02  0.31057063E-03 -0.86384928E-04
 -0.47215457E-03 -0.77945186E-03 -0.77149598E-03
  0.12550571E-02 -0.57690910E-03  0.36184506E-03
 -0.97421355E-03 -0.64266976E-03  0.94489346E-03
  0.71806517E-03 -0.18561545E-03 -0.81338848E-03
 -0.29718620E-03 -0.32842001E-04  0.54395053E-04
  0.23234463E-02 -0.11063875E-02 -0.11289117E-02
 -0.14492483E-02  0.38502417E-03  0.10186347E-02
 -0.15997887E-02  0.52778091E-03 -0.16694663E-03
 -0.15352287E-02  0.15625597E-03  0.60545210E-03