Bi6 Te4 S2
1.0
   2.1892900000000002   -3.7919619999999998    0.0000000000000000
   2.1892900000000002    3.7919619999999998    0.0000000000000000
   0.0000000000000000    0.0000000000000000   24.5875750000000011
Bi Te S
6 4 2
direct
   0.0000000000000000    0.0000000000000000    0.8834069999999991 Bi
   0.0000000000000000    0.0000000000000000    0.1165929999999990 Bi
   0.6666670000000000    0.3333330000000000    0.7125309999999990 Bi
   0.3333330000000000    0.6666670000000000    0.2874690000000000 Bi
   0.3333330000000000    0.6666670000000000    0.5351900000000001 Bi
   0.6666670000000000    0.3333330000000000    0.4648100000000001 Bi
   0.3333330000000000    0.6666670000000000    0.7966130000000000 Te
   0.6666670000000000    0.3333330000000000    0.2033869999999990 Te
   0.0000000000000000    0.0000000000000000    0.6392610000000000 Te
   0.0000000000000000    0.0000000000000000    0.3607390000000000 Te
   0.6666670000000000    0.3333330000000000    0.9333020000000000 S
   0.3333330000000000    0.6666670000000000    0.0666980000000000 S
