From relax-under-noef-1.restart
1.0
   20.1778869700     0.0000000000     0.0000000000
    0.0000000000    20.1778869700     0.0000000000
    0.0000000000     0.0000000000    20.1778869700
  Ge  Se
  150  150
Direct
    0.5201155228     0.6809545758     0.7876294561
    0.2066734242     0.4176009785     0.7998799054
    0.3791328985     0.3115330789     0.6123166605
    0.8297651886     0.0210620164     0.6563010926
    0.9026634523     0.6125028450     0.6602750837
    0.2220615791     0.6937937219     0.9618291941
    0.1223466597     0.1638507782     0.3607568339
    0.3374579191     0.6306082740     0.7948898250
    0.3556283385     0.8619682681     0.2275858070
    0.3668885335     0.0132284300     0.4219621968
    0.0123328918     0.0333248407     0.4517861313
    0.6107319530     0.3321799179     0.8462904195
    0.6052698931     0.4424614733     0.5952540133
    0.2541878083     0.0067501092     0.8637870296
    0.6939523944     0.9732123365     0.4036698004
    0.0405057297     0.7895508848     0.0815579352
    0.0505798754     0.7681217968     0.3321892318
    0.8203265325     0.3979044369     0.3607233522
    0.1101490697     0.4641960697     0.9685288664
    0.0572797339     0.9138694531     0.5032445062
    0.1593579660     0.8351150541     0.1936619573
    0.4353306729     0.7451246430     0.9611396102
    0.9834060672     0.1469779305     0.9324511519
    0.0341523941     0.0819214198     0.1241440118
    0.5353392128     0.3137453440     0.1849954238
    0.3711779370     0.1355027431     0.5886047888
    0.3962493379     0.7516915632     0.5470382789
    0.7862075941     0.9196590496     0.0227469866
    0.7521675726     0.5736270701     0.6057712082
    0.9489322756     0.7650016069     0.5804750677
    0.0678915236     0.3540004793     0.7387292182
    0.0382632384     0.1076616115     0.2517023460
    0.9130404068     0.4859264745     0.4913438290
    0.3853990895     0.4507993373     0.2839425702
    0.0377679567     0.5387399851     0.5814913922
    0.7492443421     0.6978174425     0.1797675256
    0.4511369905     0.4661700451     0.9151511367
    0.2688843041     0.0480625267     0.2297011701
    0.2476976828     0.3735332130     0.1284619627
    0.7423003363     0.3691337808     0.7740784123
    0.8393030423     0.8378135515     0.3775015945
    0.9113368992     0.1819973804     0.5560974692
    0.5712410363     0.8449057165     0.5297282815
    0.3738099631     0.9825794075     0.0958258808
    0.3754791233     0.6495391687     0.2149612762
    0.4053827533     0.4566474136     0.5036920198
    0.9123699623     0.7819479601     0.1800299707
    0.0362299746     0.3542854811     0.4004916492
    0.0050268747     0.7468241526     0.8229003454
    0.5535330718     0.0502931484     0.3254994192
    0.2581299252     0.4417589492     0.9446364914
    0.0466346794     0.2905936677     0.1439222394
    0.6279963373     0.7457836752     0.8142274446
    0.5796132663     0.2854760944     0.7295609921
    0.0531178298     0.5867129786     0.3471990305
    0.0294160423     0.9298834479     0.2228998427
    0.1857839181     0.5774473523     0.4525771715
    0.9539976713     0.3271006493     0.5890908358
    0.0914263838     0.0458088971     0.8337825423
    0.5117575870     0.4484435775     0.3288449097
    0.6804576101     0.0982861637     0.1194605904
    0.5654767712     0.6640673122     0.2036437297
    0.9206000717     0.6637334840     0.3262714965
    0.8628055178     0.0209101737     0.8416244792
    0.5821869435     0.8220715204     0.0118144340
    0.0687881539     0.3429424565     0.9350583884
    0.8273030086     0.8646199715     0.5271799239
    0.7695549842     0.7480136734     0.6833238320
    0.8069062496     0.2335283217     0.1503543384
    0.8323058008     0.3374351670     0.0414312466
    0.9483105811     0.3750865593     0.7849140765
    0.4047504316     0.1577242354     0.1708205445
    0.3588561758     0.5536281853     0.4309491610
    0.4632897507     0.8487671061     0.3909868304
    0.3190023632     0.4354408033     0.6623838785
    0.6884718481     0.9605652469     0.1384816466
    0.2408359817     0.2504265690     0.1744961816
    0.8707457216     0.0472533787     0.0764001637
    0.2555572922     0.8428181744     0.9301817715
    0.3585255878     0.2688790013     0.0288783989
    0.6509463747     0.9889394102     0.8890651720
    0.9783606701     0.5851968834     0.8352714886
    0.7907880174     0.4994065226     0.0722051086
    0.7751862471     0.5197293740     0.3727637939
    0.3427996499     0.0801482620     0.7153645740
    0.6028520790     0.1429781258     0.0235654850
    0.5329982398     0.6520162937     0.6075771222
    0.7566339920     0.3441405868     0.5171330437
    0.6437935810     0.5675096261     0.1541842963
    0.5148481777     0.2355464949     0.3465168726
    0.6125641883     0.1097048682     0.8976905012
    0.1099736744     0.1246946293     0.5768906684
    0.3082453356     0.5883714958     0.6022781025
    0.7596693847     0.0410508285     0.4938994648
    0.6725064600     0.9131240532     0.6113112893
    0.6770213940     0.7045657617     0.5149746521
    0.4206349399     0.9518346198     0.9352587613
    0.1581572037     0.4555669503     0.6419207395
    0.1602521942     0.7581331373     0.4687388613
    0.1964949317     0.1186689746     0.8503955183
    0.1089095605     0.4358593015     0.2326746762
    0.5387317109     0.2885748438     0.9410274738
    0.2548264569     0.5049461945     0.0922929511
    0.8706389462     0.0691152383     0.2062455423
    0.4387029061     0.8393158243     0.7268383318
    0.7320756999     0.7226937171     0.9675121850
    0.9887017521     0.4860588577     0.0153140537
    0.0485295707     0.6695343272     0.0303803767
    0.6900792348     0.1636563139     0.7254057958
    0.7134337556     0.9172448002     0.7974015957
    0.1107487756     0.8862467282     0.6802695136
    0.1592037683     0.9585092290     0.0544569893
    0.1529433462     0.9604592390     0.3646480444
    0.7350372508     0.1485778807     0.3049488473
    0.7465031599     0.8330135763     0.2819800286
    0.7234269341     0.6620848627     0.3921210783
    0.3987206818     0.2852477231     0.3019725417
    0.6806997700     0.5772844003     0.7234419744
    0.3088677406     0.2221678282     0.4581165131
    0.0843544876     0.9249328987     0.7994037615
    0.9219060960     0.4676474856     0.2129621026
    0.8287022644     0.2130660304     0.3729308308
    0.8096851183     0.6256828822     0.8091787866
    0.9538982459     0.9026978784     0.9668528615
    0.2191966496     0.4185904760     0.3983153836
    0.2289872134     0.6965531411     0.6727727412
    0.3790887564     0.9522689238     0.5508154886
    0.5536512884     0.8531231913     0.7925248359
    0.1800863584     0.1778530864     0.9983212228
    0.2992704693     0.8128012242     0.0701887662
    0.5477252653     0.5917760560     0.4117272637
    0.8993718243     0.7330251447     0.8995914922
    0.4676225290     0.1840329288     0.9328491876
    0.4635070750     0.5053510718     0.0941105427
    0.0540069093     0.7100338957     0.6299402945
    0.1781212618     0.6422747654     0.1807722722
    0.3029834417     0.2746897364     0.8103492068
    0.5323152266     0.0860998198     0.4911037272
    0.3478473842     0.7196942556     0.3514623368
    0.3066704069     0.8420711524     0.7249020706
    0.7204419116     0.4162748227     0.2250691383
    0.6111472655     0.4583150031     0.0192420089
    0.1784389202     0.9828820888     0.6146210781
    0.9239759569     0.2044749531     0.7536818669
    0.5755474497     0.2082926911     0.5587343132
    0.0940776659     0.2343906786     0.5061859203
    0.1538341265     0.5999829223     0.8143090371
    0.5569807860     0.8491984864     0.1879600757
    0.4436326320     0.4121070147     0.7427427114
    0.9031040402     0.4527480986     0.9245709345
    0.8647007684     0.1255191230     0.8906981895
    0.8639575852     0.9827246612     0.5128519165
    0.0793410823     0.7328713742     0.1913674313
    0.9439588225     0.4546921688     0.6185172424
    0.3350502515     0.6980808919     0.0248081185
    0.1253139370     0.0140349298     0.2476914311
    0.5791656873     0.4615959012     0.1459270837
    0.7070419518     0.0392600446     0.6061362566
    0.6174549470     0.2624818321     0.0279253699
    0.1323551966     0.0763040850     0.4605438752
    0.9341286711     0.8335738639     0.2938496466
    0.7635198505     0.0316275899     0.7724192714
    0.7889774203     0.6983218940     0.5686928793
    0.2842691007     0.7907946258     0.6094849057
    0.8746057425     0.6652744846     0.2089229686
    0.4830191954     0.1204385783     0.0361531721
    0.2814391961     0.1753229165     0.0844606623
    0.3518394638     0.8125091862     0.4433902866
    0.9450791001     0.9903407215     0.7557868070
    0.6919047860     0.2028850680     0.2020025361
    0.7085354567     0.0131664337     0.9933314464
    0.5622884946     0.1733927860     0.6831339424
    0.1480090353     0.0921850595     0.0854728114
    0.8915074384     0.4814151098     0.8054494056
    0.2034385172     0.3845106061     0.2786131956
    0.3266491629     0.3987081012     0.8471207074
    0.2718473255     0.7667644272     0.1860907388
    0.2777111256     0.9725579931     0.3349635013
    0.3433517324     0.5063235354     0.0114579618
    0.3998763856     0.0364448961     0.2119973941
    0.4490987155     0.2288279218     0.5417200466
    0.4092196392     0.3549077911     0.1994771172
    0.9528687710     0.0160061769     0.2824660641
    0.4161896588     0.8609475066     0.1153546364
    0.0900480035     0.4916952468     0.4179304548
    0.0774183552     0.4973935633     0.8498175904
    0.5382971571     0.4345520881     0.8257039013
    0.2993789958     0.9709068106     0.6534712182
    0.5174809298     0.1896035788     0.2287322279
    0.8976063812     0.5404259088     0.3487650303
    0.5968740837     0.5340064296     0.3117967290
    0.3488572870     0.2044040628     0.9178616725
    0.1785609741     0.9050457400     0.5185636491
    0.0173954309     0.2170927541     0.4093854525
    0.5426851524     0.9160805232     0.9017539374
    0.6095386230     0.9441430732     0.7304356656
    0.6992744879     0.4556273138     0.6825543771
    0.1592008103     0.8376791163     0.3254236919
    0.9124719664     0.3601721161     0.4368563071
    0.5301096377     0.7598086429     0.4488519816
    0.8576653430     0.3203052995     0.7278622366
    0.3076919415     0.6461774112     0.4904119615
    0.6778396692     0.1976932224     0.8471307920
    0.2992466424     0.0954406987     0.4905354019
    0.7904748691     0.8210244740     0.1667685972
    0.7508082405     0.5391169649     0.2095989508
    0.1522127603     0.6703067763     0.3681329593
    0.0417596756     0.8496141666     0.8874070520
    0.7910526307     0.4254015973     0.9555754797
    0.9916848047     0.0783232768     0.5687891724
    0.2571790408     0.9500993294     0.1459380281
    0.5537216205     0.5832597699     0.7169331197
    0.0055026524     0.8895272056     0.6170643161
    0.1124537804     0.2880874397     0.8368839241
    0.5201598818     0.3641678362     0.6530790359
    0.2798529577     0.2424765878     0.5786492967
    0.2679909975     0.9641677567     0.9774596819
    0.7834271493     0.1417002866     0.0649457105
    0.8759492339     0.6118236713     0.9196471964
    0.8900973867     0.1859571519     0.2312689479
    0.5210669845     0.4718352383     0.4522672745
    0.5759001453     0.3447994838     0.3010064034
    0.6381505926     0.5881679366     0.5450457287
    0.6827480534     0.7254195768     0.2925351091
    0.4392090360     0.7783680661     0.2838698818
    0.1235657960     0.7670272670     0.7159155864
    0.7859028263     0.7466930486     0.8505145576
    0.6185507598     0.7536367134     0.1266822724
    0.8987571585     0.7373809022     0.6976358857
    0.0741021410     0.2512039858     0.0184072866
    0.8480198424     0.9155100891     0.8973202896
    0.7012292994     0.8442738425     0.9705135811
    0.7681576158     0.0382930319     0.2644750791
    0.2297441858     0.5230412769     0.7264718403
    0.7837363173     0.4797798799     0.4986958138
    0.4083255895     0.2827374966     0.7391751711
    0.0046641195     0.9649339309     0.1049871597
    0.4301342340     0.6139682283     0.3505581025
    0.1295435607     0.2223552466     0.2114119524
    0.0370483516     0.7970079414     0.4617167685
    0.7417511507     0.3091789654     0.3911342088
    0.4411044046     0.7175526479     0.7031145061
    0.6527500462     0.9090575535     0.2581618239
    0.3817506133     0.8387785941     0.8904431375
    0.1572973004     0.8181057501     0.0427977119
    0.8002365378     0.1602950606     0.4910589304
    0.7113566439     0.8670815743     0.4727198985
    0.0202175604     0.2538660857     0.6763627086
    0.7048871718     0.5687681742     0.8407978829
    0.2494892143     0.3301271907     0.0088553448
    0.4380949772     0.6455147565     0.8756311364
    0.0671050677     0.6695423138     0.9048333035
    0.5755139249     0.9368859382     0.0987152331
    0.4677621444     0.3694444375     0.9947234141
    0.8989122722     0.7887666802     0.0048085892
    0.6353182657     0.1357502872     0.3739319507
    0.2530229097     0.5864674567     0.8899522011
    0.2531992656     0.4778809055     0.5576362856
    0.5036768936     0.1130353410     0.8457024559
    0.4218452304     0.5355925422     0.6015973374
    0.2071830252     0.9012261489     0.8180649256
    0.0302396746     0.0312973708     0.9356963143
    0.2631867477     0.5313557525     0.3587009283
    0.9501371002     0.1446833110     0.0585043823
    0.2212677194     0.3509574710     0.6911560958
    0.3139882506     0.2016469475     0.2651799105
    0.2714538786     0.7358614022     0.7971500065
    0.8344033505     0.7150773598     0.4067663859
    0.0839530540     0.5529284395     0.2236695902
    0.9628013907     0.5908713404     0.0672369143
    0.1868084764     0.2545388969     0.4251071304
    0.2366293069     0.1384099390     0.7351378894
    0.9447566659     0.3342511606     0.9063738917
    0.8419018347     0.3707314772     0.2431879467
    0.5703885512     0.9786901837     0.4356506772
    0.6865134016     0.5640425040     0.0369748424
    0.3686667670     0.0049895827     0.8278839973
    0.5224087833     0.5436967699     0.9893734736
    0.6330137843     0.3447902264     0.5218621345
    0.6168228184     0.7573432892     0.6140027785
    0.2962893187     0.5550758985     0.1945297869
    0.0674319335     0.3504373950     0.5337320001
    0.7862979282     0.8736230647     0.6543074992
    0.4660401321     0.6308187166     0.1314241384
    0.1597206742     0.6156916226     0.0528662459
    0.6085223401     0.7127999045     0.9315234648
    0.6966099688     0.2876937688     0.6874383334
    0.4543393599     0.8612038884     0.5997859906
    0.3506895589     0.3705405316     0.3784336928
    0.1421646441     0.6671670333     0.5603173187
    0.8486381630     0.1541377118     0.6619781256
    0.0058279687     0.3839333134     0.2626785389
    0.9376848703     0.4014454296     0.0899007027
    0.1214649111     0.3925873155     0.1186656308
    0.4567807544     0.1069769979     0.3907920782
    0.9460400756     0.6206264417     0.5395304569
    0.0143570037     0.0849899723     0.7453577604
    0.0291174290     0.6054446629     0.6945882616
    0.7322927051     0.3898072677     0.1013442217
    0.4631544663     0.0398971435     0.5831987769
