Ge2 Sb2 Te5
1.0
   3.0660059999999998    6.8391359999999999    0.0000000000000000
  -3.0660059999999998    6.8391359999999999    0.0000000000000000
   0.0000000000000000    6.8309769999999999    6.8476090000000003
Ge Sb Te
2 2 5
direct
   0.5026570000000000    0.5026570000000000    0.0110440000000000 Ge
   0.7157129999999990    0.7157129999999990    0.1878300000000000 Ge
   0.8881300000000001    0.8881300000000001    0.4173520000000000 Sb
   0.0982919999999990    0.0982919999999990    0.5878730000000000 Sb
   0.6000409999999990    0.6000409999999990    0.5971179999999990 Te
   0.7934810000000000    0.7934810000000000    0.8098029999999991 Te
   0.9916760000000000    0.9916760000000000    0.0064350000000000 Te
   0.2047119999999990    0.2047119999999990    0.1961119999999990 Te
   0.4052980000000000    0.4052980000000000    0.3864329999999990 Te
