Amorphous Sb                            
   1.00000000000000     
    22.4269349267477445    0.0000000000000000    0.0000000000000000
     0.0000000000000000   22.4269349267477445    0.0000000000000000
     0.0000000000000000    0.0000000000000000   22.4269349267477445
   Ge   Se
    90   210
Direct
  0.0693242235620667  0.6417008704092046  0.1638483829222613
  0.2017727982628901  0.4589051655898748  0.8538780213732895
  0.9574285702617158  0.0190899876430831  0.3181583369309708
  0.1530694795693345  0.0987755379902245  0.5615701137487479
  0.8456071206288730  0.9473522305218479  0.2093644495425186
  0.2076573423994074  0.1945125375481316  0.2677157669859279
  0.8493531677287049  0.7653879600381872  0.5530121528758897
  0.3068215712114884  0.1594685464683466  0.9980581265328452
  0.4465487132992336  0.4415746248966858  0.6492103944029407
  0.0588553443095176  0.8728432037077840  0.7820046746305965
  0.5556257874799004  0.0363062917685901  0.1985075768048327
  0.5787853974049292  0.3761327988419749  0.8521919825058026
  0.9435076279679524  0.9250277442835962  0.4478420366935617
  0.2980802567335825  0.7759782873362061  0.1188321864315673
  0.8639694047375066  0.5921495165074178  0.3462703829949380
  0.0425805713503266  0.3672139454419441  0.5004339202415072
  0.7036246920470770  0.0010611356462353  0.4723603837235757
  0.3782741628485480  0.4687319387823204  0.5532796183418424
  0.9166187274153649  0.1960989536556300  0.0506221336512830
  0.3437442786267344  0.9145885284967544  0.0589581307331743
  0.7719318534181560  0.6430865230205118  0.5168617503247942
  0.9782761359841295  0.7552931390053677  0.1538904907973274
  0.3702691264961684  0.5804581193789838  0.6561165509255240
  0.6186391757742448  0.0846016389950964  0.7053091191715942
  0.5431006431258034  0.2161962633147935  0.6182892118807863
  0.5122481681826005  0.7552675621433056  0.8673353247137409
  0.5074135675620715  0.5577613882654440  0.2461635638761138
  0.6578106612039578  0.0926327057374334  0.0460248042905110
  0.7239225597433168  0.0793892935157290  0.2263214163556737
  0.3507851907743900  0.4416789487607959  0.8677134284380132
  0.9319470115647387  0.3797144410893525  0.1250935921531015
  0.7240474022624924  0.4943772030099265  0.8486510119256542
  0.0365028002842204  0.5990970064093822 -0.0253729392152545
  0.9143130889260288  0.5104002330257870 -0.0069069556258470
  0.2012911506598494 -0.0091173726072653  0.3369871104651457
  0.2867048687592716  0.1117320941863548  0.1611928937221032
  0.3176847961655454  0.9064781485852906  0.3342389991966949
  0.8040858803116084  0.9932429735797160  0.1111711349956354
  0.2804974363966499 -0.0074970232921909  0.4775887156544186
  0.1826130333632968  0.4428897465011923  0.4077060971283538
  0.0969490685098660  0.7306865758135948  0.5838933392818435
  0.4070761167585247  0.8302780752803245  0.9436705353561482
  0.1844465870588864  0.5607663770269707  0.2936339232588517
  0.9555649893550279  0.8218966517751574  0.5500122015382668
  0.0744026415782145  0.4352997235822243  0.0378509686465470
  0.4520845780622167  0.0966944574684050  0.6593934400816003
  0.7577884408064605  0.4022471834602884  0.0165235795519597
 -0.0053888130186765  0.4640491379081559  0.1927837394981576
  0.7603067030636497  0.5674375125027015 -0.0530950732389316
  0.5661236869535071  0.0705043202873016  0.5459130936796963
  0.2683740306383577  0.7498328108716884  0.0106272033182512
  0.1898998047531144  0.8364858685255517  0.5927963045771392
  0.8256365662894710  0.7908724662451331  0.2324307590350441
  0.0842538503083364  0.1959340829133829  0.0155405063251920
  0.7429102729007859  0.4122615853410329  0.1335718806768107
  0.0027798926674786  0.5932809083274949  0.6451523471193928
  0.7986542830094518  0.4146104766711615  0.8060514427330909
  0.3175180240528903  0.1802976771370439  0.6310556830624721
  0.0927243004300552  0.6442807029838926  0.8714285013617814
  0.0896722567088272  0.1566304472063474  0.7168586495599570
  0.1908838557188913  0.2091033697679808  0.8907969056594305
  0.0988632026139598  0.5621352691571018  0.5372060196637546
  0.3327480290304672  0.9021423593476837  0.5274670026077211
  0.4491583949401591  0.3578172161224193  0.4648312528517533
  0.7827685872863690  0.0304585885678746  0.7468206347663652
  0.6972135650039850  0.8492655846950476  0.1337114969778816
  0.8366154872148471  0.7205499617092938  0.3835583793075062
  0.7270461533880908  0.2753543831591981  0.8756079525175234
  0.6459215453184525  0.2917633345166358  0.1253512214463022
  0.9834210051544779  0.6995750160354377  0.0172929363816246
  0.7875999030458161  0.9332916093766189  0.5590851234507727
  0.0179420008538123  0.5776844529301495  0.3367942959557436
  0.1659894138992190  0.3114724258619401  0.5408701009644372
  0.5747578653487182  0.4318224827136144  0.1767275335144138
  0.1128790182330974  0.4877478309196541  0.7129499947979890
  0.2377048146305725  0.2564529532688500  0.1383815713236784
  0.9531186268105138  0.0610664724533656  0.7030343148225560
  0.0925854806230278  0.0725529477434433  0.3399258349842108
  0.2930922442980758  0.3217449311567052  0.9944589729856245
  0.5208142329892218  0.1778434252769469  0.0995333501530575
  0.8451729555401427  0.2378410690188514  0.4853926100314984
  0.7897742580894062  0.1301985536296231  0.5865305223289452
  0.4816646558128261  0.7028426090115538  0.6582561232227945
  0.7964407270909978  0.1381485792066784  0.3612316749515009
  0.2373549195115175  0.6131422194854316  0.1317925722397546
  0.5916450204194077  0.6694431983819625  0.7930883790779055
  0.2956543945797221  0.5891325857872917  0.9643836145511504
  0.7284950782044355  0.5209134020275086  0.6752296196393086
  0.4106730711457703  0.8235134208036691  0.2354167171378753
  0.4086851777444190  0.4850855364420828  0.3660342867036926
  0.8933337320399167  0.3349294252914864  0.4942340591218209
  0.1032712582772915  0.8247879846355363  0.5283830241465688
  0.5283752550230127  0.8988416248744687  0.1210222528368609
  0.2259033177201842  0.1655600532076550  0.0716231377751068
  0.0269749264663488  0.9909488359131310  0.6655853564756861
  0.0050586945394997  0.7067323369414459  0.6302957871000399
 -0.0055106086264172  0.5526664252606411  0.5398019864157240
  0.7037162616729292  0.2953870342511815  0.0324395967549782
  0.1961908922614568  0.2963791343844244  0.9539874698980594
  0.1386592470439444  0.0744711212888699  0.7589597306105437
  0.9495684372182535  0.0756718997501286  0.8098041072517975
  0.6692884124627272  0.4693012439058000  0.7520174081823802
  0.5274102234298790  0.6495621081416956  0.1947763631203041
 -0.0000380156558823  0.1505704749665062  0.6592709319757982
  0.8255947968653023  0.5465494499068518  0.7130746390185140
  0.0638331891709559  0.4102427923630095  0.6576084844740465
  0.8707914668033711  0.8059825429597097  0.3298216044048321
  0.0644341809728702  0.1486784370289498  0.2698189730480280
  0.8412710783242552  0.2482674108205159  0.1098622664192960
  0.4160652193828992  0.7872454027262413  0.8410862806525171
  0.2627429548104314  0.3496226241078417  0.0942048622920348
  0.3695930009362003  0.2457518506135512  0.9953421689710681
  0.4126755869165036  0.1323528448809303  0.5619211210446641
  0.7036571312045212  0.0256054939126941  0.6670277387499344
  0.5990062281815289  0.5241080907494751  0.2942348592123443
  0.5382277639896205  0.6168844137691047  0.7156697310558453
  0.2701889160501880  0.8773482562396460  0.1344957617046269
  0.4140686646640325  0.5835971573571901  0.5575484763802773
  0.7254931037534755  0.3562121484845729  0.7452468557983367
 -0.0044069264266967  0.5199158135228561  0.0626305350720890
  0.2562456224874085  0.5439660259150014  0.2079783209104872
  0.8975777533711057  0.8248433393599952  0.1590354913087842
  0.0954956835429879  0.1680999839199778  0.9059774059917600
  0.4370364340760073  0.9368675598598599  0.9296254014035947
  0.2066348429285210  0.5314211396694807 -0.0047580483502969
  0.5045649204408587  0.6371252714760778  0.5690812544708201
  0.5258974826430253  0.1180652721667304  0.2598535460587056
  0.0109513572880125  0.7792609502328061  0.8110311164271965
  0.9055030852881479  0.4130712081050131  0.9517750656287186
  0.5612783742479194  0.3868737705046514  0.5607180797846407
  0.6932063593321350  0.6303160401326396  0.7944070966733655
  0.2390001159014472  0.1669388091062407  0.5491858153372798
  0.9283648996177468  0.5729649325488746  0.2666526591453398
  0.5414066768622764  0.8085338169245607  0.9581903620363623
  0.0013486717521733  0.8928897552745569  0.6920995043218608
  0.3686526676428997  0.0757493107768874  0.0265838723673449
  0.5761561849418436  0.2004356780580506  0.8546235154190909
  0.0421525253282499  0.4974978124237991  0.7930236648799520
  0.8189589333320523  0.5302487278742687  0.0472538997278837
  0.1667482792986402  0.8591475425149248  0.7660200915020908
 -0.0126428189699518  0.3714204769603224  0.2587402387078246
  0.4098149298167546  0.8647198129379781  0.4588499776155024
  0.0068105807254912  0.0726526605142040  0.4112422751087161
  0.1863177210303903  0.0806862153038532  0.3947130984119452
  0.4917554515685847  0.9481723368853203  0.2063857407393100
  0.6238700837838046  0.1906612398413777  0.1450350149453581
  0.8605429535933881  0.3253444605823370  0.8277013464801775
  0.7901513936170069  0.2661921857819526  0.7745408684133860
  0.4907992025173950  0.2894719096042080  0.3830898449746873
  0.7319782361028014  0.6749426713485773 -0.0519703174198870
  0.5361468920566184  0.9029813105133467  0.9117222073678269
  0.2793504773903802  0.4300437170613608  0.4581189411086140
  0.6263890937781152  0.9792265766938975  0.5425236220928028
  0.6701057508910877  0.6285490808202530  0.5528688925345521
  0.3842322034590886  0.9498589343486850  0.6935131677638674
  0.2836084101398228 -0.0120169966563757  0.2697987310138101
  0.2334246945802824  0.9117629918982947  0.4075325476312303
  0.8313524005177533  0.5066851509979359  0.4007285057220630
  0.5538127388882108  0.0664796212919984  0.0930279295722331
  0.5364261629998083  0.6478889733248360  0.8845828811320979
  0.5294497933376356  0.0232377528154458  0.6478573422932246
  0.7215234528991854  0.4522261245568558  0.5929246689137238
  0.9360470286725536  0.4157792321090291  0.3425038497647961
  0.2812424124990964  0.8089502804275247  0.5450685965499315
  0.6501056500692722  0.1275201977640509  0.8354907755273977
  0.5871622042489226  0.4209062340085710  0.2826472642078462
  0.4724385542146636  0.5729211896003001  0.8061792801886423
  0.7542730666211170  0.8764261420481506  0.2264831090217639
  0.7547312559976848  0.5546364197452595  0.4576937588281703
  0.8915196249932633  0.1626313225003721  0.5433348150022840
  0.7906548943691540  0.0594190266703809  0.4984478994106175
  0.7705642080383422  0.7462542716719661  0.4688384710380420
  0.3860405898643694  0.4035365291495102  0.2994240510833918
  0.2117607020311127  0.4700591737622481  0.7426616059976950
  0.8857827866564962  0.7386737007217838 -0.0152110261047605
  0.3575665820169462  0.0527363213534564  0.6882382418384640
  0.1962068684362822  0.9002742724492844  0.9299028679995256
  0.0481340104610002  0.9501499471630752  0.8570356830418608
  0.7390572313910285  0.2343164666225930  0.5153251106584376
  0.1269495288182058  0.7569232790320393  0.1070008287385862
  0.6707811933755603  0.9858400067002830  0.0023653573492075
  0.9191171911094329  0.8317531631017896  0.9481305294644798
  0.6262350484540344  0.1346677803914726  0.4325940074643201
  0.4119711376016789  0.5112669162899219  0.7324550275134741
  0.8644900096912207  0.3475879962107739  0.0321696564996321
  0.6300291498813188  0.1507716954896918  0.6113075100895733
  0.7641995983503406  0.7099726473022107  0.1965761189571156
  0.3770781120273625  0.6799018654001453  0.6889771312934229
  0.1924346634458675  0.0945660642097188  0.2165490873735220
  0.4147012910088373  0.9211367992097171  0.5972144461979001
  0.5931972964217361  0.8227652793580955  0.1525112491955029
  0.7023566764313031  0.2100953769998763  0.4173276408620272
  0.4404423112572947  0.5068112680769777  0.9012926061534771
  0.2173279883680219  0.7174168316159309  0.1695064623681242
  0.5534164743452722  0.3467587075328041  0.1160952168280809
  0.5460881337295960  0.3233292251473777  0.9456433451133062
  0.1352188397424045  0.3481103266097326  0.4323238108764385
  0.1357781074640772  0.6619944567448949  0.5119359402554020
  0.1699039171711171  0.7562476090519584  0.6609209232311339
  0.4785637538943985  0.2100223343554470  0.5315183904043995
  0.1382324296501558  0.5377247954521237  0.4348318011312872
  0.1017498715459122  0.6769667703309786  0.7677756335304173
  0.3188147357660134  0.8073019755356317  0.3006602682859419
  0.7472008833379172  0.7583154272135314  0.1021985319358699
  0.0224410393797315  0.7975557808968429  0.0633525125141014
  0.9047118836017883  0.2931604184262715  0.1874421369283810
  0.4888562434043137  0.4568191237677248  0.4288369578638064
  0.6334226476469368  0.2814075597951149  0.8049694250439169
  0.3921748689325291  0.3224273026034387  0.3675867016436791
  0.1610341244347192  0.7468906743379580  0.0045988310224632
  0.2955608135763496  0.5193590567591418  0.6098453494118697
  0.0480082551477084  0.7341589420698520  0.2296025713732417
  0.8550152294525013  0.0468016831925710  0.6592648641380392
  0.9182515320637460  0.8240793554175111  0.8432884964502443
  0.8486855561832710  0.2380195977785904  0.3786201059603482
  0.3212846781123859  0.6316132231358885  0.0702904680784344
  0.8795394680278285  0.1555547708230203  0.9570998287131839
  0.9124829648311577  0.6567337577873125  0.4201688058107085
  0.0307261127834096  0.3357523155405978  0.0758007028922522
  0.1861369626819396  0.6874659693696337  0.8387140313760300
  0.6587716070974718  0.4919326189380402  0.1365238889926139
  0.7354514723610259  0.9215900536695504  0.0536457728203182
  0.9465578695792806  0.9740431459606235  0.8389239616538621
  0.8754662892324450  0.3772319427710448  0.5891908175245859
  0.8682703468282897  0.0037911707696372  0.0262930609633079
  0.4521303453957570  0.3457716827670640  0.7003733902943908
  0.1861927954976672  0.9842869709852726  0.5427083450321882
  0.2929064722642735  0.6914251232921416  0.9222554114392418
  0.0329498796735978  0.0971024444728510  0.0298144642879750
  0.2887232192013388  0.0114495321459055  0.0582783456514748
  0.4599629241233830  0.1635960002346345  0.1922752017228729
  0.0139492834509476  0.4730922463699110  0.3837648478886171
  0.4870544849763025  0.4912751417162816  0.1635228267918315
  0.8008421194510177  0.0232497503615683  0.2751447294268118
  0.1227031081198112  0.4224773076947847  0.5704467163680647
  0.1961230828305010  0.4501441331362059  0.3032946796697280
  0.7117771878027583  0.3310720412730693  0.1984990835860491
  0.6426269517135758  0.4676491894585633  0.0247942523361259
  0.2030535556138869  0.9345653177929634  0.8335246552098317
  0.2695945091080309  0.1363947496701317  0.9008950488667665
  0.4041506358572812  0.9422122155160367  0.3879286513584209
  0.6924420166125087  0.6234827883401723  0.6557374102411492
  0.6692390267087964  0.4180719913303577  0.9083756891730962
  0.8472179680085361  0.6599103961342889  0.5884317239710425
  0.3485340020078618  0.3249810006628081  0.6972022637027341
  0.1521877063651380  0.5888649981545562  0.0671130581930841
  0.5445208358258498  0.7179357214677811  0.2735430452146712
  0.8493985237251329  0.8677193604188217  0.6848093569860909
  0.9655177416572061  0.8206449242289487  0.4366942671795990
  0.0670113257827390  0.2654067997152222  0.5400173060416550
  0.3990103518584106  0.5578566106738244 -0.0148455803232073
  0.9777305914304480  0.1800477181898461  0.3261611391292517
  0.5840499978694784  0.7757024237522465  0.7899090823074807
  0.1073236703529452  0.5257117768771165  0.8726514153431668
  0.9546734283671283  0.6558868374290776  0.1201921176201557
  0.3885816804232106  0.7417161747270140  0.1568884644641238
  0.1865220758064112  0.1221853938204283  0.6689823822502552
  0.3096835362250221  0.2208434200964121  0.2083373864067817
  0.1937638996890354  0.9340776582014535  0.6385296058732104
  0.8779376416863499  0.9686088723724696  0.3775527193338616
  0.3237704871528705  0.5199653719307586  0.4260346718954251
  0.4852836740312804  0.1879664874205535  0.7055695868337259
  0.6257366569536705  0.2548157786107191  0.9604938487019689
  0.1492676054970466  0.2582429738360511  0.1924512140369096
  0.6591247020876784  0.5668942068045667 -0.0114227534296456
  0.9057910335417020  0.9266731208378438  0.5493103724484348
  0.1086358892002479  0.2554037592937968  0.7538894222270278
  0.0864490163314749  0.4127159131561393  0.1463679053278771
  0.7469926669219507  0.9044126122263672  0.4576416776047448
  0.2933105754858086  0.8538378726017049  0.9622167811269362
  0.8096307128424143  0.0778149566836384  0.9748610199432184
  0.6595607188451676  0.0479618904137434  0.3841982289132979
  0.7491145677541743  0.0890881022518450  0.1180740234376181
  0.6502409323296829  0.0004809500939447  0.2338485197375296
  0.8283504705521783  0.4444538249234904  0.1940664984290808
  0.3231027350806871  0.2869696040671075  0.6023106777665522
  0.7752537083184832  0.8259929907135806  0.6114283047668112
  0.7256030105617233  0.1643667684309651  0.9029681499405623
  0.8690228217235674  0.4519075166142750  0.7323534516028577
  0.4216791822761424  0.5751478207551081  0.3089529053344403
 -0.0149467072195993  0.2585108863246725 -0.0053873142881534
  0.4500581294637405  0.7486028438544715  0.3083015690175293
  0.1198387804218417  0.5780647864149332  0.6488117148670328
  0.9386694632292277  0.5847668468104177  0.9208164036998503
  0.7777596471044338  0.6558718170879658  0.3216961065769202
  0.7515792576113143  0.6994716012103428  0.8469446494691432
  0.2059859436449173  0.2406207032127823  0.7867821532190840
  0.1026821487246498 -0.0256428680252757  0.2973660004468755
  0.0372693981490487  0.9790959178983432  0.4559791701989684
  0.0770722529519282  0.5536418826072553  0.2404679802547328
  0.8189985771839002  0.4605590209834364  0.5545058973902719
  0.5525128956005277  0.4636821281586607  0.6323765062793018
  0.6062627073604087  0.3033346561519092  0.6070801497045090
  0.7306255441032661  0.1745741086286545  0.2703116546323736
  0.2870881514478402  0.5361670107927448  0.8605695136058746
  0.3366345219865118  0.4171131427826640  0.9771578403064094
  0.9006278173201966  0.1137311731892053  0.2875756971552573
 -0.0261541854755506  0.1286794959195295  0.1108851076228142
  0.8393400858650494  0.5415263382902674  0.1537650209055625
  0.7973709505241292  0.9167626747897930  0.7594045175483697
 
  0.00000000E+00  0.00000000E+00  0.00000000E+00
  0.00000000E+00  0.00000000E+00  0.00000000E+00
  0.00000000E+00  0.00000000E+00  0.00000000E+00
  0.00000000E+00  0.00000000E+00  0.00000000E+00
  0.00000000E+00  0.00000000E+00  0.00000000E+00
  0.00000000E+00  0.00000000E+00  0.00000000E+00
  0.00000000E+00  0.00000000E+00  0.00000000E+00
  0.00000000E+00  0.00000000E+00  0.00000000E+00
  0.00000000E+00  0.00000000E+00  0.00000000E+00
  0.00000000E+00  0.00000000E+00  0.00000000E+00
  0.00000000E+00  0.00000000E+00  0.00000000E+00
  0.00000000E+00  0.00000000E+00  0.00000000E+00
  0.00000000E+00  0.00000000E+00  0.00000000E+00
  0.00000000E+00  0.00000000E+00  0.00000000E+00
  0.00000000E+00  0.00000000E+00  0.00000000E+00
  0.00000000E+00  0.00000000E+00  0.00000000E+00
  0.00000000E+00  0.00000000E+00  0.00000000E+00
  0.00000000E+00  0.00000000E+00  0.00000000E+00
  0.00000000E+00  0.00000000E+00  0.00000000E+00
  0.00000000E+00  0.00000000E+00  0.00000000E+00
  0.00000000E+00  0.00000000E+00  0.00000000E+00
  0.00000000E+00  0.00000000E+00  0.00000000E+00
  0.00000000E+00  0.00000000E+00  0.00000000E+00
  0.00000000E+00  0.00000000E+00  0.00000000E+00
  0.00000000E+00  0.00000000E+00  0.00000000E+00
  0.00000000E+00  0.00000000E+00  0.00000000E+00
  0.00000000E+00  0.00000000E+00  0.00000000E+00
  0.00000000E+00  0.00000000E+00  0.00000000E+00
  0.00000000E+00  0.00000000E+00  0.00000000E+00
  0.00000000E+00  0.00000000E+00  0.00000000E+00
  0.00000000E+00  0.00000000E+00  0.00000000E+00
  0.00000000E+00  0.00000000E+00  0.00000000E+00
  0.00000000E+00  0.00000000E+00  0.00000000E+00
  0.00000000E+00  0.00000000E+00  0.00000000E+00
  0.00000000E+00  0.00000000E+00  0.00000000E+00
  0.00000000E+00  0.00000000E+00  0.00000000E+00
  0.00000000E+00  0.00000000E+00  0.00000000E+00
  0.00000000E+00  0.00000000E+00  0.00000000E+00
  0.00000000E+00  0.00000000E+00  0.00000000E+00
  0.00000000E+00  0.00000000E+00  0.00000000E+00
  0.00000000E+00  0.00000000E+00  0.00000000E+00
  0.00000000E+00  0.00000000E+00  0.00000000E+00
  0.00000000E+00  0.00000000E+00  0.00000000E+00
  0.00000000E+00  0.00000000E+00  0.00000000E+00
  0.00000000E+00  0.00000000E+00  0.00000000E+00
  0.00000000E+00  0.00000000E+00  0.00000000E+00
  0.00000000E+00  0.00000000E+00  0.00000000E+00
  0.00000000E+00  0.00000000E+00  0.00000000E+00
  0.00000000E+00  0.00000000E+00  0.00000000E+00
  0.00000000E+00  0.00000000E+00  0.00000000E+00
  0.00000000E+00  0.00000000E+00  0.00000000E+00
  0.00000000E+00  0.00000000E+00  0.00000000E+00
  0.00000000E+00  0.00000000E+00  0.00000000E+00
  0.00000000E+00  0.00000000E+00  0.00000000E+00
  0.00000000E+00  0.00000000E+00  0.00000000E+00
  0.00000000E+00  0.00000000E+00  0.00000000E+00
  0.00000000E+00  0.00000000E+00  0.00000000E+00
  0.00000000E+00  0.00000000E+00  0.00000000E+00
  0.00000000E+00  0.00000000E+00  0.00000000E+00
  0.00000000E+00  0.00000000E+00  0.00000000E+00
  0.00000000E+00  0.00000000E+00  0.00000000E+00
  0.00000000E+00  0.00000000E+00  0.00000000E+00
  0.00000000E+00  0.00000000E+00  0.00000000E+00
  0.00000000E+00  0.00000000E+00  0.00000000E+00
  0.00000000E+00  0.00000000E+00  0.00000000E+00
  0.00000000E+00  0.00000000E+00  0.00000000E+00
  0.00000000E+00  0.00000000E+00  0.00000000E+00
  0.00000000E+00  0.00000000E+00  0.00000000E+00
  0.00000000E+00  0.00000000E+00  0.00000000E+00
  0.00000000E+00  0.00000000E+00  0.00000000E+00
  0.00000000E+00  0.00000000E+00  0.00000000E+00
  0.00000000E+00  0.00000000E+00  0.00000000E+00
  0.00000000E+00  0.00000000E+00  0.00000000E+00
  0.00000000E+00  0.00000000E+00  0.00000000E+00
  0.00000000E+00  0.00000000E+00  0.00000000E+00
  0.00000000E+00  0.00000000E+00  0.00000000E+00
  0.00000000E+00  0.00000000E+00  0.00000000E+00
  0.00000000E+00  0.00000000E+00  0.00000000E+00
  0.00000000E+00  0.00000000E+00  0.00000000E+00
  0.00000000E+00  0.00000000E+00  0.00000000E+00
  0.00000000E+00  0.00000000E+00  0.00000000E+00
  0.00000000E+00  0.00000000E+00  0.00000000E+00
  0.00000000E+00  0.00000000E+00  0.00000000E+00
  0.00000000E+00  0.00000000E+00  0.00000000E+00
  0.00000000E+00  0.00000000E+00  0.00000000E+00
  0.00000000E+00  0.00000000E+00  0.00000000E+00
  0.00000000E+00  0.00000000E+00  0.00000000E+00
  0.00000000E+00  0.00000000E+00  0.00000000E+00
  0.00000000E+00  0.00000000E+00  0.00000000E+00
  0.00000000E+00  0.00000000E+00  0.00000000E+00
  0.00000000E+00  0.00000000E+00  0.00000000E+00
  0.00000000E+00  0.00000000E+00  0.00000000E+00
  0.00000000E+00  0.00000000E+00  0.00000000E+00
  0.00000000E+00  0.00000000E+00  0.00000000E+00
  0.00000000E+00  0.00000000E+00  0.00000000E+00
  0.00000000E+00  0.00000000E+00  0.00000000E+00
  0.00000000E+00  0.00000000E+00  0.00000000E+00
  0.00000000E+00  0.00000000E+00  0.00000000E+00
  0.00000000E+00  0.00000000E+00  0.00000000E+00
  0.00000000E+00  0.00000000E+00  0.00000000E+00
  0.00000000E+00  0.00000000E+00  0.00000000E+00
  0.00000000E+00  0.00000000E+00  0.00000000E+00
  0.00000000E+00  0.00000000E+00  0.00000000E+00
  0.00000000E+00  0.00000000E+00  0.00000000E+00
  0.00000000E+00  0.00000000E+00  0.00000000E+00
  0.00000000E+00  0.00000000E+00  0.00000000E+00
  0.00000000E+00  0.00000000E+00  0.00000000E+00
  0.00000000E+00  0.00000000E+00  0.00000000E+00
  0.00000000E+00  0.00000000E+00  0.00000000E+00
  0.00000000E+00  0.00000000E+00  0.00000000E+00
  0.00000000E+00  0.00000000E+00  0.00000000E+00
  0.00000000E+00  0.00000000E+00  0.00000000E+00
  0.00000000E+00  0.00000000E+00  0.00000000E+00
  0.00000000E+00  0.00000000E+00  0.00000000E+00
  0.00000000E+00  0.00000000E+00  0.00000000E+00
  0.00000000E+00  0.00000000E+00  0.00000000E+00
  0.00000000E+00  0.00000000E+00  0.00000000E+00
  0.00000000E+00  0.00000000E+00  0.00000000E+00
  0.00000000E+00  0.00000000E+00  0.00000000E+00
  0.00000000E+00  0.00000000E+00  0.00000000E+00
  0.00000000E+00  0.00000000E+00  0.00000000E+00
  0.00000000E+00  0.00000000E+00  0.00000000E+00
  0.00000000E+00  0.00000000E+00  0.00000000E+00
  0.00000000E+00  0.00000000E+00  0.00000000E+00
  0.00000000E+00  0.00000000E+00  0.00000000E+00
  0.00000000E+00  0.00000000E+00  0.00000000E+00
  0.00000000E+00  0.00000000E+00  0.00000000E+00
  0.00000000E+00  0.00000000E+00  0.00000000E+00
  0.00000000E+00  0.00000000E+00  0.00000000E+00
  0.00000000E+00  0.00000000E+00  0.00000000E+00
  0.00000000E+00  0.00000000E+00  0.00000000E+00
  0.00000000E+00  0.00000000E+00  0.00000000E+00
  0.00000000E+00  0.00000000E+00  0.00000000E+00
  0.00000000E+00  0.00000000E+00  0.00000000E+00
  0.00000000E+00  0.00000000E+00  0.00000000E+00
  0.00000000E+00  0.00000000E+00  0.00000000E+00
  0.00000000E+00  0.00000000E+00  0.00000000E+00
  0.00000000E+00  0.00000000E+00  0.00000000E+00
  0.00000000E+00  0.00000000E+00  0.00000000E+00
  0.00000000E+00  0.00000000E+00  0.00000000E+00
  0.00000000E+00  0.00000000E+00  0.00000000E+00
  0.00000000E+00  0.00000000E+00  0.00000000E+00
  0.00000000E+00  0.00000000E+00  0.00000000E+00
  0.00000000E+00  0.00000000E+00  0.00000000E+00
  0.00000000E+00  0.00000000E+00  0.00000000E+00
  0.00000000E+00  0.00000000E+00  0.00000000E+00
  0.00000000E+00  0.00000000E+00  0.00000000E+00
  0.00000000E+00  0.00000000E+00  0.00000000E+00
  0.00000000E+00  0.00000000E+00  0.00000000E+00
  0.00000000E+00  0.00000000E+00  0.00000000E+00
  0.00000000E+00  0.00000000E+00  0.00000000E+00
  0.00000000E+00  0.00000000E+00  0.00000000E+00
  0.00000000E+00  0.00000000E+00  0.00000000E+00
  0.00000000E+00  0.00000000E+00  0.00000000E+00
  0.00000000E+00  0.00000000E+00  0.00000000E+00
  0.00000000E+00  0.00000000E+00  0.00000000E+00
  0.00000000E+00  0.00000000E+00  0.00000000E+00
  0.00000000E+00  0.00000000E+00  0.00000000E+00
  0.00000000E+00  0.00000000E+00  0.00000000E+00
  0.00000000E+00  0.00000000E+00  0.00000000E+00
  0.00000000E+00  0.00000000E+00  0.00000000E+00
  0.00000000E+00  0.00000000E+00  0.00000000E+00
  0.00000000E+00  0.00000000E+00  0.00000000E+00
  0.00000000E+00  0.00000000E+00  0.00000000E+00
  0.00000000E+00  0.00000000E+00  0.00000000E+00
  0.00000000E+00  0.00000000E+00  0.00000000E+00
  0.00000000E+00  0.00000000E+00  0.00000000E+00
  0.00000000E+00  0.00000000E+00  0.00000000E+00
  0.00000000E+00  0.00000000E+00  0.00000000E+00
  0.00000000E+00  0.00000000E+00  0.00000000E+00
  0.00000000E+00  0.00000000E+00  0.00000000E+00
  0.00000000E+00  0.00000000E+00  0.00000000E+00
  0.00000000E+00  0.00000000E+00  0.00000000E+00
  0.00000000E+00  0.00000000E+00  0.00000000E+00
  0.00000000E+00  0.00000000E+00  0.00000000E+00
  0.00000000E+00  0.00000000E+00  0.00000000E+00
  0.00000000E+00  0.00000000E+00  0.00000000E+00
  0.00000000E+00  0.00000000E+00  0.00000000E+00
  0.00000000E+00  0.00000000E+00  0.00000000E+00
  0.00000000E+00  0.00000000E+00  0.00000000E+00
  0.00000000E+00  0.00000000E+00  0.00000000E+00
  0.00000000E+00  0.00000000E+00  0.00000000E+00
  0.00000000E+00  0.00000000E+00  0.00000000E+00
  0.00000000E+00  0.00000000E+00  0.00000000E+00
  0.00000000E+00  0.00000000E+00  0.00000000E+00
  0.00000000E+00  0.00000000E+00  0.00000000E+00
  0.00000000E+00  0.00000000E+00  0.00000000E+00
  0.00000000E+00  0.00000000E+00  0.00000000E+00
  0.00000000E+00  0.00000000E+00  0.00000000E+00
  0.00000000E+00  0.00000000E+00  0.00000000E+00
  0.00000000E+00  0.00000000E+00  0.00000000E+00
  0.00000000E+00  0.00000000E+00  0.00000000E+00
  0.00000000E+00  0.00000000E+00  0.00000000E+00
  0.00000000E+00  0.00000000E+00  0.00000000E+00
  0.00000000E+00  0.00000000E+00  0.00000000E+00
  0.00000000E+00  0.00000000E+00  0.00000000E+00
  0.00000000E+00  0.00000000E+00  0.00000000E+00
  0.00000000E+00  0.00000000E+00  0.00000000E+00
  0.00000000E+00  0.00000000E+00  0.00000000E+00
  0.00000000E+00  0.00000000E+00  0.00000000E+00
  0.00000000E+00  0.00000000E+00  0.00000000E+00
  0.00000000E+00  0.00000000E+00  0.00000000E+00
  0.00000000E+00  0.00000000E+00  0.00000000E+00
  0.00000000E+00  0.00000000E+00  0.00000000E+00
  0.00000000E+00  0.00000000E+00  0.00000000E+00
  0.00000000E+00  0.00000000E+00  0.00000000E+00
  0.00000000E+00  0.00000000E+00  0.00000000E+00
  0.00000000E+00  0.00000000E+00  0.00000000E+00
  0.00000000E+00  0.00000000E+00  0.00000000E+00
  0.00000000E+00  0.00000000E+00  0.00000000E+00
  0.00000000E+00  0.00000000E+00  0.00000000E+00
  0.00000000E+00  0.00000000E+00  0.00000000E+00
  0.00000000E+00  0.00000000E+00  0.00000000E+00
  0.00000000E+00  0.00000000E+00  0.00000000E+00
  0.00000000E+00  0.00000000E+00  0.00000000E+00
  0.00000000E+00  0.00000000E+00  0.00000000E+00
  0.00000000E+00  0.00000000E+00  0.00000000E+00
  0.00000000E+00  0.00000000E+00  0.00000000E+00
  0.00000000E+00  0.00000000E+00  0.00000000E+00
  0.00000000E+00  0.00000000E+00  0.00000000E+00
  0.00000000E+00  0.00000000E+00  0.00000000E+00
  0.00000000E+00  0.00000000E+00  0.00000000E+00
  0.00000000E+00  0.00000000E+00  0.00000000E+00
  0.00000000E+00  0.00000000E+00  0.00000000E+00
  0.00000000E+00  0.00000000E+00  0.00000000E+00
  0.00000000E+00  0.00000000E+00  0.00000000E+00
  0.00000000E+00  0.00000000E+00  0.00000000E+00
  0.00000000E+00  0.00000000E+00  0.00000000E+00
  0.00000000E+00  0.00000000E+00  0.00000000E+00
  0.00000000E+00  0.00000000E+00  0.00000000E+00
  0.00000000E+00  0.00000000E+00  0.00000000E+00
  0.00000000E+00  0.00000000E+00  0.00000000E+00