Amorphous Sb                            
   1.00000000000000     
    22.5638363270341493    0.0000000000000000    0.0000000000000000
     0.0000000000000000   22.5638363270341493    0.0000000000000000
     0.0000000000000000    0.0000000000000000   22.5638363270341493
   Sb   Te   Se
   120   144    36
Direct
  0.2117913627430070  0.0206011380284039  0.1390343284850886
  0.0157076792469368  0.8205110014129033  0.1283592157428473
  0.5448434520613858  0.9897901531502669  0.0073124629776942
  0.3262493042592780  0.3782235600003077  0.1077097070575306
  0.2389222225039234  0.2861906630802267  0.1350518274007868
  0.2845408539491814  0.5632553487592702  0.7153170652582119
  0.8508593605927004  0.3583189351015079  0.5596921360453706
  0.0823912608972748  0.9712807007379709  0.0555423708169585
  0.6975643399896043  0.4015272659957461  0.4831176831709953
  0.6080273442129922  0.9198625235923785  0.7958243070282123
  0.8459116637352082  0.9286889354848711  0.7580986509732739
  0.9919739343953609  0.6208146469483395  0.3946181150486936
  0.4786584419109161  0.8435299602706294  0.1038059462776033
  0.8425030559556959  0.0677107069414902  0.6722252511990661
  0.0894623527142215  0.1531112414529190  0.9811324794897303
  0.1066861239745975  0.6949015983034528  0.8815046617030120
  0.7450615463911205  0.9419821241192281  0.1920866208412875
  0.5369437392049932  0.0714051762770112  0.7667651717600918
  0.6950810813232664  0.6778122653585470  0.6141704086343651
  0.5730687400332215  0.1405970689938769  0.2878317943567339
  0.8775378542198311  0.5395343224617619  0.7211799148724438
  0.1239685304185656  0.4097876275506280  0.4027291392782431
  0.4290141643828207  0.2577659923248703  0.5455592709240094
  0.9027617233118690  0.2481355627075246  0.1732095705263390
  0.2272864230794411  0.6443955390318052  0.8791228058697271
  0.5904693932741765  0.2367299995722547  0.5644519914256492
  0.0079245589821326  0.7931108935817690  0.7950380680542111
  0.8772591585512970  0.9432835656070964  0.0969043585794225
  0.1259574697067123  0.4656613272247867  0.7766089444409587
  0.0101057347177047  0.6045047597934499  0.7523024524901771
  0.8939847544283381  0.8132154518387793  0.3918500641376852
  0.3034335864903142  0.7782760244396272  0.2152097191897582
  0.1686302490750435  0.6875466963569750  0.4271033136595435
  0.0147913470332597  0.2817128378827007  0.8555766538607514
  0.3697421212665404  0.0300519637116139  0.0488252933151827
  0.8972993790317361  0.3796367462905650  0.0876473958249875
  0.8601153274808482  0.4687733674395815  0.4863892795499112
  0.1695981320989191  0.9732821086562069  0.3690458792550757
  0.0998976058987324  0.1481495296126738  0.2605201304440712
  0.5749294488438608  0.9430604534141622  0.2500231198083540
  0.6216858025601084  0.4277895348024714  0.1063739498308109
  0.5299069055495096  0.2100159809276008  0.6770069470910300
  0.2431967815671072  0.0480798465589629  0.7678875235158245
  0.7478167711879777  0.7839559206673741  0.0427541404529777
  0.9213311420193406  0.4636957416005743  0.6274217383948297
  0.1721510482022310  0.3737300409013713  0.9243666614475075
  0.6435244669548581  0.6412492384505484  0.4670212309398565
  0.0014406362283808  0.0443253773079277  0.7757095920147492
  0.5669790234108092  0.6887156961935759  0.3741382482007936
  0.4090511283126048  0.8758854080127279  0.5809691489160684
  0.5185247988969905  0.3395031756659606  0.7075851269883486
  0.0153247270514427  0.6133027947129435  0.5896760337568168
  0.7593682854961941  0.5721227980878894  0.0788499495203325
  0.0884058599825934  0.8626712847179618  0.9697759079591179
  0.8182837868707367  0.5937169089485437  0.3491687563870585
  0.6958365066027099  0.5681370838351327  0.7359794221042790
  0.3921971604757886  0.1214555968337621  0.1999473364420155
  0.6446668473815649  0.0070049705536590  0.4094321461069015
  0.3415722214783798  0.7423789973477213  0.3687258667175044
  0.1834221156528528  0.4621739504312430  0.0168250353309745
  0.4267416473391421  0.7314711243255871  0.8752842227474886
  0.4015990408817061  0.6416628999312692  0.3138830903467920
  0.1630794173575794  0.1595175466977850  0.3727872034610158
  0.3145328776859628  0.5493187511573723  0.3401808462922418
  0.5161407485640410  0.3944785791822909  0.4745349040537548
  0.2838786970565721  0.6689509334342816  0.5652415159842263
  0.9652106020186721  0.1863981247144935  0.0091587762179444
  0.0460961430579871  0.4946539593297175  0.6346745594240844
  0.0395588762772547  0.0613098319098953  0.9063100452221349
  0.2793923754862888  0.2503683899257609  0.6306340456667030
  0.4706815352803204  0.5270076935710790  0.0623739104936192
  0.5351978997220144  0.2858771070071739  0.1143826385425797
  0.0823290477773071  0.2942988712098966  0.1059808631167343
  0.0170190936059242  0.1169756958773505  0.6063486314087143
  0.3916536095124172  0.8971782297332638  0.7526719593495841
  0.9865766769757656  0.0036861573202103  0.3173701093737265
  0.8166692697658462  0.2637014081192888  0.4082670827878587
  0.7631650616190271  0.0926397989269034  0.1201839947205272
  0.9302119288982809  0.8505328696727261  0.9993036699059843
  0.5651075179844298  0.1623581678369490  0.9293551656197039
  0.7441763930882672  0.3436735410928193  0.2273851849497390
  0.8767458324381963  0.9389282713304894  0.9186411375365608
  0.4509497855811304  0.1023226441200435  0.9147978177479317
  0.5997717379038079  0.7809368961597301  0.9368712405490385
  0.2067985191920982  0.9013394196828486  0.6148930204924525
  0.5066741944936979  0.5711643926419043  0.8041854736608940
  0.2618658468730288  0.7154680702316654  0.9806229794196781
  0.8293575585366924  0.9455354504409925  0.4925097291568648
  0.9533356363997143  0.0628875865141580  0.5052410828534377
  0.0715503104123911  0.7958003998530927  0.2962542053858499
  0.7782883455566534  0.1389965579472232  0.2930128422322653
  0.4447911913388296  0.7181418653432061  0.1076586634639725
  0.2267378789078549  0.5910537213968112  0.2483927742923839
  0.4741951072296544  0.1181079411388239  0.0985472007470847
  0.3134752258952602  0.5466788391879192  0.5892933226854069
  0.6603547066276576  0.7580138876473157  0.7950082846756672
  0.3265216228118319  0.1984106613832708  0.0981692189280210
  0.1353479659019143  0.1890935026847345  0.7225903788913968
  0.5591660698343830  0.2310828805795779  0.8199877210191815
  0.1262838731015492  0.0025570185997381  0.6356601159906603
  0.9435641953051075  0.3504813377209572  0.3688025122186218
  0.1245326039470314  0.5646991088334659  0.4331413929728427
  0.4718071183383614  0.8852133830201439  0.9822889770460392
  0.7634869209157031  0.6940633558428999  0.2888646617944062
  0.2226958113683821  0.3227267095077266  0.4208630500020263
  0.8438973516302042  0.7182125787146560  0.7108232675546304
  0.8738721220008117  0.0489178791197276  0.1747460629932149
  0.3545194062605290  0.2606405655272894  0.9872221889477686
  0.3841613341186729  0.1682881693336142  0.8208098031784488
  0.1545811264019363  0.3558031768350176  0.6478651738986798
  0.0822822522744673  0.7665756073273897  0.5898330443309945
  0.6494897791190013  0.9261752674676060  0.0538811275166040
  0.3585068570472671  0.4657290713216184  0.4415175520388956
  0.9516654533174744  0.5231514440473930  0.9910460675664368
  0.4072900873241423  0.6343735182900474  0.5932902522354766
  0.3152452659316438  0.9710467412857113  0.5213623053353800
  0.4688769099015246  0.7427953260524163  0.6856389863228785
  0.4393729237108843  0.0983419594355581  0.4291223502696369
  0.1965363807771610  0.7666246331274209  0.0889107847961057
  0.9582368928947318  0.9299747852376470  0.8185465093041557
  0.1815702793624254  0.2649399958534602  0.0246778011876572
  0.5269140616936099  0.5221128830494237  0.4738003337204546
  0.0866359909845187  0.5864166232391099  0.1096268482328782
  0.6702161092156018  0.8575281700489370  0.2453593316343685
  0.9888498721859165  0.1633083724921391  0.1298097431637615
  0.5678378350935418  0.5926721399012536  0.5864984022142323
  0.1591344001867085  0.8061573072276289  0.6822766573508545
  0.4592917095927973  0.1196928205066570  0.5549801016237410
  0.6667967258103076  0.3023329904575149  0.8290464211056019
  0.9745043619778642  0.4552588649592479  0.4329193271359628
  0.6393865318173226  0.5061181637654784  0.8317235678133343
  0.7672873960926978  0.6896586463601864  0.8087552749001929
  0.6551731738013586  0.0383790527887200  0.2556290371222119
  0.7323108335385271  0.4814173460810807  0.2366997865905347
  0.7740139265410306  0.4609518676741402  0.7281823412354527
  0.5069015956229634  0.2566386987345481  0.3164896157559198
  0.2307539270856509  0.9153190822316404  0.2627445014801140
  0.2604867214484941  0.8880229729708944  0.4295668697346073
  0.0768326276729070  0.4007208123424491  0.5572818886435940
  0.5997520623143018  0.3636258505317187  0.5798265488061176
  0.0979831283773294  0.0223314599679441  0.2581686564595955
  0.7311624664486800  0.2231354964760754  0.1740395858449162
  0.5403079367442984  0.9345089399905646  0.3715627891963180
  0.1268621779492562  0.8162637744527004  0.8439007685120643
  0.7997815053015600  0.1960532684190923  0.0577044227521526
  0.7648983551311801  0.2186347077555411  0.7922990018119549
  0.1370172815679211  0.9880451014746114  0.9333662676944527
  0.5958700436448154  0.5900245604462739  0.3007966601187633
  0.0925239448222612  0.7401938776543702  0.0171547489970507
  0.0765484412192876  0.5590993110792510  0.9883123451351850
  0.2524105103613863  0.0748065952596377  0.0300000022597260
  0.8649771007979012  0.3625122164567642  0.8591115887333558
  0.9733393634934799  0.0256223357421206  0.0073945887844573
  0.7153782636692085  0.9509657648747805  0.5637341625214702
  0.7675995983149022  0.1262033058509644  0.9416441036806376
  0.2559652645377994  0.9238539051265136  0.7515127590276407
  0.9731592644244742  0.7586489207734743  0.2302871163835434
  0.6973090654637915  0.7052031437146908  0.9566896250788375
  0.3796897818365181  0.6708753562215577  0.9812125531559417
  0.4826676506638776  0.2594440106158515  0.9955675247531843
  0.2075038039295478  0.8843506937310437  0.0178906258770581
  0.6429824058040268  0.5589457514270109  0.0232779752363967
  0.4140209298401132  0.8134409553939435  0.2722090164317308
  0.4629373658710918  0.4956113792081425  0.7105411776757435
  0.0356177778226510  0.9650686121235239  0.5165115102942437
  0.8180681362972635  0.5926121810840144  0.9690012765137865
  0.6737688934403110  0.6494042031057248  0.2100896315514618
  0.8271970261465782  0.2454614112197078  0.8961386610301645
  0.1900751000998113  0.7020747500049254  0.2996725433016181
  0.8305202558444904  0.9865980691215483  0.2763715004386000
  0.8260102563985328  0.7134877632224175  0.4305103174788698
  0.0174597005869046  0.8580030574828470  0.6769713023300099
  0.4851685644427306  0.9966753627667160  0.8537182642350203
  0.6267255411271719  0.3855724962074731  0.3754149195847063
  0.6538781574459875  0.1890492586127905  0.6616897799783175
  0.1953813918938252  0.1425834535737920  0.1781324465148444
  0.6674833733710201  0.9954995669113416  0.8869848564508231
  0.9777716492914905  0.7579587992045873  0.9276695501405783
  0.6103979528179480  0.5033068557271179  0.6635792631944071
  0.2820140174853094  0.7343580245119838  0.8114246152464091
  0.5164948362752781  0.8119725760851324  0.5851336113809538
  0.1289715575910932  0.8498983226885244  0.1753803658901276
  0.2013503633311799  0.6289148406559519  0.1086376880347757
  0.8256896349490006  0.8440886832828696  0.8504308831466574
  0.2634872307576330  0.8214650160947485  0.9106534159341493
  0.0105435530352835  0.0992859822450498  0.3977426892161944
  0.0357809889640919  0.8998053449850190  0.3722830069163834
  0.2370611880476829  0.2552943407037276  0.7548567047707095
  0.1375780800831095  0.8506809931575745  0.5136487970927206
  0.3717548960332167  0.4957344786392071  0.2384308290127422
  0.8711002895691564  0.1278327080264319  0.7799015327240895
  0.9895355414354583  0.9411226397412236  0.1596264416311470
  0.7056384695715465  0.8881818909975507  0.9470120362445087
  0.7900385488294219  0.4227133764094901  0.3922440910948595
  0.7784751499344438  0.0228919529118059  0.0142717804411419
  0.3338879845261431  0.9868244410406675  0.1629866039421373
  0.1230933405475199  0.2203127995771013  0.8790427843660993
  0.5313191428029143  0.6744125692154910  0.9211343519452697
  0.9396096142680506  0.2083846249751460  0.6498619102865177
  0.6888188256366021  0.5224839011665097  0.3610135583972394
  0.8304075896268657  0.3975020645990597  0.9825966812942895
  0.7619521511828111  0.4491118549951167  0.6021114058937869
  0.2639045506982356  0.4488384240944896  0.1920178884699766
  0.5698540854361482  0.1166907475332550  0.4268316545737179
  0.7811095255811296  0.0468380904492562  0.8344754584915393
  0.9241710700430019  0.4019066120690979  0.2410530437086038
  0.3335628328880560  0.9232204134940289  0.3341124977447123
  0.1365111623715123  0.2353493961126176  0.6033127525169348
  0.5451080900120928  0.6162240144260309  0.1117335080500865
  0.6010902866696171  0.8088742802143400  0.0681270945313557
  0.2250722283330759  0.4688949951688173  0.8528963777798069
  0.2187513827699945  0.2559318113891109  0.3145407333333594
  0.4091689859329151  0.2227201982660532  0.3981814771416907
  0.9235990338407731  0.6347412033125011  0.4999798716206314
  0.4655771542034515  0.4643671311185358  0.3716874668687637
  0.7124962696858290  0.4966910047520017  0.9310287697017401
  0.3445619512521603  0.0884722098026955  0.5976585903528715
  0.1122805595939056  0.9808777715906487  0.7664029010743718
  0.7443073031328780  0.2880057997633685  0.5134872676361439
  0.0227275084662679  0.7443891684056965  0.4081938039090502
  0.3416031006622404  0.6564360974166235  0.2010825207160565
  0.5047275370478701  0.8168459931340095  0.7821742904895359
  0.9153851327423226  0.8520226137670619  0.5095896745856834
  0.7856059571543668  0.8920458361081174  0.3901587076813087
  0.4704277748579671  0.0641937537223214  0.2833230843380079
  0.8923561847952399  0.1964864580690531  0.2893551818274602
  0.3504982246180433  0.7964376351836862  0.6866355496670664
  0.6456666802945108  0.3547104093878133  0.7150959882526067
  0.9473534739052667  0.4021553176917791  0.7345253165935119
  0.3461665748835685  0.8128019662236170  0.1014412325713110
  0.1330106494042198  0.4112131318027963  0.1219827599175218
  0.7687019783417171  0.4188647084078951  0.1245732927927392
  0.4057816833633225  0.6466071280830619  0.7837961529959117
  0.9962613915650920  0.3119561770359667  0.0132468141860755
  0.0528059723456806  0.3998804823000199  0.8843788653968687
  0.4075636399057956  0.2518843840407925  0.1830878307344506
  0.3534731261962492  0.4679063525626646  0.7632961908234179
  0.6179546951247943  0.3634443905205060  0.2200167434877756
  0.1105217756605512  0.5556801478932982  0.2998064474774225
  0.3017951662818703  0.1665722294385290  0.9178483979025671
  0.0593032381762413  0.3038393491640079  0.3569655384663335
  0.3163597417431561  0.2353647483407997  0.4945160839235854
  0.6297238926387720  0.3225733855506334  0.0365843349399810
  0.4096246062004880  0.3940100311416543  0.5443923536024826
  0.8558294144794374  0.3152697314229513  0.7348507355336622
  0.6890370872406066  0.7335583254577784  0.3838218037125003
  0.1436528684938594  0.0271125244916206  0.4998280279508762
  0.6935856075005873  0.8576578437141649  0.7254069052019148
  0.2507621460115956  0.0715184834941027  0.3451891885067511
  0.3214385665583706  0.3741662823486465  0.3646052985851043
  0.5913269457034502  0.2678859405576048  0.4080591091638652
  0.4509614039919683  0.6449139308432521  0.4744790273253798
  0.6053268695392688  0.6842214970200899  0.7084059842384605
  0.6250827698571015  0.9084498416553117  0.4819678542350516
  0.4271970344978584  0.7673235960193736  0.4586953111699614
  0.5800724207082979  0.1685120722038107  0.1473489358840609
  0.8927156511998078  0.8615644674296874  0.6594010747922638
  0.8011161619368963  0.1371451524473741  0.4191015710544903
  0.7733237936801345  0.6896158519610580  0.1282010989929105
  0.1348843522975471  0.6439789352007566  0.5625230231078220
  0.4435358019731552  0.5023819182797808  0.8894647935388420
  0.9205635286335578  0.6570045836017115  0.8197829095339273
  0.0449094661039027  0.2791321920692695  0.7311961749901457
  0.2953723296529489  0.0890598992880243  0.4776674537995049
  0.5044227388095024  0.4364984189679575  0.1276110024668711
  0.0810966012640151  0.6988949681038292  0.7561455899330340
  0.8199567220682269  0.8585407596258463  0.1532975872545634
  0.3662832636339317  0.9355318868199944  0.9799148922165912
  0.4305596946950345  0.9573177822090315  0.6633257549822886
  0.8482251012674453  0.1572184690062031  0.5998086268690344
  0.5033559659933289  0.0049701638752211  0.1166120587462771
  0.9926136302482220  0.3131083745079337  0.2097762968845842
  0.6032318862281585  0.9956597944771914  0.7100624750430384
  0.4246074526662369  0.9520058981494941  0.4865344601321908
  0.8377174918368837  0.5249064165870223  0.2513671261180335
  0.9220412929161554  0.6290660361528779  0.3037956500019874
  0.6249640454091718  0.1078299519204577  0.8354794969007742
  0.1158323155860330  0.4420308319695820  0.2901371870140537
  0.0725440680382761  0.5535554014861859  0.8369754386003692
  0.6963056768740898  0.2242416832790681  0.2929104951434098
  0.9099954350927035  0.2778306770158210  0.4749830573475293
  0.9155305102900755  0.6280972638422924  0.0219389771523097
  0.2828313276258285  0.6537810045197361  0.4477621240396061
  0.6378627151151477  0.7378513319595186  0.5332630006193071
  0.3607831396568244  0.0734538680053305  0.7603774645666377
  0.2591749858388255  0.3613049524117429  0.5969169521861986
  0.1832361689567037  0.5135867645979388  0.6833612822478443
  0.4934640586981658  0.3260208225920138  0.8209026861934632
  0.7302146299123180  0.0459687693128714  0.5011934233761579
  0.2186767219286168  0.0767282421199553  0.6565694244462819
  0.8474354174045260  0.7694693667571144  0.9831874263678415
  0.2141193661812508  0.4974164878083442  0.4417777192846870
  0.9571405676204137  0.4780524087301856  0.0980509874940481
  0.9524365695360899  0.0266467067819818  0.6518762894937353
  0.5279338881194562  0.4892391765640198  0.9679469957036630
  0.3965332775764097  0.2633812988515771  0.6585140460290475
  0.8383968174161041  0.6200708912957040  0.6460529871982672
  0.7642954283539893  0.7673662286056953  0.6352357931722565
  0.2945784271348373  0.4153455844858556  0.0037469402946044
  0.4869368266991216  0.7375135687613650  0.2219990477092821
 
  0.00000000E+00  0.00000000E+00  0.00000000E+00
  0.00000000E+00  0.00000000E+00  0.00000000E+00
  0.00000000E+00  0.00000000E+00  0.00000000E+00
  0.00000000E+00  0.00000000E+00  0.00000000E+00
  0.00000000E+00  0.00000000E+00  0.00000000E+00
  0.00000000E+00  0.00000000E+00  0.00000000E+00
  0.00000000E+00  0.00000000E+00  0.00000000E+00
  0.00000000E+00  0.00000000E+00  0.00000000E+00
  0.00000000E+00  0.00000000E+00  0.00000000E+00
  0.00000000E+00  0.00000000E+00  0.00000000E+00
  0.00000000E+00  0.00000000E+00  0.00000000E+00
  0.00000000E+00  0.00000000E+00  0.00000000E+00
  0.00000000E+00  0.00000000E+00  0.00000000E+00
  0.00000000E+00  0.00000000E+00  0.00000000E+00
  0.00000000E+00  0.00000000E+00  0.00000000E+00
  0.00000000E+00  0.00000000E+00  0.00000000E+00
  0.00000000E+00  0.00000000E+00  0.00000000E+00
  0.00000000E+00  0.00000000E+00  0.00000000E+00
  0.00000000E+00  0.00000000E+00  0.00000000E+00
  0.00000000E+00  0.00000000E+00  0.00000000E+00
  0.00000000E+00  0.00000000E+00  0.00000000E+00
  0.00000000E+00  0.00000000E+00  0.00000000E+00
  0.00000000E+00  0.00000000E+00  0.00000000E+00
  0.00000000E+00  0.00000000E+00  0.00000000E+00
  0.00000000E+00  0.00000000E+00  0.00000000E+00
  0.00000000E+00  0.00000000E+00  0.00000000E+00
  0.00000000E+00  0.00000000E+00  0.00000000E+00
  0.00000000E+00  0.00000000E+00  0.00000000E+00
  0.00000000E+00  0.00000000E+00  0.00000000E+00
  0.00000000E+00  0.00000000E+00  0.00000000E+00
  0.00000000E+00  0.00000000E+00  0.00000000E+00
  0.00000000E+00  0.00000000E+00  0.00000000E+00
  0.00000000E+00  0.00000000E+00  0.00000000E+00
  0.00000000E+00  0.00000000E+00  0.00000000E+00
  0.00000000E+00  0.00000000E+00  0.00000000E+00
  0.00000000E+00  0.00000000E+00  0.00000000E+00
  0.00000000E+00  0.00000000E+00  0.00000000E+00
  0.00000000E+00  0.00000000E+00  0.00000000E+00
  0.00000000E+00  0.00000000E+00  0.00000000E+00
  0.00000000E+00  0.00000000E+00  0.00000000E+00
  0.00000000E+00  0.00000000E+00  0.00000000E+00
  0.00000000E+00  0.00000000E+00  0.00000000E+00
  0.00000000E+00  0.00000000E+00  0.00000000E+00
  0.00000000E+00  0.00000000E+00  0.00000000E+00
  0.00000000E+00  0.00000000E+00  0.00000000E+00
  0.00000000E+00  0.00000000E+00  0.00000000E+00
  0.00000000E+00  0.00000000E+00  0.00000000E+00
  0.00000000E+00  0.00000000E+00  0.00000000E+00
  0.00000000E+00  0.00000000E+00  0.00000000E+00
  0.00000000E+00  0.00000000E+00  0.00000000E+00
  0.00000000E+00  0.00000000E+00  0.00000000E+00
  0.00000000E+00  0.00000000E+00  0.00000000E+00
  0.00000000E+00  0.00000000E+00  0.00000000E+00
  0.00000000E+00  0.00000000E+00  0.00000000E+00
  0.00000000E+00  0.00000000E+00  0.00000000E+00
  0.00000000E+00  0.00000000E+00  0.00000000E+00
  0.00000000E+00  0.00000000E+00  0.00000000E+00
  0.00000000E+00  0.00000000E+00  0.00000000E+00
  0.00000000E+00  0.00000000E+00  0.00000000E+00
  0.00000000E+00  0.00000000E+00  0.00000000E+00
  0.00000000E+00  0.00000000E+00  0.00000000E+00
  0.00000000E+00  0.00000000E+00  0.00000000E+00
  0.00000000E+00  0.00000000E+00  0.00000000E+00
  0.00000000E+00  0.00000000E+00  0.00000000E+00
  0.00000000E+00  0.00000000E+00  0.00000000E+00
  0.00000000E+00  0.00000000E+00  0.00000000E+00
  0.00000000E+00  0.00000000E+00  0.00000000E+00
  0.00000000E+00  0.00000000E+00  0.00000000E+00
  0.00000000E+00  0.00000000E+00  0.00000000E+00
  0.00000000E+00  0.00000000E+00  0.00000000E+00
  0.00000000E+00  0.00000000E+00  0.00000000E+00
  0.00000000E+00  0.00000000E+00  0.00000000E+00
  0.00000000E+00  0.00000000E+00  0.00000000E+00
  0.00000000E+00  0.00000000E+00  0.00000000E+00
  0.00000000E+00  0.00000000E+00  0.00000000E+00
  0.00000000E+00  0.00000000E+00  0.00000000E+00
  0.00000000E+00  0.00000000E+00  0.00000000E+00
  0.00000000E+00  0.00000000E+00  0.00000000E+00
  0.00000000E+00  0.00000000E+00  0.00000000E+00
  0.00000000E+00  0.00000000E+00  0.00000000E+00
  0.00000000E+00  0.00000000E+00  0.00000000E+00
  0.00000000E+00  0.00000000E+00  0.00000000E+00
  0.00000000E+00  0.00000000E+00  0.00000000E+00
  0.00000000E+00  0.00000000E+00  0.00000000E+00
  0.00000000E+00  0.00000000E+00  0.00000000E+00
  0.00000000E+00  0.00000000E+00  0.00000000E+00
  0.00000000E+00  0.00000000E+00  0.00000000E+00
  0.00000000E+00  0.00000000E+00  0.00000000E+00
  0.00000000E+00  0.00000000E+00  0.00000000E+00
  0.00000000E+00  0.00000000E+00  0.00000000E+00
  0.00000000E+00  0.00000000E+00  0.00000000E+00
  0.00000000E+00  0.00000000E+00  0.00000000E+00
  0.00000000E+00  0.00000000E+00  0.00000000E+00
  0.00000000E+00  0.00000000E+00  0.00000000E+00
  0.00000000E+00  0.00000000E+00  0.00000000E+00
  0.00000000E+00  0.00000000E+00  0.00000000E+00
  0.00000000E+00  0.00000000E+00  0.00000000E+00
  0.00000000E+00  0.00000000E+00  0.00000000E+00
  0.00000000E+00  0.00000000E+00  0.00000000E+00
  0.00000000E+00  0.00000000E+00  0.00000000E+00
  0.00000000E+00  0.00000000E+00  0.00000000E+00
  0.00000000E+00  0.00000000E+00  0.00000000E+00
  0.00000000E+00  0.00000000E+00  0.00000000E+00
  0.00000000E+00  0.00000000E+00  0.00000000E+00
  0.00000000E+00  0.00000000E+00  0.00000000E+00
  0.00000000E+00  0.00000000E+00  0.00000000E+00
  0.00000000E+00  0.00000000E+00  0.00000000E+00
  0.00000000E+00  0.00000000E+00  0.00000000E+00
  0.00000000E+00  0.00000000E+00  0.00000000E+00
  0.00000000E+00  0.00000000E+00  0.00000000E+00
  0.00000000E+00  0.00000000E+00  0.00000000E+00
  0.00000000E+00  0.00000000E+00  0.00000000E+00
  0.00000000E+00  0.00000000E+00  0.00000000E+00
  0.00000000E+00  0.00000000E+00  0.00000000E+00
  0.00000000E+00  0.00000000E+00  0.00000000E+00
  0.00000000E+00  0.00000000E+00  0.00000000E+00
  0.00000000E+00  0.00000000E+00  0.00000000E+00
  0.00000000E+00  0.00000000E+00  0.00000000E+00
  0.00000000E+00  0.00000000E+00  0.00000000E+00
  0.00000000E+00  0.00000000E+00  0.00000000E+00
  0.00000000E+00  0.00000000E+00  0.00000000E+00
  0.00000000E+00  0.00000000E+00  0.00000000E+00
  0.00000000E+00  0.00000000E+00  0.00000000E+00
  0.00000000E+00  0.00000000E+00  0.00000000E+00
  0.00000000E+00  0.00000000E+00  0.00000000E+00
  0.00000000E+00  0.00000000E+00  0.00000000E+00
  0.00000000E+00  0.00000000E+00  0.00000000E+00
  0.00000000E+00  0.00000000E+00  0.00000000E+00
  0.00000000E+00  0.00000000E+00  0.00000000E+00
  0.00000000E+00  0.00000000E+00  0.00000000E+00
  0.00000000E+00  0.00000000E+00  0.00000000E+00
  0.00000000E+00  0.00000000E+00  0.00000000E+00
  0.00000000E+00  0.00000000E+00  0.00000000E+00
  0.00000000E+00  0.00000000E+00  0.00000000E+00
  0.00000000E+00  0.00000000E+00  0.00000000E+00
  0.00000000E+00  0.00000000E+00  0.00000000E+00
  0.00000000E+00  0.00000000E+00  0.00000000E+00
  0.00000000E+00  0.00000000E+00  0.00000000E+00
  0.00000000E+00  0.00000000E+00  0.00000000E+00
  0.00000000E+00  0.00000000E+00  0.00000000E+00
  0.00000000E+00  0.00000000E+00  0.00000000E+00
  0.00000000E+00  0.00000000E+00  0.00000000E+00
  0.00000000E+00  0.00000000E+00  0.00000000E+00
  0.00000000E+00  0.00000000E+00  0.00000000E+00
  0.00000000E+00  0.00000000E+00  0.00000000E+00
  0.00000000E+00  0.00000000E+00  0.00000000E+00
  0.00000000E+00  0.00000000E+00  0.00000000E+00
  0.00000000E+00  0.00000000E+00  0.00000000E+00
  0.00000000E+00  0.00000000E+00  0.00000000E+00
  0.00000000E+00  0.00000000E+00  0.00000000E+00
  0.00000000E+00  0.00000000E+00  0.00000000E+00
  0.00000000E+00  0.00000000E+00  0.00000000E+00
  0.00000000E+00  0.00000000E+00  0.00000000E+00
  0.00000000E+00  0.00000000E+00  0.00000000E+00
  0.00000000E+00  0.00000000E+00  0.00000000E+00
  0.00000000E+00  0.00000000E+00  0.00000000E+00
  0.00000000E+00  0.00000000E+00  0.00000000E+00
  0.00000000E+00  0.00000000E+00  0.00000000E+00
  0.00000000E+00  0.00000000E+00  0.00000000E+00
  0.00000000E+00  0.00000000E+00  0.00000000E+00
  0.00000000E+00  0.00000000E+00  0.00000000E+00
  0.00000000E+00  0.00000000E+00  0.00000000E+00
  0.00000000E+00  0.00000000E+00  0.00000000E+00
  0.00000000E+00  0.00000000E+00  0.00000000E+00
  0.00000000E+00  0.00000000E+00  0.00000000E+00
  0.00000000E+00  0.00000000E+00  0.00000000E+00
  0.00000000E+00  0.00000000E+00  0.00000000E+00
  0.00000000E+00  0.00000000E+00  0.00000000E+00
  0.00000000E+00  0.00000000E+00  0.00000000E+00
  0.00000000E+00  0.00000000E+00  0.00000000E+00
  0.00000000E+00  0.00000000E+00  0.00000000E+00
  0.00000000E+00  0.00000000E+00  0.00000000E+00
  0.00000000E+00  0.00000000E+00  0.00000000E+00
  0.00000000E+00  0.00000000E+00  0.00000000E+00
  0.00000000E+00  0.00000000E+00  0.00000000E+00
  0.00000000E+00  0.00000000E+00  0.00000000E+00
  0.00000000E+00  0.00000000E+00  0.00000000E+00
  0.00000000E+00  0.00000000E+00  0.00000000E+00
  0.00000000E+00  0.00000000E+00  0.00000000E+00
  0.00000000E+00  0.00000000E+00  0.00000000E+00
  0.00000000E+00  0.00000000E+00  0.00000000E+00
  0.00000000E+00  0.00000000E+00  0.00000000E+00
  0.00000000E+00  0.00000000E+00  0.00000000E+00
  0.00000000E+00  0.00000000E+00  0.00000000E+00
  0.00000000E+00  0.00000000E+00  0.00000000E+00
  0.00000000E+00  0.00000000E+00  0.00000000E+00
  0.00000000E+00  0.00000000E+00  0.00000000E+00
  0.00000000E+00  0.00000000E+00  0.00000000E+00
  0.00000000E+00  0.00000000E+00  0.00000000E+00
  0.00000000E+00  0.00000000E+00  0.00000000E+00
  0.00000000E+00  0.00000000E+00  0.00000000E+00
  0.00000000E+00  0.00000000E+00  0.00000000E+00
  0.00000000E+00  0.00000000E+00  0.00000000E+00
  0.00000000E+00  0.00000000E+00  0.00000000E+00
  0.00000000E+00  0.00000000E+00  0.00000000E+00
  0.00000000E+00  0.00000000E+00  0.00000000E+00
  0.00000000E+00  0.00000000E+00  0.00000000E+00
  0.00000000E+00  0.00000000E+00  0.00000000E+00
  0.00000000E+00  0.00000000E+00  0.00000000E+00
  0.00000000E+00  0.00000000E+00  0.00000000E+00
  0.00000000E+00  0.00000000E+00  0.00000000E+00
  0.00000000E+00  0.00000000E+00  0.00000000E+00
  0.00000000E+00  0.00000000E+00  0.00000000E+00
  0.00000000E+00  0.00000000E+00  0.00000000E+00
  0.00000000E+00  0.00000000E+00  0.00000000E+00
  0.00000000E+00  0.00000000E+00  0.00000000E+00
  0.00000000E+00  0.00000000E+00  0.00000000E+00
  0.00000000E+00  0.00000000E+00  0.00000000E+00
  0.00000000E+00  0.00000000E+00  0.00000000E+00
  0.00000000E+00  0.00000000E+00  0.00000000E+00
  0.00000000E+00  0.00000000E+00  0.00000000E+00
  0.00000000E+00  0.00000000E+00  0.00000000E+00
  0.00000000E+00  0.00000000E+00  0.00000000E+00
  0.00000000E+00  0.00000000E+00  0.00000000E+00
  0.00000000E+00  0.00000000E+00  0.00000000E+00
  0.00000000E+00  0.00000000E+00  0.00000000E+00
  0.00000000E+00  0.00000000E+00  0.00000000E+00
  0.00000000E+00  0.00000000E+00  0.00000000E+00
  0.00000000E+00  0.00000000E+00  0.00000000E+00
  0.00000000E+00  0.00000000E+00  0.00000000E+00
  0.00000000E+00  0.00000000E+00  0.00000000E+00
  0.00000000E+00  0.00000000E+00  0.00000000E+00
  0.00000000E+00  0.00000000E+00  0.00000000E+00
  0.00000000E+00  0.00000000E+00  0.00000000E+00
  0.00000000E+00  0.00000000E+00  0.00000000E+00
  0.00000000E+00  0.00000000E+00  0.00000000E+00
  0.00000000E+00  0.00000000E+00  0.00000000E+00
  0.00000000E+00  0.00000000E+00  0.00000000E+00
  0.00000000E+00  0.00000000E+00  0.00000000E+00
  0.00000000E+00  0.00000000E+00  0.00000000E+00
  0.00000000E+00  0.00000000E+00  0.00000000E+00
  0.00000000E+00  0.00000000E+00  0.00000000E+00