Amorphous Sb                            
   1.00000000000000     
    20.2278869700586910    0.0000000000000000    0.0000000000000000
     0.0000000000000000   20.2278869700586910    0.0000000000000000
     0.0000000000000000    0.0000000000000000   20.2278869700586910
   Ge   Sn   Se
   100    50   150
Direct
  0.5116073828642431  0.6872553743113133  0.7843314928256546
  0.2096522614092360  0.4349046122758812  0.8066449453458814
  0.3584571644172758  0.3185004301188468  0.6075921766533763
  0.8332537108216431  0.0307802701646695  0.6467100306757977
  0.8958751777705465  0.6146661738339898  0.6495354264315056
  0.2139118953594517  0.6876781054557365  0.9655419216817310
  0.1041243276085967  0.1570547590071946  0.3612969525711774
  0.3478661097441647  0.6475652390134770  0.7762236109354830
  0.3526699381124463  0.8742661947892870  0.2203033812220257
  0.3597438097413214  0.0359744762555225  0.4207770600883411
  0.9984096338710103  0.0385340509511907  0.4513661441840869
  0.6342131153390135  0.3517228564063252  0.8446558056106662
  0.6002082712872910  0.4586090971864384  0.6208036862015723
  0.2761695780056714  0.0124613851159613  0.8522309357706694
  0.6669944803662742  0.9486143258341477  0.4157036224064525
  0.0258103014866980  0.7957886601629828  0.1084068079779961
  0.0407456861609108  0.7549219226580920  0.3260460308754493
  0.8099193380689269  0.3974709882627341  0.3557688488044889
  0.1395984173009553  0.4750035827816265  0.9274865594383592
  0.0308068199537868  0.9229674001242176  0.5051098560738589
  0.1644094994873289  0.8315128239532590  0.1922477186796056
  0.4392357795255919  0.7314833842850333  0.9591989415086128
  0.0107153601259925  0.1827734694413856  0.9410867440149189
  0.0381837216142051  0.0774202272055528  0.1227962076338252
  0.5363873538850650  0.3216594734411284  0.1917850255616294
  0.3866088742104827  0.1415558793956900  0.5907235039445445
  0.3982351223946077  0.7582914755358642  0.5394614704586262
  0.7775229044743333  0.9179221279336484  0.0460799724030981
  0.7542033886765438  0.5749856029659118  0.6023221174910287
  0.9402330003863043  0.7810759603313719  0.5731427488656839
  0.0749202269161058  0.3470500235696436  0.7601697498589397
  0.0312851845439418  0.0921675436714236  0.2510949221146366
  0.9052813337327990  0.4960335800655791  0.4833079610141428
  0.3309066867079375  0.4292771616387296  0.2763688060912443
  0.0288449992573681  0.5246383002656078  0.5816892144815210
  0.7311443471674806  0.6978413739187320  0.1745662615903054
  0.4588400956703347  0.4803578391890018  0.9230852236479725
  0.2707269165195856  0.0448991214570795  0.2414747369882067
  0.2509051714892004  0.3617947230961541  0.1356231700801069
  0.7711969605949712  0.4060360347610856  0.7928477966127184
  0.8598132677012398  0.8120963287816090  0.3893042059235506
  0.9091348740515008  0.1871192809359046  0.5649277204733250
  0.5682567113503573  0.8421970595654290  0.5432923038677511
  0.3723863969973071  0.9900158626170811  0.1010492358154114
  0.3639062366534708  0.6429511274569479  0.2189317162981764
  0.4045566628937619  0.4427715939510432  0.4920491204387198
  0.8936665877267090  0.7733279589938974  0.1752987519801748
  0.0219678454895603  0.3460937558727976  0.3925523044359882
  0.0201921821615266  0.7777563774247218  0.8396856101304613
  0.5192739219553748  0.0698840670364571  0.3137145780986732
  0.2698589412064554  0.4271988629555477  0.9525478768039375
  0.0487417586626580  0.2802422715883553  0.1334585598869970
  0.6239413711395922  0.7461321704836201  0.8139944612284231
  0.5820442008509815  0.2980103801584252  0.7394476214030936
  0.0521558892033452  0.5789969156060257  0.3414031595836573
  0.0396221591574675  0.9177357325679258  0.2112898406558367
  0.1912341182215003  0.5738434353760670  0.4569842917771296
  0.9436926606005872  0.3294943066310803  0.5857467476219956
  0.1088777414606042  0.0580449571519912  0.8186005851154138
  0.4996256980540744  0.4575927433378693  0.3202104506844587
  0.6982333203051321  0.1017241289852408  0.0992524742976316
  0.5371100231399232  0.6812645229973217  0.2251172836638109
  0.9259976484929643  0.6517931637182948  0.3022206150812082
  0.8690044655335493  0.0156984727801307  0.8283577747263711
  0.5853055805953411  0.8477809779158860  0.0383774734082501
  0.0729814014443775  0.3412553701082483  0.9235959001333011
  0.8300908540604475  0.8603606340732272  0.5221485119640273
  0.7770825319734053  0.7468428162958693  0.6800186676903498
  0.8199463449147282  0.2272494162804491  0.1506020231877732
  0.8334886292618375  0.3268599763476324  0.0214068919867750
  0.9403481394835191  0.4007675716982133  0.7367148469498744
  0.3984674012777331  0.1600408730362105  0.1804299199196681
  0.3602430243380290  0.5413551316073892  0.4211706654720914
  0.4888785984874622  0.8344251287023545  0.3830492631114342
  0.3439516222887652  0.4379307510799477  0.6602746350103799
  0.7111578356991871  0.9808715098800903  0.1370309978557209
  0.2407022469882300  0.2379394434888530  0.1753713900791015
  0.8706567811558145  0.0664934877707876  0.0136796085820875
  0.2702911689098574  0.8117383628295505  0.9092148908031787
  0.3670221644732377  0.2556334398412859  0.0337354028125788
  0.6638914275394090  0.9885329949844456  0.8835083385802899
  0.9856312596548085  0.6194040104106130  0.8378050399243365
  0.7990795063252711  0.4868938935733380  0.0657571358292330
  0.7837655273047006  0.5205208314646799  0.3357852624517471
  0.3586846381169647  0.1414473134126000  0.7155787823471724
  0.6054772110395429  0.1428636786510757  0.0252446232282980
  0.5345529260420441  0.6529779338758238  0.6015323297256598
  0.7541922339665034  0.3703317716808704  0.5262536628864413
  0.6319555927736502  0.5596022372945864  0.2022449012776530
  0.5849982410344295  0.2017781688581870  0.3521287108358193
  0.6239269924087353  0.1069939951317366  0.9032572586445490
  0.0881748929295726  0.1225616750092924  0.5865417897256688
  0.3102578262954623  0.5814193984276325  0.5974125402034777
  0.7654297800948344  0.0444658833932338  0.4664466398005261
  0.6756301771348755  0.9133570926223958  0.6055097212061261
  0.6713039430204787  0.7115357546973614  0.5190976149977455
  0.4531718075067684  0.0075731421977379  0.9231589574112182
  0.1587613333293691  0.4733001992388662  0.6474125386193957
  0.1353108424658992  0.7868933747666763  0.4672758172909373
  0.2177054380440800  0.1209994097035670  0.8170848729992161
  0.1100860061068420  0.4241563974149639  0.2553844753359077
  0.5566452800035394  0.3055495255877760  0.9449704180007654
  0.2244958358814884  0.5143128503124120  0.0710260161719044
  0.8722560491552437  0.0288477962941873  0.1729783936687111
  0.4071832817559556  0.8591145194227953  0.7648850920839435
  0.7173119473298628  0.6784831332671488  0.9544247762743503
  0.0200511110041961  0.4700330577990302  0.0232758878620454
  0.0396045076998776  0.6712245508509672  0.0501991587432219
  0.6636001683984661  0.1469089105704085  0.7229120015748437
  0.7240121788704634  0.9055924008433405  0.7830219063363181
  0.1229758031486276  0.8889305737317111  0.6597872294144381
  0.1404638473147361  0.9597760198722359  0.0081720047189031
  0.1361369744813918  0.9570928332733267  0.3761914407515423
  0.7629671277109346  0.1229506353256440  0.2970089783385068
  0.7462996120113347  0.8134364344012118  0.3098812734302911
  0.7331757573146148  0.6319841086430804  0.4038031845938544
  0.4281257307294982  0.2676400282986565  0.3100979568117580
  0.6783848646537022  0.5967945646195811  0.7319384798426999
  0.3079592308323491  0.2365572947003525  0.4459646781599701
  0.0840209458488900  0.9255901872250440  0.8021330116315758
  0.9128928986099043  0.4482331305356602  0.1964154206054858
  0.8408433484722952  0.2343598440066225  0.3833931840513211
  0.8162196538497714  0.6282126263619405  0.8042685057710555
  0.9155801392809481  0.9163005249769713  0.9865535836867456
  0.2187336090430474  0.4034398485713536  0.4196557358881148
  0.2357485275066497  0.6941102832013166  0.6621210620267576
  0.4022599417854423  0.9598170587139609  0.5355886121525549
  0.5515159241312103  0.8641879977495938  0.7908245933541511
  0.1987624156846818  0.1390609599576337  0.9801213407739207
  0.2951516075333239  0.8190088292380081  0.0625945598839482
  0.5540175822425421  0.5980588541110174  0.4131774792368422
  0.8964588904476138  0.7528794336307409  0.8975834587511246
  0.4718036911221650  0.1888281658584344  0.9351087530464605
  0.4456256034591838  0.4950237142486631  0.1037322265095070
  0.0523498563151034  0.6998099712972595  0.6083953551132618
  0.1967026109887642  0.6340492752202735  0.2338473516838856
  0.2722062223512716  0.2698609084842465  0.8130931971394687
  0.5749675747037505  0.0883164578215499  0.4970420355986914
  0.3409803899425029  0.7188815504000172  0.3506947766524383
  0.2753086537037485  0.8627635476261077  0.6928259635263071
  0.7003489061086690  0.3856473349024491  0.2200952842304258
  0.6178230701947719  0.4593912140357053  0.0207269582455643
  0.2132460312283314  0.0365380869466887  0.6073476580303493
  0.9131261287457310  0.2228239419346437  0.7704166673008490
  0.5896782256681012  0.2423374002614121  0.5805254266467459
  0.0798402133846223  0.2365433166620035  0.5111642400360286
  0.1455767334185769  0.6187329501993559  0.8028588395073120
  0.5326551216024996  0.8777386381341874  0.2113460818649964
  0.4653712534764896  0.4718185065688484  0.7639499170960701
  0.9210391968243908  0.4543226662957519  0.9116222443697894
  0.8827912683544729  0.1109174198615590  0.8951502093380863
  0.8643336148847505  0.9712372226037270  0.4795571440595706
  0.0832465021205145  0.7303468930679962  0.2067887992940703
  0.9251667237550634  0.4541831844287715  0.6160023013644803
  0.3303838044039967  0.6933422279992036  0.0164398110947500
  0.1257193175818176  0.0045333351684095  0.2458072247947188
  0.5789328215164481  0.4520701811235268  0.1564920374421600
  0.7148134265983888  0.0354670352239938  0.5845900352299193
  0.6230637058224689  0.2592708508262775  0.0446609220557735
  0.1215828935120364  0.0798702920864866  0.4687806548657782
  0.9334197955438891  0.8194963951816268  0.2871929056178511
  0.7708976101829305  0.0336102436272252  0.7602956488005488
  0.7899234477428529  0.6955361421020059  0.5632313833754446
  0.2762320795094843  0.7881773253708289  0.5744951244401139
  0.8549530932001969  0.6567169936001007  0.1964296933000523
  0.4897413623265653  0.1146202485278769  0.0430547261641505
  0.2951020701512422  0.1634648961786759  0.0910691352589798
  0.3703935863987198  0.8254560249874648  0.4352130974388975
  0.9574962537945196  0.0040967898884756  0.7458031271009101
  0.7040247084660211  0.1886609775471152  0.1943583187102425
  0.7278994469621201  0.0140678205472862  0.9842438487317782
  0.5325266455507104  0.1930466183299846  0.7021685641195945
  0.1550423384214970  0.0704787897981552  0.0917946067361036
  0.8692559012967980  0.4906196865416220  0.7922676374832502
  0.2201388504215601  0.3608336319535167  0.2866085105080070
  0.3245488928783549  0.3976613905087389  0.8436814056794707
  0.2795244797103822  0.7685922139996290  0.1918026002148620
  0.2734675997353345  0.9755484124591917  0.3550161310698120
  0.3444367086755571  0.5118941284603677  0.0024967782453571
  0.3986708592715157  0.0373563769968136  0.2193567614634585
  0.4319648501438470  0.2449522535763378  0.5403553885256749
  0.4104195864135005  0.3315367161261262  0.1904464254114950
  0.9554755019925283  0.9914302821902228  0.2722867389286745
  0.4235039577143606  0.8705428601743660  0.1132541166474106
  0.0892251413619343  0.4677778200508785  0.3896217867422034
  0.0516153236802524  0.5110808674317650  0.8370529094278056
  0.5693515192717353  0.4574454943431552  0.8477414741944769
  0.3268364120361470  0.9800098446358944  0.6474113059890806
  0.5297668598107012  0.1766002941117628  0.2400853245989457
  0.9065025623133410  0.5297858266892798  0.3350415957728953
  0.6141140174315857  0.5144952134354372  0.3205277693627046
  0.3445444272154022  0.1979877513004778  0.9183851621957491
  0.1525668094547525  0.9037923849938029  0.5212942566120620
  0.9979202353949478  0.2088228928385855  0.4075129483842964
  0.5563042022102307  0.9272040236009533  0.9115373407604040
  0.6087744493460029  0.9558884435728378  0.7170864868406314
  0.7044811892278003  0.4651602228014867  0.6955079618076870
  0.1543112624921950  0.8249195846844618  0.3456594511188715
  0.8993565401423009  0.3597623244123397  0.4325204229189608
  0.5353789910974288  0.7485542690670389  0.4613020927143061
  0.8385639061079155  0.3302374307676229  0.7156659065002670
  0.3073102436083477  0.6346790103572961  0.4803649929392113
  0.6765000745534248  0.1981249534074060  0.8482050925503494
  0.2971051663816369  0.1015772934906982  0.5106785726927788
  0.7758103391664443  0.8193835298290684  0.1793559494440761
  0.7543626709432651  0.5142629894655690  0.2150089973171760
  0.1455628429319100  0.6575593366491542  0.3781367365254131
  0.0391805198313018  0.8751349795962086  0.9167580763430930
  0.7968727160983339  0.4245377349640195  0.9501084855294647
  0.9750646902806628  0.0743915574462977  0.5701309895704323
  0.2653968955180551  0.9457583896635655  0.1548745391914549
  0.5431064794155053  0.5864179105015678  0.7164253603903321
  0.9897116478320532  0.8909723186536469  0.6189758573631520
  0.1162262296172735  0.2601919978973835  0.8402224727903659
  0.5121006870536604  0.3776149802424139  0.6748183954944330
  0.2543824892907885  0.2859355130794101  0.5575394539656805
  0.2733900070913977  0.0182089786809157  0.9723437182266187
  0.7896007813533573  0.1604287257115386  0.0437568420915340
  0.8870668243649568  0.6191028554097859  0.9209693319124508
  0.8874962637787187  0.1517195699559744  0.2246142205176502
  0.5169811517327831  0.4685580306560814  0.4456015299104752
  0.5506596654071265  0.3430929869686617  0.3146444707050028
  0.6320882256993073  0.5860050425381416  0.5499641214525864
  0.6848356919715284  0.6961147384196505  0.2952928590601562
  0.4493477582186006  0.7649760590934745  0.2767276436613134
  0.1205705930149789  0.7632491495329979  0.7046694147548136
  0.7752583891079416  0.7557727398866622  0.8459382982410982
  0.5946870798178975  0.7699575105274101  0.1560848423402230
  0.9042955979171658  0.7357902024788698  0.6942658954715353
  0.0933212081374559  0.2525454050340291  0.0105366764063274
  0.8505448324415086  0.9050692841598468  0.8637726754202247
  0.7036534948269650  0.8306678020033228  0.0106792396481996
  0.7627575401773821  0.9950151363523908  0.2509430700409241
  0.2323097590675692  0.5321502562217715  0.7329842259047723
  0.7791441707346647  0.4994185046977078  0.4959176245364393
  0.3750491943721080  0.2656920121959605  0.7200598603248900
  0.0125114861687831  0.9602112149766376  0.0949154936990081
  0.4298514685906122  0.6064193038416432  0.3452102746665239
  0.1275197199006905  0.2078600082496133  0.2028793854786116
  0.0084222627828613  0.8142802222793514  0.4533511612203671
  0.7296914905251420  0.3228648713065975  0.4049383069732200
  0.4225624553056465  0.7267692495646622  0.7096033368628518
  0.6352427050744166  0.8790146301654156  0.3170528517957806
  0.3929185408680858  0.8355934805105832  0.8999273554950209
  0.1467373546002621  0.8229060033407168  0.0657411632259157
  0.8069039598772914  0.1697239864098708  0.4961019611260565
  0.7130242772726016  0.8440623891794676  0.4804961700493443
  0.0112319981820449  0.2686169839379442  0.6817947441919255
  0.7056788830249522  0.5730740213793443  0.8613543230577779
  0.2611736552698273  0.3198563356193669  0.0160013235766553
  0.4361873525749053  0.6396500503277298  0.8696201313290463
  0.0645049442158112  0.6855216487897861  0.9156555691376560
  0.5934934585331375  0.9552860111294876  0.1134325885393620
  0.4600783691800865  0.3769129145997874  0.9947920742588080
  0.8959757661469496  0.7865636376922763  0.0216533518222045
  0.6396814337573834  0.0858150252358062  0.3560993037246960
  0.2222643873067430  0.5741630219903249  0.9035619175379768
  0.2591113074296069  0.4678646337812010  0.5686198894264742
  0.5118831629880426  0.0966484319770034  0.8516802203152071
  0.4204404006859664  0.5222177485375267  0.6025072511881785
  0.2207144036738448  0.9043533742195043  0.8291766480567843
  0.0737746705693259  0.0717381133301790  0.9328979534526947
  0.2649452502922964  0.5191479160423358  0.3505816397055923
  0.9633443306151590  0.1484061540186219  0.0555382934812336
  0.1945213587035867  0.3600401624073142  0.7050946159200484
  0.3060458057713246  0.1904674009795953  0.2680110117036369
  0.2598916057520750  0.7282846323613507  0.8145578153907088
  0.8580387846679225  0.6871912683774547  0.4007577155463422
  0.0880590103935939  0.5474334186999174  0.2207284598899455
  0.9604419070240975  0.5731914296304459  0.0764816559640128
  0.1672394570812724  0.2554859928967764  0.4131365719913346
  0.2328929627750188  0.1432169094727457  0.6954975525049966
  0.9529490132698504  0.3281423174145592  0.8818742921764123
  0.8346280697239167  0.3446715796063859  0.2493741505545393
  0.5486237370466673  0.9606375326969125  0.4565707408252448
  0.6987912093393387  0.5602284576121217  0.0536377165238680
  0.3896082451056467  0.9957461342776369  0.8122873905613951
  0.5201411458632644  0.5529135284743324  0.0044679467090744
  0.6300546327404734  0.3754556569119973  0.5322252220864990
  0.6117064742360014  0.7494407597349003  0.6305160157949873
  0.2949454410985335  0.5404504604408675  0.1825181016754702
  0.0527658965752828  0.3611510785590503  0.5311252458907809
  0.7903137353929792  0.8730792331822781  0.6513473979953359
  0.4537786528190575  0.6363318385709836  0.1392569762590489
  0.1688211861210627  0.6389235509378112  0.0783806690003191
  0.5924223832928865  0.7284353053421411  0.9297176577753177
  0.6844852441020143  0.2745521095042567  0.6745334364196927
  0.4533301105137683  0.8582339013481701  0.6022136841455584
  0.3563881718739785  0.3665252372191136  0.3894076225037119
  0.1544235033712072  0.6198146350752334  0.5768812457988982
  0.8415169669929915  0.1580817688115832  0.6656435551729388
  0.0003964551338680  0.3569269654687752  0.2590376066334548
  0.9391247491352496  0.3756904163466341  0.0777543179775314
  0.1253412518494067  0.3839819682546838  0.1246146436172091
  0.4827686050096235  0.1451238329587494  0.4109081764586229
  0.9457223027742049  0.6118492025568327  0.5304036335137161
  0.0203598147794704  0.1035073660482803  0.7471955067141874
  0.0175506464669193  0.5954513007410853  0.6870775764877382
  0.7378047466176879  0.3777941049617611  0.0903691000476402
  0.4759782952150514  0.0591184504399350  0.5906986266955858
 
  0.00000000E+00  0.00000000E+00  0.00000000E+00
  0.00000000E+00  0.00000000E+00  0.00000000E+00
  0.00000000E+00  0.00000000E+00  0.00000000E+00
  0.00000000E+00  0.00000000E+00  0.00000000E+00
  0.00000000E+00  0.00000000E+00  0.00000000E+00
  0.00000000E+00  0.00000000E+00  0.00000000E+00
  0.00000000E+00  0.00000000E+00  0.00000000E+00
  0.00000000E+00  0.00000000E+00  0.00000000E+00
  0.00000000E+00  0.00000000E+00  0.00000000E+00
  0.00000000E+00  0.00000000E+00  0.00000000E+00
  0.00000000E+00  0.00000000E+00  0.00000000E+00
  0.00000000E+00  0.00000000E+00  0.00000000E+00
  0.00000000E+00  0.00000000E+00  0.00000000E+00
  0.00000000E+00  0.00000000E+00  0.00000000E+00
  0.00000000E+00  0.00000000E+00  0.00000000E+00
  0.00000000E+00  0.00000000E+00  0.00000000E+00
  0.00000000E+00  0.00000000E+00  0.00000000E+00
  0.00000000E+00  0.00000000E+00  0.00000000E+00
  0.00000000E+00  0.00000000E+00  0.00000000E+00
  0.00000000E+00  0.00000000E+00  0.00000000E+00
  0.00000000E+00  0.00000000E+00  0.00000000E+00
  0.00000000E+00  0.00000000E+00  0.00000000E+00
  0.00000000E+00  0.00000000E+00  0.00000000E+00
  0.00000000E+00  0.00000000E+00  0.00000000E+00
  0.00000000E+00  0.00000000E+00  0.00000000E+00
  0.00000000E+00  0.00000000E+00  0.00000000E+00
  0.00000000E+00  0.00000000E+00  0.00000000E+00
  0.00000000E+00  0.00000000E+00  0.00000000E+00
  0.00000000E+00  0.00000000E+00  0.00000000E+00
  0.00000000E+00  0.00000000E+00  0.00000000E+00
  0.00000000E+00  0.00000000E+00  0.00000000E+00
  0.00000000E+00  0.00000000E+00  0.00000000E+00
  0.00000000E+00  0.00000000E+00  0.00000000E+00
  0.00000000E+00  0.00000000E+00  0.00000000E+00
  0.00000000E+00  0.00000000E+00  0.00000000E+00
  0.00000000E+00  0.00000000E+00  0.00000000E+00
  0.00000000E+00  0.00000000E+00  0.00000000E+00
  0.00000000E+00  0.00000000E+00  0.00000000E+00
  0.00000000E+00  0.00000000E+00  0.00000000E+00
  0.00000000E+00  0.00000000E+00  0.00000000E+00
  0.00000000E+00  0.00000000E+00  0.00000000E+00
  0.00000000E+00  0.00000000E+00  0.00000000E+00
  0.00000000E+00  0.00000000E+00  0.00000000E+00
  0.00000000E+00  0.00000000E+00  0.00000000E+00
  0.00000000E+00  0.00000000E+00  0.00000000E+00
  0.00000000E+00  0.00000000E+00  0.00000000E+00
  0.00000000E+00  0.00000000E+00  0.00000000E+00
  0.00000000E+00  0.00000000E+00  0.00000000E+00
  0.00000000E+00  0.00000000E+00  0.00000000E+00
  0.00000000E+00  0.00000000E+00  0.00000000E+00
  0.00000000E+00  0.00000000E+00  0.00000000E+00
  0.00000000E+00  0.00000000E+00  0.00000000E+00
  0.00000000E+00  0.00000000E+00  0.00000000E+00
  0.00000000E+00  0.00000000E+00  0.00000000E+00
  0.00000000E+00  0.00000000E+00  0.00000000E+00
  0.00000000E+00  0.00000000E+00  0.00000000E+00
  0.00000000E+00  0.00000000E+00  0.00000000E+00
  0.00000000E+00  0.00000000E+00  0.00000000E+00
  0.00000000E+00  0.00000000E+00  0.00000000E+00
  0.00000000E+00  0.00000000E+00  0.00000000E+00
  0.00000000E+00  0.00000000E+00  0.00000000E+00
  0.00000000E+00  0.00000000E+00  0.00000000E+00
  0.00000000E+00  0.00000000E+00  0.00000000E+00
  0.00000000E+00  0.00000000E+00  0.00000000E+00
  0.00000000E+00  0.00000000E+00  0.00000000E+00
  0.00000000E+00  0.00000000E+00  0.00000000E+00
  0.00000000E+00  0.00000000E+00  0.00000000E+00
  0.00000000E+00  0.00000000E+00  0.00000000E+00
  0.00000000E+00  0.00000000E+00  0.00000000E+00
  0.00000000E+00  0.00000000E+00  0.00000000E+00
  0.00000000E+00  0.00000000E+00  0.00000000E+00
  0.00000000E+00  0.00000000E+00  0.00000000E+00
  0.00000000E+00  0.00000000E+00  0.00000000E+00
  0.00000000E+00  0.00000000E+00  0.00000000E+00
  0.00000000E+00  0.00000000E+00  0.00000000E+00
  0.00000000E+00  0.00000000E+00  0.00000000E+00
  0.00000000E+00  0.00000000E+00  0.00000000E+00
  0.00000000E+00  0.00000000E+00  0.00000000E+00
  0.00000000E+00  0.00000000E+00  0.00000000E+00
  0.00000000E+00  0.00000000E+00  0.00000000E+00
  0.00000000E+00  0.00000000E+00  0.00000000E+00
  0.00000000E+00  0.00000000E+00  0.00000000E+00
  0.00000000E+00  0.00000000E+00  0.00000000E+00
  0.00000000E+00  0.00000000E+00  0.00000000E+00
  0.00000000E+00  0.00000000E+00  0.00000000E+00
  0.00000000E+00  0.00000000E+00  0.00000000E+00
  0.00000000E+00  0.00000000E+00  0.00000000E+00
  0.00000000E+00  0.00000000E+00  0.00000000E+00
  0.00000000E+00  0.00000000E+00  0.00000000E+00
  0.00000000E+00  0.00000000E+00  0.00000000E+00
  0.00000000E+00  0.00000000E+00  0.00000000E+00
  0.00000000E+00  0.00000000E+00  0.00000000E+00
  0.00000000E+00  0.00000000E+00  0.00000000E+00
  0.00000000E+00  0.00000000E+00  0.00000000E+00
  0.00000000E+00  0.00000000E+00  0.00000000E+00
  0.00000000E+00  0.00000000E+00  0.00000000E+00
  0.00000000E+00  0.00000000E+00  0.00000000E+00
  0.00000000E+00  0.00000000E+00  0.00000000E+00
  0.00000000E+00  0.00000000E+00  0.00000000E+00
  0.00000000E+00  0.00000000E+00  0.00000000E+00
  0.00000000E+00  0.00000000E+00  0.00000000E+00
  0.00000000E+00  0.00000000E+00  0.00000000E+00
  0.00000000E+00  0.00000000E+00  0.00000000E+00
  0.00000000E+00  0.00000000E+00  0.00000000E+00
  0.00000000E+00  0.00000000E+00  0.00000000E+00
  0.00000000E+00  0.00000000E+00  0.00000000E+00
  0.00000000E+00  0.00000000E+00  0.00000000E+00
  0.00000000E+00  0.00000000E+00  0.00000000E+00
  0.00000000E+00  0.00000000E+00  0.00000000E+00
  0.00000000E+00  0.00000000E+00  0.00000000E+00
  0.00000000E+00  0.00000000E+00  0.00000000E+00
  0.00000000E+00  0.00000000E+00  0.00000000E+00
  0.00000000E+00  0.00000000E+00  0.00000000E+00
  0.00000000E+00  0.00000000E+00  0.00000000E+00
  0.00000000E+00  0.00000000E+00  0.00000000E+00
  0.00000000E+00  0.00000000E+00  0.00000000E+00
  0.00000000E+00  0.00000000E+00  0.00000000E+00
  0.00000000E+00  0.00000000E+00  0.00000000E+00
  0.00000000E+00  0.00000000E+00  0.00000000E+00
  0.00000000E+00  0.00000000E+00  0.00000000E+00
  0.00000000E+00  0.00000000E+00  0.00000000E+00
  0.00000000E+00  0.00000000E+00  0.00000000E+00
  0.00000000E+00  0.00000000E+00  0.00000000E+00
  0.00000000E+00  0.00000000E+00  0.00000000E+00
  0.00000000E+00  0.00000000E+00  0.00000000E+00
  0.00000000E+00  0.00000000E+00  0.00000000E+00
  0.00000000E+00  0.00000000E+00  0.00000000E+00
  0.00000000E+00  0.00000000E+00  0.00000000E+00
  0.00000000E+00  0.00000000E+00  0.00000000E+00
  0.00000000E+00  0.00000000E+00  0.00000000E+00
  0.00000000E+00  0.00000000E+00  0.00000000E+00
  0.00000000E+00  0.00000000E+00  0.00000000E+00
  0.00000000E+00  0.00000000E+00  0.00000000E+00
  0.00000000E+00  0.00000000E+00  0.00000000E+00
  0.00000000E+00  0.00000000E+00  0.00000000E+00
  0.00000000E+00  0.00000000E+00  0.00000000E+00
  0.00000000E+00  0.00000000E+00  0.00000000E+00
  0.00000000E+00  0.00000000E+00  0.00000000E+00
  0.00000000E+00  0.00000000E+00  0.00000000E+00
  0.00000000E+00  0.00000000E+00  0.00000000E+00
  0.00000000E+00  0.00000000E+00  0.00000000E+00
  0.00000000E+00  0.00000000E+00  0.00000000E+00
  0.00000000E+00  0.00000000E+00  0.00000000E+00
  0.00000000E+00  0.00000000E+00  0.00000000E+00
  0.00000000E+00  0.00000000E+00  0.00000000E+00
  0.00000000E+00  0.00000000E+00  0.00000000E+00
  0.00000000E+00  0.00000000E+00  0.00000000E+00
  0.00000000E+00  0.00000000E+00  0.00000000E+00
  0.00000000E+00  0.00000000E+00  0.00000000E+00
  0.00000000E+00  0.00000000E+00  0.00000000E+00
  0.00000000E+00  0.00000000E+00  0.00000000E+00
  0.00000000E+00  0.00000000E+00  0.00000000E+00
  0.00000000E+00  0.00000000E+00  0.00000000E+00
  0.00000000E+00  0.00000000E+00  0.00000000E+00
  0.00000000E+00  0.00000000E+00  0.00000000E+00
  0.00000000E+00  0.00000000E+00  0.00000000E+00
  0.00000000E+00  0.00000000E+00  0.00000000E+00
  0.00000000E+00  0.00000000E+00  0.00000000E+00
  0.00000000E+00  0.00000000E+00  0.00000000E+00
  0.00000000E+00  0.00000000E+00  0.00000000E+00
  0.00000000E+00  0.00000000E+00  0.00000000E+00
  0.00000000E+00  0.00000000E+00  0.00000000E+00
  0.00000000E+00  0.00000000E+00  0.00000000E+00
  0.00000000E+00  0.00000000E+00  0.00000000E+00
  0.00000000E+00  0.00000000E+00  0.00000000E+00
  0.00000000E+00  0.00000000E+00  0.00000000E+00
  0.00000000E+00  0.00000000E+00  0.00000000E+00
  0.00000000E+00  0.00000000E+00  0.00000000E+00
  0.00000000E+00  0.00000000E+00  0.00000000E+00
  0.00000000E+00  0.00000000E+00  0.00000000E+00
  0.00000000E+00  0.00000000E+00  0.00000000E+00
  0.00000000E+00  0.00000000E+00  0.00000000E+00
  0.00000000E+00  0.00000000E+00  0.00000000E+00
  0.00000000E+00  0.00000000E+00  0.00000000E+00
  0.00000000E+00  0.00000000E+00  0.00000000E+00
  0.00000000E+00  0.00000000E+00  0.00000000E+00
  0.00000000E+00  0.00000000E+00  0.00000000E+00
  0.00000000E+00  0.00000000E+00  0.00000000E+00
  0.00000000E+00  0.00000000E+00  0.00000000E+00
  0.00000000E+00  0.00000000E+00  0.00000000E+00
  0.00000000E+00  0.00000000E+00  0.00000000E+00
  0.00000000E+00  0.00000000E+00  0.00000000E+00
  0.00000000E+00  0.00000000E+00  0.00000000E+00
  0.00000000E+00  0.00000000E+00  0.00000000E+00
  0.00000000E+00  0.00000000E+00  0.00000000E+00
  0.00000000E+00  0.00000000E+00  0.00000000E+00
  0.00000000E+00  0.00000000E+00  0.00000000E+00
  0.00000000E+00  0.00000000E+00  0.00000000E+00
  0.00000000E+00  0.00000000E+00  0.00000000E+00
  0.00000000E+00  0.00000000E+00  0.00000000E+00
  0.00000000E+00  0.00000000E+00  0.00000000E+00
  0.00000000E+00  0.00000000E+00  0.00000000E+00
  0.00000000E+00  0.00000000E+00  0.00000000E+00
  0.00000000E+00  0.00000000E+00  0.00000000E+00
  0.00000000E+00  0.00000000E+00  0.00000000E+00
  0.00000000E+00  0.00000000E+00  0.00000000E+00
  0.00000000E+00  0.00000000E+00  0.00000000E+00
  0.00000000E+00  0.00000000E+00  0.00000000E+00
  0.00000000E+00  0.00000000E+00  0.00000000E+00
  0.00000000E+00  0.00000000E+00  0.00000000E+00
  0.00000000E+00  0.00000000E+00  0.00000000E+00
  0.00000000E+00  0.00000000E+00  0.00000000E+00
  0.00000000E+00  0.00000000E+00  0.00000000E+00
  0.00000000E+00  0.00000000E+00  0.00000000E+00
  0.00000000E+00  0.00000000E+00  0.00000000E+00
  0.00000000E+00  0.00000000E+00  0.00000000E+00
  0.00000000E+00  0.00000000E+00  0.00000000E+00
  0.00000000E+00  0.00000000E+00  0.00000000E+00
  0.00000000E+00  0.00000000E+00  0.00000000E+00
  0.00000000E+00  0.00000000E+00  0.00000000E+00
  0.00000000E+00  0.00000000E+00  0.00000000E+00
  0.00000000E+00  0.00000000E+00  0.00000000E+00
  0.00000000E+00  0.00000000E+00  0.00000000E+00
  0.00000000E+00  0.00000000E+00  0.00000000E+00
  0.00000000E+00  0.00000000E+00  0.00000000E+00
  0.00000000E+00  0.00000000E+00  0.00000000E+00
  0.00000000E+00  0.00000000E+00  0.00000000E+00
  0.00000000E+00  0.00000000E+00  0.00000000E+00
  0.00000000E+00  0.00000000E+00  0.00000000E+00
  0.00000000E+00  0.00000000E+00  0.00000000E+00
  0.00000000E+00  0.00000000E+00  0.00000000E+00
  0.00000000E+00  0.00000000E+00  0.00000000E+00
  0.00000000E+00  0.00000000E+00  0.00000000E+00
  0.00000000E+00  0.00000000E+00  0.00000000E+00
  0.00000000E+00  0.00000000E+00  0.00000000E+00
  0.00000000E+00  0.00000000E+00  0.00000000E+00
  0.00000000E+00  0.00000000E+00  0.00000000E+00
  0.00000000E+00  0.00000000E+00  0.00000000E+00
  0.00000000E+00  0.00000000E+00  0.00000000E+00
  0.00000000E+00  0.00000000E+00  0.00000000E+00
  0.00000000E+00  0.00000000E+00  0.00000000E+00
  0.00000000E+00  0.00000000E+00  0.00000000E+00