Ge2 Te1 Se1
1.0
   6.8278590000000001   -2.0603579999999999    0.0000000000000000
   6.8278590000000001    2.0603579999999999    0.0000000000000000
   6.2061310000000001    0.0000000000000000    3.5140690000000001
Ge Te Se
2 1 1
direct
   0.2451489999999990    0.2451489999999990    0.2451489999999990 Ge
   0.7548509999999991    0.7548509999999991    0.7548509999999991 Ge
   0.0000000000000000    0.0000000000000000    0.0000000000000000 Te
   0.5000000000000000    0.5000000000000000    0.5000000000000000 Se
