 Ge1 Sb4 Te7                            
   1.00000000000000     
    13.1708052258771335   -0.0403470478256494    0.0042496046265310
    -6.6203856279661331   11.4540338646075881   -0.0382701243275581
     0.0229502820835963   -0.2396680275352462   73.9785362451291633
   Ge   Sb   Te
    27   108   189
Selective dynamics
Direct
  0.1465594580268965  0.7692452525279360  0.2904779581303585   T   T   T
  0.0801997276558231  0.5685681239558448  0.4354634912512202   T   T   T
  0.6756841076917502  0.8463527121351807  0.8534156433682268   T   T   T
  0.4552771841356873  0.2352637610770854  0.1820643215671250   T   T   T
  0.9030681541388796  0.6501960050823766  0.4266976815463648   T   T   T
  0.4271967983689527  0.1648098382697072  0.8124913185501244   T   T   T
  0.2889708887798386  0.5275343292510672  0.1456832804681375   T   T   T
  0.8067730770662603  0.3507574314712958  0.5027173486454755   T   T   T
  0.8020671418005725  0.2364288403955350  0.8722088271602936   T   T   T
  0.1612605581010676  0.9550063435433683  0.2439208563037231   T   T   T
  0.6088246367115064  0.3354152905902988  0.4097609362015694   T   T   T
  0.6279922589784719  0.7893386087566729  0.7536084594991282   T   T   T
  0.2928842715623594  0.2436887945519291  0.1278852628607090   T   T   T
  0.3020478149821876  0.8064114491400413  0.5613901078623721   T   T   T
  0.8621232230798747  0.7842534670293169  0.8194777746803628   T   T   T
  0.9611339057821446  0.0355259102460976  0.1493685307296427   T   T   T
  0.7749816280752374  0.9279242675541141  0.5295467926235553   T   T   T
  0.9659208195403473  0.9485314633771523  0.7046636758569721   T   T   T
  0.4203476005996108  0.2642996507633469  0.1004534181049182   T   T   T
  0.8129545392365778  0.2261729959714768  0.4707374353262728   T   T   T
  0.2425371593971326  0.3708103408697855  0.8217666760052940   T   T   T
  0.6009321637271734  0.3663910402894110  0.1202114564103496   T   T   T
  0.8626338076388409  0.2984643064989599  0.6948268192069107   T   T   T
  0.8967315583060107  0.0990137674479397  0.8156178381348143   T   T   T
  0.2420716402923409  0.9216486484300453  0.1279556848605700   T   T   T
  0.0076496205687538  0.0528898415711491  0.5929108975643188   T   T   T
  0.1531284938550227  0.0514907481645625  0.8935631735209442   T   T   T
  0.2419886924552127  0.2930902967987996  0.2759108801869496   T   T   T
  0.4166307881555465  0.1871917797674265  0.6760151711867056   T   T   T
  0.2222222199999990  0.1111111100000031  0.9729661900000011   F   F   F
  0.9348859445285521  0.4168395217142880  0.3423495364713723   T   T   T
  0.3103848762919635  0.9500445993888466  0.7148284744200230   T   T   T
  0.2222222199999990  0.4444444499999989  0.9729661900000011   F   F   F
  0.3876349210332864  0.7808191551282861  0.2526459363683123   T   T   T
  0.1988643941350715  0.5005545032427062  0.6680693397677085   T   T   T
  0.2222222199999990  0.7777777900000018  0.9729661900000011   F   F   F
  0.9261239549160251  0.9025055780799659  0.2518439837713180   T   T   T
  0.6004581994999435  0.5132138263543102  0.7708041341982521   T   T   T
  0.5555555800000036  0.1111111100000031  0.9729661900000011   F   F   F
  0.0980769756221224  0.6569873359837535  0.3540400989862590   T   T   T
  0.5969508023905018  0.2685799327424671  0.6174750838420571   T   T   T
  0.5555555800000036  0.4444444499999989  0.9729661900000011   F   F   F
  0.0351041222193596  0.0481650015445404  0.3717920658848741   T   T   T
  0.7953210125502421  0.1275941854060676  0.5140388633602465   T   T   T
  0.5555555800000036  0.7777777900000018  0.9729661900000011   F   F   F
  0.3164009786655607  0.3130050830861069  0.1637452992311349   T   T   T
  0.6526939889713100  0.1854681148351005  0.5703036307886959   T   T   T
  0.8888888999999978  0.1111111100000031  0.9729661900000011   F   F   F
  0.6115342345175815  0.4882550545579180  0.3156215446131415   T   T   T
  0.2037036701462117  0.4404825453811952  0.6202697192072243   T   T   T
  0.8888888999999978  0.4444444499999989  0.9729661900000011   F   F   F
  0.4487517716823408  0.1047855539150166  0.4201917108620777   T   T   T
  0.5643071793584312  0.0146341016705614  0.6250711490439973   T   T   T
  0.8888888999999978  0.7777777900000018  0.9729661900000011   F   F   F
  0.6171603473564794  0.0457006590352875  0.1108475803094527   T   T   T
  0.3609041882767686  0.7298664096078160  0.4181813428476200   T   T   T
  0.1984060296260659  0.3794043855960235  0.8674273770010226   T   T   T
  0.1595965566575992  0.5909410542804078  0.0981556445289846   T   T   T
  0.4984177511757699  0.4555354860582475  0.3988347165372929   T   T   T
  0.3889678245486564  0.8252527651678321  0.8589251296937244   T   T   T
  0.6230101601053379  0.8030960296316272  0.2137814231979791   T   T   T
  0.4675342331032478  0.4692228652030586  0.5224046543670802   T   T   T
  0.9670965316259511  0.1624338195079461  0.7804967902573283   T   T   T
  0.4934024809587900  0.2353864919735179  0.2303495481218088   T   T   T
  0.2953308607433516  0.5832837731302730  0.3469688046371762   T   T   T
  0.9190673332167356  0.9698150627713259  0.8422966760455549   T   T   T
  0.4776552019774511  0.9617280732060187  0.1812142917106110   T   T   T
  0.0510289912481688  0.5388661221322125  0.3072871161416553   T   T   T
  0.7840375209126245  0.7570629134494944  0.7726488249612560   T   T   T
  0.2252769127970785  0.3940970289377880  0.1137748514873121   T   T   T
  0.0691476944651218 -0.0048778630762291  0.4407307684917984   T   T   T
  0.0917056625087963  0.6662878093064339  0.7965215223570991   T   T   T
  0.0883328941081906  0.4295384000069409  0.2168103241594166   T   T   T
  0.3269295900449563  0.2689662935919364  0.3523326459772338   T   T   T
  0.0127058039361460  0.9952206864129076  0.7627188420935430   T   T   T
  0.4422369741169961  0.5517372069634533  0.2385372988317549   T   T   T
  0.9070084248448668  0.6993676512582271  0.1227781232103916   T   T   T
  0.9088178290339767  0.1245554640633036  0.6837596474809330   T   T   T
  0.4924321235078861  0.6133622081746820  0.1864842938521748   T   T   T
  0.8615271262534433  0.2397018244709891  0.4026126742128320   T   T   T
  0.6266050871729713  0.1452926268890876  0.6873585308271167   T   T   T
  0.1111111100000031  0.2222222199999990  0.0270337930000011   F   F   F
 -0.0081103955758246  0.9683476894053025  0.2937202348219017   T   T   T
  0.5289844358738770  0.4470220542125685  0.7257630284432246   T   T   T
  0.1111111100000031  0.5555555800000036  0.0270337930000011   F   F   F
  0.7217376008750123  0.8184018765684185  0.4179886287243650   T   T   T
  0.4439411287671764  0.9645897447831455  0.7627284772356328   T   T   T
  0.1111111100000031  0.8888888999999978  0.0270337930000011   F   F   F
  0.3394064103944008  0.8799598584675002  0.4599011001628375   T   T   T
  0.2516090223351226  0.0364852009197855  0.7602808565572814   T   T   T
  0.4444444499999989  0.2222222199999990  0.0270337930000011   F   F   F
  0.6702889643365405  0.9227696564985088  0.4863012447405072   T   T   T
  0.8218662811396725  0.5452810454759084  0.8120658839510965   T   T   T
  0.4444444499999989  0.5555555800000036  0.0270337930000011   F   F   F
  0.1249715682877104  0.3871218048081417  0.3924869017895543   T   T   T
  0.1229730720371475  0.1973330546635698  0.5355707991003310   T   T   T
  0.4444444499999989  0.8888888999999978  0.0270337930000011   F   F   F
  0.5308101457479190  0.2480140846010264  0.3654336804873377   T   T   T
  0.6132644991712458  0.7124594545524283  0.6826648241345981   T   T   T
  0.7777777900000018  0.2222222199999990  0.0270337930000011   F   F   F
  0.5436032338824988  0.9385954665275471  0.3791303043251101   T   T   T
  0.0810723214713293  0.5472048742163197  0.7001479633617517   T   T   T
  0.7777777900000018  0.5555555800000036  0.0270337930000011   F   F   F
  0.4106043053837060  0.2068034724686650  0.4800586433521694   T   T   T
  0.8312330492918725  0.4496291699502501  0.7269043147409850   T   T   T
  0.7777777900000018  0.8888888999999978  0.0270337930000011   F   F   F
  0.6973781814630892  0.7483693271433716  0.1323588697297534   T   T   T
  0.0202895982546827  0.6414173552777027  0.6123710354666584   T   T   T
  0.1936582651388517  0.6835916739450304  0.2132920668351904   T   T   T
  0.7128116600383603  0.8411647295674903  0.7175734203460518   T   T   T
  0.4163946413025516  0.6073458769923517  0.7662543814517289   T   T   T
  0.1036221505056918  0.9798236350807792  0.3310249404693563   T   T   T
  0.4814354187778850  0.4876230100760668  0.4377891357989706   T   T   T
  0.1098528831150092  0.6051266300775670  0.8383293607257815   T   T   T
  0.0171178801202775  0.8214631713234035  0.3792126648604766   T   T   T
  0.5607776450936524  0.4808289144143435  0.5784203500589775   T   T   T
  0.6598135595451375  0.0140603512348422  0.8093097692812689   T   T   T
  0.6919433920908087  0.1970448813058377  0.2271481522259117   T   T   T
  0.5504550838786255  0.8137447363775703  0.5427869115296762   T   T   T
 -0.0018010129401768  0.2937480727779579  0.9141988862655342   T   T   T
  0.3328454159926363  0.5685816928410247  0.4706905023046481   T   T   T
  0.9374378976671754  0.3863236293141223  0.6529763792362817   T   T   T
  0.8463419754858007  0.7903285264597256  0.9045636225614517   T   T   T
  0.5344529809377296  0.7641508651298581  0.3008629332013685   T   T   T
  0.8819682339790320  0.8632182600210122  0.6546292948022711   T   T   T
  0.4423131438762366  0.6163760670411184  0.8590168765385277   T   T   T
  0.4418246624791854  0.1000607534403372  0.1522712265773612   T   T   T
  0.4956842308257220  0.9623374113497497  0.5871426558412034   T   T   T
  0.6391443652807781  0.5598073899515353  0.8944969210000763   T   T   T
  0.8799668991596643  0.0571284201962422  0.3433102402320851   T   T   T
  0.1283618737096585  0.3877042993285144  0.5798714089461998   T   T   T
  0.6682093210942377  0.1190196087958063  0.9027484478605053   T   T   T
  0.1911570042249141  0.6633035501717612  0.1356147220394827   T   T   T
  0.1994617955161612  0.3827063799448149  0.5059845231582416   T   T   T
  0.9934309731884651  0.7585621476382911  0.5529843580108691   T   T   T
  0.7290912590481990  0.4744319966932629  0.3468980633963698   T   T   T
  0.4412471127220432  0.6835863305415723  0.5065621882489139   T   T   T
  0.1111111100000031  0.2222222199999990  0.9499106399999988   F   F   F
  0.2690674444977005  0.0064781527613815  0.1900059300639305   T   T   T
  0.9326980220214397  0.9451664138231683  0.5548535442140144   T   T   T
  0.1111111100000031  0.5555555800000036  0.9499106399999988   F   F   F
  0.8195436277051356 -0.0068099176968572  0.1100714206126189   T   T   T
  0.8670651110606328  0.1440879626628915  0.5812790021489845   T   T   T
  0.1111111100000031  0.8888888999999978  0.9499106399999988   F   F   F
  0.4749190191985577  0.8351362663284622  0.3388942621117467   T   T   T
  0.5619316095854112  0.0544408012859317  0.5361580331500394   T   T   T
  0.4444444499999989  0.2222222199999990  0.9499106399999988   F   F   F
  0.8340145757698458  0.7901333942276092  0.2173817454869852   T   T   T
  0.4563813769940033  0.2085219594746733  0.5820604065145548   T   T   T
  0.4444444499999989  0.5555555800000036  0.9499106399999988   F   F   F
  0.9467219449927206  0.3822974474082189  0.2785643541618160   T   T   T
  0.5258214278434927  0.2805375496420480  0.5283022755218021   T   T   T
  0.4444444499999989  0.8888888999999978  0.9499106399999988   F   F   F
  0.8816880582790085  0.4540098856781951  0.2295425292558392   T   T   T
  0.4429021899429640  0.6469304725658344  0.5895942165266055   T   T   T
  0.7777777900000018  0.2222222199999990  0.9499106399999988   F   F   F
  0.6891642683983442  0.8064637372897271  0.3431133657985168   T   T   T
  0.8222440981796426  0.5768889026448307  0.4991432695977959   T   T   T
  0.7777777900000018  0.5555555800000036  0.9499106399999988   F   F   F
  0.2370597746553062  0.8543260817233718  0.3288066197990503   T   T   T
  0.4063990779072734  0.7345266912975064  0.6764114901865633   T   T   T
  0.7777777900000018  0.8888888999999978  0.9499106399999988   F   F   F
  0.2222222199999990  0.1111111100000031  0.0500893740000024   F   F   F
  0.9071402493715680  0.7625337578848695  0.3412073286796085   T   T   T
  0.7909314013255297  0.5046703019910147  0.5796131871690169   T   T   T
  0.2222222199999990  0.4444444499999989  0.0500893740000024   F   F   F
  0.4256525467353767  0.2442968669987509  0.3133900293900297   T   T   T
  0.2063042088605292  0.9480103137836475  0.5672863410255770   T   T   T
  0.2222222199999990  0.7777777900000018  0.0500893740000024   F   F   F
  0.5373921414414828  0.1459828513740176  0.3320710280816906   T   T   T
  0.9902053425496974  0.8404519348782089  0.8748830858539731   T   T   T
  0.5555555800000036  0.1111111100000031  0.0500893740000024   F   F   F
  0.6028600147717389  0.0061124716641993  0.4171649454661597   T   T   T
  0.0289490117990376  0.7389252978804149  0.7637320682557848   T   T   T
  0.5555555800000036  0.4444444499999989  0.0500893740000024   F   F   F
  0.4932117985797049  0.5201495182866885  0.3486543193525937   T   T   T
  0.8304459615648927  0.1948733536705715  0.7283897358451339   T   T   T
  0.5555555800000036  0.7777777900000018  0.0500893740000024   F   F   F
  0.1378225615656210  0.8689268972480381  0.4172798680873905   T   T   T
  0.3238077020342951  0.4736945442776663  0.7339604716515344   T   T   T
  0.8888888999999978  0.1111111100000031  0.0500893740000024   F   F   F
  0.6555773592611728  0.9682140095859820  0.6686191991069269   T   T   T
  0.1628756040250117  0.1044402433739883  0.6772996833266994   T   T   T
  0.8888888999999978  0.4444444499999989  0.0500893740000024   F   F   F
  0.2510521750797584  0.7615567635505047  0.5164186506411755   T   T   T
  0.6915964014209031  0.2594376714144737  0.8095971541591700   T   T   T
  0.8888888999999978  0.7777777900000018  0.0500893740000024   F   F   F
  0.0954919866090966  0.3223010425702212  0.3526252495236480   T   T   T
  0.0549400224759677  0.8099198998255194  0.7171847540681999   T   T   T
  0.0906492598331635  0.8101111077347223  0.1695994598134008   T   T   T
  0.8814183397284913  0.3585931252754778  0.4400158614667319   T   T   T
  0.4446326313861043 -0.0866717049858861  0.8962069607170622   T   T   T
  0.5682665668319770  0.4757741650116520  0.4868485031307845   T   T   T
  0.5327582851539401  0.7721294759301327  0.6287987396924939   T   T   T
  0.3533806015428624  0.6202135000935167  0.8231992643025545   T   T   T
  0.5373796121650383  0.4849016902200463  0.2718422919543440   T   T   T
  0.3824473730436871  0.2090700992836371  0.6362260866023769   T   T   T
  0.3930665291222060  0.2500456861654566  0.7798841376989473   T   T   T
  0.5184131392205172  0.2247956415824915  0.2688989432556159   T   T   T
  0.7986765920736727  0.8201118417856315  0.5013572455348478   T   T   T
  0.1850917228180764  0.8599253683567574  0.8954067520032944   T   T   T
  0.7640372241249743  0.1612795066535939  0.3627446919294856   T   T   T
  0.2110567856995277  0.2186985533596165  0.5777027399042413   T   T   T
  0.6644154837807357  0.7787341050823194  0.8063109083558522   T   T   T
  0.2658620417640772  0.5290125074248092  0.3086978379841411   T   T   T
  0.3371716602204328  0.2404057395596254  0.4441756679720646   T   T   T
  0.7202837789616150  0.9062746529311440  0.8907454852655203   T   T   T
  0.6799869106138751  0.2067625508659997  0.1883019199209182   T   T   T
  0.6424514060414024  0.5179009323796129  0.6172331199327256   T   T   T
  0.6414643445265801  0.5717575871118739  0.8554429007226639   T   T   T
  0.8792650493916613  0.8298626587847400  0.1705738807460773   T   T   T
  0.8923955630416450  0.1186377599711701  0.6448485908265407   T   T   T
  0.6411662558688843  0.3260355383665933  0.8993504720655412   T   T   T
  0.6973260460983471  0.7647116682919413  0.0943509503672801   T   T   T
  0.7865861894213364  0.4756737974216591  0.5340457075737630   T   T   T
  0.0723002157102697  0.9144792656633265  0.8004129743570991   T   T   T
  0.0585171768353909  0.4140725848202045  0.1777548087801936   T   T   T
  0.6564818465900510  0.6422274148839732  0.5442864310288289   T   T   T
  0.5826481099185561  0.2479360563909447  0.7276989392148663   T   T   T
  0.9625073245985020  0.6193694700198532  0.1999080746735822   T   T   T
  0.4206725131521504  0.9565655041351018  0.4968144005316479   T   T   T
  0.2919481040169106  0.1850276174628247  0.8656093841231050   T   T   T
  0.7612756717039327 -0.0151140686334971  0.2991999409762496   T   T   T
  0.7417233208865965  0.4411629387304348  0.2806502782788228   T   T   T
  0.7710717713820908  0.6394003921908324  0.7266564512245710   T   T   T
  0.6403843505912750  0.7380475651614367  0.2668398853305161   T   T   T
  0.7667827916742201  0.8230453499763312  0.6205615419340444   T   T   T
  0.0698215500097016  0.4455023244994513  0.7341568615956605   T   T   T
  0.1087299348101290  0.0326417620914254  0.1212506669696099   T   T   T
  0.9209646807636916  0.1133339057905559  0.2461332225030917   T   T   T
  0.0211854201879103  0.4298728235370003  0.7824101082031198   T   T   T
  0.6968878949742148  0.0275302277067465  0.2634009587562477   T   T   T
  0.0997805628502419  0.6124084048434024  0.5747292753899125   T   T   T
  0.6265461017550651  0.0271349970315105  0.8495189101482101   T   T   T
  0.7638597385927760  0.5200811756790323  0.0974388308403027   T   T   T
  0.8453044529859712  0.7822725954352248  0.4491576896193487   T   T   T
  0.2430115762777272  0.6971046351563398  0.6291775958462245   T   T   T
  0.9454519325578122  0.5505101233281876  0.1468635938734179   T   T   T
  0.1574011135881440  0.6400975025977488  0.4718054380143845   T   T   T
  0.1812945795752844  0.1176439075866683  0.8239284570804921   T   T   T
  0.1024120384821389  0.7845591042864304  0.0973909915349044   T   T   T
  0.4552610213284994  0.9566786201049030  0.2259279683895257   T   T   T
  0.6913561234171383  0.0047116553370513  0.7677197327355250   T   T   T
  0.4344388627642654  0.9000160223350805  0.2864052460109396   T   T   T
  0.7957285043075878  0.6226226864938149  0.6664110084739246   T   T   T
  0.9644576671790953  0.1589004703984279  0.8812541363440057   T   T   T
  0.3144185046884704  0.4176463328374012  0.2073937978733336   T   T   T
  0.2785147523535823  0.1222612869616857  0.5181053366973538   T   T   T
  0.8611042020901526  0.5191460818670752  0.8489836438371167   T   T   T
  0.0279346611313255  0.2094821558052236  0.2974624850013958   T   T   T
  0.3168349625539901  0.9490190687028275  0.6300738154414474   T   T   T
  0.4895407770741241  0.4574896361996204  0.6871719837949392   T   T   T
  0.2011524466025305  0.1858532836180759  0.2416428135907063   T   T   T
  0.9466256518582341  0.2885489229592474  0.5467207893807206   T   T   T
  0.1681192160604537  0.5871244462392946  0.8755762375452273   T   T   T
  0.1399140628502072  0.7006515300983996  0.2535561101354755   T   T   T
  0.3274677577458518  0.5328745918953129  0.5571568545249656   T   T   T
  0.2658526870062212  0.7175702931602089  0.7560259522716857   T   T   T
  0.9014636255143516  0.3916084157410458  0.1099436338593863   T   T   T
  0.6563536559631290  0.8788408841844952  0.5790980148872865   T   T   T
  0.9102975308628865  0.4277058811445672  0.8987499714403676   T   T   T
  0.1046601350849859  0.1282034740911271  0.1792295071426065   T   T   T
  0.9469563722262773  0.3896877515540054  0.6142340992911560   T   T   T
  0.4013024639592490  0.2892865421516786  0.8988994023762626   T   T   T
  0.4694101498986161  0.7567925071219174  0.1352710052625462   T   T   T
  0.5730079501619564  0.1346756975330813  0.4610171840040780   T   T   T
  0.5703423626224225  0.4843814526260535  0.8097456236035104   T   T   T
  0.9147256877486684  0.7038471592723184  0.2892585617515013   T   T   T
  0.4889308910073273  0.6919206760321345  0.3908577866921470   T   T   T
  0.2506999892944493  0.4114869402718949  0.9054421217967302   T   T   T
  0.0000000000000000  0.0000000000000000  0.0000000000000000   F   F   F
  0.5090063991999262  0.7738652805673488  0.4511671102953824   T   T   T
  0.6381339546819714  0.2287449093141823  0.7722392307568122   T   T   T
  0.0000000000000000  0.3333333400000029  0.0000000000000000   F   F   F
  0.2258323485171840  0.0005641378253347  0.2797316115408973   T   T   T
  0.6950456285700021  0.3205429522368334  0.6570612451150006   T   T   T
  0.0000000000000000  0.6666666899999996  0.0000000000000000   F   F   F
  0.1130082082502883  0.6005573411359478  0.3933519588099550   T   T   T
  0.2957038824847101  0.1651136058692423  0.7265167583525709   T   T   T
  0.3333333400000029  0.0000000000000000  0.0000000000000000   F   F   F
  0.7876593465569260  0.6700957411349217  0.3959001042772158   T   T   T
  0.1673052118728181  0.3106511089417898  0.6913399442720304   T   T   T
  0.3333333400000029  0.3333333400000029  0.0000000000000000   F   F   F
  0.3699358075966753  0.0120697105746290  0.3825135993895562   T   T   T
  0.8234012879280590  0.4732268664434455  0.7670174903383307   T   T   T
  0.3333333400000029  0.6666666899999996  0.0000000000000000   F   F   F
  0.6827903707701263  0.2407061690589479  0.1389200945084614   T   T   T
  0.0455575539189975  0.1329252931241520  0.7291715427295459   T   T   T
  0.6666666899999996  0.0000000000000000  0.0000000000000000   F   F   F
  0.8174420668846452  0.4279831194208562  0.3926611381808151   T   T   T
  0.0094630520320049  0.6412253331085733  0.6552363253256078   T   T   T
  0.6666666899999996  0.3333333400000029  0.0000000000000000   F   F   F
  0.6884344853075981  0.4596983297630221  0.4412044096966262   T   T   T
  0.2122658501878869  0.3672431167546466  0.7844941482413416   T   T   T
  0.6666666899999996  0.6666666899999996  0.0000000000000000   F   F   F
  0.6343287674401115  0.4915720849775758  0.2283437533307173   T   T   T
  0.4504334228259284  0.4987779662630512  0.6366496043127889   T   T   T
  0.4151567456781201  0.7753928348685969  0.0987753674855146   T   T   T
  0.2757548037120705  0.2475966930259361  0.3920196977026134   T   T   T
  0.0451618532498082  0.8902994826472832  0.6264405215432395   T   T   T
  0.7490465730895274  0.2179479379471340  0.0845769052428669   T   T   T
  0.2126153434939072  0.4757088199939932  0.2609745517905925   T   T   T
  0.3718127191763243  0.9404349797170530  0.7997358946684350   T   T   T
  0.3904436517388830  0.0492856245273707  0.0994197101041147   T   T   T
  0.8388305029344947  0.0498189276598448  0.4573015546464981   T   T   T
  0.3360319632355775  0.7322808681888879  0.7166494124047916   T   T   T
  0.6462129745646540  0.5003106216320103  0.1896548774800405   T   T   T
  0.0364976477423531  0.4614928831430334  0.5167787335549747   T   T   T
  0.5903761747246672  0.9840066140197853  0.7202896915886873   T   T   T
  0.5785338698837547  0.4999422357807719  0.1454755145823105   T   T   T
  0.0612917057811091  0.8216544370009774  0.5147899997296238   T   T   T
  0.2114385133668298  0.8588817335697517  0.8420577126581994   T   T   T
  0.6716769486127249  0.8940756252094721  0.1772342788491116   T   T   T
  0.0184039837147069  0.1414014860574874  0.4991305194292429   T   T   T
  0.0193187163378637  0.3145639581036468  0.8313173060397806   T   T   T
  0.3030421578349526  0.6868521249511318  0.1787702032010723   T   T   T
  0.9217051122249187  0.0330714990892535  0.4058086674415677   T   T   T
  0.5123847169324957  0.6882444822975622  0.9007008272698540   T   T   T
  0.8873932420564206  0.1687449478602535  0.1815367794445089   T   T   T
  0.1777199982497268 -0.0373671714425536  0.4723413145357742   T   T   T
  0.2891867353709336  0.9335348309896564  0.6753826779688945   T   T   T
  0.0027664919304345  0.2712551034077702  0.1299564249895172   T   T   T
  0.2348547582265439  0.4779361374836835  0.4306700577314426   T   T   T
  0.1139269920841890  0.1877892108891658  0.6266573660074941   T   T   T
 
  0.00000000E+00  0.00000000E+00  0.00000000E+00
  0.00000000E+00  0.00000000E+00  0.00000000E+00
  0.00000000E+00  0.00000000E+00  0.00000000E+00
  0.00000000E+00  0.00000000E+00  0.00000000E+00
  0.00000000E+00  0.00000000E+00  0.00000000E+00
  0.00000000E+00  0.00000000E+00  0.00000000E+00
  0.00000000E+00  0.00000000E+00  0.00000000E+00
  0.00000000E+00  0.00000000E+00  0.00000000E+00
  0.00000000E+00  0.00000000E+00  0.00000000E+00
  0.00000000E+00  0.00000000E+00  0.00000000E+00
  0.00000000E+00  0.00000000E+00  0.00000000E+00
  0.00000000E+00  0.00000000E+00  0.00000000E+00
  0.00000000E+00  0.00000000E+00  0.00000000E+00
  0.00000000E+00  0.00000000E+00  0.00000000E+00
  0.00000000E+00  0.00000000E+00  0.00000000E+00
  0.00000000E+00  0.00000000E+00  0.00000000E+00
  0.00000000E+00  0.00000000E+00  0.00000000E+00
  0.00000000E+00  0.00000000E+00  0.00000000E+00
  0.00000000E+00  0.00000000E+00  0.00000000E+00
  0.00000000E+00  0.00000000E+00  0.00000000E+00
  0.00000000E+00  0.00000000E+00  0.00000000E+00
  0.00000000E+00  0.00000000E+00  0.00000000E+00
  0.00000000E+00  0.00000000E+00  0.00000000E+00
  0.00000000E+00  0.00000000E+00  0.00000000E+00
  0.00000000E+00  0.00000000E+00  0.00000000E+00
  0.00000000E+00  0.00000000E+00  0.00000000E+00
  0.00000000E+00  0.00000000E+00  0.00000000E+00
  0.00000000E+00  0.00000000E+00  0.00000000E+00
  0.00000000E+00  0.00000000E+00  0.00000000E+00
  0.00000000E+00  0.00000000E+00  0.00000000E+00
  0.00000000E+00  0.00000000E+00  0.00000000E+00
  0.00000000E+00  0.00000000E+00  0.00000000E+00
  0.00000000E+00  0.00000000E+00  0.00000000E+00
  0.00000000E+00  0.00000000E+00  0.00000000E+00
  0.00000000E+00  0.00000000E+00  0.00000000E+00
  0.00000000E+00  0.00000000E+00  0.00000000E+00
  0.00000000E+00  0.00000000E+00  0.00000000E+00
  0.00000000E+00  0.00000000E+00  0.00000000E+00
  0.00000000E+00  0.00000000E+00  0.00000000E+00
  0.00000000E+00  0.00000000E+00  0.00000000E+00
  0.00000000E+00  0.00000000E+00  0.00000000E+00
  0.00000000E+00  0.00000000E+00  0.00000000E+00
  0.00000000E+00  0.00000000E+00  0.00000000E+00
  0.00000000E+00  0.00000000E+00  0.00000000E+00
  0.00000000E+00  0.00000000E+00  0.00000000E+00
  0.00000000E+00  0.00000000E+00  0.00000000E+00
  0.00000000E+00  0.00000000E+00  0.00000000E+00
  0.00000000E+00  0.00000000E+00  0.00000000E+00
  0.00000000E+00  0.00000000E+00  0.00000000E+00
  0.00000000E+00  0.00000000E+00  0.00000000E+00
  0.00000000E+00  0.00000000E+00  0.00000000E+00
  0.00000000E+00  0.00000000E+00  0.00000000E+00
  0.00000000E+00  0.00000000E+00  0.00000000E+00
  0.00000000E+00  0.00000000E+00  0.00000000E+00
  0.00000000E+00  0.00000000E+00  0.00000000E+00
  0.00000000E+00  0.00000000E+00  0.00000000E+00
  0.00000000E+00  0.00000000E+00  0.00000000E+00
  0.00000000E+00  0.00000000E+00  0.00000000E+00
  0.00000000E+00  0.00000000E+00  0.00000000E+00
  0.00000000E+00  0.00000000E+00  0.00000000E+00
  0.00000000E+00  0.00000000E+00  0.00000000E+00
  0.00000000E+00  0.00000000E+00  0.00000000E+00
  0.00000000E+00  0.00000000E+00  0.00000000E+00
  0.00000000E+00  0.00000000E+00  0.00000000E+00
  0.00000000E+00  0.00000000E+00  0.00000000E+00
  0.00000000E+00  0.00000000E+00  0.00000000E+00
  0.00000000E+00  0.00000000E+00  0.00000000E+00
  0.00000000E+00  0.00000000E+00  0.00000000E+00
  0.00000000E+00  0.00000000E+00  0.00000000E+00
  0.00000000E+00  0.00000000E+00  0.00000000E+00
  0.00000000E+00  0.00000000E+00  0.00000000E+00
  0.00000000E+00  0.00000000E+00  0.00000000E+00
  0.00000000E+00  0.00000000E+00  0.00000000E+00
  0.00000000E+00  0.00000000E+00  0.00000000E+00
  0.00000000E+00  0.00000000E+00  0.00000000E+00
  0.00000000E+00  0.00000000E+00  0.00000000E+00
  0.00000000E+00  0.00000000E+00  0.00000000E+00
  0.00000000E+00  0.00000000E+00  0.00000000E+00
  0.00000000E+00  0.00000000E+00  0.00000000E+00
  0.00000000E+00  0.00000000E+00  0.00000000E+00
  0.00000000E+00  0.00000000E+00  0.00000000E+00
  0.00000000E+00  0.00000000E+00  0.00000000E+00
  0.00000000E+00  0.00000000E+00  0.00000000E+00
  0.00000000E+00  0.00000000E+00  0.00000000E+00
  0.00000000E+00  0.00000000E+00  0.00000000E+00
  0.00000000E+00  0.00000000E+00  0.00000000E+00
  0.00000000E+00  0.00000000E+00  0.00000000E+00
  0.00000000E+00  0.00000000E+00  0.00000000E+00
  0.00000000E+00  0.00000000E+00  0.00000000E+00
  0.00000000E+00  0.00000000E+00  0.00000000E+00
  0.00000000E+00  0.00000000E+00  0.00000000E+00
  0.00000000E+00  0.00000000E+00  0.00000000E+00
  0.00000000E+00  0.00000000E+00  0.00000000E+00
  0.00000000E+00  0.00000000E+00  0.00000000E+00
  0.00000000E+00  0.00000000E+00  0.00000000E+00
  0.00000000E+00  0.00000000E+00  0.00000000E+00
  0.00000000E+00  0.00000000E+00  0.00000000E+00
  0.00000000E+00  0.00000000E+00  0.00000000E+00
  0.00000000E+00  0.00000000E+00  0.00000000E+00
  0.00000000E+00  0.00000000E+00  0.00000000E+00
  0.00000000E+00  0.00000000E+00  0.00000000E+00
  0.00000000E+00  0.00000000E+00  0.00000000E+00
  0.00000000E+00  0.00000000E+00  0.00000000E+00
  0.00000000E+00  0.00000000E+00  0.00000000E+00
  0.00000000E+00  0.00000000E+00  0.00000000E+00
  0.00000000E+00  0.00000000E+00  0.00000000E+00
  0.00000000E+00  0.00000000E+00  0.00000000E+00
  0.00000000E+00  0.00000000E+00  0.00000000E+00
  0.00000000E+00  0.00000000E+00  0.00000000E+00
  0.00000000E+00  0.00000000E+00  0.00000000E+00
  0.00000000E+00  0.00000000E+00  0.00000000E+00
  0.00000000E+00  0.00000000E+00  0.00000000E+00
  0.00000000E+00  0.00000000E+00  0.00000000E+00
  0.00000000E+00  0.00000000E+00  0.00000000E+00
  0.00000000E+00  0.00000000E+00  0.00000000E+00
  0.00000000E+00  0.00000000E+00  0.00000000E+00
  0.00000000E+00  0.00000000E+00  0.00000000E+00
  0.00000000E+00  0.00000000E+00  0.00000000E+00
  0.00000000E+00  0.00000000E+00  0.00000000E+00
  0.00000000E+00  0.00000000E+00  0.00000000E+00
  0.00000000E+00  0.00000000E+00  0.00000000E+00
  0.00000000E+00  0.00000000E+00  0.00000000E+00