Amorphous Sb                            
   1.00000000000000     
    20.1592845935739220    0.0000000000000000    0.0000000000000000
     0.0000000000000000   20.1592845935739220    0.0000000000000000
     0.0000000000000000    0.0000000000000000   20.1592845935739220
   Ge   Se
   210    90
Direct
  0.0037948352548260  0.5057798537307030  0.4397984370209732
  0.1251073803136514  0.3520995846933269  0.3857439549008876
  0.4567561375972160  0.1036297950413067  0.8762805071764538
  0.9429401991212538  0.7238016918353781  0.4395854525771656
  0.0420695562517027  0.0257027281141461  0.6722857622272854
  0.7195218403438031  0.7649787149607086  0.2407327302840963
  0.8434172920479658  0.3126308189900889  0.6596447829688770
  0.9672761551311462  0.3517590771957786  0.8103449309426006
  0.4007775058856919  0.7072797798822938  0.9181041374233624
  0.1791505845909828  0.9150589825615153  0.8300052654710670
  0.1076262347571696  0.3422869351797173  0.1844966632329959
  0.0472988640426746  0.3330107945752698  0.2916581930073025
  0.0967080121055996  0.2277332880134685  0.7074957731159776
  0.8851309657841235  0.9130106454505226  0.5167855774979477
  0.5947488014438964  0.0814562736934480  0.1822026975210433
  0.4671429949198239  0.0907549923412201  0.4058947604325954
 -0.0093278912792103  0.2301500274259159  0.7765467231914119
  0.1037587615988463  0.5481614041072339  0.9861640417798415
  0.2842894797289190  0.0607590948565658  0.3232282396779191
  0.4977203957653432  0.4115422861166991  0.9490236100218780
  0.7977280894449749  0.2132799690137978  0.7378877490617355
  0.7900216126342270  0.8324672251521357  0.3671767469108482
  0.0888757275721141  0.4226753442575912  0.0876996558519535
  0.3746991771747507  0.7470395875869543  0.4511730494133205
  0.7954427674766801  0.4538942158214602  0.0374348303431805
  0.9227189267680959  0.8440048489709631  0.3453157714971005
  0.9113301620696527  0.9227061016192691  0.2488864544370518
  0.5345233312417079  0.8831965444349076  0.0452104742117449
  0.4172244314168073  0.8764010026982620  0.5709846320513738
  0.4162018643263939  0.1808956897458336  0.6775244352397018
  0.7000695629944328  0.8129971774488536  0.6070842638746957
  0.4661043711641042  0.2663738248414736  0.5035625374897973
  0.4684316764092581  0.8923189506818485  0.8955009381186950
  0.3594516269955730  0.1466145732491725  0.3760032714779681
  0.5545044278739337  0.5192846304156784  0.9002271744922278
  0.0880856742304306  0.8884666881038391  0.4404686314108796
  0.5717826994684931  0.3738457069000108  0.0439103086380752
  0.7031801327979484  0.5295377178411755  0.0750908896679573
  0.0408490021937252  0.7882854451518299  0.4985847813507665
  0.2509378057850578  0.5582338898192977  0.8965062433603321
  0.7469967633041259  0.8295228524043865  0.4907287398369152
  0.4350877690644458  0.3462021957496452  0.6023737307496492
  0.4308003163625645  0.8114013391066742  0.9942857857390555
  0.7059328072463861  0.1272699262701004  0.1474031804189627
  0.8390894215205742  0.4467090019605026  0.4986738982055458
  0.9703189156092799  0.9376456914426576  0.4183303130620236
  0.9135101513610895  0.6779544638763081  0.0070251278068033
  0.6143449124142095  0.7337487433371503 -0.0117374853290737
  0.3502907859607108  0.0601373433965767  0.9473656905982798
  0.8665636184010566  0.7869262392954778  0.5167348664751762
  0.6539065478524269  0.3174636956930973  0.1685120188875255
  0.9306847684893399  0.3889660435405863  0.2913048122971221
  0.6419829202271339  0.7027147208475344  0.6192234613625509
  0.4071975436959734  0.4550958671960013  0.7951381112010655
  0.3729718033467017  0.3318007349776824  0.7992344901719635
  0.1463193273697953  0.7632283972288779  0.5616968581247476
  0.6188754996789541  0.4280444879557582  0.7547645653449234
  0.2506658297168270  0.1470414501611845  0.2354937243128251
  0.3502016846034120  0.0127614710790002  0.1588884452172528
  0.6709527879352528  0.6539434955959225  0.1948814291953843
  0.6001349450081915  0.8840024773399217  0.5899539728564265
  0.3466127961790078  0.1692307425088358  0.5673345675446668
  0.8398706758702300  0.9941797552428367  0.1391178842119101
  0.3736985897601062  0.1362715443859727  0.7875245216758794
  0.0277607511343874  0.3831558143730935  0.4612153209549975
  0.6537069320942965  0.1471959451312811  0.9029684090297273
  0.9313679690027225  0.3012812747199308  0.0935756603338264
  0.2113115294282890  0.5782652832711115  0.4928309136233832
  0.3414605098908347  0.2294997615144727  0.2865963669542935
  0.5006569927971073  0.7537986984924291  0.4107557149220480
  0.9463418073054569  0.1596323643682750  0.6079875931682721
  0.3176247320263608  0.3168268029202119  0.9187279857453622
  0.5363254316491669  0.1900732166150577  0.2057567587823499
  0.0125360070133248  0.7760611151932065  0.8461214033285180
  0.2184168085636831  0.1984848752349288  0.7235934777934531
  0.7821977143404553  0.8124936683437849  0.9832831766825720
  0.3852263857139976  0.3510405877939711  0.3039774574359246
  0.2563753797435626  0.1491463825829756  0.8341977718089975
  0.1537414615122400  0.0870840319775361  0.1712192887013395
  0.6649600111137505  0.9866601345822723  0.5506397719206968
  0.1587247689407295  0.5828840783914320  0.7034650651448960
  0.0316688527280305  0.6857411392541043  0.0585444519972833
  0.7705233264478196  0.9671236887968205  0.4779627541701181
  0.1401259027296278  0.1593785108259373  0.9024660256953888
  0.9788366502001222  0.0296661368589897  0.2553419888419778
  0.9191837302584405  0.4298753276199844  0.9086967599977731
  0.1885162204202596  0.8858011564589664  0.5295828280998768
  0.7465997754006760  0.5484853979239643  0.1935168733197210
  0.1665818129794813  0.4643901481490037  0.3447915619521091
  0.7141104544968881  0.2329691292129546  0.9706855289738187
  0.6860704173662386  0.6521714316086447  0.0676518764086268
  0.9116397612943161  0.7364899836028374  0.6232360063680472
  0.4669112746902883  0.0019005172062500  0.3144052995083679
  0.0004315065566437  0.3519558800291059  0.5780952042285273
  0.8942052720447459  0.6940094160361903  0.2413129126621904
  0.0875059149636651  0.1417755089378414  0.0790746564475771
  0.7637412583848823  0.3735315210219373  0.1397643655926199
  0.6633572423165913  0.2222507666934258  0.0821462473285376
  0.4399960287454350  0.7956599935476795  0.7362823955943528
  0.5347574015527808  0.3056380413739441  0.8929035545866641
  0.6628178479637048  0.4360272204958217  0.8823186668702400
  0.8266339616565099  0.0983368258023378  0.4814287141397309
  0.2825861351581178  0.6779732316930830  0.8764487948083571
  0.8302646390231915  0.5697949146226230  0.6750843576215840
  0.4874634306457503 -0.0025153703210323  0.7148988341763716
  0.9102991418824636  0.2672053622910114  0.5622350667486193
  0.0669592968803904  0.4065399890664241  0.7487466839350576
  0.1505158012724478  0.1301198197881657  0.5418764362355114
  0.5497688983424945  0.0515142537051790  0.8075973679905362
  0.7900648049846857  0.2647163554219272  0.5167138946200249
  0.4154460738869570  0.0705711673421263  0.5224516728597760
  0.2765349170723819  0.6382788296874212  0.2058391404554220
  0.6317934295124094  0.7850203936537872  0.4232075348015951
  0.5395969129110423  0.8994134459480413  0.2901145995533564
  0.2182131297716191  0.4909419640762882  0.0055683617223416
  0.1097127133252976  0.6870836265055129  0.6531179302666874
  0.7475446996402066  0.1454533736519017  0.2690859224084440
  0.3668692095434834  0.5141011355607187  0.8996281205648359
  0.3129228351478447  0.5218077772313980  0.2461152628318502
 -0.0032112791742169  0.8183486657941634  0.0690023227099482
  0.6331653614044548  0.5954736642409133  0.6952681535858175
  0.4102437760044021  0.2015050685063833  0.1895479321373517
  0.7209993635344293  0.2190283852967228  0.6139361818344946
  0.1106881352745489  0.7136744031613398  0.1599760291465078
  0.7757422759849519  0.7098732298901896  0.3424116533910749
  0.3657563658144798  0.9617505024497087  0.8644871599620653
  0.9817368343383384  0.4552485498125516  0.6522679310742494
  0.8109496832298614  0.6806462279682979  0.0850285024297486
  0.0308433433482826  0.8018733193027254  0.2837893006306282
  0.4995054556825658  0.8864580796114275  0.6670167659223120
  0.7708503568395710  0.8738258932000519  0.6914793397518666
  0.8814548963793428  0.6405414228410174  0.3568307412724879
  0.0634324292115541  0.1394406692817532  0.6267620662729948
  0.6590328937345349  0.8552697594508326  0.3185213821276336
  0.2615150109082162  0.9721244428278815  0.0079276242051338
  0.8963577804755510  0.8779473071671802  0.1306227245677054
  0.0311782235396579  0.0311472347082828  0.0397342695351841
  0.4779899654945208  0.5771319766033544  0.1605825793660964
 -0.0072300177738954  0.0599972016946166  0.3801142049150953
  0.5633662901977307  0.2406064935328302  0.3181317083826795
  0.1546294002571210  0.8634469554095979  0.7191979051588685
  0.1972756034425322  0.7441476160288527  0.9413487034372778
  0.2142633728093246  0.0356473594020290  0.7853778087330369
  0.6627428352815465  0.8991739705689015  0.8526827901429751
  0.2720480751568823 -0.0006628967141298  0.6740593875276081
  0.6445789593438158  0.3335897726083196  0.9464776644123366
  0.9371819743914219  0.6725941196569475  0.8078086942773249
  0.3363838027841821  0.7771736109308423  0.5772916003355132
  0.7123966287881963  0.1344081466097015  0.7923334903480237
  0.3702269283376337  0.0166718863160610  0.7510037193384597
  0.7823583933433123  0.0262046428298837  0.7743276177639162
  0.6404154364307885  0.6328621726590516  0.5093060512007972
  0.5160496421864678  0.8494802890060027  0.4994670802800624
  0.8554596498382068  0.9520973818295381  0.6370548338632486
  0.6891527202695819  0.9703772867867501  0.3717079893388692
  0.9809992962255767  0.2099029999824220  0.4064319466561115
  0.6574311761506932  0.5076678901352136  0.5227497313169639
  0.1119313485803578  0.9323193794604874  0.6251751553845921
  0.3328231485303296  0.5563212801717270  0.4465727415556459
  0.9196518966938760  0.4980555133025232  0.0314409378566605
  0.2870347602199957  0.8645639879583907  0.8703411275771222
  0.8670851808127338  0.1298347590563824  0.0416437360530030
  0.2116844419861692  0.2977628948567100  0.0393057717222310
  0.5280715983744582  0.7385474097807198  0.5717665102977253
  0.2357730574012302  0.5192689534684640  0.7770980183659842
  0.3406925299561098  0.8286133682918025  0.2861490350680138
  0.9570347628931868  0.6083547952068542  0.5065735900919144
  0.3072554989779252  0.8482534523016797 -0.0023351682241357
  0.9057581706925962  0.1305921083225875  0.8754689445001950
  0.2466984222775065  0.1183614395599833  0.6250457217821422
  0.9053704730506340  0.1415925567314426  0.7283761507180934
  0.0614080236895300  0.5300280532213270  0.7711750838974307
  0.9481871597276492  0.8813353957745732  0.7952778759115925
  0.5367224245862049  0.1859440856221223  0.9239377172008861
  0.2506639388897196  0.4501501429431446  0.1592527151448746
  0.0489284996887734  0.2568768255354688  0.1120762970643680
  0.1926975199153730  0.4000112077363179  0.7739672894164639
  0.5614525599986386  0.8024996925718485  0.8717300850693347
  0.4565144648044646  0.2941417528737281  0.7142081694381207
  0.9305718676542796 -0.0026804265910053  0.7303598584171423
  0.8329368664708398  0.2258435252235658  0.9325668708235416
  0.6730025081050285  0.0988737284610490  0.6142410286542878
  0.0214047087669564  0.5141598201863692  0.8936747867394549
  0.5214263136191681  0.3047627717018375  0.1476199489269482
  0.1114048811541199  0.8321557684636056  0.9059224537831455
  0.3187674991420232  0.4844932739619665  0.6005602328650104
  0.4810412028340550  0.0307444649071280  0.1898054999409733
  0.4824895360144471  0.0873120395506863  0.6262291637860921
  0.0672332896531565  0.9754002264008151  0.8593559721194022
  0.8264358518866166  0.7774552118856105  0.1681393765738115
  0.9586049425674721  0.5798139316326076  0.7190829162727612
 -0.0027784712892542  0.6428599512882019  0.6192788490467933
  0.9772443302476269  0.8147782731260859  0.6930445740474346
  0.8146868503518606  0.7069476683942650  0.8057930421660593
  0.1224969089960323  0.1265260566891890  0.4140635561250310
  0.3527789609446550  0.9601131348940496  0.2848944308195686
  0.1911660433959775  0.2458992054375203  0.4208851412045818
  0.5900582677221674  0.4135256986200540  0.5845121078548338
  0.3148012530950026  0.2317979133977089  0.4567196671651588
  0.2731593698154174  0.3160926822791887  0.7238370199768992
  0.4455151114042222  0.6435642103526347  0.3022677052278543
  0.0819561468139800  0.7667795158855932  0.7406061549459776
  0.8328831318509983  0.8321515023943511  0.7929588114608793
  0.1073075138414056  0.3360009086234010  0.6421949689116343
  0.5887014465668458  0.1312452705663603  0.4205021438638687
  0.6378317397883292  0.6697754392533163  0.8466448819295398
  0.3166685342078437  0.8130509086507087  0.7598556997393134
  0.5975334490671058  0.2686256666206673  0.6114980816905979
  0.6353645219307275  0.0179915647233369  0.8954201426370515
  0.2644357377121399  0.8660465103232421  0.6561651395818825
  0.7974464392263733  0.9718568165411494  0.2502968063508256
  0.0053284887426039  0.8748719935174417  0.5896566127951963
  0.2099276020864967  0.6974907231178047  0.4844293031953091
  0.5068221927482984  0.9106334880948677  0.1706394879986542
  0.9619656826637616  0.4177334085444772  0.1213294238009139
  0.5473680891181256  0.1882333445447513  0.0471519849412326
  0.0930844553776233  0.6696319430376935  0.9509768209613433
  0.6844298287882720  0.2588937340038122  0.2774798741781657
  0.9219041110595710  0.0453240403307398  0.9690447249062354
  0.7745465203165636  0.4671470084624632  0.9141491260269744
  0.0264005516949127  0.2131286444351694  0.2903980870633901
  0.1917507024902864  0.1733793692477546  0.0181807569188545
  0.4005620754058806  0.3001634200859289  0.1209045831891941
  0.1307828536899535  0.8231123180872256  0.3461954488464627
  0.4741204588812495  0.4584816442913033  0.5862101442975105
  0.5176961700041190  0.6360729433157274  0.5032929486591931
  0.3175313532991701  0.8435097893068394  0.4061018750107441
  0.1868676016029913  0.0251288250351943  0.3836203473964145
  0.2887696784176287  0.4732092996397459  0.3611876976508995
  0.2777951054270354  0.5589517466206730  0.0977749599830528
  0.1219964592160379  0.0417259200242860  0.9504100446717035
  0.9167641914501142  0.0892310200917003  0.1598106219793047
  0.9345424381552174  0.0668150733455903  0.5321376192631512
  0.3949234135177285  0.6777672811636307  0.1899421513849220
  0.0039627645114515  0.2011214256445783  0.8955747786840108
  0.7345143586597155  0.4691193626094479  0.4389131556994536
  0.1869487990496749  0.5134457990018214  0.5985400041046520
  0.8369400289184193  0.2769656934382099  0.1629001697227000
  0.5720965529389920  0.6049290773271829  0.2428679381948622
  0.5653534111161365  0.1534354556830191  0.5581444976815577
  0.6444367025567388  0.0751621245699722  0.3030375592281734
  0.7674328730023638  0.3733490649217389  0.5829110274820291
  0.5661312558640448  0.3112353021155667  0.7728241675607701
  0.2715467714731775  0.7000444313135884  0.7585207297580016
  0.4276952569593706  0.7130592612449752  0.6430299992134270
  0.6486044905379653  0.8367947523355602  0.0475226318452715
  0.3239512452998616  0.1305510058438954  0.1342551845323788
  0.4433294677272553  0.5933043064382785  0.9514845755812164
  0.8133720195232509  0.2935673660606135  0.8300072002680043
  0.7950528766539071  0.0609125651368650  0.6528381148696608
  0.5183981073566150  0.5073218160311558  0.7777583368510952
  0.5338852781041650  0.9821005786380929  0.9602586487226420
  0.7613290511763251  0.0550447765080661  0.0628220175605557
  0.3479261491701489  0.9722954133046195  0.5407145037584271
  0.7828382635215224  0.8962460838493307  0.8869173910280130
  0.3441314305007517  0.5300771876882996  0.7179309647718219
  0.0231488608107269  0.6808303428675597  0.2495222697074601
  0.3079375061635528  0.3574273919926224  0.6094925958343003
  0.1498573361674312  0.4933122633603754  0.2298069096804687
  0.2081604168431215  0.3736272406013001  0.8924855857279735
  0.6859697815388401  0.9499204330339270  0.7383613096268612
  0.8614386053877978  0.5972597929359218  0.1639439508282689
  0.9278599474745780  0.3348896689084079  0.4074405755636432
  0.1172104950989793  0.5580307443033120  0.4090036705562873
  0.3876416508717908 -0.0194431376390224  0.0430544086399853
  0.7293624903430651  0.7086854387247485  0.9292290926143768
  0.0783038500502822  0.8339976347659733  0.1715901203569762
  0.0931157721616355  0.0680329176924411  0.7773585092447829
  0.8916160759890612  0.4094631737467621  0.7270688425453584
  0.3828018531854037  0.3347494488709377  0.4330415838278566
  0.4349506372137751  0.5171357159983176  0.2657818607658213
  0.3282950226191939  0.6574776916961523  0.3717966855830892
  0.6130976960744061  0.1297869272189825  0.7227014979647043
  0.2478341557423678  0.7536337951738197  0.0487751375920235
  0.0815330975690834  0.8879914552389148  0.0100347757032271
  0.5996321862171787  0.4749224831555964  0.1071630859134982
  0.0396631422845736  0.5639714782002918  0.0887923972363367
  0.8799786116766235  0.3274556548287573 -0.0141487863530944
  0.6678949040448000  0.6678260797736535  0.3897265538283404
  0.5927655280285808  0.0012470438421515  0.4520098526351342
  0.5109101045134578  0.3463037454395591  0.2746433316414927
  0.7188440942180332  0.5969001664370969  0.7847668156996580
  0.9047267502342964  0.7857411628862179  0.9534773050215195
  0.9239423421380344  0.5968063475394864  0.9060318542915836
  0.2111600224214631  0.2828275085807633  0.1665728399574271
  0.8096952721452695  0.6950539807899623  0.6775172219396659
  0.0843583037409858  0.9957340973258609  0.2103529283655932
  0.7096880504519115  0.5170139916729974  0.6360315029977781
  0.3768815184821617  0.4197956663305141  0.9783952336123131
  0.4792571016224056  0.7126277700318497  0.8204718554652400
  0.0876750293808557  0.3191415997645922  0.0127682376588339
  0.8844882007598640  0.1275255182075374  0.3714456111237381
  0.9565688036931225  0.5068006694895905  0.3295822681661936
  0.6328866156628370  0.7713918276480589  0.7719173256203065
  0.4675985119449675  0.8011486062331341  0.2973669926397981
  0.1500270348881458  0.2526120576315841  0.5348961407848816
  0.2243261089105073  0.9879215061970814  0.1303391043580273
  0.8459133166447858  0.5699453048584737  0.5467492784505581
  0.7794612372149023  0.4420463432056776  0.2408596963379973
  0.5814878447084447  0.3204238263936427  0.4940548926527196
 
  0.00000000E+00  0.00000000E+00  0.00000000E+00
  0.00000000E+00  0.00000000E+00  0.00000000E+00
  0.00000000E+00  0.00000000E+00  0.00000000E+00
  0.00000000E+00  0.00000000E+00  0.00000000E+00
  0.00000000E+00  0.00000000E+00  0.00000000E+00
  0.00000000E+00  0.00000000E+00  0.00000000E+00
  0.00000000E+00  0.00000000E+00  0.00000000E+00
  0.00000000E+00  0.00000000E+00  0.00000000E+00
  0.00000000E+00  0.00000000E+00  0.00000000E+00
  0.00000000E+00  0.00000000E+00  0.00000000E+00
  0.00000000E+00  0.00000000E+00  0.00000000E+00
  0.00000000E+00  0.00000000E+00  0.00000000E+00
  0.00000000E+00  0.00000000E+00  0.00000000E+00
  0.00000000E+00  0.00000000E+00  0.00000000E+00
  0.00000000E+00  0.00000000E+00  0.00000000E+00
  0.00000000E+00  0.00000000E+00  0.00000000E+00
  0.00000000E+00  0.00000000E+00  0.00000000E+00
  0.00000000E+00  0.00000000E+00  0.00000000E+00
  0.00000000E+00  0.00000000E+00  0.00000000E+00
  0.00000000E+00  0.00000000E+00  0.00000000E+00
  0.00000000E+00  0.00000000E+00  0.00000000E+00
  0.00000000E+00  0.00000000E+00  0.00000000E+00
  0.00000000E+00  0.00000000E+00  0.00000000E+00
  0.00000000E+00  0.00000000E+00  0.00000000E+00
  0.00000000E+00  0.00000000E+00  0.00000000E+00
  0.00000000E+00  0.00000000E+00  0.00000000E+00
  0.00000000E+00  0.00000000E+00  0.00000000E+00
  0.00000000E+00  0.00000000E+00  0.00000000E+00
  0.00000000E+00  0.00000000E+00  0.00000000E+00
  0.00000000E+00  0.00000000E+00  0.00000000E+00
  0.00000000E+00  0.00000000E+00  0.00000000E+00
  0.00000000E+00  0.00000000E+00  0.00000000E+00
  0.00000000E+00  0.00000000E+00  0.00000000E+00
  0.00000000E+00  0.00000000E+00  0.00000000E+00
  0.00000000E+00  0.00000000E+00  0.00000000E+00
  0.00000000E+00  0.00000000E+00  0.00000000E+00
  0.00000000E+00  0.00000000E+00  0.00000000E+00
  0.00000000E+00  0.00000000E+00  0.00000000E+00
  0.00000000E+00  0.00000000E+00  0.00000000E+00
  0.00000000E+00  0.00000000E+00  0.00000000E+00
  0.00000000E+00  0.00000000E+00  0.00000000E+00
  0.00000000E+00  0.00000000E+00  0.00000000E+00
  0.00000000E+00  0.00000000E+00  0.00000000E+00
  0.00000000E+00  0.00000000E+00  0.00000000E+00
  0.00000000E+00  0.00000000E+00  0.00000000E+00
  0.00000000E+00  0.00000000E+00  0.00000000E+00
  0.00000000E+00  0.00000000E+00  0.00000000E+00
  0.00000000E+00  0.00000000E+00  0.00000000E+00
  0.00000000E+00  0.00000000E+00  0.00000000E+00
  0.00000000E+00  0.00000000E+00  0.00000000E+00
  0.00000000E+00  0.00000000E+00  0.00000000E+00
  0.00000000E+00  0.00000000E+00  0.00000000E+00
  0.00000000E+00  0.00000000E+00  0.00000000E+00
  0.00000000E+00  0.00000000E+00  0.00000000E+00
  0.00000000E+00  0.00000000E+00  0.00000000E+00
  0.00000000E+00  0.00000000E+00  0.00000000E+00
  0.00000000E+00  0.00000000E+00  0.00000000E+00
  0.00000000E+00  0.00000000E+00  0.00000000E+00
  0.00000000E+00  0.00000000E+00  0.00000000E+00
  0.00000000E+00  0.00000000E+00  0.00000000E+00
  0.00000000E+00  0.00000000E+00  0.00000000E+00
  0.00000000E+00  0.00000000E+00  0.00000000E+00
  0.00000000E+00  0.00000000E+00  0.00000000E+00
  0.00000000E+00  0.00000000E+00  0.00000000E+00
  0.00000000E+00  0.00000000E+00  0.00000000E+00
  0.00000000E+00  0.00000000E+00  0.00000000E+00
  0.00000000E+00  0.00000000E+00  0.00000000E+00
  0.00000000E+00  0.00000000E+00  0.00000000E+00
  0.00000000E+00  0.00000000E+00  0.00000000E+00
  0.00000000E+00  0.00000000E+00  0.00000000E+00
  0.00000000E+00  0.00000000E+00  0.00000000E+00
  0.00000000E+00  0.00000000E+00  0.00000000E+00
  0.00000000E+00  0.00000000E+00  0.00000000E+00
  0.00000000E+00  0.00000000E+00  0.00000000E+00
  0.00000000E+00  0.00000000E+00  0.00000000E+00
  0.00000000E+00  0.00000000E+00  0.00000000E+00
  0.00000000E+00  0.00000000E+00  0.00000000E+00
  0.00000000E+00  0.00000000E+00  0.00000000E+00
  0.00000000E+00  0.00000000E+00  0.00000000E+00
  0.00000000E+00  0.00000000E+00  0.00000000E+00
  0.00000000E+00  0.00000000E+00  0.00000000E+00
  0.00000000E+00  0.00000000E+00  0.00000000E+00
  0.00000000E+00  0.00000000E+00  0.00000000E+00
  0.00000000E+00  0.00000000E+00  0.00000000E+00
  0.00000000E+00  0.00000000E+00  0.00000000E+00
  0.00000000E+00  0.00000000E+00  0.00000000E+00
  0.00000000E+00  0.00000000E+00  0.00000000E+00
  0.00000000E+00  0.00000000E+00  0.00000000E+00
  0.00000000E+00  0.00000000E+00  0.00000000E+00
  0.00000000E+00  0.00000000E+00  0.00000000E+00
  0.00000000E+00  0.00000000E+00  0.00000000E+00
  0.00000000E+00  0.00000000E+00  0.00000000E+00
  0.00000000E+00  0.00000000E+00  0.00000000E+00
  0.00000000E+00  0.00000000E+00  0.00000000E+00
  0.00000000E+00  0.00000000E+00  0.00000000E+00
  0.00000000E+00  0.00000000E+00  0.00000000E+00
  0.00000000E+00  0.00000000E+00  0.00000000E+00
  0.00000000E+00  0.00000000E+00  0.00000000E+00
  0.00000000E+00  0.00000000E+00  0.00000000E+00
  0.00000000E+00  0.00000000E+00  0.00000000E+00
  0.00000000E+00  0.00000000E+00  0.00000000E+00
  0.00000000E+00  0.00000000E+00  0.00000000E+00
  0.00000000E+00  0.00000000E+00  0.00000000E+00
  0.00000000E+00  0.00000000E+00  0.00000000E+00
  0.00000000E+00  0.00000000E+00  0.00000000E+00
  0.00000000E+00  0.00000000E+00  0.00000000E+00
  0.00000000E+00  0.00000000E+00  0.00000000E+00
  0.00000000E+00  0.00000000E+00  0.00000000E+00
  0.00000000E+00  0.00000000E+00  0.00000000E+00
  0.00000000E+00  0.00000000E+00  0.00000000E+00
  0.00000000E+00  0.00000000E+00  0.00000000E+00
  0.00000000E+00  0.00000000E+00  0.00000000E+00
  0.00000000E+00  0.00000000E+00  0.00000000E+00
  0.00000000E+00  0.00000000E+00  0.00000000E+00
  0.00000000E+00  0.00000000E+00  0.00000000E+00
  0.00000000E+00  0.00000000E+00  0.00000000E+00
  0.00000000E+00  0.00000000E+00  0.00000000E+00
  0.00000000E+00  0.00000000E+00  0.00000000E+00
  0.00000000E+00  0.00000000E+00  0.00000000E+00
  0.00000000E+00  0.00000000E+00  0.00000000E+00
  0.00000000E+00  0.00000000E+00  0.00000000E+00
  0.00000000E+00  0.00000000E+00  0.00000000E+00
  0.00000000E+00  0.00000000E+00  0.00000000E+00
  0.00000000E+00  0.00000000E+00  0.00000000E+00
  0.00000000E+00  0.00000000E+00  0.00000000E+00
  0.00000000E+00  0.00000000E+00  0.00000000E+00
  0.00000000E+00  0.00000000E+00  0.00000000E+00
  0.00000000E+00  0.00000000E+00  0.00000000E+00
  0.00000000E+00  0.00000000E+00  0.00000000E+00
  0.00000000E+00  0.00000000E+00  0.00000000E+00
  0.00000000E+00  0.00000000E+00  0.00000000E+00
  0.00000000E+00  0.00000000E+00  0.00000000E+00
  0.00000000E+00  0.00000000E+00  0.00000000E+00
  0.00000000E+00  0.00000000E+00  0.00000000E+00
  0.00000000E+00  0.00000000E+00  0.00000000E+00
  0.00000000E+00  0.00000000E+00  0.00000000E+00
  0.00000000E+00  0.00000000E+00  0.00000000E+00
  0.00000000E+00  0.00000000E+00  0.00000000E+00
  0.00000000E+00  0.00000000E+00  0.00000000E+00
  0.00000000E+00  0.00000000E+00  0.00000000E+00
  0.00000000E+00  0.00000000E+00  0.00000000E+00
  0.00000000E+00  0.00000000E+00  0.00000000E+00
  0.00000000E+00  0.00000000E+00  0.00000000E+00
  0.00000000E+00  0.00000000E+00  0.00000000E+00
  0.00000000E+00  0.00000000E+00  0.00000000E+00
  0.00000000E+00  0.00000000E+00  0.00000000E+00
  0.00000000E+00  0.00000000E+00  0.00000000E+00
  0.00000000E+00  0.00000000E+00  0.00000000E+00
  0.00000000E+00  0.00000000E+00  0.00000000E+00
  0.00000000E+00  0.00000000E+00  0.00000000E+00
  0.00000000E+00  0.00000000E+00  0.00000000E+00
  0.00000000E+00  0.00000000E+00  0.00000000E+00
  0.00000000E+00  0.00000000E+00  0.00000000E+00
  0.00000000E+00  0.00000000E+00  0.00000000E+00
  0.00000000E+00  0.00000000E+00  0.00000000E+00
  0.00000000E+00  0.00000000E+00  0.00000000E+00
  0.00000000E+00  0.00000000E+00  0.00000000E+00
  0.00000000E+00  0.00000000E+00  0.00000000E+00
  0.00000000E+00  0.00000000E+00  0.00000000E+00
  0.00000000E+00  0.00000000E+00  0.00000000E+00
  0.00000000E+00  0.00000000E+00  0.00000000E+00
  0.00000000E+00  0.00000000E+00  0.00000000E+00
  0.00000000E+00  0.00000000E+00  0.00000000E+00
  0.00000000E+00  0.00000000E+00  0.00000000E+00
  0.00000000E+00  0.00000000E+00  0.00000000E+00
  0.00000000E+00  0.00000000E+00  0.00000000E+00
  0.00000000E+00  0.00000000E+00  0.00000000E+00
  0.00000000E+00  0.00000000E+00  0.00000000E+00
  0.00000000E+00  0.00000000E+00  0.00000000E+00
  0.00000000E+00  0.00000000E+00  0.00000000E+00
  0.00000000E+00  0.00000000E+00  0.00000000E+00
  0.00000000E+00  0.00000000E+00  0.00000000E+00
  0.00000000E+00  0.00000000E+00  0.00000000E+00
  0.00000000E+00  0.00000000E+00  0.00000000E+00
  0.00000000E+00  0.00000000E+00  0.00000000E+00
  0.00000000E+00  0.00000000E+00  0.00000000E+00
  0.00000000E+00  0.00000000E+00  0.00000000E+00
  0.00000000E+00  0.00000000E+00  0.00000000E+00
  0.00000000E+00  0.00000000E+00  0.00000000E+00
  0.00000000E+00  0.00000000E+00  0.00000000E+00
  0.00000000E+00  0.00000000E+00  0.00000000E+00
  0.00000000E+00  0.00000000E+00  0.00000000E+00
  0.00000000E+00  0.00000000E+00  0.00000000E+00
  0.00000000E+00  0.00000000E+00  0.00000000E+00
  0.00000000E+00  0.00000000E+00  0.00000000E+00
  0.00000000E+00  0.00000000E+00  0.00000000E+00
  0.00000000E+00  0.00000000E+00  0.00000000E+00
  0.00000000E+00  0.00000000E+00  0.00000000E+00
  0.00000000E+00  0.00000000E+00  0.00000000E+00
  0.00000000E+00  0.00000000E+00  0.00000000E+00
  0.00000000E+00  0.00000000E+00  0.00000000E+00
  0.00000000E+00  0.00000000E+00  0.00000000E+00
  0.00000000E+00  0.00000000E+00  0.00000000E+00
  0.00000000E+00  0.00000000E+00  0.00000000E+00
  0.00000000E+00  0.00000000E+00  0.00000000E+00
  0.00000000E+00  0.00000000E+00  0.00000000E+00
  0.00000000E+00  0.00000000E+00  0.00000000E+00
  0.00000000E+00  0.00000000E+00  0.00000000E+00
  0.00000000E+00  0.00000000E+00  0.00000000E+00
  0.00000000E+00  0.00000000E+00  0.00000000E+00
  0.00000000E+00  0.00000000E+00  0.00000000E+00
  0.00000000E+00  0.00000000E+00  0.00000000E+00
  0.00000000E+00  0.00000000E+00  0.00000000E+00
  0.00000000E+00  0.00000000E+00  0.00000000E+00
  0.00000000E+00  0.00000000E+00  0.00000000E+00
  0.00000000E+00  0.00000000E+00  0.00000000E+00
  0.00000000E+00  0.00000000E+00  0.00000000E+00
  0.00000000E+00  0.00000000E+00  0.00000000E+00
  0.00000000E+00  0.00000000E+00  0.00000000E+00
  0.00000000E+00  0.00000000E+00  0.00000000E+00
  0.00000000E+00  0.00000000E+00  0.00000000E+00
  0.00000000E+00  0.00000000E+00  0.00000000E+00
  0.00000000E+00  0.00000000E+00  0.00000000E+00
  0.00000000E+00  0.00000000E+00  0.00000000E+00
  0.00000000E+00  0.00000000E+00  0.00000000E+00
  0.00000000E+00  0.00000000E+00  0.00000000E+00
  0.00000000E+00  0.00000000E+00  0.00000000E+00
  0.00000000E+00  0.00000000E+00  0.00000000E+00
  0.00000000E+00  0.00000000E+00  0.00000000E+00
  0.00000000E+00  0.00000000E+00  0.00000000E+00
  0.00000000E+00  0.00000000E+00  0.00000000E+00
  0.00000000E+00  0.00000000E+00  0.00000000E+00
  0.00000000E+00  0.00000000E+00  0.00000000E+00
  0.00000000E+00  0.00000000E+00  0.00000000E+00
  0.00000000E+00  0.00000000E+00  0.00000000E+00
  0.00000000E+00  0.00000000E+00  0.00000000E+00
  0.00000000E+00  0.00000000E+00  0.00000000E+00
  0.00000000E+00  0.00000000E+00  0.00000000E+00
  0.00000000E+00  0.00000000E+00  0.00000000E+00
  0.00000000E+00  0.00000000E+00  0.00000000E+00
  0.00000000E+00  0.00000000E+00  0.00000000E+00
  0.00000000E+00  0.00000000E+00  0.00000000E+00