                                        
   1.00000000000000     
     5.8013000487999999    0.0000000000000000    0.0000000000000000
     0.0000000000000000    5.8013000487999999    0.0000000000000000
     0.0000000000000000    0.0000000000000000   19.0569992064999987
   Ge   Cr
    28    16
Direct
  0.1625293760212266  0.6882416910826127  0.1794368755010707
  0.8374706239787734  0.3117583089173874  0.1794368755010707
  0.6882416910826127  0.8374706239787734  0.8205630864989334
  0.3117583089173874  0.1625293760212266  0.8205630864989334
  0.1625293760212266  0.3117583089173874  0.6794369135010666
  0.8374706239787734  0.6882416910826127  0.6794369135010666
  0.6882416910826127  0.1625293760212266  0.3205631114989318
  0.3117583089173874  0.8374706239787734  0.3205631114989318
  0.2113696054240962  0.1594711799649673  0.1082825108873691
  0.7886303945759037  0.8405288720350298  0.1082825108873691
  0.1594711799649673  0.7886303945759037  0.8917174891126310
  0.8405288720350298  0.2113696054240962  0.8917174891126310
  0.2113696054240962  0.8405288720350298  0.6082825608873731
  0.7886303945759037  0.1594711799649673  0.6082825608873731
  0.1594711799649673  0.2113696054240962  0.3917174891126309
  0.8405288720350298  0.7886303945759037  0.3917174891126309
  0.3411153273292073  0.2370754424329300  0.5361714192447382
  0.6588846526707912  0.7629245375670685  0.5361714192447382
  0.2370754424329300  0.6588846526707912  0.4638285807552618
  0.7629245375670685  0.3411153273292073  0.4638285807552618
  0.3411153273292073  0.7629245375670685  0.0361714062447406
  0.6588846526707912  0.2370754424329300  0.0361714062447406
  0.2370754424329300  0.3411153273292073  0.9638286307552659
  0.7629245375670685  0.6588846526707912  0.9638286307552659
  0.3285932093594396  0.3285932093594396  0.2500000000000000
  0.6714067906405604  0.6714067906405604  0.2500000000000000
  0.3285932093594396  0.6714067906405604  0.7500000000000000
  0.6714067906405604  0.3285932093594396  0.7500000000000000
  0.0000000000000000  0.5000000000000000  0.0652568070162768
  0.5000000000000000  0.0000000000000000  0.9347431679837249
  0.0000000000000000  0.5000000000000000  0.5652568320162751
  0.5000000000000000  0.0000000000000000  0.4347431679837246
  0.0000000000000000  0.5000000000000000  0.3094984463584045
  0.5000000000000000  0.0000000000000000  0.6905015286415971
  0.0000000000000000  0.5000000000000000  0.8094984713584029
  0.5000000000000000  0.0000000000000000  0.1905015536415956
  0.5000000000000000  0.5000000000000000  0.1289239544372799
  0.5000000000000000  0.5000000000000000  0.8710759955627231
  0.5000000000000000  0.5000000000000000  0.6289239544372799
  0.5000000000000000  0.5000000000000000  0.3710760455627202
  0.0000000000000000  0.0000000000000000  0.0000000000000000
  0.0000000000000000  0.0000000000000000  0.5000000000000000
  0.0000000000000000  0.0000000000000000  0.2500000000000000
  0.0000000000000000  0.0000000000000000  0.7500000000000000
 
  0.00000000E+00  0.00000000E+00  0.00000000E+00
  0.00000000E+00  0.00000000E+00  0.00000000E+00
  0.00000000E+00  0.00000000E+00  0.00000000E+00
  0.00000000E+00  0.00000000E+00  0.00000000E+00
  0.00000000E+00  0.00000000E+00  0.00000000E+00
  0.00000000E+00  0.00000000E+00  0.00000000E+00
  0.00000000E+00  0.00000000E+00  0.00000000E+00
  0.00000000E+00  0.00000000E+00  0.00000000E+00
  0.00000000E+00  0.00000000E+00  0.00000000E+00
  0.00000000E+00  0.00000000E+00  0.00000000E+00
  0.00000000E+00  0.00000000E+00  0.00000000E+00
  0.00000000E+00  0.00000000E+00  0.00000000E+00
  0.00000000E+00  0.00000000E+00  0.00000000E+00
  0.00000000E+00  0.00000000E+00  0.00000000E+00
  0.00000000E+00  0.00000000E+00  0.00000000E+00
  0.00000000E+00  0.00000000E+00  0.00000000E+00
  0.00000000E+00  0.00000000E+00  0.00000000E+00
  0.00000000E+00  0.00000000E+00  0.00000000E+00
  0.00000000E+00  0.00000000E+00  0.00000000E+00
  0.00000000E+00  0.00000000E+00  0.00000000E+00
  0.00000000E+00  0.00000000E+00  0.00000000E+00
  0.00000000E+00  0.00000000E+00  0.00000000E+00
  0.00000000E+00  0.00000000E+00  0.00000000E+00
  0.00000000E+00  0.00000000E+00  0.00000000E+00
  0.00000000E+00  0.00000000E+00  0.00000000E+00
  0.00000000E+00  0.00000000E+00  0.00000000E+00
  0.00000000E+00  0.00000000E+00  0.00000000E+00
  0.00000000E+00  0.00000000E+00  0.00000000E+00
  0.00000000E+00  0.00000000E+00  0.00000000E+00
  0.00000000E+00  0.00000000E+00  0.00000000E+00
  0.00000000E+00  0.00000000E+00  0.00000000E+00
  0.00000000E+00  0.00000000E+00  0.00000000E+00
  0.00000000E+00  0.00000000E+00  0.00000000E+00
  0.00000000E+00  0.00000000E+00  0.00000000E+00
  0.00000000E+00  0.00000000E+00  0.00000000E+00
  0.00000000E+00  0.00000000E+00  0.00000000E+00
  0.00000000E+00  0.00000000E+00  0.00000000E+00
  0.00000000E+00  0.00000000E+00  0.00000000E+00
  0.00000000E+00  0.00000000E+00  0.00000000E+00
  0.00000000E+00  0.00000000E+00  0.00000000E+00
  0.00000000E+00  0.00000000E+00  0.00000000E+00
  0.00000000E+00  0.00000000E+00  0.00000000E+00
  0.00000000E+00  0.00000000E+00  0.00000000E+00
  0.00000000E+00  0.00000000E+00  0.00000000E+00
