GeSe                                    
   1.00000000000000     
    20.1278870000000012    0.0000000000000000    0.0000000000000000
     0.0000000000000000   20.1278870000000012    0.0000000000000000
     0.0000000000000000    0.0000000000000000   20.1278870000000012
   Ge   Se
   150   150
Direct
  0.9075620935452697  0.0431529397888348  0.1037645861069630
  0.7700115601252780  0.5859417444242037  0.5739594374795851
  0.9643177727960245  0.6633320177180352  0.0866013755383283
  0.2552870579801867  0.9114975141197021  0.6115111270111363
  0.8552364778122424  0.7656522270544045  0.8628934891299104
  0.4320461918655414  0.9220122339570288  0.4512427202646632
  0.2339421792478064 -0.0032855637754066 -0.0273820954288968
  0.7532921596326360  0.5558962951145546  0.0761564687369642
  0.7631249448596543  0.2709646447293321  0.8300049640608088
  0.0180498282475009  0.3528836632830386  0.0807192261173689
  0.3199145299913875  0.0984102332663248  0.3288072037844463
  0.0905844388600361  0.6616622108412161  0.8339270440111292
  0.6556801514328224  0.4493844691533764  0.7349799253673777
  0.4933934323930916  0.2741971205655383  0.4803435312122795
  0.1282616525248263  0.1495182618069073  0.4914128188186804
  0.3420049926690184  0.0182783723522688  0.6677606216246930
  0.9823738972585926  0.5998180205468395  0.5989727189576798
  0.0866953410562770  0.2164383541829074  0.7491923806921376
  0.5646954474419609  0.7793066163865277  0.6720945959787734
  0.2717703230899160  0.8302702245702562  0.9570188531077208
  0.8569455866095717  0.4894845187663547  0.0917141180217098
  0.1997842143538049  0.3994403095984081  0.5149044535788208
  0.7149366032942134  0.8668367676955741  0.6089418337062641
  0.0496529018211761  0.9286410505766385  0.5766518189416869
  0.4246308735350339 -0.0132319350242223  0.3368112790194187
  0.3486695673254659  0.6228505639003482  0.9531677719453927
  0.5930415231913063  0.0334791602023816  0.0542398694513147
  0.1501542085069970  0.1782855648047748  0.1202944522184810
  0.6665003231771466  0.3743142780964077  0.8397168769546410
  0.7248869640888901  0.6655668940177898  0.0076966349613798
  0.4226304433131906  0.2176694576009886  0.3243993890140168
  0.0792372061466439  0.0765264304844007  0.0450481166853167
  0.6370255733806907  0.7428569571296291  0.8540703710744127
  0.5808179588459299 -0.0294842143850147  0.6572167882572180
  0.7361963387076047  0.7031679588771138  0.5241523421051839
  0.8868692044675318  0.4746478708994326  0.7900133121241674
  0.9456585580897554  0.2081295371892857  0.5219946559980398
  0.5686176066006411  0.1367325524039751  0.6156840807201122
  0.5408019135835330  0.1501275942611366  0.0123516992501473
  0.5308136180003826  0.7088222427041260  0.0919038613289723
  0.9043578791927394  0.5663112985121380  0.9192471271072088
  0.5781492463836921  0.2015456105099965  0.7803735039194745
  0.9786858645849112  0.7999264933968577  0.9841905438693771
  0.2998256722989835  0.1845240434998073  0.2222966651516320
  0.3453150459548140  0.0396526085818316  0.4773146972462683
  0.7691889092443223  0.8879735666645554  0.7647827085893389
  0.6033792252310353  0.0001373383990967  0.2374077767500944
  0.8424207379665154  0.6850087793099264  0.7281038395066390
  0.0288182257144232  0.0381096943759031  0.7041179835282003
  0.6231655133492059  0.5834145421107503  0.4182468342146308
  0.3528230211509362  0.4856011075023074  0.3797280708641140
  0.1916379198101983  0.3878537965828229  0.0262181640015033
  0.6123516934002687  0.8585980118556146  0.1203747644706749
  0.2870286963134023  0.8795231341413745  0.2786833692648796
  0.7385602837775206  0.9583904290319161  0.0640348398429589
  0.6149539458559899  0.4221476047025104  0.5599561418059423
  0.5355277621431119  0.3531052806230061  0.9370753511924480
  0.5613078436227890  0.5628121286596693  0.9159681698238435
  0.0942429029996218  0.6101618923676430  0.1482121894455004
  0.8795868275136595  0.2521452588549151  0.3683416079503369
 -0.0117995575289138  0.7984604427527688  0.7598962974469543
  0.2414565682244105  0.5519146392549495  0.6380919333571187
  0.8593121446104105  0.8759130256997789  0.3995812388630412
  0.9153517337643351  0.2283543149436588  0.0715132222650314
  0.3892566021688763  0.1302911676631352  0.8382735213707487
  0.4527931964164939  0.1002212641056517  0.6554882299090867
  0.5159774174525452  0.0921420269300329  0.4284199543261972
  0.0322486927034339  0.0315309429395102  0.2608291596769267
  0.5517807503573899  0.7431624096105731  0.2870939876817011
  0.0439875175769828  0.7584337960332778  0.4956023558366743
  0.3431152056873708  0.1396513535317249  0.9935949859304768
  0.4897835221649980  0.4393473695639277  0.5982567782593380
  0.5086402978241660  0.6360806713268999  0.8021223392738381
  0.4243494015323039  0.6349727957333526  0.1070669526930844
  0.4347341763151242  0.0271675129498864  0.9575808638675615
  0.1201524501651428  0.3931732198438911  0.7544925184122740
  0.3747978718869625  0.1773194020714149  0.5926063857041463
  0.8129967714159079  0.9993908322974148  0.2169448544427136
  0.1993879276531885  0.7672506535967349  0.2725683991078461
  0.7275183958720322  0.3995752014884758  0.2136577804286876
  0.9514343665570597  0.3708565366513266  0.1916332085190389
  0.4503934591043070  0.4124455813003993  0.1898622304579419
  0.3555097070932335  0.0382503878037193  0.1931728653138098
  0.2758795597907775  0.3430975674670838  0.8871309245603969
  0.7065377821684592  0.2695942055008330  0.6865940423008203
  0.1555105027834849  0.7464436033404734  0.9718769482639077
  0.8043406505262130  0.8036232481574211  0.0806033540561504
  0.7646728700865394  0.0190243554641708  0.4457920614053163
  0.9113068300634489  0.5278247268416251  0.4853935285005161
  0.9629767741035877  0.4966378333067957  0.6724967480937611
  0.8535310995639750  0.8093351372918990  0.7199634591947045
  0.1527210062170631  0.2655609106500579 -0.0045379966624158
  0.5125253617784894  0.4130958169444850  0.3061220277746405
  0.0152626214745992  0.5709984137445228  0.3336670266351934
  0.6871543414523708  0.1539833489165398  0.1123542253061165
  0.4146435298462484  0.7100647930060938  0.7375656022791995
  0.0776509333334440  0.8535108338538567  0.1279654842741117
  0.1147560347774328  0.8517042445805851  0.8998756161479211
  0.4569986013729640  0.6452022082658907  0.3943456798791233
  0.9245788288491578  0.2411738954344110  0.8271532947228443
  0.3241206879277629  0.2898299543055849  0.6337143874988522
  0.1950438688492650  0.7333086115195323  0.6570534269445514
  0.5052859287811710  0.5762869803549131  0.5500265318742901
  0.0329738512413891  0.4018958894306682  0.4058446958076519
  0.9694153279242254  0.7249620072552964  0.2606982623904144
  0.7989850770752300  0.1270549587127544  0.9505234640403413
  0.9381662300104526  0.3076900560822446  0.6489123519997443
  0.2804768875159254  0.7260183547005704  0.1444422003653288
  0.3100765477636147  0.6188226337671663  0.4993619805612519
  0.7132258344618743  0.0591037401241395  0.5689076932503931
  0.2508926906717949  0.5418065225805230  0.8014666125898398
  0.2093371224468063  0.4591235931349721  0.3344187455737639
  0.9012831350409339  0.3832019380471018  0.9514966233075783
  0.8662106612404556  0.0600530804210680  0.8368710633533140
  0.3541434945441451  0.5258568632781716  0.5760280562164352
  0.5764728691872929  0.2913490540581846  0.1529695432135459
  0.7805213461906467  0.2513193900906755  0.4995681682546206
  0.3375920615564438  0.8719622171323125  0.7737838366506158
  0.5525580156995678  0.0162775640038046  0.8465493766432216
  0.2347858793733788  0.1767835156795393  0.6887206775449560
  0.6219769114459645  0.5815708769518118  0.1631391880081344
  0.0551461074714873  0.9613709938678585 -0.0100123547623948
  0.8112840010059585  0.5663028500481643  0.2769278557924565
  0.0297176353294599  0.4179223670626886  0.9498470738181712
  0.6780941861078461  0.2686479942171015  0.4206208965353684
  0.3672620633239239  0.9284649552498337  0.1247173553871868
  0.2866329156465570  0.2726788499338856  0.4210078612840115
  0.9819643673446761  0.2113477993029581  0.2581694570722553
  0.4533914070915153  0.5818415611382145  0.2674791248043593
  0.3741329490447090  0.4195250418634464  0.7337161721961771
  0.1327320912976239  0.5695656252005192  0.7105188460674713
  0.1319359312870056  0.2142810527163792  0.2970828644937438
  0.4366611906554391  0.4454400722386809  0.9004198454620274
  0.7975315005311374  0.5884431399625598  0.8022817416564860
  0.4158989412641665  0.7960319073603729  0.5597837877723918
  0.8290064450634999  0.9494664318141598  0.9176250817182460
  0.6039823642618375  0.1276560850662143  0.2494686479183292
  0.1192786145147609  0.4371288279951115  0.2408108468146560
  0.0338470061837041  0.1851172793480258  0.8623896231258861
  0.8436412994999050  0.9800397079431861  0.5927227491699335
  0.6132038009153480  0.2527015820455191 -0.0186967890670911
  0.4796104271624974  0.8822961471779905  0.1626092136649969
  0.2980418151376272  0.4412529907828946  0.0626926404534972
  0.7696983809148639  0.4208302638487299  0.4035852648137676
  0.1676632066722770  0.5737039917351816  0.0096713706430901
  0.1060288016716849  0.8797511766605630  0.3799570265270100
  0.8643365864759157  0.8419457631337141  0.2364400621720323
  0.8668648609223701  0.8526506924327614  0.6033374762819400
  0.4560591110986896  0.8245829488725981  0.8843443463169146
  0.2407967679199756  0.7791074922463006  0.4882600264223261
  0.8477681730412321  0.3739256967822341  0.0611487249768208
  0.0757547078209250  0.0475567615523089  0.4433077270477854
  0.6467764176482872  0.3916159474073253  0.4438156711398674
  0.6120836113337476  0.6854177880843393  0.7431080091864840
  0.5506153422282422 -0.0143993972612664  0.3514608734357643
  0.3538075484932595  0.7249878501104794  0.0331362655640044
  0.4527600106124490  0.1886988107192623  0.7439292750338790
  0.9473080993007819  0.8531778782024366  0.8733664475003639
  0.4410644866067708  0.3333439351479828  0.3761639775750607
  0.2561692002055863  0.0024793513755228  0.2671814233259827
  0.2207561201033103  0.9145340139887457  0.8705054878992975
  0.5497431885362419  0.6699241054633376  0.4753976857974350
  0.2186452321742227  0.1679282735900629  0.3858579662701220
  0.2104884091110761  0.2685832747956052  0.2136867734903968
  0.8580265172040381  0.2691763461486630  0.9270011997773058
  0.1571806869084270  0.7342015527315540  0.0941316664296170
  0.3037821479916873  0.8082111461118058  0.6653590471894528
  0.5538560673644183  0.3245188549254646  0.8138894540868741
  0.1090979157379866  0.5077307077714327  0.3949529113764737
  0.4539258861156902  0.0089238011953201  0.5360120408991790
  0.5885679475161938  0.2523357917537506  0.6461325135438636
  0.6454611537466820  0.0760738316979042  0.6887185454475446
  0.2587855547785606  0.2259994298553082  0.9396907768700485
  0.6183786716221520  0.1283898812727292  0.5036839175358867
  0.2460404598529025  0.4414449614280225  0.7141224159096204
  0.2893121589111777  0.1153946107295067  0.1150169099265571
  0.2874440784789341  0.0867987297731648  0.7592447739712828
  0.0672137526434145  0.3097779749958046  0.6729853032834250
  0.1214961906174846  0.7781751213858533  0.7964906964179294
  0.5155505200485798  0.7126705822685546  0.9017404662248254
  0.2022567716985685  0.5861493828777854  0.2087473598581825
  0.5394233266498202  0.1767275510498378  0.1567875069062346
  0.3391224073142915  0.7764372018596380  0.8604184657075662
  0.8404337437141143  0.1712421740599850  0.7746792786659292
  0.1641022776918728  0.9187288044303682  0.0403511651720356
  0.8215278986748775  0.4649208831348917  0.9083246841376149
  0.2029987955943476  0.6661927871826051  0.5409573996770437
  0.8812751569291214  0.2717239718733562  0.2028009389234268
  0.0687340634946007  0.6622725001187798  0.6592761704715543
  0.4936201237956304  0.5246971953371830  0.1597141623136475
  0.4710240644461552  0.6986670981370307  0.6262952736045257
  0.9855453453681509  0.8179686152757385  0.5968353024968750
  0.0378899099197646  0.2397904169123014  0.1374966845714889
  0.2842982011780611  0.0876032518542946  0.5768979585988099
  0.9207114641150258  0.6294439158831762  0.1951793099788094
  0.8772304497624567  0.6635179554929967  0.6118985198907553
  0.9482651948231676  0.8047049423560561  0.1565324745840858
  0.3089273664265467  0.9122903748390665  0.4916447398430859
 -0.0048201782554684  0.0861099827530054  0.3660039153193881
  0.7504083606452289  0.8597705759157788  0.8801441458629026
  0.3776932397897878  0.5203398647716297  0.8165612799363722
  0.6059637787489970  0.3413838160850272  0.2578337438290641
  0.9305115710304376  0.4779833161136251  0.3721053697343839
  0.8736196880443046  0.7255337674429955  0.9899514169103671
  0.1124753391625366  0.4294849485203172  0.1126281394192465
  0.1169015506948154  0.8588156969841847  0.2493939905615713
  0.9566887293932217  0.0378956906924520  0.6061629748511679
  0.4225094933426224  0.0038208768986854  0.8331299282467697
  0.5197687465796177  0.8177167389578519  0.0402484167623257
  0.6254292947420130  0.4449468286908502  0.9340377713972041
  0.0455685256774200  0.2361510192093098  0.4560879365947742
  0.9944772341062416  0.5019106925358563  0.8517038295327706
  0.1974131644339259  0.2544389890833625  0.7792109491289883
  0.5526501597949073  0.1867355951242520  0.3430873315309956
  0.9923706403555429  0.6333466630667156  0.4816935164763179
  0.6417105678996013  0.7753635244849811  0.3698292866179878
  0.8811022566528047  0.9856020753822261  0.4682487354107228
  0.2872346200528793  0.6376081924158663  0.7191688514078701
  0.6189948408031933  0.7426190960501446  0.1723491141627482
  0.4137178890043312  0.8764484158050380  0.2812804508005463
  0.2899545831455019  0.5922068754700808  0.3836598184011245
  0.6725318841660283  0.4713665090969480  0.1152459150040712
  0.6336007198372420  0.5434840887776771  0.5558633457924854
  0.4570749908851722  0.5415685627244783  0.9822177017194182
  0.7984971028055525  0.5648031855541762  0.4523566948790299
 -0.0051265133314131  0.8319402082072799  0.4075765440483831
  0.8867788958087369  0.3164383998975348  0.4772089685214336
  0.3290425749434241  0.4177314035533847  0.1752484098439198
  0.7118519796671766  0.6832145794357797  0.3995731066847569
  0.6432844210795768  0.7726975121125976  0.5672234404329123
  0.8131772049288699  0.8005195987321811  0.5051975718112446
  0.5420080225542371  0.9600834228258530  0.9623757462435253
  0.3991417511154583  0.1875224171007638  0.4730144966621487
  0.9952579100090195  0.0614902067075762  0.8175092950210698
  0.7188865766801723  0.5522453805766337  0.7160912372858257
  0.0257170874802359  0.9825358363824926  0.1145533455213347
  0.7883855622697774  0.2134860350459094  0.6144127205950720
  0.1231890841249991  0.6573095272258804  0.2647862013754972
  0.6935121182104024  0.1925815116928907  0.9058100654652838
  0.1707339215365034  0.4707148651511406  0.9382826663972949
  0.5751242642567591  0.6184386174936725  0.2934196721512686
  0.7058610631368496  0.6353033997428176  0.8853716740665712
  0.4145291530304836  0.6923235074757325  0.2174140741195557
  0.5253663439257837  0.1321794747880107  0.8883046788548054
  0.3616049791774708  0.3811134084430490  0.9795000117492783
  0.7087273722033675  0.3896798803638854  0.6390943852586461
  0.8531761777411115  0.7514050850333929  0.3105053206389873
  0.9206549319123368  0.4165540166366434  0.5926971545883322
  0.9325838703197605  0.1003613120897058  0.2200716947383297
  0.9035128367103280  0.9433894173176185  0.2876665052641922
  0.3774851059922263  0.3267140633783898  0.8167735343534422
  0.0829621473224481  0.4697704525620222  0.6553879790470593
  0.4364149259101958  0.2146972127288871  0.0169952043839551
  0.0799857548494351  0.3136868006746541  0.8959760772022377
  0.7497472253215732  0.6239011309986456  0.1786491789353749
  0.7133576319476836  0.4851640254742630  0.3069843258049027
  0.6444153693774058  0.9536431711229469  0.5474523110678494
  0.0441552823814262  0.6923428202622293  0.9510603432711351
  0.0294089211628647  0.5159980402002148  0.2199155887505778
  0.8074961852613168  0.0001339970448101  0.7422160236804386
  0.7371650975757444  0.0295434861376377  0.3182185008105843
  0.9632246035763564  0.1173075639661072  0.0132781136587464
  0.9474178465072643  0.6811210309484527  0.7977643763060519
  0.8094652767480232  0.1487954357815983  0.0758446174657635
  0.0864511682722177  0.9357950230069387  0.6988392488793818
  0.6957517954989689  0.8438633350781436  0.0246412606846289
  0.8941420121344366  0.3439311957989313  0.7637757391281177
  0.8591371903586302  0.9133559998843397  0.0367376303050782
  0.2905880738422376  0.5633498934002307  0.0551523331867734
  0.5027267158445905  0.8310136669587492  0.4741917037611199
  0.7174096813200804  0.1663598582300614  0.2326684614425163
  0.6513671087006438  0.8841194094968130  0.7254698513915855
  0.8384495689623891  0.1576768568488198  0.4426525351984548
  0.6788112556068892  0.2822765138283876  0.0858297335722434
  0.7272420281904366  0.0221384367706724  0.9508136598226977
  0.1572290132857991  0.8378148860043599  0.5697581219796349
  0.1789471859297603  0.3527652155674876  0.3979130620130478
  0.3483081799423862  0.9345782808058384 -0.0009230148048304
  0.5366992541198502  0.4706175299236732  0.7087069863509690
  0.8589653428365005  0.4600343137694609  0.2103680055851076
  0.7652381594275111  0.3057007351003442  0.3362714460292874
  0.3212712780469945  0.4375806434221825  0.4945636740345840
  0.0354235963307061  0.3517914967454198  0.2845329743637572
  0.7285931458312358  0.9211910957963082  0.3730215853522098
  0.5062138841525629  0.0102159458136571  0.1490826659116060
  0.6060092748325938  0.6238290660429008  0.0270943055383624
  0.2387065991988958  0.2795211871394339  0.5406353079654413
  0.3725662992466089  0.7188951750688036  0.4671288936780790
  0.2067277636920668  0.6474370573308171  0.9126723155272044
  0.4420586300008877  0.3195673752686611  0.5893364994771754
  0.9570978856456255  0.5380170237591254  0.0409002444184667
  0.1565686611524309  0.7607093848358653  0.3933767792721047
  0.4658544242709423  0.5249460843652740  0.4331859922198739
  0.3976836547527242  0.2565552399424351  0.2130817513923713
  0.1328917847394667  0.1097304475907297  0.2261262809909588
  0.2733488676125937  0.8570001199430348  0.1541673019675787
  0.4622154293842046  0.8322447484391872  0.7568135448119878
  0.7592077592083470  0.8805821709120022  0.1953873964867358
  0.5001754587025895  0.3577960179147944  0.0919120628588341
  0.1057741491947027  0.1281124425936271  0.6650207104727087
 
  0.00000000E+00  0.00000000E+00  0.00000000E+00
  0.00000000E+00  0.00000000E+00  0.00000000E+00
  0.00000000E+00  0.00000000E+00  0.00000000E+00
  0.00000000E+00  0.00000000E+00  0.00000000E+00
  0.00000000E+00  0.00000000E+00  0.00000000E+00
  0.00000000E+00  0.00000000E+00  0.00000000E+00
  0.00000000E+00  0.00000000E+00  0.00000000E+00
  0.00000000E+00  0.00000000E+00  0.00000000E+00
  0.00000000E+00  0.00000000E+00  0.00000000E+00
  0.00000000E+00  0.00000000E+00  0.00000000E+00
  0.00000000E+00  0.00000000E+00  0.00000000E+00
  0.00000000E+00  0.00000000E+00  0.00000000E+00
  0.00000000E+00  0.00000000E+00  0.00000000E+00
  0.00000000E+00  0.00000000E+00  0.00000000E+00
  0.00000000E+00  0.00000000E+00  0.00000000E+00
  0.00000000E+00  0.00000000E+00  0.00000000E+00
  0.00000000E+00  0.00000000E+00  0.00000000E+00
  0.00000000E+00  0.00000000E+00  0.00000000E+00
  0.00000000E+00  0.00000000E+00  0.00000000E+00
  0.00000000E+00  0.00000000E+00  0.00000000E+00
  0.00000000E+00  0.00000000E+00  0.00000000E+00
  0.00000000E+00  0.00000000E+00  0.00000000E+00
  0.00000000E+00  0.00000000E+00  0.00000000E+00
  0.00000000E+00  0.00000000E+00  0.00000000E+00
  0.00000000E+00  0.00000000E+00  0.00000000E+00
  0.00000000E+00  0.00000000E+00  0.00000000E+00
  0.00000000E+00  0.00000000E+00  0.00000000E+00
  0.00000000E+00  0.00000000E+00  0.00000000E+00
  0.00000000E+00  0.00000000E+00  0.00000000E+00
  0.00000000E+00  0.00000000E+00  0.00000000E+00
  0.00000000E+00  0.00000000E+00  0.00000000E+00
  0.00000000E+00  0.00000000E+00  0.00000000E+00
  0.00000000E+00  0.00000000E+00  0.00000000E+00
  0.00000000E+00  0.00000000E+00  0.00000000E+00
  0.00000000E+00  0.00000000E+00  0.00000000E+00
  0.00000000E+00  0.00000000E+00  0.00000000E+00
  0.00000000E+00  0.00000000E+00  0.00000000E+00
  0.00000000E+00  0.00000000E+00  0.00000000E+00
  0.00000000E+00  0.00000000E+00  0.00000000E+00
  0.00000000E+00  0.00000000E+00  0.00000000E+00
  0.00000000E+00  0.00000000E+00  0.00000000E+00
  0.00000000E+00  0.00000000E+00  0.00000000E+00
  0.00000000E+00  0.00000000E+00  0.00000000E+00
  0.00000000E+00  0.00000000E+00  0.00000000E+00
  0.00000000E+00  0.00000000E+00  0.00000000E+00
  0.00000000E+00  0.00000000E+00  0.00000000E+00
  0.00000000E+00  0.00000000E+00  0.00000000E+00
  0.00000000E+00  0.00000000E+00  0.00000000E+00
  0.00000000E+00  0.00000000E+00  0.00000000E+00
  0.00000000E+00  0.00000000E+00  0.00000000E+00
  0.00000000E+00  0.00000000E+00  0.00000000E+00
  0.00000000E+00  0.00000000E+00  0.00000000E+00
  0.00000000E+00  0.00000000E+00  0.00000000E+00
  0.00000000E+00  0.00000000E+00  0.00000000E+00
  0.00000000E+00  0.00000000E+00  0.00000000E+00
  0.00000000E+00  0.00000000E+00  0.00000000E+00
  0.00000000E+00  0.00000000E+00  0.00000000E+00
  0.00000000E+00  0.00000000E+00  0.00000000E+00
  0.00000000E+00  0.00000000E+00  0.00000000E+00
  0.00000000E+00  0.00000000E+00  0.00000000E+00
  0.00000000E+00  0.00000000E+00  0.00000000E+00
  0.00000000E+00  0.00000000E+00  0.00000000E+00
  0.00000000E+00  0.00000000E+00  0.00000000E+00
  0.00000000E+00  0.00000000E+00  0.00000000E+00
  0.00000000E+00  0.00000000E+00  0.00000000E+00
  0.00000000E+00  0.00000000E+00  0.00000000E+00
  0.00000000E+00  0.00000000E+00  0.00000000E+00
  0.00000000E+00  0.00000000E+00  0.00000000E+00
  0.00000000E+00  0.00000000E+00  0.00000000E+00
  0.00000000E+00  0.00000000E+00  0.00000000E+00
  0.00000000E+00  0.00000000E+00  0.00000000E+00
  0.00000000E+00  0.00000000E+00  0.00000000E+00
  0.00000000E+00  0.00000000E+00  0.00000000E+00
  0.00000000E+00  0.00000000E+00  0.00000000E+00
  0.00000000E+00  0.00000000E+00  0.00000000E+00
  0.00000000E+00  0.00000000E+00  0.00000000E+00
  0.00000000E+00  0.00000000E+00  0.00000000E+00
  0.00000000E+00  0.00000000E+00  0.00000000E+00
  0.00000000E+00  0.00000000E+00  0.00000000E+00
  0.00000000E+00  0.00000000E+00  0.00000000E+00
  0.00000000E+00  0.00000000E+00  0.00000000E+00
  0.00000000E+00  0.00000000E+00  0.00000000E+00
  0.00000000E+00  0.00000000E+00  0.00000000E+00
  0.00000000E+00  0.00000000E+00  0.00000000E+00
  0.00000000E+00  0.00000000E+00  0.00000000E+00
  0.00000000E+00  0.00000000E+00  0.00000000E+00
  0.00000000E+00  0.00000000E+00  0.00000000E+00
  0.00000000E+00  0.00000000E+00  0.00000000E+00
  0.00000000E+00  0.00000000E+00  0.00000000E+00
  0.00000000E+00  0.00000000E+00  0.00000000E+00
  0.00000000E+00  0.00000000E+00  0.00000000E+00
  0.00000000E+00  0.00000000E+00  0.00000000E+00
  0.00000000E+00  0.00000000E+00  0.00000000E+00
  0.00000000E+00  0.00000000E+00  0.00000000E+00
  0.00000000E+00  0.00000000E+00  0.00000000E+00
  0.00000000E+00  0.00000000E+00  0.00000000E+00
  0.00000000E+00  0.00000000E+00  0.00000000E+00
  0.00000000E+00  0.00000000E+00  0.00000000E+00
  0.00000000E+00  0.00000000E+00  0.00000000E+00
  0.00000000E+00  0.00000000E+00  0.00000000E+00
  0.00000000E+00  0.00000000E+00  0.00000000E+00
  0.00000000E+00  0.00000000E+00  0.00000000E+00
  0.00000000E+00  0.00000000E+00  0.00000000E+00
  0.00000000E+00  0.00000000E+00  0.00000000E+00
  0.00000000E+00  0.00000000E+00  0.00000000E+00
  0.00000000E+00  0.00000000E+00  0.00000000E+00
  0.00000000E+00  0.00000000E+00  0.00000000E+00
  0.00000000E+00  0.00000000E+00  0.00000000E+00
  0.00000000E+00  0.00000000E+00  0.00000000E+00
  0.00000000E+00  0.00000000E+00  0.00000000E+00
  0.00000000E+00  0.00000000E+00  0.00000000E+00
  0.00000000E+00  0.00000000E+00  0.00000000E+00
  0.00000000E+00  0.00000000E+00  0.00000000E+00
  0.00000000E+00  0.00000000E+00  0.00000000E+00
  0.00000000E+00  0.00000000E+00  0.00000000E+00
  0.00000000E+00  0.00000000E+00  0.00000000E+00
  0.00000000E+00  0.00000000E+00  0.00000000E+00
  0.00000000E+00  0.00000000E+00  0.00000000E+00
  0.00000000E+00  0.00000000E+00  0.00000000E+00
  0.00000000E+00  0.00000000E+00  0.00000000E+00
  0.00000000E+00  0.00000000E+00  0.00000000E+00
  0.00000000E+00  0.00000000E+00  0.00000000E+00
  0.00000000E+00  0.00000000E+00  0.00000000E+00
  0.00000000E+00  0.00000000E+00  0.00000000E+00
  0.00000000E+00  0.00000000E+00  0.00000000E+00
  0.00000000E+00  0.00000000E+00  0.00000000E+00
  0.00000000E+00  0.00000000E+00  0.00000000E+00
  0.00000000E+00  0.00000000E+00  0.00000000E+00
  0.00000000E+00  0.00000000E+00  0.00000000E+00
  0.00000000E+00  0.00000000E+00  0.00000000E+00
  0.00000000E+00  0.00000000E+00  0.00000000E+00
  0.00000000E+00  0.00000000E+00  0.00000000E+00
  0.00000000E+00  0.00000000E+00  0.00000000E+00
  0.00000000E+00  0.00000000E+00  0.00000000E+00
  0.00000000E+00  0.00000000E+00  0.00000000E+00
  0.00000000E+00  0.00000000E+00  0.00000000E+00
  0.00000000E+00  0.00000000E+00  0.00000000E+00
  0.00000000E+00  0.00000000E+00  0.00000000E+00
  0.00000000E+00  0.00000000E+00  0.00000000E+00
  0.00000000E+00  0.00000000E+00  0.00000000E+00
  0.00000000E+00  0.00000000E+00  0.00000000E+00
  0.00000000E+00  0.00000000E+00  0.00000000E+00
  0.00000000E+00  0.00000000E+00  0.00000000E+00
  0.00000000E+00  0.00000000E+00  0.00000000E+00
  0.00000000E+00  0.00000000E+00  0.00000000E+00
  0.00000000E+00  0.00000000E+00  0.00000000E+00
  0.00000000E+00  0.00000000E+00  0.00000000E+00
  0.00000000E+00  0.00000000E+00  0.00000000E+00
  0.00000000E+00  0.00000000E+00  0.00000000E+00
  0.00000000E+00  0.00000000E+00  0.00000000E+00
  0.00000000E+00  0.00000000E+00  0.00000000E+00
  0.00000000E+00  0.00000000E+00  0.00000000E+00
  0.00000000E+00  0.00000000E+00  0.00000000E+00
  0.00000000E+00  0.00000000E+00  0.00000000E+00
  0.00000000E+00  0.00000000E+00  0.00000000E+00
  0.00000000E+00  0.00000000E+00  0.00000000E+00
  0.00000000E+00  0.00000000E+00  0.00000000E+00
  0.00000000E+00  0.00000000E+00  0.00000000E+00
  0.00000000E+00  0.00000000E+00  0.00000000E+00
  0.00000000E+00  0.00000000E+00  0.00000000E+00
  0.00000000E+00  0.00000000E+00  0.00000000E+00
  0.00000000E+00  0.00000000E+00  0.00000000E+00
  0.00000000E+00  0.00000000E+00  0.00000000E+00
  0.00000000E+00  0.00000000E+00  0.00000000E+00
  0.00000000E+00  0.00000000E+00  0.00000000E+00
  0.00000000E+00  0.00000000E+00  0.00000000E+00
  0.00000000E+00  0.00000000E+00  0.00000000E+00
  0.00000000E+00  0.00000000E+00  0.00000000E+00
  0.00000000E+00  0.00000000E+00  0.00000000E+00
  0.00000000E+00  0.00000000E+00  0.00000000E+00
  0.00000000E+00  0.00000000E+00  0.00000000E+00
  0.00000000E+00  0.00000000E+00  0.00000000E+00
  0.00000000E+00  0.00000000E+00  0.00000000E+00
  0.00000000E+00  0.00000000E+00  0.00000000E+00
  0.00000000E+00  0.00000000E+00  0.00000000E+00
  0.00000000E+00  0.00000000E+00  0.00000000E+00
  0.00000000E+00  0.00000000E+00  0.00000000E+00
  0.00000000E+00  0.00000000E+00  0.00000000E+00
  0.00000000E+00  0.00000000E+00  0.00000000E+00
  0.00000000E+00  0.00000000E+00  0.00000000E+00
  0.00000000E+00  0.00000000E+00  0.00000000E+00
  0.00000000E+00  0.00000000E+00  0.00000000E+00
  0.00000000E+00  0.00000000E+00  0.00000000E+00
  0.00000000E+00  0.00000000E+00  0.00000000E+00
  0.00000000E+00  0.00000000E+00  0.00000000E+00
  0.00000000E+00  0.00000000E+00  0.00000000E+00
  0.00000000E+00  0.00000000E+00  0.00000000E+00
  0.00000000E+00  0.00000000E+00  0.00000000E+00
  0.00000000E+00  0.00000000E+00  0.00000000E+00
  0.00000000E+00  0.00000000E+00  0.00000000E+00
  0.00000000E+00  0.00000000E+00  0.00000000E+00
  0.00000000E+00  0.00000000E+00  0.00000000E+00
  0.00000000E+00  0.00000000E+00  0.00000000E+00
  0.00000000E+00  0.00000000E+00  0.00000000E+00
  0.00000000E+00  0.00000000E+00  0.00000000E+00
  0.00000000E+00  0.00000000E+00  0.00000000E+00
  0.00000000E+00  0.00000000E+00  0.00000000E+00
  0.00000000E+00  0.00000000E+00  0.00000000E+00
  0.00000000E+00  0.00000000E+00  0.00000000E+00
  0.00000000E+00  0.00000000E+00  0.00000000E+00
  0.00000000E+00  0.00000000E+00  0.00000000E+00
  0.00000000E+00  0.00000000E+00  0.00000000E+00
  0.00000000E+00  0.00000000E+00  0.00000000E+00
  0.00000000E+00  0.00000000E+00  0.00000000E+00
  0.00000000E+00  0.00000000E+00  0.00000000E+00
  0.00000000E+00  0.00000000E+00  0.00000000E+00
  0.00000000E+00  0.00000000E+00  0.00000000E+00
  0.00000000E+00  0.00000000E+00  0.00000000E+00
  0.00000000E+00  0.00000000E+00  0.00000000E+00
  0.00000000E+00  0.00000000E+00  0.00000000E+00
  0.00000000E+00  0.00000000E+00  0.00000000E+00
  0.00000000E+00  0.00000000E+00  0.00000000E+00
  0.00000000E+00  0.00000000E+00  0.00000000E+00
  0.00000000E+00  0.00000000E+00  0.00000000E+00
  0.00000000E+00  0.00000000E+00  0.00000000E+00
  0.00000000E+00  0.00000000E+00  0.00000000E+00
  0.00000000E+00  0.00000000E+00  0.00000000E+00
  0.00000000E+00  0.00000000E+00  0.00000000E+00
  0.00000000E+00  0.00000000E+00  0.00000000E+00
  0.00000000E+00  0.00000000E+00  0.00000000E+00
  0.00000000E+00  0.00000000E+00  0.00000000E+00
  0.00000000E+00  0.00000000E+00  0.00000000E+00
  0.00000000E+00  0.00000000E+00  0.00000000E+00
  0.00000000E+00  0.00000000E+00  0.00000000E+00
  0.00000000E+00  0.00000000E+00  0.00000000E+00
  0.00000000E+00  0.00000000E+00  0.00000000E+00
  0.00000000E+00  0.00000000E+00  0.00000000E+00
  0.00000000E+00  0.00000000E+00  0.00000000E+00
  0.00000000E+00  0.00000000E+00  0.00000000E+00
  0.00000000E+00  0.00000000E+00  0.00000000E+00
  0.00000000E+00  0.00000000E+00  0.00000000E+00
  0.00000000E+00  0.00000000E+00  0.00000000E+00