Amorphous Sb                            
   1.00000000000000     
    21.1278877258000009    0.0000000000000000    0.0000000000000000
     0.0000000000000000   21.1278877258000009    0.0000000000000000
     0.0000000000000000    0.0000000000000000   21.1278877258000009
   Sn   Se
   150   150
Selective dynamics
Direct
  0.8165118699999994  0.3946960600000011  0.3574110899999994   F   F   F
  0.7584902600000021  0.5502476099999996  0.6040061699999981   F   F   F
  0.9009631899999988  0.4910475300000030  0.4842960800000000   F   F   F
  0.7496008899999964  0.6805205900000004  0.1857844700000015   F   F   F
  0.8410634399999992  0.8268708599999997  0.3793723599999979   F   F   F
  0.5937990500000012  0.8538532800000027  0.5237411299999977   F   F   F
  0.0364786760000015  0.3513431200000028  0.4058486799999983   F   F   F
  0.9242142399999977  0.6569729400000028  0.3274040499999984   F   F   F
  0.7428033300000010  0.7506048699999965  0.6833686800000009   F   F   F
  0.7695150400000017  0.5198313599999977  0.3527172800000002   F   F   F
  0.5419463500000035  0.6540923700000008  0.6156413000000001   F   F   F
  0.7569697500000032  0.3357405100000008  0.5190030899999982   F   F   F
  0.6547109500000019  0.5662705900000020  0.1684091400000014   F   F   F
  0.6851938399999966  0.7016352999999995  0.5192888999999994   F   F   F
  0.7437457999999992  0.8140426900000008  0.2938403499999964   F   F   F
  0.7312344899999985  0.6466586000000021  0.4007343999999975   F   F   F
  0.9211552100000020  0.4467973100000009  0.2030193800000006   F   F   F
  0.8365761000000020  0.2162057899999965  0.3786076000000023   F   F   F
  0.7205893399999965  0.3969926799999968  0.2197672100000005   F   F   F
  0.6263964890028790  0.4410874020967644  0.5719966255451373   T   T   T
  0.1772198865127807  0.6686270700790834  0.6112955641999337   T   T   T
  0.3637413113898285  0.3046029104058018  0.5927912586911128   T   T   T
  0.1137624734882461  0.9691676783796808  0.4800278892431016   T   T   T
  0.0653227279115406  0.5699092190032023  0.6532985978804761   T   T   T
  0.3337353972501675  0.6689967285174230  0.7630655082891732   T   T   T
  0.0050702632884417  0.2547988718057378  0.1544506557565439   T   T   T
  0.5411909099354875  0.7898076610624946  0.3907207212444136   T   T   T
  0.4094725971026802  0.6998412870201237  0.1087274632137485   T   T   T
  0.5047576109294422 -0.0090173523287117  0.2817530744596373   T   T   T
  0.9471942185844885  0.0529468762644049  0.5006766242489817   T   T   T
  0.3978936370793804  0.2580506991958224  0.8863008328568168   T   T   T
  0.7238076313586228  0.2889101954667966  0.7807138778463680   T   T   T
  0.3503149329321442  0.1045263606794423  0.0253110252286594   T   T   T
  0.6859619833097960  0.9459860499201430  0.5909930788422338   T   T   T
  0.0509689641636598  0.0545197308889285  0.1703821347576067   T   T   T
  0.2444002319835925  0.6296610306763392  0.2913494471719819   T   T   T
  0.3885457505104341  0.4425271349524950  0.6317981176634481   T   T   T
  0.2339628877684580  0.7814749937564569  0.7190590514390928   T   T   T
  0.0490851440476913  0.5148961389177398  0.3906603676686471   T   T   T
  0.5823491023098250  0.8169139068732930  0.8923943120392215   T   T   T
  0.8720409373817726  0.0648296160423578  0.8396690467798922   T   T   T
  0.9620687230208675  0.6293719689535966  0.0260757081717059   T   T   T
  0.5946966116224384  0.0619754039745037  0.1504462428111244   T   T   T
  0.9494807344514156  0.2788037695757443  0.7857539865657019   T   T   T
  0.5732947739744233  0.6084899018951870  0.4074787443668159   T   T   T
  0.3494990959410403  0.8733311923286140  0.0630238519790368   T   T   T
  0.0526565550228831  0.7444238512771398  0.6997832654461346   T   T   T
  0.0125395525099866  0.2254431720939705  0.5168675111545999   T   T   T
  0.5344100974439774  0.1094886282611135  0.4032958243397226   T   T   T
  0.0751965515300326  0.5122977846989795  0.0662637224120250   T   T   T
  0.0436900264808237  0.3478694936104318  0.6729135301283529   T   T   T
  0.3697371202413995  0.0659160245706903  0.1801704825593545   T   T   T
  0.2697684448047296  0.3609566653489810  0.8797135285119778   T   T   T
  0.5325919368421405  0.1517616950382095  0.9580528961930409   T   T   T
  0.8480279310904347  0.3781499725083869  0.6439785360572856   T   T   T
  0.1257261738099162  0.0775766871733917  0.5915524161068019   T   T   T
  0.6652116666002433  0.2843517694907035  0.9338922185820308   T   T   T
  0.3066634886303806  0.4870390720488372  0.3798072102443292   T   T   T
  0.2929264463062373  0.4957356176271654  0.5268127026722753   T   T   T
  0.0669363969011348  0.4422903756385236  0.8201905194683630   T   T   T
  0.7661179776170840  0.7499521999979089  0.8468964333496736   T   T   T
  0.0847123442506974  0.1808919313976914  0.3102740520724789   T   T   T
  0.6073220684056130  0.4282561188727936  0.0145050840976457   T   T   T
  0.2115012113928865  0.3098501847799635  0.0847778659915478   T   T   T
  0.9274595299583607  0.5753156261389449  0.8219644700185686   T   T   T
  0.5312013384234940  0.2487050947585200  0.7539334210459634   T   T   T
  0.1004407373862062  0.4445311855812722  0.5070777712397301   T   T   T
  0.9577930215916189  0.9528146106133434  0.3353573334019303   T   T   T
  0.2445115559886415  0.4028932945278024  0.6750714645215439   T   T   T
  0.8105401073082663  0.1504144156325244  0.6128008697547277   T   T   T
  0.2293966984734705  0.6568105657967600  0.1003194996907530   T   T   T
  0.6790161311370417  0.2644677325603852  0.1291135851218290   T   T   T
  0.7184611965291574  0.9141354903520871  0.9276479818247083   T   T   T
  0.4813962228698688  0.5043185433356412  0.1393093850924672   T   T   T
  0.7140017299985405  0.1087651117763890  0.7212977946308062   T   T   T
  0.2982845460580577  0.7474513641605538  0.9085114503963584   T   T   T
  0.9728483657326308  0.1800109550620081  0.9308260882936201   T   T   T
  0.1776908243436469  0.7597018744043502  0.2530604524130421   T   T   T
  0.8932127529024491  0.1227563275478680  0.0346838962700584   T   T   T
  0.7254853839160379  0.9661215602523912  0.2408489245784798   T   T   T
  0.8163509815708458  0.2113381826647014  0.8585399508466599   T   T   T
  0.3508740672854661  0.0540237159602278  0.3737258410469749   T   T   T
  0.4850324008408514  0.5110190757530476  0.4680836616050086   T   T   T
  0.3965735749355148  0.7016419346855188  0.3470852456548721   T   T   T
  0.3228636724265173  0.0163262614750075  0.5631611112831735   T   T   T
  0.8176895345598076  0.0269389118889264  0.3661675729555161   T   T   T
  0.3189009416080236  0.4969582106243104  0.1835922697730261   T   T   T
  0.7056615454430953  0.0760033042232019  0.9447565609441846   T   T   T
  0.4355460410021105  0.9406476711309916  0.8951644745888625   T   T   T
  0.2352695591399442  0.9894876236650408  0.1101331773743167   T   T   T
  0.3643121942209968  0.8459328532944059  0.2177411944010148   T   T   T
  0.8898041762582796  0.6960856902592431  0.1889725766710480   T   T   T
  0.7746587813327869  0.6228785024575197  0.9756298917608243   T   T   T
  0.2494893331362157  0.3567820670936429  0.4477115630093533   T   T   T
  0.0972334877613026  0.0766429349163715  0.0284699603838412   T   T   T
  0.4466020463084985  0.4457988717797753  0.2914322570882465   T   T   T
  0.2625564443609447  0.8964284810807002  0.8846876904475462   T   T   T
  0.1840367246234500  0.8934835223478035  0.3820178649522709   T   T   T
  0.4247205035848798  0.4333744776350780  0.8654121028265934   T   T   T
  0.6859672855888826  0.9550192357405630  0.3920038431935755   T   T   T
  0.8387434041726993  0.8890898813597997  0.5469562173250342   T   T   T
  0.2733640771314306  0.5147228023306987  0.9768076035653316   T   T   T
  0.7769752574152223  0.4266651329778148  0.8512960373601731   T   T   T
  0.3609217569996028  0.8396010633335775  0.4647416958035439   T   T   T
  0.0768613127189409  0.3348701505115096  0.9702159070471692   T   T   T
  0.4001586229988396  0.3743285945703173  0.0263347164405310   T   T   T
  0.2053063043889750  0.0772090542875261  0.7217691264396972   T   T   T
  0.3687913951795379  0.2759068348473899  0.7363144620363108   T   T   T
  0.5412579429530193  0.9511151181734485  0.0399587950105395   T   T   T
  0.5602819113195399  0.9134825484022411  0.7318895590317054   T   T   T
  0.8942503981037639  0.4549560744064560  0.9741470619656938   T   T   T
  0.0413566159540743  0.7090232027549552  0.9023565561840096   T   T   T
  0.8926853171956485  0.7992569990502687  0.7554672613899353   T   T   T
  0.6882897976001303  0.1217635999463687  0.5052220057808758   T   T   T
  0.1499573224951401  0.8645446342824183  0.9713793099445748   T   T   T
  0.2782600809936641  0.6532311131077502  0.4530591827534832   T   T   T
  0.1843257157850799  0.1307835986334729  0.2069151583643612   T   T   T
  0.1302928038478494  0.7083296863328962  0.4149698560638698   T   T   T
  0.6108991458317971  0.8521590243999400  0.1641384178871366   T   T   T
  0.5411995114967709  0.2719910810234960  0.5465875911551443   T   T   T
  0.4863031697419619  0.5597934464819938  0.8115629614856753   T   T   T
  0.1978956239788069  0.1752217372932379  0.4398983738518668   T   T   T
  0.1821986787406603  0.0871325100782643  0.9062114229094058   T   T   T
  0.7910425520005900  0.1687405891228595  0.2205611515287406   T   T   T
  0.1478873146041561  0.8680779753888694  0.5751648558583204   T   T   T
  0.1611501341706427  0.4083327285898040  0.2682736068929236   T   T   T
  0.4129992547824864  0.8049370002603293  0.8199397752628976   T   T   T
  0.3982861049349671  0.8909091235991685  0.6513650777426043   T   T   T
  0.7499991477622733  0.7629345405401599  0.0295420297166074   T   T   T
  0.3014699792100428  0.5067756793059441  0.7864487418083663   T   T   T
  0.9981407623229331  0.8210671415285717  0.1342897137143534   T   T   T
  0.6369244161518234  0.4218628619715932  0.3459189725331772   T   T   T
  0.9384192802616007  0.9515240991867002  0.9937280233254656   T   T   T
  0.3863674248938531  0.1584569965430165  0.6059583452613047   T   T   T
  0.7894635489911775  0.3601399686680541  0.0967650247291934   T   T   T
  0.9510558910036796  0.7278380468387263  0.5476770253899071   T   T   T
  0.1747279720182329  0.6133561940487273  0.8501714947430397   T   T   T
  0.0395149611914305  0.9442842849239326  0.8256123951785526   T   T   T
  0.5070856503834297  0.0357519390636976  0.5996225660244413   T   T   T
  0.0740122957645786  0.6371736402734364  0.2336805803871858   T   T   T
  0.5840849423568309  0.7063010250027774  0.7886250974315825   T   T   T
  0.4722183823677418  0.2366303655975971  0.1439166799413274   T   T   T
  0.3736647830623884  0.0700988167556081  0.8262927088165106   T   T   T
  0.0265376447762924  0.1394779248563738  0.7539561513019108   T   T   T
  0.4172022262576690  0.2613562103443141  0.4597028125048835   T   T   T
  0.2054246732941142  0.9689988966533535  0.2638140456234865   T   T   T
  0.6419141183311160  0.3917570817071739  0.7246739348347392   T   T   T
  0.5521997277183244  0.6089783775897891  0.0002035663300178   T   T   T
  0.9287711877607331  0.9851025957876693  0.6757638892159789   T   T   T
  0.6392856585059485  0.5535305023659870  0.8751145866593987   T   T   T
  0.1266539385036017  0.8530312651949336  0.7003531777548788   T   T   T
  0.8648732879553827  0.2091443924566896  0.1216141691624174   T   T   T
  0.2328362085386500  0.8560157107596422  0.1949544912906761   T   T   T
  0.7573766738321670  0.4502067499852795  0.7046586942850809   T   T   T
  0.0966480600390293  0.7332297791475124  0.1519131729879105   T   T   T
  0.4776691597096026  0.1079302341522901  0.2342146099392918   T   T   T
  0.6024194823799538  0.4478467753332742  0.1451147367616595   T   T   T
  0.4553305099967631  0.9898122640590876  0.7153106360564593   T   T   T
  0.7551699311103115  0.1947763182678826  0.9687565354084209   T   T   T
  0.2447332851313446  0.1233250088536856  0.5505858702645486   T   T   T
  0.9328339544681810  0.0799584023673215  0.3756373810065763   T   T   T
  0.7405538680636351  0.1277109181514297  0.3865457729244386   T   T   T
  0.2692641097615929  0.8286526296595513  0.5858794587547475   T   T   T
  0.9366678180147319  0.7936021633251760  0.2499254219484990   T   T   T
  0.6259041003146374  0.0268992680497371  0.6695199715062891   T   T   T
  0.4739246608009913  0.1592094958099425  0.8390223979343612   T   T   T
  0.5215168095880369  0.6862685421721492  0.3153558643591771   T   T   T
  0.0517499635219969  0.0156037914557437  0.7153266366541871   T   T   T
  0.9393972103929944  0.0246354106247970  0.1024441782190504   T   T   T
  0.8163134493507183  0.8289710111116643  0.9444535873678093   T   T   T
  0.4288799752729397  0.1322803518063446  0.4771871591910917   T   T   T
  0.1323177851682492  0.2528109364171059  0.2052886179890873   T   T   T
  0.9020135519432273  0.2961295408627923  0.9071676165857893   T   T   T
  0.0216230003763743  0.4235804713949946  0.2974306738401253   T   T   T
  0.2997080712942869  0.1402548287976001  0.9092191415408045   T   T   T
  0.3440732881242694  0.7085561077355852  0.2265045782422482   T   T   T
  0.4845123708608834  0.9107661951197124  0.5464085476680191   T   T   T
  0.5902545192134941  0.2868796707438342  0.0414403540561406   T   T   T
  0.3068019905841609  0.1622887142438222  0.2440675957837964   T   T   T
  0.3029664859172699  0.2490448273273948  0.4062884743402069   T   T   T
  0.3783814345409853  0.5620637671300300  0.3014207623968459   T   T   T
  0.2153807628997122  0.1167930071530784  0.0809382101863628   T   T   T
  0.4973768027374151  0.9283825430148089  0.1646808685326045   T   T   T
  0.0029825396715871  0.4705601147511786  0.5814178755264479   T   T   T
  0.5014054757606115  0.3348517017516729  0.8866857854039516   T   T   T
  0.3149016019113296  0.8725429959482103  0.7623706510808886   T   T   T
  0.2359070119705954  0.3129547218061455  0.5772662204614474   T   T   T
  0.5651731126166293  0.3372121415476030  0.2796758746326510   T   T   T
  0.5212361779446055  0.6345957701057984  0.1273682394324668   T   T   T
  0.3235425392071722  0.1351389797892366  0.7293779172802961   T   T   T
  0.1850613377166083  0.5697668365024816  0.5244289142041173   T   T   T
  0.0621554757138308  0.1117435991850762  0.4755713911143827   T   T   T
  0.8562697450635918  0.5573476067088138  0.0500757727962027   T   T   T
  0.7741469113847437  0.8753213125805067  0.6593461227719868   T   T   T
  0.8877085937567242  0.6603709363904487  0.7241113417387172   T   T   T
  0.2380928770247453  0.9544663200905167  0.6317630352237821   T   T   T
  0.5161127685259927  0.6962964046949289  0.4938683036989617   T   T   T
  0.7448952671111244  0.0380166327430545  0.8241344779234048   T   T   T
  0.1668005590167706  0.5190236999985302  0.3481647067502767   T   T   T
  0.6885363020239862  0.8507390593840167  0.8174586808763096   T   T   T
  0.2262910838659103  0.0804857487808490  0.3581033100411521   T   T   T
  0.7545474414039932  0.8084912952756812  0.1688787171429332   T   T   T
  0.1982445605732695  0.9900792746757344  0.8248429102498629   T   T   T
  0.6598211347385046  0.6931515440233973  0.9008744343739573   T   T   T
  0.6442841138152804  0.1881934279710306  0.7943782226552567   T   T   T
  0.0609148058833632  0.9630772940748346  0.2584771901144843   T   T   T
  0.6289064173547922  0.0476820345050035  0.2736358935656720   T   T   T
  0.5027657345780374  0.4890032329182171  0.5926059793829519   T   T   T
  0.9957284729118812  0.9272766286820354  0.4582632068873181   T   T   T
  0.0749933913152947  0.3109041752448979  0.7986073036473238   T   T   T
  0.4359059012444799  0.3943907896848666  0.7400816498069265   T   T   T
  0.0703185194477936  0.1880011290171351  0.6410681949985476   T   T   T
  0.3462288152139471  0.9728009340829041  0.2684605653603484   T   T   T
  0.7010796451565064  0.1393123969359430  0.1287035905301553   T   T   T
  0.9133404995903741  0.6737240842383746  0.9056892585704266   T   T   T
  0.6808103707954931  0.9555228468445197  0.1239632070527939   T   T   T
  0.4138653859398675  0.4184268409614503  0.4197022733848813   T   T   T
  0.5761300534756140  0.4073765023182279  0.4582004684681693   T   T   T
  0.6397432272483573  0.8375820641642360  0.0077902177952402   T   T   T
  0.0507566376364180  0.5923100126255906  0.7808946700995304   T   T   T
  0.8264232278767102  0.0442347435794875  0.2359825911410155   T   T   T
  0.6731176634912511  0.5604177357085725  0.0346372013778996   T   T   T
  0.9579851453338026  0.8166990533448848  0.6431328424684077   T   T   T
  0.2827586670894762  0.4203483550907555  0.0725195476197739   T   T   T
  0.0101491363759267  0.7942619130246619  0.8107893029999266   T   T   T
  0.4595511084995309  0.8558109555973649 -0.0060204212565212   T   T   T
  0.6228991827865383  0.2476829008053427  0.2448064212380132   T   T   T
  0.0138676502673123  0.4962842879974810  0.9536667383390330   T   T   T
  0.7619628120265873  0.4695311212269127  0.4980871275798616   T   T   T
  0.1501028737396740  0.1582245480368118  0.8079269976542045   T   T   T
  0.0389786376176968  0.8106809673905683  0.9868447446018457   T   T   T
  0.5605652794390554  0.5156386729416937  0.3027774719433022   T   T   T
  0.3437876882383337  0.5984308403318304  0.0724137764398115   T   T   T
  0.0918036684309443  0.7458405486841598  0.5361431559196006   T   T   T
  0.3771352055383406  0.5887531388706406  0.5127108982768854   T   T   T
  0.6237504295775227  0.8635102169570443  0.3038798953260868   T   T   T
  0.5597859894534289  0.9457471703759419  0.8609732941201300   T   T   T
  0.9862686250989438  0.1464507656467689  0.2288387979489151   T   T   T
  0.9369848771317131  0.4008134341988106  0.7377283156205949   T   T   T
  0.7869153051365867  0.0109511033530794  0.5485729701755718   T   T   T
  0.1256439307195218  0.4479675167372797  0.6964137012911734   T   T   T
  0.7689311723973832  0.5579733788098823  0.8625324704458949   T   T   T
  0.1982538125174950  0.2844293176854754  0.9534137783426260   T   T   T
  0.4324787128066874  0.2142944209682264  0.0131614280828559   T   T   T
  0.4787228058706722  0.6777165171294857  0.8595553654549660   T   T   T
  0.6063761186001208  0.0207356601617042  0.4793525802535568   T   T   T
  0.3472878373332396  0.2478873089431196  0.1777617921782004   T   T   T
  0.4626014684395748  0.0422880431035681  0.9794013688490568   T   T   T
  0.6020135108152147  0.2078264989419039  0.4518621259832790   T   T   T
  0.4766831800038995  0.8012980847776686  0.7117894533622426   T   T   T
  0.1570802559849938  0.3180079443478094  0.3655803701582536   T   T   T
  0.3019221513383806  0.9701010728736386  0.9911828870527628   T   T   T
  0.2609447418399879  0.7928149230629600  0.3915314644616104   T   T   T
  0.1864605763702138  0.7521494106962164  0.8472026287484354   T   T   T
  0.8206223010974887  0.0279192644812088  0.9872898163354618   T   T   T
  0.4282135621968697  0.8357863849289140  0.3473463894984498   T   T   T
  0.0485045831653315  0.2172815611402915  0.0311693391536814   T   T   T
  0.2464801100614700  0.3077360849638758  0.7620219655572511   T   T   T
  0.2981259002788648  0.4056765022467719  0.2817625406043133   T   T   T
  0.2538581447637632  0.7886704685368989  0.0222232172428955   T   T   T
  0.9704411568760720  0.5964877826530761  0.1720518156705499   T   T   T
  0.4030877791544240  0.5734618604823101  0.7150684849716071   T   T   T
  0.9901871995579107  0.2424957772438570  0.3711869831748454   T   T   T
  0.0071864388705358  0.0342461636576667  0.9216261146845753   T   T   T
  0.7405965976851926  0.3829644242234510  0.9834084524257702   T   T   T
  0.7386207858406625  0.8510197003597926  0.4608710699797687   T   T   T
  0.9045201194036053  0.7425737815118370  0.0730486096069704   T   T   T
  0.0924040247853210  0.8067021957856718  0.3374125742359824   T   T   T
  0.6457611249542986  0.4229427867339930  0.8523570823244655   T   T   T
  0.6550893614450628  0.3077172705040214  0.5959066363727927   T   T   T
  0.4356272533660194  0.3623168666747257  0.1449028981028989   T   T   T
  0.8844248191144244  0.1921493699066270  0.5094861233329457   T   T   T
  0.9076774915319247  0.9380947295705773  0.7964078221917545   T   T   T
  0.4767890048034946  0.4908887570788153  0.0090519538003904   T   T   T
  0.1692010334099409  0.5854435796790759  0.0060087592458902   T   T   T
  0.6003301719097535  0.5788847321088099  0.7511358550403232   T   T   T
  0.8135769357255909  0.2628163535283589  0.6911819768406843   T   T   T
  0.2954733405301939  0.7128323244930432  0.5681930983765108   T   T   T
  0.1960468424024138  0.5636988930988778  0.1895259035803439   T   T   T
  0.2290304546677975  0.5964993225212363  0.7271093734737610   T   T   T
  0.8891226791463772  0.1039649232040213  0.7085109792148973   T   T   T
  0.1035023506584552  0.3857939186872284  0.0878092038678855   T   T   T
  0.9159016527536108  0.3820258740149199  0.0815246415821594   T   T   T
  0.3164841642113577  0.6080843395716031  0.8778419738542026   T   T   T
  0.5149928267509976  0.1799300035151456  0.6416409720288777   T   T   T
  0.0160270252445577  0.6395352821515787  0.4195691952543794   T   T   T
  0.1225232174889579  0.9460520044939126  0.0663395326029324   T   T   T
  0.9394552668488784  0.6222890669920904  0.6303081114323764   T   T   T
  0.1905561873832942  0.4639039216596974  0.8733222992389177   T   T   T
  0.3029708597053964  0.9561603561611409  0.4500771223155483   T   T   T
  0.7937417600000032  0.7033995399999995  0.5802567599999975   F   F   F
  0.8970372100000006  0.5344469500000031  0.3521536599999990   F   F   F
  0.9105228800000020  0.3674127199999973  0.4378188800000018   F   F   F
  0.7631037800000016  0.5180714099999975  0.2184454799999997   F   F   F
  0.6435669099999970  0.5857456900000031  0.5546893499999968   F   F   F
  0.6865011499999980  0.7020694599999970  0.2977844199999993   F   F   F
  0.7414086499999968  0.3046995999999993  0.3933571299999983   F   F   F
  0.8415666200000018  0.7041201600000022  0.4115778500000005   F   F   F
  0.8426703200000034  0.3523051399999986  0.2435380499999980   F   F   F
  0.6218443500000035  0.7562983600000024  0.6257421399999998   F   F   F
 
  0.00000000E+00  0.00000000E+00  0.00000000E+00
  0.00000000E+00  0.00000000E+00  0.00000000E+00
  0.00000000E+00  0.00000000E+00  0.00000000E+00
  0.00000000E+00  0.00000000E+00  0.00000000E+00
  0.00000000E+00  0.00000000E+00  0.00000000E+00
  0.00000000E+00  0.00000000E+00  0.00000000E+00
  0.00000000E+00  0.00000000E+00  0.00000000E+00
  0.00000000E+00  0.00000000E+00  0.00000000E+00
  0.00000000E+00  0.00000000E+00  0.00000000E+00
  0.00000000E+00  0.00000000E+00  0.00000000E+00
  0.00000000E+00  0.00000000E+00  0.00000000E+00
  0.00000000E+00  0.00000000E+00  0.00000000E+00
  0.00000000E+00  0.00000000E+00  0.00000000E+00
  0.00000000E+00  0.00000000E+00  0.00000000E+00
  0.00000000E+00  0.00000000E+00  0.00000000E+00
  0.00000000E+00  0.00000000E+00  0.00000000E+00
  0.00000000E+00  0.00000000E+00  0.00000000E+00
  0.00000000E+00  0.00000000E+00  0.00000000E+00
  0.00000000E+00  0.00000000E+00  0.00000000E+00
  0.00000000E+00  0.00000000E+00  0.00000000E+00
  0.00000000E+00  0.00000000E+00  0.00000000E+00
  0.00000000E+00  0.00000000E+00  0.00000000E+00
  0.00000000E+00  0.00000000E+00  0.00000000E+00
  0.00000000E+00  0.00000000E+00  0.00000000E+00
  0.00000000E+00  0.00000000E+00  0.00000000E+00
  0.00000000E+00  0.00000000E+00  0.00000000E+00
  0.00000000E+00  0.00000000E+00  0.00000000E+00
  0.00000000E+00  0.00000000E+00  0.00000000E+00
  0.00000000E+00  0.00000000E+00  0.00000000E+00
  0.00000000E+00  0.00000000E+00  0.00000000E+00
  0.00000000E+00  0.00000000E+00  0.00000000E+00
  0.00000000E+00  0.00000000E+00  0.00000000E+00
  0.00000000E+00  0.00000000E+00  0.00000000E+00
  0.00000000E+00  0.00000000E+00  0.00000000E+00
  0.00000000E+00  0.00000000E+00  0.00000000E+00
  0.00000000E+00  0.00000000E+00  0.00000000E+00
  0.00000000E+00  0.00000000E+00  0.00000000E+00
  0.00000000E+00  0.00000000E+00  0.00000000E+00
  0.00000000E+00  0.00000000E+00  0.00000000E+00
  0.00000000E+00  0.00000000E+00  0.00000000E+00
  0.00000000E+00  0.00000000E+00  0.00000000E+00
  0.00000000E+00  0.00000000E+00  0.00000000E+00
  0.00000000E+00  0.00000000E+00  0.00000000E+00
  0.00000000E+00  0.00000000E+00  0.00000000E+00
  0.00000000E+00  0.00000000E+00  0.00000000E+00
  0.00000000E+00  0.00000000E+00  0.00000000E+00
  0.00000000E+00  0.00000000E+00  0.00000000E+00
  0.00000000E+00  0.00000000E+00  0.00000000E+00
  0.00000000E+00  0.00000000E+00  0.00000000E+00
  0.00000000E+00  0.00000000E+00  0.00000000E+00
  0.00000000E+00  0.00000000E+00  0.00000000E+00
  0.00000000E+00  0.00000000E+00  0.00000000E+00
  0.00000000E+00  0.00000000E+00  0.00000000E+00
  0.00000000E+00  0.00000000E+00  0.00000000E+00
  0.00000000E+00  0.00000000E+00  0.00000000E+00
  0.00000000E+00  0.00000000E+00  0.00000000E+00
  0.00000000E+00  0.00000000E+00  0.00000000E+00
  0.00000000E+00  0.00000000E+00  0.00000000E+00
  0.00000000E+00  0.00000000E+00  0.00000000E+00
  0.00000000E+00  0.00000000E+00  0.00000000E+00
  0.00000000E+00  0.00000000E+00  0.00000000E+00
  0.00000000E+00  0.00000000E+00  0.00000000E+00
  0.00000000E+00  0.00000000E+00  0.00000000E+00
  0.00000000E+00  0.00000000E+00  0.00000000E+00
  0.00000000E+00  0.00000000E+00  0.00000000E+00
  0.00000000E+00  0.00000000E+00  0.00000000E+00
  0.00000000E+00  0.00000000E+00  0.00000000E+00
  0.00000000E+00  0.00000000E+00  0.00000000E+00
  0.00000000E+00  0.00000000E+00  0.00000000E+00
  0.00000000E+00  0.00000000E+00  0.00000000E+00
  0.00000000E+00  0.00000000E+00  0.00000000E+00
  0.00000000E+00  0.00000000E+00  0.00000000E+00
  0.00000000E+00  0.00000000E+00  0.00000000E+00
  0.00000000E+00  0.00000000E+00  0.00000000E+00
  0.00000000E+00  0.00000000E+00  0.00000000E+00
  0.00000000E+00  0.00000000E+00  0.00000000E+00
  0.00000000E+00  0.00000000E+00  0.00000000E+00
  0.00000000E+00  0.00000000E+00  0.00000000E+00
  0.00000000E+00  0.00000000E+00  0.00000000E+00
  0.00000000E+00  0.00000000E+00  0.00000000E+00
  0.00000000E+00  0.00000000E+00  0.00000000E+00
  0.00000000E+00  0.00000000E+00  0.00000000E+00
  0.00000000E+00  0.00000000E+00  0.00000000E+00
  0.00000000E+00  0.00000000E+00  0.00000000E+00
  0.00000000E+00  0.00000000E+00  0.00000000E+00
  0.00000000E+00  0.00000000E+00  0.00000000E+00
  0.00000000E+00  0.00000000E+00  0.00000000E+00
  0.00000000E+00  0.00000000E+00  0.00000000E+00
  0.00000000E+00  0.00000000E+00  0.00000000E+00
  0.00000000E+00  0.00000000E+00  0.00000000E+00
  0.00000000E+00  0.00000000E+00  0.00000000E+00
  0.00000000E+00  0.00000000E+00  0.00000000E+00
  0.00000000E+00  0.00000000E+00  0.00000000E+00
  0.00000000E+00  0.00000000E+00  0.00000000E+00
  0.00000000E+00  0.00000000E+00  0.00000000E+00
  0.00000000E+00  0.00000000E+00  0.00000000E+00
  0.00000000E+00  0.00000000E+00  0.00000000E+00
  0.00000000E+00  0.00000000E+00  0.00000000E+00
  0.00000000E+00  0.00000000E+00  0.00000000E+00
  0.00000000E+00  0.00000000E+00  0.00000000E+00
  0.00000000E+00  0.00000000E+00  0.00000000E+00
  0.00000000E+00  0.00000000E+00  0.00000000E+00
  0.00000000E+00  0.00000000E+00  0.00000000E+00
  0.00000000E+00  0.00000000E+00  0.00000000E+00
  0.00000000E+00  0.00000000E+00  0.00000000E+00
  0.00000000E+00  0.00000000E+00  0.00000000E+00
  0.00000000E+00  0.00000000E+00  0.00000000E+00
  0.00000000E+00  0.00000000E+00  0.00000000E+00
  0.00000000E+00  0.00000000E+00  0.00000000E+00
  0.00000000E+00  0.00000000E+00  0.00000000E+00
  0.00000000E+00  0.00000000E+00  0.00000000E+00
  0.00000000E+00  0.00000000E+00  0.00000000E+00
  0.00000000E+00  0.00000000E+00  0.00000000E+00
  0.00000000E+00  0.00000000E+00  0.00000000E+00
  0.00000000E+00  0.00000000E+00  0.00000000E+00
  0.00000000E+00  0.00000000E+00  0.00000000E+00
  0.00000000E+00  0.00000000E+00  0.00000000E+00
  0.00000000E+00  0.00000000E+00  0.00000000E+00
  0.00000000E+00  0.00000000E+00  0.00000000E+00
  0.00000000E+00  0.00000000E+00  0.00000000E+00
  0.00000000E+00  0.00000000E+00  0.00000000E+00
  0.00000000E+00  0.00000000E+00  0.00000000E+00
  0.00000000E+00  0.00000000E+00  0.00000000E+00
  0.00000000E+00  0.00000000E+00  0.00000000E+00
  0.00000000E+00  0.00000000E+00  0.00000000E+00
  0.00000000E+00  0.00000000E+00  0.00000000E+00
  0.00000000E+00  0.00000000E+00  0.00000000E+00
  0.00000000E+00  0.00000000E+00  0.00000000E+00
  0.00000000E+00  0.00000000E+00  0.00000000E+00
  0.00000000E+00  0.00000000E+00  0.00000000E+00
  0.00000000E+00  0.00000000E+00  0.00000000E+00
  0.00000000E+00  0.00000000E+00  0.00000000E+00
  0.00000000E+00  0.00000000E+00  0.00000000E+00
  0.00000000E+00  0.00000000E+00  0.00000000E+00
  0.00000000E+00  0.00000000E+00  0.00000000E+00
  0.00000000E+00  0.00000000E+00  0.00000000E+00
  0.00000000E+00  0.00000000E+00  0.00000000E+00
  0.00000000E+00  0.00000000E+00  0.00000000E+00
  0.00000000E+00  0.00000000E+00  0.00000000E+00
  0.00000000E+00  0.00000000E+00  0.00000000E+00
  0.00000000E+00  0.00000000E+00  0.00000000E+00
  0.00000000E+00  0.00000000E+00  0.00000000E+00
  0.00000000E+00  0.00000000E+00  0.00000000E+00
  0.00000000E+00  0.00000000E+00  0.00000000E+00
  0.00000000E+00  0.00000000E+00  0.00000000E+00
  0.00000000E+00  0.00000000E+00  0.00000000E+00
  0.00000000E+00  0.00000000E+00  0.00000000E+00
  0.00000000E+00  0.00000000E+00  0.00000000E+00
  0.00000000E+00  0.00000000E+00  0.00000000E+00
  0.00000000E+00  0.00000000E+00  0.00000000E+00
  0.00000000E+00  0.00000000E+00  0.00000000E+00
  0.00000000E+00  0.00000000E+00  0.00000000E+00
  0.00000000E+00  0.00000000E+00  0.00000000E+00
  0.00000000E+00  0.00000000E+00  0.00000000E+00
  0.00000000E+00  0.00000000E+00  0.00000000E+00
  0.00000000E+00  0.00000000E+00  0.00000000E+00
  0.00000000E+00  0.00000000E+00  0.00000000E+00
  0.00000000E+00  0.00000000E+00  0.00000000E+00