Amorphous GeTe6                         
   1.00000000000000     
    21.5794838840084751    0.0000000000000000    0.0000000000000000
     0.0000000000000000   21.5794838840084751    0.0000000000000000
     0.0000000000000000    0.0000000000000000   21.5794838840084751
   Ga   Te   Zr
   114   171    15
Direct
  0.7125600295264679  0.7033297115306746  0.9527929623454341
  0.0768066529054706  0.3165675013290507  0.2620013478957130
  0.6100451472214298  0.6721147793977702  0.7335571957808280
  0.0735533453588000  0.0236270938189054  0.8566423319157331
  0.2733520440510486  0.3898187911934688  0.7870408085568775
  0.8990877173477758  0.5180304950801748  0.0864876781684255
  0.0743110896595228  0.0095061543326835  0.6378374732240107
  0.6878570713401143 -0.0030108368897746  0.2610184522646906
  0.6008121201530823  0.8837525666603123  0.8845168175184449
  0.3641698432776155  0.0414431033771894  0.5370213187191059
  0.6361665322209699  0.7678853776141253  0.5662535954797222
  0.0237109857919493  0.4165441408996530  0.0366895063874147
  0.8989971811355650  0.2279807217545073  0.2103698080867436
  0.1157715503384226  0.9273174800025419  0.4020099155226751
  0.6990831751463905  0.0414595848933949  0.4826898644970774
  0.7789717558405815  0.8767861591658691  0.0609494734107778
  0.2159667100660632  0.8611054282142971  0.8697843612829449
  0.4488740216785580  0.4341556460843760  0.6923264587875111
  0.8380677532717089  0.3215226690788299  0.6704450246918889
  0.1065423087660275  0.4504829786921799  0.7561001491923991
  0.3421310543765445  0.9519501319308161  0.4667295889224238
  0.3241552173772212 -0.0044473004488472  0.3622207703624467
  0.1659105232943159  0.3641546958844438  0.5356694640161759
  0.4501012704791456  0.4396661178786881  0.2978931328669432
  0.2875312469461142  0.0598908326299315  0.8342591033232476
  0.0767404681831614  0.8306852532524521  0.8426509698779826
  0.5563744739318819  0.7382529259677395  0.0357217277448592
  0.1862855698370820  0.7886287822823366  0.1505913087687376
  0.0589110878871507  0.2357974098095666  0.8734685484582074
  0.6999956958783942  0.4351241529710473  0.6147202765474061
  0.2712068387069863  0.2386275993108337  0.4358317350518257
  0.9677993135636458  0.1515825371028265  0.9059284544118675
  0.5841881024135193  0.5701261187518227  0.5355679800509778
  0.7611881569364700  0.0322116069412939  0.7036969919501461
  0.8292005154610528  0.5037667650498101  0.7285175999655765
  0.6269685229364237  0.1892491558941791  0.5223639751204343
  0.9372485874219527  0.3573638609939353  0.7770501500083514
  0.0655367976754231  0.5249340283923356  0.0201877263355665
  0.0383929558613736  0.3408145185109925  0.3867390971673642
  0.5321491034491602  0.7132739626519524  0.3665393739425511
  0.7573883417199859  0.3595417920147365  0.0756830751740588
  0.0687635327220169  0.1641843590734991  0.5464731709113790
  0.2573991911114244  0.6079312259683224  0.0830446474691504
  0.9659487160737504  0.8411126883825787  0.3415376030897986
  0.8568859072703430  0.1977104956289437  0.7775172930126880
  0.2975725011962661  0.5172008029550366  0.6417720063395400
  0.5045233122121723  0.3435528397043475  0.3387853972301922
  0.1438018749200507  0.5450476065719120  0.6050909624573030
  0.6913458719839265  0.4165428458493959  0.2438996768340473
  0.6217473427701105  0.2000456727049164  0.0349424485363664
  0.0320377686374089  0.2327010765713786  0.0868108592690083
  0.6455617020419747  0.3600674651099243  0.7519912942239679
  0.4939157700096597  0.2407592524030130  0.9197370021211979
  0.6288832491403731  0.5239558771841175  0.8734368773287333
  0.4073514184577648  0.0066492865834912  0.7351597640919513
  0.0454531618980151  0.8261836077892495  0.5748310536575485
  0.0505091214482769  0.7191975743501499  0.7173990799759500
  0.0323083507051968  0.9846233794607883  0.4526668835403839
  0.7654281567313712  0.2725463674714492  0.9133079118185893
  0.7993952619733539  0.7005922986431476  0.4891456773093640
  0.2267383538396774  0.8640265813156455  0.6017491977105371
  0.7560055893898174  0.5123668288954597  0.1571130818877677
  0.1756470987673026  0.5625901141730596  0.0028406240907004
  0.4769973113440556  0.5264169473357211  0.5626627213287301
  0.8293030763852630  0.4938878403631650  0.3166155001101235
  0.6293841863390451  0.3429615920822217  0.9058524317938942
  0.5065095563678015  0.5100411894121898  0.3821240081687892
  0.3550706067937394  0.5092867554145398  0.2807948868669682
  0.7948635180731580  0.2766952951145513  0.3605807581580057
  0.9882173741603464  0.0572247749021330  0.2487352218216334
  0.8289983073087418  0.9022104159311859  0.8877591962603318
  0.1750874804832474  0.5374921473711736  0.7958935300467586
  0.9381429724456917  0.7526268373445453  0.1367791037921353
  0.9313136170078209  0.3932991474162860  0.4415572358809192
  0.2118534645996593  0.8158701167745940  0.4467890466936636
  0.3823194166720107  0.7881131113025974  0.8418649053344444
  0.7844143725275295  0.1656523724378067  0.9745129821544029
  0.3423631803309211  0.3311964264762757  0.0345360852297199
  0.3538430638030342  0.7485975444764577  0.5388967178775163
  0.6707208777687163  0.0300588733793987  0.9808215011233927
  0.9665136980703699  0.1424106866336877  0.5977248471453865
  0.3660720106931090  0.2317360563751953  0.5762279347064888
  0.4853979832152482  0.9486040515282298  0.1958892678136757
  0.8880469345166920  0.7611047253126531  0.7684903933345940
  0.3894640486007011  0.4906832094157900  0.1019937502991696
  0.2077672942573816  0.2939243937323131  0.9350261393580764
  0.2700203910608311  0.8459267227281312  0.2643272151140527
  0.6874829334475346  0.2721064534689339  0.4440119144505732
  0.7891408142181785  0.5938472147313517  0.5375850152036855
  0.3474502159401653  0.4897440820946579 -0.0048157040498005
  0.9050801018399197  0.6758355983643749  0.0036926848257936
  0.1295514760967884  0.4907561664469783  0.1762863639582194
  0.8935891024346355  0.6186521231807883  0.2137496237176703
  0.9542533972622150  0.8281999490984424  0.9534947322923308
  0.0459932414991418  0.8326421197464138  0.1664086738446522
  0.8178824015664579  0.6681734433873673  0.7830813388707817
  0.1609403042524342  0.4113547528292431  0.0876573916365051
  0.4124290339157148  0.4888663183437006  0.8013436122698142
  0.9421590270460284  0.9316537290238613  0.8976070651294098
  0.2853235171618878  0.0744701618470921  0.6163740644330616
  0.1891795112946639  0.4469570259400645  0.4526216146134373
  0.2806375180412183  0.2014076719587215  0.7771336248998246
  0.4227587157817935  0.6591761342028090  0.1823682893403898
  0.9329899002231384  0.1425708948063339  0.4074402701570325
  0.5588041879153369  0.9012943744945144  0.0464603485772353
  0.4556020522323324  0.8883257886215303  0.0988663727692835
  0.1842988825198577  0.9824757679672811  0.1995340196483835
  0.5649020270202600  0.8280680560575646  0.2281497613358334
  0.4495156412604266  0.8661192504675251  0.6107320600193126
  0.2041101401447758  0.5807642873915067  0.2429686142980890
  0.9674332468341140  0.5485199208553371  0.8238764793381725
  0.3344619178681560  0.6699363814659670  0.3313289658052757
  0.1527445510493819  0.1341399189413411  0.3529085006380325
  0.1270425104979036  0.9337549229803398  0.2860198935769298
  0.5752448879329548  0.8461770755044487  0.6504044321536887
  0.9782209580953286  0.2408192957034583  0.7594448868303537
  0.2464955290140369  0.2624590200192924  0.5535902226270257
  0.1044519700280367  0.1080315040597754  0.2442842340967878
  0.0056672929364539  0.9334216790972253  0.2462869449214506
  0.2840357149751171  0.5007633679160939  0.1716478197542686
  0.4294128372559428  0.0653038944424779  0.3446619255949986
  0.7102778465820581  0.4723851549727426  0.7310679060827142
  0.4079157245606768  0.1495582655607992  0.4898473824794822
  0.2849602271470910  0.4987156996996037  0.8392348769324536
  0.8218940460554148  0.6115913757535738  0.6652539517249954
  0.2138282891456546  0.5973371155628002  0.6938567717994535
  0.9547258782859082  0.1256794789598056  0.1505972990595705
  0.7929205202326244  0.1523589474126991  0.2336270609511819
  0.0672844300084432  0.6326953380204489  0.5572745441689595
  0.4406834735248071  0.0663832029693791  0.2152015019475248
  0.8061225602327976  0.1468638977590017  0.6764463772784056
  0.7028677722233672  0.7001146057111753  0.8129268359590164
  0.4051135970095453  0.5446543715949015  0.4611244481031539
  0.2625007371489221  0.5582636839547381  0.3557892319497687
  0.5548412932250890  0.9929022718102128  0.9668782716710993
  0.7541964790336271  0.3223941184100197  0.5780344155783532
  0.2830720136082474 -0.0032266312589280  0.7168418445300219
  0.5473386632738368  0.5736288284058562  0.7726340311744643
  0.5260422286814364  0.5018521195639092  0.9669772861746418
  0.6508704431488800  0.1742048907273147  0.6531160647829360
  0.0903865834699218  0.8087613064572011  0.4313437325891795
  0.4116606606392679  0.8508632830077952  0.4912321524682282
  0.4896404641405805  0.7667196342309942  0.1431039952023242
  0.3180458391714636  0.3113334950843575  0.8772923595675908
  0.2582249985789246  0.0957699963882006  0.4046462313786200
  0.6645699505877598  0.2575180151884918  0.8203211287998340
  0.3195792890482873  0.0540645606811517  0.9788077639142901
  0.5634597151782562  0.4109695398669507  0.8272068046584540
  0.3982397619460152  0.7487177519181031  0.6531974569293765
  0.9921621346245479  0.9549323281893072  0.5631705230918520
  0.4469852588099030  0.1486975425851551  0.9785384373076499
  0.1516236392805352  0.8072475012784737  0.2688716531028007
  0.3338643727654905  0.9232293533447746  0.0920862087003319
  0.9891347889448623  0.7112471101891238  0.2414107737719401
  0.6459138070094436  0.8171522961676865  0.0114954746546645
  0.1041923713153437  0.1282230137318399  0.8005720618594476
  0.1245792467273238  0.0480093114564161  0.0337650689731754
  0.4386900334256619  0.2498394436494560  0.8150900424651961
  0.1431687887213618  0.6746094009152726  0.1243529120648180
  0.7229576355021448  0.0455188511008778  0.0942239646008143
  0.0099894346485688  0.4315716153244393  0.8417387124819532
  0.4727120019234328  0.2903843129839553  0.5972252548077913
  0.4621227497541167  0.0022389533130256  0.6217911522704818
  0.4269656968585637  0.4270089762563204  0.9224827764176063
  0.8632622701287601  0.9662328952116066  0.7274063766233756
  0.9962685630595094  0.5907794046085797  0.1056766203726343
  0.2299300259260556  0.7471254244199026  0.5488556548538192
  0.8597174298520510  0.8411036367765289  0.1661256751012669
  0.4940677036623748  0.2200747489952876  0.3387090417442563
  0.6090899313404062  0.6291000956888735  0.0111004362248783
  0.2570895389995150  0.7017770073463209  0.8485230675063582
  0.0066702630373490  0.3514022122111622  0.1478513233251508
  0.6458594213307490  0.0119894004065924  0.7447081817386242
  0.2192091630118367  0.9340661533680661  0.4944249059658583
  0.6413611452252256  0.7566300160418420  0.2884037464569685
  0.0672289832273468  0.2857417410456354  0.5144825731282336
  0.7205310395860253  0.9596180847749954  0.8952200501094532
  0.8886648477649431  0.0557174045813882  0.3278742938489753
  0.2984626794585369  0.6705612016003191  0.1980462158701037
  0.7563211081800855  0.1462588945726316  0.4425388041960101
  0.9961149722070027  0.0308532851685656  0.9542264989357628
  0.8482745875238131  0.1192249436849592  0.8707843856622427
  0.8038956187749281  0.8568677519947944  0.7719573428816437
  0.1914408197936383  0.9839803333079576  0.8754342979528849
  0.1038245984005735  0.3226644133503753  0.0034918477569016
  0.3309251078902982  0.8670093885821190  0.6743741254452632
  0.7186803829969962  0.5364737531003491  0.2746088872089084
  0.3816924610829489  0.9735973298410949  0.8881321368327963
  0.5545397469261657  0.1194682896480568  0.1029374854964230
  0.8999132447625523  0.5289131266626255  0.5317219544718161
  0.1569393456418704  0.1022847011784454  0.6136384406054372
  0.1842797507033978  0.7878197158361022  0.7738143613634496
  0.8195149731638665  0.7131740050037121  0.1281315084277297
  0.3062449164692460  0.9612318392396737  0.2463184817496641
  0.4737141487225622  0.5839375597099914  0.1026822981004145
  0.5788582421353914  0.0681045914440714  0.4979652642301647
  0.5433965333511004  0.7740442023409257  0.7503493515611405
  0.3094733658314838  0.7989618308740449  0.3703584120932014
  0.4728217852868460  0.7575948422343536  0.9445697124826835
  0.1264817906649013  0.8428983899389136  0.9544512010827348
  0.2435305847438527  0.3275364132397545  0.1354734757788987
  0.0266175368626238  0.4910570068156071  0.2628971867241786
  0.8315109262508438  0.7983663270734738  0.9606568132080926
  0.3122332058161933  0.8005783628948457  0.1511136349714708
  0.6951850777065121  0.5071086002388623  0.5175367307859055
  0.5912414411401309  0.5991580301786844  0.4141773645734818
  0.0959814536251645  0.4339774559933977  0.6323641582695498
  0.6094658585659548  0.9327950732140459  0.3526802218049728
  0.7167286590387403  0.2336493425575536  0.1067931618573826
  0.2291305718062374  0.4474628770153715  0.9850187320700567
  0.5789773012986892  0.2926890117002450  0.1786425531829614
  0.4481859504142124  0.9005111648192352  0.7883276624907771
  0.8961520204113599  0.2395835885873591  0.0370713154871982
  0.0129861054440828  0.5859335459708949  0.7142979319724404
  0.0118524071309463  0.5954888061028819  0.9281131743246440
  0.3988902519173348  0.3065039243409858  0.2051519715863369
  0.9166587938354758  0.9573201726232716  0.4075381458486091
  0.5597007985169115  0.3054119149727124  0.0013700241832318
  0.3191793337270337  0.1804457550356260  0.2403028474068325
  0.5196830755428431  0.1702994749763677  0.6671112676877544
  0.0855127139820371  0.6374654485347554  0.3575658756725060
  0.9845585739802754  0.7469004569247734  0.8483041880761283
  0.7371828978458799  0.9596749206857730  0.3960704174466217
  0.6150894267406214  0.3490624714950441  0.6323453370277206
  0.4656417417595982  0.4195327406403053  0.1705114385831288
  0.8451761115777222  0.5541358943009548  0.8399494516663735
  0.6604088206935840  0.1446689532007585  0.9320202461890262
  0.1578050632459372  0.3414120414239571  0.8005354049475720
  0.8721998241242370  0.2986318278646466  0.5119586399021715
  0.4093352143935082  0.6768693897158311  0.4516756015551412
  0.9271157235220745  0.2464589286038144  0.3387500909438221
  0.1912332273784899  0.1682991493515466  0.9039583154955334
  0.0176690416904574  0.9297954659415238  0.7945512822564558
  0.1497296181454936  0.6268109481205765  0.8839912823970032
  0.4219944741386282  0.2291206312305774  0.0907170529625219
  0.7631238244411727  0.7056124688696788  0.3706101313804787
  0.3528509284597920  0.1626649168485202  0.6767323186371601
  0.0560172286515019  0.4795784435947025  0.4577072459759239
  0.6087027593943964  0.9270492926589677  0.1631332225809798
  0.8820934433014802  0.1083890216937855  0.5138402256870460
  0.5443311769953968  0.3977981785169163  0.4516028255574495
  0.6491253246266763  0.1683767810187362  0.3617785072734246
  0.4469743653938099  0.6099398538261422  0.2919727966896312
  0.9347256172799157  0.7602733084781211  0.6541998702682297
  0.7944557358276730  0.5834728860607652  0.0650160567919062
  0.2765749575535595  0.2113804799945843  0.0091519040828305
  0.8193244321352214  0.3203902835689773  0.7979523974665769
  0.3455634234188761  0.6138173644416617  0.9690359687263291
  0.5782006216892615  0.7953468251362402  0.4639286903441943
  0.7065760544060713  0.9950858576317009  0.5951050521195899
  0.8435021898987938  0.0188414413923119  0.0583394962153413
  0.0100986190493075  0.7551701305225450  0.0378766032761624
  0.1750318363460543  0.4092638217562189  0.2748904321163982
  0.3130835838531794  0.3971931615326399  0.6706681676875679
  0.1513085679611529  0.8960176449075781  0.1042115872491435
  0.4849267940043784  0.8855679772352096  0.3039062244050513
  0.8975013748207347  0.5882007374797389  0.3525387840816949
  0.7479657662557359  0.8080985629600436  0.5269256741055661
  0.9292195649984963  0.7085266192898559  0.4917553382791929
  0.8101617922441912  0.4070216346501320  0.3983332235921236
  0.8186058218630368  0.8209469215258879  0.3638738797982705
  0.9434950934046584  0.2685374421415341  0.6244943256647282
  0.4092056232071162  0.5691875928163712  0.6561847861140099
  0.1577239380867245  0.2372370817256233  0.1845032347492658
  0.7334875515420163  0.3920268597241777  0.9512034465648473
  0.3105205950558586  0.8618471376135574  0.9442684321538796
  0.4405190219089651  0.4057718284979327  0.5293696126552082
  0.2277501013986240  0.0575083570273287  0.1107610040439653
  0.3417438238951057  0.3267064637105773  0.3649306227415983
  0.4356784952631054  0.0851768425642251  0.8294959441706378
  0.9090656085277092  0.4270319479750386  0.6748483234365101
  0.9816626619021483  0.0737983658396691  0.6995344745420717
  0.6134062031549830  0.1222586430246975  0.2227023201035264
  0.1297099118488607  0.8964438598286393  0.6730185961305339
  0.0543379680189164  0.1090930170847419  0.4320491724034278
  0.7823381141630757  0.3285991973017797  0.2304740022288564
  0.8654648100487381  0.4591336445770006  0.1922182669660390
  0.1681656245296122  0.2571784080462488  0.3639104754310883
  0.6372563185710796  0.3463161753335323  0.3279154339718074
  0.1885591386570144  0.2531037661872059  0.7104946853750193
  0.6635052765853333  0.4357919124089372  0.1251144525540587
  0.8987147042527271  0.4161145842961448  0.0159690440045544
  0.2424647052361813  0.5372335707651987  0.5298432056486104
  0.4393769194256913  0.6123054047624045  0.8411933978898909
  0.6451380669113758  0.6541665773099413  0.6139622717130340
  0.4944167614301597  0.1990569887145814  0.2001280742088581
 -0.0115870518520642  0.5947929264685532  0.4471867147788052
  0.8240547181250363  0.1428923158958964  0.1011588394466541
  0.2237193172076621  0.9608768376770799  0.0068714037058622
  0.8756595206361473  0.3331544934621097  0.1296320389802366
  0.9428263747926785  0.6347406364777787  0.6068479584209795
  0.3630009100840134  0.1882026275324039  0.3636859958798999
  0.1279369587327020  0.5115270851000687  0.3517389783929467
  0.6811351844503341  0.2378983969441101  0.2463128892197685
  0.2562943102152679  0.2953998430308337  0.2652451976123489
  0.0754135166495829  0.6065655311483278  0.2229559996574020
  0.5908888177856346  0.0579439220061074  0.6325707516388083
  0.4799818146546767  0.6302726753925402  0.9695825083482845
  0.3338582233974294  0.1691361284505005  0.8888151440544805
  0.6886529928988504  0.8286931003822772  0.3951982440223678
 
  0.00000000E+00  0.00000000E+00  0.00000000E+00
  0.00000000E+00  0.00000000E+00  0.00000000E+00
  0.00000000E+00  0.00000000E+00  0.00000000E+00
  0.00000000E+00  0.00000000E+00  0.00000000E+00
  0.00000000E+00  0.00000000E+00  0.00000000E+00
  0.00000000E+00  0.00000000E+00  0.00000000E+00
  0.00000000E+00  0.00000000E+00  0.00000000E+00
  0.00000000E+00  0.00000000E+00  0.00000000E+00
  0.00000000E+00  0.00000000E+00  0.00000000E+00
  0.00000000E+00  0.00000000E+00  0.00000000E+00
  0.00000000E+00  0.00000000E+00  0.00000000E+00
  0.00000000E+00  0.00000000E+00  0.00000000E+00
  0.00000000E+00  0.00000000E+00  0.00000000E+00
  0.00000000E+00  0.00000000E+00  0.00000000E+00
  0.00000000E+00  0.00000000E+00  0.00000000E+00
  0.00000000E+00  0.00000000E+00  0.00000000E+00
  0.00000000E+00  0.00000000E+00  0.00000000E+00
  0.00000000E+00  0.00000000E+00  0.00000000E+00
  0.00000000E+00  0.00000000E+00  0.00000000E+00
  0.00000000E+00  0.00000000E+00  0.00000000E+00
  0.00000000E+00  0.00000000E+00  0.00000000E+00
  0.00000000E+00  0.00000000E+00  0.00000000E+00
  0.00000000E+00  0.00000000E+00  0.00000000E+00
  0.00000000E+00  0.00000000E+00  0.00000000E+00
  0.00000000E+00  0.00000000E+00  0.00000000E+00
  0.00000000E+00  0.00000000E+00  0.00000000E+00
  0.00000000E+00  0.00000000E+00  0.00000000E+00
  0.00000000E+00  0.00000000E+00  0.00000000E+00
  0.00000000E+00  0.00000000E+00  0.00000000E+00
  0.00000000E+00  0.00000000E+00  0.00000000E+00
  0.00000000E+00  0.00000000E+00  0.00000000E+00
  0.00000000E+00  0.00000000E+00  0.00000000E+00
  0.00000000E+00  0.00000000E+00  0.00000000E+00
  0.00000000E+00  0.00000000E+00  0.00000000E+00
  0.00000000E+00  0.00000000E+00  0.00000000E+00
  0.00000000E+00  0.00000000E+00  0.00000000E+00
  0.00000000E+00  0.00000000E+00  0.00000000E+00
  0.00000000E+00  0.00000000E+00  0.00000000E+00
  0.00000000E+00  0.00000000E+00  0.00000000E+00
  0.00000000E+00  0.00000000E+00  0.00000000E+00
  0.00000000E+00  0.00000000E+00  0.00000000E+00
  0.00000000E+00  0.00000000E+00  0.00000000E+00
  0.00000000E+00  0.00000000E+00  0.00000000E+00
  0.00000000E+00  0.00000000E+00  0.00000000E+00
  0.00000000E+00  0.00000000E+00  0.00000000E+00
  0.00000000E+00  0.00000000E+00  0.00000000E+00
  0.00000000E+00  0.00000000E+00  0.00000000E+00
  0.00000000E+00  0.00000000E+00  0.00000000E+00
  0.00000000E+00  0.00000000E+00  0.00000000E+00
  0.00000000E+00  0.00000000E+00  0.00000000E+00
  0.00000000E+00  0.00000000E+00  0.00000000E+00
  0.00000000E+00  0.00000000E+00  0.00000000E+00
  0.00000000E+00  0.00000000E+00  0.00000000E+00
  0.00000000E+00  0.00000000E+00  0.00000000E+00
  0.00000000E+00  0.00000000E+00  0.00000000E+00
  0.00000000E+00  0.00000000E+00  0.00000000E+00
  0.00000000E+00  0.00000000E+00  0.00000000E+00
  0.00000000E+00  0.00000000E+00  0.00000000E+00
  0.00000000E+00  0.00000000E+00  0.00000000E+00
  0.00000000E+00  0.00000000E+00  0.00000000E+00
  0.00000000E+00  0.00000000E+00  0.00000000E+00
  0.00000000E+00  0.00000000E+00  0.00000000E+00
  0.00000000E+00  0.00000000E+00  0.00000000E+00
  0.00000000E+00  0.00000000E+00  0.00000000E+00
  0.00000000E+00  0.00000000E+00  0.00000000E+00
  0.00000000E+00  0.00000000E+00  0.00000000E+00
  0.00000000E+00  0.00000000E+00  0.00000000E+00
  0.00000000E+00  0.00000000E+00  0.00000000E+00
  0.00000000E+00  0.00000000E+00  0.00000000E+00
  0.00000000E+00  0.00000000E+00  0.00000000E+00
  0.00000000E+00  0.00000000E+00  0.00000000E+00
  0.00000000E+00  0.00000000E+00  0.00000000E+00
  0.00000000E+00  0.00000000E+00  0.00000000E+00
  0.00000000E+00  0.00000000E+00  0.00000000E+00
  0.00000000E+00  0.00000000E+00  0.00000000E+00
  0.00000000E+00  0.00000000E+00  0.00000000E+00
  0.00000000E+00  0.00000000E+00  0.00000000E+00
  0.00000000E+00  0.00000000E+00  0.00000000E+00
  0.00000000E+00  0.00000000E+00  0.00000000E+00
  0.00000000E+00  0.00000000E+00  0.00000000E+00
  0.00000000E+00  0.00000000E+00  0.00000000E+00
  0.00000000E+00  0.00000000E+00  0.00000000E+00
  0.00000000E+00  0.00000000E+00  0.00000000E+00
  0.00000000E+00  0.00000000E+00  0.00000000E+00
  0.00000000E+00  0.00000000E+00  0.00000000E+00
  0.00000000E+00  0.00000000E+00  0.00000000E+00
  0.00000000E+00  0.00000000E+00  0.00000000E+00
  0.00000000E+00  0.00000000E+00  0.00000000E+00
  0.00000000E+00  0.00000000E+00  0.00000000E+00
  0.00000000E+00  0.00000000E+00  0.00000000E+00
  0.00000000E+00  0.00000000E+00  0.00000000E+00
  0.00000000E+00  0.00000000E+00  0.00000000E+00
  0.00000000E+00  0.00000000E+00  0.00000000E+00
  0.00000000E+00  0.00000000E+00  0.00000000E+00
  0.00000000E+00  0.00000000E+00  0.00000000E+00
  0.00000000E+00  0.00000000E+00  0.00000000E+00
  0.00000000E+00  0.00000000E+00  0.00000000E+00
  0.00000000E+00  0.00000000E+00  0.00000000E+00
  0.00000000E+00  0.00000000E+00  0.00000000E+00
  0.00000000E+00  0.00000000E+00  0.00000000E+00
  0.00000000E+00  0.00000000E+00  0.00000000E+00
  0.00000000E+00  0.00000000E+00  0.00000000E+00
  0.00000000E+00  0.00000000E+00  0.00000000E+00
  0.00000000E+00  0.00000000E+00  0.00000000E+00
  0.00000000E+00  0.00000000E+00  0.00000000E+00
  0.00000000E+00  0.00000000E+00  0.00000000E+00
  0.00000000E+00  0.00000000E+00  0.00000000E+00
  0.00000000E+00  0.00000000E+00  0.00000000E+00
  0.00000000E+00  0.00000000E+00  0.00000000E+00
  0.00000000E+00  0.00000000E+00  0.00000000E+00
  0.00000000E+00  0.00000000E+00  0.00000000E+00
  0.00000000E+00  0.00000000E+00  0.00000000E+00
  0.00000000E+00  0.00000000E+00  0.00000000E+00
  0.00000000E+00  0.00000000E+00  0.00000000E+00
  0.00000000E+00  0.00000000E+00  0.00000000E+00
  0.00000000E+00  0.00000000E+00  0.00000000E+00
  0.00000000E+00  0.00000000E+00  0.00000000E+00
  0.00000000E+00  0.00000000E+00  0.00000000E+00
  0.00000000E+00  0.00000000E+00  0.00000000E+00
  0.00000000E+00  0.00000000E+00  0.00000000E+00
  0.00000000E+00  0.00000000E+00  0.00000000E+00
  0.00000000E+00  0.00000000E+00  0.00000000E+00
  0.00000000E+00  0.00000000E+00  0.00000000E+00
  0.00000000E+00  0.00000000E+00  0.00000000E+00
  0.00000000E+00  0.00000000E+00  0.00000000E+00
  0.00000000E+00  0.00000000E+00  0.00000000E+00
  0.00000000E+00  0.00000000E+00  0.00000000E+00
  0.00000000E+00  0.00000000E+00  0.00000000E+00
  0.00000000E+00  0.00000000E+00  0.00000000E+00
  0.00000000E+00  0.00000000E+00  0.00000000E+00
  0.00000000E+00  0.00000000E+00  0.00000000E+00
  0.00000000E+00  0.00000000E+00  0.00000000E+00
  0.00000000E+00  0.00000000E+00  0.00000000E+00
  0.00000000E+00  0.00000000E+00  0.00000000E+00
  0.00000000E+00  0.00000000E+00  0.00000000E+00
  0.00000000E+00  0.00000000E+00  0.00000000E+00
  0.00000000E+00  0.00000000E+00  0.00000000E+00
  0.00000000E+00  0.00000000E+00  0.00000000E+00
  0.00000000E+00  0.00000000E+00  0.00000000E+00
  0.00000000E+00  0.00000000E+00  0.00000000E+00
  0.00000000E+00  0.00000000E+00  0.00000000E+00
  0.00000000E+00  0.00000000E+00  0.00000000E+00
  0.00000000E+00  0.00000000E+00  0.00000000E+00
  0.00000000E+00  0.00000000E+00  0.00000000E+00
  0.00000000E+00  0.00000000E+00  0.00000000E+00
  0.00000000E+00  0.00000000E+00  0.00000000E+00
  0.00000000E+00  0.00000000E+00  0.00000000E+00
  0.00000000E+00  0.00000000E+00  0.00000000E+00
  0.00000000E+00  0.00000000E+00  0.00000000E+00
  0.00000000E+00  0.00000000E+00  0.00000000E+00
  0.00000000E+00  0.00000000E+00  0.00000000E+00
  0.00000000E+00  0.00000000E+00  0.00000000E+00
  0.00000000E+00  0.00000000E+00  0.00000000E+00
  0.00000000E+00  0.00000000E+00  0.00000000E+00
  0.00000000E+00  0.00000000E+00  0.00000000E+00
  0.00000000E+00  0.00000000E+00  0.00000000E+00
  0.00000000E+00  0.00000000E+00  0.00000000E+00
  0.00000000E+00  0.00000000E+00  0.00000000E+00
  0.00000000E+00  0.00000000E+00  0.00000000E+00
  0.00000000E+00  0.00000000E+00  0.00000000E+00
  0.00000000E+00  0.00000000E+00  0.00000000E+00
  0.00000000E+00  0.00000000E+00  0.00000000E+00
  0.00000000E+00  0.00000000E+00  0.00000000E+00
  0.00000000E+00  0.00000000E+00  0.00000000E+00
  0.00000000E+00  0.00000000E+00  0.00000000E+00
  0.00000000E+00  0.00000000E+00  0.00000000E+00
  0.00000000E+00  0.00000000E+00  0.00000000E+00
  0.00000000E+00  0.00000000E+00  0.00000000E+00
  0.00000000E+00  0.00000000E+00  0.00000000E+00
  0.00000000E+00  0.00000000E+00  0.00000000E+00
  0.00000000E+00  0.00000000E+00  0.00000000E+00
  0.00000000E+00  0.00000000E+00  0.00000000E+00
  0.00000000E+00  0.00000000E+00  0.00000000E+00
  0.00000000E+00  0.00000000E+00  0.00000000E+00
  0.00000000E+00  0.00000000E+00  0.00000000E+00
  0.00000000E+00  0.00000000E+00  0.00000000E+00
  0.00000000E+00  0.00000000E+00  0.00000000E+00
  0.00000000E+00  0.00000000E+00  0.00000000E+00
  0.00000000E+00  0.00000000E+00  0.00000000E+00
  0.00000000E+00  0.00000000E+00  0.00000000E+00
  0.00000000E+00  0.00000000E+00  0.00000000E+00
  0.00000000E+00  0.00000000E+00  0.00000000E+00
  0.00000000E+00  0.00000000E+00  0.00000000E+00
  0.00000000E+00  0.00000000E+00  0.00000000E+00
  0.00000000E+00  0.00000000E+00  0.00000000E+00
  0.00000000E+00  0.00000000E+00  0.00000000E+00
  0.00000000E+00  0.00000000E+00  0.00000000E+00
  0.00000000E+00  0.00000000E+00  0.00000000E+00
  0.00000000E+00  0.00000000E+00  0.00000000E+00
  0.00000000E+00  0.00000000E+00  0.00000000E+00
  0.00000000E+00  0.00000000E+00  0.00000000E+00
  0.00000000E+00  0.00000000E+00  0.00000000E+00
  0.00000000E+00  0.00000000E+00  0.00000000E+00
  0.00000000E+00  0.00000000E+00  0.00000000E+00
  0.00000000E+00  0.00000000E+00  0.00000000E+00
  0.00000000E+00  0.00000000E+00  0.00000000E+00
  0.00000000E+00  0.00000000E+00  0.00000000E+00
  0.00000000E+00  0.00000000E+00  0.00000000E+00
  0.00000000E+00  0.00000000E+00  0.00000000E+00
  0.00000000E+00  0.00000000E+00  0.00000000E+00
  0.00000000E+00  0.00000000E+00  0.00000000E+00
  0.00000000E+00  0.00000000E+00  0.00000000E+00
  0.00000000E+00  0.00000000E+00  0.00000000E+00
  0.00000000E+00  0.00000000E+00  0.00000000E+00
  0.00000000E+00  0.00000000E+00  0.00000000E+00
  0.00000000E+00  0.00000000E+00  0.00000000E+00
  0.00000000E+00  0.00000000E+00  0.00000000E+00
  0.00000000E+00  0.00000000E+00  0.00000000E+00
  0.00000000E+00  0.00000000E+00  0.00000000E+00
  0.00000000E+00  0.00000000E+00  0.00000000E+00
  0.00000000E+00  0.00000000E+00  0.00000000E+00
  0.00000000E+00  0.00000000E+00  0.00000000E+00
  0.00000000E+00  0.00000000E+00  0.00000000E+00
  0.00000000E+00  0.00000000E+00  0.00000000E+00
  0.00000000E+00  0.00000000E+00  0.00000000E+00
  0.00000000E+00  0.00000000E+00  0.00000000E+00
  0.00000000E+00  0.00000000E+00  0.00000000E+00
  0.00000000E+00  0.00000000E+00  0.00000000E+00
  0.00000000E+00  0.00000000E+00  0.00000000E+00
  0.00000000E+00  0.00000000E+00  0.00000000E+00
  0.00000000E+00  0.00000000E+00  0.00000000E+00
  0.00000000E+00  0.00000000E+00  0.00000000E+00
  0.00000000E+00  0.00000000E+00  0.00000000E+00
  0.00000000E+00  0.00000000E+00  0.00000000E+00
  0.00000000E+00  0.00000000E+00  0.00000000E+00
  0.00000000E+00  0.00000000E+00  0.00000000E+00
  0.00000000E+00  0.00000000E+00  0.00000000E+00
  0.00000000E+00  0.00000000E+00  0.00000000E+00
  0.00000000E+00  0.00000000E+00  0.00000000E+00
  0.00000000E+00  0.00000000E+00  0.00000000E+00
  0.00000000E+00  0.00000000E+00  0.00000000E+00
  0.00000000E+00  0.00000000E+00  0.00000000E+00