Amorphous Sb                            
   1.00000000000000     
    22.5471481478061513    0.0000000000000000    0.0000000000000000
     0.0000000000000000   22.5471481478061513    0.0000000000000000
     0.0000000000000000    0.0000000000000000   22.5471481478061513
   As   Te
    30   270
Direct
  0.6791646428525118  0.0421987777051456  0.4865928172454314
  0.4924971874231546  0.8397996573903067  0.6225307102305667
  0.1934859596769570  0.7616837318224069  0.9512309527906093
  0.7503333030512043  0.5364500331870339  0.7215221098080093
  0.0309005452756974  0.4770501296028274 -0.0043996366191307
  0.4538740595881965  0.5815879558509174  0.0721483193038755
  0.6636317826807895  0.7146810510707430  0.8860179988851400
  0.4582534403783901  0.0797510232284563  0.3699737506980799
  0.2290829486477084  0.1821197362102926  0.2745789475828164
  0.2454715408104524  0.0253349412945578  0.1762043107091539
  0.6562866220360654  0.2550680163215610  0.8710053421952790
  0.7098515819448643  0.3834598923158507  0.4181451120956178
  0.1806675995190019  0.6391988389210012  0.2939194363866685
  0.0041127302439863  0.7973677997274145  0.2953850252461530
  0.3642727535013562  0.1718836453541063  0.4771989780643404
  0.8581269877645417  0.5459863623335456  0.9186827702126295
  0.0245510093715007  0.0048610680853195  0.4820272634609016
  0.4752363381363612  0.4116070133304758  0.3871127239815980
  0.5272838140236156 -0.0028726445852623  0.4009889845947769
  0.5873136969903014 -0.0059551932210771  0.5280893590096234
  0.9412019834745070  0.0553650682982825  0.5378760060263815
  0.0373569052236748  0.0267783985629117  0.5893995690625407
  0.3794341887370306  0.5934804878464657  0.3619141244157995
  0.9297292969347076  0.8644808701498462  0.7590825372969493
  0.4692314908306220  0.9919235494207809  0.3040062420254172
  0.2708130920102834  0.0855148796708335  0.9300421356075923
  0.4898331999624961  0.3801738896516605  0.1619055300982880
  0.2701859294888786  0.9316478980881705  0.3330915458602275
  0.6516549631927099  0.2625792955489320  0.6258924795062299
  0.3385705604909716  0.6730739790256459  0.4265551607497267
  0.6255926997848887  0.1108982359635696  0.9986327780432271
  0.2323714140082581  0.6184167236834260  0.8452513023505905
  0.1115181955345155  0.3296252096643309  0.0534098625933346
  0.5895202052716652  0.6240185413209368  0.0162059589889384
  0.7761565548442653  0.7003432157818286  0.8494835627158056
  0.2417986665645943  0.3967822312016954  0.9737317300028339
  0.0443041021181736  0.7573634335916545 -0.0097614724100654
  0.7763380200155555  0.8478025601649707  0.7763225951449918
  0.1153555148583823  0.9542700727082458  0.8706658445671711
  0.9781256890749787  0.6517273242598566  0.3331565617828782
  0.2463145378215037  0.6550219288408006  0.9611562392333153
  0.5771644836239416  0.6248194268730475  0.1916531193448616
  0.3900116276544305  0.7700154777168234  0.1189811391386657
  0.4191349553978595  0.5985513733589719  0.8850829898822450
  0.4027548865399508  0.9301853784674403  0.3810864221609268
  0.7826711199589153  0.0434910045485278  0.7489219559897997
  0.6298248095236249  0.2325326275090483  0.7586162701671582
  0.8542948043637878  0.5759292603299332  0.7649387829260681
  0.4718930114446838  0.5896737596680456  0.4362399893785940
  0.9869728608102057  0.1790548948052118  0.7504428157408759
  0.6006258695319253  0.5976034751214011  0.7899896722708764
  0.6318942000358264  0.2976995506842790  0.3917508310614535
  0.6237915632690718  0.4555966518870507  0.2544461724431385
  0.3223330643617787  0.3430302871377927  0.0540894131375126
  0.2746406990104405  0.0731886276027073  0.2802102381242325
 -0.0033401600733482  0.1100962808674453  0.8801533450585848
  0.3731784846925458  0.9295279181267407  0.7759838020014747
  0.5735810986550761  0.8389219678850575  0.1405877031652274
  0.8558859779552935  0.1515143544266168  0.1499377057443320
  0.8828075247841956  0.4628952082065454  0.1698830107534169
  0.0542120705179228  0.8399735787125873  0.1971548729114271
  0.8141633414159010  0.7455221464837627  0.2733199387032488
  0.2599745817661372  0.2738136921249502  0.6098314958392975
  0.1139079640454763  0.7473250968138213  0.6474367881812590
  0.7923562912449224  0.4018488125451836  0.2682131271149578
  0.4303272498605291  0.2798112847972712  0.1407993844398860
  0.5086203691818247  0.3615342919933716  0.6694680099159129
  0.6128707136196662  0.0649361047297187  0.8151407054061277
  0.4710528319655493  0.2102008788095575  0.4383736020074897
  0.8639566684090441 -0.0015052699281341  0.8348330474384054
  0.1081298629642342  0.2363940682761931  0.5189976137581065
  0.9808250823560697  0.6960895051457295  0.5669522418417234
  0.1104209253269736  0.5439278295585619  0.6286006917146196
  0.5188680495415163  0.3388725313485997  0.8762849576090211
  0.4108942584433452  0.6428219226422852  0.1656068559966310
  0.4664922962278776  0.6343433169165672  0.6460188549982361
  0.4814663915276078  0.7641516524433438  0.4072251613676928
  0.8954086187558021  0.9321420383547235  0.6310802055501540
  0.3347414064140873  0.8302888631684820  0.3409994142078397
  0.1987741480550231  0.5237585266717550  0.3807620656342436
  0.4619613739356437  0.7518427853325066  0.7493601651365994
  0.3032613391519297  0.6055226180265196  0.5151425241587267
  0.1972015409477114  0.1230557461445935  0.8199982665223028
  0.7009236476054551  0.9473420412198265  0.7851463206731890
  0.1726971124008582  0.9393935859975282  0.4877555124828645
  0.5402283340186659  0.6065435041870314  0.3118494550445110
  0.5943183582349457  0.7796154834947505  0.6187062320798475
  0.0927410474937631  0.2679862925089380  0.1641479811990027
  0.7584045724919358  0.8297150003509094  0.0437041568606234
  0.9821500189173857  0.5315902651624291  0.4914318214827365
  0.2665360285366661  0.6287645459243602  0.6737979481583330
  0.4145714936930600  0.9651181783767177  0.1399279342469155
  0.2682606039846668  0.0000264334484026  0.7551217184023541
  0.6257741039720340  0.9775736359173890  0.6415085294875658
  0.8112677516763926  0.5361546114484965  0.3313758900231005
  0.3787883675565838  0.9451380216680635  0.9451985226038093
  0.7599004386119155  0.1203348952495996  0.0685362287340177
  0.2317967177091019  0.3653422189653269  0.8054275460140741
  0.9532413114921134  0.2385036519308396  0.2475124658455785
  0.0582916362392968  0.4285641225777457  0.6529998974798271
  0.8901749403712452  0.9038087336270557  0.5026894901178089
  0.6428461728686815  0.3742429518687120  0.5945131355715451
  0.3321745651948574  0.4187821442153027  0.3251821935178236
  0.7691201127590174  0.2216539550062561  0.9789326567575525
  0.9725079784803864  0.2795616514283242  0.6732927012003762
  0.1822906520185996  0.6608238804625842  0.5856371426295841
  0.2065639831961046  0.5086883337249259  0.7064206566169929
  0.5114827111276389  0.9420306197228168  0.6822289053958984
  0.9381290554467312  0.7717564940483318  0.0555616078258329
  0.5428703575183033  0.2318296097972132  0.5983527581684884
  0.9948888778930339  0.4538753462444662  0.8155343881063344
  0.7203873437516851  0.7164787372252576  0.1314845385832051
  0.1404628253824992  0.6337983173494462  0.1090979159915784
  0.7881082960985872  0.6381100159158669  0.6113446614443094
  0.0094510763566326  0.8842706285117826  0.3788855128453857
  0.5523150848499921  0.3270818730141812  0.0767057082951579
  0.7706847997863651  0.9581400804588742  0.6234894311541392
  0.8955284398724901  0.1091499592340125  0.6897870974883046
  0.7667678661620947  0.2997415432618283  0.8616499025136265
  0.7795947781266583  0.8946656955700467  0.2350984884572732
  0.1113209264250528  0.0768404204110219  0.4456296478642264
  0.6897861762533655  0.9180953599940795  0.3184061835622863
  0.7074754325397915  0.6577961548674848  0.0207669742321354
  0.7321806905055687  0.1895482824979675  0.4084733696971885
  0.4335368827703992  0.4250880071014177  0.0187930727822453
  0.1023568646210656  0.0457731777571314  0.7848236501739525
  0.9816419290946856  0.2991490603820955  0.3583581767471559
  0.5937280535947804  0.8453774826397870  0.2869123283517485
  0.7027598823034055  0.4580238749041323  0.9512520196825043
  0.3272372975146982  0.2678993025557652  0.2160769406370917
  0.8927924298218880  0.7212550908868059  0.1803074665887065
  0.7067888825404329  0.1479551494967071  0.8939031148618315
  0.9048002843295322  0.3729651890825978  0.9700430067302829
  0.3514982284349357  0.8928011493696398  0.6298387010778279
  0.3492263159107722  0.2996250747090421  0.7751635971150821
  0.6886650352166770  0.9278069773725112  0.0757071181709140
  0.3252528546198071  0.3810790696745093  0.6227701788653542
  0.5143391686404568  0.5025493822403231  0.9608126536576629
  0.0781697332927053  0.2720969538163644  0.8058149984376257
  0.7491959922300765  0.3621436901978739  0.5280609243649236
  0.3119613877394020  0.4956106511613194  0.4283736623857651
  0.0723918655969631  0.4005731955400870  0.9150042481247922
  0.1619467059602916  0.2806579401897317  0.7110690599393350
  0.7453482830702887  0.8158914559925221  0.6588797257267852
  0.8354508136568890  0.4963825935438396  0.0218881183584969
  0.2644297902783611  0.8200778689445201  0.8756997730233343
  0.4228381469642945  0.0223643024142826  0.8546337944657761
  0.3555668927462516  0.8478734129998281  0.5162587410435234
  0.2318968966186094  0.2051609562926515  0.3887360213582847
  0.2465942777026407  0.7155482887006143  0.3614221382198873
  0.3494974170229516  0.7030997717087658  0.6052313798532692
  0.9630461500983796  0.0108916565628300  0.7290983823479140
  0.1294810459377587  0.0007543974757692  0.1849372904655488
  0.9419766550185716  0.5083890108154638  0.7046764729910241
  0.6001386726864104  0.5178224584157781  0.5202741035816290
  0.6187741629987258  0.0760757288807064  0.3870255858073675
  0.4444614288086014  0.1202274547483869  0.9514340569245074
  0.2957586821961767  0.4725413970047319  0.8108483270681409
  0.9345711298266992  0.2805288085120100  0.8870216077059061
  0.1372200403283550  0.1999956669560539  0.8954697041514766
  0.7717984118918934  0.9987062319639376  0.9241483905062908
  0.8185481262137313  0.3193760789638425  0.0889478668045678
  0.4467139725924634  0.4757747241788496  0.4855420290131884
  0.6460408941147588  0.1500624526873572  0.5235191770921322
  0.6196364565445285  0.8939813968913586  0.4775644306576724
  0.5797115440362223  0.8758221315438782  0.8200735243250390
  0.4868246309247780  0.8716784244710286  0.5059838117408967
  0.8117461167010011  0.3406597787988795  0.3771135796609325
  0.5283820050984229  0.8608825058257900  0.0289983746403067
  0.2086896084267064  0.4943910618423044  0.0388164924777795
  0.0970533748132141  0.4465513927717868  0.0944375407586259
  0.7021924525096805  0.6430629071569319  0.4379518495003966
  0.3456066179070845  0.7889239748717398  0.7035876513613094
  0.2214138383557805  0.3087677205867766  0.1481753945033793
  0.5524276033335862  0.3525375972762482  0.2589615143599293
  0.2730352601231683  0.0312939385058790  0.6361722835191413
  0.6607081778265890  0.6182854983056238  0.5561324143790807
  0.6113052653531729  0.4860419280339033  0.0482528882200616
  0.9814396686306300  0.8404691707682088  0.8660508601723999
  0.8850969363270818  0.7555584898597971  0.6237116393190740
  0.1725696301477966  0.8859205846715502  0.0872228292280711
  0.7551257307920074  0.8043010741594016  0.4059750769888572
  0.6298422429786003  0.4499789026569842  0.8471602489629774
  0.9962978917924120  0.6393549532381289  0.8385036393062643
  0.9546007281329079  0.0939589882147353  0.1074401231552622
  0.3839667296018850  0.2060537884431743  0.8701005615277566
  0.5579025097627669  0.3702909388105173  0.4622890860652474
  0.0877252220935189  0.6612526584952451  0.7334814453123464
  0.0292184233642555  0.9077279439459149  0.5977576747803305
  0.2396736063573520  0.7811788783534732  0.0572042846751838
  0.6598418384135157  0.1730055808642429  0.1468873083968361
  0.0396042909540633  0.5769743101763805  0.1777285589711306
  0.8716204588961796  0.4420750411106014  0.8583975457294910
  0.8945526487332920  0.4449246917310961  0.4574113140213432
  0.5840462363977823  0.1135542698530992  0.6314109019914652
  0.8754883428924422  0.8453388122329496  0.3837567444376055
  0.3557219135904648  0.0702939137239459  0.0221999323735639
  0.5799040141178311  0.5683854952622823  0.6708254673482603
  0.8984807360702487  0.2273873572291288  0.5923266964492501
  0.2559023103621995  0.5566210573543410  0.2551558977329496
  0.1460081597249095  0.1847800300569520  0.6282310609127328
  0.5186563276045212  0.7042666987114758  0.5581012341577408
  0.9903739394119129  0.3411166778043022  0.4947089255361214
  0.3411192461263045  0.8870690614329804  0.0740725701383405
  0.4652955524195816  0.8153188506436405  0.2030155461400053
  0.4145135482979685  0.4154925504800092  0.8253097604430479
  0.5043009084597062  0.0991616798073651  0.7551866744846248
  0.5999390210795571  0.7588716185830370  0.3783258261515853
  0.3588335597917470  0.0609451450351439  0.4353313681980340
  0.4011812516725542  0.1073793667527824  0.5682136030994901
  0.1068756315361324  0.1755790385387823  0.2674439763626458
  0.5692518735466316  0.0690764654930722  0.1087100104972063
  0.2154054347374186  0.4247648501207732  0.1986380806915665
  0.4292557522775186  0.0908556289216190  0.1954557563080984
  0.9134445568190757  0.7478252931225050  0.7436551369762642
  0.8447857096164456  0.0858899327841786  0.3008360289204953
  0.2534405245441922  0.2179835198935410  0.0267554064837746
  0.8573021346198331  0.0449733041194463  0.0064588826657161
  0.1150543698505579  0.2648598913019527  0.3745393577490768
  0.7867849759479564  0.2907952334632188  0.6657038208490761
  0.8676920023792249  0.3954957417537039  0.6816318755841994
  0.4185333085641221  0.6846082233859083  0.9732634519788999
  0.1501698325313180  0.9113377548861138  0.3428079396383488
  0.4819790889930446  0.4655509481101920  0.7308458414830939
  0.2859802932196476  0.6164686593627504  0.1404197133411439
  0.3867485993145220  0.3344524173464697  0.3962627569131394
  0.5341949572230242  0.7329549050146286  0.9637976201561311
  0.7632090232809868  0.9884745856721534  0.1556225309474362
  0.5238657303030565  0.1485114643065452  0.2553140559848754
  0.0713885113403011  0.4239471073573505  0.5288635287394799
  0.1157961041825266  0.0319375587223109  0.3290096733257549
  0.1379462826077046  0.4653430166836956  0.8163043327584193
  0.3436834182908694  0.6553346185052015  0.8021980538729523
  0.4148155572313995  0.3086222687582865  0.9426881735579214
  0.1687216453015162  0.8474803467510769  0.8034809229281471
  0.0416253115966550  0.8801466914576160  0.7203654872186430
  0.5229186851417462  0.5188888339620050  0.1515940261496806
  0.4314837590553354  0.3541330644908341  0.5687954149748956
  0.9556665803797424  0.0071218337682940  0.2052789943548524
  0.4578309379578174  0.2366674232110817  0.3165621593163586
  0.1057484215946712  0.4241383848914581  0.2684466142967152
  0.8525374248758906  0.7419161054848107  0.9639304817619362
  0.0335910634729299  0.0219973895577361  0.9597056031651438
  0.6634494028694734  0.3077065497949615  0.1381945184093452
  0.1854931871401689  0.1132078740411552  0.0050053656603117
  0.8226161874360427  0.6369873215752460  0.1216891722979641
  0.8121424310087069  0.0932873781546895  0.4184307495139686
  0.3379171204232509  0.1639109336694457  0.1093602051718571
  0.7134655726429935  0.6971228258260718  0.6917914211400842
  0.9549284625376744  0.8949215760132528  0.1498377900760747
  0.9774684297288393  0.4250484600586830  0.3174141334770682
  0.2552229722246537  0.9666678277434256  0.9170750201840517
  0.1729024269018716  0.7133373206781346  0.2026721797357794
  0.1879896138261516  0.3316170055981148  0.5166338216127295
  0.1562722411336283  0.3970274101298178  0.3770316869517608
  0.1004061047909564  0.5713259867736155  0.9802229109427025
  0.4962555869376035  0.9870649558669288  0.0425127267912774
  0.5942753942875461  0.0118748024130905  0.9258864285313110
  0.1154996766515811  0.1202310890274763  0.1511909476459095
  0.3527605080756845  0.5184729122246775  0.0700849595090287
  0.7955224923700301  0.5258038007564102  0.4565333561979644
  0.0917319261105859  0.8784278034975320 -0.0043428312120544
  0.1715388420484484 -0.0384596322184812  0.6109370606037905
  0.5108456675845813  0.2219093678907950  0.8097446633064126
  0.7612137252847934  0.9079673136964428  0.5047499126522312
  0.7917204326242436  0.4783786696118393  0.6285590228391589
  0.4611758369462546  0.8358332895209111  0.8424467069755762
  0.8955155318370362  0.6220678163789993  0.5061415122084835
  0.6958156997976593  0.4378634455849407  0.1533408149003219
  0.4372734574340444  0.6885455306338272  0.3072431698910100
  0.9416703717130208  0.3026529357530869  0.0802530839657337
  0.9331294696786538  0.9323403406973737  0.9432243723129133
  0.9791138396293657  0.1645678273405730  0.5149594575969353
  0.7229494704391108  0.4304538106363409  0.7695366754324329
  0.7453729834812766  0.5782660173072109  0.8945376657675439
  0.9376035385824291  0.5526296254070031  0.0931982189967807
  0.6846073010368903  0.0509352209929241  0.2800330593867957
  0.9016850843730830  0.1689059879927736  0.9418763931870809
  0.9628595951990389  0.1266561668149784  0.3032234317069823
  0.2894875315571754  0.9221031015540324  0.2158662128483976
  0.6005312009824040  0.7235853597110886  0.7827923712071032
  0.9890558844105887  0.6330452177634934  0.9630857931103861
  0.7882845784067624  0.2860172193718884  0.2052707394839335
  0.7029597520946671  0.5807893833294662  0.2847643361917735
  0.0880789164738115  0.7651423905575249  0.4672011919206472
  0.6492592404868808  0.8288872777046348  0.9129044899648177
  0.9245106303295373  0.9656749393368519  0.3378808514796975
  0.8714875834871790  0.6904687852029499  0.3780292109591394
  0.1958873386379777  0.8159385690476301  0.4966732083824478
  0.3011569015234337  0.1965205523363070  0.7143362355476093
  0.8157655231203998  0.8654313823682267  0.9329479770684359
  0.4187068186882709  0.1799013404262528  0.6694600047272607
  0.9704792486666451  0.3771214331340202  0.1901643556608440
  0.8026502554118243  0.2231407311349527  0.7672651388532732
  0.1069861137968080  0.7563739890743006  0.3392540144102557
  0.9424889199421497  0.5492618062651511  0.2659692291137428
  0.7769355713743683  0.7275392450015948  0.5096674144541704
  0.6958508657547308  0.1799753919276771  0.2816242148065417
  0.6365193910016410  0.5371426532256809  0.3908256246062425
  0.0805149357859285  0.7381066763505165  0.8340560177572484
 
  0.00000000E+00  0.00000000E+00  0.00000000E+00
  0.00000000E+00  0.00000000E+00  0.00000000E+00
  0.00000000E+00  0.00000000E+00  0.00000000E+00
  0.00000000E+00  0.00000000E+00  0.00000000E+00
  0.00000000E+00  0.00000000E+00  0.00000000E+00
  0.00000000E+00  0.00000000E+00  0.00000000E+00
  0.00000000E+00  0.00000000E+00  0.00000000E+00
  0.00000000E+00  0.00000000E+00  0.00000000E+00
  0.00000000E+00  0.00000000E+00  0.00000000E+00
  0.00000000E+00  0.00000000E+00  0.00000000E+00
  0.00000000E+00  0.00000000E+00  0.00000000E+00
  0.00000000E+00  0.00000000E+00  0.00000000E+00
  0.00000000E+00  0.00000000E+00  0.00000000E+00
  0.00000000E+00  0.00000000E+00  0.00000000E+00
  0.00000000E+00  0.00000000E+00  0.00000000E+00
  0.00000000E+00  0.00000000E+00  0.00000000E+00
  0.00000000E+00  0.00000000E+00  0.00000000E+00
  0.00000000E+00  0.00000000E+00  0.00000000E+00
  0.00000000E+00  0.00000000E+00  0.00000000E+00
  0.00000000E+00  0.00000000E+00  0.00000000E+00
  0.00000000E+00  0.00000000E+00  0.00000000E+00
  0.00000000E+00  0.00000000E+00  0.00000000E+00
  0.00000000E+00  0.00000000E+00  0.00000000E+00
  0.00000000E+00  0.00000000E+00  0.00000000E+00
  0.00000000E+00  0.00000000E+00  0.00000000E+00
  0.00000000E+00  0.00000000E+00  0.00000000E+00
  0.00000000E+00  0.00000000E+00  0.00000000E+00
  0.00000000E+00  0.00000000E+00  0.00000000E+00
  0.00000000E+00  0.00000000E+00  0.00000000E+00
  0.00000000E+00  0.00000000E+00  0.00000000E+00
  0.00000000E+00  0.00000000E+00  0.00000000E+00
  0.00000000E+00  0.00000000E+00  0.00000000E+00
  0.00000000E+00  0.00000000E+00  0.00000000E+00
  0.00000000E+00  0.00000000E+00  0.00000000E+00
  0.00000000E+00  0.00000000E+00  0.00000000E+00
  0.00000000E+00  0.00000000E+00  0.00000000E+00
  0.00000000E+00  0.00000000E+00  0.00000000E+00
  0.00000000E+00  0.00000000E+00  0.00000000E+00
  0.00000000E+00  0.00000000E+00  0.00000000E+00
  0.00000000E+00  0.00000000E+00  0.00000000E+00
  0.00000000E+00  0.00000000E+00  0.00000000E+00
  0.00000000E+00  0.00000000E+00  0.00000000E+00
  0.00000000E+00  0.00000000E+00  0.00000000E+00
  0.00000000E+00  0.00000000E+00  0.00000000E+00
  0.00000000E+00  0.00000000E+00  0.00000000E+00
  0.00000000E+00  0.00000000E+00  0.00000000E+00
  0.00000000E+00  0.00000000E+00  0.00000000E+00
  0.00000000E+00  0.00000000E+00  0.00000000E+00
  0.00000000E+00  0.00000000E+00  0.00000000E+00
  0.00000000E+00  0.00000000E+00  0.00000000E+00
  0.00000000E+00  0.00000000E+00  0.00000000E+00
  0.00000000E+00  0.00000000E+00  0.00000000E+00
  0.00000000E+00  0.00000000E+00  0.00000000E+00
  0.00000000E+00  0.00000000E+00  0.00000000E+00
  0.00000000E+00  0.00000000E+00  0.00000000E+00
  0.00000000E+00  0.00000000E+00  0.00000000E+00
  0.00000000E+00  0.00000000E+00  0.00000000E+00
  0.00000000E+00  0.00000000E+00  0.00000000E+00
  0.00000000E+00  0.00000000E+00  0.00000000E+00
  0.00000000E+00  0.00000000E+00  0.00000000E+00
  0.00000000E+00  0.00000000E+00  0.00000000E+00
  0.00000000E+00  0.00000000E+00  0.00000000E+00
  0.00000000E+00  0.00000000E+00  0.00000000E+00
  0.00000000E+00  0.00000000E+00  0.00000000E+00
  0.00000000E+00  0.00000000E+00  0.00000000E+00
  0.00000000E+00  0.00000000E+00  0.00000000E+00
  0.00000000E+00  0.00000000E+00  0.00000000E+00
  0.00000000E+00  0.00000000E+00  0.00000000E+00
  0.00000000E+00  0.00000000E+00  0.00000000E+00
  0.00000000E+00  0.00000000E+00  0.00000000E+00
  0.00000000E+00  0.00000000E+00  0.00000000E+00
  0.00000000E+00  0.00000000E+00  0.00000000E+00
  0.00000000E+00  0.00000000E+00  0.00000000E+00
  0.00000000E+00  0.00000000E+00  0.00000000E+00
  0.00000000E+00  0.00000000E+00  0.00000000E+00
  0.00000000E+00  0.00000000E+00  0.00000000E+00
  0.00000000E+00  0.00000000E+00  0.00000000E+00
  0.00000000E+00  0.00000000E+00  0.00000000E+00
  0.00000000E+00  0.00000000E+00  0.00000000E+00
  0.00000000E+00  0.00000000E+00  0.00000000E+00
  0.00000000E+00  0.00000000E+00  0.00000000E+00
  0.00000000E+00  0.00000000E+00  0.00000000E+00
  0.00000000E+00  0.00000000E+00  0.00000000E+00
  0.00000000E+00  0.00000000E+00  0.00000000E+00
  0.00000000E+00  0.00000000E+00  0.00000000E+00
  0.00000000E+00  0.00000000E+00  0.00000000E+00
  0.00000000E+00  0.00000000E+00  0.00000000E+00
  0.00000000E+00  0.00000000E+00  0.00000000E+00
  0.00000000E+00  0.00000000E+00  0.00000000E+00
  0.00000000E+00  0.00000000E+00  0.00000000E+00
  0.00000000E+00  0.00000000E+00  0.00000000E+00
  0.00000000E+00  0.00000000E+00  0.00000000E+00
  0.00000000E+00  0.00000000E+00  0.00000000E+00
  0.00000000E+00  0.00000000E+00  0.00000000E+00
  0.00000000E+00  0.00000000E+00  0.00000000E+00
  0.00000000E+00  0.00000000E+00  0.00000000E+00
  0.00000000E+00  0.00000000E+00  0.00000000E+00
  0.00000000E+00  0.00000000E+00  0.00000000E+00
  0.00000000E+00  0.00000000E+00  0.00000000E+00
  0.00000000E+00  0.00000000E+00  0.00000000E+00
  0.00000000E+00  0.00000000E+00  0.00000000E+00
  0.00000000E+00  0.00000000E+00  0.00000000E+00
  0.00000000E+00  0.00000000E+00  0.00000000E+00
  0.00000000E+00  0.00000000E+00  0.00000000E+00
  0.00000000E+00  0.00000000E+00  0.00000000E+00
  0.00000000E+00  0.00000000E+00  0.00000000E+00
  0.00000000E+00  0.00000000E+00  0.00000000E+00
  0.00000000E+00  0.00000000E+00  0.00000000E+00
  0.00000000E+00  0.00000000E+00  0.00000000E+00
  0.00000000E+00  0.00000000E+00  0.00000000E+00
  0.00000000E+00  0.00000000E+00  0.00000000E+00
  0.00000000E+00  0.00000000E+00  0.00000000E+00
  0.00000000E+00  0.00000000E+00  0.00000000E+00
  0.00000000E+00  0.00000000E+00  0.00000000E+00
  0.00000000E+00  0.00000000E+00  0.00000000E+00
  0.00000000E+00  0.00000000E+00  0.00000000E+00
  0.00000000E+00  0.00000000E+00  0.00000000E+00
  0.00000000E+00  0.00000000E+00  0.00000000E+00
  0.00000000E+00  0.00000000E+00  0.00000000E+00
  0.00000000E+00  0.00000000E+00  0.00000000E+00
  0.00000000E+00  0.00000000E+00  0.00000000E+00
  0.00000000E+00  0.00000000E+00  0.00000000E+00
  0.00000000E+00  0.00000000E+00  0.00000000E+00
  0.00000000E+00  0.00000000E+00  0.00000000E+00
  0.00000000E+00  0.00000000E+00  0.00000000E+00
  0.00000000E+00  0.00000000E+00  0.00000000E+00
  0.00000000E+00  0.00000000E+00  0.00000000E+00
  0.00000000E+00  0.00000000E+00  0.00000000E+00
  0.00000000E+00  0.00000000E+00  0.00000000E+00
  0.00000000E+00  0.00000000E+00  0.00000000E+00
  0.00000000E+00  0.00000000E+00  0.00000000E+00
  0.00000000E+00  0.00000000E+00  0.00000000E+00
  0.00000000E+00  0.00000000E+00  0.00000000E+00
  0.00000000E+00  0.00000000E+00  0.00000000E+00
  0.00000000E+00  0.00000000E+00  0.00000000E+00
  0.00000000E+00  0.00000000E+00  0.00000000E+00
  0.00000000E+00  0.00000000E+00  0.00000000E+00
  0.00000000E+00  0.00000000E+00  0.00000000E+00
  0.00000000E+00  0.00000000E+00  0.00000000E+00
  0.00000000E+00  0.00000000E+00  0.00000000E+00
  0.00000000E+00  0.00000000E+00  0.00000000E+00
  0.00000000E+00  0.00000000E+00  0.00000000E+00
  0.00000000E+00  0.00000000E+00  0.00000000E+00
  0.00000000E+00  0.00000000E+00  0.00000000E+00
  0.00000000E+00  0.00000000E+00  0.00000000E+00
  0.00000000E+00  0.00000000E+00  0.00000000E+00
  0.00000000E+00  0.00000000E+00  0.00000000E+00
  0.00000000E+00  0.00000000E+00  0.00000000E+00
  0.00000000E+00  0.00000000E+00  0.00000000E+00
  0.00000000E+00  0.00000000E+00  0.00000000E+00
  0.00000000E+00  0.00000000E+00  0.00000000E+00
  0.00000000E+00  0.00000000E+00  0.00000000E+00
  0.00000000E+00  0.00000000E+00  0.00000000E+00
  0.00000000E+00  0.00000000E+00  0.00000000E+00
  0.00000000E+00  0.00000000E+00  0.00000000E+00
  0.00000000E+00  0.00000000E+00  0.00000000E+00
  0.00000000E+00  0.00000000E+00  0.00000000E+00
  0.00000000E+00  0.00000000E+00  0.00000000E+00
  0.00000000E+00  0.00000000E+00  0.00000000E+00
  0.00000000E+00  0.00000000E+00  0.00000000E+00
  0.00000000E+00  0.00000000E+00  0.00000000E+00
  0.00000000E+00  0.00000000E+00  0.00000000E+00
  0.00000000E+00  0.00000000E+00  0.00000000E+00
  0.00000000E+00  0.00000000E+00  0.00000000E+00
  0.00000000E+00  0.00000000E+00  0.00000000E+00
  0.00000000E+00  0.00000000E+00  0.00000000E+00
  0.00000000E+00  0.00000000E+00  0.00000000E+00
  0.00000000E+00  0.00000000E+00  0.00000000E+00
  0.00000000E+00  0.00000000E+00  0.00000000E+00
  0.00000000E+00  0.00000000E+00  0.00000000E+00
  0.00000000E+00  0.00000000E+00  0.00000000E+00
  0.00000000E+00  0.00000000E+00  0.00000000E+00
  0.00000000E+00  0.00000000E+00  0.00000000E+00
  0.00000000E+00  0.00000000E+00  0.00000000E+00
  0.00000000E+00  0.00000000E+00  0.00000000E+00
  0.00000000E+00  0.00000000E+00  0.00000000E+00
  0.00000000E+00  0.00000000E+00  0.00000000E+00
  0.00000000E+00  0.00000000E+00  0.00000000E+00
  0.00000000E+00  0.00000000E+00  0.00000000E+00
  0.00000000E+00  0.00000000E+00  0.00000000E+00
  0.00000000E+00  0.00000000E+00  0.00000000E+00
  0.00000000E+00  0.00000000E+00  0.00000000E+00
  0.00000000E+00  0.00000000E+00  0.00000000E+00
  0.00000000E+00  0.00000000E+00  0.00000000E+00
  0.00000000E+00  0.00000000E+00  0.00000000E+00
  0.00000000E+00  0.00000000E+00  0.00000000E+00
  0.00000000E+00  0.00000000E+00  0.00000000E+00
  0.00000000E+00  0.00000000E+00  0.00000000E+00
  0.00000000E+00  0.00000000E+00  0.00000000E+00
  0.00000000E+00  0.00000000E+00  0.00000000E+00
  0.00000000E+00  0.00000000E+00  0.00000000E+00
  0.00000000E+00  0.00000000E+00  0.00000000E+00
  0.00000000E+00  0.00000000E+00  0.00000000E+00
  0.00000000E+00  0.00000000E+00  0.00000000E+00
  0.00000000E+00  0.00000000E+00  0.00000000E+00
  0.00000000E+00  0.00000000E+00  0.00000000E+00
  0.00000000E+00  0.00000000E+00  0.00000000E+00
  0.00000000E+00  0.00000000E+00  0.00000000E+00
  0.00000000E+00  0.00000000E+00  0.00000000E+00
  0.00000000E+00  0.00000000E+00  0.00000000E+00
  0.00000000E+00  0.00000000E+00  0.00000000E+00
  0.00000000E+00  0.00000000E+00  0.00000000E+00
  0.00000000E+00  0.00000000E+00  0.00000000E+00
  0.00000000E+00  0.00000000E+00  0.00000000E+00
  0.00000000E+00  0.00000000E+00  0.00000000E+00
  0.00000000E+00  0.00000000E+00  0.00000000E+00
  0.00000000E+00  0.00000000E+00  0.00000000E+00
  0.00000000E+00  0.00000000E+00  0.00000000E+00
  0.00000000E+00  0.00000000E+00  0.00000000E+00
  0.00000000E+00  0.00000000E+00  0.00000000E+00
  0.00000000E+00  0.00000000E+00  0.00000000E+00
  0.00000000E+00  0.00000000E+00  0.00000000E+00
  0.00000000E+00  0.00000000E+00  0.00000000E+00
  0.00000000E+00  0.00000000E+00  0.00000000E+00
  0.00000000E+00  0.00000000E+00  0.00000000E+00
  0.00000000E+00  0.00000000E+00  0.00000000E+00
  0.00000000E+00  0.00000000E+00  0.00000000E+00
  0.00000000E+00  0.00000000E+00  0.00000000E+00
  0.00000000E+00  0.00000000E+00  0.00000000E+00
  0.00000000E+00  0.00000000E+00  0.00000000E+00
  0.00000000E+00  0.00000000E+00  0.00000000E+00
  0.00000000E+00  0.00000000E+00  0.00000000E+00
  0.00000000E+00  0.00000000E+00  0.00000000E+00
  0.00000000E+00  0.00000000E+00  0.00000000E+00
  0.00000000E+00  0.00000000E+00  0.00000000E+00
  0.00000000E+00  0.00000000E+00  0.00000000E+00
  0.00000000E+00  0.00000000E+00  0.00000000E+00
  0.00000000E+00  0.00000000E+00  0.00000000E+00
  0.00000000E+00  0.00000000E+00  0.00000000E+00
  0.00000000E+00  0.00000000E+00  0.00000000E+00
  0.00000000E+00  0.00000000E+00  0.00000000E+00
  0.00000000E+00  0.00000000E+00  0.00000000E+00