Hf4 O8                                  
   1.00000000000000     
    10.2786683393388483    0.0000000000000000   -0.0105955529534743
     0.0000000000000000   10.3842830279987073    0.0000000000000000
    -1.7786949908165393    0.0000000000000000   10.4918465768953233
   Hf   O 
    32    63
Direct
  0.3642680567452466  0.2694579351075497  0.1467994783376287
  0.3717628025931471  0.2647701937925954  0.6599009373783302
  0.3637267592900210  0.7697226706099540  0.1445534828638420
  0.3613776588758782  0.7722717643977290  0.6466469437212018
  0.8592381720504331  0.2715538860400555  0.1443448491788528
  0.8614185146174347  0.2707098886707357  0.6462445539987000
  0.8636880177017007  0.7697801255398941  0.1451920765664534
  0.8581209142265891  0.7745559380096712  0.6468877440940540
  0.1407205613108912  0.0167233598741471  0.1009184384095867
  0.1353021633880378  0.0236388516739675  0.6026121825176161
  0.1378038411952667  0.5200088560972576  0.1044401468306333
  0.1296319667476646  0.5323823505864882  0.6109657057254226
  0.6381640499787151  0.0196485077333085  0.1034372283808763
  0.6397012861661772  0.0209166973673726  0.6039574202181979
  0.6377260789530246  0.5207900605979813  0.1045011305274786
  0.6385865302338342  0.5212076328313928  0.6063351743521871
  0.1287911106985654  0.2183842097455990  0.3393451219833006
  0.1359776768746738  0.2285335055560618  0.8536314137892038
  0.1379329555025884  0.7285173648336966  0.3532105994546259
  0.1374755860374636  0.7321803835623719  0.8570977212595409
  0.6395450901389963  0.2274667318743516  0.3538606224685724
  0.6429305203022806  0.2279680779779489  0.8580451112067647
  0.6441574250578872  0.7305059983445825  0.3522844987654014
  0.6370457778973874  0.7289336275877232  0.8548132024554231
  0.3756182966512758  0.4878087108463752  0.3881212794348862
  0.3619426105514990  0.4809862550808503  0.8967656459719200
  0.3670386164551356  0.9745612292715744  0.3929784807549474
  0.3634118807290250  0.9794119291583047  0.8957522677696789
  0.8620668116063727  0.4773651386798775  0.3965409448322483
  0.8627793525924451  0.4801833199228432  0.8969719184981476
  0.8616761652372554  0.9770405161387974  0.3951476797586313
  0.8624080040393677  0.9787527706781106  0.8965567067657177
  0.2763398269068261  0.1284537692596589  0.0099189014411978
  0.2609832660561830  0.1638061163182520  0.5090099807572521
  0.2750961786762609  0.6285044555269155  0.0110839737428896
  0.2715949534909552  0.6223213111955930  0.5097930738860206
  0.7760300028978248  0.1284953497801480  0.0109490089932199
  0.7760463901375193  0.1279878070906827  0.5101156071795752
  0.7749536822090748  0.6279535986022915  0.0108999112695787
  0.7751653886483336  0.6273339431145266  0.5138182396250119
  0.2247945878725985  0.3774406598907342  0.2527667107167550
  0.2250440074016533  0.3800207211335646  0.7277429278995953
  0.2267297151463029  0.8751537148070683  0.2385062376475523
  0.2231834292539304  0.8801251953540979  0.7381656508629411
  0.7263634482159906  0.3772552162935922  0.2397583414559538
  0.7217181547283785  0.3788242853948265  0.7388602620221252
  0.7259770132831267  0.8767156151566842  0.2391499997352994
  0.7224605081134278  0.8789261090900504  0.7392539200557895
  0.2242007334903694  0.3717102963624688  0.9893286168499776
  0.2272294825980934  0.8746494972681986  0.4885212717127141
  0.2256807915706457  0.8722150460520631  0.9889669582037837
  0.7233460927074061  0.3717580605117579  0.4904333424892500
  0.7260562172578172  0.3718312697676924  0.9905022584390060
  0.7239434602590383  0.8715596530403664  0.4896170218807934
  0.7246882707035890  0.8715110177504757  0.9891365241643061
  0.2754102754672363  0.1167921843962163  0.2584188351603501
  0.2757633540706730  0.1214687974140736  0.7608744676738799
  0.2774705512461850  0.6228689409222709  0.2589860657624936
  0.2722778826264164  0.6250192414295079  0.7627626932520958
  0.7758979996323455  0.1201904762017504  0.2602968728589637
  0.7776251517663854  0.1218696702410720  0.7611343246471992
  0.7774877020487130  0.6200552975376179  0.2617506096128404
  0.7732613051753455  0.6216137929648989  0.7604531041979815
  0.4710054452263046  0.3384429075800280  0.3225439721330896
  0.4709830831347647  0.3380889680620722  0.8311435295664640
  0.4699833546147527  0.8360873147224663  0.3247810982124070
  0.4663974058560243  0.8369094616800081  0.8233281523984134
  0.9696035206105221  0.3356918807235050  0.3252720759076594
  0.9668277390387153  0.3393487845215464  0.8232246412532408
  0.9666407434793109  0.8328024782129029  0.3263734980670696
  0.9652443306014077  0.8379052397462394  0.8248416932192245
  0.0335465167843356  0.0786669321505673  0.4208464466411909
  0.0336024550174729  0.0872195300004548  0.9249478526780091
  0.0337505444636914  0.5844109751067482  0.4272580266349031
  0.0327475327668992  0.5885324535159512  0.9272399020064848
  0.5317185940420835  0.0890160030879835  0.4266650663429351
  0.5339303717418415  0.0873353230775971  0.9255551321020390
  0.5397159829192187  0.5865132979644825  0.4233903352036779
  0.5315864805089207  0.5881258990452064  0.9264701035897656
  0.0295443379140887  0.1574607504993638  0.1707263589498293
  0.0313118223764082  0.1620757169500333  0.6758312317046472
  0.0335226893091868  0.6602559095942014  0.1767074494712871
  0.0286946620238121  0.6663651393454318  0.6783848149133893
  0.5327854855879350  0.1615492764168891  0.1752940338487854
  0.5374062900183615  0.1618916109986313  0.6791201206129942
  0.5344559580777108  0.6620803379915638  0.1765255007555936
  0.5302279015375211  0.6600720301838098  0.6741652284408027
  0.4655943327429763  0.4141915757681717  0.0763467436760807
  0.4417694776020771  0.4134386857673074  0.5660205355978657
  0.4682050403998239  0.9117492597074573  0.0739365000766848
  0.4658613849053903  0.9161040772809154  0.5754587247773182
  0.9689006746887131  0.4101884887790988  0.0746161983157043
  0.9701326546728114  0.4103400406245540  0.5736191440506525
  0.9688466165588749  0.9102150950242831  0.0739649766696833
  0.9662550980042042  0.9145084440721736  0.5764938083735451
 
  0.00000000E+00  0.00000000E+00  0.00000000E+00
  0.00000000E+00  0.00000000E+00  0.00000000E+00
  0.00000000E+00  0.00000000E+00  0.00000000E+00
  0.00000000E+00  0.00000000E+00  0.00000000E+00
  0.00000000E+00  0.00000000E+00  0.00000000E+00
  0.00000000E+00  0.00000000E+00  0.00000000E+00
  0.00000000E+00  0.00000000E+00  0.00000000E+00
  0.00000000E+00  0.00000000E+00  0.00000000E+00
  0.00000000E+00  0.00000000E+00  0.00000000E+00
  0.00000000E+00  0.00000000E+00  0.00000000E+00
  0.00000000E+00  0.00000000E+00  0.00000000E+00
  0.00000000E+00  0.00000000E+00  0.00000000E+00
  0.00000000E+00  0.00000000E+00  0.00000000E+00
  0.00000000E+00  0.00000000E+00  0.00000000E+00
  0.00000000E+00  0.00000000E+00  0.00000000E+00
  0.00000000E+00  0.00000000E+00  0.00000000E+00
  0.00000000E+00  0.00000000E+00  0.00000000E+00
  0.00000000E+00  0.00000000E+00  0.00000000E+00
  0.00000000E+00  0.00000000E+00  0.00000000E+00
  0.00000000E+00  0.00000000E+00  0.00000000E+00
  0.00000000E+00  0.00000000E+00  0.00000000E+00
  0.00000000E+00  0.00000000E+00  0.00000000E+00
  0.00000000E+00  0.00000000E+00  0.00000000E+00
  0.00000000E+00  0.00000000E+00  0.00000000E+00
  0.00000000E+00  0.00000000E+00  0.00000000E+00
  0.00000000E+00  0.00000000E+00  0.00000000E+00
  0.00000000E+00  0.00000000E+00  0.00000000E+00
  0.00000000E+00  0.00000000E+00  0.00000000E+00
  0.00000000E+00  0.00000000E+00  0.00000000E+00
  0.00000000E+00  0.00000000E+00  0.00000000E+00
  0.00000000E+00  0.00000000E+00  0.00000000E+00
  0.00000000E+00  0.00000000E+00  0.00000000E+00
  0.00000000E+00  0.00000000E+00  0.00000000E+00
  0.00000000E+00  0.00000000E+00  0.00000000E+00
  0.00000000E+00  0.00000000E+00  0.00000000E+00
  0.00000000E+00  0.00000000E+00  0.00000000E+00
  0.00000000E+00  0.00000000E+00  0.00000000E+00
  0.00000000E+00  0.00000000E+00  0.00000000E+00
  0.00000000E+00  0.00000000E+00  0.00000000E+00
  0.00000000E+00  0.00000000E+00  0.00000000E+00
  0.00000000E+00  0.00000000E+00  0.00000000E+00
  0.00000000E+00  0.00000000E+00  0.00000000E+00
  0.00000000E+00  0.00000000E+00  0.00000000E+00
  0.00000000E+00  0.00000000E+00  0.00000000E+00
  0.00000000E+00  0.00000000E+00  0.00000000E+00
  0.00000000E+00  0.00000000E+00  0.00000000E+00
  0.00000000E+00  0.00000000E+00  0.00000000E+00
  0.00000000E+00  0.00000000E+00  0.00000000E+00
  0.00000000E+00  0.00000000E+00  0.00000000E+00
  0.00000000E+00  0.00000000E+00  0.00000000E+00
  0.00000000E+00  0.00000000E+00  0.00000000E+00
  0.00000000E+00  0.00000000E+00  0.00000000E+00
  0.00000000E+00  0.00000000E+00  0.00000000E+00
  0.00000000E+00  0.00000000E+00  0.00000000E+00
  0.00000000E+00  0.00000000E+00  0.00000000E+00
  0.00000000E+00  0.00000000E+00  0.00000000E+00
  0.00000000E+00  0.00000000E+00  0.00000000E+00
  0.00000000E+00  0.00000000E+00  0.00000000E+00
  0.00000000E+00  0.00000000E+00  0.00000000E+00
  0.00000000E+00  0.00000000E+00  0.00000000E+00
  0.00000000E+00  0.00000000E+00  0.00000000E+00
  0.00000000E+00  0.00000000E+00  0.00000000E+00
  0.00000000E+00  0.00000000E+00  0.00000000E+00
  0.00000000E+00  0.00000000E+00  0.00000000E+00
  0.00000000E+00  0.00000000E+00  0.00000000E+00
  0.00000000E+00  0.00000000E+00  0.00000000E+00
  0.00000000E+00  0.00000000E+00  0.00000000E+00
  0.00000000E+00  0.00000000E+00  0.00000000E+00
  0.00000000E+00  0.00000000E+00  0.00000000E+00
  0.00000000E+00  0.00000000E+00  0.00000000E+00
  0.00000000E+00  0.00000000E+00  0.00000000E+00
  0.00000000E+00  0.00000000E+00  0.00000000E+00
  0.00000000E+00  0.00000000E+00  0.00000000E+00
  0.00000000E+00  0.00000000E+00  0.00000000E+00
  0.00000000E+00  0.00000000E+00  0.00000000E+00
  0.00000000E+00  0.00000000E+00  0.00000000E+00
  0.00000000E+00  0.00000000E+00  0.00000000E+00
  0.00000000E+00  0.00000000E+00  0.00000000E+00
  0.00000000E+00  0.00000000E+00  0.00000000E+00
  0.00000000E+00  0.00000000E+00  0.00000000E+00
  0.00000000E+00  0.00000000E+00  0.00000000E+00
  0.00000000E+00  0.00000000E+00  0.00000000E+00
  0.00000000E+00  0.00000000E+00  0.00000000E+00
  0.00000000E+00  0.00000000E+00  0.00000000E+00
  0.00000000E+00  0.00000000E+00  0.00000000E+00
  0.00000000E+00  0.00000000E+00  0.00000000E+00
  0.00000000E+00  0.00000000E+00  0.00000000E+00
  0.00000000E+00  0.00000000E+00  0.00000000E+00
  0.00000000E+00  0.00000000E+00  0.00000000E+00
  0.00000000E+00  0.00000000E+00  0.00000000E+00
  0.00000000E+00  0.00000000E+00  0.00000000E+00
  0.00000000E+00  0.00000000E+00  0.00000000E+00
  0.00000000E+00  0.00000000E+00  0.00000000E+00
  0.00000000E+00  0.00000000E+00  0.00000000E+00
  0.00000000E+00  0.00000000E+00  0.00000000E+00
