Amorphous Sb                            
   1.00000000000000     
    20.6671579077798029    0.0000000000000000    0.0000000000000000
     0.0000000000000000   20.6671579077798029    0.0000000000000000
     0.0000000000000000    0.0000000000000000   20.6671579077798029
   Si   Sb
    45   255
Direct
  0.6343425196958599  0.4139585584885265  0.4377473295099183
  0.8640373387449397  0.7056266045828805  0.6625136732792919
  0.7300671369738282  0.9548020372684368  0.7728568579440811
  0.2028029729040228  0.9851555648095518  0.5186444423982568
  0.2822830527449009  0.7238917306510270  0.4081900140231397
  0.0910971889471488  0.7700455909958199  0.0981832099763856
  0.9059948924783863  0.9993054716453339  0.7997687554818006
  0.8083190878498107  0.9779311506406011  0.3336546501709083
  0.0017845056870633  0.6754995473814319  0.5329013192145724
  0.8280282001067160  0.9763206666589607  0.7183437530765362
  0.3857991417659897  0.9970512088236423  0.4890708934377715
  0.7558261687827886  0.8913308233800268  0.8721399927239276
  0.7145644577548302  0.3129284428603703  0.1647598278682002
  0.2786376743872337  0.2830086910829236  0.0747608440222144
  0.3311341852030287  0.8916600556819680  0.4795378071575473
  0.6582174404920551  0.4873493601310738  0.6467330643909210
  0.1938787923965564  0.9049046314054073  0.0128464954309466
  0.5077385802832376  0.6299067774758366  0.9571235676694422
  0.2912901410822746  0.3911716001756971  0.1050337111266906
  0.1021524556499199  0.3966914793328900  0.8965478066937710
  0.0654092474935377  0.4797834496952385  0.6195212765079069
  0.2743711214115492  0.1379341384227844  0.1515369903536793
  0.3577080480700197  0.2052015177101624  0.1067016109123218
  0.3700657911846125  0.6502177743380014  0.3778005336428866
  0.1035220327837805  0.2042845367183455  0.1793545049404631
  0.6171305150101921  0.4392623979152854  0.7411521216743300
  0.4690570097284343  0.1793301737395891  0.1084561420969630
  0.1938658017155846  0.0181931976343262  0.8682049065389165
  0.2638117448483610  0.2979345119403581  0.9615323583987315
  0.9017132504232773  0.5907306986611498  0.3894084966739591
  0.9037438823813103  0.7302963962037631  0.5567182893366140
  0.0107804663709430  0.2522763881935665  0.1506815422917896
  0.1624456966776841  0.7678045490762860  0.2863597927794551
  0.2105274093520904  0.3915266986722756  0.9307816253356470
  0.7374808934097852  0.2650544802974150  0.4490949120359733
  0.2682250791767926  0.4318828275620772  0.2099073947378528
  0.0804770259593632  0.7526350101433914  0.2115308674993315
  0.8608996075709665  0.3959171786892232  0.9345015502954785
  0.2416665317760333  0.5801482494157651  0.8601561938619506
  0.6833771365542124  0.4160246416410992  0.1368922270456322
  0.0105201768596805  0.6991458643216156  0.0669721287976941
  0.1706957208429412  0.9083776266923841  0.8401363054611305
  0.1964872818186019  0.2107139270734958  0.1095471974268613
  0.3626512412122975  0.0994418644607809  0.5416121274410027
  0.5657778101531605  0.2934309369628224  0.8121506985139673
  0.3869496987416036  0.0987990444519316  0.6813001604581386
  0.1703029634776527  0.5984234118673851  0.3027574172980340
  0.9319307990781460  0.8482678652310449  0.5203086357647343
  0.0146076423892077  0.0320710255842402  0.9844165491426353
  0.8057390132666353  0.3785031576399662  0.3069758321726446
  0.5942561351580495  0.9622249975950401  0.1758089783215206
  0.7807525201488239  0.2247022954416160  0.0043686187383670
  0.9263174239962254  0.0261419236272984  0.5961607536464475
  0.7307162076380707  0.8172865339722007  0.1992582601770291
  0.3938779207756851  0.4418279364561939  0.0531624840949779
  0.6744900843626083  0.3255252021652940  0.9739027936375163
  0.7967695183845692  0.2064265367169162  0.5424070526381846
  0.9109964565119554  0.7703534964175731  0.1134133210597271
  0.5381213848018626  0.8651528498654790  0.4854665624063202
  0.8943921469030190  0.1268954317171622  0.2786891000127947
  0.7715842742662714  0.7896159768638890  0.6908349803723255
  0.9860104020924031  0.4636684627896253  0.7234468335491995
  0.2757074709847259  0.7326821637073655  0.2456375720158125
  0.7572254164858561  0.3906867655995589  0.4620065872189531
  0.0836414161430388  0.3728498790752017  0.1822476492743232
  0.5892572205654818  0.0775524432574822  0.2474710553041343
  0.6421939567821209  0.4026687221152027  0.3142610607322431
  0.8411900138950082  0.7830391835889412  0.9892686563583213
  0.8120137922717295  0.8623839349438245  0.3888982675008532
  0.4176434810437150  0.9278063899614383  0.6383652029866874
  0.1583607003331141  0.8968342689266663  0.2902082887781687
  0.9165952503808246  0.6057788741730525  0.9574303357555338
  0.5379486653752318  0.2785723372807680  0.1464026054743541
  0.1506321027638076  0.8856194845291709  0.7161682064438681
  0.4598715172864229  0.8737204711784932  0.8165627655032994
  0.6045105140388929  0.9286596526244589  0.0037184722639002
  0.6709566137870584  0.9017587973062717  0.6658799609531223
  0.8090371018065989  0.6947320412950539  0.4733730794037402
  0.9579164853419064  0.4335171537624872  0.1924428572533542
  0.9104055884365851  0.5868909353273234  0.8162794572572675
  0.4378586024274453  0.6371596571648043  0.6542884958001199
  0.0729787225529372  0.9912961533219083  0.5230922506051964
  0.8267920241109070  0.5102314268258807  0.2145274005981631
  0.8862193757543190  0.6919687793987834  0.2877893843018474
  0.1627303635263966  0.5614720265376911  0.6503705452786653
  0.7831807213158321  0.5569019672135720  0.3457761842314225
  0.9792842655895785  0.7324513876206692  0.9485185218559520
  0.7542241717237728  0.1265375500497071  0.2282378031365460
  0.4790540949571924  0.4454401753380662  0.1621684831900652
  0.8567178497444956  0.4212413597921521  0.6185483375732687
  0.1062055197363903  0.7263455922457802  0.5806351510898184
  0.5447342960612824  0.3459846299210677  0.6959131214928819
  0.7829474925500122  0.6422464808206777  0.0036676909305674
  0.3192482715253609  0.8608378528058228  0.9845011391540942
  0.3447270986799896  0.4627294694220573  0.5425647015382661
  0.4140269707940555  0.2561768947476497  0.4567065610899578
  0.2092360863002236  0.1934277140056736  0.9093084324968832
  0.0354825915276482  0.4388433960789786  0.4988436065798575
  0.3323071273630005  0.5890014859104508  0.1090999742710925
  0.4432031179395359  0.8004678544190025  0.6882463640794748
  0.8227016149696943  0.7869195240580168  0.8303772687769208
  0.0942420535971584  0.5988132396592175  0.9670011917929490
  0.6180868465732153  0.2245588065465816  0.4766843202334035
  0.4575351473164914  0.0926297807329088  0.1980950377152044
  0.2659294544879326  0.0097398036091591  0.6944809224730099
  0.9698254812202858  0.1490688923746959  0.5433611756841096
  0.2914910470764815  0.6980727600308152  0.5421466346399599
  0.0295128482187185  0.6432382861123653  0.2430380801199441
  0.5852087735717816  0.8151965411736101  0.2164097468748073
  0.7052891690231952  0.3513307990562962  0.7414844894338554
  0.2592899768665881  0.3834367466095104  0.7197143210186545
  0.3238597821451593  0.2093994439246834  0.7404998052285628
  0.5227814523979019  0.5756792927421254  0.3761649357519354
  0.8901438440233421  0.3895334923824149  0.0595376119055530
  0.8285928072935254  0.0699789519065492  0.8641489255266029
  0.1172123581580989  0.1838936587806744  0.0133960757039949
  0.5289335810222774  0.0136460487429222  0.9030592247449601
  0.3563201476968972  0.7137593785083024  0.9620277962218434
  0.4132610776457300  0.1823708626533581  0.2953575976343772
  0.2474921456373072  0.7114169802251468  0.6980477484443226
  0.9765095701647786  0.2783692174866822  0.0247690502441085
  0.3869480057343549  0.1618104581435287  0.8622531398371549
  0.1212658275313882  0.8680354897043137  0.4382946278228356
  0.8320500842330154  0.2771571684481898  0.1395431507697657
  0.6688036700040891  0.1182392846778517  0.5554508826543180
  0.8507093686030138  0.0062834555299923  0.4803044920395570
  0.5672644289814199  0.6466364741285909  0.6090658108420482
  0.9457236093201011  0.7240360882665097  0.7592548160916505
  0.5077029457806170  0.9264830106030050  0.3577843477972702
  0.2764827617910193  0.5401880506093361  0.3888655484102313
  0.9761810451051817  0.9848389875144891  0.4075152010713476
  0.2051774691312061  0.7589632417122762  0.0348579313235103
  0.3180317091109208  0.0152537036667475  0.1302509807745946
  0.0107423578859061  0.1615126255101756  0.8451255704005428
  0.2933742879144720  0.1408710589522841  0.4359098449432328
  0.7499543888600536  0.9069574174196831  0.5414573349951887
  0.3933365690813366  0.7212128420117973  0.0971710510881931
  0.9928234571076341  0.5784485014351094  0.1170207566078827
  0.4130293649812102  0.0339329947504276  0.3695243498145164
  0.1607961894439519  0.5030725956387367  0.1977773112419109
  0.6515620609148534  0.9719449470590094  0.4588946905937571
  0.4208083682225963  0.7994698171538933  0.5324684745857179
  0.4508302174672786  0.7608523353328656  0.2376114427992539
  0.9217779068899112  0.1397705355925672  0.9515852028951480
  0.1831812276852283  0.0962442475891313  0.7664867122391861
  0.6553117117358265  0.2263466721860463  0.0976135417938006
  0.6256569145110791  0.7483379935288377  0.7650666342287373
  0.8603088171689921  0.9666450921205854  0.1339452437945481
  0.5146513769150418  0.1733750060248536  0.6650367008080263
  0.9588487545669168  0.4576957816233952  0.8828067600343024
  0.4451885251047162  0.5016220321584662  0.6851307368133711
  0.7752516060510986  0.5443300142192284  0.8141384861642370
  0.5647804744769389  0.5448825829502518  0.8001325139307168
  0.1121311409976017  0.5955663590611637  0.8283884699088699
  0.3025475806673265  0.5127854741833199  0.6615963370632721
  0.5282346314338250  0.5650598252377517  0.2291526031278739
  0.9239665282259925  0.9907440356804816  0.2739422118051959
  0.5640896718777286  0.1970892584051197  0.9547651490240274
  0.6592818538205912  0.0604671418710968  0.7933918803931144
  0.2921477612718901  0.3292400821167053  0.3865669096457252
  0.7538502765997198  0.8669380173367791  0.0715635375102597
  0.8416818447494893  0.2876523022507772  0.8674788092806054
  0.2845797481992925  0.8250194214803890  0.1396384179080453
  0.6483167628603027  0.5415469417952989  0.4405445468639175
  0.6812538175024476  0.8684848779014526  0.3535439302695605
  0.5795128333023355  0.4291948430346751  0.0646467454944569
  0.9747674485580028  0.5676281346991294  0.5941254675698073
  0.7425712983929098  0.9825017859941090  0.2183698290105033
  0.8302374651713895  0.4073525673373559  0.7721566288908562
  0.2655147573401578  0.7270523654550611  0.8430515868541255
  0.6909235821819401  0.2592210250037408  0.8528565507551881
  0.6328509108450739  0.7531797645680740  0.4225504227402642
  0.0148033777414778  0.8688819656985435  0.0934533806443091
  0.2075325710721187  0.2500532052399992  0.4518161036657345
  0.4391538345455446  0.7676241555179707  0.3763999665452447
  0.1229890701687534  0.7549344279934977  0.7619306066021851
  0.4011092675790389  0.5596418370129991  0.9306098292482675
  0.1846591250977531  0.0320618567291151  0.9945049428551795
  0.2953721331019215  0.0027326167047494  0.2947239313356786
  0.0306439135226497  0.1595500176281461  0.6702197268247599
  0.5391049066204748  0.3743194365145152  0.5074192487113979
  0.1705257315172191  0.2846070756617741  0.8193595606847742
  0.4907870475529125  0.6927862974010904  0.7858135460643896
  0.3910629808474020  0.6011864811314479  0.2469903780791946
  0.5602578320256921  0.5093255129178718  0.5680059545976561
  0.1152675870283733  0.4618494087528638  0.7757184417276315
  0.0586083155876895  0.2978776774471884  0.5085243070000797
  0.0812659475706398  0.0328946782059837  0.3120494430249998
  0.7788780433030297  0.2460782640815738  0.3354268049266092
  0.6881903369883495  0.5988359196839111  0.7101991320400873
  0.7979055125730709  0.0700418352769544  0.6408369811822029
  0.0072576809479907  0.0263412864362602  0.1264288874094338
  0.0535679974141734  0.3492673310714553  0.3315127028305592
  0.0878700807108281  0.0244973490366911  0.6887097834371533
  0.0046057753646347  0.3138307754437971  0.7243230974209481
  0.7457313747013556  0.1660242299174295  0.7353401442186415
  0.3797668223394750  0.8805951191751936  0.2366067306347768
  0.8689150974584247  0.8288337331896346  0.2460588100552994
  0.9213284906159522  0.3876972921706896  0.3967721456206941
  0.6509458646130349  0.2252354521853245  0.6387594410497436
  0.6067022742724418  0.6777632667965747  0.2786822630541311
  0.6178321572171260  0.5626164845460077  0.9287726549674553
  0.6682696470596060  0.5184901836600559  0.2195214754918488
  0.2092362378036045  0.4603372159040392  0.0376082357125831
  0.7395930474061160  0.0712591715292159  0.3749377962527999
  0.0343073884758717  0.0145030289857774  0.8230059560280878
  0.5451007400979202  0.3808209519200218  0.9066369041303699
  0.0472831953528325  0.6599105910417208  0.6960862449371420
  0.4859128281053007  0.7479767427141449  0.9192762985935216
  0.3878215320513198  0.2908160145003104  0.2088689531176504
  0.2550196073010900  0.2666401230526657  0.5821825581013571
  0.3123846559476428  0.8436330893764409  0.3649799802918434
  0.2787889715619591  0.4552043601084874  0.8394659589067504
  0.5064670230623625  0.6808863187006746  0.4822482167518308
  0.3592850873734144  0.4757865141780465  0.2879737981330838
  0.7207661918305339  0.3836105934611438  0.5990818506784192
  0.7050744720906338  0.7730978263425190  0.5441773454438590
  0.3870300568658473  0.3252214260162253  0.5782580713043173
  0.2007382564033652  0.4526584684550537  0.5268251032056803
  0.5945408751939232  0.0321994586716400  0.6653097274216400
  0.1492605269563871  0.7304930684331015  0.4106790866820663
  0.4755273549093121  0.0012494729901056  0.7481284638439635
  0.8593985915023533  0.1343160762515089  0.4343595878184318
  0.1291628536431744  0.7397689517164304  0.9109857230544336
  0.0232728255706729  0.8651447940035083  0.2390834010208137
  0.0485303579580991  0.4657762739004528  0.9918323098458225
  0.5126088357259916  0.6454469895153451  0.0878697162427840
  0.0940072134429422  0.1283624496448038  0.4944254273271675
  0.1895136534477230  0.9349139255355724  0.1514038401234804
  0.3937047416203559  0.6088540182103617  0.5072875215969901
  0.4573444524133197  0.4439721524443889  0.4113678577567227
  0.9353166062990065  0.3044996693625810  0.2497821259620602
  0.7790643092608326  0.9774304838998524  0.9638418291847811
  0.5293218223652166  0.2468696147602117  0.3662046629286101
  0.2533060748253880  0.3062782457882378  0.2459025157957263
  0.6071538427689627  0.7587472258992770  0.0899164540550056
  0.9087693849947081  0.1424420698765279  0.7497420590435251
  0.6642538660317245  0.8205475425461612  0.9278221867390817
  0.1975461542508350  0.5946230266768274  0.5145198519805360
  0.9391513107929369  0.1445895673700929  0.1438788378703070
  0.2768100059019665  0.1467565535463124  0.2804178185753692
  0.5967250203326115  0.8763478524599176  0.8212035400180319
  0.1536350127700109  0.2187902097118794  0.6983995975823072
  0.9871294242525284  0.8542404952117784  0.7168237052651554
  0.9862370459401849  0.8429950158610768  0.3878634856657280
  0.9987509585156371  0.3118587944143935  0.8677390017025861
  0.7156812640306640  0.6701920373313595  0.1841730475367018
  0.8605737799436282  0.6341152923497564  0.1554771846440768
  0.3234710419488910  0.0769832686003543  0.0025962641409895
  0.3747284698072603  0.2983840277136851  0.8998518938570206
  0.0793228153950658  0.5547957827284200  0.4161537492056346
  0.8655633197366090  0.8786733861961257  0.6470499384146289
  0.3991978488126239  0.9675959264246506  0.9396012498825004
  0.3147939798503966  0.0155351067357325  0.8338059273900453
  0.5144350257761984  0.0847164963995269  0.0333883659983703
  0.4519294954511404  0.9478189145922294  0.1299631467650108
  0.2141402289637954  0.6475104880061636  0.1500905724176602
  0.9158790803463527  0.9212026379058939  0.9784142970156147
  0.6894807546313853  0.1237287841077172  0.9512329774588668
  0.5787980105146262  0.7920344563838819  0.6364153469164159
  0.2052980957534609  0.0320476472752694  0.3966466318672253
  0.5052585189236030  0.3706996648092203  0.2976859117547054
  0.7149321271764967  0.6632083123803107  0.8805500417062668
  0.7438083233525417  0.4567234549518394  0.9336899862709025
  0.7870854404357129  0.5746420982075464  0.5293268509306135
  0.7457908169509860  0.6968394134441287  0.3320825541261114
  0.4784270582042661  0.1509414414217282  0.5248216735893827
  0.9124856702476275  0.2986765747036125  0.5595415424875136
  0.0533667420257031  0.8503521013741386  0.5776690076426717
  0.5263282755648252  0.1749370872380475  0.8200205835376004
  0.8768740284257899  0.2748141068055873  0.6931959855449001
  0.8919342572752867  0.5027280262520174  0.4898769597329676
  0.1209322387549902  0.2275134695511908  0.3039985157009286
  0.2287266501693563  0.8587765843193904  0.5459034697989950
  0.7743934170673972  0.4811490612666293  0.0736815649532658
  0.9238659752958100  0.8805434171945783  0.8432487587277564
  0.4978918104793776  0.8467777672790604  0.0361084397449353
  0.2903095925030387  0.8512032832850286  0.6893700045995356
  0.3992497957513058  0.3364839650357289  0.7286822608012123
  0.5009686877153930  0.9921799844111274  0.5408065518530343
  0.2918590999528030  0.8621061221554923  0.8421552579659819
  0.4526495052463757  0.4686499283410419  0.8328231049419417
  0.0252347702759044  0.1554266171439570  0.3696006538644930
  0.1078016952439554  0.3327657477334615  0.0349834808660039
  0.2221970938206662  0.1034120915644657  0.5799334645269651
  0.6424416120470079  0.5634002924110812  0.0750127954125410
  0.2385924857552096  0.5890517316462187  0.9889910693513867
  0.3491455516735689  0.6185840381902977  0.7999430519779916
  0.1934581183863260  0.4272234192815640  0.3806046081912741
  0.9742286415549209  0.5026953960566943  0.3263596601136481
  0.5650822500481829  0.0610862083632109  0.3863538340998517
  0.8289426866989448  0.5885951653433260  0.6606452460768453
  0.1256187422267068  0.3392338178151788  0.6204268823959759
  0.0017487018539037  0.6763405213803477  0.4049367168299232
  0.0891044628962052  0.8762218569874288  0.9381793895364736
  0.6503403964866595  0.0782568305533374  0.0808233493928806
  0.6543447011386723  0.2684052783141954  0.2691253882087198
  0.8169054941466233  0.0984006330505168  0.0801390099194808
  0.4683218123836221  0.3098439938418817  0.0063789012584045
  0.1208762008983892  0.0775413689900682  0.1813139363679419
 
 -0.60297358E-02  0.33966146E-02 -0.38902667E-03
  0.54592879E-02  0.74712729E-03 -0.29896099E-02
 -0.14631549E-02 -0.18873116E-02  0.55822787E-03
  0.10299390E-02 -0.13143252E-02  0.10293181E-02
 -0.40181318E-02 -0.42123666E-02 -0.27648669E-03
  0.23815510E-02  0.15031316E-02  0.58776433E-03
 -0.15374074E-02  0.29061684E-02  0.30259665E-02
  0.41791295E-03 -0.46783654E-02 -0.24721389E-02
 -0.88381402E-03 -0.26996840E-02 -0.28251094E-02
  0.38796840E-02  0.42861037E-02  0.25356268E-03
 -0.54413650E-02 -0.86606367E-03  0.31717072E-02
 -0.62629711E-03  0.26636308E-02 -0.24517832E-02
  0.67616395E-03  0.36596318E-02  0.24588124E-02
 -0.46414138E-02  0.11064241E-02  0.29666012E-02
 -0.62773363E-02  0.12999551E-02  0.27977427E-02
 -0.45047977E-02 -0.59830096E-03  0.26072815E-02
  0.44915389E-02  0.46997596E-03 -0.20707310E-02
 -0.30524525E-02 -0.48168419E-04  0.54490110E-02
 -0.45244864E-03  0.13274141E-02  0.11983392E-02
  0.39468013E-02 -0.37341826E-02 -0.13391146E-02
  0.98377630E-03  0.32163705E-03  0.17301036E-02
  0.24285423E-02 -0.56991091E-02  0.26931770E-02
  0.26293025E-02  0.97741583E-03 -0.16842709E-02
 -0.17246166E-02  0.65762901E-02 -0.51103688E-04
  0.33523889E-02 -0.53824702E-03 -0.12525097E-02
  0.17217966E-02 -0.27215282E-02  0.36937653E-02
 -0.94646449E-03 -0.21766241E-02 -0.53059256E-02
 -0.38299137E-02  0.17432225E-02 -0.74952720E-03
  0.38776657E-02 -0.59961190E-02 -0.22930830E-02
 -0.69312078E-02 -0.10089173E-02 -0.26964757E-02
 -0.28615239E-02  0.33893053E-03  0.29915133E-03
  0.27224259E-02  0.39265263E-02  0.11520857E-02
  0.31413573E-02 -0.13582404E-02 -0.15075263E-03
 -0.20869622E-02 -0.38078922E-02  0.53240791E-03
  0.54019608E-02  0.13179969E-02 -0.33779852E-03
  0.24455421E-02  0.33585431E-02 -0.13813871E-02
 -0.16067643E-02 -0.15605789E-02 -0.17496682E-02
  0.26053947E-02  0.13032029E-02  0.26736303E-02
  0.68121403E-03  0.36836292E-03 -0.30055163E-02
 -0.37135889E-03 -0.21130657E-02 -0.73843585E-03
  0.27305071E-03 -0.13878344E-02 -0.10459230E-02
  0.40047991E-02  0.23327858E-02 -0.87613133E-03
  0.20404817E-02  0.24634908E-02  0.42943624E-02
 -0.77090623E-03  0.31105994E-02 -0.40105498E-02
  0.20036864E-02 -0.54583680E-02  0.61652511E-02
 -0.23866897E-02  0.41894779E-03  0.11831578E-03
  0.13439816E-02  0.87331407E-03 -0.12641662E-02
 -0.18160047E-03 -0.13924911E-02  0.11611932E-02
  0.19545967E-03  0.94627235E-03 -0.30894532E-03
 -0.22141822E-02  0.45155962E-02 -0.26260518E-03
  0.43053693E-03  0.56745871E-03  0.25941976E-03
  0.69129321E-03 -0.34052997E-03 -0.20798329E-02
  0.67556487E-03 -0.11288147E-02 -0.15703160E-02
  0.15108097E-02  0.45211568E-03 -0.50729082E-03
  0.20812037E-02  0.16947804E-02  0.16799091E-02
 -0.14116674E-02 -0.90638126E-03  0.56900355E-03
  0.44533839E-03  0.81812850E-03 -0.27875504E-02
  0.67220576E-03  0.28301307E-03 -0.98755585E-03
  0.16765416E-03  0.10861520E-02  0.67085447E-04
 -0.12853685E-02  0.20662637E-02 -0.33160751E-03
  0.13464828E-02 -0.32496033E-03  0.18360150E-02
  0.11484969E-03  0.28114371E-02 -0.49762888E-03
  0.28211338E-03 -0.19693106E-02 -0.47386128E-03
 -0.17601392E-03 -0.10418648E-02  0.18791336E-02
 -0.44898725E-03 -0.16152584E-02  0.14477113E-02
  0.26897092E-03 -0.48042592E-03  0.87116992E-05
  0.17101010E-02 -0.67436243E-03 -0.32567181E-02
  0.20652522E-02 -0.29768133E-02  0.70585318E-03
 -0.23739120E-02 -0.16620748E-02  0.34528233E-04
 -0.16206440E-02 -0.95092261E-03  0.22531784E-02
  0.18812254E-02 -0.22378220E-02  0.93937505E-03
  0.16439836E-02 -0.92463734E-03 -0.50339384E-03
 -0.92093776E-04  0.12935340E-02  0.77984909E-03
 -0.25544596E-02 -0.41051163E-03  0.10936048E-02
 -0.63047783E-03 -0.43654372E-03  0.87830877E-04
  0.61448299E-03 -0.11530214E-02 -0.74032897E-03
 -0.38599489E-03  0.16041897E-02 -0.25496427E-03
 -0.13224029E-02 -0.40157752E-02  0.90149849E-03
  0.15592555E-02  0.35070210E-03 -0.17569561E-02
 -0.29840878E-02  0.21442976E-02  0.18767755E-02
  0.23339135E-02  0.30582278E-02 -0.12109368E-02
 -0.26070285E-03 -0.53798335E-03  0.79123352E-03
  0.12684948E-02  0.13172427E-02  0.20361625E-02
  0.34697451E-03 -0.69431179E-03 -0.22778085E-02
 -0.98052898E-06  0.33191202E-02 -0.76041557E-03
  0.73917009E-04  0.36181949E-03  0.46998077E-03
 -0.10153865E-02 -0.15343017E-02  0.18342282E-02
 -0.11705885E-02  0.23034415E-02  0.41816627E-03
 -0.10061247E-05 -0.15743247E-03  0.65206332E-03
 -0.46037644E-03 -0.81111118E-03 -0.28766186E-02
  0.12971698E-02  0.51816132E-04 -0.52731140E-03
 -0.10919540E-02  0.75826994E-03  0.11294181E-03
  0.39499325E-03 -0.62287124E-03  0.15262245E-02
  0.99662634E-03 -0.25038887E-02 -0.10219852E-02
  0.32075592E-02  0.22599155E-04  0.11376635E-03
 -0.22046201E-02  0.43597730E-03  0.18783212E-03
 -0.19334953E-02 -0.19663839E-02  0.10353758E-02
 -0.92077839E-03 -0.89953543E-03  0.38318732E-03
 -0.22153581E-02 -0.90915600E-03  0.11417076E-02
  0.63471868E-03  0.16242311E-02 -0.44331334E-03
 -0.19415027E-02  0.18347993E-03  0.11386571E-02
 -0.11076813E-02  0.31590863E-02  0.14869926E-02
  0.29060411E-02 -0.19566824E-02  0.83267400E-03
  0.89019480E-03 -0.10476469E-02  0.61898426E-03
  0.14761759E-02  0.18954821E-02  0.86270531E-03
  0.37805936E-03  0.64497692E-03 -0.67320128E-03
 -0.70619741E-03 -0.73205112E-03 -0.74670063E-03
 -0.46631934E-03 -0.10272733E-02  0.19283612E-03
  0.94354192E-03  0.23698149E-03 -0.98935266E-03
  0.15634152E-03 -0.23745207E-03  0.19988898E-02
 -0.85784103E-03  0.69445526E-03  0.24209216E-02
 -0.15712381E-02 -0.10665137E-02 -0.33871056E-02
  0.99253966E-03  0.54496207E-03 -0.12800238E-02
  0.12834436E-02 -0.77985247E-04  0.41301488E-03
 -0.16793293E-02 -0.24366517E-02 -0.31417447E-03
 -0.24132639E-02 -0.78606464E-03 -0.90877282E-03
 -0.78604075E-03 -0.15433151E-03  0.14081755E-02
  0.57422320E-04  0.40976165E-02  0.10665572E-02
 -0.23529681E-03  0.15373846E-02 -0.62826093E-03
  0.14838670E-02 -0.99013499E-03  0.11704295E-02
 -0.23787055E-02  0.20797090E-02 -0.14349011E-02
 -0.11314764E-02 -0.49051642E-03 -0.29981597E-02
  0.22622206E-02  0.95414228E-04  0.96594694E-03
  0.21956975E-02  0.10954930E-02 -0.16028049E-02
  0.26910558E-02 -0.75721032E-03  0.49704092E-03
 -0.18695715E-03 -0.18793800E-02  0.18505667E-02
 -0.27222809E-02 -0.10157062E-02 -0.95609672E-03
 -0.21179036E-03 -0.34271134E-03  0.11178603E-02
 -0.10298967E-02  0.12656655E-03  0.60711799E-03
 -0.52921851E-03 -0.94550687E-03 -0.16554631E-02
  0.12021586E-02  0.39701026E-03 -0.11781274E-02
 -0.57277279E-03 -0.63102277E-03  0.24012669E-02
 -0.20196708E-02 -0.18595784E-02  0.22243712E-02
 -0.18359178E-02 -0.16095323E-02 -0.23077473E-02
  0.11303086E-02  0.43452411E-03 -0.16837458E-02
  0.11338326E-02  0.16002141E-02  0.18391604E-02
  0.46589570E-03  0.30618703E-03  0.30297046E-04
 -0.20098467E-02  0.18736228E-02  0.18354343E-02
 -0.33328952E-02 -0.21463068E-02 -0.16482244E-03
  0.95557994E-03 -0.24162316E-02  0.31791346E-03
  0.21383898E-02  0.20619536E-02  0.80459579E-03
 -0.38371114E-05  0.70010667E-03 -0.59703612E-02
  0.15798323E-02  0.12385280E-02  0.16961028E-02
 -0.77879655E-03 -0.13053672E-02 -0.72697338E-03
  0.70832602E-03  0.54595978E-03 -0.14193077E-02
  0.15372077E-02  0.32920763E-03  0.32754009E-02
 -0.21615778E-02 -0.92636437E-03  0.26415796E-02
 -0.19590360E-02  0.28009461E-02  0.17601872E-02
  0.79477060E-03 -0.68583338E-03 -0.21559276E-02
  0.22455368E-02 -0.69094786E-03 -0.74958494E-04
  0.20309789E-03 -0.88355517E-03  0.26095201E-03
  0.39398173E-03  0.88132892E-03  0.10211389E-02
 -0.43609439E-03  0.84639169E-04 -0.41018912E-03
 -0.42643496E-03 -0.72119750E-03  0.16488125E-03
 -0.41856142E-02 -0.75351602E-03  0.17263537E-02
  0.87705548E-03  0.13149101E-03 -0.17701881E-02
 -0.22902341E-02  0.19438687E-02 -0.19167557E-02
 -0.85728077E-03 -0.33011378E-03  0.26274553E-03
  0.33806527E-03  0.36778755E-03 -0.16975994E-02
  0.83636714E-03 -0.60433643E-03 -0.19072511E-02
 -0.25202358E-02  0.59412249E-03  0.86068310E-04
 -0.89538481E-03 -0.11975058E-02  0.16014584E-02
  0.10620273E-02  0.22032783E-03 -0.14450861E-02
 -0.96138370E-03  0.25982269E-03 -0.44358188E-03
 -0.16471295E-02 -0.14847248E-03  0.14500552E-02
 -0.46095115E-03 -0.96256511E-06  0.24242008E-02
  0.15868331E-02  0.15080403E-02  0.14597200E-02
  0.15230414E-02  0.34289237E-03  0.12208575E-03
 -0.10522647E-05 -0.18541145E-04  0.16847420E-02
  0.14823041E-02  0.12109411E-02 -0.32918823E-03
 -0.12405950E-02  0.12366231E-02 -0.16069139E-02
 -0.26469551E-03 -0.19077348E-02  0.11142875E-02
  0.41278796E-03  0.76825206E-03  0.14596915E-02
 -0.23213278E-02  0.19571645E-02  0.41603844E-03
  0.64579003E-03 -0.65913475E-03  0.20781357E-03
 -0.10927549E-03  0.15994706E-02 -0.13067144E-02
  0.24090466E-02  0.35774866E-03  0.55194107E-03
 -0.16027739E-02  0.11226636E-03 -0.17779391E-02
  0.17217976E-02 -0.14455130E-03 -0.11792741E-02
 -0.18726910E-02  0.10387596E-03  0.14667251E-02
  0.16125443E-02 -0.11865896E-02 -0.31475055E-02
  0.26291641E-02 -0.45671916E-02  0.11555515E-02
  0.29303923E-02 -0.47274140E-03 -0.23541293E-03
 -0.10567963E-02  0.47742411E-03  0.35229554E-03
 -0.15009644E-02  0.91991521E-03 -0.64471053E-03
  0.25450603E-02  0.11504113E-02 -0.10766110E-02
  0.94622255E-03 -0.57572340E-04 -0.37594391E-02
  0.11809064E-03 -0.92785217E-04  0.82065156E-03
 -0.21768715E-02 -0.11863979E-02  0.91227479E-03
 -0.93238687E-03  0.17836716E-02  0.61473712E-03
 -0.10016845E-02 -0.23380119E-02  0.35648319E-03
 -0.21233728E-02 -0.38079874E-04  0.30750636E-03
 -0.10269654E-03  0.10285125E-02 -0.54657723E-03
  0.21992166E-02 -0.47904027E-03 -0.17078441E-02
  0.44978019E-04 -0.20015859E-02  0.77596093E-03
  0.44130111E-03  0.14047165E-02 -0.20581816E-02
 -0.29488400E-03 -0.94760779E-03 -0.11518220E-02
 -0.27718764E-02 -0.17527760E-03 -0.60290960E-03
  0.10579056E-02 -0.46358621E-04  0.13110829E-02
  0.10899514E-02 -0.84593219E-03  0.23626188E-03
  0.30763568E-03 -0.11725563E-03  0.33244164E-03
  0.53775562E-03  0.11540859E-02  0.24635705E-03
  0.81116379E-03  0.65401012E-03 -0.14197337E-02
 -0.17760722E-02 -0.38528414E-03  0.29492994E-03
  0.18541108E-02  0.17255170E-02  0.31197856E-02
  0.13704376E-02  0.32042938E-03 -0.55402440E-03
 -0.16783306E-02 -0.51276665E-03 -0.37656107E-03
 -0.76019629E-03 -0.11629153E-02 -0.40238140E-03
 -0.14786056E-02 -0.13757357E-02 -0.14245926E-02
  0.12734568E-02  0.17191605E-03 -0.21412963E-02
 -0.28276434E-03 -0.29426919E-03  0.40279063E-03
 -0.26542498E-02 -0.43396437E-03 -0.16927441E-02
 -0.65678839E-03 -0.72358401E-04  0.20156860E-02
  0.25362670E-02  0.81839855E-03  0.24466819E-02
  0.46896085E-03 -0.16604632E-02  0.11704725E-02
  0.28608867E-03  0.89259367E-03  0.15951206E-02
  0.30300019E-03 -0.62205865E-03  0.34120811E-03
  0.30806640E-03 -0.11181635E-02 -0.24353473E-02
 -0.59659443E-03  0.18426125E-02  0.20226528E-03
 -0.21023225E-03 -0.59157338E-03  0.88477451E-03
  0.38395131E-02 -0.12776708E-02  0.12869993E-02
  0.59269578E-03 -0.26940460E-02  0.63153003E-03
 -0.96918876E-03  0.32044211E-03 -0.62149413E-03
  0.20247489E-02 -0.10873982E-02  0.12541151E-02
  0.36363311E-03  0.14580959E-02 -0.40095341E-03
  0.37126593E-03 -0.13567242E-02  0.70066141E-03
  0.11953900E-04  0.10806530E-02 -0.10883993E-02
  0.10217863E-02 -0.15301680E-03  0.97935012E-03
 -0.36834360E-03 -0.31323480E-02  0.49482446E-04
  0.16493154E-02 -0.20551119E-02 -0.19349611E-02
  0.22989392E-02 -0.47995666E-03 -0.15544261E-02
 -0.11088640E-02  0.24287324E-02 -0.17870700E-02