Amorphous Sb                            
   1.00000000000000     
    19.9476774052841535    0.0000000000000000    0.0000000000000000
     0.0000000000000000   19.9476774052841535    0.0000000000000000
     0.0000000000000000    0.0000000000000000   19.9476774052841535
   Ge   Se
   150   150
Direct
  0.1719274499999983  0.6839529900000016  0.8417077800000001
  0.1010046600000010  0.2746490999999978  0.4682559900000030
  0.2796073100000029  0.2534839099999999  0.7740371100000019
  0.0606804550000035  0.0332316280000029  0.7348110399999968
  0.5461026999999987  0.1933851699999991  0.8055783900000009
  0.2781170000000017  0.7185983999999976  0.9094125000000020
  0.2805487700000029  0.9057609299999996  0.1466513499999991
  0.3673360800000012  0.6024628999999990  0.3792160699999982
  0.4759566299999989  0.9597325000000012  0.4047574000000012
  0.2301173299999988  0.9527050800000012  0.5588756100000012
  0.8825222700000026  0.9201963399999968  0.1428192699999968
  0.1757983299999992  0.8016523699999993  0.6688904299999976
  0.6488379999999978  0.3557299100000009  0.3436205499999971
  0.1590603599999980  0.5582798699999998  0.3195648299999974
  0.8995128399999999  0.8120752800000020  0.3333128800000011
  0.6907386800000026  0.6964571399999997  0.0062374023999965
  0.3432882500000005  0.6202809400000007  0.9758609100000015
  0.9442288500000018  0.2352883599999984  0.3649582700000025
  0.4691543200000012  0.2477062500000002  0.5998911699999994
  0.8652316100000021  0.1186896800000028  0.9681083999999984
  0.2235818099999989  0.5686226099999985  0.9296155500000012
  0.2785832599999978  0.5462344199999976  0.7847244800000013
  0.1492714399999997  0.1169390000000021  0.0285730149999992
  0.6984733700000021  0.2101225799999966  0.8189041400000008
  0.7333600400000009  0.4021900999999986  0.8024928399999993
  0.4200920999999980  0.3593753999999976  0.9006016399999979
  0.6357317599999988  0.8295664099999982  0.1165837300000021
  0.0141848849999988  0.7820175800000015  0.0692082309999975
  0.7069026100000002  0.3572437899999983  0.5949726200000001
  0.0257327950000033  0.4677744299999986  0.3720812099999975
  0.2505896799999974  0.3562499399999979  0.9845617900000008
  0.2942579300000006  0.0933274249999982  0.3203833399999994
  0.8525616000000014  0.6408954199999997  0.2803010399999977
  0.3815062600000019  0.2764716100000015  0.6967234999999974
  0.0940155629999992  0.9655728999999980  0.8997303800000012
  0.5443223700000033  0.7144281500000034  0.8765270099999967
  0.6438480699999971  0.1765381199999965  0.9821217900000008
  0.3332667000000029  0.0598974079999977  0.4385734600000006
  0.1227226999999971  0.0461144590000018  0.6163564100000016
  0.8576350800000014  0.4570044199999970  0.9684178959999983
  0.0773680380000030  0.6487018600000027  0.9341854500000011
  0.9329491900000022  0.5183024500000002  0.7863634599999969
  0.5722438499999996  0.0736156609999981  0.1134894899999992
  0.0162174869999987  0.1479553599999974  0.4958459099999999
  0.5892900899999987  0.6006152200000017  0.6584288600000008
  0.4841626099999985  0.4708375299999972  0.5925943700000005
  0.6908615700000027  0.4433828199999965  0.1368022099999990
  0.0820376909999965  0.8872848099999970  0.4261624100000034
  0.6478505799999965  0.8428435300000032  0.7079841400000007
  0.4865095299999993  0.4202983599999968  0.2568879600000002
  0.8223367100000019  0.6811313799999965  0.4474029499999972
  0.2132039600000013  0.5306785599999984  0.1083336399999979
  0.7706232700000015  0.1763419600000020  0.6396214000000029
  0.0790521560000030  0.1802565200000004  0.8385377199999979
  0.8483167899999984  0.2752458300000029  0.7109096499999978
  0.0358916070000035  0.8544861299999980  0.2321972200000033
  0.4592159700000025  0.6968850299999971  0.2852796900000030
  0.8043251100000006  0.4247416400000006  0.3820725300000021
  0.3642326299999965  0.1168700999999999  0.6266381900000013
  0.4778135600000013  0.3600915099999966  0.4605954900000029
  0.6000390600000003  0.8078403100000031  0.4873651099999989
  0.3281697800000032  0.6508323899999979  0.5889640600000021
  0.2553734099999971  0.8442277600000025  0.4034033900000011
  0.8623109999999983  0.8185197999999971  0.9501679099999976
  0.1288642199999970  0.0036164651000021  0.4563333199999988
  0.8585640800000007  0.6529738099999989  0.8957323400000021
  0.5226361100000005  0.0205372559999972  0.9476118999999983
  0.4262387699999977  0.8968332500000002  0.7079563300000018
  0.5943893900000035  0.3895786900000004  0.8778908199999975
  0.6884054900000010  0.5674749699999992  0.9910392999999971
  0.9201704299999989  0.0443880150000027  0.8328342100000015
  0.1964043600000025  0.7099329400000016  0.2383783000000008
  0.0323936879999991  0.5593108099999995  0.2460980500000005
  0.6875975299999979  0.2402233400000000  0.1708366499999983
  0.6768951199999975  0.5977779500000011  0.4012212299999973
  0.3508556499999997  0.9089835300000004  0.9144959699999973
  0.8612678399999965  0.1855155499999981  0.1604367699999969
  0.1932614700000030  0.8725702200000001  0.8601932099999985
  0.9870067499999990  0.8231783299999975  0.6193071000000003
  0.9594604700000033  0.0405278100000004  0.3052678700000016
  0.8276431000000031  0.3143636300000026  0.2286510400000026
  0.0961440410000023  0.3981487900000005  0.0583500879999974
  0.9767998800000015  0.5998158800000013  0.6635359899999997
  0.1499423699999980  0.3465211600000018  0.8209218699999994
  0.0194501730000027  0.2364839800000027  0.6564719300000021
  0.7244762799999975  0.0343808339999967  0.8407872299999966
  0.6308664399999984  0.6243193899999966  0.2618331999999981
  0.8701508199999992  0.2843798700000022  0.8917903800000033
  0.7795329599999974  0.5141053199999988  0.5567868199999992
  0.9058910700000027  0.4863391499999992  0.5563185600000011
  0.6055997400000024  0.1621900800000020  0.6059510199999991
  0.0550927390000027  0.7264779300000015  0.3272061600000029
  0.4881005000000016  0.6455750300000034  0.5085083100000034
  0.5524524000000000  0.0366934420000007  0.2642794400000028
  0.2049304700000008  0.4913933799999981  0.5109260099999986
  0.5462008800000007  0.2016398600000002  0.3274827299999998
  0.1593673100000004  0.9608027000000021  0.1310367099999965
  0.0259670279999966  0.4597698800000032  0.6264432600000021
  0.1084167500000035  0.7155718500000035  0.5181020099999998
  0.2515313800000030  0.2007860800000003  0.0421319789999970
  0.4882340099999993  0.3532156699999973  0.1427817599999983
  0.4840896999999984  0.2133438700000028  0.9197234399999985
  0.2630513800000003  0.2530249599999976  0.2186055199999970
  0.9900202500000006  0.3486728700000015  0.1268949000000035
  0.5713494000000026  0.8440379700000022  0.9543359099999975
  0.4025075999999999  0.1126271999999986  0.1520807400000024
  0.0521372050000011  0.2638606699999997  0.9869402799999989
  0.7553210499999992  0.9859092720000007  0.0547284900000022
  0.4419992600000029  0.8650967600000001  0.0790633009999979
  0.7736984200000023  0.7549308199999984  0.0905791380000025
  0.3762800900000016  0.7192242599999972  0.7334305500000013
  0.1686863899999977  0.0782898670000023  0.2613251300000030
  0.4880913399999969  0.7711590799999968  0.6395852300000016
  0.7575767100000022  0.1118107799999990  0.2544404200000017
  0.1132413400000019  0.4781632700000031  0.7895308100000022
  0.7205360100000036  0.8571270600000034  0.5184546200000000
  0.2158328800000007  0.3635554700000014  0.3633457700000022
  0.1328666599999977  0.5874803700000015  0.6516530900000035
  0.9116646299999971  0.2865687099999974  0.5142703499999968
  0.8890917499999986  0.8836463499999994  0.4900500899999969
  0.4156236999999976  0.7589327900000029  0.1507736800000004
  0.8714351100000002  0.4677851699999991  0.1595762800000031
  0.8250830200000010  0.9186956799999990  0.6904844900000029
  0.5620769399999972  0.9353509199999976  0.8245557899999980
  0.0304241970000021  0.6192314700000026  0.4754347300000035
  0.2842530400000030  0.3940280799999982  0.6848668900000021
  0.2687539200000018  0.9759821500000001  0.7732362200000011
  0.3374073199999970  0.7381193499999981  0.4110310599999991
  0.0646404259999969  0.2280548900000028  0.1766998399999977
  0.4898976599999969  0.5212200200000012  0.9029730399999991
  0.4273732400000014  0.5212843500000020  0.1117062499999975
  0.3189777199999995  0.4313150300000004  0.2339813700000022
  0.5148646199999973  0.0119746510000027  0.5704087100000024
  0.4407979900000001  0.3654357300000015  0.7737438400000016
  0.7488068899999973  0.6437743400000002  0.6835895999999977
  0.3226688499999995  0.1415262599999991  0.8265284499999979
  0.8006459799999988  0.3123449799999989  0.0097589005999978
  0.8031987299999983  0.1792069899999973  0.4588626199999979
  0.5998788500000032  0.8375646100000012  0.3256758099999999
  0.7021602900000019  0.6341195400000004  0.8136299299999976
  0.4220748400000005  0.2379592799999983  0.2982765599999979
  0.4469526800000025  0.4956251999999992  0.7693886799999987
  0.8016062399999981  0.9038245699999976  0.3336768500000034
  0.0058983200000000  0.0241333219999973  0.0656620259999983
  0.6044243400000013  0.1100022899999971  0.4295310799999967
  0.2952128900000019  0.2469228799999996  0.5564450199999982
  0.4157655099999999  0.8506026299999974  0.2488000000000028
  0.7709670699999975  0.7564330699999999  0.2851187699999969
  0.9326106700000025  0.7718244499999969  0.7479886699999980
  0.5660279700000004  0.4836741599999996  0.1258580100000017
  0.1973397800000001  0.8085169100000016  0.9723285999999973
  0.7809689799999973  0.0813791400000028  0.5491469400000000
  0.7957547299999987  0.5618557399999986  0.3635803299999978
  0.1704454999999996  0.4562964500000035  0.9634194500000035
  0.5687613400000018  0.6038926499999988  0.1544822400000001
  0.0271025899999984  0.0236822259999983  0.5324999099999985
  0.3954220099999972  0.3636339000000035  0.3235682899999972
  0.0851844159999970  0.3542734899999971  0.3634745600000002
  0.8893097600000033  0.0710792289999986  0.0914360149999993
  0.6116269400000007  0.7574603999999994  0.6058506099999974
  0.0900835619999967  0.8917822800000010  0.6435648100000009
  0.8118974200000011  0.0041441532999968  0.9400668800000034
  0.5671905700000011  0.0623072409999992  0.8391339399999964
  0.1647045799999987  0.2609498099999996  0.7286604100000034
  0.2786647000000002  0.3759966100000014  0.8146463699999984
  0.4283340599999974  0.1672593899999981  0.7537733400000022
  0.3059801599999972  0.2170947600000019  0.3423589699999994
  0.3983953500000013  0.9944742799999986  0.6163942700000007
  0.0430473790000008  0.1341949099999979  0.9610654900000029
  0.5932161100000002  0.2917910099999972  0.2448699199999993
  0.8251291400000014  0.1829260900000023  0.8282649900000010
  0.6591076899999990  0.0612391769999974  0.5413867299999993
  0.3678957799999978  0.4042069099999992  0.1171596599999987
  0.9534209700000034  0.4551112899999978  0.0569936529999993
  0.1488364399999966  0.2074516500000030  0.2720969599999989
  0.8700722299999981  0.7080131499999993  0.0198043959999978
  0.3445132700000002  0.6186658199999968  0.1000219100000024
  0.3261930099999972  0.9365268900000032  0.4626059200000014
  0.3497582500000007  0.5061412000000018  0.6823452900000007
  0.3166957299999993  0.9191510200000010  0.2662448100000034
  0.7148684100000011  0.9239393300000032  0.6304037499999993
  0.7437218700000017  0.5153301200000016  0.6752583700000017
  0.7664809999999989  0.9493968399999986  0.4443774499999975
  0.7030513999999997  0.3256103100000018  0.9030066199999993
  0.2167114299999966  0.3316096100000010  0.4906817600000011
  0.9963373900000008  0.9449350399999972  0.7950724100000031
  0.7427251100000021  0.5391162600000001  0.8850899099999978
  0.9851270400000018  0.1318094100000025  0.7583677499999979
  0.5713336399999989  0.5490760100000003  0.5355136499999986
  0.7497636299999968  0.4195126500000015  0.2431439799999993
  0.5523332799999991  0.4840125400000019  0.7003966400000010
  0.1729679800000028  0.4563786599999986  0.6724987699999971
  0.1250760499999970  0.7928282600000003  0.7899787699999976
  0.9068141899999986  0.1184981800000031  0.4097124299999990
  0.4407172800000012  0.8012834499999997  0.3635865099999975
  0.6420428200000003  0.0476879420000031  0.0058491057000012
  0.8249027900000030  0.2831386100000017  0.3508446700000007
  0.1583089299999969  0.8629652300000004  0.3263404899999998
  0.0037179441999982  0.8008888900000031  0.4844031399999977
  0.7028863099999967  0.7260151799999974  0.3902655400000015
  0.9364046999999971  0.5469271400000011  0.9160978800000024
  0.2676857100000021  0.1150109299999968  0.5279250899999965
  0.5559916099999995  0.9167032699999993  0.0650892099999965
  0.2711150100000026  0.8918682199999992  0.6739644000000027
  0.7202401899999984  0.8652034600000036  0.0199428060000031
  0.7182292700000019  0.4350245500000014  0.4806822700000026
  0.2968712999999994  0.7852063699999974  0.1231944800000022
  0.1966200999999970  0.3054646499999976  0.0960483599999975
  0.0412171979999982  0.5942248899999996  0.7810505400000025
  0.4689308600000004  0.6333240299999972  0.9620422599999969
  0.5916902399999984  0.4915661900000003  0.0006616084500024
  0.9497092100000017  0.7477627499999997  0.8767436300000000
  0.1865479800000003  0.8397688200000033  0.5076600000000013
  0.3653669600000029  0.2535693100000032  0.9326943800000009
  0.7203983200000010  0.2982422299999996  0.7239047400000018
  0.2464758799999984  0.4915219199999967  0.3867552899999964
  0.9610966999999988  0.1822758899999997  0.2427253999999976
  0.6666508500000035  0.0384849309999993  0.1984010999999981
  0.0724615490000033  0.6796424400000021  0.2065438099999994
  0.0896684550000018  0.0776560919999980  0.3657956300000009
  0.6971976100000035  0.2371504199999990  0.5493387599999977
  0.5696104100000028  0.2782979099999991  0.4245685799999990
  0.4127238299999973  0.5221365299999974  0.2434295400000011
  0.7654092200000022  0.1869132699999980  0.0253390290000013
  0.3815240699999976  0.5701052399999966  0.5025456300000002
  0.3657800300000034  0.6327329200000023  0.8229674399999993
  0.3704047700000004  0.9653184399999972  0.0833553650000027
  0.4958545499999971  0.6153420099999991  0.3755651099999966
  0.7421927999999980  0.6611668700000024  0.2028550100000004
  0.9167022500000002  0.2629018700000003  0.0706831090000009
  0.9475934199999969  0.8843165600000020  0.0277761509999976
  0.9141967899999983  0.8043711700000031  0.2046043799999993
  0.0272756939999965  0.3341067599999974  0.5610401599999975
  0.8227222800000007  0.0294669970000001  0.7457880700000032
  0.7734393300000022  0.5147301100000021  0.0657836569999972
  0.3983429900000033  0.9736385100000007  0.8127763600000009
  0.5735058699999982  0.7397776899999968  0.2432559800000007
  0.5781192600000011  0.7403624600000001  0.0382765419999984
  0.4374430200000035  0.8248481099999978  0.9591857400000023
  0.7360369900000023  0.6261260100000001  0.5265830100000031
  0.5896070599999987  0.1993618899999987  0.0994155659999976
  0.3568669699999987  0.7598856899999973  0.5303990800000022
  0.7070556099999976  0.8668487300000010  0.2556172299999986
  0.4649524700000001  0.6453418799999966  0.6542320499999974
  0.9949141195000024  0.9698425500000027  0.1858556800000031
  0.1145696600000008  0.1733126800000022  0.5961693200000013
  0.1482147899999973  0.0524848610000035  0.8261492900000036
  0.4674190200000012  0.1216014600000008  0.9988495756999995
  0.2051913199999973  0.6192308899999972  0.5439478500000021
  0.9368612100000036  0.3852661800000021  0.2380631400000013
  0.5413485699999967  0.3539418499999982  0.5764837099999980
  0.0766844890000016  0.7809006700000012  0.9491701000000035
  0.5732183200000023  0.4575146600000011  0.3340024099999965
  0.2722558899999967  0.1354218399999993  0.1568412199999969
  0.9158101700000003  0.5841778500000032  0.1852459999999994
  0.4118636800000033  0.2456969999999998  0.1755346699999976
  0.2188053699999983  0.6456502699999973  0.7296633799999981
  0.6753252800000027  0.1242136500000015  0.7061832699999968
  0.3098546900000017  0.8145514200000008  0.8328862500000014
  0.5284831700000012  0.9090880299999995  0.2375779799999975
  0.9134617200000008  0.9408665699999972  0.6091562800000005
  0.8587709600000011  0.3797830899999965  0.8084027499999991
  0.9816813229999966  0.6226155000000020  0.3602052399999991
  0.0848229950000032  0.1061585899999997  0.1355031699999998
  0.4552202200000011  0.0769348700000023  0.4618750200000008
  0.4099983999999992  0.0823534909999992  0.2771874299999979
  0.0578346940000003  0.7002899599999992  0.6378726299999968
  0.8184591899999987  0.7857999800000002  0.5424191199999981
  0.2409696300000022  0.5874597600000016  0.2262580399999976
  0.1725641000000024  0.6330974700000027  0.0263009680000010
  0.9205107000000012  0.6136778300000003  0.5327803699999976
  0.1723101099999980  0.2674688500000002  0.9220883200000003
  0.5565094099999968  0.3205485000000010  0.7708391999999975
  0.1114135999999988  0.4708343900000003  0.1594019899999992
  0.8779848100000009  0.6536319300000031  0.7311806900000022
  0.5804169099999967  0.6123637000000031  0.8133388999999980
  0.5525547399999979  0.9335405400000027  0.6937286499999971
  0.9982075080000001  0.2885020399999974  0.8738775599999968
  0.7105132399999974  0.1498501499999989  0.3700332599999996
  0.6884185999999985  0.9149019299999992  0.8291116600000024
  0.1724120299999967  0.6774444099999997  0.3678228099999998
  0.0757507140000016  0.5009595900000008  0.4871060099999980
  0.8208223500000003  0.8262807099999989  0.7668374599999979
  0.5235695300000032  0.3272738200000020  0.9671107300000017
  0.8312241000000000  0.0046253770000035  0.2679822899999991
  0.1156866999999977  0.8382251199999970  0.1269552400000009
  0.9183186599999971  0.4271048499999992  0.4454860399999987
  0.5079426699999985  0.8968957299999971  0.5153611300000023
  0.4033280399999981  0.2519795600000023  0.4893418600000032
  0.4840574300000000  0.7796179099999989  0.7778577699999971
  0.0105559420000034  0.4144498599999977  0.7474648500000001
  0.9270843299999996  0.1761852400000024  0.5867954599999976
  0.7107015500000031  0.7342112600000021  0.8895463400000025
  0.3812939299999982  0.4649964500000010  0.9502168100000006
  0.6002020999999971  0.9949142800000033  0.3758657999999997
  0.9728888300000023  0.9195700699999989  0.3568795300000005
  0.1853588500000001  0.9992660529799977  0.0091530752999986
  0.8406633600000006  0.3519268200000027  0.6018144900000024
  0.6813770300000002  0.3339954899999995  0.0827234309999980
  0.2706937600000003  0.0918083250000024  0.7115315400000028
 
  0.00000000E+00  0.00000000E+00  0.00000000E+00
  0.00000000E+00  0.00000000E+00  0.00000000E+00
  0.00000000E+00  0.00000000E+00  0.00000000E+00
  0.00000000E+00  0.00000000E+00  0.00000000E+00
  0.00000000E+00  0.00000000E+00  0.00000000E+00
  0.00000000E+00  0.00000000E+00  0.00000000E+00
  0.00000000E+00  0.00000000E+00  0.00000000E+00
  0.00000000E+00  0.00000000E+00  0.00000000E+00
  0.00000000E+00  0.00000000E+00  0.00000000E+00
  0.00000000E+00  0.00000000E+00  0.00000000E+00
  0.00000000E+00  0.00000000E+00  0.00000000E+00
  0.00000000E+00  0.00000000E+00  0.00000000E+00
  0.00000000E+00  0.00000000E+00  0.00000000E+00
  0.00000000E+00  0.00000000E+00  0.00000000E+00
  0.00000000E+00  0.00000000E+00  0.00000000E+00
  0.00000000E+00  0.00000000E+00  0.00000000E+00
  0.00000000E+00  0.00000000E+00  0.00000000E+00
  0.00000000E+00  0.00000000E+00  0.00000000E+00
  0.00000000E+00  0.00000000E+00  0.00000000E+00
  0.00000000E+00  0.00000000E+00  0.00000000E+00
  0.00000000E+00  0.00000000E+00  0.00000000E+00
  0.00000000E+00  0.00000000E+00  0.00000000E+00
  0.00000000E+00  0.00000000E+00  0.00000000E+00
  0.00000000E+00  0.00000000E+00  0.00000000E+00
  0.00000000E+00  0.00000000E+00  0.00000000E+00
  0.00000000E+00  0.00000000E+00  0.00000000E+00
  0.00000000E+00  0.00000000E+00  0.00000000E+00
  0.00000000E+00  0.00000000E+00  0.00000000E+00
  0.00000000E+00  0.00000000E+00  0.00000000E+00
  0.00000000E+00  0.00000000E+00  0.00000000E+00
  0.00000000E+00  0.00000000E+00  0.00000000E+00
  0.00000000E+00  0.00000000E+00  0.00000000E+00
  0.00000000E+00  0.00000000E+00  0.00000000E+00
  0.00000000E+00  0.00000000E+00  0.00000000E+00
  0.00000000E+00  0.00000000E+00  0.00000000E+00
  0.00000000E+00  0.00000000E+00  0.00000000E+00
  0.00000000E+00  0.00000000E+00  0.00000000E+00
  0.00000000E+00  0.00000000E+00  0.00000000E+00
  0.00000000E+00  0.00000000E+00  0.00000000E+00
  0.00000000E+00  0.00000000E+00  0.00000000E+00
  0.00000000E+00  0.00000000E+00  0.00000000E+00
  0.00000000E+00  0.00000000E+00  0.00000000E+00
  0.00000000E+00  0.00000000E+00  0.00000000E+00
  0.00000000E+00  0.00000000E+00  0.00000000E+00
  0.00000000E+00  0.00000000E+00  0.00000000E+00
  0.00000000E+00  0.00000000E+00  0.00000000E+00
  0.00000000E+00  0.00000000E+00  0.00000000E+00
  0.00000000E+00  0.00000000E+00  0.00000000E+00
  0.00000000E+00  0.00000000E+00  0.00000000E+00
  0.00000000E+00  0.00000000E+00  0.00000000E+00
  0.00000000E+00  0.00000000E+00  0.00000000E+00
  0.00000000E+00  0.00000000E+00  0.00000000E+00
  0.00000000E+00  0.00000000E+00  0.00000000E+00
  0.00000000E+00  0.00000000E+00  0.00000000E+00
  0.00000000E+00  0.00000000E+00  0.00000000E+00
  0.00000000E+00  0.00000000E+00  0.00000000E+00
  0.00000000E+00  0.00000000E+00  0.00000000E+00
  0.00000000E+00  0.00000000E+00  0.00000000E+00
  0.00000000E+00  0.00000000E+00  0.00000000E+00
  0.00000000E+00  0.00000000E+00  0.00000000E+00
  0.00000000E+00  0.00000000E+00  0.00000000E+00
  0.00000000E+00  0.00000000E+00  0.00000000E+00
  0.00000000E+00  0.00000000E+00  0.00000000E+00
  0.00000000E+00  0.00000000E+00  0.00000000E+00
  0.00000000E+00  0.00000000E+00  0.00000000E+00
  0.00000000E+00  0.00000000E+00  0.00000000E+00
  0.00000000E+00  0.00000000E+00  0.00000000E+00
  0.00000000E+00  0.00000000E+00  0.00000000E+00
  0.00000000E+00  0.00000000E+00  0.00000000E+00
  0.00000000E+00  0.00000000E+00  0.00000000E+00
  0.00000000E+00  0.00000000E+00  0.00000000E+00
  0.00000000E+00  0.00000000E+00  0.00000000E+00
  0.00000000E+00  0.00000000E+00  0.00000000E+00
  0.00000000E+00  0.00000000E+00  0.00000000E+00
  0.00000000E+00  0.00000000E+00  0.00000000E+00
  0.00000000E+00  0.00000000E+00  0.00000000E+00
  0.00000000E+00  0.00000000E+00  0.00000000E+00
  0.00000000E+00  0.00000000E+00  0.00000000E+00
  0.00000000E+00  0.00000000E+00  0.00000000E+00
  0.00000000E+00  0.00000000E+00  0.00000000E+00
  0.00000000E+00  0.00000000E+00  0.00000000E+00
  0.00000000E+00  0.00000000E+00  0.00000000E+00
  0.00000000E+00  0.00000000E+00  0.00000000E+00
  0.00000000E+00  0.00000000E+00  0.00000000E+00
  0.00000000E+00  0.00000000E+00  0.00000000E+00
  0.00000000E+00  0.00000000E+00  0.00000000E+00
  0.00000000E+00  0.00000000E+00  0.00000000E+00
  0.00000000E+00  0.00000000E+00  0.00000000E+00
  0.00000000E+00  0.00000000E+00  0.00000000E+00
  0.00000000E+00  0.00000000E+00  0.00000000E+00
  0.00000000E+00  0.00000000E+00  0.00000000E+00
  0.00000000E+00  0.00000000E+00  0.00000000E+00
  0.00000000E+00  0.00000000E+00  0.00000000E+00
  0.00000000E+00  0.00000000E+00  0.00000000E+00
  0.00000000E+00  0.00000000E+00  0.00000000E+00
  0.00000000E+00  0.00000000E+00  0.00000000E+00
  0.00000000E+00  0.00000000E+00  0.00000000E+00
  0.00000000E+00  0.00000000E+00  0.00000000E+00
  0.00000000E+00  0.00000000E+00  0.00000000E+00
  0.00000000E+00  0.00000000E+00  0.00000000E+00
  0.00000000E+00  0.00000000E+00  0.00000000E+00
  0.00000000E+00  0.00000000E+00  0.00000000E+00
  0.00000000E+00  0.00000000E+00  0.00000000E+00
  0.00000000E+00  0.00000000E+00  0.00000000E+00
  0.00000000E+00  0.00000000E+00  0.00000000E+00
  0.00000000E+00  0.00000000E+00  0.00000000E+00
  0.00000000E+00  0.00000000E+00  0.00000000E+00
  0.00000000E+00  0.00000000E+00  0.00000000E+00
  0.00000000E+00  0.00000000E+00  0.00000000E+00
  0.00000000E+00  0.00000000E+00  0.00000000E+00
  0.00000000E+00  0.00000000E+00  0.00000000E+00
  0.00000000E+00  0.00000000E+00  0.00000000E+00
  0.00000000E+00  0.00000000E+00  0.00000000E+00
  0.00000000E+00  0.00000000E+00  0.00000000E+00
  0.00000000E+00  0.00000000E+00  0.00000000E+00
  0.00000000E+00  0.00000000E+00  0.00000000E+00
  0.00000000E+00  0.00000000E+00  0.00000000E+00
  0.00000000E+00  0.00000000E+00  0.00000000E+00
  0.00000000E+00  0.00000000E+00  0.00000000E+00
  0.00000000E+00  0.00000000E+00  0.00000000E+00
  0.00000000E+00  0.00000000E+00  0.00000000E+00
  0.00000000E+00  0.00000000E+00  0.00000000E+00
  0.00000000E+00  0.00000000E+00  0.00000000E+00
  0.00000000E+00  0.00000000E+00  0.00000000E+00
  0.00000000E+00  0.00000000E+00  0.00000000E+00
  0.00000000E+00  0.00000000E+00  0.00000000E+00
  0.00000000E+00  0.00000000E+00  0.00000000E+00
  0.00000000E+00  0.00000000E+00  0.00000000E+00
  0.00000000E+00  0.00000000E+00  0.00000000E+00
  0.00000000E+00  0.00000000E+00  0.00000000E+00
  0.00000000E+00  0.00000000E+00  0.00000000E+00
  0.00000000E+00  0.00000000E+00  0.00000000E+00
  0.00000000E+00  0.00000000E+00  0.00000000E+00
  0.00000000E+00  0.00000000E+00  0.00000000E+00
  0.00000000E+00  0.00000000E+00  0.00000000E+00
  0.00000000E+00  0.00000000E+00  0.00000000E+00
  0.00000000E+00  0.00000000E+00  0.00000000E+00
  0.00000000E+00  0.00000000E+00  0.00000000E+00
  0.00000000E+00  0.00000000E+00  0.00000000E+00
  0.00000000E+00  0.00000000E+00  0.00000000E+00
  0.00000000E+00  0.00000000E+00  0.00000000E+00
  0.00000000E+00  0.00000000E+00  0.00000000E+00
  0.00000000E+00  0.00000000E+00  0.00000000E+00
  0.00000000E+00  0.00000000E+00  0.00000000E+00
  0.00000000E+00  0.00000000E+00  0.00000000E+00
  0.00000000E+00  0.00000000E+00  0.00000000E+00
  0.00000000E+00  0.00000000E+00  0.00000000E+00
  0.00000000E+00  0.00000000E+00  0.00000000E+00
  0.00000000E+00  0.00000000E+00  0.00000000E+00
  0.00000000E+00  0.00000000E+00  0.00000000E+00
  0.00000000E+00  0.00000000E+00  0.00000000E+00
  0.00000000E+00  0.00000000E+00  0.00000000E+00
  0.00000000E+00  0.00000000E+00  0.00000000E+00
  0.00000000E+00  0.00000000E+00  0.00000000E+00
  0.00000000E+00  0.00000000E+00  0.00000000E+00
  0.00000000E+00  0.00000000E+00  0.00000000E+00
  0.00000000E+00  0.00000000E+00  0.00000000E+00
  0.00000000E+00  0.00000000E+00  0.00000000E+00
  0.00000000E+00  0.00000000E+00  0.00000000E+00
  0.00000000E+00  0.00000000E+00  0.00000000E+00
  0.00000000E+00  0.00000000E+00  0.00000000E+00
  0.00000000E+00  0.00000000E+00  0.00000000E+00
  0.00000000E+00  0.00000000E+00  0.00000000E+00
  0.00000000E+00  0.00000000E+00  0.00000000E+00
  0.00000000E+00  0.00000000E+00  0.00000000E+00
  0.00000000E+00  0.00000000E+00  0.00000000E+00
  0.00000000E+00  0.00000000E+00  0.00000000E+00
  0.00000000E+00  0.00000000E+00  0.00000000E+00
  0.00000000E+00  0.00000000E+00  0.00000000E+00
  0.00000000E+00  0.00000000E+00  0.00000000E+00
  0.00000000E+00  0.00000000E+00  0.00000000E+00
  0.00000000E+00  0.00000000E+00  0.00000000E+00
  0.00000000E+00  0.00000000E+00  0.00000000E+00
  0.00000000E+00  0.00000000E+00  0.00000000E+00
  0.00000000E+00  0.00000000E+00  0.00000000E+00
  0.00000000E+00  0.00000000E+00  0.00000000E+00
  0.00000000E+00  0.00000000E+00  0.00000000E+00
  0.00000000E+00  0.00000000E+00  0.00000000E+00
  0.00000000E+00  0.00000000E+00  0.00000000E+00
  0.00000000E+00  0.00000000E+00  0.00000000E+00
  0.00000000E+00  0.00000000E+00  0.00000000E+00
  0.00000000E+00  0.00000000E+00  0.00000000E+00
  0.00000000E+00  0.00000000E+00  0.00000000E+00
  0.00000000E+00  0.00000000E+00  0.00000000E+00
  0.00000000E+00  0.00000000E+00  0.00000000E+00
  0.00000000E+00  0.00000000E+00  0.00000000E+00
  0.00000000E+00  0.00000000E+00  0.00000000E+00
  0.00000000E+00  0.00000000E+00  0.00000000E+00
  0.00000000E+00  0.00000000E+00  0.00000000E+00
  0.00000000E+00  0.00000000E+00  0.00000000E+00
  0.00000000E+00  0.00000000E+00  0.00000000E+00
  0.00000000E+00  0.00000000E+00  0.00000000E+00
  0.00000000E+00  0.00000000E+00  0.00000000E+00
  0.00000000E+00  0.00000000E+00  0.00000000E+00
  0.00000000E+00  0.00000000E+00  0.00000000E+00
  0.00000000E+00  0.00000000E+00  0.00000000E+00
  0.00000000E+00  0.00000000E+00  0.00000000E+00
  0.00000000E+00  0.00000000E+00  0.00000000E+00
  0.00000000E+00  0.00000000E+00  0.00000000E+00
  0.00000000E+00  0.00000000E+00  0.00000000E+00
  0.00000000E+00  0.00000000E+00  0.00000000E+00
  0.00000000E+00  0.00000000E+00  0.00000000E+00
  0.00000000E+00  0.00000000E+00  0.00000000E+00
  0.00000000E+00  0.00000000E+00  0.00000000E+00
  0.00000000E+00  0.00000000E+00  0.00000000E+00
  0.00000000E+00  0.00000000E+00  0.00000000E+00
  0.00000000E+00  0.00000000E+00  0.00000000E+00
  0.00000000E+00  0.00000000E+00  0.00000000E+00
  0.00000000E+00  0.00000000E+00  0.00000000E+00
  0.00000000E+00  0.00000000E+00  0.00000000E+00
  0.00000000E+00  0.00000000E+00  0.00000000E+00
  0.00000000E+00  0.00000000E+00  0.00000000E+00
  0.00000000E+00  0.00000000E+00  0.00000000E+00
  0.00000000E+00  0.00000000E+00  0.00000000E+00
  0.00000000E+00  0.00000000E+00  0.00000000E+00
  0.00000000E+00  0.00000000E+00  0.00000000E+00
  0.00000000E+00  0.00000000E+00  0.00000000E+00
  0.00000000E+00  0.00000000E+00  0.00000000E+00
  0.00000000E+00  0.00000000E+00  0.00000000E+00
  0.00000000E+00  0.00000000E+00  0.00000000E+00
  0.00000000E+00  0.00000000E+00  0.00000000E+00
  0.00000000E+00  0.00000000E+00  0.00000000E+00
  0.00000000E+00  0.00000000E+00  0.00000000E+00
  0.00000000E+00  0.00000000E+00  0.00000000E+00
  0.00000000E+00  0.00000000E+00  0.00000000E+00
  0.00000000E+00  0.00000000E+00  0.00000000E+00
  0.00000000E+00  0.00000000E+00  0.00000000E+00
  0.00000000E+00  0.00000000E+00  0.00000000E+00
  0.00000000E+00  0.00000000E+00  0.00000000E+00
  0.00000000E+00  0.00000000E+00  0.00000000E+00
  0.00000000E+00  0.00000000E+00  0.00000000E+00
  0.00000000E+00  0.00000000E+00  0.00000000E+00