Amorphous Sb                            
   1.00000000000000     
    20.8671579077798057    0.0000000000000000    0.0000000000000000
     0.0000000000000000   20.8671579077798057    0.0000000000000000
     0.0000000000000000    0.0000000000000000   20.8671579077798057
   Sb
   300
Direct
  0.3978334457846160  0.1502005025701333  0.7883257826415746
  0.0448466205110791  0.0178296192373567  0.4215038959030861
  0.7888272503852621  0.5455783838558416  0.2347425414009839
  0.3348773049190946  0.6248890595773973  0.5821704659093804
  0.4736663791524637  0.7793975220227991  0.0023054665391181
  0.2985284450272752  0.5746644607836561  0.8708593860634046
  0.8646599659841935  0.9894147444236255  0.0472398587312493
  0.6754407661084868  0.5290132743125735  0.0565070494326498
  0.4424699141669455  0.1404932070776267  0.3095425446854658
  0.9759718318436313  0.5198043716572093  0.0675900341986031
  0.6086191837408282  0.6262209170423015  0.8877946957627634
  0.9627884393450215  0.1195877390974306  0.6196291364498212
  0.5286700730358570  0.2712339406125920  0.7179320134697785
  0.1253933870132756  0.3551396304102493  0.6556100473443868
  0.0692647561029299  0.8641282101353601  0.9774608724484870
  0.0987176336586765  0.9724059112639216  0.2924581016384726
  0.2431561387966025  0.2755255264034868  0.8196131489742210
  0.1236516009372697  0.7426951930333235  0.0369675001041567
  0.9042267334603687  0.4999889749551806  0.3654388789305024
  0.7144592362836436  0.3551079198993519  0.9281873766289558
  0.6774944286617601  0.2984625852710422  0.6493121559965673
  0.7305267222550371  0.6476349734913927  0.7384331579635630
  0.0061025044903716  0.6056677298396308  0.8683209397177660
  0.7469271998302330  0.1456744805139989  0.5229090204713072
  0.5980980417331215  0.5553015155104661  0.7506770988527729
  0.6250232613200073  0.8228119426108726  0.0223191636042399
  0.8647338687969731  0.1324464488892747  0.0435843390883922
  0.1019101525132849  0.9487135288290300  0.6458231178650296
  0.5879417652989015  0.2684683263061704  0.0580908334277828
  0.9315572549795738  0.4121860696714200  0.2460630591336282
  0.7650855814182819  0.8891405916616917  0.8710155248741871
  0.7570118760227522  0.5854329335564153  0.4699055765223591
  0.1032270041031414  0.8085140167784736  0.1703521238964734
  0.0133086836985690  0.4056156800212904  0.3973667711640855
  0.5108363005154267  0.7195789103556575  0.6959190742345917
  0.1244658991694552  0.2974373602198495  0.3665764660194151
  0.7693669245299435  0.4006004435951716  0.2232989620746447
  0.7057603629016940  0.3476191941186118  0.7839397821251456
  0.8184966931634632  0.7748700788037811  0.4433796870779438
  0.4567589561715337  0.2000882195923672  0.0464140487716847
  0.6593255341144447  0.0159885054664344  0.5193736241868805
  0.3687633172223557  0.7675783059079447  0.7466922955479124
  0.7724969848417431  0.8395113503532888  0.0124522371401153
  0.2004390448989491  0.9229717701850104  0.1947571265805498
  0.2003349334808770  0.7614723215122065  0.7473015626661703
  0.5333629890411541  0.3811706164875228  0.1238838472326468
  0.6861682613297181  0.5574304895647400  0.3523542717673706
  0.7257477764774187  0.4955851909433239  0.7729847134455573
  0.3991638925312571  0.4203885795176768  0.2230752065956728
  0.1793355001846340  0.3895867443567541  0.4610858282053917
  0.9044146671484213  0.0007202163527357  0.3182680460291055
  0.9138349655919630  0.9566953316967040  0.7386822441573374
  0.1946407634010629  0.6495256106287929  0.5782768062459771
  0.9695965381339189  0.3624261194392195  0.6233657188028726
  0.0099966651204703  0.0145032419082186  0.0349711430856165
  0.7275522823686349  0.2630161623215263  0.2389859953832507
  0.9203776983131573  0.2422140973607956  0.7936487955764262
  0.6462437332316082  0.5282335410027986  0.1968726015580751
  0.3180901349709506  0.2894387216762770  0.3869473954350681
  0.0905409083824378  0.8140875605732680  0.6112031484709325
  0.0227750398027538  0.6384449626696587  0.0105825075649569
  0.7002917611609921  0.9892451649042300  0.0548860213468793
  0.1603740048721604  0.5800987549366002  0.8697669167543600
  0.3111680442404772  0.0022886670474401  0.9333166424171202
  0.0258682768251232  0.5342640407206235  0.5345434508636785
  0.3901335866698029  0.2102979381032677  0.1662540751980758
  0.9707941462587756  0.6904739022614595  0.2961231028824437
  0.8892221598003400  0.1343161156534958  0.3387505061077956
  0.0033789069714993  0.3737080070998500  0.1094720578573537
  0.4601658618729433  0.5875606709000750  0.7419489641554105
  0.1700682251618280  0.5873201315038332  0.0249721475746400
  0.1505372674515976  0.0018603603151856  0.5157403878918596
  0.5687839106116817  0.4141687730264547  0.7637546137408148
  0.6975312178600939  0.5124908695108675  0.9089541650172469
  0.4831916338235229  0.8971014422783317  0.7224555274688769
  0.3295764388419553  0.9844000097768248  0.7868352714462549
  0.5914751257615186  0.1940669086118555  0.5439527743711106
  0.6658222091671140  0.8211201079628464  0.1735107267392140
  0.5163384537471790  0.6707048943004790  0.3147992259781424
  0.6664352110452534  0.6762744212105867  0.1717771884392062
  0.7054431679409390  0.3965130110700074  0.0665763495096593
  0.3853483094455435  0.2146944938090471  0.6025077513873018
  0.5402950788087630  0.4881955720689524  0.0348309228833221
  0.7749109424874083  0.2123528201943488  0.7996551989178314
  0.3237656178595950  0.5055700847518533  0.4160252496404455
  0.2674928598273954  0.3413218762644544  0.6670369763714026
  0.9628159947559066  0.9766462889878886  0.6110667076950527
  0.2943755098041470  0.0976648583497968  0.1049948887579064
  0.7658924246482339  0.2931155488689572  0.5199275326274385
  0.1529511807899961  0.1093464054924758  0.2492321369806137
  0.7869245354837442  0.2355523879117091  0.9436128518258817
  0.1734657826979909  0.6309727104956702  0.7158125864915831
  0.7458345555583948  0.1585985866244942  0.6692013852603218
  0.5081408690527489  0.5312544807243367  0.1805672049665898
  0.4327716797893169  0.2879947167666364  0.2852059931462859
  0.6322528007592950  0.8715280663442913  0.7303821506051058
  0.2195044147603929  0.2064789764038432  0.5287982662425195
  0.9098906793704621  0.2685916811192096  0.5160181013204391
  0.3157054874443809  0.2731046382787845  0.9397833273255193
  0.7728987099208714  0.0679386411900007  0.8431442153656945
  0.1671194816547265  0.5108532380555159  0.5508748241458639
  0.3264095865565411  0.6481879291353584  0.4416060882932522
  0.7225202200493991  0.5044753529711486  0.6195128004713378
  0.9278460551260828  0.8567091075361347  0.0089402045180054
  0.7633624554383104  0.6941006984710648  0.9993695258289632
  0.0945451289112497  0.8635433821239268  0.4705309761040146
  0.0498389316928101  0.0713638972860546  0.8351436263434509
  0.4977852806969929  0.0792569465000594  0.5148139608526151
  0.5211705680305280  0.8100564528304413  0.2975013144593645
  0.2995737007847346  0.1679305021940105  0.3010425907979712
  0.7711680945736500  0.8248444552973520  0.7232077505226795
  0.2263510803914429  0.2778512594308795  0.2437837979220691
  0.5272011307736661  0.7278684488153030  0.5057363605999231
  0.0929620469287688  0.1294046008168366  0.5650951480721792
  0.0498109905532896  0.1749857743349690  0.9258752510870939
  0.0475932231481427  0.7475114779958666  0.8791416475582925
  0.5838353283455273  0.9292369323023005  0.1004585507294786
  0.0865523753331550  0.3021649006379792  0.5142096664029079
  0.8307672059193282  0.5517775169920427  0.9137476502205958
  0.2816236830287526  0.4315257334213867  0.8629499616728342
  0.0996771520077945  0.6804830924543992  0.2274679110052565
  0.5326387259691842  0.0890341580151214  0.0832583369866868
  0.1449668734164148  0.4831582390531942  0.7071459730635252
  0.8127003438039663  0.6871123491609196  0.2896717092597275
  0.8888917868994162  0.2717830243810488  0.2311937374360049
  0.0063631099718314  0.5027698581297672  0.6805860911800368
  0.4367525488803868  0.4388047072434386  0.7456481066847143
  0.9093432904312077  0.4454107749072468  0.5048443480614323
  0.8542346718161612  0.3760143916466377  0.7887619720633745
  0.5539185078229976  0.9890621738955083  0.2472874846513129
  0.6169512026711407  0.0384899576173543  0.8027776303384117
  0.8043264808822932  0.9835930102323195  0.5600213286600717
  0.6223480414112128  0.6146761693728080  0.6181869538735534
  0.3387932088752483  0.4794562756946991  0.0704359957766052
  0.5664475688628033  0.4432336397364570  0.9034356612666244
  0.7325613022631227  0.2587390111991457  0.0897608319275650
  0.3847169478349913  0.7866149712378196  0.4404286987046256
  0.8457024083056126  0.9801564693482898  0.1824023051707309
  0.0722870165039057  0.3924409883093671  0.2560425219796026
  0.3989238979421140  0.7695448987456773  0.5809835371775197
  0.0342859651811323  0.6681300466185752  0.5754670699883169
  0.2249811473432553  0.0054021354807670  0.3747584604458664
  0.5052731888405582  0.4792319615956114  0.3113683991872880
  0.5279943791350684  0.8497123922233317  0.4390745602554543
  0.6324933780651673  0.9958913810129513  0.6602187355929748
  0.2383386047598797  0.4349712610629609  0.1744412440708019
  0.4194905299196887  0.9968559117321468  0.3684442864449429
  0.9188861080748929  0.9773436123062237  0.4603352525467792
  0.9708175350319179  0.8340869462520252  0.1614441707143393
  0.4824474598188431  0.5831397470223291  0.5934959948296209
  0.4625202988673236  0.8276279155284304  0.1462203912446045
  0.9511275506172483  0.8368834873742000  0.4560422469579494
  0.6755053069037651  0.6911829743340792  0.3129581715047043
  0.6278290685167709  0.8691357156668844  0.8859240270416617
  0.6607843920916991  0.8420093048212807  0.3228749477377299
  0.8501756489617073  0.4126170267704808  0.0908137610642987
  0.0809840949953953  0.5280926229464168  0.2372917574951880
  0.3338456908317912  0.8583425943138123  0.8488473968390182
  0.8122465856295407  0.8249741896201448  0.3036208511388376
  0.8977209051192948  0.2782323786465943  0.0833961150278273
  0.5842551875431816  0.1419992192601181  0.6777231479273256
  0.3953789773308339  0.9043149074489718  0.2615088778576931
  0.2892788073789195  0.9538367775841109  0.0675423330019072
  0.3634677746650584  0.5505000609289558  0.2827398645133113
  0.3944119107470218  0.9144622776242962  0.5962187779582350
  0.7460036091950818  0.1185417192814589  0.3681293100879652
  0.2227050139878149  0.4494309695483307  0.9938211264487690
  0.6085425943936897  0.8043586856567880  0.6010356501749318
  0.8291094411036108  0.3656092822189034  0.6541149298744056
  0.1442304657447236  0.0846300791160078  0.7314318975641649
  0.8381986585447642  0.5563587795543981  0.0529876350882558
  0.8875236487208734  0.6448905175904610  0.4378219983336821
  0.2224089958360359  0.6381999701066405  0.1628435059894763
  0.9106154617609191  0.7112390970484602  0.0087604585919191
  0.4451912331728020  0.0866872410901551  0.6476651140171727
  0.1680106096453919  0.1579043721147479  0.3889566780754152
  0.0967148193886919  0.2249012409226415  0.7022555879270569
  0.1787753855261988  0.1584619587437655  0.9603808228524142
  0.6096278571636725  0.4246960267580934  0.4631942424496267
  0.5173111957408706  0.6778716663884283  0.1801681494398214
  0.1052332471221905  0.8394018134249115  0.3304723083114928
  0.1803420484164812  0.6903748173597875  0.4297547858655978
  0.9469867054828787  0.5447988987141356  0.1994262689146838
  0.2227534434885859  0.5461064562192842  0.2645763119022223
  0.7401068808535847  0.2652535510627329  0.3824707625322106
  0.6145037627281487  0.9950776889372078  0.9439020386676907
  0.4253932849365721  0.4470949602055190  0.8974638753342056
  0.7017485781376612  0.9701017800978804  0.2361877422538717
  0.9654154324271823  0.6868294069206452  0.1537747215902862
  0.3093688723754783  0.3199738652561691  0.1336545061121428
  0.0629513229722529  0.7989189557921732  0.7504655421917750
  0.9943604532303644  0.9678337829221990  0.1755917477851722
  0.8539315947353561  0.4049988730254138  0.9445716710923880
  0.2858490469858655  0.0686552780858768  0.5116982469115205
  0.8664749122835751  0.5392166381192055  0.6244243964486146
  0.8969109004804211  0.7070766815986864  0.8625957504120255
  0.1742956063664707  0.0233142812909865  0.9208545975149477
  0.2307231651880276  0.2035993233918588  0.6649254013029706
  0.9137883287853300  0.8075198207040626  0.7495439586999609
  0.4512588823614418  0.3017830027974195  0.4382569090802895
  0.1884363767178760  0.7247473739021889  0.8915019630525832
  0.2386416356310033  0.7983441406592168  0.6054070359920936
  0.7354414106016786  0.7193409003824826  0.6194035136152498
  0.4780669778162013  0.0052274301950327  0.8018053848227001
  0.8882176168647520  0.1214641238092507  0.4934553748267906
  0.4593470737554338  0.6401785653357345  0.0299755772368158
  0.5815500291168962  0.1371055178416837  0.3666937394108569
  0.7045395165173723  0.1172485452022959  0.2297786569228859
  0.5842703777595065  0.2973291277010541  0.9187200619336596
  0.4506636758677359  0.4500945377615815  0.5951198287200047
  0.6751590967994138  0.8645274927441083  0.4837502555578937
  0.3909274089158411  0.2815996867661544  0.7382150772098879
  0.5424441236630906  0.9278335404375353  0.5569041666342898
  0.3447544739875192  0.9339082135928540  0.4722213468223167
  0.9101491517501347  0.2994827143789180  0.3720436981031803
  0.9990913388606041  0.1471627379351530  0.0881661646830650
  0.3165178333590118  0.4828899424329304  0.5757986204368892
  0.3696475613903824  0.6521555440558854  0.1559267532118951
  0.2422367087019053  0.8168836287079109  0.0517685248463241
  0.3305880676183426  0.7829636629529724  0.1710221331925117
  0.8630037803008890  0.5130183147569202  0.7678454820875236
  0.3164734666264076  0.6197894174128731  0.7381119913778036
  0.0269820048403256  0.6952968860787198  0.4319528296022339
  0.2881819984513764  0.4093195990651474  0.3138295572560281
  0.1585506974328263  0.1307924314218250  0.1019365670992888
  0.9331800324291134  0.0945071244230148  0.7656771033575187
  0.9001793555256706  0.9135426844180532  0.8882458767759709
  0.9430136916083340  0.8252973772618801  0.6014190030880781
  0.4644499435945044  0.5917324476805923  0.8835327188208941
  0.5879596369677310  0.2901199266719804  0.2521423138870752
  0.6032563867330787  0.2872298345306487  0.3978082392546874
  0.9654724335425500  0.8346396720344593  0.3114343784151430
  0.4320689599153857  0.9361257520379896  0.0706526741576462
  0.4825979958805308  0.1668220981849550  0.8975617728167239
  0.7817227105304887  0.0239078932246572  0.6954616987994338
  0.6132473548851618  0.7310859114217637  0.7930590243778531
  0.7636080831856898  0.7474615567141035  0.8597217496062186
  0.6708629974687560  0.1243787612654566  0.0865395031255575
  0.6103291699044285  0.5707741059732098  0.4792347701269639
  0.4293133946406755  0.0326146494522596  0.1858943146079578
  0.2535765926907661  0.1297062397045103  0.8310044953764384
  0.8002165755506008  0.3901651659763984  0.3583164985227653
  0.8801222828029466  0.6643594784071502  0.7248546588783313
  0.3930898273487088  0.1494441640294388  0.4617666536881436
  0.2057155899556908  0.8640974230748441  0.9166055348667944
  0.4755878947869768  0.8764326225878096  0.8622727922243488
  0.5646749308709731  0.1284975254095697  0.2300724178716806
  0.1867380399802686  0.9432605421824795  0.7868979378118793
  0.9895153287135933  0.4533815350382993  0.9068910896508020
  0.8985396071775429  0.0554970470909242  0.9157311454701541
  0.6868140991860384  0.7193563930758254  0.4596167653411627
  0.7673220025391673  0.4365743919744875  0.4948351325986742
  0.2621218624353430  0.8661914860527572  0.3175720499390976
  0.9257230276962309  0.2800440587721289  0.9467268028806879
  0.0006207209688039  0.3758504475727425  0.7758356584056837
  0.3306081773775176  0.7629285025849718  0.9640454415860930
  0.0995685498299029  0.2794274563588077  0.8429941734366891
  0.4771958157034850  0.0402442897365393  0.9578878087685235
  0.0310494821657133  0.6501261966268854  0.7142739044708375
  0.8469497462244472  0.1198615062363005  0.1974147400126989
  0.1827886678461534  0.5471096156406655  0.4143144073262103
  0.5578221561186901  0.9986228164446266  0.3860363282029100
  0.2948001865722016  0.3378429179976870  0.5177852370997051
  0.7697731450743238  0.9769373702128319  0.3678018785102903
  0.0394867957165792  0.5618073096580127  0.3914815037931183
  0.3453004465560979  0.1366200842206331  0.9670371033276524
  0.8091585506392011  0.6821733794020968  0.1415720429837628
  0.8863979390560504  0.6834459032198830  0.5794840204607784
  0.6123909491864427  0.4166882824705337  0.6042217389127598
  0.2114443405494008  0.3057237120846842  0.0358062733241685
  0.6242040611546860  0.6715746939804491  0.0235879640859696
  0.0000772449164219  0.1082555197741301  0.2232573490568891
  0.2785154453737464  0.0387339220229344  0.2336153449890686
  0.2242715615663586  0.7273845358993123  0.2849895902644625
  0.4718119727539536  0.6044094642998060  0.4488428511500752
  0.6389151969863360  0.4222423794380661  0.3020276652014217
  0.0349839598600332  0.9178067563522632  0.8233170549284915
  0.3672186256896963  0.6986748638137085  0.3020708468876540
  0.0319639877190689  0.1558659999727350  0.4418020436525311
  0.4967108422144051  0.2908788449651088  0.5802949046749226
  0.0279058582087700  0.2394323453896874  0.2634877518686917
  0.4690674392411786  0.7339066434414226  0.8531529810195585
  0.1463334159401976  0.9828525749257052  0.0614129575635430
  0.3005595916102447  0.0752954361023725  0.6557880794173770
  0.0558914171765475  0.3561455642550286  0.9805828914517775
  0.8104554821482293  0.8241817008579209  0.1525653836256504
  0.4342763818838422  0.3099825677419634  0.8773738973802558
  0.2650049210755179  0.9329147759529303  0.6447248069246698
  0.2909849559593047  0.4818641958156708  0.7217309923080637
  0.4719334895958597  0.4560855968448700  0.4560204320872056
  0.8014797570390945  0.8466213293322817  0.5814772143963191
  0.6867254203334997  0.1309708531209053  0.9352702479602178
  0.4100093327631575  0.3664703360002978  0.0375707602065503
  0.1372099858301871  0.4515017085174520  0.8458889951513647
  0.1199871287654933  0.4845805977343609  0.1099660157835866
  0.1129406083295672  0.2763140599104231  0.1506066709247341
  0.2394710367517982  0.8254466903586626  0.4622491899984105
  0.8744566078952611  0.2349777910900767  0.6625662965473417
  0.6095282632128196  0.1900777943294970  0.8256470858176924
  0.3208777365959599  0.6255193746551013  0.0037843956761084
 
  0.90636049E-03  0.23568542E-03 -0.14462687E-03
 -0.20066311E-02  0.60899952E-03 -0.10045261E-02
 -0.13695689E-02  0.18040806E-02 -0.10322778E-04
 -0.13090990E-02  0.42165102E-02  0.10689292E-03
  0.25879841E-03  0.25361379E-02 -0.22583593E-02
 -0.13489451E-02  0.10003274E-02 -0.17830609E-02
 -0.16578424E-02  0.15410974E-03  0.67881796E-04
  0.12708409E-02 -0.11776687E-02  0.30455824E-03
 -0.68312190E-03  0.30182508E-03  0.21397369E-02
 -0.96760832E-03 -0.26630936E-03 -0.10208015E-02
  0.46603758E-03  0.10864796E-02  0.56632299E-03
  0.78730794E-03  0.38112964E-03 -0.10746686E-02
  0.39376541E-02  0.17856692E-02  0.11973759E-02
  0.45895972E-04  0.14845260E-02 -0.15441535E-02
  0.22469608E-02  0.61062530E-03 -0.18507409E-02
  0.93402657E-03  0.31875611E-03  0.14939240E-02
 -0.33332373E-03 -0.15790757E-02  0.56345005E-03
  0.42300960E-02 -0.93990057E-03 -0.31979345E-02
 -0.23777023E-03  0.91075467E-03 -0.18758219E-02
 -0.26241066E-03  0.53247636E-03 -0.66521687E-03
  0.63019016E-03  0.15201294E-02  0.21069468E-02
 -0.87997409E-03  0.21713305E-03 -0.98113507E-04
  0.17453520E-02 -0.24935109E-02  0.54311801E-02
  0.61256755E-03 -0.68872211E-04 -0.10517915E-02
 -0.94475644E-03 -0.12155086E-02 -0.15173297E-02
  0.18773685E-02  0.89368953E-03  0.25814315E-02
  0.57722035E-03 -0.61689780E-03 -0.13829588E-02
 -0.42332506E-03  0.57574825E-03  0.11687761E-02
 -0.90560569E-03  0.28312387E-03 -0.22376264E-02
 -0.96217688E-03 -0.82632939E-03  0.42363587E-03
  0.98735309E-04 -0.11997821E-02  0.24483525E-03
 -0.18854651E-02 -0.31451834E-02  0.87428190E-03
  0.61131279E-03 -0.97125574E-03  0.14469959E-02
  0.25102568E-02 -0.19235217E-03 -0.15472547E-02
  0.10974042E-02  0.31872138E-02 -0.24192470E-03
 -0.26589183E-02 -0.46668323E-03  0.14128530E-02
  0.91822857E-04  0.93374035E-03 -0.23945530E-02
 -0.43641330E-03 -0.29855916E-03  0.26681293E-02
 -0.92263006E-03 -0.17160519E-02  0.11293850E-02
 -0.70369430E-03  0.21593717E-02 -0.30992071E-02
  0.55175130E-03 -0.84972030E-03  0.14566771E-02
  0.86687305E-03 -0.24435826E-04  0.12580592E-02
 -0.21526661E-02  0.64451938E-05  0.78855507E-03
  0.10152918E-02 -0.18050147E-02 -0.33474096E-03
 -0.13819716E-03 -0.11250804E-02 -0.28242978E-04
 -0.14203516E-02  0.35070468E-03 -0.11167020E-02
 -0.92297921E-04  0.10387348E-02  0.71300525E-03
 -0.22647719E-03 -0.25033455E-03  0.12812117E-02
 -0.15242992E-02 -0.23783499E-02 -0.21874676E-02
 -0.11020061E-02 -0.96142865E-03 -0.33572247E-02
  0.57145173E-04 -0.17372256E-03 -0.14478416E-03
 -0.53025356E-04  0.12992968E-02 -0.15806178E-02
 -0.82942461E-03 -0.12924608E-02  0.11057564E-02
 -0.34588646E-03 -0.13234123E-02  0.27091234E-02
  0.36417759E-02 -0.52760618E-03 -0.11053342E-02
  0.39153799E-03 -0.86315476E-03  0.24212355E-02
 -0.82648684E-03  0.12987496E-04 -0.20326770E-02
 -0.55358575E-03  0.27144137E-02 -0.39171922E-02
  0.38094077E-03  0.28952607E-03 -0.16932407E-02
  0.14791225E-03 -0.58628064E-03 -0.26933197E-02
 -0.70965375E-03  0.22196659E-02 -0.52842573E-03
  0.18780408E-02  0.40250896E-03  0.11389592E-02
 -0.87090036E-03  0.13786855E-02 -0.11767797E-03
  0.31065028E-03  0.15575075E-03  0.23553273E-02
  0.41346126E-03  0.81337747E-03  0.16911629E-02
  0.18063906E-02 -0.24324972E-03  0.48377961E-03
  0.87207489E-03  0.54688467E-03 -0.97644347E-04
  0.11127042E-03  0.10790296E-02 -0.20680813E-02
 -0.12755323E-02  0.15069959E-02  0.69461124E-03
  0.70607856E-03  0.97406764E-03  0.22831962E-02
 -0.21280169E-02  0.13535027E-02  0.42809135E-03
  0.23601730E-02  0.40160988E-03 -0.26009279E-02
  0.22114220E-02  0.69548244E-03 -0.54788122E-03
 -0.95767634E-04 -0.13113554E-02  0.16393971E-02
 -0.43716345E-03 -0.17111841E-02  0.51464982E-03
 -0.11709922E-02  0.30239979E-02 -0.11126144E-03
 -0.43908147E-03  0.10578698E-02 -0.41276172E-03
  0.17928605E-03 -0.34858807E-02 -0.34427336E-03
 -0.81311360E-03 -0.87104455E-03 -0.60341108E-03
 -0.13892118E-02  0.52470516E-03 -0.65255348E-03
  0.22489946E-02  0.67654154E-03  0.65604513E-04
  0.12923061E-02  0.17412532E-03 -0.13668010E-02
  0.19137245E-02  0.17284207E-02  0.16939818E-02
 -0.26828627E-03 -0.12185190E-03 -0.23521886E-03
  0.52789402E-02  0.15844918E-02  0.10292709E-02
 -0.70846936E-03  0.51908436E-03 -0.29114653E-03
 -0.43779235E-03  0.13982459E-02 -0.12176082E-02
 -0.13123564E-02 -0.31154566E-02 -0.10308674E-03
 -0.17805254E-02  0.19844276E-02 -0.28575741E-03
 -0.22504904E-02  0.37943747E-03  0.32837366E-02
  0.27909916E-03 -0.86133230E-03 -0.16103945E-02
  0.15648707E-02 -0.27245009E-02  0.16490838E-02
  0.71947650E-03 -0.86589125E-03 -0.23547318E-02
  0.21399009E-03 -0.43858786E-03  0.29731303E-04
  0.38342458E-02  0.21385011E-02  0.60646278E-03
  0.17615949E-03  0.74524515E-03 -0.43761124E-03
  0.66031996E-03 -0.11828157E-02  0.57979924E-03
 -0.22831498E-02 -0.33339942E-03 -0.15595990E-02
 -0.21491862E-02 -0.28410479E-02  0.11464759E-02
 -0.12405041E-02 -0.78340569E-03 -0.35639902E-03
  0.23660190E-02 -0.13957651E-02  0.55329278E-03
 -0.77888770E-03  0.11084944E-02 -0.72252422E-03
  0.84823577E-03 -0.12321021E-02 -0.15405307E-03
  0.53145304E-03  0.25531105E-02 -0.41765603E-03
  0.74616391E-05 -0.17056337E-02  0.45560439E-03
  0.97715738E-03  0.68095027E-03  0.59311696E-04
 -0.13322746E-02 -0.36824869E-04  0.16433776E-02
 -0.17012741E-02 -0.12489965E-02 -0.41300808E-03
  0.19445714E-02 -0.44123188E-03  0.11904095E-02
  0.71991633E-03 -0.13988322E-02  0.13448162E-02
  0.12886776E-02 -0.27461845E-02  0.91507073E-03
  0.18941973E-02 -0.72161113E-03  0.12492563E-03
  0.20518739E-02  0.14783512E-02 -0.17295000E-03
  0.59113170E-03  0.19613655E-02 -0.10691615E-02
  0.20182161E-02  0.11249256E-02  0.27672144E-02
  0.93865238E-03 -0.51623708E-03 -0.16852540E-02
 -0.23150053E-02  0.75782260E-03 -0.57580096E-03
  0.11502004E-02 -0.31676336E-03 -0.11238345E-03
 -0.27755357E-02 -0.14485500E-02 -0.13198708E-02
  0.12105142E-02 -0.86265295E-03  0.12211966E-02
 -0.48065319E-03 -0.15950253E-02 -0.43545738E-03
 -0.25749335E-03  0.32077741E-03  0.16068899E-02
 -0.64082351E-03  0.90449937E-03 -0.17005032E-02
 -0.17513001E-02  0.50158361E-03 -0.27715689E-03
 -0.42440457E-03 -0.20931738E-02  0.38199916E-03
 -0.19607240E-02  0.12243495E-02  0.75381079E-03
 -0.17190601E-03  0.66865422E-03 -0.26036832E-02
 -0.33170694E-03 -0.68287190E-03  0.20292171E-02
 -0.13907309E-02  0.43526678E-03  0.12350139E-02
 -0.56628056E-05 -0.88506499E-03 -0.11977620E-02
  0.75121812E-04  0.33679989E-02  0.94979403E-03
  0.17853812E-02 -0.23895384E-02 -0.14294098E-02
 -0.34526217E-03 -0.15607923E-02  0.29512141E-02
  0.16539524E-02  0.18501231E-02  0.93672446E-03
 -0.56399346E-03 -0.13801754E-02  0.65117027E-03
 -0.11029930E-03  0.10720417E-02  0.14277177E-03
 -0.19382922E-02 -0.12872456E-02 -0.80387702E-03
 -0.74218185E-03 -0.97294617E-03 -0.44817564E-03
  0.18336684E-03  0.37546126E-03 -0.10376271E-02
 -0.19805721E-02 -0.15385953E-03 -0.88244703E-03
  0.11461747E-02 -0.25592513E-02 -0.52047507E-03
 -0.37936854E-03 -0.18439838E-02 -0.11157567E-02
 -0.11111587E-03  0.21527426E-02  0.13141838E-04
  0.61739600E-03 -0.85293860E-03  0.11061467E-02
  0.38310269E-03 -0.97611108E-03 -0.71960418E-03
 -0.49433556E-03 -0.23626392E-03  0.26342946E-02
 -0.12145761E-02 -0.11146538E-02  0.31083226E-03
 -0.11348252E-02  0.13589002E-02  0.71469578E-03
  0.88338520E-03 -0.39048102E-02 -0.11582134E-02
 -0.52646289E-04 -0.28895061E-03 -0.15238054E-02
  0.82285582E-03  0.93760110E-03 -0.21367421E-04
  0.36520451E-03 -0.11777045E-02  0.23474967E-02
  0.94850581E-03 -0.11855734E-03 -0.49935273E-03
 -0.96018675E-03  0.81058056E-04 -0.11434302E-03
  0.23955032E-02  0.10421755E-02 -0.12074176E-03
  0.32034172E-03  0.12931805E-02 -0.24846013E-03
 -0.15697106E-02 -0.39764038E-03 -0.85028537E-03
 -0.75513509E-04 -0.83415662E-03 -0.16876287E-03
 -0.14975345E-02  0.14292822E-02  0.20967647E-02
 -0.11655088E-02 -0.14819730E-02  0.44846658E-03
 -0.90148015E-04  0.11255479E-02 -0.66612028E-03
 -0.60592595E-03  0.50156675E-03  0.33036140E-03
 -0.40187246E-03 -0.14364348E-02  0.11414416E-02
 -0.29466930E-02  0.24872000E-02 -0.10668024E-02
 -0.60011839E-03 -0.17439683E-03 -0.89233664E-03
  0.79642983E-03  0.31310804E-02 -0.75541126E-03
  0.19392477E-02  0.71267697E-03  0.19390287E-02
 -0.27372871E-02 -0.49787363E-03 -0.12634266E-02
 -0.13241688E-02 -0.20789882E-03 -0.10776608E-02
 -0.27992228E-02  0.11862836E-02 -0.16568998E-03
  0.10817451E-03 -0.48543402E-03 -0.26247233E-02
 -0.17070649E-02  0.23628398E-02 -0.14120242E-02
 -0.53408577E-03 -0.23394717E-02 -0.42524813E-03
 -0.17450080E-02  0.37223673E-03  0.31460310E-03
  0.10979924E-02 -0.62715783E-04 -0.57243835E-03
  0.18380327E-02 -0.11502530E-02 -0.21820105E-02
  0.28276890E-02 -0.21849661E-02 -0.20177496E-02
  0.76166184E-04 -0.94579762E-03  0.19025931E-02
  0.15605379E-02  0.13635838E-02 -0.10618291E-02
  0.79106653E-04 -0.16774315E-03 -0.27878135E-02
 -0.69321832E-04 -0.86909670E-03 -0.11788051E-02
  0.37659013E-03  0.25285696E-02  0.18387298E-02
  0.11768150E-02 -0.26535409E-02 -0.11395580E-02
  0.43467224E-03 -0.22940864E-03  0.39276646E-02
 -0.25548263E-03 -0.10449079E-02 -0.29607286E-02
 -0.10695003E-02  0.19836387E-04  0.10591861E-02
  0.14387385E-02 -0.71419580E-03  0.60350517E-03
  0.53503192E-04  0.43530383E-03 -0.11257032E-02
  0.83080759E-03  0.16220941E-02  0.20246970E-02
 -0.16333524E-02 -0.26794970E-02  0.14185698E-02
  0.52081573E-03 -0.30618541E-02  0.12995833E-02
 -0.11773837E-02  0.15816395E-02 -0.90029919E-03
 -0.50296176E-03  0.12467835E-02  0.81063611E-03
  0.93569590E-03  0.14155451E-02 -0.28988197E-03
 -0.19347898E-02  0.12260121E-02 -0.71799519E-03
 -0.12169085E-02 -0.94070082E-03  0.39067033E-02
  0.25611234E-03  0.12221881E-02 -0.16949114E-02
  0.14352761E-02  0.25349395E-05 -0.15643429E-02
 -0.81578408E-03  0.13015470E-02  0.84377084E-03
  0.11595674E-02 -0.35274852E-03 -0.61809074E-03
 -0.17906492E-02  0.18199141E-02 -0.19204394E-04
 -0.26570408E-03  0.54789768E-03  0.20729157E-02
  0.34327579E-03  0.32200241E-03 -0.55970832E-03
  0.19399774E-03 -0.10855884E-02 -0.10214017E-02
 -0.96144900E-03 -0.34910878E-02 -0.21031699E-02
  0.30279896E-02 -0.92553452E-03  0.15120927E-02
  0.31917218E-03 -0.37082041E-04  0.13679744E-02
  0.22742556E-03 -0.41415010E-03 -0.13055255E-02
 -0.14916644E-02  0.90486217E-03 -0.10440886E-02
  0.62770958E-04 -0.75461564E-03  0.95260889E-03
  0.12815974E-02 -0.77907426E-04  0.55860676E-03
  0.33304866E-02 -0.35316977E-03  0.13713060E-03
 -0.21474049E-02 -0.17096743E-02  0.35026235E-03
  0.33200058E-03  0.14903683E-02  0.28283653E-03
 -0.20058665E-03 -0.43737938E-03  0.45946951E-03
 -0.16355186E-03 -0.10873511E-02  0.16815534E-02
  0.15316970E-02  0.21635530E-02  0.74080896E-03
  0.46442987E-03 -0.29938762E-02  0.80382470E-03
  0.21844423E-02 -0.15098550E-02 -0.72892973E-03
  0.22115215E-02 -0.63726126E-03 -0.13179577E-03
 -0.20023523E-02 -0.15925812E-02  0.15121474E-02
 -0.36166281E-03  0.19607572E-02 -0.18827296E-02
 -0.38780051E-03  0.88725523E-04 -0.14999730E-02
 -0.15249489E-02 -0.16645547E-02 -0.28023234E-02
  0.26805327E-03  0.12512734E-03  0.85436644E-03
  0.30950207E-02  0.22579367E-03 -0.24932978E-04
 -0.13005720E-02  0.32359462E-02  0.64324089E-03
 -0.69839390E-04 -0.27468236E-02  0.79787672E-03
  0.22089042E-03 -0.24056035E-02  0.56842711E-03
 -0.28906853E-03 -0.86884248E-03 -0.27066238E-02
  0.12765123E-02 -0.12891746E-02 -0.85391709E-03
 -0.10389828E-02  0.10572885E-02  0.20121042E-03