Sb                                      
   1.00000000000000     
    18.3173007964999996    0.0000000000000000    0.0000000000000000
     0.0000000000000000   18.3173007964999996    0.0000000000000000
     0.0000000000000000    0.0000000000000000   18.3173007964999996
   Ag   In   Te
    50    50   100
Direct
  0.6898144189494101  0.2553422879040270  0.5177506699690398
  0.5918896174494657  0.0554794328849974  0.7451843274802424
  0.6847716501069291  0.7622356807683615  0.1401850722186980
  0.3270666978670276  0.2252792926443067  0.1131279011453999
  0.7421369582358089  0.2078881552531633  0.0559544310548811
  0.6837426611587909  0.5048908245542542  0.1675431153635633
  0.4425034625280437  0.1333056241360805  0.3596899739639418
  0.6636420335511353  0.3553863432225463  0.7555856058346887
  0.7106744634726043  0.9854233418127007  0.0746358380517790
  0.5658092648296916  0.3976937417193891  0.8780026964923313
  0.0346012459212951  0.3757621087976521  0.7567512218813860
  0.0939635449721572  0.8641658254010243  0.5656142494253236
  0.6986810897469338  0.9361802705042721  0.7594087248919072
  0.0625128009209128  0.8878957508224902  0.0128681236517811
  0.1788957572883627  0.2153619959391353  0.1870126547983053
  0.6158733157508952  0.6103650077349279  0.6185873873943025
  0.0121423806409354  0.3320037197828140  0.3041923062929291
  0.2825977292525753  0.8650742129165263  0.8676374855138207
 -0.0026916865990984  0.5908929879045581  0.3301608186628039
  0.2168619274709176  0.3794648067293199  0.3043467633762224
  0.2100763971512479 -0.1400153137263599  0.2250897813354166
  0.4126795322873285  0.1318295961540814  0.5821994747986832
  0.5195408565494939  0.7671459750365117  0.3832390044584239
  0.5001516565725942  0.5579686888036751  0.2050838899670645
  0.5164315765849296  0.4588885892249742  0.3265398422602978
  0.8160469916194003  0.8891813239642777  0.9957436426488028
  0.6472159316866984  0.0292584947549464  0.2222706358500982
  0.8326661231704844  0.9223423484627926  0.1591832929449765
  0.0941682923713921  0.0719652853202897  0.1636959943105346
  0.4153899190219605  0.3986555303297891  0.9109290746219442
  0.0616308869843286  0.1711697123937825  0.2865978563539548
  0.4830852489287894  0.9076522688831918  0.5802384255333801
  0.0068886128172747  0.5367132740886313  0.5737953810168479
  0.6768408023212561  0.1929766810398573  0.7647360130603802
  0.2195395947606182  0.1091365759535367  0.6843378749332465
  0.0389180910736870  0.7183643223136579  0.4212803028534230
  0.5282865595180856  0.1385236639346901  0.2228623900516517
  0.3317170892365993  0.6065815477706670  0.8503619469179147
  0.4633557465791759  0.6899730345125384  0.1352152150079879
  0.1930908109570723  0.6958507466946595  0.4390108758610333
  0.1543446448753308  0.9562738892379404  0.8445032071071152
  0.6112108166403970  0.1071037946089996  0.0838639734392322
  0.6361262708313538  0.5874950004987362 -0.0189619760175674
  0.6571023759177437  0.8396002689373526  0.3654244630938349
  0.3180294202000333  0.1527752917244045  0.2606860427780360
  0.4570754795779916  0.0265810153790567  0.4739312556164847
  0.4012281154168093  0.5704850311644120  0.3394574288094482
  0.7740047789720926  0.9384783742090169  0.3572077160083690
  0.2212573377099178  0.8582579259858197  0.7173132973614890
  0.0918523373055164  0.0921627264004536  0.7849892777092348
  0.2299327787102885  0.7442624185881812  0.0192059023592785
  0.2875916004988696  0.4293710378450564  0.0769254430469204
  0.5091354306691730  0.9288356658731576  0.9389862467266976
  0.9202857921637162  0.7380588061442080  0.3262359818139177
  0.3903417865108249  0.0238045552685728  0.1075663118517671
  0.2665936032563525  0.9784702680639704  0.5008654466188444
  0.6863925849043208  0.0608851315327746  0.5468941530009973
  0.6913634751184605  0.6545156377599148  0.7495628911865260
  0.9172242821824819  0.0453900647669028  0.7844408619895238
  0.0887625192989480  0.5277421909727950  0.7897599525178445
  0.9648027394175051  0.6939391713260489  0.1324074428929168
 -0.0075156584305082  0.4827276457739597  0.2134182516822423
  0.4777141938087726  0.5311438633110133  0.7562911741705980
  0.4116062540236944  0.1700173526480853  0.9111126921696640
  0.9562673287060111  0.8830027364727328  0.4293629128729299
  0.7675020235547332  0.4032281372013096  0.0087558768213590
  0.7006188882201304  0.7307249920473454  0.5607716892953677
  0.6991202858643111  0.5686531075695379  0.5029058281528608
  0.5571051549972607  0.6055955076363123  0.3392800820030986
  0.8444775500847346  0.1427957592308805  0.4124052459150737
  0.2059212103700648  0.2837653291575405  0.8571884913189746
  0.4282886197601314  0.9345213082362491  0.3149935436680228
  0.3348878899992159  0.7327155994214815  0.4006638628373035
  0.2376455030509277  0.3339544086185210  0.7140908083697909
  0.7072927297893148  0.3314467022031558  0.2831628672112276
  0.2110946332328805  0.9532577453906419  0.0018498043711912
  0.9608170515434401  0.1094582135825568  0.6400000719550230
  0.8493731129559634  0.6140774279825923  0.8961541494201036
  0.3537713927901858  0.6942113622103082  0.6418501794470547
  0.2825776740266002  0.2816324280315983  0.5136532312489761
  0.1967704745576145  0.5622055009298182  0.3052213470568398
  0.8255598611427141  0.4446880405535945  0.7832249085389968
  0.8500645740733125  0.0973667714544015  0.1987269852136063
  0.1698381565405303  0.6584126686931596  0.6437806206269363
  0.3367974515428611  0.7614841721958021  0.2443654457812862
  0.7078752911570386  0.0900446436156325  0.9504544374558105
  0.5403730600409890  0.6975945134841823  0.8724755170769161
  0.9496594633580950  0.2952707682038918  0.9369438672277408
  0.1289553457157324  0.1280742161326868  0.9680191274444357
  0.4369527131050953  0.0269415608961714  0.7650178383572405
  0.7687808135364789  0.5831028130734152  0.2732015235478790
  0.8701098678144680  0.3313404243448601  0.4864784068957780
  0.8936117653670571  0.8573059824695738  0.6424603582619525
  0.8357262558928824  0.8121699142215452  0.8496107149127576
  0.4042400483627070  0.2866926613861356  0.4086018643235751
  0.5146481498323101  0.3404779332178188  0.0208749256422590
  0.8355622507895246  0.7432605061634465  0.4701417259296309
  0.4694901574719612  0.2745987889689707  0.6753606775168248
  0.2853402295995378  0.5732622672724866  0.4586902642724051
  0.5441652498040301  0.4116977512741177  0.5214642932655059
  0.2536196405944537  0.5519278192333902  0.9751880990191020
  0.9960889483860251  0.3829301073508900  0.5549507933077122
  0.5056823276070529  0.5360941709691589  0.9135286320300666
  0.7545815907035779  0.8069253855168549  0.6953638076496769
  0.7097218330179922  0.1675027536321977  0.1985991882868232
  0.1415245337604974  0.8162952830571087  0.3513432297831426
  0.7355922788084729  0.2375047120563183  0.9061578962960734
  0.1415125618988463  0.8085902092818691  0.9082049866041496
  0.7392332861391460  0.9175138228501651  0.5042911209516915
  0.3439637739114091  0.3045186744206775  0.2484272480596908
  0.8673933989209981  0.2832710859576119  0.3381513597745018
  0.7024808479234275  0.8886309150910974  0.2304016286767014
  0.0863500221776270  0.9244161969630953  0.1568675018504094
  0.8441638655992951  0.5912507624367519  0.7362021904658004
  0.0271742973822594  0.0212224538793035  0.9215783097912847
  0.2884962781595681 -0.0217059977032875  0.6550132468412437
  0.8339270935048537  0.5496350180655384  0.0402145205987035
  0.5881149189622670  0.4644069078319499  0.6655334241017944
  0.8714987493722512  0.5160399966215572  0.3749122189868323
  0.9394627056905768  0.7944398257603730  0.0116070591058960
  0.4945375972980421  0.3537997763939976  0.2225606632032718
  0.6519833641099116  0.4465670106394530  0.4086098481313467
  0.0924842657706370  0.5785458849156886  0.4522380160050169
  0.7141799667486148  0.7056890430563626  0.9101987108095100
  0.3664500762469653  0.9855752788779090  0.9066384354913493
  0.0239234065524297  0.2243137227028391  0.7406463066563315
  0.0248076524674390  0.6346352792692121  0.6944632086876286
  0.5933560913848959  0.8339742644562625  0.5030798283499323
  0.5409889579270530  0.0488372734748965  0.6034981114597135
  0.8874959128686878  0.9814307517235484  0.5513557242144365
  0.9882702131055749  0.5556692352310630  0.0570047560066276
  0.7935348755702595  0.9863169143438083  0.8715132894433785
  0.8861062933250654  0.2135070176320321  0.8230512760629970
  0.2179338949703104  0.4221188324448110  0.4490415450267092
  0.2261302455834059  0.1066136453183619  0.0913953485668562
  0.0104145121501897  0.1756556239864867  0.4288844401520954
  0.0985865657616054  0.2801696563293522  0.9761274492991180
  0.8220141762506799  0.4459893274218517  0.2073622879489019
  0.8600316059320285  0.5825742382826868  0.5151406732510911
  0.8680829037211187  0.3023812376811894  0.0681211485768301
  0.0859617939307022  0.6735577175279286  0.2311831405169610
  0.1985487037763657  0.2255137212692862  0.3379236670126143
  0.8949692341992483  0.0221851037594209  0.3281243403685883
  0.8545484452329994  0.0331373147921436  0.0550121321473874
  0.5454468463206559  0.2499706908677697  0.3315270407513226
  0.5491834149382719  0.0215876302446898  0.3441632692148157
  0.6933733958359527  0.6784431994093880  0.3753817170841227
  0.2360274821359490  0.7769711146898360  0.5637403820919247
  0.3034406797468733  0.8493724611257861  0.1084527181065588
  0.9739875439536251  0.7078683115007159  0.8886595898384774
  0.1706217510313887  0.2323947432602103  0.6155319960927224
  0.9551095878733917  0.4397750219961543  0.8708882676885467
  0.7446714790254777  0.3883960593512188  0.5617260303705014
  0.5625008878010713  0.9540864151627723  0.0850404674368397
  0.4820235573382885  0.7741847362387921  0.0107202181099897
  0.3135074665718419  0.3081672011190875  0.9791883054113069
  0.3701918002298818  0.1629284438677072  0.7239978278422597
  0.4999956154705770  0.6784110409367088  0.6961125096315411
  0.0625244104925311  0.3181537736943403  0.1626331415586368
  0.0792782822911452  0.0901545003191490  0.5336447083412680
  0.9719117924243197  0.8889671364389440  0.7726126562720327
  0.2309853903925854  0.1210519432811770  0.8504325654791078
  0.3259966411380612  0.1200951530721126  0.4610090207823648
  0.6880577101809418  0.1448813698906599  0.4162606504506979
  0.6497460825138620  0.3689196951661757  0.1055665036929161
  0.2856643993599151  0.5555374764120268  0.6164475797986640
  0.3614054857813116  0.7398902465563552  0.9200565820856024
  0.3052688591130847  0.0035484968288948  0.2561582491517013
  0.4899431756885816  0.8091277174386534  0.2432581139025590
 -0.0167840931768643  0.1708016306287796  0.1561036919882362
  0.4385999822463454  0.4597426029890613  0.1006468127601046
  0.4601972182185368  0.6581224091558323  0.4702630302806494
  0.7041096576740404  0.4682967648297612  0.8818231456756737
  0.3832856167395167  0.8811063963581937  0.4605020254826849
  0.8456835392029989  0.1904806149053192  0.5632425981063978
  0.6705092912439882  0.8374182293458943  0.0077945219976744
  0.1638355788717072  0.6226406583159957  0.0953906231797258
  0.3618249533996948  0.3716238629806104  0.6240464386489437
  0.4127421722166641  0.4496562501536959  0.4430486368567947
  0.5352714983929717  0.2559396221435726  0.5367100921547384
  0.3423578937410723  0.4677313463029915  0.7958146525948676
  0.5607958779405936  0.0729948808901777  0.8891033183203132
  0.4454631744754456  0.8742603712943025  0.7236075877994818
  0.1654384527775981  0.4448144898815726  0.1766101770170475
  0.6139094918963041  0.6285944939613801  0.1262654054568212
  0.1235042104048817  0.9457967770349498  0.4391502613660213
  0.1436277259300350  0.4639502710766172  0.9197648073433196
  0.9574134490696610  0.8561479372934493  0.2081416058787980
 -0.0159298826654769  0.7575642546951502  0.5636892051413461
  0.0960322492767019  0.9496150662106748  0.6968098915825638
  0.4803272908148417  0.1890912539998428  0.0807090018293105
  0.1375803583687814  0.4436966593991974  0.6696916563655219
  0.5472591234288634  0.2672439358917113  0.8062280509270841
  0.5729723865957472  0.8579994367163033  0.8103427949147113
  0.0869909431680289  0.3232619022046435  0.4383617778460503
  0.7384435667870516  0.0735659772434361  0.6944733891258464
  0.8227574582135008  0.7079174419054527  0.1969618247390308
  0.7999705624827610  0.3209817285809194  0.6933160178940542
  0.3461662846454341  0.6101614388254735  0.2037204299014064
  0.2564219661350733  0.7186459348922748  0.7662906201542453
 
  0.00000000E+00  0.00000000E+00  0.00000000E+00
  0.00000000E+00  0.00000000E+00  0.00000000E+00
  0.00000000E+00  0.00000000E+00  0.00000000E+00
  0.00000000E+00  0.00000000E+00  0.00000000E+00
  0.00000000E+00  0.00000000E+00  0.00000000E+00
  0.00000000E+00  0.00000000E+00  0.00000000E+00
  0.00000000E+00  0.00000000E+00  0.00000000E+00
  0.00000000E+00  0.00000000E+00  0.00000000E+00
  0.00000000E+00  0.00000000E+00  0.00000000E+00
  0.00000000E+00  0.00000000E+00  0.00000000E+00
  0.00000000E+00  0.00000000E+00  0.00000000E+00
  0.00000000E+00  0.00000000E+00  0.00000000E+00
  0.00000000E+00  0.00000000E+00  0.00000000E+00
  0.00000000E+00  0.00000000E+00  0.00000000E+00
  0.00000000E+00  0.00000000E+00  0.00000000E+00
  0.00000000E+00  0.00000000E+00  0.00000000E+00
  0.00000000E+00  0.00000000E+00  0.00000000E+00
  0.00000000E+00  0.00000000E+00  0.00000000E+00
  0.00000000E+00  0.00000000E+00  0.00000000E+00
  0.00000000E+00  0.00000000E+00  0.00000000E+00
  0.00000000E+00  0.00000000E+00  0.00000000E+00
  0.00000000E+00  0.00000000E+00  0.00000000E+00
  0.00000000E+00  0.00000000E+00  0.00000000E+00
  0.00000000E+00  0.00000000E+00  0.00000000E+00
  0.00000000E+00  0.00000000E+00  0.00000000E+00
  0.00000000E+00  0.00000000E+00  0.00000000E+00
  0.00000000E+00  0.00000000E+00  0.00000000E+00
  0.00000000E+00  0.00000000E+00  0.00000000E+00
  0.00000000E+00  0.00000000E+00  0.00000000E+00
  0.00000000E+00  0.00000000E+00  0.00000000E+00
  0.00000000E+00  0.00000000E+00  0.00000000E+00
  0.00000000E+00  0.00000000E+00  0.00000000E+00
  0.00000000E+00  0.00000000E+00  0.00000000E+00
  0.00000000E+00  0.00000000E+00  0.00000000E+00
  0.00000000E+00  0.00000000E+00  0.00000000E+00
  0.00000000E+00  0.00000000E+00  0.00000000E+00
  0.00000000E+00  0.00000000E+00  0.00000000E+00
  0.00000000E+00  0.00000000E+00  0.00000000E+00
  0.00000000E+00  0.00000000E+00  0.00000000E+00
  0.00000000E+00  0.00000000E+00  0.00000000E+00
  0.00000000E+00  0.00000000E+00  0.00000000E+00
  0.00000000E+00  0.00000000E+00  0.00000000E+00
  0.00000000E+00  0.00000000E+00  0.00000000E+00
  0.00000000E+00  0.00000000E+00  0.00000000E+00
  0.00000000E+00  0.00000000E+00  0.00000000E+00
  0.00000000E+00  0.00000000E+00  0.00000000E+00
  0.00000000E+00  0.00000000E+00  0.00000000E+00
  0.00000000E+00  0.00000000E+00  0.00000000E+00
  0.00000000E+00  0.00000000E+00  0.00000000E+00
  0.00000000E+00  0.00000000E+00  0.00000000E+00
  0.00000000E+00  0.00000000E+00  0.00000000E+00
  0.00000000E+00  0.00000000E+00  0.00000000E+00
  0.00000000E+00  0.00000000E+00  0.00000000E+00
  0.00000000E+00  0.00000000E+00  0.00000000E+00
  0.00000000E+00  0.00000000E+00  0.00000000E+00
  0.00000000E+00  0.00000000E+00  0.00000000E+00
  0.00000000E+00  0.00000000E+00  0.00000000E+00
  0.00000000E+00  0.00000000E+00  0.00000000E+00
  0.00000000E+00  0.00000000E+00  0.00000000E+00
  0.00000000E+00  0.00000000E+00  0.00000000E+00
  0.00000000E+00  0.00000000E+00  0.00000000E+00
  0.00000000E+00  0.00000000E+00  0.00000000E+00
  0.00000000E+00  0.00000000E+00  0.00000000E+00
  0.00000000E+00  0.00000000E+00  0.00000000E+00
  0.00000000E+00  0.00000000E+00  0.00000000E+00
  0.00000000E+00  0.00000000E+00  0.00000000E+00
  0.00000000E+00  0.00000000E+00  0.00000000E+00
  0.00000000E+00  0.00000000E+00  0.00000000E+00
  0.00000000E+00  0.00000000E+00  0.00000000E+00
  0.00000000E+00  0.00000000E+00  0.00000000E+00
  0.00000000E+00  0.00000000E+00  0.00000000E+00
  0.00000000E+00  0.00000000E+00  0.00000000E+00
  0.00000000E+00  0.00000000E+00  0.00000000E+00
  0.00000000E+00  0.00000000E+00  0.00000000E+00
  0.00000000E+00  0.00000000E+00  0.00000000E+00
  0.00000000E+00  0.00000000E+00  0.00000000E+00
  0.00000000E+00  0.00000000E+00  0.00000000E+00
  0.00000000E+00  0.00000000E+00  0.00000000E+00
  0.00000000E+00  0.00000000E+00  0.00000000E+00
  0.00000000E+00  0.00000000E+00  0.00000000E+00
  0.00000000E+00  0.00000000E+00  0.00000000E+00
  0.00000000E+00  0.00000000E+00  0.00000000E+00
  0.00000000E+00  0.00000000E+00  0.00000000E+00
  0.00000000E+00  0.00000000E+00  0.00000000E+00
  0.00000000E+00  0.00000000E+00  0.00000000E+00
  0.00000000E+00  0.00000000E+00  0.00000000E+00
  0.00000000E+00  0.00000000E+00  0.00000000E+00
  0.00000000E+00  0.00000000E+00  0.00000000E+00
  0.00000000E+00  0.00000000E+00  0.00000000E+00
  0.00000000E+00  0.00000000E+00  0.00000000E+00
  0.00000000E+00  0.00000000E+00  0.00000000E+00
  0.00000000E+00  0.00000000E+00  0.00000000E+00
  0.00000000E+00  0.00000000E+00  0.00000000E+00
  0.00000000E+00  0.00000000E+00  0.00000000E+00
  0.00000000E+00  0.00000000E+00  0.00000000E+00
  0.00000000E+00  0.00000000E+00  0.00000000E+00
  0.00000000E+00  0.00000000E+00  0.00000000E+00
  0.00000000E+00  0.00000000E+00  0.00000000E+00
  0.00000000E+00  0.00000000E+00  0.00000000E+00
  0.00000000E+00  0.00000000E+00  0.00000000E+00
  0.00000000E+00  0.00000000E+00  0.00000000E+00
  0.00000000E+00  0.00000000E+00  0.00000000E+00
  0.00000000E+00  0.00000000E+00  0.00000000E+00
  0.00000000E+00  0.00000000E+00  0.00000000E+00
  0.00000000E+00  0.00000000E+00  0.00000000E+00
  0.00000000E+00  0.00000000E+00  0.00000000E+00
  0.00000000E+00  0.00000000E+00  0.00000000E+00
  0.00000000E+00  0.00000000E+00  0.00000000E+00
  0.00000000E+00  0.00000000E+00  0.00000000E+00
  0.00000000E+00  0.00000000E+00  0.00000000E+00
  0.00000000E+00  0.00000000E+00  0.00000000E+00
  0.00000000E+00  0.00000000E+00  0.00000000E+00
  0.00000000E+00  0.00000000E+00  0.00000000E+00
  0.00000000E+00  0.00000000E+00  0.00000000E+00
  0.00000000E+00  0.00000000E+00  0.00000000E+00
  0.00000000E+00  0.00000000E+00  0.00000000E+00
  0.00000000E+00  0.00000000E+00  0.00000000E+00
  0.00000000E+00  0.00000000E+00  0.00000000E+00
  0.00000000E+00  0.00000000E+00  0.00000000E+00
  0.00000000E+00  0.00000000E+00  0.00000000E+00
  0.00000000E+00  0.00000000E+00  0.00000000E+00
  0.00000000E+00  0.00000000E+00  0.00000000E+00
  0.00000000E+00  0.00000000E+00  0.00000000E+00
  0.00000000E+00  0.00000000E+00  0.00000000E+00
  0.00000000E+00  0.00000000E+00  0.00000000E+00
  0.00000000E+00  0.00000000E+00  0.00000000E+00
  0.00000000E+00  0.00000000E+00  0.00000000E+00
  0.00000000E+00  0.00000000E+00  0.00000000E+00
  0.00000000E+00  0.00000000E+00  0.00000000E+00
  0.00000000E+00  0.00000000E+00  0.00000000E+00
  0.00000000E+00  0.00000000E+00  0.00000000E+00
  0.00000000E+00  0.00000000E+00  0.00000000E+00
  0.00000000E+00  0.00000000E+00  0.00000000E+00
  0.00000000E+00  0.00000000E+00  0.00000000E+00
  0.00000000E+00  0.00000000E+00  0.00000000E+00
  0.00000000E+00  0.00000000E+00  0.00000000E+00
  0.00000000E+00  0.00000000E+00  0.00000000E+00
  0.00000000E+00  0.00000000E+00  0.00000000E+00
  0.00000000E+00  0.00000000E+00  0.00000000E+00
  0.00000000E+00  0.00000000E+00  0.00000000E+00
  0.00000000E+00  0.00000000E+00  0.00000000E+00
  0.00000000E+00  0.00000000E+00  0.00000000E+00
  0.00000000E+00  0.00000000E+00  0.00000000E+00
  0.00000000E+00  0.00000000E+00  0.00000000E+00
  0.00000000E+00  0.00000000E+00  0.00000000E+00
  0.00000000E+00  0.00000000E+00  0.00000000E+00
  0.00000000E+00  0.00000000E+00  0.00000000E+00
  0.00000000E+00  0.00000000E+00  0.00000000E+00
  0.00000000E+00  0.00000000E+00  0.00000000E+00
  0.00000000E+00  0.00000000E+00  0.00000000E+00
  0.00000000E+00  0.00000000E+00  0.00000000E+00
  0.00000000E+00  0.00000000E+00  0.00000000E+00
  0.00000000E+00  0.00000000E+00  0.00000000E+00
  0.00000000E+00  0.00000000E+00  0.00000000E+00
  0.00000000E+00  0.00000000E+00  0.00000000E+00
  0.00000000E+00  0.00000000E+00  0.00000000E+00
  0.00000000E+00  0.00000000E+00  0.00000000E+00
  0.00000000E+00  0.00000000E+00  0.00000000E+00
  0.00000000E+00  0.00000000E+00  0.00000000E+00
  0.00000000E+00  0.00000000E+00  0.00000000E+00
  0.00000000E+00  0.00000000E+00  0.00000000E+00
  0.00000000E+00  0.00000000E+00  0.00000000E+00
  0.00000000E+00  0.00000000E+00  0.00000000E+00
  0.00000000E+00  0.00000000E+00  0.00000000E+00
  0.00000000E+00  0.00000000E+00  0.00000000E+00
  0.00000000E+00  0.00000000E+00  0.00000000E+00
  0.00000000E+00  0.00000000E+00  0.00000000E+00
  0.00000000E+00  0.00000000E+00  0.00000000E+00
  0.00000000E+00  0.00000000E+00  0.00000000E+00
  0.00000000E+00  0.00000000E+00  0.00000000E+00
  0.00000000E+00  0.00000000E+00  0.00000000E+00
  0.00000000E+00  0.00000000E+00  0.00000000E+00
  0.00000000E+00  0.00000000E+00  0.00000000E+00
  0.00000000E+00  0.00000000E+00  0.00000000E+00
  0.00000000E+00  0.00000000E+00  0.00000000E+00
  0.00000000E+00  0.00000000E+00  0.00000000E+00
  0.00000000E+00  0.00000000E+00  0.00000000E+00
  0.00000000E+00  0.00000000E+00  0.00000000E+00
  0.00000000E+00  0.00000000E+00  0.00000000E+00
  0.00000000E+00  0.00000000E+00  0.00000000E+00
  0.00000000E+00  0.00000000E+00  0.00000000E+00
  0.00000000E+00  0.00000000E+00  0.00000000E+00
  0.00000000E+00  0.00000000E+00  0.00000000E+00
  0.00000000E+00  0.00000000E+00  0.00000000E+00
  0.00000000E+00  0.00000000E+00  0.00000000E+00
  0.00000000E+00  0.00000000E+00  0.00000000E+00
  0.00000000E+00  0.00000000E+00  0.00000000E+00
  0.00000000E+00  0.00000000E+00  0.00000000E+00
  0.00000000E+00  0.00000000E+00  0.00000000E+00
  0.00000000E+00  0.00000000E+00  0.00000000E+00
  0.00000000E+00  0.00000000E+00  0.00000000E+00
  0.00000000E+00  0.00000000E+00  0.00000000E+00
  0.00000000E+00  0.00000000E+00  0.00000000E+00
  0.00000000E+00  0.00000000E+00  0.00000000E+00
  0.00000000E+00  0.00000000E+00  0.00000000E+00
  0.00000000E+00  0.00000000E+00  0.00000000E+00
  0.00000000E+00  0.00000000E+00  0.00000000E+00
  0.00000000E+00  0.00000000E+00  0.00000000E+00
  0.00000000E+00  0.00000000E+00  0.00000000E+00
  0.00000000E+00  0.00000000E+00  0.00000000E+00
