In2O3 structure 9 - random placement wit
   1.00000000000000     
     8.0082882921198664   -0.0063680768804138   -0.0057247592739232
    -0.0067334901670211    7.9180905921026721    0.0980959262519527
    -0.0054755520502993    0.0976289901913792    7.9414703707182115
   In   Ga   O 
    14     2    24
Direct
  0.0989458748386127  0.4803042750431175  0.6677162640884760
  0.0996857423296049  0.9782680219176925  0.6653784068598156
  0.5880991561728166  0.5140333250231208  0.6972457538984145
  0.5919093071651460  0.0066443334270261  0.6963895703295577
  0.3606527753021993  0.2234883860141395  0.9184430351608199
  0.8671527672538417  0.2614037730123044  0.4438998105277960
  0.3620167382442858  0.7321507794557647  0.4116575899892752
  0.8679431307112253  0.2582633377687742  0.9448880779819078
  0.5949794530221268  0.0095568490806102  0.1907914237833239
  0.5921496815056528  0.5133001732850175  0.1902695538882213
  0.8693688497466567  0.7630663074558015  0.4410159353075542
  0.8743873547808008  0.7617300145039323  0.9455760807670259
  0.3624177916029367  0.2303227135040373  0.4074976368255250
  0.1007214295088872  0.4867463943186436  0.1582709082229599
  0.3698367571391117  0.7395587484239883  0.9157259857416946
  0.0892931827914296  0.9809406021466245  0.1740024427745581
  0.6293256125232176  0.7653461044281968  0.3132295408179857
  0.4618907612066039  0.7667377639782558  0.6705655616382487
  0.6290301359458326  0.1222514825451526  0.4459130503309368
  0.3364901688314745  0.6276299114673662  0.1435862663311198
  0.9957733508483670  0.7402768054475359  0.1989560749746389
  0.9809882116993762  0.5124521742047605  0.9108752546472658
  0.4777019391995054  0.9633133984345932  0.9506766788393790
  0.4757338982477464  0.4783077456047522  0.4478170920041222
  0.8321474777259965  0.8763814830916417  0.6959821368286612
  0.1278040586464968  0.2089962345636991  0.0635874791841715
  0.8309007223085274  0.3824879397954462  0.1965380130069363
  0.3307954254758343  0.1221955762662432  0.6598965371612309
  0.8276066124270685  0.5143821375818263  0.5622682708876994
  0.3291733636905931  0.4838484313327527  0.8153609528142596
  0.1314190771356749  0.3751013371527705  0.4085709972726974
  0.9878612544398848  0.0199260030478641  0.3988182692243782
  0.3147873871474900  0.9773287776671253  0.2886490691278638
  0.1278349943067596  0.7274751431595092  0.5483137983984463
  0.6293641547679130  0.6361155690189619  0.9451203710824529
  0.1474410716733345  0.8592564362116590  0.9139435140899295
  0.8397176005236133  0.0111226960086341  0.0646529498539650
  0.9846516719050271  0.2239604190364020  0.6995139681358040
  0.4820308409937724  0.2647385480740851  0.1572941300891202
  0.6291991411588356  0.2607841823419648  0.8115239759694859
 
  0.00000000E+00  0.00000000E+00  0.00000000E+00
  0.00000000E+00  0.00000000E+00  0.00000000E+00
  0.00000000E+00  0.00000000E+00  0.00000000E+00
  0.00000000E+00  0.00000000E+00  0.00000000E+00
  0.00000000E+00  0.00000000E+00  0.00000000E+00
  0.00000000E+00  0.00000000E+00  0.00000000E+00
  0.00000000E+00  0.00000000E+00  0.00000000E+00
  0.00000000E+00  0.00000000E+00  0.00000000E+00
  0.00000000E+00  0.00000000E+00  0.00000000E+00
  0.00000000E+00  0.00000000E+00  0.00000000E+00
  0.00000000E+00  0.00000000E+00  0.00000000E+00
  0.00000000E+00  0.00000000E+00  0.00000000E+00
  0.00000000E+00  0.00000000E+00  0.00000000E+00
  0.00000000E+00  0.00000000E+00  0.00000000E+00
  0.00000000E+00  0.00000000E+00  0.00000000E+00
  0.00000000E+00  0.00000000E+00  0.00000000E+00
  0.00000000E+00  0.00000000E+00  0.00000000E+00
  0.00000000E+00  0.00000000E+00  0.00000000E+00
  0.00000000E+00  0.00000000E+00  0.00000000E+00
  0.00000000E+00  0.00000000E+00  0.00000000E+00
  0.00000000E+00  0.00000000E+00  0.00000000E+00
  0.00000000E+00  0.00000000E+00  0.00000000E+00
  0.00000000E+00  0.00000000E+00  0.00000000E+00
  0.00000000E+00  0.00000000E+00  0.00000000E+00
  0.00000000E+00  0.00000000E+00  0.00000000E+00
  0.00000000E+00  0.00000000E+00  0.00000000E+00
  0.00000000E+00  0.00000000E+00  0.00000000E+00
  0.00000000E+00  0.00000000E+00  0.00000000E+00
  0.00000000E+00  0.00000000E+00  0.00000000E+00
  0.00000000E+00  0.00000000E+00  0.00000000E+00
  0.00000000E+00  0.00000000E+00  0.00000000E+00
  0.00000000E+00  0.00000000E+00  0.00000000E+00
  0.00000000E+00  0.00000000E+00  0.00000000E+00
  0.00000000E+00  0.00000000E+00  0.00000000E+00
  0.00000000E+00  0.00000000E+00  0.00000000E+00
  0.00000000E+00  0.00000000E+00  0.00000000E+00
  0.00000000E+00  0.00000000E+00  0.00000000E+00
  0.00000000E+00  0.00000000E+00  0.00000000E+00
  0.00000000E+00  0.00000000E+00  0.00000000E+00
  0.00000000E+00  0.00000000E+00  0.00000000E+00
