Amorphous Sb                            
   1.00000000000000     
    22.2283632703415037    0.0000000000000000    0.0000000000000000
     0.0000000000000000   22.2283632703415037    0.0000000000000000
     0.0000000000000000    0.0000000000000000   22.2283632703415037
   Sb   Se   Te
   120    72   108
Direct
  0.5978260181819238  0.5677038167024437  0.5583184281150274
  0.1812965119796113  0.0394291899568393  0.0634703866477761
  0.8998606748975915  0.8878057337649575  0.6887323683723889
  0.8602511098260208  0.0802951136858961  0.0639216638669022
  0.2145580756190908  0.7837931339288214  0.9563980522374667
  0.7675689318808901  0.1224559134958402  0.8609533136875972
  0.3103467116972818  0.8803299756412507  0.2007742201261460
  0.6242852697326184  0.0685728501006272  0.1631204092836062
  0.3825830151570481  0.7953853539926981  0.7816864503367157
  0.4278776140296757  0.2466859641686840  0.6744695532928796
  0.6560597712909179  0.5017222637969019  0.2162538558988375
  0.0655660337214502  0.8963553287532718  0.3673130033587216
  0.3888489367353790  0.6317720864455798  0.1312947641052334
  0.3501284162677992  0.0742830199349528  0.2292100722320007
  0.3861778760758308  0.2885074270317408  0.4970732665454806
  0.7237473201527387  0.5596127041822337  0.9677339604978695
  0.7306044977053682  0.1996395200042853  0.4168133593564812
  0.9971143675825601  0.7363830487289639  0.3812865675441087
  0.5373571760498832  0.9021490583755044  0.2452056936244901
  0.5042564259637795  0.1513927828762150  0.5058788257098928
  0.5089055578960694  0.5146156694371070  0.0248238498824138
  0.4912217425237155  0.4037443647335038  0.9514238219210770
  0.2007475987966073  0.4594123184026889  0.9882998652603512
  0.0009444741289392  0.2453557485585749  0.2610977561460423
  0.4855770569971925  0.6224411454539133  0.7295301851139310
  0.1721344389103707  0.0041395811791039  0.5439505424820226
  0.4762048925952694  0.5220164258493053  0.2198438473539431
  0.6884970567442801  0.3587407699250176  0.1098229251555835
  0.2550322571082099  0.3087740675845184  0.2161485084877413
  0.8223059027843798  0.5858150712661127  0.2108664740013973
  0.0851193685479351  0.6985993819816031  0.4712604899944160
  0.4649152716679058  0.5841233921944805  0.4057115341361099
  0.7304119248811239  0.7927704910222853  0.6409542367436211
  0.7473208992755377  0.7137932794878193  0.0711152643664911
  0.3160940880688304  0.3354369483909894  0.8288014111051699
  0.9760147768005969  0.3783371185541993  0.7946853181685931
  0.7808542234966083  0.2528534218379146  0.8805930685844456
  0.4701110088640371  0.8969703008860191  0.0472938771459845
  0.3808566215336412  0.9443573509910437  0.5753076119750290
  0.6412888566900840  0.5389295292374759  0.4361120001069896
  0.5424333523163669  0.6353503530729565  0.2071612454392831
  0.8939528347973710  0.2812721760575075  0.4934847418228198
  0.9529167286622949  0.0610997232074827  0.6618839913037313
  0.2700575411698838  0.5777491686264683  0.4717710483048400
  0.0946438389676271  0.1928208024947486  0.0130748299857979
  0.6530709790625769  0.8462108540495882 -0.0018488901033937
  0.2775434641178897  0.9190578267266031  0.9389434054702835
  0.4456557264697610  0.7882070239997812  0.2918392269954674
  0.5452562822178044  0.8331621183981529  0.5514266835978399
  0.3555776309662302  0.4555460939152053  0.1614264319450736
  0.2326048984789196  0.6101306369051495  0.0785531494053384
  0.2564256630229643  0.0349524917137689  0.8704052134455044
  0.4931574134610267  0.9675185549934595  0.6449511932041883
  0.1974946340191699  0.5711295001222896  0.7495355493372090
  0.7619709861022459  0.4520058022234842  0.9028405956618348
  0.0561279495513636  0.6509382854560444  0.2311748611635939
  0.9929327060557471  0.7293511416735017  0.5606747779489112
  0.9905030651466480  0.6496394049543939  0.7755024551035189
  0.4692790326501188  0.1634242561235341  0.1066075269006025
  0.8423475879949858  0.0086348110264232  0.7422785788353171
  0.6153442148854734  0.6468408210970218  0.8455101871034247
  0.5413565366946687  0.1168594380715617  0.8907123678815327
  0.7973044987667153  0.9743058718337853  0.4173671476767526
  0.8541602155961867  0.8929507763398639  0.8114524850618307
  0.0603964447126107  0.2088570424019960  0.6304295927544258
  0.2414138557983245  0.8259251822056894  0.0848918866431498
  0.0343640041368602  0.4395451864893803  0.3082315035658401
  0.8870012348111649  0.6381346146325314  0.8680191532180792
  0.2373903196904337  0.8507232846993195  0.3843657305960842
  0.6400354985920942  0.9583998017784089  0.3760319461098680
  0.0922669888984635  0.8000477568895485  0.7882202644283917
  0.6253478066756664  0.4730229617909132  0.9657421735425191
  0.1820319487980832  0.0986682416624705  0.7449078828445160
  0.5349503396677943  0.4443266834679278  0.1326801888601737
  0.3951633760316247  0.5092872418805584  0.5799213859515411
  0.8738795447052583  0.4032367056257469  0.6333170277738122
  0.3497851007573025  0.5451462979977265  0.8871993505874274
  0.2863306504114427  0.2665372668448090  0.0236339310218855
  0.2198529230214034  0.3395057118791624  0.9363178008709795
  0.5809763564677849  0.3265784191562577  0.6151729079931816
  0.5285055991969443  0.2341016386416254  0.3604808757370229
  0.1108673091943945  0.2483738839775245  0.3750944208745833
  0.8299398784281059  0.1678428310186474  0.3007845086337256
  0.2259178402312782  0.1987365094950498  0.4219970534870016
  0.7950073797738717  0.4475177246287200  0.4894083249908037
  0.8435074201597856  0.6840615150376458  0.2992269710227851
  0.5621614558913508  0.2832509455127217  0.8246589404353443
  0.0548366029153193  0.5470664041598368  0.6425538383403324
  0.2814076987966546  0.1330799359849639  0.6680872489316382
  0.3482012630857169  0.7005443489291151  0.6974839681832389
  0.3666255770602578  0.4320358490349456  0.4271539192475657
  0.9466962756697692  0.1250841291268095  0.2597053299629328
  0.8852399567197329  0.9112860994870133  0.5467455693135905
  0.1574959143125983  0.2117395069127123  0.8107184823716249
  0.8858162067534646  0.6108660080933719  0.6028465558004898
  0.9519183437650955  0.0328869079521201  0.9350450859789009
  0.6343333490001353  0.2330718400790122  0.0175469482607225
  0.2391735904837148  0.4461691994260331  0.7811903613614214
  0.2877472143139638  0.2029906118949638  0.8286759328378714
  0.2583324539665949  0.6515174788705146  0.3131407259886829
  0.7065465953475866  0.6442408239294528  0.5636369942801615
  0.0509157498813762  0.1443762735361527  0.4403287759337270
  0.3649595401008932  0.0687714463180996  0.7512212626144427
  0.7308509419135955  0.3511443742841951  0.5570507294846356
  0.1111565530517383  0.7344712476858337  0.0241516900893452
  0.9188504775293264  0.5780916963081547  0.4809841552072833
  0.4063038482897855  0.0041743655087291  0.0902233265014822
  0.7541594552251394  0.7334815551931493  0.9028802550022944
  0.8969476699802753  0.3976872501200876  0.0181931651449707
  0.9337419663582482  0.3441569543417973  0.3761687058340952
  0.5566603930486375  0.7914012123814392  0.4242752470492548
  0.5569438506686005  0.4191589848323000  0.7054356387886270
  0.8459488223736849  0.9155800298688186  0.0532694924778365
  0.7320225535156364  0.6938004337686525  0.7299424363081456
  0.5821740063885367  0.0101130729318065  0.0512733008593449
  0.6583840054132856  0.9803268915526061  0.6571722064707683
  0.2462410264108149  0.0236734314408925  0.3380195322887544
  0.6930719230553126  0.1399974164785268  0.6077764494045980
  0.7823290235957656  0.9152716884600116  0.2328797360403564
  0.7567176083620651  0.6009120597978100  0.4489407657631174
  0.8935353354510488  0.1488959629886533  0.3988819395374733
  0.7838140915245583  0.3084758742530062  0.4505613415086147
  0.5640086777218659  0.7879128194020676  0.2651133783000715
  0.6425976532541512  0.9562647219169677  0.2541482032880574
  0.3592124404646065  0.2541287568665735  0.2413148253414949
  0.6045738615397060  0.6180353977531162  0.7313436688023260
  0.4664184960689322  0.0737803938810228  0.6895841067908821
  0.5070094953036788  0.1238056172709014  0.3885501368873260
  0.9387123738423819  0.5282947044515589  0.6700498734641911
  0.2776510236417356  0.9379437954397180  0.0589716310458047
  0.6631640152155411  0.7040429362102855  0.9835493062818808
  0.1680788096017325  0.9128560988192612  0.3086329173533311
  0.2727732736149580  0.0352931152466667  0.6026180088780899
  0.4060638534355739  0.3402173530616575  0.6059251775714573
  0.8981049919752007  0.5154537576677002  0.0086097205315253
  0.5983863557208617  0.0727499536065797  0.6012817798246773
  0.7612616080666333  0.2037984941212857  0.7765266837958602
  0.5078390938956835  0.2311861201269400  0.2003176463520075
  0.1956375058416642  0.5325916930901178  0.6361052195129908
  0.5054088146663608  0.6576037214523186  0.0986054916063530
  0.9579312409807027  0.0087619783327995  0.5582186245348245
  0.6577153947228588  0.0534706798908251  0.7502562904681728
  0.4923138152664278  0.5303174078944362  0.6564045344533124
  0.1001135830273323  0.0970964517233186  0.6559392658813559
  0.2740966534328305  0.4130458702394021  0.2655189224599070
  0.2975930639928167  0.4501996114009348  0.5195279587638901
  0.9089814723652481  0.6247786146712617  0.1256227683042376
  0.9382728964021858  0.9877988210030652  0.0756747633918699
  0.8652228432604563  0.4427983726225601  0.3727107562565159
  0.6670367123473104  0.7534310646246964  0.8112911852255649
  0.4425930384744116  0.3727930865037236  0.1433387353837614
  0.3173259808935622  0.7692024164503946  0.2415726907033015
  0.5309849415437062  0.9175853614084679  0.3751232728968815
  0.1397257032617294  0.8504433111204607  0.8865271711318058
  0.3523089858469543  0.9530810206489285  0.7285651531834048
  0.1333265391464693  0.8444106716332442  0.1339187489060641
  0.9218418109084391  0.3940589306114055  0.5152066443507950
  0.5767414348769045  0.9077379538064999  0.1162250310803581
  0.5349655689216002  0.2174196139936820  0.6362152914244318
  0.6756046708273439  0.9662697558995452  0.9930291172350577
  0.6482408417167996  0.2411240129699178  0.3426318368039808
  0.0326651191911170  0.5838788809236246  0.5097989449655047
  0.0726408109540447 -0.0045837038482886  0.4335801021293909
  0.4569613936173776  0.3212823353876396  0.7641502741143485
  0.1088681384156740  0.3039759620916106  0.9336352279644006
  0.6709380940947594  0.2882579219049934  0.9096211318927441
  0.6033620652731615  0.7502833126115626  0.6077378159163030
  0.7406259045431471  0.5206998376855586  0.3009463036068694
  0.7531835890647354  0.8481112423256595  0.9332398329980974
  0.7812069594960332  0.3750403344560655  0.9913761532697662
  0.7212712656328215  0.5931025564170493  0.8519449922001719
  0.1656028610873592  0.6994310423004183  0.1242504388939056
  0.2201969358528733  0.5149171086127280  0.8825654439788099
  0.9671001160387688  0.8958389765778062  0.8681309047882786
  0.6302721393966416  0.1238940852918613  0.9706603205153318
  0.0815520397444727  0.4507069552127576  0.2035046706376828
  0.8989576494269187  0.9183156163213375  0.4278679595858238
  0.2760525361394751  0.5837793476091819  0.1875975203465756
  0.0381042633500450  0.7174099314849569  0.8548327025206844
  0.0792243615520700  0.4309524374733373  0.6239249684358056
  0.9717633256060804  0.1636730142012812  0.5718634527269749
  0.6547168629720002  0.1844644237540435  0.5038550043483011
  0.5183541506225380  0.2688476018916051  0.4759477549350900
  0.9460400945354573  0.1391110260043478  0.1411681947740247
  0.7022855144981988  0.8175891982989271  0.1040245646033900
  0.8928234843294587  0.3868926877432507  0.1364291515753951
  0.3199394931253127  0.1209256367187438  0.3325401587464370
  0.0710497094179142  0.7640098392688698  0.2848823710515669
  0.2414766563092520  0.6851190607400398  0.4257606004487156
  0.5742222559136066  0.1721446913916243  0.7902499842261814
  0.4403859037297588  0.7800842134830370  0.4119707245930798
  0.5400628666758083  0.8420442709916837  0.8633269781767080
  0.1034366200759987  0.9634378118148669  0.9929607007328312
  0.2343936568610478  0.0302828255556017  0.2044496895200472
  0.7673269964642077  0.0338954454507816  0.5998581247355268
  0.2590791510040953  0.9232175183372621  0.7932607547478604
  0.9723019777524243  0.7169897485356850  0.1576551624858346
  0.3790257467658609  0.8193360614010917  0.5443605129058916
  0.8886973681752441  0.4858941144713360  0.8916530839957185
  0.1292126959643968  0.0020694406755176  0.8682981829336093
  0.8222569957755546  0.0007382698179810  0.9559272227084926
  0.7090411769188736  0.8499314968289320  0.3639695748374735
  0.3569210324586271  0.4968221187905379  0.7670421927249885
  0.3424807506765418  0.1646310117417096  0.1345662955319828
  0.6503837034445931  0.4611607211594004  0.6230554139526926
  0.2856192557100712  0.6573902362097080  0.8627050085277614
  0.9998798912523946  0.8589296933435608  0.5678582514637677
  0.3887717188854547  0.3059623132581726  0.3449163669858941
  0.4682033459800883  0.6117065986259167  0.8887636394216862
  0.7241079991671033  0.6786827600042618  0.3531988269839763
  0.0295518728501437  0.3018676165070503  0.0461587761168858
  0.8015679644834541  0.7624004434382066  0.2024674871783894
  0.2654433753770625  0.3514861991339982  0.3710604702039088
  0.6554586015348121  0.3713260280744091  0.2354501850207784
  0.8934447741875959  0.0939716201752035  0.8309892982196936
  0.1755795006226656  0.5561715130948619  0.2795915928274797
  0.4224960394267459  0.0822585179019366 -0.0046409900293044
  0.3419132707894185  0.9293863813221355  0.3211754716456529
  0.3692819479735419  0.5269905841072351  0.0527184670836788
  0.0672310622964833  0.1077774116034570  0.8903797328325935
  0.1117158354228728  0.5229108983907930  0.3845845145920384
  0.3222694284300218  0.6939608688607487  0.0368087446689923
  0.0415685463178464  0.5676190809839107  0.9923862991657592
  0.1206187082164342  0.1903947846497597  0.2591487721460210
  0.1292827788940127  0.9392970788191289  0.7181940293616894
  0.1542708850678091  0.1480145369718208  0.5160113646143207
  0.2793591855928697  0.3239285222149726  0.6958313444152355
  0.8214186174087216  0.0188778314841299  0.3002675363511562
  0.0743794873407253  0.7031489455912163  0.6701408340766557
  0.8880198843547291  0.7244352639688939  0.9628250478048278
  0.9214116090418528  0.4953583650123162  0.2539769342740921
  0.1008852843028403  0.0736125643497396  0.3434767317259225
  0.4863966390965186 -0.0082725693304870  0.5182695872717813
  0.6474051319376276  0.9977939569018409  0.8540090762448009
  0.0005093705175975  0.5339477194116007  0.1602985820987545
  0.2900999228875655  0.7959007450446741  0.6329562641763936
  0.0727152571005239  0.5416655055593483  0.7774522957216931
  0.9228159808997387  0.2653954014456889  0.7745588706107714
  0.9363212644907496  0.1516660054140831  0.9825197722017445
  0.5495394949873611  0.5006107747912769  0.8651994847900584
  0.2497012597262764  0.2982218590200544  0.4984832099904674
  0.7979504444672949  0.2879569334152375  0.1223469148311375
  0.3876947390342932  0.7256950984360316  0.8912775923883609
  0.8280666510562811  0.2842919535130214  0.6225585578494872
  0.7754685305776473  0.5440908978354300  0.6112181984635893
  0.3990614852385138  0.8943407977427575  0.9236724751420341
  0.1582808675914956  0.3053783803425322  0.7218595052411086
  0.2644553892108538  0.9571536049186575  0.4639927577323444
  0.1450335493211689  0.6314731193660869  0.9550118321650103
  0.8563850020004175  0.4103883851224494  0.7743005598075385
  0.0757165509036558  0.4482199252216278  0.9646982694826299
  0.3646409994948115  0.4028427484632162  0.9443511344226992
  0.8614181200649483  0.2939066138576155  0.2822680511685074
  0.1908532557838818  0.2257525177532385  0.0963634003354397
  0.9980798405171679  0.3605003058685976  0.6656363558995217
  0.7409061387899312  0.8878821700916723  0.7274770926220625
  0.8209376053997111  0.0918605198165610  0.4755939765854802
  0.1853939016606177  0.7304698028495926  0.7300369056145080
  0.1259468791415591  0.8302033202441632  0.4584011050843698
  0.5664749037525622  0.6606285329298190  0.4565030909530404
  0.7300377083597764  0.4786697184275726  0.1103096211290774
  0.2471345058140104  0.1600118747608710  0.9441234366510514
  0.5081150719193820  0.7930706905280293  0.7556759303505690
  0.8590244289569597  0.7763676592939973  0.6255321408092451
  0.3760536679365045  0.1658567889533638  0.5270665767564819
  0.0180198770745468  0.1867340009006916  0.7522464570001937
  0.6789943584263093  0.4147564027932885  0.4383049846176120
  0.4124487106998469  0.8275187554249709  0.1381745681986846
  0.9782618183668411  0.6198930217035731  0.3324819334139057
  0.8437403870147937  0.7322669868419971  0.7870742218509690
  0.0844074815823199  0.1063634176053535  0.1160268946907865
  0.1965631925881494  0.7617037020746631  0.2750015015349787
  0.5425792156097548  0.5008473071950684  0.3278289139139061
  0.4973592244617613  0.0536393576270125  0.1842099244346535
  0.1553167233273681  0.8881740845474857  0.6086350669024666
  0.7348625165371194  0.8369084389301796  0.4883883708254138
  0.1005991250648721  0.9574484396654975  0.1281123655740046
  0.0013232223689625  0.9660799676757637  0.7396560588403489
  0.7008638995501081  0.6457118969189647  0.1716903373108764
  0.4649244880868627  0.7158193199953387  0.6409419819428683
  0.3459097377024200  0.5322666966997528  0.3503454652081066
  0.4841809658093565  0.4787844528517151  0.4887208408994255
  0.4364055391819708  0.6603748534463731  0.2779730771069075
  0.7750367296574696  0.4033217687500780  0.2946884996053146
  0.4705373359770941  0.2243994869286564  0.9172392927043447
  0.4869440029353166  0.2821019032795725  0.0294103004274819
  0.9423403879709780  0.2674870263822208  0.1363811352126373
  0.7395070575858865  0.1789144311518451  0.0804336820721877
  0.8922295897896744  0.7043251662978579  0.4721170636445040
  0.1298539495638712  0.3899843583439950  0.3901878796982907
  0.7642024740898620  0.9886820055876108  0.1304585023089693
  0.9515402163216963  0.8389568556386419  0.9683394778981557
  0.1960779949842190  0.6279001270194999  0.5682312900962558
  0.6495723784012711  0.3262958279609549  0.7255728645922898
  0.2667124037838565  0.3764331287874715  0.1056718565163401
  0.6130425322551030  0.2019359837919003  0.1569514674923125
  0.6435512225259012  0.9153601010276329  0.5214857443212462
  0.8892816251185243  0.8534222438312354  0.1936784830142754
  0.5265519940090685  0.9565618039817445  0.8671283711357061
  0.3803050961206373  0.6244639862086075  0.5221135235606635
 
  0.00000000E+00  0.00000000E+00  0.00000000E+00
  0.00000000E+00  0.00000000E+00  0.00000000E+00
  0.00000000E+00  0.00000000E+00  0.00000000E+00
  0.00000000E+00  0.00000000E+00  0.00000000E+00
  0.00000000E+00  0.00000000E+00  0.00000000E+00
  0.00000000E+00  0.00000000E+00  0.00000000E+00
  0.00000000E+00  0.00000000E+00  0.00000000E+00
  0.00000000E+00  0.00000000E+00  0.00000000E+00
  0.00000000E+00  0.00000000E+00  0.00000000E+00
  0.00000000E+00  0.00000000E+00  0.00000000E+00
  0.00000000E+00  0.00000000E+00  0.00000000E+00
  0.00000000E+00  0.00000000E+00  0.00000000E+00
  0.00000000E+00  0.00000000E+00  0.00000000E+00
  0.00000000E+00  0.00000000E+00  0.00000000E+00
  0.00000000E+00  0.00000000E+00  0.00000000E+00
  0.00000000E+00  0.00000000E+00  0.00000000E+00
  0.00000000E+00  0.00000000E+00  0.00000000E+00
  0.00000000E+00  0.00000000E+00  0.00000000E+00
  0.00000000E+00  0.00000000E+00  0.00000000E+00
  0.00000000E+00  0.00000000E+00  0.00000000E+00
  0.00000000E+00  0.00000000E+00  0.00000000E+00
  0.00000000E+00  0.00000000E+00  0.00000000E+00
  0.00000000E+00  0.00000000E+00  0.00000000E+00
  0.00000000E+00  0.00000000E+00  0.00000000E+00
  0.00000000E+00  0.00000000E+00  0.00000000E+00
  0.00000000E+00  0.00000000E+00  0.00000000E+00
  0.00000000E+00  0.00000000E+00  0.00000000E+00
  0.00000000E+00  0.00000000E+00  0.00000000E+00
  0.00000000E+00  0.00000000E+00  0.00000000E+00
  0.00000000E+00  0.00000000E+00  0.00000000E+00
  0.00000000E+00  0.00000000E+00  0.00000000E+00
  0.00000000E+00  0.00000000E+00  0.00000000E+00
  0.00000000E+00  0.00000000E+00  0.00000000E+00
  0.00000000E+00  0.00000000E+00  0.00000000E+00
  0.00000000E+00  0.00000000E+00  0.00000000E+00
  0.00000000E+00  0.00000000E+00  0.00000000E+00
  0.00000000E+00  0.00000000E+00  0.00000000E+00
  0.00000000E+00  0.00000000E+00  0.00000000E+00
  0.00000000E+00  0.00000000E+00  0.00000000E+00
  0.00000000E+00  0.00000000E+00  0.00000000E+00
  0.00000000E+00  0.00000000E+00  0.00000000E+00
  0.00000000E+00  0.00000000E+00  0.00000000E+00
  0.00000000E+00  0.00000000E+00  0.00000000E+00
  0.00000000E+00  0.00000000E+00  0.00000000E+00
  0.00000000E+00  0.00000000E+00  0.00000000E+00
  0.00000000E+00  0.00000000E+00  0.00000000E+00
  0.00000000E+00  0.00000000E+00  0.00000000E+00
  0.00000000E+00  0.00000000E+00  0.00000000E+00
  0.00000000E+00  0.00000000E+00  0.00000000E+00
  0.00000000E+00  0.00000000E+00  0.00000000E+00
  0.00000000E+00  0.00000000E+00  0.00000000E+00
  0.00000000E+00  0.00000000E+00  0.00000000E+00
  0.00000000E+00  0.00000000E+00  0.00000000E+00
  0.00000000E+00  0.00000000E+00  0.00000000E+00
  0.00000000E+00  0.00000000E+00  0.00000000E+00
  0.00000000E+00  0.00000000E+00  0.00000000E+00
  0.00000000E+00  0.00000000E+00  0.00000000E+00
  0.00000000E+00  0.00000000E+00  0.00000000E+00
  0.00000000E+00  0.00000000E+00  0.00000000E+00
  0.00000000E+00  0.00000000E+00  0.00000000E+00
  0.00000000E+00  0.00000000E+00  0.00000000E+00
  0.00000000E+00  0.00000000E+00  0.00000000E+00
  0.00000000E+00  0.00000000E+00  0.00000000E+00
  0.00000000E+00  0.00000000E+00  0.00000000E+00
  0.00000000E+00  0.00000000E+00  0.00000000E+00
  0.00000000E+00  0.00000000E+00  0.00000000E+00
  0.00000000E+00  0.00000000E+00  0.00000000E+00
  0.00000000E+00  0.00000000E+00  0.00000000E+00
  0.00000000E+00  0.00000000E+00  0.00000000E+00
  0.00000000E+00  0.00000000E+00  0.00000000E+00
  0.00000000E+00  0.00000000E+00  0.00000000E+00
  0.00000000E+00  0.00000000E+00  0.00000000E+00
  0.00000000E+00  0.00000000E+00  0.00000000E+00
  0.00000000E+00  0.00000000E+00  0.00000000E+00
  0.00000000E+00  0.00000000E+00  0.00000000E+00
  0.00000000E+00  0.00000000E+00  0.00000000E+00
  0.00000000E+00  0.00000000E+00  0.00000000E+00
  0.00000000E+00  0.00000000E+00  0.00000000E+00
  0.00000000E+00  0.00000000E+00  0.00000000E+00
  0.00000000E+00  0.00000000E+00  0.00000000E+00
  0.00000000E+00  0.00000000E+00  0.00000000E+00
  0.00000000E+00  0.00000000E+00  0.00000000E+00
  0.00000000E+00  0.00000000E+00  0.00000000E+00
  0.00000000E+00  0.00000000E+00  0.00000000E+00
  0.00000000E+00  0.00000000E+00  0.00000000E+00
  0.00000000E+00  0.00000000E+00  0.00000000E+00
  0.00000000E+00  0.00000000E+00  0.00000000E+00
  0.00000000E+00  0.00000000E+00  0.00000000E+00
  0.00000000E+00  0.00000000E+00  0.00000000E+00
  0.00000000E+00  0.00000000E+00  0.00000000E+00
  0.00000000E+00  0.00000000E+00  0.00000000E+00
  0.00000000E+00  0.00000000E+00  0.00000000E+00
  0.00000000E+00  0.00000000E+00  0.00000000E+00
  0.00000000E+00  0.00000000E+00  0.00000000E+00
  0.00000000E+00  0.00000000E+00  0.00000000E+00
  0.00000000E+00  0.00000000E+00  0.00000000E+00
  0.00000000E+00  0.00000000E+00  0.00000000E+00
  0.00000000E+00  0.00000000E+00  0.00000000E+00
  0.00000000E+00  0.00000000E+00  0.00000000E+00
  0.00000000E+00  0.00000000E+00  0.00000000E+00
  0.00000000E+00  0.00000000E+00  0.00000000E+00
  0.00000000E+00  0.00000000E+00  0.00000000E+00
  0.00000000E+00  0.00000000E+00  0.00000000E+00
  0.00000000E+00  0.00000000E+00  0.00000000E+00
  0.00000000E+00  0.00000000E+00  0.00000000E+00
  0.00000000E+00  0.00000000E+00  0.00000000E+00
  0.00000000E+00  0.00000000E+00  0.00000000E+00
  0.00000000E+00  0.00000000E+00  0.00000000E+00
  0.00000000E+00  0.00000000E+00  0.00000000E+00
  0.00000000E+00  0.00000000E+00  0.00000000E+00
  0.00000000E+00  0.00000000E+00  0.00000000E+00
  0.00000000E+00  0.00000000E+00  0.00000000E+00
  0.00000000E+00  0.00000000E+00  0.00000000E+00
  0.00000000E+00  0.00000000E+00  0.00000000E+00
  0.00000000E+00  0.00000000E+00  0.00000000E+00
  0.00000000E+00  0.00000000E+00  0.00000000E+00
  0.00000000E+00  0.00000000E+00  0.00000000E+00
  0.00000000E+00  0.00000000E+00  0.00000000E+00
  0.00000000E+00  0.00000000E+00  0.00000000E+00
  0.00000000E+00  0.00000000E+00  0.00000000E+00
  0.00000000E+00  0.00000000E+00  0.00000000E+00
  0.00000000E+00  0.00000000E+00  0.00000000E+00
  0.00000000E+00  0.00000000E+00  0.00000000E+00
  0.00000000E+00  0.00000000E+00  0.00000000E+00
  0.00000000E+00  0.00000000E+00  0.00000000E+00
  0.00000000E+00  0.00000000E+00  0.00000000E+00
  0.00000000E+00  0.00000000E+00  0.00000000E+00
  0.00000000E+00  0.00000000E+00  0.00000000E+00
  0.00000000E+00  0.00000000E+00  0.00000000E+00
  0.00000000E+00  0.00000000E+00  0.00000000E+00
  0.00000000E+00  0.00000000E+00  0.00000000E+00
  0.00000000E+00  0.00000000E+00  0.00000000E+00
  0.00000000E+00  0.00000000E+00  0.00000000E+00
  0.00000000E+00  0.00000000E+00  0.00000000E+00
  0.00000000E+00  0.00000000E+00  0.00000000E+00
  0.00000000E+00  0.00000000E+00  0.00000000E+00
  0.00000000E+00  0.00000000E+00  0.00000000E+00
  0.00000000E+00  0.00000000E+00  0.00000000E+00
  0.00000000E+00  0.00000000E+00  0.00000000E+00
  0.00000000E+00  0.00000000E+00  0.00000000E+00
  0.00000000E+00  0.00000000E+00  0.00000000E+00
  0.00000000E+00  0.00000000E+00  0.00000000E+00
  0.00000000E+00  0.00000000E+00  0.00000000E+00
  0.00000000E+00  0.00000000E+00  0.00000000E+00
  0.00000000E+00  0.00000000E+00  0.00000000E+00
  0.00000000E+00  0.00000000E+00  0.00000000E+00
  0.00000000E+00  0.00000000E+00  0.00000000E+00
  0.00000000E+00  0.00000000E+00  0.00000000E+00
  0.00000000E+00  0.00000000E+00  0.00000000E+00
  0.00000000E+00  0.00000000E+00  0.00000000E+00
  0.00000000E+00  0.00000000E+00  0.00000000E+00
  0.00000000E+00  0.00000000E+00  0.00000000E+00
  0.00000000E+00  0.00000000E+00  0.00000000E+00
  0.00000000E+00  0.00000000E+00  0.00000000E+00
  0.00000000E+00  0.00000000E+00  0.00000000E+00
  0.00000000E+00  0.00000000E+00  0.00000000E+00
  0.00000000E+00  0.00000000E+00  0.00000000E+00
  0.00000000E+00  0.00000000E+00  0.00000000E+00
  0.00000000E+00  0.00000000E+00  0.00000000E+00
  0.00000000E+00  0.00000000E+00  0.00000000E+00
  0.00000000E+00  0.00000000E+00  0.00000000E+00
  0.00000000E+00  0.00000000E+00  0.00000000E+00
  0.00000000E+00  0.00000000E+00  0.00000000E+00
  0.00000000E+00  0.00000000E+00  0.00000000E+00
  0.00000000E+00  0.00000000E+00  0.00000000E+00
  0.00000000E+00  0.00000000E+00  0.00000000E+00
  0.00000000E+00  0.00000000E+00  0.00000000E+00
  0.00000000E+00  0.00000000E+00  0.00000000E+00
  0.00000000E+00  0.00000000E+00  0.00000000E+00
  0.00000000E+00  0.00000000E+00  0.00000000E+00
  0.00000000E+00  0.00000000E+00  0.00000000E+00
  0.00000000E+00  0.00000000E+00  0.00000000E+00
  0.00000000E+00  0.00000000E+00  0.00000000E+00
  0.00000000E+00  0.00000000E+00  0.00000000E+00
  0.00000000E+00  0.00000000E+00  0.00000000E+00
  0.00000000E+00  0.00000000E+00  0.00000000E+00
  0.00000000E+00  0.00000000E+00  0.00000000E+00
  0.00000000E+00  0.00000000E+00  0.00000000E+00
  0.00000000E+00  0.00000000E+00  0.00000000E+00
  0.00000000E+00  0.00000000E+00  0.00000000E+00
  0.00000000E+00  0.00000000E+00  0.00000000E+00
  0.00000000E+00  0.00000000E+00  0.00000000E+00
  0.00000000E+00  0.00000000E+00  0.00000000E+00
  0.00000000E+00  0.00000000E+00  0.00000000E+00
  0.00000000E+00  0.00000000E+00  0.00000000E+00
  0.00000000E+00  0.00000000E+00  0.00000000E+00
  0.00000000E+00  0.00000000E+00  0.00000000E+00
  0.00000000E+00  0.00000000E+00  0.00000000E+00
  0.00000000E+00  0.00000000E+00  0.00000000E+00
  0.00000000E+00  0.00000000E+00  0.00000000E+00
  0.00000000E+00  0.00000000E+00  0.00000000E+00
  0.00000000E+00  0.00000000E+00  0.00000000E+00
  0.00000000E+00  0.00000000E+00  0.00000000E+00
  0.00000000E+00  0.00000000E+00  0.00000000E+00
  0.00000000E+00  0.00000000E+00  0.00000000E+00
  0.00000000E+00  0.00000000E+00  0.00000000E+00
  0.00000000E+00  0.00000000E+00  0.00000000E+00
  0.00000000E+00  0.00000000E+00  0.00000000E+00
  0.00000000E+00  0.00000000E+00  0.00000000E+00
  0.00000000E+00  0.00000000E+00  0.00000000E+00
  0.00000000E+00  0.00000000E+00  0.00000000E+00
  0.00000000E+00  0.00000000E+00  0.00000000E+00
  0.00000000E+00  0.00000000E+00  0.00000000E+00
  0.00000000E+00  0.00000000E+00  0.00000000E+00
  0.00000000E+00  0.00000000E+00  0.00000000E+00
  0.00000000E+00  0.00000000E+00  0.00000000E+00
  0.00000000E+00  0.00000000E+00  0.00000000E+00
  0.00000000E+00  0.00000000E+00  0.00000000E+00
  0.00000000E+00  0.00000000E+00  0.00000000E+00
  0.00000000E+00  0.00000000E+00  0.00000000E+00
  0.00000000E+00  0.00000000E+00  0.00000000E+00
  0.00000000E+00  0.00000000E+00  0.00000000E+00
  0.00000000E+00  0.00000000E+00  0.00000000E+00
  0.00000000E+00  0.00000000E+00  0.00000000E+00
  0.00000000E+00  0.00000000E+00  0.00000000E+00
  0.00000000E+00  0.00000000E+00  0.00000000E+00
  0.00000000E+00  0.00000000E+00  0.00000000E+00
  0.00000000E+00  0.00000000E+00  0.00000000E+00
  0.00000000E+00  0.00000000E+00  0.00000000E+00
  0.00000000E+00  0.00000000E+00  0.00000000E+00
  0.00000000E+00  0.00000000E+00  0.00000000E+00
  0.00000000E+00  0.00000000E+00  0.00000000E+00
  0.00000000E+00  0.00000000E+00  0.00000000E+00
  0.00000000E+00  0.00000000E+00  0.00000000E+00
  0.00000000E+00  0.00000000E+00  0.00000000E+00
  0.00000000E+00  0.00000000E+00  0.00000000E+00
  0.00000000E+00  0.00000000E+00  0.00000000E+00
  0.00000000E+00  0.00000000E+00  0.00000000E+00
  0.00000000E+00  0.00000000E+00  0.00000000E+00
  0.00000000E+00  0.00000000E+00  0.00000000E+00
  0.00000000E+00  0.00000000E+00  0.00000000E+00
  0.00000000E+00  0.00000000E+00  0.00000000E+00