Sb                                      
   1.00000000000000     
    18.2273007964999998    0.0000000000000000    0.0000000000000000
     0.0000000000000000   18.2273007964999998    0.0000000000000000
     0.0000000000000000    0.0000000000000000   18.2273007964999998
   Sb   Se
    66   132
Direct
  0.9623093933135641  0.7222404389108986  0.9686275652157077
  0.3158324602552377  0.8770633960891504  0.4459703201599468
  0.1865532349285587  0.0424870184619696  0.1931257162553859
  0.1147495027029709  0.2097832894727230  0.1041978809028217
  0.1677173123670186  0.3940481118864238  0.2154649618133962
  0.1499577072383367  0.1748946461891932  0.5530248562026371
  0.0245721593864846  0.7665016095391045  0.5195011678858841
  0.6194834943134760  0.5490839116701169  0.9180246338506221
  0.1804576284559631  0.8745195001772880  0.9100992322060806
  0.4531709492586631  0.1421735321670914  0.0241008874116007
  0.6873178650279217  0.1781993747734432  0.1341631458981257
  0.0304094253114630  0.1434164958010682  0.7402268813118538
  0.1456582927503370  0.6057986066360193  0.1695803826397334
  0.0079230339338791  0.4374352540068360  0.5146043170645632
  0.7297687341376977  0.3467706793267062  0.3179095696065571
  0.5929221858814844  0.8633910768447892  0.9429915930442903
  0.1869395078600673  0.5359335091540298  0.3462952507292479
  0.1636621196589811  0.8697926251325232  0.3231000885202581
  0.9883194514934820  0.0046827234549129  0.3143458581985955
  0.9721392173130905  0.8921055156023012  0.8435952991753103
  0.1690897200141565  0.8679955969166312  0.7001606314255516
  0.8730793893490394  0.8308741528156763  0.2638634996400641
  0.4558625281389093  0.8528243005508533  0.3130779411665197
  0.8865794533941675  0.3582509902219187  0.3236408633752879
  0.8454895866469883  0.5551661970665791  0.6759931931684849
  0.2358573826049240  0.5173221618480990  0.0001107354393732
  0.8745382617352656  0.4669577230365632  0.2140961877073751
  0.0530624943912766  0.0820464748631583  0.9497225452124557
  0.7848174266781117  0.6122563894150751  0.3080088511387774
  0.3805675589574764  0.5065728388398892  0.1727233833076053
  0.5422854416294505  0.0996762906006586  0.7786257833770395
  0.3041830702074523  0.3582439274107287  0.0967994962549422
  0.7738287228453163  0.6522374046132844  0.8360515893852382
  0.6786866837799825  0.8099279448792529  0.3192960480196407
  0.0769931736472362  0.5602338970367210  0.8267908255836948
  0.2284879744220997  0.4000457769034676  0.5200380764012251
  0.5489731883949548  0.4164914751790165  0.1985304708537408
  0.7310679948519209  0.0314545722233489  0.2955905121924224
  0.7860524318220251  0.4065005710920486  0.5064765591754523
  0.5415825032444200  0.8895858591648501  0.7412752877044121
  0.2417244200571063  0.1060902876044028  0.9922991511947233
  0.2958391997656886  0.5952749669884297  0.7881208992933252
  0.3082541293841961  0.9232431636839064  0.0622684417900052
  0.5530795325290796  0.8766204040518927  0.1376076292299283
  0.2730851291338668  0.0765648264916960  0.5796523649672991
  0.9328784956995668  0.9493803005227925  0.5190516837484793
  0.7768466141301984  0.6951832515560996  0.5057049598272674
  0.7759678054368668  0.0630027993144547  0.6505160091238181
  0.4728729010453047  0.4899860743792543  0.3863424905432384
  0.6328996271586440  0.6714142558678072  0.0886145938486640
  0.0134943141230074  0.5007918989078730  0.0821232090173499
  0.6481177309752538  0.2543400936899097  0.5885633093658874
  0.0300994979831328  0.7332349202797854  0.2739486145619539
  0.4396806770618426  0.3860297601197121  0.5885833532993437
  0.7886377236808897  0.1777085282630498  0.8295549521712987
  0.3460338381865434  0.6252658054344028  0.5394618520772810
  0.9191878291366639  0.2220304647857983  0.5310777218726731
  0.0142302580811471  0.2324255517437518  0.3331505494253021
  0.9074868715303417  0.4575398402669813  0.8667455776992252
  0.9246576696568398  0.9391201640982217  0.9992148625736089
  0.5595177132625176  0.2701676269914172  0.3666843041185420
  0.6160466916294776  0.9800563527984173  0.4691469025143570
  0.7079619162260399  0.2856300119585297  0.9815250355934385
  0.8663924641689091  0.1588624589311614  0.1229499723662542
  0.3199383147011448  0.6788719786875081  0.2815220295269049
  0.5292209725147806  0.6782313690085434  0.8211782480234598
  0.2631753243432832  0.9744333664672608  0.6805714289882713
  0.3710548996676226  0.4008257721527805  0.4660860912236743
  0.4708662128222253  0.1476492909597594  0.3961454676528755
  0.2838561774195092  0.6354115020526435  0.9305506228069865
  0.9631874228867003  0.6010394907285648  0.5809179455664775
  0.7701002225734376  0.0659791680677615  0.1036798641987047
  0.2694833200092157  0.7952681647734329  0.0102568965805526
  0.5891560545283624  0.9897302371759713  0.0418348770918421
  0.6584664618132716  0.1530051744567684  0.9502351265861623
  0.3672967469286405  0.1969903108609641  0.4685887376398440
  0.6756324537307309  0.6641109500793989  0.3989344063414689
  0.9961463545411053  0.0411893014383996  0.0775306464841417
  0.5121281038597391  0.6551558641700473  0.6789864461095986
  0.8806256919170637  0.6727922495398960  0.4030126937015236
  0.2960322767085897  0.4574667081241024  0.2785213264395692
  0.7480990639635565  0.3147430160683102  0.8452433301065126
  0.3545675742440982  0.7471164498482067  0.6224100876846510
  0.2413168774950230  0.2569261408680315  0.2364098948479140
  0.9035288671514391  0.3937817778981783  0.6004329328850632
  0.7384951039653180  0.4142562887282792  0.1852050229146716
  0.7293417775134143  0.3796342526529815  0.6395482702034214
  0.8908328187105682  0.7819559760958430  0.1333128557959838
  0.1339552920941523  0.6101991331144617  0.6938806987173235
  0.2034439841883426  0.5418397482591558  0.4875838299067215
  0.3886203660353496  0.5402719544793936  0.6547210753880143
  0.2488236311224678  0.8106124823740846  0.8032764945413324
  0.4704061268611027  0.9942380914391223  0.9812551729280135
  0.4564534954613930  0.3559774942244969  0.3016678270082120
  0.5770641209135733  0.1048109885878901  0.1930248001671402
  0.6924900622600132  0.9171950033371139  0.2170460262666355
  0.5975490080116297  0.3427164164186343  0.6868350281433456
  0.1375352505271533  0.9638362369721143  0.4354055313198611
  0.7050156990854766  0.4804085102852287  0.3827654992473868
  0.0920249250347678  0.6143059062216245  0.0229959597549510
  0.9048436252421596  0.3897132137889750  0.0897114844296611
  0.0640507671568071  0.7777129720868640  0.8693056819001426
  0.5124451279046502  0.6741666755144883  0.0160182450600125
  0.8397022023441921  0.2365264523480012  0.9970367817219873
  0.9028144078918416  0.5843218003952999  0.0544947056877703
  0.3551712668990056  0.4313561834891158  0.9862267493032065
  0.8246878251455985  0.4809176996323861  0.0262987055020149
  0.1877971783394560  0.1656026037726855  0.7109330067132318
  0.4066103709490158  0.2355003139320050  0.5893161332610931
  0.4298228622269004  0.8761372409093818  0.8343641976951884
  0.7255419265135404  0.6113336729627850  0.0004023008452391
  0.1673890595126463  0.9624431793926836  0.0801784074890473
  0.4036216744247765  0.2613825777810148  0.1329912458086893
  0.0313937060444319  0.6795046396828793  0.6603356989966682
  0.6286959587913451  0.8365214752302644  0.4844705134272226
  0.4496231818597399  0.9579982752831190  0.2118395231712725
  0.8846844690070532  0.9013851551938826  0.6862193803796114
  0.2072827290090497  0.4914869379177819  0.8271593633357213
  0.4295051213399842  0.9255090094844974  0.5061080547801635
  0.9254433685428881  0.0531491782767485  0.8777725274659637
  0.0982437088486202  0.9624210581439209  0.7879731530225099
  0.3010836937815610  0.4076934484886119  0.6501947051106036
  0.1130472092301346  0.4324033209783995  0.6196355798468477
  0.9772624751201462  0.8631656472280997  0.4108232544875838
  0.5494192106983562  0.5394325246741742  0.0713782376405754
  0.3566536064257104  0.1775222755250513  0.9347000108440885
  0.3978054435053290  0.7439113029965545  0.8362426633866668
  0.4757517335461320  0.6235028506062826  0.4778291140570007
  0.5066830681568746  0.3259960268822012  0.0825717386599113
  0.2557642057100123  0.0234765143287438  0.4427880897998966
  0.7609000956277893  0.7336496108330601  0.2092216351714993
  0.8906792480941050  0.4723118160269235  0.4026304307174692
  0.0083381368888484  0.4523030168227734  0.7587817422756572
  0.0496812466411887  0.3147135032081411  0.1753228959866968
  0.6019630068003400  0.0970114531577416  0.3215738230820723
  0.0329964282738676  0.2984703590337417  0.4747742956586035
  0.9286986668034651  0.1403607838690741  0.4095014933248194
  0.5164421936026780  0.1677416470676134  0.5927201367206516
  0.3020770008954912  0.3013387226360535  0.7648611786604049
  0.6261624242919626  0.4419097356252049  0.0186627724327382
  0.4573572165272150  0.0043891817008276  0.6801706484916604
  0.0719915465839358  0.6540611240527150  0.3858522060277458
  0.6112494428934369  0.5222911662660539  0.3030579425895394
  0.3172427905776278  0.0932645076798773  0.1108081345826458
  0.8794441013503903  0.1840147356345616  0.7089514422160280
  0.8769961688213127  0.9751260995845454  0.2244780856453206
  0.0702192349238087  0.9306935449199322  0.2270119052640570
  0.7704010856774389  0.9530402669017144  0.7375176539562813
  0.7496035662378825  0.9666152113501554  0.4224308778457045
  0.3636028885812151  0.7965752032849857  0.2143092874262016
  0.8407194036195080  0.8502589943180670  0.5702986685961446
  0.5454336081775166  0.5176130641102472  0.5036432557954185
  0.0369004240928806  0.1013228389309646  0.5864286192143751
  0.5722710332942241  0.3403394950224348  0.4931168410990726
  0.0019662487409325  0.1240310083585557  0.2298768331489958
  0.0018559613905757  0.8278699865947490  0.0701592906555257
  0.0280568686869438  0.2223855185997418  0.9865899249417690
  0.6263177235336346  0.9763916359184530  0.8207700867205502
  0.5114820283505588  0.4711295473915926  0.8089965707813472
  0.2080191056454394  0.2741334585933229  0.0123119117745462
  0.4459289021102031  0.5985163487770414  0.2555326564838424
  0.2015840316036824  0.3220717652520088  0.8347110138337975
  0.7757127624558814  0.2163820691594734  0.2413994191647519
  0.4775960887878354  0.2794986980463407  0.7442652662049333
  0.4166545480546451  0.0386463369100467  0.8091974039632315
  0.6166456530165033  0.7222217147546314  0.6289171730184980
  0.1513864933680976  0.1903480048135176  0.8408992094933354
  0.0007396821151231  0.2771608541054263  0.6895410932933165
  0.2687287433926270  0.9489298941786735  0.2567636526991189
  0.6285518384519707  0.7789159586092691  0.8258970265296397
  0.6765877016224138  0.8069585382004136  0.0397489490008537
  0.6918160235989609  0.1564433962163738  0.7214401988608692
  0.2926105181343407  0.9803135913203648  0.9195454442236942
  0.4729849401355453  0.8093396269980072  0.0213741264867922
  0.1537461848125755  0.7440544583057576  0.2040580918260685
  0.2582593445296331  0.8101953406691054  0.5627157858766796
  0.5115736810254879  0.3474226751275788  0.8558364272560915
  0.5406165465974154  0.1929198210444187  0.9165357918238999
  0.7188073196737864  0.5138009020743051  0.8085042728292208
  0.9112630737878396  0.6024789909399176  0.8546277366209687
  0.1069505094490061  0.4210599813396429  0.3359130119537221
  0.1329328594439456  0.3069828081602506  0.6620425959786179
  0.7593807914101690  0.5636569804714443  0.5598433755671444
  0.6368386272787084  0.0312986285021481  0.6069085103047860
  0.9940613545342579  0.6000144649003148  0.2317388858163817
  0.1298220579666003  0.1470445079419297  0.3736937601604371
  0.2238588925582205  0.2283809548071311  0.3582809557390170
  0.2862663279050212  0.6093751578559712  0.1100547552478328
  0.0375331759575023  0.8858210205083559  0.6052501344609986
  0.3762192731878665  0.7317890657139436  0.4040814203853860
  0.5577277989167548  0.7554393561762448  0.2586384363188611
  0.0343799301713001  0.4433886598242062  0.9433367750396192
  0.7883914693240390  0.2662214653255720  0.4667291086203834
  0.5302342516870203  0.8001510977741743  0.5606183888186131
  0.8506674679606940  0.8000545984309193  0.9240768123380073
  0.4154914194721132  0.5436592270659080  0.8621420545305695
  0.8069774072785709  0.6939288179744301  0.7015992994489766
  0.1592538737870239  0.7225432237442780  0.4717727464288919
 
  0.73694728E-03  0.11710884E-02  0.15055226E-03
 -0.11538837E-03  0.15888322E-02  0.12486237E-02
  0.83910782E-03 -0.11812720E-02  0.87140134E-03
 -0.75748135E-03  0.47408874E-03 -0.25979150E-02
 -0.18323710E-02  0.17059534E-02  0.78948027E-03
  0.27821744E-03  0.14474501E-02 -0.18144854E-02
 -0.31475094E-03  0.10974364E-02  0.14473569E-02
 -0.93387789E-03  0.15981416E-02 -0.14436846E-02
 -0.12398975E-02 -0.24200807E-02 -0.15835711E-02
  0.30322038E-02 -0.14532154E-03 -0.58423564E-03
  0.22632926E-02 -0.14558586E-02  0.18359546E-03
 -0.10942057E-02  0.12481902E-02 -0.25631311E-02
  0.78254323E-03 -0.20501046E-04 -0.12398738E-02
 -0.27907169E-03 -0.24008012E-02  0.44263618E-03
 -0.50617459E-03 -0.31112090E-02 -0.96769190E-03
  0.11420453E-02  0.33532305E-03  0.12446268E-02
 -0.11953972E-02 -0.65885727E-03  0.24779543E-03
  0.35596981E-02 -0.12015796E-02  0.28981410E-02
  0.14524418E-02 -0.57043835E-04  0.15342269E-02
  0.24055457E-02  0.31332261E-02 -0.35217439E-02
 -0.10680910E-02  0.33143389E-03  0.20928343E-03
 -0.13728773E-02 -0.78315003E-03 -0.26231536E-03
 -0.17013163E-02  0.76426821E-04  0.42826585E-03
  0.12310829E-03 -0.24991268E-03  0.54676215E-03
  0.18243180E-02  0.34376392E-03 -0.18816752E-02
 -0.82413490E-03 -0.92148777E-03  0.64928286E-03
  0.26681562E-03  0.33698672E-03  0.57115171E-03
  0.15020655E-02  0.52919786E-03  0.12678377E-02
  0.35378998E-03 -0.73491131E-03 -0.15226509E-03
  0.21963629E-02  0.60356446E-03  0.18528741E-02
 -0.20636708E-03 -0.29492997E-02 -0.67314871E-03
 -0.18895116E-02 -0.36431875E-04 -0.12433253E-02
  0.27302143E-02  0.42773658E-03 -0.10906189E-02
 -0.85406752E-03 -0.99313723E-03  0.16794340E-02
  0.21671700E-02  0.10584342E-02 -0.23760536E-02
 -0.57425081E-03  0.13492995E-02  0.24361923E-02
 -0.13214787E-02  0.15918732E-03  0.10073006E-02
  0.90287959E-03  0.10627514E-02  0.54579009E-03
  0.18804533E-02  0.10841242E-03 -0.44259201E-03
  0.84672365E-03  0.16385918E-02 -0.41088171E-04
  0.10831800E-02  0.72114886E-03 -0.63328605E-03
 -0.93131255E-03 -0.38873674E-02 -0.24323653E-04
  0.73371958E-03  0.58117968E-03  0.50067210E-03
  0.10825218E-02 -0.35875542E-03  0.86239999E-04
  0.29586138E-02 -0.30956827E-03  0.92978779E-03
 -0.45693587E-03  0.24261672E-03 -0.82074578E-03
 -0.21688425E-02  0.90202718E-03  0.78673692E-03
  0.34407379E-04 -0.29409193E-03 -0.21632342E-02
  0.37497260E-03 -0.51679366E-03 -0.83749293E-03
  0.72374503E-04  0.16853677E-03 -0.28242564E-02
  0.37352597E-02 -0.88523252E-03 -0.75046869E-03
 -0.79012327E-03 -0.77341661E-03 -0.72421516E-03
  0.12997310E-03 -0.29645208E-03  0.39321915E-02
  0.15138558E-02 -0.51952214E-04  0.28244230E-02
  0.39424553E-03  0.15569097E-02  0.57960219E-03
 -0.16088776E-02 -0.11493773E-02 -0.10195742E-02
  0.38368335E-03 -0.17771346E-02 -0.14942659E-02
  0.81986577E-03 -0.78945780E-03  0.15643424E-02
  0.59357573E-04 -0.14303613E-02  0.10575057E-02
 -0.10007356E-02  0.26607608E-03  0.12596654E-02
  0.80631631E-04 -0.10387153E-02 -0.53891160E-03
 -0.17199152E-02  0.46299663E-03  0.15885743E-02
 -0.24520347E-02 -0.20440390E-02  0.11406891E-02
  0.11652393E-02  0.49797649E-03 -0.13307870E-02
  0.20284909E-02 -0.74719332E-03 -0.18431180E-02
  0.37548780E-02  0.29515840E-02 -0.21317999E-03
  0.93568357E-03  0.92622968E-03  0.34164176E-02
 -0.11077667E-02  0.28959772E-02  0.51281687E-03
 -0.25606963E-02 -0.99249391E-03  0.31226473E-02
 -0.91752553E-03  0.17303303E-02 -0.68046684E-03
 -0.11022814E-02  0.23263949E-04  0.53471332E-03
 -0.27009286E-02  0.35523329E-02  0.12057598E-03
  0.17912353E-02  0.96493435E-03 -0.40723687E-04
 -0.17404492E-02  0.40972674E-02  0.35969496E-02
 -0.28773193E-03 -0.17743074E-02  0.19325497E-03
  0.24385754E-02  0.13906875E-02 -0.13841190E-02
  0.32894203E-03  0.38389645E-03 -0.12218432E-02
 -0.12984491E-02 -0.16225254E-02  0.99629949E-03
  0.33471946E-02  0.52041386E-02 -0.11134815E-02
 -0.11452653E-02 -0.13766519E-02  0.60080474E-03
  0.20089657E-03  0.19725904E-02  0.98450197E-03
 -0.20020847E-02  0.13688432E-02 -0.23721874E-03
  0.16635840E-02 -0.22928401E-02 -0.15812299E-02
 -0.39234338E-02 -0.17935668E-02 -0.23624732E-02
 -0.20086604E-02  0.13019709E-02  0.40926115E-04
 -0.36934820E-02 -0.26563653E-04 -0.13868298E-02
  0.26951340E-02 -0.21729618E-02  0.22898442E-02
 -0.21942510E-02  0.10901851E-02  0.29285428E-03
 -0.17813360E-02  0.37849794E-02 -0.92284134E-04
  0.27745399E-02 -0.12774470E-02 -0.35303844E-03
  0.10472651E-02  0.15202109E-02  0.15484211E-02
 -0.12691190E-02 -0.24578991E-02 -0.24873330E-02
 -0.22071286E-02 -0.10069840E-02  0.11368663E-02
 -0.78205576E-03 -0.13736149E-02  0.16638993E-02
  0.17977170E-02  0.13885264E-02 -0.10436300E-03
 -0.10990696E-02 -0.12224356E-02 -0.32136989E-02
 -0.27060585E-02  0.14935278E-02  0.43931214E-03
 -0.35290941E-02 -0.16463331E-02  0.10257868E-02
  0.11205623E-02  0.21646145E-02  0.13178520E-03
  0.28130468E-02 -0.73874146E-03  0.10171415E-02
 -0.24768224E-02  0.12225672E-02  0.25848401E-03
 -0.91592455E-03 -0.60546451E-03  0.38837360E-03
 -0.17145571E-02 -0.13809948E-02  0.21388921E-03
 -0.33162626E-02 -0.56758700E-03 -0.17036760E-02
  0.13001807E-02  0.14558458E-02 -0.11304735E-02
  0.10202001E-02  0.86510697E-03 -0.18782482E-02
  0.13954047E-03  0.22581991E-02  0.26983209E-02
 -0.16750787E-02  0.27990937E-03 -0.45718006E-03
  0.11765358E-02 -0.14019650E-02 -0.81635665E-04
  0.88191619E-03  0.20312740E-02 -0.56054149E-03
 -0.35710555E-03 -0.23846854E-02 -0.12015162E-02
 -0.16756381E-02 -0.38788531E-03  0.23827152E-03
  0.86385586E-03  0.36101555E-02 -0.33742337E-02
  0.32186133E-02  0.24563050E-02  0.26131968E-02
  0.66066465E-04  0.37005467E-02  0.30729581E-02
 -0.31195974E-03 -0.13495075E-02 -0.40537173E-04
  0.15099362E-02  0.23189854E-02  0.15274568E-02
  0.16456009E-02  0.18911810E-03 -0.18744431E-03
  0.21913061E-02 -0.13569578E-02  0.35639532E-02
  0.72389975E-03  0.20445245E-02 -0.56800291E-03
  0.89673422E-03  0.17309482E-02  0.97007915E-03
  0.34632037E-03 -0.17954215E-02 -0.27646302E-02
  0.16291865E-02  0.11696745E-02 -0.22309005E-02
 -0.21039983E-02  0.51627350E-03  0.37716426E-03
  0.11608039E-02 -0.92820397E-03 -0.12677197E-02
  0.34065586E-02  0.74204057E-03  0.32030521E-03
  0.11961724E-02 -0.24403533E-03  0.12886438E-02
 -0.16259076E-02 -0.35365966E-03  0.20882951E-03
 -0.16587321E-02 -0.24811876E-02 -0.20291763E-02
 -0.21449272E-02 -0.16269408E-03  0.90811811E-03
  0.24783987E-02 -0.14268011E-02  0.86176917E-03
  0.10868953E-03 -0.37536646E-02  0.25287771E-02
  0.16946178E-02 -0.97254236E-03 -0.19925088E-03
  0.46534782E-03  0.18108024E-02 -0.19180210E-02
 -0.11048600E-02 -0.13093681E-02  0.23649624E-02
 -0.31256081E-03 -0.96873202E-03 -0.28441677E-02
 -0.60562584E-03 -0.17080945E-02  0.22444419E-02
 -0.14602124E-02  0.25163730E-03 -0.50111608E-03
  0.81332743E-03 -0.12797371E-02 -0.99374846E-03
 -0.11640539E-02 -0.10086128E-02 -0.12861481E-02
 -0.12170736E-02  0.22087424E-02  0.27103339E-02
 -0.15147832E-02  0.17206012E-02  0.18946977E-02
 -0.15334312E-02 -0.77587731E-04  0.22517262E-02
  0.54865768E-03  0.61390809E-03 -0.10322839E-02
  0.86815626E-03  0.17638601E-02 -0.38852867E-03
 -0.30137886E-02 -0.33055054E-02 -0.25428869E-02
  0.36677476E-03  0.13003298E-03  0.44972475E-03
  0.25332599E-02 -0.13851540E-02 -0.16997240E-02
  0.13358059E-02  0.28140177E-02 -0.42115246E-03
  0.12677357E-02 -0.99250613E-03 -0.17574074E-02
  0.28824163E-02  0.12144433E-02 -0.69291390E-03
 -0.25815385E-02 -0.51041834E-03  0.22181629E-02
 -0.21222521E-02  0.14362345E-02 -0.14128574E-02
 -0.15081157E-02  0.82725894E-03  0.13460316E-02
 -0.34416094E-04 -0.28898929E-03 -0.11649175E-03
 -0.11469171E-02 -0.26539468E-02 -0.26282280E-02
 -0.27049795E-02  0.54962171E-04 -0.29185512E-03
  0.37219454E-03 -0.10213023E-02 -0.39199268E-03
 -0.31296764E-02 -0.45635220E-03  0.70158244E-03
 -0.24528843E-02 -0.12068118E-03  0.17711709E-02
  0.32445337E-02  0.11992027E-02  0.21119466E-03
 -0.48086627E-03 -0.24845156E-02 -0.30346205E-03
 -0.23129824E-02  0.71141179E-03 -0.28066808E-03
  0.23413883E-02 -0.38457336E-02  0.17538517E-02
 -0.23083857E-02  0.26668444E-02 -0.15059060E-02
 -0.37186980E-02  0.23487196E-02 -0.59762337E-03
  0.13634115E-02 -0.23501626E-03 -0.86923929E-03
 -0.23522362E-02 -0.43478003E-03 -0.90169567E-03
  0.37432237E-02  0.53915062E-03 -0.83368965E-03
 -0.25516776E-02 -0.32064904E-02  0.97052308E-03
 -0.13108090E-02  0.12654589E-02  0.97526393E-03
 -0.19098650E-02  0.54642116E-03 -0.28384733E-02
  0.19603357E-02  0.56027996E-03 -0.30141479E-03
  0.10062812E-02 -0.24017011E-02  0.13457402E-02
 -0.13149346E-02 -0.32297991E-02  0.16605802E-02
  0.12644141E-03  0.14364865E-02  0.35949766E-03
  0.15419023E-02 -0.52463457E-03 -0.22123511E-02
 -0.20500012E-02 -0.52294889E-03  0.97205798E-03
 -0.15128913E-02  0.33667954E-03  0.18588394E-02
 -0.62612457E-03 -0.56586838E-03 -0.18577814E-02
  0.21970324E-02  0.22756392E-02  0.15565276E-05
  0.10028472E-03 -0.24456957E-03 -0.20699971E-02
  0.19018160E-02 -0.36085683E-02  0.87235388E-03
  0.12241959E-02 -0.62868595E-03  0.12722829E-02
 -0.19886389E-02  0.23020891E-02 -0.41389512E-02
 -0.18542108E-02  0.19740243E-03 -0.54844522E-03
 -0.89182973E-03 -0.11301378E-02 -0.75514388E-03
 -0.20191407E-03 -0.21280842E-02 -0.14623803E-03
  0.23546475E-04  0.22586534E-02  0.43836937E-03
 -0.15704294E-02  0.83751892E-03 -0.19657959E-02
  0.13879964E-03  0.16461148E-02  0.15760508E-02
 -0.74660032E-03 -0.16940265E-02  0.23832133E-02
 -0.66343606E-03 -0.28022485E-02  0.36126447E-02
  0.27110832E-02  0.27725147E-02  0.22530774E-02
 -0.15967094E-02  0.19612632E-02 -0.75549518E-03
  0.26037012E-02  0.15331420E-02 -0.20290102E-02
 -0.75718998E-04  0.82051930E-03  0.86358061E-03
 -0.18590388E-02  0.59152911E-03  0.15406996E-02
 
           1
   3.00000000000000     
  0.10000000E+01  0.00000000E+00  0.00000000E+00  0.00000000E+00
  0.96243069E+00  0.72243319E+00  0.96865234E+00
  0.31581347E+00  0.87732490E+00  0.44617583E+00
  0.18669134E+00  0.42292595E-01  0.19326914E+00
  0.11462483E+00  0.20986132E+00  0.10377029E+00
  0.16741573E+00  0.39432889E+00  0.21559490E+00
  0.15000350E+00  0.17513288E+00  0.55272621E+00
  0.24520355E-01  0.76668223E+00  0.51973939E+00
  0.61932979E+00  0.54934695E+00  0.91778702E+00
  0.18025356E+00  0.87412118E+00  0.90983859E+00
  0.45367001E+00  0.14214961E+00  0.24004729E-01
  0.68769038E+00  0.17795976E+00  0.13419336E+00
  0.30229332E-01  0.14362193E+00  0.73980502E+00
  0.14578709E+00  0.60579523E+00  0.16937631E+00
  0.78771020E-02  0.43704011E+00  0.51467717E+00
  0.72968542E+00  0.34625861E+00  0.31775030E+00
  0.59311015E+00  0.86344627E+00  0.94319644E+00
  0.18674276E+00  0.53582507E+00  0.34633603E+00
  0.16424800E+00  0.86959486E+00  0.32357709E+00
  0.98855851E+00  0.46733347E-02  0.31459837E+00
  0.97253514E+00  0.89262121E+00  0.84301566E+00
  0.16891392E+00  0.86805015E+00  0.70019508E+00
  0.87285343E+00  0.83074526E+00  0.26382033E+00
  0.45558251E+00  0.85283688E+00  0.31314843E+00
  0.88659972E+00  0.35820986E+00  0.32373085E+00
  0.84578985E+00  0.55522278E+00  0.67568349E+00
  0.23572174E+00  0.51717050E+00  0.21759979E-03
  0.87458218E+00  0.46701319E+00  0.21419019E+00
  0.53309717E-01  0.82133575E-01  0.94993122E+00
  0.78487566E+00  0.61213543E+00  0.30798379E+00
  0.38092905E+00  0.50667218E+00  0.17302834E+00
  0.54225148E+00  0.99190870E-01  0.77851499E+00
  0.30387208E+00  0.35823793E+00  0.96594859E-01
  0.77427808E+00  0.65230781E+00  0.83587209E+00
  0.67854611E+00  0.80976449E+00  0.31957246E+00
  0.77349864E-01  0.56040810E+00  0.82639976E+00
  0.22839346E+00  0.40026786E+00  0.52043905E+00
  0.54875569E+00  0.41651768E+00  0.19869626E+00
  0.73121660E+00  0.31629489E-01  0.29568034E+00
  0.78636193E+00  0.40651841E+00  0.50640371E+00
  0.54172186E+00  0.88985555E+00  0.74126853E+00
  0.24190270E+00  0.10620898E+00  0.99219492E+00
  0.29568592E+00  0.59463515E+00  0.78811690E+00
  0.30837489E+00  0.92333882E+00  0.62350847E-01
  0.55325770E+00  0.87656136E+00  0.13762182E+00
  0.27357208E+00  0.76513875E-01  0.57980540E+00
  0.93280329E+00  0.94942023E+00  0.51891660E+00
  0.77648965E+00  0.69533171E+00  0.50583445E+00
  0.77597347E+00  0.62954395E-01  0.65015997E+00
  0.47293462E+00  0.48990102E+00  0.38620465E+00
  0.63291154E+00  0.67144200E+00  0.88149754E-01
  0.14109094E-01  0.50064620E+00  0.81999691E-01
  0.64798769E+00  0.25421280E+00  0.58844411E+00
  0.30120890E-01  0.73318613E+00  0.27459581E+00
  0.43992984E+00  0.38602121E+00  0.58904822E+00
  0.78870261E+00  0.17796478E+00  0.82965035E+00
  0.34576904E+00  0.62507663E+00  0.53929404E+00
  0.91925098E+00  0.22173797E+00  0.53083178E+00
  0.14365198E-01  0.23229562E+00  0.33340802E+00
  0.90749664E+00  0.45730442E+00  0.86691963E+00
  0.92449296E+00  0.93916396E+00  0.99942219E+00
  0.55953098E+00  0.26999667E+00  0.36659561E+00
  0.61576361E+00  0.98013256E+00  0.46940836E+00
  0.70755834E+00  0.28529359E+00  0.98171278E+00
  0.86658425E+00  0.15894442E+00  0.12273094E+00
  0.32027218E+00  0.67874900E+00  0.28121867E+00
  0.52983898E+00  0.67871717E+00  0.82114316E+00
  0.26332933E+00  0.97458581E+00  0.68113373E+00
  0.37087257E+00  0.40130242E+00  0.46617049E+00
  0.47044475E+00  0.14748594E+00  0.39665942E+00
  0.28370516E+00  0.63569629E+00  0.93043863E+00
  0.96300600E+00  0.60104332E+00  0.58100595E+00
  0.76965568E+00  0.66563840E-01  0.10369971E+00
  0.26977814E+00  0.79542698E+00  0.10250194E-01
  0.58886960E+00  0.99040460E+00  0.42426893E-01
  0.65841910E+00  0.15271314E+00  0.95026693E+00
  0.36769811E+00  0.19721920E+00  0.46836093E+00
  0.67568659E+00  0.66417413E+00  0.39873331E+00
  0.99593265E+00  0.40922253E-01  0.77694626E-01
  0.51267901E+00  0.65601240E+00  0.67880318E+00
  0.88043719E+00  0.67256567E+00  0.40311158E+00
  0.29606534E+00  0.45779137E+00  0.27868336E+00
  0.74776954E+00  0.31496831E+00  0.84520429E+00
  0.35484138E+00  0.74673908E+00  0.62214984E+00
  0.24067113E+00  0.25663094E+00  0.23602106E+00
  0.90319827E+00  0.39399607E+00  0.60043967E+00
  0.73788720E+00  0.41425192E+00  0.18497677E+00
  0.72978536E+00  0.37927661E+00  0.63992515E+00
  0.89047167E+00  0.78213541E+00  0.13336106E+00
  0.13366211E+00  0.61082210E+00  0.69386551E+00
  0.20390064E+00  0.54162950E+00  0.48752572E+00
  0.38879273E+00  0.54052216E+00  0.65497593E+00
  0.24861475E+00  0.81020794E+00  0.80286711E+00
  0.47004286E+00  0.99407235E+00  0.98144229E+00
  0.45632478E+00  0.35575141E+00  0.30194169E+00
  0.57736000E+00  0.10503952E+00  0.19300762E+00
  0.69230917E+00  0.91699380E+00  0.21651709E+00
  0.59710362E+00  0.34296223E+00  0.68690733E+00
  0.13695440E+00  0.96356527E+00  0.43557436E+00
  0.70520013E+00  0.48076478E+00  0.38278719E+00
  0.92487920E-01  0.61418432E+00  0.23163369E-01
  0.90443597E+00  0.38991443E+00  0.89754028E-01
  0.63900017E-01  0.77761332E+00  0.86936960E+00
  0.51216293E+00  0.67393938E+00  0.16053449E-01
  0.83915638E+00  0.23643303E+00  0.99675638E+00
  0.90302840E+00  0.58456142E+00  0.54308643E-01
  0.35533918E+00  0.43149857E+00  0.98591761E+00
  0.82471079E+00  0.48128937E+00  0.26742817E-01
  0.18752148E+00  0.16564867E+00  0.71085776E+00
  0.40680401E+00  0.23526957E+00  0.58930270E+00
  0.42996802E+00  0.87647156E+00  0.83427194E+00
  0.72548315E+00  0.61094118E+00  0.20454536E-03
  0.16711327E+00  0.96237934E+00  0.80217624E-01
  0.40376385E+00  0.26197677E+00  0.13243589E+00
  0.31923452E-01  0.67990892E+00  0.66076580E+00
  0.62870683E+00  0.83713054E+00  0.48497629E+00
  0.44957184E+00  0.95777616E+00  0.21183285E+00
  0.88493299E+00  0.90176683E+00  0.68647078E+00
  0.20755358E+00  0.49151806E+00  0.82712851E+00
  0.42986578E+00  0.92528567E+00  0.50669464E+00
  0.92556251E+00  0.53485683E-01  0.87767904E+00
  0.98391301E-01  0.96270595E+00  0.78813282E+00
  0.30114069E+00  0.40739794E+00  0.64973968E+00
  0.11331535E+00  0.43259584E+00  0.61926840E+00
  0.97691618E+00  0.86325062E+00  0.41088533E+00
  0.54961027E+00  0.53927975E+00  0.71169586E-01
  0.35721429E+00  0.17764441E+00  0.93475273E+00
  0.39800232E+00  0.74387114E+00  0.83645476E+00
  0.47548413E+00  0.62344464E+00  0.47786348E+00
  0.50641006E+00  0.32558765E+00  0.82237760E-01
  0.25541118E+00  0.23449737E-01  0.44293756E+00
  0.76130801E+00  0.73341478E+00  0.20936347E+00
  0.89069714E+00  0.47169401E+00  0.40304664E+00
  0.86170511E-02  0.45214295E+00  0.75874895E+00
  0.49757837E-01  0.31501154E+00  0.17500721E+00
  0.60178116E+00  0.96795947E-01  0.32196307E+00
  0.32944984E-01  0.29831092E+00  0.47430618E+00
  0.92859899E+00  0.14007965E+00  0.40987090E+00
  0.51620186E+00  0.16778306E+00  0.59263766E+00
  0.30221087E+00  0.30112809E+00  0.76469762E+00
  0.62597083E+00  0.44174373E+00  0.18451088E-01
  0.45715690E+00  0.47527148E-02  0.68061674E+00
  0.71742231E-01  0.65434431E+00  0.38616405E+00
  0.61099706E+00  0.52227840E+00  0.30342855E+00
  0.31733309E+00  0.93365550E-01  0.11063823E+00
  0.87958699E+00  0.18430505E+00  0.70888749E+00
  0.87650013E+00  0.97458205E+00  0.22405956E+00
  0.70279602E-01  0.93071495E+00  0.22708592E+00
  0.77081803E+00  0.95281229E+00  0.73723790E+00
  0.74982342E+00  0.96707837E+00  0.42236156E+00
  0.36381154E+00  0.79641185E+00  0.21402004E+00
  0.84119382E+00  0.85045888E+00  0.57018462E+00
  0.54500872E+00  0.51752906E+00  0.50400834E+00
  0.36551126E-01  0.10155923E+00  0.58619608E+00
  0.57202282E+00  0.34047565E+00  0.49333838E+00
  0.19605843E-02  0.12398344E+00  0.22985766E+00
  0.16671923E-02  0.82743318E+00  0.69726715E-01
  0.27611661E-01  0.22239456E+00  0.98654189E+00
  0.62637898E+00  0.97622354E+00  0.82070557E+00
  0.51096692E+00  0.47105444E+00  0.80911204E+00