Ge Sb Te                                
   1.00000000000000     
    19.1941566467000015    0.0000000000000000    0.0000000000000000
     0.0000000000000000   19.1941566467000015    0.0000000000000000
     0.0000000000000000    0.0000000000000000   19.1941566467000015
   Ge   Sb   Te
    44    44   110
Direct
  0.5149770396647038  0.8323557591297505  0.7833356434551833
  0.8731976130510133  0.9487098076231811  0.6327487219458738
  0.9075169066807062  0.4999280075219361  0.6787495699030306
  0.6604512776290895  0.0205719400019173  0.2427203815565639
  0.9083497099098976  0.3796161154671757  0.2973715856859026
  0.0021334212858522  0.2537727738547243  0.6414013524878311
  0.9956018041417332  0.2759654833957750  0.2782100398898323
  0.1620316313440697  0.2233384699235532  0.3767575193491980
  0.5076697985095971  0.8590794567706183  0.6008276583009912
  0.6073563423104616  0.1142936735047626  0.3319436147893931
  0.0502102008279679  0.1254044235932080  0.6435790739930671
  0.7522769807073300  0.8992289541107675  0.1585934584868797
  0.3579150740034109  0.8423002995091848  0.4532642196758283
  0.3899375769046552  0.6193171424042643  0.5381325558339858
  0.5465787340128880  0.0767236851964423  0.6533243494828157
  0.7214124130628251  0.4800196212563204  0.6117808567386885
  0.2708231913373305  0.1071840499316257  0.2056612021165913
  0.8677855709017471  0.1036484622366214  0.5188592411840717
  0.2367170634494949  0.1174436712141626  0.4197184769997181
  0.1355944128055885  0.4905407728179376  0.9368799693339434
  0.4694909396247481  0.9648998766161869  0.9647272188435627
  0.1822730275083395  0.4357282425974709  0.7485823802387751
  0.6594623519211028  0.4802024660910568  0.0352966651986117
  0.9213297918625439  0.4968749331926746  0.4448648872343311
  0.8131430909553966  0.4709871431379770  0.1571939135039339
  0.7970064299588019  0.6966877084164126  0.4323539223360925
  0.9441394165099709  0.0074673210179481  0.7568186566250211
  0.7532630651916560  0.9951033283222830  0.3869285682378041
  0.4809949731373310  0.1042544026545403  0.1629461174390117
  0.5551387450683108  0.9598532117635129  0.7590976302880118
  0.0548593629963225  0.2859603456329253  0.0905871840708581
  0.1582984047080596  0.5811957763451723  0.1993195290883452
  0.1019153626726989  0.2640938910964889  0.8561050912797703
  0.7805067029141579  0.2732883607230872  0.8170455042115129
  0.5132239209648163  0.2912303567737439  0.2249951458511991
  0.8282971566152404  0.0907864907475509  0.0598965185533456
  0.9892945567073447  0.3203174831318392  0.4626276658571070
  0.3782703432325382  0.7095648369001744  0.1633042519468583
  0.8756082073651276  0.1096172156260476  0.3228443990855013
  0.5435233983639758  0.3013830194026898  0.0267920288447902
  0.8313180117963651  0.7789261896300768  0.0223280934407563
  0.1982466047458112  0.8658275742685233  0.7553038140697186
  0.6742400413441865  0.5932193968152814  0.9139679335862532
  0.6835008487099531  0.2707258885807025  0.9878547087485895
  0.5795107997346560  0.0567974706072885  0.9492771541745524
  0.9098515843761605  0.6263515887909549  0.6071225333694069
  0.3557356091804890  0.1772858457569755  0.4373439392097284
  0.0565976490857462  0.0212996392858940  0.4049139535008001
  0.0223141945762787  0.6328250213822781  0.0438755718050635
  0.5590415035329549  0.6426067648272883  0.9962054823775670
  0.3305689707570161  0.3137526620189277  0.5928029118801950
  0.5249098003969449  0.8394340485695697  0.9379935556888668
  0.4630270092676682  0.5358001173091811  0.1643968445968893
  0.0153286739032189  0.7595080137223480  0.2370256478021665
  0.1102498048863476  0.1235516892004372  0.8852669634595333
  0.0676764550984949  0.4726984434948690  0.5934391693412010
  0.3993223654540934  0.4019214878366624  0.8810361912122761
  0.2471596871817083  0.4540866996564846  0.3180725840126319
  0.3336966770084829  0.9883050190884490  0.0104168098876437
  0.3185948327955035  0.1406373294056883  0.9682511197720057
  0.3677084596725311  0.1656804486204463  0.5851265927173311
  0.8713448492181128  0.1815196892851854  0.9133862004577536
  0.0324308605579501  0.4743188781388899  0.7590541852975033
  0.3545324494618624  0.2696337149662745  0.8168868507341924
  0.0376529605851569  0.7257242384139426  0.6714030844757604
  0.6064378355379693  0.7161896110391318  0.7460201722838737
  0.5640304417514161  0.3318355402394986  0.5923964635489691
  0.0191595971057533  0.7367502907832507  0.8814172850193311
  0.8274860270367655  0.7632618215552698  0.6768290243114866
  0.6241727761003920  0.4905533916650069  0.8343694552333439
  0.2293396592625650  0.8543718504750002  0.2517665273631299
  0.7685287260961249  0.3399281685775814  0.6108960736784883
  0.2027626325020995  0.2908065074959413  0.0725789151995503
  0.4220587009493716  0.3954407012319586  0.3827213546380193
  0.4393653272978348  0.3140318287971043  0.6995509424125348
  0.0044877681537465  0.6118158277112551  0.1909981061824070
  0.3769101801847561  0.6725242463410309  0.3313815209628291
  0.6383904212004113  0.5926555559762861  0.4688903841584083
  0.6648804702389011  0.3550559026621636  0.3558085944119031
  0.6495625172479269  0.7676933379956550  0.9883285082727241
  0.6526615184931874  0.8841973780058713  0.6579267321929648
  0.6625184611598606  0.0213224503538167  0.5807066215040126
  0.5387186052261242  0.8508159610327489  0.1999348539620003
  0.2286823659578441  0.7426652790923329  0.1541734894738329
  0.8449186072392785  0.6306814614077866  0.2118336640217072
  0.7716172336186672  0.0623333674628226  0.8845585055787694
  0.3217514883816818  0.3342023969629321  0.1864379454382237
  0.4343797027954568  0.4059194746644694  0.5367306010054865
  0.5070377902398809  0.1681030920598187  0.5528540237752810
  0.4499857566209860  0.0249480837385513  0.8391217501675234
  0.9401494696192049  0.9800543622137848  0.3253863826787237
  0.4423585845319210  0.9798284339446476  0.6133167404223798
  0.9605149845028674  0.8282917065261446  0.0047792952832784
  0.1955802759676536  0.0365639513738945  0.5270826923919789
  0.2159035118400053  0.3012738592515244  0.7424887723951190
  0.2208412381251457  0.5046865851383573  0.6214278391288065
  0.4016647770357929  0.6650159413073851  0.6770655134461513
  0.6434650867728053  0.6707483406868923  0.5966106326619798
  0.7289836652677738  0.2429613319398975  0.2797474713360745
  0.4843333136174035  0.0440784834957896  0.3124793871850996
  0.0078804591997925  0.3015278672615471  0.9554105427668563
  0.8120026848002330  0.9123042324906413  0.4944678185216277
  0.6788752925655792  0.1830717507657540  0.8658388013998679
  0.8325594798460955  0.6443238983937828  0.0526735575190799
  0.6754511749073207  0.2828341820072163  0.5089986011586207
  0.1414373525054473  0.7325818847083071  0.3064508749040870
  0.7164704149315418  0.0100507286966655  0.0118302911109100
  0.9804328701597431  0.3250079762960840  0.7637353338295556
  0.3216351653944738  0.5072391423879681  0.4385102315864904
  0.1386456072861368  0.2809293681918503  0.2542174160742346
  0.8130850394582251  0.2336353081816166  0.0463628210449730
  0.9141145697034686  0.9678580939391120  0.8872328825523378
  0.1966702622255453  0.9410824984136122  0.8840908733184516
  0.7003516731827666  0.3721133008647833  0.1231865456898909
  0.5011796679873918  0.1642912133386633  0.0264181689375509
  0.1707296946688198  0.5988923167717283  0.0120411618551432
  0.4454071564429470  0.4539575007238006  0.7506834709845244
  0.2220460916425306  0.2771368527954921  0.9246834209027882
  0.9058199378690431  0.6723935247719962  0.3402202574886871
  0.5416287917558298  0.4808098678358509  0.9572639975627755
  0.5126628343766005  0.5066915952648507  0.3378242639057292
  0.9403268783994669  0.1729928340005021  0.2007757591692870
  0.4537734909185857  0.8152702552704920  0.0841662285368471
  0.6803525117283544  0.6855617365137449  0.3601704865490702
  0.7847232932966405  0.5653315018764474  0.5024625093085100
  0.2652828586152765  0.4934972241691629  0.8542854722859234
  0.7893695324219440  0.5352909488222554  0.9645066142531628
  0.2364382555444264  0.6264494837408403  0.7082177397797088
  0.7291904236723009  0.3843697634985143  0.9027671536713624
  0.9163062636568523  0.4217341736636670  0.5683901120397088
  0.3772730260164924  0.8194710831973607  0.3155507181599720
  0.2947719240220591  0.7216141899905595  0.4862677280107549
  0.0537883213719998  0.1451253119965595  0.1002226828425370
  0.4018732414949537  0.6043964700684031  0.0550059423289374
  0.7928321276152956  0.0655064345298366  0.2084075620296387
  0.4014008339063174  0.8088918519553212  0.6902647078930078
  0.6179683678990656  0.9874672973525938  0.4411336657963998
  0.3077216475764940  0.5563869649962566  0.2234240447554266
  0.8564331104461979  0.7906515055409430  0.1680962121770228
  0.2960012046954923  0.8157983139428177  0.0245250132918572
  0.2605424297152538  0.3036258676106214  0.4351154572505360
  0.9064933945843650  0.1434270184663733  0.7364716999328791
  0.6147040629606619  0.5820326204766041  0.1304426237527515
  0.9992285584846872  0.6056965872853948  0.4987726863414989
  0.0692498010351958  0.8704461854000703  0.4366226152536140
  0.7281437644507042  0.8023166747755354  0.5469798984388489
  0.0960421547864845  0.6184502872503689  0.7819330531603913
  0.1864064868400974  0.7897284791619529  0.9352529000642801
  0.6578210827779467  0.7872846204339204  0.1399790875741844
  0.1760213743449456  0.1663518770957313  0.5890138817660343
  0.4993565442469151  0.8133557224734946  0.4644403807515052
  0.5172738044588014  0.2882087005479897  0.8826342042441181
  0.0864354647347589  0.0377446178636359  0.7628176159631762
  0.0601001052688776  0.8356391040385942  0.7783362518231677
  0.5743630699778394  0.9842774034005950  0.1405995086547364
  0.0275668709009082  0.4358700191285776  0.3660814109364271
  0.7746838123296144  0.5308107127996101  0.7308512359141189
  0.4209742553913936  0.0279725976163162  0.4434644104595312
  0.9667233216247472  0.0811307840811237  0.9765128761616613
  0.2176029747245233  0.4395296714316739  0.0499827291123831
  0.9870059565589224  0.0345650292647436  0.5570103357301788
  0.7009192262413653  0.8922527878943075  0.2995924030892364
  0.0960642783585950  0.3294595415541212  0.5646921858404540
  0.1803327720695507  0.7439269279262490  0.6093845556667579
  0.8921794453175461  0.2420933315084386  0.5482410652167828
  0.8390595750017700  0.2883993672190443  0.3869509492082831
  0.1431322091888186  0.0443021543800120  0.2775241419013405
  0.9410672410089008  0.8146310794032238  0.5871441064963041
  0.2064560298666058  0.0973932079536740  0.0523945959659766
  0.3630550889216264  0.0081578112449338  0.1605666517871000
  0.5880915238710784  0.4847785190691648  0.5942563232035939
  0.2630313299364596  0.0816509403474217  0.8431848038737620
  0.4111714116255432  0.3885575662986593  0.0792243217442494
  0.1386699641571949  0.5477777304279652  0.3414472653424198
  0.7898845284522267  0.8926547199682456  0.7317678395215196
  0.0271098582157152  0.1914703030936811  0.4050305310619841
  0.4833491175448494  0.6696339743856679  0.4463255541764228
  0.1289019477245473  0.4459756569996050  0.1631094245480408
  0.3776776876650106  0.2044700017297200  0.2288748856235810
  0.0880196934277092  0.7865401198831833  0.0993659748736525
  0.7987727921885089  0.0817094867789868  0.6496559451954406
  0.2896086572164626  0.0113623100768723  0.3526194957587013
  0.9101501740903061  0.6865288599422564  0.7924099932607688
  0.9252055762952124  0.5387603420158757  0.8822085314500223
  0.1260241346957171  0.8726019815730320  0.5671700413503266
  0.5280927123111517  0.6161534497900817  0.8193282928431077
  0.7895930377199258  0.4867858706164128  0.2950399548426896
  0.5351814685613034  0.2755530516932002  0.3669834402412423
  0.9375871560745207  0.3996902625030138  0.1574389686406403
  0.6766359502250791  0.3097125205054457  0.7218723000185070
  0.1074216155902082  0.9313248889012792  0.1893448340756771
  0.4934686195835040  0.6750605927776114  0.2379584898920120
  0.9762803481134481  0.4931194302125265  0.0181248935991718
  0.7148781917110363  0.7133667534815095  0.8559860517737226
  0.6099509699270304  0.1902681600585835  0.2014481370107758
  0.6050715862864361  0.4242862873942199  0.2242725362717779
  0.6390737525014452  0.9168611061878537  0.8665536792987937
  0.2565273698691390  0.7570336782860142  0.8164237749597950
 
  0.15673399E-03 -0.69169564E-03 -0.40970492E-03
  0.16394248E-02  0.22862763E-02 -0.20233779E-02
 -0.47706930E-03  0.50828787E-03  0.14496961E-02
 -0.22871942E-02 -0.17833409E-03 -0.20332876E-02
 -0.12330141E-02  0.28169363E-02  0.18651723E-02
 -0.29166666E-03  0.13208542E-02  0.10155974E-02
 -0.55005909E-03  0.12846242E-02 -0.25356244E-02
 -0.39612805E-03 -0.10906250E-02 -0.11895756E-02
  0.19780275E-02  0.11886958E-02  0.59973797E-03
  0.23464743E-02  0.43773133E-02  0.68424003E-03
 -0.10295229E-02  0.30130536E-02 -0.81161256E-03
  0.69670986E-03 -0.61762419E-03  0.23880202E-02
 -0.18411351E-02  0.30743096E-02  0.85550977E-03
  0.61518317E-03 -0.16575327E-02  0.25256062E-02
 -0.36608515E-03  0.92099307E-03 -0.57552758E-03
  0.32188568E-03 -0.12072634E-02 -0.10676565E-02
 -0.59644818E-03  0.30219863E-02 -0.43512422E-03
  0.28272616E-02  0.92991927E-03  0.11297454E-02
 -0.34824775E-03  0.18388126E-02  0.15418040E-03
 -0.37294152E-02 -0.51257683E-03 -0.25144089E-02
  0.16502588E-02 -0.16952526E-02  0.23578296E-02
 -0.14643136E-03  0.11646923E-02  0.63618403E-03
  0.45973186E-02 -0.22909482E-02  0.26498855E-03
 -0.83562316E-03  0.53397698E-02  0.11283599E-02
 -0.10895656E-02 -0.36286813E-02 -0.17555177E-02
 -0.13378766E-02  0.12897306E-02  0.26112036E-02
 -0.28150802E-02 -0.24245732E-03 -0.14232162E-03
  0.97511331E-03  0.94683021E-03  0.15450305E-02
  0.26325348E-03  0.66690002E-03  0.81780690E-03
  0.29397223E-02 -0.89545503E-04  0.49498652E-04
  0.87964081E-03  0.15980823E-02  0.30295695E-02
 -0.81450843E-03 -0.49611136E-03 -0.14814154E-02
  0.40414360E-02 -0.14878971E-02 -0.16048328E-02
 -0.79995904E-03 -0.60870094E-03  0.46535196E-03
 -0.16357783E-02  0.53270753E-03  0.26742836E-04
 -0.82763852E-03 -0.19636318E-02 -0.50295526E-03
 -0.16751207E-02 -0.15694705E-02  0.15509019E-02
  0.89070503E-03 -0.17670020E-02  0.67124760E-03
  0.36956611E-02 -0.14558766E-02  0.23332980E-02
 -0.20750065E-02 -0.15798580E-02  0.27491242E-02
 -0.70198023E-03 -0.25725928E-02  0.46466976E-04
  0.10233233E-02 -0.44938308E-03  0.76833005E-03
 -0.53006773E-03  0.44482473E-02 -0.29396549E-02
 -0.15278600E-03 -0.50669384E-03  0.10861394E-02
 -0.11278443E-02  0.93980737E-03  0.58038663E-03
  0.35414619E-02 -0.12984380E-02 -0.13489536E-02
 -0.13881759E-02  0.18602910E-02  0.15445184E-03
 -0.72741094E-03  0.15124715E-02  0.46842083E-03
 -0.42016739E-03  0.33593631E-03 -0.43157899E-03
 -0.58158163E-03  0.23000522E-02 -0.43802056E-03
 -0.29823269E-03  0.92834890E-03  0.11938278E-03
  0.30310346E-02  0.10026467E-02 -0.14749519E-02
 -0.45178798E-03 -0.18292351E-02 -0.89420872E-03
 -0.15069673E-02 -0.69150942E-03 -0.45408733E-03
 -0.14606077E-02 -0.15364198E-02 -0.70861544E-03
  0.47986706E-03  0.34506152E-02  0.17214623E-02
 -0.12937416E-02  0.32277677E-03 -0.25982569E-03
  0.92996017E-03  0.33313272E-04 -0.29957559E-03
  0.13483670E-02 -0.14301942E-02  0.14885764E-02
 -0.30280244E-03  0.67789358E-03 -0.16946155E-02
 -0.22761564E-02  0.56610977E-03  0.79751582E-03
 -0.53799718E-03 -0.42161254E-03 -0.12039713E-02
 -0.73092406E-03 -0.38039917E-02  0.26863745E-02
 -0.21962629E-03 -0.51368228E-04  0.12687585E-02
  0.88930017E-04  0.48669558E-03  0.61269299E-03
  0.99709435E-03  0.18070993E-02 -0.48980209E-03
 -0.36112648E-02  0.34642989E-03 -0.92942801E-03
  0.22694486E-02  0.21242891E-03  0.13494942E-02
  0.92668680E-03  0.10630215E-02 -0.84002940E-03
  0.83295295E-04 -0.89573759E-03 -0.36069168E-03
 -0.17190365E-03 -0.20098361E-02 -0.30846839E-02
  0.21808494E-03 -0.64623253E-03  0.11585236E-03
  0.13938616E-02  0.12030964E-02 -0.18853147E-03
  0.77691181E-03  0.44734555E-03  0.53535341E-03
 -0.18622072E-02  0.82405725E-03 -0.12498496E-02
  0.24941880E-03  0.17109859E-03 -0.63676905E-03
  0.10326139E-02 -0.39455512E-03  0.16495552E-02
 -0.23578955E-02  0.46687481E-04  0.14590194E-02
 -0.25319603E-02  0.16792492E-02 -0.18606842E-02
  0.67411197E-04 -0.15842383E-02  0.49150327E-03
  0.50400294E-03 -0.38045751E-03 -0.67790962E-03
  0.74452873E-04  0.93324824E-03  0.11039032E-02
  0.11080026E-02 -0.51179052E-04 -0.89511495E-03
  0.27381783E-02 -0.61388472E-04  0.50353958E-03
 -0.96991108E-03  0.23983708E-02  0.41031656E-02
  0.19705896E-02 -0.12039892E-02 -0.12846207E-03
 -0.92028446E-03 -0.12734455E-02  0.32231436E-02
  0.94206746E-03  0.11752894E-02 -0.11510754E-02
 -0.34399834E-04  0.50795937E-03  0.24600325E-04
  0.10318180E-02 -0.26231179E-03  0.34791136E-03
 -0.25063537E-03 -0.22219439E-02 -0.76527759E-03
  0.47720660E-03  0.96388388E-03  0.11487379E-04
  0.14745281E-02  0.66121240E-03 -0.34543663E-03
  0.10572064E-02 -0.22864156E-02  0.34069090E-03
  0.33918960E-03 -0.18650821E-02  0.24232910E-02
  0.32371976E-02 -0.19630196E-02 -0.12726378E-02
 -0.23420546E-02 -0.32943420E-03 -0.35092979E-03
 -0.37558002E-03 -0.60515679E-03  0.13612796E-03
 -0.77285624E-03 -0.12819662E-02  0.20045897E-02
  0.14449843E-02 -0.42725598E-04  0.18156372E-02
  0.10325004E-02 -0.14259862E-02  0.13382111E-02
 -0.12777487E-02 -0.79211008E-03 -0.14732562E-02
  0.42257847E-03 -0.23586750E-03 -0.13669983E-02
 -0.14776893E-02  0.95490315E-03 -0.55355442E-03
  0.19100442E-02  0.94481024E-03 -0.19103876E-03
  0.50587386E-03 -0.24305659E-02  0.63917593E-04
  0.36518862E-02  0.23357841E-02 -0.26167056E-02
  0.15344144E-02 -0.18445542E-02  0.14947899E-02
  0.33097843E-03  0.22706585E-02 -0.13127959E-02
 -0.15235829E-02 -0.48365029E-03  0.45480149E-03
  0.15147761E-03  0.10882458E-03 -0.11127378E-03
  0.91733556E-03  0.13276435E-02 -0.11628390E-02
  0.44630574E-03 -0.92397794E-03 -0.91301876E-03
  0.96495234E-03  0.76683488E-03  0.87803496E-03
 -0.36698716E-02 -0.97234978E-03 -0.16473657E-03
 -0.37964173E-04  0.32452049E-03 -0.55148478E-03
  0.14050073E-02  0.62649069E-03  0.64813562E-03
  0.84524720E-03 -0.10331522E-02  0.19892800E-02
  0.55866913E-03  0.22936588E-02  0.12975851E-02
  0.32466403E-03 -0.35078593E-03 -0.13108685E-04
  0.71834253E-04 -0.53291606E-03 -0.14411030E-02
  0.20901498E-02 -0.17603005E-03 -0.23341512E-02
  0.50453636E-03  0.24738280E-03 -0.26853545E-02
 -0.91681495E-03  0.86839140E-03 -0.48293147E-03
  0.61892687E-03 -0.99493965E-03 -0.52760948E-04
 -0.62562261E-03 -0.92366683E-03 -0.96630505E-03
 -0.10150408E-03  0.25549992E-02  0.10202560E-02
  0.16398976E-02  0.18862918E-02  0.23090276E-03
 -0.11377822E-02  0.12737335E-02 -0.43005489E-03
 -0.55478074E-04  0.10035390E-02 -0.25023289E-03
 -0.18564583E-02  0.83997381E-03 -0.57511521E-03
  0.23436946E-03 -0.13868386E-02 -0.60511073E-03
 -0.45281608E-03 -0.51428605E-03 -0.36519056E-02
 -0.13476104E-03  0.81662945E-04  0.15754809E-03
 -0.75610522E-03 -0.72719125E-03  0.99620131E-03
 -0.10099402E-02 -0.13996061E-02  0.38469762E-03
  0.17878439E-02  0.68258717E-03  0.20361011E-05
 -0.27918258E-02 -0.25688831E-02 -0.29711695E-03
 -0.32654366E-02 -0.25063797E-02  0.15310719E-02
  0.56056153E-03  0.25333629E-02  0.40662355E-04
  0.38993125E-04 -0.21227828E-02 -0.15309536E-02
 -0.17013960E-03  0.72965304E-03  0.17144078E-02
 -0.12124070E-02 -0.13713796E-02 -0.10980080E-02
  0.31859726E-02  0.27211859E-02  0.14153814E-06
 -0.49509045E-03  0.96698650E-03 -0.54168551E-03
  0.13316273E-02  0.74472290E-03  0.15899149E-02
  0.56534044E-03 -0.21286904E-02  0.81612082E-03
 -0.96816996E-03 -0.12298029E-02 -0.65929613E-04
  0.36287266E-03  0.72063269E-04 -0.23465930E-03
  0.93675496E-03 -0.15857034E-02 -0.19871152E-02
 -0.89325580E-03  0.98121044E-04 -0.19180258E-02
  0.10581398E-02 -0.66050782E-03 -0.13611980E-02
  0.45081372E-03 -0.76554409E-03  0.82383529E-03
  0.13341482E-02  0.52349766E-03 -0.19999206E-03
  0.13610144E-02 -0.17112041E-04 -0.23048566E-03
  0.30330830E-02  0.67752315E-03  0.32535972E-02
 -0.37010112E-02 -0.29730030E-02  0.32249823E-03
  0.24074103E-02  0.67743917E-03  0.32578146E-03
  0.11499508E-02 -0.44511312E-03  0.14553611E-02
 -0.18869208E-02  0.94281375E-03 -0.22586782E-02
 -0.14802259E-02  0.52996022E-03 -0.12688068E-02
 -0.21389182E-02  0.42112735E-05 -0.19353065E-02
 -0.38666107E-03 -0.12924864E-02  0.13049139E-02
  0.43288049E-04  0.12748560E-02  0.37532481E-02
  0.22210182E-03 -0.33754851E-03  0.14070869E-02
  0.71377118E-03  0.43208282E-03 -0.27896116E-03
 -0.71790177E-03 -0.68845447E-03 -0.25722838E-02
  0.92300566E-03 -0.37385660E-02 -0.10202671E-02
  0.57787713E-03 -0.80212713E-03 -0.87322190E-03
  0.18508994E-03 -0.23593148E-03  0.12743952E-02
 -0.45488086E-03 -0.10004239E-02 -0.18544567E-02
 -0.41617880E-02  0.16321262E-02 -0.20617780E-02
 -0.14855931E-03 -0.53642362E-03 -0.27228604E-03
  0.50667295E-03 -0.59226228E-03  0.24277495E-02
  0.29892383E-02  0.13625236E-02 -0.20255046E-02
 -0.66846588E-04  0.14890069E-02 -0.83777518E-03
 -0.12184198E-03 -0.43979515E-03 -0.16475207E-02
 -0.24216148E-02 -0.41284794E-04  0.20007119E-02
 -0.12632051E-02 -0.33328272E-03 -0.92871911E-04
 -0.15910107E-02 -0.11219003E-03  0.12508809E-04
 -0.62464805E-03  0.35561925E-02  0.11392703E-02
 -0.21364876E-02  0.74272349E-03 -0.14018761E-02
  0.93080085E-04 -0.38897617E-03 -0.70149952E-03
 -0.11503358E-02  0.83521658E-03 -0.39222658E-03
 -0.26357440E-02  0.41326353E-04  0.13145641E-02
  0.24211271E-02  0.27366726E-02 -0.29755432E-02
  0.25738322E-02  0.83623343E-03 -0.74694738E-03
  0.14508532E-02 -0.25247497E-02  0.35564492E-02
 -0.12978650E-02 -0.38507387E-03  0.12086699E-02
  0.91768317E-04  0.56093209E-04  0.14575212E-04
 -0.10024663E-02 -0.49620192E-03 -0.14052978E-02
 -0.23855040E-02 -0.95167280E-03  0.10762295E-03
  0.75455728E-03 -0.17922796E-03  0.20725439E-02
 -0.24150509E-02  0.12010129E-03 -0.33309539E-03
 -0.24543793E-03 -0.81460499E-03 -0.18396210E-02
  0.16619498E-02 -0.56730168E-03  0.22027997E-02
 -0.68488636E-03  0.41653536E-03  0.15058386E-03
 -0.10192007E-02 -0.23569232E-02  0.11393115E-02
 
           1
   3.00000000000000     
  0.10000000E+01  0.00000000E+00  0.00000000E+00  0.00000000E+00
  0.51500154E+00  0.83224765E+00  0.78327161E+00
  0.87345385E+00  0.94906715E+00  0.63243247E+00
  0.90744234E+00  0.50000745E+00  0.67897615E+00
  0.66009379E+00  0.20544067E-01  0.24240258E+00
  0.90815699E+00  0.38005640E+00  0.29766311E+00
  0.20878345E-02  0.25397922E+00  0.64156009E+00
  0.99551583E+00  0.27616627E+00  0.27781373E+00
  0.16196972E+00  0.22316801E+00  0.37657159E+00
  0.50797896E+00  0.85926525E+00  0.60092140E+00
  0.60772309E+00  0.11497784E+00  0.33205056E+00
  0.50049289E-01  0.12587536E+00  0.64345222E+00
  0.75238587E+00  0.89913242E+00  0.15896670E+00
  0.35762731E+00  0.84278081E+00  0.45339793E+00
  0.39003373E+00  0.61905807E+00  0.53852730E+00
  0.54652152E+00  0.76867634E-01  0.65323440E+00
  0.72146272E+00  0.47983093E+00  0.61161398E+00
  0.27072997E+00  0.10765638E+00  0.20559319E+00
  0.86822747E+00  0.10379381E+00  0.51903582E+00
  0.23666263E+00  0.11773107E+00  0.41974258E+00
  0.13501151E+00  0.49046066E+00  0.93648697E+00
  0.46974887E+00  0.96463491E+00  0.96509574E+00
  0.18225014E+00  0.43591028E+00  0.74868181E+00
  0.66018090E+00  0.47984440E+00  0.35338082E-01
  0.92119919E+00  0.49770953E+00  0.44504125E+00
  0.81297279E+00  0.47041999E+00  0.15691953E+00
  0.79679732E+00  0.69688929E+00  0.43276205E+00
  0.94369943E+00  0.74294255E-02  0.75679641E+00
  0.75341547E+00  0.99525132E+00  0.38717005E+00
  0.48103612E+00  0.10435864E+00  0.16307394E+00
  0.55559822E+00  0.95983922E+00  0.75910537E+00
  0.54996849E-01  0.28621012E+00  0.91060698E-01
  0.15817110E+00  0.58111824E+00  0.19908799E+00
  0.10254703E+00  0.26386134E+00  0.85585426E+00
  0.78038167E+00  0.27319322E+00  0.81711824E+00
  0.51296825E+00  0.29131362E+00  0.22499933E+00
  0.82816780E+00  0.90479580E-01  0.59817908E-01
  0.98903274E+00  0.32007218E+00  0.46287007E+00
  0.37840956E+00  0.70928866E+00  0.16340917E+00
  0.87618583E+00  0.10938967E+00  0.32320909E+00
  0.54319908E+00  0.30113609E+00  0.27221710E-01
  0.83120829E+00  0.77852410E+00  0.22335356E-01
  0.19840655E+00  0.86575734E+00  0.75542390E+00
  0.67415719E+00  0.59391465E+00  0.91350847E+00
  0.68347697E+00  0.27064669E+00  0.98802447E+00
  0.57933452E+00  0.56944360E-01  0.94936787E+00
  0.91040511E+00  0.62614865E+00  0.60691170E+00
  0.35551864E+00  0.17757660E+00  0.43736808E+00
  0.56483957E-01  0.21536035E-01  0.40498717E+00
  0.22248523E-01  0.63287753E+00  0.43808117E-01
  0.55895060E+00  0.64296626E+00  0.99613702E+00
  0.33052236E+00  0.31389776E+00  0.59282157E+00
  0.52538354E+00  0.83959076E+00  0.93776302E+00
  0.46295640E+00  0.53551421E+00  0.16425708E+00
  0.15093139E-01  0.75939993E+00  0.23695468E+00
  0.11002152E+00  0.12331155E+00  0.88515621E+00
  0.67751457E-01  0.47323777E+00  0.59370823E+00
  0.39912016E+00  0.40197194E+00  0.88099558E+00
  0.24730504E+00  0.45409191E+00  0.31802576E+00
  0.33390742E+00  0.98808148E+00  0.10649471E-01
  0.31854751E+00  0.14074328E+00  0.96798626E+00
  0.36735270E+00  0.16576893E+00  0.58525124E+00
  0.87126076E+00  0.18145379E+00  0.91319802E+00
  0.32316619E-01  0.47372432E+00  0.75947406E+00
  0.35449812E+00  0.26962569E+00  0.81708515E+00
  0.37666860E-01  0.72580031E+00  0.67149885E+00
  0.60659368E+00  0.71647206E+00  0.74594362E+00
  0.56346601E+00  0.33188969E+00  0.59225120E+00
  0.19514306E-01  0.73678349E+00  0.88162821E+00
  0.82763087E+00  0.76342797E+00  0.67669773E+00
  0.62418579E+00  0.49041339E+00  0.83431308E+00
  0.22931279E+00  0.85405772E+00  0.25128440E+00
  0.76856281E+00  0.33982716E+00  0.61091418E+00
  0.20298049E+00  0.29099455E+00  0.72549448E-01
  0.42218013E+00  0.39551062E+00  0.38280503E+00
  0.43907427E+00  0.31416063E+00  0.69935559E+00
  0.45267517E-02  0.61184257E+00  0.19089858E+00
  0.37707158E+00  0.67246258E+00  0.33163934E+00
  0.63802189E+00  0.59266285E+00  0.46911843E+00
  0.66448473E+00  0.35531837E+00  0.35551777E+00
  0.64957305E+00  0.76744573E+00  0.98840533E+00
  0.65274029E+00  0.88413791E+00  0.65782078E+00
  0.66253010E+00  0.21468315E-01  0.58087916E+00
  0.53889178E+00  0.85080796E+00  0.19979495E+00
  0.22911034E+00  0.74265568E+00  0.15425219E+00
  0.84476701E+00  0.63105632E+00  0.21247498E+00
  0.77192523E+00  0.62145187E-01  0.88453843E+00
  0.32160765E+00  0.33400336E+00  0.18694171E+00
  0.43452695E+00  0.40610317E+00  0.53655069E+00
  0.50703241E+00  0.16818248E+00  0.55285787E+00
  0.45014703E+00  0.24907085E-01  0.83917613E+00
  0.94011030E+00  0.97970708E+00  0.32526677E+00
  0.44243317E+00  0.97997909E+00  0.61331854E+00
  0.96074545E+00  0.82839505E+00  0.47253044E-02
  0.19574551E+00  0.36206590E-01  0.52713594E+00
  0.21595653E+00  0.30098235E+00  0.74286753E+00
  0.22134720E+00  0.50437977E+00  0.62122893E+00
  0.40129872E+00  0.66496445E+00  0.67701066E+00
  0.64340638E+00  0.67065376E+00  0.59663191E+00
  0.72886287E+00  0.24276096E+00  0.28006078E+00
  0.48455916E+00  0.44071806E-01  0.31276317E+00
  0.80418365E-02  0.30130499E+00  0.95561970E+00
  0.81180298E+00  0.91218043E+00  0.49423755E+00
  0.67894134E+00  0.18303489E+00  0.86562514E+00
  0.83232852E+00  0.64447315E+00  0.52587038E-01
  0.67574971E+00  0.28298185E+00  0.50896874E+00
  0.14151642E+00  0.73220199E+00  0.30646087E+00
  0.71704120E+00  0.10415806E-01  0.11421306E-01
  0.98067270E+00  0.32471968E+00  0.76396897E+00
  0.32168690E+00  0.50759404E+00  0.43830504E+00
  0.13840747E+00  0.28085377E+00  0.25428850E+00
  0.81310872E+00  0.23365232E+00  0.46345429E-01
  0.91425795E+00  0.96806560E+00  0.88705113E+00
  0.19674002E+00  0.94093808E+00  0.88394817E+00
  0.70050249E+00  0.37223316E+00  0.12332378E+00
  0.50060608E+00  0.16413924E+00  0.26392421E-01
  0.17072376E+00  0.59894304E+00  0.11954966E-01
  0.44562676E+00  0.45405542E+00  0.75078477E+00
  0.22217820E+00  0.27697537E+00  0.92499434E+00
  0.90590726E+00  0.67275202E+00  0.34042307E+00
  0.54167954E+00  0.48075504E+00  0.95726195E+00
  0.51267406E+00  0.50660830E+00  0.33759902E+00
  0.94065356E+00  0.17296532E+00  0.20041094E+00
  0.45385235E+00  0.81530892E+00  0.83746514E-01
  0.68020922E+00  0.68569746E+00  0.36009501E+00
  0.78482003E+00  0.56517600E+00  0.50245426E+00
  0.26518508E+00  0.49335286E+00  0.85413444E+00
  0.78935367E+00  0.53569029E+00  0.96466608E+00
  0.23669457E+00  0.62674431E+00  0.70825383E+00
  0.72901259E+00  0.38456884E+00  0.90269994E+00
  0.91629759E+00  0.42189102E+00  0.56835100E+00
  0.37698287E+00  0.81960237E+00  0.31546083E+00
  0.29480856E+00  0.72139743E+00  0.48617315E+00
  0.53717547E-01  0.14504493E+00  0.99651899E-01
  0.40185218E+00  0.60440923E+00  0.55030567E-01
  0.79271395E+00  0.65392776E-01  0.20856327E+00
  0.40124298E+00  0.80867310E+00  0.69032484E+00
  0.61824780E+00  0.98757398E+00  0.44113398E+00
  0.30728529E+00  0.55598545E+00  0.22337761E+00
  0.85592273E+00  0.79025976E+00  0.16833551E+00
  0.29608882E+00  0.81619427E+00  0.24531369E-01
  0.26054852E+00  0.30329408E+00  0.43487617E+00
  0.90646680E+00  0.14354106E+00  0.73673966E+00
  0.61451457E+00  0.58181828E+00  0.13027101E+00
  0.99972652E+00  0.60612190E+00  0.49877271E+00
  0.69172420E-01  0.87059732E+00  0.43653795E+00
  0.72835189E+00  0.80243307E+00  0.54722840E+00
  0.96130516E-01  0.61811758E+00  0.78206061E+00
  0.18625516E+00  0.78953626E+00  0.93524260E+00
  0.65787780E+00  0.78729588E+00  0.13994241E+00
  0.17616779E+00  0.16610404E+00  0.58870330E+00
  0.49921693E+00  0.81337106E+00  0.46414060E+00
  0.51743919E+00  0.28810546E+00  0.88242145E+00
  0.86505926E-01  0.37624965E-01  0.76294638E+00
  0.60308629E-01  0.83572093E+00  0.77830499E+00
  0.57457579E+00  0.98427473E+00  0.14056348E+00
  0.28040934E-01  0.43597591E+00  0.36658994E+00
  0.77410535E+00  0.53034604E+00  0.73090164E+00
  0.42135053E+00  0.28078480E-01  0.44351533E+00
  0.96690306E+00  0.81061214E-01  0.97674035E+00