Ge Se                                   
   1.00000000000000     
    20.1810054779052734    0.0000000000000000    0.0000000000000000
     0.0000000000000000   20.1810054779052734    0.0000000000000000
     0.0000000000000000    0.0000000000000000   20.1810054779052734
   Ge   Se
   145   155
Direct
  0.8948926377170227  0.8283139467218735  0.8390179182516936
  0.6298649850178483  0.4916677524978203  0.2415812040087795
  0.7042874451297021  0.7587760652925805  0.8026552739705760
  0.1356713649708502  0.0271315481759054  0.7775611230668704
  0.9625696161788458  0.2071142845014659  0.3367917713195380
  0.9147285392982549  0.5393868157929342  0.7534945036204964
  0.3201286679731234  0.3389064195150893  0.4219815837806925
  0.5315799832469359  0.5246209498659276  0.4290610003407418
  0.5175409057174821  0.7491846233411872  0.7080310366969026
  0.0339991934890642  0.3664387165791257  0.2324050482567753
  0.7535381568635525  0.2364803345831892  0.7293300933629917
  0.5420863824073127  0.1064236868030601  0.6291531458924249
  0.6251534682955477  0.6210120949393255  0.8339286822891057
  0.0799071270507834  0.1126681014184636  0.4290954575218580
  0.4648385328344313  0.9258019282821717  0.7371380774569444
  0.0446586718039325  0.5843834415622791  0.1487921924041036
  0.2672234747232278  0.8162683351809724  0.2077832890278745
  0.5086880653917091  0.0505340549128155  0.2715177854150999
  0.9133812696461399  0.2631926638778311  0.9678486970982165
  0.7497153594033814  0.0146093025084791  0.9015673655872863
  0.1789509525199266  0.4174598219520944  0.3362641566870620
  0.8113278624855258  0.4930257409694050  0.4181093212572440
  0.4223695028880733  0.4706451074587183  0.3817581268917457
  0.9877868629836306  0.0664689573675967  0.0675732499316001
  0.4237901524033798  0.2837684744546285  0.1185937952317884
  0.9049742839768552  0.2283849860356099  0.1388848885770202
  0.2120364168707037  0.2906902032224688  0.8257952046139352
  0.7325648928023210  0.6783132173027537  0.6629943944086211
  0.4428777763851233  0.1904665823526092  0.8596740731178659
  0.4166214858441301  0.5989085674211737  0.6831189181857938
  0.6079471035290954  0.2112782669627620  0.5293778891606229
  0.5586456156040998  0.3352978384600517  0.9274121479210073
  0.5052543659899821  0.1860255074359349  0.1418963033183669
  0.5596625667519801  0.3947197499727775  0.1842449816534523
  0.8215579134588222  0.4743768486519348  0.8254216025749478
  0.5912247786220489  0.4998318921566325  0.6513185910720042
  0.8496808894856124  0.8427699568790067  0.1214177769796608
  0.3808886159677092  0.4624553213009521  0.9643169626757330
  0.2794004801398501  0.1423714288460954  0.8304198411589823
  0.1234197296529295  0.6117495329867872  0.7085099595582988
  0.2786042792070690  0.8748222722632302  0.0757213432662278
  0.6128480660597753  0.3695812218072218  0.4075755326528904
  0.1194489792848558  0.5213071407315011  0.8961618352691121
  0.6684359724864878  0.6479324255863345  0.1607844212926736
  0.9187424102066279  0.4414211030134692  0.2002160143128782
  0.3019245517103758  0.6905851761607890  0.2153169878057506
  0.1126219261651129  0.0671800082596564  0.1253527727389569
  0.3068892257531387  0.0524688155779539  0.6680843068551752
  0.4812005015816384  0.4190799629435765  0.8360086273105364
  0.0175175080807506  0.7094462539877513  0.8484923703076170
  0.9143902437855712  0.0380479138987968  0.4458540814157641
  0.1379645574692508  0.5562422868793243  0.5220098406906912
  0.1082883191782503  0.7215315935790011  0.6392429980850357
  0.0004956367980075  0.4503731276967034  0.0376356939478630
  0.0440533777171226  0.6460671428002199  0.0335478581775206
  0.4342469593066648  0.3166224153135579  0.4644435886879468
  0.1866295137024503  0.6158148997102244  0.1130956124765430
  0.2493346249317663  0.4523307405148334  0.8585675573367053
  0.4305908368421950  0.7082877194831747  0.4014229956166929
  0.7054317105015337  0.7343684000351220  0.4194064198301061
  0.3673467472819550  0.9391805270098220  0.8772458890536466
  0.7999612607333469  0.0362982492839015  0.0924326135506545
  0.6824094640510241  0.1194892741283704  0.3517325890265365
  0.5881053029330470  0.5254817551643123  0.0386362287702672
  0.8602274056994316  0.0568480007833056  0.7376050838758318
  0.6710874346728648  0.0264089009008628  0.1870043153311954
  0.3846033600129687  0.9719957045880293  0.2360959888065705
  0.9801511373772642  0.0417524008332483  0.2797815034393620
  0.7401936098603999  0.3389230506486090  0.1508708543286539
  0.4791815933956926  0.1718371534359632  0.3787819439735242
  0.9235882622612084  0.0680928481043037  0.9281709163487316
  0.2089678756829845  0.7622572934243199  0.0063191539486347
  0.4476036083007930  0.7866671002758496  0.8890327372466756
  0.1199604924049209  0.0064803326683089  0.6543205273504151
  0.4730268135681940  0.7902125236878297  0.2145869759677572
  0.9460881324335367  0.1435313069886889  0.6957636132585155
  0.2310653601748190  0.3491077632222215  0.7139546741198647
  0.3799235389429558  0.4767929223481789  0.7103961623490271
  0.7929098950564862  0.4803676394959421  0.6559210047073399
  0.2446346617796244  0.8057126753650423  0.8884080669095348
  0.8986137264648519  0.6825630097594223 -0.0028565911190475
  0.2146216100569119  0.3164300008035789  0.5391692809897884
  0.6168883832935770  0.8747905748212538  0.2142233845490927
  0.0297794692379818  0.7792763694970082  0.0740205803775796
  0.7604432483375398  0.3285760157096412  0.5575011989154145
  0.7035303104424970  0.4061356160704780  0.0240652387310495
  0.0452391382651662  0.1701963361974977  0.0156654515092220
  0.0188359217149183  0.8894967637507913  0.1592499079181932
  0.9595708944290200  0.9316419459596051  0.6405014004391039
  0.8070494379237769  0.9414105892373289  0.2536790299460234
  0.5690793655058949  0.6553674575221637  0.5923056466031908
  0.6695568571952278  0.0481904813852148  0.9928889807798769
  0.5482072183150589  0.6910814727013196  0.1479155446279946
  0.4611850183618717  0.6555761613255643  0.0083843114381870
  0.3166757274931462  0.0547899541549305  0.0837753584560152
  0.1713174756632012  0.4608709247029342  0.0039222294241014
  0.7660342023005740  0.8852472579222411  0.0265627375277997
  0.6628661390878690  0.0531691080079320  0.7584589368246557
  0.7676051128113316  0.6979624075244856  0.0000416143052951
  0.4622297729361869  0.0527810676891449  0.4253526565457932
  0.5643069111456015  0.1123413838438997  0.9619944422902824
  0.3869169799990679  0.9083022980990962  0.5540207056403763
  0.9028622339353373  0.4314687545563348  0.6026577714187663
  0.2545596852775651  0.1733169365255715  0.0874374192821670
  0.4779923020321201  0.8510426093054135  0.0673200544536134
  0.8723848626616295  0.7192691272508485  0.7163341727962164
  0.6951069142522874  0.5165897289393638  0.9451855845337511
  0.0488547271650136  0.8382917653748149  0.6112753574506654
  0.8504782162854063  0.6296571008531839  0.1896347065434687
  0.5294870236248309  0.6136295778705252  0.2754120319123765
  0.7741381587955621  0.1613867299148954  0.6289058389802331
  0.6470170352501485  0.1780885539536918  0.7981078523091163
  0.1654541342625730  0.9692457522362677  0.3481516514243098
  0.2765944080532809  0.1054239328597670  0.2697183404787706
  0.6646077933270641  0.3157447556469725  0.3074676981934615
  0.6007777404076504  0.8665110153719625  0.5797000151225897
  0.0628074495900504  0.8573000368732611  0.8765722720873613
  0.0758881744020910  0.3945114725849379  0.8948096979637641
  0.9951658585204872  0.4586514003716183  0.5173687243131518
  0.4899460705465434  0.8512401132975488  0.4030419781053424
  0.2548916396496476  0.6938618914703354  0.4337092185829953
  0.8628358021215037  0.8322451781314547  0.5133938341238644
  0.2017349964192973  0.0589380589373307  0.9447288563551256
  0.9514423938147460  0.3763330491511235  0.4306502279542915
  0.0829798599328299  0.8438050764051124  0.3606066526612171
  0.9581070498137659  0.2903297507491558  0.6825820259517384
 -0.0016037810482532  0.7139338430930567  0.4754378906629724
  0.1219189146594004  0.6585073735270037  0.2431300783443598
  0.2969823407261009  0.8778331664978973  0.3801921522716561
  0.2760376126938373  0.0402451133274709  0.4728380464941306
  0.0939296041642605  0.4442797600650739  0.7179814409546856
  0.2958055925808655  0.3185827297311876  0.0054866341255476
  0.9479729348915975  0.7396395867666529  0.2970980592798292
  0.1382689225979743  0.2580136895133169  0.3921499202814592
  0.9720224551361043  0.5502103548625720  0.3372411081308213
  0.2680403767851037  0.6848720618340005  0.5633827195661654
  0.8043841417727695  0.6881446440475008  0.2984820532734760
  0.5584436580022645  0.9747524233873593  0.5263894916727038
  0.3360121976492416  0.6886222377988946  0.0134829012016954
  0.8785160109197910  0.8398933602485921  0.3827421577984126
  0.3687715969696017  0.5579229634531304  0.5329770737770687
  0.4132002410636696  0.5572472384235495  0.8343868521013748
  0.8074544446832579  0.6804118588089539  0.5520460474768236
  0.3622460270137460  0.4107540567883630  0.6010539128514681
  0.3761043209715133  0.1841108781212996  0.9717543358845088
  0.9816060322952406  0.7825602662832293  0.7519819299766041
 -0.0003084828111896  0.2778247799169051  0.0601832173797692
  0.5701495156050718  0.7970809261739082  0.4824999563101685
  0.9596580828477699  0.4194679648585687  0.7143984923300603
  0.5727762235934433  0.9993457509281933  0.6949054483916676
  0.2586958660827508  0.0223930783949196  0.7850818014984392
  0.0134901860278997  0.5502872815877102  0.9578412617187825
  0.0596830515040092  0.7153806523649060  0.3517164823361943
  0.5915288382642754  0.2816925622792747  0.2183766609396419
  0.9115568715177839  0.7458771437243997  0.5891185871078292
  0.5012139940348307  0.5855330353687718  0.9185571100091450
  0.4436593132338684  0.0252982792811025  0.5477796656962749
  0.1573777119770973  0.8201761508901603  0.8075240210755211
  0.4964209829752888  0.3560129560399182  0.3681740281233871
  0.1520993006473309  0.8965221508790567  0.6291655957451956
  0.1631140777702363  0.6449122683748459 -0.0104451545584339
  0.7250100975637421  0.7985973300522251  0.9507481353412177
  0.2556040223039475  0.9852525930077357  0.2438137072020555
  0.2012673591994972  0.0042474974381386  0.0624202377779062
  0.7445616763061857  0.7901583446350915  0.5282856513746669
  0.9182957029188941  0.9487272765289163  0.1224445901340734
  0.4698059875412232  0.3812941993882948  0.5552748089886473
  0.0210453995122246  0.4324498400259874  0.3405250916779349
  0.1982124384866963  0.0914207378146367  0.3825611102018117
  0.2324241841120938  0.6139914341446461  0.2779712681030879
  0.3781629854362309  0.8519403029273415  0.2720431132357065
  0.8347724673475299  0.9449620035901917  0.9444714886306236
  0.6003437879869113  0.2018968140063642  0.4016166733912534
  0.5299635144316616  0.8298070827983189  0.8025346101538240
  0.2650276876110946  0.9138103218473668  0.9446625929686943
  0.3098702727862669  0.5552154523166126  0.9032585362122716
  0.3276533847361234  0.9293898787611873  0.6587651650072393
  0.5415038796891307  0.6010029100702414  0.7092745730509878
  0.9168443570148815  0.8057032095691855  0.0171375536297159
  0.1364719047707290  0.3698330865071908  0.4505312403799682
  0.7226015098079681  0.3408630968155734  0.6740201380801313
  0.7052186997995911  0.1246251655116501  0.0759594329909461
  0.8085433279892240  0.5527331783566625  0.9200476678463489
  0.7547627334377555  0.0417029874107054  0.6695046321652143
  0.6454229484285078  0.7658174581997329  0.6850577352706639
  0.0289069588622701  0.9978700052318418  0.4023555120851523
  0.2370474102347641  0.4713973729277260  0.7351401366071940
  0.4666060182406199  0.1183247345089266  0.0354577435588384
  0.8721169489523011  0.1228454098563367  0.0297382525470629
  0.6289976321660848  0.0695381612521449  0.5421653001357460
  0.9601694406361853  0.3482441258582880  0.8852215283176982
  0.1984145857827097  0.0780134710014472  0.6044482736676315
  0.1465985364273205  0.3101759031135995  0.2765852910848045
  0.8758355793968342  0.2402748330693620  0.7612725293191192
  0.8848052597375657  0.4357406440111877  0.9222189872457272
  0.7773207010150719  0.2256527512752380  0.2015881907922850
  0.5923696576685428  0.2259993791405833  0.0020943087444608
  0.3323225764267106  0.7870908364751800  0.4601005769683120
  0.0209958940803014  0.8374497460298383  0.4879597790755163
  0.1407538699966302  0.3453998013200966  0.9845498360459838
  0.2122035835894468  0.9312533430482162  0.4621208534098859
  0.7285025572414097  0.4077799423430422  0.2590400089046583
  0.6408216331709569  0.4970806754990353  0.8374515296318984
  0.0254641370207475  0.5944792875370732  0.7858918288382687
  0.6840600633592101  0.9498296505905912  0.2896601845607888
  0.6274698261214429  0.3441630060729823  0.5215895271225327
  0.8949543959479557  0.6963570500422978  0.8726321855700672
  0.7695283661937198  0.8044579529026511  0.3284910274331542
  0.6634855666595298  0.6361259211637116  0.9689210431716802
  0.9330537599437945  0.2885137943208473  0.2530759210900129
  0.2630158632092599  0.2364182599835483  0.4296602749926137
  0.4824282401948418  0.8555527942589922  0.6307018608381730
  0.8625537674655317  0.5278807884034479  0.2790298803727780
  0.4390488079150545  0.3876286943764930  0.1772693605827199
  0.2461841700228191  0.5666518302422207  0.5895989716479259
  0.6843420885451594  0.9540302158091895  0.8250300911896804
  0.5347533284930577  0.9643871353093402  0.1827824497103067
  0.2809860017841826  0.4210425024424085  0.5072592414609902
  0.3147307797286698  0.6154039218447626  0.1149972031347034
  0.1823551366860358  0.1512100794965130  0.1878190152844830
  0.8914225292721699  0.3115813150945028  0.5788261860367075
  0.8504778045781352  0.3846826302395648  0.1149963308472034
  0.9788626838709841  0.1313752813358094  0.1712202544313786
  0.4649020270424583  0.5096494286272493  0.2744103582802708
  0.8019171882617111  0.8196519243197670  0.7496887492451121
  0.0949591199153812  0.3225893076491823  0.8002679867271956
  0.4457494012709027  0.2038565025657416  0.4949552301892097
  0.2072398549901880  0.8093056391657573  0.3179236682866960
  0.0801917074594010  0.9858164478837512  0.8749572826517514
  0.6536661792472616  0.9372325537797593  0.0336123859506454
  0.1049516485694797  0.4714255496256241  0.1098250800618968
  0.9256264782914003  0.5422932083573548  0.4578444931788023
  0.3332986916523917  0.0601432879329701  0.9578992240147555
  0.3711694341984419  0.7839867894964706  0.0850474480877136
  0.5782300314811872  0.3985532746648024  0.0591825630832450
  0.9601385273833946  0.6944072346186905  0.1815756814424724
  0.3453313716880170  0.8200356928956425  0.8179752033716832
  0.2864025423731966  0.4400258197115194  0.0473747385063961
  0.8800034320203433  0.5766272131625954  0.6436370151179587
  0.7450742849654802  0.6368248891228731  0.7782487648080337
  0.5184336979051675  0.5430947552476953  0.5535946398292698
  0.4186944495184181  0.6872528634121416  0.2701472354147185
  0.6428829982118781  0.4845065494332880  0.3970038502223695
  0.1108809805380183  0.8409977669730746 -0.0037112929471353
  0.2994083526705611  0.2848593034326294  0.1325010505421438
  0.3598383653225544  0.0174125387029578  0.3752655667331666
  0.8396621109593381  0.3738737806740584  0.3934365433315666
  0.3542896783630189  0.6056005313675139  0.4153470083774519
  0.7512039543096397  0.2301006829546419  0.3186887809529150
  0.4918428643234796  0.4202299599077767  0.7127686256828603
  0.3248281073939889  0.3068681847837102  0.6503580618179627
  0.3548532208935843  0.3837011836591949  0.8639741825311874
  0.7361716388720191  0.1999222193947788  0.5199041178985638
  0.6922425108028251  0.3417933624548816  0.9107351791126451
  0.4267240252298251  0.3168498880099577  0.0004301145887144
  0.4930555992962429  0.5849564778446694  0.1089777163445996
  0.1610638122634448  0.7388584266258390  0.1518173833818627
  0.9869035029413931  0.1798998747160448  0.9044784806364983
  0.0598202774240076  0.1429166572289701  0.3075774232361731
  0.8184068379325632  0.0999284831498669  0.8475332180987889
  0.3780812500635442  0.9459738301886995  0.1074820650578257
  0.0128984639163801  0.0368431685065531  0.6110447646453450
  0.8350123453457589  0.9583054899703967  0.3816702634814740
  0.5510998717606201  0.6393315279237559  0.3960974218301426
  0.1077331616955425  0.1431964875552846  0.7977996959434570
  0.8814567125162591  0.1225124484988022  0.3496295425321781
  0.0678687062187933  0.5408271283442855  0.6241484667186824
  0.7558395882028167  0.7231693842032003  0.1216316518581400
  0.2005481447300828  0.1920606161193203  0.7423436207630977
  0.8851352097982615  0.1412297037370096  0.5886685292858844
  0.3937276588014448  0.6736952458285843  0.5842460520958755
  0.9816845855065148  0.8606976089425852  0.2750337577675723
  0.1346367043293152  0.3559878202989689  0.6375733308770811
  0.7086741946861645  0.2411909990566095  0.9807990977864723
  0.9357072873248474  0.5304305954809162  0.1116718407230173
  0.6096985690414833  0.1968807554904653  0.6841337254364779
  0.0894171866932453  0.9782967480882967  0.2124334787788392
  0.5448142035144086  0.7429533710420937  0.0295873022082692
  0.4658164657451873  0.8967016960166513  0.9483789804146439
  0.2267643797467633  0.7503508865348271  0.6544452412391144
  0.7644284148345289  0.4583631075964157  0.5373111741380042
  0.8082503779643656  0.6531735759043392  0.4158574820755191
  0.5596479285574661  0.8043472283385735  0.3052744708006205
  0.3067191793831313  0.3924992023425818  0.3199687517444207
  0.7985783483807763  0.0622303454042017  0.2155270213926289
  0.1671516577373491  0.1818052526638208  0.9901007985394856
  0.4249700159000812  0.1246578198214070  0.2102807452604875
  0.5491232661712236  0.9678395233093389  0.4020995265822357
  0.6147618392528755  0.1225094368769757  0.2466637810374205
  0.6915897251231091  0.6381141241728736  0.2786720642828356
  0.6781178993787449  0.5942605232953012  0.5908890571256785
  0.1151341327631931  0.6854097359977612  0.5204977354554209
  0.3844421287082211  0.6633253584690766  0.7783062686265185
  0.9207904935538762  0.9520444363875770  0.7554904686445967
  0.5152346626890998  0.2820246393257982  0.8212345518655695
 -0.0085025385977655  0.2610983802338949  0.4379824017734343
  0.5250976115859664  0.0989524777070631  0.8516687417838905
  0.6826642284905572  0.5289654429209336  0.1253894821447768
  0.8619828125627561  0.9389460805008816  0.5715661944689541
  0.3800062230486619  0.1653247914080788  0.7616463440562962
 
  0.00000000E+00  0.00000000E+00  0.00000000E+00
  0.00000000E+00  0.00000000E+00  0.00000000E+00
  0.00000000E+00  0.00000000E+00  0.00000000E+00
  0.00000000E+00  0.00000000E+00  0.00000000E+00
  0.00000000E+00  0.00000000E+00  0.00000000E+00
  0.00000000E+00  0.00000000E+00  0.00000000E+00
  0.00000000E+00  0.00000000E+00  0.00000000E+00
  0.00000000E+00  0.00000000E+00  0.00000000E+00
  0.00000000E+00  0.00000000E+00  0.00000000E+00
  0.00000000E+00  0.00000000E+00  0.00000000E+00
  0.00000000E+00  0.00000000E+00  0.00000000E+00
  0.00000000E+00  0.00000000E+00  0.00000000E+00
  0.00000000E+00  0.00000000E+00  0.00000000E+00
  0.00000000E+00  0.00000000E+00  0.00000000E+00
  0.00000000E+00  0.00000000E+00  0.00000000E+00
  0.00000000E+00  0.00000000E+00  0.00000000E+00
  0.00000000E+00  0.00000000E+00  0.00000000E+00
  0.00000000E+00  0.00000000E+00  0.00000000E+00
  0.00000000E+00  0.00000000E+00  0.00000000E+00
  0.00000000E+00  0.00000000E+00  0.00000000E+00
  0.00000000E+00  0.00000000E+00  0.00000000E+00
  0.00000000E+00  0.00000000E+00  0.00000000E+00
  0.00000000E+00  0.00000000E+00  0.00000000E+00
  0.00000000E+00  0.00000000E+00  0.00000000E+00
  0.00000000E+00  0.00000000E+00  0.00000000E+00
  0.00000000E+00  0.00000000E+00  0.00000000E+00
  0.00000000E+00  0.00000000E+00  0.00000000E+00
  0.00000000E+00  0.00000000E+00  0.00000000E+00
  0.00000000E+00  0.00000000E+00  0.00000000E+00
  0.00000000E+00  0.00000000E+00  0.00000000E+00
  0.00000000E+00  0.00000000E+00  0.00000000E+00
  0.00000000E+00  0.00000000E+00  0.00000000E+00
  0.00000000E+00  0.00000000E+00  0.00000000E+00
  0.00000000E+00  0.00000000E+00  0.00000000E+00
  0.00000000E+00  0.00000000E+00  0.00000000E+00
  0.00000000E+00  0.00000000E+00  0.00000000E+00
  0.00000000E+00  0.00000000E+00  0.00000000E+00
  0.00000000E+00  0.00000000E+00  0.00000000E+00
  0.00000000E+00  0.00000000E+00  0.00000000E+00
  0.00000000E+00  0.00000000E+00  0.00000000E+00
  0.00000000E+00  0.00000000E+00  0.00000000E+00
  0.00000000E+00  0.00000000E+00  0.00000000E+00
  0.00000000E+00  0.00000000E+00  0.00000000E+00
  0.00000000E+00  0.00000000E+00  0.00000000E+00
  0.00000000E+00  0.00000000E+00  0.00000000E+00
  0.00000000E+00  0.00000000E+00  0.00000000E+00
  0.00000000E+00  0.00000000E+00  0.00000000E+00
  0.00000000E+00  0.00000000E+00  0.00000000E+00
  0.00000000E+00  0.00000000E+00  0.00000000E+00
  0.00000000E+00  0.00000000E+00  0.00000000E+00
  0.00000000E+00  0.00000000E+00  0.00000000E+00
  0.00000000E+00  0.00000000E+00  0.00000000E+00
  0.00000000E+00  0.00000000E+00  0.00000000E+00
  0.00000000E+00  0.00000000E+00  0.00000000E+00
  0.00000000E+00  0.00000000E+00  0.00000000E+00
  0.00000000E+00  0.00000000E+00  0.00000000E+00
  0.00000000E+00  0.00000000E+00  0.00000000E+00
  0.00000000E+00  0.00000000E+00  0.00000000E+00
  0.00000000E+00  0.00000000E+00  0.00000000E+00
  0.00000000E+00  0.00000000E+00  0.00000000E+00
  0.00000000E+00  0.00000000E+00  0.00000000E+00
  0.00000000E+00  0.00000000E+00  0.00000000E+00
  0.00000000E+00  0.00000000E+00  0.00000000E+00
  0.00000000E+00  0.00000000E+00  0.00000000E+00
  0.00000000E+00  0.00000000E+00  0.00000000E+00
  0.00000000E+00  0.00000000E+00  0.00000000E+00
  0.00000000E+00  0.00000000E+00  0.00000000E+00
  0.00000000E+00  0.00000000E+00  0.00000000E+00
  0.00000000E+00  0.00000000E+00  0.00000000E+00
  0.00000000E+00  0.00000000E+00  0.00000000E+00
  0.00000000E+00  0.00000000E+00  0.00000000E+00
  0.00000000E+00  0.00000000E+00  0.00000000E+00
  0.00000000E+00  0.00000000E+00  0.00000000E+00
  0.00000000E+00  0.00000000E+00  0.00000000E+00
  0.00000000E+00  0.00000000E+00  0.00000000E+00
  0.00000000E+00  0.00000000E+00  0.00000000E+00
  0.00000000E+00  0.00000000E+00  0.00000000E+00
  0.00000000E+00  0.00000000E+00  0.00000000E+00
  0.00000000E+00  0.00000000E+00  0.00000000E+00
  0.00000000E+00  0.00000000E+00  0.00000000E+00
  0.00000000E+00  0.00000000E+00  0.00000000E+00
  0.00000000E+00  0.00000000E+00  0.00000000E+00
  0.00000000E+00  0.00000000E+00  0.00000000E+00
  0.00000000E+00  0.00000000E+00  0.00000000E+00
  0.00000000E+00  0.00000000E+00  0.00000000E+00
  0.00000000E+00  0.00000000E+00  0.00000000E+00
  0.00000000E+00  0.00000000E+00  0.00000000E+00
  0.00000000E+00  0.00000000E+00  0.00000000E+00
  0.00000000E+00  0.00000000E+00  0.00000000E+00
  0.00000000E+00  0.00000000E+00  0.00000000E+00
  0.00000000E+00  0.00000000E+00  0.00000000E+00
  0.00000000E+00  0.00000000E+00  0.00000000E+00
  0.00000000E+00  0.00000000E+00  0.00000000E+00
  0.00000000E+00  0.00000000E+00  0.00000000E+00
  0.00000000E+00  0.00000000E+00  0.00000000E+00
  0.00000000E+00  0.00000000E+00  0.00000000E+00
  0.00000000E+00  0.00000000E+00  0.00000000E+00
  0.00000000E+00  0.00000000E+00  0.00000000E+00
  0.00000000E+00  0.00000000E+00  0.00000000E+00
  0.00000000E+00  0.00000000E+00  0.00000000E+00
  0.00000000E+00  0.00000000E+00  0.00000000E+00
  0.00000000E+00  0.00000000E+00  0.00000000E+00
  0.00000000E+00  0.00000000E+00  0.00000000E+00
  0.00000000E+00  0.00000000E+00  0.00000000E+00
  0.00000000E+00  0.00000000E+00  0.00000000E+00
  0.00000000E+00  0.00000000E+00  0.00000000E+00
  0.00000000E+00  0.00000000E+00  0.00000000E+00
  0.00000000E+00  0.00000000E+00  0.00000000E+00
  0.00000000E+00  0.00000000E+00  0.00000000E+00
  0.00000000E+00  0.00000000E+00  0.00000000E+00
  0.00000000E+00  0.00000000E+00  0.00000000E+00
  0.00000000E+00  0.00000000E+00  0.00000000E+00
  0.00000000E+00  0.00000000E+00  0.00000000E+00
  0.00000000E+00  0.00000000E+00  0.00000000E+00
  0.00000000E+00  0.00000000E+00  0.00000000E+00
  0.00000000E+00  0.00000000E+00  0.00000000E+00
  0.00000000E+00  0.00000000E+00  0.00000000E+00
  0.00000000E+00  0.00000000E+00  0.00000000E+00
  0.00000000E+00  0.00000000E+00  0.00000000E+00
  0.00000000E+00  0.00000000E+00  0.00000000E+00
  0.00000000E+00  0.00000000E+00  0.00000000E+00
  0.00000000E+00  0.00000000E+00  0.00000000E+00
  0.00000000E+00  0.00000000E+00  0.00000000E+00
  0.00000000E+00  0.00000000E+00  0.00000000E+00
  0.00000000E+00  0.00000000E+00  0.00000000E+00
  0.00000000E+00  0.00000000E+00  0.00000000E+00
  0.00000000E+00  0.00000000E+00  0.00000000E+00
  0.00000000E+00  0.00000000E+00  0.00000000E+00
  0.00000000E+00  0.00000000E+00  0.00000000E+00
  0.00000000E+00  0.00000000E+00  0.00000000E+00
  0.00000000E+00  0.00000000E+00  0.00000000E+00
  0.00000000E+00  0.00000000E+00  0.00000000E+00
  0.00000000E+00  0.00000000E+00  0.00000000E+00
  0.00000000E+00  0.00000000E+00  0.00000000E+00
  0.00000000E+00  0.00000000E+00  0.00000000E+00
  0.00000000E+00  0.00000000E+00  0.00000000E+00
  0.00000000E+00  0.00000000E+00  0.00000000E+00
  0.00000000E+00  0.00000000E+00  0.00000000E+00
  0.00000000E+00  0.00000000E+00  0.00000000E+00
  0.00000000E+00  0.00000000E+00  0.00000000E+00
  0.00000000E+00  0.00000000E+00  0.00000000E+00
  0.00000000E+00  0.00000000E+00  0.00000000E+00
  0.00000000E+00  0.00000000E+00  0.00000000E+00
  0.00000000E+00  0.00000000E+00  0.00000000E+00
  0.00000000E+00  0.00000000E+00  0.00000000E+00
  0.00000000E+00  0.00000000E+00  0.00000000E+00
  0.00000000E+00  0.00000000E+00  0.00000000E+00
  0.00000000E+00  0.00000000E+00  0.00000000E+00
  0.00000000E+00  0.00000000E+00  0.00000000E+00
  0.00000000E+00  0.00000000E+00  0.00000000E+00
  0.00000000E+00  0.00000000E+00  0.00000000E+00
  0.00000000E+00  0.00000000E+00  0.00000000E+00
  0.00000000E+00  0.00000000E+00  0.00000000E+00
  0.00000000E+00  0.00000000E+00  0.00000000E+00
  0.00000000E+00  0.00000000E+00  0.00000000E+00
  0.00000000E+00  0.00000000E+00  0.00000000E+00
  0.00000000E+00  0.00000000E+00  0.00000000E+00
  0.00000000E+00  0.00000000E+00  0.00000000E+00
  0.00000000E+00  0.00000000E+00  0.00000000E+00
  0.00000000E+00  0.00000000E+00  0.00000000E+00
  0.00000000E+00  0.00000000E+00  0.00000000E+00
  0.00000000E+00  0.00000000E+00  0.00000000E+00
  0.00000000E+00  0.00000000E+00  0.00000000E+00
  0.00000000E+00  0.00000000E+00  0.00000000E+00
  0.00000000E+00  0.00000000E+00  0.00000000E+00
  0.00000000E+00  0.00000000E+00  0.00000000E+00
  0.00000000E+00  0.00000000E+00  0.00000000E+00
  0.00000000E+00  0.00000000E+00  0.00000000E+00
  0.00000000E+00  0.00000000E+00  0.00000000E+00
  0.00000000E+00  0.00000000E+00  0.00000000E+00
  0.00000000E+00  0.00000000E+00  0.00000000E+00
  0.00000000E+00  0.00000000E+00  0.00000000E+00
  0.00000000E+00  0.00000000E+00  0.00000000E+00
  0.00000000E+00  0.00000000E+00  0.00000000E+00
  0.00000000E+00  0.00000000E+00  0.00000000E+00
  0.00000000E+00  0.00000000E+00  0.00000000E+00
  0.00000000E+00  0.00000000E+00  0.00000000E+00
  0.00000000E+00  0.00000000E+00  0.00000000E+00
  0.00000000E+00  0.00000000E+00  0.00000000E+00
  0.00000000E+00  0.00000000E+00  0.00000000E+00
  0.00000000E+00  0.00000000E+00  0.00000000E+00
  0.00000000E+00  0.00000000E+00  0.00000000E+00
  0.00000000E+00  0.00000000E+00  0.00000000E+00
  0.00000000E+00  0.00000000E+00  0.00000000E+00
  0.00000000E+00  0.00000000E+00  0.00000000E+00
  0.00000000E+00  0.00000000E+00  0.00000000E+00
  0.00000000E+00  0.00000000E+00  0.00000000E+00
  0.00000000E+00  0.00000000E+00  0.00000000E+00
  0.00000000E+00  0.00000000E+00  0.00000000E+00
  0.00000000E+00  0.00000000E+00  0.00000000E+00
  0.00000000E+00  0.00000000E+00  0.00000000E+00
  0.00000000E+00  0.00000000E+00  0.00000000E+00
  0.00000000E+00  0.00000000E+00  0.00000000E+00
  0.00000000E+00  0.00000000E+00  0.00000000E+00
  0.00000000E+00  0.00000000E+00  0.00000000E+00
  0.00000000E+00  0.00000000E+00  0.00000000E+00
  0.00000000E+00  0.00000000E+00  0.00000000E+00
  0.00000000E+00  0.00000000E+00  0.00000000E+00
  0.00000000E+00  0.00000000E+00  0.00000000E+00
  0.00000000E+00  0.00000000E+00  0.00000000E+00
  0.00000000E+00  0.00000000E+00  0.00000000E+00
  0.00000000E+00  0.00000000E+00  0.00000000E+00
  0.00000000E+00  0.00000000E+00  0.00000000E+00
  0.00000000E+00  0.00000000E+00  0.00000000E+00
  0.00000000E+00  0.00000000E+00  0.00000000E+00
  0.00000000E+00  0.00000000E+00  0.00000000E+00
  0.00000000E+00  0.00000000E+00  0.00000000E+00
  0.00000000E+00  0.00000000E+00  0.00000000E+00
  0.00000000E+00  0.00000000E+00  0.00000000E+00
  0.00000000E+00  0.00000000E+00  0.00000000E+00
  0.00000000E+00  0.00000000E+00  0.00000000E+00
  0.00000000E+00  0.00000000E+00  0.00000000E+00
  0.00000000E+00  0.00000000E+00  0.00000000E+00
  0.00000000E+00  0.00000000E+00  0.00000000E+00
  0.00000000E+00  0.00000000E+00  0.00000000E+00
  0.00000000E+00  0.00000000E+00  0.00000000E+00
  0.00000000E+00  0.00000000E+00  0.00000000E+00
  0.00000000E+00  0.00000000E+00  0.00000000E+00
  0.00000000E+00  0.00000000E+00  0.00000000E+00
  0.00000000E+00  0.00000000E+00  0.00000000E+00
  0.00000000E+00  0.00000000E+00  0.00000000E+00
  0.00000000E+00  0.00000000E+00  0.00000000E+00
  0.00000000E+00  0.00000000E+00  0.00000000E+00
  0.00000000E+00  0.00000000E+00  0.00000000E+00
  0.00000000E+00  0.00000000E+00  0.00000000E+00
  0.00000000E+00  0.00000000E+00  0.00000000E+00
  0.00000000E+00  0.00000000E+00  0.00000000E+00
  0.00000000E+00  0.00000000E+00  0.00000000E+00
  0.00000000E+00  0.00000000E+00  0.00000000E+00
  0.00000000E+00  0.00000000E+00  0.00000000E+00
  0.00000000E+00  0.00000000E+00  0.00000000E+00
  0.00000000E+00  0.00000000E+00  0.00000000E+00