POSCAR file written by OVITO Basic 3.10.4
1
22.3638 0.0 0.0
0.0 22.3638 0.0
0.0 0.0 22.3638
Sb Te 
200 100 
Direct
0.2165508545 0.8819073682 0.945031703
0.451180032 0.7891860954 0.2504802404
0.5275221563 0.9827310207 0.0891977213
0.0181393591 0.5865148141 0.8882479722
0.6431643996 0.0523792915 0.0752832703
0.896752788 0.4071401104 0.1686707983
0.421426144 0.6274783355 0.8614591438
0.570242982 0.6282787362 0.6525009167
0.7185138483 0.4689632352 0.8519214087
0.8534059507 0.702555022 0.6955213336
0.3201186739 0.0242858995 0.7038204599
0.7427628578 0.1547755748 0.9490381778
0.030958558 0.1137472165 0.3250802636
0.162512632 0.6055276831 0.6586626602
0.8953129611 0.2115083304 0.6644040816
0.7179772668 0.2370370867 0.1357895349
0.0463490105 0.9101360234 0.2282295495
0.0956147882 0.613317057 0.1823589909
0.2065467407 0.7990815514 0.5904586877
0.5337062574 0.6520895376 0.1365277815
0.3471306308 0.0432169846 0.096767544
0.2024888436 0.6834571942 0.4747180712
0.0914151441 0.0669801197 0.0541468802
0.3234875111 0.481720459 0.2484922062
0.6679678767 0.108375142 0.4900195852
0.5564573105 0.9436813064 0.7205975729
0.9492706964 0.8547831764 0.8994178091
0.1892786557 0.323957467 0.1899118218
0.5825172824 0.0563531242 0.7772426868
0.5158380955 0.8606453286 0.8227313784
0.7492644363 0.3796604334 0.2653095628
0.9257460718 0.2629664905 0.2901523891
0.5491598029 0.8792870621 0.3413686404
0.3643083912 0.8771139073 0.5905168174
0.4465922607 0.0251665191 0.5238331589
0.8406621415 0.9358025023 0.3014375911
0.1667914219 0.3290836083 0.3906335238
0.7995018736 0.8031550989 0.0997495953
0.7057074379 0.282240943 0.4598905374
0.7252077017 0.748405906 0.9255895689
0.5856294547 0.9594791583 0.4453035709
0.4518865309 0.5029556694 0.8839240201
0.3426465985 0.2971315251 0.7233296667
0.1243988052 0.4392630054 0.9646079825
0.3533348536 0.629132795 0.5988830163
0.5308981479 0.5953326358 0.2764758225
0.3790594622 0.9139591662 0.1101807385
0.9950723938 0.2475514 0.1203324122
0.2086733918 0.2488025291 0.5114381277
0.8522344145 0.143277976 0.3661296381
0.8726334523 0.039136551 0.7242731557
0.1214095994 0.4926354197 0.7884885395
0.5996297588 0.3040981407 0.9319078153
0.7480347705 0.1660531752 0.7817454994
0.9003523551 0.2788823903 0.5327135818
0.8006510521 0.3012010481 0.844936907
0.0808064819 0.6343197489 0.3253700176
0.0270068146 0.653945215 0.4706758243
0.2451166617 0.1770074853 0.0656337474
0.8621298706 0.2685317343 0.0282104115
0.0663666282 0.5215392733 0.3876013915
0.0462873036 0.4286874324 0.2845553976
0.0356109874 0.2909805132 0.5529114015
0.8529498565 0.5853253919 0.6079333566
0.6356701455 0.8837541026 0.8645131865
0.318421288 0.5021686833 0.779549987
0.2393197936 0.184710559 0.2146777381
0.61646053 0.8547518758 0.9819574491
0.914656722 0.5919387582 0.4226969477
0.7356889259 0.6585329863 0.7578094957
0.4382184602 0.9779375598 0.646652179
0.586470099 0.4341252381 0.9842647493
0.3232769029 0.2224465431 0.4516808414
0.7272243536 0.9250485159 0.1221192284
0.0139755766 0.5661426055 0.6519956358
0.7511648289 0.0244572479 0.4306495318
0.7187597814 0.6148463141 0.3186627496
0.3429157835 0.7068789741 0.4830797986
0.6882730126 0.6609699604 0.6391042667
0.3409286436 0.9463820996 0.8120399932
0.5023430723 0.1478925764 0.5189144957
0.2196831487 0.4736538513 0.8759021275
0.6105357766 0.1322150082 0.9621128788
0.0133175936 0.9642905052 0.7508160509
0.3577795366 0.7787003998 0.8949284111
0.6758064372 0.0456085281 0.3246527871
0.1843975532 0.2075729527 0.7300324632
0.2887899194 0.8865487976 0.2632388056
0.7144671299 0.683935646 0.2084073369
0.6137999803 0.0098319159 0.5941655711
0.1275986192 0.1336324775 0.8669099169
0.4171983294 0.4125810462 0.1119527987
0.4319243599 0.186922616 0.2434832184
0.254554235 0.0338743416 0.9464581153
0.3718245558 0.817933446 0.4255511139
0.8784866615 0.1565981631 0.782894678
0.0699626182 0.2440193527 0.9535544049
0.5626414116 0.825365099 0.6204670047
0.4789838936 0.2011518615 0.8334853647
0.1086894893 0.1975563187 0.0653690339
0.6078618124 0.6499029682 0.3752559941
0.5019361647 0.7926738747 0.4290210072
0.5951269462 0.3115686958 0.2709821229
0.6814002987 0.3528116867 0.7947575993
0.1900003577 0.0155020614 0.3139180282
0.2671263381 0.212488933 0.629159624
0.4966105939 0.8170749157 0.0707572058
0.9891565834 0.0311464062 0.9054096352
0.9415662812 0.8733086506 0.6864575788
0.3898425133 0.3756217637 0.3020153105
0.8774358562 0.3555299189 0.432841467
0.8277439433 0.6741609208 0.476350173
0.6161922392 0.0076511147 0.8944097157
0.5144116832 0.7061456461 0.5665808136
0.2683631583 0.7250333128 0.182365251
0.4306991656 0.5158291525 0.1827292321
0.2461513696 0.5787746269 0.0665969111
0.0791895832 0.9520832774 0.6462810435
0.2293143384 0.0583706705 0.7994974021
0.2670199161 0.7081220544 0.0487596026
0.5980066 0.5211413087 0.7329613035
0.139516093 0.7480258275 0.229464134
0.2942648387 0.4016781585 0.14563804
0.4617059713 0.5662633363 0.0464929931
0.0592461925 0.7908405548 0.538200127
0.4133886012 0.7245414464 0.1381482575
0.9179701124 0.3966369758 0.6175247498
0.1872333861 0.1447316646 0.3336807698
0.7716935405 0.3908231159 0.5082409966
0.6536769243 0.5848558832 0.1358606319
0.0146252873 0.7317584668 0.7906214507
0.3590069666 0.6589622515 0.362988848
0.6833141058 0.8566209678 0.5873644014
0.603622819 0.8480982659 0.1411227072
0.7022286016 0.9088929431 0.4728623937
0.5487215947 0.7082875003 0.017420653
0.2817696456 0.1034327798 0.4139855481
0.8887174809 0.0054632934 0.0167961617
0.2047143151 0.5259437126 0.4001578444
0.7378665522 0.3453254814 0.6784133287
0.2722551624 0.0492112253 0.2187955535
0.6112691045 0.7535347302 0.2393524356
0.0292501274 0.2466745365 0.3835604861
0.2189896171 0.6070792978 0.9143213586
0.4946431286 0.968489255 0.9086157093
0.8245468123 0.5371493217 0.0803405504
0.7593834679 0.2162128082 0.6609565458
0.0296577505 0.1271255332 0.5728096298
0.715813055 0.4481304608 0.9830932131
0.7875852941 0.8792691761 0.7775199206
0.023048811 0.917084753 0.5338851179
0.5496874413 0.5532422933 0.9534605031
0.1708171241 0.123271537 0.4928455808
0.9154347651 0.8651928563 0.1313846484
0.9753038392 0.1133166099 0.0107408848
0.2566191792 0.1632575859 0.9281204446
0.5569715344 0.9445443082 0.2114041442
0.1153314732 0.0338789919 0.930298071
0.4227090208 0.280032016 0.9887720334
0.2093593218 0.9499503662 0.5611926417
0.8293894598 0.9156538692 0.6549647198
0.5444647153 0.1261838328 0.6400119837
0.9013763314 0.7786914567 0.5086926193
0.7296389701 0.5420053837 0.5898952772
0.3380172422 0.7757223728 0.2954819843
0.5062645883 0.5000044715 0.3682553949
0.6997245549 0.1992894767 0.2608850017
0.7157370393 0.5687092533 0.0105081426
0.9261663939 0.1413239253 0.2574280757
0.613875996 0.2318313525 0.6818161493
0.1308431483 0.4118463767 0.1098677327
0.9832184155 0.769663474 0.2607159785
0.1010248705 0.1535620065 0.2181011277
0.3512931613 0.3932806589 0.4749327037
0.5535418847 0.6994920362 0.76332287
0.2315187938 0.0791368193 0.5999204071
0.1470881514 0.8130460834 0.4348912081
0.2595690357 0.9030799775 0.6704629804
0.2150604996 0.3370420054 0.7188715692
0.9961679142 0.9788586913 0.3532396104
0.6442643916 0.3994956134 0.5912948604
0.1600640321 0.8548815496 0.2986062297
0.6409375866 0.4092828589 0.3602004132
0.9888659351 0.7455128377 0.1257872097
0.5980110715 0.5537341597 0.4594657437
0.9192266073 0.9962394584 0.4572478738
0.145572756 0.7331446355 0.0017810479
0.503921516 0.4229241006 0.2604526064
0.8942934564 0.7989965927 0.7822999669
0.8840313364 0.6859746555 0.9893846305
0.7394941826 0.0391179048 0.7464116116
0.0381907368 0.3416409555 0.0367599871
0.2970885985 0.6283234513 0.8180586484
0.0484939948 0.5358078681 0.5258498109
0.1728221501 0.3249961992 0.9137355906
0.0169180998 0.1075295791 0.8051449217
0.4815058264 0.46738032 0.569151933
0.6683658412 0.8245736413 0.3434948443
0.9527584758 0.6695642064 0.5965444155
0.424824046 0.1311892433 0.689909586
0.2615020703 0.6942871963 0.6737629562
0.1265970005 0.6221214642 0.8272073619
0.3870554199 0.8424283887 0.7735000313
0.7752170919 0.0874717177 0.263408723
0.1158796806 0.0156315564 0.1997867089
0.0969195754 0.9805220937 0.4543011474
0.6281445908 0.49778213 0.2617641009
0.3167435767 0.1821260251 0.7730484086
0.4007521083 0.1673105644 0.948175176
0.3942934564 0.4683998247 0.9908199859
0.912420966 0.2578792513 0.9149697279
0.8106627675 0.2626221841 0.3646732666
0.0449744677 0.3742110017 0.430567256
0.0241921766 0.4504780046 0.8802394942
0.3674925549 0.0935967948 0.3079490069
0.7714565503 0.1946645919 0.5205465976
0.3465113263 0.8846260475 0.9567381214
0.4568230802 0.0553036604 0.8195566049
0.7891771524 0.6343957646 0.9101002513
0.3709333834 0.2944374391 0.1949869879
0.0308376483 0.7791699085 0.4022880727
0.2921882685 0.2856160402 0.3417862796
0.3853401479 0.145856697 0.5688031551
0.3341954408 0.9614287375 0.4999597564
0.0948269078 0.8116822722 0.1276406514
0.6260429802 0.602138277 0.8252711972
0.8536876559 0.977825772 0.1502097139
0.1071919799 0.8215777283 0.6651508241
0.5061438575 0.8898487735 0.5214587861
0.7355055939 0.2830078073 0.9831155707
0.9463820996 0.6257568034 0.7806902226
0.6032740411 0.1886432538 0.8343304805
0.8831772776 0.3279724376 0.7324694372
0.7741841726 0.1136810381 0.0659118754
0.4172358901 0.7293170213 0.6404859639
0.1348335256 0.0751258731 0.6776889437
0.6570797449 0.7672712151 0.7379738685
0.8870048918 0.3941069943 0.0382560209
0.2889669913 0.3534739177 0.8274041084
0.0370060544 0.2074441732 0.6694434756
0.8318577344 0.8074343358 0.9758225346
0.2675059695 0.8541079781 0.1349591751
0.6089081462 0.2800986416 0.5568016169
0.6803092498 0.729951976 0.0415108792
0.4303025425 0.9145762348 0.2265558626
0.1083858736 0.3554565861 0.7898165786
0.6498001234 0.7774617909 0.4897065794
0.2039926131 0.9313354618 0.8111546338
0.4683506381 0.0865286758 0.1324493154
0.5585544496 0.4766721219 0.1022438047
0.8007538969 0.7927767195 0.6069138518
0.6261011098 0.1740969782 0.3880302095
0.4313014783 0.5634149831 0.747498189
0.0413596079 0.3999311387 0.6194698575
0.1969459573 0.5709271233 0.532244073
0.8637888015 0.819234656 0.2462899865
0.9887586188 0.9277269516 0.0206730967
0.2387662204 0.3059931675 0.03625019
0.730694247 0.49180819 0.7044822436
0.4638388825 0.2521199438 0.3434344789
0.7156744382 0.4890626817 0.4342209285
0.95918851 0.1765102532 0.4607043526
0.8395889786 0.4208864325 0.8697672131
0.6664117905 0.358431483 0.1706534668
0.9584954256 0.6416172565 0.2796470188
0.5645999338 0.3974463195 0.6946449172
0.6036183475 0.1497464653 0.1945769502
0.9162619948 0.5579999821 0.9783355244
0.8325642333 0.2898322289 0.1801630313
0.3948859317 0.6781808101 0.9985199295
0.2243196594 0.5922472925 0.1950218657
0.0385116125 0.4838265411 0.1693361593
0.7369811928 0.0421149805 0.6209991146
0.7009184486 0.9517255565 0.0013232054
0.2154370009 0.7593432243 0.8909085218
0.7936128923 0.4834285765 0.210359599
0.1148619644 0.6167064631 0.0474990833
0.2226249564 0.6511997067 0.3495756535
0.1714203311 0.4186086443 0.2875964729
0.4778883732 0.2477705041 0.7027115249
0.0644344879 0.8843711713 0.8330829287
0.4714404529 0.3252318479 0.880351282
0.3604002898 0.4874708234 0.3914008353
0.5539353777 0.2474288806 0.0313574169
0.0197962779 0.7200475769 0.9226160134
0.9119782863 0.4996020354 0.5139868895
0.9068584051 0.4951215804 0.6972383942
0.862849784 0.9460556793 0.8552839857
0.8545551293 0.8784285318 0.4242467738
0.0607369946 0.2924015597 0.2250418086
0.7079431939 0.92994035 0.2654347651
0.8354394155 0.6780779653 0.1071383218
0.2314772087 0.5024682746 0.6916490042
0.3559784115 0.4639283127 0.5933115124
0.4707697261 0.5805364026 0.5014129978
0.2222368292 0.0107779089 0.0693656713
0.7933580161 0.7213666729 0.3584753038
0.9098990333 0.0819180998 0.6069272664
0.2126203955 0.4100050081 0.479869253
0.491790304 0.3839772311 0.4772891906
