GeSe                                    
   1.00000000000000     
    20.1278870000000012    0.0000000000000000    0.0000000000000000
     0.0000000000000000   20.1278870000000012    0.0000000000000000
     0.0000000000000000    0.0000000000000000   20.1278870000000012
   Ge   Se
   150   150
Direct
  0.5135733122266282  0.3743884275427920  0.6611542285188020
  0.8036910414099331  0.4808724283364548  0.5326347295981851
  0.6512277323653209  0.4659159601163479  0.0658084889663382
  0.7411072590431202  0.8894161608643635  0.6658436755189707
  0.4499826293236353  0.6809009046068822  0.7904521806204863
  0.8320566228009318  0.1112317252069846  0.3715012028618075
  0.1789418472698257  0.3162295322741771  0.9093319947964993
  0.7620031163740376  0.6095723152304567  0.3695046794251465
  0.5093239601704032  0.5339916154899104  0.2126555985145522
  0.5943086676478413  0.2574199637301430  0.0241023689584138
  0.6894489362827014  0.0322268130015350  0.5165741551577772
  0.1444987777568283  0.4064232561271091 -0.0025860457562309
  0.0854407095897179  0.7450945908769877  0.5360273222381953
  0.6938868910839551  0.8539333414365345  0.0259881760879285
  0.5100925407908249  0.0675130591727309  0.3384094665854257
  0.2978187417424676  0.1906794033832548  0.2129803541675504
  0.6443021505091424  0.9785050288429749  0.2159334086310438
  0.1518443527081969  0.7908684262606902  0.1123309527090239
  0.6768253913826042  0.1768274618498808  0.2414471068723426
  0.8806400799448489  0.4145831128470890  0.7067195725601181
  0.7684074264659309  0.7438666144988888  0.2680239155970093
  0.7938238478049741  0.5796183891526974  0.9416282564641315
  0.2158786256082822  0.3303905919325403  0.1602524860099083
  0.4560677407952403  0.8091134674670720  0.6107805485771680
  0.5022985357884172  0.7048514562777513  0.0657373854183476
  0.6597986888288534  0.5598412635107217  0.6311650377454018
  0.0697001436913116  0.2968841808612888  0.5024161023737476
  0.4890306500037779  0.2429739081874132  0.7935639411433805
  0.7223221334296597  0.5107230306600657  0.7831841261669965
  0.1640612536466612  0.1354800964030914  0.3792107084183437
  0.9304531985174579  0.8135767334845403  0.3123965531614111
  0.0279547053113564  0.0715146918020798  0.6953224780067971
  0.4928669526098832  0.5137964808983230  0.3931331886231787
  0.5876302841224043  0.3462316632114711  0.2566440714155460
  0.9195354776929178  0.2201064881748683  0.5369927872833479
  0.6435973097265114  0.5102788612704880  0.4775796817207358
  0.0310953405492671  0.7304781083408404  0.0014184505647799
  0.0301736893007513  0.9559104205510844  0.5415323644205281
  0.3634965649466007  0.2440265207526974  0.9185268560928211
  0.3398291581697028  0.7355006464232517  0.9906187939137608
  0.5143400003152617  0.6703196807932393  0.5777233986592191
  0.5197053360601189  0.9575437935507629  0.9919062177158647
  0.7905579187168214  0.9878625515256814  0.2274230200160896
  0.8758323962824420  0.5287460106463134  0.3685359266496889
  0.8364753471974785  0.7754971856747420  0.0777803229162584
  0.1018516340348051  0.1532742791186908  0.6157519654365999
  0.9593082827889132  0.4333279328609235  0.1680934117548176
  0.5800988521777857  0.4045886532511738  0.8666961823650806
  0.5254126745708935  0.4538525815773123  0.0426688995545689
  0.4311536583801741  0.0071911370663687  0.7371365781760271
  0.5841745576832014  0.2134704716332465  0.8755143835890068
  0.7832632970861559  0.2907616615394463  0.0489395983196688
  0.0243508771059972  0.9049549831406540  0.3764564044739281
  0.7017281113122823  0.3289611474744147  0.7160565024266772
  0.1039850474869872  0.5961430539936254  0.8581552641995809
  0.1134937844130813  0.8669107945578011  0.5290808509567273
  0.6619860211739822  0.0376279740179740  0.0580380425334771
  0.4930013938723545  0.1747235760363626  0.1870194679446594
  0.2746559219833129  0.1979723815361426  0.0711603695338894
  0.2607858296102251  0.0318630633574843  0.6855215072104204
  0.3882628486880170  0.3126322989684858  0.5510626274455316
  0.7767699909330701  0.0903028052453930  0.0376802239260472
  0.2276876084987491  0.7558745177186763  0.9282393886998110
  0.1581383912127306  0.6583003125094761  0.3078162295062386
  0.1926780023489541  0.6126722990352019  0.5891338020708864
  0.3455644166353581  0.5846062287858126  0.2826724672184453
  0.9946035492747617  0.5732220762800072  0.9668404303527180
  0.3983480836384937  0.0651683704114759  0.0079815178163594
  0.8364784448422802  0.9214521705089797  0.9484087051065927
  0.2750151726871037  0.7974775795282649  0.4899995903117260
  0.1409076819540505  0.4990701116427702  0.2483924846265134
  0.3273533632631067  0.6476481554378690  0.6473636673707968
  0.1002414838394129  0.1044680375176178  0.8663683030951002
  0.3292031831690760  0.8661281999678253  0.0940135606137905
  0.0231080774779734  0.8011675094121575  0.1282290312014057
  0.2987877184406371  0.8140675108226425  0.8366816300410346
  0.9245362101055336  0.0298526181519193  0.8572345512829507
  0.6611966744882211  0.1996661297437385  0.4289154742734691
  0.7586785592017486  0.1458699045480249  0.7991637815188500
  0.6496303787337390  0.6757624781475691  0.3610657916597094
  0.3257639622272621  0.9298028030322915  0.9359519690081120
  0.9719259432901554  0.1988224777658370  0.2415921061678145
  0.9527004164644379  0.3987307675222725  0.5899735700131749
  0.8455737959976083  0.7077455949126334  0.6971909783980164
  0.6468282570676633  0.7049520244516262  0.9286334249402999
  0.8807032280611967 -0.0154238312777337  0.4210900449747045
  0.1273917108286338  0.8365918985886076  0.8773970502612108
  0.7676075627157998  0.8101422133820290  0.5684700565340703
  0.4529414652731150  0.7146030561173312  0.4347930850189460
  0.4013775340833021  0.3632972179528792  0.1543724541276094
  0.2449311127371417  0.2893188017769260  0.5680274638260594
  0.2666138112604733  0.1009345094361986  0.5388784462752044
  0.8482948618937207  0.2721365047354969  0.8366630304218041
  0.6103680811808070  0.5892530539310077  0.8553909166161622
  0.2695148612360244  0.6250104943358259  0.8507333859131055
  0.1870689650978336  0.0444300665492290  0.9827352944647723
  0.0946782993016645  0.8974364621563743  0.2557716421484170
  0.4823487866034853  0.7206991627170861  0.2994846459790680
  0.5848114096962191  0.9162080737211870  0.4830199897301422
  0.8116194806272302  0.6685701202477254  0.8456459191768874
  0.2209101997444454  0.8408798172436021  0.0214292970071349
  0.3823527498209230  0.5413834793267067  0.9644428407276180
  0.2477215279788512  0.3063620433870719  0.7956337994121602
  0.8445191142883345  0.1588842276322249  0.6266943934033541
  0.0544604093498822  0.5338764957755885  0.4196282211026370
  0.3664324946799238  0.9268602141907979  0.4665652307330960
  0.9501901699396074  0.4083010428346882  0.9258140156096832
  0.0712714294516107  0.0513436770209413  0.4639742617904178
  0.6843862591373493  0.7184522578252241  0.5520368567140939
  0.4260497850396367  0.1562196479628321  0.6051160563222270
  0.1442249861884535  0.2728611507327755  0.2687754657549195
  0.0285338637343578  0.7043244440721469  0.8203058997929836
  0.2501657461799031  0.0026242817149632  0.2681069677123118
  0.2024626855245752  0.6757202551685101  0.1485497647819237
  0.2752617549253388  0.4369731709894213  0.8630750923937625
  0.0239448028166180  0.3965672033371064  0.8186849248059864
  0.3831673857567810  0.0582375966829096  0.3556696858375680
  0.4016969826655394  0.3699170807358964  0.9291396758749075
  0.8895011318335114  0.6382503128979762  0.2779731970872962
  0.0026606083502757  0.8082197066538284  0.6827694695869614
  0.8110231773661604  0.1652140958929330  0.1969051427348416
  0.4956816651315348  0.8838122299824437  0.3242240375534143
  0.3584446407253267  0.3021332353252836  0.3683203672372938
  0.9066496546813643  0.0895765722305775  0.0793636321368279
  0.0203527806181593  0.3484066253063267  0.3316338253095789
  0.1175449833053172  0.3794499173987451  0.7121981114430180
  0.9592996459551102  0.5319290847784092  0.6411270120691065
  0.0992261654020182  0.7433752322509036  0.3813034021139540
  0.7622619360936084  0.0621332693719240  0.6175712125794238
  0.0329231470271648  0.0594813348508907  0.9695443652539094
  0.6822272077996940  0.6677571374118246  0.0446949800853971
  0.0991173285529297  0.1804899497772103  0.1779031720175261
  0.6616299940859551  0.8494220561743903  0.3984661761352432
  0.8802340729770534  0.3287167653826551  0.4418383461861036
  0.7471474344090281  0.8591489070430000  0.8425318856044977
 -0.0052786661828537  0.6468020975410966  0.5299346013972830
  0.0456881340698346  0.2151233117848408  0.8096544091499295
  0.5670957656424986  0.8544071908484238  0.7071038316627865
  0.5342888390371148  0.8645583830930411  0.8632153959544308
  0.1260308046387013 -0.0043601663888654  0.1233218975676091
  0.2816204496296068  0.9689471345014983  0.8045034117567280
  0.6537766058983554  0.0166362102998284  0.8690198759206805
  0.8807321407391043  0.3765548720567685  0.2921925045859229
  0.2617314916539762  0.5245300145403493  0.2080977743480840
  0.3152239962201569  0.6196807891811827  0.4048629750328940
  0.7317052494995925  0.3414587963723056  0.1786080400686124
  0.8726204205198104  0.9852619324824038  0.7260595355406583
  0.5861106405845907  0.3617034095014925  0.5493738178696345
  0.5355092842514348  0.0308915708798696  0.4561294309181798
  0.1994936890209336  0.4560842672304526  0.4913947424631589
  0.6320436556254920  0.1240515078302611  0.8028454900009456
  0.6183674437056637  0.0878207951434575  0.1600604914703433
  0.1448446384179226  0.9101471466138052  0.4203924139009104
  0.8316140202675093  0.9602145308246417  0.6052677580313632
  0.6228252274504993  0.9490144669022066  0.5916510703696195
  0.4272707255435764  0.4745291884225643  0.3005532940848597
  0.0008967666463862  0.2828241583709513  0.6119895488012808
 -0.0097078774495242  0.3915484450034579  0.4665617620553582
  0.4226290129480084  0.0100405315784978  0.9044584021457930
  0.0250304635749180  0.4274277039239863  0.0208264626652751
  0.1581888542997081  0.4297262552608352  0.1161743303530085
  0.0108973651542092  0.6551134610260740  0.4007467848659316
  0.2911587092402079  0.3596329127811363  0.4749224902522993
  0.4654473973511574  0.2883451931316891  0.4460291481881863
  0.8713156060664863  0.7489846005611280  0.5815693982110015
  0.5853423792202372  0.0670219219803360  0.9653339906727191
  0.7688366542924570  0.6181586549870342  0.2409161141482011
 -0.0035373469204360  0.1177038777058984  0.5472523087383132
  0.0158178302931277  0.8299175256516466  0.8093407832009375
  0.7295568889368899  0.6097565942127188  0.5254060954410302
  0.0073812300667834  0.3191893902481646  0.2036598441961366
  0.8059162196509839  0.4282865153550289  0.3844816676287973
  0.4863380304372140  0.3374005317705485  0.0201180567939978
  0.1457133845657212  0.0678843160965131  0.2316746903396055
  0.3829884903683473  0.8914986122204253  0.6790252702876071
  0.3397604997787036  0.7459266370788860  0.3870191690177826
  0.5546857087988812  0.5491075145688744  0.5640355684117183
  0.5861935702122607  0.2585182163726905  0.1590371186712264
  0.9110892336897359  0.1133658429443273  0.7226400304199699
  0.4631265532110782  0.0109844738869257  0.0895350286482860
  0.1459666728278772  0.2581924109361370  0.7342407106834884
  0.2949013879722528  0.0100870400037425  0.0406664353466403
  0.4241433908946230  0.5834547225719925  0.4640736658029296
  0.3781875264219647  0.9321024407423556  0.3392629453892320
  0.5978499494511772  0.4861560442402720  0.7672711362090291
  0.8273321795512040  0.8288188043300437  0.7480332355112517
  0.8313189041495677  0.4267061034251726  0.1883569458914930
  0.5445947430297801  0.9619866593103998  0.7760902909685912
  0.8899468959050008  0.2107962615219573  0.1112291346790751
  0.6605160336758796  0.3020654951927770  0.8338337393101423
  0.9729728923727099  0.4756433613836786  0.2921408603516061
  0.4361980948317360  0.4998339550319104  0.1114844631155255
  0.8822526037211478  0.3099010032526617  0.9501774292605214
  0.1017242920216735  0.6196108527889184  0.2074748153376682
  0.4175083259180407  0.4181498035223115  0.6022362550264818
  0.9505621906512933  0.8854845800929699  0.4811672937530759
  0.2618440173907797  0.6961923761206715  0.2540437239345743
  0.6719829241450718  0.3544718885501502  0.0076933456951393
  0.0655057995533415  0.2757046570054295  0.9147078130041558
  0.6123804802527284  0.7082032413685940  0.6473511991140433
  0.8562540646930951  0.2202019346285085  0.3018945091208230
  0.3590222416804832  0.7376883666779087  0.5651256145769604
  0.4042734618534674  0.8453154316010050  0.9867977714205427
  0.8399054219127750  0.7103329005854343  0.3724868365850212
  0.7760404992907880  0.1627567327710387  0.4688884248891983
  0.3844105443822631  0.1981902774798469  0.4304832034182797
  0.4523951477486868  0.8169846863421308  0.2310820946845352
  0.1996557847794752  0.8535444764358241  0.6165363124738766
  0.0470756383984917  0.0120338282546121  0.8053851593323179
  0.0230385755674517  0.9267154169982202  0.1544860245180835
  0.7803776577144904  0.0353301931449814  0.9260795868070292
  0.0501401183597030  0.2168507293012900  0.3473202548294210
  0.2621494564781406  0.0474631769340023  0.3908876190807478
  0.4617230441072188  0.8076566377793624  0.7716576729478459
  0.7306674223823970  0.0671356126713194  0.3098930262765456
  0.1432956137417267  0.3753358030362197  0.3364896366582810
  0.1902907484006583  0.6993960222242576  0.4859457801368208
  0.4648100204081024  0.3628943936820753  0.8178197400442070
  0.7690325848734700  0.8593678017512363  0.4588028758826860
  0.1393060098837041  0.9235865237110190  0.9758256180252817
  0.7007427914842086  0.3083595294551272  0.2968957635674376
  0.9556763806406556  0.3024804194006847  0.7713540966851169
  0.4482369920339731  0.6196294732492243  0.6753553965622333
  0.4308480507386129  0.6622327711343633  0.9557136802825588
  0.5532698567458313  0.4129338335906734  0.4340060911997476
  0.6089570204366628  0.7463195367395404  0.4563308371988542
  0.7263593358243003  0.1929042704535154  0.9937320634316902
  0.4348501794278426  0.6398253548736037  0.2153031060810592
  0.7933421958674406  0.3802132357088481  0.7920347032209180
  0.4983593214485769  0.2469516754571451  0.6701746955495432
  0.4955740792760082  0.0713810336669912  0.6597098897100678
  0.1458356034266357  0.6681335696950027  0.9591633765345289
  0.3106701696916096  0.9544303856379118  0.6021989375745300
  0.2439485869018810  0.2208024476634137  0.3249966178647111
  0.8846187039993374  0.5028656556478341 -0.0205533910201706
  0.3059666489781640  0.4112472961543380  0.2259037947325422
  0.5730092243820979  0.7821654574029562  0.9911451714247795
  0.8395401746641348  0.3572721818811844  0.5599205217746004
  0.2452061209136304  0.2141211384278851  0.9409515166424173
  0.2349764681944821  0.4186207388785630  0.7397062260933135
  0.5187779800494039  0.9844207422792086  0.2502505708149770
  0.3256057443111935  0.7070378992027416  0.7684942920905186
  0.1859020427330149  0.1932966034477874  0.5027913038614128
  0.4182462120576407  0.1823705989037621  0.0125528961683184
  0.4991588155939393  0.5048412420886641  0.9354970288466559
  0.3339049596411897  0.7411375963133369  0.1100976638348496
  0.6763411961235432  0.2895532575800941  0.5132030427946677
  0.9131969077341748  0.5402613114595296  0.4846030035882576
  0.5857566036727513  0.6156719293651801  0.0953716236480283
  0.9511052801576270  0.1361733548673716  0.9192180062419435
  0.2245461058729336  0.0626736596898294  0.8629127757036633
  0.0460865697703799  0.7803266538938800  0.2560196296315405
  0.2007606388544450  0.8720611907297603  0.7815136002567149
  0.1871346283549626  0.4994243256842129  0.9260796163688095
  0.7839105230802476  0.6044592526102341  0.0601617030826386
  0.0018803571619655  0.9558803114506030  0.6588511807096943
  0.1441589155426281  0.3730995183801938  0.5779207985485557
  0.6956933428319475  0.5089800204517648  0.9127887663340792
  0.6333570168174535  0.8056110819049402  0.8061261913551816
  0.3849732165914477  0.1847376604145686  0.8158175507724719
  0.3556168959965654  0.5315124507542582  0.8352005970932090
  0.4018792059065960  0.2560915488967458  0.2372527439240485
  0.9475321050560279  0.6884458145055694  0.9130986004169038
  0.5490620819803841  0.1734971080275512  0.3031931083883785
  0.3471674775279379  0.0766529219039919  0.2299868048378436
  0.0872653093652728  0.5529840908229801  0.5445064411611721
  0.5957114673977669  0.5644404669876135  0.3521042950316693
  0.2566697892416893  0.5803609639347873  0.0981073645682446
  0.3047520003108199  0.1452991999146419  0.6561092491398990
  0.1243489693136011  0.7623934276816171  0.6552829940737114
  0.0414597945369508  0.0922158480320205  0.0882904157080039
 -0.0080035848302218  0.0276312894062794  0.3705264145619994
  0.2010451044709635  0.8709225395818733  0.1911354947629214
  0.1738715068938523  0.5504581196755073  0.3650592652414718
  0.7646084052890151  0.7595487666044600  0.9226807998064708
  0.9559004700541592  0.4950261567406425  0.7669080969693516
  0.6004501987937905  0.7377148928329403  0.2714372854285063
  0.6799087540453981  0.4387669824545313  0.5885570396309954
  0.9731877243868238  0.6834609828805243  0.7089422964568142
  0.1840496955109587  0.6023120768964626  0.7660262373496610
  0.1668360861977897  0.0408278364177913  0.6006930423268018
  0.8514100250997758  0.9179819647795091  0.3151816571150811
  0.8113525480841729  0.9041145477816821  0.0703189210746800
  0.2745010352541423  0.5274455285134135  0.5574961693224363
  0.4191323727766544  0.0407198966130870  0.4893936031935900
  0.4718124171320413  0.8582986528528755  0.4931561137407645
  0.3079407353300335  0.3210179238737880  0.0737043627945718
  0.8876095051784206  0.0651459835393310  0.2049922964909841
  0.9604165104629864  0.9544385697233788  0.9542509477404048
  0.9961627147174568  0.6379528176719366  0.0728743404616490
  0.7479797151549644  0.2103627102971893  0.6887465743330491
  0.7135293171278907  0.7666556396219224  0.1150652605351836
  0.7046257080379298  0.6397232521304951  0.7837955081821552
  0.6511578673050078  0.4375983195103638  0.1909016286252037
  0.6166890204917157  0.9274577845836065  0.0963318292111557
  0.8786018112276728  0.7627131173126672  0.2032299057370507
  0.7494096867392624  0.0308552344296183  0.7384865849003118
  0.5950489530007231  0.1195564837260696  0.5143892983371675
  0.8332621324291136  0.5222675712268070  0.6525546562378810
  0.1539955069062997  0.2375662775253080  0.0846087316999021
 
  0.00000000E+00  0.00000000E+00  0.00000000E+00
  0.00000000E+00  0.00000000E+00  0.00000000E+00
  0.00000000E+00  0.00000000E+00  0.00000000E+00
  0.00000000E+00  0.00000000E+00  0.00000000E+00
  0.00000000E+00  0.00000000E+00  0.00000000E+00
  0.00000000E+00  0.00000000E+00  0.00000000E+00
  0.00000000E+00  0.00000000E+00  0.00000000E+00
  0.00000000E+00  0.00000000E+00  0.00000000E+00
  0.00000000E+00  0.00000000E+00  0.00000000E+00
  0.00000000E+00  0.00000000E+00  0.00000000E+00
  0.00000000E+00  0.00000000E+00  0.00000000E+00
  0.00000000E+00  0.00000000E+00  0.00000000E+00
  0.00000000E+00  0.00000000E+00  0.00000000E+00
  0.00000000E+00  0.00000000E+00  0.00000000E+00
  0.00000000E+00  0.00000000E+00  0.00000000E+00
  0.00000000E+00  0.00000000E+00  0.00000000E+00
  0.00000000E+00  0.00000000E+00  0.00000000E+00
  0.00000000E+00  0.00000000E+00  0.00000000E+00
  0.00000000E+00  0.00000000E+00  0.00000000E+00
  0.00000000E+00  0.00000000E+00  0.00000000E+00
  0.00000000E+00  0.00000000E+00  0.00000000E+00
  0.00000000E+00  0.00000000E+00  0.00000000E+00
  0.00000000E+00  0.00000000E+00  0.00000000E+00
  0.00000000E+00  0.00000000E+00  0.00000000E+00
  0.00000000E+00  0.00000000E+00  0.00000000E+00
  0.00000000E+00  0.00000000E+00  0.00000000E+00
  0.00000000E+00  0.00000000E+00  0.00000000E+00
  0.00000000E+00  0.00000000E+00  0.00000000E+00
  0.00000000E+00  0.00000000E+00  0.00000000E+00
  0.00000000E+00  0.00000000E+00  0.00000000E+00
  0.00000000E+00  0.00000000E+00  0.00000000E+00
  0.00000000E+00  0.00000000E+00  0.00000000E+00
  0.00000000E+00  0.00000000E+00  0.00000000E+00
  0.00000000E+00  0.00000000E+00  0.00000000E+00
  0.00000000E+00  0.00000000E+00  0.00000000E+00
  0.00000000E+00  0.00000000E+00  0.00000000E+00
  0.00000000E+00  0.00000000E+00  0.00000000E+00
  0.00000000E+00  0.00000000E+00  0.00000000E+00
  0.00000000E+00  0.00000000E+00  0.00000000E+00
  0.00000000E+00  0.00000000E+00  0.00000000E+00
  0.00000000E+00  0.00000000E+00  0.00000000E+00
  0.00000000E+00  0.00000000E+00  0.00000000E+00
  0.00000000E+00  0.00000000E+00  0.00000000E+00
  0.00000000E+00  0.00000000E+00  0.00000000E+00
  0.00000000E+00  0.00000000E+00  0.00000000E+00
  0.00000000E+00  0.00000000E+00  0.00000000E+00
  0.00000000E+00  0.00000000E+00  0.00000000E+00
  0.00000000E+00  0.00000000E+00  0.00000000E+00
  0.00000000E+00  0.00000000E+00  0.00000000E+00
  0.00000000E+00  0.00000000E+00  0.00000000E+00
  0.00000000E+00  0.00000000E+00  0.00000000E+00
  0.00000000E+00  0.00000000E+00  0.00000000E+00
  0.00000000E+00  0.00000000E+00  0.00000000E+00
  0.00000000E+00  0.00000000E+00  0.00000000E+00
  0.00000000E+00  0.00000000E+00  0.00000000E+00
  0.00000000E+00  0.00000000E+00  0.00000000E+00
  0.00000000E+00  0.00000000E+00  0.00000000E+00
  0.00000000E+00  0.00000000E+00  0.00000000E+00
  0.00000000E+00  0.00000000E+00  0.00000000E+00
  0.00000000E+00  0.00000000E+00  0.00000000E+00
  0.00000000E+00  0.00000000E+00  0.00000000E+00
  0.00000000E+00  0.00000000E+00  0.00000000E+00
  0.00000000E+00  0.00000000E+00  0.00000000E+00
  0.00000000E+00  0.00000000E+00  0.00000000E+00
  0.00000000E+00  0.00000000E+00  0.00000000E+00
  0.00000000E+00  0.00000000E+00  0.00000000E+00
  0.00000000E+00  0.00000000E+00  0.00000000E+00
  0.00000000E+00  0.00000000E+00  0.00000000E+00
  0.00000000E+00  0.00000000E+00  0.00000000E+00
  0.00000000E+00  0.00000000E+00  0.00000000E+00
  0.00000000E+00  0.00000000E+00  0.00000000E+00
  0.00000000E+00  0.00000000E+00  0.00000000E+00
  0.00000000E+00  0.00000000E+00  0.00000000E+00
  0.00000000E+00  0.00000000E+00  0.00000000E+00
  0.00000000E+00  0.00000000E+00  0.00000000E+00
  0.00000000E+00  0.00000000E+00  0.00000000E+00
  0.00000000E+00  0.00000000E+00  0.00000000E+00
  0.00000000E+00  0.00000000E+00  0.00000000E+00
  0.00000000E+00  0.00000000E+00  0.00000000E+00
  0.00000000E+00  0.00000000E+00  0.00000000E+00
  0.00000000E+00  0.00000000E+00  0.00000000E+00
  0.00000000E+00  0.00000000E+00  0.00000000E+00
  0.00000000E+00  0.00000000E+00  0.00000000E+00
  0.00000000E+00  0.00000000E+00  0.00000000E+00
  0.00000000E+00  0.00000000E+00  0.00000000E+00
  0.00000000E+00  0.00000000E+00  0.00000000E+00
  0.00000000E+00  0.00000000E+00  0.00000000E+00
  0.00000000E+00  0.00000000E+00  0.00000000E+00
  0.00000000E+00  0.00000000E+00  0.00000000E+00
  0.00000000E+00  0.00000000E+00  0.00000000E+00
  0.00000000E+00  0.00000000E+00  0.00000000E+00
  0.00000000E+00  0.00000000E+00  0.00000000E+00
  0.00000000E+00  0.00000000E+00  0.00000000E+00
  0.00000000E+00  0.00000000E+00  0.00000000E+00
  0.00000000E+00  0.00000000E+00  0.00000000E+00
  0.00000000E+00  0.00000000E+00  0.00000000E+00
  0.00000000E+00  0.00000000E+00  0.00000000E+00
  0.00000000E+00  0.00000000E+00  0.00000000E+00
  0.00000000E+00  0.00000000E+00  0.00000000E+00
  0.00000000E+00  0.00000000E+00  0.00000000E+00
  0.00000000E+00  0.00000000E+00  0.00000000E+00
  0.00000000E+00  0.00000000E+00  0.00000000E+00
  0.00000000E+00  0.00000000E+00  0.00000000E+00
  0.00000000E+00  0.00000000E+00  0.00000000E+00
  0.00000000E+00  0.00000000E+00  0.00000000E+00
  0.00000000E+00  0.00000000E+00  0.00000000E+00
  0.00000000E+00  0.00000000E+00  0.00000000E+00
  0.00000000E+00  0.00000000E+00  0.00000000E+00
  0.00000000E+00  0.00000000E+00  0.00000000E+00
  0.00000000E+00  0.00000000E+00  0.00000000E+00
  0.00000000E+00  0.00000000E+00  0.00000000E+00
  0.00000000E+00  0.00000000E+00  0.00000000E+00
  0.00000000E+00  0.00000000E+00  0.00000000E+00
  0.00000000E+00  0.00000000E+00  0.00000000E+00
  0.00000000E+00  0.00000000E+00  0.00000000E+00
  0.00000000E+00  0.00000000E+00  0.00000000E+00
  0.00000000E+00  0.00000000E+00  0.00000000E+00
  0.00000000E+00  0.00000000E+00  0.00000000E+00
  0.00000000E+00  0.00000000E+00  0.00000000E+00
  0.00000000E+00  0.00000000E+00  0.00000000E+00
  0.00000000E+00  0.00000000E+00  0.00000000E+00
  0.00000000E+00  0.00000000E+00  0.00000000E+00
  0.00000000E+00  0.00000000E+00  0.00000000E+00
  0.00000000E+00  0.00000000E+00  0.00000000E+00
  0.00000000E+00  0.00000000E+00  0.00000000E+00
  0.00000000E+00  0.00000000E+00  0.00000000E+00
  0.00000000E+00  0.00000000E+00  0.00000000E+00
  0.00000000E+00  0.00000000E+00  0.00000000E+00
  0.00000000E+00  0.00000000E+00  0.00000000E+00
  0.00000000E+00  0.00000000E+00  0.00000000E+00
  0.00000000E+00  0.00000000E+00  0.00000000E+00
  0.00000000E+00  0.00000000E+00  0.00000000E+00
  0.00000000E+00  0.00000000E+00  0.00000000E+00
  0.00000000E+00  0.00000000E+00  0.00000000E+00
  0.00000000E+00  0.00000000E+00  0.00000000E+00
  0.00000000E+00  0.00000000E+00  0.00000000E+00
  0.00000000E+00  0.00000000E+00  0.00000000E+00
  0.00000000E+00  0.00000000E+00  0.00000000E+00
  0.00000000E+00  0.00000000E+00  0.00000000E+00
  0.00000000E+00  0.00000000E+00  0.00000000E+00
  0.00000000E+00  0.00000000E+00  0.00000000E+00
  0.00000000E+00  0.00000000E+00  0.00000000E+00
  0.00000000E+00  0.00000000E+00  0.00000000E+00
  0.00000000E+00  0.00000000E+00  0.00000000E+00
  0.00000000E+00  0.00000000E+00  0.00000000E+00
  0.00000000E+00  0.00000000E+00  0.00000000E+00
  0.00000000E+00  0.00000000E+00  0.00000000E+00
  0.00000000E+00  0.00000000E+00  0.00000000E+00
  0.00000000E+00  0.00000000E+00  0.00000000E+00
  0.00000000E+00  0.00000000E+00  0.00000000E+00
  0.00000000E+00  0.00000000E+00  0.00000000E+00
  0.00000000E+00  0.00000000E+00  0.00000000E+00
  0.00000000E+00  0.00000000E+00  0.00000000E+00
  0.00000000E+00  0.00000000E+00  0.00000000E+00
  0.00000000E+00  0.00000000E+00  0.00000000E+00
  0.00000000E+00  0.00000000E+00  0.00000000E+00
  0.00000000E+00  0.00000000E+00  0.00000000E+00
  0.00000000E+00  0.00000000E+00  0.00000000E+00
  0.00000000E+00  0.00000000E+00  0.00000000E+00
  0.00000000E+00  0.00000000E+00  0.00000000E+00
  0.00000000E+00  0.00000000E+00  0.00000000E+00
  0.00000000E+00  0.00000000E+00  0.00000000E+00
  0.00000000E+00  0.00000000E+00  0.00000000E+00
  0.00000000E+00  0.00000000E+00  0.00000000E+00
  0.00000000E+00  0.00000000E+00  0.00000000E+00
  0.00000000E+00  0.00000000E+00  0.00000000E+00
  0.00000000E+00  0.00000000E+00  0.00000000E+00
  0.00000000E+00  0.00000000E+00  0.00000000E+00
  0.00000000E+00  0.00000000E+00  0.00000000E+00
  0.00000000E+00  0.00000000E+00  0.00000000E+00
  0.00000000E+00  0.00000000E+00  0.00000000E+00
  0.00000000E+00  0.00000000E+00  0.00000000E+00
  0.00000000E+00  0.00000000E+00  0.00000000E+00
  0.00000000E+00  0.00000000E+00  0.00000000E+00
  0.00000000E+00  0.00000000E+00  0.00000000E+00
  0.00000000E+00  0.00000000E+00  0.00000000E+00
  0.00000000E+00  0.00000000E+00  0.00000000E+00
  0.00000000E+00  0.00000000E+00  0.00000000E+00
  0.00000000E+00  0.00000000E+00  0.00000000E+00
  0.00000000E+00  0.00000000E+00  0.00000000E+00
  0.00000000E+00  0.00000000E+00  0.00000000E+00
  0.00000000E+00  0.00000000E+00  0.00000000E+00
  0.00000000E+00  0.00000000E+00  0.00000000E+00
  0.00000000E+00  0.00000000E+00  0.00000000E+00
  0.00000000E+00  0.00000000E+00  0.00000000E+00
  0.00000000E+00  0.00000000E+00  0.00000000E+00
  0.00000000E+00  0.00000000E+00  0.00000000E+00
  0.00000000E+00  0.00000000E+00  0.00000000E+00
  0.00000000E+00  0.00000000E+00  0.00000000E+00
  0.00000000E+00  0.00000000E+00  0.00000000E+00
  0.00000000E+00  0.00000000E+00  0.00000000E+00
  0.00000000E+00  0.00000000E+00  0.00000000E+00
  0.00000000E+00  0.00000000E+00  0.00000000E+00
  0.00000000E+00  0.00000000E+00  0.00000000E+00
  0.00000000E+00  0.00000000E+00  0.00000000E+00
  0.00000000E+00  0.00000000E+00  0.00000000E+00
  0.00000000E+00  0.00000000E+00  0.00000000E+00
  0.00000000E+00  0.00000000E+00  0.00000000E+00
  0.00000000E+00  0.00000000E+00  0.00000000E+00
  0.00000000E+00  0.00000000E+00  0.00000000E+00
  0.00000000E+00  0.00000000E+00  0.00000000E+00
  0.00000000E+00  0.00000000E+00  0.00000000E+00
  0.00000000E+00  0.00000000E+00  0.00000000E+00
  0.00000000E+00  0.00000000E+00  0.00000000E+00
  0.00000000E+00  0.00000000E+00  0.00000000E+00
  0.00000000E+00  0.00000000E+00  0.00000000E+00
  0.00000000E+00  0.00000000E+00  0.00000000E+00
  0.00000000E+00  0.00000000E+00  0.00000000E+00
  0.00000000E+00  0.00000000E+00  0.00000000E+00
  0.00000000E+00  0.00000000E+00  0.00000000E+00
  0.00000000E+00  0.00000000E+00  0.00000000E+00
  0.00000000E+00  0.00000000E+00  0.00000000E+00
  0.00000000E+00  0.00000000E+00  0.00000000E+00
  0.00000000E+00  0.00000000E+00  0.00000000E+00
  0.00000000E+00  0.00000000E+00  0.00000000E+00
  0.00000000E+00  0.00000000E+00  0.00000000E+00
  0.00000000E+00  0.00000000E+00  0.00000000E+00
  0.00000000E+00  0.00000000E+00  0.00000000E+00
  0.00000000E+00  0.00000000E+00  0.00000000E+00
  0.00000000E+00  0.00000000E+00  0.00000000E+00
  0.00000000E+00  0.00000000E+00  0.00000000E+00
  0.00000000E+00  0.00000000E+00  0.00000000E+00
  0.00000000E+00  0.00000000E+00  0.00000000E+00
  0.00000000E+00  0.00000000E+00  0.00000000E+00
  0.00000000E+00  0.00000000E+00  0.00000000E+00
  0.00000000E+00  0.00000000E+00  0.00000000E+00
  0.00000000E+00  0.00000000E+00  0.00000000E+00
  0.00000000E+00  0.00000000E+00  0.00000000E+00
  0.00000000E+00  0.00000000E+00  0.00000000E+00
  0.00000000E+00  0.00000000E+00  0.00000000E+00
  0.00000000E+00  0.00000000E+00  0.00000000E+00
  0.00000000E+00  0.00000000E+00  0.00000000E+00