Sb                                      
   1.00000000000000     
    18.5173007964999989    0.0000000000000000    0.0000000000000000
     0.0000000000000000   18.5173007964999989    0.0000000000000000
     0.0000000000000000    0.0000000000000000   18.5173007964999989
   Bi   Sb   Se
    44    36   120
Direct
  0.5248408115662239  0.2500578069002599  0.9465370694839619
  0.1417130336934138  0.2534934334328908  0.6386959753083135
  0.9023875494393986  0.2161281128504901  0.7291348007574733
  0.6556696982350071  0.9134193596978474  0.7531784674877251
  0.3082309698414108  0.5968560433811348  0.7376367322831713
  0.0816996483547123  0.9774617171904083  0.6617742289382670
  0.6394474491635173  0.6638435425389665  0.8247964134057166
  0.0161913449857697  0.0981833861812584  0.4964396023131740
  0.8869081297142057  0.6816294171475598  0.5393694965174350
  0.9703462960211495  0.4159021581796423  0.2949772266045336
  0.3469960312854973  0.1684255939247993  0.4894338553170693
  0.7219200567705201  0.7999502972096579  0.4839036520265622
  0.2380421073585893  0.7547903651691965  0.5217989099221775
  0.7512271172096304  0.1187545556915904  0.3458305844368141
  0.7487429832379792  0.2693786862599662  0.9644530640830633
  0.2824298200223459  0.8924575771526375  0.6631576862360428
  0.1707305067740415  0.5165960874902693  0.2520311205366940
  0.4150840546118905  0.1591459104887298  0.0956814345205396
  0.0160553386650546  0.4298879627933727  0.5731267584469766
  0.3558344730396004  0.9402790566299593  0.4246522512718314
  0.5300928340694018  0.5018008143987697  0.8967818725899420
  0.9216777502659571  0.0133213999667906  0.9985006138257047
  0.3329529820599047  0.6415323577005503  0.0657596877269219
  0.8611845978917548  0.5358315914705354  0.6762444519616411
  0.7778020226389569  0.0808141854550976  0.5785434502972644
  0.6854812677185805  0.9027716850203483  0.0025145605208661
  0.8629123022173345  0.2392982930486413  0.1485053452018185
  0.0325444947351885  0.5837218685294902  0.3959281087285337
  0.6788054163309779  0.6964391165574656  0.6185698315305516
  0.9355334924130192  0.3612040098344267  0.9580786884520115
  0.4599883650648081  0.7951489727925148  0.2157332162468963
  0.6787116790322330  0.6539857721411495  0.1469369334604190
  0.8820594688029015  0.7376314050781593  0.2928853645632593
  0.2903581577796918  0.7792126862407303  0.9281824637451153
  0.0946899246787941  0.7100825324298046  0.9787138567549870
  0.6637511123745372  0.8509098466396756  0.3145041094795153
  0.0422923104640211  0.0761040579963679  0.2073741479028837
  0.2960467167944056  0.2510423863029115  0.2959843537262470
  0.2920836394303875  0.3241726789001190  0.7650197087402751
  0.1783089752087401  0.1879979270113197  0.8769876779623951
  0.9075217199253511  0.5256109632578359  0.1041100025593326
  0.0603453143064804  0.8367236874614478  0.2342470797910048
  0.7121247402317911  0.3809024580322228  0.7662129829099814
  0.3266373880613679  0.3685707162110736  0.1817031692147485
  0.0604215218345170  0.2788203438558195  0.4280248781232251
  0.5880977888438360  0.1792798440792343  0.5486057462885572
  0.4357897839113848  0.1353171765988234  0.7893779302369900
  0.4388741505662182  0.9671574602732700  0.0152719986894036
  0.6465249952239438  0.1356273786052576  0.1600623313804160
  0.4231862269046252  0.6688684728475810  0.5734470706367855
  0.9197422369702934  0.5680060664490250  0.8928081730621710
  0.1690723308109302  0.0296569749687192  0.3819122048666045
  0.6120462134129203  0.0985993732335947  0.7924617123981397
  0.8863370412944751  0.9791889063705127  0.7218406444353999
  0.2717726963718675  0.3765134892346015  0.5068539115634786
  0.7173665965845906  0.3460725727072081  0.5598168002559348
  0.4499341874308276  0.8499118463936057  0.7982113873932133
  0.2440218902793210  0.7943413574267121  0.2828655443568157
  0.5487216828816349  0.8426237502400348  0.5204304700799031
  0.0914198455800724  0.9341559274257796  0.8641606348766353
  0.4185802585824464  0.0541504878552760  0.2425867573497369
  0.0751751696676102  0.5828545357464948  0.7460769240111677
  0.0969044165064168  0.2890063022321883  0.1507095920374240
  0.3075814443816809  0.9942683976102847  0.1330406807587036
  0.5247836840821470  0.3454130395129947  0.6615330180231449
  0.4020963029935323  0.4888250983762606  0.6654410434262530
  0.8230038167375174  0.9848853246642153  0.1264107465483964
  0.7434625825998553  0.5374139647992735  0.3164014890339435
  0.7927520784816272  0.7745398089001166  0.7057733769459578
  0.1552797431681528  0.3911828435678050  0.9448872295074402
  0.6383761107980027  0.3860773089544534  0.2341541947138897
  0.7829691529428084  0.3195416346662769  0.3705777430368861
  0.9129874268093299  0.9317474276473950  0.4156748818342996
  0.4945346811037858  0.4301699591884803  0.3731380881063437
  0.7495169013556354  0.7111249984653785  0.0045094806401283
  0.4825427156070593  0.6367233594754562  0.9786337396290777
  0.4637054877983939  0.0181255716182008  0.5986270659757366
  0.5698130264562759  0.0346883842431663  0.3407997960182204
  0.1110122292729435  0.9469378860227295  0.0637525541740470
  0.3589756747413479  0.6054515653858409  0.2859571398595798
  0.0182611068668929  0.5527519374794283  0.2432938176017476
  0.2105053620513793  0.1833046052227311  0.1829181652473833
  0.2081360291840232  0.9684497741309847  0.9580543188125589
  0.7790998209510916  0.9239928681486007  0.5955886190396131
  0.6129431163957550  0.4553043782648018  0.6748823271687944
  0.4298174502790845  0.1957647449634078  0.2564934036679673
  0.0725299691915557  0.2899651143558408  0.9917382558073303
  0.9566409095026642  0.3787022999935392  0.1430529448294153
  0.8998023451130760  0.2151480237340783  0.0106820457699541
  0.4825445344249573  0.5989790064344335  0.6913941244165132
  0.5777632821723040  0.8044980467461188  0.7009814135568829
  0.0644298652410683  0.0802893533662953  0.7826957949735361
  0.2398664067290899  0.0971529799217555  0.9993617435491677
  0.6164755645981360  0.5506395321511696  0.0423210705810381
  0.4434295419591108  0.6447829456498436  0.1741999433669608
  0.2584475755953277  0.1855710298736854  0.7438144951599613
  0.7493116704004481  0.7580304606059051  0.8467123622976616
  0.5196340619923816  0.0378605996865049  0.1467772003656293
  0.0647175721839957  0.2568702890542990  0.7792737274621444
  0.0042512588676940  0.2750574999107008  0.5786843272270186
  0.4456191461870353  0.1544250998437707  0.6368705756787016
  0.2068858411727987  0.5981453179058094  0.3789912674045905
  0.3098696426127978  0.4402983399480896  0.3109978479495861
  0.6165632995679488  0.0206749282769088  0.6590418546362483
  0.3188499312082743  0.0219449068341580  0.5497202599514113
  0.0487596519564052  0.0876119547428955  0.0487831878710882
  0.8024384333930290  0.4214311669272490  0.2524443119460789
  0.1309274879644081  0.3730738351023770  0.7952787299739627
  0.8262011341093058  0.3541283241296612  0.6585880410070374
  0.9996506212384051  0.8857839430702461  0.9919319799076279
  0.8137788967941658  0.8727859940751008  0.3191584548037818
  0.6403709994747531  0.2481994389619006  0.6888801788644360
  0.7770914255062819  0.1241853164669580  0.7304183649809057
  0.4870857432082707  0.1064090872768939  0.4579216297697561
  0.1450306818447179  0.0992459647930154  0.5825018861968624
  0.5743235775382713  0.9671731729802224  0.8649765147546205
  0.2693525630411308  0.2930508774250556  0.9165146608870588
  0.5419831528204083  0.7052980880381559  0.4952175869621080
  0.7172466957373604  0.0454519026206735  0.0359002110104088
  0.8370162597802310  0.3008958661830658  0.8420799369126563
  0.6120967269517107  0.1794677057086175  0.3014727156515680
  0.6728269400397643  0.0264908281952213  0.4400360433406332
  0.6348299787347300  0.3783199315597660  0.9145196857775002
  0.5992846879457067  0.8197205696422376  0.1714911859357627
  0.0873224147342385  0.1394573498715579  0.3458769451549067
  0.1630729955567461  0.9914047037523183  0.2329757094478602
  0.4570776937519581  0.4542294488368262  0.0157143364626584
  0.3053866986091129  0.8106760293437659  0.0827503468738891
  0.1466213400354313  0.8006627408851775  0.8679833489796008
  0.4485200664696918  0.8206927284930672  0.0662478085417773
  0.1049621807396823  0.3423852286593789  0.2860334667837026
  0.4461512283133553  0.2899637651511217  0.8011703202020638
  0.1588811764349211  0.8168635035521052  0.6272250574951406
  0.4926686087114626  0.5787846568422620  0.3690815573584693
  0.6432677851859764  0.1609286319417073  0.9399858512374912
  0.7626701216421539  0.5321030684718092  0.7852415393438907
  0.2656980352480831  0.6132263185446895  0.5862200273680227
  0.7839874528202052  0.0044996910137894  0.8334321257795962
  0.8949910507457822  0.8771534981323835  0.5546198820627245
  0.5220088214503830  0.2553522558085734  0.0966380824579029
  0.7314928647831854  0.2104429064232828  0.4864898584142170
  0.9181399448266317  0.2740805923703131  0.3352277577921786
  0.4932650449467874  0.3942558742104054  0.2361099957996587
  0.3600163820877079  0.7454104756936321  0.3455640785830626
  0.5152386647540844  0.8934893106303826  0.3829136337396598
  0.6932544887942986  0.0128776177935174  0.2446182542497563
  0.6825166321014314  0.7128165269284501  0.3622675212458148
  0.2700544987241449  0.2252625569774856  0.0717197472639063
  0.3434592308861522  0.9039165386254456  0.2467162571920270
  0.0061162266250171  0.5993107126138618  0.5540395450168177
  0.8975507907433002  0.6890084925603577  0.6965749661051068
  0.2186999500706267  0.6350680579218070  0.9464939298759477
  0.4025495475314869  0.9719653028199353  0.7261531806903827
  0.8106863039560702  0.6108065650011962  0.2104944420611314
  0.3751004825121561  0.8334966929660563  0.5464467136767380
  0.0794586226878107  0.4344467743638512  0.4390984742958626
  0.5354297581483618  0.3143154242955327  0.5199069784717821
  0.7274397687837197  0.2640087016059408  0.1234527013902436
  0.4373320849945160  0.1252367294883041  0.9491012177780351
  0.8118356646656212  0.4202622185607010  0.4654530872690293
  0.6964539826727895  0.5646067255244844  0.9348029273053674
  0.1901144346755740  0.9704537318705653  0.7673651461123568
  0.2127558712886220  0.8704489544896867  0.4006175018666507
  0.1551339426885489  0.8003923501490227  0.0937086058543020
  0.1971969493749525  0.2544596711482598  0.4770440076131310
  0.7677696474967024  0.5959072972363595  0.5586733551050016
  0.4104316863867258  0.6938946996577925  0.8684720014177270
  0.8633850338744594  0.1002798521489461  0.2049117541900251
  0.3337506788386422  0.2852091374319888  0.6075552858378329
  0.8158434688676499  0.9100750717865020  0.9222400196948511
  0.9891597523111886  0.8748514409573098  0.7471910199397398
  0.9661731886703134  0.7370101819565598  0.1719798601854920
  0.3615704154665928  0.9202722598240912  0.8943991581807441
  0.3863929623844480  0.4811990826761891  0.8127560321429008
  0.3280144251506701  0.7800812854221887  0.7442534936369625
  0.2381338979562681  0.6378882493731047  0.1927500935812936
  0.8895185338003934  0.6524271274691850  0.0073793336950494
  0.9788506296150320  0.4793174188997661  0.7665708699842391
  0.0161711991905343  0.6641383797156473  0.8472460922166043
  0.6288855522564504  0.3811119602268656  0.3717403605122353
  0.1238167242168344  0.7073235294826186  0.3768540615210890
  0.1851445558856487  0.3925797795356240  0.1120531644048084
  0.3983318140532477  0.5600970691309535  0.4692666002057334
  0.9246432744336128  0.1030910523602720  0.6161744611750400
  0.8214096671563710  0.4486495451645116  0.9985290707922000
  0.7756064427215310  0.8256702369926309  0.0949280289751060
  0.3808788097428876  0.3084332383043714  0.4113946110925222
  0.0423056126471091  0.9576718282287390  0.4745483252232772
  0.8866616131285400  0.6116159047836635  0.3965582559965627
  0.5831392856124608  0.7272257182678729  0.9535124792161077
  0.1909990559505201  0.5275667680137048  0.8042662102320355
  0.9888480261045567  0.7993900746631429  0.3734659835419334
  0.3352823805592201  0.4944197524236746  0.0130241399393608
  0.9451287225908516  0.0885504067348123  0.8171394456051636
  0.1514855868544832  0.4058345625782912  0.6193533163695452
  0.9668878178773310  0.9520278487594199  0.2022201677153087
  0.8611335848936794  0.0699592412392278  0.4372452600348381
  0.6257580825674338  0.5376691049494612  0.2362700900545434
  0.0150142454524452  0.5067504934697579  0.9985439102070859
  0.3081063146641044  0.0892326289088377  0.3672428105369060
 
 -0.12191820E-02 -0.62995828E-03 -0.43502975E-03
 -0.11342621E-02 -0.14793150E-02  0.78181025E-03
  0.98423379E-03 -0.21859732E-02  0.10273358E-02
 -0.67807488E-03  0.10529488E-02  0.22703625E-03
  0.10168211E-02 -0.17072814E-02  0.12587420E-02
  0.89527367E-03  0.52222893E-03  0.61051576E-03
 -0.30754054E-05  0.25507961E-02  0.89363377E-03
  0.64455582E-04 -0.13582387E-03 -0.90475954E-03
  0.54690280E-04  0.10361782E-02  0.12546310E-02
  0.87478761E-04 -0.48542769E-03 -0.20217564E-02
 -0.31800356E-03 -0.10965280E-02  0.13377690E-02
 -0.61164534E-03 -0.51805240E-03  0.55133637E-03
  0.15788534E-02 -0.14588363E-02 -0.17240690E-02
  0.68402060E-03 -0.13110996E-03  0.59646339E-03
 -0.13828195E-02  0.85363909E-03 -0.75350754E-03
  0.15360040E-02 -0.13485234E-03 -0.97965346E-03
 -0.25221278E-02  0.55398863E-03  0.31133786E-02
 -0.85516696E-03  0.57491826E-03 -0.50560347E-03
  0.19251347E-02 -0.10319078E-02  0.22102303E-02
  0.54522714E-03  0.18083780E-02  0.25929331E-03
  0.86617900E-03  0.75521617E-03 -0.34646083E-03
  0.99084450E-03 -0.75142153E-03  0.11126175E-02
  0.10235556E-02  0.20865451E-02 -0.16254094E-02
 -0.10801246E-02 -0.72642366E-03 -0.11229568E-02
  0.54251054E-03 -0.59632348E-03 -0.12925298E-02
 -0.63907306E-03  0.49320344E-03 -0.13723814E-02
  0.14443833E-02 -0.20552083E-02  0.21575745E-02
 -0.24403019E-04  0.74151176E-04  0.62351660E-03
 -0.11372233E-02  0.25756583E-03 -0.21375996E-02
 -0.49808185E-03 -0.11820664E-02  0.16019065E-03
 -0.47986305E-03  0.31815163E-03 -0.85170563E-03
  0.17473822E-02  0.11776352E-02 -0.57347891E-03
  0.65104903E-04 -0.11375984E-02  0.18094047E-02
 -0.50465039E-03 -0.34262092E-03 -0.21063785E-03
 -0.30690239E-03 -0.25217741E-02 -0.30190684E-03
  0.11007274E-02 -0.42638603E-03 -0.45909732E-04
 -0.11975277E-04  0.22592908E-02  0.38971990E-03
  0.30488458E-03  0.17315851E-02 -0.11862142E-03
  0.28761196E-03 -0.15414027E-02  0.13183022E-02
 -0.30920080E-03  0.61501975E-03 -0.16970466E-02
  0.91107312E-03 -0.46937651E-04 -0.66841347E-03
 -0.20810258E-02  0.16316906E-03  0.25546562E-02
 -0.11297433E-02  0.10654146E-02  0.11348663E-03
 -0.58974153E-03 -0.19314707E-02  0.84963555E-03
 -0.12378542E-02  0.11087885E-03 -0.64639662E-03
  0.17407116E-02  0.46626254E-03  0.15761601E-02
 -0.13429220E-03  0.16414873E-02  0.13296178E-02
  0.89561052E-05  0.83211125E-03  0.68905323E-04
  0.16281188E-02  0.15456641E-02  0.41742940E-03
 -0.11617905E-03 -0.25176492E-03 -0.13901708E-02
 -0.23732722E-03  0.18174131E-02 -0.31227088E-03
 -0.49616236E-03 -0.94858486E-03  0.90461738E-03
 -0.13505442E-02 -0.11635463E-03  0.54726996E-03
 -0.46920741E-03 -0.15897811E-02 -0.10345634E-02
  0.13674224E-02 -0.13181079E-02  0.73343201E-04
  0.11469700E-02 -0.10819887E-02 -0.64986674E-03
 -0.20345178E-02  0.19630900E-03  0.62250181E-04
  0.19128469E-02 -0.12453678E-02  0.11536445E-02
 -0.18567911E-03 -0.41332241E-03 -0.36440673E-02
  0.83983904E-03 -0.59127163E-03 -0.22785634E-02
 -0.53054260E-03  0.22918618E-02 -0.66405342E-03
  0.16854232E-02 -0.85068617E-03  0.50369865E-03
 -0.89983759E-03  0.83716271E-03 -0.40496081E-03
  0.10253470E-02  0.25515229E-02 -0.18437027E-02
  0.36701311E-03  0.21088616E-02  0.83175979E-03
  0.11105673E-03 -0.12510624E-03 -0.81570517E-03
  0.19428468E-02 -0.74086232E-03  0.31429560E-02
 -0.14242276E-02 -0.25249937E-03 -0.76584943E-03
 -0.24671241E-02  0.10886448E-02 -0.74108954E-04
  0.10086478E-02  0.14156422E-03 -0.14680639E-03
  0.81500625E-04 -0.43743428E-03  0.99268791E-03
 -0.25594183E-03 -0.23459048E-02 -0.15291199E-02
 -0.14186354E-03 -0.22037752E-02 -0.13365630E-02
  0.10999485E-02 -0.94293691E-03 -0.75295262E-03
  0.46086527E-03  0.19063872E-02 -0.71474592E-03
 -0.26778745E-02  0.78208441E-03  0.25744910E-04
 -0.59262290E-03  0.14852297E-02  0.24089991E-03
  0.29875401E-02  0.76171068E-03 -0.11734004E-03
  0.87100559E-03 -0.10055744E-02  0.14880160E-02
 -0.19298743E-02  0.20072635E-02 -0.12745429E-03
 -0.23016642E-02  0.35751533E-02  0.22120960E-02
 -0.28480578E-02 -0.12229598E-02  0.12776770E-02
  0.14148024E-02  0.10351204E-02  0.33753896E-03
  0.55088000E-03 -0.17463743E-02 -0.18382873E-02
 -0.17521149E-02 -0.16468186E-03  0.12548977E-02
 -0.21930903E-03 -0.19327779E-02  0.15746459E-02
 -0.10631806E-02  0.10742912E-02 -0.45122196E-04
 -0.76366807E-03 -0.18187933E-02  0.53264426E-03
  0.20399174E-02  0.24384365E-02  0.34070618E-02
 -0.30122042E-02  0.58306391E-03  0.98124697E-03
  0.15082845E-02  0.26418715E-03 -0.10594806E-02
  0.22429454E-02  0.11475808E-02  0.27639186E-02
  0.27858181E-02 -0.61145012E-03  0.77841113E-03
  0.21550716E-02 -0.10366063E-02 -0.65883507E-03
  0.24074860E-03  0.31534230E-02  0.45313538E-03
 -0.63952174E-03  0.77155972E-03 -0.14071322E-02
  0.35799829E-05  0.10207571E-02  0.17929441E-02
 -0.27859378E-03  0.96108753E-03 -0.17854618E-02
 -0.50963634E-03  0.50009528E-03 -0.98718844E-03
  0.89607146E-03 -0.21076985E-02 -0.19566364E-02
 -0.90426860E-03 -0.19311321E-02 -0.16605684E-03
  0.20806923E-02 -0.13865586E-02 -0.98447380E-03
 -0.27403549E-02  0.31993901E-02  0.28450517E-02
 -0.80399833E-03 -0.44138424E-03  0.94059680E-03
  0.34876552E-02 -0.25484116E-02 -0.75611318E-03
  0.11345483E-02 -0.24309352E-02  0.73617576E-03
  0.24911561E-02  0.89692574E-03 -0.20640822E-02
 -0.76206152E-05 -0.52210266E-03 -0.37252103E-03
  0.85849762E-03 -0.18020736E-02  0.23927898E-02
  0.30504075E-03  0.68766183E-03 -0.21738569E-02
 -0.99929521E-03  0.10006859E-02 -0.75074640E-03
  0.70720862E-03  0.94108675E-03  0.17491131E-02
 -0.12243262E-02  0.17291892E-02  0.70961559E-03
 -0.19385780E-02  0.39453648E-03 -0.92456022E-03
 -0.22522228E-03  0.17319217E-02 -0.10365561E-02
  0.21188836E-02  0.22630564E-02 -0.19128421E-03
 -0.14752518E-03  0.11881862E-02  0.11862893E-02
 -0.19734256E-02  0.96255578E-03 -0.22453549E-02
 -0.36536320E-03  0.42241618E-02  0.20575130E-02
 -0.45605178E-03  0.27031655E-03 -0.14450867E-02
 -0.22997486E-02  0.13191097E-02 -0.13590877E-02
  0.44359138E-03  0.33532153E-03 -0.27092888E-02
  0.16693503E-02  0.35633034E-02 -0.15479958E-02
 -0.14115896E-02 -0.17192299E-02 -0.14491524E-02
  0.35215212E-04 -0.15498397E-02 -0.12598838E-03
  0.22614317E-03 -0.16583339E-02 -0.26428803E-03
 -0.42544031E-03 -0.38189048E-02 -0.89443137E-03
 -0.14704708E-02  0.94452194E-03 -0.16477829E-02
 -0.24244533E-02 -0.32089174E-02  0.37842490E-02
 -0.18352718E-02  0.19375369E-02 -0.20476462E-02
  0.70388292E-03 -0.12610929E-02  0.36870007E-02
 -0.27235424E-02 -0.10781342E-02 -0.18458626E-02
  0.22576036E-02  0.57962433E-03 -0.17260433E-02
 -0.14632486E-02  0.18367644E-02 -0.18295627E-02
  0.55291372E-03 -0.71732712E-03  0.69360603E-03
  0.30686180E-02  0.28433869E-02 -0.51213347E-02
  0.44703112E-03 -0.23540442E-02 -0.22218481E-02
  0.15489759E-02 -0.21417967E-04  0.44349397E-02
  0.53750437E-04 -0.28740666E-03 -0.24506997E-02
  0.15000108E-02 -0.58360336E-03 -0.53754565E-03
 -0.31428043E-02  0.16894376E-02  0.82823746E-03
  0.32647418E-02  0.28828578E-02 -0.21333461E-03
  0.25901100E-02 -0.26879428E-02 -0.89129432E-03
 -0.11789556E-03 -0.17641033E-02  0.76567711E-03
  0.14964761E-02  0.13407451E-03 -0.44421841E-03
  0.28667777E-03 -0.47863219E-03 -0.13970987E-03
  0.26095170E-02  0.27264884E-02 -0.17996117E-02
 -0.18023382E-02  0.74886330E-03 -0.67150005E-03
 -0.28669275E-02  0.20772003E-02  0.31716819E-02
 -0.11130958E-02 -0.25300547E-03 -0.24399146E-02
 -0.83579662E-03 -0.28056374E-03 -0.25259461E-02
 -0.28401309E-03 -0.33366926E-02 -0.36876821E-02
 -0.12545797E-02 -0.41805370E-04 -0.30892612E-03
 -0.88422938E-04  0.38433505E-02 -0.11645731E-02
 -0.18390078E-02  0.63639690E-03  0.15948066E-02
 -0.12543195E-04  0.24285454E-02 -0.20134444E-02
  0.10491037E-02  0.50657062E-03  0.18382626E-02
  0.78994716E-03  0.24751673E-02 -0.78095883E-03
 -0.15548962E-02 -0.16263412E-02 -0.17197638E-03
 -0.20051824E-03 -0.55605267E-03  0.15412296E-02
 -0.12234120E-03  0.54749123E-03  0.16794500E-02
 -0.69910990E-03 -0.23741037E-02 -0.24264779E-02
 -0.47915116E-03  0.31024467E-03 -0.38899094E-04
 -0.37244013E-03  0.20662888E-02  0.10358239E-02
 -0.10871591E-02  0.16525072E-02 -0.30609647E-02
  0.15425090E-02  0.38996584E-02 -0.16330508E-02
  0.13789581E-03 -0.25203723E-02 -0.28859937E-02
  0.14836949E-02  0.52391935E-04 -0.86153712E-03
 -0.29237604E-02 -0.42883548E-02 -0.16077913E-02
 -0.51575633E-03 -0.85639711E-03  0.40851664E-03
 -0.78922270E-03  0.12478195E-02  0.24487725E-02
  0.24467440E-03 -0.32725362E-04 -0.18906236E-04
 -0.26296405E-05  0.26206274E-03  0.11901943E-02
 -0.58698785E-03 -0.36984027E-02  0.13988142E-02
  0.10179744E-02 -0.45783041E-02 -0.14494558E-02
 -0.44144010E-03 -0.89589103E-03 -0.28756524E-03
  0.28341405E-02  0.77500361E-04 -0.61788854E-03
 -0.35025874E-02 -0.22603134E-02  0.10214513E-02
 -0.92909195E-03 -0.17036918E-02  0.76688571E-03
 -0.12408979E-03  0.15213008E-02  0.85469843E-03
 -0.40917956E-03 -0.19371165E-03  0.97338102E-03
 -0.15340728E-02  0.10974069E-02  0.42007529E-03
 -0.15077112E-02  0.11375217E-02  0.93201620E-03
  0.52836355E-04  0.20112179E-03 -0.33377928E-03
 -0.16854270E-02 -0.76834777E-03  0.21755313E-04
 -0.10096822E-02  0.21366132E-02  0.80374332E-03
 -0.12337894E-02  0.45876249E-03  0.41278308E-02
 -0.83540587E-03  0.29543274E-02 -0.77762769E-03
  0.22605624E-02 -0.16646042E-02  0.12244231E-02
  0.18552291E-02  0.99402066E-03  0.70347144E-03
 -0.25014450E-02 -0.59016341E-03 -0.22645128E-02
  0.20266250E-02 -0.10761467E-02  0.24768510E-03
 -0.23601854E-02  0.21757550E-02  0.32780538E-02
  0.91943857E-03 -0.19066944E-02 -0.10686875E-02
  0.38573891E-03 -0.14338603E-02 -0.80468907E-03
  0.41431662E-02  0.66109286E-04 -0.75835573E-03
  0.25572927E-03  0.18464110E-02 -0.45946954E-03
  0.17579417E-02 -0.23865037E-03  0.99601673E-03
 -0.25246777E-02 -0.26486578E-02 -0.51055139E-03
 -0.88985466E-03 -0.12603808E-02 -0.20197034E-04
 
           1
   3.00000000000000     
  0.10000000E+01  0.00000000E+00  0.00000000E+00  0.00000000E+00
  0.52464329E+00  0.24995575E+00  0.94646659E+00
  0.14152927E+00  0.25325377E+00  0.63882264E+00
  0.90254701E+00  0.21577396E+00  0.72930124E+00
  0.65555984E+00  0.91358995E+00  0.75321525E+00
  0.30839571E+00  0.59657945E+00  0.73784066E+00
  0.81844692E-01  0.97754632E+00  0.66187314E+00
  0.63944695E+00  0.66425680E+00  0.82494119E+00
  0.16201787E-01  0.98161381E-01  0.49629302E+00
  0.88691699E+00  0.68179729E+00  0.53957276E+00
  0.97036047E+00  0.41582351E+00  0.29464968E+00
  0.34694451E+00  0.16824794E+00  0.48965059E+00
  0.72182096E+00  0.79986637E+00  0.48399297E+00
  0.23829790E+00  0.75455402E+00  0.52151959E+00
  0.75133794E+00  0.11873331E+00  0.34592722E+00
  0.74851895E+00  0.26951698E+00  0.96433099E+00
  0.28267867E+00  0.89243573E+00  0.66299897E+00
  0.17032190E+00  0.51668584E+00  0.25253552E+00
  0.41494551E+00  0.15923905E+00  0.95599521E-01
  0.16367231E-01  0.42972078E+00  0.57348484E+00
  0.35592281E+00  0.94057203E+00  0.42469426E+00
  0.53023316E+00  0.50192317E+00  0.89672574E+00
  0.92183828E+00  0.13199662E-01  0.99868087E+00
  0.33311881E+00  0.64187040E+00  0.65496354E-01
  0.86100961E+00  0.53571390E+00  0.67606252E+00
  0.77788992E+00  0.80717575E-01  0.57833405E+00
  0.68537773E+00  0.90285159E+00  0.22922201E-02
  0.86314631E+00  0.23896533E+00  0.14885490E+00
  0.32540541E-01  0.58373388E+00  0.39602913E+00
  0.67862117E+00  0.69648084E+00  0.61822352E+00
  0.93545280E+00  0.36101250E+00  0.95810464E+00
  0.45991062E+00  0.79520052E+00  0.21559523E+00
  0.67899477E+00  0.65417656E+00  0.14684402E+00
  0.88207002E+00  0.73744710E+00  0.29317851E+00
  0.29027640E+00  0.77915718E+00  0.92814834E+00
  0.94640203E-01  0.70967398E+00  0.97866494E+00
  0.66392944E+00  0.85084077E+00  0.31449667E+00
  0.42290370E-01  0.76470087E-01  0.20743729E+00
  0.29609611E+00  0.25132292E+00  0.29596514E+00
  0.29213024E+00  0.32392296E+00  0.76523329E+00
  0.17825888E+00  0.18809757E+00  0.87671274E+00
  0.90766932E+00  0.52560336E+00  0.10400171E+00
  0.60008166E-01  0.83675012E+00  0.23466096E+00
  0.71194171E+00  0.38107507E+00  0.76623137E+00
  0.32654184E+00  0.36825780E+00  0.18184082E+00
  0.60220976E-01  0.27883831E+00  0.42792015E+00
  0.58837980E+00  0.17935538E+00  0.54886110E+00
  0.43576803E+00  0.13558312E+00  0.78959334E+00
  0.43887560E+00  0.96729227E+00  0.15283162E-01
  0.64678877E+00  0.13587779E+00  0.16012996E+00
  0.42316740E+00  0.66882768E+00  0.57322185E+00
  0.91970379E+00  0.56830051E+00  0.89275758E+00
  0.16899195E+00  0.29503294E-01  0.38205876E+00
  0.61182741E+00  0.98580523E-01  0.79255038E+00
  0.88626102E+00  0.97893134E+00  0.72167303E+00
  0.27199423E+00  0.37629994E+00  0.50686579E+00
  0.71755242E+00  0.34589728E+00  0.55971151E+00
  0.44960457E+00  0.84994365E+00  0.79822147E+00
  0.24433179E+00  0.79413959E+00  0.28305245E+00
  0.54869160E+00  0.84255679E+00  0.51984009E+00
  0.91555908E-01  0.93406014E+00  0.86379148E+00
  0.41849431E+00  0.54521794E-01  0.24247917E+00
  0.75448226E-01  0.58271672E+00  0.74615853E+00
  0.96758633E-01  0.28914193E+00  0.15064398E+00
  0.30774756E+00  0.99468177E+00  0.13274198E+00
  0.52484314E+00  0.34575470E+00  0.66166777E+00
  0.40211430E+00  0.48880483E+00  0.66530889E+00
  0.82331858E+00  0.98476530E+00  0.12691994E+00
  0.74323184E+00  0.53737306E+00  0.31627741E+00
  0.79235238E+00  0.77471618E+00  0.70576137E+00
  0.15544315E+00  0.39120578E+00  0.94486345E+00
  0.63838931E+00  0.38600644E+00  0.23431502E+00
  0.78292769E+00  0.31916157E+00  0.37033001E+00
  0.91296444E+00  0.93139039E+00  0.41545834E+00
  0.49471288E+00  0.43001719E+00  0.37301610E+00
  0.74959157E+00  0.71143385E+00  0.43936842E-02
  0.48210887E+00  0.63685007E+00  0.97863791E+00
  0.46360948E+00  0.18366195E-01  0.59866609E+00
  0.57029704E+00  0.34811789E-01  0.34078079E+00
  0.11115334E+00  0.94677497E+00  0.63993629E-01
  0.35866301E+00  0.60577676E+00  0.28593649E+00
  0.17888213E-01  0.55333115E+00  0.24365220E+00
  0.21004395E+00  0.18310647E+00  0.18312516E+00
  0.20836524E+00  0.96861747E+00  0.95810900E+00
  0.77918907E+00  0.92370994E+00  0.59529080E+00
  0.61265926E+00  0.45527770E+00  0.67508563E+00
  0.42978192E+00  0.19545161E+00  0.25674851E+00
  0.72357723E-01  0.29013916E+00  0.99173095E+00
  0.95651719E+00  0.37840764E+00  0.14313924E+00
  0.90013283E+00  0.21554308E+00  0.11234026E-01
  0.48205653E+00  0.59907347E+00  0.69155310E+00
  0.57800764E+00  0.80454085E+00  0.70080977E+00
  0.64793246E-01  0.80475274E-01  0.78314358E+00
  0.24031774E+00  0.97053918E-01  0.99948785E+00
  0.61682471E+00  0.55047159E+00  0.42214332E-01
  0.44346855E+00  0.64529383E+00  0.17427336E+00
  0.25834397E+00  0.18569603E+00  0.74358652E+00
  0.74931225E+00  0.75819583E+00  0.84700284E+00
  0.51958893E+00  0.38016306E-01  0.14648794E+00
  0.64635006E-01  0.25695131E+00  0.77911379E+00
  0.43964320E-02  0.27471603E+00  0.57836733E+00
  0.44547265E+00  0.15411224E+00  0.63684367E+00
  0.20722294E+00  0.59792068E+00  0.37883177E+00
  0.30942568E+00  0.44081668E+00  0.31145878E+00
  0.61643304E+00  0.20603419E-01  0.65919424E+00
  0.31941497E+00  0.21532037E-01  0.54959776E+00
  0.48943461E-01  0.87218117E-01  0.48902456E-01
  0.80284203E+00  0.42157648E+00  0.25210991E+00
  0.13092625E+00  0.37298925E+00  0.79521838E+00
  0.82634022E+00  0.35383637E+00  0.65897570E+00
  0.99970004E+00  0.88589535E+00  0.99157979E+00
  0.81361700E+00  0.87294812E+00  0.31903683E+00
  0.64048557E+00  0.24835191E+00  0.68916355E+00
  0.77689307E+00  0.12446546E+00  0.73053333E+00
  0.48677167E+00  0.10647301E+00  0.45777184E+00
  0.14499419E+00  0.99526555E-01  0.58233395E+00
  0.57466686E+00  0.96753981E+00  0.86494552E+00
  0.26932866E+00  0.29324338E+00  0.91670685E+00
  0.54166344E+00  0.70545403E+00  0.49485382E+00
  0.71718750E+00  0.46136262E-01  0.36233550E-01
  0.83694237E+00  0.30093966E+00  0.84184582E+00
  0.61172414E+00  0.17968142E+00  0.30125253E+00
  0.67289881E+00  0.26545154E-01  0.43959711E+00
  0.63510043E+00  0.37889722E+00  0.91426889E+00
  0.59905600E+00  0.81944204E+00  0.17125641E+00
  0.87328120E-01  0.13920626E+00  0.34585653E+00
  0.16310963E+00  0.99113604E+00  0.23293289E+00
  0.45700877E+00  0.45361075E+00  0.15569429E-01
  0.30514847E+00  0.81082905E+00  0.82483388E-01
  0.14622855E+00  0.80014286E+00  0.86859644E+00
  0.44822273E+00  0.82100663E+00  0.65916068E-01
  0.10507622E+00  0.34218092E+00  0.28663080E+00
  0.44570999E+00  0.28978910E+00  0.80087127E+00
  0.15924693E+00  0.81695741E+00  0.62694542E+00
  0.49243155E+00  0.57908223E+00  0.36878515E+00
  0.64335736E+00  0.16081242E+00  0.94009822E+00
  0.76316727E+00  0.53256373E+00  0.78441183E+00
  0.26577046E+00  0.61284494E+00  0.58586006E+00
  0.78423840E+00  0.44962211E-02  0.83415063E+00
  0.89499976E+00  0.87710694E+00  0.55422284E+00
  0.52225184E+00  0.25525771E+00  0.96550994E-01
  0.73098370E+00  0.21071661E+00  0.48662404E+00
  0.91866887E+00  0.27454765E+00  0.33519320E+00
  0.49368467E+00  0.39382040E+00  0.23596560E+00
  0.35999728E+00  0.74512467E+00  0.34568813E+00
  0.51548111E+00  0.89351103E+00  0.38284167E+00
  0.69330093E+00  0.12800074E-01  0.24459562E+00
  0.68293940E+00  0.71325825E+00  0.36197596E+00
  0.26976250E+00  0.22538388E+00  0.71610957E-01
  0.34299476E+00  0.90425307E+00  0.24723010E+00
  0.59358932E-02  0.59926972E+00  0.55364425E+00
  0.89741538E+00  0.68896304E+00  0.69616574E+00
  0.21865394E+00  0.63452748E+00  0.94589649E+00
  0.40234629E+00  0.97195853E+00  0.72610313E+00
  0.81067198E+00  0.61142923E+00  0.21030577E+00