Ce1 Se2
1.0
   2.1692827499999998    3.6831794200000001    0.0000000000000000
   2.0300406899999999   -3.6760427099999999   -0.7937726400000000
   0.2889257700000000   -0.1701693500000000   -9.6018439600000001
Ce Se
1 2
direct
  -0.0000000000000000   -0.0000000000000000    0.0000000000000000 Ce
   0.6166677900000000    0.2333355700000000    0.1551069900000000 Se
   0.3833322100000000    0.7666644300000001    0.8448930100000001 Se
