Ge4 Se4                                 
   1.00000000000000     
    22.7878322601000001    0.0000000000000000    0.0000000000000000
     0.0000000000000000    7.9438457489000003    0.0000000000000000
     0.0000000000000000    0.0000000000000000    8.6431331634999999
   Ge   Se
    32    33
Direct
  0.0585320315733374  0.1330321928818111  0.0499679933604407
  0.9414679454266571  0.8669678071181895  0.9500320326395612
  0.1791937482679523  0.8822868177447045  0.2983555018714001
  0.3007851032967158  0.1500276371223037  0.1863284191311998
  0.9415730655883082  0.3674901018585860  0.9490753846645966
  0.1790455464375852  0.3830487517714591  0.2983011528496826
  0.0593024720347697  0.1323110466340285  0.5491625487075750
  0.9406975049652252  0.8676889533659722  0.4508374512924251
  0.1790846551471103  0.8830665577275062  0.7982601501641003
  0.3043670840656048  0.1449435720122348  0.6897676747585985
  0.9419198037256611  0.3673362574564290  0.4498726626920386
  0.1795083709841515  0.3828988604329827  0.7975753945171536
  0.0584269114116855  0.6325098981414146  0.0509246413354060
  0.2950917022394888  0.6513099548883974  0.1762662283039655
  0.0580801732743330  0.6326637425435712  0.5501273373079613
  0.2975472025854067  0.6572325616349294  0.6904097674736909
  0.5860490801763332  0.0946140489821700  0.0579141669075165
  0.4139509198236664  0.9053859510178294  0.9420858590924860
  0.6956329159343952  0.8550564279877644  0.3102323252414022
  0.8209153598528944  0.1169334422724937  0.2017398198358972
  0.4191624075946390  0.4028059456969168  0.9320593478140686
  0.7024527974145931  0.3427674383650703  0.3095902325263091
  0.5788515852165208  0.1209601571745615  0.5628386701743223
  0.4211484147834801  0.8790398428254388  0.4371613298256783
  0.6992148967032846  0.8499723628776968  0.8136715508687975
  0.8208062667320525  0.1177131822552955  0.7016444981285999
  0.4069424151808064  0.3962058202462555  0.4023239183183729
  0.7049082977605113  0.3486900451116028  0.8237337416960316
  0.5808375924053603  0.5971940543030827  0.0679406781859329
  0.8204916440158526  0.6171011395670172  0.2024245754828429
  0.5930575848191937  0.6037941797537447  0.5976760816816274
  0.8209544685624187  0.6169512482285410  0.7016988471503177
  0.0676564173706637  0.3820961189899481  0.2478179601446927
  0.9323436276293290  0.6179038810100520  0.7521820398553066
  0.1693301821522419  0.6334035255486413  0.4954631361739368
  0.3080936118040589  0.3952601243085956  0.9828913809231202
  0.0681450053028982  0.8821938988077727  0.2471948795285347
  0.3028919960566346  0.9069353968937555  0.9844797805952420
  0.0683983500312935  0.3816872812905828  0.7466891941203100
  0.9316016949686996  0.6183127187094166  0.2533108208796872
  0.1697359559046509  0.6327367858145619 -0.0050313369112247
  0.3024066723666665  0.4003205371235710  0.4932289259294315
  0.0678749068961154  0.8821988042653948  0.7472116458329623
  0.3096266558181038  0.8978140013432171  0.4859969688791284
  0.9318550396970945  0.1178061011922267  0.7528051204714652
  0.1706098287110787  0.1324994156075239  0.4960233595732419
  0.9321251381038770  0.1178011957346058  0.2527883691670346
  0.1697691229002110  0.1342474959013089 -0.0039886369596488
  0.5924423455679313  0.3384522129615539  0.2540920538459521
  0.4075576244320734  0.6615477870384459  0.7459079461540472
  0.6975933576333284  0.5996794628764288  0.5067711040705715
  0.8302639990953560  0.3672632141854384  0.0050313219112269
  0.5845052300225746  0.8508112928331194  0.2663373752993381
  0.8302308320997962  0.8657525040986910  0.0039886219596511
  0.5940203493568011  0.3505620351592896  0.7806364789910906
  0.4059796206432035  0.6494379648407108  0.2193635360089078
  0.6919064181959371  0.6047398756914046  0.0171086040768824
  0.8306697728477650  0.3665964744513592  0.5045368938260664
  0.5856987682224712  0.8606894069124061  0.7701413556306266
  0.8293901262889289  0.8675005843924763  0.5039766704267603
  0.4154947399774299  0.1491887071668799  0.7336626247006628
  0.6903733741818919  0.1021859986567830  0.5140030611208742
  0.4143012017775344  0.1393105930875939  0.2298586593693710
  0.6971080339433603  0.0930646031062450  0.0155202044047607
  0.5000000000000000  0.5000000000000000  0.5000000000000000
 
  0.00000000E+00  0.00000000E+00  0.00000000E+00
  0.00000000E+00  0.00000000E+00  0.00000000E+00
  0.00000000E+00  0.00000000E+00  0.00000000E+00
  0.00000000E+00  0.00000000E+00  0.00000000E+00
  0.00000000E+00  0.00000000E+00  0.00000000E+00
  0.00000000E+00  0.00000000E+00  0.00000000E+00
  0.00000000E+00  0.00000000E+00  0.00000000E+00
  0.00000000E+00  0.00000000E+00  0.00000000E+00
  0.00000000E+00  0.00000000E+00  0.00000000E+00
  0.00000000E+00  0.00000000E+00  0.00000000E+00
  0.00000000E+00  0.00000000E+00  0.00000000E+00
  0.00000000E+00  0.00000000E+00  0.00000000E+00
  0.00000000E+00  0.00000000E+00  0.00000000E+00
  0.00000000E+00  0.00000000E+00  0.00000000E+00
  0.00000000E+00  0.00000000E+00  0.00000000E+00
  0.00000000E+00  0.00000000E+00  0.00000000E+00
  0.00000000E+00  0.00000000E+00  0.00000000E+00
  0.00000000E+00  0.00000000E+00  0.00000000E+00
  0.00000000E+00  0.00000000E+00  0.00000000E+00
  0.00000000E+00  0.00000000E+00  0.00000000E+00
  0.00000000E+00  0.00000000E+00  0.00000000E+00
  0.00000000E+00  0.00000000E+00  0.00000000E+00
  0.00000000E+00  0.00000000E+00  0.00000000E+00
  0.00000000E+00  0.00000000E+00  0.00000000E+00
  0.00000000E+00  0.00000000E+00  0.00000000E+00
  0.00000000E+00  0.00000000E+00  0.00000000E+00
  0.00000000E+00  0.00000000E+00  0.00000000E+00
  0.00000000E+00  0.00000000E+00  0.00000000E+00
  0.00000000E+00  0.00000000E+00  0.00000000E+00
  0.00000000E+00  0.00000000E+00  0.00000000E+00
  0.00000000E+00  0.00000000E+00  0.00000000E+00
  0.00000000E+00  0.00000000E+00  0.00000000E+00
  0.00000000E+00  0.00000000E+00  0.00000000E+00
  0.00000000E+00  0.00000000E+00  0.00000000E+00
  0.00000000E+00  0.00000000E+00  0.00000000E+00
  0.00000000E+00  0.00000000E+00  0.00000000E+00
  0.00000000E+00  0.00000000E+00  0.00000000E+00
  0.00000000E+00  0.00000000E+00  0.00000000E+00
  0.00000000E+00  0.00000000E+00  0.00000000E+00
  0.00000000E+00  0.00000000E+00  0.00000000E+00
  0.00000000E+00  0.00000000E+00  0.00000000E+00
  0.00000000E+00  0.00000000E+00  0.00000000E+00
  0.00000000E+00  0.00000000E+00  0.00000000E+00
  0.00000000E+00  0.00000000E+00  0.00000000E+00
  0.00000000E+00  0.00000000E+00  0.00000000E+00
  0.00000000E+00  0.00000000E+00  0.00000000E+00
  0.00000000E+00  0.00000000E+00  0.00000000E+00
  0.00000000E+00  0.00000000E+00  0.00000000E+00
  0.00000000E+00  0.00000000E+00  0.00000000E+00
  0.00000000E+00  0.00000000E+00  0.00000000E+00
  0.00000000E+00  0.00000000E+00  0.00000000E+00
  0.00000000E+00  0.00000000E+00  0.00000000E+00
  0.00000000E+00  0.00000000E+00  0.00000000E+00
  0.00000000E+00  0.00000000E+00  0.00000000E+00
  0.00000000E+00  0.00000000E+00  0.00000000E+00
  0.00000000E+00  0.00000000E+00  0.00000000E+00
  0.00000000E+00  0.00000000E+00  0.00000000E+00
  0.00000000E+00  0.00000000E+00  0.00000000E+00
  0.00000000E+00  0.00000000E+00  0.00000000E+00
  0.00000000E+00  0.00000000E+00  0.00000000E+00
  0.00000000E+00  0.00000000E+00  0.00000000E+00
  0.00000000E+00  0.00000000E+00  0.00000000E+00
  0.00000000E+00  0.00000000E+00  0.00000000E+00
  0.00000000E+00  0.00000000E+00  0.00000000E+00
  0.00000000E+00  0.00000000E+00  0.00000000E+00
