Amorphous Sb                            
   1.00000000000000     
    21.8834391267152029    0.0000000000000000    0.0000000000000000
     0.0000000000000000   21.8834391267152029    0.0000000000000000
     0.0000000000000000    0.0000000000000000   21.8834391267152029
   In   Te
   180   120
Direct
  0.7048430141600637  0.4561207628307316  0.7299488589920849
  0.6590955071211582  0.9932770701447911  0.6098328602354973
  0.1023692819103549  0.9428503255086885  0.8392746027847789
  0.5060907828879917  0.4019629556656035  0.3260194072875554
  0.5175156571098981  0.2410625844929446  0.3540546072978432
  0.5981937948635632  0.1631764048388186  0.9382962252375702
  0.4967759271276873  0.0054731878457597  0.1736813362805466
  0.5608634346200455  0.7030250439101822  0.7486821216809865
  0.0946510707195437  0.8119152457279120  0.7020325105347297
  0.6894436043576911  0.8644717023205656  0.0267943918884609
  0.3910354651659942  0.0769318629408771  0.2249644414828537
  0.9474753455062227  0.7471029790449544  0.7163630280899549
  0.5361398958226089  0.0848708650039993  0.6835614090235148
  0.7008409904836920  0.3879284895669172  0.3349514161131395
  0.6180069707565603  0.9380290511074687  0.2930282897107587
  0.3782144859785795  0.8522870935415431  0.6890315857873749
  0.4463592077832799  0.3079927771940890  0.6929401659411277
  0.0493404493050533  0.0504220265068760  0.0070604792230910
  0.3309948406329770  0.3236182431236066  0.6383938315288159
  0.2595091674224536  0.3182399347621740  0.2467162795457012
  0.8534279575930177  0.4333313722405710  0.3385868117817150
  0.9116089809518070  0.1192453315671865  0.4710072093352293
  0.5300591881275338  0.7670657365887001  0.1953317027333857
  0.5828891499142637  0.8271483965243092  0.8696480430976231
  0.2300679730747192  0.6384900787704308  0.7407917698001102
  0.7814961395705121  0.7832920929314160  0.1685135930510274
  0.0287807924524293  0.1753080746249185  0.5741865409714418
  0.9583356645126002  0.0276878992922984  0.7517124778424898
  0.9200719276918193  0.9485082129436754  0.1008418825067606
  0.2619309255457225  0.2861239829666505  0.0907597185571762
  0.8973858178420872  0.2510842955423646  0.5322506277440280
  0.3982615194679934  0.0422812683325397  0.3962007068883915
  0.2249065788023260  0.9883556689979093  0.6648858293112268
  0.8295733897746081  0.4561888303589229  0.7931748856403834
  0.5404690200052216  0.9554312815478315  0.4400865907480749
  0.7408062083179351  0.9750808668766666  0.1950617969033967
  0.1012417943391720  0.3290126017698667  0.4076317589509486
  0.5484108930450343  0.8634358871219485  0.6466734984567314
  0.7598801878946814  0.5288011632967813  0.9144837732217062
  0.0421358942261306  0.8912605502909805  0.3088748204395409
  0.1251595180508980  0.2946235041894681  0.1198908997243059
  0.0234408838456269  0.0485086131458594  0.1511628956595173
  0.5298407768935171  0.0451861688484501  0.0074010778849241
  0.8886352515858922  0.6569119886015665  0.5761767421464740
  0.0105089309733854  0.8944715045037570  0.6402857848798906
  0.5354808778399357  0.5341580123603820  0.8487856297593885
  0.2127472601326871  0.6985113166965952  0.2333271597989235
  0.5987881337334203  0.4166860600768914  0.0142660979493821
  0.8717191697496020  0.0103283951901138  0.3211835545616856
  0.9891049264357265  0.5633024870406124  0.3677412536965984
  0.1953956908142318  0.3863475258281605  0.9996255768393090
  0.3346919357027500  0.2805402077428983  0.4694027476337815
  0.7203921034549852  0.0574547685970031  0.4526388378476573
  0.1067347577279414  0.4419428118194852  0.7708380642930465
  0.3948262517096839  0.9635021834802467  0.8585050930932209
  0.1862977777428982  0.4198712100054706  0.5876800065939561
  0.7003596050035726  0.5775934251166300  0.5722928815211143
  0.5045512321700867  0.0905611737647026  0.4756874783700533
  0.9697177700006931  0.3518034848436878  0.2444606818087441
  0.5789299080561473  0.6567919921805244  0.5711061626423610
  0.8319539690321230  0.6124751031348334  0.6906467337387843
  0.6443662644445755  0.5110940484682959  0.1276790488063086
  0.3287624459026527  0.2555671273951453  0.8050445463038945
  0.8233561404118946  0.5381231947011073  0.0409035368701928
  0.3385296060529017  0.8006083235117618  0.5498564663787407
  0.4087346586642503  0.3096806131382900  0.9813599322882149
  0.2189938505014072  0.8097419756177903  0.7385715915930916
  0.4383368937645713  0.8859710484961446  0.2330318331687969
  0.5094510799543615  0.2358312082323981  0.1330729897628000
  0.7244451639740704  0.2946378434778265  0.5807803339942804
  0.1251798543570135  0.6061538193141643  0.6085083594094561
  0.7624890638087446  0.9435673222967031  0.7483123173792610
  0.1926576136742766  0.0975766842139174  0.5861698141015871
  0.4029390190546759  0.1312478879645167  0.5771164244821125
  0.9130942814297158  0.2636703530431413  0.3819974732546352
  0.7173866842719665  0.2287105559590574  0.4253320547232243
  0.2572619723348959  0.5760955259044110  0.4876709719248104
  0.6954473433032349  0.1021728400022760  0.2700713133710808
  0.3883251945984175  0.6356753582084036  0.5679978045205298
  0.8539978551022018  0.2182990673695821  0.2516786858330553
  0.8564592952866603  0.6461432285131063  0.2977356986530800
  0.9859126948627440  0.4633663967250529  0.9016379088906080
  0.9964881184767205  0.6810846585699640  0.8814620938590707
  0.3387054770869984  0.5639435064410722  0.9236846006677871
  0.9848399806066941  0.2263415380792600  0.1625291421104054
  0.9472761647861514  0.4366498179736016  0.1110207343562565
  0.4504043521659894  0.1939246895723191  0.8582143212451827
  0.3766121439028115  0.6253059938833007  0.2674536947895512
  0.6890325005916784  0.6585620873901418  0.1692472408867343
  0.9795557588355759  0.5590548540865523  0.0495110532854034
  0.8598144020786040  0.4061014647558416  0.9322345625196464
  0.8646617543457974  0.1018809743691532  0.6386651073873808
  0.9228176969159405  0.1323365723977248  0.8959826974587135
  0.5957066430367736  0.2567048726282966  0.5266356845018392
  0.9853583221776677  0.5600391624616835  0.7342891573711766
  0.7987553950314301  0.8982519858754833  0.4894742719740413
  0.2201849180960788  0.8699118216627607  0.2606203340759236
  0.6727048446242196  0.7483674848310516  0.6202915118049448
  0.2773686693758110  0.9270830616149460  0.4561467597490791
  0.2341650403554703  0.6611038042436576  0.0519456260526757
  0.3451310793433697  0.7785983054697883  0.8845412485277276
  0.5734376337236331  0.5604546965454587  0.4343496262678566
  0.8076577003058221  0.9338664498694521  0.9024902650986838
  0.6126901652431562  0.2295021437976834  0.7038761663055757
  0.2786161287758897  0.4085901705988980  0.8554106247359686
  0.1924881733749496  0.1981719516995723  0.8393187916448134
  0.1295993339792020  0.9115362455458843  0.1020853817081139
  0.8021791202225356  0.8180257718308490  0.6113066104358934
  0.6447937985263332  0.7414070656037799  0.9806799726724902
  0.8693419704409764  0.7811492175042051  0.9350029323364646
  0.1077835757633183  0.2991959212972946  0.6982771987852679
  0.3381898442376578  0.1326844164987245  0.9982993451082465
  0.0951224400581165  0.9058596798855503  0.5165151628363442
  0.7109553646170991  0.6407746270076188  0.8572289193555837
  0.8351479604983213  0.2329420084808967  0.7611883045467334
  0.9099384686433045  0.3921182472030127  0.5138640879677321
  0.1593781032910207  0.1931266881025947  0.4899590215815649
  0.5241847821398959  0.0446203511358160  0.3143367907852481
  0.2600879205142888  0.4621336026277563  0.1415868837310802
  0.1247318539102988  0.4648976110619026  0.2222315686328522
  0.2158065336140891  0.7758701719970723  0.4087355493076087
  0.6993072559725551  0.0920328022142567  0.8652009722429160
  0.5008313893217964  0.7949851122369440  0.4841747883698646
  0.7076040910511986  0.7900704691597458  0.4407128722807499
  0.5832095670729496  0.5682236632018028  0.0050208363301604
  0.9376810967455651  0.8670462772348736  0.8580366966440072
  0.7101923327636303  0.3246342194331431  0.8678226924564648
  0.9886829225791702  0.6950019800897660  0.4622313152495727
  0.3999527802268625  0.6808664642568026  0.0788281618676065
  0.0062898209507630  0.6175151909431049  0.1787850896702573
  0.6828201270814505  0.4205009825609902  0.5206749119726809
  0.0077509088046324  0.2927934378554456  0.8151660641224887
  0.2583774985948619  0.1738190970600773  0.2858429768982799
  0.3839120964134756  0.5637096792241523  0.3970435405148276
  0.1036540999807367  0.1749293399789538  0.2905507470804964
  0.9601558038363922  0.0112021086684225  0.5875326026095691
  0.3899990911321460  0.3300456240430445  0.3474554273134860
  0.5975375465072267  0.9449582374988992  0.1064294012262016
  0.4888208935157327  0.7048500598338121  0.3290314934111165
  0.2157567565547208  0.9711323752722241  0.9014664159370408
  0.4042870528615181  0.8905215851776602  0.0524668268544745
  0.2903996403037918  0.9545510408211241  0.1453097711564207
  0.8473041048754981  0.4557965723932256  0.2019293808496786
  0.4085630395908349  0.6692617032111157  0.7719348814706670
  0.8995751172623516  0.7056137598573903  0.1231408629712597
  0.1951865760751242  0.1484967375129367  0.0089846795939549
  0.1019613664509282  0.5577435921097146  0.9878096814675099
  0.3434664672666990  0.7939968668663682  0.1205231231503274
  0.9857168930039963  0.8437177583872567  0.4455591622774881
  0.8187546986051560  0.2213024017188754  0.0198487712576386
  0.0510581397625585  0.2804363142403990  0.0029377362633962
  0.5148981341751431  0.3613149982383682  0.9110061171419666
  0.3598024041993119  0.9956314600907052  0.5987806323417125
  0.1667445633886864  0.0661028145217064  0.4002672910839202
  0.6733019522983003  0.3276771145249074  0.1703538240346565
  0.7044160347711039  0.0121660030319421  0.0391006892803085
  0.9067207685267388  0.5278494032295951  0.5344646429351313
  0.6518981517936318  0.5025455444918558  0.2672830923291253
  0.7983103574148869  0.7506532305468442  0.7439544390077465
  0.0771707444764946  0.5414538055441244  0.4603123207256216
  0.2119123298643756  0.4985455391053059  0.3154006391962151
  0.4578162402770615  0.4972641523942522  0.1025344834321162
  0.4737716455981242  0.3878376607983431  0.5068039673775038
  0.9862568405588641  0.8049721916287663  0.1980548443712036
  0.5624916566793907  0.9547127202625640  0.8063060964234161
  0.0247452111199217  0.0455089754149923  0.3746831299711913
  0.6571017419360748  0.1316845663022722  0.0844217263266154
  0.5990030928117600  0.4899227632371675  0.6367723948688904
  0.8613678277714171  0.8512750250244943  0.3489887253010917
  0.0163754644738192  0.1573541603049566  0.7775564737687497
  0.1594106580140286  0.8184447231721579  0.9517458931590592
  0.2785695600450974  0.1314331057821176  0.7267173287026634
  0.3613851285608978  0.8377419076345510  0.3797932346946633
  0.9890675682603389  0.3642553276200581  0.6331342263945684
  0.8632847299040769  0.0654769386856859  0.0820853410985366
  0.0797838472850810  0.7316317189622319  0.1154069000830791
  0.2308902056539570  0.0804575361792681  0.1823515880998347
  0.4044310092886017  0.2836382101555018  0.2087805951222123
  0.3854904605304652  0.4706128015319861  0.6987524379836947
  0.6735118311749868  0.6376177307698586  0.3236950769041164
  0.7084392008718315  0.6293431023903738  0.0329805021605975
  0.2823109608541285  0.0797750403047990  0.8676011973881876
  0.8683497944738493  0.5878528254389636  0.8161745843348889
  0.5261829911639698  0.8845525200187551  0.0012552143034798
  0.7510005229686199  0.7742301001167295  0.8708045169875059
  0.8226408361604428  0.5917670826564061  0.1830320689259488
  0.7414341383159634  0.9403944908664499  0.3598354539930709
  0.5915271115600004  0.6932495751501397  0.4321850278345679
  0.4739493805049307  0.1848958619228968  0.0088629946700904
  0.2822917487677287  0.9218748955804924  0.7677082019424979
  0.5529561020795823  0.3524168765771101  0.6314435995097065
  0.0810804301909795  0.1678200694700458  0.9214961285479307
  0.8592885892352792  0.5573781832131136  0.3958333697298123
  0.5261214305240071  0.7594554549232395  0.0544874028387936
  0.4207592157780129  0.3722918416212313  0.8078718813674735
  0.3073871617712311  0.8799468275748391  0.9570551439371913
  0.4821794634386216  0.7487504442945475  0.6211556624578022
  0.4509971424411763  0.4955135224116317  0.9471203763965328
  0.8946217721224422  0.6602245296582959  0.9940814092031665
  0.9180567933757383  0.9680468441578198  0.4625239974802125
  0.2819888539244175  0.2675821909992742  0.9451268803565490
  0.0962109262803173  0.9847880277820846  0.7155723770263390
  0.4622759982117804  0.2323897487781148  0.4928516307225586
  0.2392739255365163  0.5498246568167391  0.6334557735937176
  0.9750000023452953  0.3938365663900228  0.3916666964741354
  0.3239606936237953  0.4382895337198467  0.2845507106617099
  0.6990945736026748  0.5320612703162518  0.4374956450897481
  0.0804091864553746  0.0417546869204007  0.5252516192150348
  0.1231050963223386  0.1525542702401994  0.1359191075570068
  0.1234286887690149  0.7702691835127918  0.2993337326826302
  0.6418055187461424  0.4569246677167913  0.8766271112203570
  0.5232174591149732  0.6315507234049826  0.1166775629154216
  0.1321972649667772  0.6627612813455650  0.4905831119341605
  0.0711859806323985  0.5583332868920576  0.8531089387824919
  0.9582745495011278  0.4165844022375123  0.7645774366549339
  0.3377696363953293  0.7655944934782319  0.2511428089039522
  0.5142823007281161  0.8515534824230055  0.3459176158486523
  0.5690904945820741  0.1234007093353597  0.1889800896053841
  0.8061808971577512  0.0688544876222313  0.9611952062488096
  0.9509052381099540  0.1570609427475595  0.0458350641228917
  0.7722186316374544  0.7438673598910444  0.3144662666137799
  0.0613575793336467  0.8155310836526166  0.8365078622149633
  0.4407116748698392  0.1713351445445118  0.7096107478860304
  0.2882089574360639  0.0628003164056482  0.4751930401075765
  0.9034395757651070  0.8904002443620391  0.7309723378157960
  0.8224990798063697  0.1011332327500051  0.7714409513373556
  0.9332083059167090  0.7858423843621160  0.5751929282062563
  0.1222183083385108  0.9694450080719601  0.2194483511068820
  0.0416667880871450  0.5069130179905882  0.5847538755089354
  0.7688609019910678  0.6889452619969767  0.5269438781931930
  0.3903445493493075  0.1638097456205758  0.3280440257787432
  0.1133140631103468  0.3250385529646947  0.2549935914309094
  0.3223190119439912  0.3986421094370622  0.5311164774706215
  0.5815422467018379  0.2601244458794127  0.8416666292021983
  0.3967698734964160  0.7051523200164737  0.4406361983937164
  0.4003386006159947  0.0201013854442608  0.0723667008319260
  0.6488389088814605  0.0427661161391436  0.7377979674967865
  0.9819146718329252  0.6849789837017466  0.3000543194726709
  0.5103756537652370  0.0689277534191930  0.8695587607684805
  0.5985853764603987  0.3556800303889654  0.4228663835764403
  0.3407195865254254  0.9625544058374665  0.3001606688059820
  0.2172786214279947  0.8872327345389474  0.5763378955573316
  0.5736221376852052  0.6550919591174503  0.8903566404691963
  0.7353269276911185  0.3101575315182021  0.7213816182843001
  0.9974976452906343  0.5013900581127336  0.2525031505972786
  0.7510919886831033  0.4177993605301505  0.1122302867720748
  0.4438141420593871  0.8166687095998927  0.8080788444928971
  0.8777815295402178  0.2722182686885905  0.8777785192329365
  0.1008092252023039  0.6707848776655848  0.7180314716904856
  0.1762710054129998  0.4592382918300784  0.4375040545623758
  0.3414405954235118  0.5761131151985867  0.1431069093687875
  0.0357940581423636  0.1915549515721824  0.4165549664065332
  0.7842850052252999  0.1737204184638821  0.5546585716339821
  0.1018302193736322  0.3021872864443318  0.5538227755765733
  0.8605870503692339  0.8960792548375637  0.2100714175647129
  0.2914522463352048  0.2098445239447712  0.5842841494747565
  0.6035729282257830  0.1330479854829360  0.3868952063954088
  0.7930769460384165  0.3582105144170818  0.4399635985846972
  0.0834850686887461  0.4347714480742432  0.0987893325877268
  0.5055537010813207  0.5527796700993284  0.7222259765629364
  0.9321868493594825  0.2322678723357030  0.6711078817028764
  0.6195658600167602  0.8853066171896556  0.5367714585451849
  0.2043523539112341  0.8011126422428049  0.1173185839235796
  0.7890851598062113  0.9807518214402594  0.6076426934828506
  0.4026036312100585  0.6757931301357238  0.9439590416212432
  0.1970966900640936  0.0028305108026646  0.0348396582536484
  0.6290653406382135  0.2650838138239302  0.0645265398617504
  0.3676286413479423  0.3713156671321135  0.1013001565655506
  0.2360446617873126  0.3533305486465618  0.7249971888409997
  0.7155572213385213  0.2622038324974595  0.2738905908304577
  0.5678076282150203  0.3999776849593605  0.2013221532273778
  0.9851999210106858  0.9898000904604928  0.8874246471333969
  0.4183547222378831  0.9180955172744422  0.4999932419844648
  0.3044247160227349  0.7260894722208052  0.6760894338280846
  0.6516882524902310  0.8496942231612346  0.1904283221726409
  0.0150637670075802  0.8664848856122538  0.0593507854738985
  0.8012665734384020  0.4958372834984855  0.6259058190234115
  0.7011850351592487  0.6457310294710220  0.7172330449197117
  0.2359099319419849  0.5256416536274791  0.9974316614529947
  0.7830951439233688  0.1420400931678045  0.1525405841146960
  0.4735090551070432  0.9662932298119477  0.6876530694659631
  0.6014293677885818  0.1087942543294889  0.5707678864214438
  0.6697377631895088  0.9572130905669066  0.9143032796719324
  0.6457622461434670  0.8396653653856888  0.7314499531130345
  0.2276961738666920  0.2608620834173231  0.3927635875894698
  0.0896081381413958  0.3687004059000810  0.9025979865943786
  0.9726997898639975  0.1183256700831415  0.2556562159567912
  0.2283364951360432  0.7330075645400386  0.8503310306310091
  0.3321222502278873  0.1813289892885732  0.1399333243690811
  0.3069975195840260  0.5462743469354981  0.7985905696793992
  0.2488556432119270  0.6212650967512218  0.3405872474270621
  0.1269233861284782  0.1647430351177561  0.6953377541592547
  0.8286809659495977  0.8653689410053363  0.0323694837521103
  0.1461295481764375  0.6094426981423109  0.1594426991209588
  0.8123563939791523  0.1341671999326674  0.3657388287711879
  0.5239854984035048  0.5381371780488318  0.3176726615198113
  0.5010793485087403  0.5380679176093809  0.5391772535188978
  0.1540135613918777  0.9233537737491465  0.3921898785497485
  0.9248251629922366  0.3333233821508289  0.0310394571077516
  0.0999999679357603  0.6947754913412065  0.9871474004411332
 
  0.00000000E+00  0.00000000E+00  0.00000000E+00
  0.00000000E+00  0.00000000E+00  0.00000000E+00
  0.00000000E+00  0.00000000E+00  0.00000000E+00
  0.00000000E+00  0.00000000E+00  0.00000000E+00
  0.00000000E+00  0.00000000E+00  0.00000000E+00
  0.00000000E+00  0.00000000E+00  0.00000000E+00
  0.00000000E+00  0.00000000E+00  0.00000000E+00
  0.00000000E+00  0.00000000E+00  0.00000000E+00
  0.00000000E+00  0.00000000E+00  0.00000000E+00
  0.00000000E+00  0.00000000E+00  0.00000000E+00
  0.00000000E+00  0.00000000E+00  0.00000000E+00
  0.00000000E+00  0.00000000E+00  0.00000000E+00
  0.00000000E+00  0.00000000E+00  0.00000000E+00
  0.00000000E+00  0.00000000E+00  0.00000000E+00
  0.00000000E+00  0.00000000E+00  0.00000000E+00
  0.00000000E+00  0.00000000E+00  0.00000000E+00
  0.00000000E+00  0.00000000E+00  0.00000000E+00
  0.00000000E+00  0.00000000E+00  0.00000000E+00
  0.00000000E+00  0.00000000E+00  0.00000000E+00
  0.00000000E+00  0.00000000E+00  0.00000000E+00
  0.00000000E+00  0.00000000E+00  0.00000000E+00
  0.00000000E+00  0.00000000E+00  0.00000000E+00
  0.00000000E+00  0.00000000E+00  0.00000000E+00
  0.00000000E+00  0.00000000E+00  0.00000000E+00
  0.00000000E+00  0.00000000E+00  0.00000000E+00
  0.00000000E+00  0.00000000E+00  0.00000000E+00
  0.00000000E+00  0.00000000E+00  0.00000000E+00
  0.00000000E+00  0.00000000E+00  0.00000000E+00
  0.00000000E+00  0.00000000E+00  0.00000000E+00
  0.00000000E+00  0.00000000E+00  0.00000000E+00
  0.00000000E+00  0.00000000E+00  0.00000000E+00
  0.00000000E+00  0.00000000E+00  0.00000000E+00
  0.00000000E+00  0.00000000E+00  0.00000000E+00
  0.00000000E+00  0.00000000E+00  0.00000000E+00
  0.00000000E+00  0.00000000E+00  0.00000000E+00
  0.00000000E+00  0.00000000E+00  0.00000000E+00
  0.00000000E+00  0.00000000E+00  0.00000000E+00
  0.00000000E+00  0.00000000E+00  0.00000000E+00
  0.00000000E+00  0.00000000E+00  0.00000000E+00
  0.00000000E+00  0.00000000E+00  0.00000000E+00
  0.00000000E+00  0.00000000E+00  0.00000000E+00
  0.00000000E+00  0.00000000E+00  0.00000000E+00
  0.00000000E+00  0.00000000E+00  0.00000000E+00
  0.00000000E+00  0.00000000E+00  0.00000000E+00
  0.00000000E+00  0.00000000E+00  0.00000000E+00
  0.00000000E+00  0.00000000E+00  0.00000000E+00
  0.00000000E+00  0.00000000E+00  0.00000000E+00
  0.00000000E+00  0.00000000E+00  0.00000000E+00
  0.00000000E+00  0.00000000E+00  0.00000000E+00
  0.00000000E+00  0.00000000E+00  0.00000000E+00
  0.00000000E+00  0.00000000E+00  0.00000000E+00
  0.00000000E+00  0.00000000E+00  0.00000000E+00
  0.00000000E+00  0.00000000E+00  0.00000000E+00
  0.00000000E+00  0.00000000E+00  0.00000000E+00
  0.00000000E+00  0.00000000E+00  0.00000000E+00
  0.00000000E+00  0.00000000E+00  0.00000000E+00
  0.00000000E+00  0.00000000E+00  0.00000000E+00
  0.00000000E+00  0.00000000E+00  0.00000000E+00
  0.00000000E+00  0.00000000E+00  0.00000000E+00
  0.00000000E+00  0.00000000E+00  0.00000000E+00
  0.00000000E+00  0.00000000E+00  0.00000000E+00
  0.00000000E+00  0.00000000E+00  0.00000000E+00
  0.00000000E+00  0.00000000E+00  0.00000000E+00
  0.00000000E+00  0.00000000E+00  0.00000000E+00
  0.00000000E+00  0.00000000E+00  0.00000000E+00
  0.00000000E+00  0.00000000E+00  0.00000000E+00
  0.00000000E+00  0.00000000E+00  0.00000000E+00
  0.00000000E+00  0.00000000E+00  0.00000000E+00
  0.00000000E+00  0.00000000E+00  0.00000000E+00
  0.00000000E+00  0.00000000E+00  0.00000000E+00
  0.00000000E+00  0.00000000E+00  0.00000000E+00
  0.00000000E+00  0.00000000E+00  0.00000000E+00
  0.00000000E+00  0.00000000E+00  0.00000000E+00
  0.00000000E+00  0.00000000E+00  0.00000000E+00
  0.00000000E+00  0.00000000E+00  0.00000000E+00
  0.00000000E+00  0.00000000E+00  0.00000000E+00
  0.00000000E+00  0.00000000E+00  0.00000000E+00
  0.00000000E+00  0.00000000E+00  0.00000000E+00
  0.00000000E+00  0.00000000E+00  0.00000000E+00
  0.00000000E+00  0.00000000E+00  0.00000000E+00
  0.00000000E+00  0.00000000E+00  0.00000000E+00
  0.00000000E+00  0.00000000E+00  0.00000000E+00
  0.00000000E+00  0.00000000E+00  0.00000000E+00
  0.00000000E+00  0.00000000E+00  0.00000000E+00
  0.00000000E+00  0.00000000E+00  0.00000000E+00
  0.00000000E+00  0.00000000E+00  0.00000000E+00
  0.00000000E+00  0.00000000E+00  0.00000000E+00
  0.00000000E+00  0.00000000E+00  0.00000000E+00
  0.00000000E+00  0.00000000E+00  0.00000000E+00
  0.00000000E+00  0.00000000E+00  0.00000000E+00
  0.00000000E+00  0.00000000E+00  0.00000000E+00
  0.00000000E+00  0.00000000E+00  0.00000000E+00
  0.00000000E+00  0.00000000E+00  0.00000000E+00
  0.00000000E+00  0.00000000E+00  0.00000000E+00
  0.00000000E+00  0.00000000E+00  0.00000000E+00
  0.00000000E+00  0.00000000E+00  0.00000000E+00
  0.00000000E+00  0.00000000E+00  0.00000000E+00
  0.00000000E+00  0.00000000E+00  0.00000000E+00
  0.00000000E+00  0.00000000E+00  0.00000000E+00
  0.00000000E+00  0.00000000E+00  0.00000000E+00
  0.00000000E+00  0.00000000E+00  0.00000000E+00
  0.00000000E+00  0.00000000E+00  0.00000000E+00
  0.00000000E+00  0.00000000E+00  0.00000000E+00
  0.00000000E+00  0.00000000E+00  0.00000000E+00
  0.00000000E+00  0.00000000E+00  0.00000000E+00
  0.00000000E+00  0.00000000E+00  0.00000000E+00
  0.00000000E+00  0.00000000E+00  0.00000000E+00
  0.00000000E+00  0.00000000E+00  0.00000000E+00
  0.00000000E+00  0.00000000E+00  0.00000000E+00
  0.00000000E+00  0.00000000E+00  0.00000000E+00
  0.00000000E+00  0.00000000E+00  0.00000000E+00
  0.00000000E+00  0.00000000E+00  0.00000000E+00
  0.00000000E+00  0.00000000E+00  0.00000000E+00
  0.00000000E+00  0.00000000E+00  0.00000000E+00
  0.00000000E+00  0.00000000E+00  0.00000000E+00
  0.00000000E+00  0.00000000E+00  0.00000000E+00
  0.00000000E+00  0.00000000E+00  0.00000000E+00
  0.00000000E+00  0.00000000E+00  0.00000000E+00
  0.00000000E+00  0.00000000E+00  0.00000000E+00
  0.00000000E+00  0.00000000E+00  0.00000000E+00
  0.00000000E+00  0.00000000E+00  0.00000000E+00
  0.00000000E+00  0.00000000E+00  0.00000000E+00
  0.00000000E+00  0.00000000E+00  0.00000000E+00
  0.00000000E+00  0.00000000E+00  0.00000000E+00
  0.00000000E+00  0.00000000E+00  0.00000000E+00
  0.00000000E+00  0.00000000E+00  0.00000000E+00
  0.00000000E+00  0.00000000E+00  0.00000000E+00
  0.00000000E+00  0.00000000E+00  0.00000000E+00
  0.00000000E+00  0.00000000E+00  0.00000000E+00
  0.00000000E+00  0.00000000E+00  0.00000000E+00
  0.00000000E+00  0.00000000E+00  0.00000000E+00
  0.00000000E+00  0.00000000E+00  0.00000000E+00
  0.00000000E+00  0.00000000E+00  0.00000000E+00
  0.00000000E+00  0.00000000E+00  0.00000000E+00
  0.00000000E+00  0.00000000E+00  0.00000000E+00
  0.00000000E+00  0.00000000E+00  0.00000000E+00
  0.00000000E+00  0.00000000E+00  0.00000000E+00
  0.00000000E+00  0.00000000E+00  0.00000000E+00
  0.00000000E+00  0.00000000E+00  0.00000000E+00
  0.00000000E+00  0.00000000E+00  0.00000000E+00
  0.00000000E+00  0.00000000E+00  0.00000000E+00
  0.00000000E+00  0.00000000E+00  0.00000000E+00
  0.00000000E+00  0.00000000E+00  0.00000000E+00
  0.00000000E+00  0.00000000E+00  0.00000000E+00
  0.00000000E+00  0.00000000E+00  0.00000000E+00
  0.00000000E+00  0.00000000E+00  0.00000000E+00
  0.00000000E+00  0.00000000E+00  0.00000000E+00
  0.00000000E+00  0.00000000E+00  0.00000000E+00
  0.00000000E+00  0.00000000E+00  0.00000000E+00
  0.00000000E+00  0.00000000E+00  0.00000000E+00
  0.00000000E+00  0.00000000E+00  0.00000000E+00
  0.00000000E+00  0.00000000E+00  0.00000000E+00
  0.00000000E+00  0.00000000E+00  0.00000000E+00
  0.00000000E+00  0.00000000E+00  0.00000000E+00
  0.00000000E+00  0.00000000E+00  0.00000000E+00
  0.00000000E+00  0.00000000E+00  0.00000000E+00
  0.00000000E+00  0.00000000E+00  0.00000000E+00
  0.00000000E+00  0.00000000E+00  0.00000000E+00
  0.00000000E+00  0.00000000E+00  0.00000000E+00
  0.00000000E+00  0.00000000E+00  0.00000000E+00
  0.00000000E+00  0.00000000E+00  0.00000000E+00
  0.00000000E+00  0.00000000E+00  0.00000000E+00
  0.00000000E+00  0.00000000E+00  0.00000000E+00
  0.00000000E+00  0.00000000E+00  0.00000000E+00
  0.00000000E+00  0.00000000E+00  0.00000000E+00
  0.00000000E+00  0.00000000E+00  0.00000000E+00
  0.00000000E+00  0.00000000E+00  0.00000000E+00
  0.00000000E+00  0.00000000E+00  0.00000000E+00
  0.00000000E+00  0.00000000E+00  0.00000000E+00
  0.00000000E+00  0.00000000E+00  0.00000000E+00
  0.00000000E+00  0.00000000E+00  0.00000000E+00
  0.00000000E+00  0.00000000E+00  0.00000000E+00
  0.00000000E+00  0.00000000E+00  0.00000000E+00
  0.00000000E+00  0.00000000E+00  0.00000000E+00
  0.00000000E+00  0.00000000E+00  0.00000000E+00
  0.00000000E+00  0.00000000E+00  0.00000000E+00
  0.00000000E+00  0.00000000E+00  0.00000000E+00
  0.00000000E+00  0.00000000E+00  0.00000000E+00
  0.00000000E+00  0.00000000E+00  0.00000000E+00
  0.00000000E+00  0.00000000E+00  0.00000000E+00
  0.00000000E+00  0.00000000E+00  0.00000000E+00
  0.00000000E+00  0.00000000E+00  0.00000000E+00
  0.00000000E+00  0.00000000E+00  0.00000000E+00
  0.00000000E+00  0.00000000E+00  0.00000000E+00
  0.00000000E+00  0.00000000E+00  0.00000000E+00
  0.00000000E+00  0.00000000E+00  0.00000000E+00
  0.00000000E+00  0.00000000E+00  0.00000000E+00
  0.00000000E+00  0.00000000E+00  0.00000000E+00
  0.00000000E+00  0.00000000E+00  0.00000000E+00
  0.00000000E+00  0.00000000E+00  0.00000000E+00
  0.00000000E+00  0.00000000E+00  0.00000000E+00
  0.00000000E+00  0.00000000E+00  0.00000000E+00
  0.00000000E+00  0.00000000E+00  0.00000000E+00
  0.00000000E+00  0.00000000E+00  0.00000000E+00
  0.00000000E+00  0.00000000E+00  0.00000000E+00
  0.00000000E+00  0.00000000E+00  0.00000000E+00
  0.00000000E+00  0.00000000E+00  0.00000000E+00
  0.00000000E+00  0.00000000E+00  0.00000000E+00
  0.00000000E+00  0.00000000E+00  0.00000000E+00
  0.00000000E+00  0.00000000E+00  0.00000000E+00
  0.00000000E+00  0.00000000E+00  0.00000000E+00
  0.00000000E+00  0.00000000E+00  0.00000000E+00
  0.00000000E+00  0.00000000E+00  0.00000000E+00
  0.00000000E+00  0.00000000E+00  0.00000000E+00
  0.00000000E+00  0.00000000E+00  0.00000000E+00
  0.00000000E+00  0.00000000E+00  0.00000000E+00
  0.00000000E+00  0.00000000E+00  0.00000000E+00
  0.00000000E+00  0.00000000E+00  0.00000000E+00
  0.00000000E+00  0.00000000E+00  0.00000000E+00
  0.00000000E+00  0.00000000E+00  0.00000000E+00
  0.00000000E+00  0.00000000E+00  0.00000000E+00
  0.00000000E+00  0.00000000E+00  0.00000000E+00
  0.00000000E+00  0.00000000E+00  0.00000000E+00
  0.00000000E+00  0.00000000E+00  0.00000000E+00
  0.00000000E+00  0.00000000E+00  0.00000000E+00
  0.00000000E+00  0.00000000E+00  0.00000000E+00
  0.00000000E+00  0.00000000E+00  0.00000000E+00
  0.00000000E+00  0.00000000E+00  0.00000000E+00
  0.00000000E+00  0.00000000E+00  0.00000000E+00
  0.00000000E+00  0.00000000E+00  0.00000000E+00
  0.00000000E+00  0.00000000E+00  0.00000000E+00
  0.00000000E+00  0.00000000E+00  0.00000000E+00
  0.00000000E+00  0.00000000E+00  0.00000000E+00
  0.00000000E+00  0.00000000E+00  0.00000000E+00
  0.00000000E+00  0.00000000E+00  0.00000000E+00
  0.00000000E+00  0.00000000E+00  0.00000000E+00
  0.00000000E+00  0.00000000E+00  0.00000000E+00
  0.00000000E+00  0.00000000E+00  0.00000000E+00
  0.00000000E+00  0.00000000E+00  0.00000000E+00
  0.00000000E+00  0.00000000E+00  0.00000000E+00
  0.00000000E+00  0.00000000E+00  0.00000000E+00
  0.00000000E+00  0.00000000E+00  0.00000000E+00