Cr40 Te112 Se8 (1x5x1)                  
   1.00000000000000     
     0.0000000000000000    7.7560123403818260    0.0000000000000000
    54.6126453927656215    0.0000000000000000    0.0000000000000000
     0.0000000000000000   -5.1616638625529552   -9.7660917353420942
   Cr   Te   Se
    40   112     8
Direct
  0.4980338985343348  0.2000402427725919  0.1393055926057937
  0.4959802318738486  0.0986899309452134  0.3519926107073366
  0.4996917544231379 -0.0000126746540947  0.8600941556675273
  0.5005906482353245  0.0998891169405735  0.6402391484318679
  0.5357063920884569  0.1500270669006172  0.0117150194759995
  0.4623356186010509  0.0498889075782735  0.4869339662951752
  0.4595596635825539  0.0500601485369616 -0.0057711761121023
  0.5435874408603637  0.1495114086979375  0.5122948297270240
  0.5018479002659931  0.3997510373128189  0.1415400521498984
  0.4972200761019098  0.2989897573945333  0.3567470175533765
  0.5034969986013205  0.2005248700250533  0.8607366235269176
  0.5013664075202777  0.3002860778544005  0.6413941351446907
  0.5400535224586109  0.3491702313735816  0.0174148610989371
  0.4579479002067424  0.2508566762567427  0.4904672547490740
  0.4639068531235359  0.2487577593069804  0.9787882526858834
  0.5378077671409652  0.3488114325085233  0.5096746496218781
  0.5001623464719906  0.5995249413577014  0.1412100232730717
  0.5059062309103372  0.5006048507517448  0.3618519099903036
  0.5035489343952313  0.3999456199703009  0.8606684193669719
  0.4996570482906234  0.5011546850742572  0.6406265353280477
  0.5402597453719373  0.5509423779387524  0.0080184122268137
  0.4643366501500495  0.4510203835802035  0.4905990605421012
  0.4619103265043877  0.4493807039995571  0.9891764561597538
  0.5421436623776685  0.5499735185702378  0.5235171565592205
  0.4995134823175865  0.8013866899912361  0.1393817382874018
  0.4980088260095010  0.7000618428409380  0.3588753149277160
  0.4970494494507763  0.6005874145126374  0.8570297868739898
  0.4995704386452826  0.7004598425898624  0.6402168270332687
  0.5346597396877095  0.7509836593910915  0.0117186912241772
  0.4661596927901074  0.6504445854965099  0.4840172639888496
  0.4599006209947886  0.6489625910751907  0.9866070535281457
  0.5378629470736620  0.7495587414315612  0.5115208637444404
  0.4976148485033844 -0.0004096489050698  0.1405453217234870
  0.5056035981432861  0.9005301109477944  0.3648985447614968
  0.4956205495844845  0.8011909009984893  0.8579501028234136
  0.5020719572839364  0.9007685704290544  0.6397859706753652
  0.5342437555032948  0.9502256520751599  0.0085368664829226
  0.4625416246393114  0.8514683083340664  0.4843407112367265
  0.4563485225706915  0.8502557698466955  0.9950016693779578
  0.5430761020996587  0.9477904934096077  0.5134198565672099
  0.7527839391179499  0.0209648452893716  0.0863092930284348
  0.2488057555955623  0.1204822269772704  0.4140802995785560
  0.2445467077416822  0.1796526927987178  0.9132453081591384
  0.7538351106308541  0.0789883611396668  0.5808682223575187
  0.7842782677787546  0.1316560967680193  0.7472170928883821
  0.2186968962469286  0.0318719711184800  0.7549535338810288
  0.2101556633400573  0.0673585362209595  0.2522885295480093
  0.7801041964583264  0.1681738141964724  0.2467238153595978
  0.7848935561681011  0.1681255672477845  0.9424187676974555
  0.2161481424452112  0.0683167434556080  0.5586296384959636
  0.2105957451934780  0.0307963673165032  0.0587062195278632
  0.7812987341244580  0.1303376363487688  0.4356733079054281
  0.6702661649654816  0.0753097044739584  0.8841996930756449
  0.3348174603135795  0.1754016715265767  0.6186137576697814
  0.3164664663559796  0.1245750261464855  0.1133632619653370
  0.6712188537253564  0.0247184873920634  0.3818973646036857
  0.7657450047645393  0.1119941332732243  0.0967184468228109
  0.2177958332130558  0.0125025690861095  0.4105868516952658
  0.2079838467831152  0.0863160439487068  0.9066143231136667
  0.7880413862223777  0.1868414925549747  0.5885427512408209
  0.3261881116546729  0.1756077617197842  0.2712775943026311
  0.3236569086654459  0.1247229998302575  0.7691463409007284
  0.6728897467357352  0.0243050084032530  0.7282934479715862
  0.7598790133590005  0.2204422807355757  0.0867151522368278
  0.2418814467887881  0.3199995972178543  0.4129477537375614
  0.2481837779258741  0.3789961890220232  0.9168541795532290
  0.7545668817014255  0.2790675301411117  0.5847181500252301
  0.7845330842912310  0.3318709358544317  0.7480578902898214
  0.2120403277324092  0.2677621133198413  0.2505652564336937
  0.7839847524806961  0.3678761518993323  0.2482584382432995
  0.7844631063662311  0.3677874150423017  0.9431198352940440
  0.2241621582410521  0.2681298904097542  0.5691723831718034
  0.2154932886461111  0.2318468190728966  0.0551749063579717
  0.7824090090332614  0.3305693980002646  0.4398467724171357
  0.6806997891501696  0.2768696924299155  0.8906137274021442
  0.3317941159976316  0.3752776633339970  0.6172320518946326
  0.3182180330692101  0.3242497680037794  0.1136343774159810
  0.6667115133125779  0.2253496087602418  0.3798983497895997
  0.2152818254633040  0.2137228120486329  0.4121220627150636
  0.2163113348059414  0.2858746000877205  0.9040294902904058
  0.7842272805366158  0.3859123712065763  0.5893003497326854
  0.6728589968938389  0.2761164003779399  0.2233677234481905
  0.3267346893301426  0.3750300257370383  0.2718384701877050
  0.3230208187921289  0.3247342026862558  0.7690077761511817
  0.6807710420713500  0.2250857277262163  0.7300435984449618
  0.7574261304827096  0.4206322726549550  0.0857191836410145
  0.2457551893952170  0.5212733687621917  0.4147527514853286
  0.2428414546849606  0.5794115988315124  0.9129629035483841
  0.7580589865497683  0.4801416569136374  0.5878884613876880
  0.2198680207560484  0.4317231693611787  0.7532626399385172
  0.2227628692713771  0.4686369135872718  0.2546542739712623
  0.7844377032197922  0.5679302757029412  0.2477301420467024
  0.7743058321820427  0.5681907354944612  0.9299105015938066
  0.2176248804964839  0.4691729636837681  0.5606940827387230
  0.2186559321085286  0.4311505737445829  0.0618793895569427
  0.7872640959557677  0.5326354797384408  0.4461501801707106
  0.6700113480055615  0.4756685472985097  0.8826504722548859
  0.3148664199925237  0.5755688134616093  0.6135648828071837
  0.3343472014164962  0.5250343601118691  0.1187044644586126
  0.6732193934928636  0.4247262757562619  0.3850676273128496
  0.7857593888129755  0.5139375894156852  0.0883008097934572
  0.2189270801210171  0.4139357366230242  0.4118164847090036
  0.2152656478949289  0.4863429548393836  0.9123824600750025
  0.6797098156142647  0.4757092937548539  0.2312779221924831
  0.3197967472714636  0.5753504574669458  0.2675684462601382
  0.3194038928776228  0.5248200424864825  0.7713055718088268
  0.6788126837585433  0.4246850221223328  0.7306032875588734
  0.7553462307932822  0.6204026536955888  0.0842346135299020
  0.2428419101553619  0.7209394643499057  0.4146925941413453
  0.2421588459172265  0.7805122864322706  0.9159083139648887
  0.7571235285321344  0.6797866010952951  0.5847867781277518
  0.7818659877861027  0.7321425209181067  0.7477917515232941
  0.2126366063852394  0.6317995901982583  0.7492989272982468
  0.2164984604851299  0.6682418756476880  0.2512783322283511
  0.7797367673567632  0.7689857383976871  0.2457845627738070
  0.7787560829862179  0.7692139253621685  0.9390881667566922
  0.2183271106514838  0.6684552620238285  0.5576143346576311
  0.2145291880408171  0.6308820409932621  0.0573082245103759
  0.7809863379811969  0.7314229577680813  0.4382643869125821
  0.6705116262377369  0.6752021293657050  0.8820129103276880
  0.3247699851403223  0.7760034032747263  0.6150800814735339
  0.3248380502254001  0.7248685610465183  0.1154589719403649
  0.6752735704106928  0.6234640054456486  0.3885581082066115
  0.7793814828022463  0.7135463393052960  0.0894574710187419
  0.2152441426197891  0.6138786432022555  0.4069638760859745
  0.2160617784114692  0.6861385688605799  0.9093665731199815
  0.7836944183877742  0.7864082896805202  0.5913450301392639
  0.6693642967771246  0.6745880312417594  0.2286773217628715
  0.3256881630848484  0.7761117226745400  0.2701318605885462
  0.3229731286990329  0.7249088640375082  0.7701124857709036
  0.6704563171555966  0.6234433054159749  0.7209334993577388
  0.7548967900245581  0.8217368360957514  0.0818518396208202
  0.2416369481168593  0.9792781968949904  0.9139715820602674
  0.7615284101252621  0.8795627211603734  0.5889413944983531
  0.7908138038877456  0.9316231509031291  0.7503440469996607
  0.2148874377243178  0.8333287935785290  0.7542169024197276
  0.2269851266846258  0.8681984331281997  0.2499966785020506
  0.7813704684096049  0.9680746299550320  0.2455162423792466
  0.7843719609299713  0.9686261468628796  0.9418906088230566
  0.2170022702563134  0.8692723362076462  0.5585614302532282
  0.7927861125374247  0.9310235251241346  0.4415668494644928
  0.6763958950716281  0.8757168250302727  0.8848128998344303
  0.3323678857145253  0.9738102853984633  0.6194886813211409
  0.3298814139226998  0.9232983867725318  0.1124838241340657
  0.6772386104132095  0.8251435707565025  0.3871281608787864
  0.7885613733399598  0.9138060653277837  0.0921661508431592
  0.2161404021944018  0.8144316780684903  0.4076461778389536
  0.7823855723032159  0.9860611518307432  0.5876275699121679
  0.6861459943927374  0.8757232093217302  0.2350974861308643
  0.3272684428685316  0.9740824128791697  0.2713321614855350
  0.3240031914117489  0.9238893658293779  0.7743779699723902
  0.6739938277447072  0.8252588623803897  0.7293125424114559
  0.6423232318828652  0.0752134827083061  0.2160369849689439
  0.2537224921012454  0.2314081543746743  0.7655392932384455
  0.7551000659803124  0.3137719551567135  0.0849442323176007
  0.7502044156368359  0.5320095010074243  0.7352081692038911
  0.7542638522740759  0.5860080616089799  0.5880585448782103
  0.2772213086264302  0.9197822815894301  0.4261410779958348
  0.2483246485268359  0.8321315624812633  0.0694949994743574
  0.2436503578954541  0.8860579895170052  0.9232812755565296
 
  0.00000000E+00  0.00000000E+00  0.00000000E+00
  0.00000000E+00  0.00000000E+00  0.00000000E+00
  0.00000000E+00  0.00000000E+00  0.00000000E+00
  0.00000000E+00  0.00000000E+00  0.00000000E+00
  0.00000000E+00  0.00000000E+00  0.00000000E+00
  0.00000000E+00  0.00000000E+00  0.00000000E+00
  0.00000000E+00  0.00000000E+00  0.00000000E+00
  0.00000000E+00  0.00000000E+00  0.00000000E+00
  0.00000000E+00  0.00000000E+00  0.00000000E+00
  0.00000000E+00  0.00000000E+00  0.00000000E+00
  0.00000000E+00  0.00000000E+00  0.00000000E+00
  0.00000000E+00  0.00000000E+00  0.00000000E+00
  0.00000000E+00  0.00000000E+00  0.00000000E+00
  0.00000000E+00  0.00000000E+00  0.00000000E+00
  0.00000000E+00  0.00000000E+00  0.00000000E+00
  0.00000000E+00  0.00000000E+00  0.00000000E+00
  0.00000000E+00  0.00000000E+00  0.00000000E+00
  0.00000000E+00  0.00000000E+00  0.00000000E+00
  0.00000000E+00  0.00000000E+00  0.00000000E+00
  0.00000000E+00  0.00000000E+00  0.00000000E+00
  0.00000000E+00  0.00000000E+00  0.00000000E+00
  0.00000000E+00  0.00000000E+00  0.00000000E+00
  0.00000000E+00  0.00000000E+00  0.00000000E+00
  0.00000000E+00  0.00000000E+00  0.00000000E+00
  0.00000000E+00  0.00000000E+00  0.00000000E+00
  0.00000000E+00  0.00000000E+00  0.00000000E+00
  0.00000000E+00  0.00000000E+00  0.00000000E+00
  0.00000000E+00  0.00000000E+00  0.00000000E+00
  0.00000000E+00  0.00000000E+00  0.00000000E+00
  0.00000000E+00  0.00000000E+00  0.00000000E+00
  0.00000000E+00  0.00000000E+00  0.00000000E+00
  0.00000000E+00  0.00000000E+00  0.00000000E+00
  0.00000000E+00  0.00000000E+00  0.00000000E+00
  0.00000000E+00  0.00000000E+00  0.00000000E+00
  0.00000000E+00  0.00000000E+00  0.00000000E+00
  0.00000000E+00  0.00000000E+00  0.00000000E+00
  0.00000000E+00  0.00000000E+00  0.00000000E+00
  0.00000000E+00  0.00000000E+00  0.00000000E+00
  0.00000000E+00  0.00000000E+00  0.00000000E+00
  0.00000000E+00  0.00000000E+00  0.00000000E+00
  0.00000000E+00  0.00000000E+00  0.00000000E+00
  0.00000000E+00  0.00000000E+00  0.00000000E+00
  0.00000000E+00  0.00000000E+00  0.00000000E+00
  0.00000000E+00  0.00000000E+00  0.00000000E+00
  0.00000000E+00  0.00000000E+00  0.00000000E+00
  0.00000000E+00  0.00000000E+00  0.00000000E+00
  0.00000000E+00  0.00000000E+00  0.00000000E+00
  0.00000000E+00  0.00000000E+00  0.00000000E+00
  0.00000000E+00  0.00000000E+00  0.00000000E+00
  0.00000000E+00  0.00000000E+00  0.00000000E+00
  0.00000000E+00  0.00000000E+00  0.00000000E+00
  0.00000000E+00  0.00000000E+00  0.00000000E+00
  0.00000000E+00  0.00000000E+00  0.00000000E+00
  0.00000000E+00  0.00000000E+00  0.00000000E+00
  0.00000000E+00  0.00000000E+00  0.00000000E+00
  0.00000000E+00  0.00000000E+00  0.00000000E+00
  0.00000000E+00  0.00000000E+00  0.00000000E+00
  0.00000000E+00  0.00000000E+00  0.00000000E+00
  0.00000000E+00  0.00000000E+00  0.00000000E+00
  0.00000000E+00  0.00000000E+00  0.00000000E+00
  0.00000000E+00  0.00000000E+00  0.00000000E+00
  0.00000000E+00  0.00000000E+00  0.00000000E+00
  0.00000000E+00  0.00000000E+00  0.00000000E+00
  0.00000000E+00  0.00000000E+00  0.00000000E+00
  0.00000000E+00  0.00000000E+00  0.00000000E+00
  0.00000000E+00  0.00000000E+00  0.00000000E+00
  0.00000000E+00  0.00000000E+00  0.00000000E+00
  0.00000000E+00  0.00000000E+00  0.00000000E+00
  0.00000000E+00  0.00000000E+00  0.00000000E+00
  0.00000000E+00  0.00000000E+00  0.00000000E+00
  0.00000000E+00  0.00000000E+00  0.00000000E+00
  0.00000000E+00  0.00000000E+00  0.00000000E+00
  0.00000000E+00  0.00000000E+00  0.00000000E+00
  0.00000000E+00  0.00000000E+00  0.00000000E+00
  0.00000000E+00  0.00000000E+00  0.00000000E+00
  0.00000000E+00  0.00000000E+00  0.00000000E+00
  0.00000000E+00  0.00000000E+00  0.00000000E+00
  0.00000000E+00  0.00000000E+00  0.00000000E+00
  0.00000000E+00  0.00000000E+00  0.00000000E+00
  0.00000000E+00  0.00000000E+00  0.00000000E+00
  0.00000000E+00  0.00000000E+00  0.00000000E+00
  0.00000000E+00  0.00000000E+00  0.00000000E+00
  0.00000000E+00  0.00000000E+00  0.00000000E+00
  0.00000000E+00  0.00000000E+00  0.00000000E+00
  0.00000000E+00  0.00000000E+00  0.00000000E+00
  0.00000000E+00  0.00000000E+00  0.00000000E+00
  0.00000000E+00  0.00000000E+00  0.00000000E+00
  0.00000000E+00  0.00000000E+00  0.00000000E+00
  0.00000000E+00  0.00000000E+00  0.00000000E+00
  0.00000000E+00  0.00000000E+00  0.00000000E+00
  0.00000000E+00  0.00000000E+00  0.00000000E+00
  0.00000000E+00  0.00000000E+00  0.00000000E+00
  0.00000000E+00  0.00000000E+00  0.00000000E+00
  0.00000000E+00  0.00000000E+00  0.00000000E+00
  0.00000000E+00  0.00000000E+00  0.00000000E+00
  0.00000000E+00  0.00000000E+00  0.00000000E+00
  0.00000000E+00  0.00000000E+00  0.00000000E+00
  0.00000000E+00  0.00000000E+00  0.00000000E+00
  0.00000000E+00  0.00000000E+00  0.00000000E+00
  0.00000000E+00  0.00000000E+00  0.00000000E+00
  0.00000000E+00  0.00000000E+00  0.00000000E+00
  0.00000000E+00  0.00000000E+00  0.00000000E+00
  0.00000000E+00  0.00000000E+00  0.00000000E+00
  0.00000000E+00  0.00000000E+00  0.00000000E+00
  0.00000000E+00  0.00000000E+00  0.00000000E+00
  0.00000000E+00  0.00000000E+00  0.00000000E+00
  0.00000000E+00  0.00000000E+00  0.00000000E+00
  0.00000000E+00  0.00000000E+00  0.00000000E+00
  0.00000000E+00  0.00000000E+00  0.00000000E+00
  0.00000000E+00  0.00000000E+00  0.00000000E+00
  0.00000000E+00  0.00000000E+00  0.00000000E+00
  0.00000000E+00  0.00000000E+00  0.00000000E+00
  0.00000000E+00  0.00000000E+00  0.00000000E+00
  0.00000000E+00  0.00000000E+00  0.00000000E+00
  0.00000000E+00  0.00000000E+00  0.00000000E+00
  0.00000000E+00  0.00000000E+00  0.00000000E+00
  0.00000000E+00  0.00000000E+00  0.00000000E+00
  0.00000000E+00  0.00000000E+00  0.00000000E+00
  0.00000000E+00  0.00000000E+00  0.00000000E+00
  0.00000000E+00  0.00000000E+00  0.00000000E+00
  0.00000000E+00  0.00000000E+00  0.00000000E+00
  0.00000000E+00  0.00000000E+00  0.00000000E+00
  0.00000000E+00  0.00000000E+00  0.00000000E+00
  0.00000000E+00  0.00000000E+00  0.00000000E+00
  0.00000000E+00  0.00000000E+00  0.00000000E+00
  0.00000000E+00  0.00000000E+00  0.00000000E+00
  0.00000000E+00  0.00000000E+00  0.00000000E+00
  0.00000000E+00  0.00000000E+00  0.00000000E+00
  0.00000000E+00  0.00000000E+00  0.00000000E+00
  0.00000000E+00  0.00000000E+00  0.00000000E+00
  0.00000000E+00  0.00000000E+00  0.00000000E+00
  0.00000000E+00  0.00000000E+00  0.00000000E+00
  0.00000000E+00  0.00000000E+00  0.00000000E+00
  0.00000000E+00  0.00000000E+00  0.00000000E+00
  0.00000000E+00  0.00000000E+00  0.00000000E+00
  0.00000000E+00  0.00000000E+00  0.00000000E+00
  0.00000000E+00  0.00000000E+00  0.00000000E+00
  0.00000000E+00  0.00000000E+00  0.00000000E+00
  0.00000000E+00  0.00000000E+00  0.00000000E+00
  0.00000000E+00  0.00000000E+00  0.00000000E+00
  0.00000000E+00  0.00000000E+00  0.00000000E+00
  0.00000000E+00  0.00000000E+00  0.00000000E+00
  0.00000000E+00  0.00000000E+00  0.00000000E+00
  0.00000000E+00  0.00000000E+00  0.00000000E+00
  0.00000000E+00  0.00000000E+00  0.00000000E+00
  0.00000000E+00  0.00000000E+00  0.00000000E+00
  0.00000000E+00  0.00000000E+00  0.00000000E+00
  0.00000000E+00  0.00000000E+00  0.00000000E+00
  0.00000000E+00  0.00000000E+00  0.00000000E+00
  0.00000000E+00  0.00000000E+00  0.00000000E+00
  0.00000000E+00  0.00000000E+00  0.00000000E+00
  0.00000000E+00  0.00000000E+00  0.00000000E+00
  0.00000000E+00  0.00000000E+00  0.00000000E+00
  0.00000000E+00  0.00000000E+00  0.00000000E+00
  0.00000000E+00  0.00000000E+00  0.00000000E+00
  0.00000000E+00  0.00000000E+00  0.00000000E+00
  0.00000000E+00  0.00000000E+00  0.00000000E+00
  0.00000000E+00  0.00000000E+00  0.00000000E+00
  0.00000000E+00  0.00000000E+00  0.00000000E+00
  0.00000000E+00  0.00000000E+00  0.00000000E+00
