Cr8 Te24                                
   1.00000000000000     
     0.0000000000000000    8.2817407148108106   -0.2847372582298152
    10.7504907465321633    0.0000000000000000    0.0000000000000000
     0.0000000000000000   -5.1495689704052747   -9.8083238458768562
   Cr   Te
     8    24
Direct
  0.5005982686212360  0.9996412387778875  0.1407726382005766
  0.4994017313787641  0.4996412387778875  0.3592273617994234
  0.4994017313787641  0.0003587612221125  0.8592273617994235
  0.5005982686212360  0.5003587612221125  0.6407726382005765
  0.5380907690419245  0.7567503959099162  0.0124036613622721
  0.4619092309580686  0.2567503959099162  0.4875963386377278
  0.4619092309580685  0.2432496040900838  0.9875963386377277
  0.5380907690419245  0.7432496040900838  0.5124036613622723
  0.7379643952511583  0.1033316667819173  0.0775257244477675
  0.2620356047488344  0.6033316667819173  0.4224742755522325
  0.2620356047488344  0.8966683332180827  0.9224742755522326
  0.7379643952511583  0.3966683332180826  0.5775257244477674
  0.7663062796394956  0.6564550216744989  0.7412760265816316
  0.2336937203605041  0.1564550216744987  0.7587239734183613
  0.2336937203605041  0.3435449783255013  0.2587239734183616
  0.7663062796394956  0.8435449783255011  0.2412760265816314
  0.7657146241441541  0.8446642888736527  0.9320919776741132
  0.2342853758558457  0.3446642888736528  0.5679080223258797
  0.2342853758558457  0.1553357111263471  0.0679080223258797
  0.7657146241441541  0.6553357111263473  0.4320919776741132
  0.6613033710191504  0.3752045150745845  0.8820331605483366
  0.3386966289808496  0.8752045150745841  0.6179668394516634
  0.3386966289808496  0.6247954849254159  0.1179668394516635
  0.6613033710191504  0.1247954849254084  0.3820331605483364
  0.7686437831939102  0.5688332962852566  0.0869652975822178
  0.2313562168060898  0.0688332962852563  0.4130347024177822
  0.2313562168060898  0.4311667037147436  0.9130347024177824
  0.7686437831939102  0.9311667037147434  0.5869652975822176
  0.6595914958964306  0.3753950093573153  0.2215502858101576
  0.3404085041035691  0.8753950093573154  0.2784497141898351
  0.3404085041035691  0.6246049906426846  0.7784497141898357
  0.6595914958964306  0.1246049906426846  0.7215502858101572
 
  0.00000000E+00  0.00000000E+00  0.00000000E+00
  0.00000000E+00  0.00000000E+00  0.00000000E+00
  0.00000000E+00  0.00000000E+00  0.00000000E+00
  0.00000000E+00  0.00000000E+00  0.00000000E+00
  0.00000000E+00  0.00000000E+00  0.00000000E+00
  0.00000000E+00  0.00000000E+00  0.00000000E+00
  0.00000000E+00  0.00000000E+00  0.00000000E+00
  0.00000000E+00  0.00000000E+00  0.00000000E+00
  0.00000000E+00  0.00000000E+00  0.00000000E+00
  0.00000000E+00  0.00000000E+00  0.00000000E+00
  0.00000000E+00  0.00000000E+00  0.00000000E+00
  0.00000000E+00  0.00000000E+00  0.00000000E+00
  0.00000000E+00  0.00000000E+00  0.00000000E+00
  0.00000000E+00  0.00000000E+00  0.00000000E+00
  0.00000000E+00  0.00000000E+00  0.00000000E+00
  0.00000000E+00  0.00000000E+00  0.00000000E+00
  0.00000000E+00  0.00000000E+00  0.00000000E+00
  0.00000000E+00  0.00000000E+00  0.00000000E+00
  0.00000000E+00  0.00000000E+00  0.00000000E+00
  0.00000000E+00  0.00000000E+00  0.00000000E+00
  0.00000000E+00  0.00000000E+00  0.00000000E+00
  0.00000000E+00  0.00000000E+00  0.00000000E+00
  0.00000000E+00  0.00000000E+00  0.00000000E+00
  0.00000000E+00  0.00000000E+00  0.00000000E+00
  0.00000000E+00  0.00000000E+00  0.00000000E+00
  0.00000000E+00  0.00000000E+00  0.00000000E+00
  0.00000000E+00  0.00000000E+00  0.00000000E+00
  0.00000000E+00  0.00000000E+00  0.00000000E+00
  0.00000000E+00  0.00000000E+00  0.00000000E+00
  0.00000000E+00  0.00000000E+00  0.00000000E+00
  0.00000000E+00  0.00000000E+00  0.00000000E+00
  0.00000000E+00  0.00000000E+00  0.00000000E+00
