Amorphous SiAsTe                        
   1.00000000000000     
    20.3891714401205596    0.0000000000000000    0.0000000000000000
     0.0000000000000000   20.3891714401205596    0.0000000000000000
     0.0000000000000000    0.0000000000000000   20.3891714401205596
   Si   AS   Te
   135    30   135
Direct
  0.6274637878679549  0.4905078606440689  0.7625496102198698
  0.7450264264104017  0.4740825571091715  0.6455182887913544
  0.5588049208362491  0.7624843391536810  0.9016111506035627
  0.5379289927813076  0.0133091189023854  0.8820813332944270
  0.4412354585060189  0.0222312368447435  0.3947792680350133
  0.4180485486256922  0.0824329917521203  0.0259450981295216
  0.3911142533566617  0.2810024641992775  0.7610189495641878
  0.6397987372002876  0.1539801776992718  0.2382367345003973
  0.0148946525699924  0.6337099252276885  0.7359376494174691
  0.2899429864965283  0.9178197235821129  0.5306095220831544
  0.7477913508522681  0.4160726749191800  0.9700258563618186
  0.9852382849433153  0.5123824020817745  0.6105084053687323
  0.4308976043777605  0.0640020184117704  0.8627070574625350
  0.0100238825693692  0.1147108217697742  0.9457255315061146
  0.6165411167750234  0.3887422767635270  0.8151045234534803
  0.7288919439955517  0.3345184732934198  0.1580662031779431
  0.9254076045811083  0.8009652277976965  0.7943752598515825
  0.8591971994129802  0.7195155158481367  0.3503942868543192
  0.3788682230239933  0.6628906564390301  0.3690188572472287
  0.0048600377010080  0.8738934759154965  0.7399368087889799
  0.4033760372395298  0.5657345405460035  0.5194654799873267
  0.8697404935165782  0.9431750901364552  0.6994431987986708
  0.0931010579348416  0.6788259963930745  0.2004841366458261
  0.5809966899992758  0.6615448486956962  0.1549696059309200
  0.5581819935171337  0.2772004710738711  0.0805227052843193
  0.5491296144448726  0.6568995009601534  0.9520510908419759
  0.6728956030349993  0.3681981341965250  0.0575278616394309
  0.1407370634253812  0.3660242806248392  0.0862286607330553
  0.2194880100099592  0.6888519899832515  0.9688382019010119
  0.6730698996507944  0.4985094424825315  0.2912490002805950
  0.3484294648937208  0.8024395578327145  0.9825057157977939
  0.4982409915590101  0.6048411266039133  0.8548153134228313
  0.8795001904830170  0.7597659001575182  0.7007649038108945
  0.9454557219821564  0.7626602553367616  0.4819170852636986
  0.9808080623442915  0.0603516864366184  0.1981261227806488
  0.9415612958710621  0.7673280923720051  0.2866999536239394
  0.6276185100767193  0.4355642397199743  0.4742009829932078
  0.2771791988620928  0.0249967589820069  0.5572435052190758
  0.3845668898419386  0.6964429557267799  0.9563402357026841
  0.4235014002068396  0.8670550356604309  0.9127761203961509
  0.9068228753882784  0.0382184023640721  0.1075963384295895
  0.9331349214000938  0.3522421646839858  0.1469545772944321
  0.8381773568176850  0.9398902419150823  0.4161244017575764
  0.6292912090226050  0.0544126140398066  0.8180875128710522
  0.5804564754220253  0.8401334965964300  0.9835887501574718
  0.6105396460119343  0.1649923489809163  0.6542407884457735
  0.9871297846019009  0.5307342917516544  0.1476177070830505
  0.8621090106203212  0.7752946867664754  0.0532728036105256
  0.9710902060265845  0.2792777532711470  0.5224792688449434
  0.9593530464489202  0.0140058827032059  0.6754914271697470
  0.4571927353144914  0.6460532790016342  0.1421457208041125
  0.5803795449098359  0.7338511434859659  0.5631918771727333
  0.7516377839689283  0.8589232454844430  0.4374033784852698
  0.9405484890969024  0.3323055674173008  0.9421566675445343
  0.2188223291580249  0.8143319142234344  0.1817946084651041
  0.6666335418551859  0.8438516583292680  0.1963918978218037
  0.4916378104236974  0.9995725367324746  0.0608476380411081
  0.5402566828729877  0.0364207744142079  0.3368247360459478
  0.5846777259104216  0.0715676638301515  0.0592949138819662
  0.5619773162543831  0.5872998269962774  0.7563573837967404
  0.5487767501295925  0.1148206246367774  0.9496850012984148
  0.5033192897816287  0.5519681003902552  0.5772351830049547
  0.5114102296108316  0.9311465963799080  0.9653487336934039
  0.5438431034063321  0.2633908615442384  0.6550816153930253
  0.6121370616373508  0.3328657539761493  0.7124193263548727
  0.5152009230120917  0.0048705651977757  0.2294148303730166
  0.3372043774857463  0.1912478414062987  0.1710695396303988
  0.9288639440787146  0.9275779871255703  0.8861365382282747
  0.8502736014328847  0.9963149803665042  0.3083662571922195
  0.8761099083831796  0.7145879119240468  0.8434272169251072
  0.7835400234858269  0.5949272468436250  0.4346672781443148
  0.9483164501899678  0.6755915622152717  0.6532337993571331
  0.8332202430878780  0.3660558270294667  0.5329282053797244
  0.3458395588523567  0.1768201137917861  0.7500192559744107
  0.0780435899594413  0.5631744514960046  0.2162374354893293
  0.4758291374032122  0.8006364972507846  0.8231434844033330
  0.6436609815798554  0.2453988963017119  0.1640545400086167
  0.0254355795531559  0.9456590618696149  0.8322953506847498
  0.0434961198333568  0.9046219255046388  0.2938523653523080
  0.5596688709253650  0.5749356693114593  0.0498012893286450
  0.1031964391175579  0.6773954927173920  0.9993855786458408
  0.3673024546470561  0.9549237210311218  0.3311454893801524
  0.1589181588614511  0.3027404383394527  0.8113773305574210
  0.8997765602879380  0.2343716437344236  0.7895682748400299
  0.0247481000902272  0.3992097952657873  0.2248222677945753
  0.9532953654328103  0.6734923952537548  0.4070588803632487
  0.6776778918497653  0.9624089173627663  0.2166660406075190
  0.9669137596237648  0.9965360990984968  0.2957001314701450
  0.8604043397323156  0.8921858402585393  0.8035261095184300
  0.4812781200351751  0.5386630947691839  0.6897681379861971
  0.1381079243447860  0.0966090485012878  0.8015622970083494
  0.1835720503742528  0.5147318088614022  0.2133032328935353
  0.6040427926260697  0.6941598343449856  0.7444330154778106
  0.1214170057492174  0.6954037717834621  0.7475048646709110
  0.6079356979141469  0.8267812719077494  0.2936547819407577
  0.3339790615428095  0.9829360277239395  0.2229522571894463
  0.2554575910639695  0.2823503116374773  0.8745969369676145
  0.0490640763790021  0.0897679409064063  0.1086270884539152
  0.6452170458235872  0.7553639076870233  0.1166956760417301
  0.9879898538675729  0.3206890978588881  0.0503875895900729
  0.1130077570580964  0.0813955583535611  0.2963080730647439
  0.3578638309410614  0.5449889664755941  0.7087999410792696
  0.6239079636444514  0.4372372343634115  0.6563482832591334
  0.9879827623704796  0.4027004203396048  0.5847866002416365
  0.8303488288392471  0.7711461859849090  0.4549940376435873
  0.1154844044145438  0.3319641974539421  0.3915828457367994
  0.0496828547890079  0.7275234716632779  0.2996931298845679
  0.7865075872885052  0.9461373045061938  0.2232656307390146
  0.5204086782880119  0.7706354879925792  0.7169144666564609
  0.4088453801729079  0.4973959465746327  0.4123016047273695
  0.2364847520151946  0.9191102738943090  0.2370099207316545
  0.6137965429653488  0.0588156406357678  0.1725668767955259
  0.0682366866990293  0.7270440828269784  0.0960381643018915
  0.8219430588109904  0.0586935186363976  0.8553415069056467
  0.6706930745204960  0.6868593868950295  0.3567510790612501
  0.7802045711995097  0.5355405860712784  0.2651761663328348
  0.4246732096390650  0.0165650176981372  0.1583748319315312
  0.7777098311886124  0.6387494401360287  0.3268699763468052
  0.7309250901136609  0.9970504147345597  0.8018519864116181
  0.2558371788106136  0.0900127564779176  0.4597074095331406
  0.0813867523590405  0.2408900852685283  0.6670952471485914
  0.5468181714874760  0.3499599462388455  0.9029592376775060
  0.5886358664753302  0.6185162907510093  0.5410774151749743
  0.9538276462338845  0.7144443988914996  0.1089216976059302
  0.2385317248059727  0.5339523078920569  0.5386140159790797
  0.6609402336344204  0.7988705465446336  0.3931813441941642
  0.5694223019662983  0.2573327016939801  0.5359147154149515
  0.8948781399742851  0.4535989530893929  0.1849707745848519
  0.2040128994061956  0.0464901611091181  0.3693398775975439
  0.4656256678137988  0.6859686350095520  0.0314301700977299
  0.5975256332093424  0.5065408425905225  0.3824842351173235
  0.9422353719988997  0.0683907090688006  0.5150670171447315
  0.8234782990809509  0.1042898537176915  0.2688435006841106
  0.2167640941885926  0.0723384407003570  0.6460865565193710
  0.0866365507438256  0.2057129019689579  0.7820691199596204
  0.0129764515434811  0.0846571488432400  0.3650858793916669
  0.1283375927178437  0.0773383768487738  0.9218954035855631
  0.4348158442029794  0.1281480060821561  0.1326383452772905
  0.4188207311512085  0.6904031283376292  0.8397130388969429
  0.9997009488830823  0.3465365003118193  0.8386959162222892
  0.9690848080648840  0.2962074741154362  0.6423286024258473
  0.3089069731869626  0.6376875637669731  0.5411220394948367
  0.4953549016226458  0.5462194775652497  0.3376527856171476
  0.0221793821168880  0.0504044864810542  0.7723877251296248
  0.4508098482289856  0.3954006260420544  0.3722417320518702
  0.4378387773208205  0.1612517547728753  0.9405116921848784
  0.6252940312940126  0.2823957896927725  0.9790275760764853
  0.9144539711761099  0.0357324402980145  0.9309365801737819
  0.9886937543289794  0.1555674036064869  0.8308682748625479
  0.0895072075584241  0.2611972402002854  0.0747764516400147
  0.3061332457570218  0.6087817584274119  0.9622795377759069
  0.2516590959514811  0.9378158746488213  0.3557558109796609
  0.8450607780525177  0.2855766768539491  0.1904005550065891
  0.0625053424857046  0.6432274896555645  0.3693445731122822
  0.6547204522491148  0.5962156387176256  0.4368715474846935
  0.9388093691644652  0.3857815570603511  0.4829957280571780
  0.3866701178142132  0.8698311575584898  0.4982169369743734
  0.3174718531513699  0.5551349914201594  0.3703552593216257
  0.3397968340506898  0.3584776843886090  0.8287315347625385
  0.4589726779719884  0.9626931873920133  0.4976473999628803
  0.6673474144015349  0.7322159202462193  0.6536406813706358
  0.5498821720224304  0.4395277683748406  0.5631320138557839
  0.9623866958675384  0.1552392306965678  0.0527037505956261
  0.1878180332773334  0.6846045433251410  0.8448762346396532
  0.5747693625364710  0.8133102037829483  0.4755869523352741
  0.8286841415640208  0.3860385797684353  0.6564560614086249
  0.9583188718632082  0.8624664231739236  0.2011791423450802
  0.1682089106197451  0.3281327313808072  0.6878131488083924
  0.6908169817796310  0.1835349134199109  0.0604915279736642
  0.6977911955635130  0.8396902136956703  0.0255583436412443
  0.3084133612728798  0.5250026045336172  0.2450059716649915
  0.1768245438085777  0.4444692717330473  0.3862838969004723
  0.8127933114950880  0.6992016869015488  0.9527744597531665
  0.5641954526013025  0.4033410208073135  0.1064456183534516
  0.9066922148191907  0.5673254728189119  0.4553391951794026
  0.4683968453998913  0.2738723150990426  0.4629609453456742
  0.6539883554882683  0.9758283106663383  0.3427189517416213
  0.1894819564045576  0.5302404450806508  0.0863278015331885
  0.8382492035691496  0.9182310213284077  0.1044091948569056
  0.2813716207589585  0.3909145058631481  0.4611796948831612
  0.0453517569765518  0.5092024519407392  0.7250412626218369
  0.6123936773382281  0.1363632487238791  0.5289584261540580
  0.4416159805045488  0.5280922395658989  0.1076659058947341
  0.0161201115360371  0.9765679202550821  0.0568906408809521
  0.1847352867227707  0.8487521520092528  0.5215358927808719
  0.3436532091415161  0.8108169357484547  0.1113220176113327
  0.8653279821324869  0.2318276555629113  0.9128827720646955
  0.2631844968547319  0.1879225959391853  0.6538492089687266
  0.1343735840608217  0.9440194734394544  0.8911803718732533
  0.3772071062507023  0.3517652641856606  0.1464456687985253
  0.6746809127233611  0.3763985409818404  0.2774059705693224
  0.8604635973850974  0.4414510194263926  0.3041909445435085
  0.5079334463676956  0.8804370852323675  0.2504376289056214
  0.7304504482577534  0.1712437815322647  0.3256473875070898
  0.7858719895540648  0.0805083715445402  0.1516904371443387
  0.7270834007969403  0.3410280232456774  0.8702358514103324
  0.1747428726249010  0.1005208892640037  0.1184978598418471
  0.4338166464648569  0.0977851925969088  0.7362338690651394
  0.0890825973138733  0.2383072883234283  0.9471484178435410
  0.7573341937044029  0.6867702848772022  0.5196878336894039
  0.8207946165361271  0.0259393026542708  0.5051990843652190
  0.7564859644244255  0.5086823581161884  0.7699349970601569
  0.5431106845467213  0.1700058393944520  0.3140228750088359
  0.1209246332865754  0.9808493187676960  0.2120395605165941
  0.1566475686569661  0.3861619797590372  0.2073190492062354
  0.2888328935486926  0.7242041202952910  0.4400442862420725
  0.1726577075266678  0.5521957123124434  0.8440787871732842
  0.4562783048304968  0.4457166785842201  0.2538840819180028
  0.4312967462534346  0.1792549195795348  0.5529166576681136
  0.3969871672368285  0.0322806623777036  0.5963773404895801
  0.3812838202403891  0.8735259950493732  0.7351811405401073
  0.7017427252026055  0.2507681466191951  0.6787955130514266
  0.8674688652948686  0.8551658155523544  0.6115144380643354
  0.7959284616276689  0.5175292552365094  0.1393075333012146
  0.1929717870255083  0.5473350372550804  0.6664015215587851
  0.9367414186394065  0.6029147231629797  0.0537809191655531
  0.0098431770733638  0.3173200440073951  0.3208819700982755
  0.8703846492925471  0.4356314409104228  0.9679377772321176
  0.5963717063093321  0.8649859267547818  0.6751698228355930
  0.2275324356855503  0.9622101504716882  0.0658084674637700
  0.8034004829368485  0.1474906246092780  0.7663723099027311
  0.5635935998718339  0.9061105021350738  0.8097650521752497
  0.0327600412179904  0.7311947373773978  0.5758192810794697
  0.4085928927394705  0.5169737190373603  0.8682224441824917
  0.1275132849962065  0.8121998976840977  0.3462830722346008
  0.1998954917238298  0.6869032743777961  0.6481639235894102
  0.5013429477867436  0.2523438937181759  0.8133949191150903
  0.2663419877653628  0.1566294514925423  0.8465438614576510
  0.1247581319676966  0.8241503160462711  0.7414198437061306
  0.9535255267860389  0.6169626834465941  0.8403254832612781
  0.7913563838596179  0.0509219526750776  0.9736476672384564
  0.5946047913662149  0.4899759916787937  0.9529916199625026
  0.1191118627788093  0.8456309366287458  0.1084306361936688
  0.6692337533527498  0.7230115812050677  0.8487073847503924
  0.3041826611652192  0.0354068885733211  0.9788769102788857
  0.4634407039455652  0.7254676111735425  0.6160900433406876
  0.3471287742830653  0.4778418746464659  0.5918637049006270
  0.5687738304043630  0.7026911044882383  0.2859333548200766
  0.0721020635077272  0.5477439556574497  0.5318692037823365
  0.2476892704863660  0.3965054527652179  0.0377652418548459
  0.2164204384551066  0.6908651357284550  0.2336522577991645
  0.6750025706623308  0.8892674465256399  0.5293019543360513
  0.6487245489514901  0.1600020329075075  0.8838942512160041
  0.7961031960261460  0.2570438061310576  0.4852947001306357
  0.9470277922070675  0.8350290715201838  0.9635602716783960
  0.6693375615330470  0.5931646231020994  0.6344359286359280
  0.5079422552818518  0.7968447236363221  0.0770343421915581
  0.2850807166554187  0.0953064664861367  0.2448732984375197
  0.3974414444701195  0.8392660305506358  0.3728747514076359
  0.4554433700592807  0.4162914483222350  0.9615040876906333
  0.1167936164508415  0.1870805075503857  0.2176546229887840
  0.7625669953834882  0.6985435480403593  0.1344808133658450
  0.3631487684007909  0.1226432472752721  0.4039006294087840
  0.2653032877693961  0.4525563763553624  0.7511604210777765
  0.9538799352342880  0.8794098724373626  0.4173707584329058
  0.3415333484644076  0.3247931439108245  0.3526227126771579
  0.0776308341728335  0.5647814555295293  0.9449023282148871
  0.4307183069491174  0.2709759522408444  0.0494253151488701
  0.6592987375555661  0.9953816934050098  0.9911758159254419
  0.5920859157198162  0.0411349672456905  0.6941767171854401
  0.2839663293044202  0.8028458204956135  0.8200828911855396
  0.7807464452081861  0.8178463770943859  0.2430863971311465
  0.0948130075308846  0.2626614476404406  0.4980626896593071
  0.8235838310425412  0.2340880820853977  0.0716559365066021
  0.7435105099128976  0.8832642263298776  0.8509540737096724
  0.4774710705433223  0.6648414855683096  0.4506619617075408
  0.7534280078513156  0.9945378679199600  0.6740474232170911
  0.0949141286714741  0.9985635865344110  0.4250129640070920
  0.6509436748071838  0.3135079538409565  0.4520898439749445
  0.9316022913091012  0.4484000570958953  0.7871006011791671
  0.9340333105984737  0.1627516604682848  0.2537114193418857
  0.7886299552087940  0.6889885396006300  0.7425694544366682
  0.4004984739280896  0.7133047582313210  0.2588571798740683
  0.2662079261541616  0.8582092780460866  0.6409896247264972
  0.9070761875923494  0.1188284424052347  0.6265927250321527
  0.1120941980881888  0.4119726167172180  0.5432751750160767
  0.8737450821899253  0.5722594126540764  0.6373279787596534
  0.9151086815221705  0.1891753528251085  0.4556325804272858
  0.1910607710356640  0.2332369181641809  0.3429192170294989
  0.4906654918115133  0.4202547077860890  0.7363002260544477
  0.3229762970632699  0.6601080350753823  0.7509097571603831
  0.2260506987448277  0.8127379993090775  0.9541840324682724
  0.2630459407133687  0.2626746205452207  0.9984814992172816
  0.7535666205664500  0.4670016558359412  0.4966000277648468
  0.6581608562931225  0.6650743356447311  0.0154096675778180
  0.2487979446617581  0.2168178683144502  0.4781602359302199
  0.0201357713876066  0.5266440495855854  0.3182369036991479
  0.0732716627297978  0.7507933337657388  0.9019031919490754
  0.9252484917825299  0.6604574724106275  0.2164141285619086
  0.1192791025399567  0.4002728206130467  0.8831662303181617
  0.0379825527146636  0.9731564890262365  0.5921995327686410
  0.4214622912287175  0.3029130236772635  0.6418059456202447
  0.4240083051819996  0.2642423462199329  0.2436304455435660
  0.1005080000024151  0.1171397148568598  0.6078106056155224
  0.0337082712138957  0.4458564307502685  0.0564916543395925
  0.3540173149339031  0.9554740162541406  0.8504347260479826
  0.2760771730737455  0.6494764927922332  0.0993415159491358
  0.6274015615767892  0.5452454945736710  0.1778037157817971
  0.7316727256040878  0.5385553370140578  0.9586442771441296
  0.2090851375487134  0.0025595409659013  0.7484708514402051
 
  0.16382599E-02 -0.12118924E-02 -0.43391985E-03
 -0.17250604E-02  0.67502473E-03 -0.24981785E-02
 -0.38761165E-02 -0.10008677E-02 -0.39818882E-02
  0.18152305E-02 -0.32237619E-02  0.14310337E-03
 -0.14096319E-02 -0.34810693E-02  0.52524546E-05
  0.32416796E-02 -0.26854034E-02  0.27616233E-02
 -0.11136621E-03  0.18035389E-02  0.23160208E-02
 -0.41361303E-03  0.32272230E-03 -0.24630961E-02
  0.19892163E-02  0.63707019E-03 -0.96721830E-03
  0.71499964E-04 -0.72383499E-02 -0.12917816E-02
  0.15460016E-02  0.20390626E-02 -0.44632381E-02
 -0.28216416E-02  0.46883941E-02  0.12229946E-02
  0.33329151E-02 -0.46815547E-02 -0.42806005E-02
  0.21346206E-02  0.19760512E-02  0.45134037E-02
 -0.98872040E-03  0.28743084E-02 -0.11965942E-02
 -0.16281081E-02  0.78827229E-03  0.41318196E-03
  0.59569086E-03 -0.33063970E-02  0.45452642E-02
 -0.47246420E-03  0.15539311E-02 -0.96648458E-04
  0.15934859E-02 -0.35499315E-02 -0.97940076E-03
  0.11829817E-02 -0.18229609E-03  0.21480413E-02
  0.24659184E-02 -0.60556925E-02  0.27734882E-02
 -0.47644841E-02  0.49950424E-03  0.52167534E-02
  0.12782745E-02 -0.30076537E-02 -0.32253076E-02
 -0.13010669E-02 -0.24325719E-02  0.18648742E-02
 -0.39276052E-02 -0.38218564E-02  0.27273579E-02
  0.13504723E-02 -0.30066732E-03  0.40666233E-02
 -0.49270976E-03  0.73492680E-03 -0.18759000E-02
 -0.49651931E-02  0.36683232E-02 -0.24730998E-03
 -0.51349781E-02 -0.51508785E-02 -0.14718419E-02
 -0.26509237E-02 -0.45544569E-02  0.35457679E-03
  0.15968503E-03 -0.41509235E-02 -0.20818963E-02
 -0.15473345E-02 -0.18183168E-02  0.46325544E-02
  0.21241169E-02 -0.15632487E-02  0.32639806E-02
  0.45436593E-02  0.58621632E-03  0.10292344E-03
 -0.18126374E-02 -0.22095499E-02  0.45282485E-03
  0.40715587E-02  0.97540087E-03  0.66964162E-03
 -0.10313649E-02  0.71949090E-02 -0.10921760E-02
 -0.20275444E-03  0.14309617E-02 -0.17890538E-02
 -0.57352624E-02  0.83437311E-03 -0.18539994E-03
  0.75706703E-03  0.36173380E-03  0.15208270E-02
  0.19406206E-02  0.67437393E-02 -0.38478472E-02
 -0.95578415E-03 -0.24723698E-02 -0.15426367E-02
 -0.63080881E-03 -0.75182482E-03 -0.12922996E-02
 -0.14035885E-03 -0.14466307E-02 -0.44818242E-02
  0.80617989E-02 -0.54222577E-02  0.77781013E-03
 -0.41420355E-02  0.32755924E-02 -0.41111844E-02
  0.37414443E-04 -0.12502549E-02  0.20664517E-02
  0.48071269E-02 -0.38584933E-03  0.39949496E-02
 -0.19314520E-02  0.16163014E-02  0.35453366E-02
 -0.31051486E-02  0.66295331E-02  0.21592193E-03
  0.83371915E-03  0.10054677E-02  0.43844789E-03
  0.32733266E-02  0.19228524E-02  0.27987997E-02
 -0.22498158E-03 -0.36880838E-02  0.35253879E-02
 -0.25926183E-02  0.10330626E-02 -0.29554208E-02
 -0.16004459E-02 -0.51908312E-02  0.28138812E-02
  0.33143972E-02 -0.14523734E-02 -0.37110889E-02
  0.81886489E-03  0.38247547E-02 -0.28938178E-02
 -0.48361591E-02  0.31627927E-02  0.79893075E-03
  0.14713041E-02 -0.23188445E-02 -0.81134319E-03
  0.48365645E-02 -0.36099967E-02  0.21182275E-02
 -0.32974716E-03  0.18945448E-02 -0.32960802E-02
  0.23773801E-02 -0.23593883E-02  0.15680827E-02
  0.85217551E-03 -0.29754252E-02 -0.96062977E-02
  0.12142103E-04 -0.12532299E-02 -0.20123385E-02
 -0.27619273E-02  0.29334464E-02 -0.39035408E-02
 -0.16224734E-03 -0.24600734E-02 -0.26701673E-02
  0.63700749E-03 -0.37825600E-02 -0.11416448E-02
 -0.41053722E-03 -0.26606732E-02 -0.61238828E-04
  0.34324106E-03  0.57552341E-02  0.51758565E-03
 -0.13399125E-02  0.46754946E-03  0.68344593E-03
 -0.21896298E-02 -0.21839135E-02  0.17492562E-02
 -0.28116639E-02  0.22180938E-02 -0.44133499E-02
  0.22336638E-02  0.22603428E-03  0.21593543E-02
 -0.31053766E-02 -0.17868111E-02  0.45454880E-02
 -0.23797387E-02 -0.21772965E-02 -0.26932892E-02
  0.59096388E-02 -0.18901319E-02  0.26862625E-02
  0.61151410E-03 -0.28192350E-02 -0.50050357E-02
 -0.17742815E-02  0.25056658E-02  0.11090612E-02
  0.64553080E-02  0.95245753E-03  0.23970153E-02
 -0.12843036E-02 -0.59805691E-02 -0.35841975E-02
  0.15765493E-03 -0.15830130E-03  0.24944547E-02
  0.42806458E-03  0.93130104E-04  0.19811412E-02
 -0.23494876E-02  0.22357567E-02  0.17605663E-02
 -0.15054455E-02 -0.48723621E-02 -0.46042573E-02
  0.60655237E-02 -0.15092217E-03  0.15473719E-02
 -0.60377186E-03  0.16236269E-02 -0.38603301E-02
  0.10063785E-02  0.44074091E-02  0.21391991E-02
 -0.21342474E-02 -0.33203862E-02  0.14650111E-02
 -0.22273551E-02  0.97998293E-03 -0.17798212E-02
  0.21259288E-02  0.18900317E-02  0.34492755E-02
  0.13249643E-02 -0.39555158E-02 -0.19153488E-02
 -0.40519166E-02  0.85698481E-03  0.48594568E-02
 -0.54683837E-03  0.43802994E-02  0.46241695E-02
 -0.34091988E-02 -0.64229126E-02  0.43768432E-02
  0.38421106E-02 -0.79570741E-03 -0.48816447E-02
 -0.27294874E-04 -0.21783141E-02 -0.14307729E-02
 -0.26182329E-03  0.16423702E-02 -0.87372191E-03
 -0.73092973E-03 -0.25542553E-02  0.30231146E-03
 -0.44225506E-02  0.26173412E-02  0.32425614E-02
 -0.24003395E-02  0.57324227E-03 -0.22824476E-02
 -0.58957204E-03 -0.14585494E-02  0.10799808E-02
  0.61336966E-02 -0.31055004E-02 -0.13456901E-02
 -0.31505318E-03 -0.38342320E-02  0.93907223E-03
  0.39493180E-02  0.15982273E-02 -0.33586425E-02
 -0.10091735E-03 -0.35188483E-02  0.45808781E-02
 -0.82902707E-03 -0.41329458E-02  0.20946997E-03
 -0.22043449E-03  0.22688252E-03  0.38946231E-02
 -0.39004242E-02 -0.77140543E-03  0.38464363E-02
  0.78974265E-03  0.24002636E-03 -0.27312158E-02
 -0.55238696E-04  0.44687981E-02  0.26973621E-02
  0.22977611E-02 -0.62259437E-02 -0.50882151E-02
  0.16790092E-02 -0.13829457E-02  0.33245161E-02
 -0.45444265E-03 -0.34301489E-03 -0.18847319E-02
 -0.40032587E-02  0.17217592E-02 -0.40901050E-02
  0.81229254E-02  0.23521048E-02 -0.59004134E-03
 -0.27251464E-03 -0.56859609E-02 -0.23356712E-02
  0.17592452E-02  0.21144933E-02  0.52963550E-02
 -0.20761274E-03  0.18433261E-02  0.98734686E-03
  0.75250339E-03  0.11587719E-02 -0.71583895E-02
  0.41725505E-03  0.54307253E-02 -0.25646914E-03
 -0.19863988E-02  0.51274573E-02  0.30902735E-02
  0.60813387E-02 -0.56678623E-03 -0.84074842E-02
  0.45098326E-02 -0.91145936E-04 -0.79619424E-03
  0.28849345E-02 -0.15272054E-02 -0.12412127E-02
 -0.26741772E-02  0.12666223E-02  0.15948265E-02
 -0.73608135E-03 -0.11798144E-03  0.13614001E-02
 -0.16326956E-02 -0.26195364E-02 -0.34885487E-02
  0.16592881E-02  0.36339554E-02  0.60320772E-02
 -0.25801894E-02 -0.34386132E-02  0.99319607E-03
 -0.53047949E-03  0.84449267E-03  0.38536402E-02
 -0.34506864E-02 -0.60682146E-03 -0.48435440E-02
  0.62420640E-03  0.12545742E-02  0.99724387E-03
  0.40614431E-03  0.48462311E-02  0.41709674E-03
 -0.36822572E-02 -0.35484424E-03  0.17587484E-02
 -0.56679585E-02  0.20260849E-02  0.13743402E-02
  0.12737183E-02 -0.82192252E-03  0.10130860E-02
 -0.84534341E-03 -0.55959068E-03 -0.94006909E-03
 -0.18570760E-02  0.97999032E-04  0.97092569E-03
  0.14570113E-02  0.40329579E-03 -0.29536060E-02
  0.87563180E-03 -0.29904206E-03  0.19493720E-02
 -0.83676503E-03 -0.33304325E-04 -0.28268418E-02
  0.81392567E-03  0.17160390E-02  0.10212450E-02
 -0.27077559E-02  0.16568528E-03 -0.39142667E-03
  0.19298220E-02  0.58743462E-03  0.33136673E-02
  0.18256981E-02  0.10559677E-02 -0.20851928E-02
 -0.73034315E-03  0.25209407E-02 -0.16926914E-02
  0.11497275E-02 -0.67747167E-04 -0.26201690E-02
 -0.11894195E-02 -0.96960239E-03 -0.41041113E-03
 -0.24245985E-02 -0.42879768E-02  0.24633231E-02
 -0.57140901E-03 -0.23250603E-02 -0.73235743E-03
 -0.24370803E-02  0.43841508E-02  0.22387351E-02
 -0.10178616E-02 -0.18348126E-02  0.23718710E-02
  0.17672515E-02 -0.62571390E-03 -0.25780591E-04
 -0.13201382E-02 -0.32887574E-03  0.17896523E-03
  0.29570926E-02 -0.14869465E-02 -0.14113528E-02
  0.20671148E-02  0.17278834E-02 -0.14157536E-03
  0.36125696E-03 -0.74925359E-03  0.28540212E-03
  0.57772562E-03  0.11067016E-02 -0.46745968E-03
  0.35806678E-02 -0.80784421E-03 -0.54726279E-05
  0.14159360E-02  0.16590303E-02 -0.29348691E-03
 -0.16916626E-02 -0.31946001E-02 -0.11208835E-02
  0.32044522E-02  0.21138945E-02  0.33013786E-05
 -0.85653148E-05 -0.54594841E-03  0.15710506E-02
  0.41075382E-03 -0.17045285E-02 -0.51112236E-03
  0.14088247E-02 -0.50925909E-03 -0.17276033E-03
  0.17281982E-02  0.96086551E-03  0.16959288E-02
  0.23001232E-03 -0.38219116E-04  0.59928966E-03
 -0.17880054E-02  0.42539720E-03 -0.27364161E-02
  0.58963065E-03  0.68204433E-03  0.13494684E-03
 -0.16327556E-02 -0.10069223E-02  0.23131520E-02
 -0.20783864E-02 -0.31100126E-02  0.67375934E-03
  0.22640685E-02 -0.17106389E-02  0.10171851E-02
 -0.32295915E-03  0.21206252E-02 -0.55077117E-03
 -0.10805589E-02 -0.60225736E-03 -0.12002303E-03
  0.16841292E-02  0.34037181E-02  0.19690175E-02
  0.74372039E-03  0.57725136E-03 -0.15736007E-03
 -0.20540879E-02  0.21336400E-03  0.10555655E-02
  0.26780917E-02 -0.17372761E-02 -0.15919622E-02
 -0.11139516E-02 -0.11010351E-02  0.17539695E-02
  0.61915787E-03 -0.11744720E-02  0.22490681E-02
  0.98266193E-03 -0.50951658E-03  0.13322600E-02
 -0.12950018E-02 -0.19649024E-03  0.21493302E-02
  0.49797464E-03 -0.14519897E-02 -0.39334069E-02
  0.86640924E-03 -0.47758288E-03  0.49137580E-03
 -0.43648601E-02  0.73556733E-03 -0.94172755E-03
 -0.40478315E-03  0.24374357E-02  0.99281141E-03
 -0.21713336E-02 -0.46688627E-03 -0.10463266E-02
  0.44753310E-03  0.49715431E-03 -0.12270598E-02
 -0.23443229E-02 -0.15769451E-03  0.36383614E-03
  0.99215707E-04  0.27728394E-02  0.15166292E-02
  0.30690491E-02  0.39234302E-03 -0.10904797E-02
 -0.68375870E-03 -0.20631495E-02 -0.21203284E-02
  0.50882463E-05  0.95278323E-03 -0.19690058E-02
  0.87529233E-03 -0.51848910E-03 -0.77046803E-03
  0.56254930E-03 -0.21076939E-02 -0.40173230E-02
  0.30412217E-02 -0.87048802E-04  0.40354736E-02
  0.12895016E-03  0.11711211E-02 -0.10422990E-02
 -0.11166582E-02  0.21678889E-02 -0.13022907E-02
  0.32634753E-03  0.16297104E-02 -0.33636220E-03
 -0.84045370E-03 -0.80109964E-03 -0.50436660E-03
  0.77894322E-03 -0.10172681E-02  0.75045058E-03
  0.57233894E-03 -0.51539310E-04 -0.18959266E-02
 -0.89004866E-03  0.24225558E-02  0.18965823E-02
  0.50184726E-03  0.34166321E-02 -0.60654500E-03
  0.67136414E-03 -0.52612596E-03  0.39674747E-03
 -0.15361743E-02  0.10138436E-02 -0.16820956E-02
  0.12410737E-03  0.66126949E-04 -0.13502693E-02
 -0.57466478E-03 -0.75560778E-03  0.24312317E-02
  0.11336935E-02 -0.12019396E-04  0.11474090E-02
 -0.73339031E-03  0.26882783E-03  0.57945146E-03
 -0.23439690E-02  0.10180366E-02  0.81361330E-04
  0.32714617E-03 -0.13889950E-02 -0.17657848E-02
  0.19499194E-02  0.20594192E-02 -0.86454265E-03
 -0.49603223E-03  0.13203812E-02 -0.36745544E-03
 -0.52712580E-03 -0.12459752E-03 -0.22472848E-02
 -0.30982092E-02 -0.10114623E-02 -0.14547251E-02
  0.28531546E-02 -0.95985398E-03 -0.30161384E-03
 -0.13095768E-02 -0.13053296E-02  0.65798288E-03
  0.64436266E-03  0.12816626E-02 -0.10604335E-02
 -0.58479774E-04 -0.10829980E-02 -0.10225087E-03
 -0.10617784E-02  0.73553263E-03  0.86262666E-03
 -0.18186414E-02  0.32289027E-03  0.41960924E-03
  0.98336489E-03 -0.30210730E-03 -0.10394889E-02
 -0.28111280E-02  0.25616799E-02  0.78187167E-03
 -0.86631620E-03  0.15553616E-02  0.10406210E-02
  0.97461825E-03 -0.11352904E-02 -0.30102618E-03
  0.11242698E-02 -0.36117095E-03 -0.82224062E-03
 -0.19063004E-03  0.19193959E-02 -0.19564335E-02
  0.78517969E-03 -0.33823704E-03  0.26395797E-02
 -0.10191495E-02 -0.12673456E-02  0.13952168E-02
 -0.38153791E-03  0.64545119E-03 -0.71991030E-03
 -0.81195221E-05  0.12312581E-02  0.18838959E-02