Amorphous GeAsSeSi                      
   1.00000000000000     
    21.6596684777204196    0.0000000000000000    0.0000000000000000
     0.0000000000000000   21.6596684777204196    0.0000000000000000
     0.0000000000000000    0.0000000000000000   21.6596684777204196
   Ge   As   Te   Si
    30    90   165    15
Direct
  0.5336823592710441  0.3906889648407959  0.3450071268965800
  0.1432133971026841  0.9353019505256907  0.7047426680013290
  0.3903061349728679  0.1944742206789574  0.8191653127891603
  0.1713219058974071  0.3377780758962462  0.9851177377102868
  0.7148251501630257  0.4364471658553618  0.5537154884168376
  0.4461308126186341  0.2207482672727504  0.4308321489604420
  0.8582261499915920  0.1348268038499533  0.9214717853723730
  0.1346882663663303  0.8046869621159055  0.8655964723823897
  0.6742081235117865  0.0608049779417880  0.9770764436855413
  0.3030684735571929  0.8808508901652407  0.5830312838593693
  0.5292535775010041  0.2675241721443007  0.1894824394444333
  0.7094539629196217  0.5604768485323831  0.8583026340380673
  0.7180151423196767  0.2022806810527887  0.1234413914070676
  0.5050667986013695  0.0137090006679002  0.0763229208515044
  0.9168590992915484  0.2767646891333463  0.4248953634591556
  0.4702577985460594  0.8108169697799987  0.2766003356119712
  0.7754720113087559  0.0741469835248550  0.4038954699187844
  0.7133487582072858  0.9562523020035556  0.8244807053608861
  0.6485919768633663  0.9352693815533947  0.6569383309806839
  0.0554844680720381  0.8541637924893120  0.6056621144801919
  0.2555171087860724  0.0287387876939711  0.0824534931576526
  0.5236599250136535  0.8815082372114191  0.1439660731351587
  0.4555059560734773  0.7107996847422083  0.0458963488352877
  0.2401703496489399  0.0305904983231730  0.9050705101385420
  0.8115724336319906  0.2004719778839681  0.7504655251751871
  0.4081066546790264  0.5926145846408906  0.3968227637480192
  0.5055610959939130  0.9820493466226429  0.2730246637085737
  0.3177625741680340  0.5841630625675920  0.2510268968818958
  0.5455332437123250  0.1568511315378477  0.4391354035608931
  0.5280576461367341  0.5120370961675921  0.8661367168514408
  0.3743008846841925  0.9865099400178764  0.4841647347225332
  0.1155148524881102  0.7342472901423523  0.1220096872355386
  0.9472080805981252  0.9362982454508927  0.0134306967714706
  0.8509533105735769  0.6341905085429038  0.7324053681574779
  0.3636318127753075  0.5130064122879940  0.6480757156256596
  0.3339656299263362  0.7450508367209199  0.8394206875870355
  0.3258130629773716  0.8099417771057130  0.3840204343486763
  0.6558484558137496  0.3898705525546823  0.0916312611107936
  0.0499247239079065  0.0033325560369471  0.8620712018823025
  0.3821109276748875  0.7415811432019130  0.3088024067195318
  0.7686527001531063  0.7815542266780763  0.2904068090405910
  0.6504461581157165  0.1580947377648909  0.7684390099891840
  0.4563523587890062  0.7752336515806345  0.7224091440352455
  0.6446459313560366  0.2942679039266662  0.1597025828162430
  0.7783423760002496  0.8096302069053818  0.5621295414308074
  0.8996013808575930  0.9966256049396546  0.2894414991558684
  0.2972780989617003  0.1604151482608529  0.3149107787504771
  0.1786303235998552  0.5039936348608433  0.1931094496913761
  0.0691515398660413  0.0231341664531481  0.4039322409321929
  0.7212174199054695  0.7546145426559754  0.7337834138829545
  0.9006064602963050  0.5145924178190567  0.1214358844222618
  0.5961477844170552  0.0791780036344513  0.3703798580027621
  0.5445738523571770  0.8193892063026732  0.5397667000081283
  0.5174934158230426  0.9924880535181487  0.3884918251695318
  0.9265603730907161  0.3356120733646687  0.7741670098473580
  0.2086361747320544  0.4914526162062194  0.0813803133388800
  0.7635154542607420  0.8980153270628265  0.0422927445245969
  0.5695456442010104  0.7484809061360213  0.7155193289443130
  0.0894623697626294  0.2767994262939403  0.1087535372565660
  0.2660617588334853  0.8809209567104737  0.3100762319987366
  0.6073761349869207  0.8248285351299733  0.6363167001778264
  0.3250459463487588  0.4837402090087343  0.0715706382202123
  0.2174170614605965  0.3774425176252856  0.0934322188580596
  0.6637825608069295  0.6626358194818224  0.5916242825687499
  0.6806465785496612  0.1276645719371124  0.5373367126447521
  0.9093702946614310  0.1781303887919926  0.2832930131236017
  0.6668275193105633  0.9044624089605319  0.9804738561496374
  0.4565469260925995  0.6980510647570012  0.3885958927777146
  0.9583149691880654  0.8580590939719475  0.2862416873152311
  0.4294779944150514  0.4298495815730138  0.3861685982238608
  0.8661387872641267  0.7905236508259647  0.6329696416356665
  0.2970268397970876  0.6354464577491565  0.8449750832230044
  0.2685789296418165  0.2074175473331599  0.6378065161695693
  0.0092887368002520  0.0410402851047716  0.3031804912009889
  0.4230866964945436  0.9862581926649169  0.8997156917785150
  0.3880047695023794  0.5777000056407101  0.7950523685815010
  0.4465116076791885  0.7229402279325641  0.8261899335259302
  0.9922904210351099  0.8618546398779320  0.3975384381822776
  0.8300647914641023  0.9488360506458678  0.8668588015915266
  0.1174661163276222  0.1325525274879215  0.6811159004363384
  0.4267102310932573  0.0622184205291134  0.4114906088893235
  0.6248260484373509  0.1343088022801900  0.1618439286279371
  0.1841848183817792  0.7595358608432489  0.6529120224862912
  0.9841694075272759  0.2658576970102038  0.1606500038379321
  0.9074249205897659  0.8967564171101389  0.7941154358849887
  0.9855132740780285  0.7466606124400088  0.7877197791292596
  0.0514607984823477  0.6625090161285486  0.4214715476297342
  0.5179362048633001  0.0355394300155916  0.6924727837820389
  0.8559789023621427  0.0885849897795750  0.2335460812823030
  0.2789046929563722  0.4733576844419797  0.2416716536866128
  0.2160477158065120  0.9222517280310001  0.8647613759000660
  0.6872482579931701  0.7489734546902727  0.1057951031325852
  0.3166062895332057  0.7727715011254555  0.9520655299023857
  0.8612542431582669  0.5489781660869003  0.2258801651696614
  0.0106262540910264  0.3234620665683050  0.2566554563141202
  0.1289953784108051  0.1740064726602499  0.0139064754864075
  0.3537865843923211  0.3663787054577242  0.7213270006328384
  0.9644317224947102  0.6375004736569575  0.7528638263186289
  0.5022706352834806  0.7127201249954288  0.5486806983616234
  0.6664870774682017  0.2973729005865374  0.8662977171024283
  0.5335580211806749  0.9963482336591817  0.5834300056950829
  0.5984185386217119  0.2609359261869037  0.7777649422421844
  0.5584279307470124  0.6634786114529510  0.6380275029381701
  0.0427027333184220  0.5620199257911064  0.4763726010726882
  0.3241732810190044  0.3904223888716225  0.1430773382332081
  0.1992829246667595  0.8775076550293687  0.1384184736535352
  0.1407270734014534  0.3560762376887732  0.1787971276708015
  0.6746266465387982  0.9371505034304674  0.3612544862725903
  0.7760024555485903  0.8891441789593626  0.3330273796440292
  0.2189568337972603  0.2786159215104443  0.2158081854425316
  0.1823405206354078  0.2266553588321253  0.7137506656897485
  0.5360236260521239  0.1384639927557743  0.9192791812410948
  0.1074095565331656  0.8266105765464362  0.7093371419582229
  0.3590383234239103  0.2811417054935355  0.6428269105090757
  0.8810190982785016  0.7842420708576185  0.8208788579454758
  0.5719937478442711  0.1988630536343820  0.0826953055943600
  0.4029663381159864  0.2121120634073267  0.3194236880078185
  0.0401252752228509  0.4691678717710208  0.7719203092258394
  0.2505756467773432  0.6403992936402850  0.7383374861464790
  0.5959297976037203  0.9210444408395834  0.2350454407014383
  0.9321563529672704  0.2167232639609382  0.8033209890331556
  0.1980282269271071  0.9851314893080629  0.1922869959886371
  0.3459480808946017  0.0608740049850484  0.9648425237994819
  0.3977557751364125  0.6324954811056502  0.6390862649974234
  0.9979905412129682  0.5976812102806864  0.0420874531749135
  0.0815480897870849  0.3268949065293182  0.8826441004440697
  0.0418366582299197  0.3884811146445200  0.6107326758789186
  0.0294839725574428  0.4347299578922130  0.9351336150327919
  0.1683363410159012  0.8468551790250098  0.3813742567795903
  0.5585671835316470  0.6546522537144230  0.9418356253253345
  0.9431947999805813  0.6655714012007548  0.3658995635654064
  0.2334398048357111  0.6944284756981003  0.3796048532455774
  0.9261099337859368  0.9492132083895897  0.4617281422738134
  0.5445330244416642  0.2726066421462220  0.3149501279484677
  0.9768565996981911  0.1022964465585891  0.0932658963641581
  0.5552170110111516  0.3853844771294092  0.0171899656695509
  0.2633648055127856  0.4123988342563937  0.9427476451933591
  0.1055656072767793  0.4518253024826596  0.3165622658243969
  0.0768779109993128  0.6945252089717237  0.6107441047313634
  0.3249307276442955  0.9322563123362156  0.7555673012877619
  0.9476287154553029  0.8169647160011214  0.0491560290475074
  0.8087196827880396  0.5245615387775864  0.0361728913998288
  0.9010678625102130  0.4384494536733500  0.6174641415892754
  0.8816661449088096  0.3928375131283097  0.1333058005907257
  0.1560943098814778  0.0501984030429566  0.9973971081991532
  0.7432052442848815  0.5098864983916231  0.2221515918008968
  0.7039213266833783  0.6214574545043303  0.7061249720840468
  0.7263056579052766  0.6103345484349020  0.3345023455840634
  0.8806265934616291  0.5800133665983672  0.4505004496966693
  0.3225752808073642  0.1774828814802988  0.1897317180837948
  0.4738437363787342  0.0753235272134477  0.8337198774709710
  0.0714122495291920  0.8456199538078131  0.0900610326474693
  0.9201095930081431  0.6377300021229051  0.9455414873133945
  0.6991863002689550  0.4710082587350103  0.4364332771900503
  0.6109749893055348  0.6205639508288133  0.8021134331328976
  0.2619233130584556  0.0244643251184614  0.4323783754661231
  0.4850773716231136  0.5186889229712285  0.4613613550139256
  0.0363637728137543  0.7563293579598079  0.5054753384796653
  0.3107068805767361  0.8057142140987731  0.6850607155109605
  0.8576516989920749  0.8504167716246406  0.1646755052046882
  0.6890267540193568  0.6326664498720032  0.2106330803404818
  0.5298464968902576  0.5411955615709172  0.0041748596529339
  0.7999116268011491  0.6516755388785792  0.8460673481816322
  0.7483852257746477  0.1039135778947158  0.2897169730034767
  0.3753897817000812  0.5726334943130241  0.1395800674613502
  0.6003687051313475  0.4340679462596606  0.5969696035492489
  0.2717038189955045  0.1821435554733904  0.4568635949406157
  0.4911693237349355  0.0889983149527961  0.2128041987418983
  0.2944452170576374  0.5995317147052683  0.4478623627822459
  0.7958912289521108  0.4479891066332666  0.8660910178786270
  0.2044798764828483  0.7185095495965670  0.9224151527081774
  0.7378501118351287  0.7280877784230964  0.3949728133217074
  0.6265220934898488  0.4409658300531925  0.7258749525629234
  0.9702996415372831  0.0843390622013807  0.9628506397096829
  0.0049526603748008  0.8893176163941128  0.8712467932119849
  0.1139670371357294  0.6634897377460719  0.0219753299023649
  0.5805731195374469  0.8540865725115813  0.3380502979268456
  0.6028633721333986  0.7318485191104162  0.4773176090247999
  0.0585289388434272  0.4169740628860456  0.4349147255602171
  0.0049987464085930  0.4419756916287861  0.2267566031304314
  0.8059392538974258  0.2805084733189718  0.2801065266642963
  0.0185019330450094  0.1656313054677958  0.2261633379574176
  0.6729011515622738  0.9439226705140016  0.4850633274866296
  0.3815321906288415  0.1631570449002674  0.5227135597875032
  0.4747662961636330  0.3571165862399135  0.7266463731118222
  0.3646305989332316  0.3276971205063036  0.9408813363395327
  0.5797996297442678  0.9541100316537222  0.7588141551657568
  0.9489480270102426  0.1331171030068769  0.3915674904287310
  0.9015011704851597  0.4407064844992462  0.3359536176158084
  0.6045800572848953  0.4103709195409586  0.8969149202121842
  0.3470402645399454  0.0468924795033267  0.3178204347797478
  0.5315452227968047  0.9736828920087330  0.9576687580350528
  0.2303613989012989  0.4509983932070069  0.7655160207832301
  0.8027454402787155  0.0594695488198861  0.0102191454913644
  0.8478915183982758  0.7077509375627600  0.5437796635369626
  0.5794792403825988  0.4491029702678037  0.2475786690710791
  0.4773736402553928  0.8411602385369352  0.8223452216690754
  0.4388734377352544  0.2116324075120315  0.7026409744555669
  0.0487017451184858  0.3430939301858481  0.7406454288751024
  0.5429268176507627  0.1173262592716675  0.5578961507604989
  0.9208355867595314  0.9848851694917050  0.1253914348027229
  0.1895300160147904  0.4512375499815230  0.5139095431891086
  0.0537829813927088  0.9816333246809871  0.6342481130818473
  0.9638022387864722  0.5590708360902572  0.8468962416394390
  0.4422643902859096  0.8224357105602847  0.9860170301715081
  0.0531032070405266  0.9313027384787341  0.2451984307781266
  0.1326172350599021  0.6160972615543063  0.7627173297329347
  0.5909857825126704  0.3822911403740095  0.4557251026785197
  0.8655574079593459  0.6686133967847364  0.2048999006063370
  0.7630616843525684  0.9287253071670893  0.2190789614460162
  0.4046344023239009  0.5059957874224806  0.8928449378535706
  0.2285402286085842  0.2285974498162567  0.9688088959812565
  0.7323347634199890  0.7156424783182161  0.9672134167893803
  0.1408295799867264  0.5064782635300881  0.9289083623650970
  0.6016101520788195  0.5731893532060989  0.3937869010202718
  0.1516533439036838  0.1365103455955193  0.5612392167666924
  0.1415580088264625  0.6379269109469099  0.3105048700533841
  0.3138435096858084  0.2983248448455471  0.8157475516674633
  0.1617494884241737  0.1886428608081618  0.1553334356818351
  0.7473704345646252  0.3541725958773401  0.7919180037416844
  0.6029048019132598  0.8250526955792803  0.0521724993695723
  0.4744247750551480  0.1340438338153523  0.0297191444311026
  0.0360042356070528  0.2003925736174048  0.9317674152143275
  0.1356558414472994  0.8929824183822899  0.9589821064938784
  0.3648402037925863  0.3274341462613836  0.2990548876019920
  0.7510729893758245  0.8900753377629887  0.7223608338677268
  0.0400391573680727  0.7252761494153336  0.8949397855726070
  0.3968821712972277  0.3141633641615911  0.0759318512861205
  0.6787934159159472  0.8460369433021280  0.8755966389659500
  0.0286735854369937  0.7549917229052356  0.2775122153234857
  0.5039731688179520  0.7580130590130235  0.1658249976810592
  0.4251043840511202  0.9776438794981723  0.6387681822024550
  0.1673556581378145  0.0094503308389129  0.5309734645311743
  0.4082235296039233  0.9133969149361507  0.2394881957083994
  0.5375256655946080  0.6576278310644683  0.3086724428032880
  0.3161492158647475  0.4776088138584633  0.5398783920868105
  0.8721152459686348  0.3203069920775973  0.6649275403642888
  0.2702991772874893  0.9097599665582545  0.0346723450119724
  0.5060862090298774  0.4873994056878799  0.7347968184296857
  0.1557849489113926  0.0792176509041407  0.3410201625077482
  0.2472846163185225  0.4574612209476782  0.3618325314566830
  0.1476440709160847  0.5785538676726127  0.5365849334041451
  0.3354353117578677  0.6799689556619868  0.0315378008975256
  0.1978930099779856  0.0903254398112350  0.8051303875515496
  0.8122532865006035  0.0725630693958469  0.7371656354150011
  0.0070233962077927  0.1874524363328434  0.6622178905844432
  0.0401653035847638  0.2913401827335393  0.4497212890959579
  0.4165087351618804  0.8851959662696651  0.4260912894382702
  0.1964824722540981  0.6260061040353023  0.1916679756106404
  0.6548886183863821  0.5446275977084256  0.0504971877681056
  0.4659252969154261  0.3301020194123244  0.4833942646762954
  0.3755471062572384  0.0665068168682929  0.1524319536008256
  0.9980457987456214  0.1263623144997578  0.5465315345954463
  0.6833531990439422  0.2394780125093267  0.6841186993319475
  0.6360166254087091  0.0308330327879346  0.0966002290114008
  0.7594604083717454  0.2982982367707201  0.4209250135420856
  0.9434119880017953  0.8907394596642918  0.6467537063017323
  0.4261269016364571  0.5236835672065671  0.2960859249585770
  0.8780015504729846  0.0736131309436507  0.5567802710768275
  0.8877152381168442  0.3748725986385850  0.9340468522309174
  0.0033452207403202  0.6904815071783786  0.1633253251717822
  0.4906487533430515  0.3832686433381717  0.1569764651495999
  0.1812159489049921  0.2878047638577250  0.6087177476243777
  0.8244531753057245  0.6863145020950764  0.0698726849824391
  0.9520235549319023  0.5808219452688331  0.5586725438523037
  0.6971205818487025  0.3586633895732383  0.2516871206390198
  0.7552856289555293  0.3186603367004172  0.5538859231942936
  0.2511586331499185  0.9771519759746874  0.6561324540113647
  0.2607082552415693  0.8030287805369095  0.2159272495717636
  0.6605642923767083  0.7726110370015630  0.2286941202983818
  0.8052609741601366  0.1622322278211171  0.4912382986813156
  0.1804622718180022  0.2674436353019194  0.3318057602427863
  0.3957697512652868  0.8919743515037700  0.0867753748220741
  0.2809384570747788  0.3155877149724028  0.4776482825890556
  0.7358902156108003  0.3402811646860727  0.0142493512108386
  0.9684227287627216  0.0461567691540091  0.7794700214891299
  0.7849747964471653  0.4997483944284031  0.6296354175512916
  0.0780336676945971  0.5059524561417883  0.6604118608731540
  0.4935769222285860  0.2465705526704626  0.8775896247220993
  0.6677224199433105  0.1881784663265313  0.0023031235582460
  0.3109006772211541  0.7126264822608711  0.5824142726885467
  0.6365869259835396  0.2292072107905071  0.4825804476634494
  0.2009730220414699  0.8163246378704613  0.5446034941517995
  0.8553196929007100  0.3881856857061846  0.4475640508686022
  0.7381863889158201  0.1800431084204231  0.8542713416781909
  0.6720231414331834  0.6145881624370315  0.9550875946069588
  0.9137907420441338  0.3247423800717313  0.3172747045479944
  0.6728580288860863  0.0556888077843058  0.4500544444693156
  0.8284767087870288  0.4088242885826479  0.0303497216252798
  0.0800918788755112  0.9210573386896924  0.3619974122413125
  0.1379984221800296  0.5077983556259640  0.8103291138786116
  0.7841348495919419  0.7980897902152659  0.0857227400831442
  0.1446548538255294  0.9847864150219535  0.8047665224020563
  0.8662340140250300  0.0520616611475781  0.8403815335287538
  0.2992650951453213  0.5402390855256606  0.7337294520404513
  0.8314267881573609  0.7436569497625812  0.7290493311346099
  0.8396933717102970  0.9489319594399369  0.9783508287726945
  0.6987481706343788  0.7626976878712627  0.6248037990600963
  0.2661648372274854  0.3397920676391036  0.3646714098563246
  0.8822280179900296  0.0322428734343496  0.3915843255388174
 
  0.00000000E+00  0.00000000E+00  0.00000000E+00
  0.00000000E+00  0.00000000E+00  0.00000000E+00
  0.00000000E+00  0.00000000E+00  0.00000000E+00
  0.00000000E+00  0.00000000E+00  0.00000000E+00
  0.00000000E+00  0.00000000E+00  0.00000000E+00
  0.00000000E+00  0.00000000E+00  0.00000000E+00
  0.00000000E+00  0.00000000E+00  0.00000000E+00
  0.00000000E+00  0.00000000E+00  0.00000000E+00
  0.00000000E+00  0.00000000E+00  0.00000000E+00
  0.00000000E+00  0.00000000E+00  0.00000000E+00
  0.00000000E+00  0.00000000E+00  0.00000000E+00
  0.00000000E+00  0.00000000E+00  0.00000000E+00
  0.00000000E+00  0.00000000E+00  0.00000000E+00
  0.00000000E+00  0.00000000E+00  0.00000000E+00
  0.00000000E+00  0.00000000E+00  0.00000000E+00
  0.00000000E+00  0.00000000E+00  0.00000000E+00
  0.00000000E+00  0.00000000E+00  0.00000000E+00
  0.00000000E+00  0.00000000E+00  0.00000000E+00
  0.00000000E+00  0.00000000E+00  0.00000000E+00
  0.00000000E+00  0.00000000E+00  0.00000000E+00
  0.00000000E+00  0.00000000E+00  0.00000000E+00
  0.00000000E+00  0.00000000E+00  0.00000000E+00
  0.00000000E+00  0.00000000E+00  0.00000000E+00
  0.00000000E+00  0.00000000E+00  0.00000000E+00
  0.00000000E+00  0.00000000E+00  0.00000000E+00
  0.00000000E+00  0.00000000E+00  0.00000000E+00
  0.00000000E+00  0.00000000E+00  0.00000000E+00
  0.00000000E+00  0.00000000E+00  0.00000000E+00
  0.00000000E+00  0.00000000E+00  0.00000000E+00
  0.00000000E+00  0.00000000E+00  0.00000000E+00
  0.00000000E+00  0.00000000E+00  0.00000000E+00
  0.00000000E+00  0.00000000E+00  0.00000000E+00
  0.00000000E+00  0.00000000E+00  0.00000000E+00
  0.00000000E+00  0.00000000E+00  0.00000000E+00
  0.00000000E+00  0.00000000E+00  0.00000000E+00
  0.00000000E+00  0.00000000E+00  0.00000000E+00
  0.00000000E+00  0.00000000E+00  0.00000000E+00
  0.00000000E+00  0.00000000E+00  0.00000000E+00
  0.00000000E+00  0.00000000E+00  0.00000000E+00
  0.00000000E+00  0.00000000E+00  0.00000000E+00
  0.00000000E+00  0.00000000E+00  0.00000000E+00
  0.00000000E+00  0.00000000E+00  0.00000000E+00
  0.00000000E+00  0.00000000E+00  0.00000000E+00
  0.00000000E+00  0.00000000E+00  0.00000000E+00
  0.00000000E+00  0.00000000E+00  0.00000000E+00
  0.00000000E+00  0.00000000E+00  0.00000000E+00
  0.00000000E+00  0.00000000E+00  0.00000000E+00
  0.00000000E+00  0.00000000E+00  0.00000000E+00
  0.00000000E+00  0.00000000E+00  0.00000000E+00
  0.00000000E+00  0.00000000E+00  0.00000000E+00
  0.00000000E+00  0.00000000E+00  0.00000000E+00
  0.00000000E+00  0.00000000E+00  0.00000000E+00
  0.00000000E+00  0.00000000E+00  0.00000000E+00
  0.00000000E+00  0.00000000E+00  0.00000000E+00
  0.00000000E+00  0.00000000E+00  0.00000000E+00
  0.00000000E+00  0.00000000E+00  0.00000000E+00
  0.00000000E+00  0.00000000E+00  0.00000000E+00
  0.00000000E+00  0.00000000E+00  0.00000000E+00
  0.00000000E+00  0.00000000E+00  0.00000000E+00
  0.00000000E+00  0.00000000E+00  0.00000000E+00
  0.00000000E+00  0.00000000E+00  0.00000000E+00
  0.00000000E+00  0.00000000E+00  0.00000000E+00
  0.00000000E+00  0.00000000E+00  0.00000000E+00
  0.00000000E+00  0.00000000E+00  0.00000000E+00
  0.00000000E+00  0.00000000E+00  0.00000000E+00
  0.00000000E+00  0.00000000E+00  0.00000000E+00
  0.00000000E+00  0.00000000E+00  0.00000000E+00
  0.00000000E+00  0.00000000E+00  0.00000000E+00
  0.00000000E+00  0.00000000E+00  0.00000000E+00
  0.00000000E+00  0.00000000E+00  0.00000000E+00
  0.00000000E+00  0.00000000E+00  0.00000000E+00
  0.00000000E+00  0.00000000E+00  0.00000000E+00
  0.00000000E+00  0.00000000E+00  0.00000000E+00
  0.00000000E+00  0.00000000E+00  0.00000000E+00
  0.00000000E+00  0.00000000E+00  0.00000000E+00
  0.00000000E+00  0.00000000E+00  0.00000000E+00
  0.00000000E+00  0.00000000E+00  0.00000000E+00
  0.00000000E+00  0.00000000E+00  0.00000000E+00
  0.00000000E+00  0.00000000E+00  0.00000000E+00
  0.00000000E+00  0.00000000E+00  0.00000000E+00
  0.00000000E+00  0.00000000E+00  0.00000000E+00
  0.00000000E+00  0.00000000E+00  0.00000000E+00
  0.00000000E+00  0.00000000E+00  0.00000000E+00
  0.00000000E+00  0.00000000E+00  0.00000000E+00
  0.00000000E+00  0.00000000E+00  0.00000000E+00
  0.00000000E+00  0.00000000E+00  0.00000000E+00
  0.00000000E+00  0.00000000E+00  0.00000000E+00
  0.00000000E+00  0.00000000E+00  0.00000000E+00
  0.00000000E+00  0.00000000E+00  0.00000000E+00
  0.00000000E+00  0.00000000E+00  0.00000000E+00
  0.00000000E+00  0.00000000E+00  0.00000000E+00
  0.00000000E+00  0.00000000E+00  0.00000000E+00
  0.00000000E+00  0.00000000E+00  0.00000000E+00
  0.00000000E+00  0.00000000E+00  0.00000000E+00
  0.00000000E+00  0.00000000E+00  0.00000000E+00
  0.00000000E+00  0.00000000E+00  0.00000000E+00
  0.00000000E+00  0.00000000E+00  0.00000000E+00
  0.00000000E+00  0.00000000E+00  0.00000000E+00
  0.00000000E+00  0.00000000E+00  0.00000000E+00
  0.00000000E+00  0.00000000E+00  0.00000000E+00
  0.00000000E+00  0.00000000E+00  0.00000000E+00
  0.00000000E+00  0.00000000E+00  0.00000000E+00
  0.00000000E+00  0.00000000E+00  0.00000000E+00
  0.00000000E+00  0.00000000E+00  0.00000000E+00
  0.00000000E+00  0.00000000E+00  0.00000000E+00
  0.00000000E+00  0.00000000E+00  0.00000000E+00
  0.00000000E+00  0.00000000E+00  0.00000000E+00
  0.00000000E+00  0.00000000E+00  0.00000000E+00
  0.00000000E+00  0.00000000E+00  0.00000000E+00
  0.00000000E+00  0.00000000E+00  0.00000000E+00
  0.00000000E+00  0.00000000E+00  0.00000000E+00
  0.00000000E+00  0.00000000E+00  0.00000000E+00
  0.00000000E+00  0.00000000E+00  0.00000000E+00
  0.00000000E+00  0.00000000E+00  0.00000000E+00
  0.00000000E+00  0.00000000E+00  0.00000000E+00
  0.00000000E+00  0.00000000E+00  0.00000000E+00
  0.00000000E+00  0.00000000E+00  0.00000000E+00
  0.00000000E+00  0.00000000E+00  0.00000000E+00
  0.00000000E+00  0.00000000E+00  0.00000000E+00
  0.00000000E+00  0.00000000E+00  0.00000000E+00
  0.00000000E+00  0.00000000E+00  0.00000000E+00
  0.00000000E+00  0.00000000E+00  0.00000000E+00
  0.00000000E+00  0.00000000E+00  0.00000000E+00
  0.00000000E+00  0.00000000E+00  0.00000000E+00
  0.00000000E+00  0.00000000E+00  0.00000000E+00
  0.00000000E+00  0.00000000E+00  0.00000000E+00
  0.00000000E+00  0.00000000E+00  0.00000000E+00
  0.00000000E+00  0.00000000E+00  0.00000000E+00
  0.00000000E+00  0.00000000E+00  0.00000000E+00
  0.00000000E+00  0.00000000E+00  0.00000000E+00
  0.00000000E+00  0.00000000E+00  0.00000000E+00
  0.00000000E+00  0.00000000E+00  0.00000000E+00
  0.00000000E+00  0.00000000E+00  0.00000000E+00
  0.00000000E+00  0.00000000E+00  0.00000000E+00
  0.00000000E+00  0.00000000E+00  0.00000000E+00
  0.00000000E+00  0.00000000E+00  0.00000000E+00
  0.00000000E+00  0.00000000E+00  0.00000000E+00
  0.00000000E+00  0.00000000E+00  0.00000000E+00
  0.00000000E+00  0.00000000E+00  0.00000000E+00
  0.00000000E+00  0.00000000E+00  0.00000000E+00
  0.00000000E+00  0.00000000E+00  0.00000000E+00
  0.00000000E+00  0.00000000E+00  0.00000000E+00
  0.00000000E+00  0.00000000E+00  0.00000000E+00
  0.00000000E+00  0.00000000E+00  0.00000000E+00
  0.00000000E+00  0.00000000E+00  0.00000000E+00
  0.00000000E+00  0.00000000E+00  0.00000000E+00
  0.00000000E+00  0.00000000E+00  0.00000000E+00
  0.00000000E+00  0.00000000E+00  0.00000000E+00
  0.00000000E+00  0.00000000E+00  0.00000000E+00
  0.00000000E+00  0.00000000E+00  0.00000000E+00
  0.00000000E+00  0.00000000E+00  0.00000000E+00
  0.00000000E+00  0.00000000E+00  0.00000000E+00
  0.00000000E+00  0.00000000E+00  0.00000000E+00
  0.00000000E+00  0.00000000E+00  0.00000000E+00
  0.00000000E+00  0.00000000E+00  0.00000000E+00
  0.00000000E+00  0.00000000E+00  0.00000000E+00
  0.00000000E+00  0.00000000E+00  0.00000000E+00
  0.00000000E+00  0.00000000E+00  0.00000000E+00
  0.00000000E+00  0.00000000E+00  0.00000000E+00
  0.00000000E+00  0.00000000E+00  0.00000000E+00
  0.00000000E+00  0.00000000E+00  0.00000000E+00
  0.00000000E+00  0.00000000E+00  0.00000000E+00
  0.00000000E+00  0.00000000E+00  0.00000000E+00
  0.00000000E+00  0.00000000E+00  0.00000000E+00
  0.00000000E+00  0.00000000E+00  0.00000000E+00
  0.00000000E+00  0.00000000E+00  0.00000000E+00
  0.00000000E+00  0.00000000E+00  0.00000000E+00
  0.00000000E+00  0.00000000E+00  0.00000000E+00
  0.00000000E+00  0.00000000E+00  0.00000000E+00
  0.00000000E+00  0.00000000E+00  0.00000000E+00
  0.00000000E+00  0.00000000E+00  0.00000000E+00
  0.00000000E+00  0.00000000E+00  0.00000000E+00
  0.00000000E+00  0.00000000E+00  0.00000000E+00
  0.00000000E+00  0.00000000E+00  0.00000000E+00
  0.00000000E+00  0.00000000E+00  0.00000000E+00
  0.00000000E+00  0.00000000E+00  0.00000000E+00
  0.00000000E+00  0.00000000E+00  0.00000000E+00
  0.00000000E+00  0.00000000E+00  0.00000000E+00
  0.00000000E+00  0.00000000E+00  0.00000000E+00
  0.00000000E+00  0.00000000E+00  0.00000000E+00
  0.00000000E+00  0.00000000E+00  0.00000000E+00
  0.00000000E+00  0.00000000E+00  0.00000000E+00
  0.00000000E+00  0.00000000E+00  0.00000000E+00
  0.00000000E+00  0.00000000E+00  0.00000000E+00
  0.00000000E+00  0.00000000E+00  0.00000000E+00
  0.00000000E+00  0.00000000E+00  0.00000000E+00
  0.00000000E+00  0.00000000E+00  0.00000000E+00
  0.00000000E+00  0.00000000E+00  0.00000000E+00
  0.00000000E+00  0.00000000E+00  0.00000000E+00
  0.00000000E+00  0.00000000E+00  0.00000000E+00
  0.00000000E+00  0.00000000E+00  0.00000000E+00
  0.00000000E+00  0.00000000E+00  0.00000000E+00
  0.00000000E+00  0.00000000E+00  0.00000000E+00
  0.00000000E+00  0.00000000E+00  0.00000000E+00
  0.00000000E+00  0.00000000E+00  0.00000000E+00
  0.00000000E+00  0.00000000E+00  0.00000000E+00
  0.00000000E+00  0.00000000E+00  0.00000000E+00
  0.00000000E+00  0.00000000E+00  0.00000000E+00
  0.00000000E+00  0.00000000E+00  0.00000000E+00
  0.00000000E+00  0.00000000E+00  0.00000000E+00
  0.00000000E+00  0.00000000E+00  0.00000000E+00
  0.00000000E+00  0.00000000E+00  0.00000000E+00
  0.00000000E+00  0.00000000E+00  0.00000000E+00
  0.00000000E+00  0.00000000E+00  0.00000000E+00
  0.00000000E+00  0.00000000E+00  0.00000000E+00
  0.00000000E+00  0.00000000E+00  0.00000000E+00
  0.00000000E+00  0.00000000E+00  0.00000000E+00
  0.00000000E+00  0.00000000E+00  0.00000000E+00
  0.00000000E+00  0.00000000E+00  0.00000000E+00
  0.00000000E+00  0.00000000E+00  0.00000000E+00
  0.00000000E+00  0.00000000E+00  0.00000000E+00
  0.00000000E+00  0.00000000E+00  0.00000000E+00
  0.00000000E+00  0.00000000E+00  0.00000000E+00
  0.00000000E+00  0.00000000E+00  0.00000000E+00
  0.00000000E+00  0.00000000E+00  0.00000000E+00
  0.00000000E+00  0.00000000E+00  0.00000000E+00
  0.00000000E+00  0.00000000E+00  0.00000000E+00
  0.00000000E+00  0.00000000E+00  0.00000000E+00
  0.00000000E+00  0.00000000E+00  0.00000000E+00
  0.00000000E+00  0.00000000E+00  0.00000000E+00
  0.00000000E+00  0.00000000E+00  0.00000000E+00
  0.00000000E+00  0.00000000E+00  0.00000000E+00
  0.00000000E+00  0.00000000E+00  0.00000000E+00
  0.00000000E+00  0.00000000E+00  0.00000000E+00
  0.00000000E+00  0.00000000E+00  0.00000000E+00
  0.00000000E+00  0.00000000E+00  0.00000000E+00
  0.00000000E+00  0.00000000E+00  0.00000000E+00
  0.00000000E+00  0.00000000E+00  0.00000000E+00
  0.00000000E+00  0.00000000E+00  0.00000000E+00
  0.00000000E+00  0.00000000E+00  0.00000000E+00
  0.00000000E+00  0.00000000E+00  0.00000000E+00
  0.00000000E+00  0.00000000E+00  0.00000000E+00