Ge4 Se4                                 
   1.00000000000000     
     4.0498943329000001    0.0000000000000000    0.0000000000000000
     0.0000000000000000    4.0869259833999996    0.0000000000000000
     0.0000000000000000    0.0000000000000000   11.9504261016999997
   Ge   Se
     4     4
Direct
  0.2500000000000000  0.5148201579999991  0.3523025810000036
  0.7500000000000000  0.0148201800000010  0.1476974340000012
  0.2500000000000000  0.9851798420000009  0.8523025510000011
  0.7500000000000000  0.4851798119999984  0.6476974489999989
  0.2500000000000000  0.5008175370000032  0.1400451809999979
  0.7500000000000000  0.0008175379999997  0.3599548039999974
  0.2500000000000000  0.9991824629999968  0.6400451660000002
  0.7500000000000000  0.4991824629999968  0.8599548339999998
 
  0.00000000E+00  0.00000000E+00  0.00000000E+00
  0.00000000E+00  0.00000000E+00  0.00000000E+00
  0.00000000E+00  0.00000000E+00  0.00000000E+00
  0.00000000E+00  0.00000000E+00  0.00000000E+00
  0.00000000E+00  0.00000000E+00  0.00000000E+00
  0.00000000E+00  0.00000000E+00  0.00000000E+00
  0.00000000E+00  0.00000000E+00  0.00000000E+00
  0.00000000E+00  0.00000000E+00  0.00000000E+00
