In32 O48                                
   1.00000000000000     
    10.3423189547757612   -0.0000000000000000    0.0000000000000006
    -0.0000000000000006   10.3423189547757612    0.0000000000000006
     0.0000000000000000    0.0000000000000000   10.3423189547757612
   In   O 
    32    48
Direct
  0.5000000000000000  0.2500000000000000  0.0348121270159418
 -0.0000000000000000  0.2500000000000000  0.4651878729840512
  0.2500000000000000  0.7500000000000000  0.2500000000000000
  0.7500000000000000  0.7500000000000000  0.2500000000000000
  0.0348121270159418  0.5000000000000000  0.2500000000000000
  0.4651878729840512  0.0000000000000000  0.2500000000000000
  0.0000000000000000  0.7500000000000000  0.0348121270159418
  0.5000000000000000  0.7500000000000000  0.4651878729840512
  0.2500000000000000  0.0348121270159418  0.5000000000000000
  0.0348121270159418  0.0000000000000000  0.7500000000000000
  0.7500000000000000  0.2500000000000000  0.2500000000000000
  0.2500000000000000  0.2500000000000000  0.2500000000000000
  0.4651878729840512  0.5000000000000000  0.7500000000000000
  0.2500000000000000  0.4651878729840512  0.0000000000000000
  0.7500000000000000  0.4651878729840512  0.5000000000000000
  0.7500000000000000  0.0348121270159418  0.0000000000000000
  0.0000000000000000  0.7500000000000000  0.5348121270159419
  0.5000000000000000  0.7500000000000000  0.9651878729840510
  0.7500000000000000  0.2500000000000000  0.7500000000000000
  0.2500000000000000  0.2500000000000000  0.7500000000000000
  0.5348121270159419  0.0000000000000000  0.7500000000000000
  0.9651878729840510  0.5000000000000000  0.7500000000000000
  0.5000000000000000  0.2500000000000000  0.5348121270159419
 -0.0000000000000000  0.2500000000000000  0.9651878729840510
  0.7500000000000000  0.5348121270159419  0.0000000000000000
  0.5348121270159419  0.5000000000000000  0.2500000000000000
  0.2500000000000000  0.7500000000000000  0.7500000000000000
  0.7500000000000000  0.7500000000000000  0.7500000000000000
  0.9651878729840510  0.0000000000000000  0.2500000000000000
  0.7500000000000000  0.9651878729840510  0.5000000000000000
  0.2500000000000000  0.9651878729840510  0.0000000000000000
  0.2500000000000000  0.5348121270159419  0.5000000000000000
  0.3900527554635896  0.1544992705957654  0.3819329910155777
  0.1544992705957654  0.3819329910155777  0.3900527554635896
  0.3455007294042345  0.6180670089844224  0.8900527554635896
  0.1099472445364104  0.1544992705957654  0.6180670089844224
  0.3455007294042345  0.1180670089844223  0.1099472445364104
  0.8900527554635896  0.1544992705957654  0.1180670089844223
  0.1180670089844223  0.1099472445364104  0.3455007294042345
  0.3819329910155777  0.6099472445364104  0.3455007294042345
  0.8819329910155776  0.3900527554635896  0.3455007294042345
  0.8900527554635896  0.3455007294042345  0.6180670089844224
  0.6180670089844224  0.8900527554635896  0.3455007294042345
  0.1180670089844223  0.8900527554635896  0.1544992705957654
  0.6099472445364104  0.1544992705957654  0.8819329910155776
  0.6099472445364104  0.3455007294042345  0.3819329910155777
  0.3455007294042345  0.8819329910155776  0.3900527554635896
  0.3455007294042345  0.3819329910155777  0.6099472445364104
  0.1544992705957654  0.6180670089844224  0.1099472445364104
  0.6180670089844224  0.1099472445364104  0.1544992705957654
  0.3900527554635896  0.3455007294042345  0.8819329910155776
  0.1544992705957654  0.8819329910155776  0.6099472445364104
  0.1544992705957654  0.1180670089844223  0.8900527554635896
  0.8819329910155776  0.6099472445364104  0.1544992705957654
  0.3819329910155777  0.3900527554635896  0.1544992705957654
  0.1099472445364104  0.3455007294042345  0.1180670089844223
  0.8900527554635896  0.6544992705957653  0.8819329910155776
  0.6544992705957653  0.8819329910155776  0.8900527554635896
  0.8455007294042347  0.1180670089844223  0.3900527554635896
  0.6099472445364104  0.6544992705957653  0.1180670089844223
  0.8455007294042347  0.6180670089844224  0.6099472445364104
  0.3900527554635896  0.6544992705957653  0.6180670089844224
  0.6180670089844224  0.6099472445364104  0.8455007294042347
  0.8819329910155776  0.1099472445364104  0.8455007294042347
  0.3819329910155777  0.8900527554635896  0.8455007294042347
  0.3900527554635896  0.8455007294042347  0.1180670089844223
  0.1180670089844223  0.3900527554635896  0.8455007294042347
  0.6180670089844224  0.3900527554635896  0.6544992705957653
  0.1099472445364104  0.6544992705957653  0.3819329910155777
  0.1099472445364104  0.8455007294042347  0.8819329910155776
  0.8455007294042347  0.3819329910155777  0.8900527554635896
  0.8455007294042347  0.8819329910155776  0.1099472445364104
  0.6544992705957653  0.1180670089844223  0.6099472445364104
  0.1180670089844223  0.6099472445364104  0.6544992705957653
  0.8900527554635896  0.8455007294042347  0.3819329910155777
  0.6544992705957653  0.3819329910155777  0.1099472445364104
  0.6544992705957653  0.6180670089844224  0.3900527554635896
  0.3819329910155777  0.1099472445364104  0.6544992705957653
  0.8819329910155776  0.8900527554635896  0.6544992705957653
  0.6099472445364104  0.8455007294042347  0.6180670089844224
 
  0.00000000E+00  0.00000000E+00  0.00000000E+00
  0.00000000E+00  0.00000000E+00  0.00000000E+00
  0.00000000E+00  0.00000000E+00  0.00000000E+00
  0.00000000E+00  0.00000000E+00  0.00000000E+00
  0.00000000E+00  0.00000000E+00  0.00000000E+00
  0.00000000E+00  0.00000000E+00  0.00000000E+00
  0.00000000E+00  0.00000000E+00  0.00000000E+00
  0.00000000E+00  0.00000000E+00  0.00000000E+00
  0.00000000E+00  0.00000000E+00  0.00000000E+00
  0.00000000E+00  0.00000000E+00  0.00000000E+00
  0.00000000E+00  0.00000000E+00  0.00000000E+00
  0.00000000E+00  0.00000000E+00  0.00000000E+00
  0.00000000E+00  0.00000000E+00  0.00000000E+00
  0.00000000E+00  0.00000000E+00  0.00000000E+00
  0.00000000E+00  0.00000000E+00  0.00000000E+00
  0.00000000E+00  0.00000000E+00  0.00000000E+00
  0.00000000E+00  0.00000000E+00  0.00000000E+00
  0.00000000E+00  0.00000000E+00  0.00000000E+00
  0.00000000E+00  0.00000000E+00  0.00000000E+00
  0.00000000E+00  0.00000000E+00  0.00000000E+00
  0.00000000E+00  0.00000000E+00  0.00000000E+00
  0.00000000E+00  0.00000000E+00  0.00000000E+00
  0.00000000E+00  0.00000000E+00  0.00000000E+00
  0.00000000E+00  0.00000000E+00  0.00000000E+00
  0.00000000E+00  0.00000000E+00  0.00000000E+00
  0.00000000E+00  0.00000000E+00  0.00000000E+00
  0.00000000E+00  0.00000000E+00  0.00000000E+00
  0.00000000E+00  0.00000000E+00  0.00000000E+00
  0.00000000E+00  0.00000000E+00  0.00000000E+00
  0.00000000E+00  0.00000000E+00  0.00000000E+00
  0.00000000E+00  0.00000000E+00  0.00000000E+00
  0.00000000E+00  0.00000000E+00  0.00000000E+00
  0.00000000E+00  0.00000000E+00  0.00000000E+00
  0.00000000E+00  0.00000000E+00  0.00000000E+00
  0.00000000E+00  0.00000000E+00  0.00000000E+00
  0.00000000E+00  0.00000000E+00  0.00000000E+00
  0.00000000E+00  0.00000000E+00  0.00000000E+00
  0.00000000E+00  0.00000000E+00  0.00000000E+00
  0.00000000E+00  0.00000000E+00  0.00000000E+00
  0.00000000E+00  0.00000000E+00  0.00000000E+00
  0.00000000E+00  0.00000000E+00  0.00000000E+00
  0.00000000E+00  0.00000000E+00  0.00000000E+00
  0.00000000E+00  0.00000000E+00  0.00000000E+00
  0.00000000E+00  0.00000000E+00  0.00000000E+00
  0.00000000E+00  0.00000000E+00  0.00000000E+00
  0.00000000E+00  0.00000000E+00  0.00000000E+00
  0.00000000E+00  0.00000000E+00  0.00000000E+00
  0.00000000E+00  0.00000000E+00  0.00000000E+00
  0.00000000E+00  0.00000000E+00  0.00000000E+00
  0.00000000E+00  0.00000000E+00  0.00000000E+00
  0.00000000E+00  0.00000000E+00  0.00000000E+00
  0.00000000E+00  0.00000000E+00  0.00000000E+00
  0.00000000E+00  0.00000000E+00  0.00000000E+00
  0.00000000E+00  0.00000000E+00  0.00000000E+00
  0.00000000E+00  0.00000000E+00  0.00000000E+00
  0.00000000E+00  0.00000000E+00  0.00000000E+00
  0.00000000E+00  0.00000000E+00  0.00000000E+00
  0.00000000E+00  0.00000000E+00  0.00000000E+00
  0.00000000E+00  0.00000000E+00  0.00000000E+00
  0.00000000E+00  0.00000000E+00  0.00000000E+00
  0.00000000E+00  0.00000000E+00  0.00000000E+00
  0.00000000E+00  0.00000000E+00  0.00000000E+00
  0.00000000E+00  0.00000000E+00  0.00000000E+00
  0.00000000E+00  0.00000000E+00  0.00000000E+00
  0.00000000E+00  0.00000000E+00  0.00000000E+00
  0.00000000E+00  0.00000000E+00  0.00000000E+00
  0.00000000E+00  0.00000000E+00  0.00000000E+00
  0.00000000E+00  0.00000000E+00  0.00000000E+00
  0.00000000E+00  0.00000000E+00  0.00000000E+00
  0.00000000E+00  0.00000000E+00  0.00000000E+00
  0.00000000E+00  0.00000000E+00  0.00000000E+00
  0.00000000E+00  0.00000000E+00  0.00000000E+00
  0.00000000E+00  0.00000000E+00  0.00000000E+00
  0.00000000E+00  0.00000000E+00  0.00000000E+00
  0.00000000E+00  0.00000000E+00  0.00000000E+00
  0.00000000E+00  0.00000000E+00  0.00000000E+00
  0.00000000E+00  0.00000000E+00  0.00000000E+00
  0.00000000E+00  0.00000000E+00  0.00000000E+00
  0.00000000E+00  0.00000000E+00  0.00000000E+00
  0.00000000E+00  0.00000000E+00  0.00000000E+00
