Amorphous GeAsSeSi                      
   1.00000000000000     
    21.3130323354591117    0.0000000000000000    0.0000000000000000
     0.0000000000000000   21.3130323354591117    0.0000000000000000
     0.0000000000000000    0.0000000000000000   21.3130323354591117
   Ge   As   Te   Si
    30    90   165    15
Direct
  0.4604861016541626  0.7599855720175026  0.5630292309323062
  0.6656153226345312  0.7912265517185515  0.6359654550127959
  0.1030164330589972  0.4412307178858342  0.7801933296527389
  0.0687757512006641  0.8360400316489234  0.2732494043390805
  0.0164155859559765  0.1709322110684199  0.7419335388155209
  0.6075938530000737  0.2202009825868178  0.4128856733776868
  0.8481936625793084  0.8824486571435913  0.5822003300286226
  0.1311972441247629  0.6902240126766405  0.9523872018342041
  0.8170355144498611  0.0824419437632594  0.9462844225933350
  0.9531865379722315  0.2016644049895903  0.6314981886898833
  0.4096140383497268  0.0660616769015143  0.4735521186543554
  0.7585774396951133  0.4207905488046267  0.2187106393799967
  0.7018102790072340  0.8341399964809554  0.7425185320581901
  0.2018537204218294  0.8315353635877454  0.6333969089906871
  0.0397142596410766  0.4811488582206096  0.6737039086265608
  0.5740629796229123  0.8412530792693980  0.9854757613621202
  0.6296749831222154  0.4425680730575124  0.7951252005902107
  0.5601066447970818  0.1821032107695701  0.5877219613073171
  0.4223421736297625  0.7878918542872940  0.9172111299234261
  0.7238560508536372  0.1399058794088737  0.8035962284917180
  0.2878301606480291  0.2851588331570364  0.1091873657830288
  0.8381256912021311  0.5690398555542122  0.0041058580215282
  0.6461098541023036  0.8650003233869735  0.4803671275212119
  0.2645549185984262  0.6750695990211854  0.6235775702962246
  0.1341686685951072  0.9299323806152996  0.5129224507181770
  0.6485049503088391  0.1106511314931554  0.4148613760573925
  0.6491987862512821  0.5227039332122971  0.4601450979367253
  0.9509975313256983  0.9501547345929535  0.0224809155217073
  0.1960846916147961  0.1349580195095644  0.5161421620970589
  0.4541473503317888  0.3862985175897201  0.4256937777095252
  0.7247428909457068  0.2114646884305431  0.5416571304491405
  0.9332087590359333  0.0336247653583378  0.3309227136649813
  0.3619924600640028  0.8914183854692643  0.3481129078529696
  0.6775519237477607  0.1520209786223489  0.6390763524765775
  0.0000159520356597  0.7655603381239972  0.4011397139516080
  0.6249682110298144  0.7615479613697492  0.2979239221832543
  0.0091831536638410  0.9261221870645976  0.2000530664768414
  0.7142648681443066  0.7891502510359553  0.9215781682116201
  0.5114779335611430  0.5752950088840900  0.8613854564608147
  0.6582396127636413  0.3080454114326738  0.5671238923711701
  0.6543596326995532  0.9018086419847695  0.5940607524690116
  0.3553830820247817  0.5110578365663210  0.8693769430988416
  0.2518823821872966  0.6482989117061990  0.0904927079158195
  0.2221904493654173  0.1243867532934383  0.9376708527197921
  0.5274487768753657  0.9965983696108532  0.6362847063345336
  0.8849065954372258  0.8627256329848901  0.2806003511107126
  0.1320816656909912  0.2310779046145835  0.3735272170254186
  0.9306769265923265  0.3130787994026564  0.2867230370514143
  0.9991125011962789  0.7730018607620334  0.0324453989451168
  0.7309696563183760  0.3975782215635121  0.6015783127955194
  0.5248838001232362  0.7369101357759504  0.9599840465972679
  0.7887104078574989  0.8682638549874341  0.1244215719190497
  0.7187200117781237  0.7192235498761528  0.5555638610290276
  0.7798806757537409  0.9271158763066327  0.7142182310573938
  0.0390682674191418  0.1483199326052271  0.3563491868447978
  0.2611222510173098  0.3991861931366522  0.9487624982516047
  0.4248844876914376  0.1183479964222652  0.8284269430545494
  0.3562091925755201  0.0117765536230397  0.8207054607258909
  0.1658654158487438  0.2365934423560416  0.8262845041524023
  0.6837435428281787  0.4267816157493697  0.9254152775706092
  0.4953567525252775  0.2920107205855788  0.7708851612312617
  0.2352383716807442  0.4916970189776186  0.8817097886978422
  0.0052622399424643  0.7178799969596635  0.8353247261205876
  0.2027898384127301  0.1582175920631584  0.0555110797016992
  0.7508073234594149  0.9892422655689379  0.9092073726325236
  0.8454014816696847  0.3622828695798092  0.6051705321324981
  0.6501445428149452  0.1619834854785910  0.1663119262699555
  0.5603000457262701  0.4404151303468357  0.4822295126175127
  0.3927949669697879  0.6367387671804187  0.1961702273636069
  0.2898736869211771  0.1712266127701525  0.2248720079171889
  0.5415812141116042  0.6145318050786728  0.5940337837193732
  0.1685608911325785  0.6952364646843975  0.3902701946051859
  0.1456904769485671  0.2384327888417057  0.4917844496859512
  0.9413201743908535  0.4701406002782946  0.5268189168195803
  0.0578891165699212  0.6583025327260593  0.3594492864301673
  0.3853298763876037  0.7667010993185709  0.3516349479350662
  0.4865057587321048  0.7498578348527655  0.4058466952960286
  0.7620066031800555  0.1084353731045395  0.3792132391081370
  0.7770255749600130  0.7843203435336540  0.8180917827777742
  0.4802732826026149  0.3710444677938207  0.6806834253424349
  0.5384093873480730  0.6815949067826640  0.3222878452434514
  0.7137709712112412  0.4105370771914815  0.0418324283999875
  0.6411801554489158  0.8227516782402394  0.0824199109500319
  0.4852665571096342  0.9236133297671076  0.0034270940846692
  0.7596998588676265  0.9596919039587096  0.5983050454955930
  0.8426528014021691  0.8276206642201911  0.6895331843823780
  0.2058166105366301  0.8437151264022718  0.4662524712621286
  0.8718568500800257  0.1335495564277885  0.1326178301544107
  0.4505613012075897  0.6178917750496095  0.0097894301590246
  0.4720118405561918  0.5137272628110954  0.4318587754896844
  0.2425069814340682  0.4616778728889591  0.0394816897510939
  0.6084122729692544  0.8844202313596201  0.8030239557527060
  0.0437637590853720  0.6606971336619876  0.0277389269335666
  0.1007636393387523  0.4081011920860175  0.2017953191822336
  0.1499146463063324  0.8112267753696363  0.9320195325832996
  0.2534404815194992  0.2342945968692138  0.9083763546784070
  0.1873934830602101  0.7797755760937346  0.8258711381584509
  0.8927791983289108  0.9310844651114951  0.3840029138288205
  0.6196970112076385  0.5666251936303207  0.8034380122454569
  0.6420066780431211  0.6101818381127840  0.3504410348878418
  0.5145323590479826  0.4942083960867242  0.5783536517762460
  0.5074714187792934  0.4639777540379445  0.8078093513051889
  0.5828020902232255  0.9680754201891505  0.4540999627146592
  0.9394123968481840  0.2294008860510745  0.1993329722393186
  0.2228943550822944  0.3538778555258877  0.3390511477841813
  0.6915013697121797  0.0794406309939356  0.0898382525052757
  0.3607376514788008  0.3747545847089183  0.7370658166463787
  0.6528343973739936  0.8898459619794540  0.9117601918625436
  0.6979212693575585  0.7088601978732987  0.3882047268738210
  0.6257269179232565  0.6735741129772832  0.2106246966883878
  0.4303035183101655  0.7103537325696179  0.8283612838111585
  0.3136614883932396  0.1187062478733997  0.7821646015331282
  0.1441692760009300  0.8082485748644638  0.3709583468048566
  0.6291583887375015  0.7418076215970820  0.4864118051276880
  0.9151833837075144  0.4084172813892697  0.7645917189558573
  0.6549610256338491  0.4819132016611144  0.2245963853798005
  0.1812597936443310  0.1217631157856024  0.2398093875902082
  0.1167821048747455  0.6780976394364924  0.8367399405674889
  0.3636071029330043  0.5135993761821587  0.2957964104980352
  0.0903975685292021  0.2728323428931600  0.7137102204644188
  0.4894818760006487  0.4015191647248436  0.1425195628347194
  0.2300312689529067  0.1573626390059815  0.3529645331153047
  0.3354808884413794  0.8198911335548190  0.5799343419397622
  0.5100102997768399  0.5269945748999713  0.3011581289116263
  0.7508668050541407  0.8521875646991801  0.4033188132226063
  0.3208240926769526  0.1203661857462809  0.6548503100507038
  0.2324164196575950  0.6188047002339954  0.9695781438311052
  0.1147568982989554  0.9949339637703238  0.9581919265380472
  0.2098382268577600  0.0000586369963033  0.2447186005702760
  0.6346479876758482  0.4916101958477945  0.0957168567624061
  0.1375572064717181  0.5510842188716895  0.3252965794905698
  0.3953862434805102  0.6717613604603160  0.6471980660444494
  0.8670981125852388  0.3053256932610600  0.7177622192263806
  0.0120557576582368  0.3288134216796643  0.6361714190285629
  0.9353022198693020  0.4084932681061864  0.1801286620834233
  0.3813307332759283  0.2341592096309170  0.3423190987796605
  0.1203734346557911  0.0139630823195031  0.8125729644336535
  0.0785396656978099  0.5867170069481064  0.5376150171215801
  0.2642513725894893  0.9655621321632991  0.3925768736201375
  0.2732269652590671  0.9082474846694009  0.9749514041330776
  0.2461773041620008  0.2706271063968215  0.6673275141490743
  0.0727562656266997  0.4005077397361287  0.4461753669783447
  0.8054071118286078  0.6501189588112127  0.6764350470609817
  0.5833241825347137  0.3760238631772914  0.3285745306890341
  0.0687507289987168  0.4282820106267101  0.0202726054695982
  0.9011399642969773  0.0782399833874885  0.6190920659456205
  0.2506330982090015  0.9544825167964039  0.1046305852634654
  0.8524220660342039  0.2370761019444065  0.5567112852236129
  0.1253544840110297  0.7701259707320851  0.5353522019160399
  0.8403622733362311  0.0161413423879991  0.0540570689205348
  0.4776494365604186  0.2360558061405401  0.9117786993837254
  0.1341938973253732  0.6660223441367716  0.1643159054298259
  0.7980986171261937  0.2185470707379056  0.0658881393598289
  0.8277691932113376  0.2150596608623640  0.8334841771268920
  0.3586235043474074  0.7236296264383971  0.1097002076932397
  0.8112926579912342  0.8467522426273194  0.9860101880043386
  0.2413072078450970  0.5736161915977308  0.5408363490706559
  0.9713652793849433  0.5157607028373807  0.4225552481741577
  0.0321622767283027  0.6979624849506511  0.2491240505063640
  0.9140204813333274  0.5640717063655791  0.1753194974653100
  0.7762530787464402  0.2954364406890236  0.2236409914697489
  0.4572043264210309  0.3311924051025112  0.9993109954556532
  0.7616589567744178  0.8673443808284014  0.2611377362647794
  0.8477753209014037  0.9239053106382336  0.8687903478717175
  0.8916786723521684  0.7527815831906292  0.3442218482974481
  0.5480985210647946  0.8680914598112266  0.2975995587430355
  0.0553476649732704  0.3289453619548369  0.2929752438610368
  0.9193391450796098  0.3499817907627713  0.4846455570081433
  0.3896644803591073  0.3925334095767674  0.8579740717063267
  0.5731159907475537  0.3760322659609469  0.9059485489090950
  0.0208784017825711  0.8158982546773366  0.9193553996673436
  0.8511035458737367  0.6834776799204024  0.2017908497045868
  0.0097401641571362  0.9112709613503446  0.4359412538552340
  0.6633792012775146  0.2111042819741787  0.9216858515842686
  0.3024082130696717  0.5568135312723721  0.1726746269723451
  0.5757596114793346  0.9184327420476220  0.1401060626554963
  0.5580331046935481  0.0186198903379062  0.9764729296212339
  0.9479717617244342  0.8750400293671573  0.7383310121267430
  0.3391703209268063  0.9507256897634765  0.6633010046973418
  0.0264250103232418  0.2697757490590105  0.1159755143266641
  0.8820173667944224  0.7323770920004860  0.9621864586599981
  0.9416503401084482  0.1050007607835305  0.9290161003544427
  0.0672920829692209  0.3261439300381075  0.8261664473844396
  0.2295187950130853  0.4204367743149596  0.7780070358341421
  0.1991698022496030  0.2801770546585894  0.0161342140146092
  0.3051102063591969  0.7803776583830735  0.9708067139097579
  0.6706185963426826  0.2389010712099947  0.7352911556534812
  0.0246430480525657  0.1848747558957603  0.5115738673797717
  0.8809975528840921  0.3586706257564027  0.0038568873379160
  0.7436148763606502  0.3169036865977088  0.9010308115690591
  0.1740797153547985  0.1541828747119037  0.6459914480885115
  0.5568300228085625  0.5590149428857505  0.9736750688434825
  0.9690468521575284  0.7138844889673197  0.5130526833404749
  0.6734064925514454  0.0078403187884198  0.8114543943817876
  0.3632010441559998  0.7688233495983852  0.7391674571806841
  0.4550782712646237  0.6507040663809905  0.4684253823755170
  0.8107473589627104  0.1134810127139441  0.2347472849671277
  0.4816791959611379  0.2385337970782075  0.4427449100357336
  0.1405383142146878  0.5365568145414463  0.1275669349491809
  0.6258077725313721  0.0157829228395054  0.3338792667569157
  0.7492608285636991  0.7477457521701811  0.1319585304166681
  0.7073576590142785  0.6850960269888732  0.7874543483004117
  0.9706015183573592  0.4463220271815782  0.9201230527373572
  0.9138145130267975  0.8551510544154372  0.1194312006200103
  0.3252068151342261  0.4082121316185910  0.1096611181540656
  0.0477069389425962  0.0001741105309973  0.1024589459730579
  0.2349528245786784  0.6814649946608228  0.2871069891079370
  0.3521118859124330  0.9553755660053016  0.5051087023956169
  0.1469408637228680  0.0394284164974956  0.4495637046904150
  0.3560684407131535  0.8914191738943538  0.2287984126384603
  0.4628138203846488  0.9239355159556424  0.7156232903467556
  0.3923964903033981  0.2002098724728695  0.0136690098255960
  0.7412191776905206  0.5961338096796241  0.9262277016630077
  0.9442974453110775  0.6495068352486393  0.6956382366262078
  0.5389469462248454  0.7435977989662031  0.6655454409270967
  0.0541175244018393  0.9964870289410606  0.3061620420807271
  0.8154955754042323  0.4296942055453618  0.3284054644718770
  0.3570971910765088  0.5143010268565086  0.6827794584812638
  0.5934646315047485  0.4310470361503679  0.6627648443963463
  0.0910634418996504  0.1410714239186246  0.8580792882166205
  0.7987255573702488  0.5611959857894853  0.8054946377658923
  0.4859357944643636  0.5894181787170657  0.1266395232675481
  0.6787225539267367  0.3285718328561780  0.4469309442310450
  0.1923433852908268  0.8220299633354559  0.2559316248832323
  0.3710835876797021  0.5134079713542758  0.9933199440621929
  0.3512225387175417  0.5054277564029483  0.4933568530521769
  0.4535451596831603  0.0941897505959220  0.5964460271560527
  0.5039289862637394  0.0808012026045329  0.1534022640324724
  0.4414807955908388  0.9095389512830702  0.8857709842523671
  0.8521513669142636  0.4810868323419836  0.6832418265331202
  0.6234869732674800  0.0606040876663994  0.5285347950518751
  0.5260907793702332  0.5843670465291523  0.7184630603056307
  0.9445473825162244  0.2267266691555763  0.3778626184273717
  0.4465240426526885  0.7927313515125103  0.2374902344668923
  0.3826477357464863  0.3833250747562649  0.3175683486012038
  0.2009752805159432  0.9563697399397373  0.6224573378336196
  0.1586863481281083  0.4211642653576044  0.6245107038931401
  0.3434731882687149  0.0762308534585865  0.9353109530871018
  0.5065815917537777  0.9152813624419661  0.5451304218479786
  0.8442315342894122  0.1104178748726527  0.4778507977679059
  0.3191478036353891  0.1536995856716483  0.4996620627355460
  0.0813247074638174  0.6099351667842546  0.6695680847876770
  0.9741550275487598  0.6271013311646121  0.9279304566555922
  0.0340584484714104  0.7776093855722672  0.7035877865581289
  0.5308923734045841  0.1016304731637107  0.7537921550648523
  0.8808308003412328  0.0193730388235174  0.7659834024766951
  0.3590685177629730  0.0781881886742159  0.2824365818973199
  0.3254594517664958  0.7329565740517181  0.4686782872918346
  0.8260537150377197  0.7851896497531183  0.4970967068290116
  0.1847389375397928  0.2854215477308961  0.1922518777694267
  0.1334896727330771  0.8646495124865355  0.7468289596389797
  0.8866469608205321  0.6238949027390631  0.4438821305487572
  0.3846156008181548  0.2488069353870171  0.7339625775248633
  0.6589354005911657  0.5742026046808604  0.5805245698128718
  0.5470282999668579  0.1998868323629693  0.1078907620169199
  0.1259793990921137  0.8134173676248179  0.0789659213354493
  0.9037168024631861  0.0040146659877355  0.2138895351544917
  0.7857572461891283  0.9934597648076416  0.4279757511583174
  0.7816281502965893  0.5672043198004810  0.3559461545552464
  0.0284146672055302  0.1505365071402662  0.2332593659329565
  0.2149820805750009  0.4279269018981738  0.4351646052998213
  0.4699681122120333  0.1695696667132757  0.2739857495067083
  0.2083064752193896  0.4419662841886695  0.2559665553808210
  0.6155444510726907  0.3244691733167900  0.0943784383116333
  0.7542284508642666  0.4447009076525230  0.4890809723362016
  0.0322063086564351  0.5001025803952530  0.2669623063138912
  0.0839573554807658  0.5245123947165361  0.8728739122457804
  0.4873272930079787  0.2989747363661535  0.5736796729447439
  0.2997370636527376  0.5872529967437335  0.3693719003890535
  0.7407531279345417  0.5741892273913812  0.2200662261191989
  0.7708286670517398  0.0847540311486040  0.6903878597058736
  0.5536861037014449  0.7422763190370711  0.1249607993104503
  0.7301879002981312  0.5947476583053984  0.0766327273128035
  0.0201371547863886  0.0507661034460301  0.5425563610970439
  0.3120173337017730  0.1292006307375689  0.1065874515539650
  0.9749507480143871  0.8999917977128646  0.5669777185119241
  0.8244007592051900  0.5828990667384328  0.5643145942014216
  0.5599503516521424  0.7467097392656091  0.8355274762740114
  0.2333433564490519  0.5942358340738700  0.7291963676074547
  0.3062637590764074  0.8859924608025236  0.7954356897950200
  0.4649767518435295  0.9676249146985102  0.3565774681588328
  0.6023925660216828  0.2474918321694371  0.2871194568030292
  0.8343234722112184  0.4341476180869396  0.8560753759353545
  0.2649033734757708  0.3325599009853634  0.5316080777568779
  0.0695328316736192  0.0643229932168296  0.6890308043909460
  0.8367277848566488  0.4739476364798665  0.1489188754720189
  0.0551797994750241  0.4650612380458073  0.5501171261989846
  0.5895680903656133  0.0276780692802981  0.0898031277081352
  0.7294166349718656  0.1419645713271390  0.9995625002884371
  0.9801496490932599  0.3711105016965602  0.0749121744000936
  0.8182406789552433  0.4596751818900107  0.0388098370680551
  0.9374058707798502  0.5476780341502879  0.6228845592483255
  0.2409813139235612  0.5143886302884192  0.6398712828006909
  0.5510502040740585  0.2121548029346846  0.7097411406994282
  0.4073207541698922  0.4546456728797735  0.5905845741813105
  0.9197850820703808  0.1315780147315337  0.8123943470077735
  0.3886861602704736  0.3634417320775932  0.5288977940678753
  0.7048187019296844  0.2564820518077616  0.1353490037254679
  0.1405451482255178  0.9323578341083785  0.0568542942758797
  0.4929475835249724  0.4140997319629108  0.2587379974502498
 
 -0.37734655E-02 -0.18759784E-02  0.37928356E-02
 -0.27416077E-03 -0.29125613E-02  0.13607898E-02
  0.34811821E-03 -0.12319082E-02  0.71508745E-03
 -0.11782719E-02  0.14917526E-03  0.37090395E-02
 -0.19119453E-02 -0.70825047E-03  0.60926532E-03
 -0.12421670E-02 -0.21626490E-02  0.11488187E-02
 -0.74988678E-03  0.32970821E-03  0.18317132E-02
  0.25405607E-02  0.35052991E-03 -0.15352938E-02
 -0.36609444E-02  0.39741335E-03  0.16784268E-02
  0.11941127E-02  0.11912475E-02 -0.31519738E-02
  0.11737306E-02  0.76437765E-03  0.14048341E-02
 -0.16733065E-02 -0.21950116E-02 -0.57095331E-03
 -0.30939305E-03  0.31801992E-02 -0.13731503E-02
  0.18656286E-02 -0.37305779E-02 -0.20598234E-02
  0.15369004E-03 -0.10918678E-02 -0.68931389E-04
 -0.80157757E-03  0.13273941E-02  0.26794693E-03
  0.48010885E-03  0.20424285E-02 -0.17390823E-02
 -0.14378163E-03  0.12333888E-03 -0.13199671E-02
 -0.11869923E-02 -0.10955613E-02 -0.12550520E-02
  0.11112211E-02  0.14638581E-02 -0.36713941E-02
 -0.20269471E-02 -0.19619983E-02 -0.36018488E-02
  0.70459382E-04  0.16489171E-02  0.26009560E-02
  0.37575257E-02 -0.18399982E-02 -0.13035289E-02
  0.24644984E-02 -0.65231630E-03 -0.12639278E-02
 -0.76609001E-03  0.24504927E-03  0.13608893E-03
  0.19100840E-03 -0.91970264E-03  0.66992055E-03
  0.36693617E-03  0.47750777E-03  0.18231821E-02
 -0.15387718E-03  0.81921365E-03 -0.48777379E-03
  0.16716945E-02  0.20691526E-02  0.28730233E-03
  0.41659980E-03 -0.52624461E-03 -0.21033388E-02
  0.10826722E-02 -0.18536943E-02 -0.98355610E-03
  0.22684897E-02  0.25606453E-02 -0.23216046E-02
 -0.72907531E-03  0.64300840E-03  0.69838219E-03
  0.44167250E-03 -0.23572238E-02  0.85016163E-04
  0.62117148E-03  0.15470826E-02 -0.31214823E-02
  0.10554572E-02  0.62578301E-03  0.15342745E-03
  0.18955895E-03  0.29479715E-02  0.18953032E-02
  0.17366877E-02 -0.18184423E-02 -0.15823332E-02
 -0.10582452E-02  0.14390815E-02  0.67073590E-03
 -0.16596697E-02 -0.25379739E-02 -0.13014510E-02
 -0.42010834E-03 -0.41647150E-02 -0.89653921E-03
 -0.13484214E-02  0.12939868E-02  0.95085622E-03
  0.16397336E-02  0.44342810E-03  0.27969548E-02
  0.24145341E-03 -0.13501088E-02  0.11858952E-02
 -0.13729859E-03  0.11945673E-02 -0.30219398E-03
  0.19665250E-02 -0.15418876E-02  0.20595568E-02
  0.10217719E-02  0.16586433E-03  0.11393949E-03
  0.37033118E-02  0.82830635E-03  0.14408594E-02
 -0.24515137E-02 -0.54654350E-03  0.18088570E-02
  0.37040389E-03  0.14254322E-03 -0.96986791E-03
  0.92000067E-03  0.54628546E-03 -0.20233389E-02
 -0.36672493E-04  0.12805340E-02  0.16551786E-02
  0.24972265E-02 -0.14437196E-03 -0.14226438E-03
 -0.49991934E-03  0.35098193E-04 -0.11922479E-02
  0.24007290E-02  0.70456390E-03 -0.22557113E-02
  0.45656315E-02  0.88421445E-03  0.69524371E-03
 -0.62609081E-03  0.37943595E-02  0.13025640E-02
 -0.18847767E-02  0.21478574E-02  0.67171999E-02
 -0.14012995E-02  0.49715954E-03 -0.55118722E-05
 -0.48972822E-03  0.82275100E-03  0.12110944E-03
 -0.11554467E-03  0.13898656E-02 -0.24269069E-02
 -0.25225326E-02 -0.19240981E-02 -0.11438504E-02
 -0.24683014E-02  0.42679254E-03 -0.14082798E-02
  0.24169502E-02 -0.18548236E-02  0.19701643E-02
 -0.20824021E-02  0.17903472E-02 -0.58497422E-03
  0.81542084E-03 -0.49814889E-03  0.48449700E-02
  0.10082033E-02  0.70385411E-03 -0.47489605E-04
 -0.10497913E-02  0.52637653E-03 -0.13645520E-02
  0.13331713E-02 -0.95371856E-03 -0.30939852E-02
  0.15112284E-03  0.86930413E-03 -0.89773144E-03
 -0.10486913E-02 -0.39348937E-03  0.11164715E-02
 -0.19222655E-02  0.14786842E-02  0.15483273E-02
 -0.16637174E-02  0.18768822E-02 -0.36387417E-03
 -0.75519327E-03  0.52480526E-03 -0.13675980E-02
  0.14370255E-03  0.66982970E-03  0.13527194E-02
 -0.15168332E-02 -0.24886949E-02  0.19320366E-02
  0.22193627E-02  0.17817196E-02 -0.19043940E-02
  0.31326954E-02 -0.33475410E-04  0.53347725E-03
  0.59058138E-03  0.65971274E-03 -0.32229891E-02
 -0.18555391E-02 -0.16639724E-02 -0.13591437E-02
  0.24085088E-02 -0.13948540E-03 -0.20448180E-02
  0.22457732E-02  0.33651336E-02  0.41713519E-03
  0.11635953E-02 -0.11291039E-02 -0.34329130E-02
  0.14595482E-04 -0.10467169E-02  0.17150756E-02
 -0.52717995E-03  0.96072066E-03 -0.15546922E-02
 -0.15610034E-02 -0.36254863E-02  0.20675931E-02
  0.20453769E-02 -0.82729089E-03  0.18770754E-02
  0.18517655E-03  0.16374944E-02  0.40994793E-03
 -0.47464034E-03  0.85266184E-03 -0.32739657E-02
 -0.35873620E-03  0.15333060E-02 -0.95441094E-04
  0.99125194E-03 -0.18540195E-03 -0.79496851E-03
 -0.39264945E-03  0.30909027E-02 -0.38460272E-02
  0.18566943E-02  0.60672445E-03 -0.83133948E-03
 -0.16333682E-02  0.16461529E-02 -0.15275929E-02
  0.83184565E-03 -0.10167678E-02  0.15251090E-02
  0.17108093E-02  0.72238036E-03  0.20442317E-03
  0.14884931E-02  0.98543266E-03 -0.87331024E-03
  0.33338871E-02  0.19519126E-02  0.57248455E-03
 -0.27695060E-02  0.15244313E-02 -0.13423629E-03
 -0.20888715E-02  0.80171198E-03  0.23349009E-02
  0.75732842E-03 -0.36986646E-02  0.10259664E-03
  0.16299392E-02 -0.13933812E-02  0.22808824E-02
 -0.44116689E-03 -0.56421015E-03  0.32398668E-02
 -0.16430327E-02 -0.16358787E-03  0.28654047E-02
 -0.80581484E-03  0.54977111E-03 -0.31997085E-02
 -0.10695292E-02  0.33548840E-03  0.67580591E-03
  0.29500891E-03  0.31613561E-03 -0.23538950E-03
 -0.85398901E-03  0.18882826E-03 -0.29656882E-02
  0.13945925E-02 -0.13068415E-02  0.11652133E-02
  0.11506521E-02  0.24672480E-02  0.39220552E-04
  0.27584579E-02  0.14522946E-02 -0.10146985E-02
  0.11755803E-02  0.71443337E-03  0.24294954E-03
 -0.44401803E-04  0.17210606E-02  0.82068190E-03
  0.29897620E-02  0.11725551E-02  0.14030929E-02
  0.21605496E-02  0.60751806E-03 -0.34500594E-03
 -0.13164533E-02 -0.13432200E-02  0.48751722E-03
 -0.11069095E-02 -0.20967537E-02 -0.28774932E-02
  0.95433525E-03  0.37589907E-02  0.89364159E-03
  0.30311165E-05 -0.16719635E-03  0.92929042E-03
  0.45670306E-03 -0.96267232E-03  0.39155386E-03
 -0.29842867E-03 -0.16339634E-02 -0.62557347E-03
  0.60449614E-03 -0.57856214E-03 -0.26628210E-02
  0.17091017E-02 -0.10261816E-02  0.10323816E-02
 -0.16073850E-02  0.16221108E-02  0.99917879E-03
  0.38016833E-02 -0.15718183E-02 -0.35437051E-03
 -0.18586198E-02 -0.90120542E-03 -0.13302243E-02
  0.56603736E-03 -0.11782734E-03 -0.45283314E-03
 -0.28776756E-02 -0.70788947E-03 -0.14284276E-02
 -0.24239219E-02 -0.10119962E-02  0.13747650E-02
 -0.10089191E-02  0.16569835E-02 -0.33699132E-04
  0.24797770E-02  0.48507223E-03 -0.20408724E-02
  0.17909330E-02  0.17663511E-02 -0.90243641E-03
 -0.43413573E-02 -0.14425005E-02  0.10432290E-02
  0.16676745E-02 -0.45157397E-04 -0.10009905E-03
  0.19701436E-02  0.33577371E-02  0.13171467E-02
 -0.45033180E-03  0.32674014E-03  0.17745721E-02
  0.40717579E-04 -0.99353446E-03 -0.22591741E-02
  0.29783438E-02 -0.15341268E-02 -0.49037486E-03
 -0.53145668E-03 -0.24408094E-02 -0.54203915E-03
  0.17369066E-02  0.19678061E-03  0.58671605E-03
 -0.65782469E-03  0.87432571E-04  0.38830930E-02
  0.35036065E-03 -0.13331134E-02 -0.22244330E-03
  0.15610611E-02  0.22474439E-02  0.21173188E-03
 -0.12725254E-02  0.24584526E-03  0.18372098E-02
  0.42689513E-03 -0.21007290E-02  0.73537567E-03
  0.88920125E-03  0.11509659E-02 -0.42228071E-02
 -0.13390861E-02 -0.28935015E-03 -0.67738187E-04
  0.62377746E-03  0.29574377E-03 -0.11307249E-02
  0.29216146E-02 -0.16140688E-03  0.14341282E-02
 -0.82890169E-03 -0.12858877E-02 -0.22748426E-04
  0.10993833E-02 -0.10634684E-02  0.73125503E-03
  0.16222715E-02  0.41226166E-02  0.15325590E-02
 -0.42416392E-02 -0.18572957E-03  0.41513684E-03
 -0.65300330E-03 -0.94242148E-03  0.20746273E-02
  0.22706258E-02  0.26904154E-02  0.13657370E-02
 -0.64832884E-03 -0.12250307E-02  0.79854417E-03
  0.23152592E-02 -0.20261111E-02  0.41026525E-03
  0.87375835E-03 -0.59737093E-03 -0.28233401E-03
  0.11805518E-02 -0.13172204E-02  0.12838573E-02
  0.15242268E-02 -0.95064300E-03 -0.22926021E-02
  0.18141809E-03 -0.81532037E-03  0.56257541E-03
 -0.29810124E-03  0.91737030E-03  0.90134330E-04
 -0.53971624E-03 -0.19999818E-02 -0.37763881E-03
 -0.32946485E-03  0.12971034E-02  0.18855065E-02
 -0.68473744E-04 -0.22119643E-02  0.95148534E-03
  0.14294228E-03  0.99132497E-03  0.11438496E-02
 -0.72083966E-04  0.55404724E-03  0.77015472E-03
  0.57062647E-03  0.57566051E-03 -0.17642188E-03
 -0.25044380E-02 -0.76485960E-03  0.98907390E-03
 -0.18065475E-02 -0.13527862E-02 -0.70649507E-03
 -0.61908662E-03  0.26099654E-02 -0.90747453E-03
 -0.85071089E-03  0.74105832E-03 -0.26006937E-02
  0.67770306E-03 -0.15981718E-02  0.10256542E-02
 -0.17984036E-03 -0.11588628E-02 -0.42113531E-03
 -0.33507230E-03  0.47323543E-03 -0.14221774E-02
  0.28942175E-03  0.54481326E-03  0.42871458E-04
 -0.96084610E-03 -0.27346530E-03 -0.19034638E-02
  0.34866213E-03  0.14923897E-02  0.95121342E-03
 -0.14091618E-02 -0.40063489E-02  0.38451404E-03
 -0.60010137E-03  0.14533927E-02  0.16515104E-02
  0.20326313E-02 -0.23033935E-03 -0.20625526E-02
 -0.33968265E-02 -0.32035094E-03  0.12346812E-02
 -0.74319761E-03 -0.25599858E-02  0.15411111E-02
  0.23604809E-03  0.20594906E-03  0.96206254E-03
 -0.16101617E-02  0.11958380E-02 -0.77470397E-04
 -0.86316121E-03 -0.15912454E-03  0.45820824E-04
  0.12268923E-02  0.22657736E-02 -0.37164550E-02
 -0.18969467E-02 -0.25204638E-02 -0.29225162E-02
 -0.41050901E-04  0.63183449E-03  0.15901932E-02
  0.17276526E-02  0.11897236E-02  0.10559922E-02
  0.16304825E-02 -0.61773133E-03  0.12446246E-03
  0.26052992E-03 -0.10578136E-03  0.26100076E-03
 -0.12148582E-02  0.20467696E-03 -0.14543489E-02
 -0.61680430E-03  0.27383823E-03 -0.21832572E-02
  0.87320396E-03 -0.31369451E-03  0.85437067E-03
  0.19157963E-02  0.21692289E-02 -0.12385833E-02
  0.56169808E-03 -0.80191376E-03  0.70581320E-03
  0.15047891E-02 -0.22088904E-02  0.24599837E-02
  0.27148760E-03  0.11960154E-02 -0.41700062E-04
  0.45201302E-03  0.15565898E-02 -0.23700515E-02
 -0.14345739E-02 -0.30660935E-02 -0.21136219E-02
 -0.53561220E-04 -0.15356591E-02 -0.89971967E-04
 -0.16562909E-02  0.10221743E-02  0.66258623E-03
  0.28243571E-03 -0.13257876E-02  0.96383372E-03
  0.69060695E-03 -0.17247226E-03 -0.89730287E-03
  0.34447999E-03  0.15131283E-03 -0.17421595E-02
 -0.15694926E-02 -0.64737597E-03  0.68819425E-03
 -0.19142842E-02  0.18975308E-02  0.29825755E-02
  0.12279150E-02 -0.24307037E-02  0.49506977E-03
  0.11449373E-03 -0.20216425E-02 -0.70015934E-03
 -0.25270144E-04 -0.64564257E-03 -0.16036465E-02
  0.61155166E-04  0.10896814E-02  0.57571853E-03
  0.10555612E-02 -0.99295961E-03  0.82503513E-03
  0.55879938E-03 -0.21888323E-02 -0.42301879E-03
 -0.13507116E-02  0.39097762E-03  0.34392895E-02
 -0.46906945E-02 -0.15644483E-02  0.22983499E-02
 -0.20958257E-02  0.31525571E-03  0.36983557E-03
  0.31216418E-03 -0.12074314E-02 -0.77856790E-03
 -0.15587047E-02 -0.39925149E-02  0.49048011E-03
 -0.51510273E-03  0.21114834E-02 -0.89104818E-03
 -0.98616288E-03  0.10777711E-02 -0.17703332E-02
  0.11492563E-02 -0.55851078E-03 -0.32921058E-02
 -0.28696847E-02  0.83431787E-03  0.47340093E-03
 -0.11095546E-02  0.20845957E-02 -0.20621987E-03
  0.11958577E-02  0.43826581E-03  0.18956276E-02
  0.22743559E-03 -0.11846408E-02 -0.27823532E-02
 -0.65888135E-03  0.23306495E-03 -0.34358440E-03
  0.25778282E-02 -0.24785354E-02 -0.52247871E-03
  0.21172375E-02  0.15133049E-05 -0.40779963E-03
  0.15847381E-02 -0.87795385E-03  0.43283909E-03
  0.25802650E-02  0.12908497E-02 -0.36142014E-03
 -0.11687553E-02  0.40799908E-03 -0.14571543E-03