Amorphous GeSe                          
   1.00000000000000     
    20.1278877258000009    0.0000000000000000    0.0000000000000000
     0.0000000000000000   20.1278877258000009    0.0000000000000000
     0.0000000000000000    0.0000000000000000   20.1278877258000009
   Ge   Se
   150   150
Direct
  0.2740692224826496  0.6119016429055779  0.1461006641588008
  0.0924653391568797  0.5902349017535583  0.2816663786734439
  0.7016727655423184  0.1575746768487231  0.9333927026279299
  0.0462488942369917  0.9289816112404518  0.6736918296836838
  0.1189645237457014  0.2358481241787318  0.2684089556609023
  0.9386618183738562  0.5987482706004241 -0.0005394018300414
  0.4706123558482423  0.2011532784925254  0.1202169160412129
  0.0876803318178918  0.9471261540155269  0.2319535929374321
  0.3525188267128119  0.8505000177254003  0.5886501295076400
  0.3112893453365552  0.0012659849584912  0.2196134975501459
  0.1073154506920287  0.9489812809462943  0.0402202796302624
  0.0940732955581014  0.8196736145481570  0.8889954062955822
  0.5853697156812805  0.9539174527263081  0.7947854454698219
  0.7063042427364197  0.1760646212152333  0.7471282683467568
  0.8977754761170530  0.2462208500277847  0.9722032823965603
  0.4239299797519880  0.3696052871597607  0.2580894524981411
  0.5824605105105848  0.3390315459864595  0.0437119073063607
  0.6523848822052186  0.2845125788782049  0.5344099337899628
  0.8468902545548241  0.7550039171723121  0.1687428950502245
  0.7833627473780915  0.0499508328282831  0.4153317469402553
  0.2925619908845461  0.2040774221148894  0.2670644957563681
  0.2158782110893996  0.6502397520273278  0.0118830662197124
  0.7581243376512914  0.0354360657878775  0.7975849621236619
  0.7930785292818382  0.8979518404606359  0.8471638007502164
  0.9889402855875681  0.6124091768782299  0.6210917775162534
  0.2740763055443861  0.6277192213361070  0.7892845319354026
  0.4988701409781692  0.0397931735350835  0.5540363420164096
  0.5508176983781442  0.8825989852447683  0.9922671122724628
  0.5569888371987465  0.5993323716586939  0.3235295043991335
  0.2317762492410635  0.9308780093774043  0.5802910689009677
  0.2584401195284959  0.1419794197513940  0.9702991381468661
 -0.0011846632551637  0.1325053786879276  0.9214630897424601
  0.4456411163287272  0.3004315112600040  0.5275447724731406
  0.8105812739160549  0.6194548257325220  0.0733937377736771
  0.0765271576341729  0.4978720957719850  0.0566043009427621
  0.4588672325409754  0.9084845814110021  0.8934046595201768
  0.0352345578317891  0.7752972557871173  0.2703958446329662
  0.2683404923967291  0.6234648644588756  0.3735764381503271
  0.6981355619086963  0.0649151580920287  0.5610667329774102
  0.1919841174458527  0.5842359255500107  0.4941906507234443
  0.2966246128099218  0.4497323311577337  0.2760165281712473
  0.7433243472357697  0.4410537715475102  0.9190988830197925
  0.2991640528418541  0.9970399926713470  0.9844006261089183
  0.0277089055202690  0.8185281672299792  0.3941186291375697
  0.9645862457856903  0.9515122061715329  0.4918626763362119
  0.9783501739691726  0.1225630889557223  0.4915059646252298
  0.4824795410816364  0.5218170448710665  0.7641842349281760
  0.6297161551904870  0.9209378736148190  0.4768093169728951
  0.0356168003960565  0.3943094733476916  0.3257278462493929
  0.9211207411890405  0.2906165398110749  0.5952959182295112
  0.5946144212418751  0.8936094507103640  0.1961843542751902
  0.6562387632550324  0.3928339488807284  0.2263810696602391
  0.4118576527239149  0.0625420403850256  0.9914391895590720
  0.8338179173282910  0.2953926629573102  0.8677956376689688
  0.7923661348090988  0.4276893493324975  0.1064119143464972
  0.6327388786281675  0.7234774087046996  0.3900095569804568
  0.4146134844690646  0.1199047757351571  0.3641844055277994
  0.1724383307958388  0.3703611077233022 -0.0168243666096232
  0.7710806871701380  0.0733418106295953  0.1870266147719249
  0.2359384320182965  0.7158666619726398  0.6293775794454398
  0.8103835607941392  0.1032315762175489  0.0622731699259044
  0.9904559828816447  0.5068873739342359  0.5097441244998981
  0.5969767135642592  0.4713981919550543  0.7877677254875279
  0.5891840758562480  0.5295777593215525  0.5932789233425424
  0.6359990399486261  0.7116580900881716  0.6140751188723436
  0.3598273545541580  0.2675199185655698  0.0295884487725690
  0.0159571029830048  0.3417979914242614  0.8614536477589003
  0.9462484321916028  0.4261136698140369  0.6963399620551506
  0.3987757553207478  0.6540607515049907  0.7475438791017156
  0.2550746320747088  0.8288826856516155  0.7513210033369259
  0.4230062022994237  0.7726443721998131  0.4559419331921765
  0.5957811175995438  0.0560677844371459  0.0519422690511753
  0.5805832372433193  0.2072251564544779  0.7031088880738174
  0.4888720338195038  0.6163461308362329  0.9046861271920681
  0.8220036155990919  0.3973252143770701  0.2953176058627784
  0.0835390538158687  0.0028439224210118  0.4436141992384710
  0.8121989738818115  0.1729673806043568  0.5287620777731735
  0.6404185454764111  0.7905143419596282  0.8705589589057789
  0.8547903163801589  0.9801009101132481  0.9513139453198334
  0.4531682773428918  0.1689844505041767  0.6737230818600400
  0.0639455435454126  0.2070143564497670  0.1133325692854280
  0.5442476210136249  0.4402194666752287  0.4652655257522669
  0.2138969118973295  0.8225283890980251  0.0502176329460992
  0.3004116738597113  0.8798649447399185  0.4291112488795249
  0.9578717663802863  0.5945201656112314  0.1717554345083578
  0.7452810672229474  0.5999720848387148  0.7090136806660952
  0.2688557118481159  0.2922990755014672  0.4764886794944054
  0.1471603982361946  0.3092353870425196  0.4509361114674776
  0.6696240599277611  0.7735927549259023  0.7247772069276377
  0.4873075280285810  0.3507481285588069  0.6422784842530054
  0.0516831862309588  0.6618107450084921  0.7929769754866678
  0.4166007081081854  0.3812718124302950  0.0881563301174980
  0.5270499053655495  0.9769926529355440  0.3331407369692032
  0.8918855779228529  0.7449379053385767  0.7797207689669606
  0.1954157591601418  0.3178284443139486  0.8487910616742917
  0.3252917009088583  0.3687815822806357  0.3888236264483182
  0.4450268441082603  0.3137318056749822  0.7579283662570105
  0.2419831309383152  0.1540395347407226  0.3802247455715335
  0.0272901486363454  0.6873514996672591  0.4261297037775238
  0.2299410259630740  0.2615809488465536  0.6596884405950182
  0.6984643575961162  0.6249384599615923  0.8800774068983523
  0.9611168349713282  0.1070492207836533  0.3549422300798228
  0.8054679693558938  0.3679295626069028  0.4556945206394973
  0.6424327832429154  0.2030993079294291  0.1630276980777351
  0.1582918513051754  0.0007466381557545  0.8547937850837586
  0.4006956292802461  0.8546146696908070  0.3441070454099717
  0.0994937834376788  0.1798585790373430  0.8386269323178508
  0.4386378214423784  0.5000593048648340  0.2809274699953075
  0.0017158893288821  0.1857274260638713  0.2627366787591267
  0.6386553725136404  0.9098361275943644  0.6286200758492353
  0.1644420250318871  0.1071714468023489  0.1025864754957069
  0.8859065062744673  0.1644308646977099  0.7297427553046031
  0.6045202122476352  0.6186936275102879  0.0410271362849420
  0.7780535877340503  0.3894473562494366  0.6301901353377491
  0.1868482081554413  0.0872518288604778  0.6501036841953690
  0.2942031545174964  0.4837810967469826  0.6270485651558331
  0.3370953132037404  0.2401492160008858  0.7980210096623016
  0.0003408777758491  0.0477589471915819  0.7068468617633451
  0.6306140383110611  0.0531722172122237  0.3429139657944701
  0.3870091820897118  0.8969464869513432  0.2243278572215232
  0.6316610429302555  0.3542691774508324  0.8298656473340530
  0.8094175405703733  0.2230327817700408  0.3296099004980335
  0.1953928334600174  0.0137271610526722  0.2703449081708043
  0.1460284590486603  0.4174620362648112  0.3814310776577968
  0.9469431802138215  0.3471116109234876  0.1841585379872805
  0.4219533665100869  0.5173044072204518  0.0841406446918004
  0.4345493644050740  0.4176558444647244  0.9398418879271284
  0.0409376339098810  0.3561429763064279  0.0230532386673639
  0.8551638980513272  0.9034228760296271  0.3120879909982666
  0.9068868869682145  0.5274194837097533  0.3651445627363316
  0.9290770470557452  0.9436316535887885  0.1224478686025151
  0.4103326266031224  0.5501477690975864  0.4973551404733330
  0.8481792044315795  0.7871983841179164 -0.0074392004683240
  0.6271206104636160  0.4967034705348451  0.1403260511856112
  0.2567772125835059  0.7318409878003370  0.2991167584625142
  0.0846008300034809  0.4268963536929940  0.5576658299316646
  0.6944955262154192  0.6909976826779050  0.2180715019102504
  0.1091045748374417  0.5755677056839850  0.6925083055863217
  0.3937975693458242  0.7733565979118918  0.1632790340542896
  0.4774551320264241  0.6568850291258689  0.5109991867836651
  0.9597063282248373  0.5676200159822180  0.7906920263483600
  0.0665423693246200  0.7291286115656039  0.1308137937745192
  0.8328814499187717  0.8917893542023857  0.6649184366617239
  0.3449664118521549  0.0520732953974178  0.7638844120696253
  0.5353832692938089  0.7508590778261419  0.2865656411765382
  0.6695350343523362  0.8311100013153356  0.3024959328369392
  0.7789645191814070  0.7322444090502134  0.5416706908984321
  0.4303048294277525  0.8952648907217849  0.7040598290662751
  0.3089432679466517  0.8183837903342629  0.9032588535343870
  0.2505366022590518  0.4920755037495289  0.9163491303026094
  0.7571331427559033  0.4744527618764384  0.2191643919971113
  0.3843560603248367  0.1745423076157670  0.9437480057456957
  0.4889562398792132  0.1691009168342205  0.5568344157838876
  0.7055017355024745  0.9265695604166482  0.7428916031892143
  0.8549464748570854  0.0633849203062892  0.3141677598803574
  0.4989331366663014  0.0252593548981663  0.9170719777959836
  0.5082810168499997  0.3513956756169025  0.1684263851731720
  0.7018742384835918  0.4007452426004571  0.5249962841370484
  0.7268796857704655  0.3231634508885029  0.3275523132063923
  0.5286096735516177  0.8554679214790972  0.3647157787786751
  0.3026523080214104  0.3304346765486306  0.5850621538837648
  0.6028762359599473  0.7630822855325956  0.9970493219434482
  0.4180339049394137  0.4260830189487982  0.4806042098365984
  0.9693856242891208  0.6761961339856224  0.3152587571804310
  0.5779553976786189  0.6231989949227158  0.4479485399710395
  0.2236944292734144  0.5308354234229343  0.7267601904271785
  0.6430462196405716  0.6534474483257836  0.7670959155379014
  0.3213771695371794  0.5940156130529842  0.5666507469972732
  0.5420375016403987  0.5068009902720046  0.0459032131461404
  0.1825323951036927  0.8334541575905091  0.6427985592929110
  0.4656285571005648  0.8469559440056751  0.5441080054304416
  0.7651542232779700  0.1938330286437783  0.2149380785590234
  0.2030367037800143  0.8835829316099016  0.9342434922477212
  0.1238142976587007  0.7388092560637073  0.0154112945321962
  0.0577491189406844  0.9279965226735127  0.8284027915892154
  0.4284596556634876  0.0000194290922311  0.3981971746200566
  0.2601092665674982  0.0020843184278262  0.1063770334746415
  0.6836657984655553  0.6246853412724104  0.3276217070436546
  0.3040476668533591  0.7399623586461430  0.0058457751155322
  0.8747027186280061  0.6256257813520666  0.8583163023524729
  0.8962636878193537  0.5463554223327184  0.6849965422190984
  0.0731608569705122  0.5674778460905373  0.4326196662420809
  0.7513751514916330  0.3689579673872887  0.8005447413848130
  0.1068016813523130  0.0630360985995787  0.9553968853946951
  0.2548520554720636  0.9905135463607239  0.6938282013646015
  0.2736692450024630  0.3404402254134870  0.7503490117622458
  0.4732647373536271  0.0729221455930355  0.0967455993434482
  0.5299916929733092  0.6446025511160550  0.6249385718016554
  0.3282193970558517  0.3654639529382303  0.1766376572120431
  0.2022679557809984  0.6091913638767180  0.8902048403134711
  0.2072724990942112  0.4804853336230244  0.0376812721604770
  0.5407520059730115  0.1484921771574327  0.3415030265394692
  0.5490094582927676  0.2624431173153810  0.8139501582739029
  0.7143238903625918  0.6260588869193672  0.5758992199357411
  0.8269727000254119  0.9014677394715331  0.0472090946831867
  0.7598497910864038  0.7409269688752582  0.0712842902255306
  0.6412176639063186  0.0753045337656044  0.1707297027269733
  0.6407806731414911  0.9104716928372735  0.9063191651342152
  0.4916062069779510  0.9667835765173199  0.2158324514429200
  0.5986337670526758  0.6163335870275845  0.1680902116250809
  0.7909424670210760  0.1816271420107749  0.8438016736648284
  0.8687384445636006  0.5790729268811841  0.4773280564176790
  0.7900927825871282  0.2196838787491169  0.0301717914420685
  0.9473414251712905  0.1905057780675837  0.1542356697703734
  0.0648861178136627  0.0289011297348664  0.1382310376942261
  0.8939903775624709  0.8816786164012957  0.7754211641535224
  0.7376013706538366  0.1726415881903542  0.4227951782544845
  0.3267618124248536  0.3521413469019214  0.9389020397448389
  0.8774595688703859  0.0460859481501985  0.5070172559277487
  0.2888217017656580  0.1738998279512075  0.4887284013396744
  0.3922271576548456  0.5409685825072689  0.9631951957443824
  0.4008889204129089  0.6192548839579183  0.1505532205850222
  0.1347002108482166  0.7047173700540802  0.3240394635300186
  0.3020081292820995  0.7688057146537552  0.4935484084637298
  0.7883353081322034  0.7671918156650547  0.6652222523752509
  0.7857049447195170  0.7957670705950105  0.2851759064882725
  0.9509368570067630  0.6985208929059026  0.0874482469644991
  0.1948680447250406  0.7143910969418855  0.7521270866018857
  0.2450025892897663  0.2342115438479765  0.0560539406285166
  0.6020008014697543  0.0525784257002991  0.4670083321011747
  0.0543410091923382  0.5712367060826574  0.9631405952559534
  0.4072670381300851  0.7377792424951642  0.2868059567235954
  0.7692286253415325  0.7759792294018422  0.8829372531256962
  0.6263359400047798  0.9301655321747192  0.0805751507727807
  0.2592473443343315  0.7342954965098371  0.1759383044618460
  0.5370121949387415  0.8466600391990994  0.7456584297293960
  0.7915637102404511  0.4788503515223885  0.3919814887091128
  0.4253725364480250  0.7074127703076216  0.8532897202427397
  0.2208007743511619  0.0335815794902640  0.3884457319135501
  0.4174951226123353  0.4269133009077357  0.8098414539730665
  0.1327843897550423  0.6472280442433617  0.5867005044333473
  0.5386889730687553  0.7874862946065582  0.1677670008708687
  0.2033859475469290  0.4658290647849360  0.5371901455961025
  0.2500247682128117  0.8530472608010071  0.3173634575195201
  0.9767495265272178  0.7273373440560263  0.8749359667972629
  0.0902514027818837  0.3039198816164113  0.5586097574664164
  0.3743353801054942  0.1089809170769784  0.2409973477488140
  0.7850599647897997  0.5465512478844892  0.8324272408576585
  0.3609889157189765  0.7756565934916039  0.6949605334934372
  0.7350761575381785  0.9435258598013041  0.5511844750086312
  0.5539526338382420  0.3150902648254094  0.4587298819229137
  0.9223326358370006  0.5076166040851462  0.0891045798717794
  0.0253905254047367  0.0017229714450130  0.3284189268574806
  0.9448345558149374  0.4487015987527028  0.8215537693950123
  0.5487549657496543  0.4700769613560534  0.3384235136944728
  0.6702467783451564  0.4927859473472960  0.6910212215496792
  0.0186926405123631  0.8993590540691143  0.9529449033996239
  0.9181547299774327  0.3576532540629248  0.0204672180405763
  0.6473165164912266  0.0930972832844283  0.8215517140226488
  0.0750322482362765  0.4490674763137320  0.6792119025403538
  0.6001884825757071  0.0329003060183358  0.6375383870681203
  0.8809544109756366  0.4079937235123766  0.5556618716269721
  0.0896460594224576  0.6033075069613072  0.1497521080618417
  0.3876561741932146  0.5763545815522684  0.3769376664733654
  0.1108568231925465  0.0845596965831188  0.7551089789363441
  0.1127505849764155  0.8809374521398960  0.4510450054510345
  0.3998126777655066  0.2814570872963728  0.3403560441529250
  0.6669259058348791  0.3322933897758641  0.9436967882162189
  0.7752546041996634  0.0914605374063454  0.6843828676744532
  0.9311839977719713  0.6734022574488945  0.5194629435252911
  0.4521232936419998  0.0469057513900535  0.6990585096708497
  0.9536294612074883  0.8861358870554588  0.5974161114873083
 -0.0071813427784477  0.4598830306705497  0.2358472040940718
  0.9756597831963565  0.1461658760964134  0.6389055709791508
  0.5375270846414908  0.2189308467934222  0.2432453643986934
  0.1435628808782945  0.4336324463405943  0.8757115958689372
  0.9218673688879588  0.0669218140950492  0.0205708936406537
  0.7953125555999849  0.2628321047373997  0.6257277625284748
  0.9590758100132213  0.2951667907378927  0.3063876876736692
  0.2247011704292471  0.1705369491285062  0.8498489226260384
  0.2285475725154615  0.5641883611172741  0.2696164909709804
  0.5035570067957693  0.6949598988905243  0.0103020797070133
  0.9131231984035292  0.8593185975319432  0.4227319481548890
  0.1166097083364997 -0.0016454857930861  0.5878133152956397
  0.3669724307223164  0.9287897939898333  0.8069750174997073
  0.7059305881660070  0.9222200169338057  0.3766617692640254
  0.9591963398508848  0.4219550658108412  0.4195935585799620
  0.6063347125960029  0.3206712841136738  0.6517167270090964
  0.9924131347788925  0.7166576045061303  0.6952521685564769
  0.1892361650272773  0.1324527228724714  0.2279905152654920
  0.4805066509282964  0.4776532524606732  0.6463663838690219
  0.7429049477944382  0.0426704620261621  0.9760396842663457
  0.8090923655644819  0.6337116416229880  0.1990227222274352
  0.9305835835094600  0.0702933668995902  0.8037098148911964
  0.9141354135443196  0.2323977884666475  0.4784310670669324
  0.3257462826198410  0.1747931014317058  0.6860544005380461
  0.3742982311987216  0.8925717255655582  0.9872641495353824
  0.0144636576719102  0.8618994074904149  0.0784417709707658
  0.9401114485752103  0.8673471265417338  0.2269149426026782
  0.5645295382123129  0.2144727682677685  0.0378174734581154
  0.6601428600774243  0.7796351081864304  0.5138985407095799
  0.1223704701883751  0.1999155515908144  0.3942483337412601
  0.0957353412206727  0.2883981683893493  0.7728563072136982
  0.0610655194659568  0.2340183956818084  0.9899962928604296
  0.6352429329712327  0.5110434448216982  0.8955892227026736
  0.6901985945115250  0.3379153784024833  0.1162679556858715
  0.9265532003890070  0.2871974626625519  0.7883682651505710
  0.0696503761288410  0.3299522428873374  0.1456272975293197
  0.2138386746008898  0.3569661259937483  0.2963753823796721
  0.7209798769390591  0.5197770864262087  0.0524703122066734
 
  0.00000000E+00  0.00000000E+00  0.00000000E+00
  0.00000000E+00  0.00000000E+00  0.00000000E+00
  0.00000000E+00  0.00000000E+00  0.00000000E+00
  0.00000000E+00  0.00000000E+00  0.00000000E+00
  0.00000000E+00  0.00000000E+00  0.00000000E+00
  0.00000000E+00  0.00000000E+00  0.00000000E+00
  0.00000000E+00  0.00000000E+00  0.00000000E+00
  0.00000000E+00  0.00000000E+00  0.00000000E+00
  0.00000000E+00  0.00000000E+00  0.00000000E+00
  0.00000000E+00  0.00000000E+00  0.00000000E+00
  0.00000000E+00  0.00000000E+00  0.00000000E+00
  0.00000000E+00  0.00000000E+00  0.00000000E+00
  0.00000000E+00  0.00000000E+00  0.00000000E+00
  0.00000000E+00  0.00000000E+00  0.00000000E+00
  0.00000000E+00  0.00000000E+00  0.00000000E+00
  0.00000000E+00  0.00000000E+00  0.00000000E+00
  0.00000000E+00  0.00000000E+00  0.00000000E+00
  0.00000000E+00  0.00000000E+00  0.00000000E+00
  0.00000000E+00  0.00000000E+00  0.00000000E+00
  0.00000000E+00  0.00000000E+00  0.00000000E+00
  0.00000000E+00  0.00000000E+00  0.00000000E+00
  0.00000000E+00  0.00000000E+00  0.00000000E+00
  0.00000000E+00  0.00000000E+00  0.00000000E+00
  0.00000000E+00  0.00000000E+00  0.00000000E+00
  0.00000000E+00  0.00000000E+00  0.00000000E+00
  0.00000000E+00  0.00000000E+00  0.00000000E+00
  0.00000000E+00  0.00000000E+00  0.00000000E+00
  0.00000000E+00  0.00000000E+00  0.00000000E+00
  0.00000000E+00  0.00000000E+00  0.00000000E+00
  0.00000000E+00  0.00000000E+00  0.00000000E+00
  0.00000000E+00  0.00000000E+00  0.00000000E+00
  0.00000000E+00  0.00000000E+00  0.00000000E+00
  0.00000000E+00  0.00000000E+00  0.00000000E+00
  0.00000000E+00  0.00000000E+00  0.00000000E+00
  0.00000000E+00  0.00000000E+00  0.00000000E+00
  0.00000000E+00  0.00000000E+00  0.00000000E+00
  0.00000000E+00  0.00000000E+00  0.00000000E+00
  0.00000000E+00  0.00000000E+00  0.00000000E+00
  0.00000000E+00  0.00000000E+00  0.00000000E+00
  0.00000000E+00  0.00000000E+00  0.00000000E+00
  0.00000000E+00  0.00000000E+00  0.00000000E+00
  0.00000000E+00  0.00000000E+00  0.00000000E+00
  0.00000000E+00  0.00000000E+00  0.00000000E+00
  0.00000000E+00  0.00000000E+00  0.00000000E+00
  0.00000000E+00  0.00000000E+00  0.00000000E+00
  0.00000000E+00  0.00000000E+00  0.00000000E+00
  0.00000000E+00  0.00000000E+00  0.00000000E+00
  0.00000000E+00  0.00000000E+00  0.00000000E+00
  0.00000000E+00  0.00000000E+00  0.00000000E+00
  0.00000000E+00  0.00000000E+00  0.00000000E+00
  0.00000000E+00  0.00000000E+00  0.00000000E+00
  0.00000000E+00  0.00000000E+00  0.00000000E+00
  0.00000000E+00  0.00000000E+00  0.00000000E+00
  0.00000000E+00  0.00000000E+00  0.00000000E+00
  0.00000000E+00  0.00000000E+00  0.00000000E+00
  0.00000000E+00  0.00000000E+00  0.00000000E+00
  0.00000000E+00  0.00000000E+00  0.00000000E+00
  0.00000000E+00  0.00000000E+00  0.00000000E+00
  0.00000000E+00  0.00000000E+00  0.00000000E+00
  0.00000000E+00  0.00000000E+00  0.00000000E+00
  0.00000000E+00  0.00000000E+00  0.00000000E+00
  0.00000000E+00  0.00000000E+00  0.00000000E+00
  0.00000000E+00  0.00000000E+00  0.00000000E+00
  0.00000000E+00  0.00000000E+00  0.00000000E+00
  0.00000000E+00  0.00000000E+00  0.00000000E+00
  0.00000000E+00  0.00000000E+00  0.00000000E+00
  0.00000000E+00  0.00000000E+00  0.00000000E+00
  0.00000000E+00  0.00000000E+00  0.00000000E+00
  0.00000000E+00  0.00000000E+00  0.00000000E+00
  0.00000000E+00  0.00000000E+00  0.00000000E+00
  0.00000000E+00  0.00000000E+00  0.00000000E+00
  0.00000000E+00  0.00000000E+00  0.00000000E+00
  0.00000000E+00  0.00000000E+00  0.00000000E+00
  0.00000000E+00  0.00000000E+00  0.00000000E+00
  0.00000000E+00  0.00000000E+00  0.00000000E+00
  0.00000000E+00  0.00000000E+00  0.00000000E+00
  0.00000000E+00  0.00000000E+00  0.00000000E+00
  0.00000000E+00  0.00000000E+00  0.00000000E+00
  0.00000000E+00  0.00000000E+00  0.00000000E+00
  0.00000000E+00  0.00000000E+00  0.00000000E+00
  0.00000000E+00  0.00000000E+00  0.00000000E+00
  0.00000000E+00  0.00000000E+00  0.00000000E+00
  0.00000000E+00  0.00000000E+00  0.00000000E+00
  0.00000000E+00  0.00000000E+00  0.00000000E+00
  0.00000000E+00  0.00000000E+00  0.00000000E+00
  0.00000000E+00  0.00000000E+00  0.00000000E+00
  0.00000000E+00  0.00000000E+00  0.00000000E+00
  0.00000000E+00  0.00000000E+00  0.00000000E+00
  0.00000000E+00  0.00000000E+00  0.00000000E+00
  0.00000000E+00  0.00000000E+00  0.00000000E+00
  0.00000000E+00  0.00000000E+00  0.00000000E+00
  0.00000000E+00  0.00000000E+00  0.00000000E+00
  0.00000000E+00  0.00000000E+00  0.00000000E+00
  0.00000000E+00  0.00000000E+00  0.00000000E+00
  0.00000000E+00  0.00000000E+00  0.00000000E+00
  0.00000000E+00  0.00000000E+00  0.00000000E+00
  0.00000000E+00  0.00000000E+00  0.00000000E+00
  0.00000000E+00  0.00000000E+00  0.00000000E+00
  0.00000000E+00  0.00000000E+00  0.00000000E+00
  0.00000000E+00  0.00000000E+00  0.00000000E+00
  0.00000000E+00  0.00000000E+00  0.00000000E+00
  0.00000000E+00  0.00000000E+00  0.00000000E+00
  0.00000000E+00  0.00000000E+00  0.00000000E+00
  0.00000000E+00  0.00000000E+00  0.00000000E+00
  0.00000000E+00  0.00000000E+00  0.00000000E+00
  0.00000000E+00  0.00000000E+00  0.00000000E+00
  0.00000000E+00  0.00000000E+00  0.00000000E+00
  0.00000000E+00  0.00000000E+00  0.00000000E+00
  0.00000000E+00  0.00000000E+00  0.00000000E+00
  0.00000000E+00  0.00000000E+00  0.00000000E+00
  0.00000000E+00  0.00000000E+00  0.00000000E+00
  0.00000000E+00  0.00000000E+00  0.00000000E+00
  0.00000000E+00  0.00000000E+00  0.00000000E+00
  0.00000000E+00  0.00000000E+00  0.00000000E+00
  0.00000000E+00  0.00000000E+00  0.00000000E+00
  0.00000000E+00  0.00000000E+00  0.00000000E+00
  0.00000000E+00  0.00000000E+00  0.00000000E+00
  0.00000000E+00  0.00000000E+00  0.00000000E+00
  0.00000000E+00  0.00000000E+00  0.00000000E+00
  0.00000000E+00  0.00000000E+00  0.00000000E+00
  0.00000000E+00  0.00000000E+00  0.00000000E+00
  0.00000000E+00  0.00000000E+00  0.00000000E+00
  0.00000000E+00  0.00000000E+00  0.00000000E+00
  0.00000000E+00  0.00000000E+00  0.00000000E+00
  0.00000000E+00  0.00000000E+00  0.00000000E+00
  0.00000000E+00  0.00000000E+00  0.00000000E+00
  0.00000000E+00  0.00000000E+00  0.00000000E+00
  0.00000000E+00  0.00000000E+00  0.00000000E+00
  0.00000000E+00  0.00000000E+00  0.00000000E+00
  0.00000000E+00  0.00000000E+00  0.00000000E+00
  0.00000000E+00  0.00000000E+00  0.00000000E+00
  0.00000000E+00  0.00000000E+00  0.00000000E+00
  0.00000000E+00  0.00000000E+00  0.00000000E+00
  0.00000000E+00  0.00000000E+00  0.00000000E+00
  0.00000000E+00  0.00000000E+00  0.00000000E+00
  0.00000000E+00  0.00000000E+00  0.00000000E+00
  0.00000000E+00  0.00000000E+00  0.00000000E+00
  0.00000000E+00  0.00000000E+00  0.00000000E+00
  0.00000000E+00  0.00000000E+00  0.00000000E+00
  0.00000000E+00  0.00000000E+00  0.00000000E+00
  0.00000000E+00  0.00000000E+00  0.00000000E+00
  0.00000000E+00  0.00000000E+00  0.00000000E+00
  0.00000000E+00  0.00000000E+00  0.00000000E+00
  0.00000000E+00  0.00000000E+00  0.00000000E+00
  0.00000000E+00  0.00000000E+00  0.00000000E+00
  0.00000000E+00  0.00000000E+00  0.00000000E+00
  0.00000000E+00  0.00000000E+00  0.00000000E+00
  0.00000000E+00  0.00000000E+00  0.00000000E+00
  0.00000000E+00  0.00000000E+00  0.00000000E+00
  0.00000000E+00  0.00000000E+00  0.00000000E+00
  0.00000000E+00  0.00000000E+00  0.00000000E+00
  0.00000000E+00  0.00000000E+00  0.00000000E+00
  0.00000000E+00  0.00000000E+00  0.00000000E+00
  0.00000000E+00  0.00000000E+00  0.00000000E+00
  0.00000000E+00  0.00000000E+00  0.00000000E+00
  0.00000000E+00  0.00000000E+00  0.00000000E+00
  0.00000000E+00  0.00000000E+00  0.00000000E+00
  0.00000000E+00  0.00000000E+00  0.00000000E+00
  0.00000000E+00  0.00000000E+00  0.00000000E+00
  0.00000000E+00  0.00000000E+00  0.00000000E+00
  0.00000000E+00  0.00000000E+00  0.00000000E+00
  0.00000000E+00  0.00000000E+00  0.00000000E+00
  0.00000000E+00  0.00000000E+00  0.00000000E+00
  0.00000000E+00  0.00000000E+00  0.00000000E+00
  0.00000000E+00  0.00000000E+00  0.00000000E+00
  0.00000000E+00  0.00000000E+00  0.00000000E+00
  0.00000000E+00  0.00000000E+00  0.00000000E+00
  0.00000000E+00  0.00000000E+00  0.00000000E+00
  0.00000000E+00  0.00000000E+00  0.00000000E+00
  0.00000000E+00  0.00000000E+00  0.00000000E+00
  0.00000000E+00  0.00000000E+00  0.00000000E+00
  0.00000000E+00  0.00000000E+00  0.00000000E+00
  0.00000000E+00  0.00000000E+00  0.00000000E+00
  0.00000000E+00  0.00000000E+00  0.00000000E+00
  0.00000000E+00  0.00000000E+00  0.00000000E+00
  0.00000000E+00  0.00000000E+00  0.00000000E+00
  0.00000000E+00  0.00000000E+00  0.00000000E+00
  0.00000000E+00  0.00000000E+00  0.00000000E+00
  0.00000000E+00  0.00000000E+00  0.00000000E+00
  0.00000000E+00  0.00000000E+00  0.00000000E+00
  0.00000000E+00  0.00000000E+00  0.00000000E+00
  0.00000000E+00  0.00000000E+00  0.00000000E+00
  0.00000000E+00  0.00000000E+00  0.00000000E+00
  0.00000000E+00  0.00000000E+00  0.00000000E+00
  0.00000000E+00  0.00000000E+00  0.00000000E+00
  0.00000000E+00  0.00000000E+00  0.00000000E+00
  0.00000000E+00  0.00000000E+00  0.00000000E+00
  0.00000000E+00  0.00000000E+00  0.00000000E+00
  0.00000000E+00  0.00000000E+00  0.00000000E+00
  0.00000000E+00  0.00000000E+00  0.00000000E+00
  0.00000000E+00  0.00000000E+00  0.00000000E+00
  0.00000000E+00  0.00000000E+00  0.00000000E+00
  0.00000000E+00  0.00000000E+00  0.00000000E+00
  0.00000000E+00  0.00000000E+00  0.00000000E+00
  0.00000000E+00  0.00000000E+00  0.00000000E+00
  0.00000000E+00  0.00000000E+00  0.00000000E+00
  0.00000000E+00  0.00000000E+00  0.00000000E+00
  0.00000000E+00  0.00000000E+00  0.00000000E+00
  0.00000000E+00  0.00000000E+00  0.00000000E+00
  0.00000000E+00  0.00000000E+00  0.00000000E+00
  0.00000000E+00  0.00000000E+00  0.00000000E+00
  0.00000000E+00  0.00000000E+00  0.00000000E+00
  0.00000000E+00  0.00000000E+00  0.00000000E+00
  0.00000000E+00  0.00000000E+00  0.00000000E+00
  0.00000000E+00  0.00000000E+00  0.00000000E+00
  0.00000000E+00  0.00000000E+00  0.00000000E+00
  0.00000000E+00  0.00000000E+00  0.00000000E+00
  0.00000000E+00  0.00000000E+00  0.00000000E+00
  0.00000000E+00  0.00000000E+00  0.00000000E+00
  0.00000000E+00  0.00000000E+00  0.00000000E+00
  0.00000000E+00  0.00000000E+00  0.00000000E+00
  0.00000000E+00  0.00000000E+00  0.00000000E+00
  0.00000000E+00  0.00000000E+00  0.00000000E+00
  0.00000000E+00  0.00000000E+00  0.00000000E+00
  0.00000000E+00  0.00000000E+00  0.00000000E+00
  0.00000000E+00  0.00000000E+00  0.00000000E+00
  0.00000000E+00  0.00000000E+00  0.00000000E+00
  0.00000000E+00  0.00000000E+00  0.00000000E+00
  0.00000000E+00  0.00000000E+00  0.00000000E+00
  0.00000000E+00  0.00000000E+00  0.00000000E+00
  0.00000000E+00  0.00000000E+00  0.00000000E+00
  0.00000000E+00  0.00000000E+00  0.00000000E+00
  0.00000000E+00  0.00000000E+00  0.00000000E+00
  0.00000000E+00  0.00000000E+00  0.00000000E+00
  0.00000000E+00  0.00000000E+00  0.00000000E+00
  0.00000000E+00  0.00000000E+00  0.00000000E+00
  0.00000000E+00  0.00000000E+00  0.00000000E+00
  0.00000000E+00  0.00000000E+00  0.00000000E+00
  0.00000000E+00  0.00000000E+00  0.00000000E+00
  0.00000000E+00  0.00000000E+00  0.00000000E+00
  0.00000000E+00  0.00000000E+00  0.00000000E+00
  0.00000000E+00  0.00000000E+00  0.00000000E+00