Amorphous Sb2Se3                        
  0.895000000000000     
    20.9867606951059820    0.0000000000000000    0.0000000000000000
     0.0000000000000000   20.9867606951059820    0.0000000000000000
     0.0000000000000000    0.0000000000000000   20.9867606951059820
   Sb   Se
   120   180
Direct
  0.2734657623076349  0.6164615879279020  0.1636758447705909
  0.1337039066321066  0.5110279246754960  0.4102785187534488
  0.5167090583620423  0.8740657414229543  0.2222939063594053
  0.6093225748543220  0.2456116477854473  0.0409909026361171
  0.2667636776806724  0.7870311742102801  0.6306008083103058
  0.6716389091616097  0.9265866994314014  0.3309696732771211
  0.6546201654702066  0.4393319275757437  0.3214965010581069
  0.0022974848850283  0.7502833961164368  0.2241799297601391
  0.9803926548259836  0.0271755755119724  0.5885590640078703
  0.4567429658365254  0.7019779699877610  0.0967351552996807
  0.9325404775386821  0.5455109089617977  0.2942497590295589
  0.4921450601235749  0.5897749518363348  0.5354521775188830
  0.7820112430087458  0.9350948976805213  0.7408258448361155
  0.7246115958121745  0.0652244425137340  0.2956221856783887
  0.5382010009737338  0.5506731337821965  0.3134825305590441
  0.3278477213565513  0.2778569502662998  0.9322204246362172
  0.8582289960560378  0.6694162473392178  0.4999931506461051
  0.9767501690131812  0.9174116036725941  0.7448467546342288
  0.5982466577829748  0.6650306067361883  0.2166148191787585
  0.5378094428238824  0.3114384005262684  0.1922443812834074
  0.6843733426802315  0.3404285206913018  0.8510366983342122
  0.6685434822005993  0.4946974129376333  0.9225431132454652
  0.3514618628647527  0.5158869943143902  0.8964036121034747
  0.9951337200500103  0.2978549730520619  0.0793270354369308
  0.8251059906097764  0.4609166234788688  0.9456697177174043
  0.6909349832242279  0.1222424983372264  0.6000083200076437
  0.5970723392363916  0.8792217849564044  0.4614465354654561
  0.5174724465765740  0.3384649852483681  0.8876239092351543
  0.3197624893659065  0.3990539625799761  0.4620453899679405
  0.7135811995606308  0.1249844193454862  0.0694595288549723
  0.9161016749121708  0.7661949843548196  0.0246885732114634
  0.7369462213132038  0.3702528120969973  0.1409106497546795
  0.7778166814588364  0.4295088051627611  0.5219255662953161
  0.2775870015138858  0.8421078888359417  0.2631051849008593
  0.1521387171153499  0.9655449091933936  0.5200676494354146
  0.4749278957977517  0.5133558394550266  0.1536287470805623
  0.7574863636923628  0.6319004423216434  0.3631366080119748
  0.9617758806708906  0.4932945948848121  0.1387567821967125
  0.6423731463646631  0.3564168183132416  0.6038686066904190
  0.6056442244029313  0.0321922587034330  0.4834732785774568
  0.5301215443306063  0.9192400116407161  0.9369619667718742
  0.4234697015675071  0.6172678688833622  0.3972746846219986
  0.6241035671604127  0.7955203419586337  0.8008017630884554
  0.0519274125964742  0.3238754801170363  0.5424216336960068
  0.8498904694829518  0.2339170739666544  0.9921376482280916
  0.1263898997658316  0.4267356095246262  0.2808399953090119
  0.8738086625246274  0.2075388637649795  0.5508475839037409
  0.3486271181649327 -0.0003927989316562  0.2543262344284462
  0.0216216266185350  0.7332270730253734  0.3896993931227741
  0.0378592497289957  0.6438844729197700  0.7932346228908560
  0.2969919537227241  0.5795031551649611  0.6772608813740031
  0.1883378710522165  0.2460103525270528  0.6714103977053744
  0.9786097212196081  0.4945296185628097  0.6727081907269357
  0.5064111788635210  0.3220946064472757  0.4773637586426775
  0.0502958764468385  0.1411212003175633  0.0456851705353916
  0.8695516283771167  0.7478822789485814  0.7780304402319924
  0.0272360662472142  0.2324599140702739  0.9106886403564755
  0.7972138794343832  0.9975001894628902  0.0334626710960760
  0.0375202172097637  0.6435993206692185  0.0016964345934884
  0.5611841498076015  0.2291465691007001  0.6397871053255341
  0.9745111779370140  0.8241101233876372  0.5461317237639013
  0.6346299808059799  0.4400466780408950  0.7418691238735156
  0.0740600109321954  0.9231900871454435  0.9800458150998606
  0.1342011806939284  0.8114959059106434  0.8032573386288420
  0.5567130749061197  0.6337334992817506  0.8428547137136139
  0.1733667598791300  0.7978716228426508  0.1123874668327207
  0.4200732475628036  0.4263004569034699  0.6763390070999841
  0.5217149305743206 -0.0051331641943024  0.3610777980797613
  0.2499132350949388  0.0247607948940991  0.6302383279859184
  0.4159000604436589  0.7213510250400305  0.7675024630176136
  0.7410987951653475  0.1631882732686156  0.8961364680926236
  0.4730745461611588  0.1391087281889332  0.3818446388163520
  0.3611878810549555  0.8384344925412764  0.9570676622006234
  0.0915442158685559  0.4185190112903739  0.8303245350448130
  0.2373547330101413  0.0611488722029104  0.9558010948677566
  0.3251017041098779  0.4127400893325021  0.0561071601327122
  0.1767040757736350  0.0736560932084491  0.1701922486958801
  0.6228772095058511  0.9982264841186941  0.7578855319672697
  0.3623239504167266  0.0908384446728303  0.7870090630236791
  0.1875832781824116  0.0119378666111319  0.3229961501893243
  0.3226478157367228  0.6940386445840218  0.4989563724196546
  0.8711390938681920  0.3749742416084492  0.3079813803409819
  0.5088731801354773  0.1164144780164024  0.9500431527922665
  0.1999424423870865  0.5507674044294143  0.0132094007552233
  0.7942499947447235  0.6078811627600249  0.1365990319646998
  0.6656320169815815  0.6888153709809954  0.4946725384342907
  0.6776850804862276  0.2416279619867185  0.4042533717665336
  0.8294784655578179  0.1941072369988769  0.3447071121708720
  0.9593366772274936  0.1217802565245218  0.2007340423498344
  0.9387059878190391  0.4664650668966872  0.4868745104858624
  0.5974095732287270  0.7746695648475869  0.9645062106607921
  0.3669059715937529  0.2836337288044702  0.7367292239467961
  0.3532201543241476  0.9087897750004704  0.7735244610296301
  0.6449577288148814  0.8339857065742380  0.6041644733557661
  0.0091817157177387  0.2003745606860241  0.6324207359987123
  0.9481043657015525  0.3675385069342074  0.7765727211787439
  0.9338697350931038  0.9359712346387218  0.1730879178843792
  0.2282791441724292  0.2216109442087499  0.3972999030010860
  0.7930810399145036  0.9545932016911960  0.4938507204450108
  0.9331862363237932  0.0484391549946436  0.9003904483787717
  0.1201481228132987  0.1043213742004840  0.7805944551560190
  0.2064726537197656  0.7927449551513167  0.4473011553965924
  0.0344133831228546  0.1376530949991706  0.4819777781890531
  0.6862343295427505  0.5297833675881082  0.5998149272126931
  0.6770802682218644  0.9013536154084270  0.1780742496622094
  0.5329128371442443  0.0496169439184561  0.6362303504126913
  0.3713802869982130  0.2777514828200466  0.2860148466949592
  0.8326660441547351  0.1038737811471522  0.7414214023382278
  0.1138136358182020  0.6581601103753492  0.6362289707300012
  0.5578215208346409  0.5747648899743845  0.6762264152491058
  0.4179200168237788  0.0155835211469419  0.0706275776147980
  0.4294014837950684  0.1143701405677985  0.5348572527221425
  0.0342931584559835  0.0132062762094551  0.3681833603825568
  0.3148085006670989  0.4826846918832010  0.2762607575321359
  0.1879918076607243  0.3122356267050911  0.1833823337678219
  0.4891103045462031  0.7611418643593276  0.3938191318693572
  0.7325719250214811  0.2858906905221347  0.7146847261674685
  0.1917225304408273  0.4469292902988896  0.6050464938854692
  0.2111259152155892  0.6423152696059135  0.3109378674638055
  0.3973428510782068  0.2129416584183216  0.1162776034747854
  0.6246325497112060  0.5521651528960698  0.4753765638474490
  0.4587623559141970  0.4556390395056588  0.4393260263517688
  0.0790153141921714  0.2223951806737252  0.1714911699374694
  0.4723345951443392  0.1798523586467350  0.2451715810653289
  0.9029416173615061  0.1054873537688633  0.0345899814722571
  0.4905672827756591  0.9216891764882819  0.5588507284948746
  0.0591374359576356  0.6139354811890929  0.2822310904449041
  0.8684422897989788  0.2366731178414554  0.6985050008302416
  0.7231165226138729  0.3296429574193416  0.0016691347182348
  0.8964287164844746  0.1833744533824591  0.8572721078764330
  0.0664434494107193  0.5049986898590800  0.0262498673908184
  0.4578992577175023  0.8540111605003687  0.0927121749642343
  0.0555283067618394  0.5087495622806446  0.5542239594423207
  0.5333623489595493  0.3313307966167216  0.7432053813773791
  0.7957033626353254  0.9848339799492832  0.1777640910077753
  0.0305285569823671  0.8977124852571627  0.2772545314370986
  0.2847877343471466  0.3293043134492606  0.6043933039850459
  0.7258279275471873  0.7768355459311107  0.3508473433028396
  0.9380142642978997  0.9338261964927204  0.0007672052360298
  0.1230101768606238  0.1014413775844110  0.6373237375463717
  0.8147803548677220  0.4040760509249468  0.6812829042318224
  0.3155682836878070  0.1643987210089388  0.6780895451634424
  0.7572678361645117  0.7525587746597018  0.8874249753423241
  0.0219727498171949  0.7800809203350754  0.7184033027786749
  0.1082166206061555  0.5279633527769690  0.7227958833910222
  0.7359968222713115  0.2508334072374876  0.5536613373583623
  0.0102863823119939  0.4244445207913550  0.3632720138899499
  0.3903623912664826  0.8146831730979243  0.4885493720114041
  0.6592005291716982  0.2446199165165937  0.1760512644341773
  0.3936219451632194  0.6023996616001606  0.2424266372292743
  0.5639879899116071  0.5986506574080918  0.0892110806606551
  0.2374620042394407  0.0195558484569116  0.8009676817871964
  0.2186364544516802  0.6911843532963330  0.7327118618538796
  0.1428941044253100  0.6283981378993332  0.9055313610277582
  0.5928262231592409  0.2143735434512001  0.8883357640087969
  0.3657292229873472  0.5720045472691355  0.0647053760193824
  0.3424157034565921  0.0818057001517529  0.3652097046718444
  0.5751535846426888  0.9784312138081046  0.0575878826371206
  0.7065729882229934  0.7133084025726479  0.0785453068241053
  0.2171523724865214  0.8904010781050442  0.7099131972780686
  0.3934037553425674  0.6665270773073498  0.6182631399246691
  0.7440801406711198  0.3209640280953079  0.2852424718365624
  0.2912573220270440  0.1113462708475632  0.5218427939598796
  0.8126163284566952  0.6606298776176107  0.9895908438104024
  0.8625959909193530  0.7597232978326187  0.6117732713062511
  0.8952936684224293  0.1104902426283867  0.4390091876171904
  0.7394350246011430  0.6568022900450345  0.6114635710006785
  0.8639276204131185  0.6668021509056811  0.2788082347948029
  0.4683839633744788  0.7197580617925708  0.9515556414565562
  0.0318212477051836  0.8314854622716952  0.1040818752252643
  0.3990473302717821  0.0078660650684186  0.6699573891835333
  0.5322509281089548  0.7312823853061020  0.5308956073652003
  0.6527824076995468  0.3857540200467516  0.4590794591424800
  0.1421590893692004  0.9195978232923182  0.2152779013965641
  0.2321541643363304  0.4302676783880521  0.9456502833537744
  0.9454042295070880  0.6619725902259360  0.1313151864821523
  0.5011484834111524  0.1470249427615934  0.7390164898097327
  0.1714534232941226  0.3906869281903087  0.4713122212390556
  0.3015006058095127  0.7030562096884748 -0.0009922243435316
  0.0543180659706375  0.0211161914285482  0.1146703165663404
  0.9316017593120549  0.6800352727107971  0.8818393412975978
  0.3758910614786906  0.9806246048443490  0.9264947536888276
  0.3180109197717147  0.7283432736438032  0.3417620421728338
  0.3553023661256129  0.1422498027232879  0.9879342332802438
  0.6465255946031444  0.0683255112355405  0.9533545012734239
  0.2107048343307922  0.9649323081943618  0.0792748205223869
  0.6466376757863617  0.6321232468161235  0.9486355135913606
  0.4154192647910427  0.8827569666724118  0.3205469164749010
  0.2127421192949513  0.5957382041651350  0.5583610882533525
  0.2843613828459502  0.5348911010660028  0.4093446141543647
  0.8823806794094183  0.8848049255654511  0.8414858041956742
  0.3876063130105565  0.3873877747484973  0.8467040982498956
  0.3275961003369804  0.9086086164976841  0.1028475389179680
  0.6184348807612433  0.1513785306208943  0.3113274577989136
  0.4513340510043506  0.2985555722312038  0.0134164508053039
  0.8228801126297790  0.3362816658995887  0.8617863532300148
  0.8297833846051378  0.4758747890226138  0.2045610693487981
  0.8092911712153747  0.9261817918232229  0.3568762911356735
  0.5989367683796110  0.4052735252698997  0.0133679888159999
  0.1902499320148110  0.1543505715999779  0.0540461366414689
  0.1109754403810796  0.2795289101900564  0.3436582054966432
  0.5540715269380848  0.8849747500139726  0.7075670732387044
  0.0566799357184954  0.2457602872196617  0.7748432449778179
  0.2348422055337510  0.3091043552015987  0.7993811250157080
  0.6402729359857985  0.0544746492005448  0.1719236469360338
  0.3041553696481502  0.7889279143514857  0.8332264160949987
  0.4390764667709371  0.4243956505433961  0.3163722187076164
  0.7979011430074592  0.8487475776924149  0.9694673790154589
  0.4200508301082969  0.9837256458796757  0.4697852794164827
  0.1592764900899346  0.2292344298924020  0.5272819410256444
  0.5735809697460550  0.1918892880712417  0.4892439864324469
  0.3132391002029641  0.7487717932269884  0.1429396420387719
  0.5649291156344395  0.3207499922606540  0.3324002385339098
  0.6975346603807450  0.9669499346993252  0.6184000750707114
  0.1359116361138163  0.7837439438019878  0.5741884417038376
  0.4749747479698228  0.4507515191522393  0.0083050463530068
  0.8948134003456950  0.5015936416365006  0.8194137444125177
  0.6079739940616510  0.4373849845131437  0.1819705851099993
  0.6873215400446469  0.1450369731018052  0.7449257342820589
  0.9191643324235141  0.3569647793931487  0.5888388408722933
  0.0739717033043426  0.1205137656329999  0.2886896842007309
  0.4015982701969338  0.8241311663373576  0.6703593425787293
  0.7920309865131636  0.0288975366824292  0.8846371378551203
  0.3942703602509110  0.3831673846182668  0.1796408148575334
  0.7822134654767663  0.6281173967342100  0.8230573045788636
  0.0872051419795239  0.9426814001165924  0.8321062800674415
  0.0790120193529941  0.8594760005410137  0.4298488311891452
  0.1741948464779742  0.0938811321855799  0.4376003665477076
  0.8979669070118651  0.5651965985157441  0.0155695621750223
  0.4777644873025295  0.5729719673155915  0.9607860225531690
  0.5896517834493843  0.7766228121599255  0.1039383858781498
  0.4357048918785782  0.2716794220214810  0.5941135167586290
  0.5063565335914015  0.0219681842519300  0.8333086353746816
  0.2853572272343738  0.9087062402032368  0.5450202996730292
  0.0064285720185031  0.2641884825689206  0.4170241047332552
  0.0085636741690262  0.5276277509613018  0.8748004406656172
  0.8304292768643998  0.0780212621910987  0.5999466132911868
  0.8076525594569104  0.1521062104361391  0.1862914039404741
  0.6727817590906074  0.6442689744169697  0.7588463328013110
  0.1548149454868095  0.7647268702695040  0.2683746841749307
  0.1450811090964865  0.6655250225740076  0.4346602418617767
  0.0475116608177565  0.7916392488968267  0.9268912359868102
  0.7017991144985104  0.5685132367041231  0.2450852924768097
  0.4711459914853990  0.7379718622722184  0.2402462056811177
  0.6620977445610333  0.9158559939644899  0.8710629365830413
  0.0002647343600083  0.3733153359379391  0.1978047375441991
  0.8965421328042371  0.7889718011764907  0.4221638813528794
  0.1005467295491162  0.3636229211956021  0.6741295555739950
  0.8499845403438030  0.3052726340095469  0.4340302200130811
  0.2246930087671722  0.8896567790832901  0.9329439511359859
  0.3262554563391454  0.0931060616790200  0.1501033352130119
  0.8756163031195394  0.9163710499496966  0.6377590138329315
  0.4806490137006108  0.0166694205949424  0.2073462274332206
  0.5504246957787420  0.7180502730769179  0.6896848291431503
  0.5207821107485454  0.1404749832298160  0.0939310593556703
  0.8771966509682941  0.8259791519668543  0.2408982239793307
  0.2525613807042515  0.1962249932560246  0.2511926027646890
  0.8449079634467885  0.2647582592103231  0.1389267221299597
  0.1326199477591305  0.6648473022022948  0.1083633605413242
  0.8633783691781193  0.5427321320527747  0.5784112411562875
  0.2605746346264218  0.3598785942149195  0.3286564309493298
  0.1029825038190474  0.5355322032748175  0.1936963758063642
  0.2738082777645585  0.2831520003426867  0.0764382723884685
  0.2245926563231256  0.4633322929810701  0.1395238453741670
  0.9373172291004159  0.9505017970981832  0.4756972267384540
  0.9071390105417110  0.0300335917202338  0.2927152970986258
  0.9626535065296017  0.5940717882647276  0.4201128794908178
  0.1825784977749401  0.7701411277748202  0.9656093119319707
  0.1572384870842436  0.2784667376243797  0.9468709816751933
  0.9409142439882574  0.6295691164005783  0.6908339798956133
  0.5477995143912140  0.4890897464203690  0.8444330873289826
  0.9857625843837545  0.3659902004239869  0.9184509441292964
  0.5288344195308152  0.4452372160199921  0.5880905865235285
  0.9721722368243014  0.0643483824727963  0.7450633703394766
  0.0716329323274418  0.9275303707047584  0.6292941415600196
  0.2245032599059051  0.1811678113402918  0.8564117710797777
  0.7381533354521892  0.8017164169245787  0.7146525402655077
  0.3841609343644380  0.2576578216178078  0.4307589193700219
  0.7169769655346125  0.7627636907463080  0.2249353724313263
  0.4697284106135697  0.8370313937479348  0.8354912044973554
  0.4212239705129436  0.5496758924031659  0.7571927087028696
  0.2338535630228318  0.5260822811271502  0.8131133939247938
  0.4242572676617010  0.2191026504033619  0.8494666482015090
  0.7526019470116451  0.8171371697284534  0.5036762932476928
  0.2663498623791162  0.9157394278255289  0.3852450261918226
  0.7643932702720686  0.5076321737092151  0.7423235186604733
  0.0825595627179613  0.0730710003267024  0.9255349695906409
  0.8303012402656033  0.8260698269277735  0.1157978043456389
  0.6850872099231141  0.9025880822016116  0.0267111116870090
  0.7299694836696070  0.0882868221840298  0.4484986291443024
  0.2647593240802663  0.4288467063545194  0.7361426044463352
  0.9414233648258630  0.2402351637923127  0.2784004024362445
  0.6027113199945231  0.6733388331493102  0.3591697476940729
  0.7231640230395318  0.5079638766471563  0.0642310288540093
  0.0077718161724922  0.6826943501940589  0.5309708156912298
  0.8840236576254129  0.3929371995188997  0.0554238174815746
  0.8043751673174762  0.4852789899097402  0.3870709488595035
  0.1166517799497241  0.3586948847093184  0.0440015779509509
  0.3574640954342164  0.4974385112498229  0.5691797970329615
  0.3073777694943757  0.6491006263029742  0.8820056459137952
 
  0.00000000E+00  0.00000000E+00  0.00000000E+00
  0.00000000E+00  0.00000000E+00  0.00000000E+00
  0.00000000E+00  0.00000000E+00  0.00000000E+00
  0.00000000E+00  0.00000000E+00  0.00000000E+00
  0.00000000E+00  0.00000000E+00  0.00000000E+00
  0.00000000E+00  0.00000000E+00  0.00000000E+00
  0.00000000E+00  0.00000000E+00  0.00000000E+00
  0.00000000E+00  0.00000000E+00  0.00000000E+00
  0.00000000E+00  0.00000000E+00  0.00000000E+00
  0.00000000E+00  0.00000000E+00  0.00000000E+00
  0.00000000E+00  0.00000000E+00  0.00000000E+00
  0.00000000E+00  0.00000000E+00  0.00000000E+00
  0.00000000E+00  0.00000000E+00  0.00000000E+00
  0.00000000E+00  0.00000000E+00  0.00000000E+00
  0.00000000E+00  0.00000000E+00  0.00000000E+00
  0.00000000E+00  0.00000000E+00  0.00000000E+00
  0.00000000E+00  0.00000000E+00  0.00000000E+00
  0.00000000E+00  0.00000000E+00  0.00000000E+00
  0.00000000E+00  0.00000000E+00  0.00000000E+00
  0.00000000E+00  0.00000000E+00  0.00000000E+00
  0.00000000E+00  0.00000000E+00  0.00000000E+00
  0.00000000E+00  0.00000000E+00  0.00000000E+00
  0.00000000E+00  0.00000000E+00  0.00000000E+00
  0.00000000E+00  0.00000000E+00  0.00000000E+00
  0.00000000E+00  0.00000000E+00  0.00000000E+00
  0.00000000E+00  0.00000000E+00  0.00000000E+00
  0.00000000E+00  0.00000000E+00  0.00000000E+00
  0.00000000E+00  0.00000000E+00  0.00000000E+00
  0.00000000E+00  0.00000000E+00  0.00000000E+00
  0.00000000E+00  0.00000000E+00  0.00000000E+00
  0.00000000E+00  0.00000000E+00  0.00000000E+00
  0.00000000E+00  0.00000000E+00  0.00000000E+00
  0.00000000E+00  0.00000000E+00  0.00000000E+00
  0.00000000E+00  0.00000000E+00  0.00000000E+00
  0.00000000E+00  0.00000000E+00  0.00000000E+00
  0.00000000E+00  0.00000000E+00  0.00000000E+00
  0.00000000E+00  0.00000000E+00  0.00000000E+00
  0.00000000E+00  0.00000000E+00  0.00000000E+00
  0.00000000E+00  0.00000000E+00  0.00000000E+00
  0.00000000E+00  0.00000000E+00  0.00000000E+00
  0.00000000E+00  0.00000000E+00  0.00000000E+00
  0.00000000E+00  0.00000000E+00  0.00000000E+00
  0.00000000E+00  0.00000000E+00  0.00000000E+00
  0.00000000E+00  0.00000000E+00  0.00000000E+00
  0.00000000E+00  0.00000000E+00  0.00000000E+00
  0.00000000E+00  0.00000000E+00  0.00000000E+00
  0.00000000E+00  0.00000000E+00  0.00000000E+00
  0.00000000E+00  0.00000000E+00  0.00000000E+00
  0.00000000E+00  0.00000000E+00  0.00000000E+00
  0.00000000E+00  0.00000000E+00  0.00000000E+00
  0.00000000E+00  0.00000000E+00  0.00000000E+00
  0.00000000E+00  0.00000000E+00  0.00000000E+00
  0.00000000E+00  0.00000000E+00  0.00000000E+00
  0.00000000E+00  0.00000000E+00  0.00000000E+00
  0.00000000E+00  0.00000000E+00  0.00000000E+00
  0.00000000E+00  0.00000000E+00  0.00000000E+00
  0.00000000E+00  0.00000000E+00  0.00000000E+00
  0.00000000E+00  0.00000000E+00  0.00000000E+00
  0.00000000E+00  0.00000000E+00  0.00000000E+00
  0.00000000E+00  0.00000000E+00  0.00000000E+00
  0.00000000E+00  0.00000000E+00  0.00000000E+00
  0.00000000E+00  0.00000000E+00  0.00000000E+00
  0.00000000E+00  0.00000000E+00  0.00000000E+00
  0.00000000E+00  0.00000000E+00  0.00000000E+00
  0.00000000E+00  0.00000000E+00  0.00000000E+00
  0.00000000E+00  0.00000000E+00  0.00000000E+00
  0.00000000E+00  0.00000000E+00  0.00000000E+00
  0.00000000E+00  0.00000000E+00  0.00000000E+00
  0.00000000E+00  0.00000000E+00  0.00000000E+00
  0.00000000E+00  0.00000000E+00  0.00000000E+00
  0.00000000E+00  0.00000000E+00  0.00000000E+00
  0.00000000E+00  0.00000000E+00  0.00000000E+00
  0.00000000E+00  0.00000000E+00  0.00000000E+00
  0.00000000E+00  0.00000000E+00  0.00000000E+00
  0.00000000E+00  0.00000000E+00  0.00000000E+00
  0.00000000E+00  0.00000000E+00  0.00000000E+00
  0.00000000E+00  0.00000000E+00  0.00000000E+00
  0.00000000E+00  0.00000000E+00  0.00000000E+00
  0.00000000E+00  0.00000000E+00  0.00000000E+00
  0.00000000E+00  0.00000000E+00  0.00000000E+00
  0.00000000E+00  0.00000000E+00  0.00000000E+00
  0.00000000E+00  0.00000000E+00  0.00000000E+00
  0.00000000E+00  0.00000000E+00  0.00000000E+00
  0.00000000E+00  0.00000000E+00  0.00000000E+00
  0.00000000E+00  0.00000000E+00  0.00000000E+00
  0.00000000E+00  0.00000000E+00  0.00000000E+00
  0.00000000E+00  0.00000000E+00  0.00000000E+00
  0.00000000E+00  0.00000000E+00  0.00000000E+00
  0.00000000E+00  0.00000000E+00  0.00000000E+00
  0.00000000E+00  0.00000000E+00  0.00000000E+00
  0.00000000E+00  0.00000000E+00  0.00000000E+00
  0.00000000E+00  0.00000000E+00  0.00000000E+00
  0.00000000E+00  0.00000000E+00  0.00000000E+00
  0.00000000E+00  0.00000000E+00  0.00000000E+00
  0.00000000E+00  0.00000000E+00  0.00000000E+00
  0.00000000E+00  0.00000000E+00  0.00000000E+00
  0.00000000E+00  0.00000000E+00  0.00000000E+00
  0.00000000E+00  0.00000000E+00  0.00000000E+00
  0.00000000E+00  0.00000000E+00  0.00000000E+00
  0.00000000E+00  0.00000000E+00  0.00000000E+00
  0.00000000E+00  0.00000000E+00  0.00000000E+00
  0.00000000E+00  0.00000000E+00  0.00000000E+00
  0.00000000E+00  0.00000000E+00  0.00000000E+00
  0.00000000E+00  0.00000000E+00  0.00000000E+00
  0.00000000E+00  0.00000000E+00  0.00000000E+00
  0.00000000E+00  0.00000000E+00  0.00000000E+00
  0.00000000E+00  0.00000000E+00  0.00000000E+00
  0.00000000E+00  0.00000000E+00  0.00000000E+00
  0.00000000E+00  0.00000000E+00  0.00000000E+00
  0.00000000E+00  0.00000000E+00  0.00000000E+00
  0.00000000E+00  0.00000000E+00  0.00000000E+00
  0.00000000E+00  0.00000000E+00  0.00000000E+00
  0.00000000E+00  0.00000000E+00  0.00000000E+00
  0.00000000E+00  0.00000000E+00  0.00000000E+00
  0.00000000E+00  0.00000000E+00  0.00000000E+00
  0.00000000E+00  0.00000000E+00  0.00000000E+00
  0.00000000E+00  0.00000000E+00  0.00000000E+00
  0.00000000E+00  0.00000000E+00  0.00000000E+00
  0.00000000E+00  0.00000000E+00  0.00000000E+00
  0.00000000E+00  0.00000000E+00  0.00000000E+00
  0.00000000E+00  0.00000000E+00  0.00000000E+00
  0.00000000E+00  0.00000000E+00  0.00000000E+00
  0.00000000E+00  0.00000000E+00  0.00000000E+00
  0.00000000E+00  0.00000000E+00  0.00000000E+00
  0.00000000E+00  0.00000000E+00  0.00000000E+00
  0.00000000E+00  0.00000000E+00  0.00000000E+00
  0.00000000E+00  0.00000000E+00  0.00000000E+00
  0.00000000E+00  0.00000000E+00  0.00000000E+00
  0.00000000E+00  0.00000000E+00  0.00000000E+00
  0.00000000E+00  0.00000000E+00  0.00000000E+00
  0.00000000E+00  0.00000000E+00  0.00000000E+00
  0.00000000E+00  0.00000000E+00  0.00000000E+00
  0.00000000E+00  0.00000000E+00  0.00000000E+00
  0.00000000E+00  0.00000000E+00  0.00000000E+00
  0.00000000E+00  0.00000000E+00  0.00000000E+00
  0.00000000E+00  0.00000000E+00  0.00000000E+00
  0.00000000E+00  0.00000000E+00  0.00000000E+00
  0.00000000E+00  0.00000000E+00  0.00000000E+00
  0.00000000E+00  0.00000000E+00  0.00000000E+00
  0.00000000E+00  0.00000000E+00  0.00000000E+00
  0.00000000E+00  0.00000000E+00  0.00000000E+00
  0.00000000E+00  0.00000000E+00  0.00000000E+00
  0.00000000E+00  0.00000000E+00  0.00000000E+00
  0.00000000E+00  0.00000000E+00  0.00000000E+00
  0.00000000E+00  0.00000000E+00  0.00000000E+00
  0.00000000E+00  0.00000000E+00  0.00000000E+00
  0.00000000E+00  0.00000000E+00  0.00000000E+00
  0.00000000E+00  0.00000000E+00  0.00000000E+00
  0.00000000E+00  0.00000000E+00  0.00000000E+00
  0.00000000E+00  0.00000000E+00  0.00000000E+00
  0.00000000E+00  0.00000000E+00  0.00000000E+00
  0.00000000E+00  0.00000000E+00  0.00000000E+00
  0.00000000E+00  0.00000000E+00  0.00000000E+00
  0.00000000E+00  0.00000000E+00  0.00000000E+00
  0.00000000E+00  0.00000000E+00  0.00000000E+00
  0.00000000E+00  0.00000000E+00  0.00000000E+00
  0.00000000E+00  0.00000000E+00  0.00000000E+00
  0.00000000E+00  0.00000000E+00  0.00000000E+00
  0.00000000E+00  0.00000000E+00  0.00000000E+00
  0.00000000E+00  0.00000000E+00  0.00000000E+00
  0.00000000E+00  0.00000000E+00  0.00000000E+00
  0.00000000E+00  0.00000000E+00  0.00000000E+00
  0.00000000E+00  0.00000000E+00  0.00000000E+00
  0.00000000E+00  0.00000000E+00  0.00000000E+00
  0.00000000E+00  0.00000000E+00  0.00000000E+00
  0.00000000E+00  0.00000000E+00  0.00000000E+00
  0.00000000E+00  0.00000000E+00  0.00000000E+00
  0.00000000E+00  0.00000000E+00  0.00000000E+00
  0.00000000E+00  0.00000000E+00  0.00000000E+00
  0.00000000E+00  0.00000000E+00  0.00000000E+00
  0.00000000E+00  0.00000000E+00  0.00000000E+00
  0.00000000E+00  0.00000000E+00  0.00000000E+00
  0.00000000E+00  0.00000000E+00  0.00000000E+00
  0.00000000E+00  0.00000000E+00  0.00000000E+00
  0.00000000E+00  0.00000000E+00  0.00000000E+00
  0.00000000E+00  0.00000000E+00  0.00000000E+00
  0.00000000E+00  0.00000000E+00  0.00000000E+00
  0.00000000E+00  0.00000000E+00  0.00000000E+00
  0.00000000E+00  0.00000000E+00  0.00000000E+00
  0.00000000E+00  0.00000000E+00  0.00000000E+00
  0.00000000E+00  0.00000000E+00  0.00000000E+00
  0.00000000E+00  0.00000000E+00  0.00000000E+00
  0.00000000E+00  0.00000000E+00  0.00000000E+00
  0.00000000E+00  0.00000000E+00  0.00000000E+00
  0.00000000E+00  0.00000000E+00  0.00000000E+00
  0.00000000E+00  0.00000000E+00  0.00000000E+00
  0.00000000E+00  0.00000000E+00  0.00000000E+00
  0.00000000E+00  0.00000000E+00  0.00000000E+00
  0.00000000E+00  0.00000000E+00  0.00000000E+00
  0.00000000E+00  0.00000000E+00  0.00000000E+00
  0.00000000E+00  0.00000000E+00  0.00000000E+00
  0.00000000E+00  0.00000000E+00  0.00000000E+00
  0.00000000E+00  0.00000000E+00  0.00000000E+00
  0.00000000E+00  0.00000000E+00  0.00000000E+00
  0.00000000E+00  0.00000000E+00  0.00000000E+00
  0.00000000E+00  0.00000000E+00  0.00000000E+00
  0.00000000E+00  0.00000000E+00  0.00000000E+00
  0.00000000E+00  0.00000000E+00  0.00000000E+00
  0.00000000E+00  0.00000000E+00  0.00000000E+00
  0.00000000E+00  0.00000000E+00  0.00000000E+00
  0.00000000E+00  0.00000000E+00  0.00000000E+00
  0.00000000E+00  0.00000000E+00  0.00000000E+00
  0.00000000E+00  0.00000000E+00  0.00000000E+00
  0.00000000E+00  0.00000000E+00  0.00000000E+00
  0.00000000E+00  0.00000000E+00  0.00000000E+00
  0.00000000E+00  0.00000000E+00  0.00000000E+00
  0.00000000E+00  0.00000000E+00  0.00000000E+00
  0.00000000E+00  0.00000000E+00  0.00000000E+00
  0.00000000E+00  0.00000000E+00  0.00000000E+00
  0.00000000E+00  0.00000000E+00  0.00000000E+00
  0.00000000E+00  0.00000000E+00  0.00000000E+00
  0.00000000E+00  0.00000000E+00  0.00000000E+00
  0.00000000E+00  0.00000000E+00  0.00000000E+00
  0.00000000E+00  0.00000000E+00  0.00000000E+00
  0.00000000E+00  0.00000000E+00  0.00000000E+00
  0.00000000E+00  0.00000000E+00  0.00000000E+00
  0.00000000E+00  0.00000000E+00  0.00000000E+00
  0.00000000E+00  0.00000000E+00  0.00000000E+00
  0.00000000E+00  0.00000000E+00  0.00000000E+00
  0.00000000E+00  0.00000000E+00  0.00000000E+00
  0.00000000E+00  0.00000000E+00  0.00000000E+00
  0.00000000E+00  0.00000000E+00  0.00000000E+00
  0.00000000E+00  0.00000000E+00  0.00000000E+00
  0.00000000E+00  0.00000000E+00  0.00000000E+00
  0.00000000E+00  0.00000000E+00  0.00000000E+00
  0.00000000E+00  0.00000000E+00  0.00000000E+00
  0.00000000E+00  0.00000000E+00  0.00000000E+00
  0.00000000E+00  0.00000000E+00  0.00000000E+00
  0.00000000E+00  0.00000000E+00  0.00000000E+00
  0.00000000E+00  0.00000000E+00  0.00000000E+00
  0.00000000E+00  0.00000000E+00  0.00000000E+00
  0.00000000E+00  0.00000000E+00  0.00000000E+00