Amorphous Sb                            
   1.00000000000000     
    20.4671579077798036    0.0000000000000000    0.0000000000000000
     0.0000000000000000   20.4671579077798036    0.0000000000000000
     0.0000000000000000    0.0000000000000000   20.4671579077798036
   Cd   Sb
    45   255
Direct
  0.6239380887355401  0.2375534665136522  0.4074433460427847
  0.3703065364290617  0.4489075566861122  0.4105482175047864
  0.6465630317506146  0.7151347876177105  0.3024149688278042
  0.3725844487518500  0.0507329587839673  0.9526344670707271
  0.5845983092394497  0.6236096058084338  0.4741123926273899
  0.8216176212725461  0.5343155827216517  0.3947580536466126
  0.1108031757705026  0.6066650196593203  0.0175469040714096
  0.1766420615048841  0.2637283703611206  0.3154014979256298
  0.3800966426763948  0.6355598629481445  0.1843431240338359
  0.9738795257076835  0.0123519955708103  0.6842976980973038
  0.5863519844023483  0.8585213348912207  0.3114188214348511
  0.3656384963482024  0.4250701470321315  0.6632816185234814
  0.7256923777416160  0.6550031075980082  0.5555642551074387
  0.8324683656662287  0.8965031600935737  0.4275060188341595
  0.8198704936602462  0.7418078476817404  0.3872721071908118
  0.1524732644960630  0.8029652762919948  0.5521135958834276
  0.4174511970912733  0.9601651617464895  0.3427093478530575
  0.4418060154152783  0.6116335225996387  0.9043716357524900
  0.0194452288024885  0.2278595188539723  0.3247042733308002
  0.6043978437790842  0.9868806928576840  0.0719449944627721
  0.4573353763814067  0.7929080379188960  0.2298676654281589
  0.6009122365969607  0.2174975345461000  0.2683182576673802
  0.1953136581972032  0.3816736317056627  0.1738516373116969
  0.2508215269889472  0.2217968235485684  0.7831160436427209
  0.0133202148259110  0.1333506555131531  0.5645715616716597
  0.4822839800074707  0.5604208877052107  0.0631764760657979
  0.6117010037279370  0.5693801066193074  0.3250057455930642
  0.7641685474635508  0.8482382636067449  0.1769303635245371
  0.3864224150738505  0.7199609011423501  0.9828568573870536
  0.7735127821972281  0.5098421941299385  0.8586139513616085
  0.2361618917774661  0.3547941967882109  0.6587957898679504
  0.7431296042445925  0.3290782303683810  0.3032178355302083
  0.5183874760629168  0.6306669296488061  0.6544444545215103
  0.8580893016922688  0.6831244068720940  0.6548419872393264
  0.7044574953574086  0.8364353388719102  0.6207907380273753
  0.0451566535279489  0.8472633534847503  0.8373117565841552
  0.2245005614590006  0.0953275961061071  0.7030768663437400
  0.4834177398655525  0.3262292500485575  0.7712716566804698
  0.7405210091351251  0.2638393156087061  0.6420562604913971
  0.7682479281115827  0.6125822957805298  0.1279142207795141
  0.8230760862175599  0.8124047227486276  0.7350015053842658
  0.1090709382169824  0.9358875485231033  0.7064440461571879
  0.4227906729439518  0.7428742943888429  0.6146628292356845
  0.3986089127707190  0.6596611618671423  0.7350817279409783
  0.1496242820604324  0.2245100158766161  0.0270043066029998
  0.0452788563387069  0.0745908059214247  0.7940761673502290
  0.6412251688625317  0.2202527824239878  0.7812179910275689
  0.4014672777480309  0.0090509543614019  0.7140987977079383
  0.3095148274708920  0.3788169144218174  0.2619391982480991
  0.0698067476788301  0.0557869766246439  0.9367759890671715
  0.6148144271909070  0.3489900942609103  0.7058572272129087
  0.1155421091710401  0.7071637577887304  0.4375837240770705
  0.0512592885632934  0.2218596357074290  0.4638450829373490
  0.7504811218737026  0.9072593809833212  0.8186169702485079
  0.7547464772996777  0.4727119928039388  0.2749610678001309
  0.1726932767127908  0.6483024332678554  0.1470049816437012
  0.0165049668704186  0.7036953351719514  0.2335330823382896
  0.6540621365037650  0.5986964871380968  0.8714369024281476
  0.1790360909078689  0.6590378684202240  0.5716793965324891
  0.5507980592357352  0.1178954055085433  0.7355279150322055
  0.6324941740011889  0.3716669895346575  0.9026279925781416
  0.0780172854985365  0.4498031201349211  0.1112347818141426
  0.7941103680688320  0.9159803000990898  0.9645839050162218
  0.2082861180848918  0.8995392696421590  0.1205053034263702
  0.8915058347762180  0.6985498550227722  0.1066496007332047
  0.0812125269826833  0.8006427063986488  0.3215153711899020
  0.6240950788581401  0.2113919847301247  0.9221249924643781
  0.2227365072830083  0.9204367363478043  0.5903023500082979
  0.7461974585734319  0.3913874682932865  0.7641068898994714
  0.3495514247073193  0.9234968303513635  0.8785232454645483
  0.5397577179639258  0.6689703227291157  0.1447810668795701
  0.7601629694679342  0.4134871354369862  0.1444101535302991
  0.4834938006237778  0.2235296079099489  0.8765043970513299
  0.3365657795026008  0.4506196927239661  0.9667405664106372
  0.1700586877488889  0.5055473250503156  0.2945145874694929
  0.7553397223114721  0.4206486248749143  0.5771573095630199
  0.6227797228049571  0.4589451054446605  0.4120329930584078
  0.7270701930977937  0.7270671043026788  0.0222523281997642
  0.8555899167983850  0.0301846986603620  0.7482132446595890
  0.9655205102751786  0.2110569914783023  0.6752243639034142
  0.7789989704314998  0.2425492142511298  0.8997463355530457
  0.1484545323158420  0.2090031778682115  0.5861937049362980
  0.6641764970672071  0.5655286521544706  0.7058407694572414
  0.3211275219307257  0.3499323615604819  0.7808405185916135
  0.3882251383350923  0.4457778942807445  0.1031906751235681
  0.8179957985441803  0.7184904334320025  0.2398631015045642
  0.3985152026657205  0.6554621201394490  0.4330068356454060
  0.2363364010324887  0.8289314116169871  0.8638446215801939
  0.5570562487006335  0.9118421546673015  0.6355919831606379
  0.8467175418993683  0.1134491968322021  0.9299726476639196
  0.3370926847376948  0.1015587169288421  0.8107167414586202
  0.4594720044864775  0.1514572021204746  0.1943250269844162
  0.0856037078006996  0.0699388996578386  0.1454575633006822
  0.5518638573922474  0.2462392441756860  0.0501173999186691
  0.6679342779899899  0.8574485054882719  0.0050537817166084
  0.9254497920261039  0.1539591776155933  0.8200998604432775
  0.5574729976069663  0.0698142078044183  0.3615273748826263
  0.1884157206418563  0.9996935049722722  0.8201327053496357
  0.9497783009642612  0.8221894284046424  0.3815533586600049
  0.9698824841712624  0.9803225824981151  0.3971632623443136
  0.8895440180648410  0.8808452849045674  0.5666232654402895
  0.2207623667415243  0.7772371615301453  0.0053820668711767
  0.8284402883621291  0.5515307570821939  0.5617024035461057
  0.5312684800005413  0.7374812061143743  0.9347284398493395
  0.8586487520191646  0.0778014699245683  0.3634312403098848
  0.8812647177790683  0.2468807064392846  0.2894732063119185
  0.0904184706095281  0.5150304493203767  0.7963006176433856
  0.0895041357508493  0.3678617751949254  0.2988669419536534
  0.7272012468267178  0.6314162437552633  0.3930047618053584
  0.2199844789488156  0.1100999477795923  0.5022205064100372
  0.9932354990373946  0.3683202971211226  0.4131144502821706
  0.9026353264571739  0.3799852762485369  0.0281379918446751
  0.1386330675674753  0.7132316372229138  0.8404787112786506
  0.8890300695146545  0.8455504709493118  0.0840176240992377
  0.4557392182652439  0.3440023463126009  0.3288511283104967
  0.6663593369083801  0.8019800815678653  0.4624931131428460
  0.9003000450482767  0.9925308873653503  0.1044369054544204
  0.3872705417344371  0.0076403001251997  0.1078514022966390
  0.6320859362934136  0.5581331030158148  0.1845407670416676
  0.7968823315043704  0.7782043503918838  0.5212618874587062
  0.2864411605188040  0.8971620289513850  0.3016154636466719
  0.2553207479464096  0.5172882364055754  0.1241444243857053
  0.1323957919339720  0.2292406298738720  0.8654755366067103
  0.7833893435013367  0.1856245597427257  0.7622382535566240
  0.9480648172741081  0.0088118476120736  0.5351399527964529
  0.8186176629396585  0.5856936292936530  0.9808224702289245
  0.0042951421045168  0.5762016483446659  0.7024847052828317
  0.3539683773370018  0.8543516344910772  0.4976390896113216
  0.0687974640879772  0.3635669886801323  0.7155186882798782
  0.7444151686674247  0.1848687742051432  0.3361984185937967
  0.2535044871032444  0.5126502706133457  0.7195374897339173
  0.8039899315075754  0.5170759539057743  0.7058199158798377
  0.6834796298746515  0.5047897003969959  0.0542264286200363
  0.5737868188104628  0.4023220920721753  0.0404663785827214
  0.4974177842821457  0.4388152245633847  0.4742416486323718
  0.3242781675804181  0.7285800442170812  0.8381579112089097
  0.6135261334855712  0.6421513639160245  0.0016481642404905
  0.1303826626609439  0.9221063033232738  0.9442247466816792
  0.0579938142506062  0.9423068680784411  0.0852995300238891
  0.2236834657627585  0.3989961857442881  0.3757518839272453
  0.9541663698779510  0.5294807016072159  0.9820996887719808
  0.9889703521277302  0.2873915499243895  0.8494671317174349
  0.7622916333789606  0.0088239012786166  0.2462046064777944
  0.4041743664338969  0.8165017466576457  0.3635249429889238
  0.3490662786084063  0.1738371003016929  0.0384968173525489
  0.6953655975746226  0.0031144266690337  0.3796588920461033
  0.4534713443535600  0.8332417313022974  0.8256633186736785
  0.3519624248797430  0.3015912564618948  0.1190733888243508
  0.7972784477405139  0.2560365960305508  0.4930926316974549
  0.9900153588984888  0.7939123966527283  0.5182579105136463
  0.2635890925434939  0.9658423172265447  0.4414957261756755
  0.2908799426552177  0.7208276356456667  0.1209369499635221
  0.1359023914377918  0.1297797185072551  0.2901509015568601
  0.0739356875971262  0.9271095072534038  0.5318826242896405
  0.9267671267802480  0.6851610379069979  0.9656040382262218
  0.2887009456607514  0.9252591691538219  0.7406210003821955
  0.4228974203088312  0.8650331644024590  0.6922626011357154
  0.3158526347327859  0.2402280032403326  0.3431152305253892
  0.8507460408300247  0.6296682072673893  0.7864706699983838
  0.4436190346553650  0.3181191320342336  0.9935046774689509
  0.9157257014379584  0.8295337245911816  0.2295742370800455
  0.2375428121279679  0.5132122609125812  0.8640802008336179
  0.0408656295706414  0.3308558965996827  0.0334429083817861
  0.0129996174996930  0.5299557329012766  0.2621998499702318
  0.2763575185242723  0.7556333627668870  0.7035576118828857
  0.1883653391247639  0.9823864700467724  0.2379138468395882
  0.6828469388449775  0.7335412623704423  0.1644948001023616
  0.1853935362570921  0.3648677275594529  0.8510734511857900
  0.4770900015774067  0.2931605364900153  0.4793472277112910
  0.9698336775211287  0.1185942721118943  0.2345603612200434
  0.9707447899783828  0.4019973548664502  0.2026988348407976
  0.9809304206243297  0.8557619920822555  0.9656219651350771
  0.0939916149475374  0.7760701324117960  0.1400853328342243
  0.3244262193359586  0.5195025166852322  0.2655784750050410
  0.7330028095070271  0.1002580566070384  0.0444220353549173
  0.6251228920398786  0.3342975021930647  0.5078213836089475
  0.1408003117867000  0.4612191602011762  0.6357380193976795
  0.1053427777362198  0.1849609263245741  0.7319816439460618
  0.7644705131056849  0.9698226463399572  0.6377527355240192
  0.4924369043691074  0.6498498144223585  0.2823281329898905
  0.7677004639593915  0.4030241224614412  0.4318118745440086
  0.2305409652941608  0.1043518259804298  0.0871147444339625
  0.8675695718940839  0.8115300975850052  0.8940471073195417
  0.2389118583686053  0.7802253617231545  0.4217961382135629
  0.5512300118697322  0.9325072610504266  0.8622910466812438
  0.8544796118798934  0.2895532108183324  0.1382978211846119
  0.3143061958101144  0.3926188848630362  0.5300469564365070
  0.7503222572036056  0.1538310295473164  0.1948023482434877
  0.0430290594546310  0.6231728145512011  0.8837730594769485
  0.9509602095142893  0.4471357888038296  0.6954774676553748
  0.4671847135022843  0.5694970301415094  0.5293810597545284
  0.8845411546227883  0.1357220129920088  0.1207927163824883
  0.7342662501293390  0.8506901742648794  0.3261989492577333
  0.6516541249731378  0.5167021561760151  0.5666677128518516
  0.2948556901263208  0.2323297627790212  0.6418727320296581
  0.9139633117240890  0.1793836294394486  0.4426894385756328
  0.0505915099589432  0.4184257900190123  0.9007421410546637
  0.2376945459604230  0.6459545810385370  0.9283525514899520
  0.4585797162067835  0.2916739473478397  0.6281676322507347
  0.7031191840817405  0.1258148891179126  0.4964276385126344
  0.9337841668818597  0.5025000830853573  0.8360711649665277
  0.5351638278954683  0.4504712731194701  0.1908613468258101
  0.1104821064894832  0.5490767553179410  0.4399555405122911
  0.0179481898370680  0.1559445525710315  0.0530983751144243
  0.5514417121624076  0.4292810397036262  0.6037614677134969
  0.5361520217179848  0.5146919953535425  0.9359036679021725
  0.1315606343482421  0.9309947266202627  0.4011490310930360
  0.3100515996855791  0.7067249397613194  0.5340443423126081
  0.1302465532692731  0.0387323767413511  0.6055029849364010
  0.8128452896859136  0.0259431908922075  0.4840676692768402
  0.4418063899304997  0.4197010568915635  0.8750426470866021
  0.3370653577632255  0.2272316511426328  0.5007363538515854
  0.9653769125908532  0.5106538779206863  0.4015517982677627
  0.4236480291196801  0.1437392809628707  0.5855486624710886
  0.2978389442985611  0.6969302857480881  0.3250270559773072
  0.2550119337383098  0.9870169094192544  0.0073402004854391
  0.5528971954504444  0.1338713482029916  0.4983658886439626
  0.9194135887767091  0.9766440587641284  0.2473028499390819
  0.4301833957704075  0.9788092724446845  0.5177529520338391
  0.3149520234770872  0.1871175305429203  0.2050663785188013
  0.7110725106021658  0.1101256098233133  0.6404770529237569
  0.4610411327631297  0.5119955191086107  0.3048769288006073
  0.5836492262175341  0.4676727956541569  0.7868795958973001
  0.6061730453980276  0.8633297343785088  0.1619674612388912
  0.1279979885337844  0.7831940135805892  0.7035035138760599
  0.4691526348949470  0.5026434309577157  0.7011198943497464
  0.5435259762090239  0.6663089894381578  0.8028196345581329
  0.2841390677574858  0.5665956663845038  0.4045796570961678
  0.4792433657139438  0.2885632664602596  0.1671618847656797
  0.4979903307308777  0.0776376934505313  0.8615138134027278
  0.9283058806339687  0.9326104145354139  0.8380192109500778
  0.4678088542716164  0.1987564231125321  0.3422038551838043
  0.1727387845558031  0.4722303608021042  0.0095723933190200
  0.3200318962924234  0.2319409132554223  0.9105909983374988
  0.6234550680046017  0.0664159295511282  0.9383946693650022
  0.4255520984340815  0.1863664062989089  0.7290735956153901
  0.5902506460125460  0.3735628919596390  0.3057561350559534
  0.6428577110966596  0.8163296552233321  0.8675876391163626
  0.8711414822272189  0.5765176014197914  0.2667931879120153
  0.9200326973764172  0.6633732375452152  0.5111655793599431
  0.2154045228547724  0.7820169156220009  0.2334880391015771
  0.3536573767324070  0.8614298377049183  0.0161279066639281
  0.7522188230664206  0.7059298406202130  0.8557491334941800
  0.4868356904379570  0.1042857168978777  0.0374420694031227
  0.7501705923447682  0.9701853021420813  0.1006593592971982
  0.7140697316955170  0.7192883048677946  0.7161288339069518
  0.3747304747677198  0.5377260401812077  0.8059952139162619
  0.1032453550667235  0.4031380692736478  0.5058828346932353
  0.2168508852285889  0.1129463910049887  0.9287634516383692
  0.1546908839210354  0.6519434215486452  0.2919700507618082
  0.0056867788318863  0.5918842170944778  0.1142069748598738
  0.7248974969228983  0.0632050920294358  0.8350121131893522
  0.5112991817224283  0.8040483334267848  0.0595616547606557
  0.5079773438874955  0.8166252752876678  0.5241363984534954
  0.0823726014851929  0.0736117235501913  0.4132056164188167
  0.1858051786701682  0.6436147571813530  0.7188298570420953
  0.5304677039090717  0.0476745345019706  0.6098377129590618
  0.9161224410698868  0.2471250166748345  0.9613589847960304
  0.8520956454275345  0.3133652076064097  0.7133250254547764
  0.6050253069959493  0.7324146175513642  0.5907983167107900
  0.4947828490330026  0.9380020978487098  0.9963156709868524
  0.4746747952481005  0.9599441044194444  0.2054084753016710
  0.2579130195473210  0.1108563334959687  0.3571954284629789
  0.5295116190690671  0.7408859959218971  0.4000834415314825
  0.0426946634730940  0.5965928686423164  0.5650153041847442
  0.9588515696448537  0.7254210155350481  0.8004945201066199
  0.7539561267348461  0.3944038152957621  0.9698748007570827
  0.6577681439102532  0.9815036046484872  0.7347983882112018
  0.3247952204482358  0.0430886813827240  0.2459250165124408
  0.8755461943095194  0.5065694599536871  0.1256367197870695
  0.5946722910357618  0.2347341832574575  0.6079719621797196
  0.6688420831443546  0.3021417380671064  0.1395523729132054
  0.8536070538067956  0.1456961053233032  0.5823838266960956
  0.8652637829356972  0.3744796005273529  0.8692324782955766
  0.5812608906218857  0.7879825022203936  0.7332224380327182
  0.8875608066707250  0.3485811264802896  0.5650581914374263
  0.6189609454031609  0.1316826582474871  0.1290465948187094
  0.3524880413115292  0.5658076158968490  0.6135480927309599
  0.6064294050203473  0.0190102876994854  0.2387754100420219
  0.1763579870224626  0.2449248486621847  0.1595860148754710
  0.7589996978683421  0.2519521532613887  0.0449468322119014
  0.0744796521718349  0.7464216287060884  0.0008345151413155
  0.2477540833080258  0.5197968092071014  0.5347801553502751
  0.3257175730620215  0.0462829824463529  0.5998022225312651
  0.3324555068308232  0.6001790467999675  0.0381426033092283
  0.9395170633608270  0.0034115347598963  0.9577393309279411
  0.0487955594577571  0.9214029454163188  0.2294894110974507
  0.2035440518998096  0.3029507220772573  0.4912565644696568
  0.8878157356867938  0.3829076488929188  0.3181405489532950
  0.0287788176011761  0.2494833194440881  0.1582572949521932
  0.0195612964288449  0.3051511488851196  0.5889074330932945
  0.5423086573719490  0.9366055365233020  0.4225511007041724
  0.2420972936392478  0.3382670413953693  0.9847138921357480
  0.9503956178562064  0.4763977877844756  0.5448925086852278
  0.3969803038057587  0.0806780288152425  0.4159362910984425
  0.6609534195164257  0.9487894208548836  0.5190052428368208
  0.9939607566516729  0.7308197898775780  0.6546404123376290
  0.3459227790968244  0.8760815516105569  0.1573740567314391
  0.9559450810714232  0.8668210723618076  0.6960869941201016
  0.9581660060005390  0.6561344245612108  0.3754144872948059
 
 -0.28568368E-03 -0.10983691E-03 -0.21246701E-02
  0.19758635E-02 -0.13575831E-02 -0.16703335E-02
  0.61362042E-03  0.28490422E-03  0.16696215E-02
  0.95162788E-03  0.58476511E-04 -0.98657838E-03
 -0.26724825E-02  0.27284408E-02  0.95639291E-03
 -0.15211512E-02 -0.31246868E-03  0.40349409E-03
 -0.11021608E-02  0.67869395E-04 -0.21016021E-02
  0.68460677E-03 -0.10723312E-02  0.19032681E-03
  0.54893619E-03  0.19869857E-02  0.67225953E-03
  0.76797923E-03  0.81648751E-03 -0.18351564E-02
  0.18031774E-02  0.57751936E-03 -0.10841504E-02
  0.83761719E-03 -0.13997247E-03 -0.34582550E-02
 -0.21669363E-03 -0.12371669E-02  0.63228848E-03
  0.24778108E-03  0.19701896E-02 -0.33029160E-03
  0.37795334E-02  0.12595286E-03 -0.10272611E-02
  0.26348723E-02  0.10993043E-02  0.15456617E-02
 -0.30949002E-02 -0.41984805E-02  0.14179641E-02
 -0.22583601E-02 -0.27887447E-02 -0.28080452E-02
  0.26069321E-03 -0.11475018E-02 -0.26239546E-02
 -0.42752697E-03  0.48110647E-03  0.11154175E-02
 -0.30013578E-02 -0.18327368E-02 -0.85090339E-03
 -0.27490534E-02 -0.83690006E-03  0.14255298E-02
 -0.24118461E-03  0.26727050E-02 -0.10813436E-02
 -0.24860244E-02  0.64205739E-04  0.64569795E-03
 -0.18008001E-03  0.25234101E-03 -0.21932741E-03
 -0.32332906E-04  0.35339524E-02 -0.16470635E-02
  0.23587713E-02  0.17825382E-02 -0.10891624E-02
 -0.26563283E-02 -0.10805249E-03 -0.28461648E-03
  0.13612412E-02 -0.98355736E-03 -0.21871944E-03
  0.70162837E-03  0.19220628E-02 -0.24837534E-02
  0.11579208E-02 -0.26278161E-02 -0.13279173E-02
  0.98819294E-03  0.92066779E-03 -0.13462524E-02
 -0.10228093E-02 -0.94054305E-03 -0.18657302E-02
 -0.26266208E-02 -0.13486432E-02 -0.20039006E-02
  0.15411645E-03  0.24026780E-02  0.13891037E-03
 -0.41238140E-03  0.43498066E-03  0.36847637E-02
  0.12010808E-03 -0.39864505E-03  0.12344724E-02
  0.25562457E-02  0.13129362E-03  0.22034067E-02
  0.16659575E-02  0.21561292E-03 -0.18938656E-02
 -0.23252518E-02 -0.16711349E-02 -0.26498087E-02
 -0.18209670E-02  0.11221975E-02 -0.13052228E-02
  0.63489130E-03  0.18443598E-02  0.35058618E-04
 -0.77511557E-03 -0.10709830E-02  0.83024424E-03
 -0.16822292E-02  0.15344071E-02 -0.26650071E-02
 -0.44467206E-03 -0.10744323E-02  0.12352708E-02
  0.17090534E-02 -0.46737414E-04  0.21859217E-02
 -0.19712876E-03  0.28237783E-02  0.11180153E-02
 -0.54355290E-03 -0.20019069E-02  0.19857972E-02
 -0.47076332E-03  0.15539258E-02  0.13764707E-02
  0.17264392E-02  0.51936094E-03  0.16305494E-02
  0.21039367E-02 -0.15268960E-03 -0.18184442E-02
 -0.21248949E-02 -0.12438410E-02  0.17490667E-02
 -0.37089986E-03  0.55058311E-03  0.10089667E-03
  0.79162611E-03  0.69591531E-03  0.20025047E-02
 -0.59195335E-03  0.78402878E-05 -0.85737319E-03
 -0.17573338E-02 -0.38290404E-03  0.20904038E-02
 -0.16457045E-02  0.73025752E-03  0.10954678E-04
 -0.62618899E-03  0.32559025E-03  0.13584906E-02
  0.37463604E-03  0.61940350E-03  0.11563580E-03
 -0.24286906E-02 -0.10962668E-02 -0.12655557E-02
  0.35904823E-02 -0.14185151E-02  0.17240749E-03
 -0.11918279E-02 -0.17341076E-02 -0.22139368E-02
  0.17325536E-02 -0.78842971E-03  0.21939974E-02
  0.61089503E-03  0.91708071E-04  0.67524228E-03
  0.32705831E-02 -0.13703731E-02  0.11818785E-02
  0.32079239E-03 -0.67411234E-03  0.13031509E-02
 -0.25005785E-02 -0.40553118E-03  0.94745628E-04
  0.22613861E-03 -0.87686061E-03  0.36207246E-03
 -0.59573994E-04 -0.94835096E-03 -0.55397742E-03
  0.80216965E-03  0.28633074E-03  0.18928585E-02
 -0.16322439E-02 -0.23038441E-02  0.22850109E-02
 -0.32064812E-02 -0.40255034E-03 -0.92657400E-03
 -0.19017115E-03 -0.95586506E-03 -0.13446420E-02
 -0.11140749E-02  0.64340049E-04  0.71018851E-03
 -0.20828682E-03  0.16757262E-02  0.79869478E-03
 -0.11756414E-02  0.20046143E-03  0.56340132E-04
 -0.53119670E-03 -0.58847798E-03  0.42834137E-03
  0.82903858E-03  0.59989995E-03 -0.46579360E-03
  0.17582057E-02  0.17328159E-02 -0.12791222E-02
 -0.11047389E-02 -0.10328218E-03 -0.10712481E-02
  0.36791655E-03  0.22264026E-02  0.21720974E-02
 -0.38988444E-02 -0.62120367E-03  0.51164062E-03
 -0.44816070E-03  0.58302824E-03  0.11409864E-02
  0.35890030E-03 -0.28538708E-02  0.16574982E-02
  0.11814304E-02  0.48401352E-03  0.96433449E-04
  0.13744502E-02 -0.32531548E-04  0.28857282E-02
 -0.77896385E-03  0.10948267E-02 -0.38850828E-02
 -0.16379442E-02 -0.56384346E-03  0.21406103E-03
  0.29976983E-02 -0.51152027E-03 -0.24251170E-02
 -0.38051394E-03  0.91086304E-03  0.60410066E-03
  0.18680799E-03 -0.97892887E-03 -0.71811586E-03
  0.42227487E-05  0.83747624E-04 -0.35241509E-03
 -0.48341217E-03  0.58659118E-03  0.11217771E-02
 -0.48035665E-03 -0.62830239E-03  0.11287626E-02
 -0.20343051E-02  0.15021425E-02  0.27129136E-02
  0.23288901E-02 -0.86074080E-04  0.10181235E-02
  0.97214898E-03 -0.75131249E-03  0.12358499E-02
  0.92689972E-03  0.27239521E-03  0.20129888E-02
 -0.33159644E-03  0.55151008E-03 -0.16301620E-02
 -0.24560808E-03  0.24421683E-02 -0.14358042E-02
  0.14331450E-02 -0.15082256E-02  0.12905396E-03
 -0.55830529E-03  0.37494084E-02  0.89879065E-03
 -0.13108759E-02 -0.98840319E-03 -0.61934525E-04
  0.20215746E-03  0.30120834E-03 -0.34803526E-03
  0.92475777E-03 -0.11485972E-03 -0.37726429E-02
 -0.21006848E-02 -0.29822166E-03  0.11607585E-02
  0.76402827E-03  0.11480522E-02  0.23422988E-02
 -0.12898883E-02  0.78188024E-03 -0.29953825E-02
 -0.57268581E-04 -0.41169784E-03  0.56950424E-03
  0.50631140E-03  0.20670828E-02 -0.18293245E-02
 -0.40942958E-03 -0.44784976E-03  0.39738687E-02
  0.37846086E-03  0.69647258E-03  0.32233617E-02
  0.80564774E-03  0.19265865E-02  0.83960236E-03
 -0.11335430E-02  0.99867837E-03  0.47029638E-03
 -0.76515040E-03  0.27781607E-03  0.14944982E-02
  0.34973806E-03 -0.21250385E-02 -0.22354658E-02
  0.13843137E-02 -0.21301610E-02 -0.23021409E-03
 -0.14758460E-02 -0.29319781E-02  0.13435004E-02
  0.98950783E-03 -0.82936935E-03 -0.12503280E-02
  0.21398378E-02  0.84165408E-03 -0.76130802E-03
 -0.18250071E-02 -0.30264006E-02 -0.15497965E-02
  0.12237852E-02  0.17022716E-02 -0.22560673E-02
 -0.10787003E-03  0.84146243E-03 -0.25555434E-02
  0.66299606E-03  0.10153995E-02  0.42743920E-03
 -0.71438478E-03  0.31201293E-02  0.11679896E-02
  0.33602877E-03 -0.23165453E-02  0.30093088E-02
 -0.10821842E-02  0.27380183E-03 -0.12923833E-02
  0.48155894E-03 -0.86590536E-03 -0.80090394E-03
 -0.11145334E-02  0.53492724E-03 -0.11526463E-02
  0.11901929E-02  0.96708151E-03  0.63414198E-03
  0.25063752E-03 -0.78715855E-03 -0.11904134E-02
 -0.43842200E-04  0.18019985E-02 -0.18305656E-03
  0.96516049E-03  0.18968290E-02 -0.20025462E-02
  0.17055934E-02 -0.35251017E-03  0.58267930E-04
  0.99139188E-03 -0.79251041E-03  0.30712296E-04
  0.10025819E-02  0.15159332E-04 -0.11286230E-02
  0.15179742E-02 -0.10708487E-02  0.10123723E-02
  0.11440319E-02 -0.24544434E-02 -0.12524817E-02
 -0.22637173E-02  0.72007743E-03 -0.83852535E-03
  0.39792717E-02 -0.48610331E-03  0.19983026E-02
 -0.18800365E-02 -0.29281394E-03  0.31806887E-04
  0.25821743E-03 -0.17409598E-02  0.96470259E-03
  0.13062591E-02 -0.23701611E-02  0.26386536E-02
  0.83255216E-03  0.15512012E-02 -0.42072606E-03
  0.44491773E-03 -0.31533399E-02 -0.18852263E-02
 -0.85523436E-03 -0.55068275E-03  0.30775340E-02
 -0.85223386E-03  0.23290849E-03  0.35172884E-03
 -0.24653046E-03 -0.19163321E-02 -0.96645011E-03
  0.22491062E-03  0.56166218E-03  0.10179965E-02
  0.20606614E-03 -0.18146059E-03  0.66465359E-03
  0.18386270E-02  0.11796266E-03  0.62969267E-03
  0.32509510E-02 -0.92997502E-03  0.93404857E-03
  0.11819214E-02 -0.91473909E-03  0.21220538E-03
 -0.10531376E-02  0.57557925E-03  0.63213638E-03
 -0.76553544E-03  0.11080408E-02 -0.42629657E-03
  0.56714340E-03 -0.21765940E-03  0.19096473E-02
  0.92710562E-03 -0.11344392E-02  0.30424795E-03
 -0.15053228E-02  0.12088993E-02  0.18743768E-03
  0.12208522E-02  0.95232892E-03 -0.11214686E-02
 -0.81664813E-03 -0.83397355E-03 -0.31823418E-03
 -0.15396091E-02 -0.11677805E-02 -0.24396818E-02
 -0.87000416E-03  0.50677897E-03  0.92817100E-03
 -0.21510279E-03 -0.49458772E-03 -0.60806631E-05
  0.13459729E-03  0.67756884E-03  0.74510353E-03
  0.55354513E-03  0.17415123E-02  0.12344227E-02
  0.17220277E-02  0.45121107E-03  0.15842526E-02
  0.27813726E-02 -0.19638250E-03  0.22396689E-02
  0.29243490E-02  0.42884102E-03 -0.13075318E-02
 -0.27609426E-03  0.12220459E-02  0.15172034E-02
  0.10382224E-02 -0.17634921E-02  0.14358279E-02
  0.42011989E-03  0.15509483E-02  0.26514679E-03
  0.26632091E-02  0.61536271E-03 -0.10787836E-02
  0.20066858E-03  0.31289440E-02 -0.74879123E-03
 -0.17315923E-04  0.23953132E-02 -0.15117171E-02
 -0.58498077E-03  0.88168869E-04 -0.30940299E-03
 -0.16985174E-02 -0.44705417E-03  0.19862367E-02
  0.12199623E-02 -0.10959779E-03 -0.71787365E-03
  0.15169604E-02 -0.21519757E-04 -0.29240341E-02
  0.10242994E-02  0.11705727E-03  0.54498039E-03
  0.11926110E-02  0.11210074E-02  0.62792020E-03
  0.37157344E-03 -0.67575632E-03  0.14100839E-03
  0.29158564E-02 -0.25702565E-02  0.76137382E-03
 -0.96056253E-03 -0.99302481E-03 -0.16564810E-02
  0.14724661E-02  0.96386748E-03 -0.24460707E-03
 -0.21185775E-02 -0.75576369E-03 -0.67439548E-03
 -0.17412537E-02  0.10481008E-03 -0.33599534E-03
 -0.16137533E-02  0.10155856E-02  0.13536279E-02
 -0.98862075E-03  0.80547193E-03 -0.27506905E-03
  0.88229686E-03  0.15861805E-02 -0.28473536E-03
 -0.34540988E-04  0.15734164E-02 -0.27602674E-03
 -0.18123027E-03 -0.34219967E-02 -0.17377307E-02
 -0.11288653E-02  0.20969159E-03  0.78138744E-03
  0.29303092E-03 -0.20172667E-02  0.16277778E-03
  0.93256550E-03 -0.84240823E-03  0.82278047E-03
  0.72589183E-03 -0.20982495E-02 -0.43915966E-04
  0.23123279E-02  0.19136137E-02  0.98748100E-03
 -0.72199616E-03  0.15762744E-02  0.57260304E-03
  0.20122399E-02  0.62496604E-03  0.84085412E-03
  0.77854173E-03 -0.18614650E-02  0.28175609E-03
 -0.20251638E-02 -0.29148890E-02  0.17264920E-02
  0.67043210E-03 -0.32606214E-03 -0.26996856E-03
 -0.25864161E-03 -0.16975909E-02  0.63268394E-03
 -0.11172168E-02  0.85014882E-03 -0.59694216E-03
  0.17403861E-02 -0.13453591E-02 -0.76402002E-03
 -0.12299471E-02  0.33019801E-02  0.11090755E-03
 -0.94218134E-03  0.21393796E-02 -0.25037545E-02
  0.14091242E-02  0.24547032E-02 -0.39875298E-03
 -0.73271273E-03  0.54299050E-03 -0.17814388E-03
 -0.42914498E-03  0.18501088E-02 -0.15017667E-02
  0.16252475E-02  0.11963581E-02  0.18641037E-03
  0.12807585E-04  0.11215242E-02  0.57214296E-03
  0.10993525E-02  0.81975394E-03  0.47023646E-03
 -0.19648747E-02  0.72677604E-04  0.93535813E-03
 -0.15564934E-02 -0.14941306E-02  0.10259996E-03
  0.11900797E-02 -0.20787942E-04  0.22254560E-03
  0.77836856E-03 -0.10544454E-02 -0.15415066E-02
 -0.31973191E-03 -0.46787462E-03 -0.42614500E-03
  0.18766222E-02  0.18462419E-02  0.40687614E-03
 -0.17703040E-02 -0.66371552E-03  0.87958030E-03
  0.85622374E-03  0.24344544E-02  0.15683713E-02
 -0.22242961E-03 -0.14939018E-02  0.30356030E-02
 -0.13643693E-02  0.42420961E-03 -0.91060975E-03
  0.65945014E-03 -0.26739130E-02  0.10587649E-02
  0.80340451E-03  0.19548238E-02 -0.10068056E-02
  0.65823997E-03 -0.17644011E-02 -0.16958753E-02
  0.12794755E-02  0.56014290E-03  0.11719359E-02
  0.14098939E-02  0.84305863E-03  0.15158989E-02
 -0.48563141E-03 -0.22866829E-02 -0.14161936E-04
 -0.29429446E-03  0.22109446E-02 -0.24819556E-02
 -0.80435565E-03 -0.94662679E-03 -0.12366620E-02
  0.99129894E-04 -0.26194908E-02  0.18432294E-03
 -0.25896077E-02 -0.42024906E-03  0.20627589E-03