Amorphous Sb2Se3                        
  0.830000000000000     
    20.9867606951059820    0.0000000000000000    0.0000000000000000
     0.0000000000000000   20.9867606951059820    0.0000000000000000
     0.0000000000000000    0.0000000000000000   20.9867606951059820
   Sb   Se
   120   180
Direct
  0.2703314843377310  0.6351660553398021  0.1789431575302937
  0.2317988848137063  0.5312585384167917  0.4412210589607812
  0.5272082013662520  0.9434319309197396  0.2032380987543517
  0.6032323859745268  0.2818170112876768  0.0441479743607582
  0.3507614064670203  0.8840330426958765  0.5909983394079442
  0.7536939701925151  0.9152870691398790  0.3386322863926786
  0.6524539037843391  0.4225281746519298  0.3192751006322447
  0.0289602008286202  0.8030976940530347  0.2583940507101674
  0.9245907572291838  0.0174272206632977  0.6360449261227274
  0.4786142583262182  0.7082556789193737  0.1216868942606494
  0.9407663174388738  0.4986266688135502  0.2842317947684143
  0.5533989880349804  0.5849405158152763  0.5334767707024770
  0.8190246764479659  0.9228917858758451  0.7838480595030816
  0.6737693519043600  0.0327623406161405  0.2365423330293565
  0.5352477022045917  0.5293768965831497  0.3471790356296321
  0.2416867684543450  0.2764626008355118  0.9216450719987477
  0.9019406551003513  0.5947528596601940  0.4228775943869444
  0.0126357299588357  0.8568164203926312  0.7872776839441777
  0.5887494610300247  0.6607384693323992  0.2379629443915935
  0.4783865866447783  0.3203070805231920  0.1507995812936851
  0.6578897634117079  0.2965936380730517  0.8912459725952206
  0.6435496707474710  0.5321530971362031  0.9038781453361218
  0.3567727665068073  0.5564713693202786  0.9064854873431346
  0.8852852261399797  0.3059295175680532  0.1507244920245797
  0.8526220928967156  0.5017956709610941  0.9178165323039670
  0.7185914795134740  0.1123650338201496  0.6400793418228057
  0.6137515391069099  0.8389924039999587  0.3044519734430801
  0.4779960206118962  0.3171686707961470  0.9448594450076249
  0.3846240363996182  0.3826723789848228  0.4295048098350439
  0.7213364586219249  0.1660879940015436  0.0894037721319457
  0.9311199110022733  0.7484692746683539  0.0015479173794273
  0.7167403753595668  0.4717100569763948  0.0981564025501347
  0.7796976104884927  0.4425241450197265  0.5140649379840705
  0.3266189377803865  0.8114314324128683  0.2826989214820313
  0.0740405875469130  0.9778176349899420  0.5506011656090473
  0.5148549605398243  0.5148684841566386  0.1691979068205055
  0.7337718706149353  0.6367384445430300  0.3553322497322938
  0.0046938931690492  0.5413371598605800  0.1363736125361416
  0.7471441250998212  0.2964008904666673  0.6060047308123953
  0.6054521928399235  0.0533787346932302  0.5370925065054775
  0.6350499348068845  0.9846426677015416  0.9116743394674087
  0.4520297675390826  0.6774555655216927  0.3805363512271740
  0.6101428704256930  0.7790440163269043  0.7320195896567917
  0.0324943646607100  0.2607884893820371  0.6851442939991328
  0.8474453749272542  0.2976756580834019  0.9694032091217152
  0.1110257120134224  0.4114986954009888  0.4009792059706582
  0.8678477520212848  0.1945263989141560  0.6321476506325697
  0.2909762825823535  0.0564018667290185  0.2344812407285512
  0.0418385342102546  0.7365667210502900  0.4190244288607978
  0.1028242418967991  0.6153124218439324  0.7727804279165429
  0.3816674382262794  0.6134603077948286  0.6798278628425034
  0.2119952326023850  0.2371194256880404  0.7064071925875524
  0.0126233662112425  0.4562736571617431  0.6551439291940120
  0.5256042340822513  0.2930590354351381  0.4506610604679717
  0.0391223914059575  0.1162493405802896  0.0564041969000433
  0.8863982105926539  0.7127572964499745  0.7073925221394650
  0.0121007687437158  0.2773359644987506  0.0353990940243604
  0.7893980199172062  0.0243990478961210  0.0589292033953420
  0.0727983050189548  0.6604948772539727 -0.0081558976209566
  0.5701544177372945  0.2425995246712559  0.6004889375081000
  0.0086461643383513  0.8304868484158499  0.5579281585993314
  0.6742223789928741  0.4075545858982823  0.7511359845580378
  0.0785721258773431  0.8483007795025648  0.9441172784734235
  0.1974711448725595  0.8395964891657085  0.7059109373615570
  0.7291854894781544  0.6876203333130585  0.8116845415074643
  0.1842172167767321  0.7965142794231910  0.1245873856134872
  0.5150004464816226  0.4440066562003795  0.6773420060337325
  0.5529790545166230 -0.0125868851208774  0.3824083140280737
  0.2539757035452783  0.1006170954739637  0.5303938221672621
  0.4947898485614337  0.7067642447661180  0.8264262934061046
  0.7563486764661003  0.1717114903657459  0.9229521412877162
  0.3930491383441609  0.1016347004057253  0.3597975134826498
  0.3912826617587075  0.8552617770231657 -0.0352353054504487
  0.1049177592759851  0.4031023461524664  0.7953867290755230
  0.2087637825345211  0.0329478575246804  0.9362017865708722
  0.2325142913099347  0.4105873549327881  0.0324965329609884
  0.1221562840929198  0.1002893193803045  0.2081190574470893
  0.6341788305079356  0.8983826214711823  0.6074972005977873
  0.3941627698055240  0.1010380743643916  0.7936744157245550
  0.1271288275625152  0.0098885011398108  0.3467002295294255
  0.2877720501774039  0.7355205573750289  0.5651539249833958
  0.8244112908085461  0.3415432722943360  0.3422420228093374
  0.4561685289856030  0.0851300533879498  0.9570222970859701
  0.2374646954595699  0.5787484624177223  0.0313836099382392
  0.8333823502778074  0.5794912177502263  0.1387254097346998
  0.7740155092220491  0.6308745235407788  0.5148665206632639
  0.6436819029107648  0.2113885691888636  0.3347273017530967
  0.7982618711898510  0.1792089346780862  0.3921805324167480
  0.9360315331156734  0.0948780163637532  0.2003285638549319
  0.0419115218768209  0.3102570072463428  0.5071906305110152
  0.6017722552159218  0.8317842549554889  0.9740041588656407
  0.3920567385590061  0.2755306562171863  0.7168768527919837
  0.3588992659789499  0.8988724318003901  0.7613878602189287
  0.6325419953349501  0.7302690199017432  0.5427943236211697
  0.9663005976123318  0.1308843649296279  0.7555079491741341
  0.9473656992911478  0.3491807869196927  0.7934395673419190
  0.8989812269053977  0.8719465383798732  0.1365797469943518
  0.2318968753448793  0.2617715742799043  0.3968392316984561
  0.7527258751383749  0.9746249142813626  0.4868552400736771
  0.9120278274603318  0.1008142713812243  0.9351775972455458
  0.1078811663144399  0.0824184417640570  0.8066660649508297
  0.1782909604811757  0.8324039028380950  0.4087239387056438
  0.0126383808972510  0.1461101940173363  0.5736524708775962
  0.6837885312024684  0.5291756227712714  0.6199759723080452
  0.7206982132058305  0.8696805272251100  0.1756043665798092
  0.5729707635983432  0.0273513241671988  0.6974349601842678
  0.3223362281569703  0.3366176849903608  0.2039883357531762
  0.8132520546551980  0.0853465253346132  0.7782392299563098
  0.1344737345807034  0.6473007900919177  0.5953872974695843
  0.6060257075859635  0.5765490572883026  0.7506443091031343
  0.3413896966358478  0.9956072187972849  0.0502352539040238
  0.4555084697490526  0.1264874431872108  0.5658550565728038
  0.9593093378083869  0.0392745537005392  0.4418878660145247
  0.3224174164532455  0.5229783621611915  0.2872218184871562
  0.1568883977134400  0.3361640963486786  0.1995485724419213
  0.4761491513552800  0.8345027047722196  0.4179337042280522
  0.6750609490292671  0.2415843032554375  0.7391561495344902
  0.2974240548401344  0.4319365628837581  0.6503340524901681
  0.1623701370668041  0.6080691457297412  0.3050462084904832
  0.3074964022525993  0.1843583793721218  0.1146375523905428
  0.6607411808014053  0.5294460802386369  0.4436961083833969
  0.5268526471955367  0.4413355455745956  0.4710700571320006
  0.0385998621404550  0.2273129130260352  0.1818541403144499
  0.4269428959853101  0.1900747391130629  0.2185732919005973
  0.8748278143364594  0.1702426091429091  0.0723731454397812
  0.4929442399345271  0.9429085170705165  0.5309972296497044
  0.0176911220557303  0.6455085751875783  0.2960708493957242
  0.8232504678152853  0.2350156651577500  0.7749141693280626
  0.7300271186294317  0.4164283389874081  0.9506312887304178
  0.9669155656433118  0.2291132578980005  0.8883452800272817
  0.0945026988238733  0.5126762303019552  0.0061006015245848
  0.4221878762845745  0.8701694758579114  0.1231820182031863
  0.1049366698515471  0.5025466420280764  0.5405382071486128
  0.5367844192043207  0.3123698561992634  0.7580803352583014
  0.8215826634203558  0.9856285538464543  0.1982406748647527
  0.0009609705077939  0.9587508873767896  0.2291507281793548
  0.2977870798168187  0.2794398448704391  0.5860967727271225
  0.7519335708818463  0.7851866496894800  0.4130610603404866
  0.9147138899938413  0.8929392649564326  0.9500667660377872
  0.1396437484175615  0.1114118563824180  0.6571009543923959
  0.8101741606317945  0.4111019618236336  0.6799241761401705
  0.3280427121162903  0.1372579417986459  0.6569692546944140
  0.7179840215277544  0.8342072600055704  0.8761366279042728
  0.0541112599709425  0.7572443197780838  0.6820497988372657
  0.1568950581532869  0.5044284364186021  0.6898569351102219
  0.6816153013859454  0.1922831279241986  0.5064261114755688
  0.9591208973817974  0.3992873819060281  0.4078585344113573
  0.3282958829902211  0.8262890490333491  0.4438543134434031
  0.6019149680203149  0.2141658168343936  0.1843887725499967
  0.4236536864360785  0.6205685478556422  0.2385446662508934
  0.6006595551868745  0.6084293878266330  0.0869927189298413
  0.2567052140196429  0.0146387595732643  0.7503213965289739
  0.2347969814417503  0.6940976050903913  0.7085687130728672
  0.1972935996128208  0.6207613460686615  0.8870518842631050
  0.5475960021307297  0.1937395110300842  0.8697736424338031
  0.4006766651520781  0.5893857419766069  0.0690960034431679
  0.2383474014924349  0.1145927158596220  0.3798347462030748
  0.5040041867182212  0.9512915180607586  0.0183232527340948
  0.6915523679062547  0.7290713331666755  0.0615911924491983
  0.2333139194026815  0.9736136357311097  0.6240760189158925
  0.4122921476101096  0.6634664390247945  0.5251324849857144
  0.7234334701377435  0.2978561640100238  0.2415563650117184
  0.3654980336300956  0.2137812587344090  0.4785196263105762
  0.7841785512149447  0.7224896978341657  0.9527927617774321
  0.8814344657278077  0.7368977998024815  0.5552830562632997
  0.8330768529623624  0.0986607380022698  0.5183476390439982
  0.8521551160383624  0.5644630381396241  0.6363561154634521
  0.8608946255789341  0.6344094365165437  0.2750642416823183
  0.4849809694628496  0.7335219217011990  0.9798002950864975
  0.0428501477036528  0.8324602836081094  0.0923573954834256
  0.4194528270603289  0.0109741740414050  0.6654747410359688
  0.4792608510674370  0.7788163993344516  0.5591610552956697
  0.6824077830472499  0.3327086038077894  0.4388759662649601
  0.1549475998218086  0.9208872463671436  0.2195355014156637
  0.2058209809468491  0.4817387721061678  0.8821384656739364
  0.9729830177232539  0.6973812886001748  0.1497894386649453
  0.5122293944572093  0.1626525509783318  0.7163366750157696
  0.2499034399974662  0.3950300496403598  0.5041698430062770
  0.3393662891775824  0.7044942235064904 -0.0170443869239848
  0.9399482448205493 -0.0091481426780502  0.0546018553992469
  0.0072107334272085  0.6979966829615559  0.8567059937081669
  0.3500037271163102  0.9836470475620135  0.8888327344386082
  0.3064509428770623  0.6774430727816811  0.3510656165959645
  0.3135309558285643  0.1446499845678945  0.9713796404194346
  0.6069883539587564  0.1217316368344682  0.9735565042778596
  0.0981942318007440  0.9676709584112616  0.0956572969294757
  0.6196403565371702  0.6839829076911258  0.9157277642959749
  0.4172735954290738  0.9469448098748389  0.3120721944886037
  0.2689547810407653  0.5727294091488173  0.5781820315273235
  0.3806590244017977  0.5341224608524344  0.4264474124486426
  0.8797692590255908  0.7985952393263364  0.8438842599754506
  0.3539940181540459  0.4124763235336667  0.9250398865980238
  0.2896185464271872  0.9182636989760753  0.1751585723068570
  0.5343392782828548  0.0892598767993675  0.2738569302824828
  0.3516258753374605  0.3090244245359403  0.0431753462643970
  0.8030592155953152  0.3658690093428235  0.8361145522353465
  0.8149488702043829  0.4342147517311714  0.2162876516534334
  0.9007353990388757  0.9093100532914641  0.3316998697806979
  0.5948357216552107  0.4372241481573752  0.0147720826546648
  0.1256007052003419  0.1665895827194565  0.9458903598168059
  0.0901304148179284  0.2745421008487439  0.3459680091774768
  0.5039102582287734  0.8738823643127995  0.6848364791705432
  0.1058062609959397  0.2449804011999938  0.8128851080367048
  0.2524088469603247  0.3599204665765572  0.7860646801565245
  0.5857570660513148  0.0788562433575003  0.1176101842895229
  0.2738976363405992  0.8284497417773177  0.8617541659253538
  0.4400640508058376  0.4266279601020447  0.2862884730341984
  0.7793553419720406  0.8678973632181535  0.0324715368640098
  0.3715717326564473  0.0139464192207483  0.4860038535765484
  0.1708390497164641  0.2309906511342044  0.5320376164107179
  0.5231932033259110  0.1445582182888859  0.4264588266581184
  0.3311220132508819  0.7580443732749953  0.1309153059657640
  0.5398219343737605  0.3137730997581453  0.3061533076226430
  0.6280478236660554  0.8695481707383145  0.4587520588290970
  0.1625339530445911  0.8202652917413337  0.5605812546747099
  0.4576615670196093  0.4375140438811496  0.0547342850947407
  0.9213445060817346  0.4989556450705904  0.7736662849467743
  0.6107661227295500  0.3983884181440975  0.1779813765522680
  0.6654454174521575  0.0959848025807341  0.8040840614625181
  0.9281086288811813  0.3364257454493070  0.6066232404683657
  0.0251400741207722  0.1262343703135330  0.3226142975231168
  0.3933280943705217  0.7614321068302711  0.7122411433420316
  0.7859151427907040 -0.0020002170644397  0.9129361063501004
  0.3382758828510611  0.4684396016128143  0.1387659240244121
  0.8806220977608163  0.6346595549522716  0.8451254613400385
  0.1605528686406177  0.9249606046045891  0.8367086392095536
  0.0392194336143570  0.9012876673146474  0.3988776711085212
  0.1038577167460168  0.1222970241878880  0.4598775635014263
  0.9332729028065241  0.5934448916663624  0.0072801169836021
  0.4967061845841518  0.5656264686348014  0.9555080846082739
  0.5859001751328652  0.8154989962113153  0.1329871049246431
  0.4442673208708420  0.3377457303867042  0.5888100954822998
  0.5081776298621814  0.0073514442739008  0.8328212536213511
  0.2048344736850858  0.9648296890364189  0.4792289284120000
  0.9513556260128533  0.2087157505283141  0.4366530199521452
  0.0272165672871426  0.5206411869396020  0.8633920550248680
  0.7716023876002901 -0.0262058229035495  0.6411539838805819
  0.7734333847315126  0.1480155583729480  0.2315511359568668
  0.7215078758182372  0.6709106021466699  0.6572541358466087
  0.1775736715865804  0.7633468651443749  0.2771483900287555
  0.1855391925126445  0.6791717049853421  0.4507749294769078
  0.1417879895898485  0.7562644525025362  0.8317766140212671
  0.6930207376103404  0.5522962179216904  0.2376084778892107
  0.4736926319683138  0.7846964123220439  0.2623380879655646
  0.6577752065778325  0.9229779484705267  0.7714876435329657
 -0.0103632678559075  0.3638754573961387  0.2403696186427824
  0.8936934140080286  0.7598412100645565  0.4063445649285438
  0.1365874652288911  0.3563702455264460  0.6288864859522569
  0.8465944864043323  0.2946734617156875  0.4862250352259768
  0.2240179562823380  0.8943464326187058  0.0091149387618443
  0.2068232794565767  0.0659818867150892  0.0880396256052050
  0.9138585261135376  0.8704111841444001  0.6714157155797849
  0.4236871982200735  0.0533610439526956  0.1559525829045320
  0.5308734468042358  0.6673494339847061  0.6620048405937878
  0.4698669383585795  0.1906370036222837  0.0578648357915277
  0.8706769038891723  0.7871331441662461  0.2662047066565656
  0.2250820292794135  0.2080209960088421  0.2469083832210171
  0.7439948574144437  0.3169785348958467  0.0855732091085903
  0.1160211172676763  0.6569664149188932  0.1468254975238026
  0.9242685170113802  0.4838774113221507  0.5264667096129627
  0.2529133339758806  0.3976818212942144  0.3255924221947152
  0.0948252181550218  0.4773263698381858  0.2673813159356691
  0.1753226896030260  0.2548126404842416  0.0707593660411225
  0.1926323076710112  0.4937462031551733  0.1623154547710119
  0.8926462257630308  0.9187377352352035  0.4996580016849734
  0.8560013289432459  0.0532522499998193  0.3391190823600318
  0.0583811978959925  0.5581338379472863  0.4216700492155905
  0.1974510795561716  0.7406262109948009  0.9890388160881306
  0.1106985973589462  0.3578511650328352  0.9409713148840672
  0.9931085422682333  0.6048030001686929  0.6739353845473228
  0.5363941617003469  0.4269955324154540  0.8566385260521260
  0.9676768397124006  0.4016219832810479  0.9438200014711431
  0.6275038210268150  0.3887896621480402  0.5869602013312574
  0.9542388082945225 -0.0100049752305085  0.8292159699311656
  0.0730546610570059  0.9646956472864724  0.6992914777538914
  0.2524979210338454  0.1556704632146801  0.8242482042076223
  0.7620008082562056  0.8098077345675215  0.6994179030442386
  0.3830604274212995  0.2573490471861299  0.3292024796000496
  0.7199555282863775  0.7270851238012883  0.2298123444201439
  0.4986564444454964  0.8561371478748367  0.8498236494419243
  0.4608615323160349  0.5555664631602096  0.7923671805259695
  0.2832795352756861  0.5403834990442734  0.7650396786202511
  0.3835970598037531  0.2456686182706941  0.8614585281435824
  0.7674655320888054  0.8220148886948451  0.5580239780403472
  0.2728768847725533  0.9525238100175515  0.3479762274926793
  0.7601167699539463  0.5378328715656141  0.7922929935061682
  0.0613219450089216  0.0011083092708505  0.9508807693974848
  0.8301497807897213  0.7250231674341662  0.1173531749217370
  0.6522458107412462  0.9666616255651196  0.0668296765466833
  0.6840766018693091  0.0671174033792868  0.3872570247029566
  0.3979195363877353  0.4144484320033847  0.7693931116293236
  0.9094317436245566  0.2320764869747406  0.2856039553189477
  0.5994777782683458  0.7006162805772985  0.3934338910077904
  0.7540318234575311  0.5887217132498421 -0.0030882893614020
 -0.0082127516860407  0.6497460430542727  0.5325201413908446
  0.8837607129138449  0.4417131738138861  0.0680944616791886
  0.8004723178700052  0.4893860720305712  0.3724832249904344
  0.0556322267132274  0.4014294692337117  0.1055185266091347
  0.4173475984989369  0.5040118459551371  0.5838080219886228
  0.3410538123184372  0.7042733443526580  0.8401480371803135
 
  0.00000000E+00  0.00000000E+00  0.00000000E+00
  0.00000000E+00  0.00000000E+00  0.00000000E+00
  0.00000000E+00  0.00000000E+00  0.00000000E+00
  0.00000000E+00  0.00000000E+00  0.00000000E+00
  0.00000000E+00  0.00000000E+00  0.00000000E+00
  0.00000000E+00  0.00000000E+00  0.00000000E+00
  0.00000000E+00  0.00000000E+00  0.00000000E+00
  0.00000000E+00  0.00000000E+00  0.00000000E+00
  0.00000000E+00  0.00000000E+00  0.00000000E+00
  0.00000000E+00  0.00000000E+00  0.00000000E+00
  0.00000000E+00  0.00000000E+00  0.00000000E+00
  0.00000000E+00  0.00000000E+00  0.00000000E+00
  0.00000000E+00  0.00000000E+00  0.00000000E+00
  0.00000000E+00  0.00000000E+00  0.00000000E+00
  0.00000000E+00  0.00000000E+00  0.00000000E+00
  0.00000000E+00  0.00000000E+00  0.00000000E+00
  0.00000000E+00  0.00000000E+00  0.00000000E+00
  0.00000000E+00  0.00000000E+00  0.00000000E+00
  0.00000000E+00  0.00000000E+00  0.00000000E+00
  0.00000000E+00  0.00000000E+00  0.00000000E+00
  0.00000000E+00  0.00000000E+00  0.00000000E+00
  0.00000000E+00  0.00000000E+00  0.00000000E+00
  0.00000000E+00  0.00000000E+00  0.00000000E+00
  0.00000000E+00  0.00000000E+00  0.00000000E+00
  0.00000000E+00  0.00000000E+00  0.00000000E+00
  0.00000000E+00  0.00000000E+00  0.00000000E+00
  0.00000000E+00  0.00000000E+00  0.00000000E+00
  0.00000000E+00  0.00000000E+00  0.00000000E+00
  0.00000000E+00  0.00000000E+00  0.00000000E+00
  0.00000000E+00  0.00000000E+00  0.00000000E+00
  0.00000000E+00  0.00000000E+00  0.00000000E+00
  0.00000000E+00  0.00000000E+00  0.00000000E+00
  0.00000000E+00  0.00000000E+00  0.00000000E+00
  0.00000000E+00  0.00000000E+00  0.00000000E+00
  0.00000000E+00  0.00000000E+00  0.00000000E+00
  0.00000000E+00  0.00000000E+00  0.00000000E+00
  0.00000000E+00  0.00000000E+00  0.00000000E+00
  0.00000000E+00  0.00000000E+00  0.00000000E+00
  0.00000000E+00  0.00000000E+00  0.00000000E+00
  0.00000000E+00  0.00000000E+00  0.00000000E+00
  0.00000000E+00  0.00000000E+00  0.00000000E+00
  0.00000000E+00  0.00000000E+00  0.00000000E+00
  0.00000000E+00  0.00000000E+00  0.00000000E+00
  0.00000000E+00  0.00000000E+00  0.00000000E+00
  0.00000000E+00  0.00000000E+00  0.00000000E+00
  0.00000000E+00  0.00000000E+00  0.00000000E+00
  0.00000000E+00  0.00000000E+00  0.00000000E+00
  0.00000000E+00  0.00000000E+00  0.00000000E+00
  0.00000000E+00  0.00000000E+00  0.00000000E+00
  0.00000000E+00  0.00000000E+00  0.00000000E+00
  0.00000000E+00  0.00000000E+00  0.00000000E+00
  0.00000000E+00  0.00000000E+00  0.00000000E+00
  0.00000000E+00  0.00000000E+00  0.00000000E+00
  0.00000000E+00  0.00000000E+00  0.00000000E+00
  0.00000000E+00  0.00000000E+00  0.00000000E+00
  0.00000000E+00  0.00000000E+00  0.00000000E+00
  0.00000000E+00  0.00000000E+00  0.00000000E+00
  0.00000000E+00  0.00000000E+00  0.00000000E+00
  0.00000000E+00  0.00000000E+00  0.00000000E+00
  0.00000000E+00  0.00000000E+00  0.00000000E+00
  0.00000000E+00  0.00000000E+00  0.00000000E+00
  0.00000000E+00  0.00000000E+00  0.00000000E+00
  0.00000000E+00  0.00000000E+00  0.00000000E+00
  0.00000000E+00  0.00000000E+00  0.00000000E+00
  0.00000000E+00  0.00000000E+00  0.00000000E+00
  0.00000000E+00  0.00000000E+00  0.00000000E+00
  0.00000000E+00  0.00000000E+00  0.00000000E+00
  0.00000000E+00  0.00000000E+00  0.00000000E+00
  0.00000000E+00  0.00000000E+00  0.00000000E+00
  0.00000000E+00  0.00000000E+00  0.00000000E+00
  0.00000000E+00  0.00000000E+00  0.00000000E+00
  0.00000000E+00  0.00000000E+00  0.00000000E+00
  0.00000000E+00  0.00000000E+00  0.00000000E+00
  0.00000000E+00  0.00000000E+00  0.00000000E+00
  0.00000000E+00  0.00000000E+00  0.00000000E+00
  0.00000000E+00  0.00000000E+00  0.00000000E+00
  0.00000000E+00  0.00000000E+00  0.00000000E+00
  0.00000000E+00  0.00000000E+00  0.00000000E+00
  0.00000000E+00  0.00000000E+00  0.00000000E+00
  0.00000000E+00  0.00000000E+00  0.00000000E+00
  0.00000000E+00  0.00000000E+00  0.00000000E+00
  0.00000000E+00  0.00000000E+00  0.00000000E+00
  0.00000000E+00  0.00000000E+00  0.00000000E+00
  0.00000000E+00  0.00000000E+00  0.00000000E+00
  0.00000000E+00  0.00000000E+00  0.00000000E+00
  0.00000000E+00  0.00000000E+00  0.00000000E+00
  0.00000000E+00  0.00000000E+00  0.00000000E+00
  0.00000000E+00  0.00000000E+00  0.00000000E+00
  0.00000000E+00  0.00000000E+00  0.00000000E+00
  0.00000000E+00  0.00000000E+00  0.00000000E+00
  0.00000000E+00  0.00000000E+00  0.00000000E+00
  0.00000000E+00  0.00000000E+00  0.00000000E+00
  0.00000000E+00  0.00000000E+00  0.00000000E+00
  0.00000000E+00  0.00000000E+00  0.00000000E+00
  0.00000000E+00  0.00000000E+00  0.00000000E+00
  0.00000000E+00  0.00000000E+00  0.00000000E+00
  0.00000000E+00  0.00000000E+00  0.00000000E+00
  0.00000000E+00  0.00000000E+00  0.00000000E+00
  0.00000000E+00  0.00000000E+00  0.00000000E+00
  0.00000000E+00  0.00000000E+00  0.00000000E+00
  0.00000000E+00  0.00000000E+00  0.00000000E+00
  0.00000000E+00  0.00000000E+00  0.00000000E+00
  0.00000000E+00  0.00000000E+00  0.00000000E+00
  0.00000000E+00  0.00000000E+00  0.00000000E+00
  0.00000000E+00  0.00000000E+00  0.00000000E+00
  0.00000000E+00  0.00000000E+00  0.00000000E+00
  0.00000000E+00  0.00000000E+00  0.00000000E+00
  0.00000000E+00  0.00000000E+00  0.00000000E+00
  0.00000000E+00  0.00000000E+00  0.00000000E+00
  0.00000000E+00  0.00000000E+00  0.00000000E+00
  0.00000000E+00  0.00000000E+00  0.00000000E+00
  0.00000000E+00  0.00000000E+00  0.00000000E+00
  0.00000000E+00  0.00000000E+00  0.00000000E+00
  0.00000000E+00  0.00000000E+00  0.00000000E+00
  0.00000000E+00  0.00000000E+00  0.00000000E+00
  0.00000000E+00  0.00000000E+00  0.00000000E+00
  0.00000000E+00  0.00000000E+00  0.00000000E+00
  0.00000000E+00  0.00000000E+00  0.00000000E+00
  0.00000000E+00  0.00000000E+00  0.00000000E+00
  0.00000000E+00  0.00000000E+00  0.00000000E+00
  0.00000000E+00  0.00000000E+00  0.00000000E+00
  0.00000000E+00  0.00000000E+00  0.00000000E+00
  0.00000000E+00  0.00000000E+00  0.00000000E+00
  0.00000000E+00  0.00000000E+00  0.00000000E+00
  0.00000000E+00  0.00000000E+00  0.00000000E+00
  0.00000000E+00  0.00000000E+00  0.00000000E+00
  0.00000000E+00  0.00000000E+00  0.00000000E+00
  0.00000000E+00  0.00000000E+00  0.00000000E+00
  0.00000000E+00  0.00000000E+00  0.00000000E+00
  0.00000000E+00  0.00000000E+00  0.00000000E+00
  0.00000000E+00  0.00000000E+00  0.00000000E+00
  0.00000000E+00  0.00000000E+00  0.00000000E+00
  0.00000000E+00  0.00000000E+00  0.00000000E+00
  0.00000000E+00  0.00000000E+00  0.00000000E+00
  0.00000000E+00  0.00000000E+00  0.00000000E+00
  0.00000000E+00  0.00000000E+00  0.00000000E+00
  0.00000000E+00  0.00000000E+00  0.00000000E+00
  0.00000000E+00  0.00000000E+00  0.00000000E+00
  0.00000000E+00  0.00000000E+00  0.00000000E+00
  0.00000000E+00  0.00000000E+00  0.00000000E+00
  0.00000000E+00  0.00000000E+00  0.00000000E+00
  0.00000000E+00  0.00000000E+00  0.00000000E+00
  0.00000000E+00  0.00000000E+00  0.00000000E+00
  0.00000000E+00  0.00000000E+00  0.00000000E+00
  0.00000000E+00  0.00000000E+00  0.00000000E+00
  0.00000000E+00  0.00000000E+00  0.00000000E+00
  0.00000000E+00  0.00000000E+00  0.00000000E+00
  0.00000000E+00  0.00000000E+00  0.00000000E+00
  0.00000000E+00  0.00000000E+00  0.00000000E+00
  0.00000000E+00  0.00000000E+00  0.00000000E+00
  0.00000000E+00  0.00000000E+00  0.00000000E+00
  0.00000000E+00  0.00000000E+00  0.00000000E+00
  0.00000000E+00  0.00000000E+00  0.00000000E+00
  0.00000000E+00  0.00000000E+00  0.00000000E+00
  0.00000000E+00  0.00000000E+00  0.00000000E+00
  0.00000000E+00  0.00000000E+00  0.00000000E+00
  0.00000000E+00  0.00000000E+00  0.00000000E+00
  0.00000000E+00  0.00000000E+00  0.00000000E+00
  0.00000000E+00  0.00000000E+00  0.00000000E+00
  0.00000000E+00  0.00000000E+00  0.00000000E+00
  0.00000000E+00  0.00000000E+00  0.00000000E+00
  0.00000000E+00  0.00000000E+00  0.00000000E+00
  0.00000000E+00  0.00000000E+00  0.00000000E+00
  0.00000000E+00  0.00000000E+00  0.00000000E+00
  0.00000000E+00  0.00000000E+00  0.00000000E+00
  0.00000000E+00  0.00000000E+00  0.00000000E+00
  0.00000000E+00  0.00000000E+00  0.00000000E+00
  0.00000000E+00  0.00000000E+00  0.00000000E+00
  0.00000000E+00  0.00000000E+00  0.00000000E+00
  0.00000000E+00  0.00000000E+00  0.00000000E+00
  0.00000000E+00  0.00000000E+00  0.00000000E+00
  0.00000000E+00  0.00000000E+00  0.00000000E+00
  0.00000000E+00  0.00000000E+00  0.00000000E+00
  0.00000000E+00  0.00000000E+00  0.00000000E+00
  0.00000000E+00  0.00000000E+00  0.00000000E+00
  0.00000000E+00  0.00000000E+00  0.00000000E+00
  0.00000000E+00  0.00000000E+00  0.00000000E+00
  0.00000000E+00  0.00000000E+00  0.00000000E+00
  0.00000000E+00  0.00000000E+00  0.00000000E+00
  0.00000000E+00  0.00000000E+00  0.00000000E+00
  0.00000000E+00  0.00000000E+00  0.00000000E+00
  0.00000000E+00  0.00000000E+00  0.00000000E+00
  0.00000000E+00  0.00000000E+00  0.00000000E+00
  0.00000000E+00  0.00000000E+00  0.00000000E+00
  0.00000000E+00  0.00000000E+00  0.00000000E+00
  0.00000000E+00  0.00000000E+00  0.00000000E+00
  0.00000000E+00  0.00000000E+00  0.00000000E+00
  0.00000000E+00  0.00000000E+00  0.00000000E+00
  0.00000000E+00  0.00000000E+00  0.00000000E+00
  0.00000000E+00  0.00000000E+00  0.00000000E+00
  0.00000000E+00  0.00000000E+00  0.00000000E+00
  0.00000000E+00  0.00000000E+00  0.00000000E+00
  0.00000000E+00  0.00000000E+00  0.00000000E+00
  0.00000000E+00  0.00000000E+00  0.00000000E+00
  0.00000000E+00  0.00000000E+00  0.00000000E+00
  0.00000000E+00  0.00000000E+00  0.00000000E+00
  0.00000000E+00  0.00000000E+00  0.00000000E+00
  0.00000000E+00  0.00000000E+00  0.00000000E+00
  0.00000000E+00  0.00000000E+00  0.00000000E+00
  0.00000000E+00  0.00000000E+00  0.00000000E+00
  0.00000000E+00  0.00000000E+00  0.00000000E+00
  0.00000000E+00  0.00000000E+00  0.00000000E+00
  0.00000000E+00  0.00000000E+00  0.00000000E+00
  0.00000000E+00  0.00000000E+00  0.00000000E+00
  0.00000000E+00  0.00000000E+00  0.00000000E+00
  0.00000000E+00  0.00000000E+00  0.00000000E+00
  0.00000000E+00  0.00000000E+00  0.00000000E+00
  0.00000000E+00  0.00000000E+00  0.00000000E+00
  0.00000000E+00  0.00000000E+00  0.00000000E+00
  0.00000000E+00  0.00000000E+00  0.00000000E+00
  0.00000000E+00  0.00000000E+00  0.00000000E+00
  0.00000000E+00  0.00000000E+00  0.00000000E+00
  0.00000000E+00  0.00000000E+00  0.00000000E+00
  0.00000000E+00  0.00000000E+00  0.00000000E+00
  0.00000000E+00  0.00000000E+00  0.00000000E+00
  0.00000000E+00  0.00000000E+00  0.00000000E+00
  0.00000000E+00  0.00000000E+00  0.00000000E+00
  0.00000000E+00  0.00000000E+00  0.00000000E+00
  0.00000000E+00  0.00000000E+00  0.00000000E+00
  0.00000000E+00  0.00000000E+00  0.00000000E+00
  0.00000000E+00  0.00000000E+00  0.00000000E+00
  0.00000000E+00  0.00000000E+00  0.00000000E+00
  0.00000000E+00  0.00000000E+00  0.00000000E+00
  0.00000000E+00  0.00000000E+00  0.00000000E+00
  0.00000000E+00  0.00000000E+00  0.00000000E+00
  0.00000000E+00  0.00000000E+00  0.00000000E+00
  0.00000000E+00  0.00000000E+00  0.00000000E+00
  0.00000000E+00  0.00000000E+00  0.00000000E+00
  0.00000000E+00  0.00000000E+00  0.00000000E+00
  0.00000000E+00  0.00000000E+00  0.00000000E+00
  0.00000000E+00  0.00000000E+00  0.00000000E+00
  0.00000000E+00  0.00000000E+00  0.00000000E+00