GeSe                                    
   1.00000000000000     
    20.1278870000000012    0.0000000000000000    0.0000000000000000
     0.0000000000000000   20.1278870000000012    0.0000000000000000
     0.0000000000000000    0.0000000000000000   20.1278870000000012
   Ge   Se
   150   150
Direct
  0.2853273805544632  0.7510387522419137  0.1205628740298625
  0.5479479318111292  0.0111118163906287  0.6305594870186156
  0.7845494305183888  0.2876916947491944  0.4555261296110270
  0.0058993134034400  0.9869080574273821  0.4382107112099660
  0.8109024067869869  0.0017614942637525  0.2510442265575318
  0.3683855263706460  0.1819144277957703  0.7878355744828154
  0.0384123403340097  0.8811272062536879  0.5967434382115454
  0.8653536727679041  0.1126071631234881  0.3917037810476545
  0.5380325845238331  0.8191934886673908  0.5481666976546882
  0.3625972753953697  0.6367352618322181  0.8768621284872141
  0.1738332952282366  0.7715636427686425  0.6378149981048226
  0.4698710925855714  0.9852220721879510  0.1930091992705295
  0.3564230000622686  0.2854621712701090  0.0368477177007131
  0.5307248035556905  0.9917322410723508  0.8557001307987244
  0.2597512809571861  0.3446423601550572  0.0901054465779189
  0.3698493328832386  0.6351599087330908  0.1098699173642762
  0.7436143416797818  0.2901537028863677  0.9028398165289748
  0.2271176299729757  0.5397490622188500  0.0868104604885799
  0.3311698556296356  0.1275584366854403  0.9593141814467108
  0.1092589774748316  0.4409987311081117  0.3194993890844093
  0.2518104645191836  0.3326930848941987  0.2151158196828686
  0.6714547203971643  0.0846701523107367  0.7565703532159410
  0.3549143129551404  0.3247999731225941  0.2930491779788001
  0.7409551160098831  0.5657268193673770  0.4376168583543021
  0.8523108636372838  0.6902546321607224  0.7442057107059077
  0.8095029157995224  0.0451903691226946  0.4910717103448529
  0.7809371467410429  0.8553820290771355  0.3998901654292553
  0.7840907527529469  0.0991847026424549  0.8952697406443079
  0.6346792196089740  0.9634604913141172  0.3777055317763678
  0.7306397877377847  0.4086055595035634  0.1304221508463496
  0.0884744600515431  0.5922368914595449  0.1208951562841586
  0.5808279937743028  0.1259402060933031  0.2837968206130723
  0.9741669785094886  0.0866286482175898  0.9620923349605781
  0.6102270393354299  0.4846497010660877  0.8605935494714294
  0.0307934559577292  0.7355721747421977  0.8429127737079350
  0.6161335106596508  0.2061967475910942  0.6216437103408040
  0.0622085977585318  0.3046262288253432  0.5329586327746029
  0.0873535436985210 -0.0002305578163029  0.7811762620033347
  0.2551167544333528  0.5070418010457153  0.7488689228735489
  0.3805973642544292  0.6220097288576036  0.3760231260101991
  0.1710370723805952  0.6072305202460140  0.7313852523176408
  0.9718265734564370  0.5122233102084718  0.4361126240335438
  0.7018291144296260  0.3874839772867435  0.3082445743478378
  0.4333276677384242  0.4565048102142578  0.4115666816069812
  0.0875700554022929  0.1017947032337066  0.6089171216807451
  0.3105482236847038  0.1415651137561607  0.2915027201033060
  0.5535774903304990  0.2417196113068625  0.8276995916822663
  0.6253589718376187  0.4073828189028761  0.4909524120505901
  0.5943978205885697  0.9239490560060475  0.0942284342221701
  0.8945574465175038  0.9881718256065323  0.1068244074773709
  0.6124404343615827  0.2393348065790772  0.0203744160551536
  0.0552613432577857  0.4627325634885994  0.6156101925564190
  0.4492663022359444  0.9926689188498095  0.4198714601403220
  0.5576446820065972  0.5938344925032532  0.4313347234827037
  0.7499243603621861  0.4667265744430750  0.5717318096386463
  0.0480796504477090  0.6113691018257746  0.7065063842412604
  0.7156612789472550  0.1845560474821514  0.5354855035129999
  0.6376344933816686  0.5485851132803793  0.6275636029948528
  0.8940863305795812  0.4153958173956751  0.8254244720264785
  0.2757237584933432  0.9436130850632473  0.0049227819686534
  0.8546259433702634  0.9440695147025632  0.5526306506343693
  0.5247991090823197  0.0724453428060957  0.5162195326776643
  0.8583261655551684  0.7369650946712633  0.2326002786533769
  0.7505680794548611  0.1556778889958035  0.2088161921362826
  0.4127774723187498  0.2384571708219252  0.5838724008450482
  0.5162277391833707  0.2993890969525628  0.1615073764555566
  0.4716498398769957  0.2397684233076645  0.9319442663371276
  0.0339016032102178  0.6991356504754040  0.1609110147820327
  0.8687389383210661  0.3691306336075043  0.0719023849849814
  0.7008827734945037  0.8352233967228141  0.9469560896716304
  0.5643737106048927  0.7946992701390008  0.3621480096658856
  0.5714052639273242  0.3165947144230441  0.6682151278090915
  0.9793223410491969  0.8239105938592123  0.3582073325206608
  0.5786677120356243  0.3153438230822999  0.3258148703474069
  0.5178750137102799  0.7088561564076751  0.8206541299746332
  0.7995265341599991  0.6487880252212972  0.3617158522586940
  0.3009853308529353  0.8521136486634304  0.6140666490178882
  0.2528025826567565  0.8293847641670726  0.8943068437488673
  0.9076046926335922  0.7808220574523365  0.9039710118072646
  0.7622511139290379  0.6718517683389509  0.8544560496322589
  0.9546431330943349  0.2654157582284934  0.9409961106291646
  0.3683315669410752  0.4310774641033533  0.1516548654044257
  0.1402065850029976  0.5930487959376214  0.3153240956100886
  0.8283180134503925  0.1827223475701575  0.0888419450553607
  0.1957331846662798  0.9465628663968708  0.6206482550929051
  0.5235621638578408  0.8138353974704637  0.7157906783257942
  0.6092246059131092  0.1250536700001792  0.0996595555527376
  0.0771882990278023  0.6750822589092292  0.4635781607293020
  0.4304258998734171  0.2089657338742040  0.2309973444950748
  0.4926128861627332  0.4061957409386646  0.6258604993017874
  0.0946637064781038  0.2294297383713045  0.9473199397995593
  0.2831018661426257  0.0095339539068821  0.4504193829143768
  0.2923185731134644  0.0789500250965573  0.1083563635429057
  0.0386012419664283  0.1567459082046812  0.4295647579794175
  0.0136028582346960  0.3088240378586136  0.3635256266991272
  0.3224976384914711  0.6417935624643321  0.6050810819725694
  0.0483302863807074  0.3943187838977699  0.9881618506186168
 -0.0104478745897063  0.0397062278302348  0.2735576810938217
  0.6135905862860730  0.7719406649432664  0.0106405533345260
  0.9364130185201009  0.2560550097702846  0.7879077402623968
  0.3142972249059358  0.7680798862415631  0.7601339014293199
  0.5834789426167988  0.3739734169174319  0.9935030507667356
  0.2679270351233117  0.5786578997212296  0.2792285520263192
  0.2672954564214504  0.1356094489156329  0.6165897353007878
  0.5472333082969180  0.4861207742958456  0.2125027239491760
  0.2245756234137223  0.8674355859490307  0.4660049764590022
  0.9679727118025240  0.5548005122377804  0.0860745631992877
  0.7383041662781938  0.9021565341177820  0.6777115924971755
  0.9230414635403451  0.6118422547456914  0.3585610618652649
  0.0364111581584465  0.3611036421786548  0.8130792786177002
  0.4427359172679105  0.6043293264384415  0.5506748362973883
  0.6882111586609740  0.8749984705459816  0.8191324981533782
  0.5724961422454701  0.1576880857289890  0.7330597939365303
  0.4577858419442649  0.5656695116504583  0.7083978951613883
  0.1195840098201324  0.0255247072615309  0.0030818731858383
  0.7761299784515072  0.2324556284607093  0.6837133503777735
  0.5434627987561781  0.6961833137355695  0.1886417699785612
  0.1141863439866919  0.7780013402755860  0.2125175630878706
  0.6917932981966182  0.7108229613862497  0.6828337118755488
  0.9507590642977055  0.6521256410986146  0.2424039685227510
  0.1495767674601318  0.6163355312826346  0.9031699926736585
  0.8747832144376173  0.3679099959532749  0.6633829104240445
  0.1552928467196135  0.4688202153777088  0.8755361374817588
  0.5080460816711240  0.0514188130050226  0.7408381564725658
  0.8119635181190279  0.6518632403032013  0.0626368899742220
  0.7346061554765713  0.4558220908805181  0.7578825403227537
  0.1559401116417677  0.0227434745800249  0.4082005763559691
  0.0264079015381714  0.8746195864430436  0.0248842481878631
  0.6715674309126263  0.5969365366178122  0.9105943980440461
  0.2309664482067219  0.2159453244632705  0.7063455796207030
  0.3854267588582889  0.0903000879440552  0.5966984197578731
  0.9769956926907342  0.8054094473795728  0.1236859816606048
  0.3805200905575516  0.3224926530392134  0.7681724502140210
  0.8476992030798258  0.4690638085318640  0.2732825235055968
  0.4016785600957863  0.7848772099226973  0.2835277133620362
  0.5133475455110523  0.5983437797848082  0.0369242996190335
  0.1318442372488806  0.2120589945066137  0.1318110461205748
  0.7034383115737527  0.0280113630671962  0.0098388610815447
  0.9313570006100221  0.9810080382720160  0.8987021518465389
  0.6570785571141725  0.7319728756828466  0.4650944644575288
  0.1400036694046758  0.2504859722829572  0.3445562513996335
  0.9363903757751720  0.8579179576693343  0.7069473740582334
  0.2542079905791561  0.9562089555878640  0.2687116552177627
  0.3194422194595373  0.2105873107377464  0.4698429546900759
  0.1680211295824663  0.7633811528931589  0.9763978602457052
  0.3896167685132504  0.8094836783461391  0.4138380299452470
  0.8037562069364007  0.4869207380891029  0.9766188582942527
  0.2180647228438014  0.7686075745194243  0.2937933120259740
  0.0387203709827275  0.1792474169211902  0.7673977918269275
  0.1832198020670793  0.3994502868757908  0.7109917775218525
  0.3516469295713494  0.9750828116609590  0.5484658041669177
  0.2872506008502424  0.3218436585537810  0.6792376977786267
  0.7817016131410772  0.3437098894807819  0.5747488640729552
  0.5173016718182034  0.8126845503205840  0.2421987990267123
  0.4481895492765292  0.5269873242626040  0.1461393111372264
  0.6463433570483791  0.7314955487244810  0.1167758085553318
  0.5081976259379626  0.1087370156520908  0.1768851795272492
  0.4070618486252900  0.3591472482256889  0.5565699662530402
  0.5243875974532058  0.4706933463251635  0.9491629682087011
  0.4935263419952527  0.2074111751566751  0.3352535388691120
  0.0122578573909208  0.5745148910411255  0.5963869589134013
  0.4799167526448754  0.5862666145691482  0.8304717569265695
  0.6223224476920034  0.6736234861804146  0.3571971145677139
  0.2399218564249749  0.4841241468801464  0.2017014743599343
  0.7154428880239294  0.5679409226450406  0.0225206196442742
  0.7923570510196388  0.7449944156036549  0.9547666648518545
  0.0633640557552803  0.6925592118316510  0.9616613667882740
  0.2012869193967902  0.0742742204997575  0.2993312045111811
  0.2694833596821341  0.2501048331970101  0.3589932634635452
  0.5594167847415310  0.8698532045337258  0.8237168689032358
  0.6719241704018689  0.0126556723274955  0.6548071371579710
  0.8214277406266036  0.9867994458107704  0.8530241138750267
  0.6853612028223103  0.6247974491052608  0.5308788107684854
  0.9812730773359318  0.4288769707300127  0.3377213862755585
  0.7461728885651551  0.0859783761881890  0.3161692398259163
  0.3600210661666806  0.2973924941994394  0.9176942203380959
  0.6560361273438374  0.0146920630114559  0.8544113400198869
  0.9037306029093921  0.1610870955051390  0.8824429754508150
  0.5259688026513911  0.2007964335458901  0.5353554643489854
  0.4665727448138442  0.7113580441731935  0.0905598295276594
  0.7277133817324452  0.4870991730686715  0.2316013351737508
  0.6315925283916051  0.8185029723361078  0.6469360042933358
  0.4801514244542869  0.5429992962802188  0.3398767099317664
  0.4436596392465942  0.4413432139737945  0.7297444552106874
  0.9811545363258574  0.1560657132650945  0.3182899660662257
  0.8623482073797871  0.3504847375060704  0.9301885665084820
  0.1235429954953426  0.8066566112040716  0.5272748552240872
  0.1512046174191934  0.3127343656114739  0.0545612070488398
  0.4849904952742823  0.3825726698035896  0.2520143045537398
  0.2215068752583612  0.9521231091484077  0.9005608565520561
  0.1944432672828622  0.6457585990339338  0.6137166627813988
  0.0000873275924045  0.4589889155506199  0.8878016005336764
  0.2112658006800378  0.1687165277614694  0.5151464902363466
  0.5724011905627294  0.6760012070214154  0.9414642486129120
  0.9078404938533696  0.8864604562929517  0.9770354844802274
  0.2403942009931796  0.6633042654671084  0.9746212340517922
  0.4494081911514695  0.3567618164494573  0.0705716090628150
  0.9767944739688507  0.7298806096071548  0.5874481108696752
  0.0958469864882658  0.5506038137773270  0.4252829654554233
  0.3176942594482857  0.8895320022662601  0.7283313546844454
  0.3346650031586788  0.6002159903537475  0.7230611641327902
  0.8141375483042483  0.5125498407106641  0.8493865808772190
  0.1310244196800899  0.4924643368920106 -0.0018752070670156
  0.6031940162831850  0.3950179275587419  0.1217757610340870
  0.9798368617357395  0.3980346085281068  0.5506073803311071
  0.9997181387343754  0.9185031767848161  0.8210641302471989
  0.8587629128865796  0.0753609146726506  0.0206314309804220
  0.3983900479001906  0.1749508113322926  0.0563518053021177
  0.4040282306384784  0.7594061063902207  0.8568205838304140
  0.3372398975650286  0.9322986497174620  0.3679859612634455
  0.3239699349623124  0.8383109492321551  0.2037605675444611
  0.7832642431475854  0.7368536719553004  0.4468181380531497
  0.7576876253108615  0.8706516104112709  0.5534565077140260
  0.5172006907009008  0.3685292611761055  0.4288615804427010
  0.3232710123354099  0.8351897734968990  0.0003182981481245
  0.4327083025230004  0.1283869978749182  0.8805205725419378
  0.6510162988963212  0.4933115893573909  0.3972892099530047
  0.3967195029647441  0.5884747333573797  0.9913170161147447
  0.4666040707750980  0.2569478864949404  0.6975871882808943
  0.7824634693338403  0.1289922772094204  0.7653659038616660
  0.0207229251800945  0.9854527404659340  0.0860038241568610
  0.8515941379197358  0.8087229412996823  0.7944756334307167
  0.7197629744903739  0.9060025613568380  0.0461751460120506
  0.6963822645079787  0.9862863708202304  0.4984802124603870
  0.1710018114359149  0.8042026558189852  0.0967965693260569
  0.1291395839153802  0.3322123038139971  0.2449004208331696
  0.8342866133499697  0.5189097539321319  0.4942026926700138
  0.1611633997148138  0.1437059564124519  0.0238958379942655
  0.9020954850432154  0.2350357812029666  0.6681706739441292
  0.1657600641441744  0.4265230725256189  0.5896600854396919
  0.8649145535272392  0.8375823252402250  0.3041531352226406
  0.0089056191280181  0.0739699831907354  0.7066430845132297
  0.7960366478528321  0.1119667093497531  0.5920404097310187
  0.6402137817737225  0.2208090801521851  0.2114630607488018
  0.0194688018930395  0.8592857068194379  0.2281475660641332
  0.5832226014162214  0.6472111634657411  0.6782212682307368
  0.3590062631191247  0.1029846570834015  0.4113381759427934
  0.9577565016945477  0.0842038016978141  0.4981920912659049
  0.8119194084464653  0.5047023415384042  0.6737277081474133
  0.6603652074482568  0.2951654599063084  0.4362562598242152
  0.1919832445682594  0.0591309873247075  0.6758318836094517
  0.3512628109851094  0.0312649082682439  0.2122610089946938
  0.9574150854898060  0.7090922656747355  0.4268436284554576
  0.2789671841029940  0.4984958117143464  0.8660183015725325
  0.8066360358017869  0.3864382343460538  0.3703993281486642
  0.3877422308549147  0.0685791297702459  0.7226379845742559
  0.9684779730707201  0.6320796894526913  0.7997539000451929
  0.9781630689220703  0.4320340704547799  0.0902859865894312
  0.5498063886701232  0.9129576106283337  0.4641179283236654
  0.1438282945242882  0.3353182714348445  0.8699512659218515
  0.7894762410706982  0.3367748214940606  0.7608354096436126
  0.7036606657646026  0.0518965316199956  0.1430322778892660
  0.3041479954155097  0.4469848882535817  0.0389505961856080
  0.1602028864227542  0.7079630230856900  0.8022277513426650
  0.3721740557445542  0.5184642292642820  0.4955406013325094
  0.4849844024993854  0.9037445057678506  0.6307298246211814
  0.6910768631987344  0.4076461783826810  0.9346374661253057
  0.7512274900842595  0.6873667291406179  0.2584637873724771
  0.1138513159722278  0.2419005765737924  0.6900985951836071
  0.9342588447926975  0.2517963127001107  0.0648101114247836
  0.7590320392233465  0.3121891095822203  0.2090430613163624
  0.0571403100813202  0.5449237760363391  0.2353024891419173
  0.8958097547178443  0.9948625899065542  0.3525613383298249
  0.2791687207562465  0.7568765905016589  0.4336631842436745
  0.6709587009039440  0.7413599990274012  0.8049573593854401
  0.2494400409944789  0.2097227442621458  0.1820582270170176
  0.8811174590424913  0.5764245120577227  0.1714766720371737
  0.5307557662825365  0.8569977813418664  0.0105799831667876
  0.3692479203922732  0.0182021294326850  0.0194571043286943
  0.8549882312369880  0.7928030581566107  0.1256826160448145
  0.3744852357501207  0.7474031155076111  0.6455543687182349
  0.8725156654039244  0.7668344976366789  0.6278436767793527
  0.6082110536858584  0.3422297403867055  0.7805297582247487
  0.4020519176456717  0.6681503956548189  0.2568984729154383
  0.1527637583201854  0.9025529514225042  0.3669888188426356
  0.9630217484565996  0.2557941243122019  0.4648377142143671
  0.6425180912962881  0.0967395250888020  0.4696511832381786
  0.0950886356711807  0.9855095276420244  0.5468071215834501
  0.8705578926263955  0.3607325573839244  0.2062464702677817
  0.2192623797653798  0.6693188318855168  0.2067448606785616
  0.6754509166134375  0.8535392800492614  0.3256766781027053
  0.5356438831169769  0.5044390061705315  0.5634671140596142
  0.1239615003672502  0.3491441135889657  0.4254231456786396
  0.8677792162391580  0.9595252667521259  0.6729280575140113
  0.5745055344560795  0.0286710536292860  0.0216366929603749
  0.0453783546859655  0.4648048228793472  0.7345273836059016
  0.3305557873632715  0.4231546341599676  0.3605692143970795
  0.2013184477552052  0.9767678909533966  0.0931851499765667
  0.0957555151601485  0.1338517000405360  0.8624489843565750
  0.2505746846624102  0.1673333733050808  0.8144898837782357
  0.8975967646135625  0.0813182122474918  0.1934702987366422
  0.0523150061302611  0.7375436928650300  0.6826312506624318
  0.5144811062981725  0.9937673579045943  0.3094078733395781
  0.1089768583652107  0.7096046918108522  0.3424467542752185
  0.6357888477855852  0.1943126156765973  0.9069084312091691
  0.4564822410730603  0.6942152072216774  0.4533461491900753
  0.7388004848610137  0.2627396303540979  0.0311230269084251
  0.9005870707884852  0.5904769275887146  0.9898465512736314
  0.9459195746233675  0.8872650328296657  0.4908209570815795
  0.1203176380620854  0.8986784446276750  0.7066898549372681
 
  0.00000000E+00  0.00000000E+00  0.00000000E+00
  0.00000000E+00  0.00000000E+00  0.00000000E+00
  0.00000000E+00  0.00000000E+00  0.00000000E+00
  0.00000000E+00  0.00000000E+00  0.00000000E+00
  0.00000000E+00  0.00000000E+00  0.00000000E+00
  0.00000000E+00  0.00000000E+00  0.00000000E+00
  0.00000000E+00  0.00000000E+00  0.00000000E+00
  0.00000000E+00  0.00000000E+00  0.00000000E+00
  0.00000000E+00  0.00000000E+00  0.00000000E+00
  0.00000000E+00  0.00000000E+00  0.00000000E+00
  0.00000000E+00  0.00000000E+00  0.00000000E+00
  0.00000000E+00  0.00000000E+00  0.00000000E+00
  0.00000000E+00  0.00000000E+00  0.00000000E+00
  0.00000000E+00  0.00000000E+00  0.00000000E+00
  0.00000000E+00  0.00000000E+00  0.00000000E+00
  0.00000000E+00  0.00000000E+00  0.00000000E+00
  0.00000000E+00  0.00000000E+00  0.00000000E+00
  0.00000000E+00  0.00000000E+00  0.00000000E+00
  0.00000000E+00  0.00000000E+00  0.00000000E+00
  0.00000000E+00  0.00000000E+00  0.00000000E+00
  0.00000000E+00  0.00000000E+00  0.00000000E+00
  0.00000000E+00  0.00000000E+00  0.00000000E+00
  0.00000000E+00  0.00000000E+00  0.00000000E+00
  0.00000000E+00  0.00000000E+00  0.00000000E+00
  0.00000000E+00  0.00000000E+00  0.00000000E+00
  0.00000000E+00  0.00000000E+00  0.00000000E+00
  0.00000000E+00  0.00000000E+00  0.00000000E+00
  0.00000000E+00  0.00000000E+00  0.00000000E+00
  0.00000000E+00  0.00000000E+00  0.00000000E+00
  0.00000000E+00  0.00000000E+00  0.00000000E+00
  0.00000000E+00  0.00000000E+00  0.00000000E+00
  0.00000000E+00  0.00000000E+00  0.00000000E+00
  0.00000000E+00  0.00000000E+00  0.00000000E+00
  0.00000000E+00  0.00000000E+00  0.00000000E+00
  0.00000000E+00  0.00000000E+00  0.00000000E+00
  0.00000000E+00  0.00000000E+00  0.00000000E+00
  0.00000000E+00  0.00000000E+00  0.00000000E+00
  0.00000000E+00  0.00000000E+00  0.00000000E+00
  0.00000000E+00  0.00000000E+00  0.00000000E+00
  0.00000000E+00  0.00000000E+00  0.00000000E+00
  0.00000000E+00  0.00000000E+00  0.00000000E+00
  0.00000000E+00  0.00000000E+00  0.00000000E+00
  0.00000000E+00  0.00000000E+00  0.00000000E+00
  0.00000000E+00  0.00000000E+00  0.00000000E+00
  0.00000000E+00  0.00000000E+00  0.00000000E+00
  0.00000000E+00  0.00000000E+00  0.00000000E+00
  0.00000000E+00  0.00000000E+00  0.00000000E+00
  0.00000000E+00  0.00000000E+00  0.00000000E+00
  0.00000000E+00  0.00000000E+00  0.00000000E+00
  0.00000000E+00  0.00000000E+00  0.00000000E+00
  0.00000000E+00  0.00000000E+00  0.00000000E+00
  0.00000000E+00  0.00000000E+00  0.00000000E+00
  0.00000000E+00  0.00000000E+00  0.00000000E+00
  0.00000000E+00  0.00000000E+00  0.00000000E+00
  0.00000000E+00  0.00000000E+00  0.00000000E+00
  0.00000000E+00  0.00000000E+00  0.00000000E+00
  0.00000000E+00  0.00000000E+00  0.00000000E+00
  0.00000000E+00  0.00000000E+00  0.00000000E+00
  0.00000000E+00  0.00000000E+00  0.00000000E+00
  0.00000000E+00  0.00000000E+00  0.00000000E+00
  0.00000000E+00  0.00000000E+00  0.00000000E+00
  0.00000000E+00  0.00000000E+00  0.00000000E+00
  0.00000000E+00  0.00000000E+00  0.00000000E+00
  0.00000000E+00  0.00000000E+00  0.00000000E+00
  0.00000000E+00  0.00000000E+00  0.00000000E+00
  0.00000000E+00  0.00000000E+00  0.00000000E+00
  0.00000000E+00  0.00000000E+00  0.00000000E+00
  0.00000000E+00  0.00000000E+00  0.00000000E+00
  0.00000000E+00  0.00000000E+00  0.00000000E+00
  0.00000000E+00  0.00000000E+00  0.00000000E+00
  0.00000000E+00  0.00000000E+00  0.00000000E+00
  0.00000000E+00  0.00000000E+00  0.00000000E+00
  0.00000000E+00  0.00000000E+00  0.00000000E+00
  0.00000000E+00  0.00000000E+00  0.00000000E+00
  0.00000000E+00  0.00000000E+00  0.00000000E+00
  0.00000000E+00  0.00000000E+00  0.00000000E+00
  0.00000000E+00  0.00000000E+00  0.00000000E+00
  0.00000000E+00  0.00000000E+00  0.00000000E+00
  0.00000000E+00  0.00000000E+00  0.00000000E+00
  0.00000000E+00  0.00000000E+00  0.00000000E+00
  0.00000000E+00  0.00000000E+00  0.00000000E+00
  0.00000000E+00  0.00000000E+00  0.00000000E+00
  0.00000000E+00  0.00000000E+00  0.00000000E+00
  0.00000000E+00  0.00000000E+00  0.00000000E+00
  0.00000000E+00  0.00000000E+00  0.00000000E+00
  0.00000000E+00  0.00000000E+00  0.00000000E+00
  0.00000000E+00  0.00000000E+00  0.00000000E+00
  0.00000000E+00  0.00000000E+00  0.00000000E+00
  0.00000000E+00  0.00000000E+00  0.00000000E+00
  0.00000000E+00  0.00000000E+00  0.00000000E+00
  0.00000000E+00  0.00000000E+00  0.00000000E+00
  0.00000000E+00  0.00000000E+00  0.00000000E+00
  0.00000000E+00  0.00000000E+00  0.00000000E+00
  0.00000000E+00  0.00000000E+00  0.00000000E+00
  0.00000000E+00  0.00000000E+00  0.00000000E+00
  0.00000000E+00  0.00000000E+00  0.00000000E+00
  0.00000000E+00  0.00000000E+00  0.00000000E+00
  0.00000000E+00  0.00000000E+00  0.00000000E+00
  0.00000000E+00  0.00000000E+00  0.00000000E+00
  0.00000000E+00  0.00000000E+00  0.00000000E+00
  0.00000000E+00  0.00000000E+00  0.00000000E+00
  0.00000000E+00  0.00000000E+00  0.00000000E+00
  0.00000000E+00  0.00000000E+00  0.00000000E+00
  0.00000000E+00  0.00000000E+00  0.00000000E+00
  0.00000000E+00  0.00000000E+00  0.00000000E+00
  0.00000000E+00  0.00000000E+00  0.00000000E+00
  0.00000000E+00  0.00000000E+00  0.00000000E+00
  0.00000000E+00  0.00000000E+00  0.00000000E+00
  0.00000000E+00  0.00000000E+00  0.00000000E+00
  0.00000000E+00  0.00000000E+00  0.00000000E+00
  0.00000000E+00  0.00000000E+00  0.00000000E+00
  0.00000000E+00  0.00000000E+00  0.00000000E+00
  0.00000000E+00  0.00000000E+00  0.00000000E+00
  0.00000000E+00  0.00000000E+00  0.00000000E+00
  0.00000000E+00  0.00000000E+00  0.00000000E+00
  0.00000000E+00  0.00000000E+00  0.00000000E+00
  0.00000000E+00  0.00000000E+00  0.00000000E+00
  0.00000000E+00  0.00000000E+00  0.00000000E+00
  0.00000000E+00  0.00000000E+00  0.00000000E+00
  0.00000000E+00  0.00000000E+00  0.00000000E+00
  0.00000000E+00  0.00000000E+00  0.00000000E+00
  0.00000000E+00  0.00000000E+00  0.00000000E+00
  0.00000000E+00  0.00000000E+00  0.00000000E+00
  0.00000000E+00  0.00000000E+00  0.00000000E+00
  0.00000000E+00  0.00000000E+00  0.00000000E+00
  0.00000000E+00  0.00000000E+00  0.00000000E+00
  0.00000000E+00  0.00000000E+00  0.00000000E+00
  0.00000000E+00  0.00000000E+00  0.00000000E+00
  0.00000000E+00  0.00000000E+00  0.00000000E+00
  0.00000000E+00  0.00000000E+00  0.00000000E+00
  0.00000000E+00  0.00000000E+00  0.00000000E+00
  0.00000000E+00  0.00000000E+00  0.00000000E+00
  0.00000000E+00  0.00000000E+00  0.00000000E+00
  0.00000000E+00  0.00000000E+00  0.00000000E+00
  0.00000000E+00  0.00000000E+00  0.00000000E+00
  0.00000000E+00  0.00000000E+00  0.00000000E+00
  0.00000000E+00  0.00000000E+00  0.00000000E+00
  0.00000000E+00  0.00000000E+00  0.00000000E+00
  0.00000000E+00  0.00000000E+00  0.00000000E+00
  0.00000000E+00  0.00000000E+00  0.00000000E+00
  0.00000000E+00  0.00000000E+00  0.00000000E+00
  0.00000000E+00  0.00000000E+00  0.00000000E+00
  0.00000000E+00  0.00000000E+00  0.00000000E+00
  0.00000000E+00  0.00000000E+00  0.00000000E+00
  0.00000000E+00  0.00000000E+00  0.00000000E+00
  0.00000000E+00  0.00000000E+00  0.00000000E+00
  0.00000000E+00  0.00000000E+00  0.00000000E+00
  0.00000000E+00  0.00000000E+00  0.00000000E+00
  0.00000000E+00  0.00000000E+00  0.00000000E+00
  0.00000000E+00  0.00000000E+00  0.00000000E+00
  0.00000000E+00  0.00000000E+00  0.00000000E+00
  0.00000000E+00  0.00000000E+00  0.00000000E+00
  0.00000000E+00  0.00000000E+00  0.00000000E+00
  0.00000000E+00  0.00000000E+00  0.00000000E+00
  0.00000000E+00  0.00000000E+00  0.00000000E+00
  0.00000000E+00  0.00000000E+00  0.00000000E+00
  0.00000000E+00  0.00000000E+00  0.00000000E+00
  0.00000000E+00  0.00000000E+00  0.00000000E+00
  0.00000000E+00  0.00000000E+00  0.00000000E+00
  0.00000000E+00  0.00000000E+00  0.00000000E+00
  0.00000000E+00  0.00000000E+00  0.00000000E+00
  0.00000000E+00  0.00000000E+00  0.00000000E+00
  0.00000000E+00  0.00000000E+00  0.00000000E+00
  0.00000000E+00  0.00000000E+00  0.00000000E+00
  0.00000000E+00  0.00000000E+00  0.00000000E+00
  0.00000000E+00  0.00000000E+00  0.00000000E+00
  0.00000000E+00  0.00000000E+00  0.00000000E+00
  0.00000000E+00  0.00000000E+00  0.00000000E+00
  0.00000000E+00  0.00000000E+00  0.00000000E+00
  0.00000000E+00  0.00000000E+00  0.00000000E+00
  0.00000000E+00  0.00000000E+00  0.00000000E+00
  0.00000000E+00  0.00000000E+00  0.00000000E+00
  0.00000000E+00  0.00000000E+00  0.00000000E+00
  0.00000000E+00  0.00000000E+00  0.00000000E+00
  0.00000000E+00  0.00000000E+00  0.00000000E+00
  0.00000000E+00  0.00000000E+00  0.00000000E+00
  0.00000000E+00  0.00000000E+00  0.00000000E+00
  0.00000000E+00  0.00000000E+00  0.00000000E+00
  0.00000000E+00  0.00000000E+00  0.00000000E+00
  0.00000000E+00  0.00000000E+00  0.00000000E+00
  0.00000000E+00  0.00000000E+00  0.00000000E+00
  0.00000000E+00  0.00000000E+00  0.00000000E+00
  0.00000000E+00  0.00000000E+00  0.00000000E+00
  0.00000000E+00  0.00000000E+00  0.00000000E+00
  0.00000000E+00  0.00000000E+00  0.00000000E+00
  0.00000000E+00  0.00000000E+00  0.00000000E+00
  0.00000000E+00  0.00000000E+00  0.00000000E+00
  0.00000000E+00  0.00000000E+00  0.00000000E+00
  0.00000000E+00  0.00000000E+00  0.00000000E+00
  0.00000000E+00  0.00000000E+00  0.00000000E+00
  0.00000000E+00  0.00000000E+00  0.00000000E+00
  0.00000000E+00  0.00000000E+00  0.00000000E+00
  0.00000000E+00  0.00000000E+00  0.00000000E+00
  0.00000000E+00  0.00000000E+00  0.00000000E+00
  0.00000000E+00  0.00000000E+00  0.00000000E+00
  0.00000000E+00  0.00000000E+00  0.00000000E+00
  0.00000000E+00  0.00000000E+00  0.00000000E+00
  0.00000000E+00  0.00000000E+00  0.00000000E+00
  0.00000000E+00  0.00000000E+00  0.00000000E+00
  0.00000000E+00  0.00000000E+00  0.00000000E+00
  0.00000000E+00  0.00000000E+00  0.00000000E+00
  0.00000000E+00  0.00000000E+00  0.00000000E+00
  0.00000000E+00  0.00000000E+00  0.00000000E+00
  0.00000000E+00  0.00000000E+00  0.00000000E+00
  0.00000000E+00  0.00000000E+00  0.00000000E+00
  0.00000000E+00  0.00000000E+00  0.00000000E+00
  0.00000000E+00  0.00000000E+00  0.00000000E+00
  0.00000000E+00  0.00000000E+00  0.00000000E+00
  0.00000000E+00  0.00000000E+00  0.00000000E+00
  0.00000000E+00  0.00000000E+00  0.00000000E+00
  0.00000000E+00  0.00000000E+00  0.00000000E+00
  0.00000000E+00  0.00000000E+00  0.00000000E+00
  0.00000000E+00  0.00000000E+00  0.00000000E+00
  0.00000000E+00  0.00000000E+00  0.00000000E+00
  0.00000000E+00  0.00000000E+00  0.00000000E+00
  0.00000000E+00  0.00000000E+00  0.00000000E+00
  0.00000000E+00  0.00000000E+00  0.00000000E+00
  0.00000000E+00  0.00000000E+00  0.00000000E+00
  0.00000000E+00  0.00000000E+00  0.00000000E+00
  0.00000000E+00  0.00000000E+00  0.00000000E+00
  0.00000000E+00  0.00000000E+00  0.00000000E+00
  0.00000000E+00  0.00000000E+00  0.00000000E+00
  0.00000000E+00  0.00000000E+00  0.00000000E+00
  0.00000000E+00  0.00000000E+00  0.00000000E+00
  0.00000000E+00  0.00000000E+00  0.00000000E+00
  0.00000000E+00  0.00000000E+00  0.00000000E+00
  0.00000000E+00  0.00000000E+00  0.00000000E+00
  0.00000000E+00  0.00000000E+00  0.00000000E+00
  0.00000000E+00  0.00000000E+00  0.00000000E+00
  0.00000000E+00  0.00000000E+00  0.00000000E+00
  0.00000000E+00  0.00000000E+00  0.00000000E+00
  0.00000000E+00  0.00000000E+00  0.00000000E+00