Amorphous Sb                            
   1.00000000000000     
    20.8671579077798057    0.0000000000000000    0.0000000000000000
     0.0000000000000000   20.8671579077798057    0.0000000000000000
     0.0000000000000000    0.0000000000000000   20.8671579077798057
   In   Sb
    45   255
Direct
  0.8633019117051565  0.3766083104074169  0.7134896226757035
  0.4668047979862503  0.4180658864916261  0.3866397236246025
  0.6053115051038181  0.1400321651341868  0.2872835869957405
  0.1557383470912987  0.4841635132814919  0.4612340614107497
  0.8098074881180463  0.8056848539658433  0.0930492101257231
  0.4824783101667885  0.8997653769662232  0.4107524079190231
  0.1798566275305103  0.8872620646384447  0.6662850824386617
  0.4457828662419243  0.3271677931107288  0.0242452854487228
  0.8861577643751223  0.4262998589085009  0.3999811266332501
  0.8250841178248698  0.5266816938632578  0.9845196334063556
  0.0769078646047767  0.6713378161372291  0.0150830806176349
  0.2163628577239930  0.0097285171781940  0.0459313179149027
  0.7145672713321913  0.3157528688111060  0.7002658578644397
  0.2655312346506964  0.3420934075537568  0.0453544464669873
  0.5210208361578142  0.5834211691244690  0.1770581657202137
  0.1110507505144922  0.2383051021177473  0.8371578813682042
  0.5024958353553990  0.8749597772467551  0.1306762785509545
  0.1530850353936088  0.3210358043762527  0.6764143482760108
  0.9484294755988040  0.9160537885182720  0.0885218414623694
  0.6153578365882857  0.9839530308787904  0.7289751378741658
  0.9658389222953128  0.2984341283321295  0.8978868899165325
  0.9250771439015133  0.3300335123556576  0.5144562405810549
  0.3209876965431075  0.2732391943304335  0.3851221106706020
  0.4604953562483202  0.0591401917768489  0.1635000278087079
  0.3072612683280959  0.6692900011653742  0.3512204635716125
  0.7638380397358187  0.9010712313810869  0.5828521877978849
  0.8264126620051323  0.6687994977207922  0.3635182876112451
  0.8043279753814234  0.2909061066573768  0.3800709522393723
  0.6014954124091758  0.2533841331428426  0.8867502522328330
  0.5163699843796573  0.9958552805055818  0.5128013354347594
  0.1075738127533531  0.3141053400212033  0.9725948560798220
  0.6841052069922031  0.6980038913849298  0.1942507562740398
  0.4132824623832518  0.0534677097394449  0.5913726338069710
  0.5383771791519008  0.3967358301162245  0.7061787683269179
  0.6198480686232185  0.2666051260736634  0.3944855535360550
  0.4109225660094944  0.7589082876139635  0.4330242605995078
  0.5589531300114717  0.4178306997286023  0.1227645443155931
  0.5608004451634305  0.7712720086278325  0.3962871884206225
  0.3282263683123107  0.6794945450451361  0.5643983637771136
  0.3851774219057549  0.1337989244518926  0.4379559505851316
  0.2584471553465050  0.5641836724447422  0.8126033383743809
  0.4614378716771665  0.5898719523944400  0.4263347969664976
  0.7373807019404202  0.6474535011749167  0.0633163753782529
  0.8165963129684577  0.6103467988242557  0.1857760457585262
  0.8806180106990134  0.2742531825482080  0.0739127350993883
  0.7347806403510585  0.5628615415970750  0.5021838054517703
  0.1311690784034207  0.3921484749014829  0.1044154332854377
  0.0840803833250011  0.0096976853303530  0.6965852846381047
  0.5094418787928657  0.4527434239971631  0.9742020390148766
  0.8400663505543869  0.1164311604741701  0.8723004631576481
  0.0805147229305331  0.8491784233016628  0.5244734691571296
  0.6401180445382936  0.1291705295948660  0.1409445314516756
  0.5185851013881505  0.0880038515326281  0.3934751056038827
  0.6931307025932639  0.1952695787214448  0.7944566282983869
  0.2294056952035136  0.8350194598756613  0.9335100594314212
  0.7061483646281523  0.2666651684659434  0.2083234981580565
  0.8069195139308113  0.2648499949785763  0.8576821008173587
  0.9555403751752301  0.8463095513009822  0.9306478746809720
  0.2525678644341050  0.1883140612189405  0.4857980294423775
  0.2423505250380161  0.6026696897735465  0.4760654739979024
  0.5703912666507756  0.2822013364109006  0.2522242918496862
  0.8249081622372098  0.9015410884370740  0.2166984056628547
  0.2918408551473969  0.1286727168810093  0.6197368649308599
  0.1443106362398412  0.1966227441253513  0.3202128055440149
  0.9293939050999694  0.7423568977737345  0.6239953868912740
  0.9408289654471024  0.0848496811879463  0.5428257670359372
  0.0357241549656473  0.1378685000289052  0.7356114486994157
  0.8071427277925967  0.0462852132621599  0.5732264767084762
  0.3394297332402844  0.7803699331236145  0.7367404489118305
  0.8477517615257874  0.6455888636472686  0.5066172923930734
  0.9468331678783096  0.6047812760613661  0.1336430581576347
  0.2539900556996548  0.2239418628147813  0.8648142835675470
  0.5310745504047766  0.2329395792351484  0.1054526020996419
  0.3354058352117388  0.3901473028382950  0.7615107893160306
  0.1552624330193253  0.7172042214928606  0.4745699026900946
  0.4674620679574750  0.2744543570609947  0.8403150409242606
  0.9341308409957571  0.9503935172947108  0.8298694623248709
  0.1414531983105024  0.1160987827918990  0.2037649654684660
  0.1056708642157421  0.7054457997831102  0.3415986437664559
  0.5166729335546997  0.7920374301609058  0.5587424820792749
  0.8949255769387219  0.3546067470022585  0.2654693150973572
  0.2107836946788858  0.2210766524897941  0.0973288449434663
  0.5437709820507564  0.8459051537614304  0.2706333825447929
  0.7349475002170468  0.5358733012047399  0.3580033702971115
  0.6169236878910375  0.1210295172942490  0.6868717674226757
  0.2701330971882166  0.2450373288261209  0.2562857715111930
  0.3157796937649134  0.6420650361010214  0.7033941567397102
  0.2443040281739723  0.0017543029331300  0.5872853238757617
  0.0936522784857098 -0.0016453690572761  0.2615252946228661
  0.3799704431278487  0.8217050689084665  0.9763864466630026
  0.3796284828785823  0.7194045546734275  0.8654640965259505
  0.3291658781851561  0.1091553968090721  0.3026820357073631
 -0.0050687802410315  0.4744378557141696  0.6965837271765750
  0.4445220642416608  0.9344590848794179  0.6737496916921391
  0.8233819302186149  0.7625514075148688  0.8907508324136579
  0.8834540362244985  0.0805372763505640  0.7387977448780929
  0.4007989214802775  0.8188029941040718  0.2943686935509042
  0.9313487999804246  0.8667506124029221  0.3641353972476923
  0.1596330759739354  0.5377221801440700  0.9257219707799582
  0.3178238868087523  0.2543318241753826  0.7211475526705629
  0.5728122397091963  0.4985002378338742  0.4429086085805011
  0.8283827862500113  0.2647325149944102  0.6179910682327485
  0.2654954163655132  0.8003247300030045  0.4452410157502169
  0.6535127129082215  0.4297654418210786  0.9701878045807411
  0.4570334790423611  0.2527499321263524  0.6979313604758097
  0.4531406748505399  0.1674674442305195  0.2580198356035598
  0.6649403854950109  0.8209587318540158  0.0962514957504319
  0.6782802780396795  0.6908395250539173  0.3434776406701491
  0.7559340584848229  0.3934877628322189  0.8153179288569613
  0.0439404746676929  0.4559376600518906  0.3794436691727308
  0.8672152779383170  0.6921335205813794  0.0061040447297360
  0.6467609371547749  0.7612703974361957  0.6340564765059415
  0.0616768085012392  0.5809457335916549  0.2104429225859748
  0.9667829458702983  0.9316917333405962  0.5385407726935406
  0.1133917273969711  0.8195509658227538  0.2494804590535681
  0.1080840772152314  0.7073592651398554  0.1608500064036799
  0.9067437721133779  0.7346253151322832  0.7818240153808215
  0.1084805170884284  0.4705090010812478  0.5970064123228975
  0.4608547559158119  0.2763893027373566  0.3663329376219039
  0.6319056735266997  0.6632447625214413  0.4758311269328263
  0.0687397745962753  0.8774885543074749  0.3878317015826080
  0.2726668256552222  0.3122921459390256  0.5900378124545576
  0.2191215082965475 -0.0023068713002642  0.8964181040363627
  0.3855383015738598  0.2525143099495793  0.1699529987123831
  0.8038355193799677  0.0268965318908606  0.2919823773570297
  0.2794296232862704  0.8311310145360639  0.1356602458386084
  0.2065290118085615  0.1053499975619200  0.8027862340256017
 -0.0026735253946705  0.7363335361681832  0.4984959543927563
  0.8627826950112857  0.2298595494166312  0.2036899451782436
  0.2098521018640061  0.9275030017597563  0.4297163738066696
  0.0788986494989350  0.0752970785244597  0.0677386472704249
  0.5131440457119709  0.9868566246787916  0.2891667427367603
  0.5898977209302457  0.5796362142059630  0.3121158144562879
  0.2543370580963187  0.3819134741150819  0.4567630666635009
  0.3535825456814836  0.4961584654560758  0.4305900773181957
  0.9394435358997638  0.5404872966149904  0.4835747348099132
  0.4784350379277176  0.7961934346967721  0.6954992954874001
  0.8805838835479020  0.1928690695538232  0.4734219301333821
  0.9473045905168963  0.1879857756907490 -0.0157946821449072
  0.7163079047361576  0.2380378679438270  0.9810471665156271
  0.8364546154924406  0.8377641327687743  0.7080144303078635
  0.7170967946922547  0.5628779477138190  0.6504830437288809
  0.5195461677007437  0.8262685718510593 -0.0076481152612976
  0.4930753545975656  0.9385303882594740  0.8218620398552995
 -0.0100067940228878  0.1983121429662725  0.6182259489258682
  0.3858697286446015  0.0756530515645968  0.8933403643116502
  0.4773758274639029  0.6744826369848548  0.3138267316355564
  0.2447513286517514  0.6995688489616774  0.0463507964707610
  0.9219338355610003  0.4641043095105640  0.1737713377715383
  0.4020389315783147  0.5769380509216117  0.8647737787993173
  0.6606973572630549  0.9972030797866898  0.2682149490653764
  0.4016745448530212  0.7442684906118699  0.1599204663577049
  0.0738802706614910 -0.0013189139376035  0.8568751462987408
  0.0874537656366898  0.6812679389309069  0.8638881152738078
  0.6658052695794804  0.1012113597507746 -0.0014720077856145
  0.2564195787160194  0.8013342727149143  0.2728232475555555
  0.8768007001298199  0.4141768078558271  0.9083897249196721
 -0.0448252167142756  0.5773633094559885  0.9850934481026601
  0.9662187778254230  0.7279113768397028  0.3504258828907136
  0.9119852257515589  0.0242323119202744  0.9480215144510036
  0.6134691950679464  0.2570584319082999  0.6126010089272836
  0.0557950518473434  0.4982036900093362  0.8328541051144599
  0.0389214915154429  0.8170945713069995  0.6697523884842582
  0.3847716504810113  0.6871780524841894  0.0298037963634783
  0.8762026450780857  0.5115908191555077  0.7795580416195658
  0.9645867974025920  0.9373010089600451  0.6808512399680720
  0.6996948020704703  0.3984925655848502  0.3794004862733072
  0.3233090133072907  0.3881998015025851  0.9222553121078015
  0.1265852780998619  0.5976104880619005  0.7538070876735674
  0.5843969319289015  0.5315969544649424  0.7844049474575032
  0.9111223433420136  0.1460979175637061  0.3446397569387937
  0.0748686517806570  0.0233675857961669  0.3998580508226917
  0.9540489462251706  0.0244558540648069  0.2474447646576039
  0.5998354666945256  0.7839968190231844  0.7789949324166845
 -0.0009738178335452  0.5839160719139884  0.3414188963265927
  0.0545765144319054  0.5917959774846616  0.5474991941106769
  0.7887447543294230 -0.0356079580921341  0.4259567081768457
  0.5903211373242384  0.6247378323696930  0.6189792167008382
  0.3845886087516216  0.3874478393296982  0.6274055690565897
  0.5661460823513870  0.3574520565413864  0.5199352662149499
  0.1880817767964737  0.5686885771984003  0.3128918269746052
  0.6535929110180697  0.0118157863951746  0.4199967031571644
  0.2738395325453979  0.0550293385109140  0.1803282854490541
  0.5978520065963123  0.4216058482401900  0.2655498752333070
  0.1864044813352758  0.4055157855302300  0.8837441594662157
  0.7667304522826479  0.4213474019547046  0.5148365126441969
  0.0364495684202686  0.3094803833956957  0.2505847534892672
  0.0298668760210858  0.8002934383539806  0.8135990007307967
  0.9295800821898691  0.0159276886113336  0.4041182107273401
  0.0647978960329853  0.3367257183982422  0.5659481825669683
  0.4254244687839341  0.5302559184302466  0.0653333343025250
  0.7687214251433783  0.7145776444588222  0.6938703535077938
  0.0042898433678037  0.4331491700044569  0.9705646280410449
  0.2099225566063451  0.0924441551234842  0.3882506023148774
  0.3505410882108167  0.9536055690161364  0.0304604225085979
 -0.0103477652968056  0.3700591412137745  0.0958797440832351
  0.5357721294393215  0.4855716806014280  0.5810754596104880
  0.7942425100609052  0.9013174836789891  0.8261591831037429
  0.4649978793007571  0.4745272663133960  0.2556874263055628
  0.1095917204323953  0.1617403271749431  0.5488099942954628
  0.0517337819097178  0.2158693188959320  0.0777343705055545
  0.3984156489178827  0.8809697072641005  0.5420771739829593
  0.6879495942653621  0.8610387156888759  0.2513083232766751
  0.4050194649977173  0.4125666500481864  0.1419172493889121
  0.1626245866695077  0.1761015020442760  0.6808389739879535
  0.3727377296149748  0.9391654677598353  0.1691948736805586
  0.6969074427912432  0.5598703100403445  0.9385709828544276
  0.5770168273196170  0.1696446058153595  0.5027978052434922
  0.6430129486087450  0.0490201011958810  0.5622357261051775
  0.5126136629271268  0.6450781489991038  0.7341625520388806
  0.7243353735064311  0.5526318529102332  0.7991959514562258
  0.0054907190786343  0.6194087468498297  0.6755782250958042
  0.2135078057611076  0.5770526794310465  0.6207892775256795
  0.3174740671479473  0.9406959023167767  0.7342371184090742
  0.7647605410972508  0.0026888484731675  0.7325981539423414
  0.7252980029266680  0.2714910817916085  0.5233696620931534
  0.7812799801582134  0.1111188138920344  0.1681368872890188
  0.5407340142785670  0.5806674434671685  0.9099690156736917
  0.1078681574776788  0.0212486420615368  0.5568436790968756
 -0.0057116373646929  0.1741012733457695  0.2014800156727838
  0.7393481232699023  0.1693109375752497  0.3322911635221110
  0.5518562282095496  0.9571797730081839  0.9514903122623523
  0.1038523419272570  0.4360985777041816  0.2516239720406539
  0.2056607926419792  0.4373186647737626  0.7480719482901164
  0.4649394395299938  0.6613100461384855  0.5487227431422469
  0.3212552909107133  0.5210693608513233  0.9683620009561510
  0.2006524436221937  0.7542107182168495  0.7607178941191680
  0.8338154055214427  0.9113160368586140 -0.0173210340624940
  0.4168655328792344  0.5450951694951897  0.7163388630525496
  0.8044425712202586  0.1331590288963456  0.0272470190275779
  0.0144729017728118  0.3105074263089456  0.3886660611214584
  0.1200831807404248  0.8252534655565357  0.0228557736329265
  0.2646301672227483  0.4293665860862064  0.1637908194001928
  0.9607664610177251  0.6030731851282238  0.8465904739316762
  0.7265263220707040  0.7548610988422315  0.5179961821395752
  0.5221240614420481  0.7283141402261706  0.8833232640127001
  0.4618084503391174  0.4139334429969909  0.8420782734462442
  0.7947742421415117  0.4691793734712653  0.1100889941692167
  0.5435210062600551  0.7276000489898908  0.1695084288300004
  0.1130930539197557  0.5257454143080394  0.0631990934859207
  0.5296002879978439  0.1699213999552486  0.9775451569161020
  0.7106583697574830  0.0684858206933361  0.8534811291389552
  0.3541245766972891  0.9364153915404461  0.8720940634478140
  0.6314730492093964  0.5472416416994208  0.0839586365313470
  0.6502901649663322  0.8688699426052920  0.4579765828002628
  0.3710635858839286  0.9651068884137954  0.3250260421210165
  0.3941653718796145  0.5173444365355842  0.5764206796909401
  0.4319756047931197  0.3213434758355972  0.5032388475046641
  0.8189199291870670  0.7458505252895923  0.2346116295592201
  0.9415897364551620  0.0692093213781834  0.1100933120883885
  0.0486390105199043  0.9385768826816556  0.9828684651094640
  0.3302562967533150  0.9935294115722301  0.4726384323213257
  0.8898462610870372  0.4574080152019347  0.5928486838203822
  0.4790208364182173  0.1147889472884018  0.7091790452513342
  0.0325009416157544  0.3435616405064215  0.7757062496958731
  0.6811095493470276  0.9517069850580140  0.0343719542807237
  0.4570994948733456  0.0433284860143474  0.0155188647116158
  0.0335158705070676  0.1680211346246376  0.4079043906422682
  0.6905943525740620  0.5400274382815641  0.2161925428067506
  0.2276012406629669  0.3789113314709866  0.2955473031610738
  0.7440795053415450  0.1378664646878348  0.4724706047372209
  0.1562117817294910  0.7070572827433413  0.6308640522098500
  0.1642809018372372  0.8852846929023818  0.8187204259816153
  0.2310686085505765  0.6528034518769186  0.2078012839279623
  0.5158954939903219  0.0773450261455931  0.8393670554201010
  0.9743657202781243  0.7702717450832552  0.0574412256363915
  0.8009360969426728 -0.0155362721758388  0.1053813286041803
  0.7555332092385201  0.8340807453633012  0.3711164753356775
  0.1413544839646010  0.2940639598648072  0.4548098636337491
  0.6491626046511739  0.3064600396019979  0.0849417618898337
  0.9737885124828153  0.8802757954911663  0.2270514276848642
  0.5955835794521042 -0.0061186977446632  0.1367960737362479
  0.7948443811927945  0.3649793743085531  0.0136155995438275
  0.0761569193859156  0.1236964270828543  0.9302341823667745
  0.7525901211684591  0.3961897209467424  0.2447424664109167
  0.7145712904180782  0.6960367033537730  0.8204067045946509
  0.9224922130376667  0.2525722238679339  0.7604222396150915
  0.6609436713891975  0.7385134038344983  0.9832768752480838
  0.3095468860396511  0.4987999750622521  0.2946982540219368
  0.2817647206986535  0.8104983988178227  0.5864816711274738
  0.6137913203691644  0.9123517518237018  0.6057141273607548
  0.4489343787043114  0.1940484719372463  0.5555325630685175
  0.2343283934327702  0.9405704656247112  0.2934892599904729
  0.3930916344183365  0.2154649097322223  0.9427330508296857
  0.2107183861794077  0.1458415378393084  0.9768076927330843
  0.3813892247560418  0.6187413661386101  0.2223015651473696
  0.5539643608861858  0.6670825869571604  0.0378145248826470
  0.7773722162768749  0.1450889954093079  0.6703620176799656
  0.3325361242820684  0.0819956443779025  0.7506817277108505
  0.9551927682175467  0.7365394532905211  0.2035001117951352
  0.2446797205904444  0.5626944416578864  0.0978386679674522
  0.3340888244609602  0.1492155257821308  0.0911512680647736
  0.6431471345204324  0.9018236769302297  0.8393744938088574
  0.6160662825972870  0.3866433258374708  0.8412596791080100
  0.8821732425514432  0.8253131539414322  0.5113344322935213
  0.1575291788240732  0.9030422594854077  0.1307658616830953
  0.2286523134832038  0.6994548205332148  0.9003729311912736
  0.8605245053279804  0.5804704522382352  0.6560967528181603
  0.8672351303045595  0.5376706026157604  0.3024340760441370
  0.6781326485416614  0.4330651305128574  0.6228807029628712
 
  0.00000000E+00  0.00000000E+00  0.00000000E+00
  0.00000000E+00  0.00000000E+00  0.00000000E+00
  0.00000000E+00  0.00000000E+00  0.00000000E+00
  0.00000000E+00  0.00000000E+00  0.00000000E+00
  0.00000000E+00  0.00000000E+00  0.00000000E+00
  0.00000000E+00  0.00000000E+00  0.00000000E+00
  0.00000000E+00  0.00000000E+00  0.00000000E+00
  0.00000000E+00  0.00000000E+00  0.00000000E+00
  0.00000000E+00  0.00000000E+00  0.00000000E+00
  0.00000000E+00  0.00000000E+00  0.00000000E+00
  0.00000000E+00  0.00000000E+00  0.00000000E+00
  0.00000000E+00  0.00000000E+00  0.00000000E+00
  0.00000000E+00  0.00000000E+00  0.00000000E+00
  0.00000000E+00  0.00000000E+00  0.00000000E+00
  0.00000000E+00  0.00000000E+00  0.00000000E+00
  0.00000000E+00  0.00000000E+00  0.00000000E+00
  0.00000000E+00  0.00000000E+00  0.00000000E+00
  0.00000000E+00  0.00000000E+00  0.00000000E+00
  0.00000000E+00  0.00000000E+00  0.00000000E+00
  0.00000000E+00  0.00000000E+00  0.00000000E+00
  0.00000000E+00  0.00000000E+00  0.00000000E+00
  0.00000000E+00  0.00000000E+00  0.00000000E+00
  0.00000000E+00  0.00000000E+00  0.00000000E+00
  0.00000000E+00  0.00000000E+00  0.00000000E+00
  0.00000000E+00  0.00000000E+00  0.00000000E+00
  0.00000000E+00  0.00000000E+00  0.00000000E+00
  0.00000000E+00  0.00000000E+00  0.00000000E+00
  0.00000000E+00  0.00000000E+00  0.00000000E+00
  0.00000000E+00  0.00000000E+00  0.00000000E+00
  0.00000000E+00  0.00000000E+00  0.00000000E+00
  0.00000000E+00  0.00000000E+00  0.00000000E+00
  0.00000000E+00  0.00000000E+00  0.00000000E+00
  0.00000000E+00  0.00000000E+00  0.00000000E+00
  0.00000000E+00  0.00000000E+00  0.00000000E+00
  0.00000000E+00  0.00000000E+00  0.00000000E+00
  0.00000000E+00  0.00000000E+00  0.00000000E+00
  0.00000000E+00  0.00000000E+00  0.00000000E+00
  0.00000000E+00  0.00000000E+00  0.00000000E+00
  0.00000000E+00  0.00000000E+00  0.00000000E+00
  0.00000000E+00  0.00000000E+00  0.00000000E+00
  0.00000000E+00  0.00000000E+00  0.00000000E+00
  0.00000000E+00  0.00000000E+00  0.00000000E+00
  0.00000000E+00  0.00000000E+00  0.00000000E+00
  0.00000000E+00  0.00000000E+00  0.00000000E+00
  0.00000000E+00  0.00000000E+00  0.00000000E+00
  0.00000000E+00  0.00000000E+00  0.00000000E+00
  0.00000000E+00  0.00000000E+00  0.00000000E+00
  0.00000000E+00  0.00000000E+00  0.00000000E+00
  0.00000000E+00  0.00000000E+00  0.00000000E+00
  0.00000000E+00  0.00000000E+00  0.00000000E+00
  0.00000000E+00  0.00000000E+00  0.00000000E+00
  0.00000000E+00  0.00000000E+00  0.00000000E+00
  0.00000000E+00  0.00000000E+00  0.00000000E+00
  0.00000000E+00  0.00000000E+00  0.00000000E+00
  0.00000000E+00  0.00000000E+00  0.00000000E+00
  0.00000000E+00  0.00000000E+00  0.00000000E+00
  0.00000000E+00  0.00000000E+00  0.00000000E+00
  0.00000000E+00  0.00000000E+00  0.00000000E+00
  0.00000000E+00  0.00000000E+00  0.00000000E+00
  0.00000000E+00  0.00000000E+00  0.00000000E+00
  0.00000000E+00  0.00000000E+00  0.00000000E+00
  0.00000000E+00  0.00000000E+00  0.00000000E+00
  0.00000000E+00  0.00000000E+00  0.00000000E+00
  0.00000000E+00  0.00000000E+00  0.00000000E+00
  0.00000000E+00  0.00000000E+00  0.00000000E+00
  0.00000000E+00  0.00000000E+00  0.00000000E+00
  0.00000000E+00  0.00000000E+00  0.00000000E+00
  0.00000000E+00  0.00000000E+00  0.00000000E+00
  0.00000000E+00  0.00000000E+00  0.00000000E+00
  0.00000000E+00  0.00000000E+00  0.00000000E+00
  0.00000000E+00  0.00000000E+00  0.00000000E+00
  0.00000000E+00  0.00000000E+00  0.00000000E+00
  0.00000000E+00  0.00000000E+00  0.00000000E+00
  0.00000000E+00  0.00000000E+00  0.00000000E+00
  0.00000000E+00  0.00000000E+00  0.00000000E+00
  0.00000000E+00  0.00000000E+00  0.00000000E+00
  0.00000000E+00  0.00000000E+00  0.00000000E+00
  0.00000000E+00  0.00000000E+00  0.00000000E+00
  0.00000000E+00  0.00000000E+00  0.00000000E+00
  0.00000000E+00  0.00000000E+00  0.00000000E+00
  0.00000000E+00  0.00000000E+00  0.00000000E+00
  0.00000000E+00  0.00000000E+00  0.00000000E+00
  0.00000000E+00  0.00000000E+00  0.00000000E+00
  0.00000000E+00  0.00000000E+00  0.00000000E+00
  0.00000000E+00  0.00000000E+00  0.00000000E+00
  0.00000000E+00  0.00000000E+00  0.00000000E+00
  0.00000000E+00  0.00000000E+00  0.00000000E+00
  0.00000000E+00  0.00000000E+00  0.00000000E+00
  0.00000000E+00  0.00000000E+00  0.00000000E+00
  0.00000000E+00  0.00000000E+00  0.00000000E+00
  0.00000000E+00  0.00000000E+00  0.00000000E+00
  0.00000000E+00  0.00000000E+00  0.00000000E+00
  0.00000000E+00  0.00000000E+00  0.00000000E+00
  0.00000000E+00  0.00000000E+00  0.00000000E+00
  0.00000000E+00  0.00000000E+00  0.00000000E+00
  0.00000000E+00  0.00000000E+00  0.00000000E+00
  0.00000000E+00  0.00000000E+00  0.00000000E+00
  0.00000000E+00  0.00000000E+00  0.00000000E+00
  0.00000000E+00  0.00000000E+00  0.00000000E+00
  0.00000000E+00  0.00000000E+00  0.00000000E+00
  0.00000000E+00  0.00000000E+00  0.00000000E+00
  0.00000000E+00  0.00000000E+00  0.00000000E+00
  0.00000000E+00  0.00000000E+00  0.00000000E+00
  0.00000000E+00  0.00000000E+00  0.00000000E+00
  0.00000000E+00  0.00000000E+00  0.00000000E+00
  0.00000000E+00  0.00000000E+00  0.00000000E+00
  0.00000000E+00  0.00000000E+00  0.00000000E+00
  0.00000000E+00  0.00000000E+00  0.00000000E+00
  0.00000000E+00  0.00000000E+00  0.00000000E+00
  0.00000000E+00  0.00000000E+00  0.00000000E+00
  0.00000000E+00  0.00000000E+00  0.00000000E+00
  0.00000000E+00  0.00000000E+00  0.00000000E+00
  0.00000000E+00  0.00000000E+00  0.00000000E+00
  0.00000000E+00  0.00000000E+00  0.00000000E+00
  0.00000000E+00  0.00000000E+00  0.00000000E+00
  0.00000000E+00  0.00000000E+00  0.00000000E+00
  0.00000000E+00  0.00000000E+00  0.00000000E+00
  0.00000000E+00  0.00000000E+00  0.00000000E+00
  0.00000000E+00  0.00000000E+00  0.00000000E+00
  0.00000000E+00  0.00000000E+00  0.00000000E+00
  0.00000000E+00  0.00000000E+00  0.00000000E+00
  0.00000000E+00  0.00000000E+00  0.00000000E+00
  0.00000000E+00  0.00000000E+00  0.00000000E+00
  0.00000000E+00  0.00000000E+00  0.00000000E+00
  0.00000000E+00  0.00000000E+00  0.00000000E+00
  0.00000000E+00  0.00000000E+00  0.00000000E+00
  0.00000000E+00  0.00000000E+00  0.00000000E+00
  0.00000000E+00  0.00000000E+00  0.00000000E+00
  0.00000000E+00  0.00000000E+00  0.00000000E+00
  0.00000000E+00  0.00000000E+00  0.00000000E+00
  0.00000000E+00  0.00000000E+00  0.00000000E+00
  0.00000000E+00  0.00000000E+00  0.00000000E+00
  0.00000000E+00  0.00000000E+00  0.00000000E+00
  0.00000000E+00  0.00000000E+00  0.00000000E+00
  0.00000000E+00  0.00000000E+00  0.00000000E+00
  0.00000000E+00  0.00000000E+00  0.00000000E+00
  0.00000000E+00  0.00000000E+00  0.00000000E+00
  0.00000000E+00  0.00000000E+00  0.00000000E+00
  0.00000000E+00  0.00000000E+00  0.00000000E+00
  0.00000000E+00  0.00000000E+00  0.00000000E+00
  0.00000000E+00  0.00000000E+00  0.00000000E+00
  0.00000000E+00  0.00000000E+00  0.00000000E+00
  0.00000000E+00  0.00000000E+00  0.00000000E+00
  0.00000000E+00  0.00000000E+00  0.00000000E+00
  0.00000000E+00  0.00000000E+00  0.00000000E+00
  0.00000000E+00  0.00000000E+00  0.00000000E+00
  0.00000000E+00  0.00000000E+00  0.00000000E+00
  0.00000000E+00  0.00000000E+00  0.00000000E+00
  0.00000000E+00  0.00000000E+00  0.00000000E+00
  0.00000000E+00  0.00000000E+00  0.00000000E+00
  0.00000000E+00  0.00000000E+00  0.00000000E+00
  0.00000000E+00  0.00000000E+00  0.00000000E+00
  0.00000000E+00  0.00000000E+00  0.00000000E+00
  0.00000000E+00  0.00000000E+00  0.00000000E+00
  0.00000000E+00  0.00000000E+00  0.00000000E+00
  0.00000000E+00  0.00000000E+00  0.00000000E+00
  0.00000000E+00  0.00000000E+00  0.00000000E+00
  0.00000000E+00  0.00000000E+00  0.00000000E+00
  0.00000000E+00  0.00000000E+00  0.00000000E+00
  0.00000000E+00  0.00000000E+00  0.00000000E+00
  0.00000000E+00  0.00000000E+00  0.00000000E+00
  0.00000000E+00  0.00000000E+00  0.00000000E+00
  0.00000000E+00  0.00000000E+00  0.00000000E+00
  0.00000000E+00  0.00000000E+00  0.00000000E+00
  0.00000000E+00  0.00000000E+00  0.00000000E+00
  0.00000000E+00  0.00000000E+00  0.00000000E+00
  0.00000000E+00  0.00000000E+00  0.00000000E+00
  0.00000000E+00  0.00000000E+00  0.00000000E+00
  0.00000000E+00  0.00000000E+00  0.00000000E+00
  0.00000000E+00  0.00000000E+00  0.00000000E+00
  0.00000000E+00  0.00000000E+00  0.00000000E+00
  0.00000000E+00  0.00000000E+00  0.00000000E+00
  0.00000000E+00  0.00000000E+00  0.00000000E+00
  0.00000000E+00  0.00000000E+00  0.00000000E+00
  0.00000000E+00  0.00000000E+00  0.00000000E+00
  0.00000000E+00  0.00000000E+00  0.00000000E+00
  0.00000000E+00  0.00000000E+00  0.00000000E+00
  0.00000000E+00  0.00000000E+00  0.00000000E+00
  0.00000000E+00  0.00000000E+00  0.00000000E+00
  0.00000000E+00  0.00000000E+00  0.00000000E+00
  0.00000000E+00  0.00000000E+00  0.00000000E+00
  0.00000000E+00  0.00000000E+00  0.00000000E+00
  0.00000000E+00  0.00000000E+00  0.00000000E+00
  0.00000000E+00  0.00000000E+00  0.00000000E+00
  0.00000000E+00  0.00000000E+00  0.00000000E+00
  0.00000000E+00  0.00000000E+00  0.00000000E+00
  0.00000000E+00  0.00000000E+00  0.00000000E+00
  0.00000000E+00  0.00000000E+00  0.00000000E+00
  0.00000000E+00  0.00000000E+00  0.00000000E+00
  0.00000000E+00  0.00000000E+00  0.00000000E+00
  0.00000000E+00  0.00000000E+00  0.00000000E+00
  0.00000000E+00  0.00000000E+00  0.00000000E+00
  0.00000000E+00  0.00000000E+00  0.00000000E+00
  0.00000000E+00  0.00000000E+00  0.00000000E+00
  0.00000000E+00  0.00000000E+00  0.00000000E+00
  0.00000000E+00  0.00000000E+00  0.00000000E+00
  0.00000000E+00  0.00000000E+00  0.00000000E+00
  0.00000000E+00  0.00000000E+00  0.00000000E+00
  0.00000000E+00  0.00000000E+00  0.00000000E+00
  0.00000000E+00  0.00000000E+00  0.00000000E+00
  0.00000000E+00  0.00000000E+00  0.00000000E+00
  0.00000000E+00  0.00000000E+00  0.00000000E+00
  0.00000000E+00  0.00000000E+00  0.00000000E+00
  0.00000000E+00  0.00000000E+00  0.00000000E+00
  0.00000000E+00  0.00000000E+00  0.00000000E+00
  0.00000000E+00  0.00000000E+00  0.00000000E+00
  0.00000000E+00  0.00000000E+00  0.00000000E+00
  0.00000000E+00  0.00000000E+00  0.00000000E+00
  0.00000000E+00  0.00000000E+00  0.00000000E+00
  0.00000000E+00  0.00000000E+00  0.00000000E+00
  0.00000000E+00  0.00000000E+00  0.00000000E+00
  0.00000000E+00  0.00000000E+00  0.00000000E+00
  0.00000000E+00  0.00000000E+00  0.00000000E+00
  0.00000000E+00  0.00000000E+00  0.00000000E+00
  0.00000000E+00  0.00000000E+00  0.00000000E+00
  0.00000000E+00  0.00000000E+00  0.00000000E+00
  0.00000000E+00  0.00000000E+00  0.00000000E+00
  0.00000000E+00  0.00000000E+00  0.00000000E+00
  0.00000000E+00  0.00000000E+00  0.00000000E+00
  0.00000000E+00  0.00000000E+00  0.00000000E+00
  0.00000000E+00  0.00000000E+00  0.00000000E+00
  0.00000000E+00  0.00000000E+00  0.00000000E+00
  0.00000000E+00  0.00000000E+00  0.00000000E+00
  0.00000000E+00  0.00000000E+00  0.00000000E+00
  0.00000000E+00  0.00000000E+00  0.00000000E+00
  0.00000000E+00  0.00000000E+00  0.00000000E+00
  0.00000000E+00  0.00000000E+00  0.00000000E+00
  0.00000000E+00  0.00000000E+00  0.00000000E+00
  0.00000000E+00  0.00000000E+00  0.00000000E+00
  0.00000000E+00  0.00000000E+00  0.00000000E+00
  0.00000000E+00  0.00000000E+00  0.00000000E+00
  0.00000000E+00  0.00000000E+00  0.00000000E+00