Amorphous GaTe                          
   1.00000000000000     
    21.1072922372385499    0.0000000000000000    0.0000000000000000
     0.0000000000000000   21.1072922372385499    0.0000000000000000
     0.0000000000000000    0.0000000000000000   21.1072922372385499
   Ga   Te
   120   180
Direct
  0.2843240502180191  0.6717082597075423  0.6693037351982126
  0.9164557110938252  0.4724708677245196  0.0163922751903030
  0.7570755477534853  0.0925020124280236  0.8591599701876379
  0.3203579463642277  0.2591203613536930  0.0778216142958866
  0.4063659419295876  0.6020809460993365  0.8334090636915542
  0.5731267589180757  0.1983108348039321  0.8781132774309273
  0.1758930260547969  0.2143162056650286  0.2256651991179565
  0.2846919755251514  0.9073514006046115  0.5958616950506406
  0.1186997903446545  0.6089299501163788  0.5220658641342030
  0.6089815211849098  0.3645768475676478  0.9194158133363428
  0.1352347570028545  0.8094793392062636  0.2783456334025904
  0.6497029378110649  0.2627698464862905  0.0920652824816323
  0.3642558901669463  0.4131135008419017  0.6427595948910271
  0.0640733336827055  0.0862219735631329  0.8561064708516665
  0.4006760896405777  0.9481625590174318  0.1515365659983509
  0.3140388871768988  0.7499922831542764  0.2112896786076932
  0.5168156169193595  0.6194195864742886  0.3519836731639381
  0.6550659062108982  0.9061057410562359  0.0758125650576635
  0.1630410818516762  0.1611661849500337  0.8597005436805795
  0.1531934308416979  0.3196259277883119  0.5339463921775058
  0.9036425338331928  0.6534232424210878  0.0178063627380371
  0.9476711527054824  0.0365386762812250  0.7369006618967896
  0.2680197859835712  0.4701169181021674  0.7920794266483071
  0.7954340636371950  0.4299501542868318  0.6758118662129605
  0.3303934409359162  0.0504189744261825  0.8776605104341307
  0.8289025887724865  0.0675699255320189  0.2807982279747867
  0.8392729355635827  0.3444503729502821  0.4045498105349574
  0.5935654091468934  0.0768441285683815  0.1264400261863970
  0.7429069358939737  0.7657288512684064  0.9942868414432250
  0.1257136085614481  0.7329768847963682  0.6566117120251865
  0.6355145147895354  0.3587346269420889  0.3531632469128486
  0.4950156711944994  0.2271578200890986  0.1017983545624394
  0.7816496050151954  0.8649665947783342  0.2833452262931127
  0.5070017602293474  0.1268241549441365  0.6042386686924778
  0.0193636846792235  0.8603227763108802  0.4370317984254979
  0.5860617022748574  0.8314980316986260  0.7263688864082308
  0.7884302549866509  0.5941101170657426  0.9152694489887646
  0.1271764817814217  0.6195887273468597  0.6968097112708372
  0.4465817605900626  0.2190963168503343  0.8511619718116996
  0.5001728279370723  0.6192737034409966  0.0323522329998903
  0.3905868761450231  0.8991218321418246  0.3183887716757426
  0.4533576403691665  0.7486711977946791  0.7773551849702144
  0.3373383032899846  0.3718255900619276  0.1188479434762487
  0.4806035289942462  0.4291175223453660  0.2745918687927024
  0.0296781228865216  0.2547524340627727  0.6420185885468519
  0.8652225087518590  0.1113765506301016  0.6995563536157648
  0.3099567245153914  0.6919355192304176  0.4202623336361193
  0.2366468820329634  0.2449200815244244  0.6708062982136089
  0.4414441194419678  0.9346842457735214  0.9641894074524304
  0.5789042563990762  0.8274060706511376  0.1364582231813243
  0.4006783185138550  0.4364594763377881  0.9547112779096043
  0.6572865000142497  0.1563885046425353  0.7361494292264519
  0.1262507086919142  0.9730468499734958  0.6823104693624448
  0.8363131553683996  0.9642084157862574  0.5908183953753945
  0.1400045508051693  0.0202981327291819  0.5221403971517057
  0.2323401991774330  0.5159345277882266  0.6042922888515366
  0.7806573952356275  0.4763584291106412  0.3392457982846039
  0.1006258767634548  0.8410370569295478  0.9288481690215907
  0.3917695750918643  0.7098934134052295  0.4994955715059599
  0.5273745996764484  0.6876448698982200  0.6184875141678712
  0.8446034924792266  0.4085903915354529  0.8592763199169229
  0.6611996250577579  0.9959441284982559  0.2391237762152690
  0.4196302813187823  0.2895886041418125  0.5337564242727699
  0.8606566576575991  0.7045286136352481  0.5015406895341447
  0.1007149983418850  0.2501725463431172  0.7590517576762468
 -0.0036204516496134  0.3951144621332360  0.4845312177633854
  0.4666374418853526  0.9544587333940517  0.6520487292608647
  0.4917376288250573  0.7268178544260719  0.1384279646654237
  0.8979193621659634  0.7545755567739626  0.1624120589007409
  0.0071092478030780  0.3569055100538172  0.8786900171041608
  0.6658274863161303  0.3624353440938283  0.7585903149962746
  0.1599791856317170  0.7484828500271732  0.1241880476239860
  0.4108699393098500  0.0720592724187811  0.0459661863732199
  0.1657949678242740  0.3451226056535105  0.3707271489635323
  0.6395588987000836  0.7031057577772070  0.2551553628748428
  0.5421504660115158  0.7788147372300607  0.5465188660658968
  0.0798795907805982  0.1892279512356058  0.0755540311007160
  0.9008264548230113  0.8263913213006251  0.9562393595838998
  0.9702307787485831  0.5870573585976291  0.4367948093104899
  0.7771915159034822  0.9206327539795800  0.9155859459400181
  0.2933349117457310  0.5904168740350449  0.2731740305403353
  0.3779791474249667  0.5265939515924161  0.4083843460137460
  0.6440409190712232  0.6116714504937379  0.4897538366480134
  0.9486495008980855  0.2094492190536026  0.9433669291051879
  0.3764437201396166  0.4279841460960109  0.4689372310412045
  0.8440642102991910  0.4438416427247944  0.1887675593625837
  0.5295331924943719  0.4757615452645823  0.8411101649074252
  0.7551534731963406  0.5929880227879666  0.6337375047355898
  0.7257638552900839  0.5985389625053958  0.1743322589590801
  0.2948805762540764  0.8600585973465674  0.3757963607134491
  0.5449692471838821  0.1734894579206503  0.4114154490107910
  0.2880604801067372  0.3436923918477278  0.2621174857666765
  0.4994092306640345  0.0107327247114945  0.2771228069187163
  0.4015391905986425  0.0167673958020921  0.4542755940385713
  0.9638691200501540  0.0343044977198461  0.4256019638942585
  0.0128601568211984  0.1021435597878138  0.2266784014589673
  0.1660388489911594  0.8962218063802001  0.0196856802909054
  0.9542311742835067  0.7502613531014635  0.3115174144946211
  0.7569810434340343  0.7479305885445718  0.5476702490724777
  0.2135098726334189  0.9693152902101260  0.9396657662748538
  0.0790691425208867  0.5729095329572620  0.1022976106546908
  0.1356213874403182  0.9557699897009237  0.3859773056266045
  0.8281364760751005  0.8735096480236992  0.4627322127816185
  0.7709425797570680  0.2423373403348505  0.9809888752586827
  0.5460547031769321  0.3795919552150450  0.1157259674711942
  0.0340948824603950  0.7359429836403103  0.8021502735068745
  0.6228300062418022  0.8604247114110944  0.8760659955216767
  0.2270492360804258  0.5229616583172495  0.1852638626626519
  0.6121412900596236  0.6541324774041052  0.9076522952342808
  0.9696993384833059  0.6765889741134744  0.6357445795132781
  0.2999134600800913  0.9409287482627960  0.7633158717809243
  0.2051316851160964  0.6197036010731602  0.8693965104127747
  0.2730306653871271  0.1465016085022916  0.5250416190789812
  0.3467181794822350  0.7581479044983775  0.0463334745781856
  0.8259822810743991  0.2598175393797869  0.5761618630121418
  0.2704556716170318  0.5608102636580685  0.0809007347462629
  0.2370255357009211  0.6230021412548483  0.9849308250537744
  0.2879603730940166  0.3523914225018463  0.8048363906534475
  0.0362019003830874  0.9506119735365530  0.6068969265129790
  0.9714362789577564  0.5135339876106458  0.9216367001516220
  0.5718968048009740  0.9080789026301579  0.2466673448479027
  0.1554573429231718  0.5328574330614370  0.7859633452007414
  0.5192324443993124  0.3921230036718547  0.3874456648583121
  0.9502105422909600  0.4575370401238136  0.8111226405773291
  0.2251267007454932  0.0206522150515540  0.6178595342428332
  0.8530614011242844  0.3842480676496444  0.5706719155827821
  0.2519615802284835  0.8306321815198451  0.0965557176336399
  0.3934344190847508  0.1618313495718409  0.1344012814583083
  0.2657399562280378  0.2232627232208468  0.7934951232856332
  0.0691323669090963  0.8304395195649498  0.1694322267588046
  0.5871382176045247  0.1657450328828027  0.0345015776953893
  0.1657474975855947  0.1634317132950808  0.6066471967549182
  0.5605964046982345  0.4778470523499517  0.1909711869333174
  0.0642747433529897  0.7626621261868500  0.3723887118055186
  0.7822355114583469  0.1779219073518539  0.7704635070899873
  0.0287634384664477  0.4284147439712511  0.1727203886998878
  0.4159659723235161  0.0423135154584550  0.5769636191682171
  0.4972688829270915  0.3538343724633178  0.8610074670128491
  0.3215942360691709  0.9195947735738532  0.8868405610202814
  0.8610919485414176  0.9346746091529485  0.0096501087534117
  0.3470037721620111  0.2199408611491971  0.6090479472507354
  0.0045961893360613  0.6977114009644019  0.2083123288968722
  0.4642273821036259  0.3286353779099891  0.0367959257577664
  0.4527027233619973  0.1730515099849313  0.3314177055482743
  0.0603960463128819  0.7159582297798130  0.5512992141464745
  0.2066370479273883  0.9122736547884833  0.2914509080349731
  0.1847379590612084  0.8819215072926613  0.7513367750752326
  0.0008778400054393  0.2125081227850193  0.1703490242078823
  0.9123870312965203  0.6283001668665898  0.8956377231304099
  0.2189217137161396  0.3933704206591934  0.1668264423600100
  0.5718545856795823  0.2757323088227461  0.1913191758767612
  0.9785621658090098  0.4249626812736086  0.2989935623781607
  0.5431287810654704  0.7361151924501836  0.3232533037317684
  0.9279255369475351  0.1066415243337406  0.0111215851600648
  0.3608602365357453  0.1299170075288643  0.4197670819357749
  0.7472993740929407  0.8776603473783694  0.5599258745845597
  0.6144826521335935  0.0704292000010669  0.6380206187176335
  0.6319712268781630  0.0838161176769387  0.8395976207479948
  0.6207311829386334  0.5500509995493729  0.3775662614864489
  0.6200583422366733  0.6545907656223646  0.1421590523705691
  0.2972447141080126  0.9447546245866423  0.4720126411950621
  0.4008834885724115  0.7011768166238077  0.6250327008576877
  0.9483350854006943  0.0202347194325447  0.8621774999397704
  0.0127039182708490  0.9489971543852372  0.3480212432421343
  0.0899140855925643  0.2872988850027751  0.2846370572342424
  0.7811186109757413  0.8501512735480453  0.0853681716695246
  0.1315548011194395  0.9485119412512641  0.1306883254615850
  0.4636343906549664  0.1467957699208453  0.7207052604287894
  0.2762798839242766  0.4130561379084985  0.5473240754188613
  0.3463300824266773  0.2339580448063345  0.9534138153837723
  0.9343638363582986  0.1200121260875295  0.3337538165113807
  0.8482155304021596 -0.0006244422618114  0.4662761212120935
  0.6871889204875093  0.2674926096791292  0.8920239331021419
  0.0059024272127530  0.6238959637662432  0.7458143814811979
  0.6554560688809234  0.4581675269736957  0.8424645260651145
  0.9142637033397620  0.4718215077102525  0.4283788228435956
  0.6447130825261589  0.5476089338134044  0.6818434320993789
  0.7548492610195509  0.7150192188675510  0.6696518077572921
  0.4401036840460245  0.0904075774895817  0.9249943770200256
  0.0359107111776281  0.8099178080998310  0.6999420233080510
  0.2992878395668379  0.7251618283843008  0.9389724578379235
  0.9266815907317002  0.9291230502109712  0.6698085549529740
  0.4267424899667825  0.5418598310051037  0.2908253506555127
  0.1645727717740572  0.3476402124671515  0.6586252759427873
  0.5971562067309912  0.0628854546312651  0.4372872919053080
  0.5583521184671572  0.5687572896248674  0.5768527588838176
  0.6867435970825803  0.1074895805714567  0.5269305492359340
  0.7796651424951708  0.1165059508720527  0.9804463756782080
  0.0899580856422822  0.5811064891622744  0.4051834864760308
  0.5792464517181846  0.7047537088725564  0.7292195104930285
  0.2363258643742865  0.2638187933821497  0.4519722508908665
  0.3244472514080510  0.5240199671478972  0.6908291752883593
  0.1100932352301102  0.5544344686312236  0.2233889433659088
  0.3746535539588329  0.4844465841412638  0.0783228553146359
  0.8086567604899553  0.9853413768401995  0.8152997820883574
  0.1944246328486234  0.0638554544937291  0.4186397816331589
  0.7580971234309092  0.5704690099398840  0.5112384736971093
  0.1178835153600250  0.4208939461317613  0.4661306504896219
  0.5114133594470932  0.4962955359617215  0.9652741547692300
  0.1128254234042350  0.1674511019238008  0.3744062703071175
  0.5296164986013489  0.2257604847233327  0.5289846179300453
  0.9788221363218054  0.3871884673959655  0.6108821522787425
  0.4166029991859919  0.8361287671981845  0.2080955320186656
  0.2202411483196209  0.7745895669570386  0.4247970647956529
  0.8366110252861537  0.5396853705498917  0.7096039597253314
  0.5084719218751500  0.0235754252536812  0.7495329140883338
  0.1584058879396988  0.2717159989147182  0.9383367155767914
  0.7046531868165721  0.0182912630673866  0.1227371121435639
  0.6448119501476518  0.2309845065417786  0.3534425129150908
  0.3026205126182777  0.0639463095627342  0.7572409750661332
  0.5055261806751021  0.9938387141160140  0.0878602842761696
  0.8323987993713406  0.1514598225580428  0.1362205894475520
  0.7502008497610596  0.4903583642564942  0.1207658990423442
  0.8001795333260669  0.7960510624412862  0.8874688734229581
  0.8604993919491130  0.0151250157263228  0.1713804400794944
  0.9029393091926057  0.8515642926941139  0.2461115672889121
  0.2438104110031785  0.6304963058469742  0.5512656380301197
  0.3932281392117848  0.3360509291942974  0.7352214900075668
  0.3719908323312202  0.6954568584762506  0.3095279437591476
  0.9645339117939453  0.2881538376172891  0.4297762225489754
  0.1241736959158329  0.4713138748308939  0.0442814220952102
  0.6479220491513510  0.3796609760911636  0.0382308819593288
  0.7707456637754366  0.0484088848352480  0.6484446670913327
  0.6852704656267459  0.2557114682168818  0.4858561456195514
  0.1251401587244510  0.8926600977185487  0.5030847100166811
  0.5694779737019853  0.8873955778597549  0.6134281072708205
  0.7042789795454625  0.8029971529385862  0.2054215376669412
  0.8736198802285430  0.3123452305476497  0.9461357504136577
  0.8288158765879308  0.6604948338972865  0.2125348719546968
  0.6196661862805045  0.7697689240814629  0.9680944735796030
  0.3754760218837330  0.8736199927218622  0.6841526468908106
 -0.0052078685275870 -0.0019592075986694  0.1592212957027254
  0.7732746602747033  0.2756383583882695  0.1039701699209736
  0.5090098383174744  0.8727056396380254  0.8221597202709442
  0.2372308180355346  0.0940472319324402  0.9524646242206170
  0.5864586616183678  0.1003609927365976  0.2521169573573281
  0.9198736253546647  0.3794728288378381  0.1066704520524338
  0.9016658417045557  0.5278776735196562  0.2617038453772426
  0.1049175265970927  0.5215784748728223  0.6140016833470032
  0.6303356004777764  0.5712383933260003 -0.0018429673422969
  0.7201154288464551  0.6181890006143288  0.3105825903221099
  0.9845746095894187  0.8375301623621640  0.8662898442623137
  0.9311932561711053  0.8226248778683085  0.5164135551242044
  0.7743954172617231  0.7960811549365246  0.3840484819547682
  0.0349536692717297  0.2831424209473158  0.0020947639693584
  0.4561834717597283  0.8126833311003535  0.0349542870974540
  0.1461179715755082  0.7413143591295116  0.8555179308879896
  0.4540289316091516  0.8115342466712605  0.4669842469705133
  0.1230585779342294  0.9524434232980592  0.8522390200906824
  0.4642546186581314  0.4050384613322749  0.5651307137836791
  0.7935653463441265  0.3426359251438631  0.7647236800990795
  0.6790494379515254  0.4094029161785007  0.2456138402674463
  0.8861729444248222  0.6669613726516875  0.3811677104947962
  0.6728080530014890  0.4180297661189314  0.6388569416150025
  0.8038674560221493  0.3512812680206113  0.2700217059818349
  0.6952554494993760  0.8625827550622632  0.7743232485106653
  0.3071411831435623  0.6813566632921201  0.7950073969645886
  0.3743236834336442  0.0149547744636829  0.2554756173566915
  0.2612384808460019  0.5771205729027499  0.4027591446023832
  0.0661812121682344  0.2284359151011712  0.5056929688041713
  0.7167425422189394  0.3926799206445380  0.4481981342098684
  0.7571429395744829  0.1643764344331031  0.2468566949810717
  0.7761877531466378  0.6500155485643748  0.0313561228015519
  0.0951406191954617  0.5296675634647633  0.9303444182385229
  0.0212485860579923  0.0618537852881072  0.5371985954028815
  0.2033590097134518  0.1959556834891107  0.1051895428929672
  0.9166940740932101  0.1853496139338779  0.6108406562743228
  0.3258290044250151  0.9805338845250505  0.0579309266336644
  0.6472505636215192  0.7380296409495629  0.4787459568474899
  0.7478199549172964  0.9804724558300335  0.3293900145405398
  0.0645387063777984  0.0869173751489968  0.0049860222266910
  0.7089449750113564  0.6368564820527803  0.8287261416584411
  0.9560821509706965  0.1714922009789493  0.8239213324925388
  0.1367290237892863  0.3607798435726286  0.8453076415556741
  0.1355658621195216  0.0963560013167769  0.2584656052363195
  0.4878178249931421  0.9520641003360887  0.3911432924697870
  0.8107328920362187  0.2183981169261812  0.4556219750104649
  0.6618567231084546  0.9545365534998659  0.9531015302343671
  0.9479069353631280  0.5693374424480190  0.0979166476503202
  0.4838136215729520  0.6788783455656625  0.9000857960997709
  0.9679843108714922  0.2934532252556177  0.7690260081674413
  0.9556685287893861  0.7638019357811510  0.0484580548872779
  0.3550097914148450  0.6610810621154514  0.1282319071228990
  0.4763517892990999  0.5402031958018211  0.7503757353470837
  0.0666784706301717  0.0785412977992168  0.7174708103997887
  0.2582822894989573  0.4274370243046189  0.3468110095701959
  0.9173759052254764  0.5968709973761797  0.5546719316418414
  0.4090592057716549  0.3395075758482470  0.2234860180844749
  0.8861689725696201  0.7588974240694564  0.6795033149775571
  0.2338567355160837  0.7929096195337388  0.6389144664072908
  0.7119080343755648  0.2657191137542142  0.6259906732476761
  0.5854598666181773  0.2621932948434633  0.7482561698484650
  0.1197441858579108  0.6735640016415785  0.0342526215300724
  0.1958705265205929  0.7042586612335954  0.2384244240594282
  0.2831651300244457  0.2218452645493585  0.2849485428445217
  0.4625612538401448  0.6054959281621795  0.4663484916594751
  0.3692629497607653  0.3105868277903988  0.4200810122946300
  0.3016207347685581  0.3578596573681500  0.9357827822692955
  0.3248297590537960  0.5258121276431839  0.8946770221939232
  0.7944416114568063  0.4719916696499972  0.9575544635862635
 
  0.00000000E+00  0.00000000E+00  0.00000000E+00
  0.00000000E+00  0.00000000E+00  0.00000000E+00
  0.00000000E+00  0.00000000E+00  0.00000000E+00
  0.00000000E+00  0.00000000E+00  0.00000000E+00
  0.00000000E+00  0.00000000E+00  0.00000000E+00
  0.00000000E+00  0.00000000E+00  0.00000000E+00
  0.00000000E+00  0.00000000E+00  0.00000000E+00
  0.00000000E+00  0.00000000E+00  0.00000000E+00
  0.00000000E+00  0.00000000E+00  0.00000000E+00
  0.00000000E+00  0.00000000E+00  0.00000000E+00
  0.00000000E+00  0.00000000E+00  0.00000000E+00
  0.00000000E+00  0.00000000E+00  0.00000000E+00
  0.00000000E+00  0.00000000E+00  0.00000000E+00
  0.00000000E+00  0.00000000E+00  0.00000000E+00
  0.00000000E+00  0.00000000E+00  0.00000000E+00
  0.00000000E+00  0.00000000E+00  0.00000000E+00
  0.00000000E+00  0.00000000E+00  0.00000000E+00
  0.00000000E+00  0.00000000E+00  0.00000000E+00
  0.00000000E+00  0.00000000E+00  0.00000000E+00
  0.00000000E+00  0.00000000E+00  0.00000000E+00
  0.00000000E+00  0.00000000E+00  0.00000000E+00
  0.00000000E+00  0.00000000E+00  0.00000000E+00
  0.00000000E+00  0.00000000E+00  0.00000000E+00
  0.00000000E+00  0.00000000E+00  0.00000000E+00
  0.00000000E+00  0.00000000E+00  0.00000000E+00
  0.00000000E+00  0.00000000E+00  0.00000000E+00
  0.00000000E+00  0.00000000E+00  0.00000000E+00
  0.00000000E+00  0.00000000E+00  0.00000000E+00
  0.00000000E+00  0.00000000E+00  0.00000000E+00
  0.00000000E+00  0.00000000E+00  0.00000000E+00
  0.00000000E+00  0.00000000E+00  0.00000000E+00
  0.00000000E+00  0.00000000E+00  0.00000000E+00
  0.00000000E+00  0.00000000E+00  0.00000000E+00
  0.00000000E+00  0.00000000E+00  0.00000000E+00
  0.00000000E+00  0.00000000E+00  0.00000000E+00
  0.00000000E+00  0.00000000E+00  0.00000000E+00
  0.00000000E+00  0.00000000E+00  0.00000000E+00
  0.00000000E+00  0.00000000E+00  0.00000000E+00
  0.00000000E+00  0.00000000E+00  0.00000000E+00
  0.00000000E+00  0.00000000E+00  0.00000000E+00
  0.00000000E+00  0.00000000E+00  0.00000000E+00
  0.00000000E+00  0.00000000E+00  0.00000000E+00
  0.00000000E+00  0.00000000E+00  0.00000000E+00
  0.00000000E+00  0.00000000E+00  0.00000000E+00
  0.00000000E+00  0.00000000E+00  0.00000000E+00
  0.00000000E+00  0.00000000E+00  0.00000000E+00
  0.00000000E+00  0.00000000E+00  0.00000000E+00
  0.00000000E+00  0.00000000E+00  0.00000000E+00
  0.00000000E+00  0.00000000E+00  0.00000000E+00
  0.00000000E+00  0.00000000E+00  0.00000000E+00
  0.00000000E+00  0.00000000E+00  0.00000000E+00
  0.00000000E+00  0.00000000E+00  0.00000000E+00
  0.00000000E+00  0.00000000E+00  0.00000000E+00
  0.00000000E+00  0.00000000E+00  0.00000000E+00
  0.00000000E+00  0.00000000E+00  0.00000000E+00
  0.00000000E+00  0.00000000E+00  0.00000000E+00
  0.00000000E+00  0.00000000E+00  0.00000000E+00
  0.00000000E+00  0.00000000E+00  0.00000000E+00
  0.00000000E+00  0.00000000E+00  0.00000000E+00
  0.00000000E+00  0.00000000E+00  0.00000000E+00
  0.00000000E+00  0.00000000E+00  0.00000000E+00
  0.00000000E+00  0.00000000E+00  0.00000000E+00
  0.00000000E+00  0.00000000E+00  0.00000000E+00
  0.00000000E+00  0.00000000E+00  0.00000000E+00
  0.00000000E+00  0.00000000E+00  0.00000000E+00
  0.00000000E+00  0.00000000E+00  0.00000000E+00
  0.00000000E+00  0.00000000E+00  0.00000000E+00
  0.00000000E+00  0.00000000E+00  0.00000000E+00
  0.00000000E+00  0.00000000E+00  0.00000000E+00
  0.00000000E+00  0.00000000E+00  0.00000000E+00
  0.00000000E+00  0.00000000E+00  0.00000000E+00
  0.00000000E+00  0.00000000E+00  0.00000000E+00
  0.00000000E+00  0.00000000E+00  0.00000000E+00
  0.00000000E+00  0.00000000E+00  0.00000000E+00
  0.00000000E+00  0.00000000E+00  0.00000000E+00
  0.00000000E+00  0.00000000E+00  0.00000000E+00
  0.00000000E+00  0.00000000E+00  0.00000000E+00
  0.00000000E+00  0.00000000E+00  0.00000000E+00
  0.00000000E+00  0.00000000E+00  0.00000000E+00
  0.00000000E+00  0.00000000E+00  0.00000000E+00
  0.00000000E+00  0.00000000E+00  0.00000000E+00
  0.00000000E+00  0.00000000E+00  0.00000000E+00
  0.00000000E+00  0.00000000E+00  0.00000000E+00
  0.00000000E+00  0.00000000E+00  0.00000000E+00
  0.00000000E+00  0.00000000E+00  0.00000000E+00
  0.00000000E+00  0.00000000E+00  0.00000000E+00
  0.00000000E+00  0.00000000E+00  0.00000000E+00
  0.00000000E+00  0.00000000E+00  0.00000000E+00
  0.00000000E+00  0.00000000E+00  0.00000000E+00
  0.00000000E+00  0.00000000E+00  0.00000000E+00
  0.00000000E+00  0.00000000E+00  0.00000000E+00
  0.00000000E+00  0.00000000E+00  0.00000000E+00
  0.00000000E+00  0.00000000E+00  0.00000000E+00
  0.00000000E+00  0.00000000E+00  0.00000000E+00
  0.00000000E+00  0.00000000E+00  0.00000000E+00
  0.00000000E+00  0.00000000E+00  0.00000000E+00
  0.00000000E+00  0.00000000E+00  0.00000000E+00
  0.00000000E+00  0.00000000E+00  0.00000000E+00
  0.00000000E+00  0.00000000E+00  0.00000000E+00
  0.00000000E+00  0.00000000E+00  0.00000000E+00
  0.00000000E+00  0.00000000E+00  0.00000000E+00
  0.00000000E+00  0.00000000E+00  0.00000000E+00
  0.00000000E+00  0.00000000E+00  0.00000000E+00
  0.00000000E+00  0.00000000E+00  0.00000000E+00
  0.00000000E+00  0.00000000E+00  0.00000000E+00
  0.00000000E+00  0.00000000E+00  0.00000000E+00
  0.00000000E+00  0.00000000E+00  0.00000000E+00
  0.00000000E+00  0.00000000E+00  0.00000000E+00
  0.00000000E+00  0.00000000E+00  0.00000000E+00
  0.00000000E+00  0.00000000E+00  0.00000000E+00
  0.00000000E+00  0.00000000E+00  0.00000000E+00
  0.00000000E+00  0.00000000E+00  0.00000000E+00
  0.00000000E+00  0.00000000E+00  0.00000000E+00
  0.00000000E+00  0.00000000E+00  0.00000000E+00
  0.00000000E+00  0.00000000E+00  0.00000000E+00
  0.00000000E+00  0.00000000E+00  0.00000000E+00
  0.00000000E+00  0.00000000E+00  0.00000000E+00
  0.00000000E+00  0.00000000E+00  0.00000000E+00
  0.00000000E+00  0.00000000E+00  0.00000000E+00
  0.00000000E+00  0.00000000E+00  0.00000000E+00
  0.00000000E+00  0.00000000E+00  0.00000000E+00
  0.00000000E+00  0.00000000E+00  0.00000000E+00
  0.00000000E+00  0.00000000E+00  0.00000000E+00
  0.00000000E+00  0.00000000E+00  0.00000000E+00
  0.00000000E+00  0.00000000E+00  0.00000000E+00
  0.00000000E+00  0.00000000E+00  0.00000000E+00
  0.00000000E+00  0.00000000E+00  0.00000000E+00
  0.00000000E+00  0.00000000E+00  0.00000000E+00
  0.00000000E+00  0.00000000E+00  0.00000000E+00
  0.00000000E+00  0.00000000E+00  0.00000000E+00
  0.00000000E+00  0.00000000E+00  0.00000000E+00
  0.00000000E+00  0.00000000E+00  0.00000000E+00
  0.00000000E+00  0.00000000E+00  0.00000000E+00
  0.00000000E+00  0.00000000E+00  0.00000000E+00
  0.00000000E+00  0.00000000E+00  0.00000000E+00
  0.00000000E+00  0.00000000E+00  0.00000000E+00
  0.00000000E+00  0.00000000E+00  0.00000000E+00
  0.00000000E+00  0.00000000E+00  0.00000000E+00
  0.00000000E+00  0.00000000E+00  0.00000000E+00
  0.00000000E+00  0.00000000E+00  0.00000000E+00
  0.00000000E+00  0.00000000E+00  0.00000000E+00
  0.00000000E+00  0.00000000E+00  0.00000000E+00
  0.00000000E+00  0.00000000E+00  0.00000000E+00
  0.00000000E+00  0.00000000E+00  0.00000000E+00
  0.00000000E+00  0.00000000E+00  0.00000000E+00
  0.00000000E+00  0.00000000E+00  0.00000000E+00
  0.00000000E+00  0.00000000E+00  0.00000000E+00
  0.00000000E+00  0.00000000E+00  0.00000000E+00
  0.00000000E+00  0.00000000E+00  0.00000000E+00
  0.00000000E+00  0.00000000E+00  0.00000000E+00
  0.00000000E+00  0.00000000E+00  0.00000000E+00
  0.00000000E+00  0.00000000E+00  0.00000000E+00
  0.00000000E+00  0.00000000E+00  0.00000000E+00
  0.00000000E+00  0.00000000E+00  0.00000000E+00
  0.00000000E+00  0.00000000E+00  0.00000000E+00
  0.00000000E+00  0.00000000E+00  0.00000000E+00
  0.00000000E+00  0.00000000E+00  0.00000000E+00
  0.00000000E+00  0.00000000E+00  0.00000000E+00
  0.00000000E+00  0.00000000E+00  0.00000000E+00
  0.00000000E+00  0.00000000E+00  0.00000000E+00
  0.00000000E+00  0.00000000E+00  0.00000000E+00
  0.00000000E+00  0.00000000E+00  0.00000000E+00
  0.00000000E+00  0.00000000E+00  0.00000000E+00
  0.00000000E+00  0.00000000E+00  0.00000000E+00
  0.00000000E+00  0.00000000E+00  0.00000000E+00
  0.00000000E+00  0.00000000E+00  0.00000000E+00
  0.00000000E+00  0.00000000E+00  0.00000000E+00
  0.00000000E+00  0.00000000E+00  0.00000000E+00
  0.00000000E+00  0.00000000E+00  0.00000000E+00
  0.00000000E+00  0.00000000E+00  0.00000000E+00
  0.00000000E+00  0.00000000E+00  0.00000000E+00
  0.00000000E+00  0.00000000E+00  0.00000000E+00
  0.00000000E+00  0.00000000E+00  0.00000000E+00
  0.00000000E+00  0.00000000E+00  0.00000000E+00
  0.00000000E+00  0.00000000E+00  0.00000000E+00
  0.00000000E+00  0.00000000E+00  0.00000000E+00
  0.00000000E+00  0.00000000E+00  0.00000000E+00
  0.00000000E+00  0.00000000E+00  0.00000000E+00
  0.00000000E+00  0.00000000E+00  0.00000000E+00
  0.00000000E+00  0.00000000E+00  0.00000000E+00
  0.00000000E+00  0.00000000E+00  0.00000000E+00
  0.00000000E+00  0.00000000E+00  0.00000000E+00
  0.00000000E+00  0.00000000E+00  0.00000000E+00
  0.00000000E+00  0.00000000E+00  0.00000000E+00
  0.00000000E+00  0.00000000E+00  0.00000000E+00
  0.00000000E+00  0.00000000E+00  0.00000000E+00
  0.00000000E+00  0.00000000E+00  0.00000000E+00
  0.00000000E+00  0.00000000E+00  0.00000000E+00
  0.00000000E+00  0.00000000E+00  0.00000000E+00
  0.00000000E+00  0.00000000E+00  0.00000000E+00
  0.00000000E+00  0.00000000E+00  0.00000000E+00
  0.00000000E+00  0.00000000E+00  0.00000000E+00
  0.00000000E+00  0.00000000E+00  0.00000000E+00
  0.00000000E+00  0.00000000E+00  0.00000000E+00
  0.00000000E+00  0.00000000E+00  0.00000000E+00
  0.00000000E+00  0.00000000E+00  0.00000000E+00
  0.00000000E+00  0.00000000E+00  0.00000000E+00
  0.00000000E+00  0.00000000E+00  0.00000000E+00
  0.00000000E+00  0.00000000E+00  0.00000000E+00
  0.00000000E+00  0.00000000E+00  0.00000000E+00
  0.00000000E+00  0.00000000E+00  0.00000000E+00
  0.00000000E+00  0.00000000E+00  0.00000000E+00
  0.00000000E+00  0.00000000E+00  0.00000000E+00
  0.00000000E+00  0.00000000E+00  0.00000000E+00
  0.00000000E+00  0.00000000E+00  0.00000000E+00
  0.00000000E+00  0.00000000E+00  0.00000000E+00
  0.00000000E+00  0.00000000E+00  0.00000000E+00
  0.00000000E+00  0.00000000E+00  0.00000000E+00
  0.00000000E+00  0.00000000E+00  0.00000000E+00
  0.00000000E+00  0.00000000E+00  0.00000000E+00
  0.00000000E+00  0.00000000E+00  0.00000000E+00
  0.00000000E+00  0.00000000E+00  0.00000000E+00
  0.00000000E+00  0.00000000E+00  0.00000000E+00
  0.00000000E+00  0.00000000E+00  0.00000000E+00
  0.00000000E+00  0.00000000E+00  0.00000000E+00
  0.00000000E+00  0.00000000E+00  0.00000000E+00
  0.00000000E+00  0.00000000E+00  0.00000000E+00
  0.00000000E+00  0.00000000E+00  0.00000000E+00
  0.00000000E+00  0.00000000E+00  0.00000000E+00
  0.00000000E+00  0.00000000E+00  0.00000000E+00
  0.00000000E+00  0.00000000E+00  0.00000000E+00
  0.00000000E+00  0.00000000E+00  0.00000000E+00
  0.00000000E+00  0.00000000E+00  0.00000000E+00
  0.00000000E+00  0.00000000E+00  0.00000000E+00
  0.00000000E+00  0.00000000E+00  0.00000000E+00
  0.00000000E+00  0.00000000E+00  0.00000000E+00
  0.00000000E+00  0.00000000E+00  0.00000000E+00
  0.00000000E+00  0.00000000E+00  0.00000000E+00
  0.00000000E+00  0.00000000E+00  0.00000000E+00
  0.00000000E+00  0.00000000E+00  0.00000000E+00
  0.00000000E+00  0.00000000E+00  0.00000000E+00
  0.00000000E+00  0.00000000E+00  0.00000000E+00