Amorphous Sb                            
   1.00000000000000     
    20.7918382880077743    0.0000000000000000    0.0000000000000000
     0.0000000000000000   20.7918382880077743    0.0000000000000000
     0.0000000000000000    0.0000000000000000   20.7918382880077743
   Ge   Te   Se
   150    75    75
Direct
  0.5785345642769758  0.0827737345474754  0.4842348030569359
  0.8164254368932521  0.2474793849820659  0.8288359891995750
  0.6075881490084364  0.5734257889328281  0.8180343733176358
  0.2998695644483267  0.1484394019878866  0.4195198349846571
  0.7740184829027711  0.7419765407585431  0.0455464982263707
  0.0200318692171261  0.0335203846446571  0.4128891243342674
  0.9980968535338989  0.1126669567934228  0.0132345280779419
  0.2727394057935645  0.0249499656232587  0.8916654012599591
  0.7676906409830547  0.3313615638018275  0.2372344759610507
  0.1738713179423100  0.3384068656287253  0.4637944666569569
  0.5861959734948318  0.1997246420111430  0.4539550124801656
  0.8921481003688084  0.8691948761026546  0.0193126882185475
  0.9407686862024442  0.6550643055054426  0.2799185662281436
  0.5447025529537888  0.2188373247478900  0.6810626742584509
  0.4344258434179422  0.9245249383343478  0.4979838802544121
  0.1283261944388458  0.5650024394290565  0.7159172591665475
  0.2696315645208803  0.9872001896884626  0.0084600241317030
  0.3775781877066290  0.6730399151704484  0.7467317604164232
  0.8740804846209022  0.8149308323856074  0.7436013706362919
  0.4453077309531692  0.5965444008461522  0.5641241887150631
  0.5870015098676648  0.8071910892131682  0.0518233704538816
  0.2812215001322625  0.2801791567536417  0.6981794157304549
  0.4638733684660706  0.4083225802441607  0.5627141491512873
  0.0535243783588577  0.0450797407577001  0.9177705591848865
  0.5761888790638980  0.8788123667554855  0.4899471505993834
  0.3170764681399620  0.8959329002403428  0.0948874520173145
  0.9853156702737624  0.3682562154366476  0.7665249589123343
  0.5499665205553268  0.1782471283218865  0.9045903807680101
  0.6349001344660664  0.4870362255649870  0.9608632318437004
  0.5756670513260503  0.6149488197028057  0.6369279443183468
  0.6823430759056632  0.6929629033318599  0.2232684970346859
  0.6888977545909397  0.4684386820891517  0.5869382103931139
  0.4831960589435424  0.8958216906794263  0.9231926976650184
  0.5906237825772763  0.5513936885185612  0.2456157012538660
  0.7061257620331167  0.0106902269758443  0.9622331395499416
  0.9741784628803553  0.7600889145607838  0.3428697906877428
  0.8166844594851282  0.8225250810529001  0.1439630998995735
  0.8155808532203509  0.0123124951405051  0.8143238032793874
  0.9386647552865172  0.9460364978636460  0.4430300003143290
  0.6232896619995475  0.0883410762785256  0.1285643229025217
  0.7665908216796876  0.8289762006830146  0.8092994428656352
  0.0090097067956579  0.7893305763129335  0.7215595429661219
  0.7554436933541316  0.6231256782063448  0.9792656147458642
  0.2391157161965786  0.5671913637766134  0.0609903114919225
  0.9084613636458587  0.6448646415863060  0.4459688105236354
  0.1596657135697385  0.2136607318396365  0.4763619819182648
  0.7861730999378811  0.1966815414836773  0.6582818241169208
  0.2460988157797211  0.4590182460041454  0.6077967405568688
  0.3158454345071013  0.6339164056726208  0.9797852172244558
  0.8697643662850478  0.4771398866117061  0.4656645174378088
  0.3852589372797914  0.3883072847845794  0.3216771680541161
  0.1296206621497895  0.6342785975364116  0.3078886112577571
  0.1188564545139701  0.7121667658583122  0.8249981408308825
  0.2977236354386069  0.9812835394416294  0.7127915508897015
  0.9786349610511410  0.9524498750780986  0.7965461634849369
  0.4896947921642017  0.0616597928936891  0.6325417964563911
  0.4514120894660044  0.0438235777571151  0.0501767096389997
  0.0893674900553080  0.7247460257266126  0.1455110196542332
  0.1905508786298927  0.4086216344782084  0.9439299099558524
  0.3762638468421536  0.2706514756690706  0.2988895588052344
  0.5527042918048829  0.4133481655948946  0.1234284978549356
  0.6670632423089126  0.9489790362821269  0.2451608518753800
  0.7607008255642398  0.5079073262086271  0.4147946249733919
  0.6734691114376360  0.0383925018682556  0.7075007858752587
  0.2349873861816986  0.4123709303789818  0.8237595376675940
  0.3009999771402596  0.0094349278801173  0.1620800297577544
  0.8150797152140733  0.8917755620453894  0.3309474218507831
  0.4629435294393917  0.0458880384965090  0.3201337423817494
  0.3565518502945268  0.2906350212313327  0.9123011582113409
  0.6946778268736051  0.4308161649182234  0.7849499665816635
  0.3726765251663043  0.0113542139773250  0.8200220709694810
  0.6868976513530812  0.9257237493484398  0.7820085361266202
  0.6163905221589480  0.1096600334748670  0.3026939368251446
  0.3676842989291357  0.7512051502704911  0.1249098912602833
  0.3122032743381445  0.4449616025981962  0.4196200285261784
  0.3307877151511890  0.7340675685202723  0.8969618135323804
  0.5008379334866163  0.4054528740255368  0.2923117585011049
  0.7955017075260451  0.1021216380095926  0.3693189692438455
  0.6225285357232081  0.3345226090754109  0.0445830841514624
  0.0667932411843935  0.1708561643544674  0.5465557957304682
  0.8196530914331516  0.5901955493107881  0.5869135231982037
  0.8244430198313178  0.9855630078757126  0.4236184398325906
  0.8771100223096667  0.0724721267705751  0.1888069793240618
  0.1128699764632632  0.5063785721638603  0.9213333959080658
  0.2621621818433938  0.5383912172986927  0.3502614240825645
  0.3210917212710246  0.3385602485146293  0.1299834262183887
  0.5257855918972806  0.6892899190019603  0.1781593899038658
  0.1995063370699038  0.1571469382424652  0.2850374474089974
  0.6822870220296161  0.7497711936947183  0.5341324028975010
  0.1560284824864289  0.8194480528641552  0.7100701272865989
  0.5554360596205876  0.7156757387809086  0.4305119311739004
  0.3718871080586269  0.7972634174986234  0.4365642156348237
  0.2386022573113706  0.9869084970848623  0.3214318001929695
  0.3770943777054504  0.1306586363720040  0.7853823243728401
  0.5909944147194781  0.9187460811735167  0.3432420891833911
  0.1258631903904723  0.6753685991235037  0.6308857500953619
  0.3088249662324973  0.8505469457869123  0.8333014532529937
  0.4369619021984451  0.2840894318375555  0.0267405361954634
  0.5049745418160823  0.2806752170380927  0.4137254400223587
  0.4301713007493290  0.6327847529090609  0.3134314952973650
  0.9023325166863064  0.2988259871142505  0.3686192036075233
  0.4725531022761568  0.9606071413042737  0.7598059035146083
  0.0897282443593785  0.2748570529148405  0.9252939905031107
  0.9951041717860293  0.8833365972872327  0.3565959037941255
  0.9896661341612317  0.1478241646713355  0.3711651242754355
  0.2826648704531742  0.7696465053889571  0.3467293240959523
  0.1093754509618939  0.1219282594784677  0.1697095053568043
  0.6685982545485294  0.4733397599391151  0.3006595420518597
  0.3135715469085339  0.3147990852663834  0.4841380664273044
  0.0971692098376909  0.3378779873712950  0.1851170133902997
  0.1510436242791179  0.0897619987068466  0.7172069756064713
  0.7575072243123545  0.5419313411798629  0.1617488818507285
  0.1217699771340694  0.9581574697712745  0.5893385470647717
  0.0754448984890960  0.5211024399920924  0.1209081183556781
  0.0268141174007370  0.4285215194289148  0.3338794588773446
  0.1964399241699835  0.8411436065269735  0.1677032290902463
  0.2132640360011705  0.6404792426189022  0.5070042773551128
  0.9125745050742842  0.8008440065727640  0.2221480982434356
  0.4816317317073953  0.2306165861934882  0.1355552765111739
  0.1773277341949472  0.1875058807259274  0.0834883471986267
  0.4521976673336898  0.8236052993449547  0.0236533281084533
  0.9695372686452045  0.0206361531620062  0.5796648067427155
  0.6392053386477763  0.1032140211905423  0.5941276049107761
  0.2302718937712375  0.1451996035762936  0.8838479162477767
  0.4740325808432855  0.5883694870777874  0.9881992368010097
  0.6882986260889816  0.8231260078510189  0.9634886225684117
  0.9531280539010970  0.2318711667672000  0.5441260484549296
  0.0455371490714243  0.8318679157828023  0.8922368435652661
  0.1230556800272196  0.6823268990049598  0.4253160080980450
  0.5946683164142066  0.3645854405512542  0.3678329991358325
  0.8597767443018018  0.0530639460928342  0.5290503789600457
  0.2155329052236220  0.3945766351698375  0.3224458493459923
  0.0715706604350811  0.0528483334912865  0.5212771792638440
  0.1607416266776563  0.7237513430264013  0.0079096095172014
  0.8741548178235473  0.1178545457612434  0.0284144417237720
  0.2099367859607350  0.8496995902721060  0.5225573171837627
  0.6630473575909429  0.1732933293211719  0.9751140913933110
  0.9829206564247639  0.4153198414640605  0.0394787026804093
  0.8796883711069629  0.3696945526828306  0.1957878434135494
  0.2380094444253411  0.6839134924372965  0.2658330615173914
  0.1677652819011515  0.8493562290324896  0.8591396708994630
  0.0804293528065680  0.9197373152754293  0.0577967918517309
  0.1412936472083145  0.4041522033453979  0.6369416418101078
  0.3253679898137490  0.4978678112733462  0.6959184304391818
  0.4731764353285911  0.7041391670312702  0.9395561857620904
  0.1368215373826917  0.5154408122044409  0.3434653959484912
  0.5091475462091281  0.5175687919916776  0.4137404948814729
  0.9033156086287463  0.5426547270395488  0.7255476752617689
  0.7230976957166182  0.3860477136398607  0.4198028602286602
  0.5141876621493618  0.6529230924638282  0.8349524869385403
  0.1113357544660675  0.1991541857223378  0.6622614945836811
  0.4763826379473277  0.5058776033967727  0.2140746140168176
  0.5735360631482588  0.4513413895129310  0.8413737214880539
  0.8729399125737397  0.3235782536351052  0.7130262125305558
  0.4411652707536909  0.8424869216454960  0.8119187748625444
  0.5403794954388382  0.3046817893985910  0.9477617839042535
  0.2866097553942499  0.8753936727487804  0.2590549499755953
  0.1669920273296482  0.8030657350598187  0.4016420921750459
  0.3257759313167502  0.0944771712887260  0.0635655572815823
  0.5668561078791987  0.0757533555817459  0.7788691086041665
  0.7221256331640862  0.3851913584402575  0.9690617182463440
  0.8031017970887943  0.6859069082874379  0.1602841874162003
  0.4135141438724056  0.1761761917277649  0.6706811623815941
  0.4089061461094666  0.9342016720171207  0.3677007808077713
  0.8720038477429569  0.6130177398406462  0.9172866784215182
  0.7984384268525971  0.8939356154102462  0.9207459539286433
  0.3279931261138279  0.6140591010062239  0.6371207748717957
  0.9425263747156722  0.5305979994660800  0.0834093417110424
  0.6985106752116119  0.3127906176870449  0.8544629354533867
  0.9963651731219240  0.4502066827439675  0.9194245213646541
  0.5900598812063490  0.6891085107458321  0.9994360436527041
  0.3479683230398922  0.3564679573110452  0.7897075408516446
  0.4225417890193271  0.7496492714980738  0.2447366005641642
  0.3087437901904283  0.9552118931147755  0.4660821250812612
  0.6758331376197008  0.2278086601903243  0.0907048975824258
  0.7908694135804550  0.3936192347074043  0.5349080438918594
  0.7030140560268358  0.7347195849730688  0.8691171126108225
  0.9345358658063004  0.0689788486080679  0.8365759613747557
  0.5063489383299552  0.7030352949936201  0.7163996223007774
  0.3660588949251102  0.5315303390577251  0.9128216553952484
  0.1749182937588416  0.0084694564885446  0.2007765731176926
  0.7845678909530648  0.1313426655303710  0.9354135958438319
  0.9838980072659250  0.8004695896925966  0.1121259344011848
  0.8423456537922743  0.7061822093634126  0.6334309705674124
  0.9194516825581960  0.9283907537007270  0.2594949773886467
  0.8748958275229832  0.4356942230927378  0.8013120120312709
  0.6606950237171143  0.3572719501343662  0.6769370497800329
  0.1479298414367511  0.0352343594657800  0.0229355454186790
  0.7575345276833716  0.1325841912539838  0.5443090778676298
  0.6775246523619430  0.2097282778005722  0.3650110818550831
  0.0420269495463973  0.4764133164130594  0.6670142485537256
  0.2995207850791366  0.7557810865187125  0.5366739536463054
  0.9647724909683077  0.3917882829107923  0.4496893875476842
  0.7203032856434998  0.5898003138520339  0.5068508988901741
  0.0052882194951749  0.0544072432362175  0.1309410864351247
  0.5563702044097175  0.3121610184435417  0.2107817844554489
  0.5805390118146074  0.4266745274062933  0.4870647779932172
  0.1039532632618785  0.1573062971787424  0.8602698685987634
  0.8444923348316866  0.6461859149742063  0.7891009837074556
  0.7205006489894138  0.7742004291704648  0.6576810979866898
  0.3376585425484679  0.0704263934334256  0.2704551843126073
  0.9739620328647663  0.2579844129417631  0.8574935528697720
  0.9021466854634385  0.7281474006039796  0.0094594571996547
  0.4538498536401544  0.0599225073867290  0.5000409667924642
  0.2260992703161626  0.0393388447685266  0.6177718562781707
  0.5986882842671705  0.9507187854952688  0.5989651728424480
  0.6135429353494313  0.9166610955419655  0.8958363814814102
  0.5274108741717147  0.3499681621779844  0.6863529266652354
  0.0621098669751747  0.5877611931362746  0.8280850558635443
  0.0092401146276575  0.7311567577564174  0.4689968461272324
  0.0408550465229782  0.0095545224881532  0.6888251122079333
  0.1807716322743942  0.8576069826938157  0.9903201833733000
  0.2874259095313279  0.8515891825947284  0.6978055684921334
  0.1534380516033910  0.4586716319725406  0.2237904322589334
  0.1982418673913753  0.4981703847472700  0.4951521776265193
  0.1761254385368357  0.9761534432189515  0.8218822246302390
  0.7443138089668279  0.9793542876414493  0.0862941670123689
  0.8499458117788471  0.7742166923838918  0.3765566401793830
  0.9002359158108552  0.3287303823099721  0.0773827829368134
  0.9016084507856152  0.4982532446267711  0.2061098873939378
  0.7339159226416265  0.0629808098695480  0.2524305790728020
  0.3963025976941560  0.6226084660516759  0.0904649966124993
  0.6030688735366388  0.8623980252887052  0.7013249320542615
  0.0531703693037543  0.2268932589335098  0.0446869621988684
  0.1641262074388044  0.3323146430370222  0.7465882038582433
  0.6972841768209979  0.8531059725403876  0.4585121736044397
  0.3679056506156091  0.2357998556414439  0.1844688640796711
  0.9009960570486673  0.1491884887340603  0.4679166213835833
  0.6401717458968210  0.5998758020848547  0.1496370825161968
  0.9080090851764151  0.1947047164945637  0.6533526786685192
  0.2766571468903886  0.4642814767230546  0.0082003321822016
  0.7044681441505782  0.4279051921118170  0.1927452140477513
  0.9636558462903974  0.5742946930709156  0.3656491452848442
  0.6167709882411789  0.9603501624568686  0.1384765520788408
  0.5601333011820168  0.6548773921186648  0.2946808740855273
  0.8697990443691120  0.0015491698321044  0.0524535036027417
  0.6319068646602923  0.0254592094431138  0.3946760787175960
  0.4144840389780280  0.1879880444610825  0.8814582223824919
  0.8758042152715028  0.3058693827492641  0.9160532736159476
  0.0868389396749608  0.9573923606860413  0.3501153592258055
  0.9547325641546432  0.7770072316046920  0.8333114880233294
  0.5607022879935984  0.7721031545297614  0.5475002840388893
  0.9236288428259243  0.5573809751082548  0.5385801801666589
  0.2147044936421436  0.6862157039520257  0.8997419099985696
  0.9655765640400027  0.3263889275961266  0.2662989651708339
  0.4517890310521361  0.1973637181039702  0.3475798115218493
  0.6601509027099869  0.5794461682462055  0.7164599136213783
  0.4455957014193974  0.0076904077482824  0.9223691496445631
  0.0945902772392199  0.4020109908120574  0.0737829909872348
  0.3176492366067812  0.4118967488349270  0.2285832733727272
  0.2677914042541424  0.2492281502673466  0.3449031293355990
  0.8160825018846498  0.3840645972561928  0.3376888802459072
  0.2017476543293412  0.2792989105453060  0.1641113513311488
  0.5037615894967866  0.9453385515368432  0.2637820675827141
  0.1219302954202095  0.5783524572195865  0.0180541368392838
  0.3402550547643006  0.8313153896572565  0.9745528523461842
  0.3060122132605015  0.5882469119658850  0.2498998848075133
  0.6017153130359064  0.1991987735319665  0.7962950826400387
  0.9606655405010789  0.9067183470881155  0.5506736907968198
  0.1193937846448601  0.7963059369968383  0.5955792841830362
  0.3181281933586556  0.3644263078206943  0.5966271260470614
  0.9958717969755712  0.9165784715375080  0.9634515741225658
  0.1814058920681969  0.1153670675325889  0.4019393241763808
  0.2692552552901927  0.2014711418117419  0.5281619893086758
  0.4077329229818774  0.5024678638348213  0.4859206284199408
  0.8423226693482687  0.1700788497615943  0.1259242678434305
  0.1987471077767843  0.7053698078067248  0.7270530612070573
  0.2836685837446253  0.6386459554215759  0.4100838446267165
  0.0948733512280861  0.3349551065676053  0.5549150015339562
  0.2341905444986504  0.5216735997251715  0.7755094437894452
  0.7640559296772121  0.5177420544869759  0.0423253467583074
  0.1103156433406377  0.7963255214347299  0.2388475161983034
  0.1061085796005137  0.3361856255744533  0.3604603534429213
  0.8774925062730707  0.9374047602674617  0.7300276595928941
  0.5697554223622707  0.6025997800131340  0.4743440658233773
  0.7588221515585912  0.9378161812349147  0.5092147119087509
  0.6038092366826726  0.0704850031267296  0.0084630970415314
  0.4127747067112165  0.9660804286678029  0.6552698549953956
  0.4279032782273908  0.5734059951283328  0.8042089093682510
  0.6196538930609348  0.2221619054609891  0.5654183320404169
  0.8913905946423252  0.1373987725318797  0.2975799652691588
  0.5019440556842695  0.1155177126724826  0.1605732882470529
  0.4368473977106562  0.2921759270775016  0.5105389519138179
  0.0783461025643246  0.1782244460271896  0.2678175855303861
  0.6096870770782750  0.7819390319742285  0.1697924811921455
  0.2479849150684001  0.7256916457921435  0.1516727696465522
  0.2646701955165050  0.1656843287443796  0.7713569618097326
  0.4354482505250831  0.6924231861301852  0.4284291593641938
  0.0475035144425358  0.6321758101385706  0.2161334366571752
  0.4404184630120115  0.3901925899946166  0.0780697960996896
  0.7408975772982089  0.8530388608407927  0.2389962317137374
  0.4998442361138127  0.5207905283536477  0.6429722814502601
  0.4343718622535105  0.9263041495502887  0.0968156998381556
  0.8041920892776375  0.5047147443279906  0.6626225007505294
  0.0525343285575901  0.7298632468892855  0.9537352040689855
  0.2495695406755226  0.2437522618524252  0.9446488625581904
  0.7639826560687051  0.1080019925666708  0.7471056844018635
  0.7460308326006061  0.5657305508575924  0.3144762181535282
  0.0184367795836448  0.6747151123524643  0.6905734903246992
  0.7051739017498582  0.5551600471761052  0.8877067321250767
 
  0.00000000E+00  0.00000000E+00  0.00000000E+00
  0.00000000E+00  0.00000000E+00  0.00000000E+00
  0.00000000E+00  0.00000000E+00  0.00000000E+00
  0.00000000E+00  0.00000000E+00  0.00000000E+00
  0.00000000E+00  0.00000000E+00  0.00000000E+00
  0.00000000E+00  0.00000000E+00  0.00000000E+00
  0.00000000E+00  0.00000000E+00  0.00000000E+00
  0.00000000E+00  0.00000000E+00  0.00000000E+00
  0.00000000E+00  0.00000000E+00  0.00000000E+00
  0.00000000E+00  0.00000000E+00  0.00000000E+00
  0.00000000E+00  0.00000000E+00  0.00000000E+00
  0.00000000E+00  0.00000000E+00  0.00000000E+00
  0.00000000E+00  0.00000000E+00  0.00000000E+00
  0.00000000E+00  0.00000000E+00  0.00000000E+00
  0.00000000E+00  0.00000000E+00  0.00000000E+00
  0.00000000E+00  0.00000000E+00  0.00000000E+00
  0.00000000E+00  0.00000000E+00  0.00000000E+00
  0.00000000E+00  0.00000000E+00  0.00000000E+00
  0.00000000E+00  0.00000000E+00  0.00000000E+00
  0.00000000E+00  0.00000000E+00  0.00000000E+00
  0.00000000E+00  0.00000000E+00  0.00000000E+00
  0.00000000E+00  0.00000000E+00  0.00000000E+00
  0.00000000E+00  0.00000000E+00  0.00000000E+00
  0.00000000E+00  0.00000000E+00  0.00000000E+00
  0.00000000E+00  0.00000000E+00  0.00000000E+00
  0.00000000E+00  0.00000000E+00  0.00000000E+00
  0.00000000E+00  0.00000000E+00  0.00000000E+00
  0.00000000E+00  0.00000000E+00  0.00000000E+00
  0.00000000E+00  0.00000000E+00  0.00000000E+00
  0.00000000E+00  0.00000000E+00  0.00000000E+00
  0.00000000E+00  0.00000000E+00  0.00000000E+00
  0.00000000E+00  0.00000000E+00  0.00000000E+00
  0.00000000E+00  0.00000000E+00  0.00000000E+00
  0.00000000E+00  0.00000000E+00  0.00000000E+00
  0.00000000E+00  0.00000000E+00  0.00000000E+00
  0.00000000E+00  0.00000000E+00  0.00000000E+00
  0.00000000E+00  0.00000000E+00  0.00000000E+00
  0.00000000E+00  0.00000000E+00  0.00000000E+00
  0.00000000E+00  0.00000000E+00  0.00000000E+00
  0.00000000E+00  0.00000000E+00  0.00000000E+00
  0.00000000E+00  0.00000000E+00  0.00000000E+00
  0.00000000E+00  0.00000000E+00  0.00000000E+00
  0.00000000E+00  0.00000000E+00  0.00000000E+00
  0.00000000E+00  0.00000000E+00  0.00000000E+00
  0.00000000E+00  0.00000000E+00  0.00000000E+00
  0.00000000E+00  0.00000000E+00  0.00000000E+00
  0.00000000E+00  0.00000000E+00  0.00000000E+00
  0.00000000E+00  0.00000000E+00  0.00000000E+00
  0.00000000E+00  0.00000000E+00  0.00000000E+00
  0.00000000E+00  0.00000000E+00  0.00000000E+00
  0.00000000E+00  0.00000000E+00  0.00000000E+00
  0.00000000E+00  0.00000000E+00  0.00000000E+00
  0.00000000E+00  0.00000000E+00  0.00000000E+00
  0.00000000E+00  0.00000000E+00  0.00000000E+00
  0.00000000E+00  0.00000000E+00  0.00000000E+00
  0.00000000E+00  0.00000000E+00  0.00000000E+00
  0.00000000E+00  0.00000000E+00  0.00000000E+00
  0.00000000E+00  0.00000000E+00  0.00000000E+00
  0.00000000E+00  0.00000000E+00  0.00000000E+00
  0.00000000E+00  0.00000000E+00  0.00000000E+00
  0.00000000E+00  0.00000000E+00  0.00000000E+00
  0.00000000E+00  0.00000000E+00  0.00000000E+00
  0.00000000E+00  0.00000000E+00  0.00000000E+00
  0.00000000E+00  0.00000000E+00  0.00000000E+00
  0.00000000E+00  0.00000000E+00  0.00000000E+00
  0.00000000E+00  0.00000000E+00  0.00000000E+00
  0.00000000E+00  0.00000000E+00  0.00000000E+00
  0.00000000E+00  0.00000000E+00  0.00000000E+00
  0.00000000E+00  0.00000000E+00  0.00000000E+00
  0.00000000E+00  0.00000000E+00  0.00000000E+00
  0.00000000E+00  0.00000000E+00  0.00000000E+00
  0.00000000E+00  0.00000000E+00  0.00000000E+00
  0.00000000E+00  0.00000000E+00  0.00000000E+00
  0.00000000E+00  0.00000000E+00  0.00000000E+00
  0.00000000E+00  0.00000000E+00  0.00000000E+00
  0.00000000E+00  0.00000000E+00  0.00000000E+00
  0.00000000E+00  0.00000000E+00  0.00000000E+00
  0.00000000E+00  0.00000000E+00  0.00000000E+00
  0.00000000E+00  0.00000000E+00  0.00000000E+00
  0.00000000E+00  0.00000000E+00  0.00000000E+00
  0.00000000E+00  0.00000000E+00  0.00000000E+00
  0.00000000E+00  0.00000000E+00  0.00000000E+00
  0.00000000E+00  0.00000000E+00  0.00000000E+00
  0.00000000E+00  0.00000000E+00  0.00000000E+00
  0.00000000E+00  0.00000000E+00  0.00000000E+00
  0.00000000E+00  0.00000000E+00  0.00000000E+00
  0.00000000E+00  0.00000000E+00  0.00000000E+00
  0.00000000E+00  0.00000000E+00  0.00000000E+00
  0.00000000E+00  0.00000000E+00  0.00000000E+00
  0.00000000E+00  0.00000000E+00  0.00000000E+00
  0.00000000E+00  0.00000000E+00  0.00000000E+00
  0.00000000E+00  0.00000000E+00  0.00000000E+00
  0.00000000E+00  0.00000000E+00  0.00000000E+00
  0.00000000E+00  0.00000000E+00  0.00000000E+00
  0.00000000E+00  0.00000000E+00  0.00000000E+00
  0.00000000E+00  0.00000000E+00  0.00000000E+00
  0.00000000E+00  0.00000000E+00  0.00000000E+00
  0.00000000E+00  0.00000000E+00  0.00000000E+00
  0.00000000E+00  0.00000000E+00  0.00000000E+00
  0.00000000E+00  0.00000000E+00  0.00000000E+00
  0.00000000E+00  0.00000000E+00  0.00000000E+00
  0.00000000E+00  0.00000000E+00  0.00000000E+00
  0.00000000E+00  0.00000000E+00  0.00000000E+00
  0.00000000E+00  0.00000000E+00  0.00000000E+00
  0.00000000E+00  0.00000000E+00  0.00000000E+00
  0.00000000E+00  0.00000000E+00  0.00000000E+00
  0.00000000E+00  0.00000000E+00  0.00000000E+00
  0.00000000E+00  0.00000000E+00  0.00000000E+00
  0.00000000E+00  0.00000000E+00  0.00000000E+00
  0.00000000E+00  0.00000000E+00  0.00000000E+00
  0.00000000E+00  0.00000000E+00  0.00000000E+00
  0.00000000E+00  0.00000000E+00  0.00000000E+00
  0.00000000E+00  0.00000000E+00  0.00000000E+00
  0.00000000E+00  0.00000000E+00  0.00000000E+00
  0.00000000E+00  0.00000000E+00  0.00000000E+00
  0.00000000E+00  0.00000000E+00  0.00000000E+00
  0.00000000E+00  0.00000000E+00  0.00000000E+00
  0.00000000E+00  0.00000000E+00  0.00000000E+00
  0.00000000E+00  0.00000000E+00  0.00000000E+00
  0.00000000E+00  0.00000000E+00  0.00000000E+00
  0.00000000E+00  0.00000000E+00  0.00000000E+00
  0.00000000E+00  0.00000000E+00  0.00000000E+00
  0.00000000E+00  0.00000000E+00  0.00000000E+00
  0.00000000E+00  0.00000000E+00  0.00000000E+00
  0.00000000E+00  0.00000000E+00  0.00000000E+00
  0.00000000E+00  0.00000000E+00  0.00000000E+00
  0.00000000E+00  0.00000000E+00  0.00000000E+00
  0.00000000E+00  0.00000000E+00  0.00000000E+00
  0.00000000E+00  0.00000000E+00  0.00000000E+00
  0.00000000E+00  0.00000000E+00  0.00000000E+00
  0.00000000E+00  0.00000000E+00  0.00000000E+00
  0.00000000E+00  0.00000000E+00  0.00000000E+00
  0.00000000E+00  0.00000000E+00  0.00000000E+00
  0.00000000E+00  0.00000000E+00  0.00000000E+00
  0.00000000E+00  0.00000000E+00  0.00000000E+00
  0.00000000E+00  0.00000000E+00  0.00000000E+00
  0.00000000E+00  0.00000000E+00  0.00000000E+00
  0.00000000E+00  0.00000000E+00  0.00000000E+00
  0.00000000E+00  0.00000000E+00  0.00000000E+00
  0.00000000E+00  0.00000000E+00  0.00000000E+00
  0.00000000E+00  0.00000000E+00  0.00000000E+00
  0.00000000E+00  0.00000000E+00  0.00000000E+00
  0.00000000E+00  0.00000000E+00  0.00000000E+00
  0.00000000E+00  0.00000000E+00  0.00000000E+00
  0.00000000E+00  0.00000000E+00  0.00000000E+00
  0.00000000E+00  0.00000000E+00  0.00000000E+00
  0.00000000E+00  0.00000000E+00  0.00000000E+00
  0.00000000E+00  0.00000000E+00  0.00000000E+00
  0.00000000E+00  0.00000000E+00  0.00000000E+00
  0.00000000E+00  0.00000000E+00  0.00000000E+00
  0.00000000E+00  0.00000000E+00  0.00000000E+00
  0.00000000E+00  0.00000000E+00  0.00000000E+00
  0.00000000E+00  0.00000000E+00  0.00000000E+00
  0.00000000E+00  0.00000000E+00  0.00000000E+00
  0.00000000E+00  0.00000000E+00  0.00000000E+00
  0.00000000E+00  0.00000000E+00  0.00000000E+00
  0.00000000E+00  0.00000000E+00  0.00000000E+00
  0.00000000E+00  0.00000000E+00  0.00000000E+00
  0.00000000E+00  0.00000000E+00  0.00000000E+00
  0.00000000E+00  0.00000000E+00  0.00000000E+00
  0.00000000E+00  0.00000000E+00  0.00000000E+00
  0.00000000E+00  0.00000000E+00  0.00000000E+00
  0.00000000E+00  0.00000000E+00  0.00000000E+00
  0.00000000E+00  0.00000000E+00  0.00000000E+00
  0.00000000E+00  0.00000000E+00  0.00000000E+00
  0.00000000E+00  0.00000000E+00  0.00000000E+00
  0.00000000E+00  0.00000000E+00  0.00000000E+00
  0.00000000E+00  0.00000000E+00  0.00000000E+00
  0.00000000E+00  0.00000000E+00  0.00000000E+00
  0.00000000E+00  0.00000000E+00  0.00000000E+00
  0.00000000E+00  0.00000000E+00  0.00000000E+00
  0.00000000E+00  0.00000000E+00  0.00000000E+00
  0.00000000E+00  0.00000000E+00  0.00000000E+00
  0.00000000E+00  0.00000000E+00  0.00000000E+00
  0.00000000E+00  0.00000000E+00  0.00000000E+00
  0.00000000E+00  0.00000000E+00  0.00000000E+00
  0.00000000E+00  0.00000000E+00  0.00000000E+00
  0.00000000E+00  0.00000000E+00  0.00000000E+00
  0.00000000E+00  0.00000000E+00  0.00000000E+00
  0.00000000E+00  0.00000000E+00  0.00000000E+00
  0.00000000E+00  0.00000000E+00  0.00000000E+00
  0.00000000E+00  0.00000000E+00  0.00000000E+00
  0.00000000E+00  0.00000000E+00  0.00000000E+00
  0.00000000E+00  0.00000000E+00  0.00000000E+00
  0.00000000E+00  0.00000000E+00  0.00000000E+00
  0.00000000E+00  0.00000000E+00  0.00000000E+00
  0.00000000E+00  0.00000000E+00  0.00000000E+00
  0.00000000E+00  0.00000000E+00  0.00000000E+00
  0.00000000E+00  0.00000000E+00  0.00000000E+00
  0.00000000E+00  0.00000000E+00  0.00000000E+00
  0.00000000E+00  0.00000000E+00  0.00000000E+00
  0.00000000E+00  0.00000000E+00  0.00000000E+00
  0.00000000E+00  0.00000000E+00  0.00000000E+00
  0.00000000E+00  0.00000000E+00  0.00000000E+00
  0.00000000E+00  0.00000000E+00  0.00000000E+00
  0.00000000E+00  0.00000000E+00  0.00000000E+00
  0.00000000E+00  0.00000000E+00  0.00000000E+00
  0.00000000E+00  0.00000000E+00  0.00000000E+00
  0.00000000E+00  0.00000000E+00  0.00000000E+00
  0.00000000E+00  0.00000000E+00  0.00000000E+00
  0.00000000E+00  0.00000000E+00  0.00000000E+00
  0.00000000E+00  0.00000000E+00  0.00000000E+00
  0.00000000E+00  0.00000000E+00  0.00000000E+00
  0.00000000E+00  0.00000000E+00  0.00000000E+00
  0.00000000E+00  0.00000000E+00  0.00000000E+00
  0.00000000E+00  0.00000000E+00  0.00000000E+00
  0.00000000E+00  0.00000000E+00  0.00000000E+00
  0.00000000E+00  0.00000000E+00  0.00000000E+00
  0.00000000E+00  0.00000000E+00  0.00000000E+00
  0.00000000E+00  0.00000000E+00  0.00000000E+00
  0.00000000E+00  0.00000000E+00  0.00000000E+00
  0.00000000E+00  0.00000000E+00  0.00000000E+00
  0.00000000E+00  0.00000000E+00  0.00000000E+00
  0.00000000E+00  0.00000000E+00  0.00000000E+00
  0.00000000E+00  0.00000000E+00  0.00000000E+00
  0.00000000E+00  0.00000000E+00  0.00000000E+00
  0.00000000E+00  0.00000000E+00  0.00000000E+00
  0.00000000E+00  0.00000000E+00  0.00000000E+00
  0.00000000E+00  0.00000000E+00  0.00000000E+00
  0.00000000E+00  0.00000000E+00  0.00000000E+00
  0.00000000E+00  0.00000000E+00  0.00000000E+00
  0.00000000E+00  0.00000000E+00  0.00000000E+00
  0.00000000E+00  0.00000000E+00  0.00000000E+00
  0.00000000E+00  0.00000000E+00  0.00000000E+00
  0.00000000E+00  0.00000000E+00  0.00000000E+00
  0.00000000E+00  0.00000000E+00  0.00000000E+00
  0.00000000E+00  0.00000000E+00  0.00000000E+00
  0.00000000E+00  0.00000000E+00  0.00000000E+00
  0.00000000E+00  0.00000000E+00  0.00000000E+00
  0.00000000E+00  0.00000000E+00  0.00000000E+00
  0.00000000E+00  0.00000000E+00  0.00000000E+00
  0.00000000E+00  0.00000000E+00  0.00000000E+00