Amorphous GeAsSeSi                      
   1.00000000000000     
    20.2876617983586378    0.0000000000000000    0.0000000000000000
     0.0000000000000000   20.2876617983586378    0.0000000000000000
     0.0000000000000000    0.0000000000000000   20.2876617983586378
   Ga   Se
   150   150
Direct
  0.0862245336505367  0.6969921536160939  0.4512150247112956
  0.2267679836953818  0.5394895562992801  0.4227249800506030
  0.7571550467779602  0.9377849658154389  0.2574043442281635
  0.5797886725581165  0.7753900949056458  0.0252836754643724
  0.3333215462478307  0.3540369726164556  0.3842640356047013
  0.4000007957201319  0.9550110110657499  0.0270002718283848
  0.6535139259577392  0.2167980893057901  0.1586248143473910
  0.2231745013183897  0.5816198530743364  0.8430187289514919
  0.0411984293769336  0.4546688335599782  0.7590552389260239
  0.2985338618228326  0.2440193845392358  0.3414488756361180
  0.1877761330664143  0.1405593254902158  0.0757345628909931
  0.1657490449106405  0.4905682637377424  0.9878424137099628
  0.8186810681885675  0.1453602074361058  0.6682461468579461
  0.7565431860218510  0.9699714262643724  0.8696721716590545
  0.6719924335293257  0.2651501517246686  0.4964512323404051
  0.5574231884771663  0.1890675452018939  0.7473312971965314
  0.9779208874277998  0.8887151211013773  0.4457524671721629
  0.3463016413164937  0.2743476671000167  0.0100042531371187
  0.6459147256516431  0.6191191755531449  0.0245441835489189
  0.1289341812825739  0.2367963139177931  0.9140537891554104
  0.5479105485083409  0.8449543638970525  0.8216069089781897
  0.4079022373895995  0.1261568047029442  0.2333855255190613
  0.2946586553547093  0.6400849611674246  0.2451982301410851
  0.5593673897916602  0.1704761052325026  0.4162883876843537
  0.5169577583156482  0.3548942304356615  0.4566411112512654
  0.9857181480418831  0.4996779407723935  0.0588232373878057
  0.6648196977368315  0.4696088053345377  0.4348051886416897
  0.7237498371930755  0.8653178425198789  0.0325274498453751
  0.7493197535577991  0.0817076924163302  0.5150308948540925
  0.6234580914864338  0.5870270325943139  0.1430428325613349
  0.9480016697334150  0.3542458572398672  0.1931195066083760
  0.0297408463371056  0.8781567657585541  0.7902630222666360
  0.9483086280912190  0.7043603017007669  0.1587439183716626
  0.8509969813260057  0.8741288138655889  0.7258017703074060
  0.1185262373286662  0.9396189565606505  0.3253789116974275
  0.5674217452697832  0.8858331159978547  0.3782625477795065
  0.2580336826598071  0.4387072458901287  0.2860108286218477
  0.7822116585693308  0.8600614455218221  0.4006065085623618
  0.6426408600350513  0.6115929756131422  0.3067926606995002
  0.1077929386912331  0.6492931861019500  0.7366583729853957
  0.6549180735632021  0.2596936401402914  0.7548863872627649
  0.8473397505237656  0.2585361910991821  0.0735443046644662
  0.1167097821179013  0.2979663430095556  0.5057161931479186
  0.7465408423199733  0.5749924628638610  0.7401897713884580
  0.5555286253731992  0.1799896003693533  0.5424109157714199
  0.2176889520517165  0.2353879830527035  0.7280784418981270
  0.3831602241068310  0.9344522638137960  0.2335907153270256
  0.6850451041030894  0.9133141534722995  0.5847815273019563
  0.6897762282390687  0.6526400866913846  0.4817843461833249
  0.7772064237530145  0.5105140337232257  0.9085633999715270
  0.4564373379973787  0.4597885580299277  0.9673485280253473
  0.2256464819486013  0.8214122871941427  0.2144902134185145
  0.2826581493012270  0.7982134087225035  0.4021395172922979
  0.8741645961763211  0.8816641998310075  0.9254092503312847
  0.1462765486312634  0.2835667990880353  0.1402994291804802
  0.7977441864255326  0.2422558668649444  0.8337460327537869
  0.1605044215802351  0.8260630355628891  0.5413779814883668
  0.2610194769231029  0.0850684129503563  0.8832104799869427
  0.4744133784414046  0.6703854810570746  0.7416836020511468
  0.0731954842413245  0.5721981589658540  0.5968706974870628
  0.2562932856552749  0.6666237385271288  0.9959637836423738
  0.0105476376381475  0.9919008198830497  0.1282445064179925
  0.5976739534574662  0.9893946143967582  0.9583528417473843
  0.3699982175923182  0.9198747030866059  0.7930724283412545
  0.7071266798220606  0.0098081028401822  0.4236589280630056
  0.4237503439801245  0.5463199440284754  0.3099865069861849
  0.8153656269280489  0.5575828798247286  0.3669639494004286
  0.0706150818677855  0.9607266091218776  0.6162362495663203
  0.2718777357825957  0.2453966673376371  0.2223675649597325
  0.8973638722259949  0.2063015985288104  0.2808488634421877
  0.8751483099918929  0.6623754609786303  0.8359933279359737
  0.3373817967002353  0.3730401661157359  0.6980430617016822
  0.8213110277655815  0.4757382357010727  0.5883319790068526
  0.9124741133681198  0.0914792822256771  0.9490779063024775
  0.2055785053466792  0.3215179885437749  0.8686793125296006
  0.0162057592813980  0.5828528439353917  0.3098283211593227
  0.4620825665973314  0.0782066003526936  0.8732126501210402
  0.3847384821297197  0.8609977342269559  0.4410246117923080
  0.7227050796135543  0.8695587098377899  0.6945536818710920
  0.1848317990794399  0.1228497942890243  0.5686193993975479
  0.6319001502848209  0.4658122545336951  0.1574961232981948
  0.5843965033878007  0.8787949721005219  0.1921366420692934
  0.0113114636234641  0.1993867655753903  0.0477322671164373
  0.1882978156973820  0.8182963629900044  0.6610055557803491
  0.3173485448984437  0.5690881768560700  0.6361555209030527
  0.5483405177189269  0.5973008572046794  0.8055811992952044
  0.1000884086056573  0.6355507405330201  0.0122791953710859
  0.6613854368099439  0.0929366097883033  0.1429830073178735
  0.2144487278936111  0.1978975015920810  0.4231805105545234
  0.6352797788051490  0.7015977219398621  0.6626321017336281
  0.5312579731706890  0.7235729410680705  0.2367741432561843
  0.1470971941501134  0.8882950323578669  0.1532625237494400
  0.6379839616577030  0.1570212938731501  0.9190616946130135
  0.7081128230695484  0.3582469150538756  0.0653294013551715
  0.3351806392381604  0.1251870692066461  0.4404205273443793
  0.9284623929533424  0.5887920548361549  0.6813914278059414
  0.1867251517542741  0.0016336645555270  0.4037652568325996
  0.8734521573340999  0.3734495802751496  0.0315081138708564
  0.3804896063298955  0.4769918440266991  0.5291678227238208
  0.5148694955006050  0.3660183531955283  0.7897071352229119
  0.1818115807303542  0.9460384393749521  0.9188494607343642
  0.6077324128930641  0.0020213225159367  0.3546890664032105
  0.8946799664299192  0.7147756085789041  0.3999130556826458
  0.9545854810172685  0.7921024325578472  0.9530820347910023
  0.6752024046794816  0.4380208022446226  0.8377536534487220
  0.1228833287572044  0.5819485698554416  0.4785217776624577
  0.4650476617292583  0.0635307256837478  0.1425494393215914
  0.3135771659249187  0.7451970757220892  0.8375848787599836
  0.0338148488802545  0.0706952813245536  0.9191954598160237
  0.9196843625902318  0.3001646901093196  0.7135070082465234
  0.7979071621962390  0.9532336216381196  0.0774494619374408
  0.4349994743173582  0.7930411800067887  0.6523323918092672
  0.9364400747566819  0.1397219753201071  0.3973850623034210
  0.4910155035900843  0.9255120213712047  0.5552666266428119
  0.9988482806433225  0.3554797349755745  0.5917318757719769
  0.3750026543350842  0.1004424669291097  0.0649937554936812
  0.8175755123824757  0.7438197467864711  0.7475303871340628
  0.0372203461813641  0.3809921002102712  0.9517477561251795
  0.4212597323296947  0.6470456179010142  0.0855993951392975
  0.0050458204677568  0.1459779483569150  0.6074688519316283
  0.9159584803143943  0.7015287144519533  0.2798786344368693
  0.0012682996793814  0.6175722151700498  0.0892355439691883
  0.1046087623428917  0.6862452733175957  0.2154053560500273
  0.6558896634921894  0.3010638732885909  0.3465768049759319
  0.9485736718981315  0.5442888178751772  0.4738540869718904
  0.0185810128446349  0.2757755723901099  0.3403487417399376
  0.3769157291837715  0.2110822817338658  0.7825171182863428
  0.5495489385417045  0.1731171842266477  0.0033694341410566
  0.3987918700080044  0.8252793742402815  0.9876685227458140
  0.2869418011665275  0.9662530946051646  0.5861992867767469
  0.9494275683237348  0.0922329797804196  0.5126385572896339
  0.4570442696253707  0.5114867856950767  0.7914130717601751
  0.9345605234454908  0.0309440501768776  0.2515788071606195
  0.7358640450029910  0.0518336207214247  0.6890840852939135
  0.5242119133847964  0.3548075430081283  0.1024617152131597
  0.5707317592949934  0.6308934369765211  0.9239901215661845
  0.8009153480240627  0.7214379923883598  0.2348371496047363
  0.6564394716735933  0.3190813076531782  0.2271673580844507
  0.4179557404498553  0.7729116938240139  0.2648784785311520
  0.2545402653783597  0.6693776834559344  0.7642091770987847
  0.3654527368446239  0.6376299063913962  0.5482633310507268
  0.6152821338546843  0.0718063322216125  0.6473142189889884
  0.8461428596668696  0.4528626144748387  0.8201327668280385
  0.6037141941300845  0.7826150226632436  0.3206419593958429
  0.1092075376400388  0.7318161690204974  0.8319433799913014
  0.5707605144821670  0.4803789801602605  0.5771669042882905
  0.2707241161708751  0.4712070142363629  0.8543893603442925
  0.7225789925666390  0.0692872027642935  0.9372873386065166
  0.0571380636434213  0.8054366605906580  0.0246142807811438
  0.8077554612909594  0.6775229238902511  0.0302555735645882
  0.6071538618745933  0.4175459266928669  0.0415992047592368
  0.2253840030128131  0.4172568816394318  0.4023517446332150
  0.2213285405826682  0.5552769271898228  0.2946092268945648
  0.3424829606327648  0.7055696489854810  0.3374757839708877
  0.6850526207077792  0.2651860434022595  0.8757995269434744
  0.1095214779199409  0.9146934548221282  0.0425657437915845
  0.2303818994279752  0.3599185284594171  0.1834818641020490
  0.0014795123967417  0.9119102814095541  0.3325049856430269
  0.7511397583582138  0.0646451967310142  0.0625024929230662
  0.9519764630250194  0.6610189063084420  0.4910111460278870
  0.0116718832381864  0.2614316712521614  0.9418552362109907
  0.6827892437369627  0.7683919855595889  0.7530110895541497
  0.0196618816233212  0.3799001904277475  0.2800384070024791
  0.8410312834585483  0.1546461251131745  0.5444173070080112
  0.0118521747193299  0.1626668024475677  0.2918133535511771
  0.1292852722545135  0.2859494676020446  0.3859961018784546
  0.9638660474178948  0.5077029140153968  0.5943589945222314
  0.8699308104433925  0.9505527569350960  0.8229601326593254
  0.8514903168112298  0.2801759296972506  0.1990667126250969
  0.2162364197213620  0.7358278559785774  0.4809319189829040
  0.0698476382208284  0.5728802315934018  0.1971168699508752
  0.5722900449715738  0.3066011119720002  0.5542378532692140
  0.5053910375069108  0.7350664980289636  0.1144081465219031
  0.3881871846987153  0.4440983192494343  0.8680116346161597
  0.0467576166150039  0.9478921768958273  0.8910936296700456
  0.7785989694709272  0.6681711931155263  0.3967733429123683
  0.8191750732073260  0.6391219247288475  0.6639820232233831
  0.8573232638541199  0.4764748682061395  0.4417404574181205
  0.4845623837952928  0.5730736027337286  0.0068916183176739
  0.9059940987062305  0.6760765466275274  0.9600891769127173
  0.6877427124619615  0.9659034161144930  0.7662593269429934
  0.2897151938078864  0.4497230421652887  0.6098605764033778
  0.0457625004781903  0.5118723147757720  0.4054134092398201
  0.9083529126777634  0.2638221162720100  0.3899219129224036
  0.3537140531341620  0.7556387589572040  0.5717072091309348
  0.7719617979123825  0.4591066029412687  0.7247801587950704
  0.6227862800936350  0.3764141209163228  0.7354112020787795
  0.1144237265701662  0.5662827340565215  0.9088378949642504
  0.6540709513141465  0.9947391082904531  0.2282321157221787
  0.6839191684606618  0.8849557466148354  0.4650324004042474
  0.5920964659338992  0.9955208378306750  0.5500364949272551
  0.4494308422404103  0.4204266647858574  0.7031926708654623
  0.0147128421736369  0.6714956330439747  0.6592972169874116
  0.5211065581568022  0.0815762034615730  0.3479206153691052
  0.9020511149195656  0.1500178121952658  0.0609822151233033
  0.3454897076513177  0.2547104665701951  0.6742744714977391
  0.1054230580610991  0.1003251760875727  0.6551152824596969
  0.1732188345864145  0.1739301150814967  0.1921140829968166
  0.5066510808791662  0.1345154878586996  0.6485900059235092
  0.5749211330044446  0.0968498414018413  0.8265123919350117
  0.3221450684080693  0.6330304345180835  0.9059593444323468
  0.3065834735571400  0.0158548328354087  0.3689397156283647
  0.0463544433708307  0.8025698902293641  0.5059424192808990
  0.2164130968725502  0.7050143365758430  0.1776953915239261
  0.6892384460214487  0.5408628117961172  0.5282274817773356
  0.7515842908736659  0.8539166356589405  0.9140465818822818
  0.4757115888909524  0.9652167780819738  0.9155635201024523
  0.0519098641015177  0.7807293659481260  0.1497405771059093
  0.1480042433394644  0.8393818447365717  0.7782744840367570
  0.6011769657998869  0.6758870142371691  0.3993662768123585
  0.1205640235979644  0.9876383122652896  0.2136760850297108
  0.1522147232214692  0.7391859660598001  0.9576216275591207
  0.1877337926960934  0.8307670127008535  0.3277600394782638
  0.7711529101079151  0.3955809158421104  0.9717605995701462
  0.3993604803371156  0.3635215785193964  0.4904679568522852
  0.4713954546785999  0.9430635055716650  0.1522989783714550
  0.0360161973483599  0.3431378676316399  0.7079564395883367
  0.0540804184268069  0.7002553656761989  0.3258278373222012
  0.7354363205272350  0.3994272426523295  0.1764144257781979
  0.5636950229691493  0.0664543640937296  0.0693184168900842
  0.9377020426965288  0.4459497427138146  0.9547142278052334
  0.3731585893929932  0.5805645897154932  0.1756980903484902
  0.1917310379635353  0.2517365232223909  0.0284066848798474
  0.2638568433980666  0.0608393306834287  0.0337987104296218
  0.2362755053448993  0.3873135697883257  0.7655323676976664
  0.7073504121200713  0.5084388674599225  0.3265358321918015
  0.8444792268632426  0.7553328990644772  0.1148571025578065
  0.3851073137587377  0.0900677643743037  0.7826868271488649
  0.8260210789145859  0.1282520089850365  0.8699412180128618
  0.0897342788055298  0.4097145446355981  0.5367738794360974
  0.3601048891571992  0.2061114237998254  0.1460274121047362
  0.8498681148973617  0.9356532748411865  0.1846597662974929
  0.5520017931242833  0.3895147787341315  0.2160550796057663
  0.4229841908513876  0.7781619585061250  0.7780534814140836
  0.5455877803440217  0.4672416053337116  0.4322632345242710
  0.5176827788894656  0.7045620836336184  0.6305084901309357
  0.1231131901257072  0.1285417134689908  0.8624590238478618
  0.3402156420743978  0.8351448586044015  0.1830661731157477
  0.7646430533956234  0.5646069973634695  0.0253615706930574
  0.5225931102397752  0.7494728001898423  0.9253447498420968
  0.8857963922547043  0.3314290936590325  0.8287171404000730
  0.7807363161193592  0.9894663671137991  0.5938779662568550
  0.8740869732444025  0.8178703419323270  0.4639161769420781
  0.0746605295928617  0.0954501609819474  0.0458030431836178
  0.1405302344198702  0.1036560054752229  0.4546280072190854
  0.5034065578131148  0.8338734044356144  0.4763550122770681
  0.0999269756605869  0.4088076405867582  0.8549307158222064
  0.4835209764146384  0.8991939398477342  0.6694560682108417
  0.0127002851880320  0.2470391310190934  0.5367585070842722
  0.2918001709130564  0.8843514531491365  0.6740819695497180
  0.3841396718774917  0.9659399584725676  0.5063339885504092
  0.3048351141036250  0.8452047517122949  0.9007865188629012
  0.5382749868375072  0.2345701113636736  0.1082411189337904
  0.4322129599593723  0.1576596425350161  0.9648066465142051
  0.0880048352832574  0.4236589280671907  0.0542868948249406
  0.3112409465906225  0.0311793476050468  0.2498066754768686
  0.5400608135130724  0.5976406441799327  0.2396115476530056
  0.4191658401276754  0.3921560255045407  0.0588613268427167
  0.2907388500007713  0.2266174966360524  0.8649939187113347
  0.9919698446619094  0.7700720895028326  0.8372842436827526
  0.2169875734168869  0.2415216495163506  0.5442161185442558
  0.4558925476552389  0.5557200958151043  0.5807892772895329
  0.8973705990286120  0.5746948596359687  0.2766290540902361
  0.9459830382466521  0.5272486963765743  0.7882526248659474
  0.5316428653071412  0.2815944985066636  0.3641801930749722
  0.3445637495732399  0.5637391106593626  0.4486572645762053
  0.3366215316643135  0.7300066400188214  0.0574265598668049
  0.6035753462816800  0.8911478676812123  0.0519615203036139
  0.2467396186972977  0.4048197749686011  0.9568611531077522
  0.7219235653096376  0.3599016449190700  0.4368400131845789
  0.1904721198486783  0.9423124460070369  0.5144811960214355
  0.7255801079500870  0.2395034812567545  0.0550045580688518
  0.4380489509137462  0.8847826054385592  0.3281591604929375
  0.0271636817880818  0.2697933173724039  0.1429121743332757
  0.6789232011768931  0.1716075040877385  0.5783102088566281
  0.6292108792754476  0.5846616696973044  0.7063499581075732
  0.6819857986718176  0.1914124664046923  0.3992921147997563
  0.3747063838085296  0.4153113500544734  0.2844997102154281
  0.4837779484650540  0.2546130458306095  0.8227034582558517
  0.1985247701914332  0.6889239672564074  0.6588613653437392
  0.9633419954433649  0.9714580703054452  0.5316277628887391
  0.8792049842941267  0.3464485321577229  0.6107528775515334
  0.6956833640909750  0.7420858495832690  0.0501228661507724
  0.5489224718140591  0.4225641683742651  0.8912913567179430
  0.7305401470833672  0.8192420945141521  0.2945668532896590
  0.9683424803321969  0.8891421722373209  0.6891419443027686
  0.8108730813183129  0.9693998942319126  0.3618216304119031
  0.8407269992141480  0.1098752220930308  0.3162125017672253
  0.2893758560112829  0.0830810390854282  0.6089446894685580
  0.7016869711971196  0.7313272255184060  0.5688430784951493
  0.3637489888738159  0.5991797423541954  0.7446313880597373
  0.6943294099512727  0.6629713690572103  0.2115653005537936
  0.8943933542316174  0.9756042253180013  0.0034365186761818
  0.7696700753798495  0.2509805191823560  0.7142257497285982
  0.2060816673416781  0.5789068446885608  0.0634661570384125
  0.7490927839941364  0.6176690555553819  0.8522580458668259
  0.4006886571517043  0.1796780155805280  0.3420445146385447
  0.1249484189708170  0.5290485777675258  0.7064789676406207
  0.9336267774543572  0.1758530333106876  0.7092008676790442
  0.9000077972987199  0.4436434593643028  0.1302859391881057
 
  0.00000000E+00  0.00000000E+00  0.00000000E+00
  0.00000000E+00  0.00000000E+00  0.00000000E+00
  0.00000000E+00  0.00000000E+00  0.00000000E+00
  0.00000000E+00  0.00000000E+00  0.00000000E+00
  0.00000000E+00  0.00000000E+00  0.00000000E+00
  0.00000000E+00  0.00000000E+00  0.00000000E+00
  0.00000000E+00  0.00000000E+00  0.00000000E+00
  0.00000000E+00  0.00000000E+00  0.00000000E+00
  0.00000000E+00  0.00000000E+00  0.00000000E+00
  0.00000000E+00  0.00000000E+00  0.00000000E+00
  0.00000000E+00  0.00000000E+00  0.00000000E+00
  0.00000000E+00  0.00000000E+00  0.00000000E+00
  0.00000000E+00  0.00000000E+00  0.00000000E+00
  0.00000000E+00  0.00000000E+00  0.00000000E+00
  0.00000000E+00  0.00000000E+00  0.00000000E+00
  0.00000000E+00  0.00000000E+00  0.00000000E+00
  0.00000000E+00  0.00000000E+00  0.00000000E+00
  0.00000000E+00  0.00000000E+00  0.00000000E+00
  0.00000000E+00  0.00000000E+00  0.00000000E+00
  0.00000000E+00  0.00000000E+00  0.00000000E+00
  0.00000000E+00  0.00000000E+00  0.00000000E+00
  0.00000000E+00  0.00000000E+00  0.00000000E+00
  0.00000000E+00  0.00000000E+00  0.00000000E+00
  0.00000000E+00  0.00000000E+00  0.00000000E+00
  0.00000000E+00  0.00000000E+00  0.00000000E+00
  0.00000000E+00  0.00000000E+00  0.00000000E+00
  0.00000000E+00  0.00000000E+00  0.00000000E+00
  0.00000000E+00  0.00000000E+00  0.00000000E+00
  0.00000000E+00  0.00000000E+00  0.00000000E+00
  0.00000000E+00  0.00000000E+00  0.00000000E+00
  0.00000000E+00  0.00000000E+00  0.00000000E+00
  0.00000000E+00  0.00000000E+00  0.00000000E+00
  0.00000000E+00  0.00000000E+00  0.00000000E+00
  0.00000000E+00  0.00000000E+00  0.00000000E+00
  0.00000000E+00  0.00000000E+00  0.00000000E+00
  0.00000000E+00  0.00000000E+00  0.00000000E+00
  0.00000000E+00  0.00000000E+00  0.00000000E+00
  0.00000000E+00  0.00000000E+00  0.00000000E+00
  0.00000000E+00  0.00000000E+00  0.00000000E+00
  0.00000000E+00  0.00000000E+00  0.00000000E+00
  0.00000000E+00  0.00000000E+00  0.00000000E+00
  0.00000000E+00  0.00000000E+00  0.00000000E+00
  0.00000000E+00  0.00000000E+00  0.00000000E+00
  0.00000000E+00  0.00000000E+00  0.00000000E+00
  0.00000000E+00  0.00000000E+00  0.00000000E+00
  0.00000000E+00  0.00000000E+00  0.00000000E+00
  0.00000000E+00  0.00000000E+00  0.00000000E+00
  0.00000000E+00  0.00000000E+00  0.00000000E+00
  0.00000000E+00  0.00000000E+00  0.00000000E+00
  0.00000000E+00  0.00000000E+00  0.00000000E+00
  0.00000000E+00  0.00000000E+00  0.00000000E+00
  0.00000000E+00  0.00000000E+00  0.00000000E+00
  0.00000000E+00  0.00000000E+00  0.00000000E+00
  0.00000000E+00  0.00000000E+00  0.00000000E+00
  0.00000000E+00  0.00000000E+00  0.00000000E+00
  0.00000000E+00  0.00000000E+00  0.00000000E+00
  0.00000000E+00  0.00000000E+00  0.00000000E+00
  0.00000000E+00  0.00000000E+00  0.00000000E+00
  0.00000000E+00  0.00000000E+00  0.00000000E+00
  0.00000000E+00  0.00000000E+00  0.00000000E+00
  0.00000000E+00  0.00000000E+00  0.00000000E+00
  0.00000000E+00  0.00000000E+00  0.00000000E+00
  0.00000000E+00  0.00000000E+00  0.00000000E+00
  0.00000000E+00  0.00000000E+00  0.00000000E+00
  0.00000000E+00  0.00000000E+00  0.00000000E+00
  0.00000000E+00  0.00000000E+00  0.00000000E+00
  0.00000000E+00  0.00000000E+00  0.00000000E+00
  0.00000000E+00  0.00000000E+00  0.00000000E+00
  0.00000000E+00  0.00000000E+00  0.00000000E+00
  0.00000000E+00  0.00000000E+00  0.00000000E+00
  0.00000000E+00  0.00000000E+00  0.00000000E+00
  0.00000000E+00  0.00000000E+00  0.00000000E+00
  0.00000000E+00  0.00000000E+00  0.00000000E+00
  0.00000000E+00  0.00000000E+00  0.00000000E+00
  0.00000000E+00  0.00000000E+00  0.00000000E+00
  0.00000000E+00  0.00000000E+00  0.00000000E+00
  0.00000000E+00  0.00000000E+00  0.00000000E+00
  0.00000000E+00  0.00000000E+00  0.00000000E+00
  0.00000000E+00  0.00000000E+00  0.00000000E+00
  0.00000000E+00  0.00000000E+00  0.00000000E+00
  0.00000000E+00  0.00000000E+00  0.00000000E+00
  0.00000000E+00  0.00000000E+00  0.00000000E+00
  0.00000000E+00  0.00000000E+00  0.00000000E+00
  0.00000000E+00  0.00000000E+00  0.00000000E+00
  0.00000000E+00  0.00000000E+00  0.00000000E+00
  0.00000000E+00  0.00000000E+00  0.00000000E+00
  0.00000000E+00  0.00000000E+00  0.00000000E+00
  0.00000000E+00  0.00000000E+00  0.00000000E+00
  0.00000000E+00  0.00000000E+00  0.00000000E+00
  0.00000000E+00  0.00000000E+00  0.00000000E+00
  0.00000000E+00  0.00000000E+00  0.00000000E+00
  0.00000000E+00  0.00000000E+00  0.00000000E+00
  0.00000000E+00  0.00000000E+00  0.00000000E+00
  0.00000000E+00  0.00000000E+00  0.00000000E+00
  0.00000000E+00  0.00000000E+00  0.00000000E+00
  0.00000000E+00  0.00000000E+00  0.00000000E+00
  0.00000000E+00  0.00000000E+00  0.00000000E+00
  0.00000000E+00  0.00000000E+00  0.00000000E+00
  0.00000000E+00  0.00000000E+00  0.00000000E+00
  0.00000000E+00  0.00000000E+00  0.00000000E+00
  0.00000000E+00  0.00000000E+00  0.00000000E+00
  0.00000000E+00  0.00000000E+00  0.00000000E+00
  0.00000000E+00  0.00000000E+00  0.00000000E+00
  0.00000000E+00  0.00000000E+00  0.00000000E+00
  0.00000000E+00  0.00000000E+00  0.00000000E+00
  0.00000000E+00  0.00000000E+00  0.00000000E+00
  0.00000000E+00  0.00000000E+00  0.00000000E+00
  0.00000000E+00  0.00000000E+00  0.00000000E+00
  0.00000000E+00  0.00000000E+00  0.00000000E+00
  0.00000000E+00  0.00000000E+00  0.00000000E+00
  0.00000000E+00  0.00000000E+00  0.00000000E+00
  0.00000000E+00  0.00000000E+00  0.00000000E+00
  0.00000000E+00  0.00000000E+00  0.00000000E+00
  0.00000000E+00  0.00000000E+00  0.00000000E+00
  0.00000000E+00  0.00000000E+00  0.00000000E+00
  0.00000000E+00  0.00000000E+00  0.00000000E+00
  0.00000000E+00  0.00000000E+00  0.00000000E+00
  0.00000000E+00  0.00000000E+00  0.00000000E+00
  0.00000000E+00  0.00000000E+00  0.00000000E+00
  0.00000000E+00  0.00000000E+00  0.00000000E+00
  0.00000000E+00  0.00000000E+00  0.00000000E+00
  0.00000000E+00  0.00000000E+00  0.00000000E+00
  0.00000000E+00  0.00000000E+00  0.00000000E+00
  0.00000000E+00  0.00000000E+00  0.00000000E+00
  0.00000000E+00  0.00000000E+00  0.00000000E+00
  0.00000000E+00  0.00000000E+00  0.00000000E+00
  0.00000000E+00  0.00000000E+00  0.00000000E+00
  0.00000000E+00  0.00000000E+00  0.00000000E+00
  0.00000000E+00  0.00000000E+00  0.00000000E+00
  0.00000000E+00  0.00000000E+00  0.00000000E+00
  0.00000000E+00  0.00000000E+00  0.00000000E+00
  0.00000000E+00  0.00000000E+00  0.00000000E+00
  0.00000000E+00  0.00000000E+00  0.00000000E+00
  0.00000000E+00  0.00000000E+00  0.00000000E+00
  0.00000000E+00  0.00000000E+00  0.00000000E+00
  0.00000000E+00  0.00000000E+00  0.00000000E+00
  0.00000000E+00  0.00000000E+00  0.00000000E+00
  0.00000000E+00  0.00000000E+00  0.00000000E+00
  0.00000000E+00  0.00000000E+00  0.00000000E+00
  0.00000000E+00  0.00000000E+00  0.00000000E+00
  0.00000000E+00  0.00000000E+00  0.00000000E+00
  0.00000000E+00  0.00000000E+00  0.00000000E+00
  0.00000000E+00  0.00000000E+00  0.00000000E+00
  0.00000000E+00  0.00000000E+00  0.00000000E+00
  0.00000000E+00  0.00000000E+00  0.00000000E+00
  0.00000000E+00  0.00000000E+00  0.00000000E+00
  0.00000000E+00  0.00000000E+00  0.00000000E+00
  0.00000000E+00  0.00000000E+00  0.00000000E+00
  0.00000000E+00  0.00000000E+00  0.00000000E+00
  0.00000000E+00  0.00000000E+00  0.00000000E+00
  0.00000000E+00  0.00000000E+00  0.00000000E+00
  0.00000000E+00  0.00000000E+00  0.00000000E+00
  0.00000000E+00  0.00000000E+00  0.00000000E+00
  0.00000000E+00  0.00000000E+00  0.00000000E+00
  0.00000000E+00  0.00000000E+00  0.00000000E+00
  0.00000000E+00  0.00000000E+00  0.00000000E+00
  0.00000000E+00  0.00000000E+00  0.00000000E+00
  0.00000000E+00  0.00000000E+00  0.00000000E+00
  0.00000000E+00  0.00000000E+00  0.00000000E+00
  0.00000000E+00  0.00000000E+00  0.00000000E+00
  0.00000000E+00  0.00000000E+00  0.00000000E+00
  0.00000000E+00  0.00000000E+00  0.00000000E+00
  0.00000000E+00  0.00000000E+00  0.00000000E+00
  0.00000000E+00  0.00000000E+00  0.00000000E+00
  0.00000000E+00  0.00000000E+00  0.00000000E+00
  0.00000000E+00  0.00000000E+00  0.00000000E+00
  0.00000000E+00  0.00000000E+00  0.00000000E+00
  0.00000000E+00  0.00000000E+00  0.00000000E+00
  0.00000000E+00  0.00000000E+00  0.00000000E+00
  0.00000000E+00  0.00000000E+00  0.00000000E+00
  0.00000000E+00  0.00000000E+00  0.00000000E+00
  0.00000000E+00  0.00000000E+00  0.00000000E+00
  0.00000000E+00  0.00000000E+00  0.00000000E+00
  0.00000000E+00  0.00000000E+00  0.00000000E+00
  0.00000000E+00  0.00000000E+00  0.00000000E+00
  0.00000000E+00  0.00000000E+00  0.00000000E+00
  0.00000000E+00  0.00000000E+00  0.00000000E+00
  0.00000000E+00  0.00000000E+00  0.00000000E+00
  0.00000000E+00  0.00000000E+00  0.00000000E+00
  0.00000000E+00  0.00000000E+00  0.00000000E+00
  0.00000000E+00  0.00000000E+00  0.00000000E+00
  0.00000000E+00  0.00000000E+00  0.00000000E+00
  0.00000000E+00  0.00000000E+00  0.00000000E+00
  0.00000000E+00  0.00000000E+00  0.00000000E+00
  0.00000000E+00  0.00000000E+00  0.00000000E+00
  0.00000000E+00  0.00000000E+00  0.00000000E+00
  0.00000000E+00  0.00000000E+00  0.00000000E+00
  0.00000000E+00  0.00000000E+00  0.00000000E+00
  0.00000000E+00  0.00000000E+00  0.00000000E+00
  0.00000000E+00  0.00000000E+00  0.00000000E+00
  0.00000000E+00  0.00000000E+00  0.00000000E+00
  0.00000000E+00  0.00000000E+00  0.00000000E+00
  0.00000000E+00  0.00000000E+00  0.00000000E+00
  0.00000000E+00  0.00000000E+00  0.00000000E+00
  0.00000000E+00  0.00000000E+00  0.00000000E+00
  0.00000000E+00  0.00000000E+00  0.00000000E+00
  0.00000000E+00  0.00000000E+00  0.00000000E+00
  0.00000000E+00  0.00000000E+00  0.00000000E+00
  0.00000000E+00  0.00000000E+00  0.00000000E+00
  0.00000000E+00  0.00000000E+00  0.00000000E+00
  0.00000000E+00  0.00000000E+00  0.00000000E+00
  0.00000000E+00  0.00000000E+00  0.00000000E+00
  0.00000000E+00  0.00000000E+00  0.00000000E+00
  0.00000000E+00  0.00000000E+00  0.00000000E+00
  0.00000000E+00  0.00000000E+00  0.00000000E+00
  0.00000000E+00  0.00000000E+00  0.00000000E+00
  0.00000000E+00  0.00000000E+00  0.00000000E+00
  0.00000000E+00  0.00000000E+00  0.00000000E+00
  0.00000000E+00  0.00000000E+00  0.00000000E+00
  0.00000000E+00  0.00000000E+00  0.00000000E+00
  0.00000000E+00  0.00000000E+00  0.00000000E+00
  0.00000000E+00  0.00000000E+00  0.00000000E+00
  0.00000000E+00  0.00000000E+00  0.00000000E+00
  0.00000000E+00  0.00000000E+00  0.00000000E+00
  0.00000000E+00  0.00000000E+00  0.00000000E+00
  0.00000000E+00  0.00000000E+00  0.00000000E+00
  0.00000000E+00  0.00000000E+00  0.00000000E+00
  0.00000000E+00  0.00000000E+00  0.00000000E+00
  0.00000000E+00  0.00000000E+00  0.00000000E+00
  0.00000000E+00  0.00000000E+00  0.00000000E+00
  0.00000000E+00  0.00000000E+00  0.00000000E+00
  0.00000000E+00  0.00000000E+00  0.00000000E+00
  0.00000000E+00  0.00000000E+00  0.00000000E+00
  0.00000000E+00  0.00000000E+00  0.00000000E+00
  0.00000000E+00  0.00000000E+00  0.00000000E+00
  0.00000000E+00  0.00000000E+00  0.00000000E+00
  0.00000000E+00  0.00000000E+00  0.00000000E+00
  0.00000000E+00  0.00000000E+00  0.00000000E+00
  0.00000000E+00  0.00000000E+00  0.00000000E+00
  0.00000000E+00  0.00000000E+00  0.00000000E+00
  0.00000000E+00  0.00000000E+00  0.00000000E+00
  0.00000000E+00  0.00000000E+00  0.00000000E+00