Amorphous Sb                            
   1.00000000000000     
    20.8671579077798057    0.0000000000000000    0.0000000000000000
     0.0000000000000000   20.8671579077798057    0.0000000000000000
     0.0000000000000000    0.0000000000000000   20.8671579077798057
   In   Sb
    45   255
Direct
  0.8980399102442258  0.7517556784159314  0.0574186053715494
  0.1894160945851740  0.7973643317595992  0.8994692925294701
  0.2871262634851426  0.3866260011446674  0.2742657044275592
  0.7596246959201585  0.6501252684167296  0.2790748352164040
  0.3297161700153393  0.5266241461655653  0.0299394762035336
  0.4165872661610026  0.1121811041466290  0.1615032943034230
  0.0077898402310737  0.3135775946469379  0.9842037252067263
  0.4468639660057463  0.2406332100728334  0.2734275872247138
  0.8132013584368946  0.4055446929148698  0.2587094800571424
  0.2685584151493112  0.3620503657093066  0.5202212685418444
  0.9235110692422569  0.9467335230292460  0.1788655726156274
  0.7679994735443456  0.1968288672581274  0.2330270388340951
  0.0151681754794392  0.2351968286182192  0.7586575201053126
  0.7094035018951060  0.6771132132382790  0.1266888232354320
  0.1627355245962706  0.4696897338700200  0.9761686515861880
  0.1344150243678076  0.4333479604939782  0.2068831102692915
  0.2019631782494278  0.5519905157347872  0.2892752785991197
  0.6063010785349591  0.1608555886272713  0.4405576938301823
  0.1715726608753813  0.8174572424935205  0.3089146450747642
  0.8054220806573811  0.8099837573336938  0.3970225563814951
  0.6232669289519401  0.3917598653090612  0.5244898589904554
  0.1444465729117248  0.6640369495955356  0.4397023051272852
  0.1556705007582715  0.1515373004100800  0.2427199580627550
  0.2033359574602387  0.3963550065964612  0.8049034178727658
  0.7362071431509357  0.0206755512525305  0.1328837077218077
  0.9901149681937158  0.7975453556089911  0.3201661495056390
  0.4620076180500098  0.8313603534739239  0.1627350935984689
  0.4379560904841870  0.7467056082575585  0.3557772618081388
  0.6032491355591089  0.6080779993216627  0.5449774359378199
  0.7572679520622084  0.8332088128075255  0.6792354710718230
  0.4013102328375049  0.9247421593352717  0.4948601888208040
  0.2540842125205778  0.5460784093209801  0.7354365635654003
  0.6362583856417210  0.7497176299638463  0.3915689096288096
  0.5231861629679846  0.8919940378470268  0.4315030845413304
  0.8593619066760749  0.0947586650729152  0.4947743166165223
  0.3234014787188809  0.8221717465920585  0.2229761403993351
  0.3232336538207520  0.0951880543691313  0.7574593917020290
  0.6206225743889857  0.7394443290772339  0.6517290249978435
  0.5896588294548278  0.1124284658880008  0.8884577574512759
  0.1899145129504442  0.3192290930411996  0.9364053853659645
  0.3022614313110481  0.6510949946376312  0.5303248049150843
  0.0376017116408659  0.5668731838263613  0.4585761677400365
  0.5207154536813960  0.1673632736933174  0.5707156760146344
  0.9444063231138442  0.0288715861733666  0.9158664798573924
  0.1926162024794051  0.5262714701475864  0.4800522875770731
  0.6630339111205757  0.7570385532325240  0.2442199044585060
  0.4721484875018688  0.0997239236127887  0.7690580461980755
  0.4309154933705033  0.5071888554763697  0.7917998088391037
  0.7679406260776402  0.5087507793614032  0.9405529740202462
  0.4843047320290290  0.9862329161970179  0.0267690773415637
  0.9628317476187436  0.6569483803391799  0.3280384937331111
  0.4406626225127319  0.1361711620892918  0.9435558641605485
  0.1280514438187491  0.0931932898514843  0.8018904645006806
  0.0623732266333429  0.2718995223317799  0.5556652616979136
  0.5575751532430655  0.3559921384862222  0.0336538897357706
  0.8737615798944017  0.7941796142972780  0.5589504023879878
  0.7069716484509238  0.6654368559389366  0.9864505675819443
  0.5993211219081258  0.4430689639163005  0.3761898490109544
  0.5734202806272402  0.6556887483552585  0.9426590667692388
  0.3645823343528432  0.9149841935094241  0.9679431820797333
  0.7647437338615349  0.4152736085305654  0.8118807118535218
  0.6821011834050206  0.4194694986521297  0.0869966550003566
  0.6975325444782317  0.0650807732677145  0.4759668182874321
  0.2938506416834686  0.2285060286041030  0.1146138406459269
  0.7408390111084107  0.8806807743652800  0.2573829028126254
  0.9054623747206170  0.4162914713822807  0.9338474845402160
  0.3180352608613149  0.2984449966279690  0.3976182772888950
  0.5276241572954158  0.2807680789210831  0.6730587081996527
  0.5310269720117584  0.9790872977601959  0.8868025707484373
  0.1692032652159695  0.9871613026387794  0.1607158144818499
  0.8920447469128783  0.4332784360492158  0.0900128206502821
  0.9020465400879069  0.5355382165010854  0.8482458964789086
  0.4864731367676973  0.0452294638436430  0.4696137324409459
  0.8897505225731054  0.2635488116082686  0.6873004762865474
  0.9497520284884020  0.6111644134824837  0.7032688304192152
  0.7137125170971628  0.0472262225170788  0.8366905924724302
  0.2258268074277131  0.1744381119472299  0.3953761143616789
  0.3504778890016563  0.6848045245374290  0.2598294537276997
  0.0033954937571247  0.1126168681077851  0.1696716512150581
  0.4298091892342117  0.6197479973855534  0.4370119710263366
  0.5633879200184112  0.1192561630718976  0.0373223812426668
  0.1411104971114241  0.6799428581561854  0.9915688214177232
  0.2150503923937410  0.6853761008648772  0.1892266625296024
  0.0179817307874968  0.5658236109054682  0.1617628046691105
  0.5260748418664627  0.0283480616636326  0.6235109645655122
  0.4240918516655362  0.6480110207404217  0.0749024734082442
  0.8667992100591599  0.3921564465040565  0.6249120994142463
  0.1715574096295955  0.0708493628535611  0.5005987876450850
  0.0545139004924967  0.9914563310890241  0.2515575656825302
  0.1678354045892030  0.2957335933191976  0.2563271070475790
  0.9382670222425316  0.6630154449289446  0.5083797904507273
  0.2940129195037412  0.7941301789737605  0.5758628697510320
  0.8670748393941050  0.2913166292313864  0.0988914249324824
  0.4792558558851440  0.3006219939738744  0.8893922827256566
  0.6183539959292428  0.4634273211121355  0.9090907028130502
  0.9024705948054851  0.9141880402247903  0.6783535810493493
  0.5525981868127988  0.9017582828773645  0.5754723587328189
  0.0936232226428646  0.9199675455011407  0.0620989878373229
  0.8382691150911390  0.6644985956335022  0.3958012910615769
  0.6070065630301202  0.3087663496870776  0.8277584158470532
  0.6828444922287267  0.8891159411115600  0.4009805721787232
  0.1179142012691206  0.0127859542775903  0.6287060966225401
  0.3008671652365225  0.2381200385929216  0.8440750798647864
  0.9769227387503207  0.4035340438540867  0.2012857388657607
  0.2486773354291823  0.9189248423186395  0.6220822444740972
  0.6571306009051568  0.2517378441350224  0.5712917128092020
  0.5526756310281730  0.8618766665676001  0.7173150297034064
  0.4617260560808097  0.4867126842447900  0.6343966409150811
  0.7872171085555028  0.7801088141889981  0.9639758068937766
  0.3243907692730484  0.0456889671654311  0.2671364204350592
  0.6941885585058043  0.7469207297837875  0.7760430043265824
  0.1435778681214402  0.0660090551406437  0.3514929805483086
  0.3649141381543873  0.7766104509944143  0.0709376844057555
  0.0296357845053101  0.2534658215360758  0.2463628570852892
  0.0283759782038001  0.7150050181643889  0.6117136096774768
  0.1991002891034988  0.8172980241610035  0.1663679970867658
  0.1635064671364009  0.3509899450965691  0.6539398276071906
  0.1908847022020872  0.4272771237118405  0.3755154530288579
  0.0576543712750444  0.7789992947859877  0.8279698505583319
  0.1124333582187310  0.4975346102306861  0.7554768661552843
  0.8829149574510284  0.5405649594697727  0.5880854825126051
  0.1870374309431814  0.7744183072454125  0.6605536910665838
  0.5669148006290563  0.0993844533011332  0.1848158877493335
  0.3533908125704411  0.2542304141473790  0.9933243848151101
  0.9464746167384291  0.1105887738893219  0.6869232312098404
  0.1306533444275977  0.7837200489381062  0.5170427639400774
  0.2428697504056284  0.8663673840803133  0.0409378876819890
  0.1740174093206766  0.5008877043110480  0.6125732690453174
  0.0394237938360734  0.1296692528454975  0.5223902710725992
  0.0618200003766218  0.5010629010355796  0.3411717131613670
  0.3232433685547434  0.9626890730932228  0.1555345737700598
  0.4635212194540752  0.9734572804175342  0.1830664036237943
  0.7304975823108927  0.7782409603234042  0.5454444597392565
  0.7807734399873995  0.1785688491072786  0.6246583621050197
  0.7754523315105852  0.9890934205985275  0.3705585776968902
  0.4035295758780688  0.5687999182220517  0.2017797401703381
  0.3779533290791395  0.9884486541042464  0.6242293779344260
  0.7831611047009229  0.3389662268699436  0.5197109399144149
  0.5402325424736989  0.8356891556023636  0.2940256761039464
  0.6755232105924854  0.3774054408154077  0.2325827464481087
  0.4466852290158588  0.0020445585031482  0.3254317444407277
  0.0209372317402851  0.5133383881478250  0.5936903822102936
  0.5040411499088415  0.6522052563979756  0.6400996578386258
  0.6649074794141933  0.0928659620243014  0.6194038253906562
  0.0594496621303080  0.3432009121836410  0.8367079750114449
  0.5531728143659692  0.7025917067642909  0.0902979964916028
  0.8320845218720937  0.1356511752177973  0.3477553573254366
  0.3762371805033047  0.7189791500904165  0.7265283266952400
  0.9293305192105705  0.1897920396488809  0.0105738406480623
  0.6945476473948795  0.9258909202011688  0.5453294710444067
  0.6316199155100591  0.9756970670201067  0.0400425319272557
  0.4244753278487867  0.6274158530657792  0.9293595682113798
  0.7363535748843075  0.4977472871354374  0.3984208465532225
  0.5630729975289993  0.5472355676367152  0.1773074251223175
  0.6170728982409515  0.9222723765640634  0.1988938831470350
  0.7317003280630182  0.1479390172734885  0.0001954964828015
  0.0730476817860770  0.6950493035374703  0.1376236094079915
  0.4280719050159296  0.2053432302314172  0.4430760906559154
  0.6931864447914755  0.6229244188666085  0.4499112177631100
  0.9866743354716780  0.8068154960991080  0.4684517012208004
  0.6037840564387238  0.1790840979393269  0.7499895956262382
  0.7445481820296882  0.4819405081744547  0.5414386758355301
  0.5119337305947330  0.4119228978512294  0.2080828256648323
  0.3299396132127347  0.5093163995374523  0.3905970554320576
  0.8912167893910268  0.3777966876843041  0.4162590930317174
  0.8358723394017542  0.6046197572341435  0.0156178051232047
  0.8425143774623411  0.6954221295015476  0.7001780700387326
  0.2134397302475024  0.9846764960602670  0.7500853904780023
  0.4492732552956999  0.4003277454388491  0.5091281447611676
  0.4716549082031748  0.4838204552530869  0.0697488226025436
  0.7356200947666423  0.8661922409899606  0.8563511842180622
  0.9805296217258946  0.7974672088493893  0.1709669602454489
  0.6734422968730501  0.5923328244318506  0.6697399932252597
  0.6242209737471097  0.2512097476171097  0.9564612112799592
  0.8949560079297089  0.6034748524647834  0.2112140113270903
  0.2194735758592035  0.9441866317041310  0.9021736685891641
  0.1034276146602593  0.8765779504309340  0.7305003129048285
  0.4393614529616345  0.3602374015580943  0.3517669701004005
  0.1575528049641178  0.5870379388276556  0.8852524747664409
  0.7834945240215320  0.5221571313968858  0.1359394563839384
  0.3022801043636152  0.1936852363515774  0.2616890290105395
  0.2342024565063109  0.2210502858052170  0.5508004544135140
  0.4753735116474408  0.4587445574906691  0.9201652185342398
  0.8808630844850882  0.5193827573379683  0.4394205840278231
  0.3012238522991204  0.5524961727198562  0.8798525973442857
  0.9253731861701581  0.2151478544385987  0.5462955757541058
  0.3386882307774974  0.4908224806297802  0.5430588667326655
  0.6889557755926149  0.5231542178661769  0.2461932825292473
  0.8865210385440707  0.9252734764685479  0.8327221469272202
  0.1483054745312078  0.0268189186194581  0.9851836185282451
  0.2390906607641208  0.0984910323017164  0.6370302857930541
  0.8419259157704075  0.9277230621090963  0.5090173502178205
  0.0763624236706346  0.9489357726892833  0.8852165781176277
  0.3042846932629706  0.8417815959115833  0.7655839948130807
  0.8397795202457929  0.7817510844458253  0.1940832900035022
  0.1130801342582635  0.6681573062456673  0.2914483310970422
  0.0222867233172791  0.3698742994027536  0.3589607591651586
  0.5750911635443712  0.9867164169043868  0.7525753795367692
  0.8428242818566869  0.0685426732145332  0.0477798186593275
  0.9988614153860629  0.1573661505116778  0.8815395845885352
  0.0120600680461767  0.8637862904495585  0.6104979938320991
  0.4785171412689069  0.2567276384606087  0.1071821065033740
  0.7356184036639841  0.3475373712566961  0.3826504652695224
  0.7421045538702570  0.3595670488997911  0.6835536972587618
  0.8299047098713506  0.1137589937679464  0.8212080227135100
  0.0346201608644379  0.4810706708829522  0.8898014176946885
  0.9171234902352096  0.2299505111071857  0.4055966947116932
  0.7174164549779041  0.9848725658210362  0.6930421087201705
  0.5711445247531902  0.7576833627192404  0.5151235108671791
  0.2426865219282566  0.6940536174854572  0.7875359138836600
  0.7992923912703287  0.5404226450717685  0.7427941242378864
  0.2910359087175195  0.2365682435733204  0.6804461470048550
  0.5226647052596516  0.5171549454488034  0.4769311810503575
  0.6148314118277667  0.5804498434016164  0.8259991679321169
  0.6075519003069714  0.8713907004551773  0.9357998642229537
  0.2608564693572943  0.9554961096897552  0.4601323748404277
  0.8928739635194363  0.2859479752088159  0.2393806769287839
  0.5212462403427787  0.1263312440909384  0.3234745932778345
  0.1491628955769467  0.6438465817531760  0.5876404707759671
  0.8953403029431101  0.8892058163162665  0.9848128607101170
  0.6910576199723555  0.0671850413519180  0.2644541212459362
  0.5545776120596672  0.3129321460751324  0.4223035721930795
  0.4279816264889932  0.2370333125292995  0.7626712694907234
  0.2033474545688746  0.1142760517164483  0.1171636265837860
  0.1474805327248054  0.2967694934167543  0.4373582921643317
  0.0727994619035403  0.9021609610406653  0.3603743099364818
  0.3763076287670708  0.2740522826610895  0.5681364625382966
  0.2342396126671777  0.9520694631867325  0.3259231552942723
  0.2891670424700727  0.3849210437520151  0.0117080482672795
  0.0129671766585373  0.6446856763986544  0.8396572331823129
  0.0321208530316044  0.1665809536751999  0.3661169107972627
  0.6085549625987632  0.2335270900806180  0.1786430173005811
  0.3574412758809575  0.8759768907455927  0.3419974675207210
  0.4237916392246361  0.8264634000743682  0.6412251128914561
  0.9507737537932506  0.0537247452404738  0.3353302634658262
  0.7540187823157252  0.9746760257534534  0.9600093988481683
  0.7519632731181973  0.2180248623629110  0.7653731314052636
  0.5556036104830603  0.4490503820892698  0.7691283967938358
  0.5059489836813849  0.8198374206442964  0.0148232484237169
  0.4171019040590218  0.8222572621173920  0.8720873940191631
  0.4073432923978462  0.9327072033493143  0.7558597107059513
  0.3810562007429799  0.0279211278350722  0.8728540082526391
  0.9775036719948822  0.0059889160237756  0.0603236786180940
  0.3010695314195687  0.4052434777331049  0.6712132975922265
  0.3453795039380113  0.0889236031300532  0.4338261703050315
  0.9882865465125733  0.3901631908163126  0.5156440653729707
  0.8675506118518138  0.3278107652063901  0.8289115400913398
  0.9939685982959063  0.6803759050643707  0.9727439012612829
  0.4613272301490782  0.5114178764097834  0.3194760800803453
  0.8688451615501860  0.0964009348136633  0.1920382223796470
  0.9170387937214942  0.4295478758390065  0.7547762738075773
  0.9679336334888011  0.9623227749091511  0.4479653197278679
  0.1696049564569218  0.3066172174772187  0.1055351461425742
  0.9819222767814907  0.5449167848303028  0.0311547937624282
  0.6490606702854357  0.2350771749359371  0.3158483453694984
  0.3252302905649155  0.7294339644682895  0.9197239073220532
  0.3811531571398340  0.3614746397761424  0.1496415547075350
  0.1298550382564233  0.1760570129707735  0.9307911092691928
  0.7343103279098053  0.2534456325855862  0.0918453924656961
  0.2779532719672071  0.1384383553025182  0.9423321260895398
  0.0846439848288568  0.1869214495935707  0.0724354823295689
  0.7988322226542128  0.8808582370357084  0.1045082565305569
  0.0231418024287121  0.8278497261025533  0.9570838497950779
  0.5654045463256078  0.7631441376512065  0.8427668599000862
  0.6558096250032969  0.8284350879914770  0.1015827038991732
  0.7743627375139555  0.6393333076867016  0.5796789017037347
  0.4257370969789478  0.3844847852051488  0.7271802482917289
  0.7367862971858883  0.3514384723546765  0.9789670035634203
  0.2787251959907323  0.6512042594889723  0.3808083156149558
  0.7594008235800639  0.1891895009402163  0.4600356061066362
  0.1651689486366135  0.5640145820261668  0.0899445327692474
  0.3340238372329183  0.4108791489200510  0.8747003794340412
  0.8715460658063087  0.7002473423319456  0.8810193347088765
  0.9154276390009277  0.4941351122131675  0.2952980879568893
  0.9809636288267273  0.0134281267327986  0.5830393854770662
  0.0292201751472439  0.3884690545840360  0.6760275147199538
  0.2657292941772648  0.6670882980225897  0.0571795006973502
  0.6025340892452929  0.0081816246001139  0.3656460026130258
  0.0933643704962000  0.1522467281243181  0.6669894468096537
  0.4933806313937258  0.6487963913661919  0.7797796846680306
  0.4349291056939442  0.7703921686240497  0.5018928075841138
  0.6381132385596665  0.4632516479914425  0.6464545977371219
  0.9202110684986164  0.7983346793638397  0.7729466674140183
  0.0019628221642764  0.9916026691101640  0.7457333018406620
  0.2711069208157064  0.4972214075364298  0.1745303965049491
  0.5705948065521016  0.6032309774219916  0.3572063943230313
  0.3584811969116183  0.0459109654771189  0.0489751629996465
  0.1197420292853957  0.9238426740601439  0.5051861390292588
  0.8226255970729540  0.2229806181777519  0.9228108839327842
  0.5270067489547731  0.6801338023782322  0.2413155885054514
  0.1161806369556465  0.6453527520652393  0.7316126621593682
  0.7481142942704575  0.6201022272409529  0.8508748003155800
  0.6292827760031048  0.5359122529619322  0.0381319518178115
  0.8870158443531990  0.9010877694264560  0.3338390294732119
  0.8297462097940226  0.0432961696851765  0.6331100102170765
  0.2613141550243490  0.8003401005922822  0.4189849709858122
  0.3662489816068160  0.5994142092676411  0.6491690576191995
  0.1831336789978474  0.2170623316308000  0.7729070781993274
  0.0705344224125843  0.4093518947770967  0.0622318846388530
  0.3728707934543132  0.1235839883549838  0.5718525630022487
 
 -0.42429739E-03  0.43042790E-03  0.73355611E-03
 -0.12455241E-02 -0.18742238E-02 -0.51073746E-03
 -0.16504765E-02 -0.72064431E-03 -0.16990032E-02
  0.51349149E-03 -0.12883981E-03 -0.11663625E-02
  0.37193261E-03  0.85751459E-03 -0.19618168E-02
 -0.55004483E-04  0.24722687E-02  0.10144331E-02
 -0.40158389E-03  0.34076908E-03  0.23780991E-03
  0.11725136E-02 -0.79171202E-03 -0.31990450E-02
 -0.26996069E-03 -0.10841280E-03 -0.11829402E-02
  0.70677522E-03 -0.96730029E-03  0.35876678E-03
  0.12022373E-02 -0.15867214E-02  0.10084070E-02
 -0.36904146E-03  0.11747174E-02  0.15857591E-02
  0.72261465E-03  0.26847134E-02 -0.48331588E-03
  0.21386286E-02  0.28070610E-03  0.67549295E-03
  0.13905286E-02 -0.27670734E-02 -0.14461211E-02
 -0.51979953E-03  0.29415416E-02  0.29936245E-02
  0.43894706E-03  0.28870911E-02  0.12568624E-02
 -0.43307990E-03 -0.45146668E-03 -0.13269742E-02
 -0.33160998E-02  0.20704347E-03 -0.98668248E-03
  0.27736603E-02  0.11239360E-02 -0.55580060E-03
  0.12289867E-03  0.34090775E-03  0.75171984E-03
  0.75068884E-03  0.13553771E-02  0.29016437E-03
  0.47016006E-02  0.52292024E-03  0.24881833E-02
 -0.13200277E-02  0.21618668E-02 -0.67654542E-03
 -0.40739380E-03 -0.22627237E-02 -0.20630542E-02
  0.17316253E-02  0.13834240E-02 -0.21794791E-02
  0.38299983E-03 -0.90408351E-03 -0.58249236E-03
 -0.11388130E-02  0.29351374E-02 -0.63171827E-03
  0.17479092E-02  0.58118405E-03  0.10531070E-03
  0.15118157E-02  0.55079714E-03 -0.97067206E-03
  0.10912184E-02 -0.14475787E-02 -0.21729683E-02
 -0.12631281E-03 -0.15788036E-02 -0.13317101E-02
  0.20789470E-03 -0.32467337E-02  0.89115559E-03
 -0.87060787E-03 -0.44768005E-03 -0.11472076E-02
 -0.16097818E-02  0.24988293E-02 -0.23929893E-02
 -0.99771107E-04  0.88441204E-03  0.64331600E-03
 -0.60724642E-03  0.28862965E-02  0.11130977E-02
 -0.53309461E-03 -0.41959698E-03  0.67521124E-03
  0.33704735E-02  0.11823795E-02  0.24808518E-02
  0.14989654E-02  0.45445321E-04 -0.21790650E-03
 -0.21226764E-02  0.60768424E-03 -0.12222573E-04
  0.22560585E-02 -0.11203790E-02 -0.28407561E-02
  0.11356010E-02 -0.12504566E-02  0.15856494E-02
 -0.26508866E-02  0.16896771E-02  0.25918362E-02
 -0.46863558E-03  0.36072588E-02  0.26449551E-02
  0.63128735E-03 -0.78934374E-03  0.12429440E-02
  0.18351422E-02  0.35305629E-03  0.16905644E-02
  0.62720341E-03  0.22534019E-02  0.11321119E-02
  0.97237073E-03 -0.20799635E-03  0.78473361E-03
  0.61820175E-03  0.94440714E-03 -0.15507594E-02
  0.72863254E-03 -0.56033341E-04  0.46220810E-04
 -0.16832424E-02  0.20036712E-02 -0.14373354E-02
 -0.22451279E-02  0.13203641E-02 -0.51764430E-03
 -0.43141837E-03  0.11239921E-02 -0.56870876E-03
 -0.99975710E-03 -0.87029779E-03  0.13025342E-02
 -0.28677240E-03 -0.25046988E-02 -0.10072626E-02
  0.17910085E-02 -0.50793086E-03 -0.12487175E-02
 -0.72261509E-03 -0.14881583E-02 -0.22976829E-03
  0.72278493E-03 -0.11768696E-02  0.17853793E-02
  0.57849860E-03 -0.15758440E-03  0.21938008E-02
 -0.12813600E-02  0.16284221E-02  0.17811800E-02
 -0.10187171E-02  0.11659879E-03 -0.24060862E-03
 -0.89431284E-03  0.33808217E-03  0.11587254E-02
 -0.11019423E-02 -0.14308800E-02  0.32955154E-03
 -0.15726682E-02 -0.89883325E-03 -0.81088315E-03
 -0.86820298E-03 -0.16399632E-02 -0.11272557E-02
  0.93755229E-03 -0.13432594E-02  0.59211603E-03
  0.14304586E-02 -0.14850952E-02 -0.55438109E-03
  0.14389065E-02  0.28235329E-03 -0.29697912E-02
 -0.10939039E-02 -0.10507581E-02  0.11896501E-02
  0.44875374E-03 -0.13620681E-02  0.19148320E-02
  0.38959292E-03  0.70469442E-03  0.38967453E-03
 -0.76352394E-03 -0.18082185E-02 -0.17437250E-02
 -0.19666400E-02 -0.78062543E-03  0.21875318E-02
  0.14840201E-02 -0.18237358E-04 -0.33731988E-03
  0.83431550E-04  0.14381634E-02 -0.17504453E-05
  0.17763511E-02 -0.15786375E-02 -0.20581050E-03
 -0.40515874E-03  0.89554084E-03  0.15184395E-02
  0.20378404E-02  0.15948347E-03 -0.37055431E-04
 -0.63967064E-03  0.62760057E-04  0.31507956E-03
 -0.11946398E-02  0.14560394E-02  0.31758014E-03
  0.21349279E-02 -0.27412575E-03 -0.26698491E-02
  0.90634560E-03 -0.10593789E-02 -0.12638992E-02
 -0.25722154E-02 -0.75155040E-03 -0.12958224E-02
  0.10037830E-02  0.30818243E-03  0.51444408E-03
 -0.11508110E-02  0.93274120E-03 -0.12244497E-03
  0.21203165E-02  0.20914565E-02 -0.17295515E-02
 -0.58889425E-03 -0.25479010E-02  0.64116740E-03
  0.11724512E-02  0.40152776E-04  0.40601942E-04
 -0.19776379E-02 -0.18183747E-02 -0.18146479E-02
 -0.30756006E-02  0.13821718E-02 -0.35293232E-03
  0.11220567E-02 -0.13916821E-03 -0.16227428E-02
  0.97748615E-03  0.39811783E-03 -0.26584906E-02
 -0.13567094E-02  0.78427887E-03  0.27778969E-02
 -0.54464135E-03 -0.82525155E-03  0.21101757E-02
 -0.13426218E-03  0.71482332E-03  0.17060573E-02
  0.18470761E-02 -0.93262075E-03 -0.12931307E-02
 -0.44777063E-03  0.10747257E-02 -0.11593921E-02
 -0.11338883E-02  0.31759897E-02 -0.27068657E-02
  0.26131005E-02 -0.20997227E-02  0.73769903E-03
 -0.54699080E-03 -0.41949201E-03  0.10568135E-02
 -0.22029319E-02 -0.63819773E-03 -0.40211118E-03
  0.13655649E-02 -0.14941788E-02 -0.11957634E-02
 -0.21227328E-03 -0.22068546E-03  0.11936221E-02
 -0.75418268E-04  0.20983219E-02 -0.17036274E-02
  0.66341013E-03 -0.84681757E-03 -0.54886788E-03
 -0.33893854E-03 -0.34503955E-02 -0.21073841E-02
  0.67052903E-03  0.37704789E-03  0.22694825E-02
  0.16558760E-02 -0.10006008E-02  0.61404639E-03
 -0.56266763E-03  0.77263401E-03 -0.17676268E-02
  0.16927823E-02 -0.79139113E-03  0.18582839E-02
 -0.18245254E-02 -0.89492372E-03  0.34967877E-04
  0.25573048E-02 -0.27485729E-02 -0.13747997E-03
  0.35708682E-03  0.10042363E-03 -0.10585143E-02
  0.66051237E-04 -0.13829119E-02  0.17042279E-02
  0.74691903E-03  0.17385922E-02 -0.10832202E-02
  0.70058455E-04 -0.15348754E-03  0.31848137E-03
  0.14360871E-03 -0.20385631E-03 -0.15261224E-02
 -0.31956032E-02 -0.48166647E-04  0.20138376E-03
  0.69823916E-03  0.14556202E-02 -0.33964089E-03
 -0.95104147E-03 -0.11954705E-02 -0.22488351E-03
 -0.77902719E-03 -0.23721332E-02  0.27059889E-02
 -0.28607375E-02  0.20405746E-02  0.25681847E-02
 -0.21327143E-03  0.18123454E-02 -0.36096470E-03
  0.35514905E-03 -0.14727541E-02 -0.31883838E-02
  0.12041143E-02  0.93531758E-03  0.13194549E-03
 -0.77856387E-03  0.26423965E-02  0.42644624E-03
  0.16969353E-02 -0.20610812E-03 -0.10582456E-03
 -0.17075809E-02  0.17978070E-02  0.77618664E-05
 -0.17916326E-02 -0.17123267E-02 -0.46903250E-03
 -0.18622816E-02 -0.54584142E-03  0.29294545E-03
  0.23571980E-02 -0.34722317E-03  0.19823041E-03
  0.92311150E-03 -0.50071554E-03  0.32530692E-02
 -0.29041071E-02 -0.16987250E-02  0.61915804E-03
 -0.30745620E-02 -0.60896927E-03 -0.41005503E-03
  0.51050078E-03  0.64392886E-03 -0.19374296E-02
 -0.65915877E-03  0.19438452E-02  0.18701403E-02
  0.46060987E-03 -0.39108280E-03 -0.17078020E-02
  0.22794428E-03 -0.96360520E-03  0.17788761E-02
  0.80739859E-03  0.46120227E-03 -0.44132933E-03
  0.73906364E-04 -0.90019901E-03  0.15367606E-02
 -0.14122604E-02 -0.10060528E-02  0.26768987E-03
 -0.34099860E-03  0.15561134E-02  0.10521135E-03
 -0.42838512E-02  0.15829349E-02  0.22095890E-02
 -0.10267522E-02  0.24282219E-03 -0.11807291E-02
  0.25051983E-03 -0.97018892E-03 -0.18279250E-02
 -0.41171160E-03  0.91473870E-03  0.78544052E-03
  0.15708701E-04  0.11251364E-02 -0.37827245E-03
 -0.21840789E-03  0.10122538E-03 -0.80389382E-03
  0.14777446E-02 -0.24195071E-02 -0.39041117E-02
  0.82599499E-03 -0.55822351E-03  0.92025244E-03
  0.16697899E-02  0.66463349E-03 -0.10251849E-02
  0.15929134E-02 -0.20783274E-02  0.12154072E-03
 -0.15561985E-02 -0.11367561E-02  0.47238682E-03
 -0.54969091E-03  0.11614302E-02  0.17955080E-02
 -0.22962291E-04 -0.71873608E-04 -0.14527506E-02
 -0.75847193E-03  0.40131932E-03 -0.18842936E-02
 -0.77947093E-03 -0.44415123E-03 -0.56651531E-03
  0.13444688E-02 -0.14219739E-02 -0.96644540E-03
 -0.76245468E-03 -0.69053179E-03 -0.30130974E-02
  0.19747652E-02 -0.13873298E-02 -0.10942035E-02
 -0.55206513E-03 -0.11706458E-02 -0.25093255E-02
 -0.13322847E-02  0.10789881E-02 -0.16249240E-03
  0.18414730E-02 -0.78190124E-03  0.20198348E-02
 -0.86075563E-03  0.37877755E-02  0.14592912E-03
 -0.37745825E-03 -0.81122277E-03 -0.22153474E-02
  0.15428280E-03 -0.15413140E-02 -0.17157587E-02
  0.14636138E-02 -0.67873209E-03 -0.99113883E-03
  0.60637942E-03 -0.13384728E-02  0.15666441E-02
 -0.21889685E-03  0.16162209E-02 -0.29398331E-02
  0.90474345E-03  0.22204718E-02 -0.30838967E-03
 -0.75457483E-03  0.93756007E-03 -0.18899304E-02
  0.64665474E-03 -0.12061926E-02  0.12285400E-02
  0.17281002E-02  0.12016779E-04  0.16920351E-02
  0.18909574E-02  0.15711564E-02  0.25123317E-02
  0.27800157E-02  0.10991761E-02  0.32303495E-02
 -0.12441509E-02  0.23997550E-02  0.44070122E-03
 -0.16266847E-02 -0.63687749E-03 -0.54436196E-03
  0.14793115E-02  0.24875025E-03  0.34581345E-02
  0.45018710E-03  0.15213388E-02  0.26162969E-03
 -0.10867021E-02  0.41966756E-03  0.28896593E-02
 -0.10966490E-02 -0.12065648E-03 -0.83461282E-03
  0.93516791E-03  0.78957363E-03 -0.20812491E-02
 -0.12644290E-02 -0.25101510E-02  0.31107990E-02
 -0.11804639E-03 -0.13132611E-02  0.96673835E-03
 -0.95289086E-03  0.11554540E-02  0.96765563E-04
 -0.84863065E-03 -0.10023731E-02 -0.21431119E-02
 -0.24754177E-03  0.26664758E-02 -0.96531938E-03
  0.19041648E-03  0.71828421E-03 -0.14530677E-02
 -0.13039292E-02 -0.11351811E-03 -0.23708994E-02
 -0.21195175E-02  0.12857976E-02  0.86576452E-03
  0.15130229E-02 -0.13561782E-03  0.13919776E-02
  0.14595164E-02  0.14340964E-04  0.92948369E-03
  0.65092653E-03 -0.14152436E-02  0.27586682E-03
 -0.59893611E-03 -0.10630811E-02  0.26073962E-02
  0.69931127E-03 -0.84562564E-03 -0.72481994E-03
 -0.19621253E-03  0.14974821E-02  0.83654791E-03
  0.16459569E-02 -0.78025910E-04 -0.19042165E-04
 -0.40185509E-02  0.13663045E-02 -0.65941804E-03
 -0.48914368E-04  0.42752884E-03  0.25115427E-02
  0.38148847E-03  0.28443338E-03 -0.38000016E-03
 -0.12089375E-02 -0.59900205E-03 -0.21735270E-02
  0.16873828E-02 -0.15869612E-02 -0.61911186E-03
 -0.47336802E-03  0.12438100E-03 -0.18722811E-02
 -0.15786771E-02 -0.16589643E-02 -0.13121379E-02
  0.29623285E-03 -0.16607942E-02  0.48702678E-03
  0.59954638E-03  0.30315686E-02  0.61351190E-05
 -0.18855297E-02  0.92405810E-03 -0.37789229E-02
 -0.18181696E-02  0.10325985E-02 -0.75170279E-03
 -0.55662773E-03  0.52805012E-03 -0.33687990E-03
  0.35664591E-03 -0.24738909E-02 -0.83920107E-03
  0.64430762E-03 -0.75580109E-03  0.67762229E-05
  0.27175948E-02  0.67027975E-03 -0.17474901E-02
  0.16029821E-03  0.24882296E-03 -0.10176591E-02
 -0.80011224E-03  0.73053240E-04 -0.25054616E-03
  0.17136814E-02  0.17115225E-02 -0.14725257E-02
  0.17488971E-02 -0.29658378E-03 -0.12881044E-03
 -0.40084571E-02 -0.13216772E-02 -0.11630635E-02
 -0.17418456E-02  0.49999283E-03  0.17026108E-03
  0.29712211E-02 -0.20619273E-02  0.62363180E-03
 -0.16244994E-02 -0.16669444E-02  0.46831952E-03
 -0.16293981E-02 -0.15121697E-04 -0.18322117E-02
 -0.74103487E-03 -0.16179411E-02  0.23524190E-03
 -0.16161934E-03 -0.15439300E-02  0.94992019E-03
  0.23476115E-02  0.24454886E-02 -0.22260196E-02
  0.23940170E-03  0.10294383E-02  0.45407458E-02
 -0.96521161E-03 -0.44913608E-04  0.37460324E-03
  0.57422961E-03 -0.16788448E-02  0.47147819E-03
  0.92586628E-03 -0.10251358E-02 -0.78615487E-03
  0.18982245E-02 -0.16971246E-02 -0.11204805E-02
 -0.11520016E-02  0.27846343E-03  0.64992560E-03
  0.28601073E-03  0.73915138E-03 -0.38218289E-03