Ge25 Se7 Te68 via 5x5x1 from Ge4Te4; 50 
   1.00000000000000     
    30.5369207761758652    0.0000000000000000    0.0000000000000020
    -0.0000000000000020   30.5369207761758652    0.0000000000000020
     0.0000000000000000    0.0000000000000000    6.1073841552351755
   Ge   Se   Te
    50    14   136
Direct
 -0.0117003505205496 -0.0030902727328439 -0.0000000000000000
 -0.0066930074024173  0.0936174813816883  0.5000000000000000
  0.0922805370235940  0.0977446395107054  0.0000000000000000
 -0.0010045499272983  0.1910158030116840 -0.0000000000000000
  0.0085867216056968  0.2874721377276096  0.5000000000000000
  0.0039259346586945  0.3868197820618910 -0.0000000000000000
 -0.0026210672639241  0.4828815694380154  0.5000000000000000
  0.0992109572511237  0.3980153147716159  0.5000000000000000
  0.0931128538692393  0.4955155276585575 -0.0000000000000000
  0.0077189480670432  0.6960575465134717  0.5000000000000000
  0.0036772544403366  0.7906456855570555  0.0000000000000000
  0.1012768918705347  0.8082529607992854  0.5000000000000000
  0.0980830141115098  0.9029306820684632  0.0000000000000000
  0.1936579766205881  0.1082316007755825  0.5000000000000000
  0.2871903154200853  0.0144909354955670  0.5000000000000000
  0.2931179982820489  0.1109189643519289 -0.0000000000000000
  0.2099045627873927  0.3089545136526269  0.5000000000000000
  0.3069784940727378  0.3055483374399204  0.0000000000000000
  0.2984431733238807  0.4056663429743980  0.5000000000000000
  0.2039590696061204  0.7186484363773774  0.5000000000000000
  0.1979964925480113  0.8144758397541989  0.0000000000000000
  0.1919349917201370  0.9096335808191615  0.5000000000000000
  0.4859844856507480  0.0031828836454780  0.5000000000000000
  0.5026781165767142  0.0959298579451025 -0.0000000000000000
  0.4053603267292055  0.1887204274006432  0.0000000000000000
  0.5064364242721953  0.1881627795476622  0.5000000000000000
  0.3990826919296379  0.4919890390934625  0.5000000000000000
  0.4951850858248918  0.5004345414721144  0.0000000000000000
  0.5145837046271556  0.6984096441734946 -0.0000000000000000
  0.5154522135741511  0.7951674807935132  0.5000000000000000
  0.5880690769631123  0.0937392854509100  0.5000000000000000
  0.5988399760151585  0.1853243544713872 -0.0000000000000000
  0.6073357255281042  0.2891543441350535  0.5000000000000000
  0.5986267890971094  0.3855855892587679  0.0000000000000000
  0.5985953098197958  0.6040842798999935 -0.0000000000000000
  0.6106787134335798  0.7025800921782958  0.5000000000000000
  0.7076879834269235  0.7150594308596273 -0.0000000000000000
  0.6132129299604284  0.7993668062406676 -0.0000000000000000
  0.6041275858140590  0.8950375800867654  0.5000000000000000
  0.7110271436565586  0.8050400829948002  0.5000000000000000
  0.7912267145312852  0.1054686798083670  0.5000000000000000
  0.8050892310615094  0.2020289768817039  0.0000000000000000
  0.9014144077987899  0.1946254750056284  0.5000000000000000
  0.9131279850996540  0.2905427597360651 -0.0000000000000000
  0.7947758210589287  0.5066465592108370  0.5000000000000000
  0.8024972222373090  0.7051434152253361  0.5000000000000000
  0.8946454981905552  0.5965495593876918  0.5000000000000000
  0.8024125592418092  0.8014380325671637 -0.0000000000000000
  0.9074724863505120  0.7934916411778330  0.5000000000000000
  0.9047118943033046  0.8904814187871333 -0.0000000000000000
  0.3150753620486866  0.2061452854632600 -0.0000000000000000
  0.5027610800018623  0.0921311201175002  0.5000000000000000
  0.5099149280199253  0.6032629775712933  0.0000000000000000
  0.5743916997828300 -0.0045656694462959  0.5000000000000000
  0.5891585735468706  0.0975911470716631  0.0000000000000000
  0.7051831589821856  0.2053237436247445  0.0000000000000000
  0.7128786102945485  0.8020336163285552 -0.0000000000000000
  0.0833686727365707  0.0019714796344665  0.5000000000000000
 -0.0002050310314666  0.8922559562238965  0.5000000000000000
  0.2948287649941666  0.9169082046143366 -0.0000000000000000
  0.4130617120854030  0.6877712751526598  0.5000000000000000
  0.4123023989560555  0.7847425115194365 -0.0000000000000000
  0.7020125548858450  0.2049983958579435  0.5000000000000000
  0.6941966078361146  0.6143190396561575  0.5000000000000000
  0.0832667421408162  0.0011523296842295  0.0000000000000000
  0.0920896272563902  0.0963738298816524  0.5000000000000000
 -0.0114985063799818 -0.0023008997726818  0.5000000000000000
 -0.0051255917328939  0.0925510179173360  0.0000000000000000
  0.0936091587650462  0.1930986698884419  0.0000000000000000
  0.1101577080770448  0.3005398469177921  0.5000000000000000
 -0.0036280666263234  0.1899635096233148  0.5000000000000000
  0.0066834702373146  0.2872376840377634  0.0000000000000000
  0.0975770175414377  0.3996516482973447  0.0000000000000000
  0.0895364400212878  0.4916535047675876  0.5000000000000000
  0.0076253370363591  0.3847716504669175  0.5000000000000000
 -0.0001631898770199  0.4805119841440462 -0.0000000000000000
  0.0911293191299384  0.5928253244468737 -0.0000000000000000
  0.1042869910440200  0.7112509771616596  0.5000000000000000
 -0.0095918460880133  0.5851120719432814  0.5000000000000000
  0.0074536847778063  0.6950526407636979 -0.0000000000000000
  0.0994924352603520  0.8113296133709875  0.0000000000000000
  0.0961080662495218  0.9025893533301557  0.5000000000000000
  0.0030433319513875  0.7885172805369077  0.5000000000000000
 -0.0007442067297102  0.8925151423727711  0.0000000000000000
  0.2881265583584880  0.0181490734615296 -0.0000000000000000
  0.2900771092581572  0.1083604634724899  0.5000000000000000
  0.1904894020913706  0.0106502118828303  0.5000000000000000
  0.1913484669897079  0.1094928945525665 -0.0000000000000000
  0.3044149740557349  0.3092611423731526  0.5000000000000000
  0.2046547917272258  0.2075606357131908  0.5000000000000000
  0.2131420717183418  0.3068014883110390  0.0000000000000000
  0.2992004933661978  0.4010682906113228 -0.0000000000000000
  0.3006506341725345  0.5047723241289882  0.5000000000000000
  0.2000614122866386  0.4038592090294532  0.5000000000000000
  0.1906875090076217  0.5148150743442501 -0.0000000000000000
  0.3016516862571970  0.6169975139899383  0.0000000000000000
  0.3023853886661569  0.7189076911448993  0.5000000000000000
  0.1951713666463094  0.6228561495012178  0.5000000000000000
  0.2038435271689590  0.7210331674058011 -0.0000000000000000
  0.2982754646476832  0.8201695003140086  0.0000000000000000
  0.2884598230289452  0.9190981783130604  0.5000000000000000
  0.1949009038751144  0.8156736478503128  0.5000000000000000
  0.1904843272424127  0.9088910483421568 -0.0000000000000000
  0.4796837321555545  0.0003909112347529 -0.0000000000000000
  0.3828047190267709 -0.0105353055631870  0.5000000000000000
  0.3933414846412051  0.0938719193577234  0.0000000000000000
  0.5039931274189453  0.1877372380159660  0.0000000000000000
  0.5126762473701475  0.2849408275294137  0.5000000000000000
  0.4108266445364815  0.1865187117488944  0.5000000000000000
  0.4059910921263556  0.2854960833210015  0.0000000000000000
  0.5030400270073806  0.4076837047127183  0.0000000000000000
  0.4931178823633646  0.5002758878242778  0.5000000000000000
  0.3936058903918976  0.3942846574576441  0.5000000000000000
  0.4026745560101311  0.4912903051778971 -0.0000000000000000
  0.5184219906326021  0.7016689550338122  0.5000000000000000
  0.4003955457246782  0.5864598729673388  0.5000000000000000
  0.4182476462990229  0.6894782084417733 -0.0000000000000000
  0.5196751158697822  0.7935526719279395 -0.0000000000000000
  0.5063969581434309  0.8958405914154238  0.5000000000000000
  0.4188019462971236  0.7831606082611006  0.5000000000000000
  0.4015565778309709  0.8817368786169885 -0.0000000000000000
  0.6787891688350854  0.0081092225013015  0.0000000000000000
  0.6942080860976308  0.1103431961158554  0.5000000000000000
  0.7056292173443833  0.3002441399439633  0.5000000000000000
  0.5993951290798271  0.1893468401269525  0.5000000000000000
  0.6078152654754125  0.2888942025734910  0.0000000000000000
  0.6905724847249152  0.4028714407534592 -0.0000000000000000
  0.6999162981998643  0.5105352693059968  0.5000000000000000
  0.5972414004312443  0.3862541264002396  0.5000000000000000
  0.5943187510807046  0.5013294075123255  0.0000000000000000
  0.6935208053698741  0.6183268382181764 -0.0000000000000000
  0.7098911344603863  0.7139220214452552  0.5000000000000000
  0.6028754180336628  0.6073069079634112  0.5000000000000000
  0.6132309586709791  0.7038657717804057  0.0000000000000000
  0.6998066361088812  0.9033704087526829  0.5000000000000000
  0.6154933017419537  0.8012546169107249  0.5000000000000000
  0.6051322417584785  0.8939903590094715 -0.0000000000000000
  0.8932579361807136 -0.0122702045358278 -0.0000000000000000
  0.8928543132112047  0.0974470020833144  0.5000000000000000
  0.7848610245226856  0.0075749373418761  0.5000000000000000
  0.7920970408467535  0.1083792782015432  0.0000000000000000
  0.9007487982586998  0.1988428174410956  0.0000000000000000
  0.9155044815228960  0.2872941085380560  0.5000000000000000
  0.8063409859139065  0.1982645569665356  0.5000000000000000
  0.8148338339694207  0.2993619145585966 -0.0000000000000000
  0.9075142911019797  0.3883975205610032  0.0000000000000000
  0.8940093133343996  0.5007597841368830  0.5000000000000000
  0.7999901851324824  0.4093913789475960  0.5000000000000000
  0.7942098067266625  0.5065435799347311 -0.0000000000000000
  0.8953139937718070  0.5968071986623105 -0.0000000000000000
  0.9070767651078759  0.6951259659269510  0.5000000000000000
  0.7982048959279703  0.6056069722151167  0.5000000000000000
  0.8025345677591621  0.7070460327104655 -0.0000000000000000
  0.9055167614412567  0.7968683010142549 -0.0000000000000000
  0.9069848085193024  0.8873519422807910  0.5000000000000000
  0.8074724552649076  0.7973508959907211  0.5000000000000000
  0.8062050873664702  0.8972014748631596 -0.0000000000000000
  0.1016837056841316  0.1937086589667431  0.5000000000000000
  0.1093745143029006  0.2998165174556116 -0.0000000000000000
 -0.0064985899376838  0.5871024693818614 -0.0000000000000000
  0.0924119401497873  0.5982022943837902  0.5000000000000000
  0.1055633018507581  0.7066649195496401  0.0000000000000000
  0.1883480046041890  0.0088561405003460  0.0000000000000000
  0.2056421736293031  0.2093856706168403 -0.0000000000000000
  0.3081546738491740  0.2072329388810431  0.5000000000000000
  0.2011013433775116  0.4098474646827532 -0.0000000000000000
  0.1923764267393470  0.5132906635159137  0.5000000000000000
  0.2992382160954310  0.5085851405664629  0.0000000000000000
  0.1950468510000779  0.6178422387360898  0.0000000000000000
  0.3011706176819048  0.6167818134306698  0.5000000000000000
  0.3079292333571480  0.7198235247579647 -0.0000000000000000
  0.3047392182102625  0.8172871315345613  0.5000000000000000
  0.3839940318081108 -0.0145363716250930  0.0000000000000000
  0.3980559836999381  0.0912656497412433  0.5000000000000000
  0.4070119981323355  0.2864613812029794  0.5000000000000000
  0.5113517471706595  0.2949971158748513 -0.0000000000000000
  0.3963389170244715  0.3912119413471114  0.0000000000000000
  0.5009207694021022  0.3973993004472250  0.5000000000000000
  0.4023299309561619  0.5891332454694567  0.0000000000000000
  0.5057666526915167  0.6000829811304222  0.5000000000000000
  0.4007362368784995  0.8819622804140838  0.5000000000000000
  0.5028310363301041  0.8953074374743722 -0.0000000000000000
  0.5779790900046757 -0.0038944344673251  0.0000000000000000
  0.6781559172366803  0.0089230792340722  0.5000000000000000
  0.6911065891270839  0.1108379055158689  0.0000000000000000
  0.7067732074964600  0.3000549660716985  0.0000000000000000
  0.5956032013279451  0.4996738982428132  0.5000000000000000
  0.6955956400282506  0.4037013956148254  0.5000000000000000
  0.6977117340138047  0.5104613202664547 -0.0000000000000000
  0.7007006182235014  0.9034497857352155 -0.0000000000000000
  0.7824724543930717  0.0050280262187269  0.0000000000000000
  0.8924595894676663 -0.0102102132307249  0.5000000000000000
  0.8897213149227817  0.0963950271137692 -0.0000000000000000
  0.8130749596570457  0.3001638402977247  0.5000000000000000
  0.7993288866866264  0.4064639162561483 -0.0000000000000000
  0.9031384812049233  0.3908637365233955  0.5000000000000000
  0.8952015299426250  0.4969523206347501  0.0000000000000000
  0.7960734866860418  0.6066758247965643 -0.0000000000000000
  0.9064138010654040  0.6942968791836840  0.0000000000000000
  0.8066134959906336  0.8997508281656696  0.5000000000000000
 
  0.00000000E+00  0.00000000E+00  0.00000000E+00
  0.00000000E+00  0.00000000E+00  0.00000000E+00
  0.00000000E+00  0.00000000E+00  0.00000000E+00
  0.00000000E+00  0.00000000E+00  0.00000000E+00
  0.00000000E+00  0.00000000E+00  0.00000000E+00
  0.00000000E+00  0.00000000E+00  0.00000000E+00
  0.00000000E+00  0.00000000E+00  0.00000000E+00
  0.00000000E+00  0.00000000E+00  0.00000000E+00
  0.00000000E+00  0.00000000E+00  0.00000000E+00
  0.00000000E+00  0.00000000E+00  0.00000000E+00
  0.00000000E+00  0.00000000E+00  0.00000000E+00
  0.00000000E+00  0.00000000E+00  0.00000000E+00
  0.00000000E+00  0.00000000E+00  0.00000000E+00
  0.00000000E+00  0.00000000E+00  0.00000000E+00
  0.00000000E+00  0.00000000E+00  0.00000000E+00
  0.00000000E+00  0.00000000E+00  0.00000000E+00
  0.00000000E+00  0.00000000E+00  0.00000000E+00
  0.00000000E+00  0.00000000E+00  0.00000000E+00
  0.00000000E+00  0.00000000E+00  0.00000000E+00
  0.00000000E+00  0.00000000E+00  0.00000000E+00
  0.00000000E+00  0.00000000E+00  0.00000000E+00
  0.00000000E+00  0.00000000E+00  0.00000000E+00
  0.00000000E+00  0.00000000E+00  0.00000000E+00
  0.00000000E+00  0.00000000E+00  0.00000000E+00
  0.00000000E+00  0.00000000E+00  0.00000000E+00
  0.00000000E+00  0.00000000E+00  0.00000000E+00
  0.00000000E+00  0.00000000E+00  0.00000000E+00
  0.00000000E+00  0.00000000E+00  0.00000000E+00
  0.00000000E+00  0.00000000E+00  0.00000000E+00
  0.00000000E+00  0.00000000E+00  0.00000000E+00
  0.00000000E+00  0.00000000E+00  0.00000000E+00
  0.00000000E+00  0.00000000E+00  0.00000000E+00
  0.00000000E+00  0.00000000E+00  0.00000000E+00
  0.00000000E+00  0.00000000E+00  0.00000000E+00
  0.00000000E+00  0.00000000E+00  0.00000000E+00
  0.00000000E+00  0.00000000E+00  0.00000000E+00
  0.00000000E+00  0.00000000E+00  0.00000000E+00
  0.00000000E+00  0.00000000E+00  0.00000000E+00
  0.00000000E+00  0.00000000E+00  0.00000000E+00
  0.00000000E+00  0.00000000E+00  0.00000000E+00
  0.00000000E+00  0.00000000E+00  0.00000000E+00
  0.00000000E+00  0.00000000E+00  0.00000000E+00
  0.00000000E+00  0.00000000E+00  0.00000000E+00
  0.00000000E+00  0.00000000E+00  0.00000000E+00
  0.00000000E+00  0.00000000E+00  0.00000000E+00
  0.00000000E+00  0.00000000E+00  0.00000000E+00
  0.00000000E+00  0.00000000E+00  0.00000000E+00
  0.00000000E+00  0.00000000E+00  0.00000000E+00
  0.00000000E+00  0.00000000E+00  0.00000000E+00
  0.00000000E+00  0.00000000E+00  0.00000000E+00
  0.00000000E+00  0.00000000E+00  0.00000000E+00
  0.00000000E+00  0.00000000E+00  0.00000000E+00
  0.00000000E+00  0.00000000E+00  0.00000000E+00
  0.00000000E+00  0.00000000E+00  0.00000000E+00
  0.00000000E+00  0.00000000E+00  0.00000000E+00
  0.00000000E+00  0.00000000E+00  0.00000000E+00
  0.00000000E+00  0.00000000E+00  0.00000000E+00
  0.00000000E+00  0.00000000E+00  0.00000000E+00
  0.00000000E+00  0.00000000E+00  0.00000000E+00
  0.00000000E+00  0.00000000E+00  0.00000000E+00
  0.00000000E+00  0.00000000E+00  0.00000000E+00
  0.00000000E+00  0.00000000E+00  0.00000000E+00
  0.00000000E+00  0.00000000E+00  0.00000000E+00
  0.00000000E+00  0.00000000E+00  0.00000000E+00
  0.00000000E+00  0.00000000E+00  0.00000000E+00
  0.00000000E+00  0.00000000E+00  0.00000000E+00
  0.00000000E+00  0.00000000E+00  0.00000000E+00
  0.00000000E+00  0.00000000E+00  0.00000000E+00
  0.00000000E+00  0.00000000E+00  0.00000000E+00
  0.00000000E+00  0.00000000E+00  0.00000000E+00
  0.00000000E+00  0.00000000E+00  0.00000000E+00
  0.00000000E+00  0.00000000E+00  0.00000000E+00
  0.00000000E+00  0.00000000E+00  0.00000000E+00
  0.00000000E+00  0.00000000E+00  0.00000000E+00
  0.00000000E+00  0.00000000E+00  0.00000000E+00
  0.00000000E+00  0.00000000E+00  0.00000000E+00
  0.00000000E+00  0.00000000E+00  0.00000000E+00
  0.00000000E+00  0.00000000E+00  0.00000000E+00
  0.00000000E+00  0.00000000E+00  0.00000000E+00
  0.00000000E+00  0.00000000E+00  0.00000000E+00
  0.00000000E+00  0.00000000E+00  0.00000000E+00
  0.00000000E+00  0.00000000E+00  0.00000000E+00
  0.00000000E+00  0.00000000E+00  0.00000000E+00
  0.00000000E+00  0.00000000E+00  0.00000000E+00
  0.00000000E+00  0.00000000E+00  0.00000000E+00
  0.00000000E+00  0.00000000E+00  0.00000000E+00
  0.00000000E+00  0.00000000E+00  0.00000000E+00
  0.00000000E+00  0.00000000E+00  0.00000000E+00
  0.00000000E+00  0.00000000E+00  0.00000000E+00
  0.00000000E+00  0.00000000E+00  0.00000000E+00
  0.00000000E+00  0.00000000E+00  0.00000000E+00
  0.00000000E+00  0.00000000E+00  0.00000000E+00
  0.00000000E+00  0.00000000E+00  0.00000000E+00
  0.00000000E+00  0.00000000E+00  0.00000000E+00
  0.00000000E+00  0.00000000E+00  0.00000000E+00
  0.00000000E+00  0.00000000E+00  0.00000000E+00
  0.00000000E+00  0.00000000E+00  0.00000000E+00
  0.00000000E+00  0.00000000E+00  0.00000000E+00
  0.00000000E+00  0.00000000E+00  0.00000000E+00
  0.00000000E+00  0.00000000E+00  0.00000000E+00
  0.00000000E+00  0.00000000E+00  0.00000000E+00
  0.00000000E+00  0.00000000E+00  0.00000000E+00
  0.00000000E+00  0.00000000E+00  0.00000000E+00
  0.00000000E+00  0.00000000E+00  0.00000000E+00
  0.00000000E+00  0.00000000E+00  0.00000000E+00
  0.00000000E+00  0.00000000E+00  0.00000000E+00
  0.00000000E+00  0.00000000E+00  0.00000000E+00
  0.00000000E+00  0.00000000E+00  0.00000000E+00
  0.00000000E+00  0.00000000E+00  0.00000000E+00
  0.00000000E+00  0.00000000E+00  0.00000000E+00
  0.00000000E+00  0.00000000E+00  0.00000000E+00
  0.00000000E+00  0.00000000E+00  0.00000000E+00
  0.00000000E+00  0.00000000E+00  0.00000000E+00
  0.00000000E+00  0.00000000E+00  0.00000000E+00
  0.00000000E+00  0.00000000E+00  0.00000000E+00
  0.00000000E+00  0.00000000E+00  0.00000000E+00
  0.00000000E+00  0.00000000E+00  0.00000000E+00
  0.00000000E+00  0.00000000E+00  0.00000000E+00
  0.00000000E+00  0.00000000E+00  0.00000000E+00
  0.00000000E+00  0.00000000E+00  0.00000000E+00
  0.00000000E+00  0.00000000E+00  0.00000000E+00
  0.00000000E+00  0.00000000E+00  0.00000000E+00
  0.00000000E+00  0.00000000E+00  0.00000000E+00
  0.00000000E+00  0.00000000E+00  0.00000000E+00
  0.00000000E+00  0.00000000E+00  0.00000000E+00
  0.00000000E+00  0.00000000E+00  0.00000000E+00
  0.00000000E+00  0.00000000E+00  0.00000000E+00
  0.00000000E+00  0.00000000E+00  0.00000000E+00
  0.00000000E+00  0.00000000E+00  0.00000000E+00
  0.00000000E+00  0.00000000E+00  0.00000000E+00
  0.00000000E+00  0.00000000E+00  0.00000000E+00
  0.00000000E+00  0.00000000E+00  0.00000000E+00
  0.00000000E+00  0.00000000E+00  0.00000000E+00
  0.00000000E+00  0.00000000E+00  0.00000000E+00
  0.00000000E+00  0.00000000E+00  0.00000000E+00
  0.00000000E+00  0.00000000E+00  0.00000000E+00
  0.00000000E+00  0.00000000E+00  0.00000000E+00
  0.00000000E+00  0.00000000E+00  0.00000000E+00
  0.00000000E+00  0.00000000E+00  0.00000000E+00
  0.00000000E+00  0.00000000E+00  0.00000000E+00
  0.00000000E+00  0.00000000E+00  0.00000000E+00
  0.00000000E+00  0.00000000E+00  0.00000000E+00
  0.00000000E+00  0.00000000E+00  0.00000000E+00
  0.00000000E+00  0.00000000E+00  0.00000000E+00
  0.00000000E+00  0.00000000E+00  0.00000000E+00
  0.00000000E+00  0.00000000E+00  0.00000000E+00
  0.00000000E+00  0.00000000E+00  0.00000000E+00
  0.00000000E+00  0.00000000E+00  0.00000000E+00
  0.00000000E+00  0.00000000E+00  0.00000000E+00
  0.00000000E+00  0.00000000E+00  0.00000000E+00
  0.00000000E+00  0.00000000E+00  0.00000000E+00
  0.00000000E+00  0.00000000E+00  0.00000000E+00
  0.00000000E+00  0.00000000E+00  0.00000000E+00
  0.00000000E+00  0.00000000E+00  0.00000000E+00
  0.00000000E+00  0.00000000E+00  0.00000000E+00
  0.00000000E+00  0.00000000E+00  0.00000000E+00
  0.00000000E+00  0.00000000E+00  0.00000000E+00
  0.00000000E+00  0.00000000E+00  0.00000000E+00
  0.00000000E+00  0.00000000E+00  0.00000000E+00
  0.00000000E+00  0.00000000E+00  0.00000000E+00
  0.00000000E+00  0.00000000E+00  0.00000000E+00
  0.00000000E+00  0.00000000E+00  0.00000000E+00
  0.00000000E+00  0.00000000E+00  0.00000000E+00
  0.00000000E+00  0.00000000E+00  0.00000000E+00
  0.00000000E+00  0.00000000E+00  0.00000000E+00
  0.00000000E+00  0.00000000E+00  0.00000000E+00
  0.00000000E+00  0.00000000E+00  0.00000000E+00
  0.00000000E+00  0.00000000E+00  0.00000000E+00
  0.00000000E+00  0.00000000E+00  0.00000000E+00
  0.00000000E+00  0.00000000E+00  0.00000000E+00
  0.00000000E+00  0.00000000E+00  0.00000000E+00
  0.00000000E+00  0.00000000E+00  0.00000000E+00
  0.00000000E+00  0.00000000E+00  0.00000000E+00
  0.00000000E+00  0.00000000E+00  0.00000000E+00
  0.00000000E+00  0.00000000E+00  0.00000000E+00
  0.00000000E+00  0.00000000E+00  0.00000000E+00
  0.00000000E+00  0.00000000E+00  0.00000000E+00
  0.00000000E+00  0.00000000E+00  0.00000000E+00
  0.00000000E+00  0.00000000E+00  0.00000000E+00
  0.00000000E+00  0.00000000E+00  0.00000000E+00
  0.00000000E+00  0.00000000E+00  0.00000000E+00
  0.00000000E+00  0.00000000E+00  0.00000000E+00
  0.00000000E+00  0.00000000E+00  0.00000000E+00
  0.00000000E+00  0.00000000E+00  0.00000000E+00
  0.00000000E+00  0.00000000E+00  0.00000000E+00
  0.00000000E+00  0.00000000E+00  0.00000000E+00
  0.00000000E+00  0.00000000E+00  0.00000000E+00
  0.00000000E+00  0.00000000E+00  0.00000000E+00
  0.00000000E+00  0.00000000E+00  0.00000000E+00
  0.00000000E+00  0.00000000E+00  0.00000000E+00
  0.00000000E+00  0.00000000E+00  0.00000000E+00
  0.00000000E+00  0.00000000E+00  0.00000000E+00
  0.00000000E+00  0.00000000E+00  0.00000000E+00
  0.00000000E+00  0.00000000E+00  0.00000000E+00
  0.00000000E+00  0.00000000E+00  0.00000000E+00
  0.00000000E+00  0.00000000E+00  0.00000000E+00
  0.00000000E+00  0.00000000E+00  0.00000000E+00
  0.00000000E+00  0.00000000E+00  0.00000000E+00
  0.00000000E+00  0.00000000E+00  0.00000000E+00
  0.00000000E+00  0.00000000E+00  0.00000000E+00
