 Ge Sb Te  C                            
   1.00000000000000     
    13.2553719009570834   -0.1107810793185230    0.2036061828262957
    -6.7222506082318079   11.6285244629376354   -0.2398608838677548
     1.1539774613521561   -0.9207509802525077   73.1125812704466114
   Ge   Sb   Te   C 
    25   100   175    24
Selective dynamics
Direct
  0.7058067931462370  0.3509559190853085  0.7810295210937508   T   T   T
  0.2719957466067453  0.5811508507430379  0.8134143503937905   T   T   T
  0.9136334396224930  0.9355973660562925  0.7189767380486584   T   T   T
  0.6284522503010063  0.8990742093261601  0.3269497081193496   T   T   T
  0.1061362396935321  0.5561239921771083  0.1401621849602833   T   T   T
  0.9698765971360853  0.6348912917423737  0.9197926191878569   T   T   T
  0.5171845272792646  0.4452902806198335  0.4048191520695771   T   T   T
  0.6470233347815931  0.2391823374129373  0.7373163002942345   T   T   T
  0.3908853455012354  0.4914381954494394  0.1445991423161146   T   T   T
  0.4323163164007528  0.9273702095053837  0.1758479079613605   T   T   T
  0.3375438929509556  0.1418871131230283  0.1977102547655321   T   T   T
  0.7554486153096980  0.8233302663603027  0.4569100037327918   T   T   T
  0.6234443027901230  0.5252832819505230  0.5614281385350550   T   T   T
  0.8519750744975991  0.0699562988852330  0.7652484360529681   T   T   T
  0.4643887124152676  0.8703433267096287  0.5645699364818125   T   T   T
  0.6376754536021672  0.4780991574963904  0.4438322756475327   T   T   T
  0.5663084650485104  0.9290541729701050  0.8657287013755911   T   T   T
  0.4873461674180379  0.2970084535117646  0.5188665527186217   T   T   T
  0.0771627225945141  0.6423037576814031  0.4678507076692734   T   T   T
  0.0273044210989272  0.4062187433318010  0.1911389850933647   T   T   T
  0.6275287191980085  0.8381597335292483  0.5494574202341327   T   T   T
  0.9939198998853456  0.0917632321165552  0.1326555539007550   T   T   T
  0.7441877636515039  0.3815073434847747  0.4287109704708756   T   T   T
  0.2261819383587633  0.3331394425090775  0.8553347125179420   T   T   T
  0.5162956642107481  0.2473685805553268  0.5827444395701318   T   T   T
  0.8571275515511019  0.8542223695575856  0.2568122948495535   T   T   T
  0.5124455078341255  0.3347766585180114  0.8400227831751945   T   T   T
  0.4456970681064827  0.8965848087912307  0.7562777455945170   T   T   T
  0.1192055064368869  0.6063483251812711  0.5108399292454650   T   T   T
  0.9146999951441546  0.2126823216163012  0.4073242248995614   T   T   T
  0.2357735100000014  0.7822008600000032  0.9775101899999967   F   F   F
  0.7909024900000006  0.2320689900000019  0.0333496909999980   F   F   F
  0.7902601001554961  0.3894882153504241  0.6130712941653034   T   T   T
  0.1730677305170402  0.9490164643292378  0.7485310798047071   T   T   T
  0.9097735555854007  0.5815309966757954  0.4134233687484813   T   T   T
  0.7401495715745636  0.7855714119468181  0.8426797052610798   T   T   T
  0.3970861185879015  0.3591633036391256  0.6682496350265382   T   T   T
  0.2555852317556958  0.7152702046990476  0.2593614616747393   T   T   T
  0.2172924238373168  0.8881110913550386  0.8318231497063334   T   T   T
  0.6476453308081649  0.8633264102842991  0.2083873967958446   T   T   T
  0.2516336211048728  0.5326569477038946  0.4242958868824094   T   T   T
  0.8715145000000035  0.8125494700000004  0.9716477400000016   F   F   F
  0.2702996213610768  0.3214144500528390  0.5026349476525092   T   T   T
  0.6845034368855832  0.3697774702450395  0.8859111780082055   T   T   T
  0.1807997734335344  0.3013090986937427  0.5681665751428628   T   T   T
  0.7713081344092145  0.0177483959521059  0.2589771125929473   T   T   T
  0.2907804849831251  0.5050663839177515  0.0883709188445367   T   T   T
  0.8743666800000014  0.4343464600000004  0.9688495500000016   F   F   F
  0.8283640436521336  0.8105611965210631  0.0928657645368896   T   T   T
  0.7657856100000018  0.8586395100000033  0.0255648990000026   F   F   F
  0.6806524149918080  0.5442138461608643  0.1510461886824199   T   T   T
  0.4829735047492845  0.4127860527987414  0.1163435425774808   T   T   T
  0.2107180563650779  0.8056744426134167  0.9165389595276369   T   T   T
  0.5046545599903394  0.4850686871580180  0.7981790955817925   T   T   T
  0.9782068374927994  0.3688262659232583  0.7790730825057799   T   T   T
  0.5474292199999979  0.1018563100000023  0.9778695199999987   F   F   F
  0.5532125399999970  0.4616978399999994  0.9762698299999997   F   F   F
  0.3642972338174956  0.1137370605112620  0.6685418554260489   T   T   T
  0.3091060392721829  0.1376322027801898  0.3779558236705816   T   T   T
  0.4376399000000006  0.8949340500000034  0.0291678350000026   F   F   F
  0.8160471970982185  0.8874339320097008  0.6392246582536281   T   T   T
  0.7720055475906515  0.2715065069859769  0.2179691967596183   T   T   T
  0.9764088168647711  0.6985208277618012  0.5630312101418725   T   T   T
  0.4887662410329965  0.2443448464789611  0.2515423895874692   T   T   T
  0.8537098480529580  0.0785705002871359  0.2213249418156850   T   T   T
  0.2590824550415217  0.7243123794531019  0.7018761837001726   T   T   T
  0.0334031636147189  0.9136526736241420  0.5230289269144417   T   T   T
  0.5148822408173191  0.6565418248324961  0.6640578695824648   T   T   T
  0.6671383748963507  0.4001547208004361  0.3621480162185539   T   T   T
  0.2915901497117916  0.5235664080813802  0.3378051041665828   T   T   T
  0.5442225329291762  0.1215228807760447  0.5122437426602342   T   T   T
  0.2398069892825372  0.6616118903611842  0.3137129887410786   T   T   T
  0.3788125155718624  0.5304505406476709  0.5805842083576921   T   T   T
  0.7888493100000034  0.5551220999999984  0.0290394640000002   F   F   F
  0.7603041409614669  0.9227284477915535  0.1718747019158638   T   T   T
  0.3642913072765772  0.6216567881472397  0.3763528726875860   T   T   T
  0.9293157586865960  0.7059828585490867  0.7826832703086862   T   T   T
  0.9990026782616620  0.2258422222722009  0.6112811612522535   T   T   T
  0.4392375299999998  0.2202366200000014  0.0257202969999994   F   F   F
  0.7632071203569054  0.3925153625298696  0.1671281840765975   T   T   T
  0.3411728819608733  0.8614528067058922  0.6669598546850103   T   T   T
  0.5272471736965809  0.1472916072408917  0.3547388002375654   T   T   T
  0.3715428522183704  0.6587869386887210  0.2177608635243830   T   T   T
  0.0592599246447897  0.7682401944288491  0.2656767841180575   T   T   T
  0.4573865500000025  0.5719507199999967  0.0220008650000025   F   F   F
  0.5068338775202227  0.1059679827344043  0.6371180454351016   T   T   T
  0.5490463300000030  0.7848609500000023  0.9688988099999989   F   F   F
  0.2113635631945772  0.8406118816322625  0.2247668991185462   T   T   T
  0.2955603477217477  0.0095291587709241  0.3312110610611009   T   T   T
  0.6699130078970285  0.6043074615659163  0.6986158437272505   T   T   T
  0.6370039489969749  0.0062834910436230  0.3603735875684408   T   T   T
  0.9403631824205714  0.4767171871352372  0.3790865276553435   T   T   T
  0.3536096677979185  0.8418494193672698  0.3440757451800148   T   T   T
  0.1306402317216564  0.2158759444253734  0.7734811509354415   T   T   T
  0.8756874800000034  0.0749845349999987  0.9733260100000010   F   F   F
  0.4478799634011857  0.5865004085021878  0.6260553955447926   T   T   T
  0.7299976368248001  0.8876325290739315  0.6031062730225358   T   T   T
  0.2211858699999993  0.1092710900000000  0.9710826100000034   F   F   F
  0.8517447254403617  0.6174400788314454  0.6275680167117600   T   T   T
  0.4392875253826937  0.0160442154772697  0.7923179935428658   T   T   T
  0.0482606213143493  0.7311494797634824  0.6017519117869542   T   T   T
  0.5826942674187470  0.1974067996867293  0.4078913250953016   T   T   T
  0.3828547082732748  0.4414787868405272  0.2530392393255095   T   T   T
  0.6088221073637813  0.0482126620613422  0.1446551312619056   T   T   T
  0.8591481720462144  0.2066877401166274  0.3266568989415405   T   T   T
  0.2762545152335734  0.3245914050673199  0.3066263978341021   T   T   T
  0.3412756273394035  0.3839136849224842  0.7438518222791891   T   T   T
  0.4501273976001447  0.8359418958303827  0.6020151721028441   T   T   T
  0.0971545869999986  0.5505758700000030  0.0279219589999968   F   F   F
  0.0986639890000021  0.9109043600000035  0.0224491820000026   F   F   F
  0.9506224521378388  0.1269155981830446  0.4555022614654768   T   T   T
  0.1737175441427371  0.6136686303375858  0.8465667118803138   T   T   T
  0.5338229542694750  0.7258843432505131  0.7486309549368656   T   T   T
  0.8448285437680583  0.0698416702879205  0.5052288760921303   T   T   T
  0.5092986334888419  0.5467112973914824  0.8786254563131201   T   T   T
  0.5757088217158998  0.0363782696388362  0.2069450948565926   T   T   T
  0.9394193774575540  0.9021927672484487  0.2182802426177113   T   T   T
  0.8174633298248321  0.6999034203148209  0.3583899383296122   T   T   T
  0.5244988539443127  0.4088979188496637  0.2951343251432353   T   T   T
  0.7736418550842580  0.1254336418671724  0.5601794211606694   T   T   T
  0.2458816962818303  0.4332773973752199  0.1977548356981094   T   T   T
  0.7816762976537005  0.3362683694973575  0.8203473950886823   T   T   T
  0.7667393730036117  0.6177217434269158  0.4951152668837018   T   T   T
  0.7844750449992246  0.8903482162081408  0.3010639985998214   T   T   T
  0.2312375357859887  0.4791449821713585  0.7209873946478629   T   T   T
  0.9863437072563103  0.7075212704415383  0.8596225010213046   T   T   T
  0.9895515627624049  0.2715914358326973  0.7327414716813456   T   T   T
  0.2474672724183984  0.2680867896132216  0.8921824284882629   T   T   T
  0.9395012089342367  0.7810241607237665  0.7372427636838895   T   T   T
  0.7075596636238319  0.0905441943484205  0.7892584290687598   T   T   T
  0.6928068097749067  0.4225831754227366  0.2053541530019011   T   T   T
  0.7842770915626406  0.1681735129126001  0.1736589247799705   T   T   T
  0.6755414171186709  0.0477285521372504  0.4136106389461519   T   T   T
  0.1780247595731258  0.9318564161592479  0.5551553678003601   T   T   T
  0.8475390082121379  0.3123837104825715  0.6546181577386734   T   T   T
  0.4758614629292644  0.4439637007736694  0.1746626386709447   T   T   T
  0.6677396788957503  0.6202406740042581  0.6087508343942418   T   T   T
  0.4050833697758078  0.6259469270473842  0.5457964112417231   T   T   T
  0.5119815293170950  0.0196469282203199  0.7221480077826443   T   T   T
  0.0054279140992733  0.5973505394131776  0.8096025210964385   T   T   T
  0.0561449334580277  0.7539330369743595  0.3649275230174502   T   T   T
  0.5691450969746973  0.4157489364178945  0.4800163001951359   T   T   T
  0.7135536190760809  0.0429084286587196  0.4696519366695504   T   T   T
  0.5453123290377616  0.6097299599605110  0.0937737007237718   T   T   T
  0.4961229793191581  0.2183523556720413  0.7660464292554635   T   T   T
  0.8201796781233298  0.1384476771740006  0.1182125253198630   T   T   T
  0.4420380182773467  0.5605259054413572  0.8320764122622272   T   T   T
  0.2601806439914479  0.0359408798457482  0.0698901882943915   T   T   T
  0.1040106100000031  0.5666402499999990  0.9503829300000035   F   F   F
  0.2704464950717371  0.1905209075038262  0.8339698783049744   T   T   T
  0.3533557599999995  0.7047565399999982  0.9968946500000015   F   F   F
  0.4095278257689655  0.1728130050470271  0.8907346652041275   T   T   T
  0.5903117275053207  0.1560118627544975  0.9098901330022047   T   T   T
  0.6577606916917497  0.3039481694078626  0.3263386803831268   T   T   T
  0.7192020088909132  0.2755999154480285  0.2562644528382097   T   T   T
  0.0257200010000034  0.0144121630000029  0.0007836538899966   F   F   F
  0.5590206496690625  0.6935853486692983  0.3428509813140124   T   T   T
  0.2344949057878415  0.6128191708471716  0.5977085568255037   T   T   T
  0.8431989954604375  0.5342355832357338  0.7031944629708101   T   T   T
  0.5900258284505697  0.5181438829248268  0.7454727227116348   T   T   T
  0.4943646869621613  0.6295639121819031  0.4159500155544559   T   T   T
  0.2996174395260396  0.3441033010266132  0.6325102649653288   T   T   T
  0.0246606560000018  0.3143433600000023  0.0003224163399977   F   F   F
  0.7463472821984251  0.1174834193991808  0.6083848774872246   T   T   T
  0.7838658157645761  0.2335785858879095  0.5252413925631851   T   T   T
  0.1111939682542137  0.7935251175205209  0.1170802106211609   T   T   T
  0.2260382323226144  0.2066305872091418  0.1732303543627509   T   T   T
  0.9751156631290812  0.4072775076437269  0.8592056400841757   T   T   T
  0.1555748789735714  0.3695949563404521  0.9441720711379441   T   T   T
  0.4729239951909297  0.0518613585279975  0.1109380705020916   T   T   T
  0.0668715358447957  0.9440430952911438  0.6182313154015957   T   T   T
  0.2270019048040212  0.2641589859249506  0.4028742153922826   T   T   T
  0.0506844836584813  0.5117992378670358  0.2258038982993193   T   T   T
  0.4562088110845077  0.9681474470108975  0.2413989621201332   T   T   T
  0.1780091490603399  0.8199166757763821  0.4955365663793853   T   T   T
  0.8443583179366156  0.6712038382046680  0.4539808123666418   T   T   T
  0.6653613699999994  0.3419975400000013  0.0032707606000031   F   F   F
  0.4621496708447276  0.8729976142800177  0.3033880648642324   T   T   T
  0.9960501276914416  0.1206672967854237  0.6459484026987226   T   T   T
  0.3532631567820746  0.1292673273229124  0.1332814370124883   T   T   T
  0.8298081845432352  0.8344263147270484  0.6862361079783451   T   T   T
  0.7816954600000017  0.5301073199999990  0.9513545699999995   F   F   F
  0.0981781736113640  0.3167855034156055  0.8066299509430005   T   T   T
  0.2884896085546915  0.7577351632569119  0.1294768952420293   T   T   T
  0.3209306557764474  0.9505402108743364  0.6128185243560251   T   T   T
  0.4819964400000032  0.5625713200000035  0.9513249800000025   F   F   F
  0.1054561358286058  0.3079337046805385  0.2289801725930537   T   T   T
  0.4398556599999992  0.2287941200000034  0.9530625499999985   F   F   F
  0.9834486300047308  0.2038083685181316  0.2756296883739324   T   T   T
  0.5624894136590167  0.3360088326223005  0.7135966252668527   T   T   T
  0.0334320017334467  0.4407241192942024  0.3353442763658044   T   T   T
  0.0509823457336476  0.0828562885234420  0.9285076813280697   T   T   T
  0.1206982900000000  0.8954711700000004  0.9530271699999986   F   F   F
  0.4447981799999994  0.8820260099999970  0.9531402100000008   F   F   F
  0.4034610249222732  0.1408959016928500  0.2855285872898644   T   T   T
  0.7484027229922441  0.5388867185401610  0.8535010395320102   T   T   T
  0.7989320137920196  0.7619498803293401  0.5554100338159405   T   T   T
  0.6731257300000024  0.0077648290999974  0.9976010999999971   F   F   F
  0.8480203800000012  0.1207264900000027  0.0511548679999976   F   F   F
  0.9699822319106752  0.4068676904824475  0.6863101587563696   T   T   T
  0.8924125799999985  0.7813713700000022  0.0492085739999979   F   F   F
  0.5389994100000024  0.4378182700000011  0.0516587460000011   F   F   F
  0.7496725940542058  0.9841703005212792  0.7325920423646953   T   T   T
  0.9923149448144080  0.3560583708001718  0.5734697582028430   T   T   T
  0.2820096916765092  0.7579955854764449  0.4329591518788718   T   T   T
  0.2519980113855684  0.5733757738555271  0.4806158476203826   T   T   T
  0.6356780786859582  0.5202547433721098  0.9080218925921298   T   T   T
  0.8535127887731649  0.7365731709928726  0.3155667763910321   T   T   T
  0.3394162399999985  0.3249209900000025  0.0000072143279013   F   F   F
  0.8993075670364933  0.7600217794237467  0.9018765859836562   T   T   T
  0.8817329938921850  0.9520980801391985  0.4259950010012652   T   T   T
  0.3082005400000014  0.9882515500000011  0.9992352800000006   F   F   F
  0.1863134800000026  0.7724350599999994  0.0498435450000017   F   F   F
  0.5837901636234846  0.1885108163275130  0.6849484853598187   T   T   T
  0.1949722129723446  0.1020182264670228  0.4282671190272151   T   T   T
 -0.0091676722466716  0.9423710267533942  0.8490213618855785   T   T   T
  0.7005253645148007  0.5381616504077079  0.2577223114105937   T   T   T
  0.2269247899999982  0.4542502999999982  0.0512143420000015   F   F   F
  0.5594128592223255  0.6549309268472338  0.4939114730286574   T   T   T
  0.2461071938955568  0.7530085155960796  0.5509248627500591   T   T   T
  0.6709246072902505  0.6546472591723231  0.2185046001607152   T   T   T
  0.5465897400000017  0.7477388699999992  0.0468252530000015   F   F   F
  0.4807806228659325  0.7018376930555440  0.7106818180942825   T   T   T
  0.7383647734737939  0.1239225156307791  0.8848240383294915   T   T   T
  0.5299493899999987  0.0847559959999984  0.0531674639999977   F   F   F
  0.1735853587963602  0.0667755324235575  0.2287591506039113   T   T   T
  0.0250785061370058  0.5496120579381807  0.2733610748395097   T   T   T
  0.9065156268877110  0.4786075483397527  0.4903210871288264   T   T   T
  0.0934109255474817  0.8058238361544059  0.3104607983779530   T   T   T
  0.7770145200000016  0.8964979499999970  0.9506310700000000   F   F   F
  0.2992638536846980  0.5318859821830173  0.8951742847820270   T   T   T
  0.5570582888543025  0.6547043614054002  0.2982909096707800   T   T   T
  0.0001697896570293  0.0980509908367648  0.3192724630652550   T   T   T
  0.1938329827752675  0.1653466354862491  0.2749274103235727   T   T   T
  0.8112158120669811  0.3620079455401741  0.1218899987776188   T   T   T
  0.8147935640179024  0.5901613482343520  0.1046926107633995   T   T   T
  0.4000245458846363  0.2721790101779113  0.5549848608783832   T   T   T
  0.7196494461592137  0.7056863311637460  0.7947510055644105   T   T   T
  0.0513764280556830  0.0236240414239790  0.0985620017019741   T   T   T
  0.9712145231420504  0.9896157796314926  0.5887451519213623   T   T   T
  0.7974852732381801  0.7220416321854704  0.1758569389106305   T   T   T
  0.1908016264513250  0.9522036278429686  0.7951121089400411   T   T   T
  0.9523389863030624  0.6795516884168796  0.2259561606916315   T   T   T
  0.9338699762733117  0.4524703842041315  0.8978641387411939   T   T   T
  0.4170346429065249  0.7802871073560351  0.4629133741175336   T   T   T
  0.5527028662421338  0.1424052397861596  0.8339216954153196   T   T   T
  0.1092930546199514  0.1728137255792218  0.0512444528467241   T   T   T
  0.1517476151342624  0.3863805949657679  0.1429028599489851   T   T   T
  0.9676736905572708  0.0719887690311184  0.5408733926531402   T   T   T
  0.7731141581344444  0.8929481907950321  0.1263006600887105   T   T   T
  0.2976498481084165  0.5507143614223244  0.7631493691593176   T   T   T
  0.9309143626747645  0.3626544388935039  0.4375658609782718   T   T   T
  0.1321721111039382  0.9136426416547260  0.3953280991845399   T   T   T
  0.6509984641374074  0.4733481787836815  0.6629236528044010   T   T   T
  0.6322039401452377  0.2173744828189949  0.4768344207295380   T   T   T
  0.0459649789966148  0.7588279063816408  0.6965068148839743   T   T   T
  0.1234525015340125  0.1298179350081328  0.7199179541306733   T   T   T
  0.6595883782604487  0.7982509858362760  0.8802019541982415   T   T   T
 -0.0107194796409189  0.1704191960883642  0.8518554209210504   T   T   T
  0.5519856321060969  0.3233389070328920  0.6239493083886356   T   T   T
  0.2061164402949631  0.7521339178762914  0.7478871397991684   T   T   T
  0.5274846983683723  0.0921463242727262  0.5589319810918392   T   T   T
  0.7741674399999994  0.2014327199999997  0.9504264899999981   F   F   F
  0.9572534557618203  0.9822753407518424  0.7843127694187231   T   T   T
  0.1035658315207141  0.7794888337749865  0.6577999077749073   T   T   T
  0.2506653335533309  0.4738220794048445  0.2831456751782237   T   T   T
  0.5949612984466238  0.8642454451227150  0.5127626867118651   T   T   T
  0.0092442048999999  0.6581968599999968  0.0018481749999992   F   F   F
  0.2740194402193831  0.0324850776652919  0.7134984119563478   T   T   T
  0.5988258263915486  0.8830432342036113  0.6497580414759250   T   T   T
  0.6996804909039830  0.9648777795874632  0.8343605199260635   T   T   T
  0.4335016407504715  0.1640168969031011  0.4387366068056930   T   T   T
  0.5085982525750653  0.1827909958929448  0.1634818117798038   T   T   T
  0.9404744400000027  0.4520465800000011  0.0515474740000030   F   F   F
  0.1587579135185133  0.3706787128402252  0.5331251436506246   T   T   T
  0.7050220098280634  0.4730265378043191  0.5297455164568784   T   T   T
  0.9529843015689834  0.9548353184130001  0.4788245774322993   T   T   T
  0.3468464142132011  0.6838152236745924  0.1780196874509495   T   T   T
  0.0114396095239211  0.9825696137066177  0.1700346181078992   T   T   T
  0.2747523775288880  0.6165603228139467  0.6660811887563896   T   T   T
  0.7498224169427906  0.6435239156977594  0.3989053488759902   T   T   T
  0.0174399366037548  0.5810618172259705  0.1729386830447512   T   T   T
  0.8423099128282452  0.5044408331948484  0.7571152578565024   T   T   T
  0.0421002540879234  0.4411306516266983  0.6302676495218362   T   T   T
  0.2355909282801310  0.0930382764748725  0.5032052859720658   T   T   T
 -0.0074976676369281  0.1597859129114722  0.8937844249847067   T   T   T
  0.2278592546704573  0.9135226959377196  0.1853043803020375   T   T   T
  0.8611834082331492  0.9325736085541613  0.3641600953017058   T   T   T
  0.1566476879771466  0.9394828579474463  0.8937796709281294   T   T   T
  0.2731807003581747  0.2890520124851518  0.0959992980341555   T   T   T
  0.1789866379763148  0.3651788018386075  0.6837025565383986   T   T   T
  0.3034023644537174  0.7409839722894241  0.8858233306180714   T   T   T
  0.7501166945526511  0.4176002556932189  0.5736811672959755   T   T   T
  0.6861829121825934  0.3474588880823161  0.0735690982176880   T   T   T
  0.4008670671281289  0.8364701881490995  0.8223157625735622   T   T   T
  0.5155817604723564  0.7263441612898326  0.1471074029725119   T   T   T
  0.3266565427979065  0.8149607545424717  0.3836156221997247   T   T   T
  0.4575350144285723  0.4117233272009448  0.3658616074778954   T   T   T
  0.5433253818542156  0.6955953098553489  0.2594866460384773   T   T   T
  0.0536923955696746  0.3025325577576178  0.4898809092036302   T   T   T
  0.7009684112307617  0.4526645356685485  0.0529017602306958   T   T   T
  0.6708571427937124  0.3887662407754341  0.8059098656423297   T   T   T
  0.2207961241764709  0.6733943425956453  0.2291162455334009   T   T   T
  0.8472989331506493  0.2286891020428419  0.3694580705970145   T   T   T
  0.9843499324797965  0.2321142590680633  0.7617682700382093   T   T   T
  0.8062142438806086  0.1612210705057456  0.3548221910180861   T   T   T
  0.2131166768781194  0.0658045942603314  0.3526214390071885   T   T   T
  0.1193396199999981  0.2181975700000010  0.0228090840000021   F   F   F
  0.5850532318464533  0.4034098026364020  0.8126282065302306   T   T   T
  0.1806171500000033  0.4145050099999992  0.9723809199999991   F   F   F
  0.0829656397700325  0.6985143238281799  0.8343145226321484   T   T   T
  0.0049608959995881  0.0320052065320769  0.3459297259931186   T   T   T
  0.9749959002329975  0.5263463648482406  0.1238454919879738   T   T   T
  0.1984060928617283  0.5317263605409985  0.3961099529333002   T   T   T
  0.5180734671084734  0.4152763879203523  0.2649174339377139   T   T   T
  0.1091776972630138  0.0494036203334158  0.3497310072950600   T   T   T
  0.8808732050370007  0.2926335927236575  0.3844227894440481   T   T   T
  0.2319158399999992  0.1195007899999965  0.0504099119999992   F   F   F
  0.1029909309326478  0.5140591227895603  0.3896609230170798   T   T   T
  0.6620990999999989  0.6543749300000030  0.0014740634999981   F   F   F
  0.9751261199770701  0.6175033531008700  0.1165091176489284   T   T   T
  0.7929398475071028  0.2760252302233953  0.7905883287217804   T   T   T
  0.6932781626372821  0.6901962149225775  0.2487556274347170   T   T   T
  0.1247914599999973  0.2093887999999993  0.9485934799999995   F   F   F
 
  0.00000000E+00  0.00000000E+00  0.00000000E+00
  0.00000000E+00  0.00000000E+00  0.00000000E+00
  0.00000000E+00  0.00000000E+00  0.00000000E+00
  0.00000000E+00  0.00000000E+00  0.00000000E+00
  0.00000000E+00  0.00000000E+00  0.00000000E+00
  0.00000000E+00  0.00000000E+00  0.00000000E+00
  0.00000000E+00  0.00000000E+00  0.00000000E+00
  0.00000000E+00  0.00000000E+00  0.00000000E+00
  0.00000000E+00  0.00000000E+00  0.00000000E+00
  0.00000000E+00  0.00000000E+00  0.00000000E+00
  0.00000000E+00  0.00000000E+00  0.00000000E+00
  0.00000000E+00  0.00000000E+00  0.00000000E+00
  0.00000000E+00  0.00000000E+00  0.00000000E+00
  0.00000000E+00  0.00000000E+00  0.00000000E+00
  0.00000000E+00  0.00000000E+00  0.00000000E+00
  0.00000000E+00  0.00000000E+00  0.00000000E+00
  0.00000000E+00  0.00000000E+00  0.00000000E+00
  0.00000000E+00  0.00000000E+00  0.00000000E+00
  0.00000000E+00  0.00000000E+00  0.00000000E+00
  0.00000000E+00  0.00000000E+00  0.00000000E+00
  0.00000000E+00  0.00000000E+00  0.00000000E+00
  0.00000000E+00  0.00000000E+00  0.00000000E+00
  0.00000000E+00  0.00000000E+00  0.00000000E+00
  0.00000000E+00  0.00000000E+00  0.00000000E+00
  0.00000000E+00  0.00000000E+00  0.00000000E+00
  0.00000000E+00  0.00000000E+00  0.00000000E+00
  0.00000000E+00  0.00000000E+00  0.00000000E+00
  0.00000000E+00  0.00000000E+00  0.00000000E+00
  0.00000000E+00  0.00000000E+00  0.00000000E+00
  0.00000000E+00  0.00000000E+00  0.00000000E+00
  0.00000000E+00  0.00000000E+00  0.00000000E+00
  0.00000000E+00  0.00000000E+00  0.00000000E+00
  0.00000000E+00  0.00000000E+00  0.00000000E+00
  0.00000000E+00  0.00000000E+00  0.00000000E+00
  0.00000000E+00  0.00000000E+00  0.00000000E+00
  0.00000000E+00  0.00000000E+00  0.00000000E+00
  0.00000000E+00  0.00000000E+00  0.00000000E+00
  0.00000000E+00  0.00000000E+00  0.00000000E+00
  0.00000000E+00  0.00000000E+00  0.00000000E+00
  0.00000000E+00  0.00000000E+00  0.00000000E+00
  0.00000000E+00  0.00000000E+00  0.00000000E+00
  0.00000000E+00  0.00000000E+00  0.00000000E+00
  0.00000000E+00  0.00000000E+00  0.00000000E+00
  0.00000000E+00  0.00000000E+00  0.00000000E+00
  0.00000000E+00  0.00000000E+00  0.00000000E+00
  0.00000000E+00  0.00000000E+00  0.00000000E+00
  0.00000000E+00  0.00000000E+00  0.00000000E+00
  0.00000000E+00  0.00000000E+00  0.00000000E+00
  0.00000000E+00  0.00000000E+00  0.00000000E+00
  0.00000000E+00  0.00000000E+00  0.00000000E+00
  0.00000000E+00  0.00000000E+00  0.00000000E+00
  0.00000000E+00  0.00000000E+00  0.00000000E+00
  0.00000000E+00  0.00000000E+00  0.00000000E+00
  0.00000000E+00  0.00000000E+00  0.00000000E+00
  0.00000000E+00  0.00000000E+00  0.00000000E+00
  0.00000000E+00  0.00000000E+00  0.00000000E+00
  0.00000000E+00  0.00000000E+00  0.00000000E+00
  0.00000000E+00  0.00000000E+00  0.00000000E+00
  0.00000000E+00  0.00000000E+00  0.00000000E+00
  0.00000000E+00  0.00000000E+00  0.00000000E+00
  0.00000000E+00  0.00000000E+00  0.00000000E+00
  0.00000000E+00  0.00000000E+00  0.00000000E+00
  0.00000000E+00  0.00000000E+00  0.00000000E+00
  0.00000000E+00  0.00000000E+00  0.00000000E+00
  0.00000000E+00  0.00000000E+00  0.00000000E+00
  0.00000000E+00  0.00000000E+00  0.00000000E+00
  0.00000000E+00  0.00000000E+00  0.00000000E+00
  0.00000000E+00  0.00000000E+00  0.00000000E+00
  0.00000000E+00  0.00000000E+00  0.00000000E+00
  0.00000000E+00  0.00000000E+00  0.00000000E+00
  0.00000000E+00  0.00000000E+00  0.00000000E+00
  0.00000000E+00  0.00000000E+00  0.00000000E+00
  0.00000000E+00  0.00000000E+00  0.00000000E+00
  0.00000000E+00  0.00000000E+00  0.00000000E+00
  0.00000000E+00  0.00000000E+00  0.00000000E+00
  0.00000000E+00  0.00000000E+00  0.00000000E+00
  0.00000000E+00  0.00000000E+00  0.00000000E+00
  0.00000000E+00  0.00000000E+00  0.00000000E+00
  0.00000000E+00  0.00000000E+00  0.00000000E+00
  0.00000000E+00  0.00000000E+00  0.00000000E+00
  0.00000000E+00  0.00000000E+00  0.00000000E+00
  0.00000000E+00  0.00000000E+00  0.00000000E+00
  0.00000000E+00  0.00000000E+00  0.00000000E+00
  0.00000000E+00  0.00000000E+00  0.00000000E+00
  0.00000000E+00  0.00000000E+00  0.00000000E+00
  0.00000000E+00  0.00000000E+00  0.00000000E+00
  0.00000000E+00  0.00000000E+00  0.00000000E+00
  0.00000000E+00  0.00000000E+00  0.00000000E+00
  0.00000000E+00  0.00000000E+00  0.00000000E+00
  0.00000000E+00  0.00000000E+00  0.00000000E+00
  0.00000000E+00  0.00000000E+00  0.00000000E+00
  0.00000000E+00  0.00000000E+00  0.00000000E+00
  0.00000000E+00  0.00000000E+00  0.00000000E+00
  0.00000000E+00  0.00000000E+00  0.00000000E+00
  0.00000000E+00  0.00000000E+00  0.00000000E+00
  0.00000000E+00  0.00000000E+00  0.00000000E+00
  0.00000000E+00  0.00000000E+00  0.00000000E+00
  0.00000000E+00  0.00000000E+00  0.00000000E+00
  0.00000000E+00  0.00000000E+00  0.00000000E+00
  0.00000000E+00  0.00000000E+00  0.00000000E+00
  0.00000000E+00  0.00000000E+00  0.00000000E+00
  0.00000000E+00  0.00000000E+00  0.00000000E+00
  0.00000000E+00  0.00000000E+00  0.00000000E+00
  0.00000000E+00  0.00000000E+00  0.00000000E+00
  0.00000000E+00  0.00000000E+00  0.00000000E+00
  0.00000000E+00  0.00000000E+00  0.00000000E+00
  0.00000000E+00  0.00000000E+00  0.00000000E+00
  0.00000000E+00  0.00000000E+00  0.00000000E+00
  0.00000000E+00  0.00000000E+00  0.00000000E+00
  0.00000000E+00  0.00000000E+00  0.00000000E+00
  0.00000000E+00  0.00000000E+00  0.00000000E+00
  0.00000000E+00  0.00000000E+00  0.00000000E+00
  0.00000000E+00  0.00000000E+00  0.00000000E+00
  0.00000000E+00  0.00000000E+00  0.00000000E+00
  0.00000000E+00  0.00000000E+00  0.00000000E+00
  0.00000000E+00  0.00000000E+00  0.00000000E+00
  0.00000000E+00  0.00000000E+00  0.00000000E+00
  0.00000000E+00  0.00000000E+00  0.00000000E+00
  0.00000000E+00  0.00000000E+00  0.00000000E+00
  0.00000000E+00  0.00000000E+00  0.00000000E+00
  0.00000000E+00  0.00000000E+00  0.00000000E+00
  0.00000000E+00  0.00000000E+00  0.00000000E+00