Amorphous Sb                            
   1.00000000000000     
    18.8060348536244710    0.0000000000000000    0.0000000000000000
     0.0000000000000000   18.8060348536244710    0.0000000000000000
     0.0000000000000000    0.0000000000000000   18.8060348536244710
   Si   Ge
   150   150
Direct
  0.1495046777502289  0.1958217969459221  0.4943042774623696
  0.1497429623836057  0.5788089675172953  0.7368477467424255
  0.0123774132664304  0.9107157234748035  0.6379882888332596
  0.2682946474287971  0.9861113473061651  0.3713973549571269
  0.4418241367386872  0.1825836547774453  0.0764357428148058
  0.9944941145362919  0.8807849096758059  0.5184211410303204
  0.1870741184798695  0.4940871308568791  0.5493699493959303
  0.5161772098115536  0.3374768224867365  0.3869014555331186
  0.5111243568371365  0.4596746581661547  0.0514119908984483
  0.6191754966140115  0.9410503817119558  0.6848942895257998
  0.5041934081539473  0.9522892886503821  0.8506752748227188
  0.2982004817223797  0.9914400140442706  0.1639713723265263
  0.5699092072236150  0.7622578954577995  0.7755547608700746
  0.9755041691762595  0.3356018958441873  0.8078881170779363
  0.4730986002962947  0.1452139943427098  0.8243027384216257
  0.4635142661753435  0.3386583301223636  0.7726171993204418
  0.8063675929891774  0.2879178527985538  0.9034985897486769
  0.8597779689965087  0.4169638549512314  0.1765533564015386
  0.0494083699723760  0.1361981842067441  0.3448530919042160
  0.0432465679088602  0.8284207211906853  0.1900470015581335
  0.9061930224760707  0.2766332345137700  0.7276121432173039
  0.1467620988736134  0.3787093021329896  0.5672061513202945
  0.2343050331232516  0.7405443668589234  0.7321323295538433
  0.4690078363704507  0.5339195174377173  0.7681878396447315
  0.6003183275159247  0.5478972289531939  0.9194344497711774
  0.4753647718662949  0.9794119358839876  0.3019583228641327
  0.9691564155494172  0.3693120741768761  0.1316488359228972
  0.1198230083327327  0.4346876775142333  0.9037383529919317
  0.3890135561810906  0.0512443963919436  0.2322191882631026
  0.9989682366505943  0.7162765586430532  0.7060727856365778
  0.4366393051402477  0.3988889003033549  0.1324859707602885
  0.3844891938960916  0.3751618707560368  0.6773409082881350
  0.8227303205933939  0.0129696222690639  0.7021626486035535
  0.2732554404190597  0.4851495547683026  0.0353687024882717
  0.8185567414318982  0.3482112397916921  0.2700891446400264
  0.3930099310039540  0.6368520232409242  0.7583937268279344
  0.4096097341831555  0.4700903506396667  0.2289155202949373
  0.3980299810053906  0.2436793490607647  0.8110802887864057
  0.9865517808254342  0.1010652609795732  0.7331415915687961
  0.5821164728680972  0.1141374244953453  0.2091427585009901
  0.2709068505167213  0.7537441362795199  0.9069695255732330
  0.1470790993338384  0.1211710617143020  0.9556093923697493
  0.4672631494337448  0.8547130316723874  0.9143031734065846
  0.7051548880059409  0.6174981116740308  0.3216459780837100
  0.5807600448387403  0.3072937737549036  0.7768663941925367
  0.2615562632292127  0.1706318361628270  0.9293906218543203
  0.3281655041435795  0.2817043745203154  0.4991089677393484
  0.4708807321425370  0.2164314153720424  0.3799983914919670
  0.1939804926791409  0.0108566064415986  0.9848683432748847
  0.1468545158028608  0.7760477096045705  0.8941698325451445
  0.3670438197871739  0.1727820528160644  0.4429453003759455
  0.1115708140605031  0.8673504579933896  0.8167014692873920
  0.7522043647778996  0.0671572678721791  0.4185498813155780
  0.6177750577733990  0.2046042295441566  0.1303132442023130
  0.1746208459810688  0.0078327140257596  0.1959971039171219
  0.8546323937400664  0.6771760436235675  0.3650862483600218
  0.0746717548926707  0.7863982062173231  0.4973962254377753
  0.1900832526801498  0.2770727558540507  0.3122119025981336
  0.7710919325329009  0.7096313071627456  0.9533964368659524
  0.0484495062548684  0.2890517411521499  0.1820930917449892
  0.0453882724449694  0.7446436520203976  0.0888356462572646
  0.5692387593027428  0.7747766474801654  0.9025916135773938
  0.6870904154776212  0.0795575166991334  0.8272629564048057
  0.6227279791401538  0.6550259890596656  0.5274245429834117
  0.6303746984923371  0.9664729994319872  0.8103666723100542
  0.7735442356106736  0.9017317915489808  0.2934947814917181
  0.1134798920922014  0.6948120659333941  0.7501096364855646
  0.0477253251879038  0.0164829045656059  0.3707680620591500
  0.5816034255034895  0.8549465725915822  0.4303886196327723
  0.2424335262621976  0.6270756293396631  0.3696974140690966
  0.4381509297591932  0.4353551482453115  0.8448538190219582
  0.3090848455911739  0.4173214218563989  0.8418085782219186
  0.9464855665285953  0.8625659156912427  0.9427673485020939
  0.1426119227891234  0.6619015818960639  0.0881900908577382
  0.1330819973284026  0.2878491378499737  0.0780649389737747
  0.8931199939135513  0.7453270090204842  0.9669491237935004
  0.7376282151377829  0.7318397715972236  0.3596078250188925
  0.2019284727913451  0.1136569377009811  0.5741239861174854
  0.9881359701378333  0.3358045155567196  0.3902570132450670
  0.1097670691838520  0.6629144350802416  0.8729146440506151
  0.3553656402950368  0.8880629857574578  0.1194625538241163
  0.9127954759349214  0.9767099855682558  0.0027015166715224
  0.2046931750204926  0.1521807068134936  0.6950491891842078
  0.8086598923600367  0.6202854838547738  0.2473621604718974
  0.5544366431631044  0.1803116456015991  0.0293504757787015
  0.8731043139681510  0.8855409961060740  0.3751419052275444
  0.3828108428948239  0.0113616038660694  0.9923451702743390
  0.9678664829290369  0.1925182144542894  0.0411746726001065
  0.6746642748182023  0.5039431089907677  0.6038276905536696
  0.3577326199782095  0.8012121649533580  0.4154555161072023
  0.0816831369639706  0.9381113977273872  0.1424311607569644
  0.2294300171699962  0.2120554789530536  0.2086397173369008
  0.1823380925755848  0.6687974813103352  0.2136008432447023
  0.5584589807811877  0.5078375651556093  0.3841645354983385
  0.2866605201759956  0.8491884695752325  0.7448899372592945
  0.5232533724665881  0.3605357127432517  0.5107956433678787
  0.5929643678941469  0.5472485120306533  0.7919849257849662
  0.7524117721663359  0.1213312903739158  0.7264922840075115
  0.2048755883276240  0.5840292270784238  0.8476379317905661
  0.2352089234596237  0.4827867721843849  0.9164093765129183
  0.4017756507565672  0.5144600130204475  0.4643799101147258
  0.8855675679221248  0.4027409286869782  0.3660416853962610
  0.1783741946470392  0.8194109076448722  0.5572016837922359
  0.8381241856048832  0.9782271882455564  0.8261012001004420
  0.9313962409506857  0.6935009255974183  0.0816564838301786
  0.0217135488574127  0.9972671965354910  0.4878072310868459
  0.1691884187957186  0.1698866601721172  0.3755616740596917
  0.3199062310050186  0.1525974387256039  0.2667249637941523
  0.9752398657273604  0.3137226506823671  0.0132721576531106
  0.1919974074611009  0.9272560929706780  0.7460383916714646
  0.6930954910783036  0.1465248355150129  0.4929171870726624
  0.6131637158286489  0.3610193201318896  0.8893003883728404
  0.1391201616147495  0.9131135070021558  0.6353879161514239
  0.0742293968457914  0.3303738941719458  0.2992246532354946
  0.2971565956776801  0.0787075985872683  0.8482400986468671
  0.9411739379790213  0.9091479314912962  0.8242304709316108
  0.7336840205825270  0.7680243535584137  0.1326780969839491
  0.2854409500739157  0.8536688496928198  0.5046570298012707
  0.5236289423792153  0.9859746003508452  0.0810310178534238
  0.3287318041957302  0.1848334092713181  0.7094169886261652
  0.2069156586496020  0.3048296726231389  0.4901537437461747
  0.3959052227398451  0.8572500795595093  0.6882238688912095
  0.0674684387965537  0.2631092311804581  0.8553934931788630
  0.2901043187992398  0.0540385125788811  0.0628043111955187
  0.2275102372925397  0.3678951484507178  0.3819860938156264
  0.9274245715424655  0.0652138569120774  0.5260882413487471
  0.8406469224625658  0.7224358694388961  0.1738431484499206
  0.1575604703773933  0.3594172933788919  0.6937844826201824
  0.2754920806230284  0.1058906318610939  0.3768149345552004
  0.0086438250156576  0.8378887751369144  0.7415465898510730
  0.6881142704091312  0.6279026811343372  0.6269079253697111
  0.4744189831341975  0.0833591346498973  0.1494111432098253
  0.3146442025780272  0.1770585855756054  0.0425014980058087
  0.3761786125361070  0.2528634931874302  0.6147829556266351
  0.0917667387569223  0.3319604194361728  0.9680086545630918
  0.2937673876799420  0.6127305754972012  0.2037255693679269
  0.2649737997135364  0.4128777968728551  0.7245279653536897
  0.4386676746134952  0.9125205304780176  0.0249489408852705
  0.1539532056586676  0.9697001787773151  0.3160234096624009
  0.3080470438732040  0.7225128806353903  0.3328798909797486
  0.2038590357074251  0.0493533256471739  0.7680300928424652
  0.5730497385089965  0.0164081470722599  0.3712181333810359
  0.6857250968887046  0.0399192532664812  0.2114049204872916
  0.5262393322159149  0.4446063462487907  0.9333280505428575
  0.1233436300992423  0.2496935201356028  0.7426932919485656
  0.6562214185880851  0.4698314990115862  0.7216793410671624
  0.7813050898021988  0.8043636723696986  0.7809126000089506
  0.3851115290303407  0.0814959945268811  0.7520105037320248
  0.2545652870196038  0.9746555388357321  0.4938962502736260
  0.7362186464602319  0.3861928268694964  0.8758311538022601
  0.2278526554024519  0.7045778401885440  0.6092984758855902
  0.0132040375624505  0.2136549363495838  0.6818047081439426
  0.8600685136802464  0.1089847169974243  0.3594991381635148
  0.5618981416337150  0.4819307554152950  0.5532631144793407
  0.2812302668161830  0.5626737756865251  0.4773471693770737
  0.8667429493106332  0.8745640738749044  0.4994397825926619
  0.6241710576244895  0.3169617665607471  0.3031961579827654
  0.9347020618756701  0.4202405940324672  0.5875771108649290
  0.8073673054914217  0.6641956987389029  0.5878189142266114
  0.3010260624637212  0.0388741079075351  0.6027489477793915
  0.9184514351395672  0.8210220982025144  0.2108107147806703
  0.3987340822802104  0.2483345025030523  0.2799709259555926
  0.3443941482295900  0.3797954310495651  0.0509846493131094
  0.7830257074608776  0.9878218637304499  0.0316499933817999
  0.7105791684581984  0.4150878883322288  0.2977561293246249
  0.3140775374174051  0.2925884103727779  0.8903278376352289
  0.5192651217728836  0.7027511776384434  0.3510915194120998
  0.7710036377981748  0.2338690965388305  0.4488990498513180
  0.4177226599888670  0.7035706239496772  0.2566241253929010
  0.6125026070949137  0.8162491215082365  0.6660068136420593
  0.3974498601981459  0.3971647908190346  0.5363900313697250
  0.6667879351064283  0.7648968584333377  0.4651615892955191
  0.8533364108716884  0.4613613741932693  0.4794131941318039
  0.6690676238170821  0.4481442904720044  0.4211454056086811
  0.7776217929125107  0.7821540822754367  0.5374936248779214
  0.5730721136411085  0.3753824392361517  0.6769170714138334
  0.5900050617354661  0.2744408409707774  0.5771828678711879
  0.9004318315871166  0.1901749290609548  0.5253928147399228
  0.6836058737281526  0.3283276883690783  0.4843585212242707
  0.8084880241450288  0.2085011644755481  0.2390375107479143
  0.4566272146140237  0.4981288115085564  0.6480175103815367
  0.4811266695944354  0.7850977630347443  0.4706256940480444
  0.7443477559825139  0.6854781131826380  0.8221342429217749
  0.9533075066886109  0.5715129598069937  0.1067974996155695
  0.3394716650541413  0.6694861448880197  0.5393723166129047
  0.6968043100374497  0.2134110394718375  0.3338361251856140
  0.7539490815621386  0.4134915673497979  0.5564429012357255
  0.7314149654250620  0.9698479786452526  0.6207645004968425
  0.2464723417471940  0.8170255114401278  0.1059706085421327
  0.7297420557017181  0.4958093166371570  0.9567415150138363
  0.2792255216144363  0.4863516081716705  0.2256222093991176
  0.9574723634359501  0.2079957103279435  0.4005646042892132
  0.2919809622358618  0.6664142170710753  0.8172938232062974
  0.7527800221393944  0.4402319462685572  0.0835205979270313
  0.0322032086923036  0.2137304491849633  0.5436706108518048
  0.9277646204777980  0.9957773295765253  0.3318467996433752
  0.6974014786889304  0.5782945950711036  0.4483338693286181
  0.7046800378611627  0.8010910619355333  0.2567471685748451
  0.0217437770679044  0.5215026385915423  0.9411066154302642
  0.9371997304882791  0.6492690195023657  0.6010126488245975
  0.8981187420018060  0.5371538579997173  0.2182743687042044
  0.3352876711620075  0.8519072476064518  0.8694126991656439
  0.5704345757684762  0.6589733772601168  0.9821670928163112
  0.6033261839500994  0.9674726689567297  0.4912009447013105
  0.4754693361334936  0.5832871476252777  0.0607035779276449
  0.2541440369734860  0.7094146389559459  0.0328238960247503
  0.3562465689336852  0.5914655418741025  0.6451850379020495
  0.3272906910633177  0.6027788995402351  0.0724887363850884
  0.0288380570754707  0.3449946830864066  0.5265471934302383
  0.2041982187727097  0.4935263912217254  0.3333396545333885
  0.4734975066671195  0.5898033327644516  0.1989434135628187
  0.3769551481277210  0.9072840822145606  0.3404978470774205
  0.5786656996620227  0.5935134147058022  0.2857221460949533
  0.8308611565501602  0.5842666438222438  0.9327465696818129
  0.2950150262649684  0.9713551213939962  0.9118278075813897
  0.5837688256122165  0.3139886955275168  0.1815310389243386
  0.9348229094379999  0.0995480257125611  0.9530786974172180
  0.2038811847514373  0.4245986824440634  0.1293139708277043
  0.1352920965016310  0.1255687237931109  0.1803796933796546
  0.9691035216487091  0.9945977629535078  0.1080478031142605
  0.4046779413034104  0.8665507377427898  0.5581755995124256
  0.7424171328334332  0.2076465629929503  0.9856689505667848
  0.6179068738856111  0.2461866198841227  0.9422492704013072
  0.6585952675172395  0.5038178667938434  0.1983342565049461
  0.4752906433060716  0.9824149796328664  0.5278065645004771
  0.9610897063129586  0.5069808645447648  0.3293132830162604
  0.9372624558605853  0.0193698172745886  0.6465502977471803
  0.0941142037963744  0.1585608234385894  0.0645478415208529
  0.4268265473114283  0.2998535813202552  0.9677520617088121
  0.0781787700902034  0.4053617079199855  0.7832663979589600
  0.7446926445407399  0.8273418206450351  0.6569008040179743
  0.6014018795409278  0.1806050279785218  0.8242831993309722
  0.6900899835523190  0.6728724809706969  0.0482745412431167
  0.8262442276384306  0.5953907484013909  0.4729676940675298
  0.7040800083261237  0.8817957639047088  0.0703720297792516
  0.6882271536220390  0.9948620915443342  0.3284335249889433
  0.5211269147925923  0.0096112729492585  0.6548674781018872
  0.6347481303047001  0.6564822905224540  0.7508814586073843
  0.5281445127461870  0.7334124167023133  0.5927197773199976
  0.2400970356998273  0.5276028555646326  0.6606666017765971
  0.6768620656633506  0.1182965637124343  0.6187888319476718
  0.0952811908908660  0.6931249224323631  0.5910358061621596
  0.1381540814712803  0.0030821253976468  0.5437944757991156
  0.5131706023579691  0.5857730214821604  0.4813166627375669
  0.5866908733791675  0.0637625732480562  0.9917646481870848
  0.6887951713653085  0.8163278227917051  0.9540020091304330
  0.7750120336330923  0.4508566029272945  0.7676570347169772
  0.4562014503040615  0.2764887918748888  0.1692371518663687
  0.3539160185573831  0.3435139285113212  0.3682501315777235
  0.8790705181523897  0.9511473380202621  0.2136442233663318
  0.4421373640663813  0.9612139626268449  0.7439257124953200
  0.9902787401033109  0.5318874941222068  0.6162189763601114
  0.0801642510024001  0.0547782986442238  0.7965796066628208
  0.5461782163960536  0.1331268390044401  0.6858781512285357
  0.7867250574305763  0.0777181102820718  0.1378235328166095
  0.0648402536731430  0.4578079159270579  0.1504763013504384
  0.8881734630400799  0.1090906195007182  0.8272265711448673
  0.9516987917889338  0.6233198260264510  0.7877524140211000
  0.0527598246747513  0.9638998885226709  0.8858815881791930
  0.9554712948432483  0.6998736619707420  0.4771829583367680
  0.8152078963449787  0.9947268485274452  0.5106743792537592
  0.0182010409348891  0.1697517249911268  0.2281260028416575
  0.2595691345443096  0.2735235527756172  0.1026983455857580
  0.4408510962815493  0.4484611444002121  0.3511758510396304
  0.8255540069843125  0.5791862938168704  0.7990570823119316
  0.1513041759731744  0.9031362721449481  0.0402413129546152
  0.9302543659575270  0.1204834389826864  0.1429981257542498
  0.6182098082705858  0.4175823098910765  0.1032700869206152
  0.1173759283983211  0.6492776640091970  0.3265656622579967
  0.0225882834871171  0.5984598845419313  0.4112246874835884
  0.4598861318756151  0.7461970232884534  0.7130220827745273
  0.9037360684431183  0.3674485052838187  0.9172502143697272
  0.0318630020377579  0.5263612250653872  0.7412255519081411
  0.7123546984943758  0.0754732937518041  0.9525097167457028
  0.0428537943029801  0.1459672322021786  0.8869522060063381
  0.6255759160068255  0.9490989100537338  0.1451228668988234
  0.0841576010167157  0.5708928365572404  0.5274386424287851
  0.9049469910908835  0.7753139453094897  0.8097315899942285
  0.0669639701679165  0.8227744394404374  0.9822249803964563
  0.5577706169477601  0.1224351851568267  0.4726101072100061
  0.7473116647285474  0.5668910996323672  0.1195932965986697
  0.9876895818994866  0.6468532588459479  0.9167550960978708
  0.2281799729801800  0.7871076764508269  0.2370447746793840
  0.0809656569471370  0.5501269342683954  0.0574599994879926
  0.4781636055756837  0.0557969534031589  0.9181871351038516
  0.7436165806418397  0.1978601189201656  0.1162216876944853
  0.9316489593455899  0.7808256058517115  0.3370401262524619
  0.9010116445036558  0.4860554229717400  0.9917940870463348
  0.1241259828033491  0.8472082323692659  0.2928242761519201
  0.5340173643207399  0.8908845694285412  0.2272238959884506
  0.0768692381080779  0.4598284510943915  0.2855528193889115
  0.4768918103220643  0.1900486382077111  0.5862114512909220
  0.0634557722330884  0.7639712940415413  0.3707633517774371
  0.8400702756530368  0.3667323470122164  0.6617165983763543
  0.7298547156156683  0.8999020726446026  0.8566663962186718
  0.4093560849842325  0.8391318807716420  0.2204971434692670
  0.5888797688201930  0.8112045401622320  0.3090774069309637
  0.8144765291502443  0.2160477112744581  0.7954799612996569
  0.5774955107640215  0.1422717977426012  0.3326997536321313
  0.4024478963521265  0.0883259353680648  0.5333147880941915
 
  0.20118650E-02 -0.17209531E-02 -0.25889555E-03
  0.41493877E-03  0.16540212E-02 -0.19992012E-02
 -0.83417195E-03  0.17975110E-02 -0.66849314E-02
 -0.36486435E-02 -0.87059543E-03  0.20988282E-03
  0.16461502E-02  0.30716020E-02 -0.32022669E-03
 -0.18508826E-02  0.28620172E-02  0.11668969E-02
 -0.49455756E-03  0.92298582E-03  0.71578154E-03
 -0.51073904E-02  0.47123721E-03 -0.16466103E-03
 -0.23620504E-03  0.35461396E-02 -0.87686212E-03
 -0.63862683E-03 -0.30050561E-02 -0.86326797E-03
 -0.27263749E-02  0.13940291E-02 -0.41734665E-02
  0.16731889E-02  0.14129608E-02  0.21171210E-02
 -0.27560837E-02  0.48723139E-02  0.29937417E-02
 -0.21266563E-02 -0.71561087E-02 -0.12456524E-02
 -0.24316942E-02 -0.55710889E-03  0.10002797E-02
 -0.50150551E-02  0.26089768E-03  0.31335023E-02
  0.23046559E-02 -0.32509046E-03 -0.12762565E-02
 -0.38273971E-02 -0.43479245E-02 -0.19248686E-02
  0.24054905E-02  0.23867584E-02 -0.60904002E-02
 -0.37236205E-02 -0.25686541E-03  0.31192004E-02
  0.12430775E-02 -0.32896382E-02  0.44146760E-02
 -0.24499775E-04 -0.12795047E-02 -0.13048038E-02
 -0.60699691E-03 -0.24402063E-03  0.25441905E-02
 -0.32810017E-02  0.34037701E-02 -0.79195848E-03
 -0.16041973E-03  0.11025953E-02  0.95228674E-03
  0.27382643E-02 -0.65502515E-03 -0.20362573E-02
  0.53790904E-03 -0.16912830E-02 -0.16603459E-02
 -0.68367668E-03 -0.30994026E-02 -0.96791912E-03
  0.16208671E-02  0.33356634E-02  0.10778057E-02
 -0.65122727E-03  0.26799643E-02 -0.33633048E-02
 -0.22373146E-02  0.19844772E-02 -0.43896423E-03
  0.42235750E-02  0.16296948E-03  0.17851867E-02
  0.51892433E-02  0.17070862E-03 -0.34535759E-02
 -0.15720376E-02 -0.50954807E-03  0.22415725E-02
 -0.40802571E-02  0.23987849E-02  0.38426243E-02
  0.54594996E-03  0.22588802E-02 -0.16855055E-02
  0.48337053E-02  0.55730141E-02  0.39226842E-02
 -0.39887249E-02 -0.33384228E-02 -0.23741723E-02
 -0.11707358E-03 -0.29504941E-02 -0.46279343E-03
 -0.12673090E-03 -0.42078840E-03  0.10659285E-02
 -0.31362958E-02  0.12126828E-02  0.11944715E-02
  0.23161118E-02 -0.16690085E-02  0.18538969E-02
 -0.65592979E-03 -0.52605564E-03 -0.31680709E-03
 -0.13976700E-02 -0.69925932E-03  0.52324453E-02
 -0.19520281E-02 -0.40455074E-02  0.30701468E-02
 -0.51516602E-03 -0.98090873E-02 -0.22146538E-02
 -0.26214273E-02  0.35120471E-02 -0.19696827E-02
  0.22407577E-02 -0.61936239E-02 -0.40523762E-02
  0.28710456E-02 -0.10896003E-03 -0.99434142E-03
  0.61923132E-02  0.20620042E-02 -0.19205034E-02
 -0.45355845E-02 -0.72815753E-03 -0.21817600E-02
 -0.12664411E-02  0.36625801E-02  0.24962894E-02
 -0.16669251E-02  0.35343534E-02 -0.35238870E-02
  0.23023936E-02 -0.18647418E-02  0.49319437E-02
  0.58895496E-02 -0.27610889E-03 -0.16269261E-02
  0.19988705E-02 -0.22081270E-02  0.50553085E-02
  0.11527923E-02 -0.26799258E-02 -0.73320531E-03
  0.39024361E-02 -0.31361726E-02  0.71696378E-03
 -0.51940095E-02 -0.69547881E-02 -0.42765734E-03
  0.50712695E-02  0.47143498E-02 -0.17397115E-02
 -0.48728532E-02  0.80020494E-02  0.98694975E-03
 -0.33848136E-02  0.59550341E-02  0.20857057E-02
 -0.35036781E-02  0.28179824E-02 -0.16992473E-02
  0.22859492E-02 -0.62431390E-03 -0.23112414E-02
  0.21563709E-02  0.34041973E-02  0.58350540E-02
  0.53273267E-02  0.29925683E-02 -0.60495927E-03
  0.52167767E-03 -0.22353070E-02  0.35234344E-03
 -0.20904027E-02  0.17335412E-02 -0.32384356E-02
 -0.44648985E-02 -0.24422371E-02  0.11377147E-02
 -0.11784898E-02 -0.14571107E-02  0.42670793E-02
  0.16391598E-02  0.33787561E-02 -0.69568715E-03
 -0.35132230E-02 -0.28191501E-02 -0.10884752E-02
  0.31038139E-02  0.15139546E-02  0.16774104E-02
  0.35614514E-03  0.28524276E-02  0.80292871E-02
 -0.23096566E-02 -0.17236160E-02 -0.56573378E-02
  0.30624639E-02  0.26006307E-02  0.24049187E-02
 -0.35639853E-03 -0.14532287E-02 -0.31327234E-02
  0.12791153E-02  0.22131163E-02  0.31774258E-03
  0.29495834E-02  0.23270522E-02  0.22981034E-02
 -0.28146826E-02 -0.36551071E-02 -0.15149965E-02
 -0.25522158E-02  0.58568865E-02 -0.43728060E-02
  0.24535594E-02 -0.34934308E-02 -0.21628640E-02
  0.31331583E-02 -0.14986856E-02 -0.17824180E-02
 -0.34322577E-02  0.12138878E-02 -0.13816562E-02
 -0.72823763E-03 -0.16614082E-02 -0.23021916E-03
 -0.77016719E-03  0.55395534E-02  0.16103575E-02
  0.16737555E-02  0.43551503E-02  0.22707956E-02
 -0.60098060E-03  0.69801293E-02  0.48262179E-02
 -0.22649765E-02  0.88234782E-03 -0.11113826E-02
  0.29353134E-03 -0.42798060E-02 -0.47201563E-02
 -0.24518222E-02 -0.88839761E-03  0.19255953E-02
  0.32060355E-03 -0.29854768E-02  0.99102656E-02
  0.17468375E-02 -0.21753983E-02 -0.14420666E-02
 -0.58311381E-02 -0.11294585E-03 -0.30844263E-02
  0.94225626E-03 -0.48308602E-04 -0.23313818E-03
  0.20234876E-02  0.44227536E-02  0.31453539E-02
  0.31752232E-02 -0.55741502E-03  0.41005028E-03
 -0.12073973E-02 -0.45253687E-02  0.51439247E-03
 -0.56036924E-03 -0.10259110E-02 -0.10759439E-02
 -0.27014121E-02  0.16995549E-02 -0.80442346E-04
  0.24477085E-02 -0.51796566E-03 -0.75612229E-03
  0.25332860E-02 -0.16460367E-02 -0.17359205E-03
  0.31676307E-02  0.35922797E-02  0.14978612E-02
  0.14856644E-03 -0.24238474E-02  0.77570091E-03
 -0.26165239E-02 -0.45687284E-03  0.18980821E-03
  0.25400927E-02  0.53938714E-03  0.12986432E-02
 -0.50821470E-02 -0.11215743E-02 -0.94801870E-03
 -0.28060367E-02 -0.21813738E-03 -0.17636812E-02
  0.18873239E-03 -0.26991664E-02 -0.34987845E-03
 -0.20120919E-04  0.42897031E-02  0.63535876E-02
  0.85124399E-03  0.34489467E-03 -0.27194002E-02
 -0.43169621E-03  0.22105341E-03 -0.30739334E-02
 -0.70592198E-03  0.34057740E-04  0.29543719E-02
  0.15716086E-02  0.40414593E-02 -0.11806079E-02
 -0.28932391E-02  0.55366599E-03 -0.87542652E-02
 -0.30654934E-02  0.13242113E-02 -0.70352879E-03
  0.54835661E-03 -0.21904903E-02  0.41449022E-02
  0.56978552E-02  0.97562575E-03  0.60619472E-02
  0.36800689E-02  0.31681605E-02 -0.39065468E-02
  0.13284519E-02  0.25836893E-02 -0.20974721E-02
 -0.35354832E-02  0.24244860E-02 -0.69107442E-03
  0.32051335E-02  0.10810936E-02  0.46790595E-02
 -0.21365152E-02  0.10210065E-02 -0.13762649E-02
  0.28799826E-02  0.42928026E-02 -0.93760500E-03
 -0.20362189E-02 -0.26557030E-02  0.38876730E-02
 -0.28724110E-02 -0.21278531E-02  0.67560923E-03
  0.16353725E-02 -0.26421432E-03 -0.18248325E-02
  0.48256021E-02 -0.14869135E-02 -0.18781971E-02
 -0.20126922E-02 -0.18388109E-02 -0.88732532E-04
  0.24444681E-02  0.91870269E-03  0.14832632E-02
  0.23282024E-02 -0.26303836E-02 -0.18335376E-02
 -0.21484924E-02 -0.22081151E-02  0.33079217E-02
  0.58726444E-03  0.53032636E-03 -0.78770393E-05
  0.76296837E-03  0.28363419E-02 -0.14907688E-02
  0.15974685E-02  0.32268621E-02  0.13167684E-02
  0.49190017E-02  0.17143960E-03  0.14441261E-02
 -0.10176361E-02 -0.80061630E-03 -0.12102764E-02
  0.57852963E-03 -0.11440693E-03  0.29163764E-02
 -0.68476441E-02 -0.62005457E-03  0.27587071E-03
  0.19428837E-02  0.15128001E-02  0.30634267E-02
 -0.15410123E-03  0.50575806E-02 -0.32685537E-03
 -0.21100903E-02 -0.39983791E-02 -0.57009200E-03
 -0.19401231E-02  0.22294129E-03  0.21186607E-02
  0.42294727E-02  0.22266318E-03 -0.15643489E-02
  0.32979842E-02 -0.30572945E-02  0.57374360E-03
  0.25424913E-02 -0.28162953E-02  0.36980525E-02
 -0.50927152E-04 -0.15870920E-02 -0.36515264E-02
 -0.32571015E-02  0.36286216E-02  0.47171620E-03
  0.14319173E-02 -0.49346574E-03  0.18256942E-03
  0.29945601E-02 -0.60132420E-02  0.62037237E-03
  0.36652266E-03  0.12765966E-02  0.74080519E-03
 -0.10276594E-02 -0.26985125E-02  0.13377738E-02
 -0.95722356E-03  0.24677378E-02  0.48843745E-03
  0.15874319E-03 -0.11938561E-02 -0.32804438E-02
 -0.90679297E-03 -0.25144074E-02  0.31891712E-04
  0.25639853E-02 -0.76490625E-03  0.61698511E-03
  0.16397272E-02  0.36415186E-02  0.13541907E-02
  0.80288884E-03  0.12211623E-02  0.11831251E-02
  0.88538788E-03  0.33401599E-02 -0.89307739E-03
  0.73670633E-03  0.30734756E-02 -0.25371220E-02
 -0.25074575E-02  0.15504261E-02 -0.90519516E-03
  0.10077288E-02 -0.84446943E-04 -0.39014738E-02
 -0.80499420E-03 -0.73782670E-03  0.57006498E-03
  0.17206059E-03 -0.27333966E-03 -0.15485744E-03
  0.95902378E-03  0.15357897E-02 -0.16213103E-02
  0.33835348E-02 -0.12320572E-02 -0.21354803E-02
 -0.20437256E-02  0.44678771E-03 -0.12242085E-02
  0.38415252E-03 -0.12760048E-02  0.30333757E-02
  0.52863447E-03  0.53351187E-03  0.19056595E-02
 -0.29295773E-02 -0.26030675E-02  0.50887096E-02
  0.43632486E-02 -0.66558372E-05  0.35025464E-03
  0.18216700E-03  0.22273384E-02 -0.69122474E-03
  0.45699097E-03  0.87688379E-03  0.77975558E-04
 -0.41082124E-03 -0.57167164E-03 -0.25744561E-02
 -0.10323925E-02  0.24509026E-03  0.62254543E-03
  0.75133901E-03 -0.87460115E-03 -0.82269262E-05
  0.14247426E-02  0.24096475E-02  0.16199974E-02
  0.24187374E-02  0.25998550E-02 -0.10688355E-02
  0.86284346E-04 -0.28315778E-02 -0.10487701E-02
 -0.22283039E-02  0.14320429E-02 -0.10189154E-02
  0.19547282E-02 -0.18200770E-02  0.13767115E-02
 -0.55379909E-03  0.19600409E-02  0.64572238E-03
 -0.20522754E-02 -0.32314837E-02 -0.17989148E-03
  0.25636696E-02  0.12846886E-02  0.96442865E-03
 -0.13774716E-02 -0.12321105E-02 -0.20137651E-03
 -0.41788186E-03 -0.19496547E-03  0.25902900E-02
  0.22171874E-02  0.46665289E-03  0.14609679E-02
 -0.17884855E-02  0.90606343E-03 -0.66857858E-03
 -0.10446982E-02 -0.12877132E-02  0.14890171E-02
 -0.15221992E-02  0.16554039E-02 -0.17640775E-02
 -0.20619278E-02  0.21589417E-02 -0.35728208E-02
  0.13309842E-02 -0.67676755E-03 -0.20910845E-02
 -0.17184100E-02 -0.53353897E-03 -0.37015596E-03
 -0.43105952E-02  0.36550866E-03 -0.69740692E-03
  0.87247857E-03  0.48752557E-03  0.55009326E-02
  0.11856240E-02 -0.48756813E-03  0.63673927E-03
  0.92246169E-03  0.44172583E-02 -0.19709066E-02
 -0.75449109E-04  0.23253132E-02 -0.21346085E-02
  0.35183825E-02  0.17131970E-02  0.21135155E-02
  0.27258073E-03  0.36901452E-03  0.46040774E-02
 -0.13251857E-02 -0.39963209E-04  0.20010657E-02
  0.61631665E-03 -0.28632455E-03  0.12186102E-02
 -0.39912848E-02 -0.50516861E-03  0.20927121E-02
 -0.15163754E-02  0.18397488E-02  0.23628624E-02
 -0.42293807E-03  0.21974529E-02 -0.69520079E-03
  0.40578366E-02 -0.88205769E-03  0.17885841E-02
  0.32353298E-02 -0.74905588E-03 -0.21677892E-02
  0.30385987E-02  0.54386661E-03  0.21499287E-02
  0.86659132E-03 -0.12609943E-02 -0.98598344E-04
  0.25365652E-02  0.12303778E-02 -0.24121286E-02
  0.16362014E-02  0.13841486E-02 -0.23527958E-02
 -0.58438021E-03  0.12767623E-02 -0.96567504E-03
 -0.20427810E-02  0.27138961E-02 -0.42562813E-03
  0.19101299E-02 -0.23838598E-02 -0.42138547E-02
 -0.16572309E-02 -0.75296457E-03  0.11683392E-02
  0.21706447E-02  0.23093177E-02  0.17583888E-02
 -0.15614523E-02 -0.16889603E-02  0.55671450E-02
  0.28115425E-02 -0.42570945E-02 -0.27057066E-02
 -0.81794648E-03 -0.74536918E-04 -0.86534737E-03
 -0.13406822E-02 -0.19200716E-02 -0.47631937E-03
 -0.29299027E-02 -0.96605264E-03  0.27544262E-02
  0.64924811E-03 -0.38751744E-02  0.13917543E-02
 -0.96450084E-03 -0.12901578E-02 -0.47507989E-03
 -0.16667821E-02  0.86220348E-03 -0.16905798E-02
 -0.72466050E-03 -0.70138728E-03  0.16467037E-02
 -0.15031211E-02  0.31341915E-02 -0.38011821E-04
 -0.13777574E-02 -0.10723199E-02 -0.26389221E-03
  0.18607410E-02  0.24014762E-03  0.30716696E-03
 -0.33821444E-03 -0.17762514E-02  0.17187444E-02
 -0.61849074E-03  0.28718675E-03  0.13014408E-02
  0.11984951E-02  0.19870122E-02  0.19447935E-02
 -0.36085604E-02  0.75165418E-03  0.50386949E-03