                                        
   1.00000000000000     
     5.8114104779240687    0.0000000000000000    0.0000000000000000
     0.0000000000000000    5.8114104779240687    0.0000000000000000
     0.0000000000000000    0.0000000000000000   19.1231678004766543
   Ge   Cr
    28    16
Direct
  0.1626257175687172  0.6886345119500495  0.1793428576898261
  0.8373742824312828  0.3113654880499506  0.1793428576898261
  0.6886345119500495  0.8373742824312828  0.8206571043101778
  0.3113654880499506  0.1626257175687172  0.8206571043101778
  0.1626257175687172  0.3113654880499506  0.6793428956898222
  0.8373742824312828  0.6886345119500495  0.6793428956898222
  0.6886345119500495  0.1626257175687172  0.3206571293101764
  0.3113654880499506  0.8373742824312828  0.3206571293101764
  0.2115718613907300  0.1599406455758531  0.1081902147040729
  0.7884281386092699  0.8400594064241442  0.1081902147040729
  0.1599406455758531  0.7884281386092699  0.8918097852959272
  0.8400594064241442  0.2115718613907300  0.8918097852959272
  0.2115718613907300  0.8400594064241442  0.6081902647040769
  0.7884281386092699  0.1599406455758531  0.6081902647040769
  0.1599406455758531  0.2115718613907300  0.3918097852959271
  0.8400594064241442  0.7884281386092699  0.3918097852959271
  0.3410462737055850  0.2371238545116640  0.5362160187989348
  0.6589537062944132  0.7628761254883344  0.5362160187989348
  0.2371238545116640  0.6589537062944132  0.4637839812010651
  0.7628761254883344  0.3410462737055850  0.4637839812010651
  0.3410462737055850  0.7628761254883344  0.0362160057989373
  0.6589537062944132  0.2371238545116640  0.0362160057989373
  0.2371238545116640  0.3410462737055850  0.9637840312010694
  0.7628761254883344  0.6589537062944132  0.9637840312010694
  0.3288704413933883  0.3288704413933883  0.2500000000000000
  0.6711295586066113  0.6711295586066113  0.2500000000000000
  0.3288704413933883  0.6711295586066113  0.7500000000000000
  0.6711295586066113  0.3288704413933883  0.7500000000000000
  0.0000000000000000  0.5000000000000000  0.0653146987352699
  0.5000000000000000  0.0000000000000000  0.9346852762647316
  0.0000000000000000  0.5000000000000000  0.5653147237352684
  0.5000000000000000  0.0000000000000000  0.4346852762647317
  0.0000000000000000  0.5000000000000000  0.3097118948016298
  0.5000000000000000  0.0000000000000000  0.6902880801983714
  0.0000000000000000  0.5000000000000000  0.8097119198016286
  0.5000000000000000  0.0000000000000000  0.1902881051983701
  0.5000000000000000  0.5000000000000000  0.1290732251789772
  0.5000000000000000  0.5000000000000000  0.8709267248210256
  0.5000000000000000  0.5000000000000000  0.6290732251789773
  0.5000000000000000  0.5000000000000000  0.3709267748210228
  0.0000000000000000  0.0000000000000000  0.0000000000000000
  0.0000000000000000  0.0000000000000000  0.5000000000000000
  0.0000000000000000  0.0000000000000000  0.2500000000000000
  0.0000000000000000  0.0000000000000000  0.7500000000000000
 
  0.00000000E+00  0.00000000E+00  0.00000000E+00
  0.00000000E+00  0.00000000E+00  0.00000000E+00
  0.00000000E+00  0.00000000E+00  0.00000000E+00
  0.00000000E+00  0.00000000E+00  0.00000000E+00
  0.00000000E+00  0.00000000E+00  0.00000000E+00
  0.00000000E+00  0.00000000E+00  0.00000000E+00
  0.00000000E+00  0.00000000E+00  0.00000000E+00
  0.00000000E+00  0.00000000E+00  0.00000000E+00
  0.00000000E+00  0.00000000E+00  0.00000000E+00
  0.00000000E+00  0.00000000E+00  0.00000000E+00
  0.00000000E+00  0.00000000E+00  0.00000000E+00
  0.00000000E+00  0.00000000E+00  0.00000000E+00
  0.00000000E+00  0.00000000E+00  0.00000000E+00
  0.00000000E+00  0.00000000E+00  0.00000000E+00
  0.00000000E+00  0.00000000E+00  0.00000000E+00
  0.00000000E+00  0.00000000E+00  0.00000000E+00
  0.00000000E+00  0.00000000E+00  0.00000000E+00
  0.00000000E+00  0.00000000E+00  0.00000000E+00
  0.00000000E+00  0.00000000E+00  0.00000000E+00
  0.00000000E+00  0.00000000E+00  0.00000000E+00
  0.00000000E+00  0.00000000E+00  0.00000000E+00
  0.00000000E+00  0.00000000E+00  0.00000000E+00
  0.00000000E+00  0.00000000E+00  0.00000000E+00
  0.00000000E+00  0.00000000E+00  0.00000000E+00
  0.00000000E+00  0.00000000E+00  0.00000000E+00
  0.00000000E+00  0.00000000E+00  0.00000000E+00
  0.00000000E+00  0.00000000E+00  0.00000000E+00
  0.00000000E+00  0.00000000E+00  0.00000000E+00
  0.00000000E+00  0.00000000E+00  0.00000000E+00
  0.00000000E+00  0.00000000E+00  0.00000000E+00
  0.00000000E+00  0.00000000E+00  0.00000000E+00
  0.00000000E+00  0.00000000E+00  0.00000000E+00
  0.00000000E+00  0.00000000E+00  0.00000000E+00
  0.00000000E+00  0.00000000E+00  0.00000000E+00
  0.00000000E+00  0.00000000E+00  0.00000000E+00
  0.00000000E+00  0.00000000E+00  0.00000000E+00
  0.00000000E+00  0.00000000E+00  0.00000000E+00
  0.00000000E+00  0.00000000E+00  0.00000000E+00
  0.00000000E+00  0.00000000E+00  0.00000000E+00
  0.00000000E+00  0.00000000E+00  0.00000000E+00
  0.00000000E+00  0.00000000E+00  0.00000000E+00
  0.00000000E+00  0.00000000E+00  0.00000000E+00
  0.00000000E+00  0.00000000E+00  0.00000000E+00
  0.00000000E+00  0.00000000E+00  0.00000000E+00
