POSCAR file written by OVITO Basic 3.10.4
1
19.6427805047 0.0 0.0
0.0 19.6427805047 0.0
0.0 0.0 19.6427805047
C Ge Sb Te 
17 17 66 116 
Cartesian
3.6559452298 8.8303658238 1.6603743731
8.5132131494 16.2911049227 4.5506315038
7.8648249147 15.2755481566 5.0979591345
9.6084683769 3.4739315055 8.4678699031
7.003170505 14.3675020767 5.5009947767
5.3269345256 12.4514114674 5.1523952658
6.164670234 13.3928892203 5.5577983854
10.0271753542 0.7122521604 13.1769524646
10.9510034334 3.0128234382 11.4851704648
7.9054310207 9.2234878456 11.4130919603
8.1705967156 14.8488575449 13.8995751187
8.7903167228 14.6717143369 12.8008270533
15.3632293302 8.6886563999 15.7311216993
15.1563993408 7.9631306279 14.7350581704
7.5497403145 14.8794203791 15.1664750314
6.3571665765 15.4055260319 15.426177049
5.1179939088 15.8349175951 15.6821850174
3.6086385853 10.3036845725 2.8935846526
5.5178128662 10.4375917477 4.8239190718
15.5515360446 17.1710696567 4.1083782019
17.8122535875 15.9798696475 1.2333942479
5.5176258397 2.4748115 8.1069285856
6.9600522212 18.8845225302 5.3169260295
9.93895732 3.2609536276 6.4110181182
11.2781297783 3.4827906594 9.5705024721
9.2292014489 12.1947378667 6.066109227
7.5391432079 11.3070422511 8.0581334254
12.6177805998 13.4652889672 6.5751895381
4.6829764889 18.8085801168 8.3432471372
17.5943856897 15.2725884714 7.7297818355
11.6548489909 1.3453858603 12.1273718609
9.5660636415 18.5155848463 12.5683034841
8.3319504323 13.9621686943 16.8016595599
4.924571234 17.581975954 16.6677395265
19.5538918647 2.1199880664 2.5049392535
10.6198718199 0.8524616798 3.0452933178
15.9268246455 4.3920550347 1.0527074933
2.5592644187 6.9946851506 2.1980635387
5.8863204219 8.6675884917 0.9419310102
11.9317772469 5.3854552131 1.8012291544
18.1089065416 6.9462867404 4.4785058689
0.4010001553 12.6572711233 1.9268962882
8.6989217216 12.9711482615 1.489499524
15.7986831751 13.7912691432 1.0314737025
3.8627763436 0.008707129 3.0333568157
8.5106034003 16.6621693228 2.4763092493
1.3030985522 1.2727034334 8.4905093759
7.8820488612 4.1973688205 4.8564967001
11.0072085779 0.9018589289 6.0240501222
12.309796326 4.7668834956 6.5152829573
15.4094142933 4.4981852225 9.6988812097
16.4826470172 2.2177979563 6.3448464065
0.8370557962 5.7175386185 5.6466435282
8.5995875942 8.4889199471 6.1894991969
8.829088822 5.4415622538 8.6420229337
14.5652009318 9.2729177199 6.4053802605
17.3900055749 7.9381980206 8.454196002
1.7220975847 16.8214933658 6.6130185996
13.7806901913 15.5293551664 9.6646873097
10.4024433392 16.58922509 5.6041285571
5.6824733231 0.6115358858 13.7194115294
8.8328267978 2.3510550607 12.3229733865
17.4517048262 3.5540029125 12.9292682858
2.6978364244 5.8641765637 14.0318904037
1.7713726633 9.5813921361 11.8386714467
0.7269869807 5.1132778322 9.7471011048
6.0268401457 8.2437678532 11.0573056939
8.909445382 7.8058749698 12.8802383536
11.1606374995 4.9220073137 12.5723915929
14.8744094054 7.7274797422 12.6712022804
8.0389398586 11.3492450688 12.3020795212
12.0995883548 10.9001915382 14.256694801
11.0369888771 14.6967587259 13.1218727638
18.5889890399 12.2443105928 11.5232832104
15.3994081153 11.7959661894 14.3726781443
1.8462925019 17.3944131002 11.0066590529
7.6262564725 15.4267597898 11.1030225394
13.6674276648 17.9085170309 13.0581027915
17.3573570039 16.3049895218 12.2109162286
3.1489997358 2.5510037025 19.4108286997
4.5882694335 19.6225547145 0.081244005
9.6453938086 3.3513926504 18.4699229873
10.2164087994 0.8378077694 15.2837865715
13.9775901609 19.5360118824 17.261917731
19.52513135 3.9829028464 16.4221018853
15.5356952245 2.958670369 16.7882795013
2.8831467485 9.6826406016 19.4550041245
6.2370494267 5.286243052 18.2692556902
13.8299363696 8.0218758576 19.1352825076
19.2513503884 9.4682176022 15.3202038438
16.1946245899 9.3564536258 17.553099297
3.8741680801 14.3471685953 14.6443090864
0.7432757742 12.2045772753 15.6309086528
11.5948243482 11.3847567232 18.2461974468
16.58810517 14.1884541192 17.5691802252
1.8456966926 0.6221144081 16.0522736154
1.4298612066 15.3452997432 18.4508746715
6.2646129711 14.2719434158 0.3454998693
10.7102443293 16.592033464 17.927244066
14.2986692909 15.6518737958 16.3562633669
2.7081976363 2.7935912674 3.0900628079
9.6504122187 3.6752809097 1.6689244457
7.776226359 19.5575703092 2.8268861725
5.9474636931 1.723906868 5.2987434296
13.0757433813 3.0904404861 3.9022578656
15.3219444569 1.6103585178 3.6845054109
18.7019227423 4.8265540052 2.2419763307
0.0930044651 8.6233239359 2.6196886816
5.8789217901 5.858162201 1.5091118024
10.3244752803 7.6333464056 0.8060213277
11.5849471533 8.9202296546 3.0493032919
15.0875868924 6.8166634595 2.0480051344
1.3126079884 10.7284259647 4.2565381812
3.6887191575 12.635313496 1.6066393753
0.6366631557 15.4661578969 2.4131450521
8.1128177615 10.2577019216 3.8128206055
13.3717339991 10.4225160753 1.2122021534
11.2006224781 13.9078661307 4.4266816849
14.561682134 12.0045475403 5.2828022943
17.2667184033 12.3453915527 2.9908294458
1.1918300251 18.7682150045 2.6331668292
5.5692670135 16.0814798261 2.4207288115
11.1186110852 14.6125046278 0.3880452067
14.0644279712 15.2464771132 2.905135007
11.7446285194 17.5996403488 2.97187427
16.6616297231 18.3496060875 1.851815742
17.5644196856 15.6644490547 4.8488919106
2.7395669748 3.5711262263 7.8857809381
19.2895215312 2.0560906298 5.4384138115
8.1974752487 2.0410428888 9.3128284542
13.3407819445 2.5771178816 8.1780727182
17.060134373 2.1901827836 9.4602755802
3.4236313349 7.0336866092 4.854939479
1.0170595304 7.5091505023 7.8009712177
6.3156236892 5.0985232095 7.0361647001
5.2511841809 9.7463594885 7.5948809372
8.9407517596 9.4179711132 9.4423300259
11.9496590455 6.0369699156 9.2645453416
10.1244910511 6.5928551611 4.7744399514
14.7965749764 9.2052744151 9.1692337609
16.4039599129 5.5672891253 7.063093661
17.5680909555 9.5146918036 5.8050943355
3.4585062103 13.3302410887 4.4810385412
1.8789214047 12.718316224 8.248186211
0.2225995081 14.1098913521 6.5238278491
19.5195773738 10.8998228951 9.0202431939
11.0403127985 10.0264460535 6.5466138645
10.5704210105 13.0317850126 8.5513261327
16.6201145168 12.6711956516 7.4986632419
2.7752517713 19.6379575091 6.3886260826
3.6926115911 16.0505781647 8.4898909737
8.9040125899 19.0829384858 7.0590154151
9.6298758208 15.6143266975 8.6524250743
13.9963262465 15.6853343748 6.8291277542
18.471138504 18.5352684983 5.4258644938
19.6399363512 17.8400382803 8.7644622689
16.3795456851 19.0336040969 7.0670111155
3.214719499 0.3565773165 10.5922534414
1.8999861349 2.7611485685 13.9871219906
0.0874091738 2.4691847745 11.6173356314
14.0377850563 1.0823579017 13.1802875294
13.9070000355 4.7355995005 13.2343297933
2.9252819971 6.3535838679 11.1646262913
5.5668443908 5.0704562762 14.2637325197
7.8941299732 5.3983462594 11.2700516496
6.0299300782 7.7935318489 13.8648715558
12.1290345647 8.4529026389 12.7946922219
17.7533042158 6.031705747 10.9427792011
18.1433274179 9.6047307636 12.839526983
18.6897743252 5.7526757441 14.3044308281
1.5728704122 12.4272738972 12.7526849178
4.2671875408 10.7098519701 10.877075589
5.4064608705 11.395406622 13.443997084
6.5202848475 13.1065812684 9.8820303867
11.1371723842 12.2224700738 11.6342111733
14.4782978729 14.0632707133 12.8968896061
15.2406088384 13.0055255477 10.0049993167
17.7031594934 13.4337947869 14.8243033557
3.4877489858 18.4697971354 14.2881310629
4.9280915588 15.5285477344 11.8757869379
6.9683862099 18.6467807741 11.6034460199
11.1489104791 18.8802039019 10.5119569485
19.280123776 14.9807671392 10.4164862471
19.0936191852 18.4894788459 12.3544070847
15.6020403557 17.7138667036 10.5381894126
4.2060776775 2.3209210217 16.3127805524
0.6427272769 1.674766418 18.7174597794
6.9408297471 2.4679865628 18.0069392021
9.4670406831 3.927301849 14.8304392402
12.4369963516 1.0736474483 19.3485671251
12.8995224119 4.9923189333 18.7605244498
17.3886740208 1.5537085347 15.0881024505
16.1084124159 0.8714577855 18.8461850981
2.159775906 5.8284567927 17.3587353686
0.5803187077 7.8219864411 18.6825556926
2.4856948271 8.9097538552 14.6194109637
5.1018968657 8.566119709 17.8895332747
8.8608926532 6.2474170828 17.7504238946
11.6359372323 8.9018499606 16.96367759
17.1878865575 5.0797806522 17.9031166255
3.7798716733 12.8076965918 17.1352771155
8.9611316013 10.3895864572 14.8484536012
6.3013504736 11.8577423618 16.6469519525
9.0045382845 10.7403321532 19.2642608185
11.151928004 13.641537049 15.7612231024
14.7100381023 11.9311945411 17.1291497462
19.2932062946 12.9485806293 18.5240642625
1.6548737446 15.9236410606 15.6199633137
2.7342556583 18.1340360565 18.3541381274
7.3916241116 19.2551253479 15.830981816
7.7745438489 16.4318869511 18.7155541723
10.0106406266 19.4320163527 18.8288671627
11.3645652483 17.827496787 14.9473961056
13.6647045752 17.0346877173 18.7869805865
15.7043245882 17.7103723388 15.0926321853
18.4987177197 16.7903627298 18.2058643948
Cartesian
-5.4497856809 4.0759670214 -0.5678278754
1.1439421004 2.2827582495 0.4572214762
-1.4619120839 -4.7805406216 1.1919092792
0.9712576749 -4.5973345359 -1.0069105758
-8.8144435131 1.0560534494 5.4071661706
2.2235392327 -2.2814172526 8.2650673268
-2.0283993971 3.5804248678 2.9512149166
2.0776675687 0.276287159 -3.8869499195
-0.4286417182 7.1138544576 -0.62407981
1.1654173328 3.1198081751 1.2209568935
-3.2894101296 -7.8773776409 0.9188573435
-1.5212278085 1.8467033084 6.0956688933
2.5757422361 5.0463783892 -3.4180732383
-7.5162312673 4.0129061397 2.9281379794
7.031782992 -3.3737930902 -2.7910954552
6.2083715246 -6.2521499232 -0.4922551793
0.4586582012 4.6166475928 1.9618428381
1.5766370772 2.3603933649 -3.9844577025
-0.8054550358 0.1191147947 2.4467029054
0.7205788151 0.8688736681 -1.0888342248
-0.4125555667 1.4903164251 -2.2490078424
-4.4692693394 1.4105574941 2.7900265513
-0.5632273528 -2.4843584627 -0.059610447
0.2203917802 -3.4799664376 -0.3341294107
-0.0589878257 4.4558661322 -1.6646094798
0.1359827014 -0.7473829685 2.3337119213
-1.3840074574 -0.9520938587 1.5039740813
-3.5636299053 -2.4856991778 -0.8331770956
-0.762780571 0.0226626485 -2.0194907321
0.2252042938 -1.5339383101 -1.1327611211
1.3297122943 5.5474763054 0.1193813724
-0.9426327918 2.2549882254 -1.0304724962
0.2822888836 0.5677574197 2.7553995388
-3.1548128884 -1.2284662367 2.748321118
-1.7934526535 3.5748634093 -1.6336110087
0.3851644893 -1.3004683471 0.8608701058
1.1297944455 -1.7634012736 -0.2174281238
0.8879132398 -1.8987339265 0.7744828416
-0.2290963375 0.4777527207 0.7405663914
0.4362542326 0.2671558904 -1.1130807225
-4.0105289633 -1.6907194532 -0.7629758278
-0.2656131064 -0.7815709166 1.0892036805
1.250255869 -1.1284078602 -0.5573957416
2.4331420169 0.8468460129 0.2355383622
2.3932611052 0.2521000602 1.4346297661
1.1887024928 -1.4965063778 2.855409966
-0.4368672017 0.2819359271 1.3714633702
-2.5152018598 3.4486693528 0.425572613
-0.0670630727 -0.888591619 -1.082805659
1.7744667167 -2.6709495461 -1.9286081765
-1.3735464709 -0.0127080833 0.5097517586
-1.4805173427 -1.562729529 -1.629223808
1.0474666672 1.3166668151 -1.1950946765
0.40866802 0.3225809112 -0.9304210037
-1.4218003457 2.139419746 0.9284992997
2.3414207901 -0.1471131386 -1.5705607026
-1.4316862069 -0.122920469 -0.3410972566
1.3345744678 -0.8791746424 -0.3299836674
-0.0722560945 0.0135761026 -3.2134166242
-0.9450557305 1.2902832437 -0.1262147029
-1.7015761277 -0.3175154385 1.2312266068
2.4739363462 -0.044748511 -0.9950918897
-1.2189039768 -1.0859357761 1.5202895062
0.3867204341 0.0181754614 0.4049403334
0.8557357104 -2.6827420854 -0.6835561482
0.7046363324 -2.6322788663 0.3010597755
1.7587976699 0.799201544 2.0856290906
-0.9471518822 -2.7149984684 0.7383658515
0.1714058359 2.4704730574 -0.2414881112
1.4948359289 0.9166145854 0.0984525368
-0.7242882209 3.6856799682 0.6361683191
-1.3076025528 1.5520031372 0.4666658214
2.0430273247 -1.3158492066 -1.0787987311
-0.4394992698 1.4850281237 1.6386205143
2.5077487766 1.0641595964 -0.5423957953
-1.0135786903 -0.6277989507 -0.0327232768
2.4224552432 -0.7429124935 -0.5089226433
0.7818348825 0.3903772107 -0.7359365689
-0.9355362744 0.7211837257 -2.5093777909
1.7007079705 -3.2532247261 -0.688159314
-0.0092615724 1.5254525109 -1.1199792682
1.4304582868 -0.3873279802 -1.2598148719
2.183698583 -1.3646086401 0.0613531087
-1.8398395056 1.4472209761 -0.7889611004
0.206656579 -2.8665967488 0.5358636993
-2.030938441 0.7327113771 -0.9106500955
-1.3290859221 0.5442478419 0.8334917633
-1.6142989944 -0.4212248709 -0.5788131423
-0.0889642547 -0.0329504313 0.6572297844
-3.6739376964e-04 0.7872835523 0.3688766665
0.48980998 0.5204948418 -1.1539683312
-0.1017123968 1.2534075189 -1.3608755373
-1.6524713617 0.2764280802 -0.6572649302
0.9279677443 -1.9716627263 0.1691241364
1.4582389047 -1.9505635478 0.7082734631
2.8160247764 1.1068243164 -1.8317720664
-0.768344729 -0.0755031874 -0.1304550404
0.3549025425 0.4292821013 -0.7900532935
1.6238208763 -2.6686954328 0.2984322974
0.9877127839 -2.2170164932 -1.8136494015
0.5392778953 -1.6399139209 -2.9501725774
-0.5053683285 0.2174270906 -0.6535741516
1.8951894777 1.6233078667 0.2796835532
0.2041664252 1.8748854161 -0.6250149956
0.4757182145 -0.4594113169 0.3524759441
3.2498924112 1.2312829133 -0.4710560507
-1.2092007651 -2.4102854544 1.0811976796
0.7349059903 0.1281764666 -1.1657894325
-1.4939435979 -0.0398503889 -1.067029225
-0.112905279 2.8087463174 0.8272979206
1.9223841866 -1.0409434519 -0.402590755
-0.3960546501 0.9485504339 0.6646968347
0.7278380841 -0.7747380763 -1.7978071713
0.1348222822 -1.8350296275 1.0698072199
-0.8752731385 0.4810152576 -0.201418829
-1.0928380658 0.7526446314 -2.8997259622
2.649319999 -2.9084933435 0.9802318378
1.6040682155 -0.2559493192 2.9798819976
0.5728184428 0.2515807174 0.5012627272
-1.8742279441 -0.0017531742 0.2841036238
-1.3449210928 0.3124240118 1.6763012828
-0.2813704569 -0.2674052796 -1.6782563928
-2.1044820596 0.0799964645 0.524581427
1.2956965328 0.7360027729 -1.9597855593
-0.6109169201 -1.4528627752 -1.4132830181
-0.8211084644 0.6079610252 -0.4156029421
1.7429519877 -1.4584730238 2.3983295324
-0.2686292351 1.7080605492 0.1187349809
0.5910265747 -2.0291513471 0.2823230282
1.7510544083 0.6212309907 0.6759436567
0.0838007563 1.7095885138 3.6605389436
0.9737198766 -0.9499171651 -1.3726959837
-1.2040356461 -1.8939998892 0.3617803774
0.6128090402 1.5638246582 0.5954992739
1.1403077965 0.2969628224 0.8551661182
-0.611327081 -0.4561654669 0.3430328151
-0.6288410041 1.2053223372 1.4191026653
-0.9392707789 -2.9350201588 -0.5360302441
0.1166830553 -1.1776394166 -0.625839504
-0.8935939242 -1.267666105 -1.5608034548
-0.3835774973 0.354984654 1.8483177525
1.0593125393 1.3286354623 1.0234882537
0.557346679 -0.9825802251 2.5843038328
-0.1161949926 0.453223305 1.2669429672
0.2119967599 -0.7556096934 0.5925082563
0.9306382097 -0.9427177334 -0.4931905495
-2.0848579338 -0.3363484933 0.1800581187
0.9164198534 0.9491524587 1.3342079773
1.8164919923 1.2144481376 1.6702778676
-0.3479244857 1.1300412766 0.5258869508
-0.0578430027 -0.7029237356 -0.0386788808
-0.5590348816 -0.69779397 0.4038222546
0.0870387862 -0.4034542012 -1.5056174972
-3.1836927088 1.5528803176 -1.4254318571
1.0251927164 0.3897867681 1.8417944709
2.0760302869 -1.5058193503 -3.1304887122
2.5270476515 2.2236914075 1.685884746
-0.6073366818 0.8869128268 1.2686784253
1.0562267723 3.4545658622 -0.2783358858
-0.3550441129 -1.157953467 0.4424818701
-1.063533832 -0.4923244679 -0.9188393633
-0.9512352436 -1.1526018703 0.9353739231
0.6919657627 1.3199579962 1.8095777477
-2.209288951 0.9228574568 -0.2597811714
-1.8532931987 1.0303175981 -0.7334611374
0.9979938899 0.3146871781 -0.3626633706
-0.006762218 1.3891623878 0.3623333777
0.0062467257 0.0031979317 -1.2192328788
0.7465296255 1.6983661935 -0.5072775284
-1.2009303362 -0.7782389534 2.0602207624
-1.5380153727 -2.3847212313 2.4366696543
-1.8526645022 -1.9587964939 -0.4140157636
0.9494656657 -1.6576006141 0.0406876083
-2.3246104846 -1.0460279177 -0.4604720468
0.2006627649 0.3142224843 1.8380018013
-1.2150150117 -0.4182806017 -1.0682700286
-2.9638884822 2.3410986328 1.9726618064
-0.9798455318 2.4399982228 0.3353536775
-0.2818013931 -2.5294645415 -0.5892268682
-2.9864929724 -0.0950896278 -0.1349250398
-2.2230602179 1.6280597163 0.5019047029
1.9807726009 0.3105156031 0.1829337467
-1.0570665917 1.0384590645 -0.5327276981
1.259389207 1.7932152356 0.0337181299
-0.5371901549 0.5814092527 -1.1772979394
-2.3321217111 0.5331563225 1.0003982326
-1.6092259938 1.5681922009 -0.8324673273
-1.7846198057 0.4003378969 1.8235840245
-3.491382686 -0.6916550806 0.716741205
2.073151289 -3.1121463071 -0.0741144217
0.7781429081 1.7249523573 2.5466658975
3.6689060331 -0.5841588805 -1.7154667542
0.7494587046 -2.588494717 -1.6826458019
1.3689809072 -1.6056009272 -1.0897220155
0.8914950614 2.1182696198 2.7139587053
-1.3008002245 0.1638852592 -0.2202685486
-0.111554882 -1.2070293325 -1.8935331411
0.6996082613 0.1409834044 -2.0563237043
1.9761378205 0.0128164166 0.9663315415
1.1554513383 -1.5829306605 -1.2653845516
0.8280592012 0.6212347014 -0.8685943918
0.0281107946 -1.688355802 0.3640577928
0.8353109396 2.0110696364 -0.8116631781
-2.416344174 2.4195509278 -0.7700105848
1.410684496 1.7932448022 -0.8315153412
1.1368807624 -1.5860776155 -1.2969466923
-0.2010507849 1.6611533774 -2.6788377896
-3.1091684167 -1.5485567633 1.7564793477
-0.2083245844 0.7753103313 -0.5934180699
0.8770483181 -0.9115554003 0.4019930096
-0.079389913 0.7888612546 -1.298918754
0.195268123 0.0497128404 1.8284539751
-0.1364830851 -0.02250046 -0.9630834379
1.882997867 -1.5973174296 2.6160971124
-1.0461077841 2.6659099615 0.9463603835
0.1793074679 -0.6407000218 -0.2584018067
