Ga4 As4                                 
   1.00000000000000     
    17.3010284762004147    0.0000000000000000    0.0000000000000000
     0.0000000000000000   17.3010284762004147    0.0000000000000000
     0.0000000000000000   -0.0000000000000000   17.3010284762004147
   Ga   As
   108   108
Direct
  0.0000000000000000 -0.0000000000000000 -0.0000000000000000
  0.0000000000000000 -0.0000000000000000  0.3333333329999988
  0.0000000000000000 -0.0000000000000000  0.6666666670000012
  0.0000000000000000  0.3333333329999988  0.0000000000000000
  0.0000000000000000  0.3333333329999988  0.3333333329999988
  0.0000000000000000  0.3333333329999988  0.6666666670000012
  0.0000000000000000  0.6666666670000012  0.0000000000000000
  0.0000000000000000  0.6666666670000012  0.3333333329999988
  0.0000000000000000  0.6666666670000012  0.6666666670000012
  0.3333333329999988 -0.0000000000000000  0.0000000000000000
  0.3333333329999988 -0.0000000000000000  0.3333333329999988
  0.3333333329999988 -0.0000000000000000  0.6666666670000012
  0.3333333329999988  0.3333333329999988  0.0000000000000000
  0.3333333329999988  0.3333333329999988  0.3333333329999988
  0.3333333329999988  0.3333333329999988  0.6666666670000012
  0.3333333329999988  0.6666666670000012  0.0000000000000000
  0.3333333329999988  0.6666666670000012  0.3333333329999988
  0.3333333329999988  0.6666666670000012  0.6666666670000012
  0.6666666670000012 -0.0000000000000000 -0.0000000000000000
  0.6666666670000012 -0.0000000000000000  0.3333333329999988
  0.6666666670000012 -0.0000000000000000  0.6666666670000012
  0.6666666670000012  0.3333333329999988  0.0000000000000000
  0.6666666670000012  0.3333333329999988  0.3333333329999988
  0.6666666670000012  0.3333333329999988  0.6666666670000012
  0.6666666670000012  0.6666666670000012  0.0000000000000000
  0.6666666670000012  0.6666666670000012  0.3333333329999988
  0.6666666670000012  0.6666666670000012  0.6666666670000012
  0.0000000000000000  0.1666666670000012  0.1666666670000012
  0.0000000000000000  0.1666666670000012  0.5000000000000000
  0.0000000000000000  0.1666666670000012  0.8333333329999988
  0.0000000000000000  0.5000000000000000  0.1666666670000012
  0.0000000000000000  0.5000000000000000  0.5000000000000000
  0.0000000000000000  0.5000000000000000  0.8333333329999988
  0.0000000000000000  0.8333333329999988  0.1666666670000012
  0.0000000000000000  0.8333333329999988  0.5000000000000000
  0.0000000000000000  0.8333333329999988  0.8333333329999988
  0.3333333329999988  0.1666666670000012  0.1666666670000012
  0.3333333329999988  0.1666666670000012  0.5000000000000000
  0.3333333329999988  0.1666666670000012  0.8333333329999988
  0.3333333329999988  0.5000000000000000  0.1666666670000012
  0.3333333329999988  0.5000000000000000  0.5000000000000000
  0.3333333329999988  0.5000000000000000  0.8333333329999988
  0.3333333329999988  0.8333333329999988  0.1666666670000012
  0.3333333329999988  0.8333333329999988  0.5000000000000000
  0.3333333329999988  0.8333333329999988  0.8333333329999988
  0.6666666670000012  0.1666666670000012  0.1666666670000012
  0.6666666670000012  0.1666666670000012  0.5000000000000000
  0.6666666670000012  0.1666666670000012  0.8333333329999988
  0.6666666670000012  0.5000000000000000  0.1666666670000012
  0.6666666670000012  0.5000000000000000  0.5000000000000000
  0.6666666670000012  0.5000000000000000  0.8333333329999988
  0.6666666670000012  0.8333333329999988  0.1666666670000012
  0.6666666670000012  0.8333333329999988  0.5000000000000000
  0.6666666670000012  0.8333333329999988  0.8333333329999988
  0.1666666670000012 -0.0000000000000000  0.1666666670000012
  0.1666666670000012 -0.0000000000000000  0.5000000000000000
  0.1666666670000012 -0.0000000000000000  0.8333333329999988
  0.1666666670000012  0.3333333329999988  0.1666666670000012
  0.1666666670000012  0.3333333329999988  0.5000000000000000
  0.1666666670000012  0.3333333329999988  0.8333333329999988
  0.1666666670000012  0.6666666670000012  0.1666666670000012
  0.1666666670000012  0.6666666670000012  0.5000000000000000
  0.1666666670000012  0.6666666670000012  0.8333333329999988
  0.5000000000000000 -0.0000000000000000  0.1666666670000012
  0.5000000000000000 -0.0000000000000000  0.5000000000000000
  0.5000000000000000 -0.0000000000000000  0.8333333329999988
  0.5000000000000000  0.3333333329999988  0.1666666670000012
  0.5000000000000000  0.3333333329999988  0.5000000000000000
  0.5000000000000000  0.3333333329999988  0.8333333329999988
  0.5000000000000000  0.6666666670000012  0.1666666670000012
  0.5000000000000000  0.6666666670000012  0.5000000000000000
  0.5000000000000000  0.6666666670000012  0.8333333329999988
  0.8333333329999988 -0.0000000000000000  0.1666666670000012
  0.8333333329999988 -0.0000000000000000  0.5000000000000000
  0.8333333329999988 -0.0000000000000000  0.8333333329999988
  0.8333333329999988  0.3333333329999988  0.1666666670000012
  0.8333333329999988  0.3333333329999988  0.5000000000000000
  0.8333333329999988  0.3333333329999988  0.8333333329999988
  0.8333333329999988  0.6666666670000012  0.1666666670000012
  0.8333333329999988  0.6666666670000012  0.5000000000000000
  0.8333333329999988  0.6666666670000012  0.8333333329999988
  0.1666666670000012  0.1666666670000012  0.0000000000000000
  0.1666666670000012  0.1666666670000012  0.3333333329999988
  0.1666666670000012  0.1666666670000012  0.6666666670000012
  0.1666666670000012  0.5000000000000000  0.0000000000000000
  0.1666666670000012  0.5000000000000000  0.3333333329999988
  0.1666666670000012  0.5000000000000000  0.6666666670000012
  0.1666666670000012  0.8333333329999988  0.0000000000000000
  0.1666666670000012  0.8333333329999988  0.3333333329999988
  0.1666666670000012  0.8333333329999988  0.6666666670000012
  0.5000000000000000  0.1666666670000012 -0.0000000000000000
  0.5000000000000000  0.1666666670000012  0.3333333329999988
  0.5000000000000000  0.1666666670000012  0.6666666670000012
  0.5000000000000000  0.5000000000000000 -0.0000000000000000
  0.5000000000000000  0.5000000000000000  0.3333333329999988
  0.5000000000000000  0.5000000000000000  0.6666666670000012
  0.5000000000000000  0.8333333329999988  0.0000000000000000
  0.5000000000000000  0.8333333329999988  0.3333333329999988
  0.5000000000000000  0.8333333329999988  0.6666666670000012
  0.8333333329999988  0.1666666670000012  0.0000000000000000
  0.8333333329999988  0.1666666670000012  0.3333333329999988
  0.8333333329999988  0.1666666670000012  0.6666666670000012
  0.8333333329999988  0.5000000000000000 -0.0000000000000000
  0.8333333329999988  0.5000000000000000  0.3333333329999988
  0.8333333329999988  0.5000000000000000  0.6666666670000012
  0.8333333329999988  0.8333333329999988  0.0000000000000000
  0.8333333329999988  0.8333333329999988  0.3333333329999988
  0.8333333329999988  0.8333333329999988  0.6666666670000012
  0.0833333329999988  0.2500000000000000  0.2500000000000000
  0.0833333329999988  0.2500000000000000  0.5833333329999988
  0.0833333329999988  0.2500000000000000  0.9166666670000012
  0.0833333329999988  0.5833333329999988  0.2500000000000000
  0.0833333329999988  0.5833333329999988  0.5833333329999988
  0.0833333329999988  0.5833333329999988  0.9166666670000012
  0.0833333329999988  0.9166666670000012  0.2500000000000000
  0.0833333329999988  0.9166666670000012  0.5833333329999988
  0.0833333329999988  0.9166666670000012  0.9166666670000012
  0.4166666670000012  0.2500000000000000  0.2500000000000000
  0.4166666670000012  0.2500000000000000  0.5833333329999988
  0.4166666670000012  0.2500000000000000  0.9166666670000012
  0.4166666670000012  0.5833333329999988  0.2500000000000000
  0.4166666670000012  0.5833333329999988  0.5833333329999988
  0.4166666670000012  0.5833333329999988  0.9166666670000012
  0.4166666670000012  0.9166666670000012  0.2500000000000000
  0.4166666670000012  0.9166666670000012  0.5833333329999988
  0.4166666670000012  0.9166666670000012  0.9166666670000012
  0.7500000000000000  0.2500000000000000  0.2500000000000000
  0.7500000000000000  0.2500000000000000  0.5833333329999988
  0.7500000000000000  0.2500000000000000  0.9166666670000012
  0.7500000000000000  0.5833333329999988  0.2500000000000000
  0.7500000000000000  0.5833333329999988  0.5833333329999988
  0.7500000000000000  0.5833333329999988  0.9166666670000012
  0.7500000000000000  0.9166666670000012  0.2500000000000000
  0.7500000000000000  0.9166666670000012  0.5833333329999988
  0.7500000000000000  0.9166666670000012  0.9166666670000012
  0.0833333329999988  0.0833333329999988  0.0833333329999988
  0.0833333329999988  0.0833333329999988  0.4166666670000012
  0.0833333329999988  0.0833333329999988  0.7500000000000000
  0.0833333329999988  0.4166666670000012  0.0833333329999988
  0.0833333329999988  0.4166666670000012  0.4166666670000012
  0.0833333329999988  0.4166666670000012  0.7500000000000000
  0.0833333329999988  0.7500000000000000  0.0833333329999988
  0.0833333329999988  0.7500000000000000  0.4166666670000012
  0.0833333329999988  0.7500000000000000  0.7500000000000000
  0.4166666670000012  0.0833333329999988  0.0833333329999988
  0.4166666670000012  0.0833333329999988  0.4166666670000012
  0.4166666670000012  0.0833333329999988  0.7500000000000000
  0.4166666670000012  0.4166666670000012  0.0833333329999988
  0.4166666670000012  0.4166666670000012  0.4166666670000012
  0.4166666670000012  0.4166666670000012  0.7500000000000000
  0.4166666670000012  0.7500000000000000  0.0833333329999988
  0.4166666670000012  0.7500000000000000  0.4166666670000012
  0.4166666670000012  0.7500000000000000  0.7500000000000000
  0.7500000000000000  0.0833333329999988  0.0833333329999988
  0.7500000000000000  0.0833333329999988  0.4166666670000012
  0.7500000000000000  0.0833333329999988  0.7500000000000000
  0.7500000000000000  0.4166666670000012  0.0833333329999988
  0.7500000000000000  0.4166666670000012  0.4166666670000012
  0.7500000000000000  0.4166666670000012  0.7500000000000000
  0.7500000000000000  0.7500000000000000  0.0833333329999988
  0.7500000000000000  0.7500000000000000  0.4166666670000012
  0.7500000000000000  0.7500000000000000  0.7500000000000000
  0.2500000000000000  0.2500000000000000  0.0833333329999988
  0.2500000000000000  0.2500000000000000  0.4166666670000012
  0.2500000000000000  0.2500000000000000  0.7500000000000000
  0.2500000000000000  0.5833333329999988  0.0833333329999988
  0.2500000000000000  0.5833333329999988  0.4166666670000012
  0.2500000000000000  0.5833333329999988  0.7500000000000000
  0.2500000000000000  0.9166666670000012  0.0833333329999988
  0.2500000000000000  0.9166666670000012  0.4166666670000012
  0.2500000000000000  0.9166666670000012  0.7500000000000000
  0.5833333329999988  0.2500000000000000  0.0833333329999988
  0.5833333329999988  0.2500000000000000  0.4166666670000012
  0.5833333329999988  0.2500000000000000  0.7500000000000000
  0.5833333329999988  0.5833333329999988  0.0833333329999988
  0.5833333329999988  0.5833333329999988  0.4166666670000012
  0.5833333329999988  0.5833333329999988  0.7500000000000000
  0.5833333329999988  0.9166666670000012  0.0833333329999988
  0.5833333329999988  0.9166666670000012  0.4166666670000012
  0.5833333329999988  0.9166666670000012  0.7500000000000000
  0.9166666670000012  0.2500000000000000  0.0833333329999988
  0.9166666670000012  0.2500000000000000  0.4166666670000012
  0.9166666670000012  0.2500000000000000  0.7500000000000000
  0.9166666670000012  0.5833333329999988  0.0833333329999988
  0.9166666670000012  0.5833333329999988  0.4166666670000012
  0.9166666670000012  0.5833333329999988  0.7500000000000000
  0.9166666670000012  0.9166666670000012  0.0833333329999988
  0.9166666670000012  0.9166666670000012  0.4166666670000012
  0.9166666670000012  0.9166666670000012  0.7500000000000000
  0.2500000000000000  0.0833333329999988  0.2500000000000000
  0.2500000000000000  0.0833333329999988  0.5833333329999988
  0.2500000000000000  0.0833333329999988  0.9166666670000012
  0.2500000000000000  0.4166666670000012  0.2500000000000000
  0.2500000000000000  0.4166666670000012  0.5833333329999988
  0.2500000000000000  0.4166666670000012  0.9166666670000012
  0.2500000000000000  0.7500000000000000  0.2500000000000000
  0.2500000000000000  0.7500000000000000  0.5833333329999988
  0.2500000000000000  0.7500000000000000  0.9166666670000012
  0.5833333329999988  0.0833333329999988  0.2500000000000000
  0.5833333329999988  0.0833333329999988  0.5833333329999988
  0.5833333329999988  0.0833333329999988  0.9166666670000012
  0.5833333329999988  0.4166666670000012  0.2500000000000000
  0.5833333329999988  0.4166666670000012  0.5833333329999988
  0.5833333329999988  0.4166666670000012  0.9166666670000012
  0.5833333329999988  0.7500000000000000  0.2500000000000000
  0.5833333329999988  0.7500000000000000  0.5833333329999988
  0.5833333329999988  0.7500000000000000  0.9166666670000012
  0.9166666670000012  0.0833333329999988  0.2500000000000000
  0.9166666670000012  0.0833333329999988  0.5833333329999988
  0.9166666670000012  0.0833333329999988  0.9166666670000012
  0.9166666670000012  0.4166666670000012  0.2500000000000000
  0.9166666670000012  0.4166666670000012  0.5833333329999988
  0.9166666670000012  0.4166666670000012  0.9166666670000012
  0.9166666670000012  0.7500000000000000  0.2500000000000000
  0.9166666670000012  0.7500000000000000  0.5833333329999988
  0.9166666670000012  0.7500000000000000  0.9166666670000012
 
  0.00000000E+00  0.00000000E+00  0.00000000E+00
  0.00000000E+00  0.00000000E+00  0.00000000E+00
  0.00000000E+00  0.00000000E+00  0.00000000E+00
  0.00000000E+00  0.00000000E+00  0.00000000E+00
  0.00000000E+00  0.00000000E+00  0.00000000E+00
  0.00000000E+00  0.00000000E+00  0.00000000E+00
  0.00000000E+00  0.00000000E+00  0.00000000E+00
  0.00000000E+00  0.00000000E+00  0.00000000E+00
  0.00000000E+00  0.00000000E+00  0.00000000E+00
  0.00000000E+00  0.00000000E+00  0.00000000E+00
  0.00000000E+00  0.00000000E+00  0.00000000E+00
  0.00000000E+00  0.00000000E+00  0.00000000E+00
  0.00000000E+00  0.00000000E+00  0.00000000E+00
  0.00000000E+00  0.00000000E+00  0.00000000E+00
  0.00000000E+00  0.00000000E+00  0.00000000E+00
  0.00000000E+00  0.00000000E+00  0.00000000E+00
  0.00000000E+00  0.00000000E+00  0.00000000E+00
  0.00000000E+00  0.00000000E+00  0.00000000E+00
  0.00000000E+00  0.00000000E+00  0.00000000E+00
  0.00000000E+00  0.00000000E+00  0.00000000E+00
  0.00000000E+00  0.00000000E+00  0.00000000E+00
  0.00000000E+00  0.00000000E+00  0.00000000E+00
  0.00000000E+00  0.00000000E+00  0.00000000E+00
  0.00000000E+00  0.00000000E+00  0.00000000E+00
  0.00000000E+00  0.00000000E+00  0.00000000E+00
  0.00000000E+00  0.00000000E+00  0.00000000E+00
  0.00000000E+00  0.00000000E+00  0.00000000E+00
  0.00000000E+00  0.00000000E+00  0.00000000E+00
  0.00000000E+00  0.00000000E+00  0.00000000E+00
  0.00000000E+00  0.00000000E+00  0.00000000E+00
  0.00000000E+00  0.00000000E+00  0.00000000E+00
  0.00000000E+00  0.00000000E+00  0.00000000E+00
  0.00000000E+00  0.00000000E+00  0.00000000E+00
  0.00000000E+00  0.00000000E+00  0.00000000E+00
  0.00000000E+00  0.00000000E+00  0.00000000E+00
  0.00000000E+00  0.00000000E+00  0.00000000E+00
  0.00000000E+00  0.00000000E+00  0.00000000E+00
  0.00000000E+00  0.00000000E+00  0.00000000E+00
  0.00000000E+00  0.00000000E+00  0.00000000E+00
  0.00000000E+00  0.00000000E+00  0.00000000E+00
  0.00000000E+00  0.00000000E+00  0.00000000E+00
  0.00000000E+00  0.00000000E+00  0.00000000E+00
  0.00000000E+00  0.00000000E+00  0.00000000E+00
  0.00000000E+00  0.00000000E+00  0.00000000E+00
  0.00000000E+00  0.00000000E+00  0.00000000E+00
  0.00000000E+00  0.00000000E+00  0.00000000E+00
  0.00000000E+00  0.00000000E+00  0.00000000E+00
  0.00000000E+00  0.00000000E+00  0.00000000E+00
  0.00000000E+00  0.00000000E+00  0.00000000E+00
  0.00000000E+00  0.00000000E+00  0.00000000E+00
  0.00000000E+00  0.00000000E+00  0.00000000E+00
  0.00000000E+00  0.00000000E+00  0.00000000E+00
  0.00000000E+00  0.00000000E+00  0.00000000E+00
  0.00000000E+00  0.00000000E+00  0.00000000E+00
  0.00000000E+00  0.00000000E+00  0.00000000E+00
  0.00000000E+00  0.00000000E+00  0.00000000E+00
  0.00000000E+00  0.00000000E+00  0.00000000E+00
  0.00000000E+00  0.00000000E+00  0.00000000E+00
  0.00000000E+00  0.00000000E+00  0.00000000E+00
  0.00000000E+00  0.00000000E+00  0.00000000E+00
  0.00000000E+00  0.00000000E+00  0.00000000E+00
  0.00000000E+00  0.00000000E+00  0.00000000E+00
  0.00000000E+00  0.00000000E+00  0.00000000E+00
  0.00000000E+00  0.00000000E+00  0.00000000E+00
  0.00000000E+00  0.00000000E+00  0.00000000E+00
  0.00000000E+00  0.00000000E+00  0.00000000E+00
  0.00000000E+00  0.00000000E+00  0.00000000E+00
  0.00000000E+00  0.00000000E+00  0.00000000E+00
  0.00000000E+00  0.00000000E+00  0.00000000E+00
  0.00000000E+00  0.00000000E+00  0.00000000E+00
  0.00000000E+00  0.00000000E+00  0.00000000E+00
  0.00000000E+00  0.00000000E+00  0.00000000E+00
  0.00000000E+00  0.00000000E+00  0.00000000E+00
  0.00000000E+00  0.00000000E+00  0.00000000E+00
  0.00000000E+00  0.00000000E+00  0.00000000E+00
  0.00000000E+00  0.00000000E+00  0.00000000E+00
  0.00000000E+00  0.00000000E+00  0.00000000E+00
  0.00000000E+00  0.00000000E+00  0.00000000E+00
  0.00000000E+00  0.00000000E+00  0.00000000E+00
  0.00000000E+00  0.00000000E+00  0.00000000E+00
  0.00000000E+00  0.00000000E+00  0.00000000E+00
  0.00000000E+00  0.00000000E+00  0.00000000E+00
  0.00000000E+00  0.00000000E+00  0.00000000E+00
  0.00000000E+00  0.00000000E+00  0.00000000E+00
  0.00000000E+00  0.00000000E+00  0.00000000E+00
  0.00000000E+00  0.00000000E+00  0.00000000E+00
  0.00000000E+00  0.00000000E+00  0.00000000E+00
  0.00000000E+00  0.00000000E+00  0.00000000E+00
  0.00000000E+00  0.00000000E+00  0.00000000E+00
  0.00000000E+00  0.00000000E+00  0.00000000E+00
  0.00000000E+00  0.00000000E+00  0.00000000E+00
  0.00000000E+00  0.00000000E+00  0.00000000E+00
  0.00000000E+00  0.00000000E+00  0.00000000E+00
  0.00000000E+00  0.00000000E+00  0.00000000E+00
  0.00000000E+00  0.00000000E+00  0.00000000E+00
  0.00000000E+00  0.00000000E+00  0.00000000E+00
  0.00000000E+00  0.00000000E+00  0.00000000E+00
  0.00000000E+00  0.00000000E+00  0.00000000E+00
  0.00000000E+00  0.00000000E+00  0.00000000E+00
  0.00000000E+00  0.00000000E+00  0.00000000E+00
  0.00000000E+00  0.00000000E+00  0.00000000E+00
  0.00000000E+00  0.00000000E+00  0.00000000E+00
  0.00000000E+00  0.00000000E+00  0.00000000E+00
  0.00000000E+00  0.00000000E+00  0.00000000E+00
  0.00000000E+00  0.00000000E+00  0.00000000E+00
  0.00000000E+00  0.00000000E+00  0.00000000E+00
  0.00000000E+00  0.00000000E+00  0.00000000E+00
  0.00000000E+00  0.00000000E+00  0.00000000E+00
  0.00000000E+00  0.00000000E+00  0.00000000E+00
  0.00000000E+00  0.00000000E+00  0.00000000E+00
  0.00000000E+00  0.00000000E+00  0.00000000E+00
  0.00000000E+00  0.00000000E+00  0.00000000E+00
  0.00000000E+00  0.00000000E+00  0.00000000E+00
  0.00000000E+00  0.00000000E+00  0.00000000E+00
  0.00000000E+00  0.00000000E+00  0.00000000E+00
  0.00000000E+00  0.00000000E+00  0.00000000E+00
  0.00000000E+00  0.00000000E+00  0.00000000E+00
  0.00000000E+00  0.00000000E+00  0.00000000E+00
  0.00000000E+00  0.00000000E+00  0.00000000E+00
  0.00000000E+00  0.00000000E+00  0.00000000E+00
  0.00000000E+00  0.00000000E+00  0.00000000E+00
  0.00000000E+00  0.00000000E+00  0.00000000E+00
  0.00000000E+00  0.00000000E+00  0.00000000E+00
  0.00000000E+00  0.00000000E+00  0.00000000E+00
  0.00000000E+00  0.00000000E+00  0.00000000E+00
  0.00000000E+00  0.00000000E+00  0.00000000E+00
  0.00000000E+00  0.00000000E+00  0.00000000E+00
  0.00000000E+00  0.00000000E+00  0.00000000E+00
  0.00000000E+00  0.00000000E+00  0.00000000E+00
  0.00000000E+00  0.00000000E+00  0.00000000E+00
  0.00000000E+00  0.00000000E+00  0.00000000E+00
  0.00000000E+00  0.00000000E+00  0.00000000E+00
  0.00000000E+00  0.00000000E+00  0.00000000E+00
  0.00000000E+00  0.00000000E+00  0.00000000E+00
  0.00000000E+00  0.00000000E+00  0.00000000E+00
  0.00000000E+00  0.00000000E+00  0.00000000E+00
  0.00000000E+00  0.00000000E+00  0.00000000E+00
  0.00000000E+00  0.00000000E+00  0.00000000E+00
  0.00000000E+00  0.00000000E+00  0.00000000E+00
  0.00000000E+00  0.00000000E+00  0.00000000E+00
  0.00000000E+00  0.00000000E+00  0.00000000E+00
  0.00000000E+00  0.00000000E+00  0.00000000E+00
  0.00000000E+00  0.00000000E+00  0.00000000E+00
  0.00000000E+00  0.00000000E+00  0.00000000E+00
  0.00000000E+00  0.00000000E+00  0.00000000E+00
  0.00000000E+00  0.00000000E+00  0.00000000E+00
  0.00000000E+00  0.00000000E+00  0.00000000E+00
  0.00000000E+00  0.00000000E+00  0.00000000E+00
  0.00000000E+00  0.00000000E+00  0.00000000E+00
  0.00000000E+00  0.00000000E+00  0.00000000E+00
  0.00000000E+00  0.00000000E+00  0.00000000E+00
  0.00000000E+00  0.00000000E+00  0.00000000E+00
  0.00000000E+00  0.00000000E+00  0.00000000E+00
  0.00000000E+00  0.00000000E+00  0.00000000E+00
  0.00000000E+00  0.00000000E+00  0.00000000E+00
  0.00000000E+00  0.00000000E+00  0.00000000E+00
  0.00000000E+00  0.00000000E+00  0.00000000E+00
  0.00000000E+00  0.00000000E+00  0.00000000E+00
  0.00000000E+00  0.00000000E+00  0.00000000E+00
  0.00000000E+00  0.00000000E+00  0.00000000E+00
  0.00000000E+00  0.00000000E+00  0.00000000E+00
  0.00000000E+00  0.00000000E+00  0.00000000E+00
  0.00000000E+00  0.00000000E+00  0.00000000E+00
  0.00000000E+00  0.00000000E+00  0.00000000E+00
  0.00000000E+00  0.00000000E+00  0.00000000E+00
  0.00000000E+00  0.00000000E+00  0.00000000E+00
  0.00000000E+00  0.00000000E+00  0.00000000E+00
  0.00000000E+00  0.00000000E+00  0.00000000E+00
  0.00000000E+00  0.00000000E+00  0.00000000E+00
  0.00000000E+00  0.00000000E+00  0.00000000E+00
  0.00000000E+00  0.00000000E+00  0.00000000E+00
  0.00000000E+00  0.00000000E+00  0.00000000E+00
  0.00000000E+00  0.00000000E+00  0.00000000E+00
  0.00000000E+00  0.00000000E+00  0.00000000E+00
  0.00000000E+00  0.00000000E+00  0.00000000E+00
  0.00000000E+00  0.00000000E+00  0.00000000E+00
  0.00000000E+00  0.00000000E+00  0.00000000E+00
  0.00000000E+00  0.00000000E+00  0.00000000E+00
  0.00000000E+00  0.00000000E+00  0.00000000E+00
  0.00000000E+00  0.00000000E+00  0.00000000E+00
  0.00000000E+00  0.00000000E+00  0.00000000E+00
  0.00000000E+00  0.00000000E+00  0.00000000E+00
  0.00000000E+00  0.00000000E+00  0.00000000E+00
  0.00000000E+00  0.00000000E+00  0.00000000E+00
  0.00000000E+00  0.00000000E+00  0.00000000E+00
  0.00000000E+00  0.00000000E+00  0.00000000E+00
  0.00000000E+00  0.00000000E+00  0.00000000E+00
  0.00000000E+00  0.00000000E+00  0.00000000E+00
  0.00000000E+00  0.00000000E+00  0.00000000E+00
  0.00000000E+00  0.00000000E+00  0.00000000E+00
  0.00000000E+00  0.00000000E+00  0.00000000E+00
  0.00000000E+00  0.00000000E+00  0.00000000E+00
  0.00000000E+00  0.00000000E+00  0.00000000E+00
  0.00000000E+00  0.00000000E+00  0.00000000E+00
  0.00000000E+00  0.00000000E+00  0.00000000E+00
  0.00000000E+00  0.00000000E+00  0.00000000E+00
  0.00000000E+00  0.00000000E+00  0.00000000E+00
  0.00000000E+00  0.00000000E+00  0.00000000E+00
  0.00000000E+00  0.00000000E+00  0.00000000E+00
  0.00000000E+00  0.00000000E+00  0.00000000E+00
  0.00000000E+00  0.00000000E+00  0.00000000E+00
  0.00000000E+00  0.00000000E+00  0.00000000E+00
  0.00000000E+00  0.00000000E+00  0.00000000E+00
  0.00000000E+00  0.00000000E+00  0.00000000E+00
  0.00000000E+00  0.00000000E+00  0.00000000E+00
  0.00000000E+00  0.00000000E+00  0.00000000E+00
  0.00000000E+00  0.00000000E+00  0.00000000E+00
  0.00000000E+00  0.00000000E+00  0.00000000E+00
  0.00000000E+00  0.00000000E+00  0.00000000E+00
  0.00000000E+00  0.00000000E+00  0.00000000E+00
  0.00000000E+00  0.00000000E+00  0.00000000E+00
  0.00000000E+00  0.00000000E+00  0.00000000E+00
  0.00000000E+00  0.00000000E+00  0.00000000E+00
  0.00000000E+00  0.00000000E+00  0.00000000E+00
  0.00000000E+00  0.00000000E+00  0.00000000E+00
  0.00000000E+00  0.00000000E+00  0.00000000E+00
