Amorphous GeAsSeSi                      
   1.00000000000000     
    21.8875856124633188    0.0000000000000000    0.0000000000000000
     0.0000000000000000   21.8875856124633188    0.0000000000000000
     0.0000000000000000    0.0000000000000000   21.8875856124633188
   Ge   As   Te   Si
    30    90   165    15
Direct
  0.6829188771855258  0.9316210474949114  0.8392353448560536
  0.4512020224507544  0.6389179046539072  0.3208018945033719
  0.4725598096154210  0.7866636130698951  0.8034402175720685
  0.5917864460472586  0.2047140289334237  0.3688977567363423
  0.4256826793797452  0.4634384709888158  0.3205183508093442
  0.9621967009561301  0.9060954396776383  0.7407052128567241
  0.7795424240959667  0.5119254759301707  0.1985148549180078
  0.4609314851187906  0.3566489225112142  0.0175288379286487
  0.3368381604303892  0.4832646302367108  0.9283383214137595
  0.7733645685280730  0.9424626264782270  0.2762070024323941
  0.2174400524776601  0.5788461509423727  0.8440380690161039
  0.3078172103734161  0.1587487754893662  0.8244768235355534
  0.2385472248026441  0.3632848734178515  0.6046149187306273
  0.7054214101190831  0.3038000008238361  0.0123874611234590
  0.4780403790907069  0.0535454270141806  0.1329352430297241
  0.2147777982551357  0.5907094782855482  0.4961870371243877
  0.0440136720588358  0.6110915691946539  0.0559807054993096
  0.2076711551053343  0.5081145387096372  0.0146852404790531
  0.1305331502133370  0.6995461127564154  0.6915931055241002
  0.3571370134974575  0.7468258556063190  0.5685299175957179
  0.6371063078228286  0.9930764040295088  0.3958413030776795
  0.5294009535315916  0.8746725161766805  0.2712708814747969
  0.5508055631147875  0.6883868485267324  0.9198025207408754
  0.4671812017189704  0.0637470952087846  0.7317325169373109
  0.7023256643863129  0.4872191633540269  0.7395617505886557
  0.8063591913848550  0.4334589163005599  0.8154347086417577
  0.3118298265228927  0.4974892631082447  0.5732768096650520
  0.6256707229617882  0.8225564740232491  0.4423457526677235
  0.3938072745960380  0.6324316808066298  0.8842080239192474
  0.9538644758367938  0.4714413539410251  0.4848136459666140
  0.7772443150421531  0.5564724852333630  0.4533467225200022
  0.9748885673789697  0.5117219523835649  0.2013964425509992
  0.9770893688302348  0.9294068958000307  0.1344004580209142
  0.4951492407781721  0.2545807290863030  0.1024220410675149
  0.3130341637354291  0.2832156715774397  0.1527915173551996
  0.4576805209733573  0.8089715421112490  0.3336338300459926
  0.8174199541382114  0.7422062035826631  0.9651578174570233
  0.7277014438811321  0.2122726511587450  0.6209610656570139
  0.4234014689939736  0.9070444511186490  0.3822822285486210
  0.3750114721522968  0.5942119624928320  0.5959801004462966
  0.4280101629752477  0.1675254675222905  0.9743446349650871
  0.3964719949293664  0.7759892312620628  0.1230294999877268
  0.3515537793683552  0.3101269716438557  0.8560255829745036
  0.6665212703906481  0.1095921933962938  0.4215847817916885
  0.6209303634187755  0.6372548200058277  0.9937273651590744
  0.5446410933751440  0.9365894433771472  0.9104801431410774
  0.1316135287961864  0.3530569052267511  0.5629408044124554
  0.8803438295220425  0.4890194742573994  0.1396857050393805
  0.0097648371113761  0.0428899693770589  0.4878601637350197
  0.5593342503819896  0.1043661445883357  0.5682492352966894
  0.3201900601347882  0.3815858610047118  0.2124776099230208
  0.9241322109498753  0.0738860539671084  0.5601693031732173
  0.6146122048905024  0.2033394510262242  0.2507314480728459
  0.9426522103298418  0.6527451871992448  0.9216963844527178
  0.6597150792849754  0.7255660546932577  0.0532579704457331
  0.6546121463697518  0.2410224490449532  0.5384457975846331
  0.9873036837529828  0.0581141605037528  0.6992302969727313
  0.0922566906639919  0.4879756525584650  0.4317174852792233
  0.3329516184954168  0.5194954998909781  0.2681301542069746
  0.1502260820918450  0.9739536130998062  0.6077863970531998
  0.5520831253629144  0.2746592649710871  0.9358245446555509
  0.3018476372074136  0.9399001001310421  0.7309098097148854
  0.0583519753349913  0.0437241213875715  0.1864858840403389
  0.6702915042963039  0.0506052327691913  0.8662466998682996
  0.6745753250062813  0.1088744853787867  0.2268193795011657
  0.6984418988435755  0.4478943406770242  0.2509312342944277
  0.0897026782997386  0.2401360163535618  0.4950514703137641
  0.2522210298946669  0.2618380465781340  0.8259831734514397
  0.2055990718917354  0.9368758454953600  0.5139809853367251
  0.2005172214778438  0.8151042116557600  0.8241393497487055
  0.9715467949374825  0.0452610208157601  0.8728242408930096
  0.0229134787558253  0.1902382947421923  0.0875825643560319
  0.6043580070252825  0.0465355925355845  0.7734966361156392
  0.1134538792816673  0.1193865778774738  0.0851132530252446
  0.2910774590986771  0.2730590791864208  0.6528398965446749
  0.0552915240587017  0.3845550661446117  0.6423852845377243
  0.2003407112460598  0.6665584801093360  0.5970448111136025
  0.9143601570776431  0.7182363951433348  0.7318662909575885
  0.7478014028905731  0.6704246957900754  0.1058375703346620
  0.9768200759431550  0.3571977920873915  0.5654677533138234
  0.0524924237315287  0.6838840027863783  0.2401630970719159
  0.5943259687425204  0.3086342188025130  0.1214097365201364
  0.5171816976907462  0.7761153241511373  0.4249489917277587
  0.5906573875231739  0.8883790510630433  0.0065234556427251
  0.5331849156132155  0.1924477219558860  0.0144753768934435
  0.3583969156120911  0.7136823623611555  0.4579093475129402
  0.3581084929276113  0.6028339460069230  0.4825037302270034
  0.7868809713404145  0.6402642125529366  0.0035265565835078
  0.3053974964270643  0.8476903744377828  0.5851921074666749
  0.1076674907000138  0.1305374703663785  0.9708779472515231
  0.6511810491349408  0.9629230731898683  0.5692912400871261
  0.8484248550933180  0.6949684095501640  0.8655703545127258
  0.3069063324116939  0.6741256861859349  0.6410692978800479
  0.3094369265504978  0.2082833218134397  0.5583859533456484
  0.2173043565241517  0.6668003380611315  0.9192880573822563
  0.3121847861066326  0.5645389578412474  0.0028276960106388
  0.2437731856537257  0.0280153565500276  0.5693764537938655
  0.9350884442712433  0.7485105907483883  0.0982906963021744
  0.5917450576193983  0.7386631895016870  0.1789337413413065
  0.5581467780191436  0.6857266303228159  0.3721072411225639
  0.7054112747400846  0.7595508312985900  0.9486500860887648
  0.8513218136661772  0.9385650349130927  0.7283554374142365
  0.9867273364742443  0.6213996987818078  0.1708283025930646
  0.1476588054952326  0.4640632942653985  0.5310824720160763
  0.2152261588133114  0.2445176112603113  0.9320003556496339
  0.5589039504784579  0.8458051950740423  0.1622694738485336
  0.7555822416692793  0.4315702711354228  0.3482746449740536
  0.7776457183381067  0.6000900137375590  0.2729781059538724
  0.2036366641877094  0.3265673244600499  0.0589899177051682
  0.0991862957267047  0.2553306122119970  0.9190735133998927
  0.1985978938902884  0.2735115604739209  0.1622640182467427
  0.2219650715647591  0.4923276691158977  0.2708722882210337
  0.5912056190275269  0.4723930359991878  0.7827034382209489
  0.2128823964022363  0.1694600261647039  0.1138352956170177
  0.9162272687203542  0.5266821589490714  0.3321725560449478
  0.6036636905974572  0.4524198980153488  0.0194766510256920
  0.2578890994770144  0.1574141080524677  0.2991669039401793
  0.4229364374538020  0.4221004859598738  0.1098090223461784
  0.3156852354583743  0.8293090070976583  0.6991032841944521
  0.9257347573546436  0.8470133204740943  0.3316103990730361
  0.0905127677622821  0.1473614761752530  0.2589913993305192
  0.6264315245706953  0.9906572533108631  0.0592735071911316
  0.4725196010059141  0.5845874709423152  0.4399081097394414
  0.6500608806480846  0.7291965187765633  0.2935157719842004
  0.8764128007944765  0.8570647690567832  0.1145607852207647
  0.9284346901816299  0.5867047510391236  0.4379176903522286
  0.2594507015838841  0.9414739862417330  0.9280718741648694
  0.7147035276707974  0.5514169336872288  0.1022311827298693
  0.4906951892382277  0.5425850707163710  0.2531900286625439
  0.8416383388261112  0.0283507000088988  0.2138041590445084
  0.1803301713182069  0.7641585327751942  0.5309678390185999
  0.7612642536419418  0.7217376534638451  0.5574412040661452
  0.7427358951164817  0.3970032072277259  0.0938979916540763
  0.3036211488666055  0.7130014060081150  0.8500064624009681
  0.9532622324862001  0.1084251293780808  0.1514631826576031
  0.5036539940433614  0.5160369920770266  0.7116303109415529
  0.9864917292522870  0.8004320919475173  0.7907424235925665
  0.7494426430811147  0.9634773623797884  0.4908366244489860
  0.3868011224004794  0.1325638430542223  0.0829960713184877
  0.5219383656706381  0.3135448221799894  0.4008354171674340
  0.1859288793534365  0.8166953291298265  0.7016848341511289
  0.1660888514644188  0.5972365723309618  0.1010122489411741
  0.8264170200470800  0.7861768184653858  0.6832856112930689
  0.6670561068820197  0.9013372890534220  0.1512900466236888
  0.8207924270412117  0.2603554162122594  0.0083538955017159
  0.0497410639001220  0.7633030436596333  0.1436020798826741
  0.1777375155785270  0.5509257604559411  0.3676546983487770
  0.6389979463766270  0.8693154130991781  0.3242806172696678
  0.8373988963565308  0.2208938891043888  0.5673296105353272
  0.1990706657876097  0.0089489081527213  0.2116519749676151
  0.0318060742220699  0.9860944050756099  0.2930974629485587
  0.0668554531104457  0.4820613415230410  0.7713177097791235
  0.7392628319074620  0.7992545461894605  0.7794055947246716
  0.7311145533780185  0.6797442447156906  0.4358770318840000
  0.9878830638891635  0.5817822971787366  0.7640004909273714
  0.8249440937144120  0.8292774521579631  0.2402466888782414
  0.1700171839003928  0.2374086075811987  0.3365291951045770
  0.8820694923594755  0.1739016578802925  0.4037095413427473
  0.8785374793429979  0.3770519141272253  0.6313821192900800
  0.6694517595281820  0.3018555280602312  0.3629047287576114
  0.7038230978770168  0.5918240425918480  0.6759121109324229
  0.1479312011520049  0.9416974183278528  0.1015472209149032
  0.6575589910337294  0.5949524556570686  0.2781640481588656
  0.2494928804693629  0.4613186591221176  0.6716483372096026
  0.5183794910696812  0.4729630874410529  0.5947666332941055
  0.2619843373530790  0.3925029326133944  0.9305731048300094
  0.9125063983152715  0.3737034706872004  0.1627846157698543
  0.8181529881532361  0.2427979878853220  0.8787034747830397
  0.8558699738983585  0.3612828596935049  0.2748527168972402
  0.3219813251114692  0.6287143674963578  0.3145629218847308
  0.4953966504936712  0.4480158352506266  0.4195953923722295
  0.6137753819393460  0.6389342071438506  0.4711410644638528
  0.4514261280462428  0.4385999633265411  0.9205080576236085
  0.3666854244940932  0.0109218310043903  0.9377866775235890
  0.5728471669189609  0.0510683478353888  0.9402673676877675
  0.0723194981944267  0.5973184195544231  0.9300408578045947
  0.8979957125713236  0.5929427755876860  0.0196303341285250
  0.2302199557805883  0.3738892677440280  0.2945180796678621
  0.2957678023733336  0.8060922107492525  0.2777850394091407
  0.3493022271589614  0.1994076561913640  0.2319136724210227
  0.3697906431909326  0.0933872593965600  0.6570501152046273
  0.5098754644029275  0.1739515846677905  0.1950809099408541
  0.9635865741292007  0.3127237915972204  0.7944118960959474
  0.1380071140494486  0.1552314132326765  0.7918491618617239
  0.4579006374041070  0.9171578580144745  0.0723249807081636
  0.9425221532932835  0.4110659614236317  0.3655060222611997
  0.9181149508941708  0.0328789791984789  0.0431755914733837
  0.9302299142012614  0.0621365684936247  0.3393138137469311
  0.9651526278419869  0.4571427956829869  0.9004245312836303
  0.4722507772575821  0.7481559840685083  0.6039523625957316
  0.2232190714721742  0.1201132770757031  0.9346465007623299
  0.6114026742511190  0.3083569887400321  0.6350847656727097
  0.8910362396085315  0.9560058378720148  0.5713629904797580
  0.4091516527941371  0.4099975739524200  0.5724358651903919
  0.5223605372218905  0.1846484901482237  0.6537138119344252
  0.7104829129532914  0.8772458611176523  0.9752340244332742
  0.7425414313985018  0.0932490493308430  0.3260577350663349
  0.1601282335283460  0.1021181031320594  0.3976597181994930
  0.0317585354422364  0.4902286779799639  0.0928702848152099
  0.5689864662952133  0.9273578326414638  0.4863540795837902
  0.6631821754234273  0.2339732514358173  0.8959250708808530
  0.0037309153514375  0.8666089355093842  0.4273941250880897
  0.0458834165339791  0.7453361193926902  0.4164169503596364
  0.8451193050664950  0.4718141540322268  0.5476408998440294
  0.2380838686506485  0.7054393051788841  0.4303347888115405
  0.3955394557160857  0.0310228742821171  0.2273959998980063
  0.7121809939512258  0.0929721859843585  0.6080926900724614
  0.2481509586320378  0.2631822964284211  0.4699471517944648
  0.3102877156685472  0.6984647871801373  0.1683067666478239
  0.6140724246567878  0.1642479796052232  0.7409556862777381
  0.9960664776647535  0.9032598330571264  0.6238360959288710
  0.4026754187473444  0.8244850630798549  0.9078077523387279
  0.8909206450433341  0.3763749891728875  0.9803246920072396
  0.8843813588371560  0.6833656312030270  0.1879094564757090
  0.8954819703337863  0.6045552230263169  0.5898235226381675
  0.4487441832600623  0.7219061876863750  0.9810676067008444
  0.0558437135175502  0.3147682985080681  0.4095015391458430
  0.1315905051418588  0.9875877566689268  0.7940505300124963
  0.7247411651318041  0.3376574360085832  0.2049270245632193
  0.2090278492112166  0.4338455858616985  0.1146561113225128
  0.2509368869582289  0.1115227040288458  0.7221093872959774
  0.6722877944389772  0.2181921151815611  0.0937302711599075
  0.7131762101376569  0.3892318224710640  0.6566365766806456
  0.8096751614609813  0.8959672980589536  0.8401940135816707
  0.0876947166390669  0.3417163564647071  0.8327649118863845
  0.0340778975421934  0.1474797141181251  0.4241583322801727
  0.6804123872782175  0.4893200875110373  0.4267117250542112
  0.4096070721380950  0.2236801861738247  0.7848036005621722
  0.1952398452608425  0.6021141884175847  0.7286084562509954
  0.8764167783922128  0.0558093397273605  0.7559408772696699
  0.9915222958863433  0.2351376955865289  0.5726470440569981
  0.2750886140140461  0.3917012919869669  0.4908409904894601
  0.0454592303919831  0.2485116852081767  0.1889193804239050
  0.2225977747996914  0.7101489356693093  0.0734036331186805
  0.5096533488363849  0.6009310657755103  0.0437518405781533
  0.3290794142663500  0.5331309157885001  0.8181394748326599
  0.5228804622480686  0.0078813037634876  0.6328124544819189
  0.4217454942994316  0.3472977420261526  0.2749895158251331
  0.4650097471756237  0.1260013687310815  0.4914978438154120
  0.3789451273233411  0.5372238239198641  0.0993969264790198
  0.4020465109868589  0.9227779297787692  0.5743737546448101
  0.5974056509625435  0.0141335056859303  0.2339704580013543
  0.9655784106417388  0.7146197112758180  0.3195915396637161
  0.1154684703635278  0.8874640931125894  0.8716345902499109
  0.5705244735710351  0.3532656242043867  0.7866062358664893
  0.4145513703191268  0.9538017085750949  0.7764544472767169
  0.8144853244486665  0.8121409770003003  0.3781223676165025
  0.3959913481173211  0.3243742742630847  0.6823374250692674
  0.4750851968858063  0.6989609987465754  0.1818154439841161
  0.0869200785342629  0.3204327843896686  0.0227771723379091
  0.2435974522021555  0.8854876649082803  0.0413931205280056
  0.4231070326747821  0.2423429656736450  0.5244223745937950
  0.8307161231736273  0.5892597097246032  0.7012980659186481
  0.5311551846940872  0.0488391006383663  0.3423964128944122
  0.7987997704668484  0.0082755240521061  0.0932548631837023
  0.6709399202053267  0.8709813022852058  0.6471996043523587
  0.3685521042315327  0.8712065369946537  0.1918718552116322
  0.5851108957346434  0.7824565506797717  0.8521205308915132
  0.0917100350916705  0.0739192640685838  0.5737025168602061
  0.1272201659043514  0.7254293743781037  0.8634090578971478
  0.3658806595064356  0.2762748269206364  0.9770548559422235
  0.7422038876228392  0.2823371103038628  0.4675770293534871
  0.0776796391045878  0.2237398688732474  0.6784088800666065
  0.7036914408939242  0.9925371316166514  0.7283588363003255
  0.0876543611435397  0.5994025013166719  0.4814433508122745
  0.4454918104720234  0.6730593142659947  0.7758886263401009
  0.5402915810748813  0.5803861413700778  0.8603858584856051
  0.9044940892717255  0.9586305161599514  0.9239773293917674
  0.3036958484346247  0.9015019335570208  0.3619518813714234
  0.6424336629090585  0.7621133988556923  0.5829016673675188
  0.8586633386834719  0.9481279205713431  0.3733279671905115
  0.4563211219457354  0.8482675673234263  0.6932853855679840
  0.0332449118202327  0.8699721550959639  0.2306416749182958
  0.8104319034234574  0.5759416408351685  0.8504774098122306
  0.8306345449271084  0.2590671944901679  0.7379608851307906
  0.9618861386737230  0.1862422401944469  0.8345770480324670
  0.1451095970031308  0.9758954891746503  0.4165049620091449
  0.7144354312331289  0.4157735432848675  0.9008177178186140
  0.1361238839795435  0.4909544795785954  0.8877014546820708
  0.0461287402033525  0.4992723387228220  0.5931284606733889
  0.5389136072345434  0.4510936380177429  0.1241075213246057
  0.3953475057787275  0.2876801487307011  0.3969387966696969
  0.9459784582989293  0.7269666548315643  0.6152148833583693
  0.0356213607098227  0.8760456698558452  0.0438488444327043
  0.0539533952295771  0.0216466617416903  0.9637101367476441
  0.6768667686414500  0.3310883911900439  0.8307585912123999
  0.9265583054087109  0.5606995729753943  0.8639498998186393
  0.7444863002823637  0.0811766339502217  0.4965315400298133
  0.4626865891625401  0.9636186130891945  0.2943762662756128
  0.8442123639052936  0.1246478112849676  0.5000236645199749
  0.8707236300068844  0.3516759229411748  0.8685687823079403
  0.0303570810507640  0.1469083598639797  0.7491297026131980
  0.4450569721107125  0.9264290395220443  0.9586860039045046
  0.0164767569297030  0.9946204560408596  0.7845056618191062
  0.8074340357248945  0.5286644440607133  0.3512109973516895
  0.5312159216001158  0.5168813091875624  0.9609550905644673
  0.3256136381354032  0.9879473944889103  0.6333694357842803
  0.5941952307954473  0.3408818028985300  0.0141203294579900
  0.1997197647152505  0.1235831669059373  0.2127656798620813
  0.7576881312050038  0.3456736979086132  0.7584013189900575
 
  0.00000000E+00  0.00000000E+00  0.00000000E+00
  0.00000000E+00  0.00000000E+00  0.00000000E+00
  0.00000000E+00  0.00000000E+00  0.00000000E+00
  0.00000000E+00  0.00000000E+00  0.00000000E+00
  0.00000000E+00  0.00000000E+00  0.00000000E+00
  0.00000000E+00  0.00000000E+00  0.00000000E+00
  0.00000000E+00  0.00000000E+00  0.00000000E+00
  0.00000000E+00  0.00000000E+00  0.00000000E+00
  0.00000000E+00  0.00000000E+00  0.00000000E+00
  0.00000000E+00  0.00000000E+00  0.00000000E+00
  0.00000000E+00  0.00000000E+00  0.00000000E+00
  0.00000000E+00  0.00000000E+00  0.00000000E+00
  0.00000000E+00  0.00000000E+00  0.00000000E+00
  0.00000000E+00  0.00000000E+00  0.00000000E+00
  0.00000000E+00  0.00000000E+00  0.00000000E+00
  0.00000000E+00  0.00000000E+00  0.00000000E+00
  0.00000000E+00  0.00000000E+00  0.00000000E+00
  0.00000000E+00  0.00000000E+00  0.00000000E+00
  0.00000000E+00  0.00000000E+00  0.00000000E+00
  0.00000000E+00  0.00000000E+00  0.00000000E+00
  0.00000000E+00  0.00000000E+00  0.00000000E+00
  0.00000000E+00  0.00000000E+00  0.00000000E+00
  0.00000000E+00  0.00000000E+00  0.00000000E+00
  0.00000000E+00  0.00000000E+00  0.00000000E+00
  0.00000000E+00  0.00000000E+00  0.00000000E+00
  0.00000000E+00  0.00000000E+00  0.00000000E+00
  0.00000000E+00  0.00000000E+00  0.00000000E+00
  0.00000000E+00  0.00000000E+00  0.00000000E+00
  0.00000000E+00  0.00000000E+00  0.00000000E+00
  0.00000000E+00  0.00000000E+00  0.00000000E+00
  0.00000000E+00  0.00000000E+00  0.00000000E+00
  0.00000000E+00  0.00000000E+00  0.00000000E+00
  0.00000000E+00  0.00000000E+00  0.00000000E+00
  0.00000000E+00  0.00000000E+00  0.00000000E+00
  0.00000000E+00  0.00000000E+00  0.00000000E+00
  0.00000000E+00  0.00000000E+00  0.00000000E+00
  0.00000000E+00  0.00000000E+00  0.00000000E+00
  0.00000000E+00  0.00000000E+00  0.00000000E+00
  0.00000000E+00  0.00000000E+00  0.00000000E+00
  0.00000000E+00  0.00000000E+00  0.00000000E+00
  0.00000000E+00  0.00000000E+00  0.00000000E+00
  0.00000000E+00  0.00000000E+00  0.00000000E+00
  0.00000000E+00  0.00000000E+00  0.00000000E+00
  0.00000000E+00  0.00000000E+00  0.00000000E+00
  0.00000000E+00  0.00000000E+00  0.00000000E+00
  0.00000000E+00  0.00000000E+00  0.00000000E+00
  0.00000000E+00  0.00000000E+00  0.00000000E+00
  0.00000000E+00  0.00000000E+00  0.00000000E+00
  0.00000000E+00  0.00000000E+00  0.00000000E+00
  0.00000000E+00  0.00000000E+00  0.00000000E+00
  0.00000000E+00  0.00000000E+00  0.00000000E+00
  0.00000000E+00  0.00000000E+00  0.00000000E+00
  0.00000000E+00  0.00000000E+00  0.00000000E+00
  0.00000000E+00  0.00000000E+00  0.00000000E+00
  0.00000000E+00  0.00000000E+00  0.00000000E+00
  0.00000000E+00  0.00000000E+00  0.00000000E+00
  0.00000000E+00  0.00000000E+00  0.00000000E+00
  0.00000000E+00  0.00000000E+00  0.00000000E+00
  0.00000000E+00  0.00000000E+00  0.00000000E+00
  0.00000000E+00  0.00000000E+00  0.00000000E+00
  0.00000000E+00  0.00000000E+00  0.00000000E+00
  0.00000000E+00  0.00000000E+00  0.00000000E+00
  0.00000000E+00  0.00000000E+00  0.00000000E+00
  0.00000000E+00  0.00000000E+00  0.00000000E+00
  0.00000000E+00  0.00000000E+00  0.00000000E+00
  0.00000000E+00  0.00000000E+00  0.00000000E+00
  0.00000000E+00  0.00000000E+00  0.00000000E+00
  0.00000000E+00  0.00000000E+00  0.00000000E+00
  0.00000000E+00  0.00000000E+00  0.00000000E+00
  0.00000000E+00  0.00000000E+00  0.00000000E+00
  0.00000000E+00  0.00000000E+00  0.00000000E+00
  0.00000000E+00  0.00000000E+00  0.00000000E+00
  0.00000000E+00  0.00000000E+00  0.00000000E+00
  0.00000000E+00  0.00000000E+00  0.00000000E+00
  0.00000000E+00  0.00000000E+00  0.00000000E+00
  0.00000000E+00  0.00000000E+00  0.00000000E+00
  0.00000000E+00  0.00000000E+00  0.00000000E+00
  0.00000000E+00  0.00000000E+00  0.00000000E+00
  0.00000000E+00  0.00000000E+00  0.00000000E+00
  0.00000000E+00  0.00000000E+00  0.00000000E+00
  0.00000000E+00  0.00000000E+00  0.00000000E+00
  0.00000000E+00  0.00000000E+00  0.00000000E+00
  0.00000000E+00  0.00000000E+00  0.00000000E+00
  0.00000000E+00  0.00000000E+00  0.00000000E+00
  0.00000000E+00  0.00000000E+00  0.00000000E+00
  0.00000000E+00  0.00000000E+00  0.00000000E+00
  0.00000000E+00  0.00000000E+00  0.00000000E+00
  0.00000000E+00  0.00000000E+00  0.00000000E+00
  0.00000000E+00  0.00000000E+00  0.00000000E+00
  0.00000000E+00  0.00000000E+00  0.00000000E+00
  0.00000000E+00  0.00000000E+00  0.00000000E+00
  0.00000000E+00  0.00000000E+00  0.00000000E+00
  0.00000000E+00  0.00000000E+00  0.00000000E+00
  0.00000000E+00  0.00000000E+00  0.00000000E+00
  0.00000000E+00  0.00000000E+00  0.00000000E+00
  0.00000000E+00  0.00000000E+00  0.00000000E+00
  0.00000000E+00  0.00000000E+00  0.00000000E+00
  0.00000000E+00  0.00000000E+00  0.00000000E+00
  0.00000000E+00  0.00000000E+00  0.00000000E+00
  0.00000000E+00  0.00000000E+00  0.00000000E+00
  0.00000000E+00  0.00000000E+00  0.00000000E+00
  0.00000000E+00  0.00000000E+00  0.00000000E+00
  0.00000000E+00  0.00000000E+00  0.00000000E+00
  0.00000000E+00  0.00000000E+00  0.00000000E+00
  0.00000000E+00  0.00000000E+00  0.00000000E+00
  0.00000000E+00  0.00000000E+00  0.00000000E+00
  0.00000000E+00  0.00000000E+00  0.00000000E+00
  0.00000000E+00  0.00000000E+00  0.00000000E+00
  0.00000000E+00  0.00000000E+00  0.00000000E+00
  0.00000000E+00  0.00000000E+00  0.00000000E+00
  0.00000000E+00  0.00000000E+00  0.00000000E+00
  0.00000000E+00  0.00000000E+00  0.00000000E+00
  0.00000000E+00  0.00000000E+00  0.00000000E+00
  0.00000000E+00  0.00000000E+00  0.00000000E+00
  0.00000000E+00  0.00000000E+00  0.00000000E+00
  0.00000000E+00  0.00000000E+00  0.00000000E+00
  0.00000000E+00  0.00000000E+00  0.00000000E+00
  0.00000000E+00  0.00000000E+00  0.00000000E+00
  0.00000000E+00  0.00000000E+00  0.00000000E+00
  0.00000000E+00  0.00000000E+00  0.00000000E+00
  0.00000000E+00  0.00000000E+00  0.00000000E+00
  0.00000000E+00  0.00000000E+00  0.00000000E+00
  0.00000000E+00  0.00000000E+00  0.00000000E+00
  0.00000000E+00  0.00000000E+00  0.00000000E+00
  0.00000000E+00  0.00000000E+00  0.00000000E+00
  0.00000000E+00  0.00000000E+00  0.00000000E+00
  0.00000000E+00  0.00000000E+00  0.00000000E+00
  0.00000000E+00  0.00000000E+00  0.00000000E+00
  0.00000000E+00  0.00000000E+00  0.00000000E+00
  0.00000000E+00  0.00000000E+00  0.00000000E+00
  0.00000000E+00  0.00000000E+00  0.00000000E+00
  0.00000000E+00  0.00000000E+00  0.00000000E+00
  0.00000000E+00  0.00000000E+00  0.00000000E+00
  0.00000000E+00  0.00000000E+00  0.00000000E+00
  0.00000000E+00  0.00000000E+00  0.00000000E+00
  0.00000000E+00  0.00000000E+00  0.00000000E+00
  0.00000000E+00  0.00000000E+00  0.00000000E+00
  0.00000000E+00  0.00000000E+00  0.00000000E+00
  0.00000000E+00  0.00000000E+00  0.00000000E+00
  0.00000000E+00  0.00000000E+00  0.00000000E+00
  0.00000000E+00  0.00000000E+00  0.00000000E+00
  0.00000000E+00  0.00000000E+00  0.00000000E+00
  0.00000000E+00  0.00000000E+00  0.00000000E+00
  0.00000000E+00  0.00000000E+00  0.00000000E+00
  0.00000000E+00  0.00000000E+00  0.00000000E+00
  0.00000000E+00  0.00000000E+00  0.00000000E+00
  0.00000000E+00  0.00000000E+00  0.00000000E+00
  0.00000000E+00  0.00000000E+00  0.00000000E+00
  0.00000000E+00  0.00000000E+00  0.00000000E+00
  0.00000000E+00  0.00000000E+00  0.00000000E+00
  0.00000000E+00  0.00000000E+00  0.00000000E+00
  0.00000000E+00  0.00000000E+00  0.00000000E+00
  0.00000000E+00  0.00000000E+00  0.00000000E+00
  0.00000000E+00  0.00000000E+00  0.00000000E+00
  0.00000000E+00  0.00000000E+00  0.00000000E+00
  0.00000000E+00  0.00000000E+00  0.00000000E+00
  0.00000000E+00  0.00000000E+00  0.00000000E+00
  0.00000000E+00  0.00000000E+00  0.00000000E+00
  0.00000000E+00  0.00000000E+00  0.00000000E+00
  0.00000000E+00  0.00000000E+00  0.00000000E+00
  0.00000000E+00  0.00000000E+00  0.00000000E+00
  0.00000000E+00  0.00000000E+00  0.00000000E+00
  0.00000000E+00  0.00000000E+00  0.00000000E+00
  0.00000000E+00  0.00000000E+00  0.00000000E+00
  0.00000000E+00  0.00000000E+00  0.00000000E+00
  0.00000000E+00  0.00000000E+00  0.00000000E+00
  0.00000000E+00  0.00000000E+00  0.00000000E+00
  0.00000000E+00  0.00000000E+00  0.00000000E+00
  0.00000000E+00  0.00000000E+00  0.00000000E+00
  0.00000000E+00  0.00000000E+00  0.00000000E+00
  0.00000000E+00  0.00000000E+00  0.00000000E+00
  0.00000000E+00  0.00000000E+00  0.00000000E+00
  0.00000000E+00  0.00000000E+00  0.00000000E+00
  0.00000000E+00  0.00000000E+00  0.00000000E+00
  0.00000000E+00  0.00000000E+00  0.00000000E+00
  0.00000000E+00  0.00000000E+00  0.00000000E+00
  0.00000000E+00  0.00000000E+00  0.00000000E+00
  0.00000000E+00  0.00000000E+00  0.00000000E+00
  0.00000000E+00  0.00000000E+00  0.00000000E+00
  0.00000000E+00  0.00000000E+00  0.00000000E+00
  0.00000000E+00  0.00000000E+00  0.00000000E+00
  0.00000000E+00  0.00000000E+00  0.00000000E+00
  0.00000000E+00  0.00000000E+00  0.00000000E+00
  0.00000000E+00  0.00000000E+00  0.00000000E+00
  0.00000000E+00  0.00000000E+00  0.00000000E+00
  0.00000000E+00  0.00000000E+00  0.00000000E+00
  0.00000000E+00  0.00000000E+00  0.00000000E+00
  0.00000000E+00  0.00000000E+00  0.00000000E+00
  0.00000000E+00  0.00000000E+00  0.00000000E+00
  0.00000000E+00  0.00000000E+00  0.00000000E+00
  0.00000000E+00  0.00000000E+00  0.00000000E+00
  0.00000000E+00  0.00000000E+00  0.00000000E+00
  0.00000000E+00  0.00000000E+00  0.00000000E+00
  0.00000000E+00  0.00000000E+00  0.00000000E+00
  0.00000000E+00  0.00000000E+00  0.00000000E+00
  0.00000000E+00  0.00000000E+00  0.00000000E+00
  0.00000000E+00  0.00000000E+00  0.00000000E+00
  0.00000000E+00  0.00000000E+00  0.00000000E+00
  0.00000000E+00  0.00000000E+00  0.00000000E+00
  0.00000000E+00  0.00000000E+00  0.00000000E+00
  0.00000000E+00  0.00000000E+00  0.00000000E+00
  0.00000000E+00  0.00000000E+00  0.00000000E+00
  0.00000000E+00  0.00000000E+00  0.00000000E+00
  0.00000000E+00  0.00000000E+00  0.00000000E+00
  0.00000000E+00  0.00000000E+00  0.00000000E+00
  0.00000000E+00  0.00000000E+00  0.00000000E+00
  0.00000000E+00  0.00000000E+00  0.00000000E+00
  0.00000000E+00  0.00000000E+00  0.00000000E+00
  0.00000000E+00  0.00000000E+00  0.00000000E+00
  0.00000000E+00  0.00000000E+00  0.00000000E+00
  0.00000000E+00  0.00000000E+00  0.00000000E+00
  0.00000000E+00  0.00000000E+00  0.00000000E+00
  0.00000000E+00  0.00000000E+00  0.00000000E+00
  0.00000000E+00  0.00000000E+00  0.00000000E+00
  0.00000000E+00  0.00000000E+00  0.00000000E+00
  0.00000000E+00  0.00000000E+00  0.00000000E+00
  0.00000000E+00  0.00000000E+00  0.00000000E+00
  0.00000000E+00  0.00000000E+00  0.00000000E+00
  0.00000000E+00  0.00000000E+00  0.00000000E+00
  0.00000000E+00  0.00000000E+00  0.00000000E+00
  0.00000000E+00  0.00000000E+00  0.00000000E+00
  0.00000000E+00  0.00000000E+00  0.00000000E+00
  0.00000000E+00  0.00000000E+00  0.00000000E+00
  0.00000000E+00  0.00000000E+00  0.00000000E+00
  0.00000000E+00  0.00000000E+00  0.00000000E+00
  0.00000000E+00  0.00000000E+00  0.00000000E+00
  0.00000000E+00  0.00000000E+00  0.00000000E+00
  0.00000000E+00  0.00000000E+00  0.00000000E+00
  0.00000000E+00  0.00000000E+00  0.00000000E+00
  0.00000000E+00  0.00000000E+00  0.00000000E+00
  0.00000000E+00  0.00000000E+00  0.00000000E+00
  0.00000000E+00  0.00000000E+00  0.00000000E+00