Amorphous GeAsSeSi                      
   1.00000000000000     
    18.8236188657994745    0.0000000000000000    0.0000000000000000
     0.0000000000000000   18.8236188657994745    0.0000000000000000
     0.0000000000000000    0.0000000000000000   18.8236188657994745
   Ge   Si   Se
    96    48    96
Direct
  0.7877832475181274  0.1809076356892251  0.7547646961163733
  0.0345015368782226  0.2043431437026569  0.5575159081594775
  0.3109449264651161  0.2420029426990660  0.5116189185994353
  0.1603932054532528  0.1566383208248948  0.5813439381906647
  0.1251598168949216  0.6234702962599884  0.8327286551931075
  0.9995899354043467  0.6477228909905948  0.0221368969736837
  0.4004177776951186  0.0470789888354435  0.2411011975651239
  0.4079610535524693  0.6063674483681155  0.4118404163127675
  0.6269022508772235  0.9379384039337888  0.6614947264622892
  0.4647265704668492  0.7759276129302803  0.5029148828813317
  0.2347966582902594  0.0320923130224534  0.0980297665385066
  0.8976069645156982  0.2006525651521414  0.3173990798319210
  0.4231714665662740  0.8772233900094939  0.1386937162981040
  0.5409110280245474  0.1195497334846711  0.5477145849450503
  0.9759828989469470  0.2584309515120633  0.7158276300704310
  0.2743999930774146  0.4480715985735385  0.2519851671011028
  0.0640677678762518  0.7550566754566223  0.9785590653867499
  0.9212101303029028  0.7032586912526066  0.6134536129549171
  0.3377878481163580  0.9531749032706367  0.8792971712976837
  0.6930149895776490  0.7315472604500580  0.5874097815909831
  0.6264380658806714  0.7453916971385911  0.7888861241824742
  0.7517246661911489  0.0940467092062422  0.1167896776310767
  0.9252698138532043  0.0222675228876181  0.0882769773288023
  0.3627976232283016  0.1741651158913209  0.6842409209784532
  0.9881416023754804  0.6474676934555478  0.5110771901974978
  0.9661039521632592  0.9362592465663689  0.9959668061231490
  0.2672853969656974  0.5901988307907846  0.2344170671448888
  0.6056421113792534  0.5547674023288625  0.0701509108162441
  0.2347598327383157  0.6457051575519842  0.9181762912423159
  0.3990634230312767  0.1438701406357513  0.5537674795221210
  0.3779836351390995  0.6095317695238769  0.5453903044345901
  0.3179018483683064  0.7532169262475434  0.3909394676616152
  0.0897717753874394  0.0097204275756969  0.9645695932698162
  0.6160971609964015  0.6177613975926631  0.5645843558173833
  0.0696424522607498  0.3646107333405838  0.0834001892054483
  0.6399738622319016  0.0339235328218282  0.0474823723875916
  0.6828986119495680  0.9456325102088299  0.5360430825472461
  0.1979593581584414  0.0280458917158891  0.5580594086677501
  0.7866819939403707  0.9286798306472420  0.4525936506779102
  0.4965726011793131  0.9636210029365466  0.7663092892203941
  0.6286574162245272  0.4065782808980161  0.0118720726885276
  0.3007737121913509  0.3488712379017379  0.7326679267341790
  0.0358076556163981  0.0301067634481125  0.1693816727024333
  0.8270880548565981  0.0112931039381432  0.2749456669767780
  0.3288275777874937  0.3636864080904252  0.4429628958592258
  0.6701511199815515  0.2075300165903368  0.0588356456038676
  0.5220082316486774  0.1604620073902928  0.8584394067116822
  0.7511843805987426  0.3196866317436600  0.4391755970887591
  0.7276020763067730  0.6700258106884436  0.9078783116341039
  0.1318144908090332  0.1520815139869201  0.9922622131752861
  0.5757879615863667  0.5389227721110049  0.2840105765018255
  0.2241702967435039  0.0549177054295881  0.3346045331212458
  0.9128789283283205  0.1016451643418405  0.4360891815740930
  0.5649693085630466  0.9607798070051629  0.3087293595515787
  0.0941013995741324  0.9732784918669916  0.4794640156870404
  0.9587875549870390  0.6502946911945034  0.7361853966900085
  0.7349802984803723  0.4906929892915453  0.1663181657375061
  0.4482578548251251  0.2688285989613662  0.0774386757545340
  0.8514116001273925  0.4682787070950324  0.4343354564710039
  0.0022276849051167  0.4430895506816082  0.3047216562207324
  0.0735734030981259  0.9105225660390095  0.2373655418086205
  0.5754058887182864  0.3995601518678467  0.8062842293361864
  0.7131605643086453  0.6522949468059428  0.2233838244547965
  0.6730424042279268  0.4444430606408712  0.2851817274532867
  0.8189346721605391  0.7963069285966864  0.6080441071685451
  0.6520293773106224  0.5659532173523409  0.8717021195607719
  0.5719795844040134  0.2439420886724496  0.4839092657480529
  0.2781638866097732  0.5272111561917374  0.9716557437634513
  0.7933125727924878  0.0722971533181626  0.5964141399450590
  0.1306555352848278  0.2676196408901293  0.3729496221447983
  0.7952542086667352  0.8495441022448555  0.8502082591019685
  0.5743837685272541  0.2092319070384195  0.6572603494869751
  0.4140151273996622  0.5194386983119159  0.6723036924659020
  0.4780181471614667  0.3376246087530059  0.2699880137781149
  0.4069316684480454  0.4549328365772040  0.2596858627422947
  0.9103520435788370  0.7507262061816534  0.1555151823375814
  0.7355694106160995  0.5372439712748526  0.0104641322271893
  0.8542280244999562  0.0416654377977436  0.9129265907371827
  0.7551497606684544  0.3447500179821669  0.8879544581145091
  0.0127981447333005  0.3504454371510651  0.4072328198128141
  0.1670623947609819  0.9261840937538760  0.0456853286730482
  0.1990300118255493  0.8589153861951130  0.2800006179755056
  0.6414334322822131  0.1030241259172266  0.8238507359436775
  0.7594645023801864  0.2326656895205083  0.5452408568182799
  0.6456841303685305  0.5381367268833738  0.4573602876743641
  0.8848306994064283  0.7675195204670880  0.9164673489286710
  0.5785548553883459  0.2652631212626161  0.7827466123582666
  0.4748658653617869  0.3362307757443105  0.4905730554670109
  0.1972768347489734  0.6682916374272634  0.1240511491590637
  0.6162993725162655  0.5298484621107691  0.6662902543525693
  0.3974345973079600  0.5835973781613877  0.1932286089639965
  0.8947999977844946  0.8283970883839673  0.0365045906832982
  0.0180590695519547  0.6075506890956767  0.1491016793588520
  0.7172596417350434  0.9659144572890974  0.3407688792036150
  0.4300326446504560  0.6628499913074138  0.8218340204218639
  0.5812681122902049  0.6294499289685118  0.1838812207214525
  0.7306603975493260  0.4816369988774248  0.7076444706304593
  0.7604354824297781  0.7547046730290710  0.2973252269758968
  0.6674918953372458  0.6584244416850387  0.0193597366974136
  0.6279169527349523  0.2976333703551337  0.1518498473818429
  0.9287501800123091  0.5382440342782940  0.3566221327949178
  0.0041024902249700  0.7878572563725500  0.8710901898438758
  0.6117949489581791  0.3288603741898510  0.2774444167148072
  0.9315566602564214  0.3914971459054172  0.2107620999338333
  0.8122169062571992  0.6256491304080999  0.0721576459384860
  0.3341535313916723  0.8310462735522766  0.9418851450301547
  0.9652783470925684  0.4861927412180617  0.9041211348526205
  0.8307440418914419  0.4182604420293387  0.6515270698987317
  0.9939963636774397  0.4142194034654536  0.8025060637825066
  0.7262461479571113  0.4459633856726213  0.4050762742107491
  0.5492410529752786  0.5445251833039307  0.9468766727143978
  0.5084370903781305  0.8501370190584051  0.9213942250884859
  0.2987001989099691  0.0012636448073304  0.6896660148899320
  0.1508499307290778  0.6228667621935023  0.6311669459526960
  0.9966758477208112  0.3172290723866764  0.8880388728141334
  0.8917146668680868  0.5817374018744261  0.1636889480916815
  0.9416418247301790  0.0273356847516412  0.3319808127027131
  0.9880850231786188  0.9119704888387536  0.8672935250660372
  0.3285121428487802  0.0342886341295743  0.5698786087753690
  0.2951200710215279  0.4605026450346049  0.1245702977220030
  0.0945031804925015  0.7111157370570147  0.1926019393989237
  0.8351121172556619  0.6092378825734411  0.5904051408925581
  0.4726917040876104  0.5100224788269889  0.3546614392248320
  0.0895822192225072  0.4958233674824707  0.1286392412212132
  0.8814106744232622  0.6517631067406662  0.9699726985970927
  0.0437438481930972  0.5688440080621811  0.6687226251025099
  0.6592363645317728  0.9547578018049011  0.9446234536162127
  0.8763991351855962  0.3457856652656656  0.3955182109967897
  0.0247828533830243  0.8133787971273008  0.1644331342252436
  0.8756497307168271  0.4944078023895501  0.5608295600104541
  0.2287913300193024  0.4690823321295566  0.6328744012222496
  0.0815101015842934  0.4648313798659929  0.7272751942367957
  0.9967465056055383  0.5251995337280112  0.5568954382758653
  0.4208429935157438  0.9981431948566007  0.4130039311304195
  0.1826951917121649  0.7213842990333273  0.0045090509796608
  0.2416121468063173  0.2956813487915921  0.0376840247430671
  0.0555613943206659  0.8593215446542540  0.0539888090223378
  0.7560359299982390  0.7389053978968146  0.4255264844644568
  0.5500747614938933  0.9920090002896731  0.1314442398705211
  0.2021377997796548  0.5348377402382566  0.0815180353218342
  0.6936872674755107  0.4523242708050857  0.8260403824613010
  0.0864408454534186  0.2877250266631168  0.9754706055974058
  0.2457353040419365  0.8236607772973185  0.0320582794704272
  0.2488303769071054  0.5216803142616485  0.7448662492665357
  0.2088402773880775  0.3692991731317123  0.3849069986248458
  0.5664315935703643  0.0673101084401876  0.2262797998170071
  0.6518139202175360  0.7838220580522950  0.4726502219695382
  0.3606518686104438  0.9119384715104560  0.7510979968715260
  0.8898646014606075  0.9298721920741359  0.7958368690210966
  0.4693496054517807  0.6917654349861406  0.1778091979604473
  0.1161755258457512  0.4749596439304669  0.2494237309817487
  0.2728458549997158  0.9916539183686748  0.2206840371927818
  0.1285778748024416  0.1143162438274453  0.1263884467607871
  0.5532897920473671  0.8745346914588056  0.1661711975356374
  0.0042340380687922  0.9244084384595578  0.3500777121311195
  0.3376067280809251  0.4142527682014100  0.6122934544486015
  0.9467438209083920  0.2170038464782705  0.8385024719383946
  0.1254353476603068  0.7414977759377184  0.3070949083859693
  0.9811152676463214  0.1420559835780592  0.6632034320623443
  0.6954996792573002  0.0750298352245650  0.5053623384974247
  0.4960030613950589  0.6676468281614343  0.5830618370253743
  0.1891526494847536  0.9541741235282118  0.6655916136187421
  0.4232239618996795  0.9260873267974016  0.3123972264814164
  0.1893165313211136  0.3429744472934064  0.9370409737469050
  0.7128537942671006  0.2923046163620576  0.7692836777806246
  0.5005398441732261  0.4346996470669550  0.9086984687002203
  0.7937633156645049  0.1392875050482698  0.2691334677487156
  0.0811395772012252  0.9822810777447223  0.8351276668555663
  0.5337641576331416  0.3715825709390660  0.1102979673834656
  0.3137376037381825  0.7378552743382769  0.8591765196068730
  0.4665800475245804  0.6338727001891369  0.9448422150048249
  0.7769645680081250  0.5986045861564230  0.7006705760257375
  0.5208703887298566  0.4631577415276104  0.4598928786705876
  0.5781609282993321  0.6128169055323679  0.7645905177630030
  0.4727732975838320  0.9678626143804437  0.9061412800084739
  0.5644157387111606  0.1371644266015939  0.0244691848788907
  0.0506723244308990  0.7490065936906667  0.7647015145916196
  0.0066419203845653  0.1117704175961770  0.2686600012601497
  0.6477395129609516  0.2971936342874469  0.5826688953836393
  0.0582277173076001  0.5463145665213626  0.9593008472061056
  0.6579382243381869  0.2491246770761036  0.3672095689435232
  0.1405610650530996  0.7386449106813636  0.5968647742014226
  0.2094565633440210  0.5536989012613891  0.5463189713557550
  0.6286290070094405  0.6267348076865862  0.3643396306180482
  0.9254932669646581  0.3850517033512340  0.9648523400566974
  0.4533477501446375  0.7237214884842648  0.3757198883771664
  0.0436643626750017  0.1061360205547720  0.4615165427529215
  0.4063838053188258  0.2730888555836052  0.7568939151367269
  0.1001313760839414  0.7040463510219496  0.4815850200127876
  0.8486542807596216  0.8097608806288185  0.4756480534428757
  0.3820965130330395  0.5354179071435190  0.0683206342973475
  0.4246650530939586  0.2813484351118744  0.3783019674260870
  0.2832663816291878  0.7730440735619510  0.1407384575313775
  0.6732527417223558  0.1215513906183743  0.6953986195875822
  0.0576909615917246  0.4625888831724459  0.4718366291745446
  0.4307533588843960  0.0072346071000469  0.0989431603360100
  0.1634815338367983  0.4795439577110111  0.8220384804845298
  0.5252184369184127  0.4349992038405974  0.6848403978156400
  0.7405432035284328  0.7243580035731613  0.1033318819287559
  0.6238871500293293  0.8366855943913050  0.9604392091680922
  0.8386905138493089  0.3372376323876526  0.2739178217687414
  0.7811457444096358  0.9323134085601894  0.9637025116748480
  0.2850102784110083  0.1013934428404601  0.7587550664396651
  0.8713664111349422  0.7997252829217953  0.2704755145112232
  0.4366351655676192  0.8012251414286075  0.0075971261481968
  0.2002304857964693  0.9383103680066363  0.3985116388881256
  0.3826297044448975  0.9374684959462439  0.5133745505463588
  0.8805990073281982  0.4621741314780159  0.1218521073385855
  0.4353110709912542  0.2353918409611640  0.2023543376760576
  0.1379669741454635  0.3866522593606241  0.6493983527064917
  0.6489243443861976  0.9718752470296143  0.8218350326893861
  0.2046418772548210  0.1839007368447089  0.4570897785470516
  0.8811175933019111  0.9972708101866726  0.5150753687919687
  0.7548935225339086  0.1359792813767384  0.8835432458767671
  0.6423604908054443  0.2866953271278301  0.9496617330925590
  0.4857080668186247  0.0966120191549836  0.7419335733360030
  0.5367156422963417  0.0316394902799611  0.4269701896358757
  0.3505435866600339  0.0931179051349044  0.3842779254126397
  0.3428938977506359  0.3644681380892959  0.0481240679774632
  0.9835217895041527  0.2974297988613718  0.1562231846238958
  0.3350435259375568  0.7369921686198031  0.5292684720989823
  0.2621573658552401  0.1785823119192299  0.0117238776603840
  0.1777896477625519  0.3133614416330526  0.1392675317183480
  0.3555971924730953  0.4953760204564481  0.7956974114420245
  0.4964827914202561  0.7918168275756559  0.8124403898127933
  0.6812492281256494  0.8470772288468114  0.2925702192921278
  0.2849260954862541  0.6218784793762306  0.3695785639352319
  0.2283439836578682  0.6423620091589620  0.7281675981748539
  0.7761328773686215  0.6248916552797262  0.4780039595584751
  0.9581659369203577  0.6522645371619198  0.3860680933558628
  0.8582654022597104  0.1204780167337887  0.0337002400975722
  0.7242036496115029  0.3653331948328440  0.1080927720480095
  0.2529762512895076  0.2483937862655797  0.6331118709730409
  0.8678593147408269  0.5597936998139839  0.8876309477481426
  0.8240200755067906  0.9668925574431886  0.1506199252704009
  0.8504388769318473  0.3017936240206346  0.6194445041251330
  0.7615886593481828  0.9460636424199105  0.6518515055130991
  0.8739792114370879  0.4210559719843203  0.7686223273567893
  0.6068669136461687  0.8018633151940660  0.6638502112093929
  0.8383059207282371  0.5733590581420017  0.2749118707945619
 
  0.00000000E+00  0.00000000E+00  0.00000000E+00
  0.00000000E+00  0.00000000E+00  0.00000000E+00
  0.00000000E+00  0.00000000E+00  0.00000000E+00
  0.00000000E+00  0.00000000E+00  0.00000000E+00
  0.00000000E+00  0.00000000E+00  0.00000000E+00
  0.00000000E+00  0.00000000E+00  0.00000000E+00
  0.00000000E+00  0.00000000E+00  0.00000000E+00
  0.00000000E+00  0.00000000E+00  0.00000000E+00
  0.00000000E+00  0.00000000E+00  0.00000000E+00
  0.00000000E+00  0.00000000E+00  0.00000000E+00
  0.00000000E+00  0.00000000E+00  0.00000000E+00
  0.00000000E+00  0.00000000E+00  0.00000000E+00
  0.00000000E+00  0.00000000E+00  0.00000000E+00
  0.00000000E+00  0.00000000E+00  0.00000000E+00
  0.00000000E+00  0.00000000E+00  0.00000000E+00
  0.00000000E+00  0.00000000E+00  0.00000000E+00
  0.00000000E+00  0.00000000E+00  0.00000000E+00
  0.00000000E+00  0.00000000E+00  0.00000000E+00
  0.00000000E+00  0.00000000E+00  0.00000000E+00
  0.00000000E+00  0.00000000E+00  0.00000000E+00
  0.00000000E+00  0.00000000E+00  0.00000000E+00
  0.00000000E+00  0.00000000E+00  0.00000000E+00
  0.00000000E+00  0.00000000E+00  0.00000000E+00
  0.00000000E+00  0.00000000E+00  0.00000000E+00
  0.00000000E+00  0.00000000E+00  0.00000000E+00
  0.00000000E+00  0.00000000E+00  0.00000000E+00
  0.00000000E+00  0.00000000E+00  0.00000000E+00
  0.00000000E+00  0.00000000E+00  0.00000000E+00
  0.00000000E+00  0.00000000E+00  0.00000000E+00
  0.00000000E+00  0.00000000E+00  0.00000000E+00
  0.00000000E+00  0.00000000E+00  0.00000000E+00
  0.00000000E+00  0.00000000E+00  0.00000000E+00
  0.00000000E+00  0.00000000E+00  0.00000000E+00
  0.00000000E+00  0.00000000E+00  0.00000000E+00
  0.00000000E+00  0.00000000E+00  0.00000000E+00
  0.00000000E+00  0.00000000E+00  0.00000000E+00
  0.00000000E+00  0.00000000E+00  0.00000000E+00
  0.00000000E+00  0.00000000E+00  0.00000000E+00
  0.00000000E+00  0.00000000E+00  0.00000000E+00
  0.00000000E+00  0.00000000E+00  0.00000000E+00
  0.00000000E+00  0.00000000E+00  0.00000000E+00
  0.00000000E+00  0.00000000E+00  0.00000000E+00
  0.00000000E+00  0.00000000E+00  0.00000000E+00
  0.00000000E+00  0.00000000E+00  0.00000000E+00
  0.00000000E+00  0.00000000E+00  0.00000000E+00
  0.00000000E+00  0.00000000E+00  0.00000000E+00
  0.00000000E+00  0.00000000E+00  0.00000000E+00
  0.00000000E+00  0.00000000E+00  0.00000000E+00
  0.00000000E+00  0.00000000E+00  0.00000000E+00
  0.00000000E+00  0.00000000E+00  0.00000000E+00
  0.00000000E+00  0.00000000E+00  0.00000000E+00
  0.00000000E+00  0.00000000E+00  0.00000000E+00
  0.00000000E+00  0.00000000E+00  0.00000000E+00
  0.00000000E+00  0.00000000E+00  0.00000000E+00
  0.00000000E+00  0.00000000E+00  0.00000000E+00
  0.00000000E+00  0.00000000E+00  0.00000000E+00
  0.00000000E+00  0.00000000E+00  0.00000000E+00
  0.00000000E+00  0.00000000E+00  0.00000000E+00
  0.00000000E+00  0.00000000E+00  0.00000000E+00
  0.00000000E+00  0.00000000E+00  0.00000000E+00
  0.00000000E+00  0.00000000E+00  0.00000000E+00
  0.00000000E+00  0.00000000E+00  0.00000000E+00
  0.00000000E+00  0.00000000E+00  0.00000000E+00
  0.00000000E+00  0.00000000E+00  0.00000000E+00
  0.00000000E+00  0.00000000E+00  0.00000000E+00
  0.00000000E+00  0.00000000E+00  0.00000000E+00
  0.00000000E+00  0.00000000E+00  0.00000000E+00
  0.00000000E+00  0.00000000E+00  0.00000000E+00
  0.00000000E+00  0.00000000E+00  0.00000000E+00
  0.00000000E+00  0.00000000E+00  0.00000000E+00
  0.00000000E+00  0.00000000E+00  0.00000000E+00
  0.00000000E+00  0.00000000E+00  0.00000000E+00
  0.00000000E+00  0.00000000E+00  0.00000000E+00
  0.00000000E+00  0.00000000E+00  0.00000000E+00
  0.00000000E+00  0.00000000E+00  0.00000000E+00
  0.00000000E+00  0.00000000E+00  0.00000000E+00
  0.00000000E+00  0.00000000E+00  0.00000000E+00
  0.00000000E+00  0.00000000E+00  0.00000000E+00
  0.00000000E+00  0.00000000E+00  0.00000000E+00
  0.00000000E+00  0.00000000E+00  0.00000000E+00
  0.00000000E+00  0.00000000E+00  0.00000000E+00
  0.00000000E+00  0.00000000E+00  0.00000000E+00
  0.00000000E+00  0.00000000E+00  0.00000000E+00
  0.00000000E+00  0.00000000E+00  0.00000000E+00
  0.00000000E+00  0.00000000E+00  0.00000000E+00
  0.00000000E+00  0.00000000E+00  0.00000000E+00
  0.00000000E+00  0.00000000E+00  0.00000000E+00
  0.00000000E+00  0.00000000E+00  0.00000000E+00
  0.00000000E+00  0.00000000E+00  0.00000000E+00
  0.00000000E+00  0.00000000E+00  0.00000000E+00
  0.00000000E+00  0.00000000E+00  0.00000000E+00
  0.00000000E+00  0.00000000E+00  0.00000000E+00
  0.00000000E+00  0.00000000E+00  0.00000000E+00
  0.00000000E+00  0.00000000E+00  0.00000000E+00
  0.00000000E+00  0.00000000E+00  0.00000000E+00
  0.00000000E+00  0.00000000E+00  0.00000000E+00
  0.00000000E+00  0.00000000E+00  0.00000000E+00
  0.00000000E+00  0.00000000E+00  0.00000000E+00
  0.00000000E+00  0.00000000E+00  0.00000000E+00
  0.00000000E+00  0.00000000E+00  0.00000000E+00
  0.00000000E+00  0.00000000E+00  0.00000000E+00
  0.00000000E+00  0.00000000E+00  0.00000000E+00
  0.00000000E+00  0.00000000E+00  0.00000000E+00
  0.00000000E+00  0.00000000E+00  0.00000000E+00
  0.00000000E+00  0.00000000E+00  0.00000000E+00
  0.00000000E+00  0.00000000E+00  0.00000000E+00
  0.00000000E+00  0.00000000E+00  0.00000000E+00
  0.00000000E+00  0.00000000E+00  0.00000000E+00
  0.00000000E+00  0.00000000E+00  0.00000000E+00
  0.00000000E+00  0.00000000E+00  0.00000000E+00
  0.00000000E+00  0.00000000E+00  0.00000000E+00
  0.00000000E+00  0.00000000E+00  0.00000000E+00
  0.00000000E+00  0.00000000E+00  0.00000000E+00
  0.00000000E+00  0.00000000E+00  0.00000000E+00
  0.00000000E+00  0.00000000E+00  0.00000000E+00
  0.00000000E+00  0.00000000E+00  0.00000000E+00
  0.00000000E+00  0.00000000E+00  0.00000000E+00
  0.00000000E+00  0.00000000E+00  0.00000000E+00
  0.00000000E+00  0.00000000E+00  0.00000000E+00
  0.00000000E+00  0.00000000E+00  0.00000000E+00
  0.00000000E+00  0.00000000E+00  0.00000000E+00
  0.00000000E+00  0.00000000E+00  0.00000000E+00
  0.00000000E+00  0.00000000E+00  0.00000000E+00
  0.00000000E+00  0.00000000E+00  0.00000000E+00
  0.00000000E+00  0.00000000E+00  0.00000000E+00
  0.00000000E+00  0.00000000E+00  0.00000000E+00
  0.00000000E+00  0.00000000E+00  0.00000000E+00
  0.00000000E+00  0.00000000E+00  0.00000000E+00
  0.00000000E+00  0.00000000E+00  0.00000000E+00
  0.00000000E+00  0.00000000E+00  0.00000000E+00
  0.00000000E+00  0.00000000E+00  0.00000000E+00
  0.00000000E+00  0.00000000E+00  0.00000000E+00
  0.00000000E+00  0.00000000E+00  0.00000000E+00
  0.00000000E+00  0.00000000E+00  0.00000000E+00
  0.00000000E+00  0.00000000E+00  0.00000000E+00
  0.00000000E+00  0.00000000E+00  0.00000000E+00
  0.00000000E+00  0.00000000E+00  0.00000000E+00
  0.00000000E+00  0.00000000E+00  0.00000000E+00
  0.00000000E+00  0.00000000E+00  0.00000000E+00
  0.00000000E+00  0.00000000E+00  0.00000000E+00
  0.00000000E+00  0.00000000E+00  0.00000000E+00
  0.00000000E+00  0.00000000E+00  0.00000000E+00
  0.00000000E+00  0.00000000E+00  0.00000000E+00
  0.00000000E+00  0.00000000E+00  0.00000000E+00
  0.00000000E+00  0.00000000E+00  0.00000000E+00
  0.00000000E+00  0.00000000E+00  0.00000000E+00
  0.00000000E+00  0.00000000E+00  0.00000000E+00
  0.00000000E+00  0.00000000E+00  0.00000000E+00
  0.00000000E+00  0.00000000E+00  0.00000000E+00
  0.00000000E+00  0.00000000E+00  0.00000000E+00
  0.00000000E+00  0.00000000E+00  0.00000000E+00
  0.00000000E+00  0.00000000E+00  0.00000000E+00
  0.00000000E+00  0.00000000E+00  0.00000000E+00
  0.00000000E+00  0.00000000E+00  0.00000000E+00
  0.00000000E+00  0.00000000E+00  0.00000000E+00
  0.00000000E+00  0.00000000E+00  0.00000000E+00
  0.00000000E+00  0.00000000E+00  0.00000000E+00
  0.00000000E+00  0.00000000E+00  0.00000000E+00
  0.00000000E+00  0.00000000E+00  0.00000000E+00
  0.00000000E+00  0.00000000E+00  0.00000000E+00
  0.00000000E+00  0.00000000E+00  0.00000000E+00
  0.00000000E+00  0.00000000E+00  0.00000000E+00
  0.00000000E+00  0.00000000E+00  0.00000000E+00
  0.00000000E+00  0.00000000E+00  0.00000000E+00
  0.00000000E+00  0.00000000E+00  0.00000000E+00
  0.00000000E+00  0.00000000E+00  0.00000000E+00
  0.00000000E+00  0.00000000E+00  0.00000000E+00
  0.00000000E+00  0.00000000E+00  0.00000000E+00
  0.00000000E+00  0.00000000E+00  0.00000000E+00
  0.00000000E+00  0.00000000E+00  0.00000000E+00
  0.00000000E+00  0.00000000E+00  0.00000000E+00
  0.00000000E+00  0.00000000E+00  0.00000000E+00
  0.00000000E+00  0.00000000E+00  0.00000000E+00
  0.00000000E+00  0.00000000E+00  0.00000000E+00
  0.00000000E+00  0.00000000E+00  0.00000000E+00
  0.00000000E+00  0.00000000E+00  0.00000000E+00
  0.00000000E+00  0.00000000E+00  0.00000000E+00
  0.00000000E+00  0.00000000E+00  0.00000000E+00
  0.00000000E+00  0.00000000E+00  0.00000000E+00
  0.00000000E+00  0.00000000E+00  0.00000000E+00
  0.00000000E+00  0.00000000E+00  0.00000000E+00
  0.00000000E+00  0.00000000E+00  0.00000000E+00
  0.00000000E+00  0.00000000E+00  0.00000000E+00
  0.00000000E+00  0.00000000E+00  0.00000000E+00
  0.00000000E+00  0.00000000E+00  0.00000000E+00
  0.00000000E+00  0.00000000E+00  0.00000000E+00
  0.00000000E+00  0.00000000E+00  0.00000000E+00
  0.00000000E+00  0.00000000E+00  0.00000000E+00
  0.00000000E+00  0.00000000E+00  0.00000000E+00
  0.00000000E+00  0.00000000E+00  0.00000000E+00
  0.00000000E+00  0.00000000E+00  0.00000000E+00
  0.00000000E+00  0.00000000E+00  0.00000000E+00
  0.00000000E+00  0.00000000E+00  0.00000000E+00
  0.00000000E+00  0.00000000E+00  0.00000000E+00
  0.00000000E+00  0.00000000E+00  0.00000000E+00
  0.00000000E+00  0.00000000E+00  0.00000000E+00
  0.00000000E+00  0.00000000E+00  0.00000000E+00
  0.00000000E+00  0.00000000E+00  0.00000000E+00
  0.00000000E+00  0.00000000E+00  0.00000000E+00
  0.00000000E+00  0.00000000E+00  0.00000000E+00
  0.00000000E+00  0.00000000E+00  0.00000000E+00
  0.00000000E+00  0.00000000E+00  0.00000000E+00
  0.00000000E+00  0.00000000E+00  0.00000000E+00
  0.00000000E+00  0.00000000E+00  0.00000000E+00
  0.00000000E+00  0.00000000E+00  0.00000000E+00
  0.00000000E+00  0.00000000E+00  0.00000000E+00
  0.00000000E+00  0.00000000E+00  0.00000000E+00
  0.00000000E+00  0.00000000E+00  0.00000000E+00
  0.00000000E+00  0.00000000E+00  0.00000000E+00
  0.00000000E+00  0.00000000E+00  0.00000000E+00
  0.00000000E+00  0.00000000E+00  0.00000000E+00
  0.00000000E+00  0.00000000E+00  0.00000000E+00
  0.00000000E+00  0.00000000E+00  0.00000000E+00
  0.00000000E+00  0.00000000E+00  0.00000000E+00
  0.00000000E+00  0.00000000E+00  0.00000000E+00
  0.00000000E+00  0.00000000E+00  0.00000000E+00
  0.00000000E+00  0.00000000E+00  0.00000000E+00
  0.00000000E+00  0.00000000E+00  0.00000000E+00
  0.00000000E+00  0.00000000E+00  0.00000000E+00
  0.00000000E+00  0.00000000E+00  0.00000000E+00
  0.00000000E+00  0.00000000E+00  0.00000000E+00
  0.00000000E+00  0.00000000E+00  0.00000000E+00
  0.00000000E+00  0.00000000E+00  0.00000000E+00
  0.00000000E+00  0.00000000E+00  0.00000000E+00
  0.00000000E+00  0.00000000E+00  0.00000000E+00
  0.00000000E+00  0.00000000E+00  0.00000000E+00
  0.00000000E+00  0.00000000E+00  0.00000000E+00
  0.00000000E+00  0.00000000E+00  0.00000000E+00
  0.00000000E+00  0.00000000E+00  0.00000000E+00
  0.00000000E+00  0.00000000E+00  0.00000000E+00
  0.00000000E+00  0.00000000E+00  0.00000000E+00
  0.00000000E+00  0.00000000E+00  0.00000000E+00
  0.00000000E+00  0.00000000E+00  0.00000000E+00
  0.00000000E+00  0.00000000E+00  0.00000000E+00
  0.00000000E+00  0.00000000E+00  0.00000000E+00
  0.00000000E+00  0.00000000E+00  0.00000000E+00
  0.00000000E+00  0.00000000E+00  0.00000000E+00
  0.00000000E+00  0.00000000E+00  0.00000000E+00
  0.00000000E+00  0.00000000E+00  0.00000000E+00
  0.00000000E+00  0.00000000E+00  0.00000000E+00
