Amorphous Sb                            
   1.00000000000000     
    21.2869625474341895    0.0000000000000000    0.0000000000000000
     0.0000000000000000   21.2869625474341895    0.0000000000000000
     0.0000000000000000    0.0000000000000000   21.2869625474341895
   Pb   Se
   150   150
Direct
  0.4997187782230638  0.0045962832375309  0.5134643663585461
  0.3780144961096560  0.5020750504143152  0.3750914275956186
  0.6405234467131802  0.8839395544385987  0.0416749422363484
  0.6698252240133935  0.2896926485776832  0.1860844404998014
  0.1554824539421382  0.6731354983876021  0.6164533033990174
  0.0000836302840256  0.2724285191937240  0.1483501317067349
  0.7788542883366122  0.4270255223061032  0.2022213326224652
  0.8732750333729171  0.9037694816213562  0.7146960969510651
  0.4114895874478102  0.2681713111264040  0.0250442439495777
  0.4164382454106215  0.2231534778341412  0.4169674849433158
  0.0911811608409021  0.1194837178886287  0.1867909022193840
  0.3740901759235621  0.8697955384467811  0.2658156787219703
  0.5843202122959561  0.7197630040654385  0.3206746306214476
  0.4096011145690721  0.6912373570564666  0.2936026050715403
  0.6307749227654244  0.1551547954197098  0.5332767303625502
  0.9852987207414575  0.6571262438305971  0.6729990305674501
  0.3752933898159449  0.1049874775271259  0.5818360356087590
  0.3106067037144938  0.2323614032774753  0.8501927221929689
  0.4552288928921208  0.3443713382981488  0.1693637286848950
  0.8116163206364831  0.4856538945915309  0.4094513381922694
  0.5204943923782691  0.3029527117106241  0.5281155209967680
  0.9821504064853883  0.4093214861395677  0.7653869250459397
  0.4316104190302164  0.5167091419776370  0.6672789759026337
  0.5308563773748916  0.5296712998573850  0.2415903492633619
  0.9219544784222390  0.3770845011489264  0.0046242897760203
  0.8246679848267503  0.9403413187184603  0.0871535200833833
  0.0032606933885843  0.0265537108565726  0.6168231993382384
  0.9205456503853302  0.6870311742982166  0.8479812749420841
  0.3958437551751168  0.8701091936947857  0.6826847584691588
  0.1750378651697475  0.7818649970776856  0.7669288617848619
  0.4999907066194553  0.8345785328521040  0.9544507253934280
  0.2433359245391727  0.1735307946970883  0.0647455080522621
  0.7976425629207085  0.3643037429649099  0.7339793484218199
  0.9311311888335649  0.1219239098204017  0.7685725669841923
  0.8676781613193456  0.6474166532883044  0.2373443081158708
  0.0546597557387766  0.4369525868557520  0.5389055634912643
  0.7715609636279128  0.2229402749776822  0.8315110663221522
  0.1229282171262168  0.9553688969751661  0.3846638709538145
  0.6039523041159254  0.2113878761389357  0.7144648077269861
  0.9754559933281757  0.6046424226851773  0.0650352550622951
  0.3374955952100378  0.5456392981034371  0.1915181595695261
  0.1726572917730363  0.3534211834362995  0.4235094428892901
  0.7157920322110513  0.0867267832285807  0.9621436609342613
  0.2353421318300935  0.9251433928446020  0.0342304442171158
  0.4300476837592981  0.3302832729452614  0.6777959621749908
  0.5836450417236828  0.2134647878003956  0.9790472013928062
  0.4281594836957430  0.4159395873339176  0.9405016509610999
  0.7227356799853302  0.8028128815229745  0.9110316974087489
  0.9914392788736702  0.5289445403380612  0.3389932571665071
  0.7866895121156298  0.0208087231998288  0.5050710116414778
  0.9178760501021543  0.2577644597990313  0.8647744421922278
  0.7787622376563581  0.9309503537480165  0.2937881974492767
  0.2796959037739932  0.9042437282981610  0.8483154251118825
  0.2590229929658278  0.7312891728696918  0.3449973084715061
  0.1780524517874055  0.3750663165838797  0.6744653366060047
  0.2527584072343191  0.9570862508018857  0.5755562835267265
  0.5967961319462718  0.4283413273688045  0.8262984132182318
  0.3758134188790150  0.0530504149469563  0.8746547305167933
  0.7419807693424285  0.2940929021799711  0.4711641863708430
  0.0548960407581566  0.8775053255085054  0.7455321722433692
  0.1300058002544485  0.7367715221329461  0.4428897806028815
  0.8535762676893649  0.7678459611082893  0.5898503037102804
  0.8096443237666636  0.4987049745002878  0.0198419304529301
  0.3134734385920341  0.5668275305371616  0.9175523657735577
  0.3023511136958385  0.1054961851724376  0.3583651883719468
  0.8526763258195752  0.7103161908080462  0.0040577568694616
  0.0012791191989569  0.2355260856441097  0.6230213209680773
  0.2688624426905999  0.7125187612049037  0.8547363845794452
  0.5732398540594320  0.7346554515508659  0.6774477846321499
  0.5181732902615133  0.1612910535087432  0.1679914925169640
  0.1794547226168503  0.6638881777548509  0.0005605661301888
  0.3331969124028820  0.1686354638990087  0.2106517664079487
  0.8167683184452516  0.2171286147846052  0.0693115571321299
  0.3071827713861689  0.4250161741179686  0.7921087011404788
  0.3664911401525403  0.6926715916819862  0.6913192314150831
  0.0380740235810055  0.7597512529221075  0.0952959123754418
  0.9632634175002296  0.9142029610324655  0.2927909224613393
  0.7519183185462384  0.7831359208688479  0.7571739687410357
  0.9247468493266428  0.0832330865988167  0.0164107314615609
  0.9239340911279877  0.9565063157084893  0.8863676977912680
  0.1764427451006390  0.3898098721404387  0.2265822628188980
  0.2411322134875592  0.0063439036683233  0.2104670127241207
  0.3495175500941811  0.3323003459330217  0.3136509676985667
  0.7418399864449243  0.0113880996589323  0.8051654627818072
  0.4755721318127317  0.2015436225777522  0.8032573384136763
  0.5847348521015272  0.8952492912623293  0.2352015261182415
  0.8230629393430192  0.5273971800981059  0.8444503115552682
  0.3429113400069364  0.7430916432273275  0.0628100160447090
  0.2790146399895910  0.3896651990334685  0.0735010943306608
  0.6199577378514399  0.5292163597538371  0.6834824057193327
  0.6608899588871185  0.8736853430778406  0.5846885062041366
  0.4421515657846587  0.0387699995802842  0.7150198118185690
  0.1264139830327413  0.0557814506850546  0.9440029757382040
  0.5308285827919513  0.7217708829705055  0.1105599089336213
  0.7135607518300288  0.3670818901127988  0.9298194309374412
  0.6506911596569048  0.6220135508967477  0.9528693683153814
  0.8605452449022929  0.4763825851307134  0.5904331029337885
  0.6839651522931928  0.4152178436356612  0.5901070104154746
  0.3093730175968015  0.7564374847229225  0.5296899918411838
  0.5558826385169203  0.0500988316441190  0.9417429453372441
  0.5051884348552929  0.4869134142502796  0.5077465054510628
  0.1596017861136937  0.3981242298049827  0.9025631115453701
  0.9712802262112356  0.7424132865382179  0.3308315789639814
  0.7928202465828226  0.2032821143423378  0.6494254818826454
  0.4853218091015117  0.0541618554075965  0.3329448587732366
  0.1819169310411296  0.0263661353890891  0.7405116076696543
  0.0527904378282273  0.5783826181131190  0.8837053979666506
  0.8160690004446961  0.6306488866254290  0.7143732721633016
  0.8550369367049704  0.2758344699129844  0.2678832808395823
  0.1906555855781095  0.5395932178122244  0.4141744002556992
  0.0734709209000307  0.2520087737871594  0.9952849816661904
  0.5797504851823380  0.9139869879759239  0.7818862587963512
  0.7387031733998450  0.7842502700969027  0.1886663871655216
  0.0339197312941228  0.1191815576853966  0.3675951103410989
  0.0950162639638282  0.8096813748794774  0.9160314447099472
  0.1759975514377305  0.8059523616884162  0.1995347530309799
  0.0773221873781741  0.8685260143498692  0.5417095628717972
  0.5940529860901954  0.3204833677773177  0.3437228262011219
  0.6457196089343807  0.5345505096466844  0.4237181260913776
  0.2712756264636296  0.5408397567756640  0.5880295446072461
  0.5797195425598486  0.4157058194731100  0.0631218371000586
  0.1483777014564750  0.6019254364348046  0.2466620314384129
  0.4952220613033172  0.6746591668996020  0.8430320130015595
  0.6802221351779957  0.0592362181555005  0.1721929625010354
  0.8894417940508504  0.1016414130902943  0.2480311768726072
  0.3147393017149302  0.3403540485485070  0.5278456543702031
  0.9574761459698375  0.4456622915349260  0.1742498770460906
  0.1022718955029476  0.5112268815229289  0.0829957182765317
  0.3141865174448697  0.9135333747884806  0.4148499472423549
  0.2123983868766869  0.1800633476946016  0.6901105206565423
  0.4701495560650991  0.6777560509820545  0.4883937009375336
  0.9698063512939242  0.3495026385606876  0.3815316250397679
  0.9102960524060030  0.8890379519803405  0.4564110725216212
  0.1644208505159655  0.1427852208030721  0.4816797954878969
  0.4474223133497111  0.5720732605532257  0.0367933701644263
  0.6843054153474432  0.6785113417257244  0.5247902664155817
  0.4339678793245204  0.9872168765981338  0.1058318497042120
  0.9845153251874167  0.6241111851228032  0.4975967664697309
  0.7280614940936011  0.1636022478061431  0.3398777618562406
  0.4851620361469597  0.8474891329069388  0.4932884573707180
  0.1061827603924093  0.2149000710876564  0.8239697209936502
  0.7891162066713407  0.7585849850526807  0.4133383196916995
  0.6805353571694291  0.5628206680921795  0.1484194823639972
  0.1252563225054412  0.2542767970020963  0.3190869547207004
  0.7300599117434051  0.6214816376809104  0.3075235259760431
  0.1670014699010167  0.5552070693306609  0.7199187072989047
  0.9106574619272769  0.1646545931608118  0.4819223500938080
  0.6182096704666462  0.0252261960259419  0.6651283962102784
  0.0440759021418241  0.9490414382160781  0.1160688731640039
  0.6479922196308617  0.9229511879619042  0.3994407858860705
  0.9339041967782319  0.5321828508306636  0.9576204221286325
  0.5733504824282112  0.3648612533096550  0.9366969243749426
  0.2920060209145834  0.4317881929756674  0.9266088095045854
  0.6174537047410507  0.7616717876458573  0.9883354185588505
  0.8802750376908380  0.1009495541405413  0.6366130005288049
  0.8086130021822920  0.3461244979403512  0.5800732027959270
  0.0999425976968067  0.4698512959986267  0.8017244778666545
  0.1482896812685564  0.0358030809032333  0.0908159191992340
  0.2997668943687319  0.6193994579701716  0.0457845101486973
  0.6534759472507261  0.9485974519804121  0.8979010020933321
  0.6880144774029687  0.5016358555558433  0.8885527879221167
  0.9376046158449876  0.4747711258526932  0.4766921513936886
  0.7483914885418421  0.6184579419973915  0.0347433170739354
  0.8572448626530442  0.3367984812055144  0.1299061256973590
  0.6458421475451266  0.6827272047078266  0.1960888607588018
  0.4257055863317724  0.3919559309922283  0.4360036982920215
  0.5350452974974316  0.9215990343383675  0.6340641485630625
  0.7833616785943012  0.1608387808064277  0.5135033860671415
  0.2008698380521752  0.4969113615200726  0.1567035429846079
  0.4386705228414639  0.1956238207377429  0.2838565202625070
  0.7747355804291295  0.8763813702219335  0.4813999103430048
  0.9343367155624381  0.5768641461294023  0.7623764965856650
  0.1196147272334755  0.8571788513329269  0.0406912814828081
  0.0016012231018991  0.5712227213393729  0.2194427902637551
  0.1967457076642974  0.4483423486969285  0.5237469290794398
  0.7571456748915520  0.4982710480329908  0.7212173790973178
  0.2060821273759000  0.2686398316563123  0.5972351134360812
  0.8540017143318918  0.6124206043053197  0.3766717854086496
  0.8725151652650581  0.9669313844319377  0.2049740899537420
  0.9064776684235797  0.7096584332269363  0.1242653973401569
  0.2712957929122234  0.2531491955931467  0.4075615195323316
  0.6863989975200109  0.0263093297721612  0.3116910801546851
  0.9708703905422735  0.9922504857110557  0.7527909768956045
  0.1466986432968428  0.9340734410438349  0.8222730712623658
  0.8564091980563483  0.2516903786128641  0.4011291507128547
  0.9305195461913541  0.2449122753876306  0.0007670172638626
  0.2106164631879127  0.8415721674486063  0.4833527389888034
  0.7174935820589858  0.2283097212023742  0.9577204992162667
  0.4106261056016881  0.3348917337514027  0.8195774434696316
  0.4079324920140110  0.0911133641698011  0.4527155208420264
  0.5790833323203239  0.7617618960450155  0.4564866505387745
  0.5247275933697690  0.4271506497691288  0.6370670789372350
  0.5905279406206224  0.5886696433572898  0.5591919784002802
  0.8850975590352251  0.7572255807362620  0.7205537899986163
  0.5375610626119240  0.0309560493257891  0.2010209585402960
  0.8503055564714463  0.7889479070244444  0.2935316640702901
  0.3916684156548869  0.5621425906086723  0.5426723432425472
  0.3900795130853246  0.7506562850893408  0.8078465293719856
  0.5754497629925268  0.3883374742197933  0.2150785807972961
  0.6478349709691889  0.9976015955071406  0.5292623611395124
  0.4508199896666433  0.7614751028881080  0.6048209352010269
  0.6257112268080495  0.4037174804644258  0.4758771277348352
  0.5095540872797497  0.8673702439777169  0.0899106915259955
  0.2883691832816587  0.5587611770995493  0.7659231430453292
  0.8549261238871833  0.3804520257532870  0.8687867244702910
  0.2514969466280607  0.0140875384796822  0.9044064583019504
  0.9178338200567709  0.7525508851118299  0.4548843986581307
  0.0441696972687956  0.8429461216907379  0.2072943084932153
  0.4515568272340305  0.7081145296969837  0.9941217741990876
  0.6782811645200212  0.8159174622712243  0.3057969305920584
  0.3938251619597937  0.7701279290442025  0.4213823653377476
  0.5111519945956337  0.9362005685581281  0.3891198651754331
  0.3949195937577404  0.1456632812399523  0.0864450321077430
  0.6007041177832009  0.7783767899033137  0.8068136818823204
  0.8799210271910665  0.6297098859754112  0.5914914043397590
  0.0537516329897490  0.5479706120035134  0.6046078034702234
  0.7514373643409612  0.5224016870484081  0.5327511785595581
  0.2753637475091419  0.5946691147814004  0.3182743371649396
  0.0827467358201221  0.4350691410392764  0.3395497393180191
  0.0399663351971580  0.3545271449835521  0.6570167320711715
  0.4897529533548775  0.7915851319472637  0.2463593392359993
  0.7815929878352575  0.1719555956667650  0.2192662378993717
  0.2132598735955490  0.3107430099117277  0.8034102290634517
  0.2316464580917816  0.6374367355077634  0.5070777163780794
  0.3732693405746990  0.0139196388702190  0.2721683272893169
  0.4046209410313864  0.4394649827579423  0.0915297997692513
  0.9131001064379688  0.2588953280754039  0.7253912111812264
  0.6138347202100465  0.2036175855998156  0.2757466392601674
  0.8143247238820928  0.8949626899414519  0.8345482510710028
  0.0657370636875563  0.2355969899844912  0.4326368203163940
  0.3061609884878227  0.7511662169424501  0.2269194229397616
  0.1254715364368327  0.9423178087570832  0.6408589226054582
  0.3793965995702922  0.9354080227683920  0.5373799194018130
  0.7283620167106956  0.3282897504005391  0.3208166179320795
  0.7803791505098748  0.6780626039751988  0.8585300010684167
  0.0116738596489421  0.1387065646971999  0.8905576093021602
  0.5595407556321439  0.2126023964573538  0.4339145712685954
  0.7153328250763042  0.4046305296045603  0.0661745724046951
  0.4518957433670225  0.6235930946823022  0.1774284068132237
  0.1689262250476656  0.1362738226002250  0.3017371070242482
  0.2906966081100982  0.2943580798296407  0.1880340508597092
  0.5277007771046649  0.1161548738176872  0.6179013798020669
  0.1328681093975243  0.6587736641484957  0.1213396220176782
  0.6100250165178442  0.1092467356744868  0.0656190771741426
  0.7106276896851202  0.1427513098954491  0.7378790163678133
  0.1881844799812498  0.1711998900237909  0.9296716834663803
  0.0325596890346987  0.3275963737986600  0.8706235397964599
  0.6972256981389584  0.4956280219983228  0.3029645426203075
  0.9974642501517359  0.2382854857634171  0.2830723167974280
  0.0311306207770955  0.6922704835833228  0.9642051392492639
  0.0530948817641919  0.7321417959222190  0.5635710340420592
  0.9201979811226816  0.0378669096211376  0.4229132972762170
  0.9763142605543710  0.8350587603455532  0.8623710584016070
  0.2584329115884316  0.7556443113617888  0.6598170872758553
  0.0389418477048473  0.8420423655172966  0.4068210245506179
  0.4546933936185257  0.9721025029632722  0.9668029609282187
  0.8576173706945980  0.5317587308434722  0.1468439576056685
  0.7193902188220578  0.7324358163051122  0.6423343102650749
  0.5386385848192949  0.0833130071179994  0.7994604196711503
  0.2729940356751306  0.8046641347329887  0.9592205643187647
  0.2414857913637656  0.0219480783931573  0.4428595846829070
  0.6380405957915158  0.2735405315331004  0.5922390870726350
  0.7928067896460654  0.0767937480013711  0.0625345773699120
  0.8047474089389095  0.0202459702380398  0.6573516850762983
  0.9490971320549073  0.8952384538420978  0.5922263902561516
  0.2168488771576376  0.9010874572727068  0.2928860017375702
  0.7211614816669537  0.9113187652550783  0.6925603186643569
  0.1512402464005813  0.5294223569235242  0.9627790292882101
  0.1269243554629320  0.7277352938970361  0.2969458608813094
  0.7776951797867669  0.8185617819831855  0.0392538297622462
  0.4439432859270423  0.9211959373778127  0.7978430418473222
  0.4544931960683271  0.5367877248729185  0.9015501785593946
  0.5580453329128567  0.2766959008725086  0.0881892953963783
  0.5874776426635665  0.5715431970783912  0.0576957453245147
  0.3920670011451374  0.2464378498316946  0.5775894480208408
  0.2489828034761453  0.4248914529909055  0.3233026671761672
  0.0685660643075226  0.1346493010532302  0.7041910058479838
  0.4167988442927552  0.4490465296181968  0.2614315914495966
  0.1115704492537901  0.6628409090429410  0.7814543254790670
  0.8182704988308225  0.0472733186052739  0.3655891960967743
  0.2844770663196638  0.2808534182880110  0.9928227975128183
  0.5047367470795799  0.5816111395572673  0.3654974622637964
  0.7002716059662487  0.9249297032960391  0.1683727291694555
  0.3666092520675844  0.1496025257641478  0.7539728260676238
  0.3044182024582769  0.9711036107046431  0.7135082688791858
  0.6790748912868497  0.3241534627016517  0.7869239894290921
  0.2374048935293672  0.1022488449011155  0.5954263990010199
  0.3080803940574741  0.9161373918110783  0.1409625076396026
  0.3335701682377494  0.4166862232064653  0.6467344109910811
  0.8977021602372928  0.4234885398048829  0.2929871485924267
  0.9583316691262662  0.1443488730689352  0.1420493706696608
  0.5206881331108639  0.6177580973801741  0.7253899700003855
  0.4436321550109751  0.1680066916237457  0.9269089097958902
  0.9526217404229588  0.9551738163772084  0.0212325147407761
  0.0697505056805926  0.0510371392842712  0.4882558294774734
  0.1338806513049025  0.2327947462347507  0.1214662820194782
  0.0537326236242772  0.3818389102876498  0.0443986752300034
  0.0731666071006467  0.6137889904232756  0.3946018888133100
  0.0542188975039495  0.0077835841332689  0.2809349959297747
  0.8270448834355519  0.0945542548770676  0.8885691658953409
 
  0.23962902E-03 -0.48913839E-03  0.13272404E-02
 -0.25598955E-02  0.25918214E-03 -0.12936681E-02
 -0.48408519E-03 -0.13886034E-04 -0.19561312E-02
 -0.74898804E-03  0.14457911E-02  0.83338689E-03
 -0.74524263E-03 -0.34210005E-03 -0.20142868E-02
  0.22503701E-03  0.14980536E-02 -0.34264960E-03
  0.23452219E-02 -0.15830222E-02 -0.15586624E-02
  0.19635689E-02 -0.15762484E-02  0.13442277E-02
 -0.14286257E-03  0.57826002E-03  0.96200990E-03
  0.17685186E-02 -0.65763123E-03 -0.15625903E-02
  0.25448801E-04 -0.24131738E-02 -0.94700915E-03
  0.80922354E-03  0.30257087E-04 -0.63137237E-03
  0.11876333E-02  0.76334022E-03  0.42445937E-03
  0.52537843E-03  0.52320963E-03 -0.19529435E-02
  0.66973211E-03  0.22800294E-03 -0.15541058E-02
  0.12926364E-02 -0.72439837E-03 -0.56437671E-03
 -0.64961044E-03 -0.27983624E-03 -0.10088483E-03
  0.89924727E-03  0.45222703E-03 -0.65054293E-03
  0.51328779E-03 -0.17089381E-02 -0.49008538E-03
 -0.17933808E-03 -0.24146750E-03  0.93813414E-04
 -0.80446683E-03 -0.90253421E-03  0.23466134E-02
 -0.59449339E-04  0.11168899E-03  0.29661849E-03
 -0.33062267E-03  0.51377122E-03 -0.11341625E-02
 -0.85305015E-03  0.13159216E-02  0.13702161E-02
 -0.14469591E-03  0.95312049E-03  0.12839476E-02
  0.16927212E-02 -0.13979928E-03 -0.81191026E-03
 -0.14929506E-02  0.38743149E-03  0.14233188E-02
  0.12389271E-03  0.15579332E-02 -0.15947267E-02
  0.23023406E-03 -0.86088596E-03 -0.11899180E-02
  0.81676405E-03  0.27448528E-03 -0.11792789E-02
 -0.56308707E-03 -0.88218254E-03 -0.32400966E-03
 -0.11072005E-02  0.16701154E-03  0.45538290E-03
 -0.11747601E-02 -0.89050042E-03  0.11618729E-02
  0.69849615E-03  0.13005626E-02  0.23075838E-03
  0.12302599E-02 -0.40980053E-03  0.31154396E-02
  0.68382856E-03 -0.12615067E-03 -0.15923600E-02
 -0.27489602E-02 -0.27120099E-02 -0.17763654E-03
  0.98319215E-03  0.13429567E-02  0.73985998E-03
  0.46376285E-03  0.35541194E-03  0.35184012E-03
  0.45613522E-03 -0.28639615E-03  0.74769338E-04
  0.64354582E-03  0.19600085E-03 -0.54486730E-03
 -0.17963965E-02  0.18965485E-03 -0.10652451E-02
 -0.28864453E-03 -0.63384500E-03  0.20790622E-02
 -0.32413965E-02  0.74589194E-03 -0.10220994E-02
  0.31383523E-03 -0.17512988E-02  0.67301292E-03
 -0.34196286E-03 -0.71267604E-03  0.21206153E-02
 -0.12389345E-02  0.72794961E-03  0.67681300E-04
 -0.76975342E-04 -0.19094422E-02 -0.56951154E-03
  0.11912264E-02  0.86619518E-03  0.97425636E-03
 -0.10378967E-02 -0.76452109E-03 -0.12947043E-02
  0.21616488E-02  0.54844696E-03  0.44451626E-03
 -0.16994460E-02  0.31991788E-04  0.97360040E-03
  0.20454039E-03 -0.11276490E-02 -0.35432461E-03
 -0.78150552E-03 -0.12360425E-02  0.88616598E-03
 -0.17193021E-02  0.60063383E-03  0.11585894E-02
 -0.20941937E-03 -0.61156051E-03  0.68138219E-03
 -0.10260855E-02 -0.41527545E-03  0.16699512E-03
 -0.48956435E-03 -0.69864286E-03  0.18746223E-02
 -0.73111793E-03  0.38144915E-03 -0.16102110E-03
  0.14776603E-05 -0.13324254E-03  0.58016308E-03
 -0.26661225E-03 -0.43952175E-03 -0.37273324E-03
  0.93915467E-03 -0.17214277E-02  0.20975880E-03
  0.10872636E-03  0.10107701E-02 -0.82351752E-03
  0.96161604E-03 -0.31919253E-03  0.57435490E-03
 -0.81938201E-03  0.88032561E-03  0.85261881E-03
  0.12521087E-02  0.33415143E-03 -0.34489938E-03
  0.18810325E-02  0.19424193E-02  0.10182855E-02
 -0.21062241E-02  0.12354413E-03  0.25796513E-03
  0.36291822E-03 -0.69279621E-03  0.10747135E-02
  0.89134317E-03 -0.20671542E-03  0.52391978E-03
  0.66419130E-03 -0.10290801E-02  0.30470917E-03
 -0.47978266E-03  0.20208578E-02 -0.29900501E-03
  0.93124037E-03 -0.11705505E-02  0.46559538E-03
 -0.10868899E-02  0.38139182E-03 -0.21712578E-02
 -0.85222152E-03 -0.40773886E-03 -0.33298815E-03
  0.73548126E-03 -0.36260640E-03 -0.21876436E-03
  0.85038240E-04  0.61840566E-04  0.56653655E-03
 -0.91149755E-03  0.11771138E-02 -0.10113037E-02
 -0.13334200E-02  0.13262899E-02  0.49551783E-03
 -0.45324667E-03 -0.93483844E-03 -0.14211786E-02
  0.35168213E-03 -0.19721826E-02 -0.19357438E-03
 -0.71444267E-03 -0.81464683E-03  0.10966509E-02
  0.45571110E-03  0.15232324E-02  0.10642358E-02
  0.14851598E-02 -0.63651302E-04  0.19602232E-04
  0.42828295E-03 -0.42076158E-04 -0.18354180E-02
  0.22308332E-02  0.46586674E-03  0.16378639E-02
 -0.16080310E-02  0.24493773E-02 -0.66291685E-03
 -0.11534684E-02 -0.23806472E-02 -0.17250591E-02
  0.28097208E-02  0.41031208E-03  0.28412741E-04
  0.32216665E-03  0.43446439E-03  0.31440023E-03
 -0.10224324E-03 -0.12527644E-03  0.83706439E-03
 -0.17070979E-03 -0.11121073E-02 -0.49244539E-03
  0.36646058E-03  0.25764633E-02  0.22801218E-02
 -0.94266011E-04  0.19554432E-02  0.72651005E-03
 -0.43080039E-03  0.57377477E-03 -0.19030508E-02
  0.14375181E-02 -0.12762896E-02 -0.62199237E-03
 -0.14933660E-02  0.97239598E-04 -0.12234300E-02
  0.44055821E-03  0.65626794E-03  0.11178788E-02
 -0.77795207E-03  0.11910401E-02  0.13486593E-02
 -0.19023556E-02 -0.10657332E-03  0.50671849E-03
  0.20749044E-02 -0.24398489E-02 -0.50257208E-04
  0.14313978E-02 -0.90873839E-04 -0.38137419E-03
  0.67052856E-03 -0.28694347E-03  0.68824291E-03
  0.44832773E-03  0.46134181E-03 -0.19753876E-03
 -0.11669220E-02  0.30370087E-04  0.65895086E-03
  0.10998290E-02  0.14894139E-02  0.75069127E-03
  0.54199940E-03  0.66839614E-03 -0.46579957E-04
 -0.30542337E-03 -0.40881670E-03 -0.26567030E-04
 -0.82416406E-03 -0.10748903E-02  0.25279448E-02
 -0.68802026E-03  0.63352365E-03 -0.11208638E-02
  0.22925799E-03  0.63964389E-03 -0.35595483E-03
 -0.56535282E-03 -0.14142979E-02  0.12398636E-02
  0.11051147E-02  0.11370994E-02 -0.49801780E-03
  0.11699772E-04 -0.15671830E-02  0.22607398E-02
  0.10007055E-02 -0.16762593E-02  0.41496419E-03
 -0.53032597E-03  0.49237540E-03 -0.11468172E-02
  0.48797231E-03  0.12663804E-02 -0.93314141E-03
  0.15946402E-04  0.42486834E-03 -0.25544227E-03
 -0.27545336E-03 -0.20854544E-03  0.40290074E-03
 -0.42723284E-03  0.15004752E-02 -0.53744230E-03
  0.65665497E-03 -0.31070182E-03 -0.21993120E-03
  0.37038231E-03 -0.73458494E-03 -0.16357446E-03
  0.88802705E-03  0.24388929E-02  0.16810886E-03
  0.36564890E-03 -0.27546841E-02  0.28625750E-03
 -0.23156711E-02  0.49784936E-03 -0.28220834E-03
 -0.58474740E-03  0.78173711E-05 -0.31656556E-03
  0.15901313E-02  0.23771929E-02  0.83336434E-03
  0.13929360E-02  0.26124140E-03 -0.34095189E-03
  0.11734626E-02  0.59512703E-03  0.17251104E-02
  0.29435841E-03 -0.41213181E-03 -0.21409740E-03
 -0.87991816E-03  0.24829516E-03 -0.17382904E-02
  0.57514552E-03 -0.13005824E-02  0.11505626E-02
 -0.14172597E-02 -0.79617475E-03 -0.32881730E-02
  0.36120711E-03 -0.80686647E-03  0.10918614E-02
 -0.53678791E-03  0.40382826E-03 -0.69839556E-03
  0.12631992E-02  0.64693049E-03 -0.80777685E-03
  0.83651827E-04  0.15253422E-02 -0.13361215E-03
  0.18080267E-02 -0.39772842E-03 -0.10986436E-02
  0.11048810E-02  0.24975947E-03  0.31084797E-03
  0.44711161E-04  0.83553569E-03  0.43804055E-03
 -0.52662350E-03  0.22832012E-02 -0.25982065E-03
  0.10669991E-03 -0.20288854E-03  0.11720336E-02
 -0.36941016E-03 -0.22992226E-02 -0.37442544E-03
 -0.79692730E-03 -0.13833416E-03  0.40432574E-03
 -0.13361945E-02  0.71384513E-03  0.13668164E-02
 -0.18959707E-02  0.16340900E-02 -0.21485578E-03
  0.23027378E-03  0.91850126E-03  0.19409899E-02
 -0.55831591E-03 -0.27984577E-03 -0.56609959E-03
  0.18186203E-02 -0.12500427E-02 -0.10942069E-02
  0.71007501E-03  0.11893563E-03 -0.33010164E-03
 -0.21111936E-02 -0.26460395E-02  0.49654180E-03
  0.11986858E-02 -0.18547451E-02  0.36509042E-03
 -0.18002862E-03  0.19634282E-03  0.22465557E-02
 -0.23166313E-02 -0.27782006E-03  0.10132553E-02
 -0.19544505E-02  0.23376347E-02 -0.57506248E-04
  0.16849392E-02  0.89955270E-03 -0.29150054E-03
  0.32547473E-03 -0.13675068E-02 -0.23682175E-02
 -0.22132768E-02 -0.55859627E-03  0.16943297E-02
  0.11145307E-02  0.18215143E-03  0.17392013E-02
  0.19424798E-03  0.14414755E-02 -0.18320434E-02
 -0.25606657E-02  0.17513273E-02 -0.60403951E-03
  0.52292580E-03 -0.23418296E-02  0.19652868E-02
  0.15725164E-02  0.12291676E-02 -0.53920420E-03
  0.26735424E-02  0.14871712E-02 -0.10906596E-02
 -0.13682475E-02 -0.29957123E-02  0.19804723E-02
 -0.16688111E-02  0.33318547E-03 -0.16839934E-02
  0.10826490E-02  0.20357846E-02 -0.10494158E-03
  0.14437646E-02  0.27533378E-03 -0.23218452E-02
 -0.66711819E-03  0.11641237E-02  0.20581598E-02
  0.34169894E-02  0.50262453E-03  0.31417445E-02
 -0.10310278E-02  0.33306629E-02  0.65300415E-03
  0.69360835E-03  0.19093742E-02  0.39292041E-04
  0.89418568E-03 -0.11637233E-03  0.27902227E-03
  0.13457367E-02 -0.48197573E-03  0.40689721E-02
 -0.73067797E-03 -0.61123850E-03 -0.12861734E-03
 -0.11735647E-03  0.26397138E-03 -0.18932935E-02
 -0.15928662E-02 -0.55365192E-03 -0.85691693E-03
  0.12653613E-02 -0.28401401E-02  0.10062153E-02
 -0.31177672E-02  0.44360276E-03  0.18221007E-02
  0.14786342E-02  0.10502377E-02 -0.83574219E-03
  0.53301801E-03  0.19811343E-03  0.14884056E-02
  0.21615287E-02 -0.86616031E-03  0.36620139E-02
 -0.58056784E-03 -0.28283331E-03  0.51617816E-04
  0.22197456E-02 -0.46512967E-02 -0.50466604E-03
 -0.10972264E-03 -0.18186605E-02  0.22146278E-02
 -0.23415801E-02  0.37371309E-03  0.18235011E-02
  0.91892579E-03 -0.24004735E-02  0.10297652E-02
 -0.12643455E-02 -0.11136366E-02  0.21148012E-03
  0.76052804E-03  0.13463115E-02 -0.20658445E-02
  0.12192197E-02 -0.50220342E-03 -0.13842995E-02
 -0.59326839E-04  0.11618053E-02 -0.29224521E-02
 -0.32153317E-03  0.15837927E-02  0.14654308E-02
  0.30297317E-02  0.65046970E-03 -0.37071220E-02
 -0.33161110E-02  0.24035374E-02  0.17708003E-02
  0.85939435E-04 -0.99366306E-03 -0.91591692E-03
  0.13427614E-02  0.26517567E-03 -0.70161012E-03
  0.87830180E-03 -0.95211815E-03  0.10168868E-02
  0.57419092E-03  0.25718095E-02 -0.57348881E-04
 -0.48414448E-03 -0.97419453E-03 -0.10195161E-02
 -0.92902645E-03 -0.91476869E-03  0.28466729E-02
  0.27823001E-02  0.16195308E-02  0.59169158E-03
 -0.21033421E-02  0.10746912E-02  0.40976463E-02
  0.14429956E-02 -0.53671281E-03  0.16285173E-02
  0.10232256E-02 -0.14971123E-02  0.49650750E-03
 -0.12625594E-02  0.14495582E-02 -0.33744739E-02
  0.14020916E-02  0.13042839E-02  0.18313019E-02
 -0.18041643E-02 -0.26310436E-02  0.16598520E-02
 -0.27747202E-02 -0.14283115E-04 -0.39443901E-02
  0.10831923E-02  0.11443110E-02  0.78064130E-03
 -0.83889511E-03 -0.28728094E-03  0.11777109E-03
  0.17611417E-02 -0.62067896E-03 -0.15831160E-02
 -0.32060117E-02 -0.17706742E-02  0.29619936E-02
 -0.83770095E-03 -0.12979303E-02  0.14278852E-03
 -0.38982235E-03  0.57616689E-03 -0.65349959E-04
  0.23762054E-02 -0.18433899E-02 -0.17331231E-03
 -0.70421393E-03 -0.20181160E-02  0.37998861E-03
 -0.21716125E-02 -0.50070583E-02 -0.36350980E-02
 -0.26156378E-02 -0.17869804E-02 -0.34634357E-03
  0.20828997E-02  0.20387594E-02  0.17219484E-02
  0.11834640E-02  0.35912673E-03 -0.30025314E-03
  0.13003773E-03  0.19073478E-02  0.52962242E-03
 -0.23860458E-02  0.82726400E-03  0.16293075E-03
  0.27011084E-02 -0.32524063E-03  0.48450732E-03
 -0.27631073E-02  0.31812248E-02 -0.65610812E-03
 -0.24334937E-02  0.13788934E-02 -0.23594223E-02
  0.67008522E-03  0.13714620E-02 -0.27053799E-02
  0.26873130E-03  0.70895794E-03 -0.12896496E-02
  0.52245341E-03 -0.21229340E-02  0.25245951E-03
 -0.54347125E-03  0.65065696E-03  0.93705962E-03
 -0.33622282E-02  0.19479108E-02  0.22399853E-02
  0.12466844E-02 -0.60010372E-03  0.86217714E-03
  0.96452744E-03  0.84317862E-03 -0.14335208E-02