Sn4 Se4                                 
   1.00000000000000     
     4.2926187515000001    0.0000000000000000    0.0000000000000000
     0.0000000000000000    4.3221321106000001    0.0000000000000000
     0.0000000000000000    0.0000000000000000   12.0948667525999998
   Sn   Se
     4     4
Direct
  0.2500000000000000  0.5224815609999993  0.3704865569999996
  0.7500000000000000  0.0224815529999987  0.1295134280000028
  0.2500000000000000  0.9775184390000007  0.8704865569999996
  0.7500000000000000  0.4775184390000007  0.6295134430000004
  0.2500000000000000  0.5041785840000017  0.1438063530000022
  0.7500000000000000  0.0041786219999977  0.3561936320000001
  0.2500000000000000  0.9958214159999983  0.6438063379999974
  0.7500000000000000  0.4958213569999970  0.8561936620000026
 
  0.00000000E+00  0.00000000E+00  0.00000000E+00
  0.00000000E+00  0.00000000E+00  0.00000000E+00
  0.00000000E+00  0.00000000E+00  0.00000000E+00
  0.00000000E+00  0.00000000E+00  0.00000000E+00
  0.00000000E+00  0.00000000E+00  0.00000000E+00
  0.00000000E+00  0.00000000E+00  0.00000000E+00
  0.00000000E+00  0.00000000E+00  0.00000000E+00
  0.00000000E+00  0.00000000E+00  0.00000000E+00
