Amorphous GeAsSeSi                      
   1.00000000000000     
    20.3865499336000013    0.0000000000000000    0.0000000000000000
     0.0000000000000000   20.3865499336000013    0.0000000000000000
     0.0000000000000000    0.0000000000000000   20.3865499336000013
   Ge   As   Se
   100   100   100
Direct
  0.9184457180670960  0.8388916686295285  0.1673123297754099
  0.3210144736543941  0.2945247133707364  0.6895721224290109
  0.5951693353706315  0.5486378703481871  0.7691822236758745
  0.3719978039837939  0.7404320750310501  0.3291715246774644
  0.6012640672427766  0.6094100533431284  0.9340566804282356
  0.2427920150767235  0.3823270074890796  0.6500580697858210
  0.5476340861132490  0.5525269457186156  0.5631648030896920
  0.5489475297482922  0.2460297475091965  0.5374601547610403
  0.3621020698985473 -0.0106575912986898  0.5114607878499424
  0.5557465053588206  0.3409380396379117  0.8147973040876972
  0.2088163944663612  0.6026047257384084  0.6946761564349674
  0.6245229256088476  0.6530844703623336  0.5870823908514307
  0.0141064062490771  0.6721149073200057  0.5046768842907491
  0.7002777363785702  0.3600776090850876  0.1376783469829926
  0.1684928954057942  0.7588239872895212  0.5258805929222413
  0.5415271512432944  0.4593267247572407  0.0080245170013337
  0.1477282136046690  0.4493661887552716  0.7983699123070289
  0.5976323894609957  0.8722684160028971  0.4862570974119388
  0.7375947841289590  0.7991943390106844  0.4312324752838813
  0.2158274681727302  0.2225749203559931  0.5538080912873791
  0.1991664597314311  0.9082847215176630  0.5364244749880724
  0.5944979735366702  0.0419778299871547  0.3039892703708477
  0.1805440824978368  0.0523910569910088  0.0294159957978606
  0.6107069345407159  0.0403845725009587  0.6585799964918531
  0.1938142819659016  0.7741794667109667  0.0765399418247270
  0.4871264803585971  0.3889249340992010  0.4401895144033329
 -0.0044567780659687  0.4699743114124845  0.4113450131414967
  0.2937616716515934  0.9692616198396218  0.7546966844682951
  0.7263693248237679  0.8030438402820889  0.5897036336668563
  0.6839959727740309  0.1855130183727411  0.3861381014265459
  0.1816689365230322  0.4703107383368808  0.0967105130613370
  0.2435837816131685  0.0664115859327057  0.1474395795746031
  0.9826809570118723  0.1871042936639569  0.9689549822011774
  0.6956247183082068  0.9870006200812614  0.1699252205358096
  0.0944805289865182  0.4418624945615152  0.0065709524712833
  0.0194687503474892  0.8470379745477664  0.5255734572859448
  0.3128039753504535  0.7013638205291183  0.1785983096338083
  0.8862142350627478  0.3948222515211252  0.5728822194163319
  0.4037719638913879  0.8181629075171705  0.9586058260035384
  0.1038280427443597  0.3697432974684051  0.5129029495162295
  0.0868128158499128  0.6438810124768843  0.9330709072418231
  0.7512612104606249  0.4526363170000565  0.8282554859188274
  0.3175182970109291  0.0499134568321441  0.3152528302513913
  0.4599747840369516  0.8016598702740776  0.4009979559031781
  0.0414971425704577  0.7158296767263151  0.3787703698381713
  0.3955102426869966  0.2458573194594926  0.4148550688306741
  0.8052072941858691  0.1228112927813708  0.1591583180681508
  0.1412085375768028  0.1965583619380324  0.3046724990699125
  0.2750563141460858  0.8359161552116769  0.6100327288116869
  0.9617394505091369  0.4752929584512426  0.8332664884157815
  0.4205129492838294  0.3387951169168136  0.9276497783077009
  0.1023649633744252  0.0207905159489876  0.3852637788465498
  0.7961634766670915  0.1959324957104880 -0.0143299108499133
  0.3211490536406481  0.2476605269779560  0.0622752276575399
  0.7547229516252513  0.6945789280530221  0.9487404257802814
  0.4986830356518365  0.3879613316941213  0.6684478453671375
  0.8801022853642708  0.0004778213951170  0.9305690713348087
  0.6565600053690882  0.9814216212766653  0.0485204813331445
  0.7693873824398576  0.9828862484315077  0.7962823785506826
  0.4137195604184324  0.5358640584674479  0.1277138798716069
  0.5863293541368031  0.9125774106504986  0.3227219073061880
  0.3556821564350436  0.3704437461120354  0.0329542724326746
  0.2058289020513601  0.0461626758785450  0.4722501154074660
  0.4849288710461453  0.5990147799026760  0.8843677328880560
  0.7153770922120393  0.4981069503408093  0.0383210277193009
  0.2043623811678412  0.2771572735915263  0.3906746118755356
  0.0771686418056190  0.0414511002371916  0.5585614842994210
  0.5512577609400841  0.7887204403496106  0.0014491682512317
  0.2089468939645698  0.2706191736867528  0.1128301947101987
  0.0728847342504651  0.1601513160952568  0.7796320172629262
  0.7301117961975903  0.6348412100744478  0.7288312214009659
  0.5714338816453179  0.4002090805121304  0.2657329949861323
  0.5988457040291146  0.6549127455888268  0.0553874533397534
  0.1945873758652981  0.0647127042108252  0.2907025405302880
  0.0922488562668853  0.5656858473580139  0.6619327382367185
  0.5046112430354944  0.2738286274577170  0.0736089683311145
  0.8603435081724785  0.7975638683024732  0.7319980386999118
  0.3508915680352768  0.2162677489837775  0.8367362824636619
  0.7771840460660365  0.6985139666363352  0.5453035330830892
  0.9401350060262677  0.0880826028832687  0.4117039974295967
  0.6252400179438604  0.4639245713157961  0.1674168967604711
  0.8234042003723684  0.3149835384906645  0.0398974541717440
  0.9609269059428418  0.2958934598120801  0.2968011308453808
  0.4676273503568786  0.0939049083151061  0.0468054197578314
  0.0689660373852825  0.3731529709860424  0.1968195353029440
  0.5751281252660393  0.4449876193281346  0.5066216695015905
  0.3024846160551399  0.7193284341974772  0.6369288899383235
  0.2881524784955369  0.4954204326172414  0.2088945990040021
  0.9372922860241998  0.3602556172404611  0.4010382425836937
  0.0857965012511728  0.3164110615222513  0.8413401668376704
  0.1282396454013681  0.8286563949242066  0.8677632524045217
  0.9252924737874769  0.8845686851844521  0.8737910400298488
  0.8740460317636614  0.1347674958877502  0.6513118577630588
  0.0818493645310377  0.0212462244352484  0.8775131276595066
  0.8314264028237497  0.3800662636621993  0.7509614454296814
  0.2874025920071457  0.2387141930632070  0.2780623032949077
  0.4810516796898479  0.5645635900320547  0.3347957325844884
  0.2783684463684800  0.4500144316499615  0.3297316981291229
  0.3930371587104772  0.5731339485519353  0.4295820952793927
  0.5001497190563265  0.0623649413612340  0.2192084426145163
  0.2741369027753381  0.1836881601539808  0.6534869458303970
  0.0011058239676526  0.8476194340989520  0.2612400886895960
  0.8950077634465866  0.6183353505267952  0.9484147928854944
  0.2407127972191721  0.6623721559837812  0.0891242730139958
  0.3498749804504898  0.3195670769976345  0.2031673166574956
  0.9051337217720818  0.6747395129603868  0.1353394816399824
  0.4723590922352084  0.7169854099061550  0.9253482534414176
  0.9111186485131032  0.6393460013137533  0.7703495237314658
  0.0346602293586728  0.6258947697043724  0.7564041589084304
  0.9471279113687127  0.8014723437555508  0.3610418106518282
  0.4136418543130459  0.4497129821521571  0.5808947079673977
  0.0897438921483337  0.9184523430693783  0.9467042045976570
  0.0547907696239100  0.3664350906406904  0.6277274510630098
  0.2886124240361914  0.5502331503822395  0.9571343060423765
  0.6744843222640940  0.4342048522947818  0.3288176485097732
  0.1350659786233172  0.0169336763941838  0.7656895977998248
  0.7792972119546223  0.0622461861057359  0.7036535108771221
  0.5818508816151138  0.2728102506956628  0.2625177121524980
  0.9788041493364386  0.0612014718085334  0.6427938086559034
  0.1017918527641748  0.2417761806234452  0.0581962314775744
  0.7324339336734661  0.8211804698156342  0.9589065741373246
  0.6166034269878359  0.8587987431099979  0.6066224843747066
  0.4548057956388203  0.1090122682503609  0.6661538742290628
  0.4259766121764156  0.5705836177626573  0.5503574273409833
  0.9108429186802358  0.8385486477348225  0.6230889984957717
  0.5271066977904751  0.1878683635033286  0.9200374504820118
  0.4327887080608977  0.7177137541625596  0.1460920395695048
  0.8336767288048007  0.1533253426399738  0.5120035984912916
  0.0185913602344791  0.9796379333267592  0.7340333489480484
  0.2893035330597734  0.3178319387916189  0.8089728940698341
  0.8678103237459699  0.5516550582249752  0.8457348590009783
  0.8141221578993393  0.3960771523218469  0.2622243571804789
  0.4333554832272266  0.2883838314007428  0.5827525243317746
  0.8553758590699000  0.7814214484514332  0.8734081082488192
  0.5209294517711788  0.7821669752607845  0.8383208435681271
  0.3056134640171833  0.4845354462174930  0.0622164981296388
  0.3805782602150879  0.3618503691078345  0.4981793374238200
  0.5449614475783560  0.2152118032866400  0.8000803326659378
  0.4053249355727317  0.1411419988898054  0.1910218364578629
  0.3770763928021860  0.1583320304156222  0.3097897827424257
  0.6026752824598449  0.7521591058038735  0.4585215720487967
  0.2456704066811887  0.7099222396248457  0.7442334151149959
  0.8515550792246371  0.7344607388172928  0.3165188413830144
  0.8437559918582006  0.2565674189934066  0.1880359264288594
  0.3681254049031897  0.1319305011913332  0.4776848639398918
  0.9716927843187634  0.4558567559218394  0.6391972887377363
  0.2243170698632257  0.7337740412843018  0.2618995575463272
  0.8221656135450131  0.3274252893129359  0.3647476179066508
  0.6601727388642832  0.4965997859090738  0.4329513233300734
  0.4104515491005989  0.2157732628663856  0.9437529030026631
  0.6932550565988874  0.9490615333069520  0.6466293158856558
  0.8439543202454696  0.5077641568713015  0.3058834987174804
  0.0107293209644706  0.9682621325286208  0.2954673891509401
  0.4277035640189253  0.6380124794658902  0.0551897382220216
  0.3415413193700842  0.6979208087975733  0.8209073659822378
  0.8220366442493333  0.8689042373107045  0.5447686439734820
  0.3782605970206089  0.1783793681345543  0.5890541509625232
  0.9150862244822862  0.3589731143438355  0.2001702223906525
  0.2732497682124795  0.6117753184631575  0.5848170271108212
  0.7292688160944618  0.1949733232881148  0.5622034276578846
  0.1965864939767756  0.6387716313868051  0.4927381595067161
  0.6637305971751092  0.5359982014665908  0.2612001765673144
  0.7306457973341791  0.2398322659076967  0.8043282536852218
  0.1358424682719570  0.9383084310256292  0.0587699909185442
  0.4560562655936235  0.8106917636711998  0.5784251569665789
  0.8489571784219795  0.9137245423507669  0.0931494679630811
  0.0648199029409389  0.5398438635891829  0.8347826657402860
  0.5303177995024647  0.0813875859453259  0.5736038378276389
  0.8420258417420186  0.3913478338213291  0.9393198023929099
  0.3211285541280995  0.6627410905093288 -0.0011421380421587
  0.9395192257300850  0.9773404970710029  0.0416578673875132
  0.1344412030758377  0.4463348337165929  0.6739734591821638
  0.8638727589865752  0.2241611721909017  0.3112424245640266
  0.2106004328269535  0.1789849213130804  0.1992937322007931
  0.4102222551091906  0.7828550988813715  0.7577399080719752
  0.4037960773854436  0.3665814463263087  0.8081152706019392
  0.1196956171221515  0.4676376833894809  0.4394787798500165
  0.0838819047642059  0.2697436945691049  0.4462538644650083
  0.1548294014641660  0.2711205049825722  0.9501812991616602
  0.4367371354890444  0.2560284012385293  0.7604066158416717
  0.4242811724410021  0.7173031415674254  0.6542332601535455
  0.3336418062520090  0.0564493221431895  0.8999314948890544
  0.9385799780205064  0.5205109000354765  0.2278898012400864
  0.2529303515954208  0.1621624944551189  0.4532477762720973
  0.1580518399096270  0.9868330784816747  0.2021279384134670
  0.4685549251278460  0.4360463029965823  0.3286300775825742
  0.5096284793914330  0.8740884516059075  0.9158688970916886
  0.9821170690868990  0.8778954866644849  0.9898028371055786
  0.4850206210522423  0.7249908139284427  0.4952835223341939
  0.3947348476730745  0.9420576991966023  0.1329894109077333
  0.9473040938502740  0.7011050015699127  0.8713704814293527
  0.2461362092499958  0.8823144824906488  0.0423137201234711
  0.7764236317655524  0.1088221247366256  0.4102822957565750
  0.8835174273857815  0.7619889839082996  0.5324511198336976
  0.4558463803995886 -0.0041526319125240  0.6235890826864687
  0.9027304530636621  0.5494626289174701  0.4508029141632748
  0.7365121237452896  0.0788787930722254  0.5209080855912297
  0.3687073494148856  0.3575670642858014  0.3185700665024552
  0.9554560045432824  0.3923350768769674  0.7435288818789205
  0.2886010511850892  0.9756467783471272  0.4085128156861887
  0.2548952223725099  0.2058357955319848  0.9664993380936882
  0.9140314721453126  0.1789361772587471  0.1309173597180082
  0.3003110905986581  0.1156957125760598  0.7988680164786279
  0.6487367823859472  0.4988881074809142  0.9276506685205412
  0.6565392561277478  0.8905180050509940  0.2247642864850515
 -0.0002756969291548  0.5937180225658604  0.0061196600968653
  0.0297754382880005  0.5047108973497845  0.3026151973803612
  0.5807661551226577  0.1270285132824558  0.3894720350138393
  0.1646494466772298  0.3963968847141555  0.3473239196450033
  0.5347115098865450  0.0097767815740424  0.1126600283296065
  0.5405589443075413  0.3441558751267361  0.9418067899442824
  0.3544729910664659  0.8499876521972922  0.5192589154430109
  0.2257734999281068  0.3462998203498222  0.5308265434791937
  0.7189730549583064  0.6337459591734722  0.0543659651288301
  0.5725678283046178  0.5771521212109118  0.4202381002575468
  0.3590829026168110  0.5987461268625420  0.2283230024354105
  0.6775738317897938  0.3499167043813823  0.7937840874338056
  0.7994674976882904  0.3491210412973403  0.6371525786911849
  0.2582916825219349  0.0128742113226978  0.5822061689510108
  0.5176221801775100  0.5109764730412756  0.6793048063636453
  0.8432829880853256  0.2749073568017157  0.8118607493271647
  0.6733794505954063  0.9278786610398654  0.4145528344798007
  0.6699458294674864  0.9277360237697897  0.7623068918928662
  0.5208358803259663  0.2748592180532379  0.4162243400187487
  0.3564651839835049  0.8794299390335496  0.6975512164784144
  0.5237062174608464 -0.0008379152226678  0.7291531844114839
  0.4923026086411310  0.9124521386060758  0.4483211424075859
  0.1403858418328158  0.2601645048512701  0.7502556052944183
  0.2277916677124469  0.0051927999545423  0.9290837826143813
  0.7061689339636062  0.3502912885499158  0.0173555143923319
  0.0387986618897585  0.3396117845802132  0.0768872631208368
  0.7033923828854040  0.1914702503679917  0.9084313865498135
  0.6972818581223328  0.2588258443323312  0.2920121888213184
  0.8678363156682927  0.9228306108748525  0.7603836853634537
  0.0936179086599737  0.9206640339583023  0.6010713989779687
  0.2803349222152333  0.8194693958262574  0.3230804893519060
  0.4396208765326096  0.5097444996885235  0.9496885062356974
  0.3682709494757373  0.9542117637577051  0.8508913744644675
  0.8198803997229608 -0.0051254612937296  0.1810803682762494
  0.8818594429404421  0.1295187485511303  0.9216899799438378
  0.3020211542939991  0.4920096184873167  0.4395812830706615
  0.8464834931499118  0.8014429183559694 -0.0021353796141054
  0.1102570859788457  0.7568625898531555  0.9945019428545604
  0.9747793531318635  0.0467879451899708  0.8238055171367153
  0.5949826347059815  0.3561436169565785  0.5876316900280839
  0.0882971869810982  0.1099354130860324  0.9588658915185251
  0.2853038786991839  0.8950416046314685  0.1550385688674648
  0.9632134781478204  0.6378617781935604  0.2324694607462562
  0.3639031305727101  0.0200116223571888  0.0502993407600390
  0.0068218446341131  0.9950513996388335  0.4671029077799763
  0.0617444324547745  0.7438513494886753  0.5914305512837936
  0.4050630024594931  0.9849151956824046  0.2550730622639912
  0.0539727255716200  0.1319476203500635  0.3734726556064371
  0.0981617602930097  0.2089015742908886  0.5480487081060501
  0.1694643319986177  0.5592453919810640 -0.0168891833869697
  0.7449246378576887  0.7765906755357258  0.7055161829539803
 -0.0026473334840809  0.2288129621937594  0.8503934080042790
  0.6759737753067881  0.8535672314155680  0.0599944940403764
 -0.0061215132521689  0.1738969669079501  0.6794543284861503
  0.8319092558913357  0.7561291419366548  0.1950666332880690
  0.3244646424117853  0.4713016623138137  0.6559799604101827
  0.0963505947231706  0.5816535285209627  0.5364992090471230
  0.0209356811237248  0.8502795191607789  0.8064399658010745
  0.1957926686135418  0.3692560697852105  0.1796746242118852
  0.1486111958614812  0.7899382203402089  0.1883227718350202
  0.4518345285601036  0.2518577887288119  0.1923711567747511
  0.7789446451643185  0.8290442557525449  0.3246828317926809
  0.7413563439913222  0.1149947911887665  0.0545608035037078
  0.6636003107932313  0.6785561978957946  0.8622210837171171
  0.2437051285906910  0.5253150374371652  0.7786962390318136
  0.8299115500432204  0.4650848508144710  0.4912261988910313
  0.5644650535035827  0.7676054757532101  0.3463921709186004
  0.7583666080689310 -0.0013490824904835  0.9128562317994214
  0.6779622602889520  0.1233762725144914  0.7145731862245035
  0.6801054750968051  0.0869696037695648  0.2349604859982303
  0.4137375789994975  0.6085926256414934  0.7852260777725025
  0.0544815190699843  0.2510538651718141  0.2330560992597701
  0.9263858807081339  0.6035706940093087  0.5552444897328579
  0.6861835879765422  0.2638366878202625  0.4755879140397243
  0.7015667557672629  0.5045478491541239  0.7251208704924954
  0.0435406665463905  0.0250154364874862  0.1960712392021608
  0.7762881172053724  0.5647762753087782  0.2261829317156138
  0.3332548157015572  0.6785531745815306  0.4310223337583184
  0.1071145449785565  0.8084921925803544  0.4290767546814389
  0.9806565509350682  0.7600398668469496  0.1002073395381784
  0.9059514077005274  0.0147440221217574  0.3202168828086568
  0.9420985281632092  0.3078072451941176  0.5095905617265469
  0.4590816302842053  0.3885946182516373  0.0983728702641902
  0.1839662356322254  0.9072218407334723  0.7703884720730467
  0.5536914014831744  0.5504864628955056  0.1168814721511306
  0.9623186806973429  0.3976557282651610  0.9248709574286157
  0.6132524859158640  0.2688690997530312  0.1448747583488522
  0.8354144118534349  0.4870917525533557  0.0120904346309325
  0.7746171129969894  0.6765157110186411  0.4295575061739783
  0.6069675672617165  0.6601695058015453  0.7093207738714091
  0.5035598584756309  0.0697480060995773  0.9307686402976826
  0.1967727618076782  0.3797126272725344  0.9691413190486072
  0.4516580829431191  0.8183668070193644  0.0796512704561261
  0.7394095321559776  0.6000020572371660  0.6012813107324062
  0.1783027594559557  0.5424947880602500  0.1927998890730516
 
  0.00000000E+00  0.00000000E+00  0.00000000E+00
  0.00000000E+00  0.00000000E+00  0.00000000E+00
  0.00000000E+00  0.00000000E+00  0.00000000E+00
  0.00000000E+00  0.00000000E+00  0.00000000E+00
  0.00000000E+00  0.00000000E+00  0.00000000E+00
  0.00000000E+00  0.00000000E+00  0.00000000E+00
  0.00000000E+00  0.00000000E+00  0.00000000E+00
  0.00000000E+00  0.00000000E+00  0.00000000E+00
  0.00000000E+00  0.00000000E+00  0.00000000E+00
  0.00000000E+00  0.00000000E+00  0.00000000E+00
  0.00000000E+00  0.00000000E+00  0.00000000E+00
  0.00000000E+00  0.00000000E+00  0.00000000E+00
  0.00000000E+00  0.00000000E+00  0.00000000E+00
  0.00000000E+00  0.00000000E+00  0.00000000E+00
  0.00000000E+00  0.00000000E+00  0.00000000E+00
  0.00000000E+00  0.00000000E+00  0.00000000E+00
  0.00000000E+00  0.00000000E+00  0.00000000E+00
  0.00000000E+00  0.00000000E+00  0.00000000E+00
  0.00000000E+00  0.00000000E+00  0.00000000E+00
  0.00000000E+00  0.00000000E+00  0.00000000E+00
  0.00000000E+00  0.00000000E+00  0.00000000E+00
  0.00000000E+00  0.00000000E+00  0.00000000E+00
  0.00000000E+00  0.00000000E+00  0.00000000E+00
  0.00000000E+00  0.00000000E+00  0.00000000E+00
  0.00000000E+00  0.00000000E+00  0.00000000E+00
  0.00000000E+00  0.00000000E+00  0.00000000E+00
  0.00000000E+00  0.00000000E+00  0.00000000E+00
  0.00000000E+00  0.00000000E+00  0.00000000E+00
  0.00000000E+00  0.00000000E+00  0.00000000E+00
  0.00000000E+00  0.00000000E+00  0.00000000E+00
  0.00000000E+00  0.00000000E+00  0.00000000E+00
  0.00000000E+00  0.00000000E+00  0.00000000E+00
  0.00000000E+00  0.00000000E+00  0.00000000E+00
  0.00000000E+00  0.00000000E+00  0.00000000E+00
  0.00000000E+00  0.00000000E+00  0.00000000E+00
  0.00000000E+00  0.00000000E+00  0.00000000E+00
  0.00000000E+00  0.00000000E+00  0.00000000E+00
  0.00000000E+00  0.00000000E+00  0.00000000E+00
  0.00000000E+00  0.00000000E+00  0.00000000E+00
  0.00000000E+00  0.00000000E+00  0.00000000E+00
  0.00000000E+00  0.00000000E+00  0.00000000E+00
  0.00000000E+00  0.00000000E+00  0.00000000E+00
  0.00000000E+00  0.00000000E+00  0.00000000E+00
  0.00000000E+00  0.00000000E+00  0.00000000E+00
  0.00000000E+00  0.00000000E+00  0.00000000E+00
  0.00000000E+00  0.00000000E+00  0.00000000E+00
  0.00000000E+00  0.00000000E+00  0.00000000E+00
  0.00000000E+00  0.00000000E+00  0.00000000E+00
  0.00000000E+00  0.00000000E+00  0.00000000E+00
  0.00000000E+00  0.00000000E+00  0.00000000E+00
  0.00000000E+00  0.00000000E+00  0.00000000E+00
  0.00000000E+00  0.00000000E+00  0.00000000E+00
  0.00000000E+00  0.00000000E+00  0.00000000E+00
  0.00000000E+00  0.00000000E+00  0.00000000E+00
  0.00000000E+00  0.00000000E+00  0.00000000E+00
  0.00000000E+00  0.00000000E+00  0.00000000E+00
  0.00000000E+00  0.00000000E+00  0.00000000E+00
  0.00000000E+00  0.00000000E+00  0.00000000E+00
  0.00000000E+00  0.00000000E+00  0.00000000E+00
  0.00000000E+00  0.00000000E+00  0.00000000E+00
  0.00000000E+00  0.00000000E+00  0.00000000E+00
  0.00000000E+00  0.00000000E+00  0.00000000E+00
  0.00000000E+00  0.00000000E+00  0.00000000E+00
  0.00000000E+00  0.00000000E+00  0.00000000E+00
  0.00000000E+00  0.00000000E+00  0.00000000E+00
  0.00000000E+00  0.00000000E+00  0.00000000E+00
  0.00000000E+00  0.00000000E+00  0.00000000E+00
  0.00000000E+00  0.00000000E+00  0.00000000E+00
  0.00000000E+00  0.00000000E+00  0.00000000E+00
  0.00000000E+00  0.00000000E+00  0.00000000E+00
  0.00000000E+00  0.00000000E+00  0.00000000E+00
  0.00000000E+00  0.00000000E+00  0.00000000E+00
  0.00000000E+00  0.00000000E+00  0.00000000E+00
  0.00000000E+00  0.00000000E+00  0.00000000E+00
  0.00000000E+00  0.00000000E+00  0.00000000E+00
  0.00000000E+00  0.00000000E+00  0.00000000E+00
  0.00000000E+00  0.00000000E+00  0.00000000E+00
  0.00000000E+00  0.00000000E+00  0.00000000E+00
  0.00000000E+00  0.00000000E+00  0.00000000E+00
  0.00000000E+00  0.00000000E+00  0.00000000E+00
  0.00000000E+00  0.00000000E+00  0.00000000E+00
  0.00000000E+00  0.00000000E+00  0.00000000E+00
  0.00000000E+00  0.00000000E+00  0.00000000E+00
  0.00000000E+00  0.00000000E+00  0.00000000E+00
  0.00000000E+00  0.00000000E+00  0.00000000E+00
  0.00000000E+00  0.00000000E+00  0.00000000E+00
  0.00000000E+00  0.00000000E+00  0.00000000E+00
  0.00000000E+00  0.00000000E+00  0.00000000E+00
  0.00000000E+00  0.00000000E+00  0.00000000E+00
  0.00000000E+00  0.00000000E+00  0.00000000E+00
  0.00000000E+00  0.00000000E+00  0.00000000E+00
  0.00000000E+00  0.00000000E+00  0.00000000E+00
  0.00000000E+00  0.00000000E+00  0.00000000E+00
  0.00000000E+00  0.00000000E+00  0.00000000E+00
  0.00000000E+00  0.00000000E+00  0.00000000E+00
  0.00000000E+00  0.00000000E+00  0.00000000E+00
  0.00000000E+00  0.00000000E+00  0.00000000E+00
  0.00000000E+00  0.00000000E+00  0.00000000E+00
  0.00000000E+00  0.00000000E+00  0.00000000E+00
  0.00000000E+00  0.00000000E+00  0.00000000E+00
  0.00000000E+00  0.00000000E+00  0.00000000E+00
  0.00000000E+00  0.00000000E+00  0.00000000E+00
  0.00000000E+00  0.00000000E+00  0.00000000E+00
  0.00000000E+00  0.00000000E+00  0.00000000E+00
  0.00000000E+00  0.00000000E+00  0.00000000E+00
  0.00000000E+00  0.00000000E+00  0.00000000E+00
  0.00000000E+00  0.00000000E+00  0.00000000E+00
  0.00000000E+00  0.00000000E+00  0.00000000E+00
  0.00000000E+00  0.00000000E+00  0.00000000E+00
  0.00000000E+00  0.00000000E+00  0.00000000E+00
  0.00000000E+00  0.00000000E+00  0.00000000E+00
  0.00000000E+00  0.00000000E+00  0.00000000E+00
  0.00000000E+00  0.00000000E+00  0.00000000E+00
  0.00000000E+00  0.00000000E+00  0.00000000E+00
  0.00000000E+00  0.00000000E+00  0.00000000E+00
  0.00000000E+00  0.00000000E+00  0.00000000E+00
  0.00000000E+00  0.00000000E+00  0.00000000E+00
  0.00000000E+00  0.00000000E+00  0.00000000E+00
  0.00000000E+00  0.00000000E+00  0.00000000E+00
  0.00000000E+00  0.00000000E+00  0.00000000E+00
  0.00000000E+00  0.00000000E+00  0.00000000E+00
  0.00000000E+00  0.00000000E+00  0.00000000E+00
  0.00000000E+00  0.00000000E+00  0.00000000E+00
  0.00000000E+00  0.00000000E+00  0.00000000E+00
  0.00000000E+00  0.00000000E+00  0.00000000E+00
  0.00000000E+00  0.00000000E+00  0.00000000E+00
  0.00000000E+00  0.00000000E+00  0.00000000E+00
  0.00000000E+00  0.00000000E+00  0.00000000E+00
  0.00000000E+00  0.00000000E+00  0.00000000E+00
  0.00000000E+00  0.00000000E+00  0.00000000E+00
  0.00000000E+00  0.00000000E+00  0.00000000E+00
  0.00000000E+00  0.00000000E+00  0.00000000E+00
  0.00000000E+00  0.00000000E+00  0.00000000E+00
  0.00000000E+00  0.00000000E+00  0.00000000E+00
  0.00000000E+00  0.00000000E+00  0.00000000E+00
  0.00000000E+00  0.00000000E+00  0.00000000E+00
  0.00000000E+00  0.00000000E+00  0.00000000E+00
  0.00000000E+00  0.00000000E+00  0.00000000E+00
  0.00000000E+00  0.00000000E+00  0.00000000E+00
  0.00000000E+00  0.00000000E+00  0.00000000E+00
  0.00000000E+00  0.00000000E+00  0.00000000E+00
  0.00000000E+00  0.00000000E+00  0.00000000E+00
  0.00000000E+00  0.00000000E+00  0.00000000E+00
  0.00000000E+00  0.00000000E+00  0.00000000E+00
  0.00000000E+00  0.00000000E+00  0.00000000E+00
  0.00000000E+00  0.00000000E+00  0.00000000E+00
  0.00000000E+00  0.00000000E+00  0.00000000E+00
  0.00000000E+00  0.00000000E+00  0.00000000E+00
  0.00000000E+00  0.00000000E+00  0.00000000E+00
  0.00000000E+00  0.00000000E+00  0.00000000E+00
  0.00000000E+00  0.00000000E+00  0.00000000E+00
  0.00000000E+00  0.00000000E+00  0.00000000E+00
  0.00000000E+00  0.00000000E+00  0.00000000E+00
  0.00000000E+00  0.00000000E+00  0.00000000E+00
  0.00000000E+00  0.00000000E+00  0.00000000E+00
  0.00000000E+00  0.00000000E+00  0.00000000E+00
  0.00000000E+00  0.00000000E+00  0.00000000E+00
  0.00000000E+00  0.00000000E+00  0.00000000E+00
  0.00000000E+00  0.00000000E+00  0.00000000E+00
  0.00000000E+00  0.00000000E+00  0.00000000E+00
  0.00000000E+00  0.00000000E+00  0.00000000E+00
  0.00000000E+00  0.00000000E+00  0.00000000E+00
  0.00000000E+00  0.00000000E+00  0.00000000E+00
  0.00000000E+00  0.00000000E+00  0.00000000E+00
  0.00000000E+00  0.00000000E+00  0.00000000E+00
  0.00000000E+00  0.00000000E+00  0.00000000E+00
  0.00000000E+00  0.00000000E+00  0.00000000E+00
  0.00000000E+00  0.00000000E+00  0.00000000E+00
  0.00000000E+00  0.00000000E+00  0.00000000E+00
  0.00000000E+00  0.00000000E+00  0.00000000E+00
  0.00000000E+00  0.00000000E+00  0.00000000E+00
  0.00000000E+00  0.00000000E+00  0.00000000E+00
  0.00000000E+00  0.00000000E+00  0.00000000E+00
  0.00000000E+00  0.00000000E+00  0.00000000E+00
  0.00000000E+00  0.00000000E+00  0.00000000E+00
  0.00000000E+00  0.00000000E+00  0.00000000E+00
  0.00000000E+00  0.00000000E+00  0.00000000E+00
  0.00000000E+00  0.00000000E+00  0.00000000E+00
  0.00000000E+00  0.00000000E+00  0.00000000E+00
  0.00000000E+00  0.00000000E+00  0.00000000E+00
  0.00000000E+00  0.00000000E+00  0.00000000E+00
  0.00000000E+00  0.00000000E+00  0.00000000E+00
  0.00000000E+00  0.00000000E+00  0.00000000E+00
  0.00000000E+00  0.00000000E+00  0.00000000E+00
  0.00000000E+00  0.00000000E+00  0.00000000E+00
  0.00000000E+00  0.00000000E+00  0.00000000E+00
  0.00000000E+00  0.00000000E+00  0.00000000E+00
  0.00000000E+00  0.00000000E+00  0.00000000E+00
  0.00000000E+00  0.00000000E+00  0.00000000E+00
  0.00000000E+00  0.00000000E+00  0.00000000E+00
  0.00000000E+00  0.00000000E+00  0.00000000E+00
  0.00000000E+00  0.00000000E+00  0.00000000E+00
  0.00000000E+00  0.00000000E+00  0.00000000E+00
  0.00000000E+00  0.00000000E+00  0.00000000E+00
  0.00000000E+00  0.00000000E+00  0.00000000E+00
  0.00000000E+00  0.00000000E+00  0.00000000E+00
  0.00000000E+00  0.00000000E+00  0.00000000E+00
  0.00000000E+00  0.00000000E+00  0.00000000E+00
  0.00000000E+00  0.00000000E+00  0.00000000E+00
  0.00000000E+00  0.00000000E+00  0.00000000E+00
  0.00000000E+00  0.00000000E+00  0.00000000E+00
  0.00000000E+00  0.00000000E+00  0.00000000E+00
  0.00000000E+00  0.00000000E+00  0.00000000E+00
  0.00000000E+00  0.00000000E+00  0.00000000E+00
  0.00000000E+00  0.00000000E+00  0.00000000E+00
  0.00000000E+00  0.00000000E+00  0.00000000E+00
  0.00000000E+00  0.00000000E+00  0.00000000E+00
  0.00000000E+00  0.00000000E+00  0.00000000E+00
  0.00000000E+00  0.00000000E+00  0.00000000E+00
  0.00000000E+00  0.00000000E+00  0.00000000E+00
  0.00000000E+00  0.00000000E+00  0.00000000E+00
  0.00000000E+00  0.00000000E+00  0.00000000E+00
  0.00000000E+00  0.00000000E+00  0.00000000E+00
  0.00000000E+00  0.00000000E+00  0.00000000E+00
  0.00000000E+00  0.00000000E+00  0.00000000E+00
  0.00000000E+00  0.00000000E+00  0.00000000E+00
  0.00000000E+00  0.00000000E+00  0.00000000E+00
  0.00000000E+00  0.00000000E+00  0.00000000E+00
  0.00000000E+00  0.00000000E+00  0.00000000E+00
  0.00000000E+00  0.00000000E+00  0.00000000E+00
  0.00000000E+00  0.00000000E+00  0.00000000E+00
  0.00000000E+00  0.00000000E+00  0.00000000E+00
  0.00000000E+00  0.00000000E+00  0.00000000E+00
  0.00000000E+00  0.00000000E+00  0.00000000E+00
  0.00000000E+00  0.00000000E+00  0.00000000E+00
  0.00000000E+00  0.00000000E+00  0.00000000E+00
  0.00000000E+00  0.00000000E+00  0.00000000E+00
  0.00000000E+00  0.00000000E+00  0.00000000E+00
  0.00000000E+00  0.00000000E+00  0.00000000E+00
  0.00000000E+00  0.00000000E+00  0.00000000E+00
  0.00000000E+00  0.00000000E+00  0.00000000E+00
  0.00000000E+00  0.00000000E+00  0.00000000E+00