Sb8 Se12                                
   1.00000000000000     
    12.8038192717643984    0.0000000000000000    0.0000000000000000
     0.0000000000000000    8.0561131744430448    0.0000000000000000
     0.0000000000000000    0.0000000000000000   11.5390019332707343
   Sb   Se
    16    24
Direct
  0.0356898819411772  0.1250000000000000  0.3316449795422080
  0.0356898819411772  0.6250000000000000  0.3316449795422080
  0.9643101250588270  0.3750000000000000  0.6683549914577930
  0.9643101250588270  0.8750000000000000  0.6683549914577930
  0.4643101250588269  0.3750000000000000  0.8316450085422070
  0.4643101250588269  0.8750000000000000  0.8316450085422070
  0.5356898749411730  0.1250000000000000  0.1683550204577919
  0.5356898749411730  0.6250000000000000  0.1683550204577919
  0.1380664775899825  0.3750000000000000  0.0361878226983490
  0.1380664775899825  0.8750000000000000  0.0361878226983490
  0.8619335374100222  0.1250000000000000  0.9638121953016527
  0.8619335374100222  0.6250000000000000  0.9638121953016527
  0.3619335374100224  0.1250000000000000  0.5361878046983473
  0.3619335374100224  0.6250000000000000  0.5361878046983473
  0.6380664625899778  0.3750000000000000  0.4638121653016500
  0.6380664625899778  0.8750000000000000  0.4638121653016500
  0.0474880067435104  0.1250000000000000  0.8675715031896268
  0.0474880067435104  0.6250000000000000  0.8675715031896268
  0.9525119862564856  0.3750000000000000  0.1324284968103731
  0.9525119862564856  0.8750000000000000  0.1324284968103731
  0.4525119862564854  0.3750000000000000  0.3675715031896267
  0.4525119862564854  0.8750000000000000  0.3675715031896267
  0.5474880137435144  0.1250000000000000  0.6324284968103732
  0.5474880137435144  0.6250000000000000  0.6324284968103732
  0.1275633991813273  0.3750000000000000  0.4524270344507066
  0.1275633991813273  0.8750000000000000  0.4524270344507066
  0.8724365858186749  0.1250000000000000  0.5475729365492942
  0.8724365858186749  0.6250000000000000  0.5475729365492942
  0.3724365858186751  0.1250000000000000  0.9524270634507058
  0.3724365858186751  0.6250000000000000  0.9524270634507058
  0.6275634141813251  0.3750000000000000  0.0475729655492933
  0.6275634141813251  0.8750000000000000  0.0475729655492933
  0.2045357210836736  0.1250000000000000  0.1907236238070750
  0.2045357210836736  0.6250000000000000  0.1907236238070750
  0.7954642789163265  0.3750000000000000  0.8092763611929273
  0.7954642789163265  0.8750000000000000  0.8092763611929273
  0.2954642789163264  0.3750000000000000  0.6907236388070727
  0.2954642789163264  0.8750000000000000  0.6907236388070727
  0.7045357210836735  0.1250000000000000  0.3092763611929273
  0.7045357210836735  0.6250000000000000  0.3092763611929273
 
  0.00000000E+00  0.00000000E+00  0.00000000E+00
  0.00000000E+00  0.00000000E+00  0.00000000E+00
  0.00000000E+00  0.00000000E+00  0.00000000E+00
  0.00000000E+00  0.00000000E+00  0.00000000E+00
  0.00000000E+00  0.00000000E+00  0.00000000E+00
  0.00000000E+00  0.00000000E+00  0.00000000E+00
  0.00000000E+00  0.00000000E+00  0.00000000E+00
  0.00000000E+00  0.00000000E+00  0.00000000E+00
  0.00000000E+00  0.00000000E+00  0.00000000E+00
  0.00000000E+00  0.00000000E+00  0.00000000E+00
  0.00000000E+00  0.00000000E+00  0.00000000E+00
  0.00000000E+00  0.00000000E+00  0.00000000E+00
  0.00000000E+00  0.00000000E+00  0.00000000E+00
  0.00000000E+00  0.00000000E+00  0.00000000E+00
  0.00000000E+00  0.00000000E+00  0.00000000E+00
  0.00000000E+00  0.00000000E+00  0.00000000E+00
  0.00000000E+00  0.00000000E+00  0.00000000E+00
  0.00000000E+00  0.00000000E+00  0.00000000E+00
  0.00000000E+00  0.00000000E+00  0.00000000E+00
  0.00000000E+00  0.00000000E+00  0.00000000E+00
  0.00000000E+00  0.00000000E+00  0.00000000E+00
  0.00000000E+00  0.00000000E+00  0.00000000E+00
  0.00000000E+00  0.00000000E+00  0.00000000E+00
  0.00000000E+00  0.00000000E+00  0.00000000E+00
  0.00000000E+00  0.00000000E+00  0.00000000E+00
  0.00000000E+00  0.00000000E+00  0.00000000E+00
  0.00000000E+00  0.00000000E+00  0.00000000E+00
  0.00000000E+00  0.00000000E+00  0.00000000E+00
  0.00000000E+00  0.00000000E+00  0.00000000E+00
  0.00000000E+00  0.00000000E+00  0.00000000E+00
  0.00000000E+00  0.00000000E+00  0.00000000E+00
  0.00000000E+00  0.00000000E+00  0.00000000E+00
  0.00000000E+00  0.00000000E+00  0.00000000E+00
  0.00000000E+00  0.00000000E+00  0.00000000E+00
  0.00000000E+00  0.00000000E+00  0.00000000E+00
  0.00000000E+00  0.00000000E+00  0.00000000E+00
  0.00000000E+00  0.00000000E+00  0.00000000E+00
  0.00000000E+00  0.00000000E+00  0.00000000E+00
  0.00000000E+00  0.00000000E+00  0.00000000E+00
  0.00000000E+00  0.00000000E+00  0.00000000E+00
