In2O3 structure 4 - random placement wit
   1.00000000000000     
     8.0284418930987567    0.0688322533864670   -0.0265603992881627
     0.0681554555543056    8.1225579156512246   -0.0082599256571873
    -0.0260304384138179   -0.0086854299704269    8.1989722069858271
   In   O 
    16    24
Direct
  0.3655351791270007  0.1434497913264892  0.8454410762823485
  0.6295260441474326  0.9027306148198306  0.1109173237328349
  0.1324621704851552  0.9016676645543953  0.1151741429943343
  0.3541055929610053  0.1116341553792211  0.3540778280181982
  0.5808518317085856  0.3713101459921830  0.6383519694846456
  0.6415180350007432  0.4191973472890709  0.0784789080442039
  0.1130406722411053  0.4014557188629198  0.1084398512894964
  0.5962037483389437  0.8735985424686277  0.6210216474837367
  0.8794482557513490  0.6561917809265481  0.8338251448501666
  0.3676909390924621  0.6576057574834380  0.8437491130483394
  0.3561997587388035  0.6269912540514397  0.3482132509853457
  0.0959001875809378  0.8748043997107047  0.6134055040231559
  0.8735319596112063  0.1479248176007886  0.8404039267113319
  0.8505126947275059  0.6393842062188071  0.3372541077524431
  0.0910443786449022  0.3728963421050793  0.6145780226741806
  0.8487007214705216  0.1163484078037627  0.3382259405241257
  0.1221045444922666  0.2666297523827481  0.8775825544312923
  0.2495963093670852  0.6409695782859544  0.0888924360487380
  0.2307319882946928  0.8663032139683224  0.3794224492533047
  0.9730605872354090  0.1214838576729917  0.5751317978552422
  0.3820111620382818  0.0193127956356562  0.0842657088967158
  0.3389179430305518  0.9055165868199140  0.7294245008475286
  0.8442940793698739  0.7596056979471086  0.5747996878068093
  0.6288310378177187  0.7621930963477723  0.8801849898168044
  0.1069432176908549  0.1642411879839187  0.2319269255597192
  0.8318728725744720  0.4081233965144477  0.7323568349403686
  0.8863110457794861  0.8740826234696257  0.2198728823469409
  0.9959326815664511  0.9052709556007486  0.8782441056139660
  0.4643812237444109  0.4035228820823633  0.8876314066177642
  0.1291131396058489  0.6164692274126580  0.7236793576716209
  0.7503072104914281  0.1669647669413976  0.0818343353875903
  0.5089451541617294  0.3479497178470936  0.3012088679522691
  0.5974141633919885  0.6554046715179922  0.2233222863478304
  0.3350766061543240  0.2514466279376109  0.5826982638889362
  0.6781027933320729  0.3526140230914123  0.3872062464869757
  0.8822310324827853  0.5327689564418918  0.0758703885573411
  0.0933617059268954  0.4984458493373438  0.3716949995697973
  0.6233019787392777  0.1157590523893077  0.7403780897031140
  0.5997573487198906  0.9932727351498869  0.3808815794141296
  0.4806579958298514  0.6195041426772860  0.5852711488231250
 
  0.00000000E+00  0.00000000E+00  0.00000000E+00
  0.00000000E+00  0.00000000E+00  0.00000000E+00
  0.00000000E+00  0.00000000E+00  0.00000000E+00
  0.00000000E+00  0.00000000E+00  0.00000000E+00
  0.00000000E+00  0.00000000E+00  0.00000000E+00
  0.00000000E+00  0.00000000E+00  0.00000000E+00
  0.00000000E+00  0.00000000E+00  0.00000000E+00
  0.00000000E+00  0.00000000E+00  0.00000000E+00
  0.00000000E+00  0.00000000E+00  0.00000000E+00
  0.00000000E+00  0.00000000E+00  0.00000000E+00
  0.00000000E+00  0.00000000E+00  0.00000000E+00
  0.00000000E+00  0.00000000E+00  0.00000000E+00
  0.00000000E+00  0.00000000E+00  0.00000000E+00
  0.00000000E+00  0.00000000E+00  0.00000000E+00
  0.00000000E+00  0.00000000E+00  0.00000000E+00
  0.00000000E+00  0.00000000E+00  0.00000000E+00
  0.00000000E+00  0.00000000E+00  0.00000000E+00
  0.00000000E+00  0.00000000E+00  0.00000000E+00
  0.00000000E+00  0.00000000E+00  0.00000000E+00
  0.00000000E+00  0.00000000E+00  0.00000000E+00
  0.00000000E+00  0.00000000E+00  0.00000000E+00
  0.00000000E+00  0.00000000E+00  0.00000000E+00
  0.00000000E+00  0.00000000E+00  0.00000000E+00
  0.00000000E+00  0.00000000E+00  0.00000000E+00
  0.00000000E+00  0.00000000E+00  0.00000000E+00
  0.00000000E+00  0.00000000E+00  0.00000000E+00
  0.00000000E+00  0.00000000E+00  0.00000000E+00
  0.00000000E+00  0.00000000E+00  0.00000000E+00
  0.00000000E+00  0.00000000E+00  0.00000000E+00
  0.00000000E+00  0.00000000E+00  0.00000000E+00
  0.00000000E+00  0.00000000E+00  0.00000000E+00
  0.00000000E+00  0.00000000E+00  0.00000000E+00
  0.00000000E+00  0.00000000E+00  0.00000000E+00
  0.00000000E+00  0.00000000E+00  0.00000000E+00
  0.00000000E+00  0.00000000E+00  0.00000000E+00
  0.00000000E+00  0.00000000E+00  0.00000000E+00
  0.00000000E+00  0.00000000E+00  0.00000000E+00
  0.00000000E+00  0.00000000E+00  0.00000000E+00
  0.00000000E+00  0.00000000E+00  0.00000000E+00
  0.00000000E+00  0.00000000E+00  0.00000000E+00
