Amorphous GeAsSeSi                      
   1.00000000000000     
    18.8021333197291440    0.0000000000000000    0.0000000000000000
     0.0000000000000000   18.8021333197291440    0.0000000000000000
     0.0000000000000000    0.0000000000000000   18.8021333197291440
   Ge   As   S 
   108    24   108
Direct
  0.8198795254461699  0.9643834839939450  0.5923167294050838
  0.9524427120114953  0.2071186815001308  0.9918177922159862
  0.4772169184786627  0.8896607796852606  0.5925927617796236
  0.0993747890291444  0.3529067291121648  0.7702612124076008
  0.8568129560448177  0.0171787438360534  0.7092446973833307
  0.4772285624584114  0.6475390948310816  0.6045971078669363
  0.4572314356792860  0.8362233512719768  0.2141389159322560
  0.7731899770933978  0.9770171701092503  0.0193984886255388
  0.3338285538186297  0.1470501418050748  0.6137352057700715
  0.1007105876126930  0.8702392658574232  0.1674938098241839
  0.8550292262668266  0.5703031194485980  0.1211277179796531
  0.6407550327469868  0.9865736600602841  0.0683117698210763
  0.9805684356663640  0.2461358036308657  0.1891950396021309
  0.5764828861201623  0.8705559128555794  0.0184571751938025
  0.5700934491901025  0.0871275117993894  0.2369326023094219
  0.5514893743743522  0.6471978885280365  0.2165550504465625
  0.9475065988925025  0.3408067504579447  0.8951746316592621
  0.2401097252974638  0.5922670543294823  0.9687299984333539
  0.4262838846496586  0.8982513031048805  0.8948265121698923
  0.9039448845919033  0.3233001498372266  0.3845985858331356
  0.2919879672886868  0.5402567804287831  0.8071777828118711
  0.8967323121808101  0.6472638188956555  0.6760803611747767
  0.4341167293009104  0.4835840681632084  0.9151230086553247
  0.7908061251892139  0.1822829818261340  0.1043876567591225
  0.7625165509697860  0.5232989892620549  0.6001590670390694
  0.8581374841969347  0.0740894746509874  0.5002438308882891
  0.7750465601051874  0.7459185017556207  0.8170986682676655
  0.2888582099098707  0.4228016641581115  0.1093058440505212
  0.4534035251571009  0.3084357254493489  0.2500698842596670
  0.3663503362026223  0.2567191775057617  0.9884436817135883
  0.9532306810061539  0.8975396021188455  0.0234251289760549
  0.2581183434857254  0.8510289688652769  0.7279880971369360
  0.0235898193429380  0.1210831540394365  0.5950591380792832
  0.0833511915151768  0.0555475187146454  0.8935527179631565
  0.7045018911656742  0.6349474809550220  0.3553938535799805
  0.7331083550663240  0.3563583981640508  0.3579213231144134
  0.6873154028467113  0.8870541043182945  0.4687314898781103
  0.3837373441289244  0.9486597526736875  0.5092957865563055
  0.5000353681850357 -0.0000158014086285  0.3286817374652962
  0.0136961723982802  0.8395123143468578  0.5719247319383657
  0.7315909225849163  0.4187372004672108  0.0176666458967423
  0.0810471455219077  0.4538386503298952  0.9296172115933309
  0.2247496194588601  0.4196319069685944  0.6906054169591131
  0.1682405713320038  0.8087017533500932  0.9225125056424921
  0.3551915394621178  0.6662911070978541  0.1459187624176996
  0.1692796778247920  0.6683034382602471  0.7477892456166768
  0.2432403523498062  0.3989714844732294  0.3320813268470000
  0.4723987297355038  0.4267653838400277  0.0848055789262964
  0.4617977660381307  0.2886449687978495  0.8924440020016853
  0.7209287812134455  0.5722859844008337  0.8534728564656971
  0.6624398453090792  0.5383452447666058  0.0513273055732362
  0.4342141415486298  0.2846368045370584  0.5567706233596137
  0.8342774938416806  0.3646746304260148  0.1965838111852266
  0.3719155518829373  0.9830267851204795  0.2916678338770615
  0.4917482632211262  0.0915850835901756  0.9599397892319332
  0.0599653734490944  0.1329821720121163  0.3179282030104079
  0.0071142942698075  0.3977679390251618  0.5225712023767900
  0.1635644757949588  0.9585958179198008  0.6369321332699632
  0.1490516868997399  0.4882282000014407  0.4179059054892401
  0.0030096922097334  0.0188492992448871  0.1573420622592634
  0.2949067394838876  0.0849878327606059  0.0752532147979846
  0.9935979433249658  0.2251626736809717  0.4112885603144604
  0.1511751742966183  0.2595107650312769  0.5615806796728967
  0.9949132392803119  0.3314672908961964  0.6815139993606461
  0.0452616560515615  0.5013479501943505  0.6862205102371148
  0.8858155302244812  0.6114668234404799  0.4904400900589548
  0.8116966254588517  0.7919758030357897  0.0113084360038742
  0.3427212959886956  0.7948320487732575  0.9342889306495451
  0.5807549617672721  0.6919258149339391  0.7358996908145782
  0.6603038841498571  0.0741142024037999  0.4416830256064424
  0.7689800331873189  0.7503675682265457  0.5903643071518907
  0.8858558481769140  0.5565414338671781  0.8990618994782880
  0.1903010121139597  0.5587354781656156  0.5873092821963035
  0.6073187367675802  0.4267924661740996  0.8422636625586625
  0.6007968002055656  0.3636725650103160  0.6556155343235398
  0.7443823809598692  0.8679614141033775  0.7564874883281737
  0.1128159627154703  0.3620622174246629  0.1030550065631006
  0.3262331419789176  0.2512394822662357  0.3499992361487133
  0.6260862773373691  0.2125104861663381  0.0273238529200995
  0.2263888220724972  0.2469444184588621  0.9868679500740091
  0.6420106806226809  0.8726435635206645  0.2366138178676902
  0.5329966128509956  0.4762560287784154  0.6212410073833577
  0.9137945404787742  0.1592965289048201  0.8113947330927020
  0.1617063281469009  0.4658120305735990  0.2293175859973384
  0.7674039740066586  0.4414131073477203  0.7136548028766037
  0.1422148870922743  0.1741227474943255  0.1542170773292466
  0.2553992638695238  0.6111832509595064  0.3341362453553219
  0.4439510153104215  0.0399959179565319  0.7305015963943793
  0.0012070690894427  0.5198493654260010  0.1042324996947281
  0.5127593221602270  0.8647405604362105  0.7888596788314111
  0.1862106167523779  0.7288558949418745  0.2679334385752705
  0.3867441465238169  0.4873247108203868  0.2319104569794920
  0.7623732380698472  0.0696428332122308  0.3170440207584053
  0.0879777324302521  0.6883126395013630  0.0527493611229666
  0.6319979452933704  0.7093522803467308  0.9578016282165025
  0.5051190184767054  0.1198116552488089  0.4996310841311192
  0.4248890007080831  0.6002866189643691  0.9839438735009309
  0.5135253364338057  0.1938730900305723  0.6919990341394148
  0.3359661074611760  0.5002384448198538  0.5921469060351932
  0.5970841518170623  0.4415997566927908  0.2378946966369981
  0.0196404720551394  0.7198771583615836  0.7237031395950729
  0.2081410492215147  0.7635670562928599  0.5729223370072805
  0.6203612976470315  0.2637830789753630  0.1851240243131235
  0.2545832573540450  0.9833737937426188  0.9129775713466559
  0.5452728276945779  0.7034968701741868  0.3867571372639475
  0.9675582210127471  0.4259276401770062  0.3241191977483513
  0.1369182020067320  0.9062605049208873  0.4617861004875365
  0.5265162618184226  0.5372265981110218  0.4874759601231860
  0.3692032632201230  0.1527772855426372  0.4891846531914075
  0.8450585035576388  0.0558043037657294  0.9339523943578899
  0.8939145623057823  0.9022517426254596  0.4962042235194266
  0.2830726397465066  0.8940493891721625  0.3479407381856773
  0.8572518383189403  0.4403534221464472  0.4495361263235928
  0.2852642850259646  0.8194148666427572  0.2388739154411875
  0.8595127239389887  0.5081968106640643  0.3343505959716135
  0.9583286713964169  0.9814859844464781  0.9189805955825938
  0.4055168159721648  0.7684421301153900  0.5851472725976022
  0.7444479871561472  0.6047545337879388  0.4907643589916694
  0.2278075595380431  0.9149637102864373  0.1686129626445042
  0.9825282918153355  0.9718025785989614  0.7333054008487310
  0.3014324384123987  0.0872249632573109  0.2448632138541805
  0.1889837093699160  0.0134162918039398  0.2539191134590700
  0.1381421370645198  0.0473971349570106  0.1355336015518014
  0.7664675406609808  0.6757146168078318  0.9710109949497360
  0.1254494914593340  0.4390469048665547  0.5886924998162292
  0.6199394149514509  0.8912408939394736  0.7032053254634414
  0.3900181932715894  0.8511225042663593  0.4141438558331936
  0.2959024884140741  0.0436360172552697  0.4692615541232188
  0.2183615816936322  0.0769755499213775  0.5740738238591231
  0.7321376276736026  0.4715758847886490  0.4794662519131268
  0.8606662676556477  0.9324300881690893  0.1147759270994763
  0.4536058731486088  0.4516187668033587  0.7293205379533207
  0.8100345569754167  0.8231591330003927  0.1278262116684135
  0.0628807900804295  0.2350597549327876  0.0804686514353967
  0.9650013867926653  0.1225609372131698  0.2332745125422440
  0.8275853619993554  0.4505555139193941  0.0910072152538895
  0.4270912767755274  0.9141924516645377  0.7065654489708518
  0.5585443089540687  0.2644719241158810  0.5906776457898909
  0.3303562531152953  0.5583360246055490  0.0629600517789502
  0.6199983186837572  0.5783641170564524  0.9378915934015748
  0.5531943429467733  0.2051769104099854  0.9185895415315570
  0.7753379814743502  0.6754367888404658  0.7055998099614902
  0.9083456726919268 -0.0066483463001625  0.4195251684611145
  0.3814319613292548  0.3369244766303088  0.0865546618044880
  0.9279892102532415  0.7888994498536428  0.9801316166166355
  0.0167297598432233  0.4105762277377769  0.0354817435564917
  0.0242048650361242  0.9244036115361317  0.2414965095881497
  0.4279311678757261  0.6107221492478215  0.2374853849944684
  0.4933077565917008  0.9991710448402972  0.4569005064504947
  0.8895486522599939  0.2629803014514462  0.0828475237155488
  0.4350917587131642  0.4121667325881301  0.5687366039380223
  0.8037726921422904  0.8332262251187926  0.4592997185678215
  0.9129941502624311  0.0916602622808229  0.0292388328256727
  0.5847679031950718  0.5872840690826095  0.3332819690466332
  0.2091303025862244  0.7113836450357856  0.0099172256403300
  0.9598480124003068  0.9006909759767302  0.8284427744176343
  0.7759615854157703  0.1357937056675569  0.4308145629554910
  0.4782944141319730  0.7495683519217261  0.7777539901183806
  0.8961072919538193  0.7155978756959475  0.5694202624652336
  0.1143485323532873  0.2326054288107688  0.2559807808248155
  0.3130501709522365  0.7502682949398870  0.6627452617254055
  0.1564355588292010  0.9634899438898445  0.8451671315795228
  0.1390362457866504  0.5584991713177991  0.3106013607805576
  0.9247203322544995  0.2855912287810146  0.7789003296308113
  0.0462460025700261  0.4135745296147627  0.2329367544357566
  0.5652852000806540  0.8275596665650250  0.1383090147858228
  0.3460813483903342  0.7573166767250535  0.4796883408906795
  0.5647980024347565  0.5571219575858081  0.1243039675418504
  0.3371790652771349  0.4365740796849875  0.8613003023433865
  0.1696563275022679  0.5969537675423990  0.4740485128437882
  0.8888832142850700  0.5397429634323898  0.6010629251503167
  0.7362602481580960  0.2982410585109824  0.1442262856324519
  0.2605716589048351  0.7766547685389750  0.8357190181774786
  0.1387490667826970  0.4725659442268259  0.7746894042510846
  0.8216186964307344  0.2743371612852964  0.3114821626053240
  0.7776952764562729  0.9821711528363710  0.7929443507098688
  0.4693014192728380  0.9363589074336651  0.0022706028073526
  0.2628457090996833  0.8841947130898526  0.9849855704989297
  0.3220061965493148  0.4962223479066393  0.3457621668172573
  0.7060200924193397  0.9779524889592233  0.5590983092295576
  0.3811540005137409  0.5521784086577517  0.7031211505148266
  0.5794665549569241  0.3734215602662171  0.1272018195260975
  0.0715625567257274  0.8989429780564462  0.0503503489934991
  0.6549834949046618  0.9970377641283855  0.1931459523353352
  0.8181127359288409  0.8525211721754503  0.6569044105081657
  0.1296614518634421  0.1368694670261394  0.5127836704401361
  0.0767654722243404  0.3270825562337815  0.8899531170236850
  0.0196865279197055  0.4838931745762434  0.4233485298836067
  0.2708446033943133  0.3224100659775273  0.4282744337269691
  0.0834886719934294  0.6237476445061511  0.6536764615491523
  0.9277321793374464  0.5904207036585933  0.0163525039543730
  0.3259374832145403  0.0597466369016798  0.6934421870503106
  0.6518834223345719  0.1367029203714095  0.3210783770814057
  0.4073972069124943  0.5823257499971105  0.5195565770299319
  0.8587300714081512  0.1363862495483894  0.7025974187293947
  0.0656243154146264  0.2281799435792533  0.6537817062564164
  0.7679918582785554  0.4530228399184144  0.2720975697594604
  0.7496103814000085  0.8764652188931324  0.9520770486839896
  0.0244521542885271  0.0778645488531882  0.7788477534333753
  0.7184640494659865  0.3428703283059640  0.6561543033645115
  0.2084459477878512  0.3085262212748999  0.7426135720956352
  0.5115143132432151  0.0844762277185164  0.6236503393598415
  0.5544355169424340  0.3382281707499926  0.7646759588835317
  0.1469335953161806  0.7900973841459269  0.6893967706626830
  0.4085137886151100  0.9485474258234265  0.1810895168735319
  0.5087729050882431  0.5154159952365486  0.8191425361288069
  0.6165764540930120  0.7839914920209065  0.6510548924036745
  0.0736736266550534  0.6844415796043372  0.8279317223942856
  0.5773649684298148  0.0917089563382857  0.0587824909422913
  0.2604579809233094  0.1502759939177772  0.3412380865510214
  0.7396096551543510  0.1848181068645467  0.9870754275140189
  0.6498592553847173  0.7444675671431512  0.8361270300686950
  0.0948075587397557  0.7488859925580758  0.1800142423215066
  0.6609731043803849  0.7490623623712553  0.3676527704438518
  0.4059647389203997  0.1513926480719281  0.0417685235523265
  0.4431566840204907  0.2383043411442810  0.3580015212466556
  0.6630496449015822  0.5022694089080959  0.7537374501739993
  0.5665000746437455  0.6558556482321068  0.5114689183218637
  0.3635746601676942 -0.0001016483851298  0.8612228107431288
  0.0756956122264892  0.3037398037610973  0.4641112553976777
  0.5359410134068128  0.8820027523020770  0.3123245930749436
  0.2341117638741043  0.8906607727379923  0.5530901186677875
  0.5022366021999881  0.3905821901505992  0.9612015387729752
  0.2103659294301156  0.3728536429183069  0.0167808464162910
  0.2481686745905904  0.6328565362651746  0.2033285788490147
  0.6916266406258129  0.9707409414540018  0.3704530834190640
  0.3181009107558576  0.3229122051228375  0.2508196949305712
  0.3435406640627535  0.6288021939534159  0.8901112812893417
  0.0628926959996080  0.9610999714250897  0.5568453421847191
  0.6229153083317678  0.3253196398339416  0.2989022277584073
  0.4795317931114583  0.4281887580751875  0.2945080091317346
  0.2294664480423021  0.0883922760029939  0.9638356753601048
  0.1148931666216838  0.5692898944000009  0.0827860908842972
  0.9391416504132239  0.1749067539674607  0.5125230297117377
  0.9693736576359239  0.4639588098702319  0.8600149392248895
  0.7836714764620619  0.4747478120806475  0.9098666745546319
  0.0855197907672259  0.7922816486547117  0.4839147179959641
  0.7415600412702733  0.6324519341930596  0.0854358212135978
  0.3866199958837397  0.2432676405357414  0.6713976642482754
  0.2514121894672460  0.2064073912185937  0.1088803053822454
 
  0.00000000E+00  0.00000000E+00  0.00000000E+00
  0.00000000E+00  0.00000000E+00  0.00000000E+00
  0.00000000E+00  0.00000000E+00  0.00000000E+00
  0.00000000E+00  0.00000000E+00  0.00000000E+00
  0.00000000E+00  0.00000000E+00  0.00000000E+00
  0.00000000E+00  0.00000000E+00  0.00000000E+00
  0.00000000E+00  0.00000000E+00  0.00000000E+00
  0.00000000E+00  0.00000000E+00  0.00000000E+00
  0.00000000E+00  0.00000000E+00  0.00000000E+00
  0.00000000E+00  0.00000000E+00  0.00000000E+00
  0.00000000E+00  0.00000000E+00  0.00000000E+00
  0.00000000E+00  0.00000000E+00  0.00000000E+00
  0.00000000E+00  0.00000000E+00  0.00000000E+00
  0.00000000E+00  0.00000000E+00  0.00000000E+00
  0.00000000E+00  0.00000000E+00  0.00000000E+00
  0.00000000E+00  0.00000000E+00  0.00000000E+00
  0.00000000E+00  0.00000000E+00  0.00000000E+00
  0.00000000E+00  0.00000000E+00  0.00000000E+00
  0.00000000E+00  0.00000000E+00  0.00000000E+00
  0.00000000E+00  0.00000000E+00  0.00000000E+00
  0.00000000E+00  0.00000000E+00  0.00000000E+00
  0.00000000E+00  0.00000000E+00  0.00000000E+00
  0.00000000E+00  0.00000000E+00  0.00000000E+00
  0.00000000E+00  0.00000000E+00  0.00000000E+00
  0.00000000E+00  0.00000000E+00  0.00000000E+00
  0.00000000E+00  0.00000000E+00  0.00000000E+00
  0.00000000E+00  0.00000000E+00  0.00000000E+00
  0.00000000E+00  0.00000000E+00  0.00000000E+00
  0.00000000E+00  0.00000000E+00  0.00000000E+00
  0.00000000E+00  0.00000000E+00  0.00000000E+00
  0.00000000E+00  0.00000000E+00  0.00000000E+00
  0.00000000E+00  0.00000000E+00  0.00000000E+00
  0.00000000E+00  0.00000000E+00  0.00000000E+00
  0.00000000E+00  0.00000000E+00  0.00000000E+00
  0.00000000E+00  0.00000000E+00  0.00000000E+00
  0.00000000E+00  0.00000000E+00  0.00000000E+00
  0.00000000E+00  0.00000000E+00  0.00000000E+00
  0.00000000E+00  0.00000000E+00  0.00000000E+00
  0.00000000E+00  0.00000000E+00  0.00000000E+00
  0.00000000E+00  0.00000000E+00  0.00000000E+00
  0.00000000E+00  0.00000000E+00  0.00000000E+00
  0.00000000E+00  0.00000000E+00  0.00000000E+00
  0.00000000E+00  0.00000000E+00  0.00000000E+00
  0.00000000E+00  0.00000000E+00  0.00000000E+00
  0.00000000E+00  0.00000000E+00  0.00000000E+00
  0.00000000E+00  0.00000000E+00  0.00000000E+00
  0.00000000E+00  0.00000000E+00  0.00000000E+00
  0.00000000E+00  0.00000000E+00  0.00000000E+00
  0.00000000E+00  0.00000000E+00  0.00000000E+00
  0.00000000E+00  0.00000000E+00  0.00000000E+00
  0.00000000E+00  0.00000000E+00  0.00000000E+00
  0.00000000E+00  0.00000000E+00  0.00000000E+00
  0.00000000E+00  0.00000000E+00  0.00000000E+00
  0.00000000E+00  0.00000000E+00  0.00000000E+00
  0.00000000E+00  0.00000000E+00  0.00000000E+00
  0.00000000E+00  0.00000000E+00  0.00000000E+00
  0.00000000E+00  0.00000000E+00  0.00000000E+00
  0.00000000E+00  0.00000000E+00  0.00000000E+00
  0.00000000E+00  0.00000000E+00  0.00000000E+00
  0.00000000E+00  0.00000000E+00  0.00000000E+00
  0.00000000E+00  0.00000000E+00  0.00000000E+00
  0.00000000E+00  0.00000000E+00  0.00000000E+00
  0.00000000E+00  0.00000000E+00  0.00000000E+00
  0.00000000E+00  0.00000000E+00  0.00000000E+00
  0.00000000E+00  0.00000000E+00  0.00000000E+00
  0.00000000E+00  0.00000000E+00  0.00000000E+00
  0.00000000E+00  0.00000000E+00  0.00000000E+00
  0.00000000E+00  0.00000000E+00  0.00000000E+00
  0.00000000E+00  0.00000000E+00  0.00000000E+00
  0.00000000E+00  0.00000000E+00  0.00000000E+00
  0.00000000E+00  0.00000000E+00  0.00000000E+00
  0.00000000E+00  0.00000000E+00  0.00000000E+00
  0.00000000E+00  0.00000000E+00  0.00000000E+00
  0.00000000E+00  0.00000000E+00  0.00000000E+00
  0.00000000E+00  0.00000000E+00  0.00000000E+00
  0.00000000E+00  0.00000000E+00  0.00000000E+00
  0.00000000E+00  0.00000000E+00  0.00000000E+00
  0.00000000E+00  0.00000000E+00  0.00000000E+00
  0.00000000E+00  0.00000000E+00  0.00000000E+00
  0.00000000E+00  0.00000000E+00  0.00000000E+00
  0.00000000E+00  0.00000000E+00  0.00000000E+00
  0.00000000E+00  0.00000000E+00  0.00000000E+00
  0.00000000E+00  0.00000000E+00  0.00000000E+00
  0.00000000E+00  0.00000000E+00  0.00000000E+00
  0.00000000E+00  0.00000000E+00  0.00000000E+00
  0.00000000E+00  0.00000000E+00  0.00000000E+00
  0.00000000E+00  0.00000000E+00  0.00000000E+00
  0.00000000E+00  0.00000000E+00  0.00000000E+00
  0.00000000E+00  0.00000000E+00  0.00000000E+00
  0.00000000E+00  0.00000000E+00  0.00000000E+00
  0.00000000E+00  0.00000000E+00  0.00000000E+00
  0.00000000E+00  0.00000000E+00  0.00000000E+00
  0.00000000E+00  0.00000000E+00  0.00000000E+00
  0.00000000E+00  0.00000000E+00  0.00000000E+00
  0.00000000E+00  0.00000000E+00  0.00000000E+00
  0.00000000E+00  0.00000000E+00  0.00000000E+00
  0.00000000E+00  0.00000000E+00  0.00000000E+00
  0.00000000E+00  0.00000000E+00  0.00000000E+00
  0.00000000E+00  0.00000000E+00  0.00000000E+00
  0.00000000E+00  0.00000000E+00  0.00000000E+00
  0.00000000E+00  0.00000000E+00  0.00000000E+00
  0.00000000E+00  0.00000000E+00  0.00000000E+00
  0.00000000E+00  0.00000000E+00  0.00000000E+00
  0.00000000E+00  0.00000000E+00  0.00000000E+00
  0.00000000E+00  0.00000000E+00  0.00000000E+00
  0.00000000E+00  0.00000000E+00  0.00000000E+00
  0.00000000E+00  0.00000000E+00  0.00000000E+00
  0.00000000E+00  0.00000000E+00  0.00000000E+00
  0.00000000E+00  0.00000000E+00  0.00000000E+00
  0.00000000E+00  0.00000000E+00  0.00000000E+00
  0.00000000E+00  0.00000000E+00  0.00000000E+00
  0.00000000E+00  0.00000000E+00  0.00000000E+00
  0.00000000E+00  0.00000000E+00  0.00000000E+00
  0.00000000E+00  0.00000000E+00  0.00000000E+00
  0.00000000E+00  0.00000000E+00  0.00000000E+00
  0.00000000E+00  0.00000000E+00  0.00000000E+00
  0.00000000E+00  0.00000000E+00  0.00000000E+00
  0.00000000E+00  0.00000000E+00  0.00000000E+00
  0.00000000E+00  0.00000000E+00  0.00000000E+00
  0.00000000E+00  0.00000000E+00  0.00000000E+00
  0.00000000E+00  0.00000000E+00  0.00000000E+00
  0.00000000E+00  0.00000000E+00  0.00000000E+00
  0.00000000E+00  0.00000000E+00  0.00000000E+00
  0.00000000E+00  0.00000000E+00  0.00000000E+00
  0.00000000E+00  0.00000000E+00  0.00000000E+00
  0.00000000E+00  0.00000000E+00  0.00000000E+00
  0.00000000E+00  0.00000000E+00  0.00000000E+00
  0.00000000E+00  0.00000000E+00  0.00000000E+00
  0.00000000E+00  0.00000000E+00  0.00000000E+00
  0.00000000E+00  0.00000000E+00  0.00000000E+00
  0.00000000E+00  0.00000000E+00  0.00000000E+00
  0.00000000E+00  0.00000000E+00  0.00000000E+00
  0.00000000E+00  0.00000000E+00  0.00000000E+00
  0.00000000E+00  0.00000000E+00  0.00000000E+00
  0.00000000E+00  0.00000000E+00  0.00000000E+00
  0.00000000E+00  0.00000000E+00  0.00000000E+00
  0.00000000E+00  0.00000000E+00  0.00000000E+00
  0.00000000E+00  0.00000000E+00  0.00000000E+00
  0.00000000E+00  0.00000000E+00  0.00000000E+00
  0.00000000E+00  0.00000000E+00  0.00000000E+00
  0.00000000E+00  0.00000000E+00  0.00000000E+00
  0.00000000E+00  0.00000000E+00  0.00000000E+00
  0.00000000E+00  0.00000000E+00  0.00000000E+00
  0.00000000E+00  0.00000000E+00  0.00000000E+00
  0.00000000E+00  0.00000000E+00  0.00000000E+00
  0.00000000E+00  0.00000000E+00  0.00000000E+00
  0.00000000E+00  0.00000000E+00  0.00000000E+00
  0.00000000E+00  0.00000000E+00  0.00000000E+00
  0.00000000E+00  0.00000000E+00  0.00000000E+00
  0.00000000E+00  0.00000000E+00  0.00000000E+00
  0.00000000E+00  0.00000000E+00  0.00000000E+00
  0.00000000E+00  0.00000000E+00  0.00000000E+00
  0.00000000E+00  0.00000000E+00  0.00000000E+00
  0.00000000E+00  0.00000000E+00  0.00000000E+00
  0.00000000E+00  0.00000000E+00  0.00000000E+00
  0.00000000E+00  0.00000000E+00  0.00000000E+00
  0.00000000E+00  0.00000000E+00  0.00000000E+00
  0.00000000E+00  0.00000000E+00  0.00000000E+00
  0.00000000E+00  0.00000000E+00  0.00000000E+00
  0.00000000E+00  0.00000000E+00  0.00000000E+00
  0.00000000E+00  0.00000000E+00  0.00000000E+00
  0.00000000E+00  0.00000000E+00  0.00000000E+00
  0.00000000E+00  0.00000000E+00  0.00000000E+00
  0.00000000E+00  0.00000000E+00  0.00000000E+00
  0.00000000E+00  0.00000000E+00  0.00000000E+00
  0.00000000E+00  0.00000000E+00  0.00000000E+00
  0.00000000E+00  0.00000000E+00  0.00000000E+00
  0.00000000E+00  0.00000000E+00  0.00000000E+00
  0.00000000E+00  0.00000000E+00  0.00000000E+00
  0.00000000E+00  0.00000000E+00  0.00000000E+00
  0.00000000E+00  0.00000000E+00  0.00000000E+00
  0.00000000E+00  0.00000000E+00  0.00000000E+00
  0.00000000E+00  0.00000000E+00  0.00000000E+00
  0.00000000E+00  0.00000000E+00  0.00000000E+00
  0.00000000E+00  0.00000000E+00  0.00000000E+00
  0.00000000E+00  0.00000000E+00  0.00000000E+00
  0.00000000E+00  0.00000000E+00  0.00000000E+00
  0.00000000E+00  0.00000000E+00  0.00000000E+00
  0.00000000E+00  0.00000000E+00  0.00000000E+00
  0.00000000E+00  0.00000000E+00  0.00000000E+00
  0.00000000E+00  0.00000000E+00  0.00000000E+00
  0.00000000E+00  0.00000000E+00  0.00000000E+00
  0.00000000E+00  0.00000000E+00  0.00000000E+00
  0.00000000E+00  0.00000000E+00  0.00000000E+00
  0.00000000E+00  0.00000000E+00  0.00000000E+00
  0.00000000E+00  0.00000000E+00  0.00000000E+00
  0.00000000E+00  0.00000000E+00  0.00000000E+00
  0.00000000E+00  0.00000000E+00  0.00000000E+00
  0.00000000E+00  0.00000000E+00  0.00000000E+00
  0.00000000E+00  0.00000000E+00  0.00000000E+00
  0.00000000E+00  0.00000000E+00  0.00000000E+00
  0.00000000E+00  0.00000000E+00  0.00000000E+00
  0.00000000E+00  0.00000000E+00  0.00000000E+00
  0.00000000E+00  0.00000000E+00  0.00000000E+00
  0.00000000E+00  0.00000000E+00  0.00000000E+00
  0.00000000E+00  0.00000000E+00  0.00000000E+00
  0.00000000E+00  0.00000000E+00  0.00000000E+00
  0.00000000E+00  0.00000000E+00  0.00000000E+00
  0.00000000E+00  0.00000000E+00  0.00000000E+00
  0.00000000E+00  0.00000000E+00  0.00000000E+00
  0.00000000E+00  0.00000000E+00  0.00000000E+00
  0.00000000E+00  0.00000000E+00  0.00000000E+00
  0.00000000E+00  0.00000000E+00  0.00000000E+00
  0.00000000E+00  0.00000000E+00  0.00000000E+00
  0.00000000E+00  0.00000000E+00  0.00000000E+00
  0.00000000E+00  0.00000000E+00  0.00000000E+00
  0.00000000E+00  0.00000000E+00  0.00000000E+00
  0.00000000E+00  0.00000000E+00  0.00000000E+00
  0.00000000E+00  0.00000000E+00  0.00000000E+00
  0.00000000E+00  0.00000000E+00  0.00000000E+00
  0.00000000E+00  0.00000000E+00  0.00000000E+00
  0.00000000E+00  0.00000000E+00  0.00000000E+00
  0.00000000E+00  0.00000000E+00  0.00000000E+00
  0.00000000E+00  0.00000000E+00  0.00000000E+00
  0.00000000E+00  0.00000000E+00  0.00000000E+00
  0.00000000E+00  0.00000000E+00  0.00000000E+00
  0.00000000E+00  0.00000000E+00  0.00000000E+00
  0.00000000E+00  0.00000000E+00  0.00000000E+00
  0.00000000E+00  0.00000000E+00  0.00000000E+00
  0.00000000E+00  0.00000000E+00  0.00000000E+00
  0.00000000E+00  0.00000000E+00  0.00000000E+00
  0.00000000E+00  0.00000000E+00  0.00000000E+00
  0.00000000E+00  0.00000000E+00  0.00000000E+00
  0.00000000E+00  0.00000000E+00  0.00000000E+00
  0.00000000E+00  0.00000000E+00  0.00000000E+00
  0.00000000E+00  0.00000000E+00  0.00000000E+00
  0.00000000E+00  0.00000000E+00  0.00000000E+00
  0.00000000E+00  0.00000000E+00  0.00000000E+00
  0.00000000E+00  0.00000000E+00  0.00000000E+00
  0.00000000E+00  0.00000000E+00  0.00000000E+00
  0.00000000E+00  0.00000000E+00  0.00000000E+00
  0.00000000E+00  0.00000000E+00  0.00000000E+00
  0.00000000E+00  0.00000000E+00  0.00000000E+00
  0.00000000E+00  0.00000000E+00  0.00000000E+00
  0.00000000E+00  0.00000000E+00  0.00000000E+00
  0.00000000E+00  0.00000000E+00  0.00000000E+00
  0.00000000E+00  0.00000000E+00  0.00000000E+00
  0.00000000E+00  0.00000000E+00  0.00000000E+00
  0.00000000E+00  0.00000000E+00  0.00000000E+00
  0.00000000E+00  0.00000000E+00  0.00000000E+00
