Bi42 Te39 S24                           
   1.00000000000000     
     5.6571958186106102   -9.7985540667419144    0.0000000000000000
     5.6571988328485174    9.7985523264708476    0.0000000000000000
     0.0000000000000001    0.0000000000000000   32.1144178834349106
   Bi   Te   S 
    42    39    24
Direct
  0.3333333333333357  0.6666666666666643  0.0571996602206082
  0.0522133037188266  0.2477137523410592  0.0591853745312754
  0.3333333333333357  0.6666666666666643  0.2761336731127272
  0.4807067759788473  0.3770708960589730  0.0536245951863061
  0.7703025465865386  0.8140401093121760  0.2797087381470294
  0.1955004486222328  0.9477866962811733  0.0591853745312754
  0.6144533629478376  0.0856195809922692  0.2741479588020529
  0.1859598906878238  0.9562624372743628  0.2797087381470294
  0.8963641200801257  0.5192932240211526  0.0536245951863061
  0.4711662180444313  0.3855466370521624  0.2741479588020529
  0.0437375627256372  0.2296974534134611  0.2797087381470294
  0.7522862476589413  0.8044995513777674  0.0591853745312754
  0.6229291039410271  0.1036358799198746  0.0536245951863061
  0.9143804190077301  0.5288337819555683  0.2741479588020529
  0.0000000000000000  0.0000000000000000  0.3905329935539371
  0.7188799703854910  0.5810470856743944  0.3925187078646114
  0.0000000000000000  0.0000000000000000  0.6094670064460633
  0.1473734426455119  0.7104042293923015  0.3869579285196349
  0.4369692132532103  0.1473734426455119  0.6130420714803652
  0.8621671152889040  0.2811200296145090  0.3925187078646114
  0.2811200296145090  0.4189529143256047  0.6074812921353889
  0.8526265573544883  0.2895957706076984  0.6130420714803652
  0.5630307867467900  0.8526265573544883  0.3869579285196349
  0.1378328847110958  0.7188799703854910  0.6074812921353889
  0.7104042293923015  0.5630307867467900  0.6130420714803652
  0.4189529143256047  0.1378328847110958  0.3925187078646114
  0.2895957706076984  0.4369692132532103  0.3869579285196349
  0.5810470856743944  0.8621671152889040  0.6074812921353889
  0.6666666666666643  0.3333333333333357  0.7238663268872724
  0.3855466370521624  0.9143804190077301  0.7258520411979468
  0.6666666666666643  0.3333333333333357  0.9428003397793919
  0.8140401093121760  0.0437375627256372  0.7202912618529705
  0.1036358799198746  0.4807067759788473  0.9463754048136938
  0.5288337819555683  0.6144533629478376  0.7258520411979468
  0.9477866962811733  0.7522862476589413  0.9408146254687246
  0.5192932240211526  0.6229291039410271  0.9463754048136938
  0.2296974534134611  0.1859598906878238  0.7202912618529705
  0.8044995513777674  0.0522133037188266  0.9408146254687246
  0.3770708960589730  0.8963641200801257  0.9463754048136938
  0.0856195809922692  0.4711662180444313  0.7258520411979468
  0.9562624372743628  0.7703025465865386  0.7202912618529705
  0.2477137523410592  0.1955004486222328  0.9408146254687246
  0.2712191919399786  0.4239787128390226  0.2198376385873880
  0.9477269999644715  0.7569725708965236  0.1122197434674178
  0.4236392375631948  0.1425789042653875  0.2211135898659180
  0.0906453795056872  0.4860928542323719  0.1134956947459476
  0.1527595208990363  0.7287808080600204  0.2198376385873880
  0.5139071457676274  0.6045525252733153  0.1134956947459476
  0.0000000000000000  0.0000000000000000  0.0000000000000000
  0.8574210957346122  0.2810603332978071  0.2211135898659180
  0.5760212871609778  0.8472404791009631  0.2198376385873880
  0.7189396667021928  0.5763607624368050  0.2211135898659180
  0.8092455709320521  0.0522730000355287  0.1122197434674178
  0.3954474747266857  0.9093546204943135  0.1134956947459476
  0.2430274291034770  0.1907544290679482  0.1122197434674178
  0.9378858586066510  0.7573120461723508  0.5531709719207167
  0.6143936666311358  0.0903059042298588  0.4455530768007535
  0.0903059042298588  0.4759122375987229  0.5544469231992460
  0.7573120461723508  0.8194261875657083  0.4468290280792833
  0.8194261875657083  0.0621141413933493  0.5531709719207167
  0.1805738124342923  0.9378858586066510  0.4468290280792833
  0.6666666666666643  0.3333333333333357  0.3333333333333357
  0.5240877624012765  0.6143936666311358  0.5544469231992460
  0.2426879538276485  0.1805738124342923  0.5531709719207167
  0.3856063333688643  0.9096940957701407  0.5544469231992460
  0.4759122375987229  0.3856063333688643  0.4455530768007535
  0.0621141413933493  0.2426879538276485  0.4468290280792833
  0.9096940957701407  0.5240877624012765  0.4455530768007535
  0.6045525252733153  0.0906453795056872  0.8865043052540524
  0.2810603332978071  0.4236392375631948  0.7788864101340826
  0.7569725708965236  0.8092455709320521  0.8877802565325817
  0.4239787128390226  0.1527595208990363  0.7801623614126119
  0.4860928542323719  0.3954474747266857  0.8865043052540524
  0.8472404791009631  0.2712191919399786  0.7801623614126119
  0.3333333333333357  0.6666666666666643  0.6666666666666643
  0.1907544290679482  0.9477269999644715  0.8877802565325817
  0.9093546204943135  0.5139071457676274  0.8865043052540524
  0.0522730000355287  0.2430274291034770  0.8877802565325817
  0.1425789042653875  0.7189396667021928  0.7788864101340826
  0.7287808080600204  0.5760212871609778  0.7801623614126119
  0.5763607624368050  0.8574210957346122  0.7788864101340826
  0.5710999860006583  0.8612153468889172  0.0008216074660945
  0.6666666666666643  0.3333333333333357  0.0962507078952897
  0.1387846531110819  0.7098846391117469  0.0008216074660945
  0.0955666806660059  0.4721179864444174  0.3325117258672415
  0.5278820135555815  0.6234486942215888  0.3325117258672415
  0.2901153608882526  0.4289000139993416  0.0008216074660945
  0.3765513057784117  0.9044333193339940  0.3325117258672415
  0.0000000000000000  0.0000000000000000  0.2370826254380461
  0.2377666526673296  0.1945486802222467  0.3341549407994299
  0.3333333333333357  0.6666666666666643  0.4295840412286188
  0.8054513197777542  0.0432179724450759  0.3341549407994299
  0.7622333473326703  0.8054513197777542  0.6658450592005692
  0.1945486802222467  0.9567820275549245  0.6658450592005692
  0.9567820275549245  0.7622333473326703  0.3341549407994299
  0.0432179724450759  0.2377666526673296  0.6658450592005692
  0.6666666666666643  0.3333333333333357  0.5704159587713821
  0.9044333193339940  0.5278820135555815  0.6674882741327594
  0.0000000000000000  0.0000000000000000  0.7629173745619536
  0.4721179864444174  0.3765513057784117  0.6674882741327594
  0.4289000139993416  0.1387846531110819  0.9991783925339049
  0.8612153468889172  0.2901153608882526  0.9991783925339049
  0.6234486942215888  0.0955666806660059  0.6674882741327594
  0.7098846391117469  0.5710999860006583  0.9991783925339049
  0.3333333333333357  0.6666666666666643  0.9037492921047107
 
  0.00000000E+00  0.00000000E+00  0.00000000E+00
  0.00000000E+00  0.00000000E+00  0.00000000E+00
  0.00000000E+00  0.00000000E+00  0.00000000E+00
  0.00000000E+00  0.00000000E+00  0.00000000E+00
  0.00000000E+00  0.00000000E+00  0.00000000E+00
  0.00000000E+00  0.00000000E+00  0.00000000E+00
  0.00000000E+00  0.00000000E+00  0.00000000E+00
  0.00000000E+00  0.00000000E+00  0.00000000E+00
  0.00000000E+00  0.00000000E+00  0.00000000E+00
  0.00000000E+00  0.00000000E+00  0.00000000E+00
  0.00000000E+00  0.00000000E+00  0.00000000E+00
  0.00000000E+00  0.00000000E+00  0.00000000E+00
  0.00000000E+00  0.00000000E+00  0.00000000E+00
  0.00000000E+00  0.00000000E+00  0.00000000E+00
  0.00000000E+00  0.00000000E+00  0.00000000E+00
  0.00000000E+00  0.00000000E+00  0.00000000E+00
  0.00000000E+00  0.00000000E+00  0.00000000E+00
  0.00000000E+00  0.00000000E+00  0.00000000E+00
  0.00000000E+00  0.00000000E+00  0.00000000E+00
  0.00000000E+00  0.00000000E+00  0.00000000E+00
  0.00000000E+00  0.00000000E+00  0.00000000E+00
  0.00000000E+00  0.00000000E+00  0.00000000E+00
  0.00000000E+00  0.00000000E+00  0.00000000E+00
  0.00000000E+00  0.00000000E+00  0.00000000E+00
  0.00000000E+00  0.00000000E+00  0.00000000E+00
  0.00000000E+00  0.00000000E+00  0.00000000E+00
  0.00000000E+00  0.00000000E+00  0.00000000E+00
  0.00000000E+00  0.00000000E+00  0.00000000E+00
  0.00000000E+00  0.00000000E+00  0.00000000E+00
  0.00000000E+00  0.00000000E+00  0.00000000E+00
  0.00000000E+00  0.00000000E+00  0.00000000E+00
  0.00000000E+00  0.00000000E+00  0.00000000E+00
  0.00000000E+00  0.00000000E+00  0.00000000E+00
  0.00000000E+00  0.00000000E+00  0.00000000E+00
  0.00000000E+00  0.00000000E+00  0.00000000E+00
  0.00000000E+00  0.00000000E+00  0.00000000E+00
  0.00000000E+00  0.00000000E+00  0.00000000E+00
  0.00000000E+00  0.00000000E+00  0.00000000E+00
  0.00000000E+00  0.00000000E+00  0.00000000E+00
  0.00000000E+00  0.00000000E+00  0.00000000E+00
  0.00000000E+00  0.00000000E+00  0.00000000E+00
  0.00000000E+00  0.00000000E+00  0.00000000E+00
  0.00000000E+00  0.00000000E+00  0.00000000E+00
  0.00000000E+00  0.00000000E+00  0.00000000E+00
  0.00000000E+00  0.00000000E+00  0.00000000E+00
  0.00000000E+00  0.00000000E+00  0.00000000E+00
  0.00000000E+00  0.00000000E+00  0.00000000E+00
  0.00000000E+00  0.00000000E+00  0.00000000E+00
  0.00000000E+00  0.00000000E+00  0.00000000E+00
  0.00000000E+00  0.00000000E+00  0.00000000E+00
  0.00000000E+00  0.00000000E+00  0.00000000E+00
  0.00000000E+00  0.00000000E+00  0.00000000E+00
  0.00000000E+00  0.00000000E+00  0.00000000E+00
  0.00000000E+00  0.00000000E+00  0.00000000E+00
  0.00000000E+00  0.00000000E+00  0.00000000E+00
  0.00000000E+00  0.00000000E+00  0.00000000E+00
  0.00000000E+00  0.00000000E+00  0.00000000E+00
  0.00000000E+00  0.00000000E+00  0.00000000E+00
  0.00000000E+00  0.00000000E+00  0.00000000E+00
  0.00000000E+00  0.00000000E+00  0.00000000E+00
  0.00000000E+00  0.00000000E+00  0.00000000E+00
  0.00000000E+00  0.00000000E+00  0.00000000E+00
  0.00000000E+00  0.00000000E+00  0.00000000E+00
  0.00000000E+00  0.00000000E+00  0.00000000E+00
  0.00000000E+00  0.00000000E+00  0.00000000E+00
  0.00000000E+00  0.00000000E+00  0.00000000E+00
  0.00000000E+00  0.00000000E+00  0.00000000E+00
  0.00000000E+00  0.00000000E+00  0.00000000E+00
  0.00000000E+00  0.00000000E+00  0.00000000E+00
  0.00000000E+00  0.00000000E+00  0.00000000E+00
  0.00000000E+00  0.00000000E+00  0.00000000E+00
  0.00000000E+00  0.00000000E+00  0.00000000E+00
  0.00000000E+00  0.00000000E+00  0.00000000E+00
  0.00000000E+00  0.00000000E+00  0.00000000E+00
  0.00000000E+00  0.00000000E+00  0.00000000E+00
  0.00000000E+00  0.00000000E+00  0.00000000E+00
  0.00000000E+00  0.00000000E+00  0.00000000E+00
  0.00000000E+00  0.00000000E+00  0.00000000E+00
  0.00000000E+00  0.00000000E+00  0.00000000E+00
  0.00000000E+00  0.00000000E+00  0.00000000E+00
  0.00000000E+00  0.00000000E+00  0.00000000E+00
  0.00000000E+00  0.00000000E+00  0.00000000E+00
  0.00000000E+00  0.00000000E+00  0.00000000E+00
  0.00000000E+00  0.00000000E+00  0.00000000E+00
  0.00000000E+00  0.00000000E+00  0.00000000E+00
  0.00000000E+00  0.00000000E+00  0.00000000E+00
  0.00000000E+00  0.00000000E+00  0.00000000E+00
  0.00000000E+00  0.00000000E+00  0.00000000E+00
  0.00000000E+00  0.00000000E+00  0.00000000E+00
  0.00000000E+00  0.00000000E+00  0.00000000E+00
  0.00000000E+00  0.00000000E+00  0.00000000E+00
  0.00000000E+00  0.00000000E+00  0.00000000E+00
  0.00000000E+00  0.00000000E+00  0.00000000E+00
  0.00000000E+00  0.00000000E+00  0.00000000E+00
  0.00000000E+00  0.00000000E+00  0.00000000E+00
  0.00000000E+00  0.00000000E+00  0.00000000E+00
  0.00000000E+00  0.00000000E+00  0.00000000E+00
  0.00000000E+00  0.00000000E+00  0.00000000E+00
  0.00000000E+00  0.00000000E+00  0.00000000E+00
  0.00000000E+00  0.00000000E+00  0.00000000E+00
  0.00000000E+00  0.00000000E+00  0.00000000E+00
  0.00000000E+00  0.00000000E+00  0.00000000E+00
  0.00000000E+00  0.00000000E+00  0.00000000E+00
  0.00000000E+00  0.00000000E+00  0.00000000E+00
  0.00000000E+00  0.00000000E+00  0.00000000E+00
