K4 Bi16 Se26                            
   1.00000000000000     
     0.0000000000000000   27.7487850222582608    0.1143783657284815
     4.2195932938761409    0.0000000000000000    0.0000000000000000
     0.0000000000000000   -0.5622857854629925  -12.3839124242520562
   K    Bi   Se
     4    16    26
Direct
  0.5885098766299880  0.0000000000000000  0.0555583345968192
  0.9114901233700120  0.5000000000000000  0.9444416654031808
  0.0885098766299881  0.5000000000000000  0.0555583345968192
  0.4114901233700118  0.0000000000000000  0.9444416654031808
  0.5580007163570830  0.0000000000000000  0.3829001068418815
  0.7832022788590391  0.5000000000000000  0.1294918388542049
  0.7167977211409609  0.0000000000000000  0.8705081611457949
  0.5752248184614380  0.5000000000000000  0.7041983931902892
  0.9247751815385620  0.0000000000000000  0.2958016068097106
  0.6883374185137412  0.5000000000000000  0.4572301196330543
  0.8116625814862588  0.0000000000000000  0.5427698803669463
  0.9419992836429170  0.5000000000000000  0.6170998931581188
  0.0580007163570833  0.5000000000000000  0.3829001068418815
  0.2832022788590396  0.0000000000000000  0.1294918388542049
  0.2167977211409605  0.5000000000000000  0.8705081611457949
  0.0752248184614383  0.0000000000000000  0.7041983931902892
  0.4247751815385615  0.5000000000000000  0.2958016068097106
  0.1883374185137409  0.0000000000000000  0.4572301196330543
  0.3116625814862594  0.5000000000000000  0.5427698803669463
  0.4419992836429168  0.0000000000000000  0.6170998931581188
  0.8599443355900164  0.0000000000000000  0.1159430436812953
  0.0000000000000000  0.0000000000000000  0.5000000000000000
  0.7896350663785280  0.5000000000000000  0.9102767306316722
  0.7103649336214720  0.0000000000000000  0.0897232693683278
  0.6400556644099836  0.5000000000000000  0.8840569563187053
  0.6291251018947100  0.0000000000000000  0.5718431598987266
  0.7574395392778680  0.5000000000000000  0.6413573749776224
  0.7425604607221320  0.0000000000000000  0.3586426250223776
  0.8708748981052900  0.5000000000000000  0.4281568401012731
  0.5191885810351121  0.0000000000000000  0.7977241379324242
  0.9808114189648879  0.5000000000000000  0.2022758620675749
  0.6091326566273734  0.5000000000000000  0.2777398160203350
  0.8908673433726266  0.0000000000000000  0.7222601839796645
  0.3599443355900171  0.5000000000000000  0.1159430436812953
  0.5000000000000000  0.5000000000000000  0.5000000000000000
  0.2896350663785274  0.0000000000000000  0.9102767306316722
  0.2103649336214725  0.5000000000000000  0.0897232693683278
  0.1400556644099831  0.0000000000000000  0.8840569563187053
  0.1291251018947100  0.5000000000000000  0.5718431598987266
  0.2574395392778681  0.0000000000000000  0.6413573749776224
  0.2425604607221321  0.5000000000000000  0.3586426250223776
  0.3708748981052901  0.0000000000000000  0.4281568401012731
  0.0191885810351122  0.5000000000000000  0.7977241379324242
  0.4808114189648879  0.0000000000000000  0.2022758620675749
  0.1091326566273738  0.0000000000000000  0.2777398160203350
  0.3908673433726261  0.5000000000000000  0.7222601839796645
 
  0.00000000E+00  0.00000000E+00  0.00000000E+00
  0.00000000E+00  0.00000000E+00  0.00000000E+00
  0.00000000E+00  0.00000000E+00  0.00000000E+00
  0.00000000E+00  0.00000000E+00  0.00000000E+00
  0.00000000E+00  0.00000000E+00  0.00000000E+00
  0.00000000E+00  0.00000000E+00  0.00000000E+00
  0.00000000E+00  0.00000000E+00  0.00000000E+00
  0.00000000E+00  0.00000000E+00  0.00000000E+00
  0.00000000E+00  0.00000000E+00  0.00000000E+00
  0.00000000E+00  0.00000000E+00  0.00000000E+00
  0.00000000E+00  0.00000000E+00  0.00000000E+00
  0.00000000E+00  0.00000000E+00  0.00000000E+00
  0.00000000E+00  0.00000000E+00  0.00000000E+00
  0.00000000E+00  0.00000000E+00  0.00000000E+00
  0.00000000E+00  0.00000000E+00  0.00000000E+00
  0.00000000E+00  0.00000000E+00  0.00000000E+00
  0.00000000E+00  0.00000000E+00  0.00000000E+00
  0.00000000E+00  0.00000000E+00  0.00000000E+00
  0.00000000E+00  0.00000000E+00  0.00000000E+00
  0.00000000E+00  0.00000000E+00  0.00000000E+00
  0.00000000E+00  0.00000000E+00  0.00000000E+00
  0.00000000E+00  0.00000000E+00  0.00000000E+00
  0.00000000E+00  0.00000000E+00  0.00000000E+00
  0.00000000E+00  0.00000000E+00  0.00000000E+00
  0.00000000E+00  0.00000000E+00  0.00000000E+00
  0.00000000E+00  0.00000000E+00  0.00000000E+00
  0.00000000E+00  0.00000000E+00  0.00000000E+00
  0.00000000E+00  0.00000000E+00  0.00000000E+00
  0.00000000E+00  0.00000000E+00  0.00000000E+00
  0.00000000E+00  0.00000000E+00  0.00000000E+00
  0.00000000E+00  0.00000000E+00  0.00000000E+00
  0.00000000E+00  0.00000000E+00  0.00000000E+00
  0.00000000E+00  0.00000000E+00  0.00000000E+00
  0.00000000E+00  0.00000000E+00  0.00000000E+00
  0.00000000E+00  0.00000000E+00  0.00000000E+00
  0.00000000E+00  0.00000000E+00  0.00000000E+00
  0.00000000E+00  0.00000000E+00  0.00000000E+00
  0.00000000E+00  0.00000000E+00  0.00000000E+00
  0.00000000E+00  0.00000000E+00  0.00000000E+00
  0.00000000E+00  0.00000000E+00  0.00000000E+00
  0.00000000E+00  0.00000000E+00  0.00000000E+00
  0.00000000E+00  0.00000000E+00  0.00000000E+00
  0.00000000E+00  0.00000000E+00  0.00000000E+00
  0.00000000E+00  0.00000000E+00  0.00000000E+00
  0.00000000E+00  0.00000000E+00  0.00000000E+00
  0.00000000E+00  0.00000000E+00  0.00000000E+00
