Ge Sb Te                                
   1.00000000000000     
    18.9061996155000003    0.0000000000000000    0.0000000000000000
     0.0000000000000000   18.9061996155000003    0.0000000000000000
     0.0000000000000000    0.0000000000000000   18.9061996155000003
   Ge   Sb   Te
    43    43   108
Direct
  0.5695137950758313  0.1768934292668272  0.1786335846787272
  0.6699277161262510  0.1912593646714303  0.7348038424616371
  0.7484463835995516  0.4015678274428364  0.7240830601053703
  0.7759037456052037  0.8045979970528628  0.9365811415335880
  0.0243562947713514  0.3175270465430372  0.3829610372915735
  0.5209467682168263  0.0404916351576069  0.7504648815007784
  0.9677268102525619  0.5988161388548376  0.0814594568791427
  0.2522787772244885  0.2322820329008431  0.5343834035452389
  0.6927524672694819  0.4828659501580571  0.9419323540517653
  0.0498934798266641  0.0477788053275633  0.8878221930334713
  0.2340357876870380  0.4215990586815599  0.1178348424946817
  0.5724789623582106  0.9857377467356763  0.3734187675939214
  0.4472334628873020  0.9723288095236486  0.5917053367846986
  0.2096732999828253  0.9157637715701293  0.9654395044074708
  0.0420079164684655  0.9673913124419297  0.1099287323390078
  0.2941714851826127  0.1229050883502631  0.2652432690408343
  0.7238879857714030  0.6618149172662483  0.4524846387203368
  0.4395788545361868  0.0839576829368267  0.8613032935530341
  0.3392149837885121  0.7666987592775079  0.2002555444463706
  0.4189668730968359  0.3904607010607266  0.8647987677532720
  0.5033372925405227  0.3683603294697704  0.4484203117611442
  0.7003212574190832  0.5013521742899382  0.2032290901255126
  0.1390362090329669  0.1958041192718280  0.2701689720655184
  0.5864006943575293  0.8833319022828005  0.8112483300252606
  0.5453223883490002  0.8282514811403074  0.6501103630583246
  0.8319332774240596  0.6984456085323398  0.2401867883374541
  0.5256379641568276  0.8047915490268152  0.2763736270587839
  0.2472360949757360  0.3406839698413601  0.3294708472714702
  0.1620695382863008  0.7970453895719932  0.6003616616323010
  0.9014028132935505  0.4624503206972352  0.8248721278278698
  0.3125107537413321  0.8278583721700311  0.5844103858270868
  0.5144527282179087  0.6628962264405813  0.1209540635141381
  0.6037500995752392  0.4642780731496248  0.5812682242609117
  0.6666268621536514  0.9770390458262067  0.2645829885175207
  0.3436684451217835  0.5306774268575888  0.9940465929366358
  0.7687898873003283  0.1628713216881598  0.1990289093173453
  0.6588572313937751  0.7097391591753801  0.9347340523291315
  0.3479434764806053  0.0484861409070251  0.6853328417790348
  0.2277067352910739  0.8279182066726943  0.0685093002552567
  0.1361249905036826  0.3013593511064946  0.6454162902288005
  0.0491406039623303  0.6408383263724935  0.7226507204251497
  0.7843679985320267  0.5750639538474637  0.5405960499816569
  0.8294238370973376  0.0976356985042503  0.8022241358545197
  0.4444393089643854  0.1285248818871084  0.2667145929655235
  0.7281355501379629  0.4808794545833562  0.3466147641942219
  0.3492590298978024  0.7759280234520904  0.8866405953604212
  0.8469472748590333  0.5936186328160856  0.0023768031896738
  0.1419281256428387  0.8663469429437867  0.7550511348792753
  0.6180066070710879  0.5129501248438819  0.8202890669493481
  0.7761810317998515  0.1387184613044067  0.0143343057118106
  0.6103259950359111  0.5845578721683602  0.0341081603939789
  0.4461888279707271  0.9141598672713189  0.7607854780039653
  0.3337880111298711  0.6093497798773742  0.6178132555589011
  0.5522401601501188  0.8957432453983156  0.1677457875900610
  0.8504325846868143  0.4508363838851078  0.5034468592298137
  0.1415994401360033  0.7350318166185826  0.1443873729553552
  0.8089500693547356  0.2976191148856135  0.8286252090729970
  0.9031320226855267  0.9688856529133899  0.3558803034472449
  0.8721147242018688  0.4480107983676806  0.6620376938084375
  0.7374257964044141  0.8196435952858080  0.3927317659541960
  0.9794324083109568  0.6559744131938955  0.5015461982996379
  0.0154424343209021  0.2425041502908163  0.7549803156504757
  0.9274948381062054  0.3222667786149840  0.2609902567577888
  0.1835458448008653  0.9229908189744017  0.2392417118665802
  0.4747995586915027  0.7156501445048652  0.7496050416358475
  0.4973425089411818  0.1752908079091054  0.4021575462198556
  0.7687783105208944  0.9901705874696858  0.8826929747534874
  0.2760479317617973  0.5302309984850022  0.7645322628771062
  0.9460380307966856  0.0185487083158105  0.7610695933387678
  0.9237631926775930  0.2012732065494965  0.8754045092879312
  0.5680868260814190  0.3624695584187285  0.6844176393189432
  0.2208621759142124  0.2399121382897122  0.0925910850105053
  0.0615147843014508  0.8138447727444131  0.3722807317997415
  0.4199941450256732  0.4809818415041057  0.2385735397305942
  0.1768538438446163  0.9851949529642525  0.4589830985414842
  0.2618694854662967  0.6011086558210517  0.3761268777831572
  0.2934424726392372  0.1044735034482502  0.0941625775756253
  0.2536032199834503  0.0721918242027331  0.9440511988771407
  0.3334960513641953  0.2937262687947584  0.9907813799140067
  0.5124376925280486  0.5051878283502663  0.9313498632946594
  0.6598395924569290  0.7919923737371026  0.1265213696377953
  0.4825190827111258  0.5083817196014162  0.4811943917740532
  0.9403269474730932  0.8032310192898499  0.6985655008943673
  0.7403123770617989  0.8955006840232062  0.7586580622553919
  0.0025265247612877  0.1606095005382513  0.5071997666647511
  0.0979350923678037  0.5465710286037073  0.9537175292881441
  0.8640230295639991  0.9324566323671664  0.6651460994574284
  0.0326449001526741  0.3997392496499640  0.8428719245343452
  0.8768086495389541  0.9105274583775226  0.9496862164851496
  0.8780557340837449  0.6540313161721296  0.6129283044034284
  0.1146002725129189  0.3419092284751744  0.2662127361672079
  0.0501885051351388  0.8892117946688848  0.6110364144424804
  0.1700530774228894  0.6327384880117135  0.8024236704789918
  0.0650598504676284  0.9271881395163925  0.9750926561657203
  0.3795191647331972  0.9539768578425938  0.8909721691406742
  0.0416614918972589  0.4979860090672212  0.7000631215076100
  0.9164188057646344  0.1601780483050312  0.0841022186560743
  0.6057287928415659  0.0197404302257522  0.8611621612438557
  0.0062118020759425  0.4992198668832642  0.5199082533741959
  0.6992647775072359  0.3889507984334117  0.5037333822751398
  0.5316523059714462  0.1784064251881013  0.7150778042061769
  0.4841858202625045  0.6217755490989860  0.6313587664010228
  0.2810193020243286  0.4376683725998893  0.8903321849378021
  0.3313567431165750  0.1818326596615420  0.8664222635967052
  0.0668130785693120  0.9662728550552396  0.3466634509902314
  0.1624619925172804  0.0087423333898930  0.8033548969528382
  0.1270370544306423  0.1543853544399925  0.9488979242387253
  0.3111498039042305  0.2689718637013621  0.2127785152484363
  0.0166980833815458  0.1740948077420182  0.3496405141185220
  0.1531303737255620  0.1459363934459905  0.6004298326929483
  0.2171493699350569  0.4770834997686811  0.4546621175772894
  0.3139215825952280  0.9054566197500600  0.1532597212331310
  0.1816297970445143  0.4576620307421715  0.6650217469376136
  0.8572805918288052  0.7392492809924402  0.0330236162724812
  0.9152280497723362  0.0382686947096971  0.4912985136568137
  0.3294333038046992  0.7624349291336993  0.7115322806606267
  0.8215898296993406  0.6054948027265130  0.3578597581793218
  0.0517879842683665  0.6841289786222607  0.0038352670438112
  0.8958895102445418  0.7916993453672500  0.3507555947227292
  0.0119634885040366  0.8352483944115699  0.8251265013771033
  0.7381340161591391  0.0756318412585428  0.6935471839907945
  0.8144487058792581  0.7678128930104050  0.7970927914607305
  0.6940791345483495  0.2381379061380561  0.0919489922327777
  0.3125485797241677  0.7218252454648858  0.0244233141753548
  0.6588232342192519  0.9123016742949235  0.0154945414067515
  0.7038416953396767  0.5389442819939824  0.6542040589041684
  0.9364859341614548  0.3059184787276253  0.1055508848781070
  0.7330621893053207  0.0235859267390855  0.1093264961024988
  0.9437529223511171  0.1374498361796017  0.6665989110225399
  0.1446122303587847  0.0569631010744871  0.1599232999880322
  0.2316341197909019  0.1829727287608501  0.3823945853969440
  0.3769757695102686  0.1508753431918092  0.5847534529592241
  0.2609460167766864  0.9633540142309446  0.6080934923134564
  0.6205272344624160  0.5725805541580966  0.4001860637409186
  0.4266933141490271  0.4299158015058250  0.7307741815093169
  0.3992934942170583  0.7891552286352328  0.3270502739110780
  0.0308288638059550  0.4750706612584206  0.0720996644397856
  0.4559793386960375  0.7962182789505720  0.1000052503421424
  0.8892228805159992  0.4648695640720228  0.2278529254597937
  0.2353865174301630  0.1479934392794013  0.7303691269302943
  0.5763533596186954  0.4759138888653184  0.1402593536766021
  0.3898554397980831  0.6014091267027581  0.1532337738681034
  0.3405587038217695  0.4685042574181177  0.5461737514126622
  0.5608387848025199  0.8152972271359081  0.9374474277657741
  0.3768390314231869  0.4124404721416545  0.0800735880203110
  0.6145056437922909  0.3409228620366797  0.3604836658061944
  0.2653306468554368  0.4735322885755264  0.2506475582032632
  0.2840939498936608  0.2841136088139893  0.6789375506827289
  0.1927529757573212  0.8317106227166936  0.4609606780306386
  0.4563003896102180  0.9801950969748883  0.2891029449649001
  0.6543103026307969  0.1277051675931204  0.2879233163043224
  0.7367881552567412  0.8655058080417077  0.5392934584078464
  0.3076766083322651  0.6895118907515095  0.4930106312445499
  0.5885894252667815  0.9685814412074761  0.6321254355338837
  0.3951825838066853  0.6325542596023691  0.8579029104933951
  0.4140183784183947  0.0620675006273288  0.4711338017721018
  0.6305447379545667  0.6646344567164831  0.8019917847551350
  0.1950890590231165  0.7956794515621048  0.8849593116880971
  0.2794070954126310  0.9777278650571398  0.3473196387722548
  0.7492214625929694  0.9773942902522752  0.3863808257315926
  0.5811087058319339  0.8420124549283383  0.4014788137412836
  0.1307008225083721  0.3233456161656000  0.5005287841160000
  0.0056000182331434  0.3039641041317765  0.9553739333386928
  0.9633046018129081  0.8250754404295848  0.4917889747336431
  0.7976671302380510  0.1879546888592138  0.4026323206249875
  0.7557235518541415  0.8545658211337608  0.2201956874968291
  0.7815059392383003  0.2852552190953881  0.2891549707473808
  0.8821951078793032  0.2567981727310262  0.5042018337053461
  0.5184320158582556  0.1213736427772618  0.9736060435141630
  0.7133119164648691  0.2890555139024182  0.6384157862197737
  0.5948787923441483  0.3784794925223267  0.9398635379097524
  0.2050380890125573  0.7645982752047781  0.2836527548076828
  0.6913533578906393  0.2167692893427515  0.8738638696378930
  0.7810015513003578  0.4010376020919353  0.1456907600201672
  0.0610601536758826  0.4935137323073185  0.3801312921676621
  0.8211842607341863  0.4029540282744025  0.9374209134165330
  0.9646660959595236  0.3291419232373317  0.6398588097763885
  0.1081853053425422  0.6614714257166331  0.5850240404688155
  0.3944914029118702  0.2888130592938565  0.4031253495040763
  0.9441192078636578  0.5884719821888268  0.8786542701129657
  0.5457971543592839  0.3124351459592963  0.2285752403890512
  0.4276588555697966  0.5791003142484151  0.3560310655570312
  0.1090187298841057  0.6337785332780653  0.3485929902177622
  0.0340242717941385  0.8379824081481833  0.1705088445786267
  0.7484582098205607  0.6187509706089088  0.1380081303931063
  0.8945323882569214  0.9855372634490006  0.1125755181604256
  0.5919995958076621  0.6854621197126155  0.2388070432575471
  0.9112336773600488  0.0692871938179573  0.2389511896666189
  0.5030611300452541  0.2940218180252422  0.5676882670400270
  0.9659338504600145  0.6485639711301973  0.2121208478312913
  0.2168976392364117  0.5567581962247253  0.0621612316552945
  0.4261234017218005  0.1958665942522183  0.0650603015743461
  0.4513556971094643  0.8416029135321312  0.5351609367819290
  0.6701217485841436  0.7614091414834221  0.6159401120836553
 
  0.00000000E+00  0.00000000E+00  0.00000000E+00
  0.00000000E+00  0.00000000E+00  0.00000000E+00
  0.00000000E+00  0.00000000E+00  0.00000000E+00
  0.00000000E+00  0.00000000E+00  0.00000000E+00
  0.00000000E+00  0.00000000E+00  0.00000000E+00
  0.00000000E+00  0.00000000E+00  0.00000000E+00
  0.00000000E+00  0.00000000E+00  0.00000000E+00
  0.00000000E+00  0.00000000E+00  0.00000000E+00
  0.00000000E+00  0.00000000E+00  0.00000000E+00
  0.00000000E+00  0.00000000E+00  0.00000000E+00
  0.00000000E+00  0.00000000E+00  0.00000000E+00
  0.00000000E+00  0.00000000E+00  0.00000000E+00
  0.00000000E+00  0.00000000E+00  0.00000000E+00
  0.00000000E+00  0.00000000E+00  0.00000000E+00
  0.00000000E+00  0.00000000E+00  0.00000000E+00
  0.00000000E+00  0.00000000E+00  0.00000000E+00
  0.00000000E+00  0.00000000E+00  0.00000000E+00
  0.00000000E+00  0.00000000E+00  0.00000000E+00
  0.00000000E+00  0.00000000E+00  0.00000000E+00
  0.00000000E+00  0.00000000E+00  0.00000000E+00
  0.00000000E+00  0.00000000E+00  0.00000000E+00
  0.00000000E+00  0.00000000E+00  0.00000000E+00
  0.00000000E+00  0.00000000E+00  0.00000000E+00
  0.00000000E+00  0.00000000E+00  0.00000000E+00
  0.00000000E+00  0.00000000E+00  0.00000000E+00
  0.00000000E+00  0.00000000E+00  0.00000000E+00
  0.00000000E+00  0.00000000E+00  0.00000000E+00
  0.00000000E+00  0.00000000E+00  0.00000000E+00
  0.00000000E+00  0.00000000E+00  0.00000000E+00
  0.00000000E+00  0.00000000E+00  0.00000000E+00
  0.00000000E+00  0.00000000E+00  0.00000000E+00
  0.00000000E+00  0.00000000E+00  0.00000000E+00
  0.00000000E+00  0.00000000E+00  0.00000000E+00
  0.00000000E+00  0.00000000E+00  0.00000000E+00
  0.00000000E+00  0.00000000E+00  0.00000000E+00
  0.00000000E+00  0.00000000E+00  0.00000000E+00
  0.00000000E+00  0.00000000E+00  0.00000000E+00
  0.00000000E+00  0.00000000E+00  0.00000000E+00
  0.00000000E+00  0.00000000E+00  0.00000000E+00
  0.00000000E+00  0.00000000E+00  0.00000000E+00
  0.00000000E+00  0.00000000E+00  0.00000000E+00
  0.00000000E+00  0.00000000E+00  0.00000000E+00
  0.00000000E+00  0.00000000E+00  0.00000000E+00
  0.00000000E+00  0.00000000E+00  0.00000000E+00
  0.00000000E+00  0.00000000E+00  0.00000000E+00
  0.00000000E+00  0.00000000E+00  0.00000000E+00
  0.00000000E+00  0.00000000E+00  0.00000000E+00
  0.00000000E+00  0.00000000E+00  0.00000000E+00
  0.00000000E+00  0.00000000E+00  0.00000000E+00
  0.00000000E+00  0.00000000E+00  0.00000000E+00
  0.00000000E+00  0.00000000E+00  0.00000000E+00
  0.00000000E+00  0.00000000E+00  0.00000000E+00
  0.00000000E+00  0.00000000E+00  0.00000000E+00
  0.00000000E+00  0.00000000E+00  0.00000000E+00
  0.00000000E+00  0.00000000E+00  0.00000000E+00
  0.00000000E+00  0.00000000E+00  0.00000000E+00
  0.00000000E+00  0.00000000E+00  0.00000000E+00
  0.00000000E+00  0.00000000E+00  0.00000000E+00
  0.00000000E+00  0.00000000E+00  0.00000000E+00
  0.00000000E+00  0.00000000E+00  0.00000000E+00
  0.00000000E+00  0.00000000E+00  0.00000000E+00
  0.00000000E+00  0.00000000E+00  0.00000000E+00
  0.00000000E+00  0.00000000E+00  0.00000000E+00
  0.00000000E+00  0.00000000E+00  0.00000000E+00
  0.00000000E+00  0.00000000E+00  0.00000000E+00
  0.00000000E+00  0.00000000E+00  0.00000000E+00
  0.00000000E+00  0.00000000E+00  0.00000000E+00
  0.00000000E+00  0.00000000E+00  0.00000000E+00
  0.00000000E+00  0.00000000E+00  0.00000000E+00
  0.00000000E+00  0.00000000E+00  0.00000000E+00
  0.00000000E+00  0.00000000E+00  0.00000000E+00
  0.00000000E+00  0.00000000E+00  0.00000000E+00
  0.00000000E+00  0.00000000E+00  0.00000000E+00
  0.00000000E+00  0.00000000E+00  0.00000000E+00
  0.00000000E+00  0.00000000E+00  0.00000000E+00
  0.00000000E+00  0.00000000E+00  0.00000000E+00
  0.00000000E+00  0.00000000E+00  0.00000000E+00
  0.00000000E+00  0.00000000E+00  0.00000000E+00
  0.00000000E+00  0.00000000E+00  0.00000000E+00
  0.00000000E+00  0.00000000E+00  0.00000000E+00
  0.00000000E+00  0.00000000E+00  0.00000000E+00
  0.00000000E+00  0.00000000E+00  0.00000000E+00
  0.00000000E+00  0.00000000E+00  0.00000000E+00
  0.00000000E+00  0.00000000E+00  0.00000000E+00
  0.00000000E+00  0.00000000E+00  0.00000000E+00
  0.00000000E+00  0.00000000E+00  0.00000000E+00
  0.00000000E+00  0.00000000E+00  0.00000000E+00
  0.00000000E+00  0.00000000E+00  0.00000000E+00
  0.00000000E+00  0.00000000E+00  0.00000000E+00
  0.00000000E+00  0.00000000E+00  0.00000000E+00
  0.00000000E+00  0.00000000E+00  0.00000000E+00
  0.00000000E+00  0.00000000E+00  0.00000000E+00
  0.00000000E+00  0.00000000E+00  0.00000000E+00
  0.00000000E+00  0.00000000E+00  0.00000000E+00
  0.00000000E+00  0.00000000E+00  0.00000000E+00
  0.00000000E+00  0.00000000E+00  0.00000000E+00
  0.00000000E+00  0.00000000E+00  0.00000000E+00
  0.00000000E+00  0.00000000E+00  0.00000000E+00
  0.00000000E+00  0.00000000E+00  0.00000000E+00
  0.00000000E+00  0.00000000E+00  0.00000000E+00
  0.00000000E+00  0.00000000E+00  0.00000000E+00
  0.00000000E+00  0.00000000E+00  0.00000000E+00
  0.00000000E+00  0.00000000E+00  0.00000000E+00
  0.00000000E+00  0.00000000E+00  0.00000000E+00
  0.00000000E+00  0.00000000E+00  0.00000000E+00
  0.00000000E+00  0.00000000E+00  0.00000000E+00
  0.00000000E+00  0.00000000E+00  0.00000000E+00
  0.00000000E+00  0.00000000E+00  0.00000000E+00
  0.00000000E+00  0.00000000E+00  0.00000000E+00
  0.00000000E+00  0.00000000E+00  0.00000000E+00
  0.00000000E+00  0.00000000E+00  0.00000000E+00
  0.00000000E+00  0.00000000E+00  0.00000000E+00
  0.00000000E+00  0.00000000E+00  0.00000000E+00
  0.00000000E+00  0.00000000E+00  0.00000000E+00
  0.00000000E+00  0.00000000E+00  0.00000000E+00
  0.00000000E+00  0.00000000E+00  0.00000000E+00
  0.00000000E+00  0.00000000E+00  0.00000000E+00
  0.00000000E+00  0.00000000E+00  0.00000000E+00
  0.00000000E+00  0.00000000E+00  0.00000000E+00
  0.00000000E+00  0.00000000E+00  0.00000000E+00
  0.00000000E+00  0.00000000E+00  0.00000000E+00
  0.00000000E+00  0.00000000E+00  0.00000000E+00
  0.00000000E+00  0.00000000E+00  0.00000000E+00
  0.00000000E+00  0.00000000E+00  0.00000000E+00
  0.00000000E+00  0.00000000E+00  0.00000000E+00
  0.00000000E+00  0.00000000E+00  0.00000000E+00
  0.00000000E+00  0.00000000E+00  0.00000000E+00
  0.00000000E+00  0.00000000E+00  0.00000000E+00
  0.00000000E+00  0.00000000E+00  0.00000000E+00
  0.00000000E+00  0.00000000E+00  0.00000000E+00
  0.00000000E+00  0.00000000E+00  0.00000000E+00
  0.00000000E+00  0.00000000E+00  0.00000000E+00
  0.00000000E+00  0.00000000E+00  0.00000000E+00
  0.00000000E+00  0.00000000E+00  0.00000000E+00
  0.00000000E+00  0.00000000E+00  0.00000000E+00
  0.00000000E+00  0.00000000E+00  0.00000000E+00
  0.00000000E+00  0.00000000E+00  0.00000000E+00
  0.00000000E+00  0.00000000E+00  0.00000000E+00
  0.00000000E+00  0.00000000E+00  0.00000000E+00
  0.00000000E+00  0.00000000E+00  0.00000000E+00
  0.00000000E+00  0.00000000E+00  0.00000000E+00
  0.00000000E+00  0.00000000E+00  0.00000000E+00
  0.00000000E+00  0.00000000E+00  0.00000000E+00
  0.00000000E+00  0.00000000E+00  0.00000000E+00
  0.00000000E+00  0.00000000E+00  0.00000000E+00
  0.00000000E+00  0.00000000E+00  0.00000000E+00
  0.00000000E+00  0.00000000E+00  0.00000000E+00
  0.00000000E+00  0.00000000E+00  0.00000000E+00
  0.00000000E+00  0.00000000E+00  0.00000000E+00
  0.00000000E+00  0.00000000E+00  0.00000000E+00
  0.00000000E+00  0.00000000E+00  0.00000000E+00
  0.00000000E+00  0.00000000E+00  0.00000000E+00
  0.00000000E+00  0.00000000E+00  0.00000000E+00
  0.00000000E+00  0.00000000E+00  0.00000000E+00
  0.00000000E+00  0.00000000E+00  0.00000000E+00
  0.00000000E+00  0.00000000E+00  0.00000000E+00
  0.00000000E+00  0.00000000E+00  0.00000000E+00
  0.00000000E+00  0.00000000E+00  0.00000000E+00
  0.00000000E+00  0.00000000E+00  0.00000000E+00
  0.00000000E+00  0.00000000E+00  0.00000000E+00
  0.00000000E+00  0.00000000E+00  0.00000000E+00
  0.00000000E+00  0.00000000E+00  0.00000000E+00
  0.00000000E+00  0.00000000E+00  0.00000000E+00
  0.00000000E+00  0.00000000E+00  0.00000000E+00
  0.00000000E+00  0.00000000E+00  0.00000000E+00
  0.00000000E+00  0.00000000E+00  0.00000000E+00
  0.00000000E+00  0.00000000E+00  0.00000000E+00
  0.00000000E+00  0.00000000E+00  0.00000000E+00
  0.00000000E+00  0.00000000E+00  0.00000000E+00
  0.00000000E+00  0.00000000E+00  0.00000000E+00
  0.00000000E+00  0.00000000E+00  0.00000000E+00
  0.00000000E+00  0.00000000E+00  0.00000000E+00
  0.00000000E+00  0.00000000E+00  0.00000000E+00
  0.00000000E+00  0.00000000E+00  0.00000000E+00
  0.00000000E+00  0.00000000E+00  0.00000000E+00
  0.00000000E+00  0.00000000E+00  0.00000000E+00
  0.00000000E+00  0.00000000E+00  0.00000000E+00
  0.00000000E+00  0.00000000E+00  0.00000000E+00
  0.00000000E+00  0.00000000E+00  0.00000000E+00
  0.00000000E+00  0.00000000E+00  0.00000000E+00
  0.00000000E+00  0.00000000E+00  0.00000000E+00
  0.00000000E+00  0.00000000E+00  0.00000000E+00
  0.00000000E+00  0.00000000E+00  0.00000000E+00
  0.00000000E+00  0.00000000E+00  0.00000000E+00
  0.00000000E+00  0.00000000E+00  0.00000000E+00
  0.00000000E+00  0.00000000E+00  0.00000000E+00
  0.00000000E+00  0.00000000E+00  0.00000000E+00
  0.00000000E+00  0.00000000E+00  0.00000000E+00
  0.00000000E+00  0.00000000E+00  0.00000000E+00
  0.00000000E+00  0.00000000E+00  0.00000000E+00
  0.00000000E+00  0.00000000E+00  0.00000000E+00
  0.00000000E+00  0.00000000E+00  0.00000000E+00
  0.00000000E+00  0.00000000E+00  0.00000000E+00
  0.00000000E+00  0.00000000E+00  0.00000000E+00
