Amorphous Sb                            
   1.00000000000000     
    20.7115646190562970    0.0000000000000000    0.0000000000000000
     0.0000000000000000   20.7115646190562970    0.0000000000000000
     0.0000000000000000    0.0000000000000000   20.7115646190562970
   Ge   Se   Cu
   140   140    20
Direct
  0.6004197637097657  0.0815767490092234  0.1955854165585773
  0.9697327162041977  0.2816380895613889  0.8105087228473679
  0.9821655190356793  0.6478064103546031  0.8117035739604683
  0.0308923564293181  0.0676031451536401  0.6429556661213073
  0.3072353799660472  0.4241167404103505  0.5570165113320737
  0.3444922133305168  0.6105966665348085  0.6429087889220119
  0.4502790342654472  0.5028245234319558  0.0862134799275027
  0.9381982787588401  0.1030648318938424  0.3054393510496367
  0.9026974424157618  0.1454226054249504  0.9804834846189369
  0.3335613511852720  0.4277819619114066  0.7539886611880927
  0.8829055559993092  0.9306885937120249  0.4555676809344494
  0.4364338026671297  0.2119127296111207  0.6856132481398649
  0.4925679709977751  0.8316366067456138  0.1679126840977314
  0.6663328397642659  0.1165930674321198  0.0284191104035360
  0.0977508666965830  0.0112444860445012  0.8824120572314231
  0.6009250238398613  0.8687490329275231  0.3113452230958789
  0.6894534786250585  0.8190238066216151  0.9512873682334674
  0.9388997388416248  0.5361019982244735  0.9570160990267592
  0.7203233289145559  0.8697404769286311  0.4479608770667690
  0.8072576068196070  0.7288840234948897  0.6396270484789699
  0.4405358225330716  0.3043488400045501  0.3393905640370626
  0.1684670567281214  0.7584216434147356  0.3223160045562171
  0.7427447790455978  0.1533562734169085  0.1733689557196888
  0.4137559967592419  0.7727910066878063  0.4982218380959320
  0.6062927222254929  0.8624035057051269  0.5640462909748591
  0.3613653384101592  0.8628397264732387  0.1299045007027997
  0.2020121590616239  0.2743374252373257  0.3730952884527030
  0.1804672690819413  0.9935765135975120  0.0689521211523067
  0.6129392267435588  0.6956509821029434  0.2828258143693896
  0.1542195551254608  0.3437786501355021  0.8497825583956290
  0.2586079935225422  0.9259310053027081  0.7106294138438648
  0.1180076358945184  0.3834333464535429  0.0867786547631926
  0.9310178419338540  0.4295860168937678  0.3971422996489152
  0.8044541159764490  0.7608755352903603  0.1553847093023322
  0.7648079348748459  0.5264121685777280  0.2429741177753670
  0.5296631905386318  0.3715622264429246  0.6635893090839508
  0.0350685978200802  0.8933108265708416  0.9981261050626323
  0.4001930418176219  0.5253766496737773  0.2363902493059351
  0.9338764355048667  0.8086997941092549  0.9452196834437396
  0.3855440065673229  0.2359799143727826  0.0209036744794550
  0.0518584287071170  0.6920496783402398  0.2085513195628415
  0.5440547771919182  0.8323988913862006  0.4570403758605399
  0.1196164332877747  0.8161512638508144  0.8369761748233370
  0.6664765957325924  0.9831270658687310  0.4569421426681585
  0.5171065865139501  0.5838927680352503  0.9798528901928716
  0.1880756878501162  0.9630495860684160  0.9517387237948225
  0.1282826638029879  0.9468939288854318  0.2630070893414792
  0.2287940360449878  0.8779111723733783  0.4580306082675405
  0.7867423120293268  0.4036946555707434  0.4022218312312677
  0.2695343176319165  0.8018790319420043  0.9954092223054859
  0.7995899735105134  0.1823115252843643  0.7597392745746043
  0.7792979318607232  0.7665373475738502  0.8835792189640180
  0.2214816473000267  0.4210443424081590  0.2310370087434196
  0.0942051828864505  0.2479417362152442  0.6356845690763417
  0.7466830587219573  0.9101297607508506  0.0139097290602171
  0.7969493058495825  0.6077977673814488  0.7580346687027770
  0.5027259179945618  0.3892559370616858  0.1961152769451422
  0.9657198922528326  0.8588331699057689  0.1803860261932236
  0.1340989601344639  0.6824643565426152  0.5390853170803172
  0.6633670455220634  0.9942072898904727  0.0527216790011714
  0.9053710576757698  0.9880522380741246  0.3414132394702138
  0.8876951979913533  0.4436045200997916  0.0895218176200888
  0.2655652050510527  0.2049939492004025  0.2947428531742187
  0.9486090989534148  0.7057512872054031  0.4659400655839179
  0.2480803877703475  0.5131719184697386  0.7205934876991343
  0.0797401178342952  0.1838135638577574  0.8704149943333434
  0.9847384722821220  0.2835810931277236  0.9732631500834169
  0.5108124612512790  0.6160664142137264  0.6301457586986259
  0.5801449520324168  0.6541634050362031  0.7667132222748190
  0.8795310453236993  0.9841207707482515  0.6113572341665052
  0.1615324819837147  0.5549060827263629  0.8128398858363334
  0.6933874001167211  0.0747541888916563  0.6602138338783449
  0.7197077974093740  0.6417876368993525  0.1180696518363004
  0.5816251110592028  0.9450901115158487  0.7029581067745394
  0.1323193076302368  0.2543530546253775  0.1955795821373916
  0.8706170213854860  0.1575915082163161  0.5944339130803823
  0.2843376867747637  0.9634450360937015  0.1287632415011844
  0.4747282285764988  0.1261759413268305  0.9482830237274911
  0.2004204888342639  0.9895979191486688  0.6219889913599979
  0.0437864833278099  0.5119025203742016  0.2991478368753909
  0.9839798886729908  0.7993156004937541  0.5368135836401882
  0.4942555812159113  0.4285222201653599  0.5015051952303222
  0.0113085063206643  0.0504439182451693  0.1303111748122545
  0.1695789432812113  0.6376193293993874  0.9270831894632433
  0.2978684844925015  0.6773334080903269  0.8528462764219998
  0.7275201186583504  0.0334737811579773  0.3566282460746259
  0.0086181988383963  0.3166401634227694  0.5055228791244679
  0.3335674994668554  0.2236376877472314  0.5993547885160150
  0.2126126878410216  0.2605225033889676  0.5009294651300424
  0.5501416129230480  0.3971658624493122  0.9377403031488059
  0.0082022459154364  0.1517798739801439  0.4060643740605731
  0.4331842681787955  0.6999993148978715  0.3903485394170413
  0.3098758747538800  0.0396070543870733  0.2781358631667794
  0.2086047452600794  0.5420903460374110  0.2789876854283844
  0.3569358810088479  0.2260095906735367  0.8548415104765791
  0.0812621329037152  0.4172860221776101  0.9295155554433696
  0.9877909920545129  0.0335753879909534  0.9429458763821426
  0.6989830556919847  0.5347699700061033  0.0598909011970264
  0.8777728822005099  0.3126600863787005  0.5172612700741117
  0.5748735492776886  0.6812221793548786  0.1414404258812831
  0.0737580752993614  0.9479502771981868  0.1021256042012771
  0.2012061903441344  0.4394010965031629  0.9640162474493409
  0.6252586234322655  0.1799182934495998  0.1267800625686860
  0.6295767750539246  0.4542466512401749  0.3767100956273830
  0.8432361865136094  0.0860938178293400  0.2205213998343175
  0.6179089054382934  0.2420014225289469  0.8876712296947510
  0.4256168362745744  0.1844685293449516  0.2131208595963990
  0.1044049451495308  0.7666676847214531  0.7096896838296206
  0.5765429173999894  0.9769908850336965  0.8736864889466502
  0.6368342055861750  0.2068087365113715  0.6561487845368010
  0.6643362072891204  0.2383419259193196  0.3197068940032561
  0.2560068707562100  0.6332747805184583  0.4798111257675148
  0.5750569387368563  0.7948479853521695  0.0099290762467072
  0.4395962111515910  0.9574589918030857  0.9819139973755189
  0.2405839420388090  0.8306407229309405  0.7917633970194875
  0.0627411983045086  0.5716824489836996  0.0924110973100564
  0.7056690058478023  0.3540130391208485  0.9554782192658517
  0.9016502824869561  0.3194745478765443  0.6667302195418874
  0.7469279887380300  0.2135573861189280  0.4122920048671024
  0.0217808101699326  0.8980112753548062  0.6840233521383960
  0.8884745206980336  0.2816211739381417  0.1269153119699927
  0.2795621623280599  0.3322518995553974  0.8227552876260744
  0.6153753720747935  0.3036128798281775  0.4685391627610230
  0.7763031904481053  0.1642853301580026  0.9837872421613248
  0.2900193152649698  0.6659338600975956  0.1525798188962449
  0.3552505669858901  0.9458209507082305  0.5266012670196626
  0.9543877068725218  0.8003503284626575  0.3559174821486422
  0.2325640464512686  0.0840246894946021  0.5420603817132527
  0.7234130059254210  0.3449546661324116  0.1902131409177448
  0.4769444609367298  0.7722653983948646  0.6253446467882671
  0.7565090208050964  0.9522467873153435  0.8207421735525320
  0.4435710239027182  0.0391890845094984  0.1175903560510741
  0.8631742509103121  0.7078580879525315  0.9537084400527310
  0.7313850990804081  0.8098361855177219  0.7307008107849560
  0.4335534932354496  0.5803650298030043  0.8187693061517386
  0.8647855903255102  0.5915740067862028  0.6050797070095323
  0.9122792787157318  0.9190100989571861  0.0845618122794121
  0.0490734667988920  0.1101473796391628  0.0298359076879726
  0.2990238263879815  0.0865493210228818  0.7169942466561610
  0.3226843831812490  0.5889065721241949  0.3063517626138544
  0.3978010834919233  0.1399971986740937  0.7781692562815274
  0.3295473435054816  0.0733113219411999  0.1534982924494278
  0.5748140648679142  0.9734596042280349  0.5843666858711595
  0.1006320374575861  0.2454807318998041  0.3180556335167578
  0.2594940309814676  0.8877136342058641  0.5916028851224060
  0.3164801825008181  0.1595065562537007  0.9493828488247575
  0.4727290373387217  0.3048215109489199  0.7521497706119984
  0.8945799047366328  0.6655405139357574  0.7089905964459038
  0.5918328851677200  0.4925540471613921  0.0178061986644543
  0.2632317485942930  0.2549242618064662  0.1872382642845843
  0.2055642327929083  0.1057542735987096  0.2726341148238755
  0.1718004170628712  0.4185654160512921  0.7203461739252937
  0.2591654126170241  0.5277456972444446  0.5967420667017699
  0.9594095702380729  0.6204387501078586  0.0386185292105542
  0.8449737831421081  0.6855067681388537  0.5279068916021409
  0.4791920713422202  0.1495342039372176  0.0685926006554285
  0.3535360642034622  0.3684352777601440  0.6505555368076914
  0.1581911460040058  0.2540426515719297  0.9373478800822440
  0.0901650567942341  0.2685914415247211  0.7793662738719926
  0.6729983914565585  0.4892439579210503  0.1681782288182598
  0.2427963731161814  0.5369093210257126  0.9081251888688051
  0.9806000883609546  0.9103420427716529  0.2876880302771844
  0.1979039442507554  0.7374787287679256  0.4420526738770653
  0.8930865489191391  0.0380672548436730  0.1182406317597518
  0.4336718586692161  0.5382975540968685  0.5953614626234801
  0.3031486310705124  0.9770410392228729  0.9296408138901828
  0.2327421973425511  0.2224764714737431  0.6677923979163146
  0.9485407269794145  0.5474486739057199  0.3627108747328806
  0.1597044759954997  0.5568635663222905  0.3893344052374340
  0.3425597743873460  0.0981981957797881  0.5994238186213315
  0.5625623244097266  0.9441537835348731  0.4064156552850661
  0.2245152016643225  0.7404610254478770  0.7132881863729510
  0.2280803814940214  0.3863240512431035  0.3482492644005224
  0.3277198595327225  0.7021106554701613  0.5581028694812125
  0.0507295257066477  0.7117764274410366  0.3315098909230320
  0.4438940125173303  0.4648852101784303  0.7893697578754884
  0.8408387588749340  0.2912901660236218  0.3998745761605898
  0.7819513635303124  0.2300090432249871  0.0874745905494320
  0.7430211962311858  0.2444755059562857  0.8992843630678619
  0.7874612159758904  0.2808193275695491  0.6900486007688225
  0.4588777116663218  0.7120974161311829  0.1549165850557325
  0.9217101131961032  0.7528047055992022  0.2034247547245570
  0.9480981470253366  0.0700873953340642  0.5482466627547726
  0.4575529705584551  0.2499541120531615  0.9192415090269292
  0.9949203443657144  0.7626475565857580  0.8514090260102510
  0.6010791504612775  0.3000830628017427  0.9969794027653964
  0.4435834861154990  0.3832976144459556  0.0912722828924136
  0.2007081282863270  0.3852046952776595  0.5161484067390559
  0.3632381238086048  0.6021405672553791  0.4161670425506064
  0.1428742556024929  0.0985957486867974  0.8187741549674429
  0.7221501194259410  0.7023994394132256  0.7986698047241125
  0.6850979703761798  0.4059927079247781  0.4794719469780561
  0.1655389454017240  0.1093137965853322  0.0588694072275081
  0.8163241087365929  0.0854802823375581  0.6773688764971143
  0.1432352550044117  0.8737929281765122  0.3591485354749862
  0.1793984872777892  0.6310406119727879  0.2050488304006785
  0.6578924041506125  0.8814049428176413  0.8510938640339959
  0.6173476030464572  0.7949884540915427  0.1285505302084040
  0.7047878207178730  0.2188580103066973  0.5221025644190515
  0.7924143361382626  0.4852633787056420  0.0092008722023425
  0.5922261061480592  0.5575657446287093  0.6863761868029081
  0.4709577799424878  0.9143802054071972  0.8714666460704426
  0.4860676654932183  0.0706605994423939  0.2302076707529796
  0.3968882358672780  0.4046494729894207  0.2660897365392822
  0.4569828853089259  0.6783928209209754  0.7161807711449113
  0.3511357526139898  0.8591915354194004  0.4348766624043315
  0.6430716337853343  0.7873248035331251  0.4013753439463840
  0.0866080050950071  0.9651692940183839  0.5939087441412206
  0.8824376834167466  0.4309984964023105  0.5115978477421617
  0.0283788895421271  0.4581231556114820  0.0586050267921007
  0.6816390990141080  0.6009734433334699  0.3085569513571538
  0.0833807608668510  0.6511732887364886  0.7325121924221270
  0.7492693815945417  0.6201230337071411  0.6410463033524748
  0.8235801415247208  0.6040731789940735  0.1671190811377374
  0.0274429346928392  0.1133027775127122  0.2259738241061582
  0.2146269781960423  0.4516309262396689  0.0794351880696429
  0.5833510844652660  0.8192760544741271  0.6734368646320993
  0.7222880881326037  0.8388521110660958  0.5612889178686850
  0.6414839040094007  0.3961033144038257  0.8581670060811087
  0.0020542921592536  0.5810218301713486  0.2033840181810053
  0.3353963616172010  0.5356290737868973  0.1413381461607580
  0.5392836960935100  0.6963072859607231  0.5523134778315734
  0.5095824486346904  0.5297646980074199  0.1960543798538000
  0.0927103594305515  0.9275870656289508  0.7978505443385422
  0.8184684404042234  0.9749767069810886  0.9501364581630818
  0.0601050329277785  0.5273885061370571  0.8797129324588935
  0.2517904905920231  0.9301347465934486  0.2389660934382593
  0.8405881550580696  0.3850687822346301  0.1892070352642674
  0.9962357093629629  0.8795850461725392  0.4479024238497075
  0.8228224529792995  0.8399694110574260  0.3993932926410335
  0.6383507354835696  0.9741379798643918  0.1663556475952393
  0.3627317476915103  0.9781847568933022  0.7250665537417896
  0.5182603451709619  0.6375174137164291  0.3375411922822705
  0.1487346056168385  0.8488034074542345  0.9567154986196280
  0.5126848873624510  0.2634491112245935  0.2525847506483531
  0.6817465311913110  0.1460872991735123  0.7633134771256770
  0.2743271857206775  0.0053185306395103  0.4575665009435790
  0.9553373414259180  0.2031738055882363  0.6767446014114853
  0.0314631668593219  0.6278763030375589  0.5047410888259308
  0.9320397102228026  0.3796788162159566  0.7730683082018101
  0.9130678380983190  0.0952757799675130  0.8648151059354486
  0.8021643013765413  0.8830304978861382  0.1197204095802124
  0.5715168960230304  0.9452565227950338  0.9948759512930739
  0.3020156895421715  0.3740874673127579  0.9385500271210203
  0.4878935843756513  0.8272598645372676  0.2927705403973080
  0.5260185184467757  0.3858843837022125  0.3888601289613889
  0.2576141457846209  0.7988165004210792  0.1151563137978315
  0.9540271422193347  0.9971760266076155  0.7116365177066830
  0.5507630200475628  0.5750268843530639  0.8556590530733371
  0.8843418202753601  0.3394204274611403  0.0188013269264028
  0.3444078480892039  0.7938695672497044  0.8361307795001958
  0.6020570063120556  0.1236245103585968  0.9290024988309487
  0.6976803945495618  0.3706885186341292  0.3118743662035645
  0.0581070506166563  0.0489052881962506  0.3967572546602530
  0.1085276343223465  0.3770173577100826  0.2068153203038338
  0.3273976842861188  0.7006311156448231  0.2689676908542315
  0.8019922324302615  0.9836373732376824  0.2713982634791128
  0.0367933112546714  0.3579048084562705  0.6140004637493015
  0.0930489415625345  0.2265151964254190  0.5083593132530509
  0.0457434396868948  0.3881875201342917  0.4184275176924874
  0.8660299698751979  0.6103290318706527  0.8890231863341517
  0.6351544424879089  0.3253215254607045  0.6920874697038563
  0.3734328964746005  0.1717270987939897  0.3247860679804782
  0.8047652544311715  0.1088895660626202  0.4064346759363925
  0.6455475286846902  0.1068415943900660  0.3059921985681298
  0.0969181020107698  0.7903090137119534  0.5795268281208232
  0.4148589893876133  0.8438500819804688  0.0214130576078457
  0.5971005149949099  0.6676492562914094  0.0212559926784038
  0.5180928338748952  0.3174300267989253  0.5522379819647403
  0.0031684488495197  0.7874364477839123  0.0405518929574569
  0.2788800833379215  0.6824363582787093  0.9740264145885732
  0.5299335052645694  0.1508078947914074  0.6499853576166575
  0.7674735904673736  0.2405419655571697  0.2509776868715877
  0.7759708640690749  0.7205886227846768  0.0390781121932322
  0.9185849420040478  0.8521327175051701  0.6171690120707913
  0.0195807044519427  0.2168693077798629  0.0754443264607439
  0.7051157917386800  0.9549142367900172  0.7002428749155261
  0.8247419259717296  0.8470500944203110  0.8031188441339462
  0.0885808596935475  0.8548751536748962  0.1743757423285078
  0.3767520392692957  0.4140541375139279  0.4667272877204526
  0.9616169682107636  0.2009709576328362  0.8933388290573293
  0.1477336734566627  0.3798621679212827  0.6154334848703262
  0.9204816586243855  0.1753604300648497  0.7813369728873573
  0.4440396137349902  0.7103887313613316  0.2722771692180165
  0.3659378042133882  0.9542789617943129  0.8358441934283782
  0.4964825604371371  0.4826112603147255  0.6863537407474103
  0.6300262222163058  0.5958461615813266  0.2034506265354812
  0.1816712535298758  0.6736733640766855  0.8037903352469391
  0.1078808028453286  0.1317005924223371  0.3349428182416352
  0.9242028472422006  0.9302025711515564  0.9655990989402305
  0.2414902724530366  0.3335187914252912  0.6850413071509911
  0.5851218199500384  0.3125998539198832  0.7976394685966923
  0.0946653851300597  0.2916637243237617  0.0243177371229060
  0.3394209821370741  0.8652868418364689  0.9285035014494555
  0.2731878100913272  0.2655988898255851  0.9563947208236281
  0.8644648280475158  0.5595600849326826  0.0664637441500372
  0.1498538710108795  0.4438148682518515  0.4154616321939358
  0.7974055349011855  0.2510922369377067  0.5796948342255723
  0.0507906380120906  0.5962303758703460  0.3916238490632920
  0.3133023436803281  0.3505587564702973  0.2141464171039427
 
  0.00000000E+00  0.00000000E+00  0.00000000E+00
  0.00000000E+00  0.00000000E+00  0.00000000E+00
  0.00000000E+00  0.00000000E+00  0.00000000E+00
  0.00000000E+00  0.00000000E+00  0.00000000E+00
  0.00000000E+00  0.00000000E+00  0.00000000E+00
  0.00000000E+00  0.00000000E+00  0.00000000E+00
  0.00000000E+00  0.00000000E+00  0.00000000E+00
  0.00000000E+00  0.00000000E+00  0.00000000E+00
  0.00000000E+00  0.00000000E+00  0.00000000E+00
  0.00000000E+00  0.00000000E+00  0.00000000E+00
  0.00000000E+00  0.00000000E+00  0.00000000E+00
  0.00000000E+00  0.00000000E+00  0.00000000E+00
  0.00000000E+00  0.00000000E+00  0.00000000E+00
  0.00000000E+00  0.00000000E+00  0.00000000E+00
  0.00000000E+00  0.00000000E+00  0.00000000E+00
  0.00000000E+00  0.00000000E+00  0.00000000E+00
  0.00000000E+00  0.00000000E+00  0.00000000E+00
  0.00000000E+00  0.00000000E+00  0.00000000E+00
  0.00000000E+00  0.00000000E+00  0.00000000E+00
  0.00000000E+00  0.00000000E+00  0.00000000E+00
  0.00000000E+00  0.00000000E+00  0.00000000E+00
  0.00000000E+00  0.00000000E+00  0.00000000E+00
  0.00000000E+00  0.00000000E+00  0.00000000E+00
  0.00000000E+00  0.00000000E+00  0.00000000E+00
  0.00000000E+00  0.00000000E+00  0.00000000E+00
  0.00000000E+00  0.00000000E+00  0.00000000E+00
  0.00000000E+00  0.00000000E+00  0.00000000E+00
  0.00000000E+00  0.00000000E+00  0.00000000E+00
  0.00000000E+00  0.00000000E+00  0.00000000E+00
  0.00000000E+00  0.00000000E+00  0.00000000E+00
  0.00000000E+00  0.00000000E+00  0.00000000E+00
  0.00000000E+00  0.00000000E+00  0.00000000E+00
  0.00000000E+00  0.00000000E+00  0.00000000E+00
  0.00000000E+00  0.00000000E+00  0.00000000E+00
  0.00000000E+00  0.00000000E+00  0.00000000E+00
  0.00000000E+00  0.00000000E+00  0.00000000E+00
  0.00000000E+00  0.00000000E+00  0.00000000E+00
  0.00000000E+00  0.00000000E+00  0.00000000E+00
  0.00000000E+00  0.00000000E+00  0.00000000E+00
  0.00000000E+00  0.00000000E+00  0.00000000E+00
  0.00000000E+00  0.00000000E+00  0.00000000E+00
  0.00000000E+00  0.00000000E+00  0.00000000E+00
  0.00000000E+00  0.00000000E+00  0.00000000E+00
  0.00000000E+00  0.00000000E+00  0.00000000E+00
  0.00000000E+00  0.00000000E+00  0.00000000E+00
  0.00000000E+00  0.00000000E+00  0.00000000E+00
  0.00000000E+00  0.00000000E+00  0.00000000E+00
  0.00000000E+00  0.00000000E+00  0.00000000E+00
  0.00000000E+00  0.00000000E+00  0.00000000E+00
  0.00000000E+00  0.00000000E+00  0.00000000E+00
  0.00000000E+00  0.00000000E+00  0.00000000E+00
  0.00000000E+00  0.00000000E+00  0.00000000E+00
  0.00000000E+00  0.00000000E+00  0.00000000E+00
  0.00000000E+00  0.00000000E+00  0.00000000E+00
  0.00000000E+00  0.00000000E+00  0.00000000E+00
  0.00000000E+00  0.00000000E+00  0.00000000E+00
  0.00000000E+00  0.00000000E+00  0.00000000E+00
  0.00000000E+00  0.00000000E+00  0.00000000E+00
  0.00000000E+00  0.00000000E+00  0.00000000E+00
  0.00000000E+00  0.00000000E+00  0.00000000E+00
  0.00000000E+00  0.00000000E+00  0.00000000E+00
  0.00000000E+00  0.00000000E+00  0.00000000E+00
  0.00000000E+00  0.00000000E+00  0.00000000E+00
  0.00000000E+00  0.00000000E+00  0.00000000E+00
  0.00000000E+00  0.00000000E+00  0.00000000E+00
  0.00000000E+00  0.00000000E+00  0.00000000E+00
  0.00000000E+00  0.00000000E+00  0.00000000E+00
  0.00000000E+00  0.00000000E+00  0.00000000E+00
  0.00000000E+00  0.00000000E+00  0.00000000E+00
  0.00000000E+00  0.00000000E+00  0.00000000E+00
  0.00000000E+00  0.00000000E+00  0.00000000E+00
  0.00000000E+00  0.00000000E+00  0.00000000E+00
  0.00000000E+00  0.00000000E+00  0.00000000E+00
  0.00000000E+00  0.00000000E+00  0.00000000E+00
  0.00000000E+00  0.00000000E+00  0.00000000E+00
  0.00000000E+00  0.00000000E+00  0.00000000E+00
  0.00000000E+00  0.00000000E+00  0.00000000E+00
  0.00000000E+00  0.00000000E+00  0.00000000E+00
  0.00000000E+00  0.00000000E+00  0.00000000E+00
  0.00000000E+00  0.00000000E+00  0.00000000E+00
  0.00000000E+00  0.00000000E+00  0.00000000E+00
  0.00000000E+00  0.00000000E+00  0.00000000E+00
  0.00000000E+00  0.00000000E+00  0.00000000E+00
  0.00000000E+00  0.00000000E+00  0.00000000E+00
  0.00000000E+00  0.00000000E+00  0.00000000E+00
  0.00000000E+00  0.00000000E+00  0.00000000E+00
  0.00000000E+00  0.00000000E+00  0.00000000E+00
  0.00000000E+00  0.00000000E+00  0.00000000E+00
  0.00000000E+00  0.00000000E+00  0.00000000E+00
  0.00000000E+00  0.00000000E+00  0.00000000E+00
  0.00000000E+00  0.00000000E+00  0.00000000E+00
  0.00000000E+00  0.00000000E+00  0.00000000E+00
  0.00000000E+00  0.00000000E+00  0.00000000E+00
  0.00000000E+00  0.00000000E+00  0.00000000E+00
  0.00000000E+00  0.00000000E+00  0.00000000E+00
  0.00000000E+00  0.00000000E+00  0.00000000E+00
  0.00000000E+00  0.00000000E+00  0.00000000E+00
  0.00000000E+00  0.00000000E+00  0.00000000E+00
  0.00000000E+00  0.00000000E+00  0.00000000E+00
  0.00000000E+00  0.00000000E+00  0.00000000E+00
  0.00000000E+00  0.00000000E+00  0.00000000E+00
  0.00000000E+00  0.00000000E+00  0.00000000E+00
  0.00000000E+00  0.00000000E+00  0.00000000E+00
  0.00000000E+00  0.00000000E+00  0.00000000E+00
  0.00000000E+00  0.00000000E+00  0.00000000E+00
  0.00000000E+00  0.00000000E+00  0.00000000E+00
  0.00000000E+00  0.00000000E+00  0.00000000E+00
  0.00000000E+00  0.00000000E+00  0.00000000E+00
  0.00000000E+00  0.00000000E+00  0.00000000E+00
  0.00000000E+00  0.00000000E+00  0.00000000E+00
  0.00000000E+00  0.00000000E+00  0.00000000E+00
  0.00000000E+00  0.00000000E+00  0.00000000E+00
  0.00000000E+00  0.00000000E+00  0.00000000E+00
  0.00000000E+00  0.00000000E+00  0.00000000E+00
  0.00000000E+00  0.00000000E+00  0.00000000E+00
  0.00000000E+00  0.00000000E+00  0.00000000E+00
  0.00000000E+00  0.00000000E+00  0.00000000E+00
  0.00000000E+00  0.00000000E+00  0.00000000E+00
  0.00000000E+00  0.00000000E+00  0.00000000E+00
  0.00000000E+00  0.00000000E+00  0.00000000E+00
  0.00000000E+00  0.00000000E+00  0.00000000E+00
  0.00000000E+00  0.00000000E+00  0.00000000E+00
  0.00000000E+00  0.00000000E+00  0.00000000E+00
  0.00000000E+00  0.00000000E+00  0.00000000E+00
  0.00000000E+00  0.00000000E+00  0.00000000E+00
  0.00000000E+00  0.00000000E+00  0.00000000E+00
  0.00000000E+00  0.00000000E+00  0.00000000E+00
  0.00000000E+00  0.00000000E+00  0.00000000E+00
  0.00000000E+00  0.00000000E+00  0.00000000E+00
  0.00000000E+00  0.00000000E+00  0.00000000E+00
  0.00000000E+00  0.00000000E+00  0.00000000E+00
  0.00000000E+00  0.00000000E+00  0.00000000E+00
  0.00000000E+00  0.00000000E+00  0.00000000E+00
  0.00000000E+00  0.00000000E+00  0.00000000E+00
  0.00000000E+00  0.00000000E+00  0.00000000E+00
  0.00000000E+00  0.00000000E+00  0.00000000E+00
  0.00000000E+00  0.00000000E+00  0.00000000E+00
  0.00000000E+00  0.00000000E+00  0.00000000E+00
  0.00000000E+00  0.00000000E+00  0.00000000E+00
  0.00000000E+00  0.00000000E+00  0.00000000E+00
  0.00000000E+00  0.00000000E+00  0.00000000E+00
  0.00000000E+00  0.00000000E+00  0.00000000E+00
  0.00000000E+00  0.00000000E+00  0.00000000E+00
  0.00000000E+00  0.00000000E+00  0.00000000E+00
  0.00000000E+00  0.00000000E+00  0.00000000E+00
  0.00000000E+00  0.00000000E+00  0.00000000E+00
  0.00000000E+00  0.00000000E+00  0.00000000E+00
  0.00000000E+00  0.00000000E+00  0.00000000E+00
  0.00000000E+00  0.00000000E+00  0.00000000E+00
  0.00000000E+00  0.00000000E+00  0.00000000E+00
  0.00000000E+00  0.00000000E+00  0.00000000E+00
  0.00000000E+00  0.00000000E+00  0.00000000E+00
  0.00000000E+00  0.00000000E+00  0.00000000E+00
  0.00000000E+00  0.00000000E+00  0.00000000E+00
  0.00000000E+00  0.00000000E+00  0.00000000E+00
  0.00000000E+00  0.00000000E+00  0.00000000E+00
  0.00000000E+00  0.00000000E+00  0.00000000E+00
  0.00000000E+00  0.00000000E+00  0.00000000E+00
  0.00000000E+00  0.00000000E+00  0.00000000E+00
  0.00000000E+00  0.00000000E+00  0.00000000E+00
  0.00000000E+00  0.00000000E+00  0.00000000E+00
  0.00000000E+00  0.00000000E+00  0.00000000E+00
  0.00000000E+00  0.00000000E+00  0.00000000E+00
  0.00000000E+00  0.00000000E+00  0.00000000E+00
  0.00000000E+00  0.00000000E+00  0.00000000E+00
  0.00000000E+00  0.00000000E+00  0.00000000E+00
  0.00000000E+00  0.00000000E+00  0.00000000E+00
  0.00000000E+00  0.00000000E+00  0.00000000E+00
  0.00000000E+00  0.00000000E+00  0.00000000E+00
  0.00000000E+00  0.00000000E+00  0.00000000E+00
  0.00000000E+00  0.00000000E+00  0.00000000E+00
  0.00000000E+00  0.00000000E+00  0.00000000E+00
  0.00000000E+00  0.00000000E+00  0.00000000E+00
  0.00000000E+00  0.00000000E+00  0.00000000E+00
  0.00000000E+00  0.00000000E+00  0.00000000E+00
  0.00000000E+00  0.00000000E+00  0.00000000E+00
  0.00000000E+00  0.00000000E+00  0.00000000E+00
  0.00000000E+00  0.00000000E+00  0.00000000E+00
  0.00000000E+00  0.00000000E+00  0.00000000E+00
  0.00000000E+00  0.00000000E+00  0.00000000E+00
  0.00000000E+00  0.00000000E+00  0.00000000E+00
  0.00000000E+00  0.00000000E+00  0.00000000E+00
  0.00000000E+00  0.00000000E+00  0.00000000E+00
  0.00000000E+00  0.00000000E+00  0.00000000E+00
  0.00000000E+00  0.00000000E+00  0.00000000E+00
  0.00000000E+00  0.00000000E+00  0.00000000E+00
  0.00000000E+00  0.00000000E+00  0.00000000E+00
  0.00000000E+00  0.00000000E+00  0.00000000E+00
  0.00000000E+00  0.00000000E+00  0.00000000E+00
  0.00000000E+00  0.00000000E+00  0.00000000E+00
  0.00000000E+00  0.00000000E+00  0.00000000E+00
  0.00000000E+00  0.00000000E+00  0.00000000E+00
  0.00000000E+00  0.00000000E+00  0.00000000E+00
  0.00000000E+00  0.00000000E+00  0.00000000E+00
  0.00000000E+00  0.00000000E+00  0.00000000E+00
  0.00000000E+00  0.00000000E+00  0.00000000E+00
  0.00000000E+00  0.00000000E+00  0.00000000E+00
  0.00000000E+00  0.00000000E+00  0.00000000E+00
  0.00000000E+00  0.00000000E+00  0.00000000E+00
  0.00000000E+00  0.00000000E+00  0.00000000E+00
  0.00000000E+00  0.00000000E+00  0.00000000E+00
  0.00000000E+00  0.00000000E+00  0.00000000E+00
  0.00000000E+00  0.00000000E+00  0.00000000E+00
  0.00000000E+00  0.00000000E+00  0.00000000E+00
  0.00000000E+00  0.00000000E+00  0.00000000E+00
  0.00000000E+00  0.00000000E+00  0.00000000E+00
  0.00000000E+00  0.00000000E+00  0.00000000E+00
  0.00000000E+00  0.00000000E+00  0.00000000E+00
  0.00000000E+00  0.00000000E+00  0.00000000E+00
  0.00000000E+00  0.00000000E+00  0.00000000E+00
  0.00000000E+00  0.00000000E+00  0.00000000E+00
  0.00000000E+00  0.00000000E+00  0.00000000E+00
  0.00000000E+00  0.00000000E+00  0.00000000E+00
  0.00000000E+00  0.00000000E+00  0.00000000E+00
  0.00000000E+00  0.00000000E+00  0.00000000E+00
  0.00000000E+00  0.00000000E+00  0.00000000E+00
  0.00000000E+00  0.00000000E+00  0.00000000E+00
  0.00000000E+00  0.00000000E+00  0.00000000E+00
  0.00000000E+00  0.00000000E+00  0.00000000E+00
  0.00000000E+00  0.00000000E+00  0.00000000E+00
  0.00000000E+00  0.00000000E+00  0.00000000E+00
  0.00000000E+00  0.00000000E+00  0.00000000E+00
  0.00000000E+00  0.00000000E+00  0.00000000E+00
  0.00000000E+00  0.00000000E+00  0.00000000E+00
  0.00000000E+00  0.00000000E+00  0.00000000E+00
  0.00000000E+00  0.00000000E+00  0.00000000E+00
  0.00000000E+00  0.00000000E+00  0.00000000E+00
  0.00000000E+00  0.00000000E+00  0.00000000E+00
  0.00000000E+00  0.00000000E+00  0.00000000E+00
  0.00000000E+00  0.00000000E+00  0.00000000E+00
  0.00000000E+00  0.00000000E+00  0.00000000E+00
  0.00000000E+00  0.00000000E+00  0.00000000E+00