Amorphous Sb                            
   1.00000000000000     
    22.5913554274211279    0.0000000000000000    0.0000000000000000
     0.0000000000000000   22.5913554274211279    0.0000000000000000
     0.0000000000000000    0.0000000000000000   22.5913554274211279
   Sb   Te
    30   270
Direct
  0.2780576959929816  0.0857035172840313  0.2156097027227484
  0.5710882740001821  0.5668684746250243  0.2818180483760178
  0.7860181512162266  0.5868731527315932  0.8069512446172512
  0.7084428111512217  0.4330410953099087  0.7679349549423002
  0.4332586550966026  0.2952834715902967  0.8555805726393385
  0.7430478591030253  0.9411704138894994  0.5457351824392080
  0.9023831298284747  0.1797552812255127  0.5161225117344064
  0.0743219326230398  0.8017126352439738  0.2724772986812778
  0.3392765404089989  0.4788938181139640  0.9418916569644169
  0.8403383787642373  0.8847897836821703  0.0477123085662655
  0.9019057106697196  0.7034384620096976  0.7509824928730446
  0.0183362763533892  0.5371509488764076  0.3878218152729750
  0.0725228515834479  0.0613811980594363  0.0753153251645583
  0.1231614776664142  0.8296801907526384  0.9313842188758710
  0.9298260744730247  0.3856034036775120  0.8663208669750733
  0.6818469657089087  0.9868887364265664  0.1123684009990947
  0.2831314116832080  0.6160311125788404  0.5796185388434111
  0.0210199680956984  0.3723099318066519  0.0159434066520716
  0.0987506651960988  0.4050360820625227  0.1742812042722033
  0.6748642345778748  0.1762011743172592  0.8506982328336097
  0.2271039895070502  0.8326981034174581  0.3657187082391527
  0.8964337542714869  0.3965471630917792  0.9911206214807405
  0.2226708316607907  0.8959188930424097  0.1870801714814544
  0.5554355559736666  0.9900529171418654  0.8549361531019815
  0.1426374562015797  0.5193196309491336  0.0197534514326299
  0.8113953666866665  0.9103477914439261  0.4387452571100700
  0.7581168367451324  0.7667711752694520  0.2447433314901971
  0.9330663297610489  0.1266618690241451  0.7724058926882087
  0.1073768236000275  0.2621265545537582  0.7920704844727243
  0.5711795389308739  0.0972617852581333  0.1972394132597716
  0.5865320517129006  0.1671758333841600  0.5385976315124132
  0.4491443965058702  0.8125099087696231  0.8837466460136106
  0.1337504005456525  0.0899578813265650  0.2488110337656527
  0.2458926153631349  0.7176482786530639  0.4297537900887721
  0.7198514242944060  0.3332665119407517  0.3514203000727657
  0.1583814956552979  0.4052432870662742  0.4643251747667095
  0.5987659874794767  0.7719083336832714  0.8387446862277398
  0.5711306179925930 -0.0008540865015002  0.4675404762025854
  0.2986062949249145  0.0243138429337834  0.7896797394252466
  0.7624242220365547  0.2198355453433941  0.7719516963269226
  0.2264530407674130  0.5051712627467947  0.8868483615104882
  0.2214061013990271  0.9599981764733976  0.6969929392315262
  0.9016330739349981  0.3357738321697062  0.5720495628997773
  0.5116120691690017  0.2843139298603025  0.1280812118587460
  0.7831663083324027  0.0902458832989833  0.1763290806446198
  0.0074723145582103  0.1381618057397156  0.0013477038231390
  0.4396025274812649  0.6791046807833988  0.5533878848151762
  0.2104380936145064  0.6874720835083814  0.6527734109357803
  0.9448384980728676  0.8974716666474306  0.4568435422724627
  0.4047508169429639  0.8686867689403652  0.5872977605519064
  0.1606503318104248  0.7282246691746499  0.8574569996581937
  0.8980287841831226  0.1271108173847192  0.2062416792266216
  0.9662054378393156  0.1668100330441195  0.3764333474335579
  0.5199520700347550  0.7254248645100374  0.4108584504547323
  0.1288863387324148  0.1436182658433582  0.7411377207905364
  0.7578536917217911  0.9013611856419025  0.2066363573498365
  0.2028561591510663  0.2605655038872211  0.1780273000266415
  0.5859190439348921  0.0325482089847573  0.0329133703208186
  0.0057129362052269  0.2971671777516801  0.3971786076025436
  0.6223228265381969  0.3897299651173224  0.2899321329027175
  0.3797934521389159  0.8599369066534696  0.3943239658460172
  0.1800407568812539  0.5039593008005464  0.2025462651220397
  0.0372642236348498  0.4836849940703060  0.0798892234546656
  0.5638321891370215  0.7811056312955691  0.6439547822553393
  0.1415283516541804  0.6376349601610073  0.5565808795454483
  0.0939969390061761  0.6822040056815477  0.3341788926437765
  0.2871464356833779  0.2704747722461331  0.5138432955849724
  0.4958264471019820  0.5118773289354748  0.5622767849533085
  0.2261391028173152  0.5603414502024111  0.3550971827119224
  0.8282169579779671  0.5802174880948314  0.0378781257509661
  0.5535369275819019  0.2598086000471835  0.6164322838216220
  0.4568923721145125  0.1458798685492587  0.1656533367708216
  0.4878345449000271  0.3497445146564157  0.7169534492844305
  0.8214286953684657  0.7702305948975755  0.3556993801209610
  0.6532780393391351  0.8537190628182370  0.3568737035824079
  0.8884402267540396  0.0162811789024111  0.8166632963264885
  0.0302500396686079  0.4737504620609622  0.8832556856787519
  0.6219582449238281  0.6797317904847689  0.3463764727417183
  0.3922703979759504  0.6047245440269534  0.6433949035639543
  0.6056622744114093  0.6638139617234188  0.5929435003435891
  0.4850174341989283  0.5718144839462289  0.0732770390402707
  0.5142647089261195  0.9628813875112919  0.1328179164538849
  0.1037613133090503  0.8497859211937731  0.3857350770024063
  0.3879504474686804  0.9867502390479553  0.0972401237812685
  0.8756576355511629  0.4744506679513356  0.4608221115929191
  0.8480771664906355  0.1831892347779987  0.9562930461677869
  0.5770891720017676  0.5156162460093117  0.0169153467394638
  0.8697895501858375  0.7581911917255955  0.1795938550776953
  0.9057670593112604  0.6199421366370197  0.8491522848020080
  0.0482328155611996  0.5752439876291174  0.2707758091641781
  0.8574578183916376  0.6510334283556287  0.4808303968832718
  0.9959105893151456  0.5025513352789059  0.5413555795564476
  0.6927792649102034  0.9665044152547857  0.3974366303293366
  0.7233898324758856  0.5256182747878554  0.3976055600562155
  0.5072256518600483  0.1621664863618002  0.7324274181207885
  0.2649178808789455  0.3963309444061175  0.5711139838261629
  0.1781531068919623  0.0128816142104938  0.4478066457115801
  0.6339892454212536  0.3569257292650696  0.8633426589675880
  0.3241302220552595  0.5090790477665873  0.7254419129834987
  0.0133984616006840  0.6536960902585960  0.7056332031154997
  0.2319525414308081  0.4404685892067423  0.1041669379071321
  0.0230645384620503  0.4325303946004347  0.6922298492412464
  0.9219916891264730  0.7882289421450450  0.5191206781619926
  0.5263614157033895  0.9044110591362794  0.9507970753947764
  0.3353218896538493  0.6566278231767010  0.3623918088262089
  0.7184961154377633  0.9673778040702702  0.8957326460115285
  0.7323712241897135  0.8098994669337564  0.1015879787610396
  0.8156759767901646  0.3237738238393015  0.0863438426698656
  0.1651215578850446  0.2756725291913080  0.4655749787704805
  0.2654802372734595  0.0964852252406788  0.4811946088091207
  0.9538421268072020  0.5258449661639794  0.7657238118302705
  0.3959345043773397  0.4224735615267549  0.8395483541423808
  0.8658063277991203  0.5467921622701583  0.6762352068581964
  0.7077842757143912  0.0922500773482584  0.2743335156351616
  0.5758411769402840  0.2302615360751638  0.4278071691183322
  0.9129867644759919  0.0550501392677092  0.4901980369104899
  0.2327802171955658  0.8684854399293886  0.0542449798482363
  0.3923687120937160  0.6829475969661162  0.9738290731110848
  0.3645442150137937  0.6148583042762324  0.1537741264649059
  0.3789536632440689  0.3804280131857425  0.6416238613716355
  0.4351874810572723  0.7751884370320147  0.6673401109011678
  0.0759990218672848  0.4025640599049994  0.3655451008346565
  0.6685223198256596  0.6979428262415218  0.0529955193003889
  0.4299978328934501  0.5934510473915166  0.2714704905400245
  0.7919046929105845  0.0715067159268259  0.8732712532324032
  0.3356079329126289  0.4108413207372109  0.4020027476317271
  0.8104462470434738  0.3629430124894422  0.2698706075809938
  0.1617537031225834  0.1694446020889991  0.3397686015944119
  0.2626984073707207  0.5859288836583735  0.8023905300953095
  0.8861499079127642  0.5991386152670175  0.1460846410612436
  0.4694220423888899  0.0426471269559219  0.6160727141395621
  0.6291109350078271  0.8826725233213896  0.2317497057628984
  0.1607031239995749  0.2923884360062992  0.0280921389497924
  0.4153015653482637  0.3771131524742509  0.0394588025244554
  0.1063621510984419  0.9140367433246728  0.8381521396398796
  0.9621275664812386  0.0183732670192104  0.2025507034096419
  0.8013490649262617  0.2145856387700307  0.4457994304859810
  0.1830761604762801  0.1027516506008349  0.0236233751820831
  0.3931515126636864  0.4899157168239477  0.1081139066848295
  0.7040335772958631  0.6752797489854865  0.5173307664778648
  0.5928301144535127 -0.0077576617061578  0.6031119211376488
  0.8191004711953600  0.8357871405703658  0.9327070832738660
  0.7075005812968211  0.3399380706156641  0.4979343385457285
  0.1664960189799978  0.6114549610015222  0.1060635379185077
  0.8267622231931844  0.0306342242402759  0.4041839033240259
  0.8277739673767669  0.1674221121906131  0.6197213822939012
  0.2373197055907474  0.0471143518900291  0.8979164048552911
  0.3254673667763210  0.7861567336162106  0.5176852100180146
  0.1681454626059075  0.3766203491514885  0.9358427601436791
  0.0948516040856796  0.9028331069186101  0.1772762603355255
  0.4709763911516275  0.9880248312150820  0.7611166490287249
  0.8419947186902731  0.3437958864511896  0.4592967830897929
  0.2835454602391472  0.1406569724059399  0.3583810058441741
  0.3384916660421298  0.1972639199096626  0.7201097854147744
  0.2375591183915573  0.9709080114979708  0.3061088208177657
  0.0520753539108369  0.7631482849438113  0.6564642504523936
  0.1452424502679243  0.3281170609076061  0.2754205322866741
  0.0943781489271996  0.4152276541555638  0.7922535765614079
  0.4534726020327726  0.5841967869702288  0.4691833080319429
  0.7888703463253084  0.5531352900525609  0.5157702537004426
  0.7407585409979826  0.6368844632209563  0.2680217695844774
  0.0514731588922475  0.1380583861981331  0.5080881934075283
  0.3611081065421389  0.1217009137462809  0.6069829736696744
  0.6411035588339354  0.8555058169709039  0.9334141630809027
  0.0441573942603489  0.2404120123409434  0.2917865870984635
  0.7695271999977529  0.9912894712706135  0.0211886365860963
  0.3546820530769839  0.9238778793973101  0.2878772876875739
  0.3736246664883057  0.9270475549364271  0.8136654914139655
  0.9124983153033324  0.4025221074781627  0.1651941325297857
  0.5148112164256163  0.0955816687495037  0.9151958259822189
  0.5267723402141656  0.8474736092369671  0.3742637277479559
  0.6882668093203775  0.2614456738882888  0.9494948749706464
  0.0337911741014548  0.7237648547374254  0.5345251449828983
  0.5416940063329385  0.4625061960997911  0.1986225018190248
  0.5635979724410685  0.6761466377709230  0.7518931196256151
  0.5593258918896921  0.0969398991316700  0.3251271938265222
  0.2472545344768352  0.0079246118750955  0.1178255215975634
  0.7781545713043461  0.2674990040776692  0.1921233759349557
  0.1375531525508749  0.9087133607360137  0.6093282929323229
  0.0882604017950087  0.5279584510104415  0.6233819067511119
  0.9254391250984227  0.8769496297972066  0.3271238231705565
  0.3611978804482017  0.8473213641543714  0.9706778712214527
  0.9398613607640903  0.0949888907903561  0.6482588186118781
  0.3661675135617978  0.8603122703664952  0.1345416229928168
  0.9954300063516529  0.8147566889453834  0.9232519561595318
  0.0143647707156844  0.7289477753150644  0.1186505228333989
  0.6208507987911874  0.8759340100847696  0.0938910122288712
  0.6190243064445757  0.6196477130158891  0.1757081277927749
  0.4559459804480029  0.0446754816381299  0.4901131321765322
  0.8474277334065421  0.6446692643774159  0.3366080426110165
  0.9350284460071397  0.8272066697151790  0.6619926148811759
  0.3065925511415935  0.7643765130518759  0.7169425340058853
  0.8503661950510353  0.1733548153076162  0.3354462094688381
  0.0597644485137012  0.6159426051083636  0.9738683638446608
  0.2680653574422447  0.8496660762136502  0.8719968444827635
  0.3572326140042101  0.9548199493733125  0.4765298482690576
  0.4759926842947947  0.3234684946678117  0.2435280114474056
  0.2427427876949454  0.8825170647421047  0.4954979270638225
  0.5796516565289258  0.2514453506012617  0.7972140818713073
  0.4084172607953784  0.7380828783450842  0.3006130074953842
  0.6535081074225375  0.4852669301442991  0.1107966346436070
  0.0979139642358122  0.2358664491528836  0.5655163303142761
  0.5442764059136754  0.8635517909094477  0.5514213827815253
  0.8315547512365512  0.5001467129668120  0.1979854051221940
  0.9094429548380731  0.5193313991582234  0.9645986002718934
  0.4031586435240573  0.0484684621773630  0.2285259483966224
  0.9420464709299693  0.9598270875471934  0.9794944469403233
  0.4233207976758393  0.4672434849216265  0.2473665607182188
  0.5863647597914952  0.3540832737395960  0.4711400627948795
  0.0670066002103853  0.9783712578689445  0.6915132211753277
  0.0655787261055573  0.9601432427788963  0.9939691559932232
  0.0072914280028922  0.3093214749628900  0.1274430001179177
  0.2910350514279683  0.3761743218298836  0.7756872716788069
  0.6513208238465046  0.0997813811247420  0.6374058813931888
  0.6845239646834891  0.4971202883423623  0.2786361357170684
  0.0935797156196930  0.1783074625846193  0.1693663730171867
  0.3896426151947222  0.9695523803104308  0.9681193608092242
  0.4527671759003790  0.4280641497973935  0.3689418013309851
  0.4320105199487202  0.6433721719799093  0.7953071489490732
  0.5084690307744306  0.7686526337869825  0.1176473013528177
  0.0676970770108174  0.6481263025836963  0.8522298256498928
  0.1270861954518831  0.1948131664540336  0.9571156009641549
  0.6121852387267996  0.5722103873997625  0.4346353249278033
  0.2917804707663738  0.3732100012648526  0.9887222014887382
  0.6725151547268128  0.8390757678487482  0.5210870830171663
  0.9373705484615991  0.7787250598793674  0.0338033767350563
  0.6426516809207016  0.5364515495754867  0.8027020849539587
  0.2750365027768615  0.7450886469027740  0.0535735593071542
  0.0420742885099835  0.0794491756214001  0.8099264733014949
  0.9191119128485699  0.3169079567184115  0.7264452273723984
  0.0025910479962486  0.9770603112755555  0.3106764328573743
  0.3843009682964991  0.1205405271918496  0.0350170661726135
  0.6089378278426300  0.1501818534077967  0.0685723874965197
  0.9949858204045939  0.2804907393143903  0.8928959662018139
  0.5766841085482159  0.4197307037790957  0.6666585749550024
  0.7955253304887455  0.4453857584342231  0.6737298324809537
  0.5685682862641699  0.8688704969710888  0.7661046354394714
  0.6711223706647196  0.3717610787305427  0.0614476964158580
  0.1378544595819786  0.5398149709269353  0.4407028573346248
  0.2253868300722866  0.2077104539160356  0.6586386597095066
  0.3672802275086015  0.2635547449386032  0.2555462201609874
  0.5607516636622339  0.5350669408239147  0.7078227949953902
  0.1852106531651295  0.3208192971758828  0.7044407169429269
  0.1114374905003380  0.8027021342505434  0.0940365172164533
  0.8081227355490146  0.8944929597572332  0.6454244786438115
  0.9465162764551498  0.9676343798378061  0.6605117984101553
  0.4490100443153355  0.2430225123498375  0.4093230369036724
  0.4234242919906119  0.2559409355038598  0.5296262377868018
  0.6615081127366829  0.2661642764302622  0.6883639326231547
  0.1900310459310421  0.8528061234211923  0.7653647148206966
  0.0136429257469713  0.2384505891698027  0.7094257961721754
  0.4330617964741118  0.1417581929006664  0.8316456769925614
  0.1611723665831715  0.6939307903877440  0.0088266669869030
  0.7883068661640278  0.4550734953571421  0.8646061126023661
  0.9202586553350508  0.0575852055877105  0.0541340703532503
  0.5490950859124981  0.7005878526363560  0.0193685708482088
  0.1945095315952304  0.7688246058238110  0.2495143582679056
  0.2983603220758442  0.3514476572110510  0.1898381619941401
  0.5294167108560769  0.3642060857060115  0.9303961078014502
  0.2441558981538638  0.0737244958578058  0.6128492798414789
  0.4993790507966957  0.9935782913081820  0.3575574834144579
  0.7598680270067364  0.7138852046911462  0.8024366432816025
  0.7345453109686958  0.5646198786933392  0.9196257638036999
  0.5983338761072188  0.7401842250817954  0.2006407377191393
  0.2329510293022928  0.5071195908420022  0.6363746574758917
  0.2618496987042641  0.4531436331419066  0.2976327808743603
  0.8951004328309541  0.8805007639186578  0.1915848833442958
  0.6866993841749658  0.8825090066683104  0.7117244138380604
  0.5513737105428426  0.2480799485565587  0.9827659894400310
  0.0009746739636569  0.4460058382845387  0.2491866382190925
  0.3029672200648440  0.2621037537683191  0.8281839755063123
  0.3096377176664326  0.1421698724144030  0.9315237089252288
  0.0137076070822514  0.3775724104868599  0.5329725190405128
  0.4165027350473292  0.2595542920692608  0.9782976281268476
  0.7641683026560098  0.2828693504913831  0.6076996221160285
  0.6373024805122000  0.1938167039687500  0.2538410715828557
  0.7657813615073499  0.7633556422437886  0.5848004000543064
  0.4608051829599951  0.6021057599635627  0.9100038665892036
  0.6101925672048643  0.4766731368728301  0.5228245500219476
  0.8577714471264438  0.4966957652067225  0.3337537493873154
  0.8727250826472041  0.2584457318156383  0.8412795096939037
  0.6813630703859174  0.6852929866639794  0.6984756338255889
  0.3074854684243566  0.1743066402505974  0.1215192327095441
  0.3446503756012035  0.7379855036420709  0.8336214797684961
  0.3051350792456296  0.6159993418725881  0.0371971050308831
  0.6411440779268736  0.2851745854157001  0.1463786050125967
  0.3373773620247101  0.7389818785789356  0.1934675311160404
  0.7198001753764488  0.9899652463169674  0.7665341760922925
  0.4503279529389954  0.3826561178001923  0.5401029479025151
  0.8260391893487615  0.7176796085588711  0.9771226736744043
  0.9070015240064292  0.2449826607959674  0.0504952815773899
  0.7336323188383906  0.1596271186275143  0.0138675684766834
  0.8699734413094683  0.6864710635031976  0.6028712121385585
  0.9951356278605404  0.6648327563125987  0.4107032554896681
  0.7079733913180855  0.6990523124729379  0.9267027723869966
  0.4646645806706968  0.8691156631033429  0.2135288449796885
  0.9433803286951317  0.8161820561642347  0.7882003701981667
  0.3149665036209698  0.2795028029659094  0.3855944776587681
  0.1084073291621657  0.0277371658725541  0.5519273334122876
  0.6187345379668699  0.0739740052980360  0.7571311143465730
 
  0.00000000E+00  0.00000000E+00  0.00000000E+00
  0.00000000E+00  0.00000000E+00  0.00000000E+00
  0.00000000E+00  0.00000000E+00  0.00000000E+00
  0.00000000E+00  0.00000000E+00  0.00000000E+00
  0.00000000E+00  0.00000000E+00  0.00000000E+00
  0.00000000E+00  0.00000000E+00  0.00000000E+00
  0.00000000E+00  0.00000000E+00  0.00000000E+00
  0.00000000E+00  0.00000000E+00  0.00000000E+00
  0.00000000E+00  0.00000000E+00  0.00000000E+00
  0.00000000E+00  0.00000000E+00  0.00000000E+00
  0.00000000E+00  0.00000000E+00  0.00000000E+00
  0.00000000E+00  0.00000000E+00  0.00000000E+00
  0.00000000E+00  0.00000000E+00  0.00000000E+00
  0.00000000E+00  0.00000000E+00  0.00000000E+00
  0.00000000E+00  0.00000000E+00  0.00000000E+00
  0.00000000E+00  0.00000000E+00  0.00000000E+00
  0.00000000E+00  0.00000000E+00  0.00000000E+00
  0.00000000E+00  0.00000000E+00  0.00000000E+00
  0.00000000E+00  0.00000000E+00  0.00000000E+00
  0.00000000E+00  0.00000000E+00  0.00000000E+00
  0.00000000E+00  0.00000000E+00  0.00000000E+00
  0.00000000E+00  0.00000000E+00  0.00000000E+00
  0.00000000E+00  0.00000000E+00  0.00000000E+00
  0.00000000E+00  0.00000000E+00  0.00000000E+00
  0.00000000E+00  0.00000000E+00  0.00000000E+00
  0.00000000E+00  0.00000000E+00  0.00000000E+00
  0.00000000E+00  0.00000000E+00  0.00000000E+00
  0.00000000E+00  0.00000000E+00  0.00000000E+00
  0.00000000E+00  0.00000000E+00  0.00000000E+00
  0.00000000E+00  0.00000000E+00  0.00000000E+00
  0.00000000E+00  0.00000000E+00  0.00000000E+00
  0.00000000E+00  0.00000000E+00  0.00000000E+00
  0.00000000E+00  0.00000000E+00  0.00000000E+00
  0.00000000E+00  0.00000000E+00  0.00000000E+00
  0.00000000E+00  0.00000000E+00  0.00000000E+00
  0.00000000E+00  0.00000000E+00  0.00000000E+00
  0.00000000E+00  0.00000000E+00  0.00000000E+00
  0.00000000E+00  0.00000000E+00  0.00000000E+00
  0.00000000E+00  0.00000000E+00  0.00000000E+00
  0.00000000E+00  0.00000000E+00  0.00000000E+00
  0.00000000E+00  0.00000000E+00  0.00000000E+00
  0.00000000E+00  0.00000000E+00  0.00000000E+00
  0.00000000E+00  0.00000000E+00  0.00000000E+00
  0.00000000E+00  0.00000000E+00  0.00000000E+00
  0.00000000E+00  0.00000000E+00  0.00000000E+00
  0.00000000E+00  0.00000000E+00  0.00000000E+00
  0.00000000E+00  0.00000000E+00  0.00000000E+00
  0.00000000E+00  0.00000000E+00  0.00000000E+00
  0.00000000E+00  0.00000000E+00  0.00000000E+00
  0.00000000E+00  0.00000000E+00  0.00000000E+00
  0.00000000E+00  0.00000000E+00  0.00000000E+00
  0.00000000E+00  0.00000000E+00  0.00000000E+00
  0.00000000E+00  0.00000000E+00  0.00000000E+00
  0.00000000E+00  0.00000000E+00  0.00000000E+00
  0.00000000E+00  0.00000000E+00  0.00000000E+00
  0.00000000E+00  0.00000000E+00  0.00000000E+00
  0.00000000E+00  0.00000000E+00  0.00000000E+00
  0.00000000E+00  0.00000000E+00  0.00000000E+00
  0.00000000E+00  0.00000000E+00  0.00000000E+00
  0.00000000E+00  0.00000000E+00  0.00000000E+00
  0.00000000E+00  0.00000000E+00  0.00000000E+00
  0.00000000E+00  0.00000000E+00  0.00000000E+00
  0.00000000E+00  0.00000000E+00  0.00000000E+00
  0.00000000E+00  0.00000000E+00  0.00000000E+00
  0.00000000E+00  0.00000000E+00  0.00000000E+00
  0.00000000E+00  0.00000000E+00  0.00000000E+00
  0.00000000E+00  0.00000000E+00  0.00000000E+00
  0.00000000E+00  0.00000000E+00  0.00000000E+00
  0.00000000E+00  0.00000000E+00  0.00000000E+00
  0.00000000E+00  0.00000000E+00  0.00000000E+00
  0.00000000E+00  0.00000000E+00  0.00000000E+00
  0.00000000E+00  0.00000000E+00  0.00000000E+00
  0.00000000E+00  0.00000000E+00  0.00000000E+00
  0.00000000E+00  0.00000000E+00  0.00000000E+00
  0.00000000E+00  0.00000000E+00  0.00000000E+00
  0.00000000E+00  0.00000000E+00  0.00000000E+00
  0.00000000E+00  0.00000000E+00  0.00000000E+00
  0.00000000E+00  0.00000000E+00  0.00000000E+00
  0.00000000E+00  0.00000000E+00  0.00000000E+00
  0.00000000E+00  0.00000000E+00  0.00000000E+00
  0.00000000E+00  0.00000000E+00  0.00000000E+00
  0.00000000E+00  0.00000000E+00  0.00000000E+00
  0.00000000E+00  0.00000000E+00  0.00000000E+00
  0.00000000E+00  0.00000000E+00  0.00000000E+00
  0.00000000E+00  0.00000000E+00  0.00000000E+00
  0.00000000E+00  0.00000000E+00  0.00000000E+00
  0.00000000E+00  0.00000000E+00  0.00000000E+00
  0.00000000E+00  0.00000000E+00  0.00000000E+00
  0.00000000E+00  0.00000000E+00  0.00000000E+00
  0.00000000E+00  0.00000000E+00  0.00000000E+00
  0.00000000E+00  0.00000000E+00  0.00000000E+00
  0.00000000E+00  0.00000000E+00  0.00000000E+00
  0.00000000E+00  0.00000000E+00  0.00000000E+00
  0.00000000E+00  0.00000000E+00  0.00000000E+00
  0.00000000E+00  0.00000000E+00  0.00000000E+00
  0.00000000E+00  0.00000000E+00  0.00000000E+00
  0.00000000E+00  0.00000000E+00  0.00000000E+00
  0.00000000E+00  0.00000000E+00  0.00000000E+00
  0.00000000E+00  0.00000000E+00  0.00000000E+00
  0.00000000E+00  0.00000000E+00  0.00000000E+00
  0.00000000E+00  0.00000000E+00  0.00000000E+00
  0.00000000E+00  0.00000000E+00  0.00000000E+00
  0.00000000E+00  0.00000000E+00  0.00000000E+00
  0.00000000E+00  0.00000000E+00  0.00000000E+00
  0.00000000E+00  0.00000000E+00  0.00000000E+00
  0.00000000E+00  0.00000000E+00  0.00000000E+00
  0.00000000E+00  0.00000000E+00  0.00000000E+00
  0.00000000E+00  0.00000000E+00  0.00000000E+00
  0.00000000E+00  0.00000000E+00  0.00000000E+00
  0.00000000E+00  0.00000000E+00  0.00000000E+00
  0.00000000E+00  0.00000000E+00  0.00000000E+00
  0.00000000E+00  0.00000000E+00  0.00000000E+00
  0.00000000E+00  0.00000000E+00  0.00000000E+00
  0.00000000E+00  0.00000000E+00  0.00000000E+00
  0.00000000E+00  0.00000000E+00  0.00000000E+00
  0.00000000E+00  0.00000000E+00  0.00000000E+00
  0.00000000E+00  0.00000000E+00  0.00000000E+00
  0.00000000E+00  0.00000000E+00  0.00000000E+00
  0.00000000E+00  0.00000000E+00  0.00000000E+00
  0.00000000E+00  0.00000000E+00  0.00000000E+00
  0.00000000E+00  0.00000000E+00  0.00000000E+00
  0.00000000E+00  0.00000000E+00  0.00000000E+00
  0.00000000E+00  0.00000000E+00  0.00000000E+00
  0.00000000E+00  0.00000000E+00  0.00000000E+00
  0.00000000E+00  0.00000000E+00  0.00000000E+00
  0.00000000E+00  0.00000000E+00  0.00000000E+00
  0.00000000E+00  0.00000000E+00  0.00000000E+00
  0.00000000E+00  0.00000000E+00  0.00000000E+00
  0.00000000E+00  0.00000000E+00  0.00000000E+00
  0.00000000E+00  0.00000000E+00  0.00000000E+00
  0.00000000E+00  0.00000000E+00  0.00000000E+00
  0.00000000E+00  0.00000000E+00  0.00000000E+00
  0.00000000E+00  0.00000000E+00  0.00000000E+00
  0.00000000E+00  0.00000000E+00  0.00000000E+00
  0.00000000E+00  0.00000000E+00  0.00000000E+00
  0.00000000E+00  0.00000000E+00  0.00000000E+00
  0.00000000E+00  0.00000000E+00  0.00000000E+00
  0.00000000E+00  0.00000000E+00  0.00000000E+00
  0.00000000E+00  0.00000000E+00  0.00000000E+00
  0.00000000E+00  0.00000000E+00  0.00000000E+00
  0.00000000E+00  0.00000000E+00  0.00000000E+00
  0.00000000E+00  0.00000000E+00  0.00000000E+00
  0.00000000E+00  0.00000000E+00  0.00000000E+00
  0.00000000E+00  0.00000000E+00  0.00000000E+00
  0.00000000E+00  0.00000000E+00  0.00000000E+00
  0.00000000E+00  0.00000000E+00  0.00000000E+00
  0.00000000E+00  0.00000000E+00  0.00000000E+00
  0.00000000E+00  0.00000000E+00  0.00000000E+00
  0.00000000E+00  0.00000000E+00  0.00000000E+00
  0.00000000E+00  0.00000000E+00  0.00000000E+00
  0.00000000E+00  0.00000000E+00  0.00000000E+00
  0.00000000E+00  0.00000000E+00  0.00000000E+00
  0.00000000E+00  0.00000000E+00  0.00000000E+00
  0.00000000E+00  0.00000000E+00  0.00000000E+00
  0.00000000E+00  0.00000000E+00  0.00000000E+00
  0.00000000E+00  0.00000000E+00  0.00000000E+00
  0.00000000E+00  0.00000000E+00  0.00000000E+00
  0.00000000E+00  0.00000000E+00  0.00000000E+00
  0.00000000E+00  0.00000000E+00  0.00000000E+00
  0.00000000E+00  0.00000000E+00  0.00000000E+00
  0.00000000E+00  0.00000000E+00  0.00000000E+00
  0.00000000E+00  0.00000000E+00  0.00000000E+00
  0.00000000E+00  0.00000000E+00  0.00000000E+00
  0.00000000E+00  0.00000000E+00  0.00000000E+00
  0.00000000E+00  0.00000000E+00  0.00000000E+00
  0.00000000E+00  0.00000000E+00  0.00000000E+00
  0.00000000E+00  0.00000000E+00  0.00000000E+00
  0.00000000E+00  0.00000000E+00  0.00000000E+00
  0.00000000E+00  0.00000000E+00  0.00000000E+00
  0.00000000E+00  0.00000000E+00  0.00000000E+00
  0.00000000E+00  0.00000000E+00  0.00000000E+00
  0.00000000E+00  0.00000000E+00  0.00000000E+00
  0.00000000E+00  0.00000000E+00  0.00000000E+00
  0.00000000E+00  0.00000000E+00  0.00000000E+00
  0.00000000E+00  0.00000000E+00  0.00000000E+00
  0.00000000E+00  0.00000000E+00  0.00000000E+00
  0.00000000E+00  0.00000000E+00  0.00000000E+00
  0.00000000E+00  0.00000000E+00  0.00000000E+00
  0.00000000E+00  0.00000000E+00  0.00000000E+00
  0.00000000E+00  0.00000000E+00  0.00000000E+00
  0.00000000E+00  0.00000000E+00  0.00000000E+00
  0.00000000E+00  0.00000000E+00  0.00000000E+00
  0.00000000E+00  0.00000000E+00  0.00000000E+00
  0.00000000E+00  0.00000000E+00  0.00000000E+00
  0.00000000E+00  0.00000000E+00  0.00000000E+00
  0.00000000E+00  0.00000000E+00  0.00000000E+00
  0.00000000E+00  0.00000000E+00  0.00000000E+00
  0.00000000E+00  0.00000000E+00  0.00000000E+00
  0.00000000E+00  0.00000000E+00  0.00000000E+00
  0.00000000E+00  0.00000000E+00  0.00000000E+00
  0.00000000E+00  0.00000000E+00  0.00000000E+00
  0.00000000E+00  0.00000000E+00  0.00000000E+00
  0.00000000E+00  0.00000000E+00  0.00000000E+00
  0.00000000E+00  0.00000000E+00  0.00000000E+00
  0.00000000E+00  0.00000000E+00  0.00000000E+00
  0.00000000E+00  0.00000000E+00  0.00000000E+00
  0.00000000E+00  0.00000000E+00  0.00000000E+00
  0.00000000E+00  0.00000000E+00  0.00000000E+00
  0.00000000E+00  0.00000000E+00  0.00000000E+00
  0.00000000E+00  0.00000000E+00  0.00000000E+00
  0.00000000E+00  0.00000000E+00  0.00000000E+00
  0.00000000E+00  0.00000000E+00  0.00000000E+00
  0.00000000E+00  0.00000000E+00  0.00000000E+00
  0.00000000E+00  0.00000000E+00  0.00000000E+00
  0.00000000E+00  0.00000000E+00  0.00000000E+00
  0.00000000E+00  0.00000000E+00  0.00000000E+00
  0.00000000E+00  0.00000000E+00  0.00000000E+00
  0.00000000E+00  0.00000000E+00  0.00000000E+00
  0.00000000E+00  0.00000000E+00  0.00000000E+00
  0.00000000E+00  0.00000000E+00  0.00000000E+00
  0.00000000E+00  0.00000000E+00  0.00000000E+00
  0.00000000E+00  0.00000000E+00  0.00000000E+00
  0.00000000E+00  0.00000000E+00  0.00000000E+00
  0.00000000E+00  0.00000000E+00  0.00000000E+00
  0.00000000E+00  0.00000000E+00  0.00000000E+00
  0.00000000E+00  0.00000000E+00  0.00000000E+00
  0.00000000E+00  0.00000000E+00  0.00000000E+00
  0.00000000E+00  0.00000000E+00  0.00000000E+00
  0.00000000E+00  0.00000000E+00  0.00000000E+00
  0.00000000E+00  0.00000000E+00  0.00000000E+00
  0.00000000E+00  0.00000000E+00  0.00000000E+00
  0.00000000E+00  0.00000000E+00  0.00000000E+00
  0.00000000E+00  0.00000000E+00  0.00000000E+00
  0.00000000E+00  0.00000000E+00  0.00000000E+00
  0.00000000E+00  0.00000000E+00  0.00000000E+00
  0.00000000E+00  0.00000000E+00  0.00000000E+00
  0.00000000E+00  0.00000000E+00  0.00000000E+00
  0.00000000E+00  0.00000000E+00  0.00000000E+00
  0.00000000E+00  0.00000000E+00  0.00000000E+00
  0.00000000E+00  0.00000000E+00  0.00000000E+00
  0.00000000E+00  0.00000000E+00  0.00000000E+00
  0.00000000E+00  0.00000000E+00  0.00000000E+00