Sb                                      
   1.00000000000000     
    18.9678594814704411    0.0000000000000000    0.0000000000000000
     0.0000000000000000   18.9678594814704411    0.0000000000000000
     0.0000000000000000    0.0000000000000000   18.9678594814704411
   Sb   Sn
   205    11
Selective dynamics
Direct
  0.9112821021610547  0.9159648120342161  0.6737919733874564   T   T   T
  0.7556753948070183  0.7595630356954596  0.4987677652899852   T   T   T
  0.0784323143450766  0.7487601717658721  0.0087109972722421   T   T   T
  0.2453328377891696  0.4156986322423923  0.1787678504978574   T   T   T
  0.9117387863644074  0.9171607830330473  0.0088653984426076   T   T   T
  0.5786247325451693  0.9166832686897344  0.0091496594184923   T   T   T
  0.9112045193572056  0.4161961693328523  0.5086851575060701   T   T   T
  0.5869157080236483  0.0943944219566142  0.6661252893563556   T   T   T
  0.4215654844694166  0.5929938674624474  0.9982275927976000   T   T   T
  0.0890954190293831  0.7596946968375858  0.1656764622091797   T   T   T
  0.4120292620997767  0.7476867718607444  0.3404313700692649   T   T   T
  0.2552149531002572  0.0915343022428209  0.3328372180564264   T   T   T
  0.5779180861788270  0.9183237743231362  0.3421060168229693   T   T   T
  0.5883498180423575  0.7602283854815260 -0.0026145672514400   T   T   T
  0.0869187304328740  0.0936226217281802  0.5000457610281634   T   T   T
  0.7546042411629582  0.2601146677269564 -0.0014658372009655   T   T   T
  0.4115126233620936  0.0826058143581034  0.3426323642473280   T   T   T
  0.2448852428382877  0.9155238101232728  0.0088269514866952   T   T   T
  0.7440779857507597  0.2507718526683721  0.8418629991190177   T   T   T
  0.0780756778101679  0.0830433929814263  0.0096045125963775   T   T   T
  0.0784388757855678  0.5832042373290868  0.8407797284887401   T   T   T
  0.7550519527894844  0.9271008254198971 -0.0021787682420049   T   T   T
  0.5783390379191270  0.9172571383601562  0.6749305126374794   T   T   T
  0.7440976507068439  0.9176457240377103  0.1750640419456010   T   T   T
  0.9212664722329706  0.4264000069036863 -0.0013148581377369   T   T   T
  0.4117170728315561  0.5821448341126931  0.1741985675047960   T   T   T
  0.9114503976963059  0.5830027960668204  0.0087359175419859   T   T   T
  0.9215038668373419  0.0943018749664664  0.3326276241932205   T   T   T
  0.0881160937337829  0.0935004952888832  0.8316386006025031   T   T   T
  0.7552481326350430  0.5945597381159200  0.6637980104056307   T   T   T
  0.9127127143969291  0.4180098452859922  0.1760946145818957   T   T   T
  0.0779634615583827  0.2495188164283590  0.1764526891127222   T   T   T
  0.7550303678462165  0.4276631246868143  0.8295816176003984   T   T   T
  0.4227226048094526  0.4258753273636067  0.8396265870040627   T   T   T
  0.0884994678195347  0.0926734634922068  0.1666609990491284   T   T   T
  0.7560271821976992  0.4270686520791176  0.1643311371325509   T   T   T
  0.2442879635867878  0.2495541251062631  0.6758557446169468   T   T   T
  0.2458460854844067  0.7493662559336840  0.1756030543286791   T   T   T
  0.2442357384028050  0.5822975735227913  0.0102607088519554   T   T   T
  0.7455697036624602  0.9172680234838251  0.5090251049139043   T   T   T
  0.9210618876167112  0.2611163306456090  0.1656853641784191   T   T   T
  0.2554659335030628  0.2596482408809267  0.8327824671135360   T   T   T
  0.0876599784564344  0.9256683064321389  0.6636540206635222   T   T   T
  0.0790195692073342  0.4158908496619146  0.3444404424086529   T   T   T
  0.2546588365269404  0.5926025540457401  0.8325490393703757   T   T   T
  0.7455879007596127  0.4181134726598979  0.3418557646443153   T   T   T
  0.2551527112994534  0.7576874847753444  0.3333170067499571   T   T   T
  0.9201032745921842  0.7583484399366265  0.6650219312485800   T   T   T
  0.7554514748755879  0.9274585708871390  0.3319194238311619   T   T   T
  0.0887376696504835  0.4262605184048833  0.8310738894226118   T   T   T
  0.2534477712910725  0.4246064634518357  0.6693473757432685   T   T   T
  0.2449737490000363  0.5811231964721530  0.3451820942641233   T   T   T
  0.5879640698916428  0.0935755303665785 -0.0003277404233008   T   T   T
  0.7552016181174718  0.7607663273737028  0.1646973987526221   T   T   T
  0.2438737870756663  0.5817865889740150  0.6764739170119964   T   T   T
  0.7441221135882313  0.9172789896138926  0.8407275907467704   T   T   T
  0.7448542813694148  0.5843419810614063  0.8387700160468154   T   T   T
  0.4118390941618423  0.9164465542611749  0.8414268213336495   T   T   T
  0.0785871675597990  0.7499835449568844  0.3433075703357218   T   T   T
  0.5888731287739269  0.5947835673290667  0.1619254647764621   T   T   T
  0.0792769602216692  0.5832520984312658  0.1761503606465206   T   T   T
  0.4214317657438362  0.9252989264471229  0.3318005498697395   T   T   T
  0.0779806218227933  0.4165264306331640  0.0095896594089160   T   T   T
  0.4216453432229824  0.0914465651950871  0.4988732802258569   T   T   T
  0.9119210063478800  0.7503208333146668  0.1753124424095750   T   T   T
  0.0875450525497941  0.2595230954637065  0.3333444836278927   T   T   T
  0.9216589159944667  0.7605129616311401 -0.0020311946957872   T   T   T
  0.7561330774074324  0.4287308286641290  0.4968564731079352   T   T   T
  0.9205516817283045  0.0938350525528658  0.6650131216670161   T   T   T
  0.2454112414234332  0.9152748017200122  0.3423268744839267   T   T   T
  0.0886531803432938  0.9261822786662380  0.3326814698124050   T   T   T
  0.4115054566282289  0.2483739160798400  0.1784215353969655   T   T   T
  0.0779936601647451  0.7488706878198124  0.6744605813725197   T   T   T
  0.2439513014494631  0.0825749669819529  0.5089677425909909   T   T   T
  0.7554598175544838  0.5938319583919544  0.3315036591786065   T   T   T
  0.2549656466653641  0.9262188596884925  0.8313600856287934   T   T   T
  0.2447515711001007  0.0829083666690949  0.8423541763861072   T   T   T
  0.5784549957049806  0.0841773225718191  0.5086083190802190   T   T   T
  0.7548595224783816  0.5931862783974399  0.9968481551428778   T   T   T
  0.4120630367601483  0.9165130783934547  0.1747387800827844   T   T   T
  0.2556557765281513  0.2601366405559090  0.1669429995956738   T   T   T
  0.2542987241952821  0.2594706242958523  0.5005180572549512   T   T   T
  0.5879844874261777  0.5931592478036967  0.8283164974965996   T   T   T
  0.4223789760535097  0.4261069957749226  0.1700749572695046   T   T   T
  0.4223896904010510  0.9258339349114271  0.6641576263176125   T   T   T
  0.2547987812594104  0.0929572603403116 -0.0006136440832988   T   T   T
  0.9213979783851400  0.7612762117486226  0.3320194939682587   T   T   T
  0.9121316280654748  0.0840186568806922  0.1761146441458973   T   T   T
  0.5880802256841240  0.9272792995365033  0.4982857412110187   T   T   T
  0.9104206789753343  0.0826196646170123  0.5097010381860767   T   T   T
  0.2460106592652020  0.0829748353224948  0.1759112893636237   T   T   T
  0.4110649467124601  0.2479046425438514  0.5112705995036576   T   T   T
  0.0781725394351198  0.9166113897701540  0.1760706789622019   T   T   T
  0.0882049784578793  0.2600907986300194 -0.0012798369896469   T   T   T
  0.0773801554727402  0.0825285501677862  0.6749063284427925   T   T   T
  0.2451334081021328  0.2488726408304764  0.3441321152832384   T   T   T
  0.4115443378148354  0.0824711885543928  0.6760796260284589   T   T   T
  0.2545416209744156  0.7587585882976853  0.6643792920881147   T   T   T
  0.5784035153825081  0.5831922072125615  0.0053480200563704   T   T   T
  0.2545944784514959  0.4255332120458988  0.0022932751330386   T   T   T
  0.2451012560237054  0.4160425672386056  0.8441791127677386   T   T   T
  0.4212470725368871  0.7583726721093049  0.4966858505204349   T   T   T
  0.5885529479063948  0.2602552632018717  0.1671333321977449   T   T   T
  0.9217213652897303  0.5937689354028604  0.4987145258894681   T   T   T
  0.4223638332228412  0.0940179351790292  0.1664500520168731   T   T   T
  0.7450160850307784  0.2520218587755487  0.5096112038394883   T   T   T
  0.7547903410310015  0.0949059218002109  0.1661429245313094   T   T   T
  0.7444013231991227  0.7504960377027166  0.3424790523234915   T   T   T
  0.5794422895044098  0.7521492486503459  0.1732187817886507   T   T   T
  0.5875829035732224  0.7618950367876975  0.3313268744578002   T   T   T
  0.4214366427666404  0.2591717213353668  0.0023319834313194   T   T   T
  0.9112344687990168  0.9174007503078957  0.3428254403978028   T   T   T
  0.0893220052691999  0.4265264304790772  0.1664964975323157   T   T   T
  0.9119073673279219  0.5830687581828123  0.3436594407083466   T   T   T
  0.5887608500785709  0.0959042719758889  0.3325516901568928   T   T   T
  0.2536545595784714  0.9239807137882048  0.4985821277771106   T   T   T
  0.4114106625067624  0.7493853307205205  0.0076184037576138   T   T   T
  0.5782283520447478  0.0844452019731689  0.8416363689707893   T   T   T
  0.2553552414973401  0.9261223647947103  0.1657700981949135   T   T   T
  0.7448059110856076  0.7498833166803537  0.0076922442312329   T   T   T
  0.0885066975976643  0.7602613935487654  0.4986086484821518   T   T   T
  0.5884818777877219  0.4265627340841432 -0.0023647481421804   T   T   T
  0.7436095841395697  0.0853927095179921  0.6758508017506435   T   T   T
  0.7548102692417734  0.9273910107299215  0.6649383941124646   T   T   T
  0.7449054167333357  0.7499551164225827  0.6737215323257548   T   T   T
  0.7454235078179898  0.5838557217574659  0.1731854377230827   T   T   T
  0.9124147465001409  0.7498037859464119  0.5083467898637112   T   T   T
  0.9225320878447553  0.5935861659199907  0.1656407794963586   T   T   T
  0.4218901009063214  0.0930620169199770  0.8327340308516255   T   T   T
  0.9211268106076936  0.4261417390901958  0.3338986293529597   T   T   T
  0.9211310002654015  0.9266530746120221  0.8313488148593264   T   T   T
  0.0780920226188404  0.0831306851295754  0.3435670023137621   T   T   T
  0.0772923757686690  0.9160160522513752  0.5082333291757312   T   T   T
  0.4130588409020481  0.2491306726257286  0.8444775902017497   T   T   T
  0.9213141711519590  0.0936083387468312 -0.0011455405601674   T   T   T
  0.9206502418138083  0.2598769209770780  0.8310821363304114   T   T   T
  0.2447630996494861  0.9145717672790102  0.6748494770569327   T   T   T
  0.9101344245688997  0.5827534504881631  0.6747841971900377   T   T   T
  0.4218930903291821  0.9265281138614347  0.9985832892823054   T   T   T
  0.4223828428601308  0.2573798833291623  0.6691447800962858   T   T   T
  0.7547152194042293  0.0955748119311408  0.5000372843012109   T   T   T
  0.5884737453769960  0.9283175715681369  0.1652549531348524   T   T   T
  0.9214532674349214  0.5934946084851783  0.8303334530221191   T   T   T
  0.7448048206141542  0.4175782843674227  0.6743753882888701   T   T   T
  0.9113769613208457  0.0835509262856892  0.8421570466416648   T   T   T
  0.5779745903550614  0.2495948003948985  0.0092079015142650   T   T   T
  0.0869089295784879  0.2602415057071968  0.6664506625901089   T   T   T
  0.9100406767074055  0.2504092404753026  0.6754136549700878   T   T   T
  0.9205221130800485  0.2601495495401990  0.4987603815884451   T   T   T
  0.7447696210146858  0.2513585168883228  0.1767447234949413   T   T   T
  0.7533838296869779  0.2608954154495962  0.3340006027537038   T   T   T
  0.7441667749898563  0.0846415316680046  0.3434820446018566   T   T   T
  0.7451814675420496  0.4167769603044840  0.0075695453511539   T   T   T
  0.5784807032294177  0.2507524630654226  0.3445482728396316   T   T   T
  0.2449199792920916  0.2494433014392079  0.0096209404772684   T   T   T
  0.2544307768721046  0.7587732980441165  0.9981242652409287   T   T   T
  0.0781504373644688  0.2507903721025425  0.5093998933395056   T   T   T
  0.5788615828125416  0.4174231425402551  0.1745357748946367   T   T   T
  0.4224481588212299  0.7599335961946354  0.8304050169812921   T   T   T
  0.0890031957176841  0.5933984862166660  0.3340904152523292   T   T   T
  0.9114948535408701  0.7501413361486453  0.8411227301130934   T   T   T
  0.4111761181553970  0.4155113616254597  0.0135447074845998   T   T   T
  0.9111403197350439  0.2508673270482495  0.3425810851769150   T   T   T
  0.5876153439211046  0.9271022610225239  0.8306562166444940   T   T   T
  0.0875449766386082  0.5919940737513671 -0.0015362968719717   T   T   T
  0.0771079250396165  0.4160960865816639  0.6754831457516767   T   T   T
  0.5785458341092374  0.4160042275671948  0.8424290265403082   T   T   T
  0.0878616979048581  0.9262177420856705  0.9984624013846068   T   T   T
  0.7548453107030639  0.7607637154193552  0.8297279590706801   T   T   T
  0.4112186098874461  0.9155038448556249  0.5075871362670344   T   T   T
  0.2540366985473525  0.5924050923284380  0.4995294687386660   T   T   T
  0.2436861665137162  0.4168372323154338  0.5106980273144216   T   T   T
  0.4225143230726127  0.7604034827592917  0.1645402525874773   T   T   T
  0.0875949148453776  0.4278969180900863  0.4995250003272165   T   T   T
  0.9214362427050888  0.9272036900153060  0.1666424331450518   T   T   T
  0.2545809706240285  0.0927487836898824  0.6653754176149703   T   T   T
  0.0779648211362079  0.9165256844859413  0.8417248659937590   T   T   T
  0.0878720892342744  0.5932398491793747  0.6643990499166550   T   T   T
  0.4113594660400678  0.0831160988243737  0.0103732451988708   T   T   T
  0.9110785501698380  0.2504121084745773  0.0086804218831353   T   T   T
  0.4115772365026088  0.5828276054700754  0.8423548314173843   T   T   T
  0.5790348788746303  0.2503375291215229  0.6771420973225254   T   T   T
  0.2550065933238103  0.5929695656056274  0.1667421404933905   T   T   T
  0.4114065401887926  0.7485022940301036  0.6740643044063844   T   T   T
  0.0885429741026525  0.7597629156335146  0.8308657426840771   T   T   T
  0.5888787218540779  0.2613352560337727  0.5005648752615608   T   T   T
  0.9112990726060647  0.4166773211349421  0.8406207558049845   T   T   T
  0.7443336622816593  0.0837289425369530  0.0090611846387461   T   T   T
  0.5781290096789695  0.7515369415296832  0.5070320875026855   T   T   T
  0.0779281103030209  0.2502203545502735  0.8416007062416613   T   T   T
  0.2455894123651648  0.7495213347656412  0.8408530258379722   T   T   T
  0.7548108120324691  0.0952137337194901  0.8324831083603236   T   T   T
  0.5789746159591638  0.7497002395641019  0.8390471016876235   T   T   T
  0.4098299700000000  0.4105500000000000  0.3493199900000000   F   F   F
  0.4210000000000000  0.5906100300000000  0.3288600100000000   F   F   F
  0.5893000400000000  0.4294100100000000  0.3294600000000000   F   F   F
  0.4098299700000000  0.5795900200000000  0.5097299800000000   F   F   F
  0.5778700100000000  0.5859400000000000  0.3337799900000000   F   F   F
  0.4100900300000000  0.4120700100000000  0.6862800100000001   F   F   F
  0.4212600000000000  0.4230700100000000  0.5054100200000000   F   F   F
  0.5893000400000000  0.5984500000000000  0.4898800000000000   F   F   F
  0.5781300100000000  0.5874400100000000  0.6707500199999999   F   F   F
  0.4212600000000000  0.5921099800000000  0.6658300200000000   F   F   F
  0.5895600300000000  0.4309099900000000  0.6664199800000000   F   F   F
  0.5781300100000000  0.4183900100000000  0.5103300200000001   F   F   F
  0.5868191016293322  0.7597979650682486  0.6651695014798833   T   T   T
  0.0795609167778517  0.5857452006991397  0.5070022751577921   T   T   T
  0.4205807676181029  0.2557957964658937  0.3368707047138310   T   T   T
  0.2537552191895859  0.4231613852122054  0.3371986250252277   T   T   T
  0.5864631921733099  0.2584101803109635  0.8347228262918329   T   T   T
  0.9193234124674413  0.4244752913136566  0.6661952508246144   T   T   T
  0.5801557473526661  0.0863794836163176  0.1743425769650131   T   T   T
  0.2465785254128201  0.7500034564902972  0.5071642747154215   T   T   T
  0.7474346225398966  0.5871085715702572  0.5055473946481125   T   T   T
  0.7524885213029253  0.2600981106458777  0.6671498360584540   T   T   T
  0.9193066032216634  0.9244921566220564  0.5007270824086878   T   T   T
 
  0.00000000E+00  0.00000000E+00  0.00000000E+00
  0.00000000E+00  0.00000000E+00  0.00000000E+00
  0.00000000E+00  0.00000000E+00  0.00000000E+00
  0.00000000E+00  0.00000000E+00  0.00000000E+00
  0.00000000E+00  0.00000000E+00  0.00000000E+00
  0.00000000E+00  0.00000000E+00  0.00000000E+00
  0.00000000E+00  0.00000000E+00  0.00000000E+00
  0.00000000E+00  0.00000000E+00  0.00000000E+00
  0.00000000E+00  0.00000000E+00  0.00000000E+00
  0.00000000E+00  0.00000000E+00  0.00000000E+00
  0.00000000E+00  0.00000000E+00  0.00000000E+00
  0.00000000E+00  0.00000000E+00  0.00000000E+00
  0.00000000E+00  0.00000000E+00  0.00000000E+00
  0.00000000E+00  0.00000000E+00  0.00000000E+00
  0.00000000E+00  0.00000000E+00  0.00000000E+00
  0.00000000E+00  0.00000000E+00  0.00000000E+00
  0.00000000E+00  0.00000000E+00  0.00000000E+00
  0.00000000E+00  0.00000000E+00  0.00000000E+00
  0.00000000E+00  0.00000000E+00  0.00000000E+00
  0.00000000E+00  0.00000000E+00  0.00000000E+00
  0.00000000E+00  0.00000000E+00  0.00000000E+00
  0.00000000E+00  0.00000000E+00  0.00000000E+00
  0.00000000E+00  0.00000000E+00  0.00000000E+00
  0.00000000E+00  0.00000000E+00  0.00000000E+00
  0.00000000E+00  0.00000000E+00  0.00000000E+00
  0.00000000E+00  0.00000000E+00  0.00000000E+00
  0.00000000E+00  0.00000000E+00  0.00000000E+00
  0.00000000E+00  0.00000000E+00  0.00000000E+00
  0.00000000E+00  0.00000000E+00  0.00000000E+00
  0.00000000E+00  0.00000000E+00  0.00000000E+00
  0.00000000E+00  0.00000000E+00  0.00000000E+00
  0.00000000E+00  0.00000000E+00  0.00000000E+00
  0.00000000E+00  0.00000000E+00  0.00000000E+00
  0.00000000E+00  0.00000000E+00  0.00000000E+00
  0.00000000E+00  0.00000000E+00  0.00000000E+00
  0.00000000E+00  0.00000000E+00  0.00000000E+00
  0.00000000E+00  0.00000000E+00  0.00000000E+00
  0.00000000E+00  0.00000000E+00  0.00000000E+00
  0.00000000E+00  0.00000000E+00  0.00000000E+00
  0.00000000E+00  0.00000000E+00  0.00000000E+00
  0.00000000E+00  0.00000000E+00  0.00000000E+00
  0.00000000E+00  0.00000000E+00  0.00000000E+00
  0.00000000E+00  0.00000000E+00  0.00000000E+00
  0.00000000E+00  0.00000000E+00  0.00000000E+00
  0.00000000E+00  0.00000000E+00  0.00000000E+00
  0.00000000E+00  0.00000000E+00  0.00000000E+00
  0.00000000E+00  0.00000000E+00  0.00000000E+00
  0.00000000E+00  0.00000000E+00  0.00000000E+00
  0.00000000E+00  0.00000000E+00  0.00000000E+00
  0.00000000E+00  0.00000000E+00  0.00000000E+00
  0.00000000E+00  0.00000000E+00  0.00000000E+00
  0.00000000E+00  0.00000000E+00  0.00000000E+00
  0.00000000E+00  0.00000000E+00  0.00000000E+00
  0.00000000E+00  0.00000000E+00  0.00000000E+00
  0.00000000E+00  0.00000000E+00  0.00000000E+00
  0.00000000E+00  0.00000000E+00  0.00000000E+00
  0.00000000E+00  0.00000000E+00  0.00000000E+00
  0.00000000E+00  0.00000000E+00  0.00000000E+00
  0.00000000E+00  0.00000000E+00  0.00000000E+00
  0.00000000E+00  0.00000000E+00  0.00000000E+00
  0.00000000E+00  0.00000000E+00  0.00000000E+00
  0.00000000E+00  0.00000000E+00  0.00000000E+00
  0.00000000E+00  0.00000000E+00  0.00000000E+00
  0.00000000E+00  0.00000000E+00  0.00000000E+00
  0.00000000E+00  0.00000000E+00  0.00000000E+00
  0.00000000E+00  0.00000000E+00  0.00000000E+00
  0.00000000E+00  0.00000000E+00  0.00000000E+00
  0.00000000E+00  0.00000000E+00  0.00000000E+00
  0.00000000E+00  0.00000000E+00  0.00000000E+00
  0.00000000E+00  0.00000000E+00  0.00000000E+00
  0.00000000E+00  0.00000000E+00  0.00000000E+00
  0.00000000E+00  0.00000000E+00  0.00000000E+00
  0.00000000E+00  0.00000000E+00  0.00000000E+00
  0.00000000E+00  0.00000000E+00  0.00000000E+00
  0.00000000E+00  0.00000000E+00  0.00000000E+00
  0.00000000E+00  0.00000000E+00  0.00000000E+00
  0.00000000E+00  0.00000000E+00  0.00000000E+00
  0.00000000E+00  0.00000000E+00  0.00000000E+00
  0.00000000E+00  0.00000000E+00  0.00000000E+00
  0.00000000E+00  0.00000000E+00  0.00000000E+00
  0.00000000E+00  0.00000000E+00  0.00000000E+00
  0.00000000E+00  0.00000000E+00  0.00000000E+00
  0.00000000E+00  0.00000000E+00  0.00000000E+00
  0.00000000E+00  0.00000000E+00  0.00000000E+00
  0.00000000E+00  0.00000000E+00  0.00000000E+00
  0.00000000E+00  0.00000000E+00  0.00000000E+00
  0.00000000E+00  0.00000000E+00  0.00000000E+00
  0.00000000E+00  0.00000000E+00  0.00000000E+00
  0.00000000E+00  0.00000000E+00  0.00000000E+00
  0.00000000E+00  0.00000000E+00  0.00000000E+00
  0.00000000E+00  0.00000000E+00  0.00000000E+00
  0.00000000E+00  0.00000000E+00  0.00000000E+00
  0.00000000E+00  0.00000000E+00  0.00000000E+00
  0.00000000E+00  0.00000000E+00  0.00000000E+00
  0.00000000E+00  0.00000000E+00  0.00000000E+00
  0.00000000E+00  0.00000000E+00  0.00000000E+00
  0.00000000E+00  0.00000000E+00  0.00000000E+00
  0.00000000E+00  0.00000000E+00  0.00000000E+00
  0.00000000E+00  0.00000000E+00  0.00000000E+00
  0.00000000E+00  0.00000000E+00  0.00000000E+00
  0.00000000E+00  0.00000000E+00  0.00000000E+00
  0.00000000E+00  0.00000000E+00  0.00000000E+00
  0.00000000E+00  0.00000000E+00  0.00000000E+00
  0.00000000E+00  0.00000000E+00  0.00000000E+00
  0.00000000E+00  0.00000000E+00  0.00000000E+00
  0.00000000E+00  0.00000000E+00  0.00000000E+00
  0.00000000E+00  0.00000000E+00  0.00000000E+00
  0.00000000E+00  0.00000000E+00  0.00000000E+00
  0.00000000E+00  0.00000000E+00  0.00000000E+00
  0.00000000E+00  0.00000000E+00  0.00000000E+00
  0.00000000E+00  0.00000000E+00  0.00000000E+00
  0.00000000E+00  0.00000000E+00  0.00000000E+00
  0.00000000E+00  0.00000000E+00  0.00000000E+00
  0.00000000E+00  0.00000000E+00  0.00000000E+00
  0.00000000E+00  0.00000000E+00  0.00000000E+00
  0.00000000E+00  0.00000000E+00  0.00000000E+00
  0.00000000E+00  0.00000000E+00  0.00000000E+00
  0.00000000E+00  0.00000000E+00  0.00000000E+00
  0.00000000E+00  0.00000000E+00  0.00000000E+00
  0.00000000E+00  0.00000000E+00  0.00000000E+00
  0.00000000E+00  0.00000000E+00  0.00000000E+00
  0.00000000E+00  0.00000000E+00  0.00000000E+00
  0.00000000E+00  0.00000000E+00  0.00000000E+00
  0.00000000E+00  0.00000000E+00  0.00000000E+00
  0.00000000E+00  0.00000000E+00  0.00000000E+00
  0.00000000E+00  0.00000000E+00  0.00000000E+00
  0.00000000E+00  0.00000000E+00  0.00000000E+00
  0.00000000E+00  0.00000000E+00  0.00000000E+00
  0.00000000E+00  0.00000000E+00  0.00000000E+00
  0.00000000E+00  0.00000000E+00  0.00000000E+00
  0.00000000E+00  0.00000000E+00  0.00000000E+00
  0.00000000E+00  0.00000000E+00  0.00000000E+00
  0.00000000E+00  0.00000000E+00  0.00000000E+00
  0.00000000E+00  0.00000000E+00  0.00000000E+00
  0.00000000E+00  0.00000000E+00  0.00000000E+00
  0.00000000E+00  0.00000000E+00  0.00000000E+00
  0.00000000E+00  0.00000000E+00  0.00000000E+00
  0.00000000E+00  0.00000000E+00  0.00000000E+00
  0.00000000E+00  0.00000000E+00  0.00000000E+00
  0.00000000E+00  0.00000000E+00  0.00000000E+00
  0.00000000E+00  0.00000000E+00  0.00000000E+00
  0.00000000E+00  0.00000000E+00  0.00000000E+00
  0.00000000E+00  0.00000000E+00  0.00000000E+00
  0.00000000E+00  0.00000000E+00  0.00000000E+00
  0.00000000E+00  0.00000000E+00  0.00000000E+00
  0.00000000E+00  0.00000000E+00  0.00000000E+00
  0.00000000E+00  0.00000000E+00  0.00000000E+00
  0.00000000E+00  0.00000000E+00  0.00000000E+00
  0.00000000E+00  0.00000000E+00  0.00000000E+00
  0.00000000E+00  0.00000000E+00  0.00000000E+00
  0.00000000E+00  0.00000000E+00  0.00000000E+00
  0.00000000E+00  0.00000000E+00  0.00000000E+00
  0.00000000E+00  0.00000000E+00  0.00000000E+00
  0.00000000E+00  0.00000000E+00  0.00000000E+00
  0.00000000E+00  0.00000000E+00  0.00000000E+00
  0.00000000E+00  0.00000000E+00  0.00000000E+00
  0.00000000E+00  0.00000000E+00  0.00000000E+00
  0.00000000E+00  0.00000000E+00  0.00000000E+00
  0.00000000E+00  0.00000000E+00  0.00000000E+00
  0.00000000E+00  0.00000000E+00  0.00000000E+00
  0.00000000E+00  0.00000000E+00  0.00000000E+00
  0.00000000E+00  0.00000000E+00  0.00000000E+00
  0.00000000E+00  0.00000000E+00  0.00000000E+00
  0.00000000E+00  0.00000000E+00  0.00000000E+00
  0.00000000E+00  0.00000000E+00  0.00000000E+00
  0.00000000E+00  0.00000000E+00  0.00000000E+00
  0.00000000E+00  0.00000000E+00  0.00000000E+00
  0.00000000E+00  0.00000000E+00  0.00000000E+00
  0.00000000E+00  0.00000000E+00  0.00000000E+00
  0.00000000E+00  0.00000000E+00  0.00000000E+00
  0.00000000E+00  0.00000000E+00  0.00000000E+00
  0.00000000E+00  0.00000000E+00  0.00000000E+00
  0.00000000E+00  0.00000000E+00  0.00000000E+00
  0.00000000E+00  0.00000000E+00  0.00000000E+00
  0.00000000E+00  0.00000000E+00  0.00000000E+00
  0.00000000E+00  0.00000000E+00  0.00000000E+00
  0.00000000E+00  0.00000000E+00  0.00000000E+00
  0.00000000E+00  0.00000000E+00  0.00000000E+00
  0.00000000E+00  0.00000000E+00  0.00000000E+00
  0.00000000E+00  0.00000000E+00  0.00000000E+00
  0.00000000E+00  0.00000000E+00  0.00000000E+00
  0.00000000E+00  0.00000000E+00  0.00000000E+00
  0.00000000E+00  0.00000000E+00  0.00000000E+00
  0.00000000E+00  0.00000000E+00  0.00000000E+00
  0.00000000E+00  0.00000000E+00  0.00000000E+00
  0.00000000E+00  0.00000000E+00  0.00000000E+00
  0.00000000E+00  0.00000000E+00  0.00000000E+00
  0.00000000E+00  0.00000000E+00  0.00000000E+00
  0.00000000E+00  0.00000000E+00  0.00000000E+00
  0.00000000E+00  0.00000000E+00  0.00000000E+00
  0.00000000E+00  0.00000000E+00  0.00000000E+00
  0.00000000E+00  0.00000000E+00  0.00000000E+00
  0.00000000E+00  0.00000000E+00  0.00000000E+00
  0.00000000E+00  0.00000000E+00  0.00000000E+00
  0.00000000E+00  0.00000000E+00  0.00000000E+00
  0.00000000E+00  0.00000000E+00  0.00000000E+00
  0.00000000E+00  0.00000000E+00  0.00000000E+00
  0.00000000E+00  0.00000000E+00  0.00000000E+00
  0.00000000E+00  0.00000000E+00  0.00000000E+00
  0.00000000E+00  0.00000000E+00  0.00000000E+00
  0.00000000E+00  0.00000000E+00  0.00000000E+00
  0.00000000E+00  0.00000000E+00  0.00000000E+00
  0.00000000E+00  0.00000000E+00  0.00000000E+00
  0.00000000E+00  0.00000000E+00  0.00000000E+00
  0.00000000E+00  0.00000000E+00  0.00000000E+00
  0.00000000E+00  0.00000000E+00  0.00000000E+00
  0.00000000E+00  0.00000000E+00  0.00000000E+00
  0.00000000E+00  0.00000000E+00  0.00000000E+00
  0.00000000E+00  0.00000000E+00  0.00000000E+00
  0.00000000E+00  0.00000000E+00  0.00000000E+00
  0.00000000E+00  0.00000000E+00  0.00000000E+00
  0.00000000E+00  0.00000000E+00  0.00000000E+00
  0.00000000E+00  0.00000000E+00  0.00000000E+00
  0.00000000E+00  0.00000000E+00  0.00000000E+00
  0.00000000E+00  0.00000000E+00  0.00000000E+00
  0.00000000E+00  0.00000000E+00  0.00000000E+00
 
           1
   4.00000000000000     
  0.10000000E+01  0.00000000E+00  0.00000000E+00  0.00000000E+00
  0.91128210E+00  0.91596481E+00  0.67379197E+00
  0.75567539E+00  0.75956304E+00  0.49876777E+00
  0.78432314E-01  0.74876017E+00  0.87109973E-02
  0.24533284E+00  0.41569863E+00  0.17876785E+00
  0.91173879E+00  0.91716078E+00  0.88653984E-02
  0.57862473E+00  0.91668327E+00  0.91496594E-02
  0.91120452E+00  0.41619617E+00  0.50868516E+00
  0.58691571E+00  0.94394422E-01  0.66612529E+00
  0.42156548E+00  0.59299387E+00  0.99822759E+00
  0.89095419E-01  0.75969470E+00  0.16567646E+00
  0.41202926E+00  0.74768677E+00  0.34043137E+00
  0.25521495E+00  0.91534302E-01  0.33283722E+00
  0.57791809E+00  0.91832377E+00  0.34210602E+00
  0.58834982E+00  0.76022839E+00 -0.26145673E-02
  0.86918730E-01  0.93622622E-01  0.50004576E+00
  0.75460424E+00  0.26011467E+00 -0.14658372E-02
  0.41151262E+00  0.82605814E-01  0.34263236E+00
  0.24488524E+00  0.91552381E+00  0.88269515E-02
  0.74407799E+00  0.25077185E+00  0.84186300E+00
  0.78075678E-01  0.83043393E-01  0.96045126E-02
  0.78438876E-01  0.58320424E+00  0.84077973E+00
  0.75505195E+00  0.92710083E+00 -0.21787682E-02
  0.57833904E+00  0.91725714E+00  0.67493051E+00
  0.74409765E+00  0.91764572E+00  0.17506404E+00
  0.92126647E+00  0.42640001E+00 -0.13148581E-02
  0.41171707E+00  0.58214483E+00  0.17419857E+00
  0.91145040E+00  0.58300280E+00  0.87359175E-02
  0.92150387E+00  0.94301875E-01  0.33262762E+00
  0.88116094E-01  0.93500495E-01  0.83163860E+00
  0.75524813E+00  0.59455974E+00  0.66379801E+00
  0.91271271E+00  0.41800985E+00  0.17609461E+00
  0.77963462E-01  0.24951882E+00  0.17645269E+00
  0.75503037E+00  0.42766312E+00  0.82958162E+00
  0.42272260E+00  0.42587533E+00  0.83962659E+00
  0.88499468E-01  0.92673463E-01  0.16666100E+00
  0.75602718E+00  0.42706865E+00  0.16433114E+00
  0.24428796E+00  0.24955413E+00  0.67585574E+00
  0.24584609E+00  0.74936626E+00  0.17560305E+00
  0.24423574E+00  0.58229757E+00  0.10260709E-01
  0.74556970E+00  0.91726802E+00  0.50902510E+00
  0.92106189E+00  0.26111633E+00  0.16568536E+00
  0.25546593E+00  0.25964824E+00  0.83278247E+00
  0.87659978E-01  0.92566831E+00  0.66365402E+00
  0.79019569E-01  0.41589085E+00  0.34444044E+00
  0.25465884E+00  0.59260255E+00  0.83254904E+00
  0.74558790E+00  0.41811347E+00  0.34185576E+00
  0.25515271E+00  0.75768748E+00  0.33331701E+00
  0.92010327E+00  0.75834844E+00  0.66502193E+00
  0.75545147E+00  0.92745857E+00  0.33191942E+00
  0.88737670E-01  0.42626052E+00  0.83107389E+00
  0.25344777E+00  0.42460646E+00  0.66934738E+00
  0.24497375E+00  0.58112320E+00  0.34518209E+00
  0.58796407E+00  0.93575530E-01 -0.32774042E-03
  0.75520162E+00  0.76076633E+00  0.16469740E+00
  0.24387379E+00  0.58178659E+00  0.67647392E+00
  0.74412211E+00  0.91727899E+00  0.84072759E+00
  0.74485428E+00  0.58434198E+00  0.83877002E+00
  0.41183909E+00  0.91644655E+00  0.84142682E+00
  0.78587168E-01  0.74998354E+00  0.34330757E+00
  0.58887313E+00  0.59478357E+00  0.16192546E+00
  0.79276960E-01  0.58325210E+00  0.17615036E+00
  0.42143177E+00  0.92529893E+00  0.33180055E+00
  0.77980622E-01  0.41652643E+00  0.95896594E-02
  0.42164534E+00  0.91446565E-01  0.49887328E+00
  0.91192101E+00  0.75032083E+00  0.17531244E+00