GST                                     
   1.00000000000000     
    22.1549502903316053    0.0000000000000000    0.0000000000000000
     0.0000000000000000   22.1549502903316053    0.0000000000000000
     0.0000000000000000    0.0000000000000000   22.1549502903316053
   Ge   Sb   Te
    68    68   170
Direct
  0.2719675999999964  0.7964021100000025  0.9213051600000028
  0.7823287499999978  0.2817808900000003  0.5867685199999997
  0.2745511399999998  0.0670489689999982  0.7065665399999972
  0.2245555900000014  0.0903428849999983  0.2353473000000008
  0.1250143299999991  0.8897340299999996  0.8858172199999998
  0.7470576600000030  0.5267149900000021  0.4854433200000017
  0.9762532800000017  0.0098665666999977  0.7537201600000003
  0.0596761340000000  0.6035104799999971  0.0200554629999985
  0.6709623200000010  0.6564751900000019  0.4205474899999970
  0.0595301279999987  0.2460734599999981  0.7297750700000023
  0.1574186699999984  0.0393167510000012  0.0139288530000030
  0.4601007799999977  0.6222036400000022  0.0526939570000025
  0.7004937900000030  0.4001869399999975  0.9349560300000022
  0.7956339600000035  0.7457251599999992  0.5782949000000031
  0.3518624299999971  0.5734311800000000  0.0324134649999976
  0.5487952699999994  0.4904333200000011  0.5601688100000004
  0.4416588099999998  0.9880072799999979  0.2916866500000026
  0.9839456560000031  0.0558731309999985  0.4581699100000023
  0.7246852800000028  0.3300660499999992  0.2533288200000001
  0.5302825799999979  0.4694371799999999  0.8502132599999968
  0.2730329899999973  0.5244899300000014  0.8049056699999966
  0.6157860799999995  0.1941046099999966  0.3214114000000023
  0.6240870199999975  0.8759254200000015  0.1421058299999984
  0.4229842299999973  0.9816610399999988  0.4697315100000026
  0.7168656500000026  0.9125373099999976  0.6289062199999975
  0.6379435200000003  0.6493839999999977  0.1378223600000013
  0.4644078399999998  0.1230247000000020  0.2246393599999976
  0.3866034600000035  0.3322056299999971  0.7476095700000016
  0.4204206200000016  0.1570889899999983  0.6548839800000010
  0.5049669499999965  0.6570692199999968  0.9492194400000002
  0.7239908099999965  0.9804943899999969  0.9296470399999990
  0.8499436099999969  0.8312391899999980  0.1507852200000031
  0.0852044789999979  0.0279596119999965  0.7251930299999998
  0.9706537799999992  0.2831066099999973  0.5949020899999979
  0.6095642299999966  0.3130306300000001  0.6121252800000008
  0.5578825199999997  0.5829607200000027  0.2332388399999985
  0.3755750799999973  0.9575727200000017  0.5719474300000016
  0.0925665899999970  0.1372742900000006  0.8740255200000036
  0.1376691399999999  0.2571466999999998  0.3859033900000028
  0.2544999400000023  0.9707303899999999  0.0059581356999985
  0.4024765200000004  0.3746763899999976  0.4732205600000015
  0.4827147999999966  0.4839757700000007  0.6635999499999983
  0.1055987499999986  0.3699909799999972  0.1888621700000002
  0.4327987500000035  0.8082445499999977  0.8916390500000020
  0.8676461200000034  0.2267113899999984  0.4534955299999979
  0.8869669700000031  0.7582232700000020  0.4517375400000034
  0.0944695470000028  0.0151700500000018  0.4558513799999986
  0.7146105400000025  0.9489699599999994  0.1271475599999974
  0.5591047899999992  0.9551292499999988  0.2038692499999968
  0.7660525499999977  0.0335535090000008  0.7773069799999988
  0.1434767800000003  0.5017634200000032  0.7083612099999996
  0.3900111900000027  0.4029113400000028  0.0910116980000026
  0.1225730199999973  0.5578887100000003  0.8790196799999990
  0.0016299298999982  0.1824267399999968  0.3050050399999975
  0.7637063800000021  0.3495823900000019  0.7783072799999999
  0.0037021137000011  0.4545974799999968  0.9695378500000018
  0.8890877300000000  0.5749259700000025  0.0252622189999983
  0.3803667899999965  0.9758541699999981  0.9577019000000035
  0.6456820800000003  0.4707950600000004  0.3483176299999968
  0.5615472900000000  0.2738207200000033  0.8525312599999992
  0.5007532400000017  0.0751696299999978  0.5513848100000018
  0.5891635999999991  0.7346773900000017  0.4934561299999984
  0.7325838499999975  0.2867027400000026  0.9377290099999982
  0.0783289769999982  0.2193099400000023  0.0294355190000033
  0.0048885547999973  0.9997740225499996  0.1363821699999974
  0.9564261100000024  0.5979958499999967  0.1173354900000021
  0.0810780360000010  0.4259450799999982  0.4825575599999965
  0.6466017300000004  0.1104897100000031  0.8887642899999975
  0.2642550699999973  0.6203971400000015  0.3705870399999966
  0.0991957390000024  0.6702614599999990  0.1514578399999991
  0.9219271999999989  0.3322052600000021  0.2176016000000018
  0.7019539500000036  0.9206984100000000  0.3082182799999984
  0.8147444700000008  0.8608580300000028  0.3394393700000009
  0.7704769799999980  0.7580438700000016  0.7690606900000034
  0.1260627999999997  0.6986069299999969  0.8310291000000021
  0.8825712100000018  0.3521962299999970  0.4601938200000006
  0.1469051400000012  0.2570803500000025  0.1400187599999967
  0.4252078100000034  0.1127549799999983  0.3718200400000029
  0.8005633100000011  0.8997682600000019  0.0551253209999985
  0.2238733200000027  0.9515188999999964  0.4657281400000031
  0.5387072199999992  0.8423749299999983  0.8324865200000033
  0.9369652299999984  0.7407749600000031  0.2111994699999968
  0.4696448799999970  0.6647159299999998  0.3843739499999970
  0.1694135099999983  0.9849103330000020  0.1978130500000006
  0.9056734500000019  0.3226000399999975  0.8713167499999983
  0.0208431020000006  0.6587005599999998  0.5140298500000000
  0.3886780200000004  0.1646842399999997  0.9521775199999993
  0.1767459300000027  0.0785923839999967  0.7918218699999997
  0.0278349410000018  0.3585674400000016  0.6808898499999998
  0.2840407099999993  0.2233875699999999  0.8227558800000025
  0.9477949799999976  0.4655028299999984  0.7311505400000016
  0.8183874300000014  0.5982932800000000  0.6709238799999966
  0.1458269800000025  0.7363014100000029  0.3228382200000013
  0.0362679630000002  0.5403687200000036  0.5731143900000006
  0.9495642899999979  0.4617705799999996  0.2098934999999997
  0.1584891299999995  0.8749983599999993  0.5500337400000035
  0.3698845500000019  0.6658704199999974  0.2990910899999975
  0.4169262699999976  0.2534821200000010  0.8405080499999968
  0.6508527399999977  0.5493369799999996  0.6604809500000002
  0.6177214000000006  0.4928054700000004  0.0257640640000005
  0.8251882100000003  0.4800735700000018  0.1693925200000024
  0.3243491300000017  0.5826029700000035  0.1525706999999983
  0.5544726800000035  0.8974755500000029  0.5810031199999983
  0.7841276799999974  0.6255248599999987  0.9810456599999995
  0.5088355500000006  0.0987847000000031  0.9563456300000013
  0.7987139800000023  0.8022509700000029  0.9471159499999970
  0.3349737400000024  0.4975732199999996  0.3158925299999993
  0.4245357599999977  0.6663508199999981  0.1652411099999966
  0.8901654399999970  0.8678325500000028  0.7763844799999973
  0.6270189500000001  0.8296188200000003  0.9322325799999973
  0.2174504700000028  0.2981597500000035  0.3010522300000034
  0.2496316499999978  0.4398720299999965  0.4562187699999996
  0.3971354500000004  0.6964312100000001  0.4889798100000036
  0.0743274499999984  0.0228976980000013  0.6011769300000012
  0.8532141399999986  0.0106466060000017  0.0008383107999990
  0.4174256200000031  0.3708678400000025  0.9053089700000001
  0.8511023100000017  0.6389315799999977  0.1745919999999970
  0.3283790899999985  0.3779967099999979  0.3704479000000021
  0.9716331899999986  0.7316154600000004  0.9244604499999980
  0.3923262499999964  0.2392014400000022  0.3571849599999979
  0.6001351499999998  0.0871796010000025  0.7121486599999969
  0.4213989499999968  0.0826252940000032  0.0549755580000024
  0.7576303800000019  0.2010156300000006  0.4002168800000021
  0.0716793019999997  0.4535751700000006  0.3571722499999979
  0.6252485799999974  0.0250879139999967  0.9988650422999967
  0.3365520600000025  0.7649239799999989  0.1539181300000010
  0.5716012999999975  0.0117073219999995  0.4044146299999980
  0.4893843799999971  0.6199483899999976  0.5444056500000016
  0.3760002000000000  0.0298352479999977  0.7757963700000019
  0.0370511469999997  0.8902901700000001  0.3440570500000035
  0.2899380500000035  0.4033795900000001  0.8970047899999969
  0.1323352900000003  0.7591258699999983  0.4953573199999965
  0.7642051300000006  0.5403212699999997  0.8236031200000014
  0.3782200799999984  0.6347061700000012  0.9074622300000001
  0.6467795000000010  0.3265409600000027  0.0538063839999978
  0.2246714799999978  0.6976489299999997  0.5643614999999969
  0.6261108500000034  0.5431479900000014  0.4490380499999986
  0.8923688699999985  0.6541332400000002  0.5130833999999993
  0.9865323969999977  0.7173398199999994  0.0909259550000030
  0.1372547799999992  0.7871183299999984  0.1944261299999965
  0.8701243900000009  0.7219122600000034  0.6764660999999990
  0.9437874199999996  0.9554339900000031  0.8553249699999981
  0.2565796700000007  0.2931099600000024  0.9530919019999970
  0.4570301899999976  0.1289234899999983  0.7694771999999972
  0.4621488499999984  0.7330471799999998  0.7156281099999973
  0.0241280810000006  0.3495935199999991  0.0919615090000008
  0.5877520000000018  0.5616086699999983  0.9187029799999991
  0.1374127799999982  0.4103136800000016  0.6312072599999965
  0.7292172499999978  0.6216522599999976  0.5672154299999974
  0.5645795900000010  0.9192970499999973  0.0432846880000000
  0.4207202400000014  0.3005035600000028  0.0142494700000029
  0.8151550099999980  0.7134857699999984  0.0740791420000022
  0.0093053746999985  0.3237700399999994  0.4815936399999998
  0.4439454500000011  0.9715738800000011  0.1661045299999984
  0.7128684999999990  0.5640974499999984  0.0838435379999964
  0.1290874099999968  0.2472768499999987  0.8273768299999986
  0.5653455300000019  0.7238543400000026  0.7934577199999993
  0.3196473799999993  0.9492129300000016  0.3060164400000005
  0.3258970700000035  0.4086085799999992  0.5571605499999990
  0.4256644199999968  0.2562438400000033  0.4778153600000010
  0.9723843200000033  0.5734928700000026  0.9347634900000017
  0.9761995160000012  0.2212593799999993  0.9395225600000003
  0.3442089400000015  0.8900172199999972  0.8725249900000023
  0.1470086899999998  0.1820583900000017  0.2539665299999996
  0.6250847800000017  0.2315120700000008  0.9608832360000008
  0.5956950300000017  0.8724193199999988  0.3894530299999985
  0.3666987499999976  0.8351754600000021  0.5612496099999973
  0.7229396299999991  0.0837184000000022  0.6721161700000025
  0.3314518600000014  0.5669746499999988  0.4681475399999968
  0.4516080300000027  0.9936479200000008  0.6553156499999986
  0.9547745599999971  0.0639839950000010  0.5737585299999992
  0.8956102000000001  0.0940640740000021  0.7230982999999966
  0.6079700599999995  0.6861766500000002  0.3146095999999972
  0.9857154099999974  0.9117974099999984  0.6790737399999998
  0.1644150999999994  0.5687701700000005  0.5212345999999997
  0.8341192299999989  0.0896293890000024  0.0981978229999996
  0.6753898899999982  0.7448646100000005  0.0677349990000025
  0.4014642499999965  0.5362717300000028  0.8326257000000012
  0.7059014200000036  0.7915030400000020  0.6573419799999982
  0.8636172900000005  0.4593753699999965  0.0464249159999994
  0.1438351700000027  0.6808616300000025  0.6662418100000025
  0.6105601300000032  0.9252697499999982  0.6940746499999975
  0.2621700300000001  0.0005743440500012  0.5861842799999977
  0.0485540809999989  0.9152630000000030  0.0582447760000022
  0.7727364899999998  0.7635715400000009  0.4121379099999984
  0.0063478297999993  0.4116470600000000  0.8510667099999978
  0.8210574599999987  0.9468689400000017  0.6959281199999978
  0.6961483199999989  0.2132133300000021  0.2166489100000035
  0.1348421400000035  0.3290804800000018  0.0140012530000035
  0.5614629199999968  0.7046187600000025  0.6108037799999977
  0.8024586700000000  0.4707559499999974  0.3439314900000028
  0.1028687399999981  0.9091695700000031  0.7393639699999994
  0.5039679699999979  0.2323192500000033  0.2746322100000000
  0.6492790900000003  0.9970790420000029  0.8284067000000022
  0.2102605700000026  0.9587583599999974  0.8235118899999989
  0.4916785400000023  0.1709689200000000  0.1137933899999979
  0.7946048499999989  0.1282120500000019  0.2955909900000009
  0.1563058600000033  0.1212730700000009  0.5835907000000020
  0.2663880500000033  0.3370440500000029  0.7657949700000017
  0.2936311099999998  0.1128323200000025  0.1370975399999992
  0.2807720599999968  0.0782687920000029  0.3430926799999980
  0.8655479499999998  0.3679578200000009  0.5912414900000016
  0.2788478699999999  0.9712236900000022  0.1280739600000018
  0.3938798900000009  0.7563638900000029  0.9977923741000012
  0.5232416400000020  0.5332608399999970  0.1079747699999984
  0.3191271999999969  0.0694451000000029  0.8941014099999975
  0.6876236299999974  0.0642075069999990  0.1036353300000030
  0.9054798599999998  0.5166031099999984  0.6051193600000033
  0.9735523299999969  0.1757013900000004  0.7825533099999973
  0.9781476499999968  0.1754014099999992  0.4298026299999975
  0.5474147400000007  0.5441321400000021  0.7516948399999990
  0.7694906999999986  0.0946300829999984  0.9083714900000004
  0.8953014599999989  0.1806481200000007  0.2386539000000027
  0.6067161499999969  0.0058796555999976  0.5335100400000030
  0.8875196999999986  0.3339218400000021  0.7405904199999966
  0.5402446100000020  0.1397660800000011  0.4362223400000005
  0.9676006899999976  0.7661407000000011  0.3638484900000023
  0.0641713609999996  0.9939530458999997  0.9527855500000015
  0.0294408580000010  0.8634166800000003  0.1927394699999994
  0.6533054900000010  0.4304989899999967  0.5877551700000012
  0.0416617750000015  0.5683486699999989  0.7033810200000019
  0.2487618400000002  0.7408916300000001  0.4162269799999976
  0.6020043299999998  0.2869041900000013  0.1664179300000015
  0.7342164699999998  0.3272730500000023  0.4871365899999986
  0.0489368490000004  0.7509733199999999  0.6094543800000025
  0.4416092599999999  0.5284859699999984  0.3919290300000000
  0.7085736100000020  0.2707618399999987  0.6790702699999969
  0.7875473300000024  0.2422250400000010  0.8417578899999967
  0.5190188099999986  0.3933104999999983  0.4953535100000011
  0.7068825699999977  0.6395227699999992  0.7474295800000021
  0.5280502000000027  0.3792324599999972  0.0460792200000029
  0.2668285700000013  0.6575674099999986  0.0516608240000025
  0.1905316200000016  0.4358245000000025  0.3029590599999992
  0.8493658299999964  0.6970196199999990  0.8798501099999996
  0.6300120100000015  0.3145715699999982  0.3611411199999992
  0.1740203600000001  0.1527920199999997  0.9692134399999972
  0.7914359999999974  0.3546113399999982  0.1484454300000024
  0.1005325699999986  0.2301155500000007  0.6171920800000024
  0.8415121600000006  0.1787346400000018  0.5634742000000017
  0.4870705900000019  0.9904806468999965  0.8917326999999986
  0.0408297099999970  0.9045401600000034  0.4764910900000032
  0.9195696999999967  0.8452719799999997  0.9706686700000020
  0.6970249999999965  0.0411793070000002  0.3753897499999965
  0.7837074400000006  0.9881798700000033  0.2217570600000016
  0.9032675899999987  0.2776283399999997  0.0298853840000035
  0.8102500700000022  0.4256272800000005  0.8843841200000000
  0.6320912699999965  0.3787832200000025  0.8318346800000000
  0.7828293399999993  0.5956053700000012  0.3865481099999997
  0.6357115899999997  0.1899967700000005  0.7916579999999982
  0.1657542399999983  0.8662069499999987  0.3385232899999977
  0.6796077999999994  0.7238765299999983  0.8788633400000023
  0.1231477400000003  0.4996082999999985  0.9870965340000026
  0.2212985500000002  0.6760250299999981  0.2315005399999990
  0.2386077299999982  0.5712704299999984  0.6875744100000034
  0.3797928899999974  0.4466851800000029  0.7166957900000028
  0.5296780199999986  0.4771356899999972  0.3002277699999993
  0.2555194099999980  0.2056241399999976  0.3944037899999984
  0.1944847999999979  0.8642157800000021  0.9938761639999996
  0.3289586599999978  0.3448278299999998  0.1813450000000003
  0.7729600099999985  0.8802048900000017  0.8465497700000029
  0.8862864900000034  0.8434112699999972  0.5411071799999974
  0.2595164600000004  0.8145860600000034  0.6255352800000011
  0.2766472200000010  0.2444125800000023  0.1197748000000018
  0.7529256700000033  0.8089444100000023  0.2278767000000030
  0.4836945300000011  0.7916177099999970  0.4536740599999973
  0.0279217040000006  0.6518468200000029  0.2569355899999977
  0.2381075500000023  0.6117558700000032  0.8856780200000003
  0.1691092200000028  0.3367798900000025  0.4797965200000007
  0.8851608499999983  0.5722643499999975  0.7914501400000020
  0.0097274410000026  0.7588792999999967  0.8063549299999977
  0.3578826500000005  0.7920542800000021  0.2820221300000014
  0.7157679199999976  0.6620556600000000  0.2411317500000010
  0.1102475400000031  0.0729417949999984  0.1231123399999987
  0.4359631800000017  0.2835781799999992  0.6456465500000022
  0.3586214400000003  0.0847433960000004  0.4782342999999969
  0.2010474100000010  0.8022806600000010  0.8146443099999985
  0.6725858000000002  0.5342168199999975  0.2415257299999993
  0.7857546400000004  0.2254867899999979  0.0263374499999998
  0.5092098599999986  0.8798441699999984  0.2883464800000013
  0.5603063499999976  0.1642174600000033  0.6154618600000035
  0.2960533999999981  0.1856131300000001  0.6931156799999982
  0.3758852699999977  0.7321202099999979  0.8137569399999975
  0.8289254099999965  0.9353470599999980  0.4765656499999977
  0.3387945200000004  0.8949417500000010  0.4265820700000020
  0.0977467780000012  0.5771923799999996  0.4124988499999986
  0.8362919500000032  0.3295892399999971  0.3185441400000002
  0.4190392000000003  0.8495581299999984  0.0909692970000009
  0.0387318020000009  0.3283322200000001  0.2881970899999970
  0.0948787450000026  0.0153692749999976  0.3297967299999982
  0.9565782299999981  0.0793637259999969  0.0514630070000024
  0.4085121299999983  0.5768621200000013  0.6310281000000018
  0.9823062549999975  0.0620471129999984  0.2855598900000018
  0.4000897600000002  0.4764747099999980  0.2074103500000035
  0.7455841100000029  0.4745160399999975  0.7121969100000030
  0.8972334899999979  0.9261957599999988  0.2129978099999974
  0.6294848599999980  0.2500295600000015  0.4718913000000029
  0.9320142400000009  0.4905100000000004  0.3343566200000012
  0.1136992500000034  0.7034602599999999  0.9616237700000028
  0.5715818999999982  0.0646895479999969  0.2611949599999974
  0.2991884200000001  0.4628194800000003  0.0230904860000010
  0.5361432099999988  0.3272963799999999  0.7137016000000003
  0.7585637800000029  0.0978454939999978  0.4814262599999992
  0.6550566499999988  0.8377706899999993  0.5156931000000000
  0.1579818499999988  0.4563548200000014  0.8189627400000035
  0.5540136500000017  0.7579767599999983  0.0153653960000000
  0.9087005599999998  0.9918007843999987  0.3868362099999985
 
  0.00000000E+00  0.00000000E+00  0.00000000E+00
  0.00000000E+00  0.00000000E+00  0.00000000E+00
  0.00000000E+00  0.00000000E+00  0.00000000E+00
  0.00000000E+00  0.00000000E+00  0.00000000E+00
  0.00000000E+00  0.00000000E+00  0.00000000E+00
  0.00000000E+00  0.00000000E+00  0.00000000E+00
  0.00000000E+00  0.00000000E+00  0.00000000E+00
  0.00000000E+00  0.00000000E+00  0.00000000E+00
  0.00000000E+00  0.00000000E+00  0.00000000E+00
  0.00000000E+00  0.00000000E+00  0.00000000E+00
  0.00000000E+00  0.00000000E+00  0.00000000E+00
  0.00000000E+00  0.00000000E+00  0.00000000E+00
  0.00000000E+00  0.00000000E+00  0.00000000E+00
  0.00000000E+00  0.00000000E+00  0.00000000E+00
  0.00000000E+00  0.00000000E+00  0.00000000E+00
  0.00000000E+00  0.00000000E+00  0.00000000E+00
  0.00000000E+00  0.00000000E+00  0.00000000E+00
  0.00000000E+00  0.00000000E+00  0.00000000E+00
  0.00000000E+00  0.00000000E+00  0.00000000E+00
  0.00000000E+00  0.00000000E+00  0.00000000E+00
  0.00000000E+00  0.00000000E+00  0.00000000E+00
  0.00000000E+00  0.00000000E+00  0.00000000E+00
  0.00000000E+00  0.00000000E+00  0.00000000E+00
  0.00000000E+00  0.00000000E+00  0.00000000E+00
  0.00000000E+00  0.00000000E+00  0.00000000E+00
  0.00000000E+00  0.00000000E+00  0.00000000E+00
  0.00000000E+00  0.00000000E+00  0.00000000E+00
  0.00000000E+00  0.00000000E+00  0.00000000E+00
  0.00000000E+00  0.00000000E+00  0.00000000E+00
  0.00000000E+00  0.00000000E+00  0.00000000E+00
  0.00000000E+00  0.00000000E+00  0.00000000E+00
  0.00000000E+00  0.00000000E+00  0.00000000E+00
  0.00000000E+00  0.00000000E+00  0.00000000E+00
  0.00000000E+00  0.00000000E+00  0.00000000E+00
  0.00000000E+00  0.00000000E+00  0.00000000E+00
  0.00000000E+00  0.00000000E+00  0.00000000E+00
  0.00000000E+00  0.00000000E+00  0.00000000E+00
  0.00000000E+00  0.00000000E+00  0.00000000E+00
  0.00000000E+00  0.00000000E+00  0.00000000E+00
  0.00000000E+00  0.00000000E+00  0.00000000E+00
  0.00000000E+00  0.00000000E+00  0.00000000E+00
  0.00000000E+00  0.00000000E+00  0.00000000E+00
  0.00000000E+00  0.00000000E+00  0.00000000E+00
  0.00000000E+00  0.00000000E+00  0.00000000E+00
  0.00000000E+00  0.00000000E+00  0.00000000E+00
  0.00000000E+00  0.00000000E+00  0.00000000E+00
  0.00000000E+00  0.00000000E+00  0.00000000E+00
  0.00000000E+00  0.00000000E+00  0.00000000E+00
  0.00000000E+00  0.00000000E+00  0.00000000E+00
  0.00000000E+00  0.00000000E+00  0.00000000E+00
  0.00000000E+00  0.00000000E+00  0.00000000E+00
  0.00000000E+00  0.00000000E+00  0.00000000E+00
  0.00000000E+00  0.00000000E+00  0.00000000E+00
  0.00000000E+00  0.00000000E+00  0.00000000E+00
  0.00000000E+00  0.00000000E+00  0.00000000E+00
  0.00000000E+00  0.00000000E+00  0.00000000E+00
  0.00000000E+00  0.00000000E+00  0.00000000E+00
  0.00000000E+00  0.00000000E+00  0.00000000E+00
  0.00000000E+00  0.00000000E+00  0.00000000E+00
  0.00000000E+00  0.00000000E+00  0.00000000E+00
  0.00000000E+00  0.00000000E+00  0.00000000E+00
  0.00000000E+00  0.00000000E+00  0.00000000E+00
  0.00000000E+00  0.00000000E+00  0.00000000E+00
  0.00000000E+00  0.00000000E+00  0.00000000E+00
  0.00000000E+00  0.00000000E+00  0.00000000E+00
  0.00000000E+00  0.00000000E+00  0.00000000E+00
  0.00000000E+00  0.00000000E+00  0.00000000E+00
  0.00000000E+00  0.00000000E+00  0.00000000E+00
  0.00000000E+00  0.00000000E+00  0.00000000E+00
  0.00000000E+00  0.00000000E+00  0.00000000E+00
  0.00000000E+00  0.00000000E+00  0.00000000E+00
  0.00000000E+00  0.00000000E+00  0.00000000E+00
  0.00000000E+00  0.00000000E+00  0.00000000E+00
  0.00000000E+00  0.00000000E+00  0.00000000E+00
  0.00000000E+00  0.00000000E+00  0.00000000E+00
  0.00000000E+00  0.00000000E+00  0.00000000E+00
  0.00000000E+00  0.00000000E+00  0.00000000E+00
  0.00000000E+00  0.00000000E+00  0.00000000E+00
  0.00000000E+00  0.00000000E+00  0.00000000E+00
  0.00000000E+00  0.00000000E+00  0.00000000E+00
  0.00000000E+00  0.00000000E+00  0.00000000E+00
  0.00000000E+00  0.00000000E+00  0.00000000E+00
  0.00000000E+00  0.00000000E+00  0.00000000E+00
  0.00000000E+00  0.00000000E+00  0.00000000E+00
  0.00000000E+00  0.00000000E+00  0.00000000E+00
  0.00000000E+00  0.00000000E+00  0.00000000E+00
  0.00000000E+00  0.00000000E+00  0.00000000E+00
  0.00000000E+00  0.00000000E+00  0.00000000E+00
  0.00000000E+00  0.00000000E+00  0.00000000E+00
  0.00000000E+00  0.00000000E+00  0.00000000E+00
  0.00000000E+00  0.00000000E+00  0.00000000E+00
  0.00000000E+00  0.00000000E+00  0.00000000E+00
  0.00000000E+00  0.00000000E+00  0.00000000E+00
  0.00000000E+00  0.00000000E+00  0.00000000E+00
  0.00000000E+00  0.00000000E+00  0.00000000E+00
  0.00000000E+00  0.00000000E+00  0.00000000E+00
  0.00000000E+00  0.00000000E+00  0.00000000E+00
  0.00000000E+00  0.00000000E+00  0.00000000E+00
  0.00000000E+00  0.00000000E+00  0.00000000E+00
  0.00000000E+00  0.00000000E+00  0.00000000E+00
  0.00000000E+00  0.00000000E+00  0.00000000E+00
  0.00000000E+00  0.00000000E+00  0.00000000E+00
  0.00000000E+00  0.00000000E+00  0.00000000E+00
  0.00000000E+00  0.00000000E+00  0.00000000E+00
  0.00000000E+00  0.00000000E+00  0.00000000E+00
  0.00000000E+00  0.00000000E+00  0.00000000E+00
  0.00000000E+00  0.00000000E+00  0.00000000E+00
  0.00000000E+00  0.00000000E+00  0.00000000E+00
  0.00000000E+00  0.00000000E+00  0.00000000E+00
  0.00000000E+00  0.00000000E+00  0.00000000E+00
  0.00000000E+00  0.00000000E+00  0.00000000E+00
  0.00000000E+00  0.00000000E+00  0.00000000E+00
  0.00000000E+00  0.00000000E+00  0.00000000E+00
  0.00000000E+00  0.00000000E+00  0.00000000E+00
  0.00000000E+00  0.00000000E+00  0.00000000E+00
  0.00000000E+00  0.00000000E+00  0.00000000E+00
  0.00000000E+00  0.00000000E+00  0.00000000E+00
  0.00000000E+00  0.00000000E+00  0.00000000E+00
  0.00000000E+00  0.00000000E+00  0.00000000E+00
  0.00000000E+00  0.00000000E+00  0.00000000E+00
  0.00000000E+00  0.00000000E+00  0.00000000E+00
  0.00000000E+00  0.00000000E+00  0.00000000E+00
  0.00000000E+00  0.00000000E+00  0.00000000E+00
  0.00000000E+00  0.00000000E+00  0.00000000E+00
  0.00000000E+00  0.00000000E+00  0.00000000E+00
  0.00000000E+00  0.00000000E+00  0.00000000E+00
  0.00000000E+00  0.00000000E+00  0.00000000E+00
  0.00000000E+00  0.00000000E+00  0.00000000E+00
  0.00000000E+00  0.00000000E+00  0.00000000E+00
  0.00000000E+00  0.00000000E+00  0.00000000E+00
  0.00000000E+00  0.00000000E+00  0.00000000E+00
  0.00000000E+00  0.00000000E+00  0.00000000E+00
  0.00000000E+00  0.00000000E+00  0.00000000E+00
  0.00000000E+00  0.00000000E+00  0.00000000E+00
  0.00000000E+00  0.00000000E+00  0.00000000E+00
  0.00000000E+00  0.00000000E+00  0.00000000E+00
  0.00000000E+00  0.00000000E+00  0.00000000E+00
  0.00000000E+00  0.00000000E+00  0.00000000E+00
  0.00000000E+00  0.00000000E+00  0.00000000E+00
  0.00000000E+00  0.00000000E+00  0.00000000E+00
  0.00000000E+00  0.00000000E+00  0.00000000E+00
  0.00000000E+00  0.00000000E+00  0.00000000E+00
  0.00000000E+00  0.00000000E+00  0.00000000E+00
  0.00000000E+00  0.00000000E+00  0.00000000E+00
  0.00000000E+00  0.00000000E+00  0.00000000E+00
  0.00000000E+00  0.00000000E+00  0.00000000E+00
  0.00000000E+00  0.00000000E+00  0.00000000E+00
  0.00000000E+00  0.00000000E+00  0.00000000E+00
  0.00000000E+00  0.00000000E+00  0.00000000E+00
  0.00000000E+00  0.00000000E+00  0.00000000E+00
  0.00000000E+00  0.00000000E+00  0.00000000E+00
  0.00000000E+00  0.00000000E+00  0.00000000E+00
  0.00000000E+00  0.00000000E+00  0.00000000E+00
  0.00000000E+00  0.00000000E+00  0.00000000E+00
  0.00000000E+00  0.00000000E+00  0.00000000E+00
  0.00000000E+00  0.00000000E+00  0.00000000E+00
  0.00000000E+00  0.00000000E+00  0.00000000E+00
  0.00000000E+00  0.00000000E+00  0.00000000E+00
  0.00000000E+00  0.00000000E+00  0.00000000E+00
  0.00000000E+00  0.00000000E+00  0.00000000E+00
  0.00000000E+00  0.00000000E+00  0.00000000E+00
  0.00000000E+00  0.00000000E+00  0.00000000E+00
  0.00000000E+00  0.00000000E+00  0.00000000E+00
  0.00000000E+00  0.00000000E+00  0.00000000E+00
  0.00000000E+00  0.00000000E+00  0.00000000E+00
  0.00000000E+00  0.00000000E+00  0.00000000E+00
  0.00000000E+00  0.00000000E+00  0.00000000E+00
  0.00000000E+00  0.00000000E+00  0.00000000E+00
  0.00000000E+00  0.00000000E+00  0.00000000E+00
  0.00000000E+00  0.00000000E+00  0.00000000E+00
  0.00000000E+00  0.00000000E+00  0.00000000E+00
  0.00000000E+00  0.00000000E+00  0.00000000E+00
  0.00000000E+00  0.00000000E+00  0.00000000E+00
  0.00000000E+00  0.00000000E+00  0.00000000E+00
  0.00000000E+00  0.00000000E+00  0.00000000E+00
  0.00000000E+00  0.00000000E+00  0.00000000E+00
  0.00000000E+00  0.00000000E+00  0.00000000E+00
  0.00000000E+00  0.00000000E+00  0.00000000E+00
  0.00000000E+00  0.00000000E+00  0.00000000E+00
  0.00000000E+00  0.00000000E+00  0.00000000E+00
  0.00000000E+00  0.00000000E+00  0.00000000E+00
  0.00000000E+00  0.00000000E+00  0.00000000E+00
  0.00000000E+00  0.00000000E+00  0.00000000E+00
  0.00000000E+00  0.00000000E+00  0.00000000E+00
  0.00000000E+00  0.00000000E+00  0.00000000E+00
  0.00000000E+00  0.00000000E+00  0.00000000E+00
  0.00000000E+00  0.00000000E+00  0.00000000E+00
  0.00000000E+00  0.00000000E+00  0.00000000E+00
  0.00000000E+00  0.00000000E+00  0.00000000E+00
  0.00000000E+00  0.00000000E+00  0.00000000E+00
  0.00000000E+00  0.00000000E+00  0.00000000E+00
  0.00000000E+00  0.00000000E+00  0.00000000E+00
  0.00000000E+00  0.00000000E+00  0.00000000E+00
  0.00000000E+00  0.00000000E+00  0.00000000E+00
  0.00000000E+00  0.00000000E+00  0.00000000E+00
  0.00000000E+00  0.00000000E+00  0.00000000E+00
  0.00000000E+00  0.00000000E+00  0.00000000E+00
  0.00000000E+00  0.00000000E+00  0.00000000E+00
  0.00000000E+00  0.00000000E+00  0.00000000E+00
  0.00000000E+00  0.00000000E+00  0.00000000E+00
  0.00000000E+00  0.00000000E+00  0.00000000E+00
  0.00000000E+00  0.00000000E+00  0.00000000E+00
  0.00000000E+00  0.00000000E+00  0.00000000E+00
  0.00000000E+00  0.00000000E+00  0.00000000E+00
  0.00000000E+00  0.00000000E+00  0.00000000E+00
  0.00000000E+00  0.00000000E+00  0.00000000E+00
  0.00000000E+00  0.00000000E+00  0.00000000E+00
  0.00000000E+00  0.00000000E+00  0.00000000E+00
  0.00000000E+00  0.00000000E+00  0.00000000E+00
  0.00000000E+00  0.00000000E+00  0.00000000E+00
  0.00000000E+00  0.00000000E+00  0.00000000E+00
  0.00000000E+00  0.00000000E+00  0.00000000E+00
  0.00000000E+00  0.00000000E+00  0.00000000E+00
  0.00000000E+00  0.00000000E+00  0.00000000E+00
  0.00000000E+00  0.00000000E+00  0.00000000E+00
  0.00000000E+00  0.00000000E+00  0.00000000E+00
  0.00000000E+00  0.00000000E+00  0.00000000E+00
  0.00000000E+00  0.00000000E+00  0.00000000E+00
  0.00000000E+00  0.00000000E+00  0.00000000E+00
  0.00000000E+00  0.00000000E+00  0.00000000E+00
  0.00000000E+00  0.00000000E+00  0.00000000E+00
  0.00000000E+00  0.00000000E+00  0.00000000E+00
  0.00000000E+00  0.00000000E+00  0.00000000E+00
  0.00000000E+00  0.00000000E+00  0.00000000E+00