Amorphous Sb2Se3                        
  0.980000000000000     
    20.9867606951059784    0.0000000000000000    0.0000000000000000
     0.0000000000000000   20.9867606951059784    0.0000000000000000
     0.0000000000000000    0.0000000000000000   20.9867606951059784
   Sb   Se
   120   180
Direct
  0.2409948567537774  0.6177274794430336  0.1645629592173903
  0.1859110334591907  0.5308228646487672  0.4490013994003274
  0.5135549581562530  0.9385793872643586  0.2306651143621670
  0.6036307034735002  0.2706409349909676  0.0354870582704340
  0.3101933657406756  0.7764831047107634  0.5764995795420342
  0.7185983307651573  0.8909792164539821  0.3292973472610362
  0.6301161879763408  0.4864290340245782  0.3254763562752804
  0.0285578872420876  0.8044360634907968  0.2479221529063655
  0.9380674470351492  0.0072640624435874  0.6016329136930534
  0.4719626874177260  0.7366739353403956  0.1111224165939583
  0.9255035458307120  0.5263229270647881  0.3219600888609456
  0.5261094020080826  0.5242407125944687  0.5070463712190010
  0.7924177915896754  0.9484064070164990  0.7495442536692656
  0.7062943046655296  0.0421410808806497  0.2484253726888286
  0.5025627869526932  0.5302705131410663  0.2844356271322880
  0.2842177242926632  0.2853562327996987  0.8824824033191123
  0.9060918715242895  0.6143331116018482  0.5005671855476435
  0.9902379868115712  0.8844238384192534  0.7837450463315262
  0.5704409221236518  0.6654403088280898  0.2645869202689543
  0.5262362385888618  0.3605101422086845  0.1420542998835245
  0.6986144237604621  0.3322010348459979  0.8346933106288013
  0.6514270063576656  0.4716966225350849  0.9190759429314169
  0.2754053104729738  0.5517699159210857  0.8811753316795068
  0.9818378916122998  0.3266403802261336  0.1198473548973927
  0.7792358664080735  0.4654500367196199  0.9873728053206989
  0.6659790189844289  0.0679882029348936  0.6313052112027578
  0.5785982222487761  0.8574377482734175  0.4238510914093092
  0.4539538369681793  0.3519278718643246  0.9178355649921097
  0.3422387991010412  0.3744238408533122  0.5072186753151758
  0.7444541882679977  0.1793422803853967  0.1310230907979437
  0.9359294651963388  0.7879818673617159  0.9435144324089619
  0.7335844216564991  0.3672746091689452  0.1594833788858988
  0.7077723320312435  0.4598193406304809  0.5357075608812492
  0.3451056630868114  0.8239373364935497  0.2321818748458731
  0.0739903532537679  0.8946634867929746  0.5179475481995252
  0.4408132138331642  0.5417004312490659  0.1376105256846284
  0.7871674851250637  0.6482486572062794  0.3600478062888165
  0.0267959992035538  0.5058839799792714  0.1072064606820760
  0.6897293488060342  0.2752936013944125  0.5725750183707554
  0.6407238717918708  0.0355022729358143  0.4929780015681648
  0.5594105789222320  0.9719426032449006  0.8957118896116183
  0.4590335273128965  0.5968668305027477  0.4030164946875741
  0.6258134350430089  0.8354961005422188  0.7843774125850621
  0.0483601931079497  0.2907734273172906  0.6488372630372623
  0.8452877677095024  0.2354369831682785  0.0122537656855373
  0.0993083609194680  0.3954339842967997  0.3752885850077848
  0.8849031728034854  0.2259284760642422  0.5975265302314309
  0.3438543982210522  0.0165725218665045  0.2412898854810691
  0.0268409401314652  0.6985731193874667  0.4065088375341854
  0.0235104239073170  0.6456518022974134  0.7653556377633391
  0.3487320672489369  0.6068225738371911  0.6945502252756728
  0.2052236162776041  0.2079870460055342  0.7215290878758728
  0.9950910235198350  0.4915859303886971  0.6554197276309861
  0.5642795314833912  0.3226864729193316  0.4720571184555560
  0.0497183658325211  0.1338135231806827  0.0246762467613843
  0.8594730468623704  0.7591165748333200  0.7630620403870128
  0.9795618725679734  0.2779289118424434  0.9879502428457071
  0.7383403351502684  0.0234005030090442  0.0618452480885376
  0.0541334294425081  0.6630731079608072  0.0095635667343387
  0.5556004576667565  0.2074748009879624  0.6333811838711777
  0.9640085040243629  0.7944807337104397  0.5917320528991888
  0.6596343677945711  0.4022070734093346  0.7164210819054913
  0.0829242924447506  0.8922224504612009  0.9822355676532026
  0.1789264790230473  0.8281115052223333  0.6973444153833623
  0.6328150335613894  0.6039912143370201  0.8674536624531326
  0.1644066010171426  0.7799393516959142  0.1056818724465883
  0.4895163852117854  0.3871304872191542  0.6935203779247282
  0.5699945816598045  0.0083356571633670  0.3497601402283291
  0.2801248747459622  0.1035202616319493  0.5737060016045993
  0.4978449537946308  0.7256791084093069  0.7817314980106044
  0.6895514932582354  0.2028317169251320  0.9412986153283346
  0.4693797882875646  0.1939861194589908  0.3469560646752404
  0.3222030800179024  0.8433121670638530  0.0097587530930396
  0.1353249756834042  0.4839955483073742  0.8114298713834970
  0.2422701828663279  0.9952466807956662  0.9409079965142710
  0.2857697472794336  0.3513257456338403  0.0266834313632138
  0.1699279733423464  0.0804169918508234  0.1398370343722121
  0.6256974848241637  0.9334241528682575  0.6552991204775814
  0.3598087016708336  0.1140649475730728  0.8412832021957116
  0.1269959231069752  0.9585760306038247  0.3511768835847745
  0.3424931687686989  0.6774746662697144  0.4767926356824827
  0.8294295061150747  0.3626323282796832  0.3532336412559161
  0.5169073756903608  0.1245480284262586  0.9616572083823185
  0.2633120371040039  0.5480745522892928  0.0413913236388483
  0.8622622833174066  0.5278906869232906  0.1575204253939730
  0.7039260456931582  0.6914916246864257  0.5058436982046276
  0.6702127184583261  0.2170394626159666  0.3624750211343212
  0.8416727491624897  0.1830778362447507  0.4169366747399001
  0.9765689617818324  0.1117845090811252  0.2001401490734162
  0.9647369396688653  0.3776855336481524  0.5204143788771697
  0.5870821808739568  0.8015310671261661  0.9674152058595541
  0.3871007998498191  0.2876624957840401  0.7111113819298829
  0.3490331035060359  0.9247832505065010  0.7631000853333318
  0.6366372418428404  0.7574722146667856  0.6175139441783782
  0.0345330517754148  0.1211402788023446  0.6791174777357856
  0.9199838092267106  0.3513795534086805  0.8175906069501043
  0.9202659955775188  0.8790649020569304  0.1234987959769369
  0.2268445038613267  0.2308463754284694  0.4288488333462135
  0.8046846712811913  0.9368482503634750  0.4821722260635670
  0.9153385835376754  0.0582414141929552  0.9507149941804710
  0.0662570697478461  0.0551485179653249  0.8023075190763185
  0.2349305032476880  0.8340848014721111  0.4135483775608388
  0.0988587809732775  0.1430028730236238  0.5233912004348028
  0.6655318008080784  0.5566251350770938  0.6321914921645517
  0.7584923497665149  0.8582267657608748  0.1939671729071490
  0.4902786890674036  0.0389488641119096  0.5983351471607573
  0.3292041206863050  0.2825991958304407  0.2526862068732161
  0.8253204526753015  0.1049051752605480  0.8049519479698947
  0.1512259138949651  0.6571621953671214  0.6068529614654696
  0.5561489506311035  0.5463638452458616  0.7542649039848942
  0.4010860884865550  0.9988326818677246  0.0542996267600030
  0.4733458947812020  0.1573359663287882  0.4878289622687061
  0.0094360559885416  0.0677558474144061  0.3731620564481989
  0.2941287808102691  0.4775333521178456  0.2797981728221055
  0.1635269861550540  0.3850648230000345  0.2032568789324645
  0.4260055684310773  0.7790513178090990  0.4189912389420993
  0.7229468100280511  0.2369866588646031  0.7305628143237770
  0.1826813713071043  0.4571121499508196  0.6197678692557969
  0.1709043100944543  0.6777811745332724  0.2955932494236695
  0.3753047866343446  0.1974264042954089  0.0938982745027041
  0.6456003713768851  0.5477615915298734  0.4527704012929319
  0.5081040461877304  0.4282926944980802  0.4253243187043574
  0.0499531399723112  0.2076563127503908  0.1354447349370625
  0.4313136978705926  0.2187937582190164  0.2078302051576798
  0.8833912481981739  0.1248946029124709  0.0671456006245008
  0.4859311131918076  0.9352740658161536  0.4778050812880177
  0.0442818641214496  0.6646505872499670  0.2750177786628821
  0.8476750963462805  0.2275770884107831  0.7410437189997119
  0.7300950733539950  0.3522221736689071  0.0189615354305629
  0.8991761534288164  0.1730953193661459  0.8870131024518012
  0.0814788902141149  0.5396764973601670  0.9980905382442664
  0.4175818497569145  0.8764018650551987  0.1087162426502561
  0.0796907343502114  0.4790806797474019  0.5458196150817096
  0.5596446259471107  0.2821564852812976  0.7355638267963726
  0.8057125451685808  0.9791785359672668  0.1735201917371627
  0.9661804685280735  0.9810753032807058  0.2775014046843093
  0.3004916303813890  0.3389003528137745  0.6186917768782845
  0.6901818275468445  0.7697293994886615  0.3584891220310480
  0.9522311062677427  0.9140237882926064  0.9909674597701157
  0.1597963182521155  0.0916666140574491  0.6876769729658209
  0.7599847681927989  0.3634782266327501  0.6385097733474547
  0.3166179089401656  0.1528419349806588  0.6872146167199743
  0.6789774299283441  0.7802132192178828  0.8835279060963065
  0.0298509782282677  0.7735502967625557  0.7003059208989858
  0.1213563532011085  0.5624987167470736  0.6910655192576508
  0.7692765973427607  0.1746756808863489  0.5703345869184847
  0.9643086782022012  0.4096731590156711  0.3947697821251285
  0.3437413927667609  0.8662529958280761  0.4778171867181613
  0.6510134137505414  0.2631639028128125  0.1639469880378290
  0.3535323276192377  0.5916570887972420  0.2264445755130542
  0.5395334183176776  0.6265495077267155  0.1264181827309851
  0.2655042233976279  0.0142701319623548  0.8136410984325425
  0.2350390557919213  0.7074069561621525  0.6922835880477854
  0.1553572871587004  0.5972436767820355  0.8663038539083370
  0.5731838769566846  0.2362250594668728  0.8987688327449462
  0.3814752329433878  0.5940331906519940  0.0342103599709379
  0.3373501574265505  0.1045406620581320  0.3387064522635183
  0.5255410498385248  0.9979404884396257  0.0229573546639022
  0.6567451100662234  0.7293740607584919  0.0518701221952429
  0.2724618392330155  0.9097255193097995  0.6616146347057974
  0.4117971600733275  0.6905762201836936  0.5847796319565468
  0.7183527257216112  0.3350674378924168  0.2932272798611024
  0.3406761551318447  0.1797665299334697  0.4924880482329178
  0.8114548425272894  0.6564414768398033  0.9369521859145314
  0.8558499298202134  0.7252814411821892  0.6101469331911024
  0.9258992015402748  0.1378467239189327  0.5062163443507804
  0.7697877199763972  0.6097637780482825  0.5771454242609327
  0.8631534207199106  0.6315263718276994  0.2584416867698400
  0.4918110321720446  0.7172046086549122  0.9300321967805625
  0.0110117387674306  0.7881234310009481  0.1158838478849548
  0.3682157057976591  0.0092492779733659  0.5797713594721129
  0.5089864415208807  0.8069612542778424  0.5197799770049606
  0.7024846547216617  0.3210145614428504  0.4486130766516818
  0.0598131302159901  0.9362801636740237  0.2241541743004873
  0.1626976515823211  0.4260354208199885  0.9256409724714377
  0.9320548796904456  0.6294615237796202  0.0819706911494735
  0.4787944432790586  0.1268053458118611  0.6918937500032724
  0.2162032274255422  0.4050702148162286  0.4925029654296816
  0.2744591420083465  0.6902840627709896  0.9789749813193849
  0.0327395256548222  0.0364701516238964  0.1066455437327374
  0.9308652252178007  0.6815223781921509  0.8492364483999518
  0.3727521376615405  0.9402454323825025  0.9413980385269729
  0.3039095081757392  0.7490309250391749  0.3346606123357429
  0.3587245460225441  0.1152474326701736  0.9679479133791553
  0.6456213028960498  0.0850160384252920  0.9652761605184942
  0.1675944575701481  0.9552572469151407  0.1015089176839663
  0.7083212068858059  0.6394617392243742  0.9895231686162351
  0.4178595960219117  0.9070655467984451  0.3080906249947867
  0.2438555955748941  0.5802216871590108  0.5555357515993150
  0.2979836337589177  0.5482267182780521  0.3858702925190487
  0.8553351830094754  0.8443323494464803  0.8630018920621603
  0.3485390644911543  0.4194867914861858  0.9157367243300051
  0.2782727218514547  0.9159227537400251  0.1103325512117007
  0.5941033015017200  0.1168333111138922  0.2900318098000673
  0.4100799957125659  0.3158360093972616  0.0396541805060881
  0.8038772370947399  0.4028067631766564  0.8447376526871465
  0.8694870471226557  0.4218391529992825  0.2445975317783146
  0.8366792271670560  0.8901587873397979  0.3690739869955177
  0.6019565299319853  0.5030888764422914  0.0326182631895712
  0.1774986719132290  0.1397276916570211  0.0276906545728635
  0.1042062426063548  0.2660107572373246  0.3750485387976419
  0.5005572347104067  0.9335752409829086  0.6705922178873749
  0.0439387378970540  0.2231971323523200  0.7571752986456145
  0.2809608722197977  0.3356816278413691  0.7659623152519343
  0.6435645945432215  0.0662154663403819  0.1407325544768057
  0.3138660796335941  0.8156550679011924  0.8207557070126900
  0.4449516649486704  0.4168233320949256  0.3052842482865587
  0.7781790288845318  0.8749968546373408  0.9900281812127307
  0.4606747782831386  0.0379796356196055  0.4108073136239295
  0.1793717198117728  0.2337857202760239  0.5588262566918398
  0.6147432390250085  0.1679074090790387  0.4785174889609642
  0.2860165769183329  0.7354558735810811  0.1214879305958466
  0.5647226716126390  0.2829970796802093  0.3313491117346631
  0.6662774996515619  0.8924291081794666  0.5101545402471809
  0.1619002888135901  0.8082979087721953  0.5715653013035032
  0.5039632333563563  0.4410912047826906  0.0378227464903073
  0.9241390227507652  0.4788156015871001  0.7858290045234030
  0.6122545423358421  0.4431143029231872  0.1858234685712253
  0.6992025416585388  0.1336415121816072  0.8042208225710169
  0.9403000424648753  0.3549011320191518  0.6644529819797679
  0.0744267005944386  0.1265593953055869  0.2798652471881328
  0.3840409752020599  0.7714824408199845  0.7348412281120713
  0.7981447962545515  0.0271305011261459  0.9136821280702270
  0.4106635540978010  0.4008653887585026  0.1937909533971876
  0.7780128833273254  0.6628576633694800  0.7763714922259449
  0.1062585813849791  0.9396883089915797  0.7657397301976107
  0.0715763989151454  0.8468775708214878  0.3816473264466428
  0.1786295175032561  0.1115265967828260  0.4281480247734611
  0.8860434234285732  0.5829120226722460  0.9857994203438013
  0.5377803789189987  0.6123100045769814  0.9542612912718033
  0.5774951495929853  0.8075940212617250  0.1295329887552704
  0.4687561763695830  0.2779163318993244  0.5683199935746626
  0.4881859169244460  0.0521950668434151  0.8321809208704753
  0.1776644323105172  0.9553398187454899  0.4747823826336462
  0.0212520904249599  0.2147807282655177  0.4456927811029245
  0.0126205962858059  0.5264843979726556  0.8443091891044230
  0.7770171186301786  0.0053971082501076  0.6331549523585667
  0.7773698906475828  0.1469904351908170  0.2490872949353546
  0.6739275926816000  0.6848748378919920  0.7224164070123417
  0.1585800933813546  0.7991800330579597  0.2393814518994277
  0.1583521729003172  0.6793283182494433  0.4254438839437680
  0.0519741002779415  0.8108957841039811  0.8839834410011554
  0.6789626723504067  0.5914872790487350  0.2677881587787767
  0.4399939253863802  0.7359528582957213  0.2342017462060847
  0.6568726132857005  0.9657284211418045  0.7832917782813814
  0.0489123539121204  0.3886530656322982  0.2578961169072636
  0.8806450321789976  0.7170748505452564  0.4224114586346736
  0.1233700788007500  0.3753241452175388  0.7054940904103774
  0.8542552953120826  0.3106485713106759  0.5047328232741884
  0.2160662228666681  0.8712156366492623  0.9255172432212970
  0.2998292496609016  0.0902431957772885  0.1433572692802542
  0.9019549251342547  0.9040539665586984  0.6728708563754771
  0.4584053617621758  0.0472035297764474  0.1910694089392141
  0.5408342044474852  0.6807683721163067  0.6617489154603921
  0.5251052773720974  0.1771238483057446  0.0812084646279008
  0.8695828492268813  0.8095698377176053  0.2294599241384513
  0.2575918205159981  0.1771222250691648  0.2961922667087178
  0.8375583101652659  0.2712582536873797  0.1437199636637456
  0.1106546871140680  0.6640533337736296  0.1246659484665304
  0.9014297269093813  0.4812802695445973  0.5633683418280434
  0.2240733758193216  0.3648004489801227  0.3249180346163101
  0.1743236592745006  0.5116949616667477  0.2368863674390041
  0.2639136737417455  0.2616632177854323  0.1227809217639488
  0.2850987506356329  0.4441684440038529  0.1136462224797219
  0.9346505929501989  0.9555385452030132  0.4857053038470442
  0.8893977769528110  0.0892033067221848  0.3383939193894147
  0.0070438845825712  0.5734154340405631  0.4257818023155138
  0.1628747320186059  0.7293654727733965  0.9613194052764098
  0.1557522937314063  0.3148786378608522  0.8960623180302615
  0.9370892270683975  0.6085783429531455  0.6820216643090556
  0.5231176277399812  0.4345425416235792  0.8092614824201532
  0.9700102346481994  0.3887510514408361  0.9302143992715346
  0.5973904750974744  0.4020613850800425  0.5705162796247152
  0.9482594230500032  0.0074027620044761  0.8219548508120637
  0.0625196330449269  0.9885580260133446  0.6072313156101190
  0.2296262596625071  0.1710381554716748  0.8464536165089837
  0.7503911674595757  0.8325326030431354  0.7215559905258050
  0.3867221981932594  0.2872848883984195  0.3717678978117647
  0.6289623595945192  0.7794370455349305  0.2429880576292343
  0.5069884133709205  0.8630844967829677  0.8540491544401709
  0.4451402842095117  0.6056750145340574  0.7903870991655635
  0.2890272542456014  0.5097103819755583  0.7617954934183960
  0.4206907500572848  0.2468799304551935  0.8456227540263576
  0.7761717987757971  0.7927786480843143  0.5550268020569284
  0.2472946160823420  0.9236990552415240  0.3205007763813854
  0.7230148487292496  0.5119876423535833  0.7384721456426742
  0.1015765183294951  0.0089380978955347  0.9363530967109180
  0.8311578815428334  0.8044088230934747  0.0646843580964291
  0.6809192160867761  0.9115413680408587  0.0446379216477539
  0.7526434625021093  0.0472872540871080  0.4330990226239859
  0.3788267328303830  0.4877012056651489  0.6514384945721428
  0.8932595373736365  0.2557711243759285  0.3256603246567774
  0.5500690103036480  0.6861924664073709  0.3955290838586465
  0.7484510883651683  0.5186029625290609  0.1059471116182544
  0.0151555773365559  0.6850512516495652  0.5433879398762765
  0.9197448948217772  0.4464162080674381  0.0671179815931588
  0.8296647616320544  0.5310520553205473  0.4087956415661750
  0.0895689865541494  0.3925212420531407  0.0832358247489654
  0.3855925094129417  0.4972015456831708  0.5355851899631106
  0.3214112559187853  0.6708754138231829  0.8734144066830221
 
  0.00000000E+00  0.00000000E+00  0.00000000E+00
  0.00000000E+00  0.00000000E+00  0.00000000E+00
  0.00000000E+00  0.00000000E+00  0.00000000E+00
  0.00000000E+00  0.00000000E+00  0.00000000E+00
  0.00000000E+00  0.00000000E+00  0.00000000E+00
  0.00000000E+00  0.00000000E+00  0.00000000E+00
  0.00000000E+00  0.00000000E+00  0.00000000E+00
  0.00000000E+00  0.00000000E+00  0.00000000E+00
  0.00000000E+00  0.00000000E+00  0.00000000E+00
  0.00000000E+00  0.00000000E+00  0.00000000E+00
  0.00000000E+00  0.00000000E+00  0.00000000E+00
  0.00000000E+00  0.00000000E+00  0.00000000E+00
  0.00000000E+00  0.00000000E+00  0.00000000E+00
  0.00000000E+00  0.00000000E+00  0.00000000E+00
  0.00000000E+00  0.00000000E+00  0.00000000E+00
  0.00000000E+00  0.00000000E+00  0.00000000E+00
  0.00000000E+00  0.00000000E+00  0.00000000E+00
  0.00000000E+00  0.00000000E+00  0.00000000E+00
  0.00000000E+00  0.00000000E+00  0.00000000E+00
  0.00000000E+00  0.00000000E+00  0.00000000E+00
  0.00000000E+00  0.00000000E+00  0.00000000E+00
  0.00000000E+00  0.00000000E+00  0.00000000E+00
  0.00000000E+00  0.00000000E+00  0.00000000E+00
  0.00000000E+00  0.00000000E+00  0.00000000E+00
  0.00000000E+00  0.00000000E+00  0.00000000E+00
  0.00000000E+00  0.00000000E+00  0.00000000E+00
  0.00000000E+00  0.00000000E+00  0.00000000E+00
  0.00000000E+00  0.00000000E+00  0.00000000E+00
  0.00000000E+00  0.00000000E+00  0.00000000E+00
  0.00000000E+00  0.00000000E+00  0.00000000E+00
  0.00000000E+00  0.00000000E+00  0.00000000E+00
  0.00000000E+00  0.00000000E+00  0.00000000E+00
  0.00000000E+00  0.00000000E+00  0.00000000E+00
  0.00000000E+00  0.00000000E+00  0.00000000E+00
  0.00000000E+00  0.00000000E+00  0.00000000E+00
  0.00000000E+00  0.00000000E+00  0.00000000E+00
  0.00000000E+00  0.00000000E+00  0.00000000E+00
  0.00000000E+00  0.00000000E+00  0.00000000E+00
  0.00000000E+00  0.00000000E+00  0.00000000E+00
  0.00000000E+00  0.00000000E+00  0.00000000E+00
  0.00000000E+00  0.00000000E+00  0.00000000E+00
  0.00000000E+00  0.00000000E+00  0.00000000E+00
  0.00000000E+00  0.00000000E+00  0.00000000E+00
  0.00000000E+00  0.00000000E+00  0.00000000E+00
  0.00000000E+00  0.00000000E+00  0.00000000E+00
  0.00000000E+00  0.00000000E+00  0.00000000E+00
  0.00000000E+00  0.00000000E+00  0.00000000E+00
  0.00000000E+00  0.00000000E+00  0.00000000E+00
  0.00000000E+00  0.00000000E+00  0.00000000E+00
  0.00000000E+00  0.00000000E+00  0.00000000E+00
  0.00000000E+00  0.00000000E+00  0.00000000E+00
  0.00000000E+00  0.00000000E+00  0.00000000E+00
  0.00000000E+00  0.00000000E+00  0.00000000E+00
  0.00000000E+00  0.00000000E+00  0.00000000E+00
  0.00000000E+00  0.00000000E+00  0.00000000E+00
  0.00000000E+00  0.00000000E+00  0.00000000E+00
  0.00000000E+00  0.00000000E+00  0.00000000E+00
  0.00000000E+00  0.00000000E+00  0.00000000E+00
  0.00000000E+00  0.00000000E+00  0.00000000E+00
  0.00000000E+00  0.00000000E+00  0.00000000E+00
  0.00000000E+00  0.00000000E+00  0.00000000E+00
  0.00000000E+00  0.00000000E+00  0.00000000E+00
  0.00000000E+00  0.00000000E+00  0.00000000E+00
  0.00000000E+00  0.00000000E+00  0.00000000E+00
  0.00000000E+00  0.00000000E+00  0.00000000E+00
  0.00000000E+00  0.00000000E+00  0.00000000E+00
  0.00000000E+00  0.00000000E+00  0.00000000E+00
  0.00000000E+00  0.00000000E+00  0.00000000E+00
  0.00000000E+00  0.00000000E+00  0.00000000E+00
  0.00000000E+00  0.00000000E+00  0.00000000E+00
  0.00000000E+00  0.00000000E+00  0.00000000E+00
  0.00000000E+00  0.00000000E+00  0.00000000E+00
  0.00000000E+00  0.00000000E+00  0.00000000E+00
  0.00000000E+00  0.00000000E+00  0.00000000E+00
  0.00000000E+00  0.00000000E+00  0.00000000E+00
  0.00000000E+00  0.00000000E+00  0.00000000E+00
  0.00000000E+00  0.00000000E+00  0.00000000E+00
  0.00000000E+00  0.00000000E+00  0.00000000E+00
  0.00000000E+00  0.00000000E+00  0.00000000E+00
  0.00000000E+00  0.00000000E+00  0.00000000E+00
  0.00000000E+00  0.00000000E+00  0.00000000E+00
  0.00000000E+00  0.00000000E+00  0.00000000E+00
  0.00000000E+00  0.00000000E+00  0.00000000E+00
  0.00000000E+00  0.00000000E+00  0.00000000E+00
  0.00000000E+00  0.00000000E+00  0.00000000E+00
  0.00000000E+00  0.00000000E+00  0.00000000E+00
  0.00000000E+00  0.00000000E+00  0.00000000E+00
  0.00000000E+00  0.00000000E+00  0.00000000E+00
  0.00000000E+00  0.00000000E+00  0.00000000E+00
  0.00000000E+00  0.00000000E+00  0.00000000E+00
  0.00000000E+00  0.00000000E+00  0.00000000E+00
  0.00000000E+00  0.00000000E+00  0.00000000E+00
  0.00000000E+00  0.00000000E+00  0.00000000E+00
  0.00000000E+00  0.00000000E+00  0.00000000E+00
  0.00000000E+00  0.00000000E+00  0.00000000E+00
  0.00000000E+00  0.00000000E+00  0.00000000E+00
  0.00000000E+00  0.00000000E+00  0.00000000E+00
  0.00000000E+00  0.00000000E+00  0.00000000E+00
  0.00000000E+00  0.00000000E+00  0.00000000E+00
  0.00000000E+00  0.00000000E+00  0.00000000E+00
  0.00000000E+00  0.00000000E+00  0.00000000E+00
  0.00000000E+00  0.00000000E+00  0.00000000E+00
  0.00000000E+00  0.00000000E+00  0.00000000E+00
  0.00000000E+00  0.00000000E+00  0.00000000E+00
  0.00000000E+00  0.00000000E+00  0.00000000E+00
  0.00000000E+00  0.00000000E+00  0.00000000E+00
  0.00000000E+00  0.00000000E+00  0.00000000E+00
  0.00000000E+00  0.00000000E+00  0.00000000E+00
  0.00000000E+00  0.00000000E+00  0.00000000E+00
  0.00000000E+00  0.00000000E+00  0.00000000E+00
  0.00000000E+00  0.00000000E+00  0.00000000E+00
  0.00000000E+00  0.00000000E+00  0.00000000E+00
  0.00000000E+00  0.00000000E+00  0.00000000E+00
  0.00000000E+00  0.00000000E+00  0.00000000E+00
  0.00000000E+00  0.00000000E+00  0.00000000E+00
  0.00000000E+00  0.00000000E+00  0.00000000E+00
  0.00000000E+00  0.00000000E+00  0.00000000E+00
  0.00000000E+00  0.00000000E+00  0.00000000E+00
  0.00000000E+00  0.00000000E+00  0.00000000E+00
  0.00000000E+00  0.00000000E+00  0.00000000E+00
  0.00000000E+00  0.00000000E+00  0.00000000E+00
  0.00000000E+00  0.00000000E+00  0.00000000E+00
  0.00000000E+00  0.00000000E+00  0.00000000E+00
  0.00000000E+00  0.00000000E+00  0.00000000E+00
  0.00000000E+00  0.00000000E+00  0.00000000E+00
  0.00000000E+00  0.00000000E+00  0.00000000E+00
  0.00000000E+00  0.00000000E+00  0.00000000E+00
  0.00000000E+00  0.00000000E+00  0.00000000E+00
  0.00000000E+00  0.00000000E+00  0.00000000E+00
  0.00000000E+00  0.00000000E+00  0.00000000E+00
  0.00000000E+00  0.00000000E+00  0.00000000E+00
  0.00000000E+00  0.00000000E+00  0.00000000E+00
  0.00000000E+00  0.00000000E+00  0.00000000E+00
  0.00000000E+00  0.00000000E+00  0.00000000E+00
  0.00000000E+00  0.00000000E+00  0.00000000E+00
  0.00000000E+00  0.00000000E+00  0.00000000E+00
  0.00000000E+00  0.00000000E+00  0.00000000E+00
  0.00000000E+00  0.00000000E+00  0.00000000E+00
  0.00000000E+00  0.00000000E+00  0.00000000E+00
  0.00000000E+00  0.00000000E+00  0.00000000E+00
  0.00000000E+00  0.00000000E+00  0.00000000E+00
  0.00000000E+00  0.00000000E+00  0.00000000E+00
  0.00000000E+00  0.00000000E+00  0.00000000E+00
  0.00000000E+00  0.00000000E+00  0.00000000E+00
  0.00000000E+00  0.00000000E+00  0.00000000E+00
  0.00000000E+00  0.00000000E+00  0.00000000E+00
  0.00000000E+00  0.00000000E+00  0.00000000E+00
  0.00000000E+00  0.00000000E+00  0.00000000E+00
  0.00000000E+00  0.00000000E+00  0.00000000E+00
  0.00000000E+00  0.00000000E+00  0.00000000E+00
  0.00000000E+00  0.00000000E+00  0.00000000E+00
  0.00000000E+00  0.00000000E+00  0.00000000E+00
  0.00000000E+00  0.00000000E+00  0.00000000E+00
  0.00000000E+00  0.00000000E+00  0.00000000E+00
  0.00000000E+00  0.00000000E+00  0.00000000E+00
  0.00000000E+00  0.00000000E+00  0.00000000E+00
  0.00000000E+00  0.00000000E+00  0.00000000E+00
  0.00000000E+00  0.00000000E+00  0.00000000E+00
  0.00000000E+00  0.00000000E+00  0.00000000E+00
  0.00000000E+00  0.00000000E+00  0.00000000E+00
  0.00000000E+00  0.00000000E+00  0.00000000E+00
  0.00000000E+00  0.00000000E+00  0.00000000E+00
  0.00000000E+00  0.00000000E+00  0.00000000E+00
  0.00000000E+00  0.00000000E+00  0.00000000E+00
  0.00000000E+00  0.00000000E+00  0.00000000E+00
  0.00000000E+00  0.00000000E+00  0.00000000E+00
  0.00000000E+00  0.00000000E+00  0.00000000E+00
  0.00000000E+00  0.00000000E+00  0.00000000E+00
  0.00000000E+00  0.00000000E+00  0.00000000E+00
  0.00000000E+00  0.00000000E+00  0.00000000E+00
  0.00000000E+00  0.00000000E+00  0.00000000E+00
  0.00000000E+00  0.00000000E+00  0.00000000E+00
  0.00000000E+00  0.00000000E+00  0.00000000E+00
  0.00000000E+00  0.00000000E+00  0.00000000E+00
  0.00000000E+00  0.00000000E+00  0.00000000E+00
  0.00000000E+00  0.00000000E+00  0.00000000E+00
  0.00000000E+00  0.00000000E+00  0.00000000E+00
  0.00000000E+00  0.00000000E+00  0.00000000E+00
  0.00000000E+00  0.00000000E+00  0.00000000E+00
  0.00000000E+00  0.00000000E+00  0.00000000E+00
  0.00000000E+00  0.00000000E+00  0.00000000E+00
  0.00000000E+00  0.00000000E+00  0.00000000E+00
  0.00000000E+00  0.00000000E+00  0.00000000E+00
  0.00000000E+00  0.00000000E+00  0.00000000E+00
  0.00000000E+00  0.00000000E+00  0.00000000E+00
  0.00000000E+00  0.00000000E+00  0.00000000E+00
  0.00000000E+00  0.00000000E+00  0.00000000E+00
  0.00000000E+00  0.00000000E+00  0.00000000E+00
  0.00000000E+00  0.00000000E+00  0.00000000E+00
  0.00000000E+00  0.00000000E+00  0.00000000E+00
  0.00000000E+00  0.00000000E+00  0.00000000E+00
  0.00000000E+00  0.00000000E+00  0.00000000E+00
  0.00000000E+00  0.00000000E+00  0.00000000E+00
  0.00000000E+00  0.00000000E+00  0.00000000E+00
  0.00000000E+00  0.00000000E+00  0.00000000E+00
  0.00000000E+00  0.00000000E+00  0.00000000E+00
  0.00000000E+00  0.00000000E+00  0.00000000E+00
  0.00000000E+00  0.00000000E+00  0.00000000E+00
  0.00000000E+00  0.00000000E+00  0.00000000E+00
  0.00000000E+00  0.00000000E+00  0.00000000E+00
  0.00000000E+00  0.00000000E+00  0.00000000E+00
  0.00000000E+00  0.00000000E+00  0.00000000E+00
  0.00000000E+00  0.00000000E+00  0.00000000E+00
  0.00000000E+00  0.00000000E+00  0.00000000E+00
  0.00000000E+00  0.00000000E+00  0.00000000E+00
  0.00000000E+00  0.00000000E+00  0.00000000E+00
  0.00000000E+00  0.00000000E+00  0.00000000E+00
  0.00000000E+00  0.00000000E+00  0.00000000E+00
  0.00000000E+00  0.00000000E+00  0.00000000E+00
  0.00000000E+00  0.00000000E+00  0.00000000E+00
  0.00000000E+00  0.00000000E+00  0.00000000E+00
  0.00000000E+00  0.00000000E+00  0.00000000E+00
  0.00000000E+00  0.00000000E+00  0.00000000E+00
  0.00000000E+00  0.00000000E+00  0.00000000E+00
  0.00000000E+00  0.00000000E+00  0.00000000E+00
  0.00000000E+00  0.00000000E+00  0.00000000E+00
  0.00000000E+00  0.00000000E+00  0.00000000E+00
  0.00000000E+00  0.00000000E+00  0.00000000E+00
  0.00000000E+00  0.00000000E+00  0.00000000E+00
  0.00000000E+00  0.00000000E+00  0.00000000E+00
  0.00000000E+00  0.00000000E+00  0.00000000E+00
  0.00000000E+00  0.00000000E+00  0.00000000E+00
  0.00000000E+00  0.00000000E+00  0.00000000E+00
  0.00000000E+00  0.00000000E+00  0.00000000E+00
  0.00000000E+00  0.00000000E+00  0.00000000E+00
  0.00000000E+00  0.00000000E+00  0.00000000E+00
  0.00000000E+00  0.00000000E+00  0.00000000E+00
  0.00000000E+00  0.00000000E+00  0.00000000E+00
  0.00000000E+00  0.00000000E+00  0.00000000E+00
  0.00000000E+00  0.00000000E+00  0.00000000E+00
  0.00000000E+00  0.00000000E+00  0.00000000E+00
  0.00000000E+00  0.00000000E+00  0.00000000E+00