Sb6 Te3                                 
   1.00000000000000     
     2.1977620304674086   -3.8066354997152869   -0.0000000000000001
     2.1977620304674086    3.8066354997152869    0.0000000000000001
     0.0000000000000001    0.0000000000000001   17.4509712693599326
   Sb   Te
     6     3
Direct
  0.0000000000000000  0.0000000000000000  0.6509656837197301
  0.0000000000000000  0.0000000000000000  0.3490343162802699
  0.6666666666666643  0.3333333333333357  0.4341644659166812
  0.3333333333333357  0.6666666666666643  0.8878524462209236
  0.6666666666666643  0.3333333333333357  0.1121475537790766
  0.3333333333333357  0.6666666666666643  0.5658355340833188
  0.0000000000000000  0.0000000000000000  0.0000000000000000
  0.6666666666666643  0.3333333333333357  0.7923947408524116
  0.3333333333333357  0.6666666666666643  0.2076052591475887
 
  0.00000000E+00  0.00000000E+00  0.00000000E+00
  0.00000000E+00  0.00000000E+00  0.00000000E+00
  0.00000000E+00  0.00000000E+00  0.00000000E+00
  0.00000000E+00  0.00000000E+00  0.00000000E+00
  0.00000000E+00  0.00000000E+00  0.00000000E+00
  0.00000000E+00  0.00000000E+00  0.00000000E+00
  0.00000000E+00  0.00000000E+00  0.00000000E+00
  0.00000000E+00  0.00000000E+00  0.00000000E+00
  0.00000000E+00  0.00000000E+00  0.00000000E+00
