Amorphous Sb                            
   1.00000000000000     
    20.8656461905629627    0.0000000000000000    0.0000000000000000
     0.0000000000000000   20.8656461905629627    0.0000000000000000
     0.0000000000000000    0.0000000000000000   20.8656461905629627
   Ge   Te
   150   150
Direct
  0.2613365651552897  0.6927366526434326  0.5862723109178987
  0.9143160965495838  0.6512353167491014  0.0149822903892343
  0.1303630992020715  0.2307282321303745  0.9408911490990732
  0.3083893772290622  0.3205555278542747  0.7469368159650003
  0.4503779871671938  0.0694552555760808  0.8127894210183726
  0.0240046890250909  0.2908934304790876  0.1860228594331801
  0.0588057458040652  0.9326074096348620  0.5785617121210009
  0.0079864738614432  0.0430122243129318  0.9631540926527720
  0.8115176362004703  0.2025367697983995  0.5280656050355219
  0.9235061508614564  0.6184493636778754  0.8954191413984702
  0.5445464504214002  0.4486404265329043  0.8190826920040521
  0.1599635884310189  0.8648265761992988  0.5527933051962464
  0.7710904282945350  0.8405222252965956  0.3205064924392147
  0.2963573059790505  0.8135756555556881  0.1310414147101753
  0.3253556048557513  0.2654375713068120  0.3794015038264433
  0.4668187041834528  0.7349607748977220  0.7352647172619342
  0.8133848400292933  0.2997893721050389  0.7831613071767336
  0.0751027526434598  0.7246165526622548  0.6932349159503133
  0.7139636469214068  0.1014648983023037  0.3597495878825185
  0.9434767700920546  0.9584337056229302  0.2564082930638705
  0.5877014492999564  0.2414225984355767  0.1370140889841167
  0.6583338806895753  0.7403350395156423  0.6434964596855650
  0.2588476491959071  0.9005450174701082  0.6207944806861860
  0.2927413767938631  0.5319314604109024  0.6943588959529663
  0.3927882531566667  0.9056201731411235  0.8800139904234996
  0.2414078549445904  0.4621664127940264  0.2617232212824376
  0.0378287455191497  0.7793132510935337  0.9741741625689713
  0.8965420406085869  0.0420472447601341  0.4392498822592472
  0.5267090316150487  0.8943118411500066  0.6663289904986840
  0.1428331987904272  0.0088883400992685  0.1526765248676796
  0.4825149606479116  0.3414038082207611  0.5282575841821782
  0.0147484725995000  0.4539854178092355  0.1246431956627134
  0.3376765541389943  0.6137094631130608  0.9948218441775865
  0.9810928707150595  0.0771029500532805  0.5215466308947185
  0.2465746559407478  0.1528166526773944  0.0797984962010077
  0.4788227145206179  0.2691120935650062  0.8099600602203907
  0.7497119474189731  0.4846711830747523  0.5323549005009127
  0.0544218336348621  0.4962752708928448  0.9171593565348743
  0.1436608415675167  0.4321096516715102  0.7335476264000036
  0.9714537622356474  0.3044059613851218  0.5052157346308661
  0.2546494784434472  0.1363600985151407  0.7859764411319858
  0.1064602347253469  0.2237696078984186  0.7324649409384634
  0.1052406615504964  0.0133222040818808  0.6642769128057608
  0.7954288474447750  0.5923743980100511  0.6963967150873671
  0.7776240619149064  0.8324569552521055  0.8752122801129829
  0.4277794897050455  0.7912375150829618  0.9985653415905986
  0.4501892585136815  0.7612930552631241  0.5152576396802644
  0.1737534571100952  0.5447281043381977  0.0467664621143840
  0.4875466868615987  0.2784187774391285  0.9389032383046114
  0.1330642506072337  0.5344456239558895  0.2656619045945163
  0.1232155636536802  0.7201774943128925  0.1231492060607238
  0.2673273373065186  0.0165746359400103  0.7443707665497783
  0.2496445462230028  0.9527641146360182  0.9939490821458818
  0.0093839681208578  0.9866581855299117  0.7716783121708559
  0.3657634704757982  0.4303283102559092  0.0541899288806817
  0.4264355801461193  0.9110646441908159  0.0001091528708059
  0.0404531464885096  0.4756522904482594  0.3239291614456903
  0.9288795081842736  0.0602102526455397  0.3228765635912865
  0.5659624488675661  0.5008902791814549  0.5068667232287609
  0.7237107022924292  0.6843025560363856  0.9527224568476171
  0.6587660170011063  0.5042263118719177  0.8175178482633498
  0.6771543758638927  0.1026228971434691  0.5819011414243178
  0.5920043209808128  0.3291971897698787  0.6758735944431749
  0.0318650531963129  0.7459402193295830  0.4538992828373907
  0.7476964819068144  0.1971586793371713  0.0165986357896344
  0.8298038379948096  0.4334460778962708  0.8047337472057166
  0.3384250183910140  0.9244009328376279  0.0866348826242103
  0.9531919908139557  0.5736621979940608  0.6082981515876398
  0.8440901225166186  0.9338602793882913  0.8808299455773749
  0.8968880659398124  0.2620316840749624  0.6006425915155731
  0.9349631877127749  0.9022338968212225  0.5827830865719363
  0.1737638670843324  0.3400270591280687  0.5627186465859921
  0.5530579120197814  0.0111879400908350  0.2983056695039608
  0.1087732489972097  0.2973668168192134  0.8387718153815058
  0.9473534724678103  0.7840720677920245  0.5407202830333020
  0.3664500678785529  0.4054758321106817  0.2488434831922248
  0.8471905776437083  0.7598020514966777  0.8039089980850704
  0.9976855458790297  0.3015297023526458  0.0169664349644023
  0.2969216497285245  0.5106238226445612  0.5124234829515757
  0.3742829327315818  0.5722067303438365  0.1553949946593036
  0.6694095282539223  0.8175861408748446  0.2497710115240466
  0.2289661022699434  0.9464802029210375  0.3744230708786702
  0.7866882046957500  0.0142804862174160  0.8068616318620272
  0.4096424220399868  0.2538870810837395  0.0314206521100502
  0.1601134696579365  0.2054386523909102  0.2348014471362774
  0.9196230241399874  0.7007571218392386  0.1267399209870845
  0.7377672522223193  0.8458312023739794  0.5233618509793629
  0.1739380658135161  0.7701268924613700  0.8943726271368462
  0.7570612863336308  0.0132150760936085  0.5478314370752528
  0.3138241086756892  0.0117961531556148  0.4430124214631661
  0.8878230328048033  0.0696293337149143  0.9621561448676914
  0.5521136450987854  0.1978844538714881  0.3566209574817805
  0.5386012014027060  0.1886426731025281  0.6520674016205277
  0.8488920790317565  0.1950518957605993  0.3864578946073252
  0.6103073084108388  0.9449583466921752  0.9141488610235271
  0.3980594416670300  0.1648597225503963  0.5286177315151974
  0.9432960861039277  0.4058387364175857  0.6937139977344629
  0.6812389773908336  0.9006145360749400  0.1554215921871105
  0.0387762372697651  0.1829248496313483  0.0075531511460696
  0.5662330040665751  0.1188529851429792  0.9486046199113360
  0.7697397675712239  0.9616509738211931  0.3461794995751788
  0.3242456429702969  0.8923089516794960  0.7676276778280027
  0.9507686657395666  0.0984402553200852  0.7361524942704349
  0.8624102375769382  0.1189129344517212  0.8484217699022594
  0.3299426986593801  0.7884838844497963  0.4811331004065096
  0.6812898667012846  0.7769853307323160  0.3993778662927312
  0.4966151396701690  0.5790501980936185  0.3080670784441324
  0.4053958876871135  0.8830725216388942  0.2813560589897932
  0.0282130293894980  0.1359011780168586  0.3076159130331035
  0.3917038621317701  0.6055903588196898  0.6261544766823519
  0.6212816215467853  0.0346918050191363  0.7224234752302863
  0.0929789478441378  0.2118470374281287  0.1237531362091460
  0.4684982156514153  0.7084794141677975  0.0789646881422641
  0.8295618782952943  0.0524710266780701  0.1260770479992601
  0.3419961274965004  0.0330877190543788  0.2679343636821585
  0.2514942544953698  0.1666229569782658  0.5079942995649773
  0.5402394870684333  0.9465983537543892  0.0205461073905724
  0.0337629225107889  0.3806761511974628  0.4074002713704132
  0.4989527385250128  0.7284160340435122  0.3262370720412804
  0.1239278829095767  0.2027888354795166  0.3772036212193655
  0.2328276420051054  0.8078340514685252  0.7893388797004377
  0.7922463970377223  0.0996514416210346  0.4591827888983318
  0.1832585889660763  0.6137470190164294  0.4426806424731282
  0.8032891440992884  0.6209714993270126  0.3706003763500121
  0.8549971933613634  0.2239186824010062  0.1975682794417750
  0.1791160303742174  0.3480232996347326  0.1426950194891674
  0.4225579897587721  0.2898905323250318  0.2415048600924194
  0.1985147078365870  0.2657518167288799  0.0437735716871757
  0.6795246036322666  0.3644045547338877  0.9539570217601820
  0.7140890434504641  0.8040354866122001  0.9775899670345325
  0.9461272979966182  0.0129226818245414  0.1465700251454294
  0.8996671467353039  0.8619029135879259  0.0651408886065141
  0.6745792495271559  0.0415244448749377  0.0779007090694606
  0.0211628864422977  0.8855656133046281  0.4292268499847438
  0.4982002714916689  0.3760200646152683  0.3992287344679610
  0.4043181665795359  0.1065774135369466  0.9237136039397029
  0.4068314821190882  0.1622957581685540  0.2407432009426884
  0.8395393625523440  0.7460273528300121  0.3590920853586894
  0.7842972975565843  0.8845153409804141  0.6317163233841825
  0.0901231713063524  0.3857124650804664  0.2253359110472744
  0.6376198196479876  0.7688842257001980  0.5235934556155755
  0.9003883255853538  0.4483410279578095  0.4002858778957545
  0.3852470502175933  0.5529989764012200  0.3559664283745150
  0.1344862028965466  0.9790324935855139  0.7887554638568659
  0.7837612293131002  0.4640513081253914  0.2589250044296563
  0.2025260148768950  0.5922123181531447  0.7593910923836873
  0.4325009040713752  0.4541492876108393  0.6840962782440059
  0.0545911584055574  0.6271778048733339  0.8601127424043966
  0.8433847052729959  0.9545412681078673  0.7141711702656650
  0.6836649620394297  0.3294057611255852  0.1548133315596658
  0.0514128970828835  0.6491279808647761  0.9988615946946453
  0.0428718336022982  0.0991515188741730  0.1741386509199998
  0.0525025213817969  0.7591666840508609  0.8392451707686632
  0.6342456020701448  0.6939474130047785  0.2265599477042528
  0.2147295275909471  0.3701441959632419  0.8285891690103853
  0.9213974010963923  0.2443127887857059  0.7273444573665770
  0.0840993801003123  0.3345171860409266  0.6592884427934180
  0.7921349313259114  0.6002941102806858  0.2401132573531939
  0.6628636245493027  0.5861804529636032  0.5218735457711077
  0.5647613252114141  0.4877319152959743  0.3767060867288095
  0.3698604795927309  0.5374738876746008  0.8366182828851834
  0.4133621992047907  0.9939647641623992  0.1655904963664767
  0.8717277143108433  0.1576574253639293  0.0543108776916839
  0.3310129584567889  0.6788988246899166  0.8807939819253221
  0.6087540458539564  0.5879816595475091  0.0828387729758830
  0.7625908116709113  0.2992480378755928  0.2587559811657556
  0.4566030308498767  0.7368555484254671  0.8870225921175035
  0.0843416125173206  0.5710967181289135  0.1510742217182539
  0.5428045447595125  0.0662358473000140  0.0714566701099315
  0.5181815441031361  0.6786210010416127  0.4456186467675494
  0.3511772707006884  0.9135245349218692  0.5212224141400057
  0.0239614033423550  0.6127479414805208  0.4847636880695489
  0.9658751839353457  0.7603403487836502  0.3381464461949761
  0.4026168199522218  0.4021411370724195  0.8146225779101215
  0.0474429788675366  0.8908751193104507  0.2985928950866850
  0.5478698940567810  0.1515025097024179  0.7919109680057943
  0.4054157146449739  0.1770852013201036  0.6645714493522874
  0.6181765586419132  0.6109953014702896  0.9480768593419029
  0.5983746438196533  0.4248999706139642  0.0400487223448991
  0.5367901159229120  0.1343980586623132  0.2366990045397159
  0.6346859137385863  0.6310018688880419  0.8029781466425661
  0.2294945958546251  0.1004953643471111  0.1965090998341523
  0.5964039712041114  0.7280973898070044  0.0918163836187489
  0.2483484222778429  0.1546271288198184  0.3731032979658053
  0.6990154511730324  0.9159266282356029  0.8098055975990945
  0.2994295630436739  0.7974328664029642  0.9993728941013273
  0.7685050794769381  0.2075297296994805  0.8644562152967197
  0.1710884077125172  0.8466267172403761  0.1201744513029794
  0.1353897353667151  0.7379383361474794  0.5676274175451681
  0.2454172249844433  0.4582776998766747  0.1270594480081044
  0.5556346778531918  0.8765135136510480  0.1273505475706855
  0.9708854132392446  0.1993131305492639  0.8780317729068585
  0.0968495185354641  0.4425630339684190  0.5063825222170024
  0.6990138754964619  0.2347443152586663  0.3752400049372540
  0.7817850453144075  0.7620206467188169  0.6810807170917812
  0.4623748836240509  0.5911137837141567  0.0285472790113843
  0.1741807833771247  0.0589726861262108  0.0246360239903822
  0.2789995619367218  0.9125368777859606  0.2606366442100949
  0.9184677305504749  0.5331251688565857  0.7370583421170380
  0.0355525431480359  0.4064624064520501  0.8196098668855427
  0.8277330990299419  0.1035416059528131  0.2525875750410336
  0.6717327446644390  0.6518243194514355  0.3621885101286040
  0.2094762387512148  0.5702929550708973  0.5930305453045221
  0.2655125987782014  0.2792804976747050  0.2092798450012197
  0.4675839418982406  0.4911344901062833  0.2146598514957816
  0.7507582021790711  0.4760044538618331  0.9058076011873055
  0.6905235664824545  0.9475324709300565  0.4542474773982832
  0.1300190727447230  0.2200456146337757  0.5121812490142972
  0.7367380775839933  0.2852819773670419  0.6792995904780454
  0.4177445630617953  0.1707256037968392  0.3723740311481905
  0.2705678762592285  0.7001353710838316  0.7204653066240070
  0.2931958987108558  0.4979124766399252  0.9612946344787971
  0.3997441942017659  0.8343716217918384  0.6777131374732477
  0.5940663237262740  0.0696681699883044  0.4088290472911211
  0.9228146423631998  0.4903403587501387  0.9320109778860228
  0.2255297538197567  0.0289272454493528  0.6150291193523714
  0.1800994064957706  0.8393351317208726  0.4253371394052792
  0.3229152375107915  0.6234687217807036  0.4484046935261006
  0.7137667969315871  0.1269533405341932  0.7023060140661954
  0.8275268859067282  0.3714969939541888  0.6192216360280725
  0.7772703238449452  0.6422290345961414  0.0613895423388371
  0.4579678075869111  0.5827177411738376  0.7405540401385267
  0.6821257716511724  0.2222793783879595  0.5246426825942692
  0.9099189218472148  0.3090065802236452  0.9246172120356562
  0.9770877680682659  0.1813047874099638  0.4426981361820452
  0.6112328103687190  0.3826327137341181  0.5309813191185597
  0.1401571371002035  0.8672362283399124  0.7191897714402913
  0.9258217402164846  0.3359827840470970  0.1177008765831289
  0.1296336296900407  0.0060649793784435  0.3084808825343401
  0.4659589188926887  0.3221329657014351  0.1236404273267624
  0.9128493561357374  0.5211560434160560  0.0691369371753368
  0.7008284215455589  0.1581043387534393  0.1358481604739126
  0.0778572828732962  0.0034931519926573  0.4712041179856428
  0.6518040051416705  0.6124856518579023  0.6633426936703728
  0.3092953847608442  0.3245180828556542  0.9940607428660684
  0.8861024597399023  0.0464244232632467  0.6362096399425710
  0.0121064562255597  0.9507221757777842  0.0571862536158321
  0.7707596282711933  0.4795576664627248  0.3966436188747267
  0.5198590288664349  0.2165847154583389  0.5111725488408112
  0.6910955180975833  0.0742405552281511  0.9474252904898250
  0.2490565718442213  0.6462023931240708  0.0833569064523232
  0.9503015465677862  0.7093693119204616  0.6475743113783068
  0.5995462884432854  0.3286225840666077  0.8144676446966628
  0.5554575331395952  0.0639089542467275  0.6076014596878423
  0.3418538783705358  0.2006926936991604  0.8556231627514279
  0.3762676018429829  0.7769196655474175  0.3574398437973301
  0.1454263334069950  0.1305828475208486  0.8548992027388991
  0.4131535014606129  0.6937521633675914  0.1906306326082117
  0.5408920761095288  0.3193421428998846  0.2868657969172475
  0.0461380777023876  0.1328072349716010  0.6452986836909247
  0.1707572489824187  0.7533862509251250  0.2405459318669756
  0.0795987969998890  0.4069403214794889  0.0157304096444690
  0.9579580860528694  0.4378395778205046  0.5607535663101828
  0.5658174567826606  0.4592677709223452  0.6871199774995205
  0.3747844387524708  0.1359474471107234  0.0681410123940864
  0.9244676608299898  0.5952012886302143  0.2030531527920374
  0.4882786348762309  0.4072179423211750  0.9600583451021052
  0.4412994838180779  0.5055822883401078  0.5480827650893119
  0.9269402652633687  0.4373683169159150  0.2682679719047485
  0.8005039683813067  0.6448990862898683  0.8513358226569494
  0.0809321594715939  0.5937595580717314  0.7182135341801086
  0.3746704118024127  0.4233081392236357  0.3784276719851221
  0.8468955030849514  0.3097829226208972  0.4542196808043855
  0.6657497945709210  0.9378621473544442  0.6376069536372526
  0.5401732724379471  0.8550096586944207  0.5360682997061303
  0.5801822486236361  0.8398661460521524  0.3435296246717314
  0.4193794585630712  0.9825358089647054  0.3675763767585067
  0.8442022791850761  0.8877996342885837  0.2149064448977640
  0.1874830560418204  0.6166437827040667  0.8837872813730456
  0.5963278170157764  0.2409293230231881  0.9988080960683590
  0.8912736470208813  0.9153896340218353  0.4386309369070247
  0.4938577098090278  0.6878368107605439  0.6129655588068488
  0.3146562996219586  0.0137566157514968  0.8940965758881347
  0.5064612916071383  0.9502754621174176  0.8256773575243841
  0.1368195705954633  0.3304506910283393  0.3396854740226587
  0.0048729369566303  0.7907957983868528  0.1386817740134632
  0.8055969104051641  0.7597761081311347  0.1273237394881122
  0.7386506857451280  0.4732757095433584  0.7157202809789567
  0.2279674490098813  0.2175612492803012  0.6882125357036557
  0.9758185715966050  0.9375153556582987  0.8870450946770916
  0.9508901061924959  0.8806658463571821  0.7194952832469639
  0.4526135875340032  0.3179889431182659  0.6612090938630715
  0.5963495754755499  0.8143601323400489  0.9231197670052893
  0.2025028688659489  0.4845134422897743  0.4172943784436711
  0.6811245400162917  0.4563510533643935  0.1794102757306177
  0.9559821695597890  0.2467533852366088  0.2852563220159965
  0.9591147576853629  0.5696482129493532  0.3754618241373393
  0.2968206901056760  0.5819626066974877  0.2671870508165100
  0.1248733610928170  0.6512051304373969  0.3254659269239539
  0.2717242459083522  0.4086951740530509  0.6526506733177513
  0.8273567253606871  0.7532398122245070  0.4903691078486432
  0.9048495941055066  0.7795764600289274  0.9589087534187613
  0.7652532450082958  0.3286389426277978  0.0508153254907882
  0.8181183975691511  0.9653320159657426  0.0034151030887841
  0.8278177071776724  0.5879288247459087  0.5650849960184843
  0.3293631506208996  0.2772431425526776  0.5139322372440844
  0.3959916255537905  0.0379740259593007  0.6966749177594238
  0.1551961745171440  0.9067848957676219  0.9121512469816793
  0.5881070840023384  0.7969219853916059  0.7357489662256000
  0.6775662190937766  0.9960477063976825  0.2472670825016721
 
  0.00000000E+00  0.00000000E+00  0.00000000E+00
  0.00000000E+00  0.00000000E+00  0.00000000E+00
  0.00000000E+00  0.00000000E+00  0.00000000E+00
  0.00000000E+00  0.00000000E+00  0.00000000E+00
  0.00000000E+00  0.00000000E+00  0.00000000E+00
  0.00000000E+00  0.00000000E+00  0.00000000E+00
  0.00000000E+00  0.00000000E+00  0.00000000E+00
  0.00000000E+00  0.00000000E+00  0.00000000E+00
  0.00000000E+00  0.00000000E+00  0.00000000E+00
  0.00000000E+00  0.00000000E+00  0.00000000E+00
  0.00000000E+00  0.00000000E+00  0.00000000E+00
  0.00000000E+00  0.00000000E+00  0.00000000E+00
  0.00000000E+00  0.00000000E+00  0.00000000E+00
  0.00000000E+00  0.00000000E+00  0.00000000E+00
  0.00000000E+00  0.00000000E+00  0.00000000E+00
  0.00000000E+00  0.00000000E+00  0.00000000E+00
  0.00000000E+00  0.00000000E+00  0.00000000E+00
  0.00000000E+00  0.00000000E+00  0.00000000E+00
  0.00000000E+00  0.00000000E+00  0.00000000E+00
  0.00000000E+00  0.00000000E+00  0.00000000E+00
  0.00000000E+00  0.00000000E+00  0.00000000E+00
  0.00000000E+00  0.00000000E+00  0.00000000E+00
  0.00000000E+00  0.00000000E+00  0.00000000E+00
  0.00000000E+00  0.00000000E+00  0.00000000E+00
  0.00000000E+00  0.00000000E+00  0.00000000E+00
  0.00000000E+00  0.00000000E+00  0.00000000E+00
  0.00000000E+00  0.00000000E+00  0.00000000E+00
  0.00000000E+00  0.00000000E+00  0.00000000E+00
  0.00000000E+00  0.00000000E+00  0.00000000E+00
  0.00000000E+00  0.00000000E+00  0.00000000E+00
  0.00000000E+00  0.00000000E+00  0.00000000E+00
  0.00000000E+00  0.00000000E+00  0.00000000E+00
  0.00000000E+00  0.00000000E+00  0.00000000E+00
  0.00000000E+00  0.00000000E+00  0.00000000E+00
  0.00000000E+00  0.00000000E+00  0.00000000E+00
  0.00000000E+00  0.00000000E+00  0.00000000E+00
  0.00000000E+00  0.00000000E+00  0.00000000E+00
  0.00000000E+00  0.00000000E+00  0.00000000E+00
  0.00000000E+00  0.00000000E+00  0.00000000E+00
  0.00000000E+00  0.00000000E+00  0.00000000E+00
  0.00000000E+00  0.00000000E+00  0.00000000E+00
  0.00000000E+00  0.00000000E+00  0.00000000E+00
  0.00000000E+00  0.00000000E+00  0.00000000E+00
  0.00000000E+00  0.00000000E+00  0.00000000E+00
  0.00000000E+00  0.00000000E+00  0.00000000E+00
  0.00000000E+00  0.00000000E+00  0.00000000E+00
  0.00000000E+00  0.00000000E+00  0.00000000E+00
  0.00000000E+00  0.00000000E+00  0.00000000E+00
  0.00000000E+00  0.00000000E+00  0.00000000E+00
  0.00000000E+00  0.00000000E+00  0.00000000E+00
  0.00000000E+00  0.00000000E+00  0.00000000E+00
  0.00000000E+00  0.00000000E+00  0.00000000E+00
  0.00000000E+00  0.00000000E+00  0.00000000E+00
  0.00000000E+00  0.00000000E+00  0.00000000E+00
  0.00000000E+00  0.00000000E+00  0.00000000E+00
  0.00000000E+00  0.00000000E+00  0.00000000E+00
  0.00000000E+00  0.00000000E+00  0.00000000E+00
  0.00000000E+00  0.00000000E+00  0.00000000E+00
  0.00000000E+00  0.00000000E+00  0.00000000E+00
  0.00000000E+00  0.00000000E+00  0.00000000E+00
  0.00000000E+00  0.00000000E+00  0.00000000E+00
  0.00000000E+00  0.00000000E+00  0.00000000E+00
  0.00000000E+00  0.00000000E+00  0.00000000E+00
  0.00000000E+00  0.00000000E+00  0.00000000E+00
  0.00000000E+00  0.00000000E+00  0.00000000E+00
  0.00000000E+00  0.00000000E+00  0.00000000E+00
  0.00000000E+00  0.00000000E+00  0.00000000E+00
  0.00000000E+00  0.00000000E+00  0.00000000E+00
  0.00000000E+00  0.00000000E+00  0.00000000E+00
  0.00000000E+00  0.00000000E+00  0.00000000E+00
  0.00000000E+00  0.00000000E+00  0.00000000E+00
  0.00000000E+00  0.00000000E+00  0.00000000E+00
  0.00000000E+00  0.00000000E+00  0.00000000E+00
  0.00000000E+00  0.00000000E+00  0.00000000E+00
  0.00000000E+00  0.00000000E+00  0.00000000E+00
  0.00000000E+00  0.00000000E+00  0.00000000E+00
  0.00000000E+00  0.00000000E+00  0.00000000E+00
  0.00000000E+00  0.00000000E+00  0.00000000E+00
  0.00000000E+00  0.00000000E+00  0.00000000E+00
  0.00000000E+00  0.00000000E+00  0.00000000E+00
  0.00000000E+00  0.00000000E+00  0.00000000E+00
  0.00000000E+00  0.00000000E+00  0.00000000E+00
  0.00000000E+00  0.00000000E+00  0.00000000E+00
  0.00000000E+00  0.00000000E+00  0.00000000E+00
  0.00000000E+00  0.00000000E+00  0.00000000E+00
  0.00000000E+00  0.00000000E+00  0.00000000E+00
  0.00000000E+00  0.00000000E+00  0.00000000E+00
  0.00000000E+00  0.00000000E+00  0.00000000E+00
  0.00000000E+00  0.00000000E+00  0.00000000E+00
  0.00000000E+00  0.00000000E+00  0.00000000E+00
  0.00000000E+00  0.00000000E+00  0.00000000E+00
  0.00000000E+00  0.00000000E+00  0.00000000E+00
  0.00000000E+00  0.00000000E+00  0.00000000E+00
  0.00000000E+00  0.00000000E+00  0.00000000E+00
  0.00000000E+00  0.00000000E+00  0.00000000E+00
  0.00000000E+00  0.00000000E+00  0.00000000E+00
  0.00000000E+00  0.00000000E+00  0.00000000E+00
  0.00000000E+00  0.00000000E+00  0.00000000E+00
  0.00000000E+00  0.00000000E+00  0.00000000E+00
  0.00000000E+00  0.00000000E+00  0.00000000E+00
  0.00000000E+00  0.00000000E+00  0.00000000E+00
  0.00000000E+00  0.00000000E+00  0.00000000E+00
  0.00000000E+00  0.00000000E+00  0.00000000E+00
  0.00000000E+00  0.00000000E+00  0.00000000E+00
  0.00000000E+00  0.00000000E+00  0.00000000E+00
  0.00000000E+00  0.00000000E+00  0.00000000E+00
  0.00000000E+00  0.00000000E+00  0.00000000E+00
  0.00000000E+00  0.00000000E+00  0.00000000E+00
  0.00000000E+00  0.00000000E+00  0.00000000E+00
  0.00000000E+00  0.00000000E+00  0.00000000E+00
  0.00000000E+00  0.00000000E+00  0.00000000E+00
  0.00000000E+00  0.00000000E+00  0.00000000E+00
  0.00000000E+00  0.00000000E+00  0.00000000E+00
  0.00000000E+00  0.00000000E+00  0.00000000E+00
  0.00000000E+00  0.00000000E+00  0.00000000E+00
  0.00000000E+00  0.00000000E+00  0.00000000E+00
  0.00000000E+00  0.00000000E+00  0.00000000E+00
  0.00000000E+00  0.00000000E+00  0.00000000E+00
  0.00000000E+00  0.00000000E+00  0.00000000E+00
  0.00000000E+00  0.00000000E+00  0.00000000E+00
  0.00000000E+00  0.00000000E+00  0.00000000E+00
  0.00000000E+00  0.00000000E+00  0.00000000E+00
  0.00000000E+00  0.00000000E+00  0.00000000E+00
  0.00000000E+00  0.00000000E+00  0.00000000E+00
  0.00000000E+00  0.00000000E+00  0.00000000E+00
  0.00000000E+00  0.00000000E+00  0.00000000E+00
  0.00000000E+00  0.00000000E+00  0.00000000E+00
  0.00000000E+00  0.00000000E+00  0.00000000E+00
  0.00000000E+00  0.00000000E+00  0.00000000E+00
  0.00000000E+00  0.00000000E+00  0.00000000E+00
  0.00000000E+00  0.00000000E+00  0.00000000E+00
  0.00000000E+00  0.00000000E+00  0.00000000E+00
  0.00000000E+00  0.00000000E+00  0.00000000E+00
  0.00000000E+00  0.00000000E+00  0.00000000E+00
  0.00000000E+00  0.00000000E+00  0.00000000E+00
  0.00000000E+00  0.00000000E+00  0.00000000E+00
  0.00000000E+00  0.00000000E+00  0.00000000E+00
  0.00000000E+00  0.00000000E+00  0.00000000E+00
  0.00000000E+00  0.00000000E+00  0.00000000E+00
  0.00000000E+00  0.00000000E+00  0.00000000E+00
  0.00000000E+00  0.00000000E+00  0.00000000E+00
  0.00000000E+00  0.00000000E+00  0.00000000E+00
  0.00000000E+00  0.00000000E+00  0.00000000E+00
  0.00000000E+00  0.00000000E+00  0.00000000E+00
  0.00000000E+00  0.00000000E+00  0.00000000E+00
  0.00000000E+00  0.00000000E+00  0.00000000E+00
  0.00000000E+00  0.00000000E+00  0.00000000E+00
  0.00000000E+00  0.00000000E+00  0.00000000E+00
  0.00000000E+00  0.00000000E+00  0.00000000E+00
  0.00000000E+00  0.00000000E+00  0.00000000E+00
  0.00000000E+00  0.00000000E+00  0.00000000E+00
  0.00000000E+00  0.00000000E+00  0.00000000E+00
  0.00000000E+00  0.00000000E+00  0.00000000E+00
  0.00000000E+00  0.00000000E+00  0.00000000E+00
  0.00000000E+00  0.00000000E+00  0.00000000E+00
  0.00000000E+00  0.00000000E+00  0.00000000E+00
  0.00000000E+00  0.00000000E+00  0.00000000E+00
  0.00000000E+00  0.00000000E+00  0.00000000E+00
  0.00000000E+00  0.00000000E+00  0.00000000E+00
  0.00000000E+00  0.00000000E+00  0.00000000E+00
  0.00000000E+00  0.00000000E+00  0.00000000E+00
  0.00000000E+00  0.00000000E+00  0.00000000E+00
  0.00000000E+00  0.00000000E+00  0.00000000E+00
  0.00000000E+00  0.00000000E+00  0.00000000E+00
  0.00000000E+00  0.00000000E+00  0.00000000E+00
  0.00000000E+00  0.00000000E+00  0.00000000E+00
  0.00000000E+00  0.00000000E+00  0.00000000E+00
  0.00000000E+00  0.00000000E+00  0.00000000E+00
  0.00000000E+00  0.00000000E+00  0.00000000E+00
  0.00000000E+00  0.00000000E+00  0.00000000E+00
  0.00000000E+00  0.00000000E+00  0.00000000E+00
  0.00000000E+00  0.00000000E+00  0.00000000E+00
  0.00000000E+00  0.00000000E+00  0.00000000E+00
  0.00000000E+00  0.00000000E+00  0.00000000E+00
  0.00000000E+00  0.00000000E+00  0.00000000E+00
  0.00000000E+00  0.00000000E+00  0.00000000E+00
  0.00000000E+00  0.00000000E+00  0.00000000E+00
  0.00000000E+00  0.00000000E+00  0.00000000E+00
  0.00000000E+00  0.00000000E+00  0.00000000E+00
  0.00000000E+00  0.00000000E+00  0.00000000E+00
  0.00000000E+00  0.00000000E+00  0.00000000E+00
  0.00000000E+00  0.00000000E+00  0.00000000E+00
  0.00000000E+00  0.00000000E+00  0.00000000E+00
  0.00000000E+00  0.00000000E+00  0.00000000E+00
  0.00000000E+00  0.00000000E+00  0.00000000E+00
  0.00000000E+00  0.00000000E+00  0.00000000E+00
  0.00000000E+00  0.00000000E+00  0.00000000E+00
  0.00000000E+00  0.00000000E+00  0.00000000E+00
  0.00000000E+00  0.00000000E+00  0.00000000E+00
  0.00000000E+00  0.00000000E+00  0.00000000E+00
  0.00000000E+00  0.00000000E+00  0.00000000E+00
  0.00000000E+00  0.00000000E+00  0.00000000E+00
  0.00000000E+00  0.00000000E+00  0.00000000E+00
  0.00000000E+00  0.00000000E+00  0.00000000E+00
  0.00000000E+00  0.00000000E+00  0.00000000E+00
  0.00000000E+00  0.00000000E+00  0.00000000E+00
  0.00000000E+00  0.00000000E+00  0.00000000E+00
  0.00000000E+00  0.00000000E+00  0.00000000E+00
  0.00000000E+00  0.00000000E+00  0.00000000E+00
  0.00000000E+00  0.00000000E+00  0.00000000E+00
  0.00000000E+00  0.00000000E+00  0.00000000E+00
  0.00000000E+00  0.00000000E+00  0.00000000E+00
  0.00000000E+00  0.00000000E+00  0.00000000E+00
  0.00000000E+00  0.00000000E+00  0.00000000E+00
  0.00000000E+00  0.00000000E+00  0.00000000E+00
  0.00000000E+00  0.00000000E+00  0.00000000E+00
  0.00000000E+00  0.00000000E+00  0.00000000E+00
  0.00000000E+00  0.00000000E+00  0.00000000E+00
  0.00000000E+00  0.00000000E+00  0.00000000E+00
  0.00000000E+00  0.00000000E+00  0.00000000E+00
  0.00000000E+00  0.00000000E+00  0.00000000E+00
  0.00000000E+00  0.00000000E+00  0.00000000E+00
  0.00000000E+00  0.00000000E+00  0.00000000E+00
  0.00000000E+00  0.00000000E+00  0.00000000E+00
  0.00000000E+00  0.00000000E+00  0.00000000E+00
  0.00000000E+00  0.00000000E+00  0.00000000E+00
  0.00000000E+00  0.00000000E+00  0.00000000E+00
  0.00000000E+00  0.00000000E+00  0.00000000E+00
  0.00000000E+00  0.00000000E+00  0.00000000E+00
  0.00000000E+00  0.00000000E+00  0.00000000E+00
  0.00000000E+00  0.00000000E+00  0.00000000E+00
  0.00000000E+00  0.00000000E+00  0.00000000E+00
  0.00000000E+00  0.00000000E+00  0.00000000E+00
  0.00000000E+00  0.00000000E+00  0.00000000E+00
  0.00000000E+00  0.00000000E+00  0.00000000E+00
  0.00000000E+00  0.00000000E+00  0.00000000E+00
  0.00000000E+00  0.00000000E+00  0.00000000E+00
  0.00000000E+00  0.00000000E+00  0.00000000E+00
  0.00000000E+00  0.00000000E+00  0.00000000E+00
  0.00000000E+00  0.00000000E+00  0.00000000E+00
  0.00000000E+00  0.00000000E+00  0.00000000E+00
  0.00000000E+00  0.00000000E+00  0.00000000E+00