Amorphous Sb                            
   1.00000000000000     
    18.8999996185000008    0.0000000000000000    0.0000000000000000
     0.0000000000000000   18.8999996185000008    0.0000000000000000
     0.0000000000000000    0.0000000000000000   18.8999996185000008
   Si   Ge
   150   150
Direct
  0.1515682699644708  0.2065630246228850  0.5069868982712922
  0.1708396627648180  0.5831563890677437  0.7437241244718809
  0.0148328638082766  0.9189336814335383  0.6535247040238497
  0.2662344885237878 -0.0073548048196573  0.3765906133937039
  0.4442485579419272  0.1824067975441037  0.0857695758942980
  0.9868574606272215  0.8849054675186686  0.5347449060824538
  0.1953663407913017  0.4981591196234350  0.5455921390395988
  0.5182946803770250  0.3351733924509326  0.3941441491736841
  0.5071476570290864  0.4652242386625464  0.0534664350513777
  0.6677917325895094  0.9335114952034721  0.6803446758049499
  0.5119984775774249  0.9500087797339751  0.8409714627934739
  0.3006966741679258 -0.0019598339819614  0.1633321251705337
  0.5632583654261685  0.7596177112920276  0.7772355459649077
  0.9611195524245532  0.3457957042782118  0.8366236375425763
  0.4215136268460339  0.1510754139958897  0.7467043534502242
  0.4286840919252768  0.3352917425905550  0.7898861119529459
  0.7868892026520304  0.2797825566949230  0.8964027973282565
  0.8267579740366778  0.3508711816680130  0.1503872700766840
  0.0535603869883922  0.1367149471892521  0.3510628385252957
  0.0531602420726911  0.8359405135973517  0.1807340740966987
  0.9047625995163278  0.3004126204893631  0.7321962250959073
  0.1493987154447769  0.3843894627885988  0.5667563208341684
  0.2276374784097986  0.7413997122253674  0.7324836355474562
  0.4659715486558002  0.5298074268210490  0.7783896022369012
  0.6070421753867912  0.5395456673277905  0.9190624039288533
  0.4462146629629588 -0.0043032320665525  0.3408767097172943
  0.9551410779077607  0.3557723283628590  0.1286778228647518
  0.0890802352458708  0.4624206977629585  0.9572227394190741
  0.3890559377247365  0.0537672430794918  0.2365407720032926
 -0.0087858942805674  0.7184028538029618  0.7217200447378714
  0.4233396245887295  0.4031178338621346  0.1227843416230191
  0.3863243762980403  0.3758791735407726  0.6781677706203507
  0.8391770946539341  0.0296466564926257  0.7496126078702754
  0.2589005988480264  0.4986745968034241  0.0351640468488070
  0.8142899590160750  0.3572042579255531  0.2775741037591043
  0.3886889623389223  0.6258477313762510  0.7544705461037152
  0.4152514829276551  0.4768901999885193  0.2256502087279147
  0.3452875142880566  0.2390905504469787  0.8015737243592252
  0.9862383770469740  0.1258930556464853  0.7402645927108682
  0.5883010754259292  0.1188354401414166  0.2188793107595457
  0.2517726928123750  0.7935266803728183  0.9632861844981578
  0.2014652083908093  0.1039452388660995  0.8855435199428697
  0.4721712751465503  0.8558498942468400  0.9202831710305135
  0.7053661886323961  0.6511101271620341  0.3041556648632798
  0.5439722186298246  0.2904898402039738  0.7956571709076780
  0.3086271334232229  0.1690694704954232  0.9052051060187143
  0.3345050419296141  0.2846560991475569  0.4940873454585385
  0.4704891495761778  0.2196317568202603  0.3725986770786599
  0.2146931053632075  0.0185122663698442  0.9753892295727995
  0.1436958452627751  0.7936854690576924  0.8995783886124222
  0.3748057973878866  0.1757567182364170  0.4436282604024086
  0.1120715361438599  0.8833235404140879  0.8205252625340324
  0.7646793939044232  0.0647940866239246  0.4141153943059798
  0.6325254340652462  0.2120837169073247  0.1452892725712245
  0.1760931276986362  0.0078306653525989  0.2012319759929375
  0.8504335527239296  0.6920413021093004  0.3674075333522979
  0.0685127880128265  0.7952763100126105  0.4983824422720093
  0.1816992958139760  0.2756759791548833  0.3119521673957478
  0.7690748582034703  0.7136522066099656  0.9447425393558839
  0.0411491720838953  0.2860559709604759  0.1871385917536447
  0.0484126262555871  0.7505689404878905  0.0870621519770109
  0.5685807937404571  0.7719118475189874  0.9080694339810660
  0.6344676403009444  0.0880149001868560  0.7525861672048594
  0.6205033163089930  0.6599140211032571  0.5196214994593594
  0.6289483352972896  0.9684730075981319  0.7952139426682063
  0.7637649553584538  0.8735170740661052  0.3143865689280251
  0.1117878901379328  0.6936843602621757  0.7429747960182567
  0.0432247831947965  0.0141682502321840  0.3644081967360888
  0.5681544709839473  0.8457949843518119  0.4368263276149197
  0.2274401276557892  0.6088831783628880  0.3763890345412125
  0.4247037340645913  0.4404294615824931  0.8594021588055126
  0.2520801046346704  0.4136667995201668  0.8428288352579472
  0.9398325884956563  0.8642724777901526  0.9577484416407107
  0.1371943759723237  0.6613332729611525  0.0902932797213845
  0.1243968487222741  0.2822084466793539  0.0816443194788203
  0.8910200590941317  0.7465195805208477  0.9685442119253451
  0.7395280110069384  0.7568996163568652  0.3630388019445783
  0.1933767879146850  0.1197798004934036  0.5867092823724449
  0.9874438987166472  0.3242392199092965  0.3928008146774492
  0.0986262325697070  0.6828512289170257  0.8698392349001034
  0.3420799252324886  0.8913981876619420  0.1090534217190992
  0.9148945780081515  0.9765596653222235  0.0116078063491300
  0.1848592112555034  0.1462494124094726  0.7076877950786904
  0.8248794556844870  0.6396768298897354  0.2527133927304264
  0.5635587725311472  0.1820063962018728  0.0438013701976538
  0.8744432523276181  0.8908367489920936  0.3756512409678908
  0.3982132231993453  0.0230316744024023 -0.0062946377278703
  0.9666581889577561  0.1716726233372173  0.0442009999898170
  0.6719763969342804  0.5073892117380545  0.6114551912104760
  0.3438003089924509  0.7943130466896148  0.4191466398252033
  0.0822566885810194  0.9513645271166647  0.1394864652719458
  0.2277493088304212  0.2159205471638461  0.2080259375101947
  0.1794867852737123  0.6651276118890896  0.2095912561520440
  0.5611560243144609  0.5167965815605197  0.3766053802708017
  0.2894025368721955  0.8456809356189288  0.7612611239461424
  0.5479461572661586  0.3567017487278997  0.5155674348330487
  0.5921604895544447  0.5463922363793313  0.7938451488970465
  0.7541484767313448  0.1211302172551185  0.7228001231103177
  0.1979691214851018  0.6167868382645192  0.9054753939428091
  0.2042151622101614  0.4953573956171242  0.9236545196685915
  0.4009996679993797  0.5031702568507304  0.4580282215945257
  0.8949743639351422  0.4059528381282406  0.3675942897132270
  0.1740056704489827  0.8156019414099298  0.5687407765378831
  0.8148199649326092  0.9203379195480482  0.8091377497258019
  0.9293760422763202  0.6987022049347194  0.0787625800635240
  0.0266529714458578  0.9951218798929180  0.4874839253298551
  0.1673708028095196  0.1754925000240090  0.3870338201801570
  0.3214335503531684  0.1566309598165100  0.2629570215160103
  0.9655226846468110  0.2969711318567569  0.0206421186304992
  0.2008405611712519  0.9336137020724427  0.7475800495775944
  0.7008991469393882  0.1513747602867729  0.4782540496448595
  0.6028673168606722  0.3485754175743329  0.8888762255050152
  0.1404494007233985  0.9188003531339752  0.6374254975334889
  0.0715550067672213  0.3349945217777882  0.2982886560208740
  0.3722509066219764  0.0668534590230795  0.8629954005219754
  0.9344868530531154  0.8976953981253992  0.8387581453692857
  0.7403030339860299  0.7715322330353196  0.1277108027888086
  0.2767940931674454  0.8533402641900828  0.5077861739573648
  0.5304530609574799  0.9834918715973292  0.0934815999480096
  0.2687630277340062  0.2406604137477982  0.6990787142873068
  0.2132372565729975  0.3148367797278122  0.4896466597993723
  0.3915644817157939  0.8437733616878151  0.6919342519813757
  0.0670319495909877  0.2818674230035695  0.8647667733654677
  0.2981845987579586  0.0653024570490880  0.0573130930315252
  0.2265636630664142  0.3720631594278814  0.3774541566864446
  0.9347107422404030  0.0655469855917462  0.5375737826731244
  0.8521050046458077  0.7333500259027124  0.1717533063889258
  0.1841514187812482  0.3372229036532945  0.6824720545653411
  0.2814875102742928  0.1192207762881175  0.3734711519852139
  0.0120432469758787  0.8443108021531039  0.7529946521737764
  0.6897152216059536  0.6309907759996104  0.6232006532944606
  0.4811493498276124  0.0818135400351877  0.1571040584527690
  0.3250393574978912  0.1847883701101806  0.0322693710979478
  0.3610548530473410  0.2689702489629307  0.6171244590616595
  0.0772368180408612  0.3381931046161714  0.9809800773183974
  0.2937730672288792  0.6143087269324664  0.1935893569316428
  0.2744242647965596  0.4181323382918545  0.7193070203470830
  0.4434125043734579  0.9149629727340947  0.0334295091583008
  0.1543906670111427  0.9712826648022538  0.3185280349084359
  0.2978868020191597  0.7070629042931853  0.3397641782727489
  0.2361685997754381  0.0524210011398943  0.7748123109717869
  0.5697502592776539  0.9486049443175957  0.3485614768515903
  0.6868842266609668  0.0391186096436949  0.2167612879299600
  0.5266445914394079  0.4430830343969696  0.9312331947859709
  0.1154343879574293  0.2455940869583521  0.7492611673670622
  0.6511845051589668  0.4588554861058781  0.7227019199280771
  0.7979147569182177  0.8058066787127366  0.7566041315338012
  0.3499519253777618  0.0506531783542042  0.7164157886311502
  0.2550827477620601  0.9751805489603111  0.4987814782501582
  0.7235413929940178  0.3836314406198217  0.8697778413282533
  0.2479602600843338  0.7116040693987578  0.6077466009636178
  0.0060305497921864  0.2373871515871407  0.6822922015818956
  0.8624893994725779  0.1190325623704122  0.3446726991710732
  0.5553526441722949  0.4828339407116611  0.5589803777652093
  0.2858412178875760  0.5588214702082128  0.4774923829076217
  0.8590926652943096  0.8846571729591979  0.5038779355994181
  0.6166202921662107  0.3305048484390429  0.3114598106158901
  0.9385352988677820  0.4389023170322227  0.5786354613369096
  0.8114615431448072  0.6672758285032085  0.5812087635602726
  0.3085843000682568  0.0590801392226898  0.5880097100920385
  0.9299588250949306  0.8250160964528296  0.2223638712665048
  0.3937720789369374  0.2587378290956136  0.2799792053259895
  0.3195496927671965  0.3861344153610696  0.0512774458697948
  0.7935593839214019  0.9967436135155474  0.0541431638782025
  0.7062379529730128  0.4258714600764815  0.2886276726118759
  0.3426550098512349  0.3537460938858308  0.9169008471337440
  0.4988567412015099  0.6966291472795826  0.3536959888659909
  0.7630497714409242  0.2575550410617132  0.4379135312870554
  0.3903716715912578  0.6912968535186121  0.2493252662095602
  0.5740919144381400  0.8352514869839871  0.6669502549636396
  0.4179722989714160  0.3904311525063345  0.5298758945187384
  0.6682002872793124  0.7702219254576225  0.4677740340099376
  0.8550180999803938  0.4719020562119870  0.4789444548779595
  0.6747247824391178  0.4672731367747097  0.4071346175538867
  0.7728631096396962  0.7926534303312445  0.5467662971719728
  0.5825166966967359  0.3502048043782620  0.6902523981800244
  0.5821662734199219  0.2569259238571890  0.5932327656458051
  0.9054218775733766  0.1906474062338112  0.5312774296835724
  0.6795768128076093  0.3554932982864245  0.4802832914694818
  0.7873453975855083  0.2260202695370810  0.2952740602273829
  0.4574399184765766  0.4830647035915948  0.6547772890929859
  0.4616767108917185  0.7825799388214351  0.4831913503407946
  0.7546473485059398  0.6899511841656740  0.8126789027015032
  0.9401278580862035  0.5663943874006506  0.0806751879985359
  0.3529642598292102  0.6636401043022100  0.5335688591531490
  0.6649983563218513  0.2126593119022381  0.3394156127397897
  0.7575114400133546  0.4233929915535231  0.5622477035370197
  0.8029571794776542  0.9107903855294719  0.6616091013166835
  0.2266434825018888  0.8419758900997206  0.0790208818891895
  0.7218099803554633  0.4827623950147769  0.9530384671479611
  0.2874450158850264  0.4911149915297238  0.2256994976753962
  0.9547206274034140  0.1972667601637200  0.4072707665624242
  0.2709032809328058  0.6440503656389162  0.8049051188060314
  0.7423910207118865  0.4399563359313144  0.0819230808063590
  0.0305546838286095  0.2318389696283053  0.5529837613175143
  0.9232709829286904 -0.0031754124975695  0.3162343388768394
  0.6988247569270528  0.5964899650767578  0.4263979900598681
  0.6765559503844067  0.8285961599437651  0.2265763603005562
 -0.0053563512907131  0.4710041630091867  0.8668828208458680
  0.9414332959768752  0.6559611365823764  0.6196255784595968
  0.8797775800136783  0.5309997696948734  0.2008806409239171
  0.3439857711584275  0.8374494465612184  0.8819897933047980
  0.5775985642515334  0.6544525214249594  0.9842154157136107
  0.5832399517915545  0.9659759121153696  0.4878897737384794
  0.4747584229919294  0.5943556394328139  0.0630042493883456
  0.2420729300568109  0.6746206105852333  0.0103813746331251
  0.3626939303110185  0.5797943700028565  0.6379189493139118
  0.3333612774278826  0.5990779990488906  0.0694270012405585
  0.0287454477520426  0.3580224414059840  0.5185957690263561
  0.2029268040394683  0.4898389518178735  0.3263708478978620
  0.4758973232489634  0.5941553679820023  0.1988566730532223
  0.3588900644152956  0.8967865734689366  0.3356579916631147
  0.5829165716808798  0.6025052046434144  0.2808700271649141
  0.8117253040947227  0.5782696291043886  0.9335727239815491
  0.3126712322161183  0.9623043440481822  0.9130328435840703
  0.5757660922579309  0.3156305160260998  0.1886978764499895
  0.9602250844251516  0.0825773926949547  0.9452798305506876
  0.2039504160282359  0.4388629954541207  0.1335602629475030
  0.1412312514250224  0.1263657254532609  0.1676764141072184
  0.9622251909692274 -0.0068175777884594  0.1286546042374171
  0.3941824588146129  0.8703889227231024  0.5632023349538960
  0.7371455937722187  0.1956320067762976  0.9800365193415062
  0.6142489272838533  0.2202579858538687  0.9292906397933999
  0.6569800233191110  0.5132077506475210  0.1996313014798327
  0.4460528105399684  0.9827520484944893  0.4901429536310202
  0.9576264772356752  0.5064209946517003  0.3136190917606411
  0.9397242293996996  0.0293389565787898  0.6621779105731624
  0.0963436716781117  0.1617887326171814  0.0463123370649723
  0.5429806506249176  0.3193328438035273  0.0142827097686458
  0.1309559573853732  0.3832606281890193  0.8006598511994359
  0.7060963244799734  0.7978308693301067  0.6616239323248687
  0.5399167746044706  0.1587674520080100  0.8112307990350900
  0.7003996181340276  0.6703734688299409  0.0506852654930750
  0.8268403477706461  0.6054340471452441  0.4631366067359809
  0.7174270614491592  0.8831531591694970  0.0631907696122874
  0.6976949809992601  0.9849572503951599  0.3338255564350240
  0.5169539395139917  0.9559893441443276  0.6223299361038439
  0.6409631927973825  0.6590092326746301  0.7464192521181887
  0.5225433397466044  0.7268586763954614  0.5943792089633975
  0.2441780726617183  0.5257842165099337  0.6576091664351897
  0.7414836278324308  0.0993041937313435  0.5914739751795604
  0.1160563878904308  0.6845932134474361  0.6009671457343561
  0.1405292240024904  0.0100028877639611  0.5465129214379627
  0.5106758404189925  0.5802511424370965  0.4770918170753449
  0.5900326452901004  0.0602032407707512  0.0047054688065834
  0.6884340382602547  0.8273015311046533  0.9426112446333635
  0.7729790546066651  0.4507710126888780  0.7661266538690673
  0.4513878525678822  0.2861092263062746  0.1655095411629939
  0.3529922778933388  0.3479191709338405  0.3711853585548446
  0.8649460263634255  0.9412497692768038  0.2092224302212335
  0.4388986660159919  0.9556757939886928  0.7340160835138366
  0.0088385786422818  0.5365115333067143  0.6303833813907794
  0.0753341840267604  0.0371889643220937  0.7331023702025234
  0.6208431498452709  0.0484911358928126  0.6278412931621994
  0.7914081070938142  0.0921394454270164  0.1527771715298669
  0.0599950334118201  0.4501685339947832  0.1465489635195847
  0.8973190408660242  0.1127990303406561  0.8319874598948409
  0.9592393432195571  0.6019112602155621  0.7943223879810832
  0.0338689123270410  0.9847515048570140  0.8516064191335736
  0.0017103539928487  0.6828059925434190  0.5008071746494358
  0.8190540349017132  0.0118612971093994  0.5203170060074093
  0.0288619967239036  0.1633183981884914  0.2264832882820171
  0.2527693205508995  0.2778070095404341  0.0967913226987741
  0.4515203852656947  0.4442190891044379  0.3487762693921287
  0.8255977918042177  0.5724045822054395  0.8027517877119388
  0.1384503557953603  0.9312662179476605  0.0298546361420649
  0.9266318828632243  0.1160065274778248  0.1545343225629321
  0.6125328867277392  0.4175029522394537  0.1132648749247540
  0.1148013622317700  0.6532300161248762  0.3336983055227078
  0.0224302351626489  0.5844242486496809  0.4047601055222011
  0.4526278804437348  0.7317759557315344  0.7180205781602219
  0.8840921424870088  0.3502862436618457  0.9405832075534331
  0.0683321029114494  0.5044367171957015  0.7537271360725621
  0.7186286504134256  0.0578817674645992  0.9634870482128070
  0.0820223780263333  0.1516136474454138  0.9098924422567748
  0.6357185565941629  0.9382973703671775  0.1542693877281591
  0.0887356884944652  0.5663078204373238  0.5257541195924765
  0.9090225611785823  0.7577426734159473  0.8172635011212427
  0.0608532867819140  0.8330644911098820  0.9872398556429852
  0.5760928394499383  0.1089623569885645  0.4868692686238659
  0.7575158372522685  0.5670263244148711  0.1285496134380333
  0.9794771547115628  0.6519926202133337  0.9198278034166232
  0.2338827568398526  0.7760117961264914  0.2462617110179882
  0.0712237067567294  0.5487881351304003  0.0570352272679789
  0.4990510295851688  0.0622948074558770  0.9060487099196097
  0.7594381898057296  0.2208224561102221  0.1131199318517738
  0.9419470165624672  0.7841780127832683  0.3483474851877447
  0.9016959899393207  0.4891461683686065  0.9688623555200062
  0.1324398763602495  0.8492389568182447  0.2838564618579436
  0.4978321517980160  0.9089797101604935  0.2341665346572026
  0.0793054376374124  0.4618371001862794  0.2788622196615568
  0.4649266617449569  0.1946376668210214  0.6306275875584212
  0.0735374634001393  0.7756200697598118  0.3718564889994592
  0.8429118153524633  0.3921990087541850  0.6640059525339105
  0.7154696720160957  0.9467064078293483  0.8851381505702405
  0.3586195505894120  0.8226175433014447  0.2177232637680015
  0.5650878046748555  0.8092675655083382  0.3041589030446029
  0.8238246891354023  0.2153973475698245  0.7898757405090671
  0.5592646767427294  0.1280890741077019  0.3478121073664651
  0.4222382072083056  0.1059724255381790  0.5394968762401140
 
  0.00000000E+00  0.00000000E+00  0.00000000E+00
  0.00000000E+00  0.00000000E+00  0.00000000E+00
  0.00000000E+00  0.00000000E+00  0.00000000E+00
  0.00000000E+00  0.00000000E+00  0.00000000E+00
  0.00000000E+00  0.00000000E+00  0.00000000E+00
  0.00000000E+00  0.00000000E+00  0.00000000E+00
  0.00000000E+00  0.00000000E+00  0.00000000E+00
  0.00000000E+00  0.00000000E+00  0.00000000E+00
  0.00000000E+00  0.00000000E+00  0.00000000E+00
  0.00000000E+00  0.00000000E+00  0.00000000E+00
  0.00000000E+00  0.00000000E+00  0.00000000E+00
  0.00000000E+00  0.00000000E+00  0.00000000E+00
  0.00000000E+00  0.00000000E+00  0.00000000E+00
  0.00000000E+00  0.00000000E+00  0.00000000E+00
  0.00000000E+00  0.00000000E+00  0.00000000E+00
  0.00000000E+00  0.00000000E+00  0.00000000E+00
  0.00000000E+00  0.00000000E+00  0.00000000E+00
  0.00000000E+00  0.00000000E+00  0.00000000E+00
  0.00000000E+00  0.00000000E+00  0.00000000E+00
  0.00000000E+00  0.00000000E+00  0.00000000E+00
  0.00000000E+00  0.00000000E+00  0.00000000E+00
  0.00000000E+00  0.00000000E+00  0.00000000E+00
  0.00000000E+00  0.00000000E+00  0.00000000E+00
  0.00000000E+00  0.00000000E+00  0.00000000E+00
  0.00000000E+00  0.00000000E+00  0.00000000E+00
  0.00000000E+00  0.00000000E+00  0.00000000E+00
  0.00000000E+00  0.00000000E+00  0.00000000E+00
  0.00000000E+00  0.00000000E+00  0.00000000E+00
  0.00000000E+00  0.00000000E+00  0.00000000E+00
  0.00000000E+00  0.00000000E+00  0.00000000E+00
  0.00000000E+00  0.00000000E+00  0.00000000E+00
  0.00000000E+00  0.00000000E+00  0.00000000E+00
  0.00000000E+00  0.00000000E+00  0.00000000E+00
  0.00000000E+00  0.00000000E+00  0.00000000E+00
  0.00000000E+00  0.00000000E+00  0.00000000E+00
  0.00000000E+00  0.00000000E+00  0.00000000E+00
  0.00000000E+00  0.00000000E+00  0.00000000E+00
  0.00000000E+00  0.00000000E+00  0.00000000E+00
  0.00000000E+00  0.00000000E+00  0.00000000E+00
  0.00000000E+00  0.00000000E+00  0.00000000E+00
  0.00000000E+00  0.00000000E+00  0.00000000E+00
  0.00000000E+00  0.00000000E+00  0.00000000E+00
  0.00000000E+00  0.00000000E+00  0.00000000E+00
  0.00000000E+00  0.00000000E+00  0.00000000E+00
  0.00000000E+00  0.00000000E+00  0.00000000E+00
  0.00000000E+00  0.00000000E+00  0.00000000E+00
  0.00000000E+00  0.00000000E+00  0.00000000E+00
  0.00000000E+00  0.00000000E+00  0.00000000E+00
  0.00000000E+00  0.00000000E+00  0.00000000E+00
  0.00000000E+00  0.00000000E+00  0.00000000E+00
  0.00000000E+00  0.00000000E+00  0.00000000E+00
  0.00000000E+00  0.00000000E+00  0.00000000E+00
  0.00000000E+00  0.00000000E+00  0.00000000E+00
  0.00000000E+00  0.00000000E+00  0.00000000E+00
  0.00000000E+00  0.00000000E+00  0.00000000E+00
  0.00000000E+00  0.00000000E+00  0.00000000E+00
  0.00000000E+00  0.00000000E+00  0.00000000E+00
  0.00000000E+00  0.00000000E+00  0.00000000E+00
  0.00000000E+00  0.00000000E+00  0.00000000E+00
  0.00000000E+00  0.00000000E+00  0.00000000E+00
  0.00000000E+00  0.00000000E+00  0.00000000E+00
  0.00000000E+00  0.00000000E+00  0.00000000E+00
  0.00000000E+00  0.00000000E+00  0.00000000E+00
  0.00000000E+00  0.00000000E+00  0.00000000E+00
  0.00000000E+00  0.00000000E+00  0.00000000E+00
  0.00000000E+00  0.00000000E+00  0.00000000E+00
  0.00000000E+00  0.00000000E+00  0.00000000E+00
  0.00000000E+00  0.00000000E+00  0.00000000E+00
  0.00000000E+00  0.00000000E+00  0.00000000E+00
  0.00000000E+00  0.00000000E+00  0.00000000E+00
  0.00000000E+00  0.00000000E+00  0.00000000E+00
  0.00000000E+00  0.00000000E+00  0.00000000E+00
  0.00000000E+00  0.00000000E+00  0.00000000E+00
  0.00000000E+00  0.00000000E+00  0.00000000E+00
  0.00000000E+00  0.00000000E+00  0.00000000E+00
  0.00000000E+00  0.00000000E+00  0.00000000E+00
  0.00000000E+00  0.00000000E+00  0.00000000E+00
  0.00000000E+00  0.00000000E+00  0.00000000E+00
  0.00000000E+00  0.00000000E+00  0.00000000E+00
  0.00000000E+00  0.00000000E+00  0.00000000E+00
  0.00000000E+00  0.00000000E+00  0.00000000E+00
  0.00000000E+00  0.00000000E+00  0.00000000E+00
  0.00000000E+00  0.00000000E+00  0.00000000E+00
  0.00000000E+00  0.00000000E+00  0.00000000E+00
  0.00000000E+00  0.00000000E+00  0.00000000E+00
  0.00000000E+00  0.00000000E+00  0.00000000E+00
  0.00000000E+00  0.00000000E+00  0.00000000E+00
  0.00000000E+00  0.00000000E+00  0.00000000E+00
  0.00000000E+00  0.00000000E+00  0.00000000E+00
  0.00000000E+00  0.00000000E+00  0.00000000E+00
  0.00000000E+00  0.00000000E+00  0.00000000E+00
  0.00000000E+00  0.00000000E+00  0.00000000E+00
  0.00000000E+00  0.00000000E+00  0.00000000E+00
  0.00000000E+00  0.00000000E+00  0.00000000E+00
  0.00000000E+00  0.00000000E+00  0.00000000E+00
  0.00000000E+00  0.00000000E+00  0.00000000E+00
  0.00000000E+00  0.00000000E+00  0.00000000E+00
  0.00000000E+00  0.00000000E+00  0.00000000E+00
  0.00000000E+00  0.00000000E+00  0.00000000E+00
  0.00000000E+00  0.00000000E+00  0.00000000E+00
  0.00000000E+00  0.00000000E+00  0.00000000E+00
  0.00000000E+00  0.00000000E+00  0.00000000E+00
  0.00000000E+00  0.00000000E+00  0.00000000E+00
  0.00000000E+00  0.00000000E+00  0.00000000E+00
  0.00000000E+00  0.00000000E+00  0.00000000E+00
  0.00000000E+00  0.00000000E+00  0.00000000E+00
  0.00000000E+00  0.00000000E+00  0.00000000E+00
  0.00000000E+00  0.00000000E+00  0.00000000E+00
  0.00000000E+00  0.00000000E+00  0.00000000E+00
  0.00000000E+00  0.00000000E+00  0.00000000E+00
  0.00000000E+00  0.00000000E+00  0.00000000E+00
  0.00000000E+00  0.00000000E+00  0.00000000E+00
  0.00000000E+00  0.00000000E+00  0.00000000E+00
  0.00000000E+00  0.00000000E+00  0.00000000E+00
  0.00000000E+00  0.00000000E+00  0.00000000E+00
  0.00000000E+00  0.00000000E+00  0.00000000E+00
  0.00000000E+00  0.00000000E+00  0.00000000E+00
  0.00000000E+00  0.00000000E+00  0.00000000E+00
  0.00000000E+00  0.00000000E+00  0.00000000E+00
  0.00000000E+00  0.00000000E+00  0.00000000E+00
  0.00000000E+00  0.00000000E+00  0.00000000E+00
  0.00000000E+00  0.00000000E+00  0.00000000E+00
  0.00000000E+00  0.00000000E+00  0.00000000E+00
  0.00000000E+00  0.00000000E+00  0.00000000E+00
  0.00000000E+00  0.00000000E+00  0.00000000E+00
  0.00000000E+00  0.00000000E+00  0.00000000E+00
  0.00000000E+00  0.00000000E+00  0.00000000E+00
  0.00000000E+00  0.00000000E+00  0.00000000E+00
  0.00000000E+00  0.00000000E+00  0.00000000E+00
  0.00000000E+00  0.00000000E+00  0.00000000E+00
  0.00000000E+00  0.00000000E+00  0.00000000E+00
  0.00000000E+00  0.00000000E+00  0.00000000E+00
  0.00000000E+00  0.00000000E+00  0.00000000E+00
  0.00000000E+00  0.00000000E+00  0.00000000E+00
  0.00000000E+00  0.00000000E+00  0.00000000E+00
  0.00000000E+00  0.00000000E+00  0.00000000E+00
  0.00000000E+00  0.00000000E+00  0.00000000E+00
  0.00000000E+00  0.00000000E+00  0.00000000E+00
  0.00000000E+00  0.00000000E+00  0.00000000E+00
  0.00000000E+00  0.00000000E+00  0.00000000E+00
  0.00000000E+00  0.00000000E+00  0.00000000E+00
  0.00000000E+00  0.00000000E+00  0.00000000E+00
  0.00000000E+00  0.00000000E+00  0.00000000E+00
  0.00000000E+00  0.00000000E+00  0.00000000E+00
  0.00000000E+00  0.00000000E+00  0.00000000E+00
  0.00000000E+00  0.00000000E+00  0.00000000E+00
  0.00000000E+00  0.00000000E+00  0.00000000E+00
  0.00000000E+00  0.00000000E+00  0.00000000E+00
  0.00000000E+00  0.00000000E+00  0.00000000E+00
  0.00000000E+00  0.00000000E+00  0.00000000E+00
  0.00000000E+00  0.00000000E+00  0.00000000E+00
  0.00000000E+00  0.00000000E+00  0.00000000E+00
  0.00000000E+00  0.00000000E+00  0.00000000E+00
  0.00000000E+00  0.00000000E+00  0.00000000E+00
  0.00000000E+00  0.00000000E+00  0.00000000E+00
  0.00000000E+00  0.00000000E+00  0.00000000E+00
  0.00000000E+00  0.00000000E+00  0.00000000E+00
  0.00000000E+00  0.00000000E+00  0.00000000E+00
  0.00000000E+00  0.00000000E+00  0.00000000E+00
  0.00000000E+00  0.00000000E+00  0.00000000E+00
  0.00000000E+00  0.00000000E+00  0.00000000E+00
  0.00000000E+00  0.00000000E+00  0.00000000E+00
  0.00000000E+00  0.00000000E+00  0.00000000E+00
  0.00000000E+00  0.00000000E+00  0.00000000E+00
  0.00000000E+00  0.00000000E+00  0.00000000E+00
  0.00000000E+00  0.00000000E+00  0.00000000E+00
  0.00000000E+00  0.00000000E+00  0.00000000E+00
  0.00000000E+00  0.00000000E+00  0.00000000E+00
  0.00000000E+00  0.00000000E+00  0.00000000E+00
  0.00000000E+00  0.00000000E+00  0.00000000E+00
  0.00000000E+00  0.00000000E+00  0.00000000E+00
  0.00000000E+00  0.00000000E+00  0.00000000E+00
  0.00000000E+00  0.00000000E+00  0.00000000E+00
  0.00000000E+00  0.00000000E+00  0.00000000E+00
  0.00000000E+00  0.00000000E+00  0.00000000E+00
  0.00000000E+00  0.00000000E+00  0.00000000E+00
  0.00000000E+00  0.00000000E+00  0.00000000E+00
  0.00000000E+00  0.00000000E+00  0.00000000E+00
  0.00000000E+00  0.00000000E+00  0.00000000E+00
  0.00000000E+00  0.00000000E+00  0.00000000E+00
  0.00000000E+00  0.00000000E+00  0.00000000E+00
  0.00000000E+00  0.00000000E+00  0.00000000E+00
  0.00000000E+00  0.00000000E+00  0.00000000E+00
  0.00000000E+00  0.00000000E+00  0.00000000E+00
  0.00000000E+00  0.00000000E+00  0.00000000E+00
  0.00000000E+00  0.00000000E+00  0.00000000E+00
  0.00000000E+00  0.00000000E+00  0.00000000E+00
  0.00000000E+00  0.00000000E+00  0.00000000E+00
  0.00000000E+00  0.00000000E+00  0.00000000E+00
  0.00000000E+00  0.00000000E+00  0.00000000E+00
  0.00000000E+00  0.00000000E+00  0.00000000E+00
  0.00000000E+00  0.00000000E+00  0.00000000E+00
  0.00000000E+00  0.00000000E+00  0.00000000E+00
  0.00000000E+00  0.00000000E+00  0.00000000E+00
  0.00000000E+00  0.00000000E+00  0.00000000E+00
  0.00000000E+00  0.00000000E+00  0.00000000E+00
  0.00000000E+00  0.00000000E+00  0.00000000E+00
  0.00000000E+00  0.00000000E+00  0.00000000E+00
  0.00000000E+00  0.00000000E+00  0.00000000E+00
  0.00000000E+00  0.00000000E+00  0.00000000E+00
  0.00000000E+00  0.00000000E+00  0.00000000E+00
  0.00000000E+00  0.00000000E+00  0.00000000E+00
  0.00000000E+00  0.00000000E+00  0.00000000E+00
  0.00000000E+00  0.00000000E+00  0.00000000E+00
  0.00000000E+00  0.00000000E+00  0.00000000E+00
  0.00000000E+00  0.00000000E+00  0.00000000E+00
  0.00000000E+00  0.00000000E+00  0.00000000E+00
  0.00000000E+00  0.00000000E+00  0.00000000E+00
  0.00000000E+00  0.00000000E+00  0.00000000E+00
  0.00000000E+00  0.00000000E+00  0.00000000E+00
  0.00000000E+00  0.00000000E+00  0.00000000E+00
  0.00000000E+00  0.00000000E+00  0.00000000E+00
  0.00000000E+00  0.00000000E+00  0.00000000E+00
  0.00000000E+00  0.00000000E+00  0.00000000E+00
  0.00000000E+00  0.00000000E+00  0.00000000E+00
  0.00000000E+00  0.00000000E+00  0.00000000E+00
  0.00000000E+00  0.00000000E+00  0.00000000E+00
  0.00000000E+00  0.00000000E+00  0.00000000E+00
  0.00000000E+00  0.00000000E+00  0.00000000E+00
  0.00000000E+00  0.00000000E+00  0.00000000E+00
  0.00000000E+00  0.00000000E+00  0.00000000E+00
  0.00000000E+00  0.00000000E+00  0.00000000E+00
  0.00000000E+00  0.00000000E+00  0.00000000E+00
  0.00000000E+00  0.00000000E+00  0.00000000E+00
  0.00000000E+00  0.00000000E+00  0.00000000E+00
  0.00000000E+00  0.00000000E+00  0.00000000E+00
  0.00000000E+00  0.00000000E+00  0.00000000E+00
  0.00000000E+00  0.00000000E+00  0.00000000E+00
  0.00000000E+00  0.00000000E+00  0.00000000E+00
  0.00000000E+00  0.00000000E+00  0.00000000E+00
  0.00000000E+00  0.00000000E+00  0.00000000E+00
  0.00000000E+00  0.00000000E+00  0.00000000E+00