Sb                                      
   1.00000000000000     
    17.2273007964999998    0.0000000000000000    0.0000000000000000
     0.0000000000000000   17.2273007964999998    0.0000000000000000
     0.0000000000000000    0.0000000000000000   17.2273007964999998
   Si   Se
    66   132
Direct
  0.8430858917243588  0.0264302746131101  0.3059918817026551
  0.1332502098499287  0.9462361790350033  0.0057512191502026
  0.6879786374614698  0.2305968643023136  0.6822581796540148
  0.4324169293480069  0.5367053868520086  0.1914773352516238
  0.1715039353799694  0.6162842668174825  0.8531403419154954
  0.3775499267418936  0.9861771313583084  0.8016307763914001
  0.5124419416179723  0.9080434770871002  0.1984297291926415
  0.7896221359215522  0.1511261250873301  0.2873800048506391
  0.9628625930858196  0.0859265139147605  0.2737685816585905
  0.2827116317003857  0.9525774243075712  0.6268573309378438
  0.1220903239155434  0.9549463543615524  0.3096782637935770
  0.9856550014847970  0.2039010911064735  0.5753363463666059
  0.0174611272499356  0.6498080927601432  0.7499601093305180
  0.1901941411145751  0.7656958505018669  0.0993144687423225
  0.0822842519661382  0.4011858202544311  0.3996877793561451
  0.6487571171956766  0.3053771000932799  0.5774903734589150
  0.7496819002143407  0.3871386263085550  0.9085027138913676
  0.7691790950304500  0.8058407131314027  0.9878611975192105
  0.5022640300013009  0.3213480879101328  0.6997447722195465
  0.0259919376771982  0.8396062989562987  0.0688630133965639
  0.2764576936930326  0.0849494754162311  0.4783730016973920
  0.1791072087664235  0.3290699789904695  0.2409158155726251
  0.6013423923817407  0.9138104386403189  0.4652203073957498
  0.4007179151718452  0.7038498731764369  0.2298175992526784
  0.1698273337365850  0.9915662805866922  0.8785484174235305
  0.9364706084023918  0.8903279429832240  0.8739667295898599
  0.7682855674644093  0.1968026299582401  0.0784393769907154
  0.9129479207649369  0.2936790726449079  0.4554816983875639
  0.4533085136426774  0.1737838802570343  0.0470535519415290
  0.6950607716295579  0.7935909916517002  0.8749054240014100
  0.9793392341551533  0.4955029860581886  0.5400484978036686
  0.8203020679540700  0.9607224539739736  0.8925734562938953
  0.7776968863130630  0.5434012091262265  0.3296574099440698
  0.5513515821026731  0.4861018497252270  0.8187504189972356
  0.3943199469402039  0.7712095710654370 -0.0034109760936466
  0.1540960848135038  0.5841645559671758  0.9875582212980476
  0.3789078981097769  0.2745140583275174  0.6583426603788619
  0.4678033702170608  0.3705591231925361  0.1520958441362879
  0.2526459669517791  0.7154698355771635  0.4828381682803436
  0.5462365847524910  0.8519687177582308  0.0024559054018814
  0.4691190929248750  0.5759450845874207  0.7540881044379981
  0.0884670909345535  0.1663566500812583  0.1212618401152338
  0.6660998493412631  0.2163542506872139  0.9908814225953354
  0.7865806898088689  0.3215169011552099  0.4049751249534996
  0.8733033379045918  0.4775756309175691  0.0695190731193546
  0.6921830564267264  0.4826600894398343  0.8188603237919311
  0.8783376925711821  0.7285393966599845  0.0002586738969843
  0.7394091415598683  0.5965729414074976  0.8848272607073794
  0.6160244857340560  0.1000197069531270  0.5645469892868958
  0.4839087904557411  0.9359685944150088  0.6300774318924012
  0.0495298897988463  0.8614166833498107  0.6735097684649017
  0.8652009458892308  0.0926451506968864  0.9037958222382505
  0.7777926224318190  0.6292839982220753  0.0148880595303313
  0.7850713907731538  0.8731218187228147  0.3518487780609607
  0.1473202755562980  0.7702983681519177  0.6436815416477649
  0.3742091578665898  0.5883663042172622  0.5534705456268666
  0.9884774322377701 -0.0037910655144479  0.8056390764730037
  0.8800997461118109  0.6682883807263611  0.3758583439171357
  0.1671247571361770  0.1931950530978762  0.9675568098632461
  0.1151862821986310  0.8576880525343209  0.1706203051982514
  0.3281090351912984  0.2494378474150495  0.4762588825394640
  0.8454828760968334  0.5715351838174001  0.6966263598167910
  0.8931307497752490  0.9226658965057547  0.6356776882189497
  0.7936987821580896  0.1954453828987135  0.8522777716951737
  0.9720777401352138  0.6317183735098846  0.5468771539686956
  0.3745194916995345  0.5919086858603588  0.8571788834234795
  0.0094594179097149  0.0614611836047188  0.1517863095849604
  0.1891847488443401  0.9652116224606523  0.1939565331422436
  0.3547779690395649  0.7673526284879825  0.4112197973162079
  0.9635857113071676  0.7581731200876716  0.8996148931949496
  0.3825803859959675  0.9193964114248656  0.5443064568969337
  0.8370486903386829  0.2881401811153895  0.9376459116067014
  0.7930356360307532  0.6009259748767837  0.4506555554876863
  0.0204322270016593  0.5605013429490509  0.9653230651697230
  0.3592583923915464  0.4266124939030587  0.2057118902975625
  0.7705720048496374  0.9392135174048873  0.2356570957956800
  0.3991709778380443  0.9813836159869712  0.1881320068610328
  0.2992111830634765  0.7730005814647138  0.2827220209947108
  0.3058860750327299  0.3437347863708004  0.5686436177982653
  0.7282137939273768  0.5038912505144866  0.6900300873709393
  0.6769522736624398  0.6050847656407353  0.2656518265091228
  0.8501116239299247  0.6347515503157721  0.8140045961381579
  0.3933148407822896  0.1596651280841893  0.9230602369326008
  0.1961467322019068  0.1077085192026307  0.0654792207442211
  0.3135017694326598  0.8142004563132744  0.0995845080267722
  0.1205109096069214  0.2310649337177519  0.6110051307913108
  0.5717136539986903  0.4044354060942496  0.6228160460789922
  0.3130619006288330  0.5247945957852861  0.4517714067811624
  0.5713089702865685  0.6334243334764826  0.6036198554284482
  0.2816031570604304  0.1523430322918413  0.2367249916923616
  0.8558996258561382  0.4747087669393691  0.9366899410243659
  0.5797699197398215  0.8562291317978947  0.5847014745982642
  0.7061872061839041  0.7281612950818389  0.0776593648680896
  0.9065627443852210  0.3663357935825906  0.1316829827096160
  0.4386839370770337  0.4161322072846522  0.4713181811642840
  0.0377402433024219  0.2762116169868523  0.4122106186690054
  0.1306551968767874  0.7333371262319804  0.7940418400000959
  0.2114617491311200  0.3697211046806892  0.3654995128535945
  0.7956348902710485  0.2764454897617923  0.7462108056492524
  0.0066522767737743  0.9231143811430823  0.5636856371946786
  0.7446778599044900  0.9586109175049374  0.7820096928622559
  0.9078176232675373  0.2103007885064173  0.2696374275315236
  0.9163043415374224  0.3145566047511565  0.5892813995287238
  0.2683627258067396  0.5584454307927114  0.7840368070205941
  0.9881507915268016  0.9479407610935232  0.9986163978293218
  0.4988901284477037  0.1694608535914232  0.2123444363322242
  0.3308517403877738  0.7172298796905636  0.8910939003033238
  0.8687028974826906  0.1190238525856404  0.0369841410707960
  0.2493599476095913  0.2925220976082118  0.9352646783367737
  0.8408284232931632  0.7669251989559326  0.2960626553623223
  0.0867781991742126  0.6409705156542881  0.6247373199643392
  0.0543995369464163  0.2459172322692653  0.0186052097630090
  0.2150819861645746  0.1944259675364788  0.4336013956423012
  0.3970132826883210  0.1606254187465192  0.3112458642499653
  0.1265957774341944  0.7977700451091637  0.9818675288351763
  0.4533530620946756  0.8874356547166399  0.7518712223967896
  0.6671002495455868  0.0303008829088042  0.4642119335018847
  0.3739316084553128  0.6315726289716233  0.1187847831195060
  0.9896752177913016  0.7093909619974473  0.4404622990579175
  0.4042075653509592  0.5057372511022157  0.6549178985891032
  0.3126096422222122  0.0539373511585872  0.7088938720700054
  0.5764974078517506  0.2249196377604776  0.7559796537698885
 -0.0016688747732850  0.1029055211139600  0.8837163798744507
  0.9389104362377099  0.7549189491872587  0.1177236083388463
  0.3007387865286392  0.6881013750362717  0.6048286982911361
  0.7107854748195968  0.1281975677787149  0.1805731496729742
  0.1454898631695588  0.3766837723010946  0.8923357501800671
  0.6030006734370594  0.9217717757118927  0.1010776508363894
  0.5368086696182075  0.5268943548975951  0.9444446309949913
  0.1904806697073234  0.0231631794527210  0.5595618390826815
  0.5497839042724237  0.2957113628609950  0.2268420057270834
  0.7554879961644886  0.4110043074567324  0.3073788161736379
  0.7827635977661032  0.3086776737583857  0.1511430796962784
  0.8579186356810059  0.9604534181215315  0.4210096556082917
  0.1625628406736819  0.6379082413007475  0.1129612157871351
  0.5066314055159205  0.6953282475020643  0.7098702057100932
  0.8605407060454349  0.6736434703577331  0.6099415215401383
  0.0975627748826503  0.3464147996529818  0.6850552510164331
  0.6074459775938911  0.6392633838212852  0.3817457097970951
  0.5442588462637569  0.4795359014659194  0.1420113593036940
  0.3866080449390817  0.1417643336209520  0.5328868180837431
  0.2810521076622214  0.2738247870450498  0.1715489596819927
  0.5489937307284578  0.4286091301760887  0.3837529812286233
  0.3161083025796534  0.2360577599508662  0.7576165981912655
  0.9227795883737868  0.4451789621569552  0.4317509765436830
  0.6342343312983331  0.3457470106728114  0.9697596578080990
  0.6792212340261353  0.8184215621707768  0.4123480775499602
  0.0927403135434658  0.2250507717025656  0.2409999500764066
  0.0234007512963099  0.1295893564132447  0.6751654952327339
  0.1958999535245243  0.6119839891556175  0.4301145722306742
  0.2486511201121801  0.8458002481672934  0.7003594140501586
  0.9166753539117928  0.1480186471588650  0.4790200705979380
  0.3914213121712102  0.5090225076979084  0.9608913548464527
  0.9762844598599963  0.5550872565443700  0.1010597197399383
  0.6251314335748714  0.5215248505505657  0.4483051869493172
  0.2842275294773838  0.9253657267311490  0.8801317832486828
  0.7291094201814605  0.1155437328288092  0.6330065959284420
  0.1329104344079009  0.4393632719485638  0.1854337662655987
  0.0483250240276533  0.8454232549957273  0.2859262865935300
  0.5775038355112201  0.1311359711162327  0.0468458103180803
  0.6354589631277654  0.6772256583918214  0.8595377764272123
  0.9026333527897820  0.0414650097243549  0.7107171421231739
  0.1547597004449440  0.8022136447353565  0.5112993442625305
  0.2295475409995679  0.4788560635247727  0.0019232012464267
  0.9311965905018016  0.8280532588815850  0.7290213341088323
  0.0723677278580913  0.5361628909619759  0.8090718922521444
  0.6035549334626318  0.8883284260856821  0.8898803873383562
  0.7436672897681668  0.8220799331881229  0.7545806707757416
  0.5796737010000280  0.9746393970316224  0.2942930857619579
  0.4904592141586070  0.9398166119736161  0.3957196099462427
  0.8933406915009062  0.5825948326821840  0.2739651150171302
  0.4079023857410117  0.3055386077506254  0.3838430775844367
  0.7388581429320379  0.3815901991956289  0.5162745036452175
  0.1063545356243579  0.4555928003753123  0.5233696406468785
  0.3086390106550728  0.0117340354783874  0.3683032569236536
  0.7829009199198342  0.8986836947370725  0.5848771018281476
  0.7780157236486883  0.9361197709531812  0.0180560666653950
  0.7103117280192419  0.2163573381233501  0.3743594285816026
  0.4349644068804500  0.6004897412967094  0.3064651638670269
  0.2157096175161282  0.9130987036290641  0.3932673869532148
  0.1075978098326915  0.9676800083640362  0.7480112616140577
  0.4262853974883561  0.8991348248554656 -0.0255259817822692
  0.0572977524226668  0.0556714622261695  0.3677228347573560
  0.3887586197303686  0.0583065470542949  0.0686039002832850
  0.7572462680907164  0.5316334539581058  0.1069449429332220
  0.1832879104945113  0.1229631432839012  0.8519992230128509
  0.0370035107229715  0.4605234675624379  0.2884506402328826
  0.9430066252020174  0.4811454121940886  0.6733237490844630
  0.4783893296238700  0.6627682405597837  0.5066916484839085
  0.4372411640035112  0.3077024587758176  0.0371620596666405
  0.5152406309486744  0.7244955893870650  0.0260932936827654
  0.5125515083088721  0.7787856377213921  0.2386249463971698
  0.4613298284764260  0.3848818246433763  0.8104970634519622
  0.5682742036603388  0.2179281873716176  0.5152483744663924
  0.4699657239117616  0.0621344757670819  0.8608202013605286
  0.6792082952619745  0.1352760030558084  0.8841901810991666
  0.0587189535560881  0.3053874439897198  0.8102070037145308
  0.5243224934944827  0.0601100996778970  0.6545315961478799
 
  0.00000000E+00  0.00000000E+00  0.00000000E+00
  0.00000000E+00  0.00000000E+00  0.00000000E+00
  0.00000000E+00  0.00000000E+00  0.00000000E+00
  0.00000000E+00  0.00000000E+00  0.00000000E+00
  0.00000000E+00  0.00000000E+00  0.00000000E+00
  0.00000000E+00  0.00000000E+00  0.00000000E+00
  0.00000000E+00  0.00000000E+00  0.00000000E+00
  0.00000000E+00  0.00000000E+00  0.00000000E+00
  0.00000000E+00  0.00000000E+00  0.00000000E+00
  0.00000000E+00  0.00000000E+00  0.00000000E+00
  0.00000000E+00  0.00000000E+00  0.00000000E+00
  0.00000000E+00  0.00000000E+00  0.00000000E+00
  0.00000000E+00  0.00000000E+00  0.00000000E+00
  0.00000000E+00  0.00000000E+00  0.00000000E+00
  0.00000000E+00  0.00000000E+00  0.00000000E+00
  0.00000000E+00  0.00000000E+00  0.00000000E+00
  0.00000000E+00  0.00000000E+00  0.00000000E+00
  0.00000000E+00  0.00000000E+00  0.00000000E+00
  0.00000000E+00  0.00000000E+00  0.00000000E+00
  0.00000000E+00  0.00000000E+00  0.00000000E+00
  0.00000000E+00  0.00000000E+00  0.00000000E+00
  0.00000000E+00  0.00000000E+00  0.00000000E+00
  0.00000000E+00  0.00000000E+00  0.00000000E+00
  0.00000000E+00  0.00000000E+00  0.00000000E+00
  0.00000000E+00  0.00000000E+00  0.00000000E+00
  0.00000000E+00  0.00000000E+00  0.00000000E+00
  0.00000000E+00  0.00000000E+00  0.00000000E+00
  0.00000000E+00  0.00000000E+00  0.00000000E+00
  0.00000000E+00  0.00000000E+00  0.00000000E+00
  0.00000000E+00  0.00000000E+00  0.00000000E+00
  0.00000000E+00  0.00000000E+00  0.00000000E+00
  0.00000000E+00  0.00000000E+00  0.00000000E+00
  0.00000000E+00  0.00000000E+00  0.00000000E+00
  0.00000000E+00  0.00000000E+00  0.00000000E+00
  0.00000000E+00  0.00000000E+00  0.00000000E+00
  0.00000000E+00  0.00000000E+00  0.00000000E+00
  0.00000000E+00  0.00000000E+00  0.00000000E+00
  0.00000000E+00  0.00000000E+00  0.00000000E+00
  0.00000000E+00  0.00000000E+00  0.00000000E+00
  0.00000000E+00  0.00000000E+00  0.00000000E+00
  0.00000000E+00  0.00000000E+00  0.00000000E+00
  0.00000000E+00  0.00000000E+00  0.00000000E+00
  0.00000000E+00  0.00000000E+00  0.00000000E+00
  0.00000000E+00  0.00000000E+00  0.00000000E+00
  0.00000000E+00  0.00000000E+00  0.00000000E+00
  0.00000000E+00  0.00000000E+00  0.00000000E+00
  0.00000000E+00  0.00000000E+00  0.00000000E+00
  0.00000000E+00  0.00000000E+00  0.00000000E+00
  0.00000000E+00  0.00000000E+00  0.00000000E+00
  0.00000000E+00  0.00000000E+00  0.00000000E+00
  0.00000000E+00  0.00000000E+00  0.00000000E+00
  0.00000000E+00  0.00000000E+00  0.00000000E+00
  0.00000000E+00  0.00000000E+00  0.00000000E+00
  0.00000000E+00  0.00000000E+00  0.00000000E+00
  0.00000000E+00  0.00000000E+00  0.00000000E+00
  0.00000000E+00  0.00000000E+00  0.00000000E+00
  0.00000000E+00  0.00000000E+00  0.00000000E+00
  0.00000000E+00  0.00000000E+00  0.00000000E+00
  0.00000000E+00  0.00000000E+00  0.00000000E+00
  0.00000000E+00  0.00000000E+00  0.00000000E+00
  0.00000000E+00  0.00000000E+00  0.00000000E+00
  0.00000000E+00  0.00000000E+00  0.00000000E+00
  0.00000000E+00  0.00000000E+00  0.00000000E+00
  0.00000000E+00  0.00000000E+00  0.00000000E+00
  0.00000000E+00  0.00000000E+00  0.00000000E+00
  0.00000000E+00  0.00000000E+00  0.00000000E+00
  0.00000000E+00  0.00000000E+00  0.00000000E+00
  0.00000000E+00  0.00000000E+00  0.00000000E+00
  0.00000000E+00  0.00000000E+00  0.00000000E+00
  0.00000000E+00  0.00000000E+00  0.00000000E+00
  0.00000000E+00  0.00000000E+00  0.00000000E+00
  0.00000000E+00  0.00000000E+00  0.00000000E+00
  0.00000000E+00  0.00000000E+00  0.00000000E+00
  0.00000000E+00  0.00000000E+00  0.00000000E+00
  0.00000000E+00  0.00000000E+00  0.00000000E+00
  0.00000000E+00  0.00000000E+00  0.00000000E+00
  0.00000000E+00  0.00000000E+00  0.00000000E+00
  0.00000000E+00  0.00000000E+00  0.00000000E+00
  0.00000000E+00  0.00000000E+00  0.00000000E+00
  0.00000000E+00  0.00000000E+00  0.00000000E+00
  0.00000000E+00  0.00000000E+00  0.00000000E+00
  0.00000000E+00  0.00000000E+00  0.00000000E+00
  0.00000000E+00  0.00000000E+00  0.00000000E+00
  0.00000000E+00  0.00000000E+00  0.00000000E+00
  0.00000000E+00  0.00000000E+00  0.00000000E+00
  0.00000000E+00  0.00000000E+00  0.00000000E+00
  0.00000000E+00  0.00000000E+00  0.00000000E+00
  0.00000000E+00  0.00000000E+00  0.00000000E+00
  0.00000000E+00  0.00000000E+00  0.00000000E+00
  0.00000000E+00  0.00000000E+00  0.00000000E+00
  0.00000000E+00  0.00000000E+00  0.00000000E+00
  0.00000000E+00  0.00000000E+00  0.00000000E+00
  0.00000000E+00  0.00000000E+00  0.00000000E+00
  0.00000000E+00  0.00000000E+00  0.00000000E+00
  0.00000000E+00  0.00000000E+00  0.00000000E+00
  0.00000000E+00  0.00000000E+00  0.00000000E+00
  0.00000000E+00  0.00000000E+00  0.00000000E+00
  0.00000000E+00  0.00000000E+00  0.00000000E+00
  0.00000000E+00  0.00000000E+00  0.00000000E+00
  0.00000000E+00  0.00000000E+00  0.00000000E+00
  0.00000000E+00  0.00000000E+00  0.00000000E+00
  0.00000000E+00  0.00000000E+00  0.00000000E+00
  0.00000000E+00  0.00000000E+00  0.00000000E+00
  0.00000000E+00  0.00000000E+00  0.00000000E+00
  0.00000000E+00  0.00000000E+00  0.00000000E+00
  0.00000000E+00  0.00000000E+00  0.00000000E+00
  0.00000000E+00  0.00000000E+00  0.00000000E+00
  0.00000000E+00  0.00000000E+00  0.00000000E+00
  0.00000000E+00  0.00000000E+00  0.00000000E+00
  0.00000000E+00  0.00000000E+00  0.00000000E+00
  0.00000000E+00  0.00000000E+00  0.00000000E+00
  0.00000000E+00  0.00000000E+00  0.00000000E+00
  0.00000000E+00  0.00000000E+00  0.00000000E+00
  0.00000000E+00  0.00000000E+00  0.00000000E+00
  0.00000000E+00  0.00000000E+00  0.00000000E+00
  0.00000000E+00  0.00000000E+00  0.00000000E+00
  0.00000000E+00  0.00000000E+00  0.00000000E+00
  0.00000000E+00  0.00000000E+00  0.00000000E+00
  0.00000000E+00  0.00000000E+00  0.00000000E+00
  0.00000000E+00  0.00000000E+00  0.00000000E+00
  0.00000000E+00  0.00000000E+00  0.00000000E+00
  0.00000000E+00  0.00000000E+00  0.00000000E+00
  0.00000000E+00  0.00000000E+00  0.00000000E+00
  0.00000000E+00  0.00000000E+00  0.00000000E+00
  0.00000000E+00  0.00000000E+00  0.00000000E+00
  0.00000000E+00  0.00000000E+00  0.00000000E+00
  0.00000000E+00  0.00000000E+00  0.00000000E+00
  0.00000000E+00  0.00000000E+00  0.00000000E+00
  0.00000000E+00  0.00000000E+00  0.00000000E+00
  0.00000000E+00  0.00000000E+00  0.00000000E+00
  0.00000000E+00  0.00000000E+00  0.00000000E+00
  0.00000000E+00  0.00000000E+00  0.00000000E+00
  0.00000000E+00  0.00000000E+00  0.00000000E+00
  0.00000000E+00  0.00000000E+00  0.00000000E+00
  0.00000000E+00  0.00000000E+00  0.00000000E+00
  0.00000000E+00  0.00000000E+00  0.00000000E+00
  0.00000000E+00  0.00000000E+00  0.00000000E+00
  0.00000000E+00  0.00000000E+00  0.00000000E+00
  0.00000000E+00  0.00000000E+00  0.00000000E+00
  0.00000000E+00  0.00000000E+00  0.00000000E+00
  0.00000000E+00  0.00000000E+00  0.00000000E+00
  0.00000000E+00  0.00000000E+00  0.00000000E+00
  0.00000000E+00  0.00000000E+00  0.00000000E+00
  0.00000000E+00  0.00000000E+00  0.00000000E+00
  0.00000000E+00  0.00000000E+00  0.00000000E+00
  0.00000000E+00  0.00000000E+00  0.00000000E+00
  0.00000000E+00  0.00000000E+00  0.00000000E+00
  0.00000000E+00  0.00000000E+00  0.00000000E+00
  0.00000000E+00  0.00000000E+00  0.00000000E+00
  0.00000000E+00  0.00000000E+00  0.00000000E+00
  0.00000000E+00  0.00000000E+00  0.00000000E+00
  0.00000000E+00  0.00000000E+00  0.00000000E+00
  0.00000000E+00  0.00000000E+00  0.00000000E+00
  0.00000000E+00  0.00000000E+00  0.00000000E+00
  0.00000000E+00  0.00000000E+00  0.00000000E+00
  0.00000000E+00  0.00000000E+00  0.00000000E+00
  0.00000000E+00  0.00000000E+00  0.00000000E+00
  0.00000000E+00  0.00000000E+00  0.00000000E+00
  0.00000000E+00  0.00000000E+00  0.00000000E+00
  0.00000000E+00  0.00000000E+00  0.00000000E+00
  0.00000000E+00  0.00000000E+00  0.00000000E+00
  0.00000000E+00  0.00000000E+00  0.00000000E+00
  0.00000000E+00  0.00000000E+00  0.00000000E+00
  0.00000000E+00  0.00000000E+00  0.00000000E+00
  0.00000000E+00  0.00000000E+00  0.00000000E+00
  0.00000000E+00  0.00000000E+00  0.00000000E+00
  0.00000000E+00  0.00000000E+00  0.00000000E+00
  0.00000000E+00  0.00000000E+00  0.00000000E+00
  0.00000000E+00  0.00000000E+00  0.00000000E+00
  0.00000000E+00  0.00000000E+00  0.00000000E+00
  0.00000000E+00  0.00000000E+00  0.00000000E+00
  0.00000000E+00  0.00000000E+00  0.00000000E+00
  0.00000000E+00  0.00000000E+00  0.00000000E+00
  0.00000000E+00  0.00000000E+00  0.00000000E+00
  0.00000000E+00  0.00000000E+00  0.00000000E+00
  0.00000000E+00  0.00000000E+00  0.00000000E+00
  0.00000000E+00  0.00000000E+00  0.00000000E+00
  0.00000000E+00  0.00000000E+00  0.00000000E+00
  0.00000000E+00  0.00000000E+00  0.00000000E+00
  0.00000000E+00  0.00000000E+00  0.00000000E+00
  0.00000000E+00  0.00000000E+00  0.00000000E+00
  0.00000000E+00  0.00000000E+00  0.00000000E+00
  0.00000000E+00  0.00000000E+00  0.00000000E+00
  0.00000000E+00  0.00000000E+00  0.00000000E+00
  0.00000000E+00  0.00000000E+00  0.00000000E+00
  0.00000000E+00  0.00000000E+00  0.00000000E+00
  0.00000000E+00  0.00000000E+00  0.00000000E+00
  0.00000000E+00  0.00000000E+00  0.00000000E+00
  0.00000000E+00  0.00000000E+00  0.00000000E+00
  0.00000000E+00  0.00000000E+00  0.00000000E+00
  0.00000000E+00  0.00000000E+00  0.00000000E+00
  0.00000000E+00  0.00000000E+00  0.00000000E+00
  0.00000000E+00  0.00000000E+00  0.00000000E+00
  0.00000000E+00  0.00000000E+00  0.00000000E+00
  0.00000000E+00  0.00000000E+00  0.00000000E+00
  0.00000000E+00  0.00000000E+00  0.00000000E+00
  0.00000000E+00  0.00000000E+00  0.00000000E+00
  0.00000000E+00  0.00000000E+00  0.00000000E+00
