Amorphous Sb                            
   1.00000000000000     
    22.0193745199999995    0.0000000000000000    0.0000000000000000
     0.0000000000000000   22.0193745199999995    0.0000000000000000
     0.0000000000000000    0.0000000000000000   22.0193745199999995
   Sb   Te
   120   180
Direct
  0.6639134105099379  0.4507313550437596  0.6510914680736141
  0.2350116383816379  0.3297300045781946  0.1083376856834013
  0.6456808124877300  0.9033380422879561  0.9424049282540425
  0.0557967112042715  0.1959581298731956  0.9621624599174453
  0.2482885590201326  0.2433884659302064  0.9835016516947085
  0.5285696250185413  0.1114024001484280  0.6401061875617184
  0.3155633867472094  0.9614602212215813  0.9308339461447852
  0.6411736015421248  0.2085756411588562  0.1636299870854696
  0.3321273422734752  0.2313421971982991  0.6253373661235263
 -0.0190476040320965  0.2126580305715949  0.3428648044176032
  0.0027801779704186  0.5388631970835976  0.1619918054209440
  0.2257327807469343  0.7546793960264101  0.5626872638754519
  0.3782935211939371  0.6604444070771237  0.0377277070508858
  0.4557271307125638  0.1705261025537368  0.2382728392753925
  0.4521796103549151  0.3871282899739370  0.2954540024418519
  0.5975262811207342  0.4324745788675629  0.7670264644468537
  0.9438746908567136  0.1010921378786978  0.5875057202368182
  0.2540538370185398  0.9220895316705614  0.6092655620684501
  0.5088556850519002  0.0707552249353055  0.3439311057871098
  0.4518596665383181 -0.0269940350560271  0.4149388726861202
  0.3840547177880138  0.3457749338163074  0.9897410272286985
  0.4916778218834261  0.1528333461003469  0.0470630203962450
  0.2319598303355908  0.5357894723532943  0.1531828067135969
  0.8372572433624159  0.1768337291304220  0.1840173099605827
  0.1268470594025327  0.5398051106716016  0.0331720510247197
  0.6178865702293830  0.3281291143027681  0.5597559613710118
  0.9366991897198115  0.8017986042535019  0.0711320549135273
  0.1167237819440939  0.0281353469145923  0.1731523035068456
  0.3224813038573273  0.1467854765819575  0.1468383754260484
  0.8564038002720145  0.3693566672244672  0.2678496553680523
 -0.0157147294880326  0.3502111804295888  0.9249319211266744
  0.3009720368695342  0.9576520918243357  0.7384901115291500
  0.3661921157755474  0.0492545840066634  0.6315225262590085
  0.0869100621573639  0.4720654758421023  0.6824093197497263
  0.2177765191792017  0.7798089713804568  0.7512577146602156
  0.9268663556953385  0.9221663921745943  0.5129797589954742
  0.5989086666337232  0.3473638646307191  0.0391529761769540
  0.6449215824039028  0.1050604568396378  0.7694359053579386
  0.3408574175256359  0.8196905748120641  0.4243006241718142
  0.6328402703474452  0.5671185934542838  0.4994409802381760
  0.9325041610866022  0.6796013913944963  0.9251056912379716
  0.1836948323552847  0.3296701388135519  0.6099634644881310
  0.9545817958334650  0.7472138152473987  0.6277889892613963
  0.8820628775564853  0.5018830004836935  0.1203404866609495
  0.8584720150559348  0.2155544655068086  0.9139934521299657
  0.3737897078790511  0.4072533856815032  0.1881624029640100
  0.0274447315977365  0.4005612513439097  0.7774638890772301
  0.5357894514067615  0.8244535971396445  0.8375777677958401
  0.3762841097903754  0.8394405901862293  0.2347784548087245
 -0.0289330055492943  0.6188037549031763  0.2618200848333628
  0.9746411899028025  0.8518275344809261  0.8720137995684225
  0.5323348042293857  0.6606730409508390  0.5284836282015987
  0.6778656201511403  0.5943036967997573  0.3194050184012805
  0.7247747657003027  0.6385266067500959  0.4350184672643815
  0.0417586435305809  0.5756041231758460  0.9320593153660526
  0.8237366463439014  0.8653844432187907 -0.0116333866833049
  0.0601655243929269  0.2550559058473478  0.6751092428576924
  0.3458111315572687  0.1686899625202975  0.9275590822741894
  0.6955962179228240  0.4237583424046911  0.4725162047481861
  0.3818351894046619  0.5133839229538424  0.6221017883100270
  0.7141181072135619  0.1907108491210165  0.6521756532704729
  0.3684063125921444  0.3667539221415483  0.6078582991952588
  0.7202488356288403  0.8843754616162942  0.1448541127209721
  0.4273585671498475  0.6422396078094346  0.8786291247243070
  0.9488487076468856  0.0895334970333165  0.0631347188401111
  0.4873359036163323  0.7745967717014974  0.2656135500582263
  0.5392347480597048  0.2550094912524140  0.3047175189411639
  0.0973031983260595  0.4739247309717960  0.8666766733791400
  0.0546026330143555  0.9123231205980608  0.2010010412483030
  0.1019797801355223  0.9586745893006905  0.5535664298172582
  0.0753506397960195  0.6701194071734328  0.7523179172347361
  0.7130893585689504  0.6186442922470916 -0.0085371361073181
  0.3179016705854532  0.4862672579252966  0.8081848942957636
  0.1400888223735310  0.3139717916581868  0.8425290595304404
  0.5912261186595342  0.6801378092590247  0.7140129745665933
  0.9785002833976084  0.5481933279518841  0.6578493477648224
  0.1170450704536189  0.5444501114536437  0.3905919842855358
  0.5887364290717502  0.6617644356573210  0.0258687415357311
 -0.0194398218547879  0.3954541282656766  0.2300885586682226
  0.5437555646422162  0.8826668403285189  0.0470945650331362
  0.8385972764547766  0.4610311073622351  0.9781251248399436
  0.2725482262373813  0.0004230258497944  0.1968437351444123
  0.7477056930841748  0.3254915301161995  0.0364183813926939
  0.1057784138403835  0.0824183799095934  0.4490399178699405
  0.5235203255463549  0.5914074230086622  0.6408540214708491
  0.2739721635915786  0.7543372891651784  0.3258796146290978
  0.4049366466816661  0.6368550028303982  0.6768823601330535
  0.4552702001739268  0.9516377980848191  0.6549405573561990
  0.3780651700495145  0.2439889695088528  0.3409903316070421
  0.9760184356815100  0.8149040467542013  0.3272645756114524
  0.6525978120362729  0.0183481518640903  0.0146495836722347
  0.3851672757647684  0.3716277279083984  0.7983687676249155
  0.8048036455144039  0.5290003272596635  0.6618396125355541
  0.3185661459721997  0.3301013270143130  0.4296548610332938
  0.6928081475043126  0.0024366094361761  0.6373442301494627
  0.7416981823766247  0.6833446914174468  0.8510932293652778
  0.6600615911137354  0.0603158511223074  0.2651222431648906
  0.5073507306280390  0.2559319048374328  0.5502514101442014
  0.8411388987546053  0.0783097397465829  0.7832444666590285
  0.7486675887187498  0.5923018260555337  0.1161874169817595
  0.9307924483538472  0.5370419659588056  0.3582411076077767
  0.2831934856630335  0.0792745862311911  0.3469732288789975
  0.4204953462110512  0.9327608595027395  0.0660492366911995
  0.7201509277770327  0.4014937472782593  0.8240342739155548
  0.6300695305983242  0.8412581721981325  0.2367647996142109
  0.8516498467351511  0.6588254954781876  0.6819547958482416
  0.6311914221811619  0.9148342095680250  0.4023048401639417
  0.4097048193901681  0.6250212690896720  0.3483764642525335
  0.9151134719026991  0.9885344356622067  0.1467461180274599
  0.2579550422846784  0.3547513583733573  0.2388259852547918
  0.9287285014190606  0.7515513674416644  0.4362118936275310
  0.2093353478069723  0.2093362800229598  0.8010368866974469
  0.9187897959493213  0.4729351175584124  0.8094898297403873
  0.2830314259068577  0.8714519158173583  0.0257485991581977
  0.4446315889864704  0.5451432181597026  0.0651293386442096
  0.5399300640091170  0.4835175607329072  0.2566679518024381
 -0.0254834757343232  0.3207719082367285  0.4234214147481658
  0.0406144687472585  0.1914276617541665  0.5589905671571146
  0.0079079732233867  0.6423375354887733  0.0767016312753434
  0.1716658732456793  0.1276235351248990  0.2894040653454423
  0.0459521050699309  0.6514284240637279  0.6110585815042341
  0.8645807298006731  0.8708209747025212  0.6217087398519610
  0.4528502927318328  0.7429476528020245  0.3902584242739131
  0.1003891052847995  0.0184235173815186  0.3338983810308126
  0.2020890149121470  0.8038425884958289  0.9518762268584191
  0.5521475643573512  0.0032093892562491  0.7719523752990369
  0.1225998120428440  0.4807645489053753  0.5203329583912983
  0.4108151220236007  0.2456052165794212  0.1384727913459663
  0.9842389541488175  0.4981514115923852  0.5262042548932775
  0.4472338782956957  0.9259912140058228  0.8272147673717791
  0.3258563044786690  0.5929795809193107  0.9408998317823726
  0.6202470305947940  0.7138712915358618  0.8750007754002133
  0.0965994493446261  0.3457051352388628  0.5027927261704599
  0.2625902883071951  0.4102272225155005  0.5406669153977547
  0.5966160807521176  0.3389418280968913  0.4216958867725599
  0.1860326940827120  0.5898065209424506  0.5677644926809919
  0.6745313701208342  0.3041251828946938  0.8942246644512460
  0.6910809973422846  0.4933186995105597 -0.0272765989841791
  0.5410363945630802 -0.0025188801581684  0.5714053308460586
  0.5580641964299006  0.5624776332848928  0.3603525227051720
  0.1203235838727907  0.1501367858319732  0.7255713916595533
  0.7929410198671105  0.0826146363594494  0.6415822382256910
  0.2866779156594826  0.6857583679823234  0.8156402487567546
  0.1292584445559285  0.5940666432116358  0.2641130614654997
  0.4822455590508528  0.7467830760392165  0.7452850494708331
  0.6825927152357883  0.8161105775499412  0.0309284557357782
  0.0436104841833667  0.2858122527009416  0.2542254204659479
  0.2243526939268470  0.8935592470024181  0.2578296977005827
  0.8945125774351438  0.9512639935063689  0.7747761734805030
  0.7245895403558430  0.9468025766105992  0.5208112070125944
  0.7185546331995675  0.5555160136652070  0.8298441714381476
  0.5303696647745177  0.7776781273938641  0.1224728201533042
  0.4333982935343937  0.1254843230810538  0.5496147807401370
  0.8396765410764538  0.5181797625396277  0.5382854607956247
  0.1706164260285996  0.9378216405432082  0.7570899710067872
  0.4882550353750589  0.2485924473454094  0.6802043752656850
  0.2319137947036481  0.6593365683164935  0.7003769938944092
  0.6720084935674360  0.7569157472468172  0.4245240391500771
  0.4681283825742305  0.4180697141100000  0.7061602113277086
  0.5163720021079549  0.5695289631509288  0.9576353422515680
  0.4650126136353934  0.1003709159868116  0.8316903606593908
  0.3378549799510028  0.7083488529462201  0.5058644382993379
  0.3483452644038171  0.7774800484631860  0.9419584903158611
  0.1501753419378542  0.5458970562910037  0.7761237837785909
  0.6804893210029819  0.5813645922276290  0.6240806573739499
  0.9008104632051136  0.3731257829059548  0.1222376653380059
  0.5379953580025599  0.8603491622698507  0.4834186862139912
  0.1520823865299255  0.8326665162456492  0.1745670194150289
  0.5433779423648539  0.5976449443853271  0.1302184533557316
  0.9605264630761399  0.1205773555799113  0.7346207486814084
  0.7650578982811683  0.0737046900749387  0.3395689130408140
  0.8915115766864148  0.4235008676880078  0.6920681337079307
  0.4318106218360079  0.5485058740775145  0.7852417823330254
  0.0138121763543639  0.7888787507253395  0.7364405278499505
  0.2314399315372709  0.0443857522753006  0.4628006851824563
  0.2689963889022954  0.3312465606617559  0.8831024103349395
  0.9342173111895125  0.9316723247692124  0.3641869491136469
  0.2837849495438537  0.6348945401926155  0.3789094894479896
  0.3127734064447910  0.8170111478537772  0.6709257113708549
  0.1910722238998136  0.3484413617924563  0.3792882114614947
  0.1962200490084770  0.9923321108250481  0.8865060311330513
  0.2210366874493161  0.9814845619871354  0.0811155719972286
  0.2694272802959385  0.6724011873466150  0.1094785612111860
  0.6906705908584341  0.4741135004220182  0.1019643151649877
  0.7532347539889451  0.3279493616959521  0.7230696981680662
  0.9403007753284663  0.2605570990152672  0.0105646311608192
  0.2760288720028649  0.2243757211426128  0.2587478650934418
  0.4017758500008142  0.8068872188538433  0.1060883160012286
  0.5893975458990808  0.8576495227643444  0.5984411223999316
  0.4801659312961422  0.7789847838434478  0.9500207473639445
  0.3603118103135748  0.0881448458802938  0.0278575698045975
  0.0063788705426400  0.9163125641114025  0.0774470402777089
  0.1136094098094883  0.3134660497469955  0.9763291272068900
  0.5260933626751861  0.9105792051906194  0.3240500284006941
  0.8091067398315346  0.9768006251823906  0.0696958664260381
  0.9533898571366392  0.0884110323240258  0.4531493424904686
  0.7619858783061531  0.9209977319217569  0.8890143197297097
  0.3291627801849230  0.8670587644207062  0.8395213384579285
  0.1189397139381852  0.6727263161842977  0.8794932182054093
  0.9262579818749956  0.9411022427109130  0.9547437422510610
  0.8839900124670880  0.0890732714868305  0.9113588951931162
  0.7500894954404509  0.9062856681454174  0.7029585550971350
  0.0156963230979820  0.8028355598781786  0.5163940536474670
  0.2212674063684561  0.8628770477175229  0.4884303296703183
  0.8215719164342945  0.5065348601526749  0.2371073861125715
  0.6439928549999162  0.9094470502339549  0.7803867064421414
  0.8624137821546575  0.7816841451288282  0.8776988944028156
  0.3161276846740098  0.5561897664586655  0.5158958968552612
  0.7270109772304201  0.3207196747112162  0.3986492420623372
  0.6860347663646207  0.7374751381391556  0.2922205658887541
  0.0295805280856876  0.4517973478695905  0.3592389208917219
  0.6736168296890449  0.6922290430259379  0.1496125031767724
  0.4420749079650109  0.5670385804447938  0.4689417705042735
  0.7798258716667883  0.8061211000753978  0.5470667504225036
  0.6247735671618879  0.2979193392515663  0.7039660950652898
  0.2745328048224351  0.3103503231938493  0.7142575228038940
  0.0804846440304413  0.7080532643306088  0.3035402658679714
  0.3413053912719222  0.5276170790766883  0.2252583323319516
  0.3932961120694266  0.6936730644238380  0.2193875652927782
 -0.0269110412293522  0.1809515576736322  0.1528582688765933
  0.5896578096754322  0.5607444230090263  0.8055920662287857
  0.1973071926074207  0.4581127943845855  0.9589895047574870
  0.8580719037392872  0.7756277486581593  0.2829427907260802
  0.0760942285758123  0.0683127550379425  0.0552694904784791
  0.9320755040438524  0.2673174062639792  0.5393205245261339
  0.0180794457794828 -0.0118401610358133  0.7789751039032847
  0.1245117617087895  0.1989111585353378  0.3889657899883117
  0.7530952794298982  0.2552085973321864  0.5398079038564888
  0.7360632096896245  0.4838022580407414  0.3605861936464467
  0.9894284496973250  0.6087657495265556  0.4518493157711849
  0.0428421786127200  0.0199337733742795  0.9017362686029593
  0.7170895319345536  0.0993991045609076  0.1513086720714121
  0.6164826672111686  0.0445410850230585  0.4146864583935648
  0.7156445060537745  0.9322729576895470  0.2791877621785475
  0.0174906338528774  0.7461114299906634  0.1562102597751966
 -0.0050133874852599  0.9834533923974043  0.6238594933885664
  0.9633369849108575  0.6058152554982884  0.7859588970547325
  0.5647684596117212  0.3703807304266986  0.9124539255984110
  0.1166264476263732  0.3778281336688494  0.1150070360397252
  0.4298926759445102  0.4344675619964888  0.9083263364654397
  0.8421511630898690  0.6380781259997509  0.2527196167039388
  0.0156164027425361  0.2383882212089675  0.8463110225355409
  0.1805622811964501  0.6582965301311141  0.0166057301898180
  0.6272241523928087  0.1497200859250560  0.5647200873299358
  0.7510077449996748  0.1901388758096674  0.8117128616691409
  0.5579034494966493  0.4431170594204738  0.5769925379761450
  0.8299750629331772  0.6839816431569070  0.5523728618017758
  0.3478417780055209  0.9375542116057584  0.3439364840625684
  0.8553553445474679  0.2399540816371857  0.2982973671068699
  0.8508933223497795  0.1762033651673982  0.4911654786654626
  0.9316843936016670  0.2434103575432317  0.7062775700863737
  0.2708219880326503  0.4974169332257724  0.6880591908111837
  0.6552659959587421  0.1970156544964992  0.2993049699966174
  0.1108931347197269  0.9071031825699947  0.9356679448526006
  0.1308349862034266  0.8673122107341856  0.6480569401208182
  0.5328546853755618  0.0987392068299558  0.1609278863418520
  0.3854506698738323  0.1518736394389895  0.7332496547601906
  0.2203144938088241  0.4708106085953274  0.3545969581408013
  0.8055594523390196  0.3893420781388429  0.5532250969146623
  0.8824176651340729  0.6646235712989779  0.0466592731673272
  0.6472925900621450  0.4110824575548510  0.2660031329159019
  0.4045840597396205 -0.0320015865649879  0.1909355563790880
  0.8556435228644732  0.3709853930961632  0.8802959891419727
  0.4267252612200613  0.7455069459240484  0.5892189828563297
  0.5020288888863597  0.1816180162762124  0.4106585666816129
  0.7239600001144976  0.0713303317673018  0.8682583677848456
  0.8594209277742781  0.3784389143793535  0.4003630928640076
  0.5677249280193812  0.3409974368350523  0.1900957835181446
  0.3136323445633357  0.1735688799128977  0.4288168904306632
  0.7484128908420530  0.7230101721933573  0.7252897180147412
  0.2190612517089831  0.2177207295104358  0.5595510445079215
  0.1564245005261926  0.7846223340175768  0.3783617402548257
  0.4434308092645510  0.3584097041397323  0.4997490685130309
  0.8321875349855320  0.0133424169089146  0.4857995395226681
  0.6092624373532858  0.2179680790114270  0.0259423948977241
  0.8673354120236187  0.0701835660965908  0.2640593542911682
  0.5312423020283314  0.0421200334218471  0.9786775788074493
  0.4496427914592508  0.2471485377464837  0.9345969258535530
  0.9727963219329244  0.4668936911846148  0.0007607665829028
  0.8460992686365729  0.5651919043806087  0.8982546257399208
  0.3745295377252475  0.9377872589264874  0.5514269380834034
  0.5592207466703221  0.1834570733289335  0.8286278333629564
  0.3701844946822406  0.4406598017723158  0.3808239414107784
  0.1742053434553042  0.0494260744253489  0.6009068445739690
  0.4737633658804358  0.3795365449301761  0.0794585088812856
  0.6108475846105580  0.9624647513163249  0.1288637328548942
  0.0200676845575900  0.0924287584894303  0.2437674592790561
  0.7747425200420506  0.2005144363589918  0.0110282392480926
  0.8549949445459625  0.8469205566358136  0.1794705825909778
  0.0063057328622279  0.3766208250772505  0.5985741291252974
  0.0234139647987147  0.7721220315917389  0.9681322685542769
  0.8441133899039462  0.8557855331574391  0.4339121164100400
  0.3044379496809572  0.0705640932594384  0.8040037806348168
  0.2861193780821811  0.4528486498691356  0.0654089015102506
  0.1533201922099557  0.4473688098894208  0.2221340029920295
  0.7436098746635856  0.2939688963898946  0.1632930945188040
  0.1579514113474462  0.6821287996894748  0.4743063817836365
  0.1811574306699975  0.1504841894118389  0.9204725863098291
  0.2061971156425032  0.1867345415957873  0.1093378013269612
  0.6315531426221412  0.7346895753599385  0.5933558880143952
 
  0.00000000E+00  0.00000000E+00  0.00000000E+00
  0.00000000E+00  0.00000000E+00  0.00000000E+00
  0.00000000E+00  0.00000000E+00  0.00000000E+00
  0.00000000E+00  0.00000000E+00  0.00000000E+00
  0.00000000E+00  0.00000000E+00  0.00000000E+00
  0.00000000E+00  0.00000000E+00  0.00000000E+00
  0.00000000E+00  0.00000000E+00  0.00000000E+00
  0.00000000E+00  0.00000000E+00  0.00000000E+00
  0.00000000E+00  0.00000000E+00  0.00000000E+00
  0.00000000E+00  0.00000000E+00  0.00000000E+00
  0.00000000E+00  0.00000000E+00  0.00000000E+00
  0.00000000E+00  0.00000000E+00  0.00000000E+00
  0.00000000E+00  0.00000000E+00  0.00000000E+00
  0.00000000E+00  0.00000000E+00  0.00000000E+00
  0.00000000E+00  0.00000000E+00  0.00000000E+00
  0.00000000E+00  0.00000000E+00  0.00000000E+00
  0.00000000E+00  0.00000000E+00  0.00000000E+00
  0.00000000E+00  0.00000000E+00  0.00000000E+00
  0.00000000E+00  0.00000000E+00  0.00000000E+00
  0.00000000E+00  0.00000000E+00  0.00000000E+00
  0.00000000E+00  0.00000000E+00  0.00000000E+00
  0.00000000E+00  0.00000000E+00  0.00000000E+00
  0.00000000E+00  0.00000000E+00  0.00000000E+00
  0.00000000E+00  0.00000000E+00  0.00000000E+00
  0.00000000E+00  0.00000000E+00  0.00000000E+00
  0.00000000E+00  0.00000000E+00  0.00000000E+00
  0.00000000E+00  0.00000000E+00  0.00000000E+00
  0.00000000E+00  0.00000000E+00  0.00000000E+00
  0.00000000E+00  0.00000000E+00  0.00000000E+00
  0.00000000E+00  0.00000000E+00  0.00000000E+00
  0.00000000E+00  0.00000000E+00  0.00000000E+00
  0.00000000E+00  0.00000000E+00  0.00000000E+00
  0.00000000E+00  0.00000000E+00  0.00000000E+00
  0.00000000E+00  0.00000000E+00  0.00000000E+00
  0.00000000E+00  0.00000000E+00  0.00000000E+00
  0.00000000E+00  0.00000000E+00  0.00000000E+00
  0.00000000E+00  0.00000000E+00  0.00000000E+00
  0.00000000E+00  0.00000000E+00  0.00000000E+00
  0.00000000E+00  0.00000000E+00  0.00000000E+00
  0.00000000E+00  0.00000000E+00  0.00000000E+00
  0.00000000E+00  0.00000000E+00  0.00000000E+00
  0.00000000E+00  0.00000000E+00  0.00000000E+00
  0.00000000E+00  0.00000000E+00  0.00000000E+00
  0.00000000E+00  0.00000000E+00  0.00000000E+00
  0.00000000E+00  0.00000000E+00  0.00000000E+00
  0.00000000E+00  0.00000000E+00  0.00000000E+00
  0.00000000E+00  0.00000000E+00  0.00000000E+00
  0.00000000E+00  0.00000000E+00  0.00000000E+00
  0.00000000E+00  0.00000000E+00  0.00000000E+00
  0.00000000E+00  0.00000000E+00  0.00000000E+00
  0.00000000E+00  0.00000000E+00  0.00000000E+00
  0.00000000E+00  0.00000000E+00  0.00000000E+00
  0.00000000E+00  0.00000000E+00  0.00000000E+00
  0.00000000E+00  0.00000000E+00  0.00000000E+00
  0.00000000E+00  0.00000000E+00  0.00000000E+00
  0.00000000E+00  0.00000000E+00  0.00000000E+00
  0.00000000E+00  0.00000000E+00  0.00000000E+00
  0.00000000E+00  0.00000000E+00  0.00000000E+00
  0.00000000E+00  0.00000000E+00  0.00000000E+00
  0.00000000E+00  0.00000000E+00  0.00000000E+00
  0.00000000E+00  0.00000000E+00  0.00000000E+00
  0.00000000E+00  0.00000000E+00  0.00000000E+00
  0.00000000E+00  0.00000000E+00  0.00000000E+00
  0.00000000E+00  0.00000000E+00  0.00000000E+00
  0.00000000E+00  0.00000000E+00  0.00000000E+00
  0.00000000E+00  0.00000000E+00  0.00000000E+00
  0.00000000E+00  0.00000000E+00  0.00000000E+00
  0.00000000E+00  0.00000000E+00  0.00000000E+00
  0.00000000E+00  0.00000000E+00  0.00000000E+00
  0.00000000E+00  0.00000000E+00  0.00000000E+00
  0.00000000E+00  0.00000000E+00  0.00000000E+00
  0.00000000E+00  0.00000000E+00  0.00000000E+00
  0.00000000E+00  0.00000000E+00  0.00000000E+00
  0.00000000E+00  0.00000000E+00  0.00000000E+00
  0.00000000E+00  0.00000000E+00  0.00000000E+00
  0.00000000E+00  0.00000000E+00  0.00000000E+00
  0.00000000E+00  0.00000000E+00  0.00000000E+00
  0.00000000E+00  0.00000000E+00  0.00000000E+00
  0.00000000E+00  0.00000000E+00  0.00000000E+00
  0.00000000E+00  0.00000000E+00  0.00000000E+00
  0.00000000E+00  0.00000000E+00  0.00000000E+00
  0.00000000E+00  0.00000000E+00  0.00000000E+00
  0.00000000E+00  0.00000000E+00  0.00000000E+00
  0.00000000E+00  0.00000000E+00  0.00000000E+00
  0.00000000E+00  0.00000000E+00  0.00000000E+00
  0.00000000E+00  0.00000000E+00  0.00000000E+00
  0.00000000E+00  0.00000000E+00  0.00000000E+00
  0.00000000E+00  0.00000000E+00  0.00000000E+00
  0.00000000E+00  0.00000000E+00  0.00000000E+00
  0.00000000E+00  0.00000000E+00  0.00000000E+00
  0.00000000E+00  0.00000000E+00  0.00000000E+00
  0.00000000E+00  0.00000000E+00  0.00000000E+00
  0.00000000E+00  0.00000000E+00  0.00000000E+00
  0.00000000E+00  0.00000000E+00  0.00000000E+00
  0.00000000E+00  0.00000000E+00  0.00000000E+00
  0.00000000E+00  0.00000000E+00  0.00000000E+00
  0.00000000E+00  0.00000000E+00  0.00000000E+00
  0.00000000E+00  0.00000000E+00  0.00000000E+00
  0.00000000E+00  0.00000000E+00  0.00000000E+00
  0.00000000E+00  0.00000000E+00  0.00000000E+00
  0.00000000E+00  0.00000000E+00  0.00000000E+00
  0.00000000E+00  0.00000000E+00  0.00000000E+00
  0.00000000E+00  0.00000000E+00  0.00000000E+00
  0.00000000E+00  0.00000000E+00  0.00000000E+00
  0.00000000E+00  0.00000000E+00  0.00000000E+00
  0.00000000E+00  0.00000000E+00  0.00000000E+00
  0.00000000E+00  0.00000000E+00  0.00000000E+00
  0.00000000E+00  0.00000000E+00  0.00000000E+00
  0.00000000E+00  0.00000000E+00  0.00000000E+00
  0.00000000E+00  0.00000000E+00  0.00000000E+00
  0.00000000E+00  0.00000000E+00  0.00000000E+00
  0.00000000E+00  0.00000000E+00  0.00000000E+00
  0.00000000E+00  0.00000000E+00  0.00000000E+00
  0.00000000E+00  0.00000000E+00  0.00000000E+00
  0.00000000E+00  0.00000000E+00  0.00000000E+00
  0.00000000E+00  0.00000000E+00  0.00000000E+00
  0.00000000E+00  0.00000000E+00  0.00000000E+00
  0.00000000E+00  0.00000000E+00  0.00000000E+00
  0.00000000E+00  0.00000000E+00  0.00000000E+00
  0.00000000E+00  0.00000000E+00  0.00000000E+00
  0.00000000E+00  0.00000000E+00  0.00000000E+00
  0.00000000E+00  0.00000000E+00  0.00000000E+00
  0.00000000E+00  0.00000000E+00  0.00000000E+00
  0.00000000E+00  0.00000000E+00  0.00000000E+00
  0.00000000E+00  0.00000000E+00  0.00000000E+00
  0.00000000E+00  0.00000000E+00  0.00000000E+00
  0.00000000E+00  0.00000000E+00  0.00000000E+00
  0.00000000E+00  0.00000000E+00  0.00000000E+00
  0.00000000E+00  0.00000000E+00  0.00000000E+00
  0.00000000E+00  0.00000000E+00  0.00000000E+00
  0.00000000E+00  0.00000000E+00  0.00000000E+00
  0.00000000E+00  0.00000000E+00  0.00000000E+00
  0.00000000E+00  0.00000000E+00  0.00000000E+00
  0.00000000E+00  0.00000000E+00  0.00000000E+00
  0.00000000E+00  0.00000000E+00  0.00000000E+00
  0.00000000E+00  0.00000000E+00  0.00000000E+00
  0.00000000E+00  0.00000000E+00  0.00000000E+00
  0.00000000E+00  0.00000000E+00  0.00000000E+00
  0.00000000E+00  0.00000000E+00  0.00000000E+00
  0.00000000E+00  0.00000000E+00  0.00000000E+00
  0.00000000E+00  0.00000000E+00  0.00000000E+00
  0.00000000E+00  0.00000000E+00  0.00000000E+00
  0.00000000E+00  0.00000000E+00  0.00000000E+00
  0.00000000E+00  0.00000000E+00  0.00000000E+00
  0.00000000E+00  0.00000000E+00  0.00000000E+00
  0.00000000E+00  0.00000000E+00  0.00000000E+00
  0.00000000E+00  0.00000000E+00  0.00000000E+00
  0.00000000E+00  0.00000000E+00  0.00000000E+00
  0.00000000E+00  0.00000000E+00  0.00000000E+00
  0.00000000E+00  0.00000000E+00  0.00000000E+00
  0.00000000E+00  0.00000000E+00  0.00000000E+00
  0.00000000E+00  0.00000000E+00  0.00000000E+00
  0.00000000E+00  0.00000000E+00  0.00000000E+00
  0.00000000E+00  0.00000000E+00  0.00000000E+00
  0.00000000E+00  0.00000000E+00  0.00000000E+00
  0.00000000E+00  0.00000000E+00  0.00000000E+00
  0.00000000E+00  0.00000000E+00  0.00000000E+00
  0.00000000E+00  0.00000000E+00  0.00000000E+00
  0.00000000E+00  0.00000000E+00  0.00000000E+00
  0.00000000E+00  0.00000000E+00  0.00000000E+00
  0.00000000E+00  0.00000000E+00  0.00000000E+00
  0.00000000E+00  0.00000000E+00  0.00000000E+00
  0.00000000E+00  0.00000000E+00  0.00000000E+00
  0.00000000E+00  0.00000000E+00  0.00000000E+00
  0.00000000E+00  0.00000000E+00  0.00000000E+00
  0.00000000E+00  0.00000000E+00  0.00000000E+00
  0.00000000E+00  0.00000000E+00  0.00000000E+00
  0.00000000E+00  0.00000000E+00  0.00000000E+00
  0.00000000E+00  0.00000000E+00  0.00000000E+00
  0.00000000E+00  0.00000000E+00  0.00000000E+00
  0.00000000E+00  0.00000000E+00  0.00000000E+00
  0.00000000E+00  0.00000000E+00  0.00000000E+00
  0.00000000E+00  0.00000000E+00  0.00000000E+00
  0.00000000E+00  0.00000000E+00  0.00000000E+00
  0.00000000E+00  0.00000000E+00  0.00000000E+00
  0.00000000E+00  0.00000000E+00  0.00000000E+00
  0.00000000E+00  0.00000000E+00  0.00000000E+00
  0.00000000E+00  0.00000000E+00  0.00000000E+00
  0.00000000E+00  0.00000000E+00  0.00000000E+00
  0.00000000E+00  0.00000000E+00  0.00000000E+00
  0.00000000E+00  0.00000000E+00  0.00000000E+00
  0.00000000E+00  0.00000000E+00  0.00000000E+00
  0.00000000E+00  0.00000000E+00  0.00000000E+00
  0.00000000E+00  0.00000000E+00  0.00000000E+00
  0.00000000E+00  0.00000000E+00  0.00000000E+00
  0.00000000E+00  0.00000000E+00  0.00000000E+00
  0.00000000E+00  0.00000000E+00  0.00000000E+00
  0.00000000E+00  0.00000000E+00  0.00000000E+00
  0.00000000E+00  0.00000000E+00  0.00000000E+00
  0.00000000E+00  0.00000000E+00  0.00000000E+00
  0.00000000E+00  0.00000000E+00  0.00000000E+00
  0.00000000E+00  0.00000000E+00  0.00000000E+00
  0.00000000E+00  0.00000000E+00  0.00000000E+00
  0.00000000E+00  0.00000000E+00  0.00000000E+00
  0.00000000E+00  0.00000000E+00  0.00000000E+00
  0.00000000E+00  0.00000000E+00  0.00000000E+00
  0.00000000E+00  0.00000000E+00  0.00000000E+00
  0.00000000E+00  0.00000000E+00  0.00000000E+00
  0.00000000E+00  0.00000000E+00  0.00000000E+00
  0.00000000E+00  0.00000000E+00  0.00000000E+00
  0.00000000E+00  0.00000000E+00  0.00000000E+00
  0.00000000E+00  0.00000000E+00  0.00000000E+00
  0.00000000E+00  0.00000000E+00  0.00000000E+00
  0.00000000E+00  0.00000000E+00  0.00000000E+00
  0.00000000E+00  0.00000000E+00  0.00000000E+00
  0.00000000E+00  0.00000000E+00  0.00000000E+00
  0.00000000E+00  0.00000000E+00  0.00000000E+00
  0.00000000E+00  0.00000000E+00  0.00000000E+00
  0.00000000E+00  0.00000000E+00  0.00000000E+00
  0.00000000E+00  0.00000000E+00  0.00000000E+00
  0.00000000E+00  0.00000000E+00  0.00000000E+00
  0.00000000E+00  0.00000000E+00  0.00000000E+00
  0.00000000E+00  0.00000000E+00  0.00000000E+00
  0.00000000E+00  0.00000000E+00  0.00000000E+00
  0.00000000E+00  0.00000000E+00  0.00000000E+00
  0.00000000E+00  0.00000000E+00  0.00000000E+00
  0.00000000E+00  0.00000000E+00  0.00000000E+00
  0.00000000E+00  0.00000000E+00  0.00000000E+00
  0.00000000E+00  0.00000000E+00  0.00000000E+00
  0.00000000E+00  0.00000000E+00  0.00000000E+00
  0.00000000E+00  0.00000000E+00  0.00000000E+00
  0.00000000E+00  0.00000000E+00  0.00000000E+00
  0.00000000E+00  0.00000000E+00  0.00000000E+00
  0.00000000E+00  0.00000000E+00  0.00000000E+00
  0.00000000E+00  0.00000000E+00  0.00000000E+00
  0.00000000E+00  0.00000000E+00  0.00000000E+00
  0.00000000E+00  0.00000000E+00  0.00000000E+00
  0.00000000E+00  0.00000000E+00  0.00000000E+00
  0.00000000E+00  0.00000000E+00  0.00000000E+00
  0.00000000E+00  0.00000000E+00  0.00000000E+00
  0.00000000E+00  0.00000000E+00  0.00000000E+00
  0.00000000E+00  0.00000000E+00  0.00000000E+00