I4 Pb, 2(C8 H12 N)                      
   1.00000000000000     
     8.8446000304999988    0.0000000000000000    0.0000000000000000
     0.0000000000000000    9.2885000005999991    0.0000000000000000
     0.0000000000000000    0.0000000000000000   28.7950000915999986
   C    H    N    Pb   I 
    64    96     8     4    16
Direct
  0.9302246193577484  0.4404549176430179  0.1714126533742866
  0.5697753806422704  0.5595450823569789  0.6714126833742871
  0.0697753806422589  0.9404549176430063  0.3285873466257226
  0.4302246193577203  0.0595450823569916  0.8285873166257169
  0.8212937520944243  0.3425576483815884  0.1885146250306437
  0.6787062479055810  0.6574423216183968  0.6885146250306516
  0.1787062479055891  0.8425576783816039  0.3114853749693557
  0.3212937520943792  0.1574423516183976  0.8114853749693544
  0.8284530098462127  0.2814580693027449  0.2331312987360989
  0.6715469901537966  0.7185419306972372  0.7331312887361003
  0.1715469901537720  0.7814580693027235  0.2668687112638988
  0.3284530098462052  0.2185419306972405  0.7668687112639001
  0.9499297517414357  0.3189709370700632  0.2621738019345004
  0.5500702482585845  0.6810290629299249  0.7621738019345085
  0.0500702442585605  0.8189709370700591  0.2378261980654926
  0.4499297517414705  0.1810290629299283  0.7378261980654887
  0.0573699960809369  0.4214725070530653  0.2443157591505649
  0.4426299969190480  0.5785274929469212  0.7443157691505649
  0.9426299969190572  0.9214725070530552  0.2556842308494307
  0.5573700030809420  0.0785274929469358  0.7556842308494399
  0.0515708088410565  0.4810713686589740  0.1999767342672858
  0.4484291891589564  0.5189286613410138  0.6999767642672923
  0.9484291891589534  0.9810713286589754  0.3000232657327210
  0.5515708108410579  0.0189286353410166  0.8000232357327244
  0.9012925120587875  0.4984030749391706  0.1223935633582300
  0.5987074879412132  0.5015969550608301  0.6223935333582290
  0.0987074879411827  0.9984030449391686  0.3776064366417686
  0.4012925120587929  0.0015969270608163  0.8776064666417716
  0.8963954996471821  0.6615072593690665  0.1135733006380649
  0.6036045003528662  0.3384927406309209  0.6135733106380631
  0.1036045003528496  0.1615072593690837  0.3864266893619363
  0.3963954996471610  0.8384927406309345  0.8864266893619372
  0.4814413033837213  0.0216204957124715  0.1618320318929870
  0.0185587024162685  0.9783795102875600  0.6618320318929847
  0.5185587266162758  0.5216204897124666  0.3381679681070141
  0.9814412733837248  0.4783795102875217  0.8381679681070143
  0.3649290545456521  0.1208078319359707  0.1645428882354062
  0.1350709454543385  0.8791921980640511  0.6645428882353943
  0.6350709454543373  0.6208078019359549  0.3354571117645909
  0.8649290545456549  0.3791921680640394  0.8354571117645924
  0.3178467948283838  0.1803610419959295  0.2073417719917321
  0.1821532051716396  0.8196389680041145  0.7073417719917354
  0.6821532051716021  0.6803610319959431  0.2926582280082596
  0.8178467948283841  0.3196389680040903  0.7926582280082685
  0.3849975542080459  0.1407769299982392  0.2498558109825280
  0.1150024427919356  0.8592230920017512  0.7498558409825281
  0.6150024157919514  0.6407769079982097  0.2501441890174717
  0.8849975842080481  0.3592230620017533  0.7501441590174773
  0.5027019979628790  0.0407395700155830  0.2475593058277230
  0.9972980020371228  0.9592604319344074  0.7475592958277223
  0.4972980020371123  0.5407395700155724  0.2524407041722785
  0.0027019929628988  0.4592604299844230  0.7524407041722819
  0.5472401437704980  0.9842734131847468  0.2039252805309207
  0.9527598562294897  0.0157265728152474  0.7039253105309186
  0.4527598562295021  0.4842734331847602  0.2960747194690818
  0.0472401367704913  0.5157265968152472  0.7960746894690742
  0.5310668254301671  0.9422233404159345  0.1176998599875078
  0.9689331805698405  0.0577766475840657  0.6176998399875072
  0.4689331445698306  0.4422233404159264  0.3823001300124914
  0.0310668554301543  0.5577766595840608  0.8823001600124910
  0.4728122623269929  0.7891560183125030  0.1147334356020160
  0.0271877376729971  0.2108439916874774  0.6147334356020161
  0.5271877376729708  0.2891560183125091  0.3852665643979820
  0.9728122623270282  0.7108439816874667  0.8852665643979891
  0.7242091549842872  0.3201887848694989  0.1655214248523741
  0.7757908450156389  0.6798112451304893  0.6655214448523836
  0.2757908450157414  0.8201887548694103  0.3344785551476487
  0.2242091549843019  0.1798112151304739  0.8344785551476406
  0.7350610333398088  0.2129119695626638  0.2460800009711480
  0.7649389666602853  0.7870880304373532  0.7460800309711523
  0.2649389666602556  0.7129119695627496  0.2539199990288575
  0.2350610333398578  0.2870880304372835  0.7539199690288481
  0.9739257507773230  0.2745803314953552  0.2975205030436440
  0.5260742492226463  0.7254196685045531  0.7975204730436599
  0.0260742492227039  0.7745803314953514  0.2024794969563349
  0.4739257507773177  0.2254196685046429  0.7024795269563429
  0.1530783846359272  0.4545837357476133  0.2648047337267943
  0.3469216153640325  0.5454162642524147  0.7648047337267616
  0.8469216153640819  0.9545837457475964  0.2351952662732545
  0.6530783846358699  0.0454162603523366  0.7351952662732019
  0.1338378293770153  0.5616426408685213  0.1899752477146357
  0.3661621676230863  0.4383573591314713  0.6899752377146332
  0.8661621676229001  0.0616426418685053  0.3100247622853806
  0.6338378323768856  0.9383573591315871  0.8100247622853787
  0.7912162051772059  0.4478215462958493  0.1147100831576878
  0.7087837948227783  0.5521784537041793  0.6147100631577124
  0.2087837948228742  0.9478215462958758  0.3852899368422953
  0.2912162051772014  0.0521784527041705  0.8852899368422663
  0.8498860925412528  0.6778120832676578  0.0780431968421944
  0.6501139074587424  0.3221879167322797  0.5780432018421675
  0.1501139074587248  0.1778120832676309  0.4219567981578279
  0.3498860925412716  0.8221879167323675  0.9219567981578016
  0.0044762549510712  0.7193904890474747  0.1180722029932691
  0.4955237450490080  0.2806095109526131  0.6180722229932656
  0.9955237500489615  0.2193904890474538  0.3819277770067180
  0.5044762549510865  0.7806095109524679  0.8819277770067269
  0.8163200482417988  0.7178987058708960  0.1370899061369913
  0.6836799517581048  0.2821012941290175  0.6370898761369919
  0.1836799517582461  0.2178987058709762  0.3629100938630345
  0.3163200482418889  0.7821012941290263  0.8629101238630430
  0.3001817917574640  0.1439429964757357  0.1340269234414136
  0.1998182082425310  0.8560569835242704  0.6340268934414267
  0.6998181782425703  0.6439430164758737  0.3659730765586135
  0.8001818217574530  0.3560569835242005  0.8659731065585856
  0.2234058147207022  0.2556261491093272  0.2065963135012961
  0.2765941852793337  0.7443738808907342  0.7065963135012914
  0.7765941852793883  0.7556261191093716  0.2934036864987005
  0.7234058147208234  0.2443738508906432  0.7934036864987147
  0.3416481315187356  0.1906572265737280  0.2828765874906959
  0.1583518604812276  0.8093427634263317  0.7828765874906748
  0.6583518684812717  0.6906572365737381  0.2171234125093409
  0.8416481315186877  0.3093427634263226  0.7171234125093179
  0.5648547890516712  0.9995926186366579  0.2767260608723917
  0.9351452109483289  0.0004074183633394  0.7767260608723928
  0.4351452109482735  0.4995925786366999  0.2232739391276243
  0.0648547890518552  0.5004073913633355  0.7232739391276000
  0.6402681089983400  0.9088415800202235  0.2008696539118177
  0.8597318910015597  0.0911584299798480  0.7008696339118126
  0.3597318910017303  0.4088415800203166  0.2991303660881907
  0.1402681089983170  0.5911584199798267  0.7991303660882078
  0.6559075647567090  0.9500309459700562  0.1114011754602457
  0.8440924352433278  0.0499690840299772  0.6114011954602347
  0.3440924352433040  0.4500309159700873  0.3885988045397500
  0.1559075647567124  0.5499690540298899  0.8885988045397661
  0.5179042735434862  0.7276193906444349  0.0865365157351325
  0.9820957264564915  0.2723805993555671  0.5865364937351417
  0.4820957564564978  0.2276193906444992  0.4134635062648602
  0.0179042435435240  0.7723806093555496  0.9134635062648806
  0.3490220437320464  0.7928940388142264  0.1113187490503180
  0.1509779462678898  0.2071059311858240  0.6113187690503623
  0.6509779462679695  0.2928940688141131  0.3886812609496376
  0.8490220537320402  0.7071059611859744  0.8886812309496421
  0.4973802163635695  0.7285610043117530  0.1473965230858478
  0.0026197836364454  0.2714389956882191  0.6473965430858556
  0.5026197536364551  0.2285610043117355  0.3526034869141547
  0.9973802463634875  0.7714389956881529  0.8526034569141497
  0.0077086089045315  0.5074073367548720  0.0564389248889010
  0.4922913910954831  0.4925926332451392  0.5564389388889175
  0.9922913930955239  0.0074073667548128  0.4435610611110522
  0.5077086089045181  0.9925926582451648  0.9435610611110955
  0.9772803856698744  0.3415984226383614  0.0789837232524872
  0.5227196143301808  0.6584015473617202  0.5789837432524355
  0.0227196073301711  0.8415984526381673  0.4210162567475579
  0.4772803856698341  0.1584015773618136  0.9210162567475614
  0.1217473905135961  0.4502794236395549  0.0984868294375173
  0.3782526064862628  0.5497205763603441  0.5984868124375179
  0.8782526064863597  0.9502794236395526  0.4015131875624750
  0.6217473935135461  0.0497205853603889  0.9015131875624809
  0.5291996476156066  0.1147127247690748  0.0695715745477496
  0.9708003563843666  0.8852872752309081  0.5695715605477838
  0.4708003523843979  0.6147127247690494  0.4304284394522145
  0.0291996476155992  0.3852872752309061  0.9304284394522123
  0.3585983454341267  0.0448518939286705  0.0804384436965663
  0.1414016535658859  0.9551480960711932  0.5804384366965420
  0.6414016545659934  0.5448519039287015  0.4195615633034533
  0.8585983454339772  0.4551480960713144  0.9195615633034617
  0.4833057843115134  0.9517249047524124  0.0472169280811096
  0.0166942056884630  0.0482750702474341  0.5472169130811260
  0.5166942456885238  0.4517249397525025  0.4527830569188924
  0.9833057543114136  0.5482750902472928  0.9527830869188662
  0.0109018742042125  0.4429928671141066  0.0866016349706814
  0.4890981257958051  0.5570071328858687  0.5866016269706830
  0.9890981237957914  0.9429928671140880  0.4133983730293191
  0.5109018742042036  0.0570071328858857  0.9133983730293177
  0.4696770054207671  0.0187829554010921  0.0760754237832978
  0.0303229945792297  0.9812170605988707  0.5760754237832933
  0.5303229945792144  0.5187829394011073  0.4239245762166987
  0.9696770072207578  0.4812170305988898  0.9239245762167025
  0.9741683922788953  0.0352414195962264  0.9896532226525760
  0.5258316077211054  0.9647585778037737  0.4896532263025738
  0.0258316087211037  0.5352414221962262  0.5103467736974246
  0.4741683922788963  0.4647585778037753  0.0103467736974239
  0.9813031848366331  0.0518680180361986  0.0805755065142697
  0.5186968151633670  0.9481319809638026  0.5805754945142717
  0.0186968151633658  0.5518680190361970  0.4194245054857286
  0.4813031848366345  0.4481319809637990  0.9194245054857285
  0.2465492994051245  0.1767136688818488  0.9885090381855591
  0.2534507005948749  0.8232863311181501  0.4885090581855622
  0.7534507005948800  0.6767136688818500  0.5114909418144410
  0.7465492994051202  0.3232863311181509  0.0114909424904381
  0.2208590779541186  0.6448957785962774  0.0256636852287648
  0.2791409220458840  0.3551042214037173  0.5256636912287644
  0.7791409220458811  0.1448957785962831  0.4743363087712338
  0.7208590779541206  0.8551042214037194  0.9743363087712327
  0.9689729301748893  0.1031498810894722  0.9022641543021475
  0.5310270698251098  0.8968501199105299  0.4022641243021489
  0.0310270698251079  0.6031498800894690  0.5977358456978532
  0.4689729301748901  0.3968501199105287  0.0977358706978518
 
  0.48475887E-02  0.15423935E-02 -0.14760269E-02
 -0.48475887E-02 -0.15423935E-02 -0.14760269E-02
 -0.48475887E-02  0.15423935E-02  0.14760269E-02
  0.48475887E-02 -0.15423935E-02  0.14760269E-02
 -0.34563180E-02  0.53338195E-02 -0.20126610E-06
  0.34563180E-02 -0.53338195E-02 -0.20126610E-06
  0.34563180E-02  0.53338195E-02  0.20126610E-06
 -0.34563180E-02 -0.53338195E-02  0.20126610E-06
 -0.31146000E-02  0.38931911E-02  0.37111869E-02
  0.31146000E-02 -0.38931911E-02  0.37111869E-02
  0.31146000E-02  0.38931911E-02 -0.37111869E-02
 -0.31146000E-02 -0.38931911E-02 -0.37111869E-02
 -0.22394224E-03  0.92808811E-03 -0.43857292E-02
  0.22394224E-03 -0.92808811E-03 -0.43857292E-02
  0.22394224E-03  0.92808811E-03  0.43857292E-02
 -0.22394224E-03 -0.92808811E-03  0.43857292E-02
  0.47409841E-02  0.49932201E-02 -0.14542490E-02
 -0.47409841E-02 -0.49932201E-02 -0.14542490E-02
 -0.47409841E-02  0.49932201E-02  0.14542490E-02
  0.47409841E-02 -0.49932201E-02  0.14542490E-02
 -0.18676022E-02 -0.52368263E-02 -0.18446959E-02
  0.18676022E-02  0.52368263E-02 -0.18446959E-02
  0.18676022E-02 -0.52368263E-02  0.18446959E-02
 -0.18676022E-02  0.52368263E-02  0.18446959E-02
  0.10292937E-01  0.27307571E-03 -0.10763377E-02
 -0.10292937E-01 -0.27307571E-03 -0.10763377E-02
 -0.10292937E-01  0.27307571E-03  0.10763377E-02
  0.10292937E-01 -0.27307571E-03  0.10763377E-02
 -0.40753802E-02  0.57678181E-02 -0.26482902E-02
  0.40753802E-02 -0.57678181E-02 -0.26482902E-02
  0.40753802E-02  0.57678181E-02  0.26482902E-02
 -0.40753802E-02 -0.57678181E-02  0.26482902E-02
  0.72207598E-02 -0.36855535E-02 -0.38207453E-02
 -0.72207598E-02  0.36855535E-02 -0.38207453E-02
 -0.72207598E-02 -0.36855535E-02  0.38207453E-02
  0.72207598E-02  0.36855535E-02  0.38207453E-02
 -0.18825047E-02 -0.51585887E-02 -0.43604730E-02
  0.18825047E-02  0.51585887E-02 -0.43604730E-02
  0.18825047E-02 -0.51585887E-02  0.43604730E-02
 -0.18825047E-02  0.51585887E-02  0.43604730E-02
 -0.30584709E-02 -0.48586062E-02 -0.91845152E-02
  0.30584709E-02  0.48586062E-02 -0.91845152E-02
  0.30584709E-02 -0.48586062E-02  0.91845152E-02
 -0.30584709E-02  0.48586062E-02  0.91845152E-02
  0.49519284E-02 -0.20375816E-02 -0.67906810E-02
 -0.49519284E-02  0.20375816E-02 -0.67906810E-02
 -0.49519284E-02 -0.20375816E-02  0.67906810E-02
  0.49519284E-02  0.20375816E-02  0.67906810E-02
 -0.19666341E-02 -0.79815927E-03 -0.48321345E-02
  0.19666341E-02  0.79815927E-03 -0.48321345E-02
  0.19666341E-02 -0.79815927E-03  0.48321345E-02
 -0.19666341E-02  0.79815927E-03  0.48321345E-02
 -0.91824518E-03  0.56915227E-02  0.51304171E-02
  0.91824518E-03 -0.56915227E-02  0.51304171E-02
  0.91824518E-03  0.56915227E-02 -0.51304171E-02
 -0.91824518E-03 -0.56915227E-02 -0.51304171E-02
  0.47013130E-02 -0.20151598E-02 -0.49693132E-02
 -0.47013130E-02  0.20151598E-02 -0.49693132E-02
 -0.47013130E-02 -0.20151598E-02  0.49693132E-02
  0.47013130E-02  0.20151598E-02  0.49693132E-02
  0.23532752E-02 -0.16734888E-02  0.89721965E-02
 -0.23532752E-02  0.16734888E-02  0.89721965E-02
 -0.23532752E-02 -0.16734888E-02 -0.89721965E-02
  0.23532752E-02  0.16734888E-02 -0.89721965E-02
  0.38160952E-03 -0.28398315E-02 -0.56321548E-02
 -0.38160952E-03  0.28398315E-02 -0.56321548E-02
 -0.38160952E-03 -0.28398315E-02  0.56321548E-02
  0.38160952E-03  0.28398315E-02  0.56321548E-02
  0.13410892E-01 -0.75962947E-02 -0.11719788E-01
 -0.13410892E-01  0.75962947E-02 -0.11719788E-01
 -0.13410892E-01 -0.75962947E-02  0.11719788E-01
  0.13410892E-01  0.75962947E-02  0.11719788E-01
 -0.27922264E-01 -0.27136810E-01 -0.41125637E-02
  0.27922264E-01  0.27136810E-01 -0.41125637E-02
  0.27922264E-01 -0.27136810E-01  0.41125637E-02
 -0.27922264E-01  0.27136810E-01  0.41125637E-02
  0.14336806E-01 -0.41801496E-02 -0.16836515E-01
 -0.14336806E-01  0.41801496E-02 -0.16836515E-01
 -0.14336806E-01 -0.41801496E-02  0.16836515E-01
  0.14336806E-01  0.41801496E-02  0.16836515E-01
 -0.14576372E-01  0.13432586E-01 -0.56261253E-02
  0.14576372E-01 -0.13432586E-01 -0.56261253E-02
  0.14576372E-01  0.13432586E-01  0.56261253E-02
 -0.14576372E-01 -0.13432586E-01  0.56261253E-02
 -0.24953580E-02  0.52530392E-02 -0.28029813E-01
  0.24953580E-02 -0.52530392E-02 -0.28029813E-01
  0.24953580E-02  0.52530392E-02  0.28029813E-01
 -0.24953580E-02 -0.52530392E-02  0.28029813E-01
  0.23867628E-01  0.21145567E-01 -0.10835384E-01
 -0.23867628E-01 -0.21145567E-01 -0.10835384E-01
 -0.23867628E-01  0.21145567E-01  0.10835384E-01
  0.23867628E-01 -0.21145567E-01  0.10835384E-01
 -0.83352268E-02 -0.30049462E-02  0.45531971E-02
  0.83352268E-02  0.30049462E-02  0.45531971E-02
  0.83352268E-02 -0.30049462E-02 -0.45531971E-02
 -0.83352268E-02  0.30049462E-02 -0.45531971E-02
  0.66116256E-02 -0.20485811E-02 -0.88745585E-02
 -0.66116256E-02  0.20485811E-02 -0.88745585E-02
 -0.66116256E-02 -0.20485811E-02  0.88745585E-02
  0.66116256E-02  0.20485811E-02  0.88745585E-02
 -0.19022319E-01 -0.24148333E-01  0.34755630E-02
  0.19022319E-01  0.24148333E-01  0.34755630E-02
  0.19022319E-01 -0.24148333E-01 -0.34755630E-02
 -0.19022319E-01  0.24148333E-01 -0.34755630E-02
 -0.56240592E-02  0.70124380E-02  0.44735034E-02
  0.56240592E-02 -0.70124380E-02  0.44735034E-02
  0.56240592E-02  0.70124380E-02 -0.44735034E-02
 -0.56240592E-02 -0.70124380E-02 -0.44735034E-02
  0.14264115E-01 -0.23158471E-01 -0.21411179E-01
 -0.14264115E-01  0.23158471E-01 -0.21411179E-01
 -0.14264115E-01 -0.23158471E-01  0.21411179E-01
  0.14264115E-01  0.23158471E-01  0.21411179E-01
 -0.74559323E-02 -0.38051883E-02  0.82952320E-02
  0.74559323E-02  0.38051883E-02  0.82952320E-02
  0.74559323E-02 -0.38051883E-02 -0.82952320E-02
 -0.74559323E-02  0.38051883E-02 -0.82952320E-02
  0.10583139E-01  0.14831307E-01  0.85220313E-02
 -0.10583139E-01 -0.14831307E-01  0.85220313E-02
 -0.10583139E-01  0.14831307E-01 -0.85220313E-02
  0.10583139E-01 -0.14831307E-01 -0.85220313E-02
  0.75996159E-02  0.13022444E-01 -0.20855388E-01
 -0.75996159E-02 -0.13022444E-01 -0.20855388E-01
 -0.75996159E-02  0.13022444E-01  0.20855388E-01
  0.75996159E-02 -0.13022444E-01  0.20855388E-01
 -0.77404227E-02 -0.37353499E-02 -0.18489271E-02
  0.77404227E-02  0.37353499E-02 -0.18489271E-02
  0.77404227E-02 -0.37353499E-02  0.18489271E-02
 -0.77404227E-02  0.37353499E-02  0.18489271E-02
  0.81078509E-03  0.17786238E-02  0.15041969E-01
 -0.81078509E-03 -0.17786238E-02  0.15041969E-01
 -0.81078509E-03  0.17786238E-02 -0.15041969E-01
  0.81078509E-03 -0.17786238E-02 -0.15041969E-01
 -0.11976976E-01 -0.20081851E-02 -0.77321739E-02
  0.11976976E-01  0.20081851E-02 -0.77321739E-02
  0.11976976E-01 -0.20081851E-02  0.77321739E-02
 -0.11976976E-01  0.20081851E-02  0.77321739E-02
  0.12421427E-02  0.83343462E-03  0.13897379E-02
 -0.12421427E-02 -0.83343462E-03  0.13897379E-02
 -0.12421427E-02  0.83343462E-03 -0.13897379E-02
  0.12421427E-02 -0.83343462E-03 -0.13897379E-02
 -0.18937478E-01  0.57482477E-02 -0.20068226E-01
  0.18937478E-01 -0.57482477E-02 -0.20068226E-01
  0.18937478E-01  0.57482477E-02  0.20068226E-01
 -0.18937478E-01 -0.57482477E-02  0.20068226E-01
  0.25059373E-01 -0.19312276E-01  0.16379338E-01
 -0.25059373E-01  0.19312276E-01  0.16379338E-01
 -0.25059373E-01 -0.19312276E-01 -0.16379338E-01
  0.25059373E-01  0.19312276E-01 -0.16379338E-01
 -0.13776160E-01  0.93663586E-03  0.54924567E-02
  0.13776160E-01 -0.93663586E-03  0.54924567E-02
  0.13776160E-01  0.93663586E-03 -0.54924567E-02
 -0.13776160E-01 -0.93663586E-03 -0.54924567E-02
 -0.39703141E-02 -0.53610388E-02  0.38047599E-01
  0.39703141E-02  0.53610388E-02  0.38047599E-01
  0.39703141E-02 -0.53610388E-02 -0.38047599E-01
 -0.39703141E-02  0.53610388E-02 -0.38047599E-01
  0.15442501E-01  0.30762291E-01 -0.74304525E-02
 -0.15442501E-01 -0.30762291E-01 -0.74304525E-02
 -0.15442501E-01  0.30762291E-01  0.74304525E-02
  0.15442501E-01 -0.30762291E-01  0.74304525E-02
  0.63772930E-02  0.41340467E-02  0.50878011E-02
 -0.63772930E-02 -0.41340467E-02  0.50878011E-02
 -0.63772930E-02  0.41340467E-02 -0.50878011E-02
  0.63772930E-02 -0.41340467E-02 -0.50878011E-02
 -0.72812497E-02  0.15275821E-02  0.89044416E-02
  0.72812497E-02 -0.15275821E-02  0.89044416E-02
  0.72812497E-02  0.15275821E-02 -0.89044416E-02
 -0.72812497E-02 -0.15275821E-02 -0.89044416E-02
 -0.17114876E-02 -0.45747496E-02  0.82632104E-03
  0.17114876E-02  0.45747496E-02  0.82632104E-03
  0.17114876E-02 -0.45747496E-02 -0.82632104E-03
 -0.17114876E-02  0.45747496E-02 -0.82632104E-03
  0.14261266E-02 -0.18417738E-02 -0.29089770E-02
 -0.14261266E-02  0.18417738E-02 -0.29089770E-02
 -0.14261266E-02 -0.18417738E-02  0.29089770E-02
  0.14261266E-02  0.18417738E-02  0.29089770E-02
 -0.90571263E-03  0.63096987E-03 -0.91781673E-03
  0.90571263E-03 -0.63096987E-03 -0.91781673E-03
  0.90571263E-03  0.63096987E-03  0.91781673E-03
 -0.90571263E-03 -0.63096987E-03  0.91781673E-03
 -0.16890417E-03  0.21755890E-03 -0.14014782E-02
  0.16890417E-03 -0.21755890E-03 -0.14014782E-02
  0.16890417E-03  0.21755890E-03  0.14014782E-02
 -0.16890417E-03 -0.21755890E-03  0.14014782E-02
  0.55280884E-03  0.10707428E-02  0.29837224E-02
 -0.55280884E-03 -0.10707428E-02  0.29837224E-02
 -0.55280884E-03  0.10707428E-02 -0.29837224E-02
  0.55280884E-03 -0.10707428E-02 -0.29837224E-02
 
           1
   2.00000000000000     
  0.10000000E+01  0.00000000E+00  0.00000000E+00  0.00000000E+00
  0.93132079E+00  0.44078703E+00  0.17131013E+00
  0.56867921E+00  0.55921297E+00  0.67131016E+00
  0.68679212E-01  0.94078703E+00  0.32868987E+00
  0.43132079E+00  0.59212974E-01  0.82868984E+00
  0.82051219E+00  0.34370613E+00  0.18851461E+00
  0.67948781E+00  0.65629384E+00  0.68851461E+00
  0.17948781E+00  0.84370616E+00  0.31148539E+00
  0.32051219E+00  0.15629387E+00  0.81148539E+00
  0.82774872E+00  0.28229635E+00  0.23338906E+00
  0.67225128E+00  0.71770365E+00  0.73338905E+00
  0.17225128E+00  0.78229635E+00  0.26661095E+00
  0.32774872E+00  0.21770365E+00  0.76661095E+00
  0.94987911E+00  0.31917077E+00  0.26186918E+00
  0.55012089E+00  0.68082923E+00  0.76186918E+00
  0.50120884E-01  0.81917077E+00  0.23813082E+00
  0.44987911E+00  0.18082923E+00  0.73813082E+00
  0.58442059E-01  0.42254765E+00  0.24421475E+00
  0.44155793E+00  0.57745235E+00  0.74421476E+00
  0.94155793E+00  0.92254765E+00  0.25578524E+00
  0.55844207E+00  0.77452353E-01  0.75578524E+00
  0.51148494E-01  0.47994378E+00  0.19984861E+00
  0.44885150E+00  0.52005625E+00  0.69984864E+00
  0.94885150E+00  0.97994374E+00  0.30015139E+00
  0.55114850E+00  0.20056229E-01  0.80015136E+00
  0.90362002E+00  0.49846187E+00  0.12231880E+00
  0.59637998E+00  0.50153816E+00  0.62231877E+00
  0.96379980E-01  0.99846184E+00  0.37768120E+00
  0.40362002E+00  0.15381284E-02  0.87768123E+00
  0.89547395E+00  0.66274919E+00  0.11338936E+00
  0.60452605E+00  0.33725081E+00  0.61338937E+00
  0.10452605E+00  0.16274919E+00  0.38661063E+00
  0.39547395E+00  0.83725081E+00  0.88661063E+00
  0.48307411E+00  0.20826922E-01  0.16156666E+00
  0.16925896E-01  0.97917308E+00  0.66156666E+00
  0.51692592E+00  0.52082692E+00  0.33843334E+00
  0.98307408E+00  0.47917308E+00  0.83843334E+00
  0.36450337E+00  0.11969708E+00  0.16424003E+00
  0.13549663E+00  0.88030295E+00  0.66424003E+00
  0.63549663E+00  0.61969705E+00  0.33575997E+00
  0.86450337E+00  0.38030292E+00  0.83575997E+00
  0.31715519E+00  0.17931489E+00  0.20670385E+00
  0.18284481E+00  0.82068512E+00  0.70670385E+00
  0.68284481E+00  0.67931488E+00  0.29329615E+00
  0.81715519E+00  0.32068512E+00  0.79329615E+00
  0.38611732E+00  0.14033820E+00  0.24938415E+00
  0.11388268E+00  0.85966182E+00  0.74938418E+00
  0.61388265E+00  0.64033818E+00  0.25061585E+00
  0.88611735E+00  0.35966179E+00  0.75061582E+00
  0.50225729E+00  0.40567710E-01  0.24722368E+00
  0.99774271E+00  0.95943229E+00  0.74722367E+00
  0.49774271E+00  0.54056771E+00  0.25277633E+00
  0.22572845E-02  0.45943229E+00  0.75277633E+00
  0.54703250E+00  0.98549891E+00  0.20428162E+00
  0.95296750E+00  0.14501074E-01  0.70428165E+00
  0.45296750E+00  0.48549893E+00  0.29571838E+00
  0.47032497E-01  0.51450110E+00  0.79571835E+00
  0.53212992E+00  0.94178944E+00  0.11735471E+00
  0.96787009E+00  0.58210552E-01  0.61735469E+00
  0.46787005E+00  0.44178944E+00  0.38264528E+00
  0.32129948E-01  0.55821056E+00  0.88264531E+00
  0.47334440E+00  0.78879568E+00  0.11535661E+00
  0.26655599E-01  0.21120433E+00  0.61535661E+00
  0.52665560E+00  0.28879568E+00  0.38464339E+00
  0.97334440E+00  0.71120432E+00  0.88464339E+00
  0.72429545E+00  0.31957731E+00  0.16513024E+00
  0.77570455E+00  0.68042272E+00  0.66513026E+00
  0.27570455E+00  0.81957728E+00  0.33486974E+00
  0.22429545E+00  0.18042269E+00  0.83486974E+00
  0.73809359E+00  0.21127634E+00  0.24526599E+00
  0.76190641E+00  0.78872366E+00  0.74526602E+00
  0.26190641E+00  0.71127634E+00  0.25473401E+00
  0.23809359E+00  0.28872366E+00  0.75473398E+00
  0.96761178E+00  0.26873723E+00  0.29723486E+00
  0.53238822E+00  0.73126277E+00  0.79723483E+00
  0.32388218E-01  0.76873723E+00  0.20276514E+00
  0.46761178E+00  0.23126277E+00  0.70276517E+00
  0.15632032E+00  0.45368367E+00  0.26363533E+00
  0.34367968E+00  0.54631633E+00  0.76363533E+00
  0.84367968E+00  0.95368368E+00  0.23636467E+00
  0.65632032E+00  0.46316330E-01  0.73636467E+00
  0.13054172E+00  0.56453495E+00  0.18958448E+00
  0.36945827E+00  0.43546505E+00  0.68958447E+00
  0.86945827E+00  0.64534947E-01  0.31041553E+00
  0.63054173E+00  0.93546505E+00  0.81041553E+00
  0.79065194E+00  0.44895263E+00  0.11276323E+00
  0.70934806E+00  0.55104737E+00  0.61276321E+00
  0.20934806E+00  0.94895263E+00  0.38723679E+00
  0.29065194E+00  0.51047368E-01  0.88723679E+00
  0.85528320E+00  0.68236515E+00  0.77290609E-01
  0.64471680E+00  0.31763485E+00  0.57729061E+00
  0.14471680E+00  0.18236515E+00  0.42270939E+00
  0.35528320E+00  0.81763485E+00  0.92270939E+00
  0.25914378E-02  0.71874346E+00  0.11838845E+00
  0.49740856E+00  0.28125654E+00  0.61838847E+00
  0.99740857E+00  0.21874346E+00  0.38161153E+00
  0.50259144E+00  0.78125654E+00  0.88161153E+00
  0.81781511E+00  0.71745761E+00  0.13647351E+00
  0.68218489E+00  0.28254239E+00  0.63647348E+00
  0.18218489E+00  0.21745761E+00  0.36352649E+00
  0.31781511E+00  0.78254239E+00  0.86352652E+00
  0.29588034E+00  0.13874338E+00  0.13426832E+00
  0.20411966E+00  0.86125660E+00  0.63426829E+00
  0.70411963E+00  0.63874340E+00  0.36573168E+00
  0.79588037E+00  0.36125660E+00  0.86573171E+00
  0.22213406E+00  0.25713607E+00  0.20690703E+00
  0.27786594E+00  0.74286396E+00  0.70690703E+00
  0.77786594E+00  0.75713604E+00  0.29309297E+00
  0.72213406E+00  0.24286393E+00  0.79309297E+00
  0.34487363E+00  0.18567074E+00  0.28138944E+00
  0.15512636E+00  0.81432925E+00  0.78138944E+00
  0.65512637E+00  0.68567075E+00  0.21861056E+00
  0.84487363E+00  0.31432925E+00  0.71861056E+00
  0.56316880E+00  0.99877329E+00  0.27730222E+00
  0.93683120E+00  0.12267516E-02  0.77730222E+00
  0.43683120E+00  0.49877325E+00  0.22269778E+00
  0.63168804E-01  0.50122672E+00  0.72269778E+00
  0.64266124E+00  0.91203506E+00  0.20146156E+00
  0.85733876E+00  0.87964953E-01  0.70146154E+00
  0.35733876E+00  0.41203506E+00  0.29853846E+00
  0.14266124E+00  0.58796494E+00  0.79853846E+00
  0.65762604E+00  0.95283494E+00  0.10995263E+00
  0.84237396E+00  0.47165091E-01  0.60995265E+00
  0.34237396E+00  0.45283491E+00  0.39004735E+00
  0.15762604E+00  0.54716506E+00  0.89004735E+00
  0.51615396E+00  0.72681510E+00  0.86408096E-01
  0.98384604E+00  0.27318489E+00  0.58640807E+00
  0.48384607E+00  0.22681510E+00  0.41359193E+00
  0.16153927E-01  0.77318490E+00  0.91359193E+00
  0.34920538E+00  0.79327701E+00  0.11236351E+00
  0.15079461E+00  0.20672296E+00  0.61236353E+00
  0.65079461E+00  0.29327704E+00  0.38763650E+00
  0.84920539E+00  0.70672299E+00  0.88763647E+00
  0.49467190E+00  0.72812860E+00  0.14685947E+00
  0.53280975E-02  0.27187140E+00  0.64685949E+00
  0.50532807E+00  0.22812860E+00  0.35314054E+00
  0.99467193E+00  0.77187140E+00  0.85314051E+00
  0.79894905E-02  0.50758679E+00  0.56535451E-01
  0.49201051E+00  0.49241318E+00  0.55653547E+00
  0.99201051E+00  0.75868219E-02  0.44346453E+00
  0.50798949E+00  0.99241320E+00  0.94346453E+00
  0.97299812E+00  0.34283614E+00  0.77589854E-01
  0.52700188E+00  0.65716383E+00  0.57758987E+00
  0.27001876E-01  0.84283617E+00  0.42241013E+00
  0.47299812E+00  0.15716386E+00  0.92241013E+00
  0.12741398E+00  0.44612110E+00  0.99624481E-01
  0.37258601E+00  0.55387890E+00  0.59962446E+00
  0.87258601E+00  0.94612110E+00  0.40037554E+00
  0.62741399E+00  0.53878905E-01  0.90037554E+00
  0.52608449E+00  0.11491440E+00  0.69953061E-01
  0.97391551E+00  0.88508560E+00  0.56995305E+00
  0.47391551E+00  0.61491440E+00  0.43004695E+00
  0.26084490E-01  0.38508560E+00  0.93004695E+00
  0.35770055E+00  0.43697555E-01  0.83081097E-01
  0.14229945E+00  0.95630244E+00  0.58308109E+00
  0.64229945E+00  0.54369756E+00  0.41691891E+00
  0.85770055E+00  0.45630244E+00  0.91691891E+00
  0.48679775E+00  0.95834864E+00  0.46700835E-01
  0.13202244E-01  0.41651333E-01  0.54670082E+00
  0.51320228E+00  0.45834868E+00  0.45329915E+00
  0.98679772E+00  0.54165135E+00  0.95329918E+00
  0.12343950E-01  0.44388301E+00  0.86955016E-01
  0.48765605E+00  0.55611699E+00  0.58695501E+00
  0.98765605E+00  0.94388301E+00  0.41304499E+00
  0.51234395E+00  0.56116990E-01  0.91304499E+00
  0.46803052E+00  0.19111874E-01  0.76693895E-01
  0.31969479E-01  0.98088814E+00  0.57669390E+00
  0.53196948E+00  0.51911186E+00  0.42330610E+00
  0.96803052E+00  0.48088811E+00  0.92330610E+00
  0.97378138E+00  0.34256384E-01  0.98971062E+00
  0.52621862E+00  0.96574361E+00  0.48971062E+00
  0.26218622E-01  0.53425639E+00  0.51028938E+00
  0.47378138E+00  0.46574361E+00  0.10289380E-01
  0.98162567E+00  0.51471447E-01  0.80373459E-01
  0.51837433E+00  0.94852855E+00  0.58037345E+00
  0.18374330E-01  0.55147145E+00  0.41962655E+00
  0.48162567E+00  0.44852855E+00  0.91962655E+00
  0.24634449E+00  0.17684953E+00  0.98844529E+00
  0.25365551E+00  0.82315047E+00  0.48844531E+00
  0.75365551E+00  0.67684953E+00  0.51155469E+00
  0.74634449E+00  0.32315047E+00  0.11554691E-01
  0.22082088E+00  0.64494262E+00  0.25566343E-01