Ge Sb Te                                
   1.00000000000000     
    22.3661967999986402    0.0000000000000000    0.0000000000000000
     0.0000000000000000   22.3661967999986402    0.0000000000000000
     0.0000000000000000    0.0000000000000000   22.3661967999986402
   Ge   Sb   Te
    25   100   175
Direct
  0.6946051142906546  0.1927273197148027  0.3564380356521900
  0.2057028422463612  0.2053339620689196  0.9141214876335607
  0.3623864054897924  0.0553966003013980  0.9314942940581543
  0.2113396359929285  0.9225654444614110  0.5762577396980973
  0.3138480479795536  0.6053739922435254  0.2121541499690318
  0.7950117949553992  0.1655884724090518  0.5425702104385791
  0.1752417246355497  0.0334264786981537  0.8748962857939662
  0.2596085942545897  0.4716210222594384  0.6946885802949011
  0.4981834412812140  0.1730412862429826  0.3820357157683600
  0.9255355076997204  0.2917025184071569  0.5113101520562529
  0.8035602618198511  0.5502009815303855  0.6817976087157424
  0.8634850104216010  0.9042161961955096  0.4942602916096368
  0.6618240042413286  0.8088353823453565  0.9435082633487968
  0.3470255453670722  0.4532624815959835  0.2753840188448934
  0.4658639189514409  0.3459996104245520  0.7316752261710795
  0.0351904755593590  0.3887094332796896  0.2737145785347737
  0.3501222117683320  0.8030571369870954  0.4776317959267816
  0.6894089235766638  0.1250807597683131  0.9459675693711612
  0.5456179340662651  0.2928723901925939  0.4799828452566700
  0.3849445900043518  0.9340864426594290  0.2328649080422584
  0.9186700473232412  0.1266023021891380  0.4430009103834123
  0.3555865495650017  0.1192632792020617  0.6577294476955733
  0.1024315100455783  0.1164143024701875  0.8246048281000372
  0.7914883890921387  0.0231998038591874  0.0696626508269591
  0.6623216194278641  0.6592491899056694  0.4514739624687160
  0.0393561750015879  0.9050840086427258  0.0294785172746057
  0.0666553727828363  0.5617243381490639  0.0558761232793749
  0.8362561109236033  0.4132491566834807  0.2396143492366522
  0.7924488225424775  0.6571142858502373  0.9730379371484210
  0.7292519342553416  0.0423240144354763  0.1737105499255966
  0.0205716873097800  0.4802555325590300  0.5392017503992372
  0.8802638034044323  0.2311595119741842  0.3836046573456998
  0.2391206099431808  0.4680044260045997  0.5662664646422985
  0.9215622829785415  0.5941397951401517  0.4882078716855218
  0.8825293679872448  0.5573560033285948  0.9702226934749022
  0.2284519777722528  0.1547986679434928  0.3900460434968814
  0.7235453307717568  0.8504097225856579  0.7325476083724890
  0.2790174941542208  0.8535533243236296  0.7867370314598141
  0.5648041352735883  0.9791383148311462  0.7423714757409912
  0.3391817571554160  0.3311591706368421  0.0619344097333710
  0.0033721561799547  0.8064193222385381  0.1856880564086643
  0.4291492593340170  0.5914972614717783  0.7221214508630772
  0.4409145479444502  0.4536790653630954  0.8712240642967537
  0.5302459806829131  0.1998219031998329  0.5937030956330623
  0.1277743504145723  0.3944299153183264  0.5403608795135023
  0.4195580591258534  0.8124356100356998  0.7544635804165301
  0.8478162240064959  0.1123287129755638  0.7618034061933381
  0.8961860988590282  0.7947714172842465  0.3262943167601388
  0.2062439925322754  0.2619745311691379  0.6730980587715214
  0.5161438523591074  0.9505717276839891  0.5454316189589652
  0.3337978462217591  0.4657431204862777  0.0361322979721144
  0.7161001942987172  0.7700429520875962  0.4260974470098002
  0.3132322667936243  0.6828408348337853  0.7968598418792220
  0.9894190412657687  0.5799517439006021  0.7976011034756185
  0.9721550386904784  0.0512151292507788  0.9381751063292862
  0.1016170625673170  0.4055767458191868  0.7639193988800740
  0.8768755336295838  0.2082884072371498  0.9104585823859401
  0.0702705856870791  0.5815576460700066  0.6063754654975108
  0.1257511063501695  0.1742396528189723  0.0088645250649212
  0.5520037785878630  0.5550697267980854  0.7479371059796046
  0.7545016364777981  0.7066129692979773  0.6136890280078967
  0.8197771745114009  0.6418695225168799  0.1873144867602792
  0.5958591285644879  0.3876616767355612  0.2185307635231683
  0.3602543107561517  0.5883761675838658  0.9056998483296440
  0.3141268471040395  0.6072279069522508  0.4730055828459056
  0.6771291278354163  0.0851087058665640  0.6629658058805998
  0.1019469380538040  0.0956443252850118  0.2253514356568183
  0.4740327052687656  0.1846166462485849  0.0959987311430725
  0.7142009556045728  0.2615966574542787  0.2537079058967871
  0.1916075908953203  0.4506079854355308  0.1623531029799420
  0.5320251374086618  0.0976651103043694  0.9626501321154809
  0.8495885917901284  0.0687463435603678  0.8896636821314321
  0.2499964077524585  0.9456945151418806  0.0425228063063469
  0.6441597359366121  0.7977914271247637  0.5343896607460591
  0.7693028554964768  0.3363536972306566  0.6007316407507312
  0.4824776572613935  0.5524732899986181  0.3140725169215518
  0.1466529706036875  0.7269322589632508  0.8108196690896564
  0.6018585638078594  0.5032460485152515  0.3732443773692262
  0.6819735461544880  0.5377042989592842  0.4728099346215358
  0.7515466404517787  0.9163789193323676  0.2069966253989772
  0.4758903698529670  0.7669761767831363  0.2553120147300338
  0.6471952404587681  0.6903582249582995  0.2675765866065410
  0.5335078587820337  0.1753130966205673  0.2114391524682165
  0.5653695892455840  0.8887295580074660  0.6482300848442510
  0.6108031863946953  0.0363323024298168  0.5093108523054438
  0.0179071259943702  0.6728430229492506  0.2005371189513981
  0.4107154101603624  0.4628896072855364  0.5923331974159509
  0.1774429302239882  0.7063100995466272  0.5719713781133091
  0.5386692988496701  0.7112954945302110  0.8574314371966106
  0.3892099007211357  0.8737406636573247  0.9350585622497180
  0.8138651011962262  0.4538847297656504  0.7931249093149314
  0.4876155527194815  0.1575615781327177  0.7769712043965172
  0.1820378765248185  0.7337267925567503  0.2031760500115425
  0.1094513361892862  0.5555119259415940  0.1816259721662827
 -0.0118228162190416  0.4305276606492170  0.9011233603112123
  0.6898744781331634  0.4183462793590975  0.9559136290690120
  0.4705066585973425  0.9203496274605905  0.8144895734564761
  0.3513312314615405  0.2927810670900335  0.6814769782214243
  0.5973369479178096  0.4558636025575351  0.5695297523710947
  0.5988678554542768  0.9855344447703523  0.3896865746692123
  0.2085738533038293  0.6113394518047971  0.8302950594769632
  0.4681126712887955  0.5843290407618170  0.9796696898194992
  0.7813813112784661  0.9811695767892700  0.3167860820114262
  0.8808036171930222  0.8181615259953749  0.9840370836901816
  0.7064314807611951  0.4137564593920039  0.1493280279894485
  0.0690668267549865  0.0213473818759181  0.6579419553610765
  0.9776122381283949  0.0016682040280495  0.7511028761454962
  0.1395890273523616  0.8632519666938880  0.9503744674978246
  0.0427174438042078  0.0688731672671090  0.3998622914629684
  0.3206213109718679  0.9571157406367569  0.6840265608647167
  0.6613596374904415  0.6646969911817530  0.8654490233324105
  0.4288689906748281  0.9883530017667751  0.0824544742254293
  0.8273682999509940  0.1432201866254891  0.3025553268371656
  0.2280826718658644  0.0841681881746200  0.1860242693464673
  0.3852328227377276  0.1091677001279079  0.3281209517802429
  0.5449040297037411  0.4185078736992858  0.4549748510674674
  0.8450550294380349  0.5352323906600113  0.3408794407765685
  0.7632109284287093  0.9822463278346866  0.5166143199659697
  0.8938211761948763  0.5017766460376478  0.1633829738209332
  0.2110109162714107  0.2760596046722020  0.2290560739078074
  0.9568638911592465  0.0444749599121798  0.0936488191200582
  0.8950503492823491  0.3260689500219355  0.1208197546730797
  0.1911080608145429  0.7370436289106715  0.3876504347088430
  0.8180272802812744  0.9394620097650562  0.7300435831491191
  0.3084126718557386  0.3601560553827402  0.1864876224769199
  0.0223092624173970  0.5146014541592282  0.4123025586030650
  0.9543597444570400  0.6386556721056662  0.6139972908491610
  0.2285131962029472  0.2053770868074224  0.0822943268711949
  0.6345192683834785  0.3335341174897517  0.8741246365922817
  0.5333746283522404  0.2782657545643411  0.9201267642079924
  0.7931356882105171  0.4941798374769681  0.0571611482091095
  0.6317261309255768  0.7007911146371273 -0.0142079209558960
  0.4780915538727676  0.8689646818254725  0.1820969599440309
  0.2865006897775224  0.9409458679683913  0.9020184501719890
  0.0408698111563741  0.9760618726937125  0.8617577627983232
  0.6250406293103667  0.8954832383186695  0.2212715712249286
  0.2179699988700126  0.6339956892074793  0.1234275238494591
  0.6068445072011549  0.4953157856860472  0.1538507847211849
  0.2097825960267554  0.2679090737645330  0.5406623547983832
  0.3242984109628906  0.7158194467307126  0.3977408622878540
  0.9440181519830653  0.0962527650152385  0.2858744967346009
  0.7289876370425086  0.5991734730621614  0.0798191185107612
  0.6069402451491169  0.0962086345893374  0.8573147313672237
  0.2636431647263688  0.3598283537525797  0.3955121912054802
  0.8217445286989460  0.9429167621533289  0.8859715866779052
  0.2289484478339762  0.3895118530125872  0.7776177938264528
  0.1414131347294612  0.0477627462895426 -0.0055870826121570
  0.9821828683703716  0.2609151076791610  0.0477262157379344
  0.4698347492243581  0.3116211788679817  0.1121717023604787
  0.1558919557141055  0.8988650955350214  0.7798456441104449
  0.8118037798524617  0.7450484716153387  0.0616902372896010
  0.4313206564322860  0.1615119115110283  0.9219020210763735
  0.7552735529499166  0.2250112324955052  0.9449822481951692
  0.9335998208391770  0.4071532701523653  0.7886502794338011
  0.7972726683643940  0.0620827684708185  0.6225996681156009
  0.7455101698547273  0.7856176747476472  0.8631715936946005
  0.4004531193501776  0.2793559981656962  0.2279202434497456
  0.5177894084466543  0.7306379987247321  0.7304857212550671
  0.7113757344378172  0.3712248187918421  0.7067630069630475
  0.4888831533507577  0.5963429749205046  0.1686217868000100
  0.6807757008719256  0.3366977780222603  0.0508322542720503
  0.9044366875828892  0.0055255098760682  0.2055799535131806
  0.6197181314529929  0.0258909802106166  0.1098800893896904
  0.3686170665574351  0.1665860050094344  0.1680797851081148
  0.5381689060835850  0.8447758713342526  0.4758719909059062
  0.7521709977301966  0.5543027515457006  0.2548228613758063
  0.1397899359330826  0.6624917216867334  0.0264146993791904
  0.3927807829132443  0.9008505206407761  0.4188216619758742
  0.2775362483426106  0.7702348694313216  0.8851296446045270
  0.4680398819552139  0.4576817564416219  0.0026844589577133
  0.3924288385473623  0.0179012989913669  0.7740562459948345
  0.0856896435084101  0.9009166223829060  0.1481639669208734
  0.0793212549136131  0.5197883893324290  0.8638795694021637
  0.9243771159851694  0.1763228168095612  0.5562286639891953
  0.9197536656575822  0.6607841310766346  0.2826379388450943
  0.8555468343401613  0.4282516001749999  0.5815876652853118
  0.1852152375364352  0.6478177319606792  0.2966011142809351
  0.0860685627998404  0.3149674819819374  0.6670251137482159
  0.3597835920631595  0.8804424503132187  0.0676657690592994
  0.0893499288895439  0.8970990907800831  0.5885518340532697
  0.1722687837444269  0.3708944039298537  0.3073156263055440
  0.3288973737495387  0.6671436749975359  0.5853114362620863
  0.8798794376661052  0.8268544390461222  0.2037451549186558
  0.8676477668649568  0.9335510476082490  0.0818094473383509
  0.9015954818432577  0.3231894676919893  0.9649748084406333
  0.9522194539670790  0.7655802487024820  0.6054168277268366
  0.0218625728933475  0.1629935186622155  0.9039380475544315
  0.0145997145141814  0.9673638081650192  0.4727195096472863
  0.6940873859586764  0.4971896535783784  0.6920219901961401
  0.0248822468382982  0.8053953721789876  0.3174464758372323
  0.8929076452664276  0.9049839479103137  0.6267431331301382
  0.6681828339214415  0.9419909431053021  0.8037239532022188
  0.1954615694375854  0.4707692942916427  0.0362892938216561
  0.8802497164433581  0.2332357568848514  0.7866723374460148
  0.3795802641082683  0.2170633460375578  0.5842843148148352
  0.8987213786532284  0.8804815223049556  0.8070939217712052
  0.6059277716587039  0.1941415781596486  0.0069605290359238
  0.7235069506721652  0.6383373023738275  0.7210835246191337
  0.5629779039588465  0.7056333933046636  0.1702821846225311
  0.3525056746845633  0.5752916513318022  0.3243322207454286
  0.0225405911328192  0.6602211543462818  0.4345346173319641
  0.8539791357368701  0.7514979834062456  0.6845884296277780
  0.3117751142567921  0.3647094303375732  0.5518838592919226
  0.4117125936515203  0.8738413950475703  0.6444614671868412
  0.8184109767125936  0.5624825834496650  0.8598425335764170
  0.3324856708877846  0.0666114212860572  0.0544648912988912
  0.6078924467000277  0.8066882914607825  0.3103287591984090
  0.0685698959122615  0.3363034929361793  0.8676430305435725
  0.9345077134811360  0.3408913501181760  0.6243116924652157
  0.0475614885706085  0.6792723898279701  0.7439152850566259
  0.9397673986556967  0.0220574972354124  0.6077769308740983
  0.2215464519127414  0.9580521333290365  0.1724044752643354
  0.4395404137493611  0.2675989720285110  0.4292907315640753
  0.1863820836778176  0.6142203185931594  0.4818819803876974
  0.8000982426716383  0.0854739082649765  0.4452234591653198
  0.6761932703371536  0.3685604706714715  0.5175986759764498
  0.1487608889410038  0.0862767689632604  0.4813733004628536
  0.9770644999190209  0.6436435212027967  0.9210705448846487
  0.6493967406824658  0.1959531770761976  0.1670532587564579
  0.6841645550151184  0.8797286068314598  0.0328524268406507
  0.2074402808919640  0.9634996804368234  0.4592149097140300
  0.8126089591728022  0.2087469650460557  0.1928845573181911
  0.0968739941741059  0.2013250393467372  0.5331318024950853
  0.4835748526652446  0.5817012092615533  0.4442848374391227
  0.1044550079423431  0.8260242413806838  0.6932409594663985
  0.8852946317566225  0.9249801234454839  0.3633253060546546
  0.6626933355020036  0.1888688013708712  0.5895023911648488
  0.1841981842529806  0.4547010161642220  0.4382056572241799
  0.1145813161837163  0.1902708993628305  0.3053797595501342
  0.1196455403914912  0.3469081303680179  0.1518364436642664
  0.3785199160283070  0.5101515672610334  0.1674333097043856
  0.4911660278255449  0.0962392877994657  0.6609060959003308
  0.0773425680587738  0.7567617153192721  0.9159473137085574
  0.7808956459555598  0.4694484083780383  0.4304896418868858
  0.1864604303090984  0.8358994144817614  0.3087115859993221
  0.3759314595221477  0.4741261452335260  0.7389694648595205
  0.9600469468756492  0.4291476478437110  0.0838580111282106
  0.3648623958820130  0.2036355062201827  0.7718956319988001
  0.3391255575687555  0.1067382465841502  0.4474379177357578
  0.5605055571553578  0.6754510281452754  0.3857593122127952
  0.0076467830892097  0.5036937902935602  0.6844438611675971
  0.7100842152564542  0.0001192654907251  0.9819814411408467
  0.4244683449860019  0.4613193969042600  0.4630250816703138
  0.7653272562510380  0.2548101109013471  0.4354611974677212
  0.3372486562491793  0.0214437126597685  0.5754029560516778
  0.4256869518068654  0.3276681146742596  0.8548085151956920
  0.0407971897023319  0.2981440292294275  0.4607475197113659
  0.8220188388723602  0.7861905560054864  0.4977975824105892
  0.6425632585524733  0.0837290147664903  0.3204831400540182
  0.3943682397244987  0.6912064458203782  0.1715808189654727
  0.1058606089635023  0.8993241804545602  0.4054101771636399
  0.6890513499833475  0.9176817767085002  0.6236604287869649
  0.5889982947153619  0.2548481350909533  0.3665322782747539
  0.4718198288970271  0.9682077614151631  0.9610682086719476
  0.0674302158696128  0.7492933426746807  0.5113582304336265
  0.2012990128394997  0.3243325345701907  0.0376381488496062
  0.5471009208854133  0.4303376931439793  0.7796513808101163
  0.1526718316614576  0.2254501770326386  0.8077541521178196
  0.7864057350240374  0.3675381488859741  0.8858059436105985
  0.3101584117322531  0.4686172713965914  0.9064769477328326
  0.6098463174807605  0.6744963205813889  0.5573805494564283
  0.4903212686885098  0.5669593015976089  0.6111822840991218
  0.4471978333792547 -0.0054253419073726  0.3249567411334135
  0.2720646447181618  0.3022583410490656  0.9265331679705057
  0.3087917175926981  0.2478768485414610  0.3231873562886539
  0.5003418461114735  0.3711804450538045  0.6039694105830490
  0.9311996014608045  0.3258503811858011  0.2447554861906479
  0.2004881515242433  0.5755380172000299  0.7092266168528604
  0.2214138033783455  0.1348913012938527  0.6399685658740938
  0.6715774053947255  0.4125220415444518  0.3191366489479244
  0.7508693580637692  0.7459179479390960  0.2172002221860139
  0.5076620470152459  0.1121040875240852  0.4907349612345622
  0.8622275115341470  0.1190044962493665  0.0476829710165709
  0.1950475864966884  0.0384111361804069  0.7180476996892423
  0.0243034520387474  0.1227897367742028  0.7317221573917010
  0.4636402590519340  0.4241233930577534  0.3040751649283364
  0.2985450864090284  0.7858805543802222  0.1909251823638485
  0.5503162535686986  0.2570756268251130  0.7235160383092465
  0.2605127674964443  0.0585992935454068  0.3100020518423222
  0.2695795913720124  0.1143740063015198  0.8704388971174160
  0.9644485818843864  0.6337403431080917  0.0936289385674471
  0.7924612280461638  0.5938571171073385  0.5632280782541178
  0.8834454300320268  0.7243121595403046  0.8907365622594788
  0.5423763600079915  0.0464789485971737  0.2071376537091189
  0.0318292512055119  0.1510975006268810  0.1304247546651113
  0.3547807221317291  0.8384611353490614  0.3079519291927763
  0.4238075315820917  0.7375022095226841  0.5458915378739800
  0.3527551110012280  0.6197701626309814  0.0267913996910593
  0.2327993448022387  0.8124493341497578  0.5165806420084319
  0.0036732159755885  0.5042271277453335  0.2443520975416957
  0.0949875272531666  0.9906525299151241  0.3083476413016649
  0.5810507452775504  0.5573697312583906  0.8757444472462629
  0.7234853965477703  0.1417550375934960  0.7686732938915837
  0.2611040190037789  0.7543296178299838  0.7040179219963147
  0.8353425948501528  0.6493590760701105  0.4056355380148502
  0.2119983536997681  0.8182995593406763  0.0436468211329064
 -0.0099149610317901  0.7856975816330510  0.0437175629291493
  0.9762534764812497  0.3986300160481685  0.3860903880111489
  0.7099936985331846  0.9190270826063885  0.4037160417407838
  0.5557862976939960  0.8336377767571014  0.8911348072804661
 