Ge1 Sb4 Te4                             
   1.00000000000000     
     2.1813352743003698   -3.7781835234304326    0.0000000000000000
     2.1813352743003698    3.7781835234304326    0.0000000000000000
    -0.0000000000000001    0.0000000000000002   17.1623679372139968
   Ge   Sb   Te
     1     4     4
Direct
  0.0000000000000000  0.0000000000000000  0.0000000000000000
  0.3333333333333357  0.6666666666666643  0.5441503269605766
  0.6666666666666643  0.3333333333333357  0.4558496730394235
  0.6666666666666643  0.3333333333333357  0.7874237452892451
  0.3333333333333357  0.6666666666666643  0.2125762547107547
  0.3333333333333357  0.6666666666666643  0.9028022974053830
  0.6666666666666643  0.3333333333333357  0.0971977025946172
  0.0000000000000000  0.0000000000000000  0.6898031537971880
  0.0000000000000000  0.0000000000000000  0.3101968462028119
 
  0.00000000E+00  0.00000000E+00  0.00000000E+00
  0.00000000E+00  0.00000000E+00  0.00000000E+00
  0.00000000E+00  0.00000000E+00  0.00000000E+00
  0.00000000E+00  0.00000000E+00  0.00000000E+00
  0.00000000E+00  0.00000000E+00  0.00000000E+00
  0.00000000E+00  0.00000000E+00  0.00000000E+00
  0.00000000E+00  0.00000000E+00  0.00000000E+00
  0.00000000E+00  0.00000000E+00  0.00000000E+00
  0.00000000E+00  0.00000000E+00  0.00000000E+00
