Amorphous Sb                            
   1.00000000000000     
    20.2978869700586901    0.0000000000000000    0.0000000000000000
     0.0000000000000000   20.2978869700586901    0.0000000000000000
     0.0000000000000000    0.0000000000000000   20.2978869700586901
   Ge   Se
   100   200
Direct
  0.0046513166517210  0.1474718724403243  0.6236637077084159
  0.4217265620659726  0.7411863399609141  0.5085080764080880
  0.4084172194109441  0.9892490976420422  0.0345155278929939
  0.8363357784412753  0.7077552366048301  0.1149279433949626
  0.8252479972890537  0.6514473148203166  0.6707321921457046
  0.9641191000481123  0.2633102377056589  0.1825835489715848
  0.8445863845816332  0.0475834295196239  0.6498884715692028
  0.5133980972032615  0.5461159272181508  0.7933969804279365
  0.6527170207313658  0.2529579612686412  0.5956502514777263
  0.3026862153112176  0.1724011539087209  0.9720878025213423
  0.0601934531120202  0.8566496409506427  0.4416641448352201
  0.4702284422346055  0.3238892477581251  0.7687501514191397
  0.3285839408550733  0.9890346029153415  0.4378979162363713
  0.8111527262398469  0.1935629746237498  0.6758829672654891
  0.9760210364986034  0.3248373178391017  0.5960777867938573
  0.6712594419515141  0.7100733925026924  0.4853756855197926
  0.8896472224403993  0.2457618799760071  0.3560651783546672
  0.7647328764111087  0.3613170634266176  0.4535016631925113
  0.1866237150184876  0.8989301299662119  0.1407799609269101
  0.1339701979104840  0.8243485933990298  0.7890065500627389
  0.4393878190357248  0.7538702555337194  0.1887016465820192
  0.0630268537203149  0.7025272857053400  0.3378897390258180
  0.0502749332582703  0.2552236730096406  0.3534139015796840
  0.8375859226472755  0.4181453069489905  0.7047092864043086
  0.7180858312326648  0.9219598778982454  0.9398629485083849
  0.6464288367547621  0.1189516711618532  0.4431979038724692
  0.2606295041820436  0.7692139505872455  0.4089230771543373
  0.7204931672557202  0.4630980577767798  0.9071603580505239
  0.2392696937054016  0.9417709215397871  0.6836379913097571
  0.9960494971204006  0.6902544462646374  0.4586921916414725
  0.1230244501075698  0.4485251191258348  0.0600293730372477
  0.4291425048089928  0.0234635866999089  0.6103333889431412
  0.3078070074863606  0.8222858283633744  0.1001428602012419
  0.4241361102363203  0.1864904847574084  0.0217423443002999
  0.6387912051026658  0.4140629729103862  0.6974274378863586
  0.5966364528987506  0.5863256157691448  0.9610029022433353
  0.2454372217726149  0.6594481385124731  0.2093313396925230
  0.1111520899884253  0.2654104057841518  0.9986446691168307
  0.5784289733299559  0.9331713322882598  0.1814499118146969
  0.4543191660505182  0.3633536298704018  0.4926599897232395
  0.1434570977359023  0.0208959145636038  0.3923852960852441
  0.7502534347581621  0.8056221838929978  0.0255985303324979
  0.1008814542505164  0.7838386152590157  0.6256878538998323
  0.7888610248814064  0.2171170778837125  0.8596480339455301
  0.7236777587487547  0.5659271899087653  0.1143617481531407
  0.5429213917519158  0.6896251047916110  0.5950242811830362
  0.5066236675321903  0.4941608767507934  0.1219716955670737
  0.4400933235280836  0.5950114344394450  0.3219888636056571
  0.9641781219162693  0.5429509580782623  0.3712405947205553
  0.6253910955042545  0.3072508213644148  0.1818717293743202
  0.2426327382134413  0.7252394525926069  0.9954273912995592
  0.8725556635966006  0.8400433725940023  0.5386782410108382
  0.0782833012700773  0.1811179238036821  0.5273921787143396
  0.7291642353090569  0.2454720029806279  0.9743507952478585
  0.6675103583303703  0.8661771620744387  0.3702684713172580
  0.9101491859265941  0.9543636259092414  0.3477002567446947
  0.9502169348706001  0.7248845084464539  0.8304280583397634
  0.4756057276558499  0.0694155381100220  0.4102592360581627
  0.0813589954293796  0.8525773312129088  0.8958987452129766
  0.0070642835005712  0.0690577854010412  0.0598822540685601
  0.5371782800128999  0.7181667032887281  0.3724829817841709
  0.6345404412672840  0.7609349495689683  0.2272374104665001
  0.6126905016153149  0.8448622518004514  0.0546725698284693
  0.8729946201583747  0.9495212956114144  0.0899962297693756
  0.1299481399232148  0.0207863539178637  0.0590842244319115
  0.7086739123283888  0.5383639102827815  0.5515031116924193
  0.2325431303658339  0.0722421164500157  0.6074079533429600
  0.5720146468891865  0.1137204164095329  0.2542689078588199
  0.3533999892902657  0.3898304543607648  0.9125186271360192
  0.3185770402327737  0.1792436414454651  0.3281813384223689
  0.4272023819445979  0.7211396241850926  0.9876210495634345
  0.4836927357731060  0.2593991933113939  0.2168236182538141
  0.8939735771131756  0.4687257273237562  0.5071808559175872
  0.4661089777502934  0.2569341435645460  0.3987243762008743
  0.2165720235755618  0.3271828655315167  0.2489409374181731
  0.3586227879041840  0.0877289799176369  0.7382636823707959
  0.8462532345180785  0.0903617780879397  0.9433008394926606
  0.8980635608688649  0.8823240274945887  0.7308408403471980
  0.5171220297574738  0.4107631811205996  0.2775706796949996
  0.9050286444313881  0.4827500144625023  0.2170663659034435
  0.1549357715194948  0.6343432116310009  0.6934896390188902
  0.8549515213526701  0.3658158089590366  0.9150435379544002
  0.0303593181727833  0.1710099299115634  0.8745042830230331
  0.1865278402059768  0.3499749199005103  0.4476925265032020
  0.3599383974383994  0.2917932539962653  0.0766274696712570
  0.5636912556664628  0.8151787944420713  0.7256906791893872
  0.7463453242160772  0.8239000327585929  0.8347970533473396
  0.4424745206281446  0.5287776272690924  0.9459931016409902
  0.6555749855480114  0.6338778156242711  0.3077972679398726
  0.7033088109715168  0.0439395013819040  0.3072720985038915
  0.2886733074578215  0.4808658992199620  0.6937803261705843
  0.1511143745876876  0.3891242188684788  0.6911526652579524
  0.4844970705240380  0.0429349414224251  0.8847807893142682
  0.2891690337938428  0.5447177812425663  0.1090465369848986
  0.1619950574116652  0.2325309118238835  0.7181490215897611
  0.1195607052468275  0.4044798697610394  0.8478698617588687
  0.3093987410607119  0.0734082014560783  0.1567688783751184
  0.1387875573015647  0.1724177095914743  0.2336764816116172
  0.1150699955128967  0.5206926429205845  0.2454282751797187
  0.5462960091740925  0.9686606116039861  0.7418494013245895
  0.0900877361333805  0.7234958462430399  0.7583210515010111
  0.5733790542161094  0.2977640682360145  0.3066977346242529
  0.9361227862991460  0.9106715665749070  0.2283073679225621
  0.1323474848100471  0.7568536232247202  0.4279624464723843
  0.4802152409817910  0.0108612771941477  0.2114900255492830
  0.0959075246388770  0.7744858692075525  0.2321440476771160
  0.5806540389391123  0.8594730896781376  0.2831010575248576
  0.3687124823570787  0.0321630157198370  0.9182614875348859
  0.7415522494094416  0.8419864082331465  0.5973361541848876
  0.5502643976334263  0.4232400141585821  0.4479743631393142
  0.9379888141110641  0.9620661942742842  0.8241883531966409
  0.4462023121141714  0.4576910878434559  0.4063459014347707
  0.6866358278013832  0.1734109741284891  0.8112713960471831
  0.6888574436608154  0.0576884046902906  0.6282624049754910
  0.2992404548611967  0.3481717462360048  0.4075150764634442
  0.9642221652709819  0.8532902270656292  0.8839825472345366
  0.5432964336826562  0.7959535544342247  0.9572349830913143
  0.5300447164409890  0.1721796792286240  0.4758128018573310
  0.8365154942174713  0.6132640598751302  0.8175518689513277
  0.8521356004733767  0.0645015957379982  0.8044400672593836
  0.0614589377039478  0.9354961290404482  0.3548627187943143
  0.7736649634058880  0.7551339584142113  0.4482770665752830
  0.5035473985114695  0.8852978476435592  0.0285935570528049
  0.5289258001222837  0.5685455274867203  0.6287402684331008
  0.2540336165607022  0.6432011662030175  0.4217474819295172
  0.8343935210646999  0.9695265183717350  0.9691813262590594
  0.1793350407005338  0.0492047154665930  0.2726746553279590
  0.4990670621859978  0.8777321202420677  0.8020617391175885
  0.6564372809952967  0.6061500387862729  0.4268829937038689
  0.8143686040646284  0.9955580014670864  0.2804546994314669
  0.0144203682405746  0.1735408992199162  0.2584171874335918
  0.6672299008775349  0.7635507952237901  0.7529630674649972
  0.2426133330793366  0.1474609431966119  0.0815932819597425
  0.2192549104155922  0.1256572426711145  0.8971596737943620
  0.4443869795236496  0.9597074925292867  0.3143174248400281
  0.0888267808412142  0.8917664489477967  0.5466502687631766
  0.0886527016174789  0.9203250967316021  0.7322903637492428
  0.8869611826524896  0.7140298437137811  0.5762174973924786
  0.0848683059445937  0.9006796341689500  0.0702996117199075
  0.6394183944506782  0.2519706232560729  0.8846379197532899
  0.5321356723516476  0.0318596995694530  0.9970619318814393
  0.6991381645987171  0.9306593909794180  0.5377800995473033
  0.1942936918765294  0.1161763008411806  0.7173733146325570
  0.7768801062767275  0.2730416523178666  0.1842028952808912
  0.8865284047117443  0.7243400180378692  0.2185861568502143
  0.3023724450983596  0.6969945453258162  0.5192093863745538
  0.9023063348950360  0.2057472202516798  0.5890052538053816
  0.3636588600996301  0.0992969222902145  0.4734282721877467
  0.6107985408818901  0.0130020627469962  0.3752079095215929
  0.8752217343023341  0.7800603823307977  0.0335691554949480
  0.5595054114178066  0.4831702175205967  0.9052275669215928
  0.5872615506537797  0.5584250573089033  0.1986828494822148
  0.7208924521364807  0.1541501198494141  0.5699889633657053
  0.6789130098171315  0.4202491927491079  0.0313057798776604
  0.7017355492378723  0.4924179258402713  0.7616854966995663
  0.0717431291251737  0.2945157752160263  0.4985034808537612
  0.5079901595703259  0.5968691680533417  0.0385833135955678
  0.6461706634348571  0.4322023377819392  0.5837001064410732
  0.1942146169146771  0.4830098288910345  0.6109760617068695
  0.2179281354677769  0.7016400686064039  0.8785994273149742
  0.5513819142313654  0.7191886616903851  0.1519962302968369
  0.4493155946795520  0.1570191568420032  0.3131791001576772
  0.5705507194052268  0.1934134223326426  0.1548117591499315
  0.2958509319011852  0.7456044243096335  0.7354344366585395
  0.6290751192274998  0.5833916028467057  0.7636643120791986
  0.6778821900951603  0.7145394770119898  0.6087561134114935
  0.9739708976334348  0.8618563981115795  0.6480383914960803
  0.5273394643492163  0.4217787224821272  0.7304724461354172
  0.1063109587575313  0.7819611967376576  0.9900639179682738
  0.6525135301991848  0.0153022656960990  0.8892133623946399
  0.7188098976807953  0.7194852751619759  0.1063687015522456
  0.2885002930676976  0.5979029379582314  0.8678045827198406
  0.4919039751923579  0.0748570587497121  0.7113799507164729
  0.3843399783095127  0.6894246709210885  0.1134602904110504
  0.1108863572741943  0.5377880722511349  0.8296723096068047
  0.9904873461245588  0.6643814470446787  0.9988764767845422
  0.2251991753513833  0.9432759444049771  0.4523288763101132
  0.7552985210731397  0.9092446078899291  0.1252040243007461
  0.4619760601448741  0.6452517826748941  0.4399915620111020
  0.3005298972148595  0.2230550958586175  0.1734536294857717
  0.6573225526526246  0.9929574651615249  0.7779198247997897
  0.7805395297140538  0.3410982975348102  0.8219610506949310
  0.7797129993028070  0.5998176704838161  0.2773296638306750
  0.5409088230354265  0.2252791599894557  0.6168596827181239
  0.2941337345963464  0.4204430011963372  0.0860596593389185
  0.2298124974803526  0.4228845166530971  0.7868179262338424
  0.5886641457517873  0.6766060951385876  0.8889683065976705
  0.8964875843872350  0.6253279817361116  0.4351244271222189
  0.0262392352072253  0.3915007872829424  0.1044766049263487
  0.9245343636481516  0.4478390412894515  0.1051963117811381
  0.7377503522629070  0.4769611512722818  0.4418979865240383
  0.1529829493652168  0.7170723609556289  0.1532295976976780
  0.1555672288839546  0.9965481885133677  0.8068227289408784
  0.8378188480652968  0.1378825794406819  0.3870936014622528
  0.6370881694095964  0.3122074508876810  0.0342000559854141
  0.6721316152815563  0.9603101274213732  0.0484942421940871
  0.3608257588187394  0.9623873182201547  0.7085038707438311
  0.7982878157713456  0.9420768936113788  0.6955798742555591
  0.1857973163180221  0.8388801792978753  0.2777471075067584
  0.8677050705233393  0.6881208351659501  0.9219307485675278
  0.4421977272424485  0.4311976842428852  0.5895005336430560
  0.3509080121672470  0.1303003536392970  0.6222308932974265
  0.7054826665814560  0.1448907207220008  0.0303290696716145
  0.4136334133102380  0.4329954248127700  0.0247613274844534
  0.0729292077397322  0.5653463971389051  0.4257697727596104
  0.4195166590838127  0.8251976757750594  0.4111418181557164
  0.0762955116699890  0.5469136557364855  0.7106458776175376
  0.1449956848317482  0.5507130443054259  0.1169883648973870
  0.8888599374580036  0.1773267580382766  0.7926912554297231
  0.7928169003043544  0.3121050038567788  0.3455576845384355
  0.3303430711591206  0.2382888090511547  0.4439502765440553
  0.1377297743376729  0.2727164708450109  0.8268303543738449
  0.0032520645325739  0.4602116896148656  0.5807487907039228
  0.0413190107419039  0.1409240539365208  0.4137230715308527
  0.3288006419428679  0.6082031614003327  0.9890632219087998
  0.8719923249737344  0.9859912795717771  0.5290525841455749
  0.8387363655406396  0.4784201565609584  0.9352146141484809
  0.9531079617180532  0.3855969816379083  0.2656562614061795
  0.9760682848026351  0.0395210543665981  0.6502838011292263
  0.0809062567958912  0.4635792012520266  0.4831559958486928
  0.5235155300467442  0.1502649282356432  0.9535830836251911
  0.8673917978004704  0.3409163294773810  0.5128947601768075
  0.5871862641064937  0.8023725677016207  0.4570489499751387
  0.1412892061786621  0.3915406949032802  0.3329022090462587
  0.1205863170964154  0.9898416600265406  0.1907108973555627
  0.4171874429994766  0.9235131729378815  0.4874460770649306
  0.1527933361798704  0.6710034919162120  0.5830764145775340
  0.3347398242318597  0.7954389161121682  0.6350479000113013
  0.8593929293864673  0.2083168977597600  0.2352372552611542
  0.1231858870477777  0.9606425709323162  0.9246650841943174
  0.3292158540162472  0.9899785925364387  0.3166526775461796
  0.8469922549963189  0.8329203110647644  0.2406110496167927
  0.9951814846103949  0.5379812342403985  0.8687161199727240
  0.9245173351651614  0.6197001371964674  0.7430739985093758
  0.9639153017667075  0.3432220080100152  0.8715439408576905
  0.7945117887099014  0.4883167096790677  0.2560350302774471
  0.7892930161079825  0.1669035126785401  0.1066765039334315
  0.9256774101137992  0.4294014338530014  0.3809998800951931
  0.7767056593471940  0.9633046179830698  0.4633490412710207
  0.8944417950896197  0.0700447353531827  0.1094667148679671
  0.5746380281611475  0.9067143429395929  0.6419906404521470
  0.1647450142231808  0.4692273633187390  0.9536673599585043
  0.8170868765858863  0.3111004197131939  0.0101928834772822
  0.9738873859017404  0.5776294830929160  0.2564742785034997
  0.0399835545452102  0.1989927933686939  0.0824274558904511
  0.4664381858759574  0.3398959767650204  0.8825119148143896
  0.6524226900547210  0.0360070995550105  0.1949930871570169
  0.3632739145078701  0.3327374523456922  0.7125674454717976
  0.9503084221595463  0.3805084417077149  0.6979115419033654
  0.1697618732631500  0.6175331417819850  0.3033138010356131
  0.2590548969256319  0.8469727790207993  0.7965384229928478
  0.7088009266825707  0.5683490649249615  0.9868914779906892
  0.4950319014167410  0.7359751069089515  0.6918855119215546
  0.9294547035706671  0.0825343317294712  0.4304377496408139
  0.2185667927801612  0.3045824998182480  0.6379366623216167
  0.3469866024019848  0.2880322117727639  0.2729448430437862
  0.6948344050831288  0.1587262555196642  0.3303473773874461
  0.5398579601046055  0.2375004196552236  0.7333776805792283
  0.7287981155089031  0.7560491243689617  0.3349342901601783
  0.4213333720928927  0.7159419646133391  0.2975476592098031
  0.2762641141430813  0.7654189668188293  0.2797237177916733
  0.0404172728060518  0.2307923275845198  0.6957975023711506
  0.3262993824510037  0.5603773795690703  0.3567483337955132
  0.4705522063981802  0.6507802983740482  0.8724228529478188
  0.3793320325034387  0.4949622963438234  0.8384936483477735
  0.2362317059096314  0.8508183889895495  0.5968293243843287
  0.1702036494872840  0.2116585635408864  0.3477708639975580
  0.3010830048450819  0.2762690652379809  0.7999592595553086
  0.9987510634360596  0.5511891339549500  0.9808666076456466
  0.3840489862158246  0.5079364596641257  0.5206734617658266
  0.1852226429500282  0.3656634060208483  0.1229741419935650
  0.1005092717990867  0.6759930550871546  0.9314356296084216
  0.2727235339322248  0.6018338582514234  0.7306612291168288
  0.7571860131345300  0.4385718277503485  0.1172331456520917
  0.9492435871313146  0.8056910136317480  0.4149009680540618
  0.9688960647777644  0.0709419831362104  0.9405774900894790
  0.2353713186048037  0.4497695663441047  0.2695738047950132
  0.5102698551587697  0.3680747804046994  0.1535901928945277
  0.9876777902788726  0.2637373267125989  0.9597176251486726
  0.3688572880842927  0.1886186411686848  0.8310183773025390
  0.4232617697932938  0.0956904411267488  0.0982050142143408
  0.7746731063544069  0.3225374126501601  0.6383974467792373
  0.8460601497167322  0.7787107556238283  0.7629047133744785
  0.3619570385420220  0.4611429042351132  0.2590770738487503
  0.6785558078908575  0.3012665671062333  0.7138020565875011
  0.6676542556559771  0.2800944956200688  0.4784009682455003
  0.2556903718203858  0.4202993853472073  0.5208991133614042
  0.1204981167566977  0.1490638682979321  0.9591758622382143
  0.3354107947164783  0.8123474832479501  0.9769926448625534
  0.0083392419541645  0.6939061367556163  0.5881751247092643
  0.2783025876198406  0.9608226084478010  0.0831875878824606
  0.4229825007288482  0.5987764117677770  0.6044299776903744
  0.4035564573630240  0.5468093934247024  0.1813636914632705
  0.8454797259423219  0.5906507165925403  0.0991382085355967
  0.2771632880157420  0.2892957519371715  0.9894154438254743
  0.7356834225233441  0.7349312859122102  0.9176636030958685
  0.8281422965960096  0.5207123251690183  0.6110865555852045
  0.6292929898121269  0.4651191394438937  0.2614640845134015
  0.4013278705608537  0.8669940187490055  0.1662269815651265
  0.1897111919480848  0.1474510483956346  0.5188408776630730
 
  0.11310062E-02  0.32847203E-03 -0.13364484E-02
  0.43470467E-02  0.64670635E-03  0.15131884E-02
  0.64281547E-03  0.11217741E-02 -0.20184455E-03
  0.13237025E-02  0.28872299E-02 -0.28764533E-02
 -0.36666851E-02  0.90035042E-03  0.17304553E-02
 -0.25182064E-02  0.27757552E-03  0.39313340E-03
  0.19079244E-02  0.73522928E-05 -0.11903702E-02
  0.24173544E-02 -0.13704110E-02 -0.21220153E-02
 -0.32703258E-04  0.12099471E-02 -0.16572015E-02
  0.99943087E-03  0.99762674E-03 -0.11098729E-03
 -0.23282785E-02 -0.99599746E-03  0.40766856E-02
 -0.37832308E-02 -0.19663241E-02 -0.12919702E-02
 -0.42746070E-02 -0.10873011E-02  0.38441990E-02
 -0.10970324E-02 -0.30027809E-02 -0.27222357E-03
  0.35409955E-02 -0.18703123E-02 -0.97735787E-03
 -0.44080627E-02  0.43277105E-03 -0.13596744E-02
 -0.10921340E-02 -0.19770445E-02  0.12806245E-02
 -0.59582436E-03 -0.12924663E-02 -0.35412382E-03
  0.22281426E-02 -0.65146032E-03  0.99895881E-03
 -0.27117427E-02 -0.20629374E-02  0.16863682E-02
 -0.16869489E-02  0.17938362E-02 -0.19301640E-02
 -0.40536812E-02 -0.20052300E-02 -0.31160058E-02
  0.54473217E-03  0.95437326E-03  0.72062132E-03
  0.15756971E-02 -0.10576463E-03 -0.19436344E-02
 -0.19611787E-02 -0.62636053E-02 -0.19811157E-02
 -0.12927950E-02  0.44297329E-03 -0.27910631E-03
 -0.25257099E-02  0.37050512E-03 -0.32455569E-03
 -0.12910720E-03  0.29002818E-04 -0.83038231E-03
 -0.36873384E-02 -0.11924172E-02  0.81350046E-03
  0.48168058E-02  0.14748447E-04  0.10020840E-02
  0.23209386E-02 -0.26331539E-02  0.17408467E-02
  0.55085181E-03 -0.26077236E-02  0.42636115E-03
 -0.14390624E-02  0.14516178E-02  0.11357925E-02
 -0.17939599E-02 -0.11036675E-04  0.54802422E-03
 -0.98275925E-03 -0.83630401E-03 -0.18921911E-02
 -0.39334098E-03  0.39099817E-03  0.31882685E-02
 -0.17613819E-02 -0.30671922E-02  0.12244174E-02
  0.83740705E-03 -0.17289332E-02  0.75631004E-03
 -0.21687476E-02 -0.19900864E-02  0.80821891E-03
  0.18020496E-03  0.20431806E-02 -0.45705760E-02
 -0.88377317E-03 -0.13803269E-02  0.25796965E-02
 -0.40341242E-03 -0.12241486E-02  0.57707539E-03
  0.17951611E-02  0.10471156E-02 -0.34115033E-02
  0.10192425E-02 -0.11009819E-02  0.20862934E-02
  0.24342941E-02  0.32922771E-02  0.27011177E-02
 -0.20660036E-02 -0.20800321E-02 -0.32019105E-02
  0.13465430E-02  0.54805395E-03  0.25752057E-02
 -0.56170923E-03 -0.78644465E-03  0.16186182E-02
 -0.10922658E-02  0.20470995E-03 -0.13430334E-02
  0.41029570E-03 -0.14058342E-02 -0.23459149E-02
 -0.19229925E-02  0.50038224E-03  0.27820840E-03
 -0.96568007E-04 -0.12940129E-02 -0.58752315E-03
  0.41498224E-02  0.31644013E-03  0.23065471E-02
 -0.29189200E-02  0.28675906E-03  0.13778644E-03
 -0.12070375E-02 -0.15968472E-02  0.14141741E-02
 -0.18692549E-03  0.21439921E-02  0.12552290E-04
  0.33972519E-03 -0.23216308E-02 -0.21648402E-02
  0.18975330E-03  0.61069139E-03 -0.11014008E-02
 -0.12563206E-02  0.19435142E-02 -0.55395595E-03
 -0.54040201E-02  0.69828167E-03  0.66303035E-03
 -0.13985226E-02  0.16701075E-02 -0.17282860E-02
  0.16306824E-02  0.30509616E-02  0.15048530E-03
 -0.19376090E-02  0.62809758E-03 -0.11769706E-02
  0.11711110E-02 -0.14226164E-02 -0.73225443E-04
 -0.30803537E-02 -0.15280516E-02  0.80765017E-04
  0.35859544E-02 -0.37356905E-03 -0.24999596E-02
 -0.13524802E-02  0.26506556E-02  0.33142099E-03
  0.12552684E-04 -0.78297816E-03  0.60817082E-03
  0.30943040E-02 -0.28918406E-02 -0.92015391E-03
  0.19487075E-02 -0.88115668E-03  0.10474870E-02
 -0.26745425E-03 -0.27681765E-03 -0.12624915E-03
 -0.62101165E-03 -0.70575168E-04  0.91409679E-03
 -0.57292803E-03  0.24315893E-02 -0.79909124E-03
 -0.17429387E-03 -0.30689269E-02 -0.26719330E-03
 -0.69002689E-03 -0.10312181E-02  0.21271129E-02
  0.11663096E-02 -0.42835089E-03  0.79676362E-04
 -0.17173005E-02  0.24081252E-02 -0.93410348E-04
  0.48067985E-03 -0.53724152E-03  0.17781393E-03
 -0.30173591E-02 -0.37533767E-03  0.19638797E-02
  0.89123819E-03 -0.77668428E-03  0.17435905E-02
 -0.39885797E-03 -0.17466774E-02  0.65765019E-03
  0.31733679E-02  0.13657008E-02  0.63585603E-03
  0.33774583E-02  0.10201812E-02  0.17214571E-02
  0.21273786E-02 -0.19468793E-02  0.15390709E-02
  0.37264473E-04 -0.17420843E-02 -0.31721375E-03
 -0.12235705E-02 -0.14245648E-02  0.12789194E-03
  0.24468414E-03  0.10926801E-02 -0.56019116E-03
 -0.87349564E-04 -0.26030048E-02 -0.30631282E-02
  0.54180235E-03  0.22691343E-03 -0.55190930E-03
 -0.18280660E-02  0.22526247E-02  0.52801073E-02
  0.17303579E-02 -0.10936119E-02  0.11517197E-02
  0.21817926E-02  0.48040432E-03  0.38169456E-02
 -0.20737388E-02  0.38396638E-02 -0.17888903E-02
 -0.21931197E-02  0.34351477E-02  0.73885428E-03
  0.39180519E-03  0.90610818E-03  0.80069746E-03
  0.68176770E-03  0.16986710E-02  0.24599212E-02
 -0.40534383E-03  0.12635841E-02 -0.75331354E-03
  0.14658400E-02  0.75475063E-03  0.47592566E-03
 -0.12774279E-02 -0.33815740E-02 -0.29611656E-02
 -0.12802740E-02  0.17301318E-02  0.21407392E-02
  0.28756227E-03 -0.83289788E-03 -0.28084174E-03
  0.54828256E-03 -0.18403589E-02 -0.56860410E-03
 -0.32413209E-02 -0.32758401E-02 -0.33899801E-02
  0.40603940E-02  0.18380465E-02  0.18978874E-02
  0.29648234E-03 -0.26215611E-02  0.34167983E-05
 -0.28515133E-03  0.20952971E-02 -0.12290004E-02
  0.30329224E-02 -0.13272502E-02  0.14788478E-02
 -0.13696401E-02  0.11700176E-02  0.14588836E-03
 -0.29098476E-02  0.54570164E-03 -0.24763754E-02
  0.31880926E-02  0.16894385E-02 -0.46238536E-03
  0.24315690E-02  0.20091379E-02  0.11667895E-02
 -0.26758285E-03  0.83119792E-03  0.26078794E-02
 -0.17309448E-03  0.10770261E-02  0.19408887E-02
  0.49216943E-03 -0.25842136E-03  0.19196768E-02
  0.37460653E-02  0.66353999E-03 -0.16404083E-02
 -0.89206987E-03 -0.96880163E-03  0.99906264E-03
 -0.12914400E-02 -0.27931289E-02 -0.24036165E-02
 -0.37410190E-02  0.28761803E-02 -0.16868330E-02
  0.12542681E-02  0.85839327E-04  0.24034197E-02
 -0.19182816E-02  0.10212147E-02 -0.22502518E-03
  0.93882857E-03 -0.28388911E-03 -0.70472368E-03
  0.17827736E-02 -0.62960241E-03 -0.22880283E-02
  0.82583034E-04 -0.20728031E-02 -0.22411176E-02
  0.16088527E-02  0.17708752E-02  0.94785679E-03
  0.46969058E-03  0.29431868E-03  0.14389089E-02
 -0.31209506E-03  0.27279071E-02 -0.19154557E-02
 -0.55622100E-03  0.10392243E-02  0.35858776E-02
  0.17554470E-02 -0.22663868E-02 -0.31259286E-03
  0.10957667E-02 -0.14749670E-03 -0.57514074E-04
 -0.75299191E-03  0.10918853E-02  0.13966465E-02
 -0.40413099E-02  0.57023164E-03 -0.12219049E-02
  0.56803660E-03  0.11778058E-02  0.10944811E-03
 -0.34107964E-03 -0.71229427E-03  0.21502681E-02
  0.26229257E-02 -0.14896880E-02 -0.15815598E-02
  0.30070482E-02 -0.46335972E-03  0.68501426E-04
  0.48333731E-03 -0.23804058E-02 -0.15055862E-02
 -0.67822104E-04  0.26163883E-02  0.64633725E-05
  0.13988025E-02  0.31641355E-02 -0.64436834E-03
 -0.29297141E-02 -0.14906495E-02  0.20899549E-02
 -0.33464762E-03  0.16383843E-02  0.37591336E-02
 -0.14703522E-02  0.24238219E-02  0.38066232E-03
 -0.28875911E-02  0.59743227E-03 -0.19109606E-03
  0.22857014E-02  0.10881320E-02 -0.81977470E-03
 -0.54802490E-04 -0.16441093E-02  0.53073250E-04
 -0.11868285E-02 -0.22971024E-02 -0.22723685E-02
  0.16690407E-02  0.49388917E-03  0.29895789E-02
  0.32186841E-02  0.68184636E-03  0.34274597E-02
  0.10473885E-02  0.22093716E-03 -0.13964778E-02
  0.19658242E-03 -0.40203499E-03  0.18768061E-03
  0.22431354E-02 -0.12112983E-02  0.66103060E-03
 -0.18567680E-02 -0.62607354E-03 -0.19086185E-02
  0.15486948E-02  0.28078429E-02  0.28480736E-03
  0.36632300E-02 -0.14436413E-02 -0.30590455E-03
  0.23343904E-02 -0.24401425E-02  0.55285885E-03
  0.17348742E-02 -0.39073938E-03  0.29965052E-02
 -0.10168140E-02  0.86037573E-03 -0.20765752E-02
  0.62478941E-03  0.33876440E-02  0.43047129E-03
 -0.20813911E-02  0.50853540E-03  0.92813867E-03
 -0.40756203E-03 -0.10901800E-02 -0.47281281E-04
 -0.23542585E-02  0.99437517E-03  0.13484420E-02
 -0.31291588E-02 -0.11639684E-02 -0.30705075E-02
 -0.87888614E-03  0.13992634E-02 -0.16457105E-02
 -0.57632039E-03  0.25036031E-03  0.78921467E-03
 -0.15449053E-02 -0.18060275E-02  0.19427905E-03
 -0.13973801E-03  0.25213146E-02  0.80248675E-03
 -0.17404619E-02  0.33872012E-03  0.37776407E-02
  0.73892598E-03 -0.17188528E-02 -0.58510574E-04
 -0.11551693E-02  0.10727482E-02 -0.18060463E-02
 -0.38511873E-05  0.97615012E-03 -0.25334697E-02
  0.49641263E-05  0.20808798E-02  0.29157841E-02
  0.20118711E-02  0.18002688E-02 -0.65735962E-03
  0.84861944E-03  0.29949783E-03 -0.15643616E-02
 -0.25208506E-02 -0.16846456E-02  0.10792110E-03
 -0.14771754E-02  0.29453251E-02  0.34930347E-03
 -0.47716651E-03  0.12122680E-04  0.49325397E-03
 -0.10121684E-02 -0.88523438E-03 -0.12708291E-02
 -0.10052721E-02  0.15559473E-02 -0.82736392E-03
  0.10147712E-02  0.21644382E-02 -0.13917267E-03
  0.12278476E-02  0.40002583E-03 -0.71212114E-03
 -0.23987532E-02 -0.93453886E-03  0.82379890E-03
  0.10937611E-02  0.29614241E-02 -0.11605971E-02
 -0.58388087E-03 -0.41335531E-02 -0.10108775E-02
 -0.12626972E-02  0.24392577E-02  0.10706335E-02
  0.84895480E-03 -0.16383322E-03  0.10891365E-02
  0.62941223E-03  0.20593646E-02 -0.88763709E-03
 -0.19691403E-02 -0.87787034E-03  0.40834990E-03
 -0.26823952E-02 -0.26756684E-02  0.12682428E-03
 -0.30509950E-04  0.83311185E-03  0.24755735E-02
  0.41266632E-03 -0.76408746E-03  0.33958731E-02
 -0.13087316E-02  0.16900037E-02  0.92015838E-03
 -0.82181330E-03 -0.14485754E-03 -0.31112639E-02
  0.17087138E-02  0.16854255E-02 -0.32964584E-02
  0.13840054E-02 -0.17038338E-03 -0.13173871E-02
 -0.93679502E-03  0.81258568E-04 -0.24155987E-02
 -0.25695897E-02  0.12244317E-02 -0.45941877E-03
  0.28552701E-03 -0.40044569E-02  0.12467094E-02
  0.83344135E-03 -0.34984352E-04  0.17995139E-02
 -0.15779833E-02  0.20290202E-02  0.99590284E-03
 -0.86250172E-03  0.13958074E-02 -0.14192136E-02
 -0.10678051E-02  0.10754471E-02 -0.12453794E-02
  0.17876716E-02 -0.33875262E-03  0.32423388E-02
 -0.83001469E-04  0.49414147E-03  0.91463296E-03
 -0.50323475E-02 -0.34190787E-03 -0.82301548E-03
 -0.28925980E-02 -0.69862090E-03  0.18953864E-02
 -0.25081914E-02  0.71124588E-03 -0.29894756E-03
  0.45545397E-03 -0.18112713E-02 -0.64792599E-03
  0.12485856E-02 -0.56637663E-03 -0.26702895E-02
 -0.60509901E-03 -0.69203483E-03  0.21359152E-04
  0.14828923E-02 -0.16152383E-02 -0.44892484E-03
  0.17873614E-02  0.37204648E-02 -0.66645668E-03
  0.62931750E-03  0.26842020E-03 -0.20170121E-02
  0.13374714E-02 -0.56960647E-03 -0.29620991E-02
  0.28071024E-02 -0.34288953E-02 -0.21033960E-02
  0.43126815E-02  0.28336111E-02  0.15039300E-02
 -0.48518090E-03  0.35377355E-02  0.23696720E-02
 -0.21191751E-02  0.25617071E-02  0.12632414E-03
  0.24664628E-02 -0.44112536E-04  0.18590059E-03
 -0.13167304E-02  0.32356323E-02  0.14064222E-02
  0.21237616E-02  0.43977381E-03  0.17986259E-02
 -0.23875923E-02 -0.20684703E-02  0.21638475E-02
  0.64194028E-04  0.36296295E-02 -0.28534054E-02
  0.26911814E-02  0.12759179E-03  0.74173123E-03
  0.52734976E-03  0.26859639E-03  0.50588502E-03
  0.24712865E-02  0.21679490E-02  0.69362010E-03
 -0.19001421E-02  0.85048891E-03  0.16404933E-03
 -0.73318342E-03 -0.33806341E-02 -0.87030983E-03
 -0.68640376E-03  0.12680908E-03 -0.17065771E-03
 -0.10307376E-02 -0.35755958E-02  0.67271685E-03
  0.31992735E-02  0.96849095E-03 -0.34518754E-02
  0.11549694E-02  0.28285055E-02 -0.18657849E-02
  0.64480148E-03 -0.11458860E-02 -0.34819609E-02
 -0.88992909E-03 -0.16445758E-02 -0.65719176E-03