Sn4 Se4                                 
   1.00000000000000     
     4.7870344558474693    0.0000000000000001    0.0000000000000003
     0.0000000000000009    4.9011148037821828    0.0000000000000003
     0.0000000000000001    0.0000000000000001    9.9441884432103080
   Sn   Se
     4     4
Direct
  0.2500000000000000  0.2852125253691824  0.5629950656348441
  0.7500000000000000  0.7147874746308247  0.4370049343651559
  0.7500000000000000  0.7852125253691753  0.9370049343651559
  0.2500000000000000  0.2147874746308176  0.0629950656348441
  0.2500000000000000  0.9156198972547713  0.3445437560967335
  0.7500000000000000  0.0843801027452287  0.6554562439032665
  0.7500000000000000  0.4156198972547713  0.1554562439032665
  0.2500000000000000  0.5843801027452287  0.8445437560967335
 
  0.00000000E+00  0.00000000E+00  0.00000000E+00
  0.00000000E+00  0.00000000E+00  0.00000000E+00
  0.00000000E+00  0.00000000E+00  0.00000000E+00
  0.00000000E+00  0.00000000E+00  0.00000000E+00
  0.00000000E+00  0.00000000E+00  0.00000000E+00
  0.00000000E+00  0.00000000E+00  0.00000000E+00
  0.00000000E+00  0.00000000E+00  0.00000000E+00
  0.00000000E+00  0.00000000E+00  0.00000000E+00
