Te4 Pb4                                 
   1.00000000000000     
    19.6535286002247247   -0.0000000000000000    0.0000000000000000
    -0.0000000000000000   19.6535286002247247   -0.0000000000000000
     0.0000000000000000    0.0000000000000000   19.6535286002247247
   Te   Pb
   108   108
Direct
 -0.0000000000000000 -0.0000000000000000  0.0000000000000000
 -0.0000000000000000 -0.0000000000000000  0.3333333329999988
 -0.0000000000000000 -0.0000000000000000  0.6666666670000012
 -0.0000000000000000  0.3333333329999988  0.0000000000000000
 -0.0000000000000000  0.3333333329999988  0.3333333329999988
 -0.0000000000000000  0.3333333329999988  0.6666666670000012
 -0.0000000000000000  0.6666666670000012  0.0000000000000000
 -0.0000000000000000  0.6666666670000012  0.3333333329999988
 -0.0000000000000000  0.6666666670000012  0.6666666670000012
  0.3333333329999988 -0.0000000000000000 -0.0000000000000000
  0.3333333329999988 -0.0000000000000000  0.3333333329999988
  0.3333333329999988 -0.0000000000000000  0.6666666670000012
  0.3333333329999988  0.3333333329999988  0.0000000000000000
  0.3333333329999988  0.3333333329999988  0.3333333329999988
  0.3333333329999988  0.3333333329999988  0.6666666670000012
  0.3333333329999988  0.6666666670000012  0.0000000000000000
  0.3333333329999988  0.6666666670000012  0.3333333329999988
  0.3333333329999988  0.6666666670000012  0.6666666670000012
  0.6666666670000012 -0.0000000000000000 -0.0000000000000000
  0.6666666670000012 -0.0000000000000000  0.3333333329999988
  0.6666666670000012 -0.0000000000000000  0.6666666670000012
  0.6666666670000012  0.3333333329999988  0.0000000000000000
  0.6666666670000012  0.3333333329999988  0.3333333329999988
  0.6666666670000012  0.3333333329999988  0.6666666670000012
  0.6666666670000012  0.6666666670000012 -0.0000000000000000
  0.6666666670000012  0.6666666670000012  0.3333333329999988
  0.6666666670000012  0.6666666670000012  0.6666666670000012
 -0.0000000000000000  0.1666666670000012  0.1666666670000012
 -0.0000000000000000  0.1666666670000012  0.5000000000000000
 -0.0000000000000000  0.1666666670000012  0.8333333329999988
 -0.0000000000000000  0.5000000000000000  0.1666666670000012
 -0.0000000000000000  0.5000000000000000  0.5000000000000000
 -0.0000000000000000  0.5000000000000000  0.8333333329999988
 -0.0000000000000000  0.8333333329999988  0.1666666670000012
 -0.0000000000000000  0.8333333329999988  0.5000000000000000
 -0.0000000000000000  0.8333333329999988  0.8333333329999988
  0.3333333329999988  0.1666666670000012  0.1666666670000012
  0.3333333329999988  0.1666666670000012  0.5000000000000000
  0.3333333329999988  0.1666666670000012  0.8333333329999988
  0.3333333329999988  0.5000000000000000  0.1666666670000012
  0.3333333329999988  0.5000000000000000  0.5000000000000000
  0.3333333329999988  0.5000000000000000  0.8333333329999988
  0.3333333329999988  0.8333333329999988  0.1666666670000012
  0.3333333329999988  0.8333333329999988  0.5000000000000000
  0.3333333329999988  0.8333333329999988  0.8333333329999988
  0.6666666670000012  0.1666666670000012  0.1666666670000012
  0.6666666670000012  0.1666666670000012  0.5000000000000000
  0.6666666670000012  0.1666666670000012  0.8333333329999988
  0.6666666670000012  0.5000000000000000  0.1666666670000012
  0.6666666670000012  0.5000000000000000  0.5000000000000000
  0.6666666670000012  0.5000000000000000  0.8333333329999988
  0.6666666670000012  0.8333333329999988  0.1666666670000012
  0.6666666670000012  0.8333333329999988  0.5000000000000000
  0.6666666670000012  0.8333333329999988  0.8333333329999988
  0.1666666670000012 -0.0000000000000000  0.1666666670000012
  0.1666666670000012 -0.0000000000000000  0.5000000000000000
  0.1666666670000012 -0.0000000000000000  0.8333333329999988
  0.1666666670000012  0.3333333329999988  0.1666666670000012
  0.1666666670000012  0.3333333329999988  0.5000000000000000
  0.1666666670000012  0.3333333329999988  0.8333333329999988
  0.1666666670000012  0.6666666670000012  0.1666666670000012
  0.1666666670000012  0.6666666670000012  0.5000000000000000
  0.1666666670000012  0.6666666670000012  0.8333333329999988
  0.5000000000000000 -0.0000000000000000  0.1666666670000012
  0.5000000000000000 -0.0000000000000000  0.5000000000000000
  0.5000000000000000 -0.0000000000000000  0.8333333329999988
  0.5000000000000000  0.3333333329999988  0.1666666670000012
  0.5000000000000000  0.3333333329999988  0.5000000000000000
  0.5000000000000000  0.3333333329999988  0.8333333329999988
  0.5000000000000000  0.6666666670000012  0.1666666670000012
  0.5000000000000000  0.6666666670000012  0.5000000000000000
  0.5000000000000000  0.6666666670000012  0.8333333329999988
  0.8333333329999988 -0.0000000000000000  0.1666666670000012
  0.8333333329999988 -0.0000000000000000  0.5000000000000000
  0.8333333329999988 -0.0000000000000000  0.8333333329999988
  0.8333333329999988  0.3333333329999988  0.1666666670000012
  0.8333333329999988  0.3333333329999988  0.5000000000000000
  0.8333333329999988  0.3333333329999988  0.8333333329999988
  0.8333333329999988  0.6666666670000012  0.1666666670000012
  0.8333333329999988  0.6666666670000012  0.5000000000000000
  0.8333333329999988  0.6666666670000012  0.8333333329999988
  0.1666666670000012  0.1666666670000012 -0.0000000000000000
  0.1666666670000012  0.1666666670000012  0.3333333329999988
  0.1666666670000012  0.1666666670000012  0.6666666670000012
  0.1666666670000012  0.5000000000000000  0.0000000000000000
  0.1666666670000012  0.5000000000000000  0.3333333329999988
  0.1666666670000012  0.5000000000000000  0.6666666670000012
  0.1666666670000012  0.8333333329999988 -0.0000000000000000
  0.1666666670000012  0.8333333329999988  0.3333333329999988
  0.1666666670000012  0.8333333329999988  0.6666666670000012
  0.5000000000000000  0.1666666670000012 -0.0000000000000000
  0.5000000000000000  0.1666666670000012  0.3333333329999988
  0.5000000000000000  0.1666666670000012  0.6666666670000012
  0.5000000000000000  0.5000000000000000  0.0000000000000000
  0.5000000000000000  0.5000000000000000  0.3333333329999988
  0.5000000000000000  0.5000000000000000  0.6666666670000012
  0.5000000000000000  0.8333333329999988 -0.0000000000000000
  0.5000000000000000  0.8333333329999988  0.3333333329999988
  0.5000000000000000  0.8333333329999988  0.6666666670000012
  0.8333333329999988  0.1666666670000012  0.0000000000000000
  0.8333333329999988  0.1666666670000012  0.3333333329999988
  0.8333333329999988  0.1666666670000012  0.6666666670000012
  0.8333333329999988  0.5000000000000000  0.0000000000000000
  0.8333333329999988  0.5000000000000000  0.3333333329999988
  0.8333333329999988  0.5000000000000000  0.6666666670000012
  0.8333333329999988  0.8333333329999988 -0.0000000000000000
  0.8333333329999988  0.8333333329999988  0.3333333329999988
  0.8333333329999988  0.8333333329999988  0.6666666670000012
 -0.0000000000000000 -0.0000000000000000  0.1666666670000012
 -0.0000000000000000 -0.0000000000000000  0.5000000000000000
 -0.0000000000000000 -0.0000000000000000  0.8333333329999988
 -0.0000000000000000  0.3333333329999988  0.1666666670000012
 -0.0000000000000000  0.3333333329999988  0.5000000000000000
 -0.0000000000000000  0.3333333329999988  0.8333333329999988
 -0.0000000000000000  0.6666666670000012  0.1666666670000012
 -0.0000000000000000  0.6666666670000012  0.5000000000000000
 -0.0000000000000000  0.6666666670000012  0.8333333329999988
  0.3333333329999988 -0.0000000000000000  0.1666666670000012
  0.3333333329999988 -0.0000000000000000  0.5000000000000000
  0.3333333329999988 -0.0000000000000000  0.8333333329999988
  0.3333333329999988  0.3333333329999988  0.1666666670000012
  0.3333333329999988  0.3333333329999988  0.5000000000000000
  0.3333333329999988  0.3333333329999988  0.8333333329999988
  0.3333333329999988  0.6666666670000012  0.1666666670000012
  0.3333333329999988  0.6666666670000012  0.5000000000000000
  0.3333333329999988  0.6666666670000012  0.8333333329999988
  0.6666666670000012 -0.0000000000000000  0.1666666670000012
  0.6666666670000012 -0.0000000000000000  0.5000000000000000
  0.6666666670000012 -0.0000000000000000  0.8333333329999988
  0.6666666670000012  0.3333333329999988  0.1666666670000012
  0.6666666670000012  0.3333333329999988  0.5000000000000000
  0.6666666670000012  0.3333333329999988  0.8333333329999988
  0.6666666670000012  0.6666666670000012  0.1666666670000012
  0.6666666670000012  0.6666666670000012  0.5000000000000000
  0.6666666670000012  0.6666666670000012  0.8333333329999988
 -0.0000000000000000  0.1666666670000012  0.0000000000000000
 -0.0000000000000000  0.1666666670000012  0.3333333329999988
 -0.0000000000000000  0.1666666670000012  0.6666666670000012
 -0.0000000000000000  0.5000000000000000  0.0000000000000000
 -0.0000000000000000  0.5000000000000000  0.3333333329999988
 -0.0000000000000000  0.5000000000000000  0.6666666670000012
 -0.0000000000000000  0.8333333329999988 -0.0000000000000000
 -0.0000000000000000  0.8333333329999988  0.3333333329999988
 -0.0000000000000000  0.8333333329999988  0.6666666670000012
  0.3333333329999988  0.1666666670000012 -0.0000000000000000
  0.3333333329999988  0.1666666670000012  0.3333333329999988
  0.3333333329999988  0.1666666670000012  0.6666666670000012
  0.3333333329999988  0.5000000000000000 -0.0000000000000000
  0.3333333329999988  0.5000000000000000  0.3333333329999988
  0.3333333329999988  0.5000000000000000  0.6666666670000012
  0.3333333329999988  0.8333333329999988 -0.0000000000000000
  0.3333333329999988  0.8333333329999988  0.3333333329999988
  0.3333333329999988  0.8333333329999988  0.6666666670000012
  0.6666666670000012  0.1666666670000012 -0.0000000000000000
  0.6666666670000012  0.1666666670000012  0.3333333329999988
  0.6666666670000012  0.1666666670000012  0.6666666670000012
  0.6666666670000012  0.5000000000000000 -0.0000000000000000
  0.6666666670000012  0.5000000000000000  0.3333333329999988
  0.6666666670000012  0.5000000000000000  0.6666666670000012
  0.6666666670000012  0.8333333329999988 -0.0000000000000000
  0.6666666670000012  0.8333333329999988  0.3333333329999988
  0.6666666670000012  0.8333333329999988  0.6666666670000012
  0.1666666670000012 -0.0000000000000000  0.0000000000000000
  0.1666666670000012 -0.0000000000000000  0.3333333329999988
  0.1666666670000012 -0.0000000000000000  0.6666666670000012
  0.1666666670000012  0.3333333329999988  0.0000000000000000
  0.1666666670000012  0.3333333329999988  0.3333333329999988
  0.1666666670000012  0.3333333329999988  0.6666666670000012
  0.1666666670000012  0.6666666670000012 -0.0000000000000000
  0.1666666670000012  0.6666666670000012  0.3333333329999988
  0.1666666670000012  0.6666666670000012  0.6666666670000012
  0.5000000000000000 -0.0000000000000000 -0.0000000000000000
  0.5000000000000000 -0.0000000000000000  0.3333333329999988
  0.5000000000000000 -0.0000000000000000  0.6666666670000012
  0.5000000000000000  0.3333333329999988 -0.0000000000000000
  0.5000000000000000  0.3333333329999988  0.3333333329999988
  0.5000000000000000  0.3333333329999988  0.6666666670000012
  0.5000000000000000  0.6666666670000012 -0.0000000000000000
  0.5000000000000000  0.6666666670000012  0.3333333329999988
  0.5000000000000000  0.6666666670000012  0.6666666670000012
  0.8333333329999988 -0.0000000000000000 -0.0000000000000000
  0.8333333329999988 -0.0000000000000000  0.3333333329999988
  0.8333333329999988 -0.0000000000000000  0.6666666670000012
  0.8333333329999988  0.3333333329999988  0.0000000000000000
  0.8333333329999988  0.3333333329999988  0.3333333329999988
  0.8333333329999988  0.3333333329999988  0.6666666670000012
  0.8333333329999988  0.6666666670000012 -0.0000000000000000
  0.8333333329999988  0.6666666670000012  0.3333333329999988
  0.8333333329999988  0.6666666670000012  0.6666666670000012
  0.1666666670000012  0.1666666670000012  0.1666666670000012
  0.1666666670000012  0.1666666670000012  0.5000000000000000
  0.1666666670000012  0.1666666670000012  0.8333333329999988
  0.1666666670000012  0.5000000000000000  0.1666666670000012
  0.1666666670000012  0.5000000000000000  0.5000000000000000
  0.1666666670000012  0.5000000000000000  0.8333333329999988
  0.1666666670000012  0.8333333329999988  0.1666666670000012
  0.1666666670000012  0.8333333329999988  0.5000000000000000
  0.1666666670000012  0.8333333329999988  0.8333333329999988
  0.5000000000000000  0.1666666670000012  0.1666666670000012
  0.5000000000000000  0.1666666670000012  0.5000000000000000
  0.5000000000000000  0.1666666670000012  0.8333333329999988
  0.5000000000000000  0.5000000000000000  0.1666666670000012
  0.5000000000000000  0.5000000000000000  0.5000000000000000
  0.5000000000000000  0.5000000000000000  0.8333333329999988
  0.5000000000000000  0.8333333329999988  0.1666666670000012
  0.5000000000000000  0.8333333329999988  0.5000000000000000
  0.5000000000000000  0.8333333329999988  0.8333333329999988
  0.8333333329999988  0.1666666670000012  0.1666666670000012
  0.8333333329999988  0.1666666670000012  0.5000000000000000
  0.8333333329999988  0.1666666670000012  0.8333333329999988
  0.8333333329999988  0.5000000000000000  0.1666666670000012
  0.8333333329999988  0.5000000000000000  0.5000000000000000
  0.8333333329999988  0.5000000000000000  0.8333333329999988
  0.8333333329999988  0.8333333329999988  0.1666666670000012
  0.8333333329999988  0.8333333329999988  0.5000000000000000
  0.8333333329999988  0.8333333329999988  0.8333333329999988
 
  0.00000000E+00  0.00000000E+00  0.00000000E+00
  0.00000000E+00  0.00000000E+00  0.00000000E+00
  0.00000000E+00  0.00000000E+00  0.00000000E+00
  0.00000000E+00  0.00000000E+00  0.00000000E+00
  0.00000000E+00  0.00000000E+00  0.00000000E+00
  0.00000000E+00  0.00000000E+00  0.00000000E+00
  0.00000000E+00  0.00000000E+00  0.00000000E+00
  0.00000000E+00  0.00000000E+00  0.00000000E+00
  0.00000000E+00  0.00000000E+00  0.00000000E+00
  0.00000000E+00  0.00000000E+00  0.00000000E+00
  0.00000000E+00  0.00000000E+00  0.00000000E+00
  0.00000000E+00  0.00000000E+00  0.00000000E+00
  0.00000000E+00  0.00000000E+00  0.00000000E+00
  0.00000000E+00  0.00000000E+00  0.00000000E+00
  0.00000000E+00  0.00000000E+00  0.00000000E+00
  0.00000000E+00  0.00000000E+00  0.00000000E+00
  0.00000000E+00  0.00000000E+00  0.00000000E+00
  0.00000000E+00  0.00000000E+00  0.00000000E+00
  0.00000000E+00  0.00000000E+00  0.00000000E+00
  0.00000000E+00  0.00000000E+00  0.00000000E+00
  0.00000000E+00  0.00000000E+00  0.00000000E+00
  0.00000000E+00  0.00000000E+00  0.00000000E+00
  0.00000000E+00  0.00000000E+00  0.00000000E+00
  0.00000000E+00  0.00000000E+00  0.00000000E+00
  0.00000000E+00  0.00000000E+00  0.00000000E+00
  0.00000000E+00  0.00000000E+00  0.00000000E+00
  0.00000000E+00  0.00000000E+00  0.00000000E+00
  0.00000000E+00  0.00000000E+00  0.00000000E+00
  0.00000000E+00  0.00000000E+00  0.00000000E+00
  0.00000000E+00  0.00000000E+00  0.00000000E+00
  0.00000000E+00  0.00000000E+00  0.00000000E+00
  0.00000000E+00  0.00000000E+00  0.00000000E+00
  0.00000000E+00  0.00000000E+00  0.00000000E+00
  0.00000000E+00  0.00000000E+00  0.00000000E+00
  0.00000000E+00  0.00000000E+00  0.00000000E+00
  0.00000000E+00  0.00000000E+00  0.00000000E+00
  0.00000000E+00  0.00000000E+00  0.00000000E+00
  0.00000000E+00  0.00000000E+00  0.00000000E+00
  0.00000000E+00  0.00000000E+00  0.00000000E+00
  0.00000000E+00  0.00000000E+00  0.00000000E+00
  0.00000000E+00  0.00000000E+00  0.00000000E+00
  0.00000000E+00  0.00000000E+00  0.00000000E+00
  0.00000000E+00  0.00000000E+00  0.00000000E+00
  0.00000000E+00  0.00000000E+00  0.00000000E+00
  0.00000000E+00  0.00000000E+00  0.00000000E+00
  0.00000000E+00  0.00000000E+00  0.00000000E+00
  0.00000000E+00  0.00000000E+00  0.00000000E+00
  0.00000000E+00  0.00000000E+00  0.00000000E+00
  0.00000000E+00  0.00000000E+00  0.00000000E+00
  0.00000000E+00  0.00000000E+00  0.00000000E+00
  0.00000000E+00  0.00000000E+00  0.00000000E+00
  0.00000000E+00  0.00000000E+00  0.00000000E+00
  0.00000000E+00  0.00000000E+00  0.00000000E+00
  0.00000000E+00  0.00000000E+00  0.00000000E+00
  0.00000000E+00  0.00000000E+00  0.00000000E+00
  0.00000000E+00  0.00000000E+00  0.00000000E+00
  0.00000000E+00  0.00000000E+00  0.00000000E+00
  0.00000000E+00  0.00000000E+00  0.00000000E+00
  0.00000000E+00  0.00000000E+00  0.00000000E+00
  0.00000000E+00  0.00000000E+00  0.00000000E+00
  0.00000000E+00  0.00000000E+00  0.00000000E+00
  0.00000000E+00  0.00000000E+00  0.00000000E+00
  0.00000000E+00  0.00000000E+00  0.00000000E+00
  0.00000000E+00  0.00000000E+00  0.00000000E+00
  0.00000000E+00  0.00000000E+00  0.00000000E+00
  0.00000000E+00  0.00000000E+00  0.00000000E+00
  0.00000000E+00  0.00000000E+00  0.00000000E+00
  0.00000000E+00  0.00000000E+00  0.00000000E+00
  0.00000000E+00  0.00000000E+00  0.00000000E+00
  0.00000000E+00  0.00000000E+00  0.00000000E+00
  0.00000000E+00  0.00000000E+00  0.00000000E+00
  0.00000000E+00  0.00000000E+00  0.00000000E+00
  0.00000000E+00  0.00000000E+00  0.00000000E+00
  0.00000000E+00  0.00000000E+00  0.00000000E+00
  0.00000000E+00  0.00000000E+00  0.00000000E+00
  0.00000000E+00  0.00000000E+00  0.00000000E+00
  0.00000000E+00  0.00000000E+00  0.00000000E+00
  0.00000000E+00  0.00000000E+00  0.00000000E+00
  0.00000000E+00  0.00000000E+00  0.00000000E+00
  0.00000000E+00  0.00000000E+00  0.00000000E+00
  0.00000000E+00  0.00000000E+00  0.00000000E+00
  0.00000000E+00  0.00000000E+00  0.00000000E+00
  0.00000000E+00  0.00000000E+00  0.00000000E+00
  0.00000000E+00  0.00000000E+00  0.00000000E+00
  0.00000000E+00  0.00000000E+00  0.00000000E+00
  0.00000000E+00  0.00000000E+00  0.00000000E+00
  0.00000000E+00  0.00000000E+00  0.00000000E+00
  0.00000000E+00  0.00000000E+00  0.00000000E+00
  0.00000000E+00  0.00000000E+00  0.00000000E+00
  0.00000000E+00  0.00000000E+00  0.00000000E+00
  0.00000000E+00  0.00000000E+00  0.00000000E+00
  0.00000000E+00  0.00000000E+00  0.00000000E+00
  0.00000000E+00  0.00000000E+00  0.00000000E+00
  0.00000000E+00  0.00000000E+00  0.00000000E+00
  0.00000000E+00  0.00000000E+00  0.00000000E+00
  0.00000000E+00  0.00000000E+00  0.00000000E+00
  0.00000000E+00  0.00000000E+00  0.00000000E+00
  0.00000000E+00  0.00000000E+00  0.00000000E+00
  0.00000000E+00  0.00000000E+00  0.00000000E+00
  0.00000000E+00  0.00000000E+00  0.00000000E+00
  0.00000000E+00  0.00000000E+00  0.00000000E+00
  0.00000000E+00  0.00000000E+00  0.00000000E+00
  0.00000000E+00  0.00000000E+00  0.00000000E+00
  0.00000000E+00  0.00000000E+00  0.00000000E+00
  0.00000000E+00  0.00000000E+00  0.00000000E+00
  0.00000000E+00  0.00000000E+00  0.00000000E+00
  0.00000000E+00  0.00000000E+00  0.00000000E+00
  0.00000000E+00  0.00000000E+00  0.00000000E+00
  0.00000000E+00  0.00000000E+00  0.00000000E+00
  0.00000000E+00  0.00000000E+00  0.00000000E+00
  0.00000000E+00  0.00000000E+00  0.00000000E+00
  0.00000000E+00  0.00000000E+00  0.00000000E+00
  0.00000000E+00  0.00000000E+00  0.00000000E+00
  0.00000000E+00  0.00000000E+00  0.00000000E+00
  0.00000000E+00  0.00000000E+00  0.00000000E+00
  0.00000000E+00  0.00000000E+00  0.00000000E+00
  0.00000000E+00  0.00000000E+00  0.00000000E+00
  0.00000000E+00  0.00000000E+00  0.00000000E+00
  0.00000000E+00  0.00000000E+00  0.00000000E+00
  0.00000000E+00  0.00000000E+00  0.00000000E+00
  0.00000000E+00  0.00000000E+00  0.00000000E+00
  0.00000000E+00  0.00000000E+00  0.00000000E+00
  0.00000000E+00  0.00000000E+00  0.00000000E+00
  0.00000000E+00  0.00000000E+00  0.00000000E+00
  0.00000000E+00  0.00000000E+00  0.00000000E+00
  0.00000000E+00  0.00000000E+00  0.00000000E+00
  0.00000000E+00  0.00000000E+00  0.00000000E+00
  0.00000000E+00  0.00000000E+00  0.00000000E+00
  0.00000000E+00  0.00000000E+00  0.00000000E+00
  0.00000000E+00  0.00000000E+00  0.00000000E+00
  0.00000000E+00  0.00000000E+00  0.00000000E+00
  0.00000000E+00  0.00000000E+00  0.00000000E+00
  0.00000000E+00  0.00000000E+00  0.00000000E+00
  0.00000000E+00  0.00000000E+00  0.00000000E+00
  0.00000000E+00  0.00000000E+00  0.00000000E+00
  0.00000000E+00  0.00000000E+00  0.00000000E+00
  0.00000000E+00  0.00000000E+00  0.00000000E+00
  0.00000000E+00  0.00000000E+00  0.00000000E+00
  0.00000000E+00  0.00000000E+00  0.00000000E+00
  0.00000000E+00  0.00000000E+00  0.00000000E+00
  0.00000000E+00  0.00000000E+00  0.00000000E+00
  0.00000000E+00  0.00000000E+00  0.00000000E+00
  0.00000000E+00  0.00000000E+00  0.00000000E+00
  0.00000000E+00  0.00000000E+00  0.00000000E+00
  0.00000000E+00  0.00000000E+00  0.00000000E+00
  0.00000000E+00  0.00000000E+00  0.00000000E+00
  0.00000000E+00  0.00000000E+00  0.00000000E+00
  0.00000000E+00  0.00000000E+00  0.00000000E+00
  0.00000000E+00  0.00000000E+00  0.00000000E+00
  0.00000000E+00  0.00000000E+00  0.00000000E+00
  0.00000000E+00  0.00000000E+00  0.00000000E+00
  0.00000000E+00  0.00000000E+00  0.00000000E+00
  0.00000000E+00  0.00000000E+00  0.00000000E+00
  0.00000000E+00  0.00000000E+00  0.00000000E+00
  0.00000000E+00  0.00000000E+00  0.00000000E+00
  0.00000000E+00  0.00000000E+00  0.00000000E+00
  0.00000000E+00  0.00000000E+00  0.00000000E+00
  0.00000000E+00  0.00000000E+00  0.00000000E+00
  0.00000000E+00  0.00000000E+00  0.00000000E+00
  0.00000000E+00  0.00000000E+00  0.00000000E+00
  0.00000000E+00  0.00000000E+00  0.00000000E+00
  0.00000000E+00  0.00000000E+00  0.00000000E+00
  0.00000000E+00  0.00000000E+00  0.00000000E+00
  0.00000000E+00  0.00000000E+00  0.00000000E+00
  0.00000000E+00  0.00000000E+00  0.00000000E+00
  0.00000000E+00  0.00000000E+00  0.00000000E+00
  0.00000000E+00  0.00000000E+00  0.00000000E+00
  0.00000000E+00  0.00000000E+00  0.00000000E+00
  0.00000000E+00  0.00000000E+00  0.00000000E+00
  0.00000000E+00  0.00000000E+00  0.00000000E+00
  0.00000000E+00  0.00000000E+00  0.00000000E+00
  0.00000000E+00  0.00000000E+00  0.00000000E+00
  0.00000000E+00  0.00000000E+00  0.00000000E+00
  0.00000000E+00  0.00000000E+00  0.00000000E+00
  0.00000000E+00  0.00000000E+00  0.00000000E+00
  0.00000000E+00  0.00000000E+00  0.00000000E+00
  0.00000000E+00  0.00000000E+00  0.00000000E+00
  0.00000000E+00  0.00000000E+00  0.00000000E+00
  0.00000000E+00  0.00000000E+00  0.00000000E+00
  0.00000000E+00  0.00000000E+00  0.00000000E+00
  0.00000000E+00  0.00000000E+00  0.00000000E+00
  0.00000000E+00  0.00000000E+00  0.00000000E+00
  0.00000000E+00  0.00000000E+00  0.00000000E+00
  0.00000000E+00  0.00000000E+00  0.00000000E+00
  0.00000000E+00  0.00000000E+00  0.00000000E+00
  0.00000000E+00  0.00000000E+00  0.00000000E+00
  0.00000000E+00  0.00000000E+00  0.00000000E+00
  0.00000000E+00  0.00000000E+00  0.00000000E+00
  0.00000000E+00  0.00000000E+00  0.00000000E+00
  0.00000000E+00  0.00000000E+00  0.00000000E+00
  0.00000000E+00  0.00000000E+00  0.00000000E+00
  0.00000000E+00  0.00000000E+00  0.00000000E+00
  0.00000000E+00  0.00000000E+00  0.00000000E+00
  0.00000000E+00  0.00000000E+00  0.00000000E+00
  0.00000000E+00  0.00000000E+00  0.00000000E+00
  0.00000000E+00  0.00000000E+00  0.00000000E+00
  0.00000000E+00  0.00000000E+00  0.00000000E+00
  0.00000000E+00  0.00000000E+00  0.00000000E+00
  0.00000000E+00  0.00000000E+00  0.00000000E+00
  0.00000000E+00  0.00000000E+00  0.00000000E+00
  0.00000000E+00  0.00000000E+00  0.00000000E+00
  0.00000000E+00  0.00000000E+00  0.00000000E+00
  0.00000000E+00  0.00000000E+00  0.00000000E+00
  0.00000000E+00  0.00000000E+00  0.00000000E+00
  0.00000000E+00  0.00000000E+00  0.00000000E+00
  0.00000000E+00  0.00000000E+00  0.00000000E+00
  0.00000000E+00  0.00000000E+00  0.00000000E+00
  0.00000000E+00  0.00000000E+00  0.00000000E+00
  0.00000000E+00  0.00000000E+00  0.00000000E+00
  0.00000000E+00  0.00000000E+00  0.00000000E+00
  0.00000000E+00  0.00000000E+00  0.00000000E+00
  0.00000000E+00  0.00000000E+00  0.00000000E+00
  0.00000000E+00  0.00000000E+00  0.00000000E+00
  0.00000000E+00  0.00000000E+00  0.00000000E+00
  0.00000000E+00  0.00000000E+00  0.00000000E+00
  0.00000000E+00  0.00000000E+00  0.00000000E+00
