Ge Se                                   
   1.00000000000000     
    20.3755127362318618    0.0000000000000000    0.0000000000000000
     0.0000000000000000   20.3755127362318618    0.0000000000000000
     0.0000000000000000    0.0000000000000000   20.3755127362318618
   Ge   Se
   180   120
Direct
  0.2481737873799040  0.6964415770125607  0.9106911476461536
  0.5348014017903263  0.7173873836550290  0.0826857311056169
  0.6619237822608645  0.4451865479874341  0.2358386666339999
  0.8562233148336474  0.4846570144195560  0.3660391295077751
  0.3286692765315398  0.4828906580302234  0.6881411361590168
  0.6315943530304815  0.2852674102757289  0.3432782166431089
  0.2793268035282945  0.5360620243836386  0.9560416218771646
  0.3167263835236828  0.7930934508882940  0.8702885786101776
  0.1089140147097932  0.8324135279569380  0.5799039286380100
  0.6712318744293871  0.4058781756227769  0.3546463115200769
  0.8438049871297968  0.3808482808081962  0.2840644187959866
  0.0754282938421000  0.9415226657834486  0.4419506787216279
  0.6546681032724292  0.2497164817500560  0.0515958259139794
  0.6991612395878112  0.1048266760378193  0.9354807755401832
  0.1957413229858287  0.6422460375131851  0.3658156856201207
  0.5407427025784486  0.3444209276357094  0.6169328289429687
  0.4772181445166889  0.7729737321882699  0.3633038469387663
  0.1376556064969867  0.3967775871654155  0.5107972663657642
  0.1016413672787946  0.7899576411276675  0.9958154759600905
  0.3154009898125946  0.2690258583234100  0.5727261683699997
  0.8549642663832715  0.1762759467654359  0.5147017791763931
  0.1916577293599634  0.0425778808636357  0.5167910097457993
  0.3972001438034203  0.2322344674150929  0.8808286727707187
  0.8205838414140857  0.9676718316942942  0.0666458485063980
  0.6035150157176443  0.9946486293681365  0.4656013523289733
  0.7024402650430730  0.4516372041056548  0.5341380759502155
  0.0176238773989737  0.0926055569207231  0.4107986669413850
  0.6412615881349113  0.8397893750594506  0.6170442124926466
  0.5168091476924518  0.2961895164336635  0.2970192487691590
  0.0141105601324960  0.3078498874256229  0.4396066314399154
  0.6961361448931156  0.0220417835149947  0.2589389855876899
  0.8063035426458066  0.8017010599548212  0.3853180765728321
  0.7687539522819220  0.1952243832092180  0.2136006277554644
  0.6353351477536647  0.6133390961140809  0.4904434902427878
  0.3755930986891152  0.6439629319580316  0.6897143843854924
  0.6817054941274503  0.8871659811477894  0.8166512207922979
  0.3809164530024468  0.6623597875783385  0.4930310412008198
  0.6370738202651332  0.1611816763846957  0.3763548371033774
  0.5721009553757034  0.4535615631223461  0.4160628100747104
  0.6221314765077962  0.7096665471860817  0.5800180678715180
  0.9005448010755734 -0.0049082729725961  0.2495529086348738
  0.1927585074703901  0.2034217060133799  0.0882227699880077
  0.0627670790007338  0.0425083303748835  0.1515413001923158
  0.6802495940381551  0.7951590279967805  0.0786763740713382
  0.0011033504919924  0.3942243460618274  0.6275784828298457
  0.8978356980549551  0.8128337150592401  0.0281571757002265
  0.5918425628642322  0.0703736941972485  0.9902904271205648
  0.9709187131528879  0.7001840073495327  0.1590853999355800
  0.3714511439084927  0.8992982105191859  0.0053541183784150
  0.8883281661503225  0.5143368659487511  0.7609944803752263
  0.8275929340650786  0.2533281764923910  0.9404553762728753
  0.6055841512422021  0.3775431475383434  0.0525608479673976
  0.0188712742600691  0.5919471186450936  0.3128873518737390
  0.6706733429069117  0.2382613654343124  0.7574017702617005
  0.3160203347363493  0.6901795929552202  0.3878841806577812
  0.8063986801645083  0.0637494895146934  0.5006448490771044
  0.8487098547787612  0.0848247709459753  0.6919603611526951
  0.5704382658848365  0.3411534114907919  0.9290502957761487
  0.2423403001184999  0.9479530251447916  0.8749085065960671
  0.5386320404135367  0.6005628441050854  0.2884438377012273
  0.8663838074819076  0.0883426696969733  0.3261637904851743
  0.9561143139575539  0.3860198358403600  0.2268011280081162
  0.3307728417935840  0.6636995145702551  0.0879859966590932
  0.4164475975774672  0.9645253676178402  0.7152123698336260
  0.8722472542713674  0.8974178097663438  0.7313413119492657
  0.8284510347500673  0.3683479395256192  0.9837956862389196
  0.3596350034521826  0.1121766956523906  0.9098610542121804
  0.6109263999009215  0.5047363261609450  0.9177971994138927
  0.3137727547578316  0.1173873547015121  0.2452035288848114
  0.7449900897529831  0.1208299073930207  0.3215224583471158
  0.1393402660468549  0.9139389264492086  0.0040085439208419
  0.5821399900396981  0.1028662470356650  0.8366036311541035
  0.8710798325591721  0.1739191558065666  0.0236857395506823
  0.9514509282946212  0.6914778341950849  0.6450525054621584
  0.3689679993777567  0.4884961630483260  0.3486709585595350
  0.0520149769403420  0.5533805293609566  0.6860284445542609
  0.5072636678141116  0.7556943404061980  0.6850016965823700
  0.2883888168258263  0.1617139050454241  0.0011247213392703
  0.7064107383875202  0.2281740429551630  0.9391234773866829
  0.1891135487688945  0.2628231961468705  0.7108905522186793
  0.5443490259553923  0.6668994076025823  0.9067486753691727
  0.2975467026347628  0.4924064684341480  0.1541830062744161
  0.8433077690153870  0.3229791083897584  0.4585879933642644
  0.7525750021099521  0.3733093501315499  0.1952544232614588
  0.5677154173593534  0.4567189839741875  0.7524637368355037
  0.7579222865559719  0.3227283993760651  0.0798485798373577
  0.8157398874489935 -0.0163398037596495  0.8156678321913386
  0.0804069650227449  0.3077434840465686  0.8005425698282582
  0.7050372070420904  0.4154933386664785  0.9310345100723926
  0.6035196108553542  0.9459995430253394 -0.0051662511231546
  0.0179018738032824  0.2705401174167560  0.0066928197438002
  0.4181110626984880  0.5466467015558838  0.8283817634645381
  0.9468049114299575  0.7668231850814231  0.2685579563100207
  0.7525981116918375  0.5572575601131619  0.4731756826799542
  0.9581482713397839  0.2158184676195256  0.2000105900096035
  0.3949060219706683  0.9813670442856465  0.3804406792917753
  0.8054108909160593  0.7872814056235350  0.9022281392057757
  0.1242536681038787  0.6566840782565666  0.1706651314340652
  0.4846348256149637  0.8893443247913603  0.5270271877202671
  0.8573078312216066  0.5714273696949824  0.0883309578660183
  0.7029263702499911  0.9202763269606863  0.0628867176380001
  0.7669646660432775  0.4211274075635680  0.4311431436464654
  0.7980844739701063  0.0758525416555891  0.0035627801013556
  0.4292693425097746  0.5014184303692989  0.0322902396832927
  0.0273220136624100  0.6217560033739611  0.0413869904759462
  0.5997090605845546  0.1818589017654503  0.4997407990422175
  0.9684232088476169  0.4263690497793517  0.4166565206278832
  0.8538718987222756  0.9165294570029787  0.3442905755190341
  0.0602820094065010  0.8265292836922008  0.1653079878720723
  0.5126378468338025  0.5327404518516354  0.5051239843128214
  0.4268777406954240  0.2827632905043678  0.3853139887603568
  0.4614557775488331  0.4999008788347566  0.6869407930675021
  0.1988791402716654  0.6080261566844372  0.0181671585268286
  0.4183140708567097  0.8879477936618332  0.1900796406192447
  0.0695719699702769  0.3708858397642297  0.1638734446787936
  0.5221177695475914  0.9768467403784664  0.3696271203471267
  0.3502776855613711  0.1971926282180608  0.3353772416714982
  0.8725769474858658  0.0479713224966148  0.9051344230795486
  0.2662873138401227  0.2907823434292339  0.2698684574535966
  0.6697478161305686  0.3168372141976066  0.8588806039588233
  0.6280281441919374  0.8068930807533502  0.4208640317522681
  0.8284244868021957  0.6575867334675243  0.2694142536694787
  0.0507965452549249  0.9314832947677764  0.0946025613999803
  0.9225172915434607  0.1986503281192908  0.3232947389520987
  0.8620963912560208  0.2509132317088806  0.1224064778408427
  0.7124022622557986  0.0384707661724102  0.4155502729839413
  0.3151027520467424  0.7057717292421136  0.2128203641220647
  0.2391115927662053  0.8168670917569351  0.4188124864607214
  0.8154226358785243  0.4681499079662079  0.9034689581182057
  0.8972533510974533  0.2438949818163070  0.8371046300357733
  0.9121354710735824  0.3624017970979256  0.0729418921228894
  0.1330987927731138  0.1319064599521322  0.3298444878506697
  0.5465621797531469  0.3967551772803548  0.2263332850295852
  0.7583447121801272  0.7261152361046035  0.1809225653274041
  0.9812722666093555  0.1261554394831466  0.9799356939332986
  0.0195940405267714  0.9731175622152222  0.3221802602033673
  0.6529372321902714  0.5116034987451599  0.0922499036561257
  0.2112451578449003  0.1774463734105537  0.8644774579465115
  0.5313125303477187  0.1783681470686197  0.0216391502524824
  0.6049626309441276  0.0785964679914086  0.1160223603986628
  0.5129926940974989  0.9033301812302803  0.0675310350160533
  0.1941108465363763  0.3380234272537046  0.4123636627714538
  0.7751146271313144  0.7396039727959393  0.7260672491939771
  0.3540690716891320  0.8155423046319246  0.3700514800322759
  0.6345530676299905  0.0400168200562442  0.7177820794298850
  0.8903317476694944  0.6955661120329867  0.7571107604787602
  0.8926082210300854  0.7095029664353143  0.3645283580764416
  0.7170902160555758  0.0651086064614787  0.8165051001348302
  0.4388378845629913  0.0209531586476944  0.0670836763577721
  0.2877658978851333  0.1695527780038605  0.4374946732692237
  0.9114584682389149  0.6063387202607474  0.8516076567479141
  0.1639334631832181  0.4393879265146615  0.3328343975641055
  0.1103111235481480  0.1276902643838314  0.9592627251064815
  0.3881034666682431  0.1265437019547547  0.4991988509428563
  0.6073479197045254  0.7616640647367053  0.9724060379220931
  0.4752643271909550  0.2166390720298555  0.4876554775424837
  0.9580986447529418  0.1989721357091091  0.4419780950156653
  0.4070049818150294  0.1627445434891955  0.0558556497501039
  0.6471833233444201  0.3330244452970809  0.5465916237742995
  0.2155180294624427  0.5190053851852099  0.8434512920218982
  0.7862378929143797  0.6388965053348045  0.5725047816744235
  0.5834126338544348  0.0695184135868502  0.3029136206576376
  0.1640219480292000  0.7006007974470492  0.7401613345998308
  0.5093912348604938  0.0932995916834719  0.2032812418125635
 -0.0189068613281807  0.8999418169098228  0.6219728737962071
  0.3460909078056035  0.1863636540594009  0.7468947286915669
  0.4733750889846360  0.8093228429995653  0.9891186323555980
  0.1904569967246400  0.6297126982585782  0.6380930545387411
  0.1332754643268963  0.8387254488603333  0.7991980143955597
  0.3739969416253517  0.8420041610376512  0.5722515349787631
  0.8797937662296855  0.2807379640912886  0.7050992724677998
  0.0076662971179832  0.5944221397209415  0.5742136105801677
  0.3794238905374198  0.1992276003553679  0.1712397222185198
  0.7258824661768162  0.4116323895703714  0.7284091415307169
  0.6566866831563382  0.5661059481656245  0.2576110566714624
  0.4283383290428706  0.0239493462574098  0.5649869596346033
  0.7918426182088828  0.4415350536874916  0.6222458936920617
  0.4410655926492292  0.8311592813072850  0.8637626553917311
  0.2276069835021966  0.4617318569096265  0.5763435326380433
  0.7065579552333560  0.6411738671670736  0.9606684965771444
  0.3265249171163755  0.3043736089547183  0.1637702454894827
  0.7080118569956633  0.1475959865473888  0.1102100129154234
  0.3525819827666026  0.3735474291149966  0.4038303657220134
  0.1505183031420538  0.0833379790605284  0.0746977869009484
  0.0399934456191181  0.8461959721712567  0.2865097901218282
  0.7697399602262025  0.1627882341135927  0.7684254212412891
  0.3849067878118221  0.7731214119013887  0.6770408809337891
  0.1043445531990516  0.5778410039869093  0.9549884240661903
  0.1880240132914600  0.9206909713747399  0.4844419739512956
  0.3597563647859708  0.2641842454950439  0.9946054973840611
  0.1371690790738954  0.2488369755855008  0.9787298010937099
  0.3797888259782965  0.6471186574716420  0.2937880443936248
  0.9497146947743494  0.1327589788166327  0.8580852929367223
  0.1877551286828797  0.5543582571312416  0.1303870978974238
  0.3391161882021074  0.9525057280998178  0.1114711665417460
  0.0637997307993602  0.0439759610777637  0.5133376934775056
  0.5831941860372776  0.1596939790485068  0.7213707193157078
  0.9508745482946579  0.6162899970506279  0.4122833296788828
  0.7750723983415977  0.8467293928596581  0.6725181166104623
  0.4048692377973599  0.9912813737891141  0.2590754713792021
  0.7924644041862168  0.0162818705808357  0.6085510374091545
  0.4342033779124998  0.0764982523971231  0.6746914901450158
  0.6355760382003651  0.9662119028130006  0.1569497972579480
  0.0662735170723999  0.6354820908415767  0.7714360700655744
  0.1154251816179177  0.9403753065419385  0.8857914220837012
  0.6653451017471703  0.8942792088526950  0.5067864951404104
  0.5246625234763843  0.8853609846533355  0.6471084381321128
  0.7063721259786798  0.7617954801612877  0.8248404323122444
  0.7130252440397247  0.7154624275001992  0.4894301994116077
  0.1366087541392221  0.7476612737215996  0.8866765673109008
  0.6422229873924989  0.6047046462836424  0.8535380243989718
  0.3033980120304555  0.4474654305968928  0.0333905012584955
  0.0264406023357052  0.3914841003695384  0.0430134524996181
  0.0196059110476475  0.7897951661090116  0.6679185138041340
  0.1991347027711182  0.7087850550030815  0.2567097781981628
  0.8208756652952669  0.6591367672301508  0.9158525912620745
  0.8563127830367533  0.7147926461374308  0.1020283326289771
  0.2640245936966673  0.8559373286605140  0.9652938844799765
  0.5713089921137928  0.0704602085039170  0.5504167162436729
  0.2767516828671734  0.3703831838489920  0.6465373620947059
  0.7598210726386670  0.2472505961085402  0.5041998427510215
  0.9377877770869877  0.5512007792748164  0.0007717753472565
  0.9270687248356684  0.5978906638421857  0.2218217899266273
  0.2061883195291354  0.1810349895821283  0.2348585852416440
  0.0948009521841558  0.9338814767681272  0.6501008379875060
  0.1970035022165881  0.3857358435436243  0.2268836797947736
  0.2686754326458092  0.2752389787695841  0.8083844817516613
  0.5671726657591060  0.5635883748370144  0.0151040820968360
  0.2533020248417489  0.6336036808303529  0.8045965168347420
  0.5192150468643952  0.7763875171127844  0.4848779740781425
  0.3277839050542786  0.4622474535334189  0.8131087991326754
  0.9920371787326034  0.7388340772904796  0.9849017343495429
  0.4070269336345714  0.0026675801656048  0.9418077419977082
  0.9007362459541345  0.0256483670610109  0.4291533103278113
  0.2650994471864733  0.1798738470485417  0.6508937412148590
  0.9468239908548698  0.8739831969851840  0.1275316532668221
  0.2916846428863597  0.0880939352907282  0.8103703846994480
  0.9663960323500218  0.0050980251764684  0.9682903418532086
  0.7025294714849772  0.6611085737063138  0.6676550692191163
  0.4146986991066200  0.7584879393893729  0.0881790429976960
  0.3326139412573130  0.9470366280987859  0.6175305202439767
  0.6737648565423754  0.6240113512186638  0.1530962274786439
  0.7587745090907890  0.5751617596054212  0.3244271629546679
  0.5755319908448815  0.8169039238760484  0.1425931044315803
  0.5890098606277817  0.8657622493817451  0.9019836234678080
  0.7293003656314947  0.9355773753046693  0.3439471731241738
  0.3030346534124554  0.6141516618032695  0.5917699475859336
  0.4665389979838116  0.4358773414879730  0.5819902001597039
  0.2823533245713125  0.7790525646771845  0.5275574584379642
  0.2241248433001838  0.0729945563380449  0.3978066841415057
  0.4820197927791748  0.6105314260115011  0.6367174549139687
  0.5526643321157606  0.6409329285596443  0.4023816589486081
  0.8343554010040424  0.8208658302655299  0.2596869086295622
  0.5012436442067126  0.4789143086766757  0.3120400010506152
  0.3231008471823820  0.8250338810149419  0.2488574393163033
  0.8568522102889923  0.5412350647868085  0.6434016980500596
  0.0225748219471057  0.4594683198802303  0.3066222661470021
  0.8668395308123055  0.7269122775909480  0.5648627752775621
  0.0974122447011664  0.2850478098605616  0.3570724828197108
  0.4979798286208720  0.3960503666457187  0.1161311811805705
  0.1758492818319269  0.7207455556209460  0.0707763548482296
  0.3853954863730651  0.5938837979993172  0.9429233956472977
  0.3952043621154517  0.5380123578045045  0.4635346572260155
  0.8835669717683806  0.4514361696702044  0.1487764708360985
  0.8383971571059012  0.4046630558575475  0.7887156493976133
  0.2392843888626096  0.5354999181054637  0.3163866339948327
  0.9590593315444441  0.1015186589353518  0.1557260100894318
  0.0647143634778617  0.3070844516754410  0.5487474584741913
  0.0003515878304957  0.4688132577022399  0.7542592966767543
  0.7503717738457184  0.5318134806681661  0.0138356423042940
  0.8989475556695971  0.8045611309447822  0.8164160312731754
  0.8803928549788030  0.3617043754034948  0.5881774945402072
  0.7213727254332393  0.3031631174673464  0.6700795404989170
  0.5554109803232928  0.8687266872342693  0.3267397414985282
  0.4643283057151849  0.2539928189053118  0.6022153127891645
  0.9038550472227171  0.1722614994458071  0.6260225948536710
  0.4018375504724048  0.5721231549909330  0.1331582724580515
  0.6775200768970143  0.2766482418290727  0.2220742311177785
  0.8239688521064243  0.2695109522062535  0.3319989371404956
  0.5467634445597527  0.9959082354226443  0.7927642536648599
  0.4991064191293904  0.2206911574717116  0.2007723447690633
  0.5092038332554034  0.4540614200714602  0.8676527655756117
  0.1140560275481123  0.1836739277984975  0.7862172856063602
  0.5564901074481881  0.3395962190460043  0.4547610192307301
  0.1183343859923659  0.0208724880454735  0.2599360836510757
  0.8016718252931412  0.0208040627796900  0.1788295370357739
  0.5192053290722894  0.2270210366131890  0.9093547325553305
  0.4303016439310787  0.1046251917733604  0.3848053698643784
  0.0057539925576496  0.2896399458163802  0.7014312245636465
  0.0666753627949951  0.2476717474394409  0.1598129806991579
  0.5353606905340006  0.3409941971750146  0.7365197264686226
  0.2101812976672629  0.2387382500522439  0.4965106747705960
  0.7635350636262825  0.9190433403772844  0.9050433769527448
  0.4850382882201392  0.7272555994479667  0.8101768383206154
  0.1700579133032764  0.5128795801791967  0.6796546038567070
  0.2572009482132067  0.8595842000537004  0.7839370299170779
  0.0096377825826522  0.8581189686379772  0.4973982678241429
  0.1181689276904106  0.6450562116554145  0.5464463116156318
  0.9885635890577962  0.3120220249404955  0.8853118772417300
  0.0526617054253690  0.4809127458442994  0.4850878862494057
 
  0.00000000E+00  0.00000000E+00  0.00000000E+00
  0.00000000E+00  0.00000000E+00  0.00000000E+00
  0.00000000E+00  0.00000000E+00  0.00000000E+00
  0.00000000E+00  0.00000000E+00  0.00000000E+00
  0.00000000E+00  0.00000000E+00  0.00000000E+00
  0.00000000E+00  0.00000000E+00  0.00000000E+00
  0.00000000E+00  0.00000000E+00  0.00000000E+00
  0.00000000E+00  0.00000000E+00  0.00000000E+00
  0.00000000E+00  0.00000000E+00  0.00000000E+00
  0.00000000E+00  0.00000000E+00  0.00000000E+00
  0.00000000E+00  0.00000000E+00  0.00000000E+00
  0.00000000E+00  0.00000000E+00  0.00000000E+00
  0.00000000E+00  0.00000000E+00  0.00000000E+00
  0.00000000E+00  0.00000000E+00  0.00000000E+00
  0.00000000E+00  0.00000000E+00  0.00000000E+00
  0.00000000E+00  0.00000000E+00  0.00000000E+00
  0.00000000E+00  0.00000000E+00  0.00000000E+00
  0.00000000E+00  0.00000000E+00  0.00000000E+00
  0.00000000E+00  0.00000000E+00  0.00000000E+00
  0.00000000E+00  0.00000000E+00  0.00000000E+00
  0.00000000E+00  0.00000000E+00  0.00000000E+00
  0.00000000E+00  0.00000000E+00  0.00000000E+00
  0.00000000E+00  0.00000000E+00  0.00000000E+00
  0.00000000E+00  0.00000000E+00  0.00000000E+00
  0.00000000E+00  0.00000000E+00  0.00000000E+00
  0.00000000E+00  0.00000000E+00  0.00000000E+00
  0.00000000E+00  0.00000000E+00  0.00000000E+00
  0.00000000E+00  0.00000000E+00  0.00000000E+00
  0.00000000E+00  0.00000000E+00  0.00000000E+00
  0.00000000E+00  0.00000000E+00  0.00000000E+00
  0.00000000E+00  0.00000000E+00  0.00000000E+00
  0.00000000E+00  0.00000000E+00  0.00000000E+00
  0.00000000E+00  0.00000000E+00  0.00000000E+00
  0.00000000E+00  0.00000000E+00  0.00000000E+00
  0.00000000E+00  0.00000000E+00  0.00000000E+00
  0.00000000E+00  0.00000000E+00  0.00000000E+00
  0.00000000E+00  0.00000000E+00  0.00000000E+00
  0.00000000E+00  0.00000000E+00  0.00000000E+00
  0.00000000E+00  0.00000000E+00  0.00000000E+00
  0.00000000E+00  0.00000000E+00  0.00000000E+00
  0.00000000E+00  0.00000000E+00  0.00000000E+00
  0.00000000E+00  0.00000000E+00  0.00000000E+00
  0.00000000E+00  0.00000000E+00  0.00000000E+00
  0.00000000E+00  0.00000000E+00  0.00000000E+00
  0.00000000E+00  0.00000000E+00  0.00000000E+00
  0.00000000E+00  0.00000000E+00  0.00000000E+00
  0.00000000E+00  0.00000000E+00  0.00000000E+00
  0.00000000E+00  0.00000000E+00  0.00000000E+00
  0.00000000E+00  0.00000000E+00  0.00000000E+00
  0.00000000E+00  0.00000000E+00  0.00000000E+00
  0.00000000E+00  0.00000000E+00  0.00000000E+00
  0.00000000E+00  0.00000000E+00  0.00000000E+00
  0.00000000E+00  0.00000000E+00  0.00000000E+00
  0.00000000E+00  0.00000000E+00  0.00000000E+00
  0.00000000E+00  0.00000000E+00  0.00000000E+00
  0.00000000E+00  0.00000000E+00  0.00000000E+00
  0.00000000E+00  0.00000000E+00  0.00000000E+00
  0.00000000E+00  0.00000000E+00  0.00000000E+00
  0.00000000E+00  0.00000000E+00  0.00000000E+00
  0.00000000E+00  0.00000000E+00  0.00000000E+00
  0.00000000E+00  0.00000000E+00  0.00000000E+00
  0.00000000E+00  0.00000000E+00  0.00000000E+00
  0.00000000E+00  0.00000000E+00  0.00000000E+00
  0.00000000E+00  0.00000000E+00  0.00000000E+00
  0.00000000E+00  0.00000000E+00  0.00000000E+00
  0.00000000E+00  0.00000000E+00  0.00000000E+00
  0.00000000E+00  0.00000000E+00  0.00000000E+00
  0.00000000E+00  0.00000000E+00  0.00000000E+00
  0.00000000E+00  0.00000000E+00  0.00000000E+00
  0.00000000E+00  0.00000000E+00  0.00000000E+00
  0.00000000E+00  0.00000000E+00  0.00000000E+00
  0.00000000E+00  0.00000000E+00  0.00000000E+00
  0.00000000E+00  0.00000000E+00  0.00000000E+00
  0.00000000E+00  0.00000000E+00  0.00000000E+00
  0.00000000E+00  0.00000000E+00  0.00000000E+00
  0.00000000E+00  0.00000000E+00  0.00000000E+00
  0.00000000E+00  0.00000000E+00  0.00000000E+00
  0.00000000E+00  0.00000000E+00  0.00000000E+00
  0.00000000E+00  0.00000000E+00  0.00000000E+00
  0.00000000E+00  0.00000000E+00  0.00000000E+00
  0.00000000E+00  0.00000000E+00  0.00000000E+00
  0.00000000E+00  0.00000000E+00  0.00000000E+00
  0.00000000E+00  0.00000000E+00  0.00000000E+00
  0.00000000E+00  0.00000000E+00  0.00000000E+00
  0.00000000E+00  0.00000000E+00  0.00000000E+00
  0.00000000E+00  0.00000000E+00  0.00000000E+00
  0.00000000E+00  0.00000000E+00  0.00000000E+00
  0.00000000E+00  0.00000000E+00  0.00000000E+00
  0.00000000E+00  0.00000000E+00  0.00000000E+00
  0.00000000E+00  0.00000000E+00  0.00000000E+00
  0.00000000E+00  0.00000000E+00  0.00000000E+00
  0.00000000E+00  0.00000000E+00  0.00000000E+00
  0.00000000E+00  0.00000000E+00  0.00000000E+00
  0.00000000E+00  0.00000000E+00  0.00000000E+00
  0.00000000E+00  0.00000000E+00  0.00000000E+00
  0.00000000E+00  0.00000000E+00  0.00000000E+00
  0.00000000E+00  0.00000000E+00  0.00000000E+00
  0.00000000E+00  0.00000000E+00  0.00000000E+00
  0.00000000E+00  0.00000000E+00  0.00000000E+00
  0.00000000E+00  0.00000000E+00  0.00000000E+00
  0.00000000E+00  0.00000000E+00  0.00000000E+00
  0.00000000E+00  0.00000000E+00  0.00000000E+00
  0.00000000E+00  0.00000000E+00  0.00000000E+00
  0.00000000E+00  0.00000000E+00  0.00000000E+00
  0.00000000E+00  0.00000000E+00  0.00000000E+00
  0.00000000E+00  0.00000000E+00  0.00000000E+00
  0.00000000E+00  0.00000000E+00  0.00000000E+00
  0.00000000E+00  0.00000000E+00  0.00000000E+00
  0.00000000E+00  0.00000000E+00  0.00000000E+00
  0.00000000E+00  0.00000000E+00  0.00000000E+00
  0.00000000E+00  0.00000000E+00  0.00000000E+00
  0.00000000E+00  0.00000000E+00  0.00000000E+00
  0.00000000E+00  0.00000000E+00  0.00000000E+00
  0.00000000E+00  0.00000000E+00  0.00000000E+00
  0.00000000E+00  0.00000000E+00  0.00000000E+00
  0.00000000E+00  0.00000000E+00  0.00000000E+00
  0.00000000E+00  0.00000000E+00  0.00000000E+00
  0.00000000E+00  0.00000000E+00  0.00000000E+00
  0.00000000E+00  0.00000000E+00  0.00000000E+00
  0.00000000E+00  0.00000000E+00  0.00000000E+00
  0.00000000E+00  0.00000000E+00  0.00000000E+00
  0.00000000E+00  0.00000000E+00  0.00000000E+00
  0.00000000E+00  0.00000000E+00  0.00000000E+00
  0.00000000E+00  0.00000000E+00  0.00000000E+00
  0.00000000E+00  0.00000000E+00  0.00000000E+00
  0.00000000E+00  0.00000000E+00  0.00000000E+00
  0.00000000E+00  0.00000000E+00  0.00000000E+00
  0.00000000E+00  0.00000000E+00  0.00000000E+00
  0.00000000E+00  0.00000000E+00  0.00000000E+00
  0.00000000E+00  0.00000000E+00  0.00000000E+00
  0.00000000E+00  0.00000000E+00  0.00000000E+00
  0.00000000E+00  0.00000000E+00  0.00000000E+00
  0.00000000E+00  0.00000000E+00  0.00000000E+00
  0.00000000E+00  0.00000000E+00  0.00000000E+00
  0.00000000E+00  0.00000000E+00  0.00000000E+00
  0.00000000E+00  0.00000000E+00  0.00000000E+00
  0.00000000E+00  0.00000000E+00  0.00000000E+00
  0.00000000E+00  0.00000000E+00  0.00000000E+00
  0.00000000E+00  0.00000000E+00  0.00000000E+00
  0.00000000E+00  0.00000000E+00  0.00000000E+00
  0.00000000E+00  0.00000000E+00  0.00000000E+00
  0.00000000E+00  0.00000000E+00  0.00000000E+00
  0.00000000E+00  0.00000000E+00  0.00000000E+00
  0.00000000E+00  0.00000000E+00  0.00000000E+00
  0.00000000E+00  0.00000000E+00  0.00000000E+00
  0.00000000E+00  0.00000000E+00  0.00000000E+00
  0.00000000E+00  0.00000000E+00  0.00000000E+00
  0.00000000E+00  0.00000000E+00  0.00000000E+00
  0.00000000E+00  0.00000000E+00  0.00000000E+00
  0.00000000E+00  0.00000000E+00  0.00000000E+00
  0.00000000E+00  0.00000000E+00  0.00000000E+00
  0.00000000E+00  0.00000000E+00  0.00000000E+00
  0.00000000E+00  0.00000000E+00  0.00000000E+00
  0.00000000E+00  0.00000000E+00  0.00000000E+00
  0.00000000E+00  0.00000000E+00  0.00000000E+00
  0.00000000E+00  0.00000000E+00  0.00000000E+00
  0.00000000E+00  0.00000000E+00  0.00000000E+00
  0.00000000E+00  0.00000000E+00  0.00000000E+00
  0.00000000E+00  0.00000000E+00  0.00000000E+00
  0.00000000E+00  0.00000000E+00  0.00000000E+00
  0.00000000E+00  0.00000000E+00  0.00000000E+00
  0.00000000E+00  0.00000000E+00  0.00000000E+00
  0.00000000E+00  0.00000000E+00  0.00000000E+00
  0.00000000E+00  0.00000000E+00  0.00000000E+00
  0.00000000E+00  0.00000000E+00  0.00000000E+00
  0.00000000E+00  0.00000000E+00  0.00000000E+00
  0.00000000E+00  0.00000000E+00  0.00000000E+00
  0.00000000E+00  0.00000000E+00  0.00000000E+00
  0.00000000E+00  0.00000000E+00  0.00000000E+00
  0.00000000E+00  0.00000000E+00  0.00000000E+00
  0.00000000E+00  0.00000000E+00  0.00000000E+00
  0.00000000E+00  0.00000000E+00  0.00000000E+00
  0.00000000E+00  0.00000000E+00  0.00000000E+00
  0.00000000E+00  0.00000000E+00  0.00000000E+00
  0.00000000E+00  0.00000000E+00  0.00000000E+00
  0.00000000E+00  0.00000000E+00  0.00000000E+00
  0.00000000E+00  0.00000000E+00  0.00000000E+00
  0.00000000E+00  0.00000000E+00  0.00000000E+00
  0.00000000E+00  0.00000000E+00  0.00000000E+00
  0.00000000E+00  0.00000000E+00  0.00000000E+00
  0.00000000E+00  0.00000000E+00  0.00000000E+00
  0.00000000E+00  0.00000000E+00  0.00000000E+00
  0.00000000E+00  0.00000000E+00  0.00000000E+00
  0.00000000E+00  0.00000000E+00  0.00000000E+00
  0.00000000E+00  0.00000000E+00  0.00000000E+00
  0.00000000E+00  0.00000000E+00  0.00000000E+00
  0.00000000E+00  0.00000000E+00  0.00000000E+00
  0.00000000E+00  0.00000000E+00  0.00000000E+00
  0.00000000E+00  0.00000000E+00  0.00000000E+00
  0.00000000E+00  0.00000000E+00  0.00000000E+00
  0.00000000E+00  0.00000000E+00  0.00000000E+00
  0.00000000E+00  0.00000000E+00  0.00000000E+00
  0.00000000E+00  0.00000000E+00  0.00000000E+00
  0.00000000E+00  0.00000000E+00  0.00000000E+00
  0.00000000E+00  0.00000000E+00  0.00000000E+00
  0.00000000E+00  0.00000000E+00  0.00000000E+00
  0.00000000E+00  0.00000000E+00  0.00000000E+00
  0.00000000E+00  0.00000000E+00  0.00000000E+00
  0.00000000E+00  0.00000000E+00  0.00000000E+00
  0.00000000E+00  0.00000000E+00  0.00000000E+00
  0.00000000E+00  0.00000000E+00  0.00000000E+00
  0.00000000E+00  0.00000000E+00  0.00000000E+00
  0.00000000E+00  0.00000000E+00  0.00000000E+00
  0.00000000E+00  0.00000000E+00  0.00000000E+00
  0.00000000E+00  0.00000000E+00  0.00000000E+00
  0.00000000E+00  0.00000000E+00  0.00000000E+00
  0.00000000E+00  0.00000000E+00  0.00000000E+00
  0.00000000E+00  0.00000000E+00  0.00000000E+00
  0.00000000E+00  0.00000000E+00  0.00000000E+00
  0.00000000E+00  0.00000000E+00  0.00000000E+00
  0.00000000E+00  0.00000000E+00  0.00000000E+00
  0.00000000E+00  0.00000000E+00  0.00000000E+00
  0.00000000E+00  0.00000000E+00  0.00000000E+00
  0.00000000E+00  0.00000000E+00  0.00000000E+00
  0.00000000E+00  0.00000000E+00  0.00000000E+00
  0.00000000E+00  0.00000000E+00  0.00000000E+00
  0.00000000E+00  0.00000000E+00  0.00000000E+00
  0.00000000E+00  0.00000000E+00  0.00000000E+00
  0.00000000E+00  0.00000000E+00  0.00000000E+00
  0.00000000E+00  0.00000000E+00  0.00000000E+00
  0.00000000E+00  0.00000000E+00  0.00000000E+00
  0.00000000E+00  0.00000000E+00  0.00000000E+00
  0.00000000E+00  0.00000000E+00  0.00000000E+00
  0.00000000E+00  0.00000000E+00  0.00000000E+00
  0.00000000E+00  0.00000000E+00  0.00000000E+00
  0.00000000E+00  0.00000000E+00  0.00000000E+00
  0.00000000E+00  0.00000000E+00  0.00000000E+00
  0.00000000E+00  0.00000000E+00  0.00000000E+00
  0.00000000E+00  0.00000000E+00  0.00000000E+00
  0.00000000E+00  0.00000000E+00  0.00000000E+00
  0.00000000E+00  0.00000000E+00  0.00000000E+00
  0.00000000E+00  0.00000000E+00  0.00000000E+00