Amorphous GeTe6                         
   1.00000000000000     
    22.5744198496002326    0.0000000000000000    0.0000000000000000
     0.0000000000000000   22.5744198496002326    0.0000000000000000
     0.0000000000000000    0.0000000000000000   22.5744198496002326
   Zr   Te
    30   270
Direct
  0.4154304678569070  0.1235668275591019  0.8206141599321163
  0.9930181445960962  0.6302516796234289  0.2272530718000813
  0.8326474741312354  0.7849105167294869  0.6742693789723442
  0.6666563052787543  0.7350383974158792  0.7477080664983495
  0.5092901308022090  0.1173998850974107  0.4424410015986179
  0.7830281425921058  0.2358546147946204  0.7730651405419938
  0.1743490512562261  0.9166418065134132  0.9758910006942316
  0.2958490406886070  0.6285466345969616  0.1413738017856143
  0.7917614775621049  0.2176442877939322  0.1373459690888481
  0.0901769848242446  0.5341029060501219  0.6348636816911171
  0.9483262779086198  0.2375175692647433  0.1497430269704458
  0.2097450048010930  0.4557357337775184  0.8303989787759720
  0.7871593243110997  0.2756997017514135  0.9785903166479646
  0.3817674262860948  0.0953795465512561  0.5549516449299076
  0.0655499174051596  0.9986511493406804  0.8764787943042786
  0.9012529058384078  0.8971270574179007  0.7766455219588509
  0.7242557742053256  0.9106407593149194  0.6804224842751954
  0.3686424907462287  0.4522815486861262  0.7500743700485665
  0.0405901286550895  0.7978327909372771  0.3866011578804390
  0.4374778719223807  0.7142510433215368  0.4530415145416537
  0.4702664855307725  0.4126948930014847  0.5150473733087653
  0.9180559887886458  0.4293039500378416  0.7227373709647008
  0.9612925181735984  0.6507530752455961  0.0685570085870596
  0.8340194492230615  0.5863368161869211  0.2197834643599104
  0.4474828487009472  0.5675406940414426  0.0913036438845133
  0.0396741826241726  0.5175337645251806  0.7950023701119867
  0.1310423112526166  0.7056360668020908  0.2537299817982557
  0.8690286033666168  0.4670946230305583  0.4308563805083097
  0.7465614624161876  0.0852906941206577  0.4347324094082020
  0.3278169836945305  0.8872210220714107  0.5788316822668780
  0.3279871383088698  0.5536748015724829  0.0342442317004489
  0.4569162657589741  0.8595928711494442  0.2047021775767539
  0.3348074580298742  0.5650221380515715  0.6838324349842977
  0.9276346040500606  0.7665353166440280  0.7640616956795055
  0.9002782048392252  0.3397122662186357  0.6253252802060475
  0.7131565407296587  0.5390464589139340  0.1846645073726032
  0.7874957454147696  0.0004810326325097  0.2245921988674376
  0.6159742102286881  0.6207096176338013  0.4555104878690904
  0.2419435126286715  0.6317805569092068  0.2597502569357559
  0.8693583021092213  0.2821803577611520  0.2349884388464594
  0.1536460139664869  0.9866572568371458  0.7813180713754382
  0.7956459587905169  0.3672431278909171  0.3981846127348826
  0.2453980430394833  0.3299200026604318  0.8679210818330394
  0.5121720421912238  0.7533018544125469  0.2471270432619582
  0.7885601879463847  0.2089401540998511  0.4564819005468289
  0.0752490457345445  0.6796521062659503  0.1398656114684580
  0.3552119701737787  0.1015215783781562  0.0109633800172317
  0.3305266337457221  0.7404351912044902  0.0666146351445689
  0.5266746770526601  0.0397404653260058  0.8299207750944466
  0.3161772645096824  0.7671636355778019  0.7434203596827073
  0.0495258296286083  0.2816059866663691  0.2193424561114428
  0.1072016746456832  0.1542553330449825  0.3931169140809609
  0.4946866856492746  0.3541637359824866  0.0692646594033180
  0.4905723531943996  0.2278701309439360  0.3680875976748297
  0.3955259169462746  0.7167840199114253  0.3320006953978864
  0.5103701461487143  0.8809519313694375  0.0575463829911579
  0.4261817949738573  0.6131976416176146  0.9661261367920290
  0.2558336108943040  0.9754599680903139  0.0665376026534092
  0.6360459152918571  0.1663401204451503  0.4274941957037074
  0.9522957613552123  0.8981777457160603  0.3692547938458360
  0.7157864139160947  0.0986749247618891  0.1742647091709509
  0.7837021341550638  0.6762924962563029  0.7400152653092748
  0.5183759066799508  0.0083308334962835  0.1473704846792849
  0.5744330559050971  0.3515996257111577  0.9754536899432600
  0.7281457591036744  0.6363704724647055  0.2706023270108355
  0.0385602461500028  0.2157691014401394  0.6649208800397729
  0.4608502112729949  0.1843009244982347  0.1384153376165583
  0.1209831996582525  0.5282323657948882  0.5088999066644968
  0.0854594267125764  0.5996688949635179  0.3096970252430693
  0.1478460825640281  0.4496139409851961  0.2392170140838156
  0.6526125812255978  0.4303976637224843  0.7531329365631991
  0.1428656997072740  0.2543799037891109  0.7862990663063548
  0.9911282806250853  0.8256792996325630  0.5081168427635170
  0.9646855270362731  0.7744170744615113  0.6452884479120321
  0.2338941940036304  0.7424646966686917  0.1866926210514427
  0.9589538468930268  0.4261770340745976  0.8502044769596080
  0.0490650805709371  0.6527042047809402  0.9696819048402975
  0.1104686217656463  0.8307116892665841  0.2754864124956340
  0.5270786662514679  0.5897565238097230  0.1967566729460759
  0.0749104587585141  0.2187242264413507  0.8958627012233766
  0.0727637254847992  0.4943119015232705  0.9824774425025904
  0.6471883696178015  0.0137539297489771  0.7116360554660551
  0.3759070997414808  0.3446642506259372  0.8159238209241855
  0.4145961344225905  0.0919048647703547  0.3555052090240689
  0.1731723558791266  0.2130504418110731  0.1813907504377596
  0.8669177209928569  0.1310601088289617  0.7630195399964771
  0.7294183725488489  0.7305911874605174  0.8678235057995901
  0.8996918148998724  0.2981001320188192  0.7436714854642744
  0.4307187732743329  0.0105778303311361  0.4640227586641024
  0.3056020159677997  0.4181537705145982  0.4513424320230448
  0.9858159391329930  0.7830600341792356  0.0858265593858396
  0.3973201636275319  0.9833002975770992  0.1569705794532993
  0.0041621849740637  0.7620166947955295  0.2691181784354776
  0.7325902977150509  0.3366407576051927  0.6936900977430845
  0.3078550130326187  0.7240462965415676  0.4258097557262072
  0.6929501038167616  0.4229105444631533  0.0948409526823857
  0.7550905171935042  0.2093660864733873  0.6479853227258625
  0.6567186195120239  0.2423593223380439  0.7365771213919481
  0.3099349353647958  0.9107354575874401  0.3323363615097997
  0.6977688873808530  0.6178669910290702  0.9182089103412415
  0.3465615517490661  0.3178992116619444  0.2231997870197444
  0.1550706405104168  0.8270808943322101  0.4364538722714602
  0.0140605987917689  0.9987558223882368  0.2960760865203780
  0.3048924309860817  0.2600785818418933  0.1204484645116300
  0.2454378367757226  0.6745168514808958  0.5742573890893298
  0.9448836839131253  0.9745776001817669  0.1117435587900535
  0.3638571112154914  0.0300445346126124  0.8988931429044168
  0.5001363043693302  0.9720142885491465  0.2960062200020616
  0.5961089287591916  0.7599997939297953  0.8551054300448518
  0.0942229945978350  0.8099058378487186  0.0049037267023922
  0.4712520473076105  0.7248578706134482  0.8378071118821023
  0.2261856497395902  0.9358153418599064  0.6385272076485690
  0.9792617224257490  0.1766956310772586  0.2619837393120807
  0.0125168469914475  0.8897753227964161  0.6985705057572407
  0.0485664282351326  0.1173395739526844  0.8213914118402178
  0.1238687468179345  0.2266362403205824  0.4981798360587412
  0.9749260894062202  0.6070972885971491  0.8750862003847878
  0.9339321714405121  0.1262139762971199  0.6607292043937744
  0.2762131049148946  0.5864717302042750  0.4320412847716630
  0.5377550492322963  0.3539153291917345  0.6040612241891586
  0.8715824267038215  0.5215808307778951  0.1105164759281300
  0.7860842314493598  0.5198233984812152  0.5094165854370694
  0.0460136482488076  0.4244280908932411  0.6969895512172440
  0.2844281307894584  0.1000929542069977  0.6351961372113095
  0.1959690426936900  0.6315826314761364  0.0570923105120853
  0.1631954560330826  0.1356352164403100  0.7493348084727888
  0.4531623543544751  0.5326384352767206  0.6932898728944659
  0.6710010130792434  0.9992408365825182  0.3838655135601330
  0.5708741169392664  0.5988275442453882  0.0662284751990435
  0.1182497427157006  0.3689000702354104  0.1458831214147913
  0.1992589239156631  0.8702020868224493  0.0944711884072113
  0.9569795730696817  0.5428059954791373  0.3806075997455431
  0.8355413311460225  0.6655122148629632  0.6262486300461239
  0.9132943035114061  0.5564328017304703  0.7566182091684612
  0.8390703665462402  0.9109974211762039  0.1209814233434094
  0.2334254032677648  0.7264677440449704  0.8450207584353026
  0.9832425609408545  0.0042643767308333  0.7689853621227954
  0.3247779428481915  0.3602582571915952  0.9617611691974490
  0.5728037136269833  0.0654647432774779  0.3384471430558596
  0.7758766325331024  0.8445927576961171  0.7818364763817480
  0.8819173076405412  0.8262880062580313  0.0321471107048003
  0.1143395633927565  0.8100167406858064  0.5511750857049406
  0.5300987802935681  0.4689097919818620  0.1296764463682135
  0.9928006919066567  0.9620002682732280  0.5992743117352668
  0.6815601286927941  0.4164048246721238  0.8784719138664348
  0.2374589847579348  0.7940411986348563  0.9536396103263046
  0.4899122725668755  0.4060359142913734  0.2329798005427806
  0.6049901675684645  0.8509486137905538  0.7527924766280459
  0.6315651965424155  0.4373158616562884  0.2771047696804608
  0.2267406000029772  0.1946596116564498  0.2971206160704390
  0.1341124739200245  0.5537238371434022  0.8746593499818809
  0.4214188588646023  0.9978168611958004  0.7727849417490256
  0.3195359068708141  0.6417944566152598  0.7882548527262933
  0.2541583551111283  0.0688723449029694  0.8283108243143287
  0.5284352336125931  0.7877954789684340  0.5069435038067650
  0.5349555476583620  0.7664286941291233  0.0163359358679250
  0.0735272318482542  0.9898464355156411  0.0070931304705279
  0.4127507763473923  0.6862577084882786  0.1422141841908115
  0.0955237149913609  0.3918187342283110  0.8190056193649407
  0.8192406455608823  0.7655287589316511  0.2918795428047294
  0.9785084644106018  0.1739224517335868  0.9761745490065936
  0.2447128643728257  0.5205755622800670  0.3328161041598567
  0.0715198126846795  0.4205110070633719  0.3311876322019071
  0.2723163944810743  0.4968919285432791  0.1396160434614290
  0.3853475340277330  0.1713844107561600  0.4499218574419442
  0.0442547924817093  0.1690465329605299  0.0841990070293079
  0.6725849769079547  0.1006731962756041  0.5420207917918684
  0.6334906181490025  0.6122806372018802  0.7834864936031187
  0.4964120234513877  0.5134916772966948  0.3001023632536040
  0.8081537178079812  0.4436937091113785  0.6567940631160225
  0.7886190657081160  0.7080238141896535  0.4891519701677808
  0.5164486087052131  0.8840275678281307  0.3853451218887242
  0.4126143921616204  0.2110568251461251  0.6024961133159250
  0.9595923470116253  0.4056025943267885  0.4947006295626400
  0.5063176840922460  0.6445051139955474  0.5397331902090743
  0.3363988856949718  0.8377938672798872  0.2348575960181675
  0.6000566691670787  0.9219551503523759  0.6422923116273701
  0.1322512991691786  0.8863693693601629  0.8521064719862346
  0.0260115266152307  0.9298835408093128  0.1922342012399768
  0.7636078691938212  0.6239857135346181  0.1070288190243100
  0.4979920900494051  0.4970183681120338  0.8250601351786826
  0.8347965622926059  0.0841435880705746  0.3417122300449411
  0.8552248740395088  0.9109405733777095  0.6512781166420626
  0.5270140042292839  0.9590277685070866  0.9557651362258802
  0.6931622489394447  0.9253170706132393  0.2527748664375857
  0.5937040393538402  0.8167869585157437  0.3194658348558128
  0.8619146335077135  0.2278684884190248  0.8814982680129975
  0.1259977593854299  0.6973309190599677  0.3845779124167633
  0.6907569417572225  0.8634307529336855  0.1410785324855378
  0.2074534983620040  0.4790827158409641  0.6200557506019133
  0.4033341403740852  0.5920834128899191  0.4167045995093474
  0.0777677830869914  0.9811983339354863  0.4434301849298862
  0.9513464459513707  0.7271098695564125  0.4365834724341962
  0.9990763464076811  0.5416417626332398  0.1213685289791829
  0.6751987491446311  0.4422160680126820  0.5387526323850176
  0.6027430769722238  0.2709144502687511  0.5385332554386366
  0.4221909227094725  0.9752391630514480  0.5899944625365674
  0.3606815473097676  0.3341785010382329  0.5290602408022210
  0.8430054896794267  0.4670649701160242  0.8229547683809487
  0.0100024508523734  0.2895713681708611  0.5713437526382718
  0.1672335308956601  0.0441153564315637  0.9395983099108133
  0.4860076725614189  0.3870141100129080  0.7723670827636732
  0.6356130366765581  0.9222767335839357  0.9165062977304211
  0.7611951763230073  0.4053900660642418  0.9943141805730522
  0.6447698323153339  0.7351412008649395  0.4997535379346884
  0.9677688346063822  0.4901283898672558  0.6041898870735064
  0.7452799557475693  0.0367264253736175  0.6299242874848067
  0.8013661349482681  0.1485275729144834  0.0255555106157742
  0.1886343167994776  0.4035910366532343  0.4949799370863016
  0.5278100281461402  0.6568986407137016  0.3741109468411401
  0.4390346584025270  0.4817293012591698  0.9943422035444880
  0.7809069055613725  0.3330840724216056  0.8627295128559687
  0.0230051026756555  0.6158542492460796  0.7147657794437586
  0.0868188862691069  0.1004896309488560  0.2564013164929513
  0.1374379991854842  0.6572890638085467  0.6353253050623130
  0.5743794713323225  0.0270814976727656  0.5126042686174270
  0.5171892030592340  0.1022846205610865  0.0661673870390267
  0.6601010821531884  0.9770987084870498  0.0948925910438368
  0.8900822967250833  0.1883198209470074  0.3820647848709613
  0.8795145390289376  0.8734285592491743  0.2715490225710831
  0.8831342085716071  0.2961949483686140  0.0608473394847505
  0.4078186670122325  0.8253780215787690  0.8073787800187839
  0.0104830003583943  0.0850695683107170  0.4263892112973207
  0.1324172070684417  0.3391131155683080  0.3996595590347453
  0.8326016967530986  0.8139811518853020  0.5420231085441987
  0.6838042208448174  0.7157022442076006  0.1464235677427238
  0.4034588513680222  0.7953402084230954  0.6401460763082866
  0.1535345558177191  0.4013955858091530  0.9376249454139582
  0.8370365650381325  0.0599557555051129  0.5255103421278402
  0.3759545825891017  0.9251104247086690  0.0462910031484235
  0.3499943580083534  0.1873157296264213  0.7247245990126947
  0.5856975447678714  0.6657889399390579  0.6834937082491986
  0.7061278309445137  0.4834698319330119  0.3649120981064561
  0.5887600822150059  0.2238651352433768  0.2900830385522064
  0.3909437567822464  0.6897694913031428  0.5756435932267301
  0.4311990426990347  0.5376303197916086  0.5326540236583298
  0.0300171979066214  0.7663876678595786  0.9092775206468283
  0.2870457447617832  0.0236559647869258  0.2871729644274842
  0.9499914262658965  0.5132015167720897  0.2554989680516165
  0.8175548993880668  0.4890715313995994  0.3086697563636121
  0.8615028035461738  0.1846490545511792  0.5704922809991861
  0.5078963615074114  0.1263826469387454  0.5728841555906338
  0.1442105961009612  0.1704132448749004  0.6069617852205084
  0.6899369869138376  0.2602492607467607  0.0667524578995378
  0.3705074889883282  0.8303146334579312  0.4651095177863672
  0.2521040945550507  0.1739631323247633  0.0133922726365554
  0.1056593754317941  0.9987111701886997  0.5621193663210409
  0.0522325186894287  0.6274541678755690  0.5475707310741619
  0.6910733394744031  0.1935445352732246  0.9579989852899818
  0.2459530280212283  0.3516843876068037  0.0579922603853095
  0.2911316105112590  0.9016740466228770  0.9200997637757982
  0.7826015430433817  0.0467305452319689  0.8713972347565762
  0.7374085133532160  0.7641198788064414  0.3883979718430426
  0.3742353079719470  0.5363401943783646  0.1970555457765717
  0.1676513327475033  0.5463143825783187  0.7494524500044223
  0.9570501663852745  0.0698973328683713  0.9014874080787121
  0.9003014869712787  0.5723026022837706  0.9788098733242704
  0.9887232323471583  0.8920855869497638  0.8773722333739516
  0.2333273291008630  0.7992359632096825  0.6101852471092222
  0.4486794360131537  0.4161550954524383  0.3876243118838557
  0.4471580551432552  0.1641158341906851  0.9383788558175024
  0.1440958427570929  0.5208489847132117  0.0809081733192463
  0.2178709776989601  0.1026394399961624  0.1233235404926842
  0.9226081078894731  0.3532784248923403  0.3828666782098680
  0.6618028723736202  0.7677983360065292  0.0341369161226347
  0.8857653382683620  0.1301405153923467  0.1240278442608621
  0.5245413858063687  0.1349773150568846  0.7487183448231214
  0.7129754165829908  0.9912736148571015  0.9846147456019364
  0.1312400038919803  0.2535780060945369  0.0507753135270807
  0.1836944145894657  0.0166386592664017  0.2197958218674410
  0.6847300523629590  0.3284658495173793  0.2484554417737913
  0.5793334625787766  0.4632159097966578  0.4604093118240113
  0.9013501153965511  0.6489756527602075  0.3261400988938052
  0.7291688127794331  0.8892016293267043  0.5406457493471715
  0.7179630192673476  0.3319044357927346  0.4967945278572206
  0.4029083012421715  0.7402103010209167  0.9597713637289459
  0.3049157759163934  0.1864379623023006  0.8443814257106229
  0.7398721747802659  0.1920024658214241  0.2505986089545529
  0.3943047538625585  0.4176079224317923  0.6199781995553653
  0.3251394380912080  0.9155167253950313  0.7104400792255799
  0.5582270775015458  0.4702036953989192  0.9403964018576398
  0.8083496106159397  0.9902108357141152  0.7601536633116331
  0.7069721701404820  0.7884271250871717  0.6367010073203644
  0.2738809901212612  0.9465433467059636  0.4800003220466663
  0.7097195089024505  0.1369873255330428  0.8207773924904154
  0.5410354012219387  0.2684201959628102  0.1789873190539764
  0.5750517710653383  0.6237642710766850  0.9388989258472825
  0.8613774085041201  0.6918777863051634  0.0017075811759416
  0.8691694672869305  0.9171897097220042  0.8973134382474259
  0.9073367143900548  0.5678110307131747  0.5150494393329272
  0.2576762220577963  0.0660795751580092  0.5131317339170248
  0.2489335608575991  0.4046387639815714  0.7166460752503249
  0.7924086932997759  0.9602891389551852  0.4511191775854908
  0.5403370753732781  0.3297649139511734  0.4368357293442681
  0.7821559990225361  0.3511841547852359  0.1685130876083485
  0.4982857420557568  0.2238521366518816  0.8324417640004151
  0.3185599698208570  0.5142324696242025  0.8510882845156927
  0.8968850260700153  0.6936809992932403  0.1730578771412752
  0.7225673345064608  0.5300522743279266  0.7273893677256423
  0.2498805420389157  0.3144413712003127  0.3014274810796261
 
  0.00000000E+00  0.00000000E+00  0.00000000E+00
  0.00000000E+00  0.00000000E+00  0.00000000E+00
  0.00000000E+00  0.00000000E+00  0.00000000E+00
  0.00000000E+00  0.00000000E+00  0.00000000E+00
  0.00000000E+00  0.00000000E+00  0.00000000E+00
  0.00000000E+00  0.00000000E+00  0.00000000E+00
  0.00000000E+00  0.00000000E+00  0.00000000E+00
  0.00000000E+00  0.00000000E+00  0.00000000E+00
  0.00000000E+00  0.00000000E+00  0.00000000E+00
  0.00000000E+00  0.00000000E+00  0.00000000E+00
  0.00000000E+00  0.00000000E+00  0.00000000E+00
  0.00000000E+00  0.00000000E+00  0.00000000E+00
  0.00000000E+00  0.00000000E+00  0.00000000E+00
  0.00000000E+00  0.00000000E+00  0.00000000E+00
  0.00000000E+00  0.00000000E+00  0.00000000E+00
  0.00000000E+00  0.00000000E+00  0.00000000E+00
  0.00000000E+00  0.00000000E+00  0.00000000E+00
  0.00000000E+00  0.00000000E+00  0.00000000E+00
  0.00000000E+00  0.00000000E+00  0.00000000E+00
  0.00000000E+00  0.00000000E+00  0.00000000E+00
  0.00000000E+00  0.00000000E+00  0.00000000E+00
  0.00000000E+00  0.00000000E+00  0.00000000E+00
  0.00000000E+00  0.00000000E+00  0.00000000E+00
  0.00000000E+00  0.00000000E+00  0.00000000E+00
  0.00000000E+00  0.00000000E+00  0.00000000E+00
  0.00000000E+00  0.00000000E+00  0.00000000E+00
  0.00000000E+00  0.00000000E+00  0.00000000E+00
  0.00000000E+00  0.00000000E+00  0.00000000E+00
  0.00000000E+00  0.00000000E+00  0.00000000E+00
  0.00000000E+00  0.00000000E+00  0.00000000E+00
  0.00000000E+00  0.00000000E+00  0.00000000E+00
  0.00000000E+00  0.00000000E+00  0.00000000E+00
  0.00000000E+00  0.00000000E+00  0.00000000E+00
  0.00000000E+00  0.00000000E+00  0.00000000E+00
  0.00000000E+00  0.00000000E+00  0.00000000E+00
  0.00000000E+00  0.00000000E+00  0.00000000E+00
  0.00000000E+00  0.00000000E+00  0.00000000E+00
  0.00000000E+00  0.00000000E+00  0.00000000E+00
  0.00000000E+00  0.00000000E+00  0.00000000E+00
  0.00000000E+00  0.00000000E+00  0.00000000E+00
  0.00000000E+00  0.00000000E+00  0.00000000E+00
  0.00000000E+00  0.00000000E+00  0.00000000E+00
  0.00000000E+00  0.00000000E+00  0.00000000E+00
  0.00000000E+00  0.00000000E+00  0.00000000E+00
  0.00000000E+00  0.00000000E+00  0.00000000E+00
  0.00000000E+00  0.00000000E+00  0.00000000E+00
  0.00000000E+00  0.00000000E+00  0.00000000E+00
  0.00000000E+00  0.00000000E+00  0.00000000E+00
  0.00000000E+00  0.00000000E+00  0.00000000E+00
  0.00000000E+00  0.00000000E+00  0.00000000E+00
  0.00000000E+00  0.00000000E+00  0.00000000E+00
  0.00000000E+00  0.00000000E+00  0.00000000E+00
  0.00000000E+00  0.00000000E+00  0.00000000E+00
  0.00000000E+00  0.00000000E+00  0.00000000E+00
  0.00000000E+00  0.00000000E+00  0.00000000E+00
  0.00000000E+00  0.00000000E+00  0.00000000E+00
  0.00000000E+00  0.00000000E+00  0.00000000E+00
  0.00000000E+00  0.00000000E+00  0.00000000E+00
  0.00000000E+00  0.00000000E+00  0.00000000E+00
  0.00000000E+00  0.00000000E+00  0.00000000E+00
  0.00000000E+00  0.00000000E+00  0.00000000E+00
  0.00000000E+00  0.00000000E+00  0.00000000E+00
  0.00000000E+00  0.00000000E+00  0.00000000E+00
  0.00000000E+00  0.00000000E+00  0.00000000E+00
  0.00000000E+00  0.00000000E+00  0.00000000E+00
  0.00000000E+00  0.00000000E+00  0.00000000E+00
  0.00000000E+00  0.00000000E+00  0.00000000E+00
  0.00000000E+00  0.00000000E+00  0.00000000E+00
  0.00000000E+00  0.00000000E+00  0.00000000E+00
  0.00000000E+00  0.00000000E+00  0.00000000E+00
  0.00000000E+00  0.00000000E+00  0.00000000E+00
  0.00000000E+00  0.00000000E+00  0.00000000E+00
  0.00000000E+00  0.00000000E+00  0.00000000E+00
  0.00000000E+00  0.00000000E+00  0.00000000E+00
  0.00000000E+00  0.00000000E+00  0.00000000E+00
  0.00000000E+00  0.00000000E+00  0.00000000E+00
  0.00000000E+00  0.00000000E+00  0.00000000E+00
  0.00000000E+00  0.00000000E+00  0.00000000E+00
  0.00000000E+00  0.00000000E+00  0.00000000E+00
  0.00000000E+00  0.00000000E+00  0.00000000E+00
  0.00000000E+00  0.00000000E+00  0.00000000E+00
  0.00000000E+00  0.00000000E+00  0.00000000E+00
  0.00000000E+00  0.00000000E+00  0.00000000E+00
  0.00000000E+00  0.00000000E+00  0.00000000E+00
  0.00000000E+00  0.00000000E+00  0.00000000E+00
  0.00000000E+00  0.00000000E+00  0.00000000E+00
  0.00000000E+00  0.00000000E+00  0.00000000E+00
  0.00000000E+00  0.00000000E+00  0.00000000E+00
  0.00000000E+00  0.00000000E+00  0.00000000E+00
  0.00000000E+00  0.00000000E+00  0.00000000E+00
  0.00000000E+00  0.00000000E+00  0.00000000E+00
  0.00000000E+00  0.00000000E+00  0.00000000E+00
  0.00000000E+00  0.00000000E+00  0.00000000E+00
  0.00000000E+00  0.00000000E+00  0.00000000E+00
  0.00000000E+00  0.00000000E+00  0.00000000E+00
  0.00000000E+00  0.00000000E+00  0.00000000E+00
  0.00000000E+00  0.00000000E+00  0.00000000E+00
  0.00000000E+00  0.00000000E+00  0.00000000E+00
  0.00000000E+00  0.00000000E+00  0.00000000E+00
  0.00000000E+00  0.00000000E+00  0.00000000E+00
  0.00000000E+00  0.00000000E+00  0.00000000E+00
  0.00000000E+00  0.00000000E+00  0.00000000E+00
  0.00000000E+00  0.00000000E+00  0.00000000E+00
  0.00000000E+00  0.00000000E+00  0.00000000E+00
  0.00000000E+00  0.00000000E+00  0.00000000E+00
  0.00000000E+00  0.00000000E+00  0.00000000E+00
  0.00000000E+00  0.00000000E+00  0.00000000E+00
  0.00000000E+00  0.00000000E+00  0.00000000E+00
  0.00000000E+00  0.00000000E+00  0.00000000E+00
  0.00000000E+00  0.00000000E+00  0.00000000E+00
  0.00000000E+00  0.00000000E+00  0.00000000E+00
  0.00000000E+00  0.00000000E+00  0.00000000E+00
  0.00000000E+00  0.00000000E+00  0.00000000E+00
  0.00000000E+00  0.00000000E+00  0.00000000E+00
  0.00000000E+00  0.00000000E+00  0.00000000E+00
  0.00000000E+00  0.00000000E+00  0.00000000E+00
  0.00000000E+00  0.00000000E+00  0.00000000E+00
  0.00000000E+00  0.00000000E+00  0.00000000E+00
  0.00000000E+00  0.00000000E+00  0.00000000E+00
  0.00000000E+00  0.00000000E+00  0.00000000E+00
  0.00000000E+00  0.00000000E+00  0.00000000E+00
  0.00000000E+00  0.00000000E+00  0.00000000E+00
  0.00000000E+00  0.00000000E+00  0.00000000E+00
  0.00000000E+00  0.00000000E+00  0.00000000E+00
  0.00000000E+00  0.00000000E+00  0.00000000E+00
  0.00000000E+00  0.00000000E+00  0.00000000E+00
  0.00000000E+00  0.00000000E+00  0.00000000E+00
  0.00000000E+00  0.00000000E+00  0.00000000E+00
  0.00000000E+00  0.00000000E+00  0.00000000E+00
  0.00000000E+00  0.00000000E+00  0.00000000E+00
  0.00000000E+00  0.00000000E+00  0.00000000E+00
  0.00000000E+00  0.00000000E+00  0.00000000E+00
  0.00000000E+00  0.00000000E+00  0.00000000E+00
  0.00000000E+00  0.00000000E+00  0.00000000E+00
  0.00000000E+00  0.00000000E+00  0.00000000E+00
  0.00000000E+00  0.00000000E+00  0.00000000E+00
  0.00000000E+00  0.00000000E+00  0.00000000E+00
  0.00000000E+00  0.00000000E+00  0.00000000E+00
  0.00000000E+00  0.00000000E+00  0.00000000E+00
  0.00000000E+00  0.00000000E+00  0.00000000E+00
  0.00000000E+00  0.00000000E+00  0.00000000E+00
  0.00000000E+00  0.00000000E+00  0.00000000E+00
  0.00000000E+00  0.00000000E+00  0.00000000E+00
  0.00000000E+00  0.00000000E+00  0.00000000E+00
  0.00000000E+00  0.00000000E+00  0.00000000E+00
  0.00000000E+00  0.00000000E+00  0.00000000E+00
  0.00000000E+00  0.00000000E+00  0.00000000E+00
  0.00000000E+00  0.00000000E+00  0.00000000E+00
  0.00000000E+00  0.00000000E+00  0.00000000E+00
  0.00000000E+00  0.00000000E+00  0.00000000E+00
  0.00000000E+00  0.00000000E+00  0.00000000E+00
  0.00000000E+00  0.00000000E+00  0.00000000E+00
  0.00000000E+00  0.00000000E+00  0.00000000E+00
  0.00000000E+00  0.00000000E+00  0.00000000E+00
  0.00000000E+00  0.00000000E+00  0.00000000E+00
  0.00000000E+00  0.00000000E+00  0.00000000E+00
  0.00000000E+00  0.00000000E+00  0.00000000E+00
  0.00000000E+00  0.00000000E+00  0.00000000E+00
  0.00000000E+00  0.00000000E+00  0.00000000E+00
  0.00000000E+00  0.00000000E+00  0.00000000E+00
  0.00000000E+00  0.00000000E+00  0.00000000E+00
  0.00000000E+00  0.00000000E+00  0.00000000E+00
  0.00000000E+00  0.00000000E+00  0.00000000E+00
  0.00000000E+00  0.00000000E+00  0.00000000E+00
  0.00000000E+00  0.00000000E+00  0.00000000E+00
  0.00000000E+00  0.00000000E+00  0.00000000E+00
  0.00000000E+00  0.00000000E+00  0.00000000E+00
  0.00000000E+00  0.00000000E+00  0.00000000E+00
  0.00000000E+00  0.00000000E+00  0.00000000E+00
  0.00000000E+00  0.00000000E+00  0.00000000E+00
  0.00000000E+00  0.00000000E+00  0.00000000E+00
  0.00000000E+00  0.00000000E+00  0.00000000E+00
  0.00000000E+00  0.00000000E+00  0.00000000E+00
  0.00000000E+00  0.00000000E+00  0.00000000E+00
  0.00000000E+00  0.00000000E+00  0.00000000E+00
  0.00000000E+00  0.00000000E+00  0.00000000E+00
  0.00000000E+00  0.00000000E+00  0.00000000E+00
  0.00000000E+00  0.00000000E+00  0.00000000E+00
  0.00000000E+00  0.00000000E+00  0.00000000E+00
  0.00000000E+00  0.00000000E+00  0.00000000E+00
  0.00000000E+00  0.00000000E+00  0.00000000E+00
  0.00000000E+00  0.00000000E+00  0.00000000E+00
  0.00000000E+00  0.00000000E+00  0.00000000E+00
  0.00000000E+00  0.00000000E+00  0.00000000E+00
  0.00000000E+00  0.00000000E+00  0.00000000E+00
  0.00000000E+00  0.00000000E+00  0.00000000E+00
  0.00000000E+00  0.00000000E+00  0.00000000E+00
  0.00000000E+00  0.00000000E+00  0.00000000E+00
  0.00000000E+00  0.00000000E+00  0.00000000E+00
  0.00000000E+00  0.00000000E+00  0.00000000E+00
  0.00000000E+00  0.00000000E+00  0.00000000E+00
  0.00000000E+00  0.00000000E+00  0.00000000E+00
  0.00000000E+00  0.00000000E+00  0.00000000E+00
  0.00000000E+00  0.00000000E+00  0.00000000E+00
  0.00000000E+00  0.00000000E+00  0.00000000E+00
  0.00000000E+00  0.00000000E+00  0.00000000E+00
  0.00000000E+00  0.00000000E+00  0.00000000E+00
  0.00000000E+00  0.00000000E+00  0.00000000E+00
  0.00000000E+00  0.00000000E+00  0.00000000E+00
  0.00000000E+00  0.00000000E+00  0.00000000E+00
  0.00000000E+00  0.00000000E+00  0.00000000E+00
  0.00000000E+00  0.00000000E+00  0.00000000E+00
  0.00000000E+00  0.00000000E+00  0.00000000E+00
  0.00000000E+00  0.00000000E+00  0.00000000E+00
  0.00000000E+00  0.00000000E+00  0.00000000E+00
  0.00000000E+00  0.00000000E+00  0.00000000E+00
  0.00000000E+00  0.00000000E+00  0.00000000E+00
  0.00000000E+00  0.00000000E+00  0.00000000E+00
  0.00000000E+00  0.00000000E+00  0.00000000E+00
  0.00000000E+00  0.00000000E+00  0.00000000E+00
  0.00000000E+00  0.00000000E+00  0.00000000E+00
  0.00000000E+00  0.00000000E+00  0.00000000E+00
  0.00000000E+00  0.00000000E+00  0.00000000E+00
  0.00000000E+00  0.00000000E+00  0.00000000E+00
  0.00000000E+00  0.00000000E+00  0.00000000E+00
  0.00000000E+00  0.00000000E+00  0.00000000E+00
  0.00000000E+00  0.00000000E+00  0.00000000E+00
  0.00000000E+00  0.00000000E+00  0.00000000E+00
  0.00000000E+00  0.00000000E+00  0.00000000E+00
  0.00000000E+00  0.00000000E+00  0.00000000E+00
  0.00000000E+00  0.00000000E+00  0.00000000E+00
  0.00000000E+00  0.00000000E+00  0.00000000E+00
  0.00000000E+00  0.00000000E+00  0.00000000E+00
  0.00000000E+00  0.00000000E+00  0.00000000E+00
  0.00000000E+00  0.00000000E+00  0.00000000E+00
  0.00000000E+00  0.00000000E+00  0.00000000E+00
  0.00000000E+00  0.00000000E+00  0.00000000E+00
  0.00000000E+00  0.00000000E+00  0.00000000E+00
  0.00000000E+00  0.00000000E+00  0.00000000E+00
  0.00000000E+00  0.00000000E+00  0.00000000E+00
  0.00000000E+00  0.00000000E+00  0.00000000E+00
  0.00000000E+00  0.00000000E+00  0.00000000E+00