Amorphous Sb                            
   1.00000000000000     
    16.0008869700586871    0.0000000000000000    0.0000000000000000
     0.0000000000000000   16.0008869700586871    0.0000000000000000
     0.0000000000000000    0.0000000000000000   16.0008869700586871
   In   O 
   120   180
Direct
  0.1467849589631141  0.3893341800052990  0.3742169054749674
  0.3881208007954058  0.0130439781002760  0.2243528544577993
  0.8764196812157709  0.3822750494526298  0.4653951142680242
  0.4329098972990214  0.2314333888941517  0.9577999349239352
  0.9449496308286923  0.1713928288291943  0.9332683622977089
  0.8641667642518830  0.6976629536670028  0.1914902186271844
  0.3330957532483487  0.6154773663244494  0.0304409015157850
  0.6776289477040278  0.5553404072057102  0.1833795069179612
  0.7989132135259471  0.4216479694173623  0.2744125547889671
  0.6589989257691979  0.3130113999827103  0.4625738207860183
  0.1371036959464823  0.8290688372057874  0.5006147242573543
  0.2054716134006885  0.1814362898512951  0.4790847051757858
  0.1901743165190147  0.1932338970972904  0.9217626505840379
  0.3678132978958243  0.8133675457796806  0.5181737869507147
  0.7866588117450841  0.2298676954919572  0.7956913074860618
  0.5602088132983367  0.5036252924671875  0.7280378039957807
  0.0635084772850388  0.3616139132437646  0.9743668492548168
  0.0045663864502969  0.2439715824638202  0.3418771734855406
  0.4842984992800169  0.8308377256667794  0.1284044559916026
  0.8750439033315267  0.9618894833623203  0.9419248224875126
  0.9371059107066999  0.7628141336539709  0.0018204178214299
  0.0326546018836835  0.6908302006079814  0.6853047641691340
  0.6835095628276490  0.0569944586705700  0.7129057036611797
  0.4170736207827267  0.4383982247739763  0.8992026432272828
  0.9247051853967996  0.3155292938914482  0.1469179444078201
  0.4312962328984785  0.3156096181904702  0.7385897909271831
  0.1420158748609711  0.4957633696829077  0.6927195890388973
  0.8096440813132647  0.5558576698401252  0.7945063935844204
  0.7832359385014266  0.8124715185239696  0.3918857250396052
  0.9768655221502852  0.8866800143673030  0.3239732590011751
  0.9319183439825902  0.0827911939380815  0.2341100868174896
  0.5315456320019705  0.4389371871738242  0.0835081710771375
  0.3493400243243736  0.0394890126807006  0.4193206132287851
  0.5412689984058334  0.1655201685686478  0.3231591666690963
  0.0018707731423366  0.5827422561512444  0.8831903083217417
  0.2655985914340634  0.3824779422114953  0.5280211588971470
  0.8011523747065558  0.1449779710326911  0.0629302834252904
  0.8779482920681780  0.7490445639389004  0.7999368581080810
  0.7213913240558733  0.8146479830471733  0.9904409120413713
  0.2329113520730859  0.9524137421805464  0.0425606852422123
  0.2287930205335942  0.7196084251948419  0.3641094360981448
  0.1353601352852487  0.0900730145710187  0.7306851935391810
  0.0129214008250236  0.4994666967873692  0.2642629713738493
  0.3511213884250732  0.5999201273659395  0.6475713922211354
  0.8360477542946848  0.2000884884944616  0.6018251132925878
  0.4453546774734282  0.5964233338357326  0.2075685196233361
  0.1990185423300613  0.9081464556457817  0.2911417063446757
  0.2192408982520932  0.4493569447876593  0.8919456110095368
  0.2774763770591382  0.7583657409307039  0.1632540849971720
  0.5518853536065663  0.8849349888624023  0.8809842578142798
  0.2816642631181237  0.1553264362558991  0.0981482469430615
  0.6390744614837216  0.4951835488864522  0.9022103984585285
  0.6146674007850184  0.2949435742699630  0.8679073655609717
  0.0922848795895601  0.0310180773903925  0.9197058443689108
  0.5885766640867905  0.2319368660940866  0.6406344862594301
  0.6659261642325721  0.5187026090270180  0.4710763318974789
  0.7752489572766749  0.6229993018418540  0.9970827195649608
  0.7231287796653655  0.3946104737367236  0.6605424301141705
  0.1288292220316223  0.0811810171745545  0.2874426210439163
  0.9322221343285466  0.7962617545362878  0.5211100113509956
  0.5967560746217877  0.2017196520953335  0.0824160913290200
  0.1436749154591311  0.5449348426337493  0.0627120715893386
  0.0742856297635661  0.8468253994843348  0.8535952249618666
  0.2275831998215269  0.8209161542349385  0.7249878016423907
  0.3885644521700056  0.3945171429404035  0.3329148205879959
  0.3217588627173913  0.4177812267835869  0.0853238882685270
  0.0212657775724642  0.9055013108789968  0.6654323456887917
  0.9296907008177313  0.5137803925503545  0.0777454404805420
  0.0275645126040022  0.0480354458032388  0.5364617281306059
  0.4282398089424716  0.6063691283812513  0.4132385190072661
  0.4178945294476170  0.2354786466280769  0.4860513429093378
  0.6909842567974357  0.0500591154395004  0.9163114675182359
  0.8282127592913490  0.9212688777251650  0.1440321911230517
  0.0414752668409146  0.9218056305636834  0.1129559221184703
  0.2516943523680571  0.9691065525174423  0.5872503252924902
  0.0624413007309456  0.2850043689675799  0.5921089815242936
  0.4993510093193615  0.4342386709278411  0.5483017997631470
  0.9164592971050173  0.5654484639163890  0.5546215851751930
  0.4328435895873854  0.2762247087995068  0.1728836449783588
  0.3512930669723136  0.1584842455791029  0.6465714110172457
  0.6167545166506218  0.8707485716658242  0.5509560299558693
  0.3503153762205506  0.8224679683118277  0.9208576969056607
  0.7558705139235650  0.8853054870193506  0.7513759328777788
  0.6691096289856380  0.8093362934689714  0.2173133761091044
  0.7342452645694336  0.2238775383448650  0.2454182815147602
  0.7418499131641785  0.0002921117933968  0.3297154557135450
  0.5903698715921543  0.7367383723054526  0.3859699556193169
  0.7646658249806918  0.7101615212439832  0.5890570895809257
  0.5360518476656966  0.9445611148110153  0.3736919994704218
  0.0791850570884080  0.6996941440488490  0.1910123677575338
  0.5324395933800490  0.6507696348635068  0.5825722928327731
  0.6284752103963732  0.9782591218415645  0.0984724586141594
  0.0061105190245412  0.6806177603740982  0.3699568512366589
  0.4397979696994278  0.6529519968835250  0.8212829161338095
  0.6619396520500810  0.7086982840081617  0.8210073356543476
  0.4358568387291284  0.9985791328344440  0.0063692033349483
  0.0190204701590565  0.2624154532992524  0.7782427545728635
  0.7315665834619220  0.3696240963269181  0.0490154580326560
  0.4753325530888661  0.0095773233785709  0.6024335662913533
  0.4178360988237827  0.7975251279443263  0.3239995917672701
  0.9247106499797219  0.4166140679200588  0.6968415066495304
  0.8263641741736187  0.9743031369615690  0.5717894720787170
  0.5365635053367187  0.6428948809183929  0.0171618550159710
  0.2667056057440002  0.2202187507528196  0.2868854800062504
  0.3355811707517255  0.0120083500672212  0.8114012070343352
  0.9030458947759227  0.0398538007881380  0.7590648841177088
  0.0646648223803751  0.1489424969614310  0.0962715675000961
  0.4343759901506726  0.8286334576185959  0.7206366279726785
  0.6446441762395247  0.0953556654235655  0.4875905307811073
  0.5207788898998578  0.1087782781701203  0.8208157584637393
  0.2227355876067497  0.6542684368855720  0.8282482302716512
  0.8513075137748182  0.1389952623423577  0.4247304988587105
  0.1530268598340982  0.3267199726517055  0.1436377330042389
  0.1521561588427963  0.7521315080831500  0.9996150885109518
  0.5863492000160472  0.3862503798879379  0.2711615386542398
  0.2273333776608527  0.3091307159876145  0.7487187513194914
  0.8116610281797166  0.6050046970284372  0.3709617815828496
  0.2341102466514034  0.5447434067464102  0.2601225967013814
  0.8543608533118422  0.3889552374027330  0.8972260627143033
  0.1322527960526562  0.5761062831701671  0.5129208301150890
  0.5668278861705793  0.1950754354809019  0.9423791904460848
  0.5483109929373128  0.8389419132196984  0.2726370800351406
  0.5767279393492094  0.4248294488756813  0.4271211516773079
  0.3733334270914498  0.9457687409824422  0.5295524361571242
  0.4633446548770484  0.1839377612343375  0.0802040942767651
  0.1105245153276630  0.9088989921196815  0.9766540988542830
  0.4555257872062377  0.0684314009879266  0.3302375325726754
  0.8280697713748446  0.0939562429399573  0.9439424362729227
  0.8059694742079716  0.0881798262313273  0.6723962834116567
  0.0362966817736894  0.3769988494836077  0.1076300955613736
  0.0442954750980268  0.7800812105727313  0.0856060260554393
  0.0484697319963387  0.5691867206467981  0.6266280499019640
  0.4133229413156899  0.7292698467792286  0.6151543532864786
  0.6743683064904452  0.0951608291112824  0.0480238814881198
  0.4289806395228755  0.3666327893152698  0.0212662001012285
  0.1459943441183209  0.3208870034542527  0.4934888774310786
  0.1760263526929872  0.1835637683847183  0.1860627202398074
  0.3701770291223501  0.8482354572689488  0.2054607675298558
  0.8990937465566414  0.6879030044372092  0.6063170925883651
  0.1413904541408980  0.1985670382188765  0.3543862158865992
  0.7525364309535753  0.2952770453207240  0.9144696493338750
  0.2972125784516034  0.6611251322673165  0.2656375177016626
  0.3445013198401428  0.7561822034109081  0.7968566438228253
  0.7606571733365189  0.7532685642548403  0.7221228581974852
  0.0246563190688868  0.8090803852133072  0.4203213377916331
  0.4838735132093908  0.6100288908819310  0.7016477936103962
  0.2364595942972801  0.8490507733077920  0.4075112808154089
  0.6233639947663013  0.8413471367268740  0.0915853555066690
  0.6566417008594027  0.8622340089941263  0.4140044121944572
  0.7709494632960677  0.5019266387079208  0.9209769401764617
  0.7041370959973818  0.9458891511579478  0.2109523055713218
  0.7502201268127845  0.4030606699885627  0.5158001203924142
  0.9439501983956415  0.9405738697126985  0.2104390835351685
  0.2309851394832366  0.0496485710014145  0.4779063652828617
  0.6013255419957578  0.5249287212490273  0.5953323830007490
  0.3607257700645253  0.1643205098377071  0.2109544214316893
  0.5624474242483923  0.9850869045335632  0.5010213184372960
  0.6260879890579487  0.5412653117429754  0.0388781701704337
  0.2017436280922370  0.7874347327308077  0.8725187454583704
  0.6862098503993259  0.1471456229596998  0.8184170907535803
  0.5455490553851785  0.2286636671611360  0.7646866418134307
  0.6410685157487871  0.4050901527282058  0.7813067782750885
  0.4334936652463185  0.9069794048332250  0.8318799913848176
  0.3215750150624868  0.4972505032521974  0.9653315924572531
  0.3307718575496175  0.2285353668315688  0.7588585587051573
  0.9408917313773963  0.2724576198503000  0.6518831453896242
  0.2277703751562394  0.5666658987717151  0.6111029173720424
  0.9154900511095555  0.2171526003889914  0.0558927247112995
  0.6166415317536713  0.3841543119822619  0.9785280767744208
  0.2692609272826368  0.8130377473666905  0.0363851365561837
  0.2499497658230420  0.0741204435879077  0.6691134940714806
  0.3028835500733245  0.2212543778168786  0.9828228196463052
  0.9727836810527967  0.1114828776724485  0.3588009491487584
  0.3154640933976353  0.3957784922290187  0.8163240509074435
  0.5621048345476318  0.3247277250539570  0.1475686214835695
  0.2827886896707835  0.3027337215985580  0.1457712566973305
  0.8628854126893964  0.3995622562449397  0.0343404784318612
  0.7904688550340956  0.6679290150903439  0.8654459662374080
  0.7551972687986565  0.9402481446863518  0.0216601155518709
  0.1385439794719543  0.5367029520189607  0.8221768185270762
  0.9146890530633095  0.6077371949841539  0.2811508121763970
  0.0394163929680596  0.4973358885613964  0.9792083348491564
  0.1491864956238441  0.4397025543967457  0.2431329646234880
  0.9170213516887226  0.2594422469478473  0.4473971518653548
  0.8005583221187601  0.5885925111174006  0.1289104571136555
  0.4225597975937250  0.6832214208602624  0.9501001980288926
  0.2227755657911790  0.3975387692446702  0.6522830809279822
  0.4832552310162104  0.2951650536253443  0.3070450050868295
  0.8457782894594278  0.2958161584759973  0.2545879916483799
  0.8360580809707918  0.0566623401333154  0.1501962872427748
  0.4014169882375511  0.9286343369662646  0.3474941063902273
  0.6347790501563592  0.7386090370279622  0.5751640026123885
  0.2111834222814181  0.6265967724627242  0.9613013250388882
  0.7613370260064443  0.0305748733419381  0.4656968005266632
  0.4110225622956862  0.1066033938592823  0.5328088971661051
  0.6033814905636866  0.0033376882417715  0.8075346196180923
  0.7082607643815795  0.4234311058837700  0.1717325172963894
  0.7040548153178480  0.9400683186580149  0.6385208337403213
  0.5657564801429821  0.6205247400653169  0.4517936980912025
  0.9441971785839146  0.4355401416074491  0.5644293240639714
  0.2613873722311864  0.0285230140167771  0.2894165221705066
  0.8787455525323731  0.7172487345488007  0.4168335960514656
  0.2682124465813508  0.3404267622718865  0.3444442470966463
  0.8253623806964583  0.3557449313746979  0.7651037687602805
  0.1542442659728940  0.3249039229800569  0.8653518845650895
  0.1166663350323012  0.9494090142840292  0.5668306244544373
  0.7865379201547056  0.9895936634141557  0.8290607545010430
  0.3264311170338858  0.1798792849308673  0.4005077173471186
  0.9671188783329010  0.3077844101521706  0.8958658890621842
  0.0550308021588079  0.3827031239675829  0.7054653406589908
  0.3907032628502063  0.6944328179095226  0.1245357920344322
  0.6893545244938871  0.3229269982953383  0.3288056503747782
  0.0878533647757698  0.9640105988129818  0.3402668176510517
  0.1264207296330450  0.2252004692500101  0.7045529328232515
  0.1178047503147874  0.2489051637017122  0.0266213093126927
  0.4578271005557429  0.4304828095167871  0.6780689084751031
  0.9257018570776232  0.8968784886556777  0.0475669933947829
  0.7129757034010971  0.7114839165631210  0.3351548151782617
  0.6167638937961034  0.1683255782632502  0.2158887440848226
  0.3159429662508658  0.9538738108428408  0.9366855681770804
  0.2926888810364947  0.2496949987260790  0.5588565412527100
  0.9826303715069064  0.9728059007038994  0.8554962943315855
  0.6224052869449395  0.0537496642291670  0.3573822976824341
  0.7285610518393895  0.2493166217173209  0.1073570677308656
  0.4600634451066429  0.8577352908217690  0.9969174928927297
  0.8671088056665601  0.4752579622685568  0.3763679188366031
  0.8775787992591300  0.9217057012781583  0.6933944201088250
  0.1303151913778559  0.9145718721643361  0.7509483940998818
  0.5745273770730214  0.9865133250154742  0.9696704946728528
  0.0352097918815778  0.5725631176704911  0.1423114700546350
  0.7751310413412409  0.5964771032564544  0.5050417033231279
  0.7130704353483673  0.5270218506213236  0.3178664507292693
  0.8158649693060395  0.7440635693770671  0.0610024724526093
  0.1057726712799576  0.6064226940927405  0.2963837560714288
  0.7993026666506785  0.8283997738851051  0.5299415529496666
  0.5537666288860281  0.5044159236017020  0.2124611249054687
  0.5335613186124054  0.7560395209284947  0.8069157059397304
  0.1423378636022564  0.6947593126138824  0.4576527616034465
  0.2674102994618343  0.5325986288246202  0.1293138995081675
  0.5615304280412375  0.2094411656224525  0.4528024439472753
  0.3967712880026746  0.3751595051070380  0.4730940044279115
  0.3751340616237246  0.5266698500066620  0.3181466896900531
  0.2079441712659788  0.0727198077268767  0.8441054413898730
  0.6634983567033849  0.5771627676246333  0.7888009344752591
  0.3194799765764014  0.9172346255654675  0.7107681297408077
  0.0871123655382768  0.1638768111978078  0.5384665819258893
  0.0185553380017009  0.0462851425081981  0.6823349929022153
  0.9503884020427747  0.9326547418001474  0.5392985161437318
  0.4503644140745554  0.5474962587777578  0.0754219321663037
  0.0454595273047040  0.7879286390888234  0.5942733201288067
  0.4185522620239200  0.0936583289835515  0.9042657181346174
  0.1693827139693849  0.9169989963520340  0.1540291870342093
  0.8005617167452633  0.1200851338442908  0.3033662336664006
  0.9096593080538247  0.4471566552922621  0.1950141376441216
  0.3274122942661298  0.5847321891140621  0.7809724623881757
  0.1780464836389099  0.0849527861411029  0.0227612208739471
  0.5212714824979068  0.8917003452268923  0.6449697483910914
  0.6331799653020600  0.6845429420268385  0.1720343216165346
  0.9026658146313149  0.0988322765973501  0.5400531354872747
  0.9982280005123142  0.0708816416072292  0.0062913429031175
  0.8020446610922103  0.8091140338613880  0.2241538538997012
  0.5100368195769156  0.5302718489246938  0.8665281210022210
  0.9953495286840742  0.2122601294300291  0.2089085555060933
  0.8139109787522794  0.5017878321134185  0.6717993732941636
  0.4252852200519424  0.5570964574550593  0.5382998517189206
  0.1609350266545261  0.7044255551948395  0.7224802922135819
  0.7291076295036402  0.2558210690534716  0.6702100948360296
  0.4948041516396496  0.9736035312357730  0.1365317917416915
  0.6009957799045327  0.1026399921445539  0.6176118394583218
  0.1743316898717268  0.7802275344516204  0.2546141496220345
  0.0679536227994758  0.1585468614882201  0.8611141621857288
  0.8574547626742379  0.8268734965541688  0.9064367181485893
  0.2079148287726152  0.4838418487721742  0.4471388757980787
  0.0393655424264198  0.7243179486030372  0.9173492880078303
  0.9238389053946954  0.4811867341204434  0.8257947406271529
  0.0189204491502304  0.3792971635235438  0.3441082929951759
  0.4558098671213830  0.2533333628759520  0.6172627031559051
  0.6534608635997911  0.6945980397527677  0.9629302224616390
  0.2453665108959258  0.8271181025146059  0.5858712436778843
  0.4833309790006681  0.6777697789330105  0.3111003451910716
  0.6785950923181885  0.8406306400526363  0.8613268242252727
  0.8502250986437029  0.9222192226777588  0.3613392879870090
  0.0548026899463007  0.0496286512178568  0.1800556580319120
  0.3515539194743463  0.7175374749498789  0.4242669946062666
  0.1855896830103828  0.4174938096913407  0.0249784228118030
  0.9433017668127410  0.6350344614764116  0.7736642058505859
  0.4758757809510961  0.3268221648668918  0.8648121110067123
  0.4070247177704087  0.4064057739875908  0.1963712098405695
  0.6076575458036541  0.3504299525443130  0.5871692897447011
  0.1814234870490647  0.6732780047184094  0.1103313728611239
  0.5449897789787759  0.6921754904854232  0.1444579159289779
  0.3347736621845299  0.0274591138590142  0.0984061163218596
  0.9145474786318617  0.6171599551996932  0.9889701688812921
  0.9082376882641154  0.1719968162972746  0.8009349038249850
  0.9915597970765557  0.8035899923565564  0.7564145617576536
  0.4949289660740203  0.8146892515654077  0.4470381714239968
  0.7422945672156772  0.2035338305174225  0.4939381424666284
  0.9780690570834849  0.7601505686733830  0.2551532508469375
  0.4304861448857029  0.0695974691614173  0.7207354209504770
  0.0065810474551661  0.5776205537388540  0.4551877469414738
 
  0.00000000E+00  0.00000000E+00  0.00000000E+00
  0.00000000E+00  0.00000000E+00  0.00000000E+00
  0.00000000E+00  0.00000000E+00  0.00000000E+00
  0.00000000E+00  0.00000000E+00  0.00000000E+00
  0.00000000E+00  0.00000000E+00  0.00000000E+00
  0.00000000E+00  0.00000000E+00  0.00000000E+00
  0.00000000E+00  0.00000000E+00  0.00000000E+00
  0.00000000E+00  0.00000000E+00  0.00000000E+00
  0.00000000E+00  0.00000000E+00  0.00000000E+00
  0.00000000E+00  0.00000000E+00  0.00000000E+00
  0.00000000E+00  0.00000000E+00  0.00000000E+00
  0.00000000E+00  0.00000000E+00  0.00000000E+00
  0.00000000E+00  0.00000000E+00  0.00000000E+00
  0.00000000E+00  0.00000000E+00  0.00000000E+00
  0.00000000E+00  0.00000000E+00  0.00000000E+00
  0.00000000E+00  0.00000000E+00  0.00000000E+00
  0.00000000E+00  0.00000000E+00  0.00000000E+00
  0.00000000E+00  0.00000000E+00  0.00000000E+00
  0.00000000E+00  0.00000000E+00  0.00000000E+00
  0.00000000E+00  0.00000000E+00  0.00000000E+00
  0.00000000E+00  0.00000000E+00  0.00000000E+00
  0.00000000E+00  0.00000000E+00  0.00000000E+00
  0.00000000E+00  0.00000000E+00  0.00000000E+00
  0.00000000E+00  0.00000000E+00  0.00000000E+00
  0.00000000E+00  0.00000000E+00  0.00000000E+00
  0.00000000E+00  0.00000000E+00  0.00000000E+00
  0.00000000E+00  0.00000000E+00  0.00000000E+00
  0.00000000E+00  0.00000000E+00  0.00000000E+00
  0.00000000E+00  0.00000000E+00  0.00000000E+00
  0.00000000E+00  0.00000000E+00  0.00000000E+00
  0.00000000E+00  0.00000000E+00  0.00000000E+00
  0.00000000E+00  0.00000000E+00  0.00000000E+00
  0.00000000E+00  0.00000000E+00  0.00000000E+00
  0.00000000E+00  0.00000000E+00  0.00000000E+00
  0.00000000E+00  0.00000000E+00  0.00000000E+00
  0.00000000E+00  0.00000000E+00  0.00000000E+00
  0.00000000E+00  0.00000000E+00  0.00000000E+00
  0.00000000E+00  0.00000000E+00  0.00000000E+00
  0.00000000E+00  0.00000000E+00  0.00000000E+00
  0.00000000E+00  0.00000000E+00  0.00000000E+00
  0.00000000E+00  0.00000000E+00  0.00000000E+00
  0.00000000E+00  0.00000000E+00  0.00000000E+00
  0.00000000E+00  0.00000000E+00  0.00000000E+00
  0.00000000E+00  0.00000000E+00  0.00000000E+00
  0.00000000E+00  0.00000000E+00  0.00000000E+00
  0.00000000E+00  0.00000000E+00  0.00000000E+00
  0.00000000E+00  0.00000000E+00  0.00000000E+00
  0.00000000E+00  0.00000000E+00  0.00000000E+00
  0.00000000E+00  0.00000000E+00  0.00000000E+00
  0.00000000E+00  0.00000000E+00  0.00000000E+00
  0.00000000E+00  0.00000000E+00  0.00000000E+00
  0.00000000E+00  0.00000000E+00  0.00000000E+00
  0.00000000E+00  0.00000000E+00  0.00000000E+00
  0.00000000E+00  0.00000000E+00  0.00000000E+00
  0.00000000E+00  0.00000000E+00  0.00000000E+00
  0.00000000E+00  0.00000000E+00  0.00000000E+00
  0.00000000E+00  0.00000000E+00  0.00000000E+00
  0.00000000E+00  0.00000000E+00  0.00000000E+00
  0.00000000E+00  0.00000000E+00  0.00000000E+00
  0.00000000E+00  0.00000000E+00  0.00000000E+00
  0.00000000E+00  0.00000000E+00  0.00000000E+00
  0.00000000E+00  0.00000000E+00  0.00000000E+00
  0.00000000E+00  0.00000000E+00  0.00000000E+00
  0.00000000E+00  0.00000000E+00  0.00000000E+00
  0.00000000E+00  0.00000000E+00  0.00000000E+00
  0.00000000E+00  0.00000000E+00  0.00000000E+00
  0.00000000E+00  0.00000000E+00  0.00000000E+00
  0.00000000E+00  0.00000000E+00  0.00000000E+00
  0.00000000E+00  0.00000000E+00  0.00000000E+00
  0.00000000E+00  0.00000000E+00  0.00000000E+00
  0.00000000E+00  0.00000000E+00  0.00000000E+00
  0.00000000E+00  0.00000000E+00  0.00000000E+00
  0.00000000E+00  0.00000000E+00  0.00000000E+00
  0.00000000E+00  0.00000000E+00  0.00000000E+00
  0.00000000E+00  0.00000000E+00  0.00000000E+00
  0.00000000E+00  0.00000000E+00  0.00000000E+00
  0.00000000E+00  0.00000000E+00  0.00000000E+00
  0.00000000E+00  0.00000000E+00  0.00000000E+00
  0.00000000E+00  0.00000000E+00  0.00000000E+00
  0.00000000E+00  0.00000000E+00  0.00000000E+00
  0.00000000E+00  0.00000000E+00  0.00000000E+00
  0.00000000E+00  0.00000000E+00  0.00000000E+00
  0.00000000E+00  0.00000000E+00  0.00000000E+00
  0.00000000E+00  0.00000000E+00  0.00000000E+00
  0.00000000E+00  0.00000000E+00  0.00000000E+00
  0.00000000E+00  0.00000000E+00  0.00000000E+00
  0.00000000E+00  0.00000000E+00  0.00000000E+00
  0.00000000E+00  0.00000000E+00  0.00000000E+00
  0.00000000E+00  0.00000000E+00  0.00000000E+00
  0.00000000E+00  0.00000000E+00  0.00000000E+00
  0.00000000E+00  0.00000000E+00  0.00000000E+00
  0.00000000E+00  0.00000000E+00  0.00000000E+00
  0.00000000E+00  0.00000000E+00  0.00000000E+00
  0.00000000E+00  0.00000000E+00  0.00000000E+00
  0.00000000E+00  0.00000000E+00  0.00000000E+00
  0.00000000E+00  0.00000000E+00  0.00000000E+00
  0.00000000E+00  0.00000000E+00  0.00000000E+00
  0.00000000E+00  0.00000000E+00  0.00000000E+00
  0.00000000E+00  0.00000000E+00  0.00000000E+00
  0.00000000E+00  0.00000000E+00  0.00000000E+00
  0.00000000E+00  0.00000000E+00  0.00000000E+00
  0.00000000E+00  0.00000000E+00  0.00000000E+00
  0.00000000E+00  0.00000000E+00  0.00000000E+00
  0.00000000E+00  0.00000000E+00  0.00000000E+00
  0.00000000E+00  0.00000000E+00  0.00000000E+00
  0.00000000E+00  0.00000000E+00  0.00000000E+00
  0.00000000E+00  0.00000000E+00  0.00000000E+00
  0.00000000E+00  0.00000000E+00  0.00000000E+00
  0.00000000E+00  0.00000000E+00  0.00000000E+00
  0.00000000E+00  0.00000000E+00  0.00000000E+00
  0.00000000E+00  0.00000000E+00  0.00000000E+00
  0.00000000E+00  0.00000000E+00  0.00000000E+00
  0.00000000E+00  0.00000000E+00  0.00000000E+00
  0.00000000E+00  0.00000000E+00  0.00000000E+00
  0.00000000E+00  0.00000000E+00  0.00000000E+00
  0.00000000E+00  0.00000000E+00  0.00000000E+00
  0.00000000E+00  0.00000000E+00  0.00000000E+00
  0.00000000E+00  0.00000000E+00  0.00000000E+00
  0.00000000E+00  0.00000000E+00  0.00000000E+00
  0.00000000E+00  0.00000000E+00  0.00000000E+00
  0.00000000E+00  0.00000000E+00  0.00000000E+00
  0.00000000E+00  0.00000000E+00  0.00000000E+00
  0.00000000E+00  0.00000000E+00  0.00000000E+00
  0.00000000E+00  0.00000000E+00  0.00000000E+00
  0.00000000E+00  0.00000000E+00  0.00000000E+00
  0.00000000E+00  0.00000000E+00  0.00000000E+00
  0.00000000E+00  0.00000000E+00  0.00000000E+00
  0.00000000E+00  0.00000000E+00  0.00000000E+00
  0.00000000E+00  0.00000000E+00  0.00000000E+00
  0.00000000E+00  0.00000000E+00  0.00000000E+00
  0.00000000E+00  0.00000000E+00  0.00000000E+00
  0.00000000E+00  0.00000000E+00  0.00000000E+00
  0.00000000E+00  0.00000000E+00  0.00000000E+00
  0.00000000E+00  0.00000000E+00  0.00000000E+00
  0.00000000E+00  0.00000000E+00  0.00000000E+00
  0.00000000E+00  0.00000000E+00  0.00000000E+00
  0.00000000E+00  0.00000000E+00  0.00000000E+00
  0.00000000E+00  0.00000000E+00  0.00000000E+00
  0.00000000E+00  0.00000000E+00  0.00000000E+00
  0.00000000E+00  0.00000000E+00  0.00000000E+00
  0.00000000E+00  0.00000000E+00  0.00000000E+00
  0.00000000E+00  0.00000000E+00  0.00000000E+00
  0.00000000E+00  0.00000000E+00  0.00000000E+00
  0.00000000E+00  0.00000000E+00  0.00000000E+00
  0.00000000E+00  0.00000000E+00  0.00000000E+00
  0.00000000E+00  0.00000000E+00  0.00000000E+00
  0.00000000E+00  0.00000000E+00  0.00000000E+00
  0.00000000E+00  0.00000000E+00  0.00000000E+00
  0.00000000E+00  0.00000000E+00  0.00000000E+00
  0.00000000E+00  0.00000000E+00  0.00000000E+00
  0.00000000E+00  0.00000000E+00  0.00000000E+00
  0.00000000E+00  0.00000000E+00  0.00000000E+00
  0.00000000E+00  0.00000000E+00  0.00000000E+00
  0.00000000E+00  0.00000000E+00  0.00000000E+00
  0.00000000E+00  0.00000000E+00  0.00000000E+00
  0.00000000E+00  0.00000000E+00  0.00000000E+00
  0.00000000E+00  0.00000000E+00  0.00000000E+00
  0.00000000E+00  0.00000000E+00  0.00000000E+00
  0.00000000E+00  0.00000000E+00  0.00000000E+00
  0.00000000E+00  0.00000000E+00  0.00000000E+00
  0.00000000E+00  0.00000000E+00  0.00000000E+00
  0.00000000E+00  0.00000000E+00  0.00000000E+00
  0.00000000E+00  0.00000000E+00  0.00000000E+00
  0.00000000E+00  0.00000000E+00  0.00000000E+00
  0.00000000E+00  0.00000000E+00  0.00000000E+00
  0.00000000E+00  0.00000000E+00  0.00000000E+00
  0.00000000E+00  0.00000000E+00  0.00000000E+00
  0.00000000E+00  0.00000000E+00  0.00000000E+00
  0.00000000E+00  0.00000000E+00  0.00000000E+00
  0.00000000E+00  0.00000000E+00  0.00000000E+00
  0.00000000E+00  0.00000000E+00  0.00000000E+00
  0.00000000E+00  0.00000000E+00  0.00000000E+00
  0.00000000E+00  0.00000000E+00  0.00000000E+00
  0.00000000E+00  0.00000000E+00  0.00000000E+00
  0.00000000E+00  0.00000000E+00  0.00000000E+00
  0.00000000E+00  0.00000000E+00  0.00000000E+00
  0.00000000E+00  0.00000000E+00  0.00000000E+00
  0.00000000E+00  0.00000000E+00  0.00000000E+00
  0.00000000E+00  0.00000000E+00  0.00000000E+00
  0.00000000E+00  0.00000000E+00  0.00000000E+00
  0.00000000E+00  0.00000000E+00  0.00000000E+00
  0.00000000E+00  0.00000000E+00  0.00000000E+00
  0.00000000E+00  0.00000000E+00  0.00000000E+00
  0.00000000E+00  0.00000000E+00  0.00000000E+00
  0.00000000E+00  0.00000000E+00  0.00000000E+00
  0.00000000E+00  0.00000000E+00  0.00000000E+00
  0.00000000E+00  0.00000000E+00  0.00000000E+00
  0.00000000E+00  0.00000000E+00  0.00000000E+00
  0.00000000E+00  0.00000000E+00  0.00000000E+00
  0.00000000E+00  0.00000000E+00  0.00000000E+00
  0.00000000E+00  0.00000000E+00  0.00000000E+00
  0.00000000E+00  0.00000000E+00  0.00000000E+00
  0.00000000E+00  0.00000000E+00  0.00000000E+00
  0.00000000E+00  0.00000000E+00  0.00000000E+00
  0.00000000E+00  0.00000000E+00  0.00000000E+00
  0.00000000E+00  0.00000000E+00  0.00000000E+00
  0.00000000E+00  0.00000000E+00  0.00000000E+00
  0.00000000E+00  0.00000000E+00  0.00000000E+00
  0.00000000E+00  0.00000000E+00  0.00000000E+00
  0.00000000E+00  0.00000000E+00  0.00000000E+00
  0.00000000E+00  0.00000000E+00  0.00000000E+00
  0.00000000E+00  0.00000000E+00  0.00000000E+00
  0.00000000E+00  0.00000000E+00  0.00000000E+00
  0.00000000E+00  0.00000000E+00  0.00000000E+00
  0.00000000E+00  0.00000000E+00  0.00000000E+00
  0.00000000E+00  0.00000000E+00  0.00000000E+00
  0.00000000E+00  0.00000000E+00  0.00000000E+00
  0.00000000E+00  0.00000000E+00  0.00000000E+00
  0.00000000E+00  0.00000000E+00  0.00000000E+00
  0.00000000E+00  0.00000000E+00  0.00000000E+00
  0.00000000E+00  0.00000000E+00  0.00000000E+00
  0.00000000E+00  0.00000000E+00  0.00000000E+00
  0.00000000E+00  0.00000000E+00  0.00000000E+00
  0.00000000E+00  0.00000000E+00  0.00000000E+00
  0.00000000E+00  0.00000000E+00  0.00000000E+00
  0.00000000E+00  0.00000000E+00  0.00000000E+00
  0.00000000E+00  0.00000000E+00  0.00000000E+00
  0.00000000E+00  0.00000000E+00  0.00000000E+00
  0.00000000E+00  0.00000000E+00  0.00000000E+00
  0.00000000E+00  0.00000000E+00  0.00000000E+00
  0.00000000E+00  0.00000000E+00  0.00000000E+00
  0.00000000E+00  0.00000000E+00  0.00000000E+00
  0.00000000E+00  0.00000000E+00  0.00000000E+00
  0.00000000E+00  0.00000000E+00  0.00000000E+00
  0.00000000E+00  0.00000000E+00  0.00000000E+00
  0.00000000E+00  0.00000000E+00  0.00000000E+00
  0.00000000E+00  0.00000000E+00  0.00000000E+00
  0.00000000E+00  0.00000000E+00  0.00000000E+00
  0.00000000E+00  0.00000000E+00  0.00000000E+00
  0.00000000E+00  0.00000000E+00  0.00000000E+00
  0.00000000E+00  0.00000000E+00  0.00000000E+00
  0.00000000E+00  0.00000000E+00  0.00000000E+00