SST                                     
   1.00000000000000     
    22.0527004242000011    0.0000000000000000    0.0000000000000000
     0.0000000000000000   22.0527004242000011    0.0000000000000000
     0.0000000000000000    0.0000000000000000   22.0527004242000011
   Sc   Sb   Te
    14   112   189
Direct
  0.1666642690216374  0.0782107402865181  0.7095111190341947
  0.7846212955235360  0.5195431222653464  0.6596803202061946
  0.1924308125557152  0.4767132023578287  0.7805772676803280
  0.2274580117081992  0.5902203220910154  0.2820903182129756
  0.4464366860275240  0.2482470718139023  0.8835214506516230
  0.8383321591067496  0.0744043967374681  0.4622853044563062
  0.2938026941672072  0.1482110877040267  0.8108441344104623
  0.7970047605626377  0.4481273893307846  0.0287070001226225
  0.5445089543876382  0.6927422114299534  0.4824430406606131
  0.0586524435003423  0.0137628726140202  0.5966049952747912
  0.4512257234097575  0.4757947934579562  0.9544964777682263
  0.6891782207871623  0.4179492551832387  0.5309759769381356
  0.5542055738700694  0.0267314476720566  0.9500872160054147
  0.8008725397153896  0.7596256523016417  0.9837692559298670
  0.3849507958240861  0.2566071449378372  0.1306642640294062
  0.2709448070833624  0.2716152915692720  0.6187658249393617
  0.6789226823233667  0.6871632186009586  0.4568408494982251
  0.4830104651160278  0.9649018166925032  0.5001652200606409
  0.8234075566843903  0.8619591232047690  0.2428799510556257
  0.6142429161141519  0.3578751302374680  0.9642952872063929
  0.9394362417695921  0.0624667441379870  0.5591247675447232
  0.8271972735540853  0.7376019713089260  0.3817762043696213
  0.9334471152378522  0.9772576291021716  0.6617046688779538
  0.4674278028111249  0.8466032556320565  0.6762278143444154
  0.2358404744759691  0.9911030051589278  0.9543895236690529
  0.5526221103213799  0.7306167199784402  0.6413622377816394
  0.9829683870407732  0.8913578820446912  0.0122891787800135
  0.7626565969848423  0.5407210759455188  0.1978615971973667
  0.2055368425246674 -0.0007986898187023  0.1033181573691936
  0.0544163977984444  0.3922585238400322  0.0412284149343314
  0.0386516259070797  0.8182795844504336  0.7712624156159223
  0.0967780944956790  0.3505652842877404  0.5044420095743746
  0.5207561304906173  0.2939564725078875  0.5185591186689873
  0.2001311659670282  0.3177062348096868  0.8025807941241382
  0.2391751628393269  0.0705676045830914  0.4930355709883959
  0.5510455528771605  0.3163205847862605  0.6445998288518512
  0.1408083052489255  0.8908693738053332  0.0497017904039534
  0.6252640414220783  0.8277151712202208  0.2049207898949144
  0.3195868072296782  0.1627355336085788  0.2501882712280435
  0.1844967965498933  0.7983971733812384  0.2317904377317148
  0.6327610739774572  0.8353284421019521  0.8899245275532854
  0.8032398133161827  0.8147639065428613  0.7821409699396296
  0.7917341929800806  0.0426184396008009  0.6452715104414742
  0.2869217540437923  0.8410905040084575  0.6778283020431625
  0.6172028461470054  0.5778228570281052  0.0744314592299047
  0.3490695091720273  0.8652275399951669  0.3252986319300057
  0.5092140811041840  0.8936088571864046  0.8289964438986506
  0.0566344390122478  0.9457747171679917  0.9053741072635287
  0.7304568041367668  0.0811360728175107  0.2047265270147580
  0.1792353747388424  0.6680833081087364  0.5855873813343182
  0.4180496703112855  0.2528842593254262  0.4120930051167228
  0.8902588591712738  0.2517939428441537  0.4761120669853529
  0.5349598747825706  0.0113291669109364  0.2014372454020221
  0.6336385775096666  0.2372946477651103  0.4807412842900149
  0.3543743276781693  0.6498427248132291 -0.0252578352456720
  0.3269068581706325  0.6726783725247609  0.1035824974592287
  0.5845027381784558  0.0135299545044756  0.4195529170602689
  0.9547638408420044  0.5252802417595474  0.9353817469849712
  0.5021862788384085  0.8795436945844719  0.3635384735458664
  0.8311306550536046  0.4053088988118901  0.8587789491144204
  0.6463696814376426  0.1680871171624890  0.6389986957980133
  0.2706124166945200  0.3644571407820406  0.4610933361391473
  0.4830717176406611  0.5509339103331912  0.5950502317945272
  0.7202845262888470  0.6365705468202921  0.3398351216764797
  0.8141413664366158  0.9243219129578714  0.9346773413939498
  0.1600893045748270  0.7217003204248680  0.3810147621120575
  0.2916667369890961  0.8591160847824586  0.0381462587342793
  0.9738555652093464  0.5076941445122107  0.3886109195435576
  0.6936352727327817  0.0687963663018963  0.3373210713217464
  0.8821269472772367  0.9586847570723724  0.1748934012382148
  0.0149741156330115  0.6676199540481131  0.6836603675391927
  0.6685748739022067  0.4199061422359488  0.3312003177499649
  0.7391194538812059  0.8563316201879700  0.1413957256897851
  0.3048861704220751  0.3482185443117693  0.9666146322034450
  0.0594113770654727  0.1630430575621156  0.1210458112797618
  0.7404807959444085  0.6048436738551327  0.5405662163338826
 -0.0007895869873664  0.1552104011861699  0.6322102754494399
  0.1099783505665836  0.1780680086783414 -0.0001776748025581
  0.8339301803694672  0.8073205550303479  0.5737907564105910
  0.4071072273897826  0.5725589293904403  0.3874165620530136
  0.9536747232618559  0.3352961771083449  0.6135692755693860
  0.3117406878417673  0.7657176402790250  0.2492940877813924
  0.9275601608218164  0.0370490597841566  0.0574145285482756
  0.6730565902533948  0.1249698416296083  0.8412280138790604
  0.8126219644349896  0.4684344074372208  0.4393608251293541
  0.9306990617299081  0.1667850047062897  0.0908956049180395
  0.7759512223864147  0.2030142464275143  0.1764267891772778
  0.7948048951565118  0.3069858180791674  0.0226854681532265
  0.8871812439291236  0.0540530716478718  0.9339543906297683
  0.6607286875834560  0.9529735845574526  0.8206713529036826
  0.8871572691017390  0.7716571515817879  0.1688211091067750
  0.1326677017423379  0.4332719660728046  0.6604871955876043
  0.9082756114798159  0.8387751622199150  0.4111152835314666
  0.5669830085492648  0.1373442473301753  0.0928820470712636
  0.0388024180922620  0.9002355570209098  0.4584991877935820
  0.6580163409708280  0.8750021145302698  0.5922462340314516
  0.1798423648871172  0.9811369539165523  0.8358073762852803
  0.1162723970605969  0.5094275445926160  0.2505169434636332
  0.9121050042721460  0.4168836297249151  0.2304075919967520
  0.6301846488608424  0.2108311439734155  0.9324688391204363
  0.0272283703446537  0.1399356418324535  0.3874658186926317
  0.9476344351181281  0.4044088318042170  0.7275695598068261
  0.3001703777800423  0.7875976673003225  0.9234093584488160
  0.1862815104235410  0.3008652288417311  0.1519697311226663
  0.3830494035817964  0.2008463087842789  0.6080313886277361
  0.4053849267849604  0.0486948366733337  0.4286947915452888
  0.6286334374427938  0.6805748933018005  0.1597072830713502
  0.4787963634543638  0.4636675545769287  0.7770920960047811
  0.6057932713498577  0.6201923253049410  0.8707319858588138
  0.6312040944166205  0.9014222010680795  0.3677298616611083
  0.9576333375663929  0.7163438487786042  0.7951751944395390
  0.9585706086814002  0.1892580860752734  0.8323859430553555
  0.6716549375981972  0.3677315860431806  0.7030117785983945
  0.5423619539331852  0.4364972473812794  0.3815112019016125
  0.7904789402352356  0.1886333945797372  0.8533643721580738
  0.3224652279140635  0.5902942056967920  0.7065045999444439
  0.2290154528590960  0.4416861796345885  0.2471566042281140
  0.8235375476429966  0.2241868034309150  0.6747161487069991
  0.9018333435937584  0.2067995512581210  0.2158182978336983
  0.1084430426138144  0.6349860731341792  0.7782687266692905
  0.4093198704282538  0.0338752455688577  0.9742471962989527
  0.9712447949282748  0.9717082255012284  0.2986471348675477
  0.3106547951626165  0.9605393091294313  0.4723018691792435
  0.6455519598591548  0.9508370466874364  0.2466009330219286
  0.1272806891644948  0.5998979235250138  0.4324398961469237
  0.0387415596214998  0.9153572974223895  0.1321730984402121
  0.3917236251269270  0.3889053764249485  0.1556537123433319
  0.5022341544001042  0.9071039224990906  0.9573922197203404
  0.6795403249357841  0.2867423397444538  0.0794861309971359
  0.3278408092402745  0.5271018289523359  0.9327784298239492
  0.8528127599984929  0.6508663500594586  0.9356134020676915
  0.0115457374925465  0.2227995596221818  0.5033141516517243
  0.2252748915995913  0.6958639111462939  0.9679017844354192
  0.8152841310990594  0.4293022675958878  0.5664717678040321
  0.5108133163170537  0.7237344578957763  0.1238998260661337
  0.0602487320371504  0.6273911679821256  0.5392123551579894
  0.2268331585360279  0.4939259715546893  0.3653467339940683
  0.4494428599480783  0.6773178632070537  0.5744565879694723
  0.0828803547188644  0.3007178955612031  0.9489018593039000
  0.6356259635079115  0.5045012818822731  0.2175783182787614
  0.4749592951009831  0.5901209216469433  0.0208536749961501
  0.0836600589039466  0.3109026827709331  0.6276402532842821
  0.0767648280500841  0.4993817465870047  0.9619594539106570
  0.8893911064606403  0.2866120118384349  0.7780133176108354
  0.7628622610129578  0.4964131290714863  0.9129773878658175
  0.0760736707156549  0.7773338087895970  0.4918431725157721
  0.3702510112523782  0.3347423869965057  0.5368807671855499
  0.7284847485311255  0.7592985956767903  0.2976443464871432
  0.5373988835462061  0.0281181278262530  0.8235670225366080
  0.7169172610822429  0.2489522560403172  0.2825293146741787
  0.9659027313266809  0.2376288326329163  0.9543843825375503
  0.4414074519971299  0.7171481277496666  0.3988592804835844
  0.2521686421733294  0.2424883411856184  0.8930010101148408
  0.2281647624167466  0.8431710099246187  0.8250849239772060
  0.1974661303402221  0.5746560103466360  0.8638103448108230
  0.7801195089478008  0.1433355731559122  0.5657456704319990
  0.1574223855952975  0.2845343334317022  0.3448503468190360
  0.7072138588924677  0.2292649434789974  0.7408855383563592
  0.5499508216327249  0.8184381904437582  0.5389215512650166
  0.6530340946661473  0.4851179332516579  0.6428238420043685
  0.2801850294456752  0.3860740421251919  0.7106263865588004
  0.4493500727781662  0.3941465853011204  0.6700883243370594
  0.3824428884153786  0.2433228707413619  0.7644908440857155
  0.6435189921222821  0.6716069810434597  0.9861557561470500
  0.7873907496288606  0.6995745042781146  0.6318611269481437
  0.9254237379733501  0.7474363938838995  0.5041659311518597
  0.2822294971791854  0.0238807435684837  0.7674617482097521
  0.0573599392824907  0.2929271376575917  0.1480883482798025
  0.2977966444773423  0.0488852092677911  0.3083301875490744
  0.9140041345113830  0.3964615456503913  0.9708173631074143
  0.4992812721860477  0.3209454177519086  0.3277959092878764
  0.6720706009803862  0.4222998302162694  0.0687387631155929
  0.7963933604649170  0.4194993302957565  0.1665523363785462
  0.3893475139904965  0.4125756572873893  0.3037294598649341
  0.2177498243094900  0.1973048645759028  0.7151442469522397
  0.7961670766009543 -0.0093548143190181  0.3685998890611923
  0.1795709078479359  0.4087659617803151  0.0779205658596184
  0.7115443454372997  0.5989364932129515  0.7312653812940012
  0.7510625266078372  0.5710578288942985  0.0718476503671713
  0.4568887447395190  0.7591759430210697  0.8487261952560360
  0.3836653505186207  0.7362866878186354  0.7437839209874093
  0.0429156983133020  0.2442629189881773  0.3095770973427839
  0.7951789617763555  0.4064767375795952  0.7253697387998448
  0.1945253984883904  0.7808224936611482  0.1003933029069903
  0.6738543774284403  0.0519692770474573  0.6986021509653058
  0.2897490379279705  0.6560930939102726  0.8147689940351400
  0.1392451382011563  0.6760698530580782  0.2412799886534788
  0.9864856307709033  0.4311747436999839  0.5359167336626173
  0.3790693153892438  0.8978486519916056  0.5922169007919955
  0.7208470809813665  0.7382116308791720  0.8764123233617622
  0.5700849775610877  0.8424856357167767  0.0897970224109703
  0.0595618160858244  0.5084233520743955  0.7911512235473170
  0.4802836282330356  0.8131667203655735  0.2509128976316195
  0.8602403914901310  0.1138414052121709  0.7327524164163455
  0.0215424889682732  0.5022775726967680  0.6614220080483633
  0.2977001024373028  0.5378079105918409  0.1930116755564669
  0.2974921941124026  0.1036219374000565  0.9434000128920452
  0.5132147331808691  0.4258766129731787  0.1470803133754959
  0.0706932427150943  0.2280630401505062  0.7830329523482620
  0.3917630906706094  0.7763795687579110  0.0553564491641548
  0.2590604070253086  0.0369660135354274  0.6185840582768989
  0.7434296499880011  0.3099819991255164  0.8971625529646559
  0.3246020400162707  0.4826402476388316  0.7846352606729520
  0.1604073365737292  0.9495130583081366  0.2139315132448414
  0.4333786526065018  0.1599732477733232  0.3221789185809557
  0.1196477616845801  0.7462109908404678  0.6707956614542174
  0.6030562454157221  0.1279788922314466  0.2238322493023110
  0.1301643150463270  0.9504147782341661  0.6870974897207959
  0.0001126794276795  0.8923811534040273  0.5946314840524594
  0.0120145472099812  0.6191014658111268  0.1761865355982621
  0.3501359023351718  0.4583427159419378  0.0405387265345407
  0.8617850231875259  0.8626021400185101  0.0529978090478452
  0.2398731550023606  0.9145425130290847  0.3744251292112301
  0.3794226021657645  0.2406766121239158 -0.0004396923177884
  0.7950599629355296  0.9463606799003510  0.7981048524106248
  0.1203653904374260  0.1293843246720293  0.5926746799072605
  0.0553784362223115  0.3607186092790731  0.7869608215610396
  0.4865853881350020  0.4977729662051336  0.2692131391687542
  0.9029883314196696  0.8198689909227932  0.6975476377539798
  0.5320480477519004  0.1970924723327275  0.6950072172964421
  0.3129538268474829  0.3048419910269555  0.3497316057794410
  0.6860866078160203  0.0252004872291562  0.9282427229787994
  0.7360123754452422  0.8017243202865106  0.4730704241589689
  0.8055000459927009  0.6563747212534806  0.7962351702851590
  0.3428762535781852  0.1577175788541819  0.4909090128820052
  0.3990867957054079  0.3736549095491980  0.8816518998905640
  0.9202847687597082  0.3647315892874022  0.4145195836755573
  0.6523356712059372  0.0138831705296391  0.5338643952408850
  0.5013084400609659  0.2417327363152753  0.1734648638387582
  0.7125801749232811  0.3378841493297984  0.4284727741663370
  0.2223804071229444  0.2131346928122927  0.0609254632986488
  0.5906581992223636  0.0065257335924967  0.0751988807879635
  0.8884887361087297  0.6028157890547350  0.1422634149551624
  0.9532433117147930  0.0119886053615110  0.4240847179368422
  0.9762250434049801  0.9253485228703141  0.8086526353169539
  0.5694576334626441  0.7270825595930138  0.8006486042169811
  0.4307242440685711  0.1199458218114669  0.1460891451520822
  0.1886979515299280  0.5651841345593402  0.6826698536840156
  0.6907587193277597  0.1517995501486716  0.0458533570458022
  0.0747270969508531  0.8931467837615035  0.3305760763521411
  0.4308240137931386  0.6128861709862387  0.1526122922380168
  0.4270153820753224  0.1362636499731135  0.8155133237173225
  0.0266330960367899  0.6484807004189020  0.8862224234076693
  0.1125997364629633  0.8084777740234201  0.8792867532727558
  0.8552403519879795  0.0515810116246578  0.2624061573771663
  0.6913264019615220  0.7796192538928056  0.6801402774363853
  0.5170266094761051  0.1530573396912322  0.9598052387932005
  0.3583359845318783  0.5137661014934082  0.5657441401544728
  0.4989637549054066  0.3704678372386451  0.0245134807330149
  0.2000080044326379  0.1352054228080981  0.1715905545779302
  0.4765182258690694  0.5930280030835651  0.8856374925599502
  0.7482765613898326  0.1595763150080954  0.4096378060690847
  0.2039706789414706  0.2564550182154530  0.5051306529150500
  0.1200590315957874  0.9980880958800972  0.4842352293803614
  0.8590416718383691  0.5886528041770235  0.4686832331423058
 -0.0156735735131612  0.7947826104381778  0.3151058411567996
  0.1570968691766206  0.1130712541216556  0.8382634502303812
  0.1745139191164059  0.4520007566526992  0.5399575296920466
  0.5737071511068245  0.2161308431026367  0.3678988449311721
  0.3019950896567193  0.7260840266464232  0.6258036417314926
  0.0974640725842203  0.0374738577916138  0.0418571350948039
  0.6090630255195909  0.6275519470422193  0.5842983255879779
  0.5833052996517785  0.4766690573372148  0.9190796553214287
  0.7084351138648561  0.8647696805560630 -0.0075036272235890
  0.5578793250321457  0.4178783486760627  0.5181927808660325
  0.1684080463076109  0.0630738672676297  0.2837316202954663
  0.3299254977164093  0.6104194475935604  0.4881673433717449
  0.6079177876392273  0.4778198687921998  0.7919031157284110
  0.8008757766279461  0.0226666128312008  0.0922767906639587
  0.4665994686776325  0.9960410544973702  0.3191797893025370
  0.3491649422460931  0.9315576278564166  0.9248722364147802
  0.5599186873911578  0.2925344397563419  0.8463424169875421
  0.0220681749660560  0.7696823670013265  0.9819173448691971
  0.3245552994211880  0.9075050337547822  0.2033062193760729
  0.3721313678813394  0.0110591084964407  0.0943817289537368
  0.3739951923787979  0.0781328005182154  0.6527165474396364
  0.0224769822967958  0.7925017249600906  0.1637782987932416
  0.8727289381694391  0.5225666089421179  0.3091124341054519
  0.4496813603552305  0.8986987706070335  0.1598459036058674
  0.7753422606252935  0.9655489530594270  0.5037830551625957
  0.2037748983318051  0.7716835024861990  0.4981097764995069
  0.8384321866687450  0.1730671812766721 -0.0250819177100132
  0.8797662292640243  0.8193510234584372  0.8930394794207367
  0.5732144598529911  0.9259332802106746  0.6799017300180434
  0.1938750535548104  0.8832669299475363  0.5975609271910572
  0.8504007033946731  0.3348175378253810  0.3090747296079701
  0.9039756613515052  0.3088934836949943  0.1336405849096138
  0.8855036623740931  0.5671756795798134  0.7405236161956974
  0.9219067393858341  0.6989505108001048  0.0314561852020755
  0.5623249673348031  0.7380851189426361  0.3600486047092501
  0.9118502053480465  0.5040244600407879  0.0605206172806696
  0.0463361597495625  0.4235857696266836  0.3161926912237834
  0.0266628497997236  0.0610926689636888  0.7247229121460969
  0.8999174717432535  0.6923249003697970  0.2757101478109660
  0.3979851191747417  0.8149367587306761  0.4905814450203422
  0.0131867204653720  0.0719981785188383  0.9075243029551784
  0.0257093677525839  0.6185710911076834  0.3560582651746204
  0.1968904581685232  0.4114502629716040  0.8912191515765663
  0.8827193584311376  0.5932340176355796  0.6061897987177399
  0.8969418222002765  0.1646870051472127  0.3791325717155632
  0.0794280014249174  0.5213386724611910  0.1272382903505057
  0.0250803726089895  0.0842404819008223  0.2641091395170200
  0.5246164368110151  0.1435530727054080  0.4854524386843087
  0.3937084589193255  0.4476264653575948  0.4295385986674005
  0.6857416149631809  0.5189013776529561  0.4453463933295702
  0.5206513783973168  0.5680093807067851  0.4490935341945995
  0.5280661509336917  0.0556254467752879  0.5827246792677929
  0.4654078329590220  0.5825138045852151  0.7249370510923021
  0.6010461860632418  0.6154851145645941  0.2829850050740860
  0.2284478337572765  0.1735009641445850  0.3503621447565635
  0.2851433484143220  0.6817917373027916  0.3523080164743129
  0.7614313178936503  0.7310780204948267  0.1097938831369534
  0.7054111261511256  0.3031887758381026  0.5942876883177849
  0.6413210466067732  0.3377829628430715  0.2327346015713409
  0.4024765296042772  0.9205137213298097  0.7626292318687267
 
  0.00000000E+00  0.00000000E+00  0.00000000E+00
  0.00000000E+00  0.00000000E+00  0.00000000E+00
  0.00000000E+00  0.00000000E+00  0.00000000E+00
  0.00000000E+00  0.00000000E+00  0.00000000E+00
  0.00000000E+00  0.00000000E+00  0.00000000E+00
  0.00000000E+00  0.00000000E+00  0.00000000E+00
  0.00000000E+00  0.00000000E+00  0.00000000E+00
  0.00000000E+00  0.00000000E+00  0.00000000E+00
  0.00000000E+00  0.00000000E+00  0.00000000E+00
  0.00000000E+00  0.00000000E+00  0.00000000E+00
  0.00000000E+00  0.00000000E+00  0.00000000E+00
  0.00000000E+00  0.00000000E+00  0.00000000E+00
  0.00000000E+00  0.00000000E+00  0.00000000E+00
  0.00000000E+00  0.00000000E+00  0.00000000E+00
  0.00000000E+00  0.00000000E+00  0.00000000E+00
  0.00000000E+00  0.00000000E+00  0.00000000E+00
  0.00000000E+00  0.00000000E+00  0.00000000E+00
  0.00000000E+00  0.00000000E+00  0.00000000E+00
  0.00000000E+00  0.00000000E+00  0.00000000E+00
  0.00000000E+00  0.00000000E+00  0.00000000E+00
  0.00000000E+00  0.00000000E+00  0.00000000E+00
  0.00000000E+00  0.00000000E+00  0.00000000E+00
  0.00000000E+00  0.00000000E+00  0.00000000E+00
  0.00000000E+00  0.00000000E+00  0.00000000E+00
  0.00000000E+00  0.00000000E+00  0.00000000E+00
  0.00000000E+00  0.00000000E+00  0.00000000E+00
  0.00000000E+00  0.00000000E+00  0.00000000E+00
  0.00000000E+00  0.00000000E+00  0.00000000E+00
  0.00000000E+00  0.00000000E+00  0.00000000E+00
  0.00000000E+00  0.00000000E+00  0.00000000E+00
  0.00000000E+00  0.00000000E+00  0.00000000E+00
  0.00000000E+00  0.00000000E+00  0.00000000E+00
  0.00000000E+00  0.00000000E+00  0.00000000E+00
  0.00000000E+00  0.00000000E+00  0.00000000E+00
  0.00000000E+00  0.00000000E+00  0.00000000E+00
  0.00000000E+00  0.00000000E+00  0.00000000E+00
  0.00000000E+00  0.00000000E+00  0.00000000E+00
  0.00000000E+00  0.00000000E+00  0.00000000E+00
  0.00000000E+00  0.00000000E+00  0.00000000E+00
  0.00000000E+00  0.00000000E+00  0.00000000E+00
  0.00000000E+00  0.00000000E+00  0.00000000E+00
  0.00000000E+00  0.00000000E+00  0.00000000E+00
  0.00000000E+00  0.00000000E+00  0.00000000E+00
  0.00000000E+00  0.00000000E+00  0.00000000E+00
  0.00000000E+00  0.00000000E+00  0.00000000E+00
  0.00000000E+00  0.00000000E+00  0.00000000E+00
  0.00000000E+00  0.00000000E+00  0.00000000E+00
  0.00000000E+00  0.00000000E+00  0.00000000E+00
  0.00000000E+00  0.00000000E+00  0.00000000E+00
  0.00000000E+00  0.00000000E+00  0.00000000E+00
  0.00000000E+00  0.00000000E+00  0.00000000E+00
  0.00000000E+00  0.00000000E+00  0.00000000E+00
  0.00000000E+00  0.00000000E+00  0.00000000E+00
  0.00000000E+00  0.00000000E+00  0.00000000E+00
  0.00000000E+00  0.00000000E+00  0.00000000E+00
  0.00000000E+00  0.00000000E+00  0.00000000E+00
  0.00000000E+00  0.00000000E+00  0.00000000E+00
  0.00000000E+00  0.00000000E+00  0.00000000E+00
  0.00000000E+00  0.00000000E+00  0.00000000E+00
  0.00000000E+00  0.00000000E+00  0.00000000E+00
  0.00000000E+00  0.00000000E+00  0.00000000E+00
  0.00000000E+00  0.00000000E+00  0.00000000E+00
  0.00000000E+00  0.00000000E+00  0.00000000E+00
  0.00000000E+00  0.00000000E+00  0.00000000E+00
  0.00000000E+00  0.00000000E+00  0.00000000E+00
  0.00000000E+00  0.00000000E+00  0.00000000E+00
  0.00000000E+00  0.00000000E+00  0.00000000E+00
  0.00000000E+00  0.00000000E+00  0.00000000E+00
  0.00000000E+00  0.00000000E+00  0.00000000E+00
  0.00000000E+00  0.00000000E+00  0.00000000E+00
  0.00000000E+00  0.00000000E+00  0.00000000E+00
  0.00000000E+00  0.00000000E+00  0.00000000E+00
  0.00000000E+00  0.00000000E+00  0.00000000E+00
  0.00000000E+00  0.00000000E+00  0.00000000E+00
  0.00000000E+00  0.00000000E+00  0.00000000E+00
  0.00000000E+00  0.00000000E+00  0.00000000E+00
  0.00000000E+00  0.00000000E+00  0.00000000E+00
  0.00000000E+00  0.00000000E+00  0.00000000E+00
  0.00000000E+00  0.00000000E+00  0.00000000E+00
  0.00000000E+00  0.00000000E+00  0.00000000E+00
  0.00000000E+00  0.00000000E+00  0.00000000E+00
  0.00000000E+00  0.00000000E+00  0.00000000E+00
  0.00000000E+00  0.00000000E+00  0.00000000E+00
  0.00000000E+00  0.00000000E+00  0.00000000E+00
  0.00000000E+00  0.00000000E+00  0.00000000E+00
  0.00000000E+00  0.00000000E+00  0.00000000E+00
  0.00000000E+00  0.00000000E+00  0.00000000E+00
  0.00000000E+00  0.00000000E+00  0.00000000E+00
  0.00000000E+00  0.00000000E+00  0.00000000E+00
  0.00000000E+00  0.00000000E+00  0.00000000E+00
  0.00000000E+00  0.00000000E+00  0.00000000E+00
  0.00000000E+00  0.00000000E+00  0.00000000E+00
  0.00000000E+00  0.00000000E+00  0.00000000E+00
  0.00000000E+00  0.00000000E+00  0.00000000E+00
  0.00000000E+00  0.00000000E+00  0.00000000E+00
  0.00000000E+00  0.00000000E+00  0.00000000E+00
  0.00000000E+00  0.00000000E+00  0.00000000E+00
  0.00000000E+00  0.00000000E+00  0.00000000E+00
  0.00000000E+00  0.00000000E+00  0.00000000E+00
  0.00000000E+00  0.00000000E+00  0.00000000E+00
  0.00000000E+00  0.00000000E+00  0.00000000E+00
  0.00000000E+00  0.00000000E+00  0.00000000E+00
  0.00000000E+00  0.00000000E+00  0.00000000E+00
  0.00000000E+00  0.00000000E+00  0.00000000E+00
  0.00000000E+00  0.00000000E+00  0.00000000E+00
  0.00000000E+00  0.00000000E+00  0.00000000E+00
  0.00000000E+00  0.00000000E+00  0.00000000E+00
  0.00000000E+00  0.00000000E+00  0.00000000E+00
  0.00000000E+00  0.00000000E+00  0.00000000E+00
  0.00000000E+00  0.00000000E+00  0.00000000E+00
  0.00000000E+00  0.00000000E+00  0.00000000E+00
  0.00000000E+00  0.00000000E+00  0.00000000E+00
  0.00000000E+00  0.00000000E+00  0.00000000E+00
  0.00000000E+00  0.00000000E+00  0.00000000E+00
  0.00000000E+00  0.00000000E+00  0.00000000E+00
  0.00000000E+00  0.00000000E+00  0.00000000E+00
  0.00000000E+00  0.00000000E+00  0.00000000E+00
  0.00000000E+00  0.00000000E+00  0.00000000E+00
  0.00000000E+00  0.00000000E+00  0.00000000E+00
  0.00000000E+00  0.00000000E+00  0.00000000E+00
  0.00000000E+00  0.00000000E+00  0.00000000E+00
  0.00000000E+00  0.00000000E+00  0.00000000E+00
  0.00000000E+00  0.00000000E+00  0.00000000E+00
  0.00000000E+00  0.00000000E+00  0.00000000E+00
  0.00000000E+00  0.00000000E+00  0.00000000E+00
  0.00000000E+00  0.00000000E+00  0.00000000E+00
  0.00000000E+00  0.00000000E+00  0.00000000E+00
  0.00000000E+00  0.00000000E+00  0.00000000E+00
  0.00000000E+00  0.00000000E+00  0.00000000E+00
  0.00000000E+00  0.00000000E+00  0.00000000E+00
  0.00000000E+00  0.00000000E+00  0.00000000E+00
  0.00000000E+00  0.00000000E+00  0.00000000E+00
  0.00000000E+00  0.00000000E+00  0.00000000E+00
  0.00000000E+00  0.00000000E+00  0.00000000E+00
  0.00000000E+00  0.00000000E+00  0.00000000E+00
  0.00000000E+00  0.00000000E+00  0.00000000E+00
  0.00000000E+00  0.00000000E+00  0.00000000E+00
  0.00000000E+00  0.00000000E+00  0.00000000E+00
  0.00000000E+00  0.00000000E+00  0.00000000E+00
  0.00000000E+00  0.00000000E+00  0.00000000E+00
  0.00000000E+00  0.00000000E+00  0.00000000E+00
  0.00000000E+00  0.00000000E+00  0.00000000E+00
  0.00000000E+00  0.00000000E+00  0.00000000E+00
  0.00000000E+00  0.00000000E+00  0.00000000E+00
  0.00000000E+00  0.00000000E+00  0.00000000E+00
  0.00000000E+00  0.00000000E+00  0.00000000E+00
  0.00000000E+00  0.00000000E+00  0.00000000E+00
  0.00000000E+00  0.00000000E+00  0.00000000E+00
  0.00000000E+00  0.00000000E+00  0.00000000E+00
  0.00000000E+00  0.00000000E+00  0.00000000E+00
  0.00000000E+00  0.00000000E+00  0.00000000E+00
  0.00000000E+00  0.00000000E+00  0.00000000E+00
  0.00000000E+00  0.00000000E+00  0.00000000E+00
  0.00000000E+00  0.00000000E+00  0.00000000E+00
  0.00000000E+00  0.00000000E+00  0.00000000E+00
  0.00000000E+00  0.00000000E+00  0.00000000E+00
  0.00000000E+00  0.00000000E+00  0.00000000E+00
  0.00000000E+00  0.00000000E+00  0.00000000E+00
  0.00000000E+00  0.00000000E+00  0.00000000E+00
  0.00000000E+00  0.00000000E+00  0.00000000E+00
  0.00000000E+00  0.00000000E+00  0.00000000E+00
  0.00000000E+00  0.00000000E+00  0.00000000E+00
  0.00000000E+00  0.00000000E+00  0.00000000E+00
  0.00000000E+00  0.00000000E+00  0.00000000E+00
  0.00000000E+00  0.00000000E+00  0.00000000E+00
  0.00000000E+00  0.00000000E+00  0.00000000E+00
  0.00000000E+00  0.00000000E+00  0.00000000E+00
  0.00000000E+00  0.00000000E+00  0.00000000E+00
  0.00000000E+00  0.00000000E+00  0.00000000E+00
  0.00000000E+00  0.00000000E+00  0.00000000E+00
  0.00000000E+00  0.00000000E+00  0.00000000E+00
  0.00000000E+00  0.00000000E+00  0.00000000E+00
  0.00000000E+00  0.00000000E+00  0.00000000E+00
  0.00000000E+00  0.00000000E+00  0.00000000E+00
  0.00000000E+00  0.00000000E+00  0.00000000E+00
  0.00000000E+00  0.00000000E+00  0.00000000E+00
  0.00000000E+00  0.00000000E+00  0.00000000E+00
  0.00000000E+00  0.00000000E+00  0.00000000E+00
  0.00000000E+00  0.00000000E+00  0.00000000E+00
  0.00000000E+00  0.00000000E+00  0.00000000E+00
  0.00000000E+00  0.00000000E+00  0.00000000E+00
  0.00000000E+00  0.00000000E+00  0.00000000E+00
  0.00000000E+00  0.00000000E+00  0.00000000E+00
  0.00000000E+00  0.00000000E+00  0.00000000E+00
  0.00000000E+00  0.00000000E+00  0.00000000E+00
  0.00000000E+00  0.00000000E+00  0.00000000E+00
  0.00000000E+00  0.00000000E+00  0.00000000E+00
  0.00000000E+00  0.00000000E+00  0.00000000E+00
  0.00000000E+00  0.00000000E+00  0.00000000E+00
  0.00000000E+00  0.00000000E+00  0.00000000E+00
  0.00000000E+00  0.00000000E+00  0.00000000E+00
  0.00000000E+00  0.00000000E+00  0.00000000E+00
  0.00000000E+00  0.00000000E+00  0.00000000E+00
  0.00000000E+00  0.00000000E+00  0.00000000E+00
  0.00000000E+00  0.00000000E+00  0.00000000E+00
  0.00000000E+00  0.00000000E+00  0.00000000E+00
  0.00000000E+00  0.00000000E+00  0.00000000E+00
  0.00000000E+00  0.00000000E+00  0.00000000E+00
  0.00000000E+00  0.00000000E+00  0.00000000E+00
  0.00000000E+00  0.00000000E+00  0.00000000E+00
  0.00000000E+00  0.00000000E+00  0.00000000E+00
  0.00000000E+00  0.00000000E+00  0.00000000E+00
  0.00000000E+00  0.00000000E+00  0.00000000E+00
  0.00000000E+00  0.00000000E+00  0.00000000E+00
  0.00000000E+00  0.00000000E+00  0.00000000E+00
  0.00000000E+00  0.00000000E+00  0.00000000E+00
  0.00000000E+00  0.00000000E+00  0.00000000E+00
  0.00000000E+00  0.00000000E+00  0.00000000E+00
  0.00000000E+00  0.00000000E+00  0.00000000E+00
  0.00000000E+00  0.00000000E+00  0.00000000E+00
  0.00000000E+00  0.00000000E+00  0.00000000E+00
  0.00000000E+00  0.00000000E+00  0.00000000E+00
  0.00000000E+00  0.00000000E+00  0.00000000E+00