Amorphous GeTe6                         
   1.00000000000000     
    21.5728235405677289    0.0000000000000000    0.0000000000000000
     0.0000000000000000   21.5728235405677289    0.0000000000000000
     0.0000000000000000    0.0000000000000000   21.5728235405677289
   Zn   Te
   105   195
Direct
  0.8568390104525879  0.6665299286406838  0.2128103794431745
  0.4643782233317866  0.8141911620392919  0.1529646979634691
  0.7928182455813706  0.5804715502676743  0.2647845747114882
  0.4847335991597614  0.6303633244668264  0.7921246717134943
  0.9665069657801962  0.7093525321347077  0.9860337859098699
  0.3013221110499339  0.7038147785791197  0.1641483047245860
  0.3199339786856708  0.3506309742604500  0.4209150302769200
  0.0068739459221529  0.3690727748637868  0.7729438416139383
  0.3292400077442241  0.5074152214818853  0.5229921669987444
  0.2508162962231131  0.1653905249580859  0.6055167564966449
  0.2199814009701284  0.3173075881203586  0.6053220228907936
  0.2488725372214744  0.2007614267229829  0.4490492589668153
  0.4164771603245532  0.7587489667579487  0.2918000797044486
  0.8762567345679549  0.4223739871816987  0.6852470145766660
  0.4011968085079776  0.2011061045289632  0.3499142750658131
  0.9366622648997134  0.5732514709026073  0.7891765600400590
  0.4134356973384714  0.5485302799345140  0.1659843886087487
  0.8241590193716963  0.7549676519556355  0.4946385270101181
  0.8292035249619023  0.7454811940470337  0.3045597718453210
  0.0194578646811806  0.7529286420239147  0.4936257439833514
  0.7632583138330303  0.1604284196534220  0.7722668236529868
  0.5536517010208702  0.8899005846507454  0.0441765591556924
  0.6577059373906998  0.5291522489792538  0.3202186772461872
  0.0089957701468879  0.6134542960438225  0.2949970335557324
  0.6541177244256546  0.6918567373210922  0.3166498644457629
  0.1757672415041515  0.9277630532434293  0.8423689789115497
  0.8983660249885306  0.5507758958756419  0.2227357774090603
  0.3577545794985088  0.8917957326253977  0.0748249078569680
  0.6924745291426464  0.8560944523977060  0.5792641262389684
  0.0641579536758072  0.6228002517399170  0.6243568707561953
  0.0228520425527217  0.1848538199545115  0.8338079871971046
  0.3288982738384663  0.5832255631800151  0.3097134931841618
  0.9732950403377516  0.2018829767804672  0.0416288282584977
  0.7927069310380322  0.3185528480209485  0.5932758887037282
  0.9348950788292704  0.7479765117373740  0.2500104593132248
  0.9730742344887958  0.0235997583897978  0.5730291781655890
  0.2407395890493397  0.1336870661123644  0.2953117077332159
  0.9493831177790819  0.3191828516962676  0.4547427620897675
  0.0931382695717649  0.0672642175420125  0.2313384667318830
  0.6822012008157429  0.5562270184928600  0.9267900045551578
  0.3929780032005748  0.0865304458430276  0.5298585301851645
  0.4638014687772936  0.0236433170976128  0.0186155303077796
  0.1430613339643532  0.5766532439551306  0.4428685626263553
  0.1092155150626457  0.0769257472464557  0.9363766543107873
  0.0377306837794427  0.3887257781716486  0.5973155477122120
  0.4833265827454860  0.2363600571720612  0.9107549760694026
  0.6608311527404561  0.2036021877666801  0.9095300111545317
  0.6826348356191171  0.2518045307622372  0.3517807820446288
  0.4773471459407173  0.5008343142132260  0.6387906042154903
  0.1157215842683443  0.1115891486937808  0.4634785884661458
  0.8094760375667053  0.9625166164325610  0.0828181014383648
  0.8945577711371433  0.0707790082479412  0.9820334094257358
  0.7827508844332862  0.7943184057670495  0.1844152714111318
  0.7833562108719792  0.5715275195564393  0.6118420027796094
  0.5914114262233430  0.2358788301606732  0.7193307398420259
  0.4587602565441651  0.8649413463721881  0.5639786320447822
  0.6550673742586766  0.5786194189353484  0.7735415757575392
  0.8374923307123170  0.6310375640387482  0.9292852083504017
  0.1720371301438062  0.5470835767161215  0.2076549448091148
  0.4286528222119541  0.4461416502916095  0.2741583922925619
  0.5607463358149989  0.9856384840106268  0.4615377168494321
  0.7452644377389610  0.1135618865502326  0.4225355305042414
  0.2802930023362351  0.6068671753756606  0.0376220140848880
  0.5569835508156297  0.0071641717708355  0.6334227650261238
  0.9711328419604045  0.3924858278411524  0.2740237096217766
  0.2940973292699319  0.6873244267219554  0.4742275277943523
  0.1537553537507615  0.2639383770213637  0.8144520674973211
  0.0355753843472324  0.2129388327111225  0.1919022459211432
  0.1887297051847561  0.7657004424294798  0.7328025444553118
  0.3185169757289742  0.7703332937549462  0.8344038812201630
  0.2089155784430009  0.8435269161700780  0.5328971252118364
  0.8229245763678570  0.4216629623103590  0.8814240110591578
  0.6012119327198454  0.8802567801366082  0.8983967035597030
  0.6860585524880840  0.3865789873881906  0.9801771637235305
  0.0865342884124505  0.7178661585090600  0.1414602428187063
  0.3118639357226946  0.1901383326590562  0.9556887894632602
  0.5506606478493636  0.1091453321090646  0.8144292893703813
  0.0494780600913511  0.9184074807495374  0.9576199281499951
  0.8142446493588198  0.4624945265994290  0.0536358184581806
  0.4742818181899398  0.6139143241590643  0.5484524892754076
  0.7555524487168849  0.1199193314461170  0.2628869679744394
  0.6192712187404767  0.1545217109464375  0.2012023231104291
  0.8334755957414800  0.0232089293265081  0.6301029741536108
  0.7017436196147662  0.3013570660637647  0.1207418071024699
  0.6037033829793057  0.5070902291517027  0.5054293832963368
  0.3664652829459475  0.9980235580934845  0.6401188726148160
  0.1728610645917147  0.8851230258937155  0.1552175513646153
  0.1747421988662899  0.9178822946729961  0.3176072532406854
  0.4699581229842473  0.2784887987583449  0.2036343497911160
  0.3354128927005631  0.7674739999254695  0.6282816463688093
  0.1090869035148498  0.0311340848902178  0.6930445397113835
  0.2894153725236154  0.0222692549777833  0.9765240619155784
  0.8636969185232921  0.1709042444656164  0.5214781463307833
  0.3870833953168695  0.4631135104549833  0.7877044612285299
  0.3826040906462341  0.2916696395706490  0.5749424144520299
  0.7832439401027547  0.8970015002483387  0.2983911894813714
  0.9462629102391468  0.1237958298329262  0.3385271823533397
  0.6482767235355059  0.0356636013000348  0.0304241351316382
  0.7309759792857785  0.3977835120137807  0.4856801810598438
  0.0826959144435460  0.4920353449289973  0.3405189499046619
  0.4376175402883392  0.8289683181108944  0.8641894414049714
  0.6813744000468226  0.5508952283422688  0.1092366613434997
  0.9840094271338442  0.9095641372425136  0.3146311356289233
  0.3006017386171326  0.4494872339505673  0.9600044225866589
  0.1369450248659471  0.6346839933548802  0.0198099305647691
  0.7142223061559764  0.2361386221505576  0.2322673266633458
  0.4389409357071835  0.0984767330010945  0.2889487831280277
  0.8396300944645240  0.9008907012950682  0.1911148239779575
  0.6391445784177319  0.0759778253694971  0.2964580866775799
  0.4449111131341532  0.0168111131116160  0.4401972367354749
  0.7875800648772344  0.9350158395661722  0.4145532082005665
  0.6707321476989705  0.0597839779077758  0.6131398073435255
  0.9214575304273549  0.2113043321041024  0.2511014810041635
  0.1195528353007245  0.1776820358019839  0.2773120244224704
  0.6792317907063902  0.0270431272053896  0.4754808789268959
  0.4842149832079122  0.9418722792863718  0.9205227611947429
  0.2634906611814368  0.8464218266039266  0.3589675047561224
  0.4014117571434726  0.7140510030871228  0.9200002389511162
  0.2574900324858118  0.4881197064393705  0.2725479778045090
  0.7317163517929558  0.9540099577076859  0.9847161455897780
  0.9063381536591296  0.3126688662442892  0.3398235381472509
  0.0399191971609895  0.1324083969322845  0.7240843435501217
  0.1678531688752818  0.2259749451540551  0.5377035545223827
  0.3627313388399889  0.2941138789947767  0.1242293321409178
  0.7052939770995121  0.4457199249417573  0.8756169063197821
  0.1958639472997465  0.8732384841551148  0.6613681216357357
  0.0235928165987270  0.2982925374321458  0.0962489833671983
  0.9129784923897342  0.0857152196491683  0.1605925784519390
  0.2688260887319610  0.5749451355776107  0.4366707637232070
  0.9606667851343781  0.3300294957735674  0.6673702772809177
  0.0058579879166588  0.4291495177292508  0.4878020288181946
  0.4591241322472200  0.0773817380769409  0.6416389214697467
  0.1467641645880287  0.9098385058220275  0.0322706003347334
  0.7752750996596203  0.2932939009947360  0.7835160433574363
  0.4941370044063956  0.4293715988263669  0.7373099454234662
  0.5848115344452853  0.3147383251439367  0.6264745010555460
  0.5989993162977081  0.0995020838781739  0.9281158193878611
  0.6853984965286410  0.2750684395351859  0.5281861404494412
  0.1774520366794506  0.3590506675254347  0.1541572827545800
  0.6556451919262771  0.8404374306511738  0.0025580191721807
  0.1562570315347989  0.1900454511247671  0.7138196632701135
  0.4733689286242688  0.0108327939420618  0.8067200080684643
  0.7672232383064297  0.5385563973546981  0.3797132828082365
  0.5473036098140587  0.7960364977464462  0.8224767911773279
  0.3990633921545645  0.3699952712653384  0.0147319584580745
  0.8607425023090491  0.1604211945505816  0.0624828731392219
  0.4472378741006924  0.5666322911658723  0.2839540946543951
  0.8706759821883916  0.0478878906831176  0.5163543739358817
  0.8646982502610939  0.3695705153143924  0.9855605889367691
  0.0680664999259094  0.9130903147966452  0.6614970358565444
  0.2806754311516945  0.0512430986249886  0.5735173219331733
  0.3424731499375812  0.8892059478536660  0.8122551690572953
  0.4916143181774429  0.1438497698542472 -0.0047174827018379
  0.6868766341907894  0.6556082430276943  0.4292335849750336
  0.0477919522966851  0.3000347083199679  0.8619681842458616
  0.0235702006941230  0.6151795725841768  0.8634629168069659
  0.5419255794336348  0.7520628187310137  0.3010230088012015
  0.6517656888816151  0.3644103299234292  0.3956534433448239
  0.7634942166325213  0.5484971501613024  0.7348078158325534
  0.0340431847079696  0.1821779701404152  0.4047625795030882
  0.2394026916962267  0.7659856346825711  0.9289104324382726
  0.0778757465474075  0.9250420147206874  0.3940096522852500
  0.4905183210617145  0.4615530572057343  0.1084909417316397
  0.5175307637695901  0.7072577880701711  0.1735147690055357
  0.1085671482481734  0.6689100786919079  0.7271670567310552
  0.7009802264480796  0.4843191144968528  0.5702680446514998
  0.9288388108068367  0.9747929489362577  0.0514687801789046
  0.2520057466663332  0.1173932223494246  0.8001102570520743
  0.0920489001231111  0.4622810539950768  0.7377418269614836
  0.6836618783687437  0.1358392621810327  0.0940946992336270
  0.2846907934813390  0.8280859764031425  0.1471262893369785
  0.3730328893141368  0.2922228961544981  0.9139368743638702
  0.3725850086440619  0.1979034172808619  0.4716426331535823
  0.5866277510148618  0.2658033031306686  0.0924709009087876
  0.4967209944315056  0.1609055948152666  0.1830039533343011
  0.2294783701670245  0.2952751865079822  0.3670306754119210
  0.5833607784439078  0.5795558167673146  0.4090315726448241
  0.5552516523632693  0.9951846572173296  0.0976715754700262
  0.5678390063853623  0.5856432002612131  0.0794343306554744
  0.5621522899540866  0.5422078139132135  0.9573465936654366
  0.6719911301523956  0.4144022899525576  0.2743106144986606
  0.0378441783327114  0.1069273748493460  0.1193835691953599
  0.2199614494285139  0.9945394595044499  0.7420725091654359
  0.5236995297264984  0.6954523300960147  0.6953701134817850
  0.7864979009439285  0.1978830957915070  0.6143485492868127
  0.6786336574170307  0.6075559854944982  0.2255205701022500
  0.7556035845802486  0.0478382027856544  0.1591544558686926
  0.7338678379735497  0.9526248355153457  0.6521228742962963
  0.3067816039111371  0.3866451748276088  0.5357121222394069
  0.2351324295332928  0.7294777848301930  0.5681241647884752
  0.2021457142728843  0.4028429388514814  0.8975933268285656
  0.4271628191570569  0.3856237096870665  0.3795864009232607
  0.4903651971420191  0.2120023956811762  0.7906308755844075
  0.5424312557706128  0.8183925777909534  0.4204411466878946
  0.9880184078398140  0.0259804465365246  0.2770361165849978
  0.9190284397266851  0.4842340880620253  0.1197525621279690
  0.0927974213354727  0.4614307590899104  0.1547448939415911
  0.5291376519784484  0.9231573651782856  0.2441280911968463
  0.7829398306200954  0.1710727067278681  0.8951084789074784
  0.1728342904883867  0.5120142630875940  0.8257805652152466
  0.8787316781681209  0.7864242288917214  0.0427691177643866
  0.8506877289103802  0.3853602732636783  0.5085784513161783
  0.1873663708231562  0.9893051918154552  0.2201769913491219
  0.7641632179497604  0.2910221769408756  0.0080107794460822
  0.5905919498938584  0.1717821649827893  0.3721034905541636
  0.8895137388155513  0.5066317107397436  0.5932414907649498
  0.8090113693554253  0.0439772106746532  0.8988456320193661
  0.2431345306452815  0.4918752420691461  0.0600871173977016
  0.1310475572228875  0.2211908618247432  0.0352781964123831
  0.2959110369527398  0.5182451755058766  0.7296440749679657
  0.8102815453727858  0.7585549040387374  0.9358988698642582
  0.4969897538811547  0.2785809511678569  0.3382021196010845
  0.3489082234535219  0.0886070301168607  0.8914980733026068
  0.5952558606845166  0.9195255666925445  0.3588717651362907
  0.2212501880496922  0.0877291503668651  0.4088510536491600
  0.7556196749610935  0.3846139148081056  0.6892573896199664
  0.3601379823152732  0.1768340952372436  0.0688188425723030
  0.3057820386184258  0.2403686394101927  0.2790286924839855
  0.9518365222671401  0.5981194809011192  0.6684914048804574
  0.0774177552795377  0.7421016428896582  0.0219945930232047
  0.4398882809576335  0.5295893870255352  0.4660181360180135
  0.5911862213906991  0.2951335983381698  0.9657191274012588
  0.5046588401100349  0.4396228867845538  0.5337781167876401
  0.9752698628718139  0.7127920356447467  0.3698243702962614
  0.8852984323633676  0.8300931953344945  0.6497617170860198
  0.7660466271747707  0.5704706017753358  0.0151711066399572
  0.6498117851521528  0.1257114897461100  0.7346861540770245
  0.5669810016466558  0.9396465647735288  0.7451828111232025
  0.4109908422237543  0.8824791061038811  0.4481353467634489
  0.9745507586035937  0.2207709034552256  0.5205423397675092
  0.4505270505215456  0.8254845644948661  0.0312665550650508
  0.6038650787975152  0.7151885661553922  0.0777516399877959
  0.7996831331548240  0.6990066388631356  0.6040164436841631
  0.3683860996739270  0.5600364141316715  0.6270662462332462
  0.1285704416408941  0.4509855525239557  0.4505276847758799
  0.9278609526031006  0.9528366422868427  0.6779686473892890
  0.8564155786900992  0.6746346269361996  0.4058142971129977
  0.0726036310315812  0.9882722810606804  0.8612697485051581
 -0.0024650269750728  0.1334247654965764  0.9408036150621953
  0.9208605954469223  0.8282971336518302  0.5212276074763564
  0.5653299710691568  0.5911970837198732  0.6284637738296820
  0.6865193147890670  0.7504181322035542  0.6402559991151953
  0.2129954910230655  0.3203842433282921  0.0363132928898884
  0.3957485847218605  0.5019806220317776  0.9041627849712238
  0.1880120511618593  0.1767575779006859  0.9098147021452834
  0.8899096407301279  0.8534165248896449  0.3718297218757531
  0.9335706093597970  0.8855086686270314  0.9512773032734584
  0.3407753060356920  0.4458023202284463  0.1827073905160106
  0.7266622281347811  0.8273893338871713  0.4642006659972376
  0.3073105466047115  0.2555326178579182  0.6687554158481116
  0.8307481944092688  0.0711486408145911  0.3455413897398185
  0.5493521099889623  0.5247225138832782  0.8085835179661043
  0.9967493016957739  0.7414790224242108  0.6999182315539491
  0.9499121687818667  0.5060366825129644  0.3293802042990661
  0.1164261448083198  0.8142242509137033  0.4524319723623911
  0.3588269801093134  0.0114813244320163  0.0765658424816592
  0.2999033974312176  0.7077432564731377  0.7328603874806955
  0.7138794376436577  0.7955224868588038  0.2830579048448294
  0.9860045269521980  0.8503418736386728  0.2053541919718006
  0.7991077916712391  0.4449950970704141  0.2866675035856460
  0.3807724348408819  0.6426202737645285  0.0923661451180958
  0.9491690328631933  0.5878750317494110  0.9676401105857311
  0.2504810086520950  0.3354651779335779  0.7979978263323397
  0.1386023934438219  0.8043107886035555  0.8422797316516677
  0.8333958755127251  0.6429833147233737  0.8042654893055281
  0.7035736184471868  0.4283379608522822  0.0999631004375913
  0.2703358873604381  0.9101174951260880  0.9215947156090266
  0.5430825647671869  0.6828873590111968  0.8946467896051049
  0.1762893395135176  0.0377834691364038  0.0314623472847084
  0.5212816185252305  0.3904501173721021  0.2128588816750692
  0.1900602153166918  0.6470016261288298  0.1389383122256206
  0.9843625046192690  0.6505526359952268  0.1795848769920866
  0.6729198481830916  0.6635226176758654  0.8584563040867363
  0.3091100904222292  0.7030808557407719  0.2876125990222759
  0.4942573220991978  0.2574611716513961  0.5501238389819540
  0.1192035744595731  0.5103888025598496  0.0191668735161077
  0.1285460055101583  0.6046284812613116  0.3158054348068823
  0.1085626373753415  0.8054930625917135  0.2242126095255070
  0.2241899612814290  0.6336716131191513  0.9312652646731291
  0.0280928418718970  0.8482068375711843  0.7698527456709142
  0.3864646210183538  0.8784928574815493  0.6605230268136076
  0.9121248603937069  0.4517288669000606  0.8023340635294253
  0.6492003070135620  0.2887050781846998  0.8153490410909300
  0.4040897955972610  0.8754296836872184  0.2387595772889962
  0.9168653500178960  0.3624437853786646  0.1645937769133630
  0.7945476451096891  0.7034378095382888  0.1110386192891746
  0.9263922212120497  0.7426764863665634  0.8703231398459301
  0.3636238065675526  0.6153043906779929  0.8307852735232201
  0.5723081827476747  0.9084227901504540  0.5617000374790631
  0.6642092695032759  0.9556265691093094  0.8272751189085994
  0.4444898760630502  0.7320554959943012  0.5682337467302770
  0.0942788710371609  0.3912014470122464  0.2727951458955608
  0.8563315312491402  0.1244042173417287  0.7010813532645657
  0.7771390064653031  0.2284192957068978  0.4360090112067315
  0.3219024840954738  0.0526998848527225  0.2478529484666458
  0.2765756196196537  0.9212191717822662  0.4647520978607727
  0.3997937824817915  0.7337456813225735  0.4398428847941118
  0.0910350168372870  0.0369212057451892  0.5640147395166853
  0.1531300811927599  0.4232701303317480  0.6269003337444861
  0.0529317005030272  0.6326205477452951  0.5067195461204009
 
  0.00000000E+00  0.00000000E+00  0.00000000E+00
  0.00000000E+00  0.00000000E+00  0.00000000E+00
  0.00000000E+00  0.00000000E+00  0.00000000E+00
  0.00000000E+00  0.00000000E+00  0.00000000E+00
  0.00000000E+00  0.00000000E+00  0.00000000E+00
  0.00000000E+00  0.00000000E+00  0.00000000E+00
  0.00000000E+00  0.00000000E+00  0.00000000E+00
  0.00000000E+00  0.00000000E+00  0.00000000E+00
  0.00000000E+00  0.00000000E+00  0.00000000E+00
  0.00000000E+00  0.00000000E+00  0.00000000E+00
  0.00000000E+00  0.00000000E+00  0.00000000E+00
  0.00000000E+00  0.00000000E+00  0.00000000E+00
  0.00000000E+00  0.00000000E+00  0.00000000E+00
  0.00000000E+00  0.00000000E+00  0.00000000E+00
  0.00000000E+00  0.00000000E+00  0.00000000E+00
  0.00000000E+00  0.00000000E+00  0.00000000E+00
  0.00000000E+00  0.00000000E+00  0.00000000E+00
  0.00000000E+00  0.00000000E+00  0.00000000E+00
  0.00000000E+00  0.00000000E+00  0.00000000E+00
  0.00000000E+00  0.00000000E+00  0.00000000E+00
  0.00000000E+00  0.00000000E+00  0.00000000E+00
  0.00000000E+00  0.00000000E+00  0.00000000E+00
  0.00000000E+00  0.00000000E+00  0.00000000E+00
  0.00000000E+00  0.00000000E+00  0.00000000E+00
  0.00000000E+00  0.00000000E+00  0.00000000E+00
  0.00000000E+00  0.00000000E+00  0.00000000E+00
  0.00000000E+00  0.00000000E+00  0.00000000E+00
  0.00000000E+00  0.00000000E+00  0.00000000E+00
  0.00000000E+00  0.00000000E+00  0.00000000E+00
  0.00000000E+00  0.00000000E+00  0.00000000E+00
  0.00000000E+00  0.00000000E+00  0.00000000E+00
  0.00000000E+00  0.00000000E+00  0.00000000E+00
  0.00000000E+00  0.00000000E+00  0.00000000E+00
  0.00000000E+00  0.00000000E+00  0.00000000E+00
  0.00000000E+00  0.00000000E+00  0.00000000E+00
  0.00000000E+00  0.00000000E+00  0.00000000E+00
  0.00000000E+00  0.00000000E+00  0.00000000E+00
  0.00000000E+00  0.00000000E+00  0.00000000E+00
  0.00000000E+00  0.00000000E+00  0.00000000E+00
  0.00000000E+00  0.00000000E+00  0.00000000E+00
  0.00000000E+00  0.00000000E+00  0.00000000E+00
  0.00000000E+00  0.00000000E+00  0.00000000E+00
  0.00000000E+00  0.00000000E+00  0.00000000E+00
  0.00000000E+00  0.00000000E+00  0.00000000E+00
  0.00000000E+00  0.00000000E+00  0.00000000E+00
  0.00000000E+00  0.00000000E+00  0.00000000E+00
  0.00000000E+00  0.00000000E+00  0.00000000E+00
  0.00000000E+00  0.00000000E+00  0.00000000E+00
  0.00000000E+00  0.00000000E+00  0.00000000E+00
  0.00000000E+00  0.00000000E+00  0.00000000E+00
  0.00000000E+00  0.00000000E+00  0.00000000E+00
  0.00000000E+00  0.00000000E+00  0.00000000E+00
  0.00000000E+00  0.00000000E+00  0.00000000E+00
  0.00000000E+00  0.00000000E+00  0.00000000E+00
  0.00000000E+00  0.00000000E+00  0.00000000E+00
  0.00000000E+00  0.00000000E+00  0.00000000E+00
  0.00000000E+00  0.00000000E+00  0.00000000E+00
  0.00000000E+00  0.00000000E+00  0.00000000E+00
  0.00000000E+00  0.00000000E+00  0.00000000E+00
  0.00000000E+00  0.00000000E+00  0.00000000E+00
  0.00000000E+00  0.00000000E+00  0.00000000E+00
  0.00000000E+00  0.00000000E+00  0.00000000E+00
  0.00000000E+00  0.00000000E+00  0.00000000E+00
  0.00000000E+00  0.00000000E+00  0.00000000E+00
  0.00000000E+00  0.00000000E+00  0.00000000E+00
  0.00000000E+00  0.00000000E+00  0.00000000E+00
  0.00000000E+00  0.00000000E+00  0.00000000E+00
  0.00000000E+00  0.00000000E+00  0.00000000E+00
  0.00000000E+00  0.00000000E+00  0.00000000E+00
  0.00000000E+00  0.00000000E+00  0.00000000E+00
  0.00000000E+00  0.00000000E+00  0.00000000E+00
  0.00000000E+00  0.00000000E+00  0.00000000E+00
  0.00000000E+00  0.00000000E+00  0.00000000E+00
  0.00000000E+00  0.00000000E+00  0.00000000E+00
  0.00000000E+00  0.00000000E+00  0.00000000E+00
  0.00000000E+00  0.00000000E+00  0.00000000E+00
  0.00000000E+00  0.00000000E+00  0.00000000E+00
  0.00000000E+00  0.00000000E+00  0.00000000E+00
  0.00000000E+00  0.00000000E+00  0.00000000E+00
  0.00000000E+00  0.00000000E+00  0.00000000E+00
  0.00000000E+00  0.00000000E+00  0.00000000E+00
  0.00000000E+00  0.00000000E+00  0.00000000E+00
  0.00000000E+00  0.00000000E+00  0.00000000E+00
  0.00000000E+00  0.00000000E+00  0.00000000E+00
  0.00000000E+00  0.00000000E+00  0.00000000E+00
  0.00000000E+00  0.00000000E+00  0.00000000E+00
  0.00000000E+00  0.00000000E+00  0.00000000E+00
  0.00000000E+00  0.00000000E+00  0.00000000E+00
  0.00000000E+00  0.00000000E+00  0.00000000E+00
  0.00000000E+00  0.00000000E+00  0.00000000E+00
  0.00000000E+00  0.00000000E+00  0.00000000E+00
  0.00000000E+00  0.00000000E+00  0.00000000E+00
  0.00000000E+00  0.00000000E+00  0.00000000E+00
  0.00000000E+00  0.00000000E+00  0.00000000E+00
  0.00000000E+00  0.00000000E+00  0.00000000E+00
  0.00000000E+00  0.00000000E+00  0.00000000E+00
  0.00000000E+00  0.00000000E+00  0.00000000E+00
  0.00000000E+00  0.00000000E+00  0.00000000E+00
  0.00000000E+00  0.00000000E+00  0.00000000E+00
  0.00000000E+00  0.00000000E+00  0.00000000E+00
  0.00000000E+00  0.00000000E+00  0.00000000E+00
  0.00000000E+00  0.00000000E+00  0.00000000E+00
  0.00000000E+00  0.00000000E+00  0.00000000E+00
  0.00000000E+00  0.00000000E+00  0.00000000E+00
  0.00000000E+00  0.00000000E+00  0.00000000E+00
  0.00000000E+00  0.00000000E+00  0.00000000E+00
  0.00000000E+00  0.00000000E+00  0.00000000E+00
  0.00000000E+00  0.00000000E+00  0.00000000E+00
  0.00000000E+00  0.00000000E+00  0.00000000E+00
  0.00000000E+00  0.00000000E+00  0.00000000E+00
  0.00000000E+00  0.00000000E+00  0.00000000E+00
  0.00000000E+00  0.00000000E+00  0.00000000E+00
  0.00000000E+00  0.00000000E+00  0.00000000E+00
  0.00000000E+00  0.00000000E+00  0.00000000E+00
  0.00000000E+00  0.00000000E+00  0.00000000E+00
  0.00000000E+00  0.00000000E+00  0.00000000E+00
  0.00000000E+00  0.00000000E+00  0.00000000E+00
  0.00000000E+00  0.00000000E+00  0.00000000E+00
  0.00000000E+00  0.00000000E+00  0.00000000E+00
  0.00000000E+00  0.00000000E+00  0.00000000E+00
  0.00000000E+00  0.00000000E+00  0.00000000E+00
  0.00000000E+00  0.00000000E+00  0.00000000E+00
  0.00000000E+00  0.00000000E+00  0.00000000E+00
  0.00000000E+00  0.00000000E+00  0.00000000E+00
  0.00000000E+00  0.00000000E+00  0.00000000E+00
  0.00000000E+00  0.00000000E+00  0.00000000E+00
  0.00000000E+00  0.00000000E+00  0.00000000E+00
  0.00000000E+00  0.00000000E+00  0.00000000E+00
  0.00000000E+00  0.00000000E+00  0.00000000E+00
  0.00000000E+00  0.00000000E+00  0.00000000E+00
  0.00000000E+00  0.00000000E+00  0.00000000E+00
  0.00000000E+00  0.00000000E+00  0.00000000E+00
  0.00000000E+00  0.00000000E+00  0.00000000E+00
  0.00000000E+00  0.00000000E+00  0.00000000E+00
  0.00000000E+00  0.00000000E+00  0.00000000E+00
  0.00000000E+00  0.00000000E+00  0.00000000E+00
  0.00000000E+00  0.00000000E+00  0.00000000E+00
  0.00000000E+00  0.00000000E+00  0.00000000E+00
  0.00000000E+00  0.00000000E+00  0.00000000E+00
  0.00000000E+00  0.00000000E+00  0.00000000E+00
  0.00000000E+00  0.00000000E+00  0.00000000E+00
  0.00000000E+00  0.00000000E+00  0.00000000E+00
  0.00000000E+00  0.00000000E+00  0.00000000E+00
  0.00000000E+00  0.00000000E+00  0.00000000E+00
  0.00000000E+00  0.00000000E+00  0.00000000E+00
  0.00000000E+00  0.00000000E+00  0.00000000E+00
  0.00000000E+00  0.00000000E+00  0.00000000E+00
  0.00000000E+00  0.00000000E+00  0.00000000E+00
  0.00000000E+00  0.00000000E+00  0.00000000E+00
  0.00000000E+00  0.00000000E+00  0.00000000E+00
  0.00000000E+00  0.00000000E+00  0.00000000E+00
  0.00000000E+00  0.00000000E+00  0.00000000E+00
  0.00000000E+00  0.00000000E+00  0.00000000E+00
  0.00000000E+00  0.00000000E+00  0.00000000E+00
  0.00000000E+00  0.00000000E+00  0.00000000E+00
  0.00000000E+00  0.00000000E+00  0.00000000E+00
  0.00000000E+00  0.00000000E+00  0.00000000E+00
  0.00000000E+00  0.00000000E+00  0.00000000E+00
  0.00000000E+00  0.00000000E+00  0.00000000E+00
  0.00000000E+00  0.00000000E+00  0.00000000E+00
  0.00000000E+00  0.00000000E+00  0.00000000E+00
  0.00000000E+00  0.00000000E+00  0.00000000E+00
  0.00000000E+00  0.00000000E+00  0.00000000E+00
  0.00000000E+00  0.00000000E+00  0.00000000E+00
  0.00000000E+00  0.00000000E+00  0.00000000E+00
  0.00000000E+00  0.00000000E+00  0.00000000E+00
  0.00000000E+00  0.00000000E+00  0.00000000E+00
  0.00000000E+00  0.00000000E+00  0.00000000E+00
  0.00000000E+00  0.00000000E+00  0.00000000E+00
  0.00000000E+00  0.00000000E+00  0.00000000E+00
  0.00000000E+00  0.00000000E+00  0.00000000E+00
  0.00000000E+00  0.00000000E+00  0.00000000E+00
  0.00000000E+00  0.00000000E+00  0.00000000E+00
  0.00000000E+00  0.00000000E+00  0.00000000E+00
  0.00000000E+00  0.00000000E+00  0.00000000E+00
  0.00000000E+00  0.00000000E+00  0.00000000E+00
  0.00000000E+00  0.00000000E+00  0.00000000E+00
  0.00000000E+00  0.00000000E+00  0.00000000E+00
  0.00000000E+00  0.00000000E+00  0.00000000E+00
  0.00000000E+00  0.00000000E+00  0.00000000E+00
  0.00000000E+00  0.00000000E+00  0.00000000E+00
  0.00000000E+00  0.00000000E+00  0.00000000E+00
  0.00000000E+00  0.00000000E+00  0.00000000E+00
  0.00000000E+00  0.00000000E+00  0.00000000E+00
  0.00000000E+00  0.00000000E+00  0.00000000E+00
  0.00000000E+00  0.00000000E+00  0.00000000E+00
  0.00000000E+00  0.00000000E+00  0.00000000E+00
  0.00000000E+00  0.00000000E+00  0.00000000E+00
  0.00000000E+00  0.00000000E+00  0.00000000E+00
  0.00000000E+00  0.00000000E+00  0.00000000E+00
  0.00000000E+00  0.00000000E+00  0.00000000E+00
  0.00000000E+00  0.00000000E+00  0.00000000E+00
  0.00000000E+00  0.00000000E+00  0.00000000E+00
  0.00000000E+00  0.00000000E+00  0.00000000E+00
  0.00000000E+00  0.00000000E+00  0.00000000E+00
  0.00000000E+00  0.00000000E+00  0.00000000E+00
  0.00000000E+00  0.00000000E+00  0.00000000E+00
  0.00000000E+00  0.00000000E+00  0.00000000E+00
  0.00000000E+00  0.00000000E+00  0.00000000E+00
  0.00000000E+00  0.00000000E+00  0.00000000E+00
  0.00000000E+00  0.00000000E+00  0.00000000E+00
  0.00000000E+00  0.00000000E+00  0.00000000E+00
  0.00000000E+00  0.00000000E+00  0.00000000E+00
  0.00000000E+00  0.00000000E+00  0.00000000E+00
  0.00000000E+00  0.00000000E+00  0.00000000E+00
  0.00000000E+00  0.00000000E+00  0.00000000E+00
  0.00000000E+00  0.00000000E+00  0.00000000E+00
  0.00000000E+00  0.00000000E+00  0.00000000E+00
  0.00000000E+00  0.00000000E+00  0.00000000E+00
  0.00000000E+00  0.00000000E+00  0.00000000E+00
  0.00000000E+00  0.00000000E+00  0.00000000E+00
  0.00000000E+00  0.00000000E+00  0.00000000E+00
  0.00000000E+00  0.00000000E+00  0.00000000E+00
  0.00000000E+00  0.00000000E+00  0.00000000E+00
  0.00000000E+00  0.00000000E+00  0.00000000E+00
  0.00000000E+00  0.00000000E+00  0.00000000E+00
  0.00000000E+00  0.00000000E+00  0.00000000E+00
  0.00000000E+00  0.00000000E+00  0.00000000E+00
  0.00000000E+00  0.00000000E+00  0.00000000E+00
  0.00000000E+00  0.00000000E+00  0.00000000E+00
  0.00000000E+00  0.00000000E+00  0.00000000E+00
  0.00000000E+00  0.00000000E+00  0.00000000E+00
  0.00000000E+00  0.00000000E+00  0.00000000E+00
  0.00000000E+00  0.00000000E+00  0.00000000E+00
  0.00000000E+00  0.00000000E+00  0.00000000E+00
  0.00000000E+00  0.00000000E+00  0.00000000E+00
  0.00000000E+00  0.00000000E+00  0.00000000E+00
  0.00000000E+00  0.00000000E+00  0.00000000E+00
  0.00000000E+00  0.00000000E+00  0.00000000E+00
  0.00000000E+00  0.00000000E+00  0.00000000E+00
  0.00000000E+00  0.00000000E+00  0.00000000E+00
  0.00000000E+00  0.00000000E+00  0.00000000E+00