Amorphous GeAsSeSi                      
   1.00000000000000     
    20.5645921067747288    0.0000000000000000    0.0000000000000000
     0.0000000000000000   20.5645921067747288    0.0000000000000000
     0.0000000000000000    0.0000000000000000   20.5645921067747288
   Ge   In   Se   Te
    22    12    12   194
Direct
  0.1937474495797338  0.2325132289586196  0.6166370753837764
  0.9919422385806742  0.2911906477341297  0.0816796614964667
  0.8614194860735241  0.6379275745385460  0.3771916708035363
  0.9080835744992647  0.3532951559415559  0.9989607117536314
  0.1494624119174092  0.0015766496271873  0.4215879275300273
  0.5107511452713112  0.6791884372601968  0.1310368428650249
  0.5801818028406139  0.4857919461943238  0.0114681201299960
  0.3821374267133766  0.4459039868478052  0.4129643213139984
  0.1382082618287863  0.2458204036471904  0.3419835420102362
  0.3147459780219827  0.2871565637070819  0.2687453956577124
  0.6640556789662226  0.2171372432942085  0.8418316460310949
  0.0844307478539472  0.3156242560288335  0.8987701570553620
  0.3182634380131801 -0.0043205315620130  0.4868737347422007
  0.7792475847070651  0.1824013567782883 -0.0360537199253300
  0.1798707453327564  0.5973219899694423  0.8579344738791206
  0.1549796166836411  0.9292082832712131  0.9347349947965089
  0.7478941137985915  0.9986059586482960  0.3400437030922008
  0.3642286120101969  0.3982029252010719  0.7625183250154854
  0.3485047952528414  0.1168370825585640  0.7719537340000348
  0.8440373135615885  0.8132306078557459  0.6356369330220411
  0.2894867030191950  0.3040135893090938  0.7296205833872565
  0.6895251187975635  0.4932293013557315  0.4071873169562306
  0.4153508333685185  0.8176132542471868  0.8642310867274431
  0.4025119276511351  0.0030279908905231  0.2515008322701880
  0.7295460836796716  0.6885656740837292  0.5101756215162436
  0.0403657052395684  0.6169144936733683  0.3795353213731267
  0.3018739130424201  0.1547278935089060  0.1515309604014179
  0.1816736048430425 -0.0150787659541856  0.1059957070083476
  0.5510129011401564  0.8294612392772719  0.6892130579604298
  0.2742852464741191  0.8094034718918228  0.5031952308518214
  0.6187570819600942  0.8033008961441573  0.3343082728668097
  0.4199779285267156  0.5788472637645823  0.8442397529190724
  0.7348931168889160  0.2243053121922869  0.5205377996491943
  0.9634805102341840  0.2775224915677060  0.3856838302106227
  0.6713608108995158  0.1265545687386506  0.4676323382015292
  0.3175243656322739  0.1089615612271352  0.6594547395371053
  0.6739451421722349  0.6895849022211210  0.3891958593425279
  0.8980586112667538  0.4312971278042710  0.8404954805659408
  0.9330380682276882  0.5471600993569464  0.3238056996549694
  0.0731069316960168  0.3439131668404397  0.3705909485498550
  0.5684974502196756  0.5589923672940083  0.9153928034000318
  0.0330661210762674  0.3230566890874772  0.5968958936379776
  0.6131536282747631  0.3009147723708171  0.1104396112885059
  0.8220762087487701  0.4153830980578763  0.9310726802258008
  0.4006921054034410  0.5262112436160857  0.5067374641477551
  0.9315023426826526  0.1871568383794162  0.0847798552495827
  0.5052609895608503  0.2300797094357867  0.0172587605983383
  0.7960598787286803  0.0720607488118681  0.6152459262682319
  0.8203824996656158  0.2653025243681044  0.0602139449049001
  0.1583980323483117  0.0522788678161746  0.2991002057220435
  0.6682132621126172  0.0533619138832655  0.2487042677286661
  0.4961382410687102  0.5492021441757858  0.1010361162546758
  0.0828715786671557  0.2183679757653503  0.5450033630520832
  0.5716783532231378  0.0014204838515579  0.0646792072132102
  0.1412069537097548  0.5375811331420128  0.3320810143211993
  0.2748222467195809  0.7817922214535831  0.8636603557058453
  0.9646207962429199  0.9036445994289328  0.1289083840346559
  0.6933596318243026  0.1377745588777499  0.7428270834996755
  0.1670940866126965  0.3301280718308910  0.6973909147365729
  0.6109064379650666  0.3492153822097850  0.4125145083750201
  0.9004244569429721  0.1174637791169154  0.9617343039363848
  0.6173930289190075  0.9501112585240492  0.8530813448540410
  0.0416671655784239  0.9444525874089427  0.4661131433274618
  0.9289870002504595  0.6111246820951215  0.8892234659856910
  0.2347667543867701  0.5830321439782592  0.1596516478824355
  0.1597205245164892  0.8125779366633464  0.5885791662861033
  0.3344281584179818  0.8610013272354676  0.1232111461537750
  0.0757712282435175  0.5136218441942254  0.2133052578565980
  0.6069264856110559  0.3400424873180025  0.2727786917209870
  0.7219457205314812  0.8067892546981662  0.2323437989675904
  0.8813683883161806  0.5629442051916420  0.0135901893297632
  0.6135336884063017  0.1422164198886572  0.9367447216139519
 -0.0279691617001191  0.5998156427663365  0.6883894834997637
  0.6551720772469862  0.9275334337341173  0.4025745492250735
  0.3653917015993162  0.1519473178283201  0.2736680715345505
  0.0728355861732164  0.8340435163363311  0.1790348617842226
  0.3459411200575348  0.3912292675200408  0.5764288033681981
  0.2475202326531409  0.4073164148302881  0.4548169997763430
  0.7711942944585529  0.2918323130077940  0.8759993467401156
  0.2538339378115888  0.2762741990330183  0.4074365658515637
  0.5350912989857876  0.7555758175588716  0.5689187198692226
  0.1121050600416111  0.4284790898503293  0.4931582306534523
  0.6924673528939048  0.5649962206210193  0.8846972583283943
  0.6948060403554287  0.4670389026292613  0.5441957212987643
  0.3273382234095106  0.3921364903525957  0.9534291536352226
  0.8209314269545610  0.6412799115527206  0.1724514162375641
 -0.0465082665662934  0.2864723691302343  0.8957301853259516
  0.2850994078835621  0.4985612903082656  0.7775839043818946
  0.8689274814445701  0.7890124445197220  0.7667153640952518
  0.9761271497439918  0.8450132562657432  0.6019709998256453
  0.7709906128427352  0.0501640840107989  0.4771417260083896
  0.5221784381740752  0.0386613503440982  0.9031294390182468
  0.6475780053774141  0.2013535761593029  0.1834540621756494
  0.4179841962517976  0.9287163772336070  0.9479009066763152
  0.8970574691972507  0.3199351582864709  0.5009255181541289
  0.2089446617931696  0.4031482650475534  0.8587934495081678
  0.9370128924120641  0.6740210305736192  0.2401141063713477
  0.2269336681002678  0.6397052839185831  0.6914066925280462
  0.1381119379995022  0.8504726950584075  0.0584395199050906
  0.0287333195118887  0.3053587084540604  0.2080015804485480
  0.4554975240828094  0.7330397558097723  0.0253642072728779
  0.3269737183209554  0.6765915408148060  0.5170072601083932
  0.6647739227399926  0.2665713363721900  0.6373573378220529
  0.2303291059897725  0.0289172067932287  0.9839504695629026
  0.3266864358010892  0.2904573054960743  0.1227819468514827
  0.3439653600087633  0.6476163854900699  0.0992764759123225
  0.2578666332102457  0.9336546832001248  0.2095991919958380
  0.9624808712348659  0.0568528010481873  0.4965468648914454
  0.0423849054986243  0.4726737006920508  0.9154703478841828
  0.2999933938180959  0.2210278617444719  0.8290017554097258
  0.7452313899288641  0.3027467146308649  0.2520492104670545
  0.9774431986976718  0.4308625054537953  0.7045334294269835
  0.6942720449618224  0.3104338046759045 -0.0021157160476560
  0.5580082340463481  0.0118977474990413  0.3156521448644023
  0.1694993341689003  0.9498758839593562  0.5962739441921641
  0.7668591146666902  0.3391090669804107  0.4505365036569732
  0.0504088997413700  0.0142328211760746  0.9564241430557510
  0.1534120104168522  0.6310080520811151  0.0418305605942327
  0.0381872909695354  0.1480656510337454  0.6871611584166009
  0.1734505011732494  0.5129872184625764  0.5820368069818215
  0.0082367850982246  0.1345522036905667  0.8218184648203507
  0.4859861336054032  0.0888470502877754  0.1399916471189414
  0.7690403819369179  0.6786398210937599  0.7367667496382062
  0.3768443959998828  0.0712830376882667  0.0631093823566725
  0.3370011415078826  0.5275582414466936  0.9962160248049472
  0.2774043638722017  0.1201645241338617  0.3914266227785413
  0.2535117644405570  0.7713615242378259  0.7213909052168253
  0.8333442074020107  0.6801934825019752  0.6074267882382729
  0.1817642846491215  0.1232100290590721  0.6890444777601132
  0.6642760965634960  0.5832193783408121  0.7142567628925517
  0.6281395104225135  0.5885306823242289  0.5770563491540719
  0.7798978561578179  0.0077757364323320  0.9888487996341434
  0.4490118117015623  0.4183931923830305  0.6695968188052080
  0.1086566606668248  0.7860954513540777  0.4567362681098490
  0.5553115429581372  0.4718246597548157  0.2029176374830219
  0.1127411259934378  0.2938594413434089  0.0301737565567425
  0.5068575386237348  0.4682399187983263  0.4647752348227706
  0.5340498599313194  0.6982030520693131  0.7459223657200921
  0.5256760890635556  0.8908313425467157  0.2368513183157452
  0.3992348198352311  0.7263964792246784  0.7109157944638812
  0.8989147874300137  0.2690533230215503  0.2582143512900978
  0.5053608869116065  0.7151017123691622  0.8854169566577293
  0.1857314097063099  0.0939874089111913  0.5035024501460675
  0.0269058506623646  0.8211415031694315  0.9020245965131253
  0.9492977922507602  0.6527027423610177  0.4810307288633702
  0.7911869327305390  0.3181275405687113  0.6822745795234185
  0.4326434717079184  0.6842361168243770  0.4204021985195202
  0.5296328879299287  0.6949047801309439  0.3040568211712159
  0.0408722488728242  0.6283301051015673  0.1521216461371142
  0.6585669841189118  0.8131760815069674  0.5404825799322409
  0.6582006911395757  0.4219990207872465  0.8322461615046346
  0.4414484647604116  0.3331623233862886  0.3051713298090475
  0.4625872949889482  0.3002955554209916  0.1309843684638052
  0.1507691824440784  0.1593544972595933 -0.0022587983706319
  0.9676296137973921  0.7291067292025284  0.0198532504485083
  0.3887301082746464  0.8521854458009740  0.3249179454440092
  0.8415710613465579  0.5442711004826423  0.8020359054064886
  0.3565653694632833  0.5837140997968197  0.6836577948342746
  0.2965498725986787  0.6519601771463936  0.9085284991727727
  0.6014025456947270  0.9613288013141204  0.6841269499028371
  0.9588905068448038  0.1105946140530393  0.2747253891591960
  0.9732677777833497  0.5002709093756961  0.5160507743419903
  0.5933512386798592  0.3690948143016842  0.5692386883811827
  0.7066716849264825  0.5297048740937811  0.0332716046334962
  0.8614576186038653  0.1892541535814304  0.5675293360996084
  0.0860836582745194  0.8603471230456680  0.7778334522782562
  0.0863241620807961  0.6766752291031475  0.9211741183460848
  0.3615180459696078  0.5354764812675201  0.3166530991284723
  0.8621884152442438  0.0564220052961063  0.8371756219818055
  0.5488063783304261  0.2243778518735854  0.4305352883762780
  0.4319409213464910  0.3718650256362546  0.8692856928969623
  0.4600159450342988  0.8157146554644300  0.4451615627922451
  0.8066596771853713  0.0832335638579887  0.1729301846266895
  0.1017068157812266  0.4735249286417746  0.7900557105443833
  0.0176176455314957  0.1418955472613549  0.3936593653934166
  0.8242408372785822  0.1669766637194979  0.7659375122692433
  0.7121845215037547  0.7237325112557248  0.8684470663339988
  0.3359497381770556  0.2513115636359194  0.6178068967042151
  0.5806738062858243  0.3106208472897166  0.8029095878136081
  0.4005952108700865  0.1915970240646966  0.4376665595595243
  0.5227307449579598  0.2364714677504177  0.5734599692119614
  0.8118281676085602  0.9055698822058877  0.2690299874580510
  0.7081478163545389  0.6771197120884904  0.0523058243714494
  0.0721313853714638  0.6807494162024154  0.6355283699651227
  0.9854161645735616  0.9299189472229603  0.7100795893425693
  0.4816538210051813  0.1318146698589513  0.7651761347501989
  0.7742254294642306  0.8134729779327373  0.0388786707557675
  0.8018677309273182  0.9544368851985219  0.1198773655946179
  0.4663249126820536  0.2617309882626225  0.7042355358521475
  0.2363623524322359  0.4116061906799411  0.2546341962826854
  0.7369121771707514  0.8542985042779309  0.8205471770967531
  0.9505599562672956  0.7903730331175267  0.4460408324762971
  0.4311629267196863  0.9812684059815002  0.4154008184794010
  0.8129474045354247  0.7732311077521740  0.4123738859215715
  0.8906640504533211  0.9669518919083300  0.5975556152994795
  0.7101742366650715  0.1189822549587484  0.0808942819248582
  0.6993655297179167  0.8364269717982200  0.6813339799709074
  0.2799631990610770  0.9324223778605163  0.6751139565745068
  0.3963378586633683  0.1768511982930478  0.9634986132565312
  0.2718090909196094  0.4563787721027895  0.1252024947547262
  0.4206806753168786  0.8676320179014859  0.7354416048541389
  0.3650141396729953  0.8956116012333680  0.5716330889706606
  0.2461970417060080  0.9124943403600810  0.4064946322358026
  0.6953310648132687  0.4652933626329140  0.1607006830560475
  0.9614904781101787  0.4644442839304731  0.0528193305917868
  0.1772661439062169  0.2917796355531750  0.2161656991691819
  0.4846716542724128  0.0346035801959291  0.6698815640843918
  0.9470770861899924  0.9329375888424699  0.9222065207090664
  0.8791950621661204  0.4596656599511631  0.6078059344354018
  0.1840350608091825 -0.0373199781229486  0.8076259371573762
  0.9106554979897941  0.4426517856466566  0.3959228322525657
  0.1729526083522938  0.5087992494672444  0.9650250605412287
  0.1666270944074658  0.1343098979663354  0.1474331343938769
  0.5028624034757608  0.8762752024901681  0.0441772506776376
  0.7641299259000326  0.5302668865889465  0.2576932321790694
  0.7775442237061180  0.8956997866189284  0.4728087174291025
  0.6379480059261288  0.6819815482371344  0.1686089589894338
  0.7315129720435780  0.4396423529955645  0.7167225839861529
  0.7912457867437901  0.5624494974855562  0.4596386760877958
  0.3225932659139873  0.0125987144674644  0.8370252081696721
  0.8456562552272620  0.4053500344001212  0.2638883398635403
  0.0593737909458800  0.7491428841880059  0.3255160840021386
  0.1760148937355817  0.7248870387256079  0.2525602132781459
  0.2501273191287685  0.7590812684980867  0.0795157436022783
  0.8417145637862530  0.7189801549214985  0.9395791274242361
  0.4160056669425083  0.4418958934136740  0.2282027855828913
  0.0393862211961812 -0.0019215173379000  0.2568427263910306
  0.6667104397824952  0.9213385139903637  0.9805343748547757
  0.1329120878996322  0.1886003500080427  0.8560523306443931
 -0.0157179312252859  0.7059345234921071  0.7741688377664743
  0.1370642365358584  0.6314971694209798  0.5218111121389254
  0.0394171572548391  0.0179917125470142  0.1051255199005515
  0.4413765752605563  0.7535129683353455  0.2190647799299482
  0.2559643463055215  0.6097885456488826  0.4157389989567189
  0.8766807681139591  0.7663612498448165  0.1201154962698976
  0.2789720745489782  0.7300697653388233  0.3396447707035167
 -0.0135887117747663  0.2867037397193253  0.7123962500493186
  0.5913864478696661  0.5847478823069919  0.4218646236940505
  0.4672985433444548  0.0885522757750412  0.4952594512486950
  0.6361043890771162  0.9005804969243076  0.1568454525161028
 
  0.00000000E+00  0.00000000E+00  0.00000000E+00
  0.00000000E+00  0.00000000E+00  0.00000000E+00
  0.00000000E+00  0.00000000E+00  0.00000000E+00
  0.00000000E+00  0.00000000E+00  0.00000000E+00
  0.00000000E+00  0.00000000E+00  0.00000000E+00
  0.00000000E+00  0.00000000E+00  0.00000000E+00
  0.00000000E+00  0.00000000E+00  0.00000000E+00
  0.00000000E+00  0.00000000E+00  0.00000000E+00
  0.00000000E+00  0.00000000E+00  0.00000000E+00
  0.00000000E+00  0.00000000E+00  0.00000000E+00
  0.00000000E+00  0.00000000E+00  0.00000000E+00
  0.00000000E+00  0.00000000E+00  0.00000000E+00
  0.00000000E+00  0.00000000E+00  0.00000000E+00
  0.00000000E+00  0.00000000E+00  0.00000000E+00
  0.00000000E+00  0.00000000E+00  0.00000000E+00
  0.00000000E+00  0.00000000E+00  0.00000000E+00
  0.00000000E+00  0.00000000E+00  0.00000000E+00
  0.00000000E+00  0.00000000E+00  0.00000000E+00
  0.00000000E+00  0.00000000E+00  0.00000000E+00
  0.00000000E+00  0.00000000E+00  0.00000000E+00
  0.00000000E+00  0.00000000E+00  0.00000000E+00
  0.00000000E+00  0.00000000E+00  0.00000000E+00
  0.00000000E+00  0.00000000E+00  0.00000000E+00
  0.00000000E+00  0.00000000E+00  0.00000000E+00
  0.00000000E+00  0.00000000E+00  0.00000000E+00
  0.00000000E+00  0.00000000E+00  0.00000000E+00
  0.00000000E+00  0.00000000E+00  0.00000000E+00
  0.00000000E+00  0.00000000E+00  0.00000000E+00
  0.00000000E+00  0.00000000E+00  0.00000000E+00
  0.00000000E+00  0.00000000E+00  0.00000000E+00
  0.00000000E+00  0.00000000E+00  0.00000000E+00
  0.00000000E+00  0.00000000E+00  0.00000000E+00
  0.00000000E+00  0.00000000E+00  0.00000000E+00
  0.00000000E+00  0.00000000E+00  0.00000000E+00
  0.00000000E+00  0.00000000E+00  0.00000000E+00
  0.00000000E+00  0.00000000E+00  0.00000000E+00
  0.00000000E+00  0.00000000E+00  0.00000000E+00
  0.00000000E+00  0.00000000E+00  0.00000000E+00
  0.00000000E+00  0.00000000E+00  0.00000000E+00
  0.00000000E+00  0.00000000E+00  0.00000000E+00
  0.00000000E+00  0.00000000E+00  0.00000000E+00
  0.00000000E+00  0.00000000E+00  0.00000000E+00
  0.00000000E+00  0.00000000E+00  0.00000000E+00
  0.00000000E+00  0.00000000E+00  0.00000000E+00
  0.00000000E+00  0.00000000E+00  0.00000000E+00
  0.00000000E+00  0.00000000E+00  0.00000000E+00
  0.00000000E+00  0.00000000E+00  0.00000000E+00
  0.00000000E+00  0.00000000E+00  0.00000000E+00
  0.00000000E+00  0.00000000E+00  0.00000000E+00
  0.00000000E+00  0.00000000E+00  0.00000000E+00
  0.00000000E+00  0.00000000E+00  0.00000000E+00
  0.00000000E+00  0.00000000E+00  0.00000000E+00
  0.00000000E+00  0.00000000E+00  0.00000000E+00
  0.00000000E+00  0.00000000E+00  0.00000000E+00
  0.00000000E+00  0.00000000E+00  0.00000000E+00
  0.00000000E+00  0.00000000E+00  0.00000000E+00
  0.00000000E+00  0.00000000E+00  0.00000000E+00
  0.00000000E+00  0.00000000E+00  0.00000000E+00
  0.00000000E+00  0.00000000E+00  0.00000000E+00
  0.00000000E+00  0.00000000E+00  0.00000000E+00
  0.00000000E+00  0.00000000E+00  0.00000000E+00
  0.00000000E+00  0.00000000E+00  0.00000000E+00
  0.00000000E+00  0.00000000E+00  0.00000000E+00
  0.00000000E+00  0.00000000E+00  0.00000000E+00
  0.00000000E+00  0.00000000E+00  0.00000000E+00
  0.00000000E+00  0.00000000E+00  0.00000000E+00
  0.00000000E+00  0.00000000E+00  0.00000000E+00
  0.00000000E+00  0.00000000E+00  0.00000000E+00
  0.00000000E+00  0.00000000E+00  0.00000000E+00
  0.00000000E+00  0.00000000E+00  0.00000000E+00
  0.00000000E+00  0.00000000E+00  0.00000000E+00
  0.00000000E+00  0.00000000E+00  0.00000000E+00
  0.00000000E+00  0.00000000E+00  0.00000000E+00
  0.00000000E+00  0.00000000E+00  0.00000000E+00
  0.00000000E+00  0.00000000E+00  0.00000000E+00
  0.00000000E+00  0.00000000E+00  0.00000000E+00
  0.00000000E+00  0.00000000E+00  0.00000000E+00
  0.00000000E+00  0.00000000E+00  0.00000000E+00
  0.00000000E+00  0.00000000E+00  0.00000000E+00
  0.00000000E+00  0.00000000E+00  0.00000000E+00
  0.00000000E+00  0.00000000E+00  0.00000000E+00
  0.00000000E+00  0.00000000E+00  0.00000000E+00
  0.00000000E+00  0.00000000E+00  0.00000000E+00
  0.00000000E+00  0.00000000E+00  0.00000000E+00
  0.00000000E+00  0.00000000E+00  0.00000000E+00
  0.00000000E+00  0.00000000E+00  0.00000000E+00
  0.00000000E+00  0.00000000E+00  0.00000000E+00
  0.00000000E+00  0.00000000E+00  0.00000000E+00
  0.00000000E+00  0.00000000E+00  0.00000000E+00
  0.00000000E+00  0.00000000E+00  0.00000000E+00
  0.00000000E+00  0.00000000E+00  0.00000000E+00
  0.00000000E+00  0.00000000E+00  0.00000000E+00
  0.00000000E+00  0.00000000E+00  0.00000000E+00
  0.00000000E+00  0.00000000E+00  0.00000000E+00
  0.00000000E+00  0.00000000E+00  0.00000000E+00
  0.00000000E+00  0.00000000E+00  0.00000000E+00
  0.00000000E+00  0.00000000E+00  0.00000000E+00
  0.00000000E+00  0.00000000E+00  0.00000000E+00
  0.00000000E+00  0.00000000E+00  0.00000000E+00
  0.00000000E+00  0.00000000E+00  0.00000000E+00
  0.00000000E+00  0.00000000E+00  0.00000000E+00
  0.00000000E+00  0.00000000E+00  0.00000000E+00
  0.00000000E+00  0.00000000E+00  0.00000000E+00
  0.00000000E+00  0.00000000E+00  0.00000000E+00
  0.00000000E+00  0.00000000E+00  0.00000000E+00
  0.00000000E+00  0.00000000E+00  0.00000000E+00
  0.00000000E+00  0.00000000E+00  0.00000000E+00
  0.00000000E+00  0.00000000E+00  0.00000000E+00
  0.00000000E+00  0.00000000E+00  0.00000000E+00
  0.00000000E+00  0.00000000E+00  0.00000000E+00
  0.00000000E+00  0.00000000E+00  0.00000000E+00
  0.00000000E+00  0.00000000E+00  0.00000000E+00
  0.00000000E+00  0.00000000E+00  0.00000000E+00
  0.00000000E+00  0.00000000E+00  0.00000000E+00
  0.00000000E+00  0.00000000E+00  0.00000000E+00
  0.00000000E+00  0.00000000E+00  0.00000000E+00
  0.00000000E+00  0.00000000E+00  0.00000000E+00
  0.00000000E+00  0.00000000E+00  0.00000000E+00
  0.00000000E+00  0.00000000E+00  0.00000000E+00
  0.00000000E+00  0.00000000E+00  0.00000000E+00
  0.00000000E+00  0.00000000E+00  0.00000000E+00
  0.00000000E+00  0.00000000E+00  0.00000000E+00
  0.00000000E+00  0.00000000E+00  0.00000000E+00
  0.00000000E+00  0.00000000E+00  0.00000000E+00
  0.00000000E+00  0.00000000E+00  0.00000000E+00
  0.00000000E+00  0.00000000E+00  0.00000000E+00
  0.00000000E+00  0.00000000E+00  0.00000000E+00
  0.00000000E+00  0.00000000E+00  0.00000000E+00
  0.00000000E+00  0.00000000E+00  0.00000000E+00
  0.00000000E+00  0.00000000E+00  0.00000000E+00
  0.00000000E+00  0.00000000E+00  0.00000000E+00
  0.00000000E+00  0.00000000E+00  0.00000000E+00
  0.00000000E+00  0.00000000E+00  0.00000000E+00
  0.00000000E+00  0.00000000E+00  0.00000000E+00
  0.00000000E+00  0.00000000E+00  0.00000000E+00
  0.00000000E+00  0.00000000E+00  0.00000000E+00
  0.00000000E+00  0.00000000E+00  0.00000000E+00
  0.00000000E+00  0.00000000E+00  0.00000000E+00
  0.00000000E+00  0.00000000E+00  0.00000000E+00
  0.00000000E+00  0.00000000E+00  0.00000000E+00
  0.00000000E+00  0.00000000E+00  0.00000000E+00
  0.00000000E+00  0.00000000E+00  0.00000000E+00
  0.00000000E+00  0.00000000E+00  0.00000000E+00
  0.00000000E+00  0.00000000E+00  0.00000000E+00
  0.00000000E+00  0.00000000E+00  0.00000000E+00
  0.00000000E+00  0.00000000E+00  0.00000000E+00
  0.00000000E+00  0.00000000E+00  0.00000000E+00
  0.00000000E+00  0.00000000E+00  0.00000000E+00
  0.00000000E+00  0.00000000E+00  0.00000000E+00
  0.00000000E+00  0.00000000E+00  0.00000000E+00
  0.00000000E+00  0.00000000E+00  0.00000000E+00
  0.00000000E+00  0.00000000E+00  0.00000000E+00
  0.00000000E+00  0.00000000E+00  0.00000000E+00
  0.00000000E+00  0.00000000E+00  0.00000000E+00
  0.00000000E+00  0.00000000E+00  0.00000000E+00
  0.00000000E+00  0.00000000E+00  0.00000000E+00
  0.00000000E+00  0.00000000E+00  0.00000000E+00
  0.00000000E+00  0.00000000E+00  0.00000000E+00
  0.00000000E+00  0.00000000E+00  0.00000000E+00
  0.00000000E+00  0.00000000E+00  0.00000000E+00
  0.00000000E+00  0.00000000E+00  0.00000000E+00
  0.00000000E+00  0.00000000E+00  0.00000000E+00
  0.00000000E+00  0.00000000E+00  0.00000000E+00
  0.00000000E+00  0.00000000E+00  0.00000000E+00
  0.00000000E+00  0.00000000E+00  0.00000000E+00
  0.00000000E+00  0.00000000E+00  0.00000000E+00
  0.00000000E+00  0.00000000E+00  0.00000000E+00
  0.00000000E+00  0.00000000E+00  0.00000000E+00
  0.00000000E+00  0.00000000E+00  0.00000000E+00
  0.00000000E+00  0.00000000E+00  0.00000000E+00
  0.00000000E+00  0.00000000E+00  0.00000000E+00
  0.00000000E+00  0.00000000E+00  0.00000000E+00
  0.00000000E+00  0.00000000E+00  0.00000000E+00
  0.00000000E+00  0.00000000E+00  0.00000000E+00
  0.00000000E+00  0.00000000E+00  0.00000000E+00
  0.00000000E+00  0.00000000E+00  0.00000000E+00
  0.00000000E+00  0.00000000E+00  0.00000000E+00
  0.00000000E+00  0.00000000E+00  0.00000000E+00
  0.00000000E+00  0.00000000E+00  0.00000000E+00
  0.00000000E+00  0.00000000E+00  0.00000000E+00
  0.00000000E+00  0.00000000E+00  0.00000000E+00
  0.00000000E+00  0.00000000E+00  0.00000000E+00
  0.00000000E+00  0.00000000E+00  0.00000000E+00
  0.00000000E+00  0.00000000E+00  0.00000000E+00
  0.00000000E+00  0.00000000E+00  0.00000000E+00
  0.00000000E+00  0.00000000E+00  0.00000000E+00
  0.00000000E+00  0.00000000E+00  0.00000000E+00
  0.00000000E+00  0.00000000E+00  0.00000000E+00
  0.00000000E+00  0.00000000E+00  0.00000000E+00
  0.00000000E+00  0.00000000E+00  0.00000000E+00
  0.00000000E+00  0.00000000E+00  0.00000000E+00
  0.00000000E+00  0.00000000E+00  0.00000000E+00
  0.00000000E+00  0.00000000E+00  0.00000000E+00
  0.00000000E+00  0.00000000E+00  0.00000000E+00
  0.00000000E+00  0.00000000E+00  0.00000000E+00
  0.00000000E+00  0.00000000E+00  0.00000000E+00
  0.00000000E+00  0.00000000E+00  0.00000000E+00
  0.00000000E+00  0.00000000E+00  0.00000000E+00
  0.00000000E+00  0.00000000E+00  0.00000000E+00
  0.00000000E+00  0.00000000E+00  0.00000000E+00
  0.00000000E+00  0.00000000E+00  0.00000000E+00
  0.00000000E+00  0.00000000E+00  0.00000000E+00
  0.00000000E+00  0.00000000E+00  0.00000000E+00
  0.00000000E+00  0.00000000E+00  0.00000000E+00
  0.00000000E+00  0.00000000E+00  0.00000000E+00
  0.00000000E+00  0.00000000E+00  0.00000000E+00
  0.00000000E+00  0.00000000E+00  0.00000000E+00
  0.00000000E+00  0.00000000E+00  0.00000000E+00
  0.00000000E+00  0.00000000E+00  0.00000000E+00
  0.00000000E+00  0.00000000E+00  0.00000000E+00
  0.00000000E+00  0.00000000E+00  0.00000000E+00
  0.00000000E+00  0.00000000E+00  0.00000000E+00
  0.00000000E+00  0.00000000E+00  0.00000000E+00
  0.00000000E+00  0.00000000E+00  0.00000000E+00
  0.00000000E+00  0.00000000E+00  0.00000000E+00
  0.00000000E+00  0.00000000E+00  0.00000000E+00
  0.00000000E+00  0.00000000E+00  0.00000000E+00
  0.00000000E+00  0.00000000E+00  0.00000000E+00
  0.00000000E+00  0.00000000E+00  0.00000000E+00
  0.00000000E+00  0.00000000E+00  0.00000000E+00
  0.00000000E+00  0.00000000E+00  0.00000000E+00
  0.00000000E+00  0.00000000E+00  0.00000000E+00
  0.00000000E+00  0.00000000E+00  0.00000000E+00
  0.00000000E+00  0.00000000E+00  0.00000000E+00
  0.00000000E+00  0.00000000E+00  0.00000000E+00
  0.00000000E+00  0.00000000E+00  0.00000000E+00
  0.00000000E+00  0.00000000E+00  0.00000000E+00
  0.00000000E+00  0.00000000E+00  0.00000000E+00
  0.00000000E+00  0.00000000E+00  0.00000000E+00
  0.00000000E+00  0.00000000E+00  0.00000000E+00
  0.00000000E+00  0.00000000E+00  0.00000000E+00
  0.00000000E+00  0.00000000E+00  0.00000000E+00
  0.00000000E+00  0.00000000E+00  0.00000000E+00
  0.00000000E+00  0.00000000E+00  0.00000000E+00
  0.00000000E+00  0.00000000E+00  0.00000000E+00
  0.00000000E+00  0.00000000E+00  0.00000000E+00
  0.00000000E+00  0.00000000E+00  0.00000000E+00
  0.00000000E+00  0.00000000E+00  0.00000000E+00
  0.00000000E+00  0.00000000E+00  0.00000000E+00
  0.00000000E+00  0.00000000E+00  0.00000000E+00
