Amorphous GeAsSeSi                      
   1.00000000000000     
    20.2175889857162652    0.0000000000000000    0.0000000000000000
     0.0000000000000000   20.2175889857162652    0.0000000000000000
     0.0000000000000000    0.0000000000000000   20.2175889857162652
   Ge   As   Se   Si
    75    75    75    75
Direct
  0.7501668920558444  0.0482497163316538  0.6692217975286709
  0.8840455668892631  0.6771475833076153  0.8079495365313036
  0.3322021563178694  0.0044751168985542  0.9364474097386974
  0.9005254882207154  0.2636464325305639  0.8554940558535336
  0.8153119109969680  0.8215516791060793  0.1143561064692733
  0.6480334985236453  0.6315404583483328  0.8040429881673461
  0.6762504349104645  0.9547080397276844  0.6239563969181674
  0.5836149577834178  0.8281630911941988  0.3840337038152413
  0.8422472192872164  0.2136087373670037  0.2076536748864442
  0.5314603916935212  0.0053443407349647  0.5391195753770290
  0.3622638115086687  0.1013208630455154  0.3776804135006984
  0.4712425711016692  0.3861014976024038  0.3158301936216006
  0.5142895292351497  0.0151526948974876  0.0512576379760361
  0.9879285506338888  0.9737579150900117  0.5661374131006767
  0.1064247238939515  0.4592558496716208  0.0949195994473371
  0.6705660279338588  0.5137330785147043  0.9257295965243202
  0.8288806414050569  0.4554176345188949  0.4658453768780078
  0.0873270314939205  0.5886120335306657  0.0710864137551539
  0.4049062402109200  0.1328277145009054  0.5911712945605032
  0.5708916720391244  0.7669838430320510  0.9391295266852424
  0.9194609553709441  0.1748175684075690  0.3475720220717093
  0.1540040040795247  0.7909985064218716  0.4652450429148161
  0.4732848972446817  0.8732930548695279  0.8038544438502271
  0.6948683873296631  0.3902921804641437  0.8312340372434122
  0.9089330443563384  0.4236879748359854  0.0927431983340838
  0.5729660096652793  0.5882000648063936  0.8952393697754673
  0.5471240447721968  0.8952923692046753  0.0791288551008549
  0.5688160882990729  0.7740786058879792  0.6072428411602573
  0.4648182409397705  0.0619609322238404  0.4472007647522958
  0.1870291013441445  0.4299790160729557  0.6416120450350391
  0.6198891639208384  0.0617168252556581  0.9038223783030119
  0.1008411636567388  0.4593575144383806  0.7830038185918013
  0.4187009119870524  0.4859562495633014  0.5844059519894387
  0.5773814855500348  0.3332553622697887  0.1437921427457312
  0.0541917373922018  0.7834014373697116  0.8247436559782599
  0.7536193723834899  0.4941228111136056  0.0195678195535933
  0.8366591735678384  0.7550457305485736  0.0097205167218419
  0.7657788388181004  0.3067339287011421  0.2518596301422420
  0.0757046865911875  0.0559304997769132  0.2293173268104809
  0.8161990623976010  0.6295858047025078  0.0241465305012554
  0.9211323161566085  0.4072964742766132  0.5365900112212785
  0.4158307938553278  0.0831828762870899  0.8838381441236791
  0.4462654308133267  0.9506478519649022  0.3413132000061836
  0.1553173619830304  0.5190806882916092  0.2054715018008793
  0.1739762713486073  0.3879446832703621  0.3025077715601725
  0.4278196074381739  0.3010737448507328  0.6327166381692138
  0.0103780060983922  0.2883416018074882  0.4309710973385847
  0.9081958699398172  0.8788095633715471  0.6029927057231816
  0.3087610386299389  0.4474410832557680  0.2294883136214310
  0.2264499357282830  0.0789697825460038  0.9327982971311002
  0.5915076375242450  0.5638862071746189  0.7095075682564556
  0.8902415158341626  0.1375024557620108  0.7689539505469298
  0.4886912905146090  0.1887827743928554  0.4814336505277836
  0.2682063419471206  0.5795325187279374  0.8481049612393932
  0.2035677374145237  0.4958961824463586  0.4945422932508734
  0.8047993227737464  0.6863598402401792  0.4836522873806075
  0.1357904785313266  0.5682100179787568  0.3916616568228193
  0.9671249477217359  0.3190634780123318  0.0416274362594464
  0.9533083175209214  0.2207858372785054  0.6965791617817203
  0.1975932945830081  0.8444048817931389  0.2120034684584979
  0.5318728116440710  0.5617775040039490  0.5895881123434847
  0.1021015097196667  0.5814855652832591  0.6510202085512518
  0.9697911473268661  0.2009194079924157  0.5521705038995606
  0.5483377212440175  0.2632383365509128  0.6548868333511848
  0.3005442994003644  0.4687194970782613  0.1088858255296969
  0.5398687542295875  0.2720606945694755  0.4059243832857646
  0.6723097807466516  0.3044053251103875  0.3503554960024289
  0.6046790040552352  0.8959174580297784  0.2663270224454379
  0.8333362191997793  0.4918286610785145  0.3481846699756233
  0.7033198565206931  0.4238009895025527  0.5856966727638238
  0.6396995364364955  0.6632990538771466  0.3141843338539516
  0.2299612485907616  0.9565682955161066  0.3055726908389857
  0.2935830511458661  0.8591682105435297  0.9724763561067533
  0.1809069519087387  0.5557707896819650  0.7528192327425174
  0.3074460682848112  0.6410204289078649  0.9913853715862757
  0.7053709880413379  0.3042258300844978  0.0239958745608746
  0.8579332824004027  0.4061773384420349  0.2596953467468239
  0.1243882889843917  0.5924061900385382  0.5291154414426202
  0.3517744129763400  0.3424623820888186  0.4421187891657468
  0.1917444956064358  0.6935510425255131  0.5519366334400857
  0.8780593150966141  0.3545261459708513  0.9439744690974550
  0.2499241888987385  0.3731923757237965  0.8753072519459337
  0.4966698099571616  0.8614196122592475  0.9663300569018745
  0.3036755688043797  0.5408578432006195  0.5622858784505382
  0.4774840278390755  0.2428727761623648  0.9480016154418180
  0.6716163188257411  0.5127719057309292  0.4438479064190020
  0.4022014014537660  0.0113631915708226  0.5610041338620775
  0.2281094152974319  0.4990112762650369  0.3120728604250687
  0.7167183596327007  0.8872301943127212  0.1487062673117734
  0.3173184550619439  0.9060323238388150  0.8564254365105768
  0.1291596377897761  0.8443824234554853  0.9076657130042278
  0.5206220792018783  0.6556019379129125  0.9866877306604920
  0.1575042336303909  0.0037608591512921  0.7858566791180337
  0.7616957154123725  0.1684347189266902  0.1185884278350429
  0.0243864203114654  0.6749185367297628  0.6841171661665157
  0.6150363393294001  0.7707618614428142  0.2368983727992742
  0.9848733448377587  0.7400121917177245  0.2818498617878475
  0.4720077886005996  0.6829817674764769  0.4642114635693702
  0.7700806742038324  0.5618659473125618  0.5070169823519990
  0.4351498363253654  0.4694511727567132  0.2315916171133523
  0.8142539948069256  0.1273342996554376  0.2981225326013544
  0.3656769337765553  0.8378067246852794  0.5441960091805953
  0.5601847109713844  0.8671525602169936  0.5065973552984175
  0.8084505983111683  0.2338457689236151  0.0242969787353786
  0.6035066439730556  0.4083518867108182  0.9154165604150606
  0.0997539865790316  0.6736923798350674  0.7818106156335958
  0.5780124138600371  0.3348753457109410  0.2695712535303727
  0.4128250946716037  0.6512503458124712  0.3602744534559434
  0.6089553782864101  0.7370213425272283  0.7443413932087779
  0.0830015128796546  0.9047446525738252  0.2102302743831928
  0.7586479069749785  0.3839254906045255  0.9472276336299998
  0.7093578808439887  0.8046264957463407  0.3841008026782404
  0.8149061763091083  0.6187296500155171  0.8959981669368489
  0.2650451694290652  0.7118195005803685  0.8407848441896348
  0.6897688150032266  0.1550385083834414  0.6469613417525508
  0.4476009468684126  0.6729694119679621  0.8296074525029198
  0.9049235983482049  0.9499192727435002  0.7110601462603370
  0.5321013268849129  0.1541188852828341  0.5898281313612870
  0.2434780798163345  0.0316520709417958  0.6981203988434288
  0.7182938268760424  0.3986655354461632  0.4609314005098426
  0.5740027936483472  0.1662290112308469  0.9612208233504589
  0.2601363156928400  0.3333763526045175  0.2299468378696190
  0.5375572787000849  0.7498265134558011  0.1384682390038208
  0.4566628725317727  0.7227465874095600  0.6561459765390865
  0.3941125604191811  0.7550286033936118  0.2947889867025566
  0.0308549104641926  0.9732599230117600  0.7568229816425500
  0.0231154245885321  0.2538688615630775  0.8879803637631412
  0.5336870013541173  0.4770594209849293  0.0434818583836645
  0.1629010634892296  0.2839823510965118  0.4897428109119417
  0.7351151170855061  0.0260023221075514  0.7913990194087077
  0.2147812272856342  0.4174078338946430  0.0393369718869749
  0.2992669201787734  0.8286316041334771  0.4388244817811753
  0.9498027720527205  0.7951184232673967  0.9799836319138180
  0.3505148249402481  0.3964204093984520  0.6403723052775305
  0.3830559471267208  0.1681747994397185  0.9718250277601683
  0.6164559172611632  0.6799744102062419  0.5299146283773339
  0.4013033404879351  0.8241494058666206  0.7109354126726046
  0.2150352026445290  0.7610254102588812  0.9431529918323918
  0.0835948487191587  0.3385607411105411  0.1320894233922232
  0.8122024945071473  0.4604798635851992  0.1572439294112087
  0.7943756103967274  0.0448792723917109  0.9758257631393761
  0.3699374540092890  0.3772129734279162  0.8467511876407485
  0.3738623283857763  0.5592789005388283  0.0598326139150984
  0.3759148097085472  0.3653016718772335  0.1209318380312752
  0.4172737216457634  0.2840468659007627  0.3533715468719905
  0.9451464427020113  0.5927287432365418  0.7366996777785104
  0.7171535906939468  0.7420662677845371  0.5664428012996225
  0.1360770340926010  0.3949041719207784  0.5344109585431553
  0.2898779597506262  0.6923960069650050  0.6816492194932735
  0.2497770647839204  0.9423158127308753  0.4330361709324464
  0.2339281568002178  0.0850900154966041  0.5253586498355602
  0.5583294517811268  0.9094608525553198  0.7155469049710703
  0.3479341622124608  0.0121880596217920  0.2909819833308092
  0.1078121837348931  0.8139086837067566  0.1354213768744259
  0.0283274378234921  0.4145382578251073  0.9798631718270556
  0.9031961870697813  0.5885490293702915  0.3318153535711019
  0.7486777785518299  0.9113718679757241  0.3382826189448807
  0.8386060716791448  0.4316004174599328  0.6316688733605247
  0.4944063215982055  0.4650018784445109  0.4051368166353768
  0.9201578556506291  0.9768856305755804  0.3127419131354188
  0.6663771807705459  0.0480379496668633  0.2093156226822828
  0.7084107674341951  0.5077731703260469  0.7049092453047834
  0.7756334372024369  0.2443888674043464  0.5139811339945481
  0.9282968230758328  0.8979287920277201  0.9218751491342587
  0.0025842332741490  0.1597928312187022  0.4391872136341988
  0.5673142361966015  0.4410408049302745  0.5753349057310118
  0.4162141888151751  0.4772780052360872  0.9055918441993569
  0.6485177713155394  0.4347085814348688  0.1800424766399118
  0.3079353250037542  0.1680397614880604  0.1465906793629159
  0.8412651761435868  0.2819002872126362  0.6955217859262959
  0.9010754043426985  0.6693186740846926  0.5637657660212909
  0.8159821069118536  0.7346112903607889  0.1994682082652233
  0.5861863705185826  0.0978346573673008  0.7614095925020266
  0.5052194487055672  0.0099391736072789  0.9264269819117175
  0.8056407608488740  0.7101632024054823  0.7223353781595492
  0.7196558009858478  0.5322834785761046  0.3342167606725894
  0.0558256199215137  0.9705358366648369  0.4634513829269977
  0.4895309763805429  0.1904473644617326  0.1349465758278612
  0.5781321305767477  0.2176617096911784  0.2976671199244549
  0.2005374484611551  0.1951136067192962  0.9876867234387063
  0.0255186175170365  0.8340080016360929  0.6252182931389143
  0.8939056381208417  0.8433620948509883  0.4276223837129223
  0.1342300625251482  0.1455682490351080  0.1547733272345440
  0.2295466803875712  0.8657601651274618  0.6373774215851356
  0.0459889046290769  0.4844415083420088  0.4149179360228032
  0.7744793791639282  0.7913475807243699  0.9071723383805121
  0.7404824846920661  0.8710364622118405  0.7086372381880963
  0.9184536895505815  0.8724044552828190  0.1504596840433123
  0.0755639458414095  0.5961430575976294  0.2721849095260396
  0.6536092230110597  0.6114409961719645  0.1185095015478907
  0.0219320595324604  0.1436652244496130  0.0041332801220406
  0.6397022307943558  0.9016991702248234  0.8701970010250335
  0.4042844702130850  0.0255996675323829  0.0996063384816708
  0.6739398505739871  0.3214014072305531  0.6523035767963208
  0.2453874048400522  0.2229388868306685  0.6393440210530699
  0.3557008318820749  0.6669430083686763  0.1071066577426620
  0.8860699560345466  0.2899880974062441  0.3879168286204262
  0.9416584353285486  0.6161425510251775  0.0315552547127567
  0.9186434412292286  0.0616773870518301  0.1413828355035776
  0.1569303968465832  0.0548934026572852  0.3195913249830724
  0.5280758547040918  0.4678679713869158  0.7510057773897287
  0.1625993782970454  0.0185723249317959  0.0172102312305924
  0.3544569427088717  0.2254732908016521  0.7941463681343706
  0.3463003576172028  0.3059879093769950  0.0190321112196017
  0.9925399804312462  0.3082588930632966  0.7799568549109352
  0.4806088990666666  0.8999841858112347  0.2284308750736344
  0.2968899134290268  0.6590531982322645  0.4047837693307912
  0.7426930660086626  0.9306538245947564  0.5222113068170131
  0.5380508658128065  0.6010196507360206  0.2720728695628267
  0.0627344317549117  0.4644423002134772  0.6618818773266710
  0.4018220665969352  0.7901318060531537  0.0007335207975387
  0.0392875709260636  0.7446102211907046  0.4709415602404050
  0.0060589503281250  0.1876044563360040  0.2601863228785746
  0.6419958535501991  0.2626235120730627  0.8237858182143896
  0.8486029467726439  0.4834684112906018  0.8062107217255772
  0.0983407912485887  0.5902554692067028  0.9423949980907125
  0.3609601756809013  0.5488120969442392  0.7560159835756153
  0.0843003002331457  0.1150855846691385  0.6355911062250215
  0.9094239360630567  0.0820318278075902  0.5683085645283583
  0.1628076146198367  0.7820371545328655  0.3303262091750412
  0.2454514145833073  0.2075492388771423  0.3600405355466592
  0.9742401410266197  0.5049794345324230  0.1555144614864332
  0.1723549859337510  0.1900293253201752  0.7857750876471385
  0.9395237184411300  0.0723983091289995  0.8620531366888500
  0.1970235165422025  0.6059630531687858  0.1282948713631527
  0.7635680932967048  0.9945457260438175  0.1724537053480191
  0.6449622172061567  0.5011413028837453  0.0833315278125966
  0.9765211516161472  0.4389726001068297  0.2475410664026683
  0.2033406492845273  0.3343134543812099  0.1239526469289700
  0.4824855456688439  0.4123969368870775  0.1332549554987708
  0.0307770497852928  0.1351215333759370  0.8881635478446128
  0.5253882946063868  0.7630505446151759  0.8244808871530935
  0.3295824222093202  0.4348118938928351  0.7500600208839074
  0.6739371149741231  0.8320823307615584  0.9562603681481860
  0.8585385317733625  0.6283339692329974  0.6600230284035575
  0.3623458068748278  0.7264917784873788  0.5843728628861058
  0.4108209897081991  0.1968309081068966  0.6964339720692152
  0.2033140362484431  0.9016181928836957  0.8320121499313018
  0.4545881416537583  0.1919741533294541  0.8417946876355629
  0.6824040824682029  0.1687795328734225  0.7642069279490258
  0.4591455912377143  0.8018099027640559  0.4752676699837934
  0.8694662701829046  0.0585406236150661  0.6755305214777252
  0.4044882332402935  0.8398831777865041  0.3780193337468560
  0.4958801053864832  0.7851220537550248  0.2428801196118400
  0.6657654261255175  0.0953617988379420  0.1046741236000770
  0.3205287861031252  0.0329438964081561  0.4696644846231806
  0.6879169926711057  0.8346011581642827  0.4975032731939351
  0.4780346683902437  0.4114108202539342  0.5049827786959753
  0.8839356135530068  0.2869138330282510  0.5069126710848337
  0.3993225079311955  0.1376395813743443  0.0849937657232331
  0.8087729061042452  0.9336780393190480  0.7848333144300597
  0.2176817468256829  0.4179875369816841  0.7739559366926869
  0.5489626000995074  0.6336138135381404  0.1641601309488365
  0.7647150611821019  0.1563459564138157  0.9364192831214666
  0.5602111416622151  0.1276392110771027  0.0718552326053228
  0.9023459899129094  0.5392078437432417  0.8946239251736401
  0.1624887183301738  0.2871148183128938  0.3705106334289354
  0.7406537555799488  0.3652639991864035  0.1476745704086682
  0.7798168973496473  0.1328854566284932  0.8206551604999959
  0.6711853377736077  0.2275815497373941  0.9337014809260609
  0.9913342291803247  0.8007915678831523  0.3859700418988936
  0.2647001870063903  0.2453219972088903  0.0749070597363541
  0.8139029288170860  0.0645941007980397  0.0924177846009400
  0.8960842417949380  0.8056162476852080  0.2410760922482353
  0.7910321188243401  0.5373622269298934  0.6245465458138355
  0.3625662465466490  0.7322657640864563  0.7715052740344603
  0.1862690017321782  0.1343521227915048  0.6860872002986440
  0.4902875971413536  0.5795952123273764  0.0779687751646776
  0.7593728719502266  0.2461935512403812  0.6262540868288013
  0.0627112731475492  0.8307873181499232  0.3015386198941030
  0.6814635350110336  0.0245236417665922  0.0105204225233493
  0.0584052536296298  0.2736968785879625  0.3172703509980366
  0.7458214754352355  0.5418729456231404  0.8272899701688701
  0.1263763034317762  0.1217318691058082  0.0466638539912196
  0.4373313105682897  0.2992148132114991  0.5124731393668185
  0.0594339978750185  0.8604149885517458  0.7308338486977703
  0.2986593988695105  0.1769250857784641  0.5471772901919820
  0.8586517831325367  0.8802373013538514  0.3250999528362826
  0.2753199046977812  0.5710360044130312  0.6772076392043331
  0.1786995759604864  0.9672488684215566  0.6143251378856078
  0.9890566415687445  0.6180433343751019  0.9251390768445447
  0.6635940462789875  0.9130505643427469  0.0434581183457254
  0.5190068041305054  0.1900156391542112  0.7468894905985621
  0.0716884575799526  0.9997547865702501  0.6481187249632328
  0.1523261388612767  0.9222308229045026  0.5049670355804636
  0.1755143070824232  0.8454481748652114  0.7343668234795047
  0.9650900705799117  0.7274514192464139  0.8836417907779648
  0.8117811157542292  0.9077723480140563  0.9037344542014623
  0.4133632824558688  0.6866501027106580  0.9434209721862103
  0.9209091843926771  0.4600416815984261  0.9793738514857750
  0.1960610909000664  0.7322304835328595  0.7474240178027500
  0.2751140027886620  0.2542478244639170  0.4608621307877385
  0.2981500228094518  0.6530225420664948  0.5180529827702713
  0.5807006665087826  0.7076842074342267  0.4177059408044457
  0.1401408447145513  0.1026575370021305  0.8517298582300228
  0.6397396948821594  0.8503054955121172  0.7654525713329221
  0.5232138676938476  0.4817694062235276  0.8642926210463173
  0.8567859564937876  0.0340116409704621  0.2358389625001678
  0.9978524835453726  0.5255466477080972  0.3208666875686461
  0.0681118570996873  0.3657430532111405  0.2463912067754137
 
  0.00000000E+00  0.00000000E+00  0.00000000E+00
  0.00000000E+00  0.00000000E+00  0.00000000E+00
  0.00000000E+00  0.00000000E+00  0.00000000E+00
  0.00000000E+00  0.00000000E+00  0.00000000E+00
  0.00000000E+00  0.00000000E+00  0.00000000E+00
  0.00000000E+00  0.00000000E+00  0.00000000E+00
  0.00000000E+00  0.00000000E+00  0.00000000E+00
  0.00000000E+00  0.00000000E+00  0.00000000E+00
  0.00000000E+00  0.00000000E+00  0.00000000E+00
  0.00000000E+00  0.00000000E+00  0.00000000E+00
  0.00000000E+00  0.00000000E+00  0.00000000E+00
  0.00000000E+00  0.00000000E+00  0.00000000E+00
  0.00000000E+00  0.00000000E+00  0.00000000E+00
  0.00000000E+00  0.00000000E+00  0.00000000E+00
  0.00000000E+00  0.00000000E+00  0.00000000E+00
  0.00000000E+00  0.00000000E+00  0.00000000E+00
  0.00000000E+00  0.00000000E+00  0.00000000E+00
  0.00000000E+00  0.00000000E+00  0.00000000E+00
  0.00000000E+00  0.00000000E+00  0.00000000E+00
  0.00000000E+00  0.00000000E+00  0.00000000E+00
  0.00000000E+00  0.00000000E+00  0.00000000E+00
  0.00000000E+00  0.00000000E+00  0.00000000E+00
  0.00000000E+00  0.00000000E+00  0.00000000E+00
  0.00000000E+00  0.00000000E+00  0.00000000E+00
  0.00000000E+00  0.00000000E+00  0.00000000E+00
  0.00000000E+00  0.00000000E+00  0.00000000E+00
  0.00000000E+00  0.00000000E+00  0.00000000E+00
  0.00000000E+00  0.00000000E+00  0.00000000E+00
  0.00000000E+00  0.00000000E+00  0.00000000E+00
  0.00000000E+00  0.00000000E+00  0.00000000E+00
  0.00000000E+00  0.00000000E+00  0.00000000E+00
  0.00000000E+00  0.00000000E+00  0.00000000E+00
  0.00000000E+00  0.00000000E+00  0.00000000E+00
  0.00000000E+00  0.00000000E+00  0.00000000E+00
  0.00000000E+00  0.00000000E+00  0.00000000E+00
  0.00000000E+00  0.00000000E+00  0.00000000E+00
  0.00000000E+00  0.00000000E+00  0.00000000E+00
  0.00000000E+00  0.00000000E+00  0.00000000E+00
  0.00000000E+00  0.00000000E+00  0.00000000E+00
  0.00000000E+00  0.00000000E+00  0.00000000E+00
  0.00000000E+00  0.00000000E+00  0.00000000E+00
  0.00000000E+00  0.00000000E+00  0.00000000E+00
  0.00000000E+00  0.00000000E+00  0.00000000E+00
  0.00000000E+00  0.00000000E+00  0.00000000E+00
  0.00000000E+00  0.00000000E+00  0.00000000E+00
  0.00000000E+00  0.00000000E+00  0.00000000E+00
  0.00000000E+00  0.00000000E+00  0.00000000E+00
  0.00000000E+00  0.00000000E+00  0.00000000E+00
  0.00000000E+00  0.00000000E+00  0.00000000E+00
  0.00000000E+00  0.00000000E+00  0.00000000E+00
  0.00000000E+00  0.00000000E+00  0.00000000E+00
  0.00000000E+00  0.00000000E+00  0.00000000E+00
  0.00000000E+00  0.00000000E+00  0.00000000E+00
  0.00000000E+00  0.00000000E+00  0.00000000E+00
  0.00000000E+00  0.00000000E+00  0.00000000E+00
  0.00000000E+00  0.00000000E+00  0.00000000E+00
  0.00000000E+00  0.00000000E+00  0.00000000E+00
  0.00000000E+00  0.00000000E+00  0.00000000E+00
  0.00000000E+00  0.00000000E+00  0.00000000E+00
  0.00000000E+00  0.00000000E+00  0.00000000E+00
  0.00000000E+00  0.00000000E+00  0.00000000E+00
  0.00000000E+00  0.00000000E+00  0.00000000E+00
  0.00000000E+00  0.00000000E+00  0.00000000E+00
  0.00000000E+00  0.00000000E+00  0.00000000E+00
  0.00000000E+00  0.00000000E+00  0.00000000E+00
  0.00000000E+00  0.00000000E+00  0.00000000E+00
  0.00000000E+00  0.00000000E+00  0.00000000E+00
  0.00000000E+00  0.00000000E+00  0.00000000E+00
  0.00000000E+00  0.00000000E+00  0.00000000E+00
  0.00000000E+00  0.00000000E+00  0.00000000E+00
  0.00000000E+00  0.00000000E+00  0.00000000E+00
  0.00000000E+00  0.00000000E+00  0.00000000E+00
  0.00000000E+00  0.00000000E+00  0.00000000E+00
  0.00000000E+00  0.00000000E+00  0.00000000E+00
  0.00000000E+00  0.00000000E+00  0.00000000E+00
  0.00000000E+00  0.00000000E+00  0.00000000E+00
  0.00000000E+00  0.00000000E+00  0.00000000E+00
  0.00000000E+00  0.00000000E+00  0.00000000E+00
  0.00000000E+00  0.00000000E+00  0.00000000E+00
  0.00000000E+00  0.00000000E+00  0.00000000E+00
  0.00000000E+00  0.00000000E+00  0.00000000E+00
  0.00000000E+00  0.00000000E+00  0.00000000E+00
  0.00000000E+00  0.00000000E+00  0.00000000E+00
  0.00000000E+00  0.00000000E+00  0.00000000E+00
  0.00000000E+00  0.00000000E+00  0.00000000E+00
  0.00000000E+00  0.00000000E+00  0.00000000E+00
  0.00000000E+00  0.00000000E+00  0.00000000E+00
  0.00000000E+00  0.00000000E+00  0.00000000E+00
  0.00000000E+00  0.00000000E+00  0.00000000E+00
  0.00000000E+00  0.00000000E+00  0.00000000E+00
  0.00000000E+00  0.00000000E+00  0.00000000E+00
  0.00000000E+00  0.00000000E+00  0.00000000E+00
  0.00000000E+00  0.00000000E+00  0.00000000E+00
  0.00000000E+00  0.00000000E+00  0.00000000E+00
  0.00000000E+00  0.00000000E+00  0.00000000E+00
  0.00000000E+00  0.00000000E+00  0.00000000E+00
  0.00000000E+00  0.00000000E+00  0.00000000E+00
  0.00000000E+00  0.00000000E+00  0.00000000E+00
  0.00000000E+00  0.00000000E+00  0.00000000E+00
  0.00000000E+00  0.00000000E+00  0.00000000E+00
  0.00000000E+00  0.00000000E+00  0.00000000E+00
  0.00000000E+00  0.00000000E+00  0.00000000E+00
  0.00000000E+00  0.00000000E+00  0.00000000E+00
  0.00000000E+00  0.00000000E+00  0.00000000E+00
  0.00000000E+00  0.00000000E+00  0.00000000E+00
  0.00000000E+00  0.00000000E+00  0.00000000E+00
  0.00000000E+00  0.00000000E+00  0.00000000E+00
  0.00000000E+00  0.00000000E+00  0.00000000E+00
  0.00000000E+00  0.00000000E+00  0.00000000E+00
  0.00000000E+00  0.00000000E+00  0.00000000E+00
  0.00000000E+00  0.00000000E+00  0.00000000E+00
  0.00000000E+00  0.00000000E+00  0.00000000E+00
  0.00000000E+00  0.00000000E+00  0.00000000E+00
  0.00000000E+00  0.00000000E+00  0.00000000E+00
  0.00000000E+00  0.00000000E+00  0.00000000E+00
  0.00000000E+00  0.00000000E+00  0.00000000E+00
  0.00000000E+00  0.00000000E+00  0.00000000E+00
  0.00000000E+00  0.00000000E+00  0.00000000E+00
  0.00000000E+00  0.00000000E+00  0.00000000E+00
  0.00000000E+00  0.00000000E+00  0.00000000E+00
  0.00000000E+00  0.00000000E+00  0.00000000E+00
  0.00000000E+00  0.00000000E+00  0.00000000E+00
  0.00000000E+00  0.00000000E+00  0.00000000E+00
  0.00000000E+00  0.00000000E+00  0.00000000E+00
  0.00000000E+00  0.00000000E+00  0.00000000E+00
  0.00000000E+00  0.00000000E+00  0.00000000E+00
  0.00000000E+00  0.00000000E+00  0.00000000E+00
  0.00000000E+00  0.00000000E+00  0.00000000E+00
  0.00000000E+00  0.00000000E+00  0.00000000E+00
  0.00000000E+00  0.00000000E+00  0.00000000E+00
  0.00000000E+00  0.00000000E+00  0.00000000E+00
  0.00000000E+00  0.00000000E+00  0.00000000E+00
  0.00000000E+00  0.00000000E+00  0.00000000E+00
  0.00000000E+00  0.00000000E+00  0.00000000E+00
  0.00000000E+00  0.00000000E+00  0.00000000E+00
  0.00000000E+00  0.00000000E+00  0.00000000E+00
  0.00000000E+00  0.00000000E+00  0.00000000E+00
  0.00000000E+00  0.00000000E+00  0.00000000E+00
  0.00000000E+00  0.00000000E+00  0.00000000E+00
  0.00000000E+00  0.00000000E+00  0.00000000E+00
  0.00000000E+00  0.00000000E+00  0.00000000E+00
  0.00000000E+00  0.00000000E+00  0.00000000E+00
  0.00000000E+00  0.00000000E+00  0.00000000E+00
  0.00000000E+00  0.00000000E+00  0.00000000E+00
  0.00000000E+00  0.00000000E+00  0.00000000E+00
  0.00000000E+00  0.00000000E+00  0.00000000E+00
  0.00000000E+00  0.00000000E+00  0.00000000E+00
  0.00000000E+00  0.00000000E+00  0.00000000E+00
  0.00000000E+00  0.00000000E+00  0.00000000E+00
  0.00000000E+00  0.00000000E+00  0.00000000E+00
  0.00000000E+00  0.00000000E+00  0.00000000E+00
  0.00000000E+00  0.00000000E+00  0.00000000E+00
  0.00000000E+00  0.00000000E+00  0.00000000E+00
  0.00000000E+00  0.00000000E+00  0.00000000E+00
  0.00000000E+00  0.00000000E+00  0.00000000E+00
  0.00000000E+00  0.00000000E+00  0.00000000E+00
  0.00000000E+00  0.00000000E+00  0.00000000E+00
  0.00000000E+00  0.00000000E+00  0.00000000E+00
  0.00000000E+00  0.00000000E+00  0.00000000E+00
  0.00000000E+00  0.00000000E+00  0.00000000E+00
  0.00000000E+00  0.00000000E+00  0.00000000E+00
  0.00000000E+00  0.00000000E+00  0.00000000E+00
  0.00000000E+00  0.00000000E+00  0.00000000E+00
  0.00000000E+00  0.00000000E+00  0.00000000E+00
  0.00000000E+00  0.00000000E+00  0.00000000E+00
  0.00000000E+00  0.00000000E+00  0.00000000E+00
  0.00000000E+00  0.00000000E+00  0.00000000E+00
  0.00000000E+00  0.00000000E+00  0.00000000E+00
  0.00000000E+00  0.00000000E+00  0.00000000E+00
  0.00000000E+00  0.00000000E+00  0.00000000E+00
  0.00000000E+00  0.00000000E+00  0.00000000E+00
  0.00000000E+00  0.00000000E+00  0.00000000E+00
  0.00000000E+00  0.00000000E+00  0.00000000E+00
  0.00000000E+00  0.00000000E+00  0.00000000E+00
  0.00000000E+00  0.00000000E+00  0.00000000E+00
  0.00000000E+00  0.00000000E+00  0.00000000E+00
  0.00000000E+00  0.00000000E+00  0.00000000E+00
  0.00000000E+00  0.00000000E+00  0.00000000E+00
  0.00000000E+00  0.00000000E+00  0.00000000E+00
  0.00000000E+00  0.00000000E+00  0.00000000E+00
  0.00000000E+00  0.00000000E+00  0.00000000E+00
  0.00000000E+00  0.00000000E+00  0.00000000E+00
  0.00000000E+00  0.00000000E+00  0.00000000E+00
  0.00000000E+00  0.00000000E+00  0.00000000E+00
  0.00000000E+00  0.00000000E+00  0.00000000E+00
  0.00000000E+00  0.00000000E+00  0.00000000E+00
  0.00000000E+00  0.00000000E+00  0.00000000E+00
  0.00000000E+00  0.00000000E+00  0.00000000E+00
  0.00000000E+00  0.00000000E+00  0.00000000E+00
  0.00000000E+00  0.00000000E+00  0.00000000E+00
  0.00000000E+00  0.00000000E+00  0.00000000E+00
  0.00000000E+00  0.00000000E+00  0.00000000E+00
  0.00000000E+00  0.00000000E+00  0.00000000E+00
  0.00000000E+00  0.00000000E+00  0.00000000E+00
  0.00000000E+00  0.00000000E+00  0.00000000E+00
  0.00000000E+00  0.00000000E+00  0.00000000E+00
  0.00000000E+00  0.00000000E+00  0.00000000E+00
  0.00000000E+00  0.00000000E+00  0.00000000E+00
  0.00000000E+00  0.00000000E+00  0.00000000E+00
  0.00000000E+00  0.00000000E+00  0.00000000E+00
  0.00000000E+00  0.00000000E+00  0.00000000E+00
  0.00000000E+00  0.00000000E+00  0.00000000E+00
  0.00000000E+00  0.00000000E+00  0.00000000E+00
  0.00000000E+00  0.00000000E+00  0.00000000E+00
  0.00000000E+00  0.00000000E+00  0.00000000E+00
  0.00000000E+00  0.00000000E+00  0.00000000E+00
  0.00000000E+00  0.00000000E+00  0.00000000E+00
  0.00000000E+00  0.00000000E+00  0.00000000E+00
  0.00000000E+00  0.00000000E+00  0.00000000E+00
  0.00000000E+00  0.00000000E+00  0.00000000E+00
  0.00000000E+00  0.00000000E+00  0.00000000E+00
  0.00000000E+00  0.00000000E+00  0.00000000E+00
  0.00000000E+00  0.00000000E+00  0.00000000E+00
  0.00000000E+00  0.00000000E+00  0.00000000E+00
  0.00000000E+00  0.00000000E+00  0.00000000E+00
  0.00000000E+00  0.00000000E+00  0.00000000E+00
  0.00000000E+00  0.00000000E+00  0.00000000E+00
  0.00000000E+00  0.00000000E+00  0.00000000E+00
  0.00000000E+00  0.00000000E+00  0.00000000E+00
  0.00000000E+00  0.00000000E+00  0.00000000E+00
  0.00000000E+00  0.00000000E+00  0.00000000E+00
  0.00000000E+00  0.00000000E+00  0.00000000E+00
  0.00000000E+00  0.00000000E+00  0.00000000E+00
  0.00000000E+00  0.00000000E+00  0.00000000E+00
  0.00000000E+00  0.00000000E+00  0.00000000E+00
  0.00000000E+00  0.00000000E+00  0.00000000E+00
  0.00000000E+00  0.00000000E+00  0.00000000E+00
  0.00000000E+00  0.00000000E+00  0.00000000E+00
  0.00000000E+00  0.00000000E+00  0.00000000E+00
  0.00000000E+00  0.00000000E+00  0.00000000E+00
  0.00000000E+00  0.00000000E+00  0.00000000E+00
  0.00000000E+00  0.00000000E+00  0.00000000E+00