POSCAR                                  
   1.00000000000000     
    21.4668227684468995    0.0000000000000000    0.0000000000000000
     0.0000000000000000   21.4668227684468995    0.0000000000000000
     0.0000000000000000    0.0000000000000000   21.4668227684468995
   Ge   Sb   Te
    43    86   172
Direct
  0.2066515331739386  0.6117723984163672  0.0785592386409628
  0.0304352865309223  0.8507341366019225  0.8540191531623728
  0.8057772114156992  0.5817484460672137  0.7823726315342741
  0.6182134951528534  0.2513098623231960  0.9163252416347274
  0.3087827901715979  0.6413696704295424  0.7841368255805595
  0.3056758256086721  0.1073656724044393  0.9513523114038324
  0.2049324726504715  0.2459260226986565  0.3685702892803552
  0.8764489515667614  0.8189868107532139  0.3382072930190146
  0.0106946422561033  0.2510339448424920  0.3346454631006112
  0.0580194923499988  0.4310692308507041  0.0222945419988926
  0.3295370591257180  0.5021996843731480  0.2148780151279530
  0.7407928460419136  0.1526475801723748  0.0329515566927917
  0.9453261049993358  0.3402305739146447  0.7922280433224512
  0.4216026284498863  0.1624835725809302  0.5338531182256856
  0.3881396518571436  0.0868052496931836  0.7396014287336287
  0.9098410378993845  0.6050389691928225  0.2117310228574522
  0.5087756996509663  0.3548754892238244  0.7803238390029269
  0.7901585139662228  0.5472038699246611  0.9751373439324376
  0.5977069516284217  0.1121426634998857  0.1421392248264927
  0.0266581319747439  0.7460025509878618  0.6949855549776902
  0.0615224779195057  0.9598602978895460  0.7393952939665613
  0.7947670592114086  0.6839883886682611  0.1113222899407336
  0.6963334036288257  0.4077326497192349  0.1259543186775326
  0.5238844022927691  0.3407091367151292  0.1314999550788123
  0.8863668101534847  0.2445986695405652  0.0032842433508495
  0.1610052340988321  0.8267591538527629  0.9754785945524627
  0.7864019532772897  0.1475387641407801  0.3809612601189918
  0.0149802700137612  0.8163033024252596  0.3945662772777391
  0.4671937147435046  0.0254648474707727  0.8977169227665449
  0.0835205702163218  0.5578674434499993  0.6746983003741156
  0.4329221521201446  0.1614617626462443  0.8701996838556324
  0.3710715537189330  0.8079227727857428  0.2135746067758408
  0.9161496561803121  0.7559821442143342  0.5574337821197657
  0.4902027516124706  0.5453320491707664  0.3313561758390137
  0.1780104234420079  0.9401799046827544  0.4023204787405164
  0.4125198507633123  0.6973170968906891  0.3395651045369916
  0.8832229896641688  0.6817244444706876  0.4685856717925259
  0.9739812075185572  0.5978222379370453  0.9419375635791364
  0.1740263545085762  0.2483691875818151  0.9209253016230561
  0.2343720927730702  0.0796026608080985  0.2013083580884000
  0.3180504661519516  0.6712060015085412  0.6641305739324532
  0.6464869703051914  0.2875827559884776  0.6322289019642788
  0.8720001875500101  0.7271748952796534  0.6678999682351185
  0.8335157292542632  0.4025086387559517  0.4630042092164778
  0.0380002555410177  0.7200772335663982  0.0776337475407788
  0.0576192773574427  0.1179911798345332  0.6210970863968815
  0.2576959848888581  0.7569012449270675  0.4786059395831769
  0.1469596824755204  0.2062060137786799  0.5590871675268611
  0.8595592647264459  0.8450198577427818  0.4838263596021783
  0.7361722525115868  0.8006959707959482  0.9948007323845696
  0.9315617938180009  0.9982984720016683  0.1107893174322829
  0.8821054560813020  0.8168446140188709  0.2025331565922798
  0.8784548107885566  0.0719376177873658  0.8890763289505881
  0.9689478653322895  0.2154192949157515  0.1307654597954634
  0.7040319784771717  0.3871925539993588  0.5063198073666887
  0.9317547517188082  0.0434995491874888  0.6810257500466419
  0.3971880977152930  0.2763360434137793  0.8225653676538318
  0.6946440809375659  0.1515409375658190  0.7549176093481929
  0.7824075050541212  0.3612920400972517  0.2328110486053436
  0.3796053058682513  0.9181990552493263  0.0403500949198731
  0.4659296735608277  0.3768658853782827  0.6572091813985611
  0.9216613802895751  0.7162065051690468  0.9611434545384927
  0.6381010403659473  0.8827553390161450  0.8320176599497762
  0.0787571805287959  0.8498316368450317  0.0892558014193637
  0.7691065037945953  0.7427179798651073  0.4642835556380723
  0.1462509730922406  0.6591632759168529  0.8312302610876563
  0.1582248611578547  0.5059196815555211  0.5642666084829184
  0.2918019873729015  0.8680393350267731  0.3764657508633693
  0.4577936167163186  0.2232014967336454  0.9828091114269879
  0.8022312974894824  0.8705408791367385  0.6158211106461583
  0.2310788269877294  0.2918072022613991  0.2508941210791810
  0.6078169412889580  0.6975198844099754  0.1104753905606944
  0.2984465654369072  0.6258889552523901  0.9264201852582790
  0.4562395340662355  0.4702955825538288  0.7939695850584023
  0.2187093567138892  0.9008514935851317  0.1658743026536032
  0.3023294290801871  0.2656001901817072  0.6538900390059313
  0.4857524209000557  0.2324984333404554  0.3908160361982586
  0.6193259540799244  0.4041478477460027  0.3225237635134117
  0.9514118239636449  0.2163934721767181  0.7683732681582734
  0.7747668478282647  0.8543271709789372  0.7636881571275260
  0.5877687921234639  0.1781516641152925  0.0193566000235523
  0.6004296710953611  0.7019673231995488  0.4056595749785230
  0.3588521487575763  0.6215289453339532  0.4999001653498306
  0.2306364375964660  0.0987881576626525  0.7673426443119877
  0.7949456385308259  0.7074187537160808  0.8122112262214393
  0.6265550650506327  0.5877581074550576  0.7734665103238144
  0.7914747939111043  0.6823368367008237  0.9473316299696675
  0.5903386543850149  0.6108416842024280  0.9375179721127719
  0.5200625182083484  0.0108083236153539  0.1345334379129076
  0.2164634891773972  0.3760527050095093  0.7773749287844980
  0.6837279045651244  0.8700062739896225  0.4833311508506279
  0.6413689820437838  0.7716763793634354  0.6972495298938668
  0.6387673571095316  0.6727300845996980  0.5486266759758500
  0.4163337182900084  0.2758431524617379  0.2727723770764188
  0.6058372701725190  0.9726639365486212  0.3258466128478285
 -0.0019365320439305  0.2066721302770324  0.9120006861154240
  0.4820117310624268  0.6362206478610259  0.4246776821738579
  0.4131520632983633  0.4093740676792524  0.0647618966100092
  0.4216171765817854  0.1147389957985720  0.4158690827782501
  0.7085059428400257  0.1011712826403487  0.5577994624712579
  0.9878471420490347  0.2349090707643769  0.6340712239139831
  0.8618265230229430  0.4579107490007960  0.1339111782025342
  0.8935551698113975  0.3159456917494053  0.3021626606057096
  0.3777346099405088  0.1977593078573821  0.1046086516056810
  0.5269495931466905  0.0204009531573835  0.6141201065593647
  0.1084399744436314  0.1097873048190930  0.0452183076288095
  0.6080808901178426  0.7515219574131152  0.9858892148326674
  0.7290998423369689  0.5294817341502177  0.1923528877239972
  0.7831962836084067  0.9903152549566936  0.7759002048948069
  0.3460854300994706  0.9348002837906999  0.1934584871663226
  0.2924964411024616  0.6578344463537332  0.3318299867475967
  0.9078359417185194  0.5104603019130944  0.7515135214567514
  0.0859970427606954  0.3623170518586479  0.4119875890005492
  0.0827532948168961  0.2455450281076645  0.8050690026565602
  0.9358944284882713  0.9617692912559664  0.7962452102283777
  0.3246541977437103  0.2413204877344048  0.5193985130805605
  0.5470538815948630  0.8547350333528434  0.0555658651033365
  0.4566587153763532  0.6231274008340090  0.9097232559350494
  0.3116721597341888  0.1756049338602163  0.2435913917609627
  0.0709067352506079  0.4607248555753669  0.8509686500848016
  0.4528065376199208  0.4778008827113388  0.9301142832140347
  0.8029230120961663  0.3163674608705921  0.6655141970046266
  0.5624333167692248  0.5332696653890652  0.5113686736280687
  0.0493253248601614  0.4087122614195691  0.2180615725759549
  0.1862724476232615  0.5240985131861254  0.1765068767351232
  0.9090801727913925  0.8569237245670271  0.7022020624530561
  0.4549911597904986  0.9250394050783843  0.4662799821045745
  0.5449678491636065  0.1936580182109266  0.5170193843271312
  0.3009530515573237  0.9332910758655311  0.5880320549513309
  0.9979776805778769  0.9770927737471630  0.3742626381784957
  0.5243846882550964  0.3340835334709815  0.9449561403768081
  0.3197825998187696  0.3515580274239338  0.3303370244584602
  0.7074918434819372  0.4086310627717835  0.6433845078956595
  0.0713378180582090  0.9125405165235205  0.4642839612566182
  0.3529103720177116  0.3283170541763952  0.9502913595800011
  0.1978040199263255  0.8540817649332096  0.5456907441060195
  0.3058552435845055  0.9834832151550184  0.3082031948274377
  0.9622500872645876  0.4257884410380142  0.3453737087459241
  0.1465527268877676  0.4091270395909705  0.1177390640523994
  0.1694710483143879  0.5863635886804068  0.9611030883664919
  0.6522660244160385  0.5857929263713956  0.3622916344650782
 -0.0000108216566730  0.9396811241523938  0.6276359511417534
  0.8980186918365448  0.5057093496346234  0.9146252792181213
  0.2053383374994519  0.3248380964486122  0.4653687565407707
  0.8830886990279894  0.8334420043637044  0.0451650224172366
  0.7115738150830583  0.3396100274784475  0.9169683384365993
  0.4414985221813996  0.5085331902786991  0.1556313562516515
  0.0773375145016849  0.2445081152690347  0.0173453673102662
  0.8819704196268842  0.1577962029121798  0.5824783805714641
  0.8891836273720461  0.5791611058981783  0.0871023687397791
  0.5887569111518247  0.4626940902897909  0.0848035063643012
  0.2844045642216890  0.8265760140892501  0.0759991640070490
  0.3967497252991993  0.0662192041501743  0.6099562200319617
  0.3605974612064850  0.5253672007014271  0.3412330331892233
  0.8444625426301764  0.2774591027888823  0.4195001284114453
  0.0574537051549966  0.6445886842098901  0.5021313001687245
  0.1591619657671467  0.7149850100158399  0.1318822055869512
  0.0491501550657691  0.5609906471438578  0.0383111035833845
  0.1820627762873680  0.0508031672514066  0.4636266497069795
  0.3241692786796176  0.6472228879304828  0.0535925522169853
  0.4271136792984174  0.2376731431589368  0.6896831422174239
  0.8634010081890061  0.1167899400029887  0.0179679431445785
  0.8230444594360811  0.1541079873823637  0.7207864472849348
  0.8354722935250851  0.3974300818613026  0.7815277087519354
  0.3308650318982266  0.9822505266359635  0.4662142425861179
  0.2650986607321473  0.2484580474142575  0.8070875131284467
  0.9398043592133530  0.1442709269516920  0.3170243557275026
  0.5186684073055363  0.4482234000828065  0.4174520081091178
  0.2043263085298196  0.9710350142199889  0.7333211478265823
  0.6678692079961522  0.1217691270362090  0.4321010838001045
  0.4694990925203564  0.9016119545648731  0.5982516900093020
  0.7935496198126316  0.0364155435573078  0.4499569466112560
  0.4462300608784014  0.7589630132087908  0.9010143082000398
  0.7254460185477571  0.5765215018009129  0.6886401532959304
  0.2389828546443698  0.6513538878562394  0.5661327659461323
  0.9838578926827150  0.3529565563535269  0.9079158549953559
  0.6992906803010349  0.6038670261462137  0.0742647511801355
  0.3535311155160571  0.7904082675387808  0.6529385584097662
  0.7234116013974453  0.1519831559227595  0.8912521846991464
  0.9630516870712381  0.3781884728788664  0.0921551342988741
  0.1806197967475079  0.9836737300693529  0.0640881527274886
  0.2565655420888742  0.7610418673876219  0.7961321109447311
  0.5909485803652726  0.5230176978279469  0.2052350019544164
  0.4714453893628489  0.9696052333657843  0.3142329554773831
  0.5444073375954231  0.3233160230286215  0.5582454205251832
  0.5502779961277842  0.1805641141014647  0.8234192062168058
  0.3055581856508549  0.0386441444647049  0.0635772437721317
  0.8123029379055658  0.2582829865024163  0.8925030811333260
  0.4370435557769541  0.7821465647581738  0.0307179026145781
  0.6095263030792684  0.4344036202608920  0.7910359115523460
  0.7909442946477815  0.9292914742028423  0.2147202497063263
  0.1950768358545772  0.1744681267600914  0.1243306893534519
  0.5585401506488621  0.4800507429680005  0.6343858161085200
  0.2537344851552081  0.1413973561582340  0.6352660503421852
  0.1141997061196789  0.9630510794339213  0.2926232902851000
  0.1836839530161622  0.0050621310522287  0.5907777102566254
  0.8460473969177618  0.8583341588042881  0.8833144199411826
  0.2715016283433376  0.7856159130838875  0.9247804643480358
  0.7921777170807716  0.2505565077444342  0.0965688589268896
  0.5898512674892898  0.7959774933717373  0.5621614772893829
  0.0396620037312303  0.7735789438021812  0.5698037799486296
  0.0504833836784368  0.4476872624136234  0.5137918920499868
  0.5982575191530042  0.4686041914970586  0.9257583762371999
  0.1205825021190601  0.2908920039147507  0.6571801832075035
  0.6829779394992221  0.2845099076514052  0.7549532302639510
  0.6602059810702005  0.9704737323864582  0.5759258625694894
  0.1153082462099111  0.9314913842991380  0.9152048474566468
  0.8007143932628501  0.9364396612089423  0.0784535025946025
  0.7526674206921361  0.7889340952860293  0.3240947443934301
  0.4965085439568966  0.2096743520393388  0.1661632140112135
  0.9512120420734255  0.6268905987551211  0.6626760650826864
  0.3774284964287518  0.9268095174834634  0.9028277205683358
  0.9782916840073764  0.7142369421317509  0.1985579392934298
  0.0016683237444397  0.9035908447401012  0.9920484493229585
  0.2113372260678523  0.5220603658796995  0.4394244084644901
  0.6943261570313817  0.5299334577032093  0.4871448600315723
  0.7414087807207244  0.0985612712547328  0.2700007236376899
  0.2922338054450588  0.4656040909190173  0.0561449511009329
  0.7621912054075828  0.7116715436513007  0.6020959391300975
  0.1655928236146009  0.5170807535615797  0.7656911145130454
  0.6030826416263105  0.1533249073089553  0.6344379814273591
  0.0817767121446707  0.5498510404953848  0.4036048555606617
  0.1022826210764067  0.8385669160507531  0.7477159157842612
  0.7401479785368761  0.2543756294312762  0.5532166953007823
  0.0333695550993845  0.4087256714624942  0.7340400274126954
  0.6573619736716856  0.3017609674738103  0.3979286419276090
  0.2881967310398238  0.1513189443030313  0.3756642692603797
  0.4613482291794957  0.0803953359344537  0.2415277973701241
  0.9301640441631012  0.7468545731476365  0.8308617542837303
  0.6471835206488371  0.0032710475308501  0.7734031714438436
  0.5681837682629717  0.6635495362707935  0.6663299723763328
  0.3830389207220314  0.7774127987656462  0.5264449085961440
  0.7601686546027863  0.9180076892868720  0.3684300542722303
  0.3222720896258870  0.4694980963672898  0.7788789953439310
  0.8958944328998334  0.3703716382511110  0.5784668987686259
  0.7294904941862691  0.5248273309341535  0.8615446376290027
  0.0813748118642336  0.7463418448532725  0.9170347693468232
  0.8705975256491488  0.5565805339171220  0.4697519847299967
  0.9743497889637616  0.1189927227876381  0.4936261597084379
  0.6732302078138045  0.2839144187135271  0.2634792446235723
  0.6298650811534409  0.9889849916731730  0.0183419568596291
  0.1131184522963892  0.7314090347019178  0.4175336833132886
  0.7859675664985222  0.9735523218914415  0.9238899488450010
  0.8810595889412914  0.0234062952733470  0.2345522837798599
  0.4985494490308810  0.3825476128946549  0.2532364057645932
  0.3451978354842813  0.4871749055867939  0.4927899919669551
  0.6553357865201546  0.7128076804389799  0.8263750447549632
  0.7602820750186537  0.4608106203319801  0.3149945412405515
  0.8661371079384623  0.1960919193876533  0.2172798646286595
  0.0928220327611074  0.8235240039548426  0.2944136834999056
  0.3191664594238924  0.6315228073482998  0.2023765246524810
  0.7837646839247818  0.4152860082218031  0.0339826147364906
  0.9152082326012375  0.9925760116615989  0.4869715661418796
  0.6269291060186950  0.9121484396404238  0.2071492193815323
  0.0297950172602976  0.2520307902298066  0.4929950866323339
  0.0224481797906773  0.0940984310392682  0.1575834724987950
  0.4633584317793577  0.6586572071133594  0.2320041473416318
  0.5949038446690573  0.6826200035243275  0.2703382287678458
  0.1546526559281496  0.4188779314806091  0.3051051529498860
  0.7110825115998671  0.0564576737815525  0.1123532262108157
  0.3469827139089303  0.9635842641306360  0.7390411752525909
  0.4185086434861807  0.6121277036344959  0.6175133715084934
  0.9905573399878556  0.9003667497914752  0.1880176928339690
  0.1030549393921533  0.6416820176755678  0.3090517966202742
  0.6078684351064614  0.1116237740480664  0.2733646616421585
  0.0093706627447780  0.0685802517239367  0.9167126398320519
  0.3485472273719200  0.3212636919488570  0.1517332938625170
  0.0591568277232895  0.5555069367994140  0.2071276692348092
  0.9188155889970439  0.5542302688798380  0.3450776902574886
  0.8096814293534222  0.0041686642263303  0.6384403288160871
  0.4466884545423496  0.0692326864180329  0.0368265573384363
  0.5081908253530107  0.6073174323945765  0.0436101062650447
  0.5424996398886744  0.8409413063044592  0.7519744749337622
  0.6421766292415729  0.2910526269098945  0.1191718339737109
  0.5423182217793145  0.9204567281297049  0.9263027352067257
  0.3121215034236257  0.4881853389618444  0.9233015385239195
  0.0960493891422963  0.1197509439436884  0.7576814584746616
  0.2566762969902358  0.7850495815268350  0.2712122225397953
  0.1763474383597693  0.3879387672059065  0.9029683208029662
  0.4334004284550776  0.6678266647933826  0.7798628505483840
  0.5298592005111343  0.0377041570295311  0.4734069642342160
  0.1814500008773781  0.1153172890807744  0.9204572405158732
  0.2241095088283934  0.4009202895375540  0.6157937021954567
  0.5320950705077950  0.8216453675258892  0.1891236130047567
  0.2651841943357556  0.2555882388070033  0.0143440236859417
  0.4165544027760252  0.3214456407387823  0.4670913255918274
  0.4250415090734838  0.8206464729800653  0.3338880057447502
  0.5800826023534361  0.8577696347223327  0.4015218013724095
  0.7157011662596535  0.7870740728053031  0.1282373741046314
  0.0216896833483524  0.6019070688207688  0.8264642505589516
  0.9304798757409134  0.7016335065142918  0.3550015325914734
  0.3271499285103861  0.4870406084881794  0.6265541016305440
  0.5983018132128414  0.0854647788798960  0.9196174367405842
  0.7870672961211669  0.6481763919603393  0.2359397733982259
  0.1350922039286146  0.6743323562292448  0.6930700710444965
  0.1320535270473654  0.1030517814892028  0.2760745032748454
  0.0621002607982105  0.2653623898370336  0.2169659137558778
  0.1014475227527971  0.1732486221488189  0.3904210292867294
  0.9005527944124818  0.5077682039440903  0.6165209953722430
  0.4859506754692173  0.0052397601127146  0.7621862187142462
  0.2689859244594800  0.0012082920596534  0.8908426138659359
 
  0.00000000E+00  0.00000000E+00  0.00000000E+00
  0.00000000E+00  0.00000000E+00  0.00000000E+00
  0.00000000E+00  0.00000000E+00  0.00000000E+00
  0.00000000E+00  0.00000000E+00  0.00000000E+00
  0.00000000E+00  0.00000000E+00  0.00000000E+00
  0.00000000E+00  0.00000000E+00  0.00000000E+00
  0.00000000E+00  0.00000000E+00  0.00000000E+00
  0.00000000E+00  0.00000000E+00  0.00000000E+00
  0.00000000E+00  0.00000000E+00  0.00000000E+00
  0.00000000E+00  0.00000000E+00  0.00000000E+00
  0.00000000E+00  0.00000000E+00  0.00000000E+00
  0.00000000E+00  0.00000000E+00  0.00000000E+00
  0.00000000E+00  0.00000000E+00  0.00000000E+00
  0.00000000E+00  0.00000000E+00  0.00000000E+00
  0.00000000E+00  0.00000000E+00  0.00000000E+00
  0.00000000E+00  0.00000000E+00  0.00000000E+00
  0.00000000E+00  0.00000000E+00  0.00000000E+00
  0.00000000E+00  0.00000000E+00  0.00000000E+00
  0.00000000E+00  0.00000000E+00  0.00000000E+00
  0.00000000E+00  0.00000000E+00  0.00000000E+00
  0.00000000E+00  0.00000000E+00  0.00000000E+00
  0.00000000E+00  0.00000000E+00  0.00000000E+00
  0.00000000E+00  0.00000000E+00  0.00000000E+00
  0.00000000E+00  0.00000000E+00  0.00000000E+00
  0.00000000E+00  0.00000000E+00  0.00000000E+00
  0.00000000E+00  0.00000000E+00  0.00000000E+00
  0.00000000E+00  0.00000000E+00  0.00000000E+00
  0.00000000E+00  0.00000000E+00  0.00000000E+00
  0.00000000E+00  0.00000000E+00  0.00000000E+00
  0.00000000E+00  0.00000000E+00  0.00000000E+00
  0.00000000E+00  0.00000000E+00  0.00000000E+00
  0.00000000E+00  0.00000000E+00  0.00000000E+00
  0.00000000E+00  0.00000000E+00  0.00000000E+00
  0.00000000E+00  0.00000000E+00  0.00000000E+00
  0.00000000E+00  0.00000000E+00  0.00000000E+00
  0.00000000E+00  0.00000000E+00  0.00000000E+00
  0.00000000E+00  0.00000000E+00  0.00000000E+00
  0.00000000E+00  0.00000000E+00  0.00000000E+00
  0.00000000E+00  0.00000000E+00  0.00000000E+00
  0.00000000E+00  0.00000000E+00  0.00000000E+00
  0.00000000E+00  0.00000000E+00  0.00000000E+00
  0.00000000E+00  0.00000000E+00  0.00000000E+00
  0.00000000E+00  0.00000000E+00  0.00000000E+00
  0.00000000E+00  0.00000000E+00  0.00000000E+00
  0.00000000E+00  0.00000000E+00  0.00000000E+00
  0.00000000E+00  0.00000000E+00  0.00000000E+00
  0.00000000E+00  0.00000000E+00  0.00000000E+00
  0.00000000E+00  0.00000000E+00  0.00000000E+00
  0.00000000E+00  0.00000000E+00  0.00000000E+00
  0.00000000E+00  0.00000000E+00  0.00000000E+00
  0.00000000E+00  0.00000000E+00  0.00000000E+00
  0.00000000E+00  0.00000000E+00  0.00000000E+00
  0.00000000E+00  0.00000000E+00  0.00000000E+00
  0.00000000E+00  0.00000000E+00  0.00000000E+00
  0.00000000E+00  0.00000000E+00  0.00000000E+00
  0.00000000E+00  0.00000000E+00  0.00000000E+00
  0.00000000E+00  0.00000000E+00  0.00000000E+00
  0.00000000E+00  0.00000000E+00  0.00000000E+00
  0.00000000E+00  0.00000000E+00  0.00000000E+00
  0.00000000E+00  0.00000000E+00  0.00000000E+00
  0.00000000E+00  0.00000000E+00  0.00000000E+00
  0.00000000E+00  0.00000000E+00  0.00000000E+00
  0.00000000E+00  0.00000000E+00  0.00000000E+00
  0.00000000E+00  0.00000000E+00  0.00000000E+00
  0.00000000E+00  0.00000000E+00  0.00000000E+00
  0.00000000E+00  0.00000000E+00  0.00000000E+00
  0.00000000E+00  0.00000000E+00  0.00000000E+00
  0.00000000E+00  0.00000000E+00  0.00000000E+00
  0.00000000E+00  0.00000000E+00  0.00000000E+00
  0.00000000E+00  0.00000000E+00  0.00000000E+00
  0.00000000E+00  0.00000000E+00  0.00000000E+00
  0.00000000E+00  0.00000000E+00  0.00000000E+00
  0.00000000E+00  0.00000000E+00  0.00000000E+00
  0.00000000E+00  0.00000000E+00  0.00000000E+00
  0.00000000E+00  0.00000000E+00  0.00000000E+00
  0.00000000E+00  0.00000000E+00  0.00000000E+00
  0.00000000E+00  0.00000000E+00  0.00000000E+00
  0.00000000E+00  0.00000000E+00  0.00000000E+00
  0.00000000E+00  0.00000000E+00  0.00000000E+00
  0.00000000E+00  0.00000000E+00  0.00000000E+00
  0.00000000E+00  0.00000000E+00  0.00000000E+00
  0.00000000E+00  0.00000000E+00  0.00000000E+00
  0.00000000E+00  0.00000000E+00  0.00000000E+00
  0.00000000E+00  0.00000000E+00  0.00000000E+00
  0.00000000E+00  0.00000000E+00  0.00000000E+00
  0.00000000E+00  0.00000000E+00  0.00000000E+00
  0.00000000E+00  0.00000000E+00  0.00000000E+00
  0.00000000E+00  0.00000000E+00  0.00000000E+00
  0.00000000E+00  0.00000000E+00  0.00000000E+00
  0.00000000E+00  0.00000000E+00  0.00000000E+00
  0.00000000E+00  0.00000000E+00  0.00000000E+00
  0.00000000E+00  0.00000000E+00  0.00000000E+00
  0.00000000E+00  0.00000000E+00  0.00000000E+00
  0.00000000E+00  0.00000000E+00  0.00000000E+00
  0.00000000E+00  0.00000000E+00  0.00000000E+00
  0.00000000E+00  0.00000000E+00  0.00000000E+00
  0.00000000E+00  0.00000000E+00  0.00000000E+00
  0.00000000E+00  0.00000000E+00  0.00000000E+00
  0.00000000E+00  0.00000000E+00  0.00000000E+00
  0.00000000E+00  0.00000000E+00  0.00000000E+00
  0.00000000E+00  0.00000000E+00  0.00000000E+00
  0.00000000E+00  0.00000000E+00  0.00000000E+00
  0.00000000E+00  0.00000000E+00  0.00000000E+00
  0.00000000E+00  0.00000000E+00  0.00000000E+00
  0.00000000E+00  0.00000000E+00  0.00000000E+00
  0.00000000E+00  0.00000000E+00  0.00000000E+00
  0.00000000E+00  0.00000000E+00  0.00000000E+00
  0.00000000E+00  0.00000000E+00  0.00000000E+00
  0.00000000E+00  0.00000000E+00  0.00000000E+00
  0.00000000E+00  0.00000000E+00  0.00000000E+00
  0.00000000E+00  0.00000000E+00  0.00000000E+00
  0.00000000E+00  0.00000000E+00  0.00000000E+00
  0.00000000E+00  0.00000000E+00  0.00000000E+00
  0.00000000E+00  0.00000000E+00  0.00000000E+00
  0.00000000E+00  0.00000000E+00  0.00000000E+00
  0.00000000E+00  0.00000000E+00  0.00000000E+00
  0.00000000E+00  0.00000000E+00  0.00000000E+00
  0.00000000E+00  0.00000000E+00  0.00000000E+00
  0.00000000E+00  0.00000000E+00  0.00000000E+00
  0.00000000E+00  0.00000000E+00  0.00000000E+00
  0.00000000E+00  0.00000000E+00  0.00000000E+00
  0.00000000E+00  0.00000000E+00  0.00000000E+00
  0.00000000E+00  0.00000000E+00  0.00000000E+00
  0.00000000E+00  0.00000000E+00  0.00000000E+00
  0.00000000E+00  0.00000000E+00  0.00000000E+00
  0.00000000E+00  0.00000000E+00  0.00000000E+00
  0.00000000E+00  0.00000000E+00  0.00000000E+00
  0.00000000E+00  0.00000000E+00  0.00000000E+00
  0.00000000E+00  0.00000000E+00  0.00000000E+00
  0.00000000E+00  0.00000000E+00  0.00000000E+00
  0.00000000E+00  0.00000000E+00  0.00000000E+00
  0.00000000E+00  0.00000000E+00  0.00000000E+00
  0.00000000E+00  0.00000000E+00  0.00000000E+00
  0.00000000E+00  0.00000000E+00  0.00000000E+00
  0.00000000E+00  0.00000000E+00  0.00000000E+00
  0.00000000E+00  0.00000000E+00  0.00000000E+00
  0.00000000E+00  0.00000000E+00  0.00000000E+00
  0.00000000E+00  0.00000000E+00  0.00000000E+00
  0.00000000E+00  0.00000000E+00  0.00000000E+00
  0.00000000E+00  0.00000000E+00  0.00000000E+00
  0.00000000E+00  0.00000000E+00  0.00000000E+00
  0.00000000E+00  0.00000000E+00  0.00000000E+00
  0.00000000E+00  0.00000000E+00  0.00000000E+00
  0.00000000E+00  0.00000000E+00  0.00000000E+00
  0.00000000E+00  0.00000000E+00  0.00000000E+00
  0.00000000E+00  0.00000000E+00  0.00000000E+00
  0.00000000E+00  0.00000000E+00  0.00000000E+00
  0.00000000E+00  0.00000000E+00  0.00000000E+00
  0.00000000E+00  0.00000000E+00  0.00000000E+00
  0.00000000E+00  0.00000000E+00  0.00000000E+00
  0.00000000E+00  0.00000000E+00  0.00000000E+00
  0.00000000E+00  0.00000000E+00  0.00000000E+00
  0.00000000E+00  0.00000000E+00  0.00000000E+00
  0.00000000E+00  0.00000000E+00  0.00000000E+00
  0.00000000E+00  0.00000000E+00  0.00000000E+00
  0.00000000E+00  0.00000000E+00  0.00000000E+00
  0.00000000E+00  0.00000000E+00  0.00000000E+00
  0.00000000E+00  0.00000000E+00  0.00000000E+00
  0.00000000E+00  0.00000000E+00  0.00000000E+00
  0.00000000E+00  0.00000000E+00  0.00000000E+00
  0.00000000E+00  0.00000000E+00  0.00000000E+00
  0.00000000E+00  0.00000000E+00  0.00000000E+00
  0.00000000E+00  0.00000000E+00  0.00000000E+00
  0.00000000E+00  0.00000000E+00  0.00000000E+00
  0.00000000E+00  0.00000000E+00  0.00000000E+00
  0.00000000E+00  0.00000000E+00  0.00000000E+00
  0.00000000E+00  0.00000000E+00  0.00000000E+00
  0.00000000E+00  0.00000000E+00  0.00000000E+00
  0.00000000E+00  0.00000000E+00  0.00000000E+00
  0.00000000E+00  0.00000000E+00  0.00000000E+00
  0.00000000E+00  0.00000000E+00  0.00000000E+00
  0.00000000E+00  0.00000000E+00  0.00000000E+00
  0.00000000E+00  0.00000000E+00  0.00000000E+00
  0.00000000E+00  0.00000000E+00  0.00000000E+00
  0.00000000E+00  0.00000000E+00  0.00000000E+00
  0.00000000E+00  0.00000000E+00  0.00000000E+00
  0.00000000E+00  0.00000000E+00  0.00000000E+00
  0.00000000E+00  0.00000000E+00  0.00000000E+00
  0.00000000E+00  0.00000000E+00  0.00000000E+00
  0.00000000E+00  0.00000000E+00  0.00000000E+00
  0.00000000E+00  0.00000000E+00  0.00000000E+00
  0.00000000E+00  0.00000000E+00  0.00000000E+00
  0.00000000E+00  0.00000000E+00  0.00000000E+00
  0.00000000E+00  0.00000000E+00  0.00000000E+00
  0.00000000E+00  0.00000000E+00  0.00000000E+00
  0.00000000E+00  0.00000000E+00  0.00000000E+00
  0.00000000E+00  0.00000000E+00  0.00000000E+00
  0.00000000E+00  0.00000000E+00  0.00000000E+00
  0.00000000E+00  0.00000000E+00  0.00000000E+00
  0.00000000E+00  0.00000000E+00  0.00000000E+00
  0.00000000E+00  0.00000000E+00  0.00000000E+00
  0.00000000E+00  0.00000000E+00  0.00000000E+00
  0.00000000E+00  0.00000000E+00  0.00000000E+00
  0.00000000E+00  0.00000000E+00  0.00000000E+00
  0.00000000E+00  0.00000000E+00  0.00000000E+00
  0.00000000E+00  0.00000000E+00  0.00000000E+00
  0.00000000E+00  0.00000000E+00  0.00000000E+00
  0.00000000E+00  0.00000000E+00  0.00000000E+00
  0.00000000E+00  0.00000000E+00  0.00000000E+00
  0.00000000E+00  0.00000000E+00  0.00000000E+00
  0.00000000E+00  0.00000000E+00  0.00000000E+00
  0.00000000E+00  0.00000000E+00  0.00000000E+00
  0.00000000E+00  0.00000000E+00  0.00000000E+00
  0.00000000E+00  0.00000000E+00  0.00000000E+00
  0.00000000E+00  0.00000000E+00  0.00000000E+00
  0.00000000E+00  0.00000000E+00  0.00000000E+00
  0.00000000E+00  0.00000000E+00  0.00000000E+00
  0.00000000E+00  0.00000000E+00  0.00000000E+00
  0.00000000E+00  0.00000000E+00  0.00000000E+00
  0.00000000E+00  0.00000000E+00  0.00000000E+00
  0.00000000E+00  0.00000000E+00  0.00000000E+00
  0.00000000E+00  0.00000000E+00  0.00000000E+00
  0.00000000E+00  0.00000000E+00  0.00000000E+00
  0.00000000E+00  0.00000000E+00  0.00000000E+00
  0.00000000E+00  0.00000000E+00  0.00000000E+00
  0.00000000E+00  0.00000000E+00  0.00000000E+00
  0.00000000E+00  0.00000000E+00  0.00000000E+00
  0.00000000E+00  0.00000000E+00  0.00000000E+00
  0.00000000E+00  0.00000000E+00  0.00000000E+00
  0.00000000E+00  0.00000000E+00  0.00000000E+00
  0.00000000E+00  0.00000000E+00  0.00000000E+00
  0.00000000E+00  0.00000000E+00  0.00000000E+00
  0.00000000E+00  0.00000000E+00  0.00000000E+00
  0.00000000E+00  0.00000000E+00  0.00000000E+00
  0.00000000E+00  0.00000000E+00  0.00000000E+00
  0.00000000E+00  0.00000000E+00  0.00000000E+00
  0.00000000E+00  0.00000000E+00  0.00000000E+00
  0.00000000E+00  0.00000000E+00  0.00000000E+00
  0.00000000E+00  0.00000000E+00  0.00000000E+00
  0.00000000E+00  0.00000000E+00  0.00000000E+00
  0.00000000E+00  0.00000000E+00  0.00000000E+00