Sb                                      
   1.00000000000000     
    18.8173007964999996    0.0000000000000000    0.0000000000000000
     0.0000000000000000   18.8173007964999996    0.0000000000000000
     0.0000000000000000    0.0000000000000000   18.8173007964999996
   Sb   Sn
   205    11
Direct
  0.9797262099833972  0.9366977721511862  0.5024931527069474
  0.5876072493785571  0.7055796835817951  0.2754330668071577
  0.9119876732042616  0.9794522574143566  0.9362017957283542
  0.2423453005056460  0.3230343529062928  0.1162648052628034
  0.8204065891058976  0.9303156268264915  0.8184494075939430
  0.3985227812020040  0.1095990082498262  0.9907282737417369
  0.2110647042455692  0.2677415124277529  0.4163280013232462
  0.6861142533804596  0.2207543007616918  0.7593705148435529
  0.4143600604831962  0.6790170545085318  0.2595628530466837
  0.2872428519122096  0.1040001096028035  0.3462099036585012
  0.3079086572320385  0.9094912471167289  0.4383882040639031
  0.6078998523106111  0.2453741330422189  0.3529779496436880
  0.5874618034935082 -0.0065774360168151  0.3011465379820036
  0.4376127168195850  0.8934083560808957  0.0083108966379897
  0.1326628772918543  0.4893545664294506  0.4037616411873571
  0.7366145625886961  0.5299474662058109  0.0219563456794765
  0.4481330045071745  0.2257858917854968  0.1033531444895364
  0.1422358682590741  0.8764979940271784  0.9855686895293729
  0.8400027299473514  0.1486157459525279  0.8029222833708782
  0.2588781724712360  0.1734576418881824  0.0176252579761702
  0.8384535793992113  0.6965650965720737  0.8496727030308919
  0.7522286262141529  0.9556742782558020  0.5368669656636631
  0.8125871046013272 -0.0212387486930910  0.3670901706793024
  0.5319666998680036  0.9080374162310307  0.1838592224410526
  0.9376322016854860  0.3968447015648734  0.0066749021597669
  0.5312807675426521  0.4929112767525661  0.9708738148839089
  0.7485841676023797  0.5250443890077249  0.7336055978372881
  0.7371207030976873  0.9311928834477757  0.2411981650490051
  0.0105552566627122  0.3208384408398320  0.8784140634665764
  0.6427986686511588  0.7334778824310300  0.7935775795871869
  0.9283133658146023  0.4740677230143048  0.1530306183617766
  0.0786226393164511  0.3940887970687869  0.2817352406150382
  0.5803684983342017  0.5113530331684681  0.8252088639285025
  0.2492339649960324  0.3283433797366823  0.7785732096950767
  0.2253657631783364  0.1834624613870278  0.2262309090555967
  0.6199144216656715  0.6044751569829865  0.0941404377628815
  0.2933825743549178  0.0138950881477295  0.5890341159924564
  0.0983497898947670  0.5658983135787625  0.0086103115097338
  0.3558914508598433  0.5312883968256883  0.8436105393231722
  0.4932585327339102  0.7960338467385800  0.4185803914310909
  0.8310354165475740  0.3121396003346446  0.2806904282664180
  0.1414724804401533  0.2250054286976220  0.8291383756042838
  0.0218715276640288  0.8414668744495581  0.8739992612417540
  0.0981119367414383  0.6359427436805951  0.2210726010332908
  0.3581513309556262  0.4484429886091465  0.7112511227598195
  0.8937743109473200  0.2955527777679733  0.5121838900968518
  0.9973664185734198  0.7776080104388005  0.3000645168947194
  0.7524349499824433  0.7923020185952284  0.6957029498087047
  0.8228414807655233  0.8545613840315549  0.1373895366837619
  0.9342701616450483  0.6485182877457022  0.9593366217386241
  0.1459817277988694  0.8722340813664055  0.7485407697906890
  0.1521576550542517  0.8542842895939182  0.1762758771693296
  0.5463121079422610  0.0933509269547995  0.7749547016735084
  0.8099860951204201  0.6616416437116082  0.0535497583121825
  0.9117837376940375  0.8093030120606346  0.7709330570682015
  0.8865169984991600  0.0846228165484471  0.1655937294952365
  0.5638602797562243  0.6905158178395855  0.9529384609257339
  0.4499634217083334  0.6216424500418311  0.0347985045439759
  0.0287164416940951  0.7063399558965674  0.4623225863822627
  0.6890832256268508  0.7329981639650310  0.1483217031149760
  0.1748074414495702  0.7363570600937350  0.3677436034970454
  0.3867459330906036  0.8720866708320957  0.3092702333079624
  0.0960426309237869  0.4964042621399667  0.1520167495602245
  0.4581978052641968  0.0229617713033138  0.3782529176859178
  0.1400446188945870  0.9775354089594850  0.2675366217855570
  0.3372223643142428  0.1705135006087467  0.5289990979483806
  0.0041540232955624  0.7792652957025834  0.1124760091376114
  0.7530729406385727  0.3215705881679247  0.6608279254538141
  0.0105781653822458  0.1796098028325441  0.6769996395405978
  0.4187779088245434  0.9883277131243400  0.7922696528625480
  0.1654521615454670  0.1409004929336919  0.5117885253660770
  0.3584882880457578  0.3330894562332611  0.9875605011498814
  0.9236453253802295  0.9781445202276239  0.7080382435075261
  0.3965736449683976  0.3252413369618978  0.4058584728756574
  0.9275444044223882  0.4575341702473143  0.3148430789448149
  0.2210509837460350  0.1002558797510732  0.8886329455099389
  0.3073627289002852  0.0797215598794620  0.7304218724380585
  0.6120883330733299  0.8943674842541099  0.4190540581716904
  0.7125662707214432  0.8211937959005554  0.9166631166854707
  0.3147357746804254  0.9918231177051098  0.2425915707088656
  0.3961856884815559  0.3265619028245266  0.2097043079760250
  0.1231770293237990  0.7202414569386968  0.7138426614745919
  0.3388027914673197  0.6855013474433864  0.7041617210630189
  0.4215583339514498  0.4482147463365190  0.1165900433839023
  0.3710846242957776  0.8320464871426742  0.7548065582021644
  0.0335068274907661  0.2855617898235567  0.1593287990253527
  0.8626431772041090  0.6445323359684555  0.3937872937109167
  0.9894999320129663  0.9328450979231500  0.2771665255594670
  0.5737918290505748  0.9297740114529041  0.6852543827129798
  0.0741296630070880  0.1670494734419514  0.2554704551910127
  0.0837269181463722  0.2124306568215986  0.0286647150872607
  0.3337997686537485  0.4502140562329358  0.3226586767441317
  0.2175692966825746  0.0649003326983563  0.1189921455855966
  0.9675398485100870  0.4839780247038063  0.7893927707035631
  0.3000323214876545  0.2919666397712392  0.6189683319895082
  0.4629311679617878  0.5303638909508379  0.2510065386904257
  0.5651978937413642  0.0608112464574393  0.4912483380152772
  0.2679215115897150  0.8698931391864074  0.6455892036490006
  0.6599996957200034  0.5205580406121797  0.5394001498444477
  0.0490415538584371  0.6915820759984989  0.8470060502815325
  0.4319960542676241  0.4069183764712605  0.5335074886422277
  0.1342916921199639  0.9981381360111127  0.5757433628534072
  0.5358555001944584  0.1343659523595617  0.1911562912172822
  0.7709158033401112  0.5312077707574444  0.3374490933283640
  0.5347637999423019  0.2038479217736299  0.8893582736287832
  0.9254548455499919  0.0808463034472415  0.3227020445342126
  0.6196983709722869  0.0116816255708568  0.0991039814560581
  0.9574191702240088  0.9352081519481679  0.1261801674009513
  0.6069060772811768  0.8111983966680760  0.0387858822049650
  0.3379690761621247  0.5349889848449614  0.4652684872641502
  0.7435238779073188  0.2178282780362521  0.5456678443066822
  0.8955100172495706  0.8444995163989210  0.4086066023429387
  0.3091826458580622  0.7522302577420440  0.0664571509505325
  0.0195587147769046  0.5826713973642182  0.3448385490315288
  0.4286304955919362  0.1621191770659100  0.3154987466982350
  0.9912807404227061  0.7251574179941688  0.6288022561651637
  0.1926771154872704  0.6977166699707719  0.9031539556345346
  0.5378065971688868  0.0038595051000087  0.9664512574173916
  0.2631594453494966  0.9062059923698833  0.0811407896145213
  0.7425505687166981  0.9394975728196706  0.0334344762226278
  0.0990532918368223  0.8220853923156466  0.5458907782795460
  0.5628467847368821  0.2995271746101671  0.0324441512786167
  0.7046423215839498  0.8019247718781428  0.3357863280771334
  0.8712880086814576  0.8779235446870776  0.6006798058220086
  0.5007365952434334  0.7916878413431834  0.6787092981810993
  0.8562100940067657  0.7256671293789601  0.2593689853615837
  0.7626519138021942  0.7429147913913974  0.4686730182644643
  0.9277886431279727  0.6344792664110444  0.1545781999459451
  0.6913052460754775  0.0488484133089045  0.8347594522542362
  0.0595828015009873  0.2671433960076111  0.3759268978675465
 -0.0176953776350227  0.0961261772628023  0.8607367240903862
  0.2605099627286707  0.4790082066267277  0.1401377576304817
  0.0873022320525393  0.0463857381699084  0.7164207118361057
  0.4662222473999389 -0.0087573288038498  0.5879842275113274
  0.0667115539919503  0.0667688429268865  0.0941885360346882
  0.7996285205828773  0.3292711160502729  0.0476929557808018
  0.2383369213589189  0.8439953389707774  0.8689851405863913
 -0.0013451221706981  0.4080255025949593  0.4653901374954440
  0.3350579051702001  0.9802966894495969  0.9229087974930047
  0.7200966873514182  0.0299173084319554  0.6674379872966442
  0.7113781327332965  0.1094092432205462  0.3583140204856224
  0.4317092962459507  0.0193618074269395  0.1436663082105851
  0.6990337365738345  0.6041789393705551  0.8596132454596054
  0.6247167228178524  0.4095122474663814  0.6561838581179440
  0.9138654606387044  0.2829238881749938  0.7633542022830018
  0.7562551868578949  0.2456423583277626  0.9062837837627609
  0.1374919374336514  0.4186799898690819  0.7166533377057308
  0.7967567182841061  0.4069304264688035  0.4353995178888930
  0.2255476902540274  0.3463204123472305  0.2785222368322740
  0.6690114439558145  0.1311773245860541  0.9688808940316777
  0.6687608508131906  0.2224337857842479  0.1210236901221039
  0.7360051375570508  0.0887181891293292  0.2055922472937415
  0.7970385644518448  0.3979396237846077  0.8195728578366478
  0.6814880685230770  0.3256595872415380  0.2371142588158373
  0.1227670149171131  0.3697601430790826  0.0262034738537104
  0.1385267295100682  0.7114708124519248  0.0555613360000568
  0.9408125326040929  0.5459603915625241  0.5126881964363557
  0.7665554763855671  0.4468886458307262  0.1491193066546784
  0.3622851394594807  0.6971044369495646  0.9283638363276341
  0.1418505022602022  0.6062874854361656  0.5205185581843804
  0.6322580058906099  0.6253097357825195  0.6498527150164726
  0.3809750098829582  0.2183804144535910  0.8754985141685580
  0.8841610062469193  0.2434547517789788  0.1510255314772369
  0.9035716346829256  0.0733478717755804  0.4927872164339250
  0.8712515884923849  0.4967333911500341  0.9124757136075852
  0.1087993153195626  0.5096132296779410  0.8504110450716459
  0.4436388806403100  0.4063387109278649  0.8812478970904722
  0.9189441559823596  0.8012734352160725  0.9863460902592858
  0.6563474256965983  0.8415256213600208  0.5820272622427503
  0.4244287989783637  0.8446438422622913  0.5493575108665905
  0.2433557299654940  0.5872535824764467  0.3451986326991196
  0.2347706294720300  0.5133966770383614  0.6405790887078116
  0.4513988758000959  0.7532419834750641  0.1288273446013115
  0.0393873089178580  0.5737357926518052  0.6300608347364345
  0.1580638698034995  0.8954046061329182  0.4051411631016056
  0.0833597946062474  0.3400322622606808  0.5882173257190502
  0.1002450136492137  0.0221981149899366  0.9475972502917763
  0.8835282344230346  0.6075947300322504  0.7313013413601669
  0.1682664702650600  0.1812052599466220  0.6812603623357664
  0.6716174978453582  0.3842847968019350  0.9114881641164130
  0.4717137942012330  0.8010958749499715  0.8875846460406743
  0.5762370270807006  0.3244619834991648  0.7996134808207513
  0.2522749110378958  0.5417219992401379 -0.0019772074086650
  0.2270764182678146  0.7320066627030332  0.5790514322315017
  0.9443922975090405  0.2065342459153143  0.9627787421533361
  0.8376829569175297  0.1965107261038561  0.3838643406250303
  0.8149229007044559  0.4789086203363832  0.5757308405800673
  0.8163338422005297  0.0746202401429378  0.0127004088563124
  0.4110114346461872  0.6398813646200854  0.5699185738714484
  0.9333635235784354  0.3835686052187889  0.6375452519420912
  0.2312664419714446  0.4061559170325028  0.9206532088578392
  0.8560765254388013  0.1056597607612443  0.6501143430791289
  0.6077880313838573  0.9184254599993948  0.8574806985868343
  0.2187714048148223  0.3876983351330721  0.5156836657293693
  0.5138861698058179  0.3677448316780760  0.3108569371778732
  0.6209896941061825  0.5536951192582497  0.2406159367985558
  0.4824876835071514  0.5332396473892057  0.6581204748381162
  0.2638833620436102  0.7832942445748178  0.2521275311621771
  0.4288799939118271  0.1430828752395776  0.6573369775278800
  0.5329919813841405  0.3005567088908715  0.5912223644811638
  0.4738670101666029  0.5871436624021399  0.4069793365217974
  0.4671754789966611  0.6241945127425925  0.7877256787996366
  0.4322541481333311  0.2895179230163410  0.7117057094642781
  0.6627356206621136  0.3284155518165411  0.4719483674894365
  0.5486761481381850  0.4596193086984172  0.4466893879592946
  0.5596372869789090  0.6957330131541953  0.5221913012740426
  0.7827496601574235  0.6617935911666667  0.6098212508326293
  0.4846386104456975  0.1972327701329178  0.4627181407048961
  0.2757300886477918  0.6375293707724987  0.1896343151838847
  0.6204428058016933  0.1469990284307318  0.6273208904994841
  0.2195123396121534  0.5998349574127742  0.7724525493956750
  0.5835030538618301  0.4292547079655375  0.1173319414075107
  0.3144704689410606  0.7478101482472348  0.4469222479005093
  0.6620797438176086  0.6287070925909208  0.4123240089194180
  0.0125125282121156  0.1852847996603996  0.5208480526363189
  0.0789632787162896  0.0454809003894512  0.4152686191710573
 
  0.00000000E+00  0.00000000E+00  0.00000000E+00
  0.00000000E+00  0.00000000E+00  0.00000000E+00
  0.00000000E+00  0.00000000E+00  0.00000000E+00
  0.00000000E+00  0.00000000E+00  0.00000000E+00
  0.00000000E+00  0.00000000E+00  0.00000000E+00
  0.00000000E+00  0.00000000E+00  0.00000000E+00
  0.00000000E+00  0.00000000E+00  0.00000000E+00
  0.00000000E+00  0.00000000E+00  0.00000000E+00
  0.00000000E+00  0.00000000E+00  0.00000000E+00
  0.00000000E+00  0.00000000E+00  0.00000000E+00
  0.00000000E+00  0.00000000E+00  0.00000000E+00
  0.00000000E+00  0.00000000E+00  0.00000000E+00
  0.00000000E+00  0.00000000E+00  0.00000000E+00
  0.00000000E+00  0.00000000E+00  0.00000000E+00
  0.00000000E+00  0.00000000E+00  0.00000000E+00
  0.00000000E+00  0.00000000E+00  0.00000000E+00
  0.00000000E+00  0.00000000E+00  0.00000000E+00
  0.00000000E+00  0.00000000E+00  0.00000000E+00
  0.00000000E+00  0.00000000E+00  0.00000000E+00
  0.00000000E+00  0.00000000E+00  0.00000000E+00
  0.00000000E+00  0.00000000E+00  0.00000000E+00
  0.00000000E+00  0.00000000E+00  0.00000000E+00
  0.00000000E+00  0.00000000E+00  0.00000000E+00
  0.00000000E+00  0.00000000E+00  0.00000000E+00
  0.00000000E+00  0.00000000E+00  0.00000000E+00
  0.00000000E+00  0.00000000E+00  0.00000000E+00
  0.00000000E+00  0.00000000E+00  0.00000000E+00
  0.00000000E+00  0.00000000E+00  0.00000000E+00
  0.00000000E+00  0.00000000E+00  0.00000000E+00
  0.00000000E+00  0.00000000E+00  0.00000000E+00
  0.00000000E+00  0.00000000E+00  0.00000000E+00
  0.00000000E+00  0.00000000E+00  0.00000000E+00
  0.00000000E+00  0.00000000E+00  0.00000000E+00
  0.00000000E+00  0.00000000E+00  0.00000000E+00
  0.00000000E+00  0.00000000E+00  0.00000000E+00
  0.00000000E+00  0.00000000E+00  0.00000000E+00
  0.00000000E+00  0.00000000E+00  0.00000000E+00
  0.00000000E+00  0.00000000E+00  0.00000000E+00
  0.00000000E+00  0.00000000E+00  0.00000000E+00
  0.00000000E+00  0.00000000E+00  0.00000000E+00
  0.00000000E+00  0.00000000E+00  0.00000000E+00
  0.00000000E+00  0.00000000E+00  0.00000000E+00
  0.00000000E+00  0.00000000E+00  0.00000000E+00
  0.00000000E+00  0.00000000E+00  0.00000000E+00
  0.00000000E+00  0.00000000E+00  0.00000000E+00
  0.00000000E+00  0.00000000E+00  0.00000000E+00
  0.00000000E+00  0.00000000E+00  0.00000000E+00
  0.00000000E+00  0.00000000E+00  0.00000000E+00
  0.00000000E+00  0.00000000E+00  0.00000000E+00
  0.00000000E+00  0.00000000E+00  0.00000000E+00
  0.00000000E+00  0.00000000E+00  0.00000000E+00
  0.00000000E+00  0.00000000E+00  0.00000000E+00
  0.00000000E+00  0.00000000E+00  0.00000000E+00
  0.00000000E+00  0.00000000E+00  0.00000000E+00
  0.00000000E+00  0.00000000E+00  0.00000000E+00
  0.00000000E+00  0.00000000E+00  0.00000000E+00
  0.00000000E+00  0.00000000E+00  0.00000000E+00
  0.00000000E+00  0.00000000E+00  0.00000000E+00
  0.00000000E+00  0.00000000E+00  0.00000000E+00
  0.00000000E+00  0.00000000E+00  0.00000000E+00
  0.00000000E+00  0.00000000E+00  0.00000000E+00
  0.00000000E+00  0.00000000E+00  0.00000000E+00
  0.00000000E+00  0.00000000E+00  0.00000000E+00
  0.00000000E+00  0.00000000E+00  0.00000000E+00
  0.00000000E+00  0.00000000E+00  0.00000000E+00
  0.00000000E+00  0.00000000E+00  0.00000000E+00
  0.00000000E+00  0.00000000E+00  0.00000000E+00
  0.00000000E+00  0.00000000E+00  0.00000000E+00
  0.00000000E+00  0.00000000E+00  0.00000000E+00
  0.00000000E+00  0.00000000E+00  0.00000000E+00
  0.00000000E+00  0.00000000E+00  0.00000000E+00
  0.00000000E+00  0.00000000E+00  0.00000000E+00
  0.00000000E+00  0.00000000E+00  0.00000000E+00
  0.00000000E+00  0.00000000E+00  0.00000000E+00
  0.00000000E+00  0.00000000E+00  0.00000000E+00
  0.00000000E+00  0.00000000E+00  0.00000000E+00
  0.00000000E+00  0.00000000E+00  0.00000000E+00
  0.00000000E+00  0.00000000E+00  0.00000000E+00
  0.00000000E+00  0.00000000E+00  0.00000000E+00
  0.00000000E+00  0.00000000E+00  0.00000000E+00
  0.00000000E+00  0.00000000E+00  0.00000000E+00
  0.00000000E+00  0.00000000E+00  0.00000000E+00
  0.00000000E+00  0.00000000E+00  0.00000000E+00
  0.00000000E+00  0.00000000E+00  0.00000000E+00
  0.00000000E+00  0.00000000E+00  0.00000000E+00
  0.00000000E+00  0.00000000E+00  0.00000000E+00
  0.00000000E+00  0.00000000E+00  0.00000000E+00
  0.00000000E+00  0.00000000E+00  0.00000000E+00
  0.00000000E+00  0.00000000E+00  0.00000000E+00
  0.00000000E+00  0.00000000E+00  0.00000000E+00
  0.00000000E+00  0.00000000E+00  0.00000000E+00
  0.00000000E+00  0.00000000E+00  0.00000000E+00
  0.00000000E+00  0.00000000E+00  0.00000000E+00
  0.00000000E+00  0.00000000E+00  0.00000000E+00
  0.00000000E+00  0.00000000E+00  0.00000000E+00
  0.00000000E+00  0.00000000E+00  0.00000000E+00
  0.00000000E+00  0.00000000E+00  0.00000000E+00
  0.00000000E+00  0.00000000E+00  0.00000000E+00
  0.00000000E+00  0.00000000E+00  0.00000000E+00
  0.00000000E+00  0.00000000E+00  0.00000000E+00
  0.00000000E+00  0.00000000E+00  0.00000000E+00
  0.00000000E+00  0.00000000E+00  0.00000000E+00
  0.00000000E+00  0.00000000E+00  0.00000000E+00
  0.00000000E+00  0.00000000E+00  0.00000000E+00
  0.00000000E+00  0.00000000E+00  0.00000000E+00
  0.00000000E+00  0.00000000E+00  0.00000000E+00
  0.00000000E+00  0.00000000E+00  0.00000000E+00
  0.00000000E+00  0.00000000E+00  0.00000000E+00
  0.00000000E+00  0.00000000E+00  0.00000000E+00
  0.00000000E+00  0.00000000E+00  0.00000000E+00
  0.00000000E+00  0.00000000E+00  0.00000000E+00
  0.00000000E+00  0.00000000E+00  0.00000000E+00
  0.00000000E+00  0.00000000E+00  0.00000000E+00
  0.00000000E+00  0.00000000E+00  0.00000000E+00
  0.00000000E+00  0.00000000E+00  0.00000000E+00
  0.00000000E+00  0.00000000E+00  0.00000000E+00
  0.00000000E+00  0.00000000E+00  0.00000000E+00
  0.00000000E+00  0.00000000E+00  0.00000000E+00
  0.00000000E+00  0.00000000E+00  0.00000000E+00
  0.00000000E+00  0.00000000E+00  0.00000000E+00
  0.00000000E+00  0.00000000E+00  0.00000000E+00
  0.00000000E+00  0.00000000E+00  0.00000000E+00
  0.00000000E+00  0.00000000E+00  0.00000000E+00
  0.00000000E+00  0.00000000E+00  0.00000000E+00
  0.00000000E+00  0.00000000E+00  0.00000000E+00
  0.00000000E+00  0.00000000E+00  0.00000000E+00
  0.00000000E+00  0.00000000E+00  0.00000000E+00
  0.00000000E+00  0.00000000E+00  0.00000000E+00
  0.00000000E+00  0.00000000E+00  0.00000000E+00
  0.00000000E+00  0.00000000E+00  0.00000000E+00
  0.00000000E+00  0.00000000E+00  0.00000000E+00
  0.00000000E+00  0.00000000E+00  0.00000000E+00
  0.00000000E+00  0.00000000E+00  0.00000000E+00
  0.00000000E+00  0.00000000E+00  0.00000000E+00
  0.00000000E+00  0.00000000E+00  0.00000000E+00
  0.00000000E+00  0.00000000E+00  0.00000000E+00
  0.00000000E+00  0.00000000E+00  0.00000000E+00
  0.00000000E+00  0.00000000E+00  0.00000000E+00
  0.00000000E+00  0.00000000E+00  0.00000000E+00
  0.00000000E+00  0.00000000E+00  0.00000000E+00
  0.00000000E+00  0.00000000E+00  0.00000000E+00
  0.00000000E+00  0.00000000E+00  0.00000000E+00
  0.00000000E+00  0.00000000E+00  0.00000000E+00
  0.00000000E+00  0.00000000E+00  0.00000000E+00
  0.00000000E+00  0.00000000E+00  0.00000000E+00
  0.00000000E+00  0.00000000E+00  0.00000000E+00
  0.00000000E+00  0.00000000E+00  0.00000000E+00
  0.00000000E+00  0.00000000E+00  0.00000000E+00
  0.00000000E+00  0.00000000E+00  0.00000000E+00
  0.00000000E+00  0.00000000E+00  0.00000000E+00
  0.00000000E+00  0.00000000E+00  0.00000000E+00
  0.00000000E+00  0.00000000E+00  0.00000000E+00
  0.00000000E+00  0.00000000E+00  0.00000000E+00
  0.00000000E+00  0.00000000E+00  0.00000000E+00
  0.00000000E+00  0.00000000E+00  0.00000000E+00
  0.00000000E+00  0.00000000E+00  0.00000000E+00
  0.00000000E+00  0.00000000E+00  0.00000000E+00
  0.00000000E+00  0.00000000E+00  0.00000000E+00
  0.00000000E+00  0.00000000E+00  0.00000000E+00
  0.00000000E+00  0.00000000E+00  0.00000000E+00
  0.00000000E+00  0.00000000E+00  0.00000000E+00
  0.00000000E+00  0.00000000E+00  0.00000000E+00
  0.00000000E+00  0.00000000E+00  0.00000000E+00
  0.00000000E+00  0.00000000E+00  0.00000000E+00
  0.00000000E+00  0.00000000E+00  0.00000000E+00
  0.00000000E+00  0.00000000E+00  0.00000000E+00
  0.00000000E+00  0.00000000E+00  0.00000000E+00
  0.00000000E+00  0.00000000E+00  0.00000000E+00
  0.00000000E+00  0.00000000E+00  0.00000000E+00
  0.00000000E+00  0.00000000E+00  0.00000000E+00
  0.00000000E+00  0.00000000E+00  0.00000000E+00
  0.00000000E+00  0.00000000E+00  0.00000000E+00
  0.00000000E+00  0.00000000E+00  0.00000000E+00
  0.00000000E+00  0.00000000E+00  0.00000000E+00
  0.00000000E+00  0.00000000E+00  0.00000000E+00
  0.00000000E+00  0.00000000E+00  0.00000000E+00
  0.00000000E+00  0.00000000E+00  0.00000000E+00
  0.00000000E+00  0.00000000E+00  0.00000000E+00
  0.00000000E+00  0.00000000E+00  0.00000000E+00
  0.00000000E+00  0.00000000E+00  0.00000000E+00
  0.00000000E+00  0.00000000E+00  0.00000000E+00
  0.00000000E+00  0.00000000E+00  0.00000000E+00
  0.00000000E+00  0.00000000E+00  0.00000000E+00
  0.00000000E+00  0.00000000E+00  0.00000000E+00
  0.00000000E+00  0.00000000E+00  0.00000000E+00
  0.00000000E+00  0.00000000E+00  0.00000000E+00
  0.00000000E+00  0.00000000E+00  0.00000000E+00
  0.00000000E+00  0.00000000E+00  0.00000000E+00
  0.00000000E+00  0.00000000E+00  0.00000000E+00
  0.00000000E+00  0.00000000E+00  0.00000000E+00
  0.00000000E+00  0.00000000E+00  0.00000000E+00
  0.00000000E+00  0.00000000E+00  0.00000000E+00
  0.00000000E+00  0.00000000E+00  0.00000000E+00
  0.00000000E+00  0.00000000E+00  0.00000000E+00
  0.00000000E+00  0.00000000E+00  0.00000000E+00
  0.00000000E+00  0.00000000E+00  0.00000000E+00
  0.00000000E+00  0.00000000E+00  0.00000000E+00
  0.00000000E+00  0.00000000E+00  0.00000000E+00
  0.00000000E+00  0.00000000E+00  0.00000000E+00
  0.00000000E+00  0.00000000E+00  0.00000000E+00
  0.00000000E+00  0.00000000E+00  0.00000000E+00
  0.00000000E+00  0.00000000E+00  0.00000000E+00
  0.00000000E+00  0.00000000E+00  0.00000000E+00
  0.00000000E+00  0.00000000E+00  0.00000000E+00
  0.00000000E+00  0.00000000E+00  0.00000000E+00
  0.00000000E+00  0.00000000E+00  0.00000000E+00
  0.00000000E+00  0.00000000E+00  0.00000000E+00
  0.00000000E+00  0.00000000E+00  0.00000000E+00
  0.00000000E+00  0.00000000E+00  0.00000000E+00
  0.00000000E+00  0.00000000E+00  0.00000000E+00
  0.00000000E+00  0.00000000E+00  0.00000000E+00
  0.00000000E+00  0.00000000E+00  0.00000000E+00
  0.00000000E+00  0.00000000E+00  0.00000000E+00
  0.00000000E+00  0.00000000E+00  0.00000000E+00
  0.00000000E+00  0.00000000E+00  0.00000000E+00
  0.00000000E+00  0.00000000E+00  0.00000000E+00
 
           1
   3.00000000000000     
  0.10000000E+01  0.00000000E+00  0.00000000E+00  0.00000000E+00
  0.97972621E+00  0.93669777E+00  0.50249315E+00
  0.58760725E+00  0.70557968E+00  0.27543307E+00
  0.91198767E+00  0.97945226E+00  0.93620180E+00
  0.24234530E+00  0.32303435E+00  0.11626481E+00
  0.82040659E+00  0.93031563E+00  0.81844941E+00
  0.39852278E+00  0.10959901E+00  0.99072827E+00
  0.21106470E+00  0.26774151E+00  0.41632800E+00
  0.68611425E+00  0.22075430E+00  0.75937051E+00
  0.41436006E+00  0.67901705E+00  0.25956285E+00
  0.28724285E+00  0.10400011E+00  0.34620990E+00
  0.30790866E+00  0.90949125E+00  0.43838820E+00
  0.60789985E+00  0.24537413E+00  0.35297795E+00
  0.58746180E+00 -0.65774360E-02  0.30114654E+00
  0.43761272E+00  0.89340836E+00  0.83108966E-02
  0.13266288E+00  0.48935457E+00  0.40376164E+00
  0.73661456E+00  0.52994747E+00  0.21956346E-01
  0.44813300E+00  0.22578589E+00  0.10335314E+00
  0.14223587E+00  0.87649799E+00  0.98556869E+00
  0.84000273E+00  0.14861575E+00  0.80292228E+00
  0.25887817E+00  0.17345764E+00  0.17625258E-01
  0.83845358E+00  0.69656510E+00  0.84967270E+00
  0.75222863E+00  0.95567428E+00  0.53686697E+00
  0.81258710E+00 -0.21238749E-01  0.36709017E+00
  0.53196670E+00  0.90803742E+00  0.18385922E+00
  0.93763220E+00  0.39684470E+00  0.66749022E-02
  0.53128077E+00  0.49291128E+00  0.97087381E+00
  0.74858417E+00  0.52504439E+00  0.73360560E+00
  0.73712070E+00  0.93119288E+00  0.24119817E+00
  0.10555257E-01  0.32083844E+00  0.87841406E+00
  0.64279867E+00  0.73347788E+00  0.79357758E+00
  0.92831337E+00  0.47406772E+00  0.15303062E+00
  0.78622639E-01  0.39408880E+00  0.28173524E+00
  0.58036850E+00  0.51135303E+00  0.82520886E+00
  0.24923396E+00  0.32834338E+00  0.77857321E+00
  0.22536576E+00  0.18346246E+00  0.22623091E+00
  0.61991442E+00  0.60447516E+00  0.94140438E-01
  0.29338257E+00  0.13895088E-01  0.58903412E+00
  0.98349790E-01  0.56589831E+00  0.86103115E-02
  0.35589145E+00  0.53128840E+00  0.84361054E+00
  0.49325853E+00  0.79603385E+00  0.41858039E+00
  0.83103542E+00  0.31213960E+00  0.28069043E+00
  0.14147248E+00  0.22500543E+00  0.82913838E+00
  0.21871528E-01  0.84146687E+00  0.87399926E+00
  0.98111937E-01  0.63594274E+00  0.22107260E+00
  0.35815133E+00  0.44844299E+00  0.71125112E+00
  0.89377431E+00  0.29555278E+00  0.51218389E+00
  0.99736642E+00  0.77760801E+00  0.30006452E+00
  0.75243495E+00  0.79230202E+00  0.69570295E+00
  0.82284148E+00  0.85456138E+00  0.13738954E+00
  0.93427016E+00  0.64851829E+00  0.95933662E+00
  0.14598173E+00  0.87223408E+00  0.74854077E+00
  0.15215766E+00  0.85428429E+00  0.17627588E+00
  0.54631211E+00  0.93350927E-01  0.77495470E+00
  0.80998610E+00  0.66164164E+00  0.53549758E-01
  0.91178374E+00  0.80930301E+00  0.77093306E+00
  0.88651700E+00  0.84622817E-01  0.16559373E+00
  0.56386028E+00  0.69051582E+00  0.95293846E+00
  0.44996342E+00  0.62164245E+00  0.34798505E-01
  0.28716442E-01  0.70633996E+00  0.46232259E+00
  0.68908323E+00  0.73299816E+00  0.14832170E+00
  0.17480744E+00  0.73635706E+00  0.36774360E+00
  0.38674593E+00  0.87208667E+00  0.30927023E+00
  0.96042631E-01  0.49640426E+00  0.15201675E+00
  0.45819781E+00  0.22961771E-01  0.37825292E+00
  0.14004462E+00  0.97753541E+00  0.26753662E+00
  0.33722236E+00  0.17051350E+00  0.52899910E+00
  0.41540233E-02  0.77926530E+00  0.11247601E+00
  0.75307294E+00  0.32157059E+00  0.66082793E+00
  0.10578165E-01  0.17960980E+00  0.67699964E+00
  0.41877791E+00  0.98832771E+00  0.79226965E+00
  0.16545216E+00  0.14090049E+00  0.51178853E+00
  0.35848829E+00  0.33308946E+00  0.98756050E+00
  0.92364533E+00  0.97814452E+00  0.70803824E+00
  0.39657364E+00  0.32524134E+00  0.40585847E+00
  0.92754440E+00  0.45753417E+00  0.31484308E+00
  0.22105098E+00  0.10025588E+00  0.88863295E+00
  0.30736273E+00  0.79721560E-01  0.73042187E+00
  0.61208833E+00  0.89436748E+00  0.41905406E+00
  0.71256627E+00  0.82119380E+00  0.91666312E+00
  0.31473577E+00  0.99182312E+00  0.24259157E+00
  0.39618569E+00  0.32656190E+00  0.20970431E+00
  0.12317703E+00  0.72024146E+00  0.71384266E+00
  0.33880279E+00  0.68550135E+00  0.70416172E+00
  0.42155833E+00  0.44821475E+00  0.11659004E+00
  0.37108462E+00  0.83204649E+00  0.75480656E+00
  0.33506827E-01  0.28556179E+00  0.15932880E+00
  0.86264318E+00  0.64453234E+00  0.39378729E+00
  0.98949993E+00  0.93284510E+00  0.27716653E+00
  0.57379183E+00  0.92977401E+00  0.68525438E+00
  0.74129663E-01  0.16704947E+00  0.25547046E+00
  0.83726918E-01  0.21243066E+00  0.28664715E-01
  0.33379977E+00  0.45021406E+00  0.32265868E+00
  0.21756930E+00  0.64900333E-01  0.11899215E+00
  0.96753985E+00  0.48397802E+00  0.78939277E+00
  0.30003232E+00  0.29196664E+00  0.61896833E+00
  0.46293117E+00  0.53036389E+00  0.25100654E+00
  0.56519789E+00  0.60811246E-01  0.49124834E+00
  0.26792151E+00  0.86989314E+00  0.64558920E+00
  0.65999970E+00  0.52055804E+00  0.53940015E+00
  0.49041554E-01  0.69158208E+00  0.84700605E+00
  0.43199605E+00  0.40691838E+00  0.53350749E+00
  0.13429169E+00  0.99813814E+00  0.57574336E+00
  0.53585550E+00  0.13436595E+00  0.19115629E+00
  0.77091580E+00  0.53120777E+00  0.33744909E+00
  0.53476380E+00  0.20384792E+00  0.88935827E+00
  0.92545485E+00  0.80846303E-01  0.32270204E+00
  0.61969837E+00  0.11681626E-01  0.99103981E-01
  0.95741917E+00  0.93520815E+00  0.12618017E+00
  0.60690608E+00  0.81119840E+00  0.38785882E-01
  0.33796908E+00  0.53498898E+00  0.46526849E+00
  0.74352388E+00  0.21782828E+00  0.54566784E+00
  0.89551002E+00  0.84449952E+00  0.40860660E+00
  0.30918265E+00  0.75223026E+00  0.66457151E-01
  0.19558715E-01  0.58267140E+00  0.34483855E+00
  0.42863050E+00  0.16211918E+00  0.31549875E+00
  0.99128074E+00  0.72515742E+00  0.62880226E+00
  0.19267712E+00  0.69771667E+00  0.90315396E+00
  0.53780660E+00  0.38595051E-02  0.96645126E+00
  0.26315945E+00  0.90620599E+00  0.81140790E-01