Amorphous Sb                            
  0.947000000000000     
    20.1278869700586860    0.0000000000000000    0.0000000000000000
     0.0000000000000000   20.1278869700586860    0.0000000000000000
     0.0000000000000000    0.0000000000000000   20.1278869700586860
   Ge   Se
   150   150
Direct
  0.5071309650116519  0.6873490679000945  0.7946198302043206
  0.2108606160771854  0.4397753824649384  0.8067183183264300
  0.3835504426426718  0.3309461868092020  0.6130427540267164
  0.8333647266670785  0.0182799920873828  0.6440011515874383
  0.8914491749768783  0.6302929867756357  0.6719590548357435
  0.2129441544352621  0.7086775587589758  0.9462437371744666
  0.1237260188928096  0.1471674334495656  0.3624688158739143
  0.3307862455223346  0.6197701161860690  0.8094794474156725
  0.3452668018778459  0.8822324704999190  0.2329057407563463
  0.3763982996018683  0.0070097446422713  0.4278336477500065
  0.0124667749649812  0.0395066652232222  0.4458037514045827
  0.6347493576482039  0.3363407723816577  0.8518711758988882
  0.6373756168677409  0.4312941883521239  0.5681400663045746
  0.2675979476796226  0.0161951972979791  0.8534446010532231
  0.6692858534955021  0.9467726406292821  0.4105894856195756
  0.0240626696150626  0.7700845777719599  0.0984587313690557
  0.0427037157156624  0.7538247604985111  0.3431197660005227
  0.8230428303463101  0.4101673096006854  0.3551761091130091
  0.1185390411191295  0.4751578262971583  0.9639697084976933
  0.0525393095248100  0.9197345960411639  0.5023043535811191
  0.1488208590065702  0.8393873867810714  0.2008622182190134
  0.4333786494756700  0.7488427740707500  0.9773455591980814
 -0.0136968938738640  0.1809793349558808  0.9310468668610071
  0.0237803778056789  0.0862696825050611  0.1284388157219522
  0.5617025933406663  0.3114017454614277  0.1731662229640409
  0.3795741198872620  0.1514801960278892  0.5899603823159303
  0.4081455588607423  0.7578665273994050  0.5427046937474076
  0.8035218611444311  0.9256168135194808  0.0151236485216910
  0.8052609923980212  0.5458004483060019  0.5897708204248026
  0.9446807173783922  0.7756787662498882  0.5856476315222214
  0.0892572335297441  0.3374565184979822  0.7556553028487895
  0.0257594742392775  0.1011361607016056  0.2648231883217404
  0.8958880040995298  0.4776365163139650  0.4551019389057203
  0.4115342914218572  0.4532277948901944  0.2347116251934512
  0.0357802911983876  0.5488350031254849  0.5742333776769933
  0.7299325834555217  0.7073820360095647  0.1551204382554991
  0.4561794727920302  0.4864731796358489  0.9156939720450760
  0.2699178943260271  0.0491646326381334  0.2441166598218512
  0.2579235562637175  0.3652354106710133  0.1367686612109124
  0.7619949528190125  0.3875923544852827  0.7700386905133138
  0.8411633672663998  0.8242347537172482  0.3865165895442951
  0.9243870673581212  0.1939822228767288  0.5727100937401234
  0.5789220376581431  0.8398556578968642  0.5383738411835451
  0.3785610073492502  0.9883359724062881  0.0970044037590279
  0.3412519535418169  0.6305141956321020  0.2265896600913542
  0.3993287576117450  0.4299983973833560  0.4947426174019167
  0.8967863042300189  0.8135938398499689  0.1613674058649345
  0.0564169198369723  0.3477892883186059  0.4122550714793234
  0.9912016083605792  0.7346873206634704  0.8042640006250987
  0.5465923696927482  0.0585287526652963  0.3100770293130284
  0.2683465514674779  0.4313738232273702  0.9465985671842779
  0.0367588165934389  0.2803072290642092  0.1536194485741436
  0.6258739452015278  0.7474436387247874  0.8188992689553948
  0.5903935638487886  0.3080585887600379  0.7271944365393266
  0.0281897462393435  0.5909256002190632  0.3562228200833901
  0.0251341659511813  0.9198803256083792  0.2163570407144449
  0.1808614934999387  0.5683697276450977  0.4573609571987876
  0.9724359199319849  0.3340256471331750  0.5881685154930520
  0.0953561127257063  0.0610161247272479  0.8283602959363359
  0.5235341170518839  0.4356158649458548  0.3284755290310627
  0.6751190365858850  0.1035262143544228  0.1588167664519976
  0.5394360985556178  0.6683960270968191  0.2195963535669011
  0.9241709877786615  0.6725070516880794  0.2822314883056488
  0.8536327774651224  0.0314368663814209  0.8329878511562673
  0.5544013548102291  0.8228137220679441  0.0155892398559900
  0.0814944121888863  0.3444057866896835  0.9416876454235874
  0.8214899989521786  0.8420702888668375  0.5275208284271539
  0.7277783614262776  0.7328127289944991  0.6892758091259892
  0.8210493364396652  0.2439331000043617  0.1518497353995280
  0.8296454293279245  0.3099762182113641  0.0196935710145279
  0.9647441389928101  0.4216183975723509  0.7310806200502876
  0.4172918452650206  0.1500325445563560  0.1766965197708477
  0.3615119232977317  0.5398783313142405  0.4174523095259583
  0.5113344957009327  0.8172437654925320  0.3827354865891252
  0.3340276104211903  0.4514151741508328  0.6719550372177596
  0.6776087385705907  0.9573888369466037  0.1019240284230346
  0.2468489182656274  0.2357732234858864  0.1772172770742718
  0.8620397324309818  0.0697717365375196  0.0301530849762694
  0.2594458830369695  0.8555160810257419  0.9455832454098262
  0.3744223428217953  0.2487625769154206  0.0277106940934321
  0.6516801407510724  0.9913945277023295  0.8766620763593607
  0.9686268973755431  0.5944031699063943  0.8496812643333030
  0.8026296769520311  0.4801977384728731  0.0583261200594956
  0.7383765292400746  0.5189011160000617  0.3360627263384602
  0.3636421188878055  0.1386671023895701  0.7246753572393906
  0.5983827877495677  0.1298831054309063  0.0252121286993477
  0.5145093459245804  0.6549491712925624  0.6048518000363516
  0.7706084656606184  0.3095975371224040  0.5161156386457272
  0.6437120303094651  0.5772290922316671  0.1432768222890011
  0.5446061530648248  0.2341210107319399  0.3649776407101634
  0.6178223534971548  0.1190743328343545  0.8880360578551022
  0.1085346890672217  0.1154475908856797  0.6043834354747565
  0.3087618898369758  0.5947925156639869  0.5897700203164152
  0.7642469061294308  0.0423792796293617  0.4553779529589445
  0.6566541773388646  0.9260133237134399  0.6090520180028771
  0.6657862647228855  0.6904178357895969  0.4976992343076793
  0.4220990118867265  0.9647329473929013  0.9448512071325791
  0.1473096599801693  0.4656720689933473  0.6378780154862942
  0.1701185295185920  0.7655964454774358  0.4745344904734730
  0.2056255527958492  0.1345840565517543  0.8421110729076824
  0.1096752533955063  0.4230373088878176  0.2417689655487940
  0.5377107870897014  0.2925604796697405  0.9319201609831095
  0.2305714384533225  0.5086599569509956  0.0763301314644259
  0.8709419710926389  0.0640143255894305  0.1868963905368353
  0.4157977531897149  0.8487099242762025  0.7425001440713991
  0.7266061012795256  0.7248584731240768  0.9931981985363959
  0.9906164002854070  0.4688606520941270  0.0097027568614924
  0.0539762389687271  0.6493773344533345  0.0505087375894927
  0.7042989832155084  0.1733824280954225  0.7038066033158430
  0.7108467157625895  0.9084814990162907  0.7890530038506850
  0.1121233013642753  0.8897297114050715  0.6853863007322035
  0.1093359058169356  0.9624489399016886  0.0096845016626612
  0.1348999273940627  0.9609598976267847  0.3715004598887182
  0.7574835304044015  0.1457961633701999  0.3193987575767738
  0.7398004788150986  0.8244151441495035  0.2948826496049140
  0.7319458616039076  0.6418029461063854  0.3870936536567444
  0.4214247070913296  0.2799710219121498  0.3018437189146614
  0.6793529927925646  0.6002544915984007  0.7285481429462164
  0.3271407461680874  0.2237824718702982  0.4439989736237929
  0.0836081312648447  0.9335244830228195  0.8040129721171402
  0.9320479740316426  0.4618047609569237  0.2029034011218075
  0.8612906321977294  0.2153796375043915  0.3847517407738283
  0.8047938582522622  0.6305479041343949  0.8243877048123536
  0.9515265090880742  0.9157089005173066  0.9547517800666109
  0.2294559432334005  0.3960724188982802  0.4065635250928891
  0.2411434773779041  0.6957358031506818  0.6660154871368754
  0.3826021459249171  0.9618332980552012  0.5625488042121760
  0.5445519569899741  0.8547368667850539  0.7860540781764466
  0.1892933478183679  0.1583376396851011  0.9939814326728065
  0.2826112266410403  0.8143745232518336  0.0816526306602532
  0.5312207742797521  0.5616372793857178  0.4477267986650549
  0.8968151003682842  0.7333842191824766  0.9060817673127182
  0.4644558624279272  0.1841072181385696  0.9102780014473933
  0.4444358821943677  0.5103520222950367  0.1057681535227547
  0.0520229230425317  0.7153911953478195  0.6385527962561212
  0.1835635883158884  0.6361527503346580  0.2295941159417475
  0.2930254428580869  0.2843379369583137  0.7965696253772598
  0.5522480292916581  0.0761203468401286  0.4964392682706366
  0.3592518116586612  0.7191707520484162  0.3486330543538605
  0.2821358741334832  0.8585008304748235  0.7063868582192926
  0.7128591132332622  0.4154649751310197  0.2154516876926087
  0.6059814002733689  0.4472341693295539  0.0199822340919763
  0.1763997167921038  0.9884853971348445  0.6219511386182049
  0.9291396760582928  0.2208162331629774  0.7723487821047708
  0.5757607902635589  0.2003687023848654  0.5564158249399741
  0.1255647036323662  0.2278804695384221  0.5201028612948225
  0.1435444132734882  0.6147456789400062  0.8150111040944404
  0.5242856089951846  0.8792379281327491  0.1905456946763052
  0.4751083658775526  0.4707093292530948  0.7514526645776239
  0.9085204015999468  0.4451264741706247  0.9059968987628652
  0.8529255520707093  0.1347084107360073  0.9036989606314209
  0.8624758415868471  0.9651250127286225  0.4910141514063642
  0.0794167932181124  0.7214890929961183  0.2116727989734831
  0.9332211493574420  0.4661498549927731  0.6055076733468427
  0.3225867576072712  0.7004409503607528  0.0265611858552191
  0.1233424424984616  0.0085751631085591  0.2455886447619784
  0.5805981079815653  0.4527788452365454  0.1555383204388439
  0.6947248595947738  0.0461206977629577  0.5741343823876267
  0.6093140392375064  0.2599373271216287  0.0306936904040472
  0.1400270974942926  0.0722173273313711  0.4758295123853769
  0.9325354541378210  0.8296339313402767  0.2929969298502715
  0.7511719477997815  0.0343769288296840  0.7570611722990588
  0.7789287240369107  0.6890498402473983  0.5765582963562266
  0.2861905365334789  0.7939597537905454  0.5847646480942280
  0.8656779043965709  0.6849321584177517  0.1622056053523291
  0.4684481848331559  0.1086332164820656  0.0127696173394096
  0.2918485214507699  0.1527394285890909  0.0858414323591263
  0.3848093360408791  0.8297546327169747  0.4296959164636481
  0.9376529270542584 -0.0159109152656053  0.7503493128947716
  0.7072004537277056  0.2220377103211219  0.2217270657589450
  0.7112051220986997  0.0227624000113214  0.9865506830070216
  0.5623644719663874  0.1888244915140493  0.6835318187085822
  0.1438856027236689  0.0685399633778835  0.0851563252692804
  0.8730732440402376  0.4970031867303136  0.7925768753485456
  0.2042461815187838  0.3572838727880489  0.2841898391337419
  0.3422129170208991  0.4097314869796404  0.8379299599970772
  0.2654342654226807  0.7709213574853733  0.2064481397259540
  0.2692621937187515  0.9668616900717750  0.3503685923286137
  0.3465131799640930  0.5227275731456418  0.0128314980855438
  0.4103218644413641  0.0261006648210347  0.2288254272158071
  0.4550225722047769  0.2464779747017184  0.5315959023636923
  0.4211164538775546  0.3278936276997569  0.1765134360605061
  0.9385832503590530  0.0017465927643284  0.2830610566653572
  0.4122624756964774  0.8562855660790635  0.1113242428166525
  0.0630158138210054  0.4953747323629198  0.4374951474054794
  0.0690335806099761  0.4955405315831102  0.8410819458782746
  0.5670003026684902  0.4559797989017877  0.8440807353210329
  0.2989508285298653  0.9882062464097691  0.6679819027903746
  0.5361276079751659  0.1753521198197135  0.2371957931575457
  0.9015781220858434  0.5404330742021108  0.3131113222384952
  0.6054403970874974  0.5408752352517883  0.3332950687042601
  0.3386289943487640  0.1980182765351011  0.9011787777742986
  0.1806726453576622  0.9078823601715459  0.5194586793132778
  0.0255462893633337  0.2108657576818256  0.4269131634948663
  0.5431659828248225  0.9202012987240926  0.9014443690028455
  0.5964079234198861  0.9582103240041627  0.7230050827986125
  0.7173115822564899  0.4830540588968202  0.6781194794141903
  0.1527854400698498  0.8345681259563799  0.3397584774685332
  0.9274873859303783  0.3452378502761446  0.4594479949864080
  0.5322203003525717  0.7038273088573020  0.4486159037124951
  0.8702052324366472  0.3306273908155453  0.7092982966373028
  0.3196662251603288  0.6498238434243055  0.4720046619664818
  0.6975009722434566  0.2047981348912762  0.8359519739896958
  0.3043156060404283  0.0989243280876235  0.4967426893914262
  0.7628076051891282  0.8382888683841438  0.1685353160156143
  0.7579614738404686  0.5442434715531362  0.2011976696403824
  0.1535832996798620  0.6688669001774150  0.3748285378743593
  0.0371104111363545  0.8444791295738667  0.8819168854081774
  0.7897263970864714  0.4122834807338613  0.9370228395911641
  0.9828266074415997  0.0738854558780908  0.5719844489633259
  0.2598342105243127  0.9510134214110370  0.1534957732170322
  0.5456187722665157  0.5855709214852663  0.7206379117809040
  0.0009622394403684  0.9037177629652655  0.6236221144317908
  0.1501861905839637  0.2797824149133941  0.8560103787474024
  0.5284760223347432  0.3944167633496617  0.6528357004713472
  0.2815765628069080  0.2644977835907643  0.5644836169616188
  0.2651833047052524  0.9867252622887924  0.9798935859346138
  0.7660851521904971  0.1506900541849227  0.0717221564914087
  0.8650199008879914  0.6119887033692339  0.9439540766681257
  0.9005008088566108  0.1833764091130476  0.2373078706747077
  0.5273786561667448  0.4219043803301794  0.4628869040514985
  0.6047601695550460  0.3390247632026517  0.3020519939388605
  0.6175285244527473  0.5732685579167722  0.5495565693849989
  0.6784928890352253  0.7096736631776429  0.2887495149684556
  0.4562563916404010  0.7669446448781926  0.2714634292649505
  0.1270704074271777  0.7685227968738984  0.7285020145022166
  0.7728677660850697  0.7583516066645467  0.8708314858636562
  0.5877592199961482  0.7697329912901282  0.1408082608925436
  0.8928532013253111  0.7605895719017808  0.7153313432434073
  0.0885820523417202  0.2437177694042400  0.0238816190356519
  0.8342125025648403  0.9159077711455788  0.8827943714300118
  0.6923796384800635  0.8540572198341001  0.0007209280563538
  0.7585201358680126  0.0354191188725831  0.2496502201337980
  0.2262058275481661  0.5436584444316475  0.7227041165212119
  0.7582943383535353  0.4711418706444885  0.4867504038168072
  0.4080161716516554  0.2675087905300901  0.7284973997165092
 -0.0085383633891887  0.9633034530887198  0.0931937528724514
  0.4306246484713233  0.5845910541476264  0.3182317310876796
  0.1291055001299919  0.2001147243647849  0.2135102784921002
  0.0331630634801327  0.7942199646434851  0.4757424660727247
  0.7570020350657805  0.3019555083002429  0.3820023879662417
  0.4141558254845017  0.7187721628997394  0.7130185074586897
  0.6397671493729145  0.9040290418768264  0.2921081433425868
  0.3841483314675745  0.8407767577515711  0.8959961196176394
  0.1364073622630186  0.8239264015145893  0.0545243390272604
  0.8105274150221105  0.1746958214422619  0.5054866773920138
  0.6992075136601763  0.8287135037330392  0.4642136223214025
  0.0425869233413143  0.2289786234365714  0.6959657609439214
  0.6934384199663199  0.5723087357248999  0.8517766091570705
  0.2612727176666937  0.3170357474542371  0.0117419730293471
  0.4361776339705950  0.6431779700206411  0.8924059452081178
  0.0627334510287421  0.6681141628344867  0.9246704114928254
  0.5513285272115487  0.9622593685178669  0.0877845096274210
  0.4607075095802335  0.3748855589677199  0.9903350567418762
  0.8999006784533201  0.8025594302728337  0.0126664239224652
  0.6425868909385034  0.1286779701686629  0.3831806846402279
  0.2346395692144711  0.5780691615988532  0.9044767407635325
  0.2557544814435743  0.4746813605521101  0.5585925366940706
  0.5124531473027344  0.1191697810769200  0.8152911000788907
  0.4226352058098634  0.5317323299070611  0.5973302166112212
  0.2113772135953052  0.9009139565951388  0.8252374464445088
  0.0242315379136675  0.0534092039705750  0.9328053534033445
  0.2494699793652680  0.5193798908427336  0.3556123074272569
  0.9459596090170826  0.1681427973114243  0.0586094508902303
  0.2115675962644988  0.3572730593437016  0.6956935740795629
  0.3255809730855870  0.1929878360206102  0.2760735558982961
  0.2620588920302140  0.7301209836870747  0.8191542227925149
  0.8499711173518599  0.6920865430003658  0.3934517864045562
  0.0787262471973374  0.5460951346228701  0.2377623847462720
  0.9610890848168422  0.5679716152110743  0.0816507752737751
  0.1985413381669902  0.2461455595782538  0.4107542967544508
  0.2339912873725049  0.1650055931683079  0.7173431738286495
  0.9636759820918073  0.3296599064671732  0.8804882640044027
  0.8418283733755489  0.3673002111087076  0.2353853764502976
  0.5442107653759871  0.9514181447946259  0.4448960519972646
  0.6969080251588839  0.5543089936973129  0.0250001244048800
  0.3890551435843297  0.0031990095967373  0.8228849000338703
  0.5253263763041717  0.5533960006189244  0.0119110171423217
  0.6353568973099718  0.2963946980667734  0.5017464653275286
  0.6011834466324686  0.7558373481600069  0.6469592174279961
  0.2911509729338986  0.5106345717913116  0.1954144641941913
  0.0997687539746443  0.3547582996359813  0.5463538615854945
  0.7684966738902160  0.8756154674780152  0.6502315929088799
  0.4376841779348601  0.6404539260530079  0.1352489045291042
  0.1787647192190644  0.6304584137084156  0.0889766976966343
  0.6022805086854078  0.7121828873171971  0.9460651987933636
  0.7075706659403845  0.3069099567971086  0.6714806380427857
  0.4596735430358888  0.8686642650103208  0.6123183499490048
  0.3606302788994791  0.3783227986728713  0.3676238716797879
  0.1456644866511305  0.6629850608556748  0.5692972125307890
  0.8521846776518772  0.1565405209017341  0.6788487562762547
  0.0025861035476343  0.3669805080227304  0.2743722159617017
  0.9375783052990257  0.3705480916964023  0.0749495865220294
  0.1212166295662609  0.3837673142701205  0.1210976234812807
  0.4617609384158218  0.1123672332409123  0.3993824997241687
  0.9386819899449728  0.6370817914292829  0.5411377091574444
  0.0112985725542924  0.0944011752588252  0.7376561654217564
  0.0237540723911915  0.6062226619281812  0.7046174599118967
  0.7280074930194806  0.3726653474039404  0.0888152065283865
  0.4717648314393173  0.0523089141312382  0.6007101076718426
 
  0.00000000E+00  0.00000000E+00  0.00000000E+00
  0.00000000E+00  0.00000000E+00  0.00000000E+00
  0.00000000E+00  0.00000000E+00  0.00000000E+00
  0.00000000E+00  0.00000000E+00  0.00000000E+00
  0.00000000E+00  0.00000000E+00  0.00000000E+00
  0.00000000E+00  0.00000000E+00  0.00000000E+00
  0.00000000E+00  0.00000000E+00  0.00000000E+00
  0.00000000E+00  0.00000000E+00  0.00000000E+00
  0.00000000E+00  0.00000000E+00  0.00000000E+00
  0.00000000E+00  0.00000000E+00  0.00000000E+00
  0.00000000E+00  0.00000000E+00  0.00000000E+00
  0.00000000E+00  0.00000000E+00  0.00000000E+00
  0.00000000E+00  0.00000000E+00  0.00000000E+00
  0.00000000E+00  0.00000000E+00  0.00000000E+00
  0.00000000E+00  0.00000000E+00  0.00000000E+00
  0.00000000E+00  0.00000000E+00  0.00000000E+00
  0.00000000E+00  0.00000000E+00  0.00000000E+00
  0.00000000E+00  0.00000000E+00  0.00000000E+00
  0.00000000E+00  0.00000000E+00  0.00000000E+00
  0.00000000E+00  0.00000000E+00  0.00000000E+00
  0.00000000E+00  0.00000000E+00  0.00000000E+00
  0.00000000E+00  0.00000000E+00  0.00000000E+00
  0.00000000E+00  0.00000000E+00  0.00000000E+00
  0.00000000E+00  0.00000000E+00  0.00000000E+00
  0.00000000E+00  0.00000000E+00  0.00000000E+00
  0.00000000E+00  0.00000000E+00  0.00000000E+00
  0.00000000E+00  0.00000000E+00  0.00000000E+00
  0.00000000E+00  0.00000000E+00  0.00000000E+00
  0.00000000E+00  0.00000000E+00  0.00000000E+00
  0.00000000E+00  0.00000000E+00  0.00000000E+00
  0.00000000E+00  0.00000000E+00  0.00000000E+00
  0.00000000E+00  0.00000000E+00  0.00000000E+00
  0.00000000E+00  0.00000000E+00  0.00000000E+00
  0.00000000E+00  0.00000000E+00  0.00000000E+00
  0.00000000E+00  0.00000000E+00  0.00000000E+00
  0.00000000E+00  0.00000000E+00  0.00000000E+00
  0.00000000E+00  0.00000000E+00  0.00000000E+00
  0.00000000E+00  0.00000000E+00  0.00000000E+00
  0.00000000E+00  0.00000000E+00  0.00000000E+00
  0.00000000E+00  0.00000000E+00  0.00000000E+00
  0.00000000E+00  0.00000000E+00  0.00000000E+00
  0.00000000E+00  0.00000000E+00  0.00000000E+00
  0.00000000E+00  0.00000000E+00  0.00000000E+00
  0.00000000E+00  0.00000000E+00  0.00000000E+00
  0.00000000E+00  0.00000000E+00  0.00000000E+00
  0.00000000E+00  0.00000000E+00  0.00000000E+00
  0.00000000E+00  0.00000000E+00  0.00000000E+00
  0.00000000E+00  0.00000000E+00  0.00000000E+00
  0.00000000E+00  0.00000000E+00  0.00000000E+00
  0.00000000E+00  0.00000000E+00  0.00000000E+00
  0.00000000E+00  0.00000000E+00  0.00000000E+00
  0.00000000E+00  0.00000000E+00  0.00000000E+00
  0.00000000E+00  0.00000000E+00  0.00000000E+00
  0.00000000E+00  0.00000000E+00  0.00000000E+00
  0.00000000E+00  0.00000000E+00  0.00000000E+00
  0.00000000E+00  0.00000000E+00  0.00000000E+00
  0.00000000E+00  0.00000000E+00  0.00000000E+00
  0.00000000E+00  0.00000000E+00  0.00000000E+00
  0.00000000E+00  0.00000000E+00  0.00000000E+00
  0.00000000E+00  0.00000000E+00  0.00000000E+00
  0.00000000E+00  0.00000000E+00  0.00000000E+00
  0.00000000E+00  0.00000000E+00  0.00000000E+00
  0.00000000E+00  0.00000000E+00  0.00000000E+00
  0.00000000E+00  0.00000000E+00  0.00000000E+00
  0.00000000E+00  0.00000000E+00  0.00000000E+00
  0.00000000E+00  0.00000000E+00  0.00000000E+00
  0.00000000E+00  0.00000000E+00  0.00000000E+00
  0.00000000E+00  0.00000000E+00  0.00000000E+00
  0.00000000E+00  0.00000000E+00  0.00000000E+00
  0.00000000E+00  0.00000000E+00  0.00000000E+00
  0.00000000E+00  0.00000000E+00  0.00000000E+00
  0.00000000E+00  0.00000000E+00  0.00000000E+00
  0.00000000E+00  0.00000000E+00  0.00000000E+00
  0.00000000E+00  0.00000000E+00  0.00000000E+00
  0.00000000E+00  0.00000000E+00  0.00000000E+00
  0.00000000E+00  0.00000000E+00  0.00000000E+00
  0.00000000E+00  0.00000000E+00  0.00000000E+00
  0.00000000E+00  0.00000000E+00  0.00000000E+00
  0.00000000E+00  0.00000000E+00  0.00000000E+00
  0.00000000E+00  0.00000000E+00  0.00000000E+00
  0.00000000E+00  0.00000000E+00  0.00000000E+00
  0.00000000E+00  0.00000000E+00  0.00000000E+00
  0.00000000E+00  0.00000000E+00  0.00000000E+00
  0.00000000E+00  0.00000000E+00  0.00000000E+00
  0.00000000E+00  0.00000000E+00  0.00000000E+00
  0.00000000E+00  0.00000000E+00  0.00000000E+00
  0.00000000E+00  0.00000000E+00  0.00000000E+00
  0.00000000E+00  0.00000000E+00  0.00000000E+00
  0.00000000E+00  0.00000000E+00  0.00000000E+00
  0.00000000E+00  0.00000000E+00  0.00000000E+00
  0.00000000E+00  0.00000000E+00  0.00000000E+00
  0.00000000E+00  0.00000000E+00  0.00000000E+00
  0.00000000E+00  0.00000000E+00  0.00000000E+00
  0.00000000E+00  0.00000000E+00  0.00000000E+00
  0.00000000E+00  0.00000000E+00  0.00000000E+00
  0.00000000E+00  0.00000000E+00  0.00000000E+00
  0.00000000E+00  0.00000000E+00  0.00000000E+00
  0.00000000E+00  0.00000000E+00  0.00000000E+00
  0.00000000E+00  0.00000000E+00  0.00000000E+00
  0.00000000E+00  0.00000000E+00  0.00000000E+00
  0.00000000E+00  0.00000000E+00  0.00000000E+00
  0.00000000E+00  0.00000000E+00  0.00000000E+00
  0.00000000E+00  0.00000000E+00  0.00000000E+00
  0.00000000E+00  0.00000000E+00  0.00000000E+00
  0.00000000E+00  0.00000000E+00  0.00000000E+00
  0.00000000E+00  0.00000000E+00  0.00000000E+00
  0.00000000E+00  0.00000000E+00  0.00000000E+00
  0.00000000E+00  0.00000000E+00  0.00000000E+00
  0.00000000E+00  0.00000000E+00  0.00000000E+00
  0.00000000E+00  0.00000000E+00  0.00000000E+00
  0.00000000E+00  0.00000000E+00  0.00000000E+00
  0.00000000E+00  0.00000000E+00  0.00000000E+00
  0.00000000E+00  0.00000000E+00  0.00000000E+00
  0.00000000E+00  0.00000000E+00  0.00000000E+00
  0.00000000E+00  0.00000000E+00  0.00000000E+00
  0.00000000E+00  0.00000000E+00  0.00000000E+00
  0.00000000E+00  0.00000000E+00  0.00000000E+00
  0.00000000E+00  0.00000000E+00  0.00000000E+00
  0.00000000E+00  0.00000000E+00  0.00000000E+00
  0.00000000E+00  0.00000000E+00  0.00000000E+00
  0.00000000E+00  0.00000000E+00  0.00000000E+00
  0.00000000E+00  0.00000000E+00  0.00000000E+00
  0.00000000E+00  0.00000000E+00  0.00000000E+00
  0.00000000E+00  0.00000000E+00  0.00000000E+00
  0.00000000E+00  0.00000000E+00  0.00000000E+00
  0.00000000E+00  0.00000000E+00  0.00000000E+00
  0.00000000E+00  0.00000000E+00  0.00000000E+00
  0.00000000E+00  0.00000000E+00  0.00000000E+00
  0.00000000E+00  0.00000000E+00  0.00000000E+00
  0.00000000E+00  0.00000000E+00  0.00000000E+00
  0.00000000E+00  0.00000000E+00  0.00000000E+00
  0.00000000E+00  0.00000000E+00  0.00000000E+00
  0.00000000E+00  0.00000000E+00  0.00000000E+00
  0.00000000E+00  0.00000000E+00  0.00000000E+00
  0.00000000E+00  0.00000000E+00  0.00000000E+00
  0.00000000E+00  0.00000000E+00  0.00000000E+00
  0.00000000E+00  0.00000000E+00  0.00000000E+00
  0.00000000E+00  0.00000000E+00  0.00000000E+00
  0.00000000E+00  0.00000000E+00  0.00000000E+00
  0.00000000E+00  0.00000000E+00  0.00000000E+00
  0.00000000E+00  0.00000000E+00  0.00000000E+00
  0.00000000E+00  0.00000000E+00  0.00000000E+00
  0.00000000E+00  0.00000000E+00  0.00000000E+00
  0.00000000E+00  0.00000000E+00  0.00000000E+00
  0.00000000E+00  0.00000000E+00  0.00000000E+00
  0.00000000E+00  0.00000000E+00  0.00000000E+00
  0.00000000E+00  0.00000000E+00  0.00000000E+00
  0.00000000E+00  0.00000000E+00  0.00000000E+00
  0.00000000E+00  0.00000000E+00  0.00000000E+00
  0.00000000E+00  0.00000000E+00  0.00000000E+00
  0.00000000E+00  0.00000000E+00  0.00000000E+00
  0.00000000E+00  0.00000000E+00  0.00000000E+00
  0.00000000E+00  0.00000000E+00  0.00000000E+00
  0.00000000E+00  0.00000000E+00  0.00000000E+00
  0.00000000E+00  0.00000000E+00  0.00000000E+00
  0.00000000E+00  0.00000000E+00  0.00000000E+00
  0.00000000E+00  0.00000000E+00  0.00000000E+00
  0.00000000E+00  0.00000000E+00  0.00000000E+00
  0.00000000E+00  0.00000000E+00  0.00000000E+00
  0.00000000E+00  0.00000000E+00  0.00000000E+00
  0.00000000E+00  0.00000000E+00  0.00000000E+00
  0.00000000E+00  0.00000000E+00  0.00000000E+00
  0.00000000E+00  0.00000000E+00  0.00000000E+00
  0.00000000E+00  0.00000000E+00  0.00000000E+00
  0.00000000E+00  0.00000000E+00  0.00000000E+00
  0.00000000E+00  0.00000000E+00  0.00000000E+00
  0.00000000E+00  0.00000000E+00  0.00000000E+00
  0.00000000E+00  0.00000000E+00  0.00000000E+00
  0.00000000E+00  0.00000000E+00  0.00000000E+00
  0.00000000E+00  0.00000000E+00  0.00000000E+00
  0.00000000E+00  0.00000000E+00  0.00000000E+00
  0.00000000E+00  0.00000000E+00  0.00000000E+00
  0.00000000E+00  0.00000000E+00  0.00000000E+00
  0.00000000E+00  0.00000000E+00  0.00000000E+00
  0.00000000E+00  0.00000000E+00  0.00000000E+00
  0.00000000E+00  0.00000000E+00  0.00000000E+00
  0.00000000E+00  0.00000000E+00  0.00000000E+00
  0.00000000E+00  0.00000000E+00  0.00000000E+00
  0.00000000E+00  0.00000000E+00  0.00000000E+00
  0.00000000E+00  0.00000000E+00  0.00000000E+00
  0.00000000E+00  0.00000000E+00  0.00000000E+00
  0.00000000E+00  0.00000000E+00  0.00000000E+00
  0.00000000E+00  0.00000000E+00  0.00000000E+00
  0.00000000E+00  0.00000000E+00  0.00000000E+00
  0.00000000E+00  0.00000000E+00  0.00000000E+00
  0.00000000E+00  0.00000000E+00  0.00000000E+00
  0.00000000E+00  0.00000000E+00  0.00000000E+00
  0.00000000E+00  0.00000000E+00  0.00000000E+00
  0.00000000E+00  0.00000000E+00  0.00000000E+00
  0.00000000E+00  0.00000000E+00  0.00000000E+00
  0.00000000E+00  0.00000000E+00  0.00000000E+00
  0.00000000E+00  0.00000000E+00  0.00000000E+00
  0.00000000E+00  0.00000000E+00  0.00000000E+00
  0.00000000E+00  0.00000000E+00  0.00000000E+00
  0.00000000E+00  0.00000000E+00  0.00000000E+00
  0.00000000E+00  0.00000000E+00  0.00000000E+00
  0.00000000E+00  0.00000000E+00  0.00000000E+00
  0.00000000E+00  0.00000000E+00  0.00000000E+00
  0.00000000E+00  0.00000000E+00  0.00000000E+00
  0.00000000E+00  0.00000000E+00  0.00000000E+00
  0.00000000E+00  0.00000000E+00  0.00000000E+00
  0.00000000E+00  0.00000000E+00  0.00000000E+00
  0.00000000E+00  0.00000000E+00  0.00000000E+00
  0.00000000E+00  0.00000000E+00  0.00000000E+00
  0.00000000E+00  0.00000000E+00  0.00000000E+00
  0.00000000E+00  0.00000000E+00  0.00000000E+00
  0.00000000E+00  0.00000000E+00  0.00000000E+00
  0.00000000E+00  0.00000000E+00  0.00000000E+00
  0.00000000E+00  0.00000000E+00  0.00000000E+00
  0.00000000E+00  0.00000000E+00  0.00000000E+00
  0.00000000E+00  0.00000000E+00  0.00000000E+00
  0.00000000E+00  0.00000000E+00  0.00000000E+00
  0.00000000E+00  0.00000000E+00  0.00000000E+00
  0.00000000E+00  0.00000000E+00  0.00000000E+00
  0.00000000E+00  0.00000000E+00  0.00000000E+00
  0.00000000E+00  0.00000000E+00  0.00000000E+00
  0.00000000E+00  0.00000000E+00  0.00000000E+00
  0.00000000E+00  0.00000000E+00  0.00000000E+00
  0.00000000E+00  0.00000000E+00  0.00000000E+00
  0.00000000E+00  0.00000000E+00  0.00000000E+00
  0.00000000E+00  0.00000000E+00  0.00000000E+00
  0.00000000E+00  0.00000000E+00  0.00000000E+00
  0.00000000E+00  0.00000000E+00  0.00000000E+00
  0.00000000E+00  0.00000000E+00  0.00000000E+00
  0.00000000E+00  0.00000000E+00  0.00000000E+00
  0.00000000E+00  0.00000000E+00  0.00000000E+00
  0.00000000E+00  0.00000000E+00  0.00000000E+00
  0.00000000E+00  0.00000000E+00  0.00000000E+00
  0.00000000E+00  0.00000000E+00  0.00000000E+00
  0.00000000E+00  0.00000000E+00  0.00000000E+00
  0.00000000E+00  0.00000000E+00  0.00000000E+00
  0.00000000E+00  0.00000000E+00  0.00000000E+00