Amorphous GeAsSeSi                      
   1.00000000000000     
    20.5032057336995628    0.0000000000000000    0.0000000000000000
     0.0000000000000000   20.5032057336995628    0.0000000000000000
     0.0000000000000000    0.0000000000000000   20.5032057336995628
   Ge   Ga   Sb
    45    75   180
Direct
  0.8183304603869791  0.9220722463931558  0.2739233477135289
  0.3462823067154986  0.4845469497182756  0.0471254875634063
  0.6611994863420378  0.7669677252604672  0.8389920352948785
  0.7084964486932974  0.2010446397672308  0.5148314126359854
  0.7118378935625309  0.4285832284396223  0.2464612959733136
  0.6460485050454008  0.9371673130705370  0.3401511602775499
  0.7991216555025690  0.2304847692956370  0.8877274239069179
  0.2219946651122434  0.8901452609814481  0.9863203506599955
  0.0892507248822881  0.3076234274596584  0.9100594520815799
  0.5858119508259038  0.1732230658923852  0.5193874963764380
  0.0125765060234415  0.2970250224752363  0.8128668450703938
  0.5573096674315672  0.3702686584279012  0.3333208917634960
  0.6243406990385659  0.1320750332273751  0.7469031353267115
  0.5500028009930009  0.2619505093170421  0.2714635766364678
  0.4335266397258732  0.4004743447721544  0.5882921941951869
  0.3432149282794771  0.8938113418222343  0.0193141817621223
  0.5666673672491985  0.6557436762753925  0.3816543474308773
  0.2205681529421378  0.3560169675719297  0.5766045403670232
  0.6360949982993049  0.9813245663739762  0.2238016040502763
  0.4439425158512870  0.8061852736401747  0.5007223416624178
  0.6411648483673166  0.9513787141466971  0.7534034717270289
  0.8639965341812714  0.0387822892208970  0.2721823543368680
  0.2430893789683459  0.9651553170572232  0.4405605488547824
  0.5806345616313594  0.2376296183833341  0.6867417550174300
  0.2390423476770167  0.1319845104773171  0.3349621335521004
  0.0081231521754123  0.5540876158845248  0.0552393501586776
  0.9617478811621855  0.4831971634585776  0.4678901105385108
  0.6554229290847370  0.1697683474473517  0.9802184952429148
  0.7885785023085667  0.7696131973099214  0.4382110830488191
  0.5733590269952374  0.5644927577419577  0.1600873158458323
  0.1199087855490043  0.4860051258478797  0.0525972838318113
  0.2493681107948296  0.0537961214361425  0.9244105971674152
  0.4358752629800902  0.4911624697609663  0.2524858748367047
  0.7538971049636674  0.9584247933259735  0.7024862755857233
  0.0916782830762909  0.5191789309757989  0.7246899484831508
  0.2815143088310876  0.6485130580118322  0.1934332936770750
  0.4804872888414590  0.4343923244339012  0.4115665036558779
  0.6843973335496366  0.3618520766317839  0.1444021918925165
  0.8098791578207855  0.5557503157547682  0.3397448123214672
  0.0361465328796520  0.7515325739959634  0.8031199198505553
  0.0672114769579630  0.8810298021822119  0.0972596912808121
  0.0501333659950333  0.0565327611347269  0.0119144710961659
  0.0429798532437793  0.3218231763461633  0.6951458084039353
  0.8222870391438319  0.5410859909418048  0.6206906495635558
  0.5366942868726200  0.2966412647900449  0.7865780043385454
  0.3623246250700020  0.2528558086364824  0.7306777787749197
  0.2890401498379949  0.5953620323178255  0.0777514471482881
  0.5383587081737995  0.8852146210670769  0.8782866335850775
  0.6124104708428434  0.4836881152618541  0.7522280618571464
  0.9870698694409503  0.4240509173068537  0.9932114832317119
  0.8691279234577794  0.3111157047435120  0.6947510489034763
  0.1946324618669228  0.9019193811658408  0.1060746344342470
  0.4899183586833770  0.8688087648307818  0.0177719286426700
  0.6411872533015455  0.9815831714296982  0.8757296879440178
  0.0109983998026678  0.7291092605904660  0.3350707852864903
  0.1578619684865129  0.2399990924190452  0.5918021715817912
  0.0084515034083517  0.4586059400196033  0.3513751325191191
  0.9700905991065395  0.0200431323340107  0.8249178173001541
  0.2607000456996779  0.2030362060931960  0.1677010251168804
  0.1692483065462131  0.8430319078696594  0.7092131588362391
  0.4970532128341881  0.6330126671253992  0.9870632395914746
  0.7222333045573053  0.2736981737087175  0.9729908515382264
  0.5228686632128596  0.1484996849359683  0.6237082308447367
  0.7803626877947680  0.7145685957451040  0.9706487562701764
  0.7750427392040874  0.9398669623630382  0.5800508616052767
  0.6563126461016124  0.5434025128580313  0.2516058356520430
  0.5064041131528901  0.0872478200649497  0.0973572436566417
  0.3567437264429318  0.0658740088870046  0.5471772182265394
  0.1131259147596933  0.9804268592542615  0.1814727531397158
  0.5726562143597720  0.4318099366426261  0.2275564734336830
  0.3773071918854268  0.0040027623092460  0.0678654134730072
  0.0659185190181172  0.4754296544752487  0.6055028161233429
  0.5864830352364254  0.6814621037239685  0.5021842903215556
  0.0363880551792309  0.2064669667092023  0.6389134971179683
  0.4018817936147929  0.3406803284013288  0.9149825593704322
  0.7245571665257611  0.5385596407857897  0.4307085616167327
  0.4442352010175145  0.9890501284899915  0.1751912682828146
  0.5244441146649058  0.6463159268432797  0.7196185733672339
  0.8967959450471629  0.7739601043691732  0.5070265093241025
  0.1755589154232549  0.3705060533760596  0.0738031009607115
  0.8015689259204102  0.0272155550623864  0.8764856706286033
  0.5498795403265749  0.1150621615664286  0.4200292155047295
  0.7026554251302845  0.2326226138732635  0.6460179446386987
  0.0385040900368865  0.8906957059034168  0.5985698004199461
  0.7303727606448495  0.2247622012806583  0.7807880737371534
  0.2443869091380315  0.7635902182992250  0.8604071748750035
  0.3345689342670889  0.2062879497067063  0.3727679910797375
  0.5877310627496231  0.0977288969690897  0.2036422080980128
  0.3121193503441289  0.3983909290733372  0.8059564630541657
  0.5318630212462452  0.4536093408379167  0.5229623999420863
  0.4225806403112879  0.9620242410772459  0.4192756759150700
  0.2227275592329399  0.9423240028148024  0.8738513906650012
  0.0632472644071903  0.6282914893152906  0.9679666742002184
  0.0258441199608753  0.6222826073098713  0.6844155316026928
  0.1775737437641484  0.0084707388099644  0.3344691779786936
  0.6978857288795749  0.7617956799045650  0.0560396951061794
  0.6604562309579006  0.4703350512287857  0.5227891091290430
  0.2368003471482747  0.4919702735492442  0.8936960019243005
  0.9698757538401143  0.3549984546441772  0.5200102310677307
  0.1152940307463402  0.1779038321909246  0.7488988052362185
  0.1380444767636324  0.8830695018475968  0.4340555976671985
  0.2047254231888194  0.5126053808546389  0.7737569604539043
  0.8275534773384096  0.4974354586561203  0.4975387688957835
  0.1407783065226780  0.0422881829994473  0.7030825818622788
  0.8113987938876772  0.0773311098877787  0.0602305072446068
  0.0673251045032280  0.6135940957746422  0.1478857269303662
  0.3185684887141947  0.0355085982847944  0.3647158036687019
  0.2712357146724826  0.1257049238804974  0.8092303669482778
  0.8498268160337911  0.0120748995127253  0.7611532325808518
  0.9492139490369975  0.9716845105342780  0.6909128226112773
  0.9935094928114648  0.1440515264057142  0.9407369117543876
  0.2101934556295633  0.5024456753281414  0.4994597124700992
  0.9300452630392847  0.7299831949864509  0.1350997108183626
  0.3983136324597044  0.5872127764165870  0.5265119747305623
  0.6852013323394914  0.6941894400116628  0.3576722779351229
  0.7806166185915953  0.7927090316160397  0.3096356054400998
  0.7426850781565362  0.9190671006659988  0.9220960933116591
  0.4089149928962688  0.6457107491429370  0.8037766969219341
  0.4673327770739905  0.6522104071073888  0.3067919209708065
  0.4462323191838728  0.9423022665077813  0.6880593824062248
  0.7105527912724983  0.7887696628564261  0.1883552510084447
  0.8916464438777363  0.6446120689854375  0.0369150765423300
  0.3814859902144518  0.6868943891668579  0.0274702189655707
  0.8690399660131233  0.1200294159771060  0.4645649494060199
  0.9243400100938675  0.7159108148283441  0.7183653010349045
  0.8551675990523369  0.3699412015464437  0.4504873872760521
  0.3919742844229442  0.1401333042857316  0.6562818268276348
  0.1999493573152335  0.2265332496726016  0.0501073823585680
  0.3997786038007947  0.8753636069644821  0.9002260194793528
  0.5554248777502665  0.0194917058670297  0.6708070271159716
  0.9335515669598328  0.9931788417610800  0.4516344020454509
  0.9007526486755927  0.6042578762547772  0.4245313910766960
  0.7299569247059144  0.2449639280060368  0.3800818202167554
  0.1625462092964546  0.5926545284005721  0.5875332267637783
  0.4982106471183417  0.3096838683548387  0.0059044025720837
  0.5512065717259158  0.9937703045942287  0.9800265928642439
  0.0187276287456820  0.6062824130673480  0.8419124159008690
  0.6008054356025267  0.5287409994150645  0.3732051906264324
  0.1063576194508968  0.4815503037073859  0.2091062196801117
  0.3747571876778836  0.7489796322504558  0.3059706842024689
  0.8122430060145335  0.4486253045688851  0.8313074355679897
  0.4115521414272256  0.1131278828251580  0.4350798588803119
  0.1007671786518784  0.4369787988016878  0.9208645914712297
  0.9237824383060558  0.7803100555892215  0.9383635454374083
  0.3237681913986800  0.5161980291404932  0.7079633654616215
  0.4949818147286105  0.5193165019317354  0.6960288654797788
  0.4692304360035645  0.4362084675744956  0.8444649143325863
  0.8505393525923971  0.8059086224768659  0.0577147677532123
  0.2137773783403624  0.2579691360999659  0.9009850685288434
  0.1913887976382598  0.5793740212332683  0.9864880314254215
  0.5965497898780201  0.2582003148860896  0.1448411698051725
  0.1193135193513520  0.4050536830328831  0.4994794758851889
  0.9149158602679606  0.2805883658199574  0.1412535634189306
  0.1059849552113092  0.7566595798502370  0.2431361371216078
  0.0071677437228391  0.0586218543749398  0.1416772496455992
  0.0697470666346906  0.7597229866019983  0.9407810972509135
  0.8810381805225111  0.3224459439479130  0.8281115075106683
  0.8959907486502147  0.7315972441100974  0.2637094710846111
  0.6157682090586062  0.9577661310402349  0.5557392649369985
  0.1772098525791841  0.7268080929430097  0.5378210793666784
  0.6003741521947488  0.6558838370742746  0.0684577429114741
  0.8469715843356050  0.8427530188543796  0.7218994315712544
  0.0713561230698291  0.3386490622620057  0.1679305298420760
  0.6129356395428244  0.8248758792793144  0.7271267499770911
  0.0339024467974784  0.1470137166476684  0.3032109814659419
  0.9062702428583346  0.3691004838344173  0.3181807028923461
  0.0101650760586309  0.4637503446560304  0.8122217654863265
  0.7317884198615928  0.0930927924734053  0.6692292443548109
  0.8604131683513072  0.1249176965727816  0.9470850771964037
  0.0628756482720937  0.9983617678922337  0.5138404081857109
  0.3689504884327715  0.5336624015187222  0.8649366785731860
  0.5866968128434553  0.3484732733390111  0.5948724892432529
  0.8445885114382989  0.2474180319395745  0.2683809687585285
  0.5338186779311199  0.6708116635533194  0.8595308647553851
  0.3656324625627214  0.0993510061237790  0.9723717958418248
  0.0365009327864527  0.7566913598052551  0.5574398162882500
  0.9533029750076686  0.4046724086912504  0.6420714842320985
  0.0269164616575337  0.5971081640296416  0.5476507624810604
  0.7503265590693117  0.6389948170155699  0.2543952986180101
  0.2780849065778608  0.8652954441046199  0.7827599041098550
  0.4432542786904544  0.0314386594793921  0.8741825306152735
  0.3263762845933973  0.4809375002911430  0.5709730490815806
  0.6844350218116073  0.3811350555591153  0.3693295118505222
  0.8513246617891848  0.6727461647850149  0.5986069875253021
  0.1827421405054502  0.8689742235474199  0.5772975153280694
  0.1592836356131216  0.3882824929282466  0.6929197728007578
  0.0303721587675240  0.0668607495996317  0.6358089932811062
  0.1762992496853394  0.7517173420970308  0.3975069294324196
  0.4068257149995962  0.9351173386006935  0.5587594552593388
  0.4553074312471427  0.7345651499534537  0.6501292721798368
  0.3446399493441691  0.7102329471126231  0.5298584714079703
  0.2984657221916182  0.6782057610371073  0.3991555626030910
  0.0447336297286329  0.8843237549866652  0.7476552160969214
  0.7786787311795885  0.0875580508023752  0.3610579533092955
  0.7856958949436386  0.8059271928392121  0.8687111019286772
  0.2127045885157998  0.6528036195559357  0.7969554922512982
  0.9383427005175142  0.9210739088880044  0.9182602263182124
  0.8377102257039473  0.9501201993547013  0.0136649411120630
  0.3716141832390175  0.2185433112707267  0.8583653636786052
  0.4316636565557471  0.1987398095513640  0.2724342281230118
  0.7062821132710990  0.5972305833515201  0.9975330513099053
  0.1130045907867077  0.8971063597691248  0.2876195903378596
  0.8410495292306241  0.4708072769745678  0.2435005855099873
  0.2906616046141418  0.4948624419204870  0.3815536319981447
  0.6942316339104573  0.5145050787707041  0.6475287772729094
  0.7118582033504801  0.8333273331401652  0.5278289002881403
  0.6581035720023086  0.8987098924566129  0.0269516549508753
  0.2056376106489276  0.7608807284773864  0.9842765107696234
  0.9878376409615209  0.1628270955415406  0.8068049409536022
  0.6042852145095601  0.8102999388074115  0.3510151781952180
  0.5584885642949436  0.9850800933117586  0.4269056574384568
  0.5722022669414232  0.7809366159342382  0.2170962944853282
  0.2649517753460056  0.0099885967519712  0.1521476657177418
  0.8925470293965723  0.5059755578711580  0.9355415982920504
  0.7181046931610608  0.3435155512319108  0.5348978983384017
  0.3883110808131870  0.1665998859993594  0.1438628420003715
  0.3093183957339153  0.3034802167166501  0.4592169824957301
  0.0578545606658831  0.7479575552110678  0.1079950882800935
  0.7168807826801428  0.1817919950454875  0.1711486917938084
  0.6877256237723856  0.1077811372784306  0.8666259303828501
  0.1804421991456914  0.0794568690908326  0.0369148343014178
  0.6653449163212406  0.4498409304046053  0.0431012742760721
  0.2472587016701106  0.7895823257739928  0.1590870652761508
 -0.0006420289589091  0.2645692738536129  0.9966888926734097
  0.5015295134577392  0.1626446927945406  0.8386547585202631
  0.3860517847567342  0.8035477239796542  0.1084391727658524
  0.9423187975365692  0.8711379927637489  0.2710628920590158
  0.4727346234679163  0.8300288830210907  0.7551451249692768
  0.9413082664122596  0.4209043188655787  0.1214678391133184
  0.0217211930221904  0.2340520179007976  0.5032715536472288
  0.2479434876017090  0.4042923679737159  0.1851125223457798
  0.7659498955282902  0.9484984771103842  0.3959596772395697
  0.2545347721237138  0.2898778973849078  0.2693795329745012
  0.2460816078247458  0.9818506842281125  0.6503157273369760
  0.7215787830306255  0.6614192323085630  0.4877197156453593
  0.7127405182223709  0.6469503783222754  0.8018678924404137
  0.2280282488568203  0.2767170212026394  0.7527624330476860
  0.4604393781924095  0.8390958737534556  0.3727371595610739
  0.8766010716901731  0.6366623296139103  0.8269183029579276
  0.5953618955090615  0.7858410366405947  0.9579177973344742
  0.9830976326569622  0.5520537715870836  0.2511777585401948
  0.7493448289159588  0.7616665323492398  0.6472799057341906
  0.6526244826869916  0.6500789157474225  0.6733548372813087
  0.1082999849307886  0.9918361672053162  0.8217917054180341
  0.2301009132322097  0.1488742676641672  0.6722111692643267
  0.1596307323488371  0.6193880345832801  0.2442781304510863
  0.0378947046825555  0.6046931576960108  0.3731712263219427
  0.2841106302767835  0.3917804755687183  0.9705001372354628
  0.4599697140013812  0.5042198774209130  0.9796006026835948
  0.3018642072166008  0.8622308968798444  0.4976132018871550
  0.1809003986625604  0.1067174477005645  0.2179696020129736
  0.7938950681728375  0.5700180131559875  0.1082400973764472
  0.1148592425700915  0.2933378989699394  0.2981024604918057
  0.0701352335432071  0.2099342773265850  0.1053991317893672
  0.2525668505872845  0.8471750578985572  0.2884847966477856
  0.7415110000330046  0.9263326973662706  0.1647184655024015
  0.3035118585691495  0.5232929284120745  0.2441419251787726
  0.3703602321599182  0.2840412852633757  0.0678456606731627
  0.1414289963690908  0.1350011503039523  0.8786365217191704
  0.0678936915980006  0.9286426155875538  0.9730537705290130
  0.1493282951766916  0.2563010946066795  0.4507153472414916
  0.3195252571452578  0.6584846796473518  0.7028170140064127
  0.5334443707238405  0.2868512594352045  0.4785917946777361
  0.4518849712638815  0.6054950003993139  0.1845520554878126
  0.6248121447879215  0.1667975804575521  0.3220802590166512
  0.3427147773469420  0.9560020118396906  0.2607081667938541
  0.4124541631273992  0.2734563190622482  0.5498078277429719
  0.5223578485577537  0.1725419767638120  0.9786670736423747
  0.6279552624080065  0.3591801882622821  0.9410191287049758
  0.4196690152644409  0.5551719251152676  0.3947093885892516
  0.3615487432986940  0.0303747090760949  0.7460320654415553
  0.6572429882098264  0.3628021682943767  0.7975041896314687
  0.4787572763651043  0.0641895723504111  0.2833918839159693
  0.8767349512561147  0.1199348008877555  0.1676123752942774
  0.9007134845672585  0.2035484574992042  0.6270501988204330
  0.5237366218508602  0.5778005110607886  0.5684547476657650
  0.9357625616789230  0.2142389325912755  0.3814019064523998
  0.3847850322259507  0.4035262864926968  0.1458459612479512
  0.7486789813451924  0.3608922284490012  0.6740675668053675
  0.0061102460071146  0.8233182007220934  0.4336766704116031
  0.9856654086994420  0.0142492064944912  0.3214667910213884
  0.8910089785398198  0.5230481214170991  0.7377080084039609
  0.8222955655288324  0.4459672833559719  0.0424100282981368
  0.8517456349728807  0.1473241486069173  0.7450016092966421
  0.3692287629142313  0.3780885698425880  0.3576044583607527
  0.7209305879119838  0.0538277877325502  0.5311081337663974
  0.8974156768891997  0.8872179052156980  0.5927098536482815
  0.5348718116445221  0.4503002775221136  0.1001116640113193
  0.4343597289458601  0.3646013811517786  0.7189069449368917
  0.5584162297382669  0.7923427161019584  0.5687691638347129
  0.1361984058306330  0.4273748552773856  0.3400467277773524
  0.5483979357386960  0.9071001361730878  0.1570714037608625
  0.3690192606233638  0.7376888185477598  0.8977661972033990
  0.6789685440186802  0.0810942360129300  0.0740061798481311
  0.9510070480618841  0.9242170743095246  0.1380033031346482
  0.6214762490426371  0.5592783711304682  0.8635396137467566
  0.2232865837427409  0.0590996357007531  0.5328292631119087
  0.1255664208108005  0.7152272270181274  0.7097389790299969
  0.1247129077411235  0.1200690807369074  0.4101539125831352
  0.7784401725642429  0.2836244438008360  0.0922700951669374
 
  0.00000000E+00  0.00000000E+00  0.00000000E+00
  0.00000000E+00  0.00000000E+00  0.00000000E+00
  0.00000000E+00  0.00000000E+00  0.00000000E+00
  0.00000000E+00  0.00000000E+00  0.00000000E+00
  0.00000000E+00  0.00000000E+00  0.00000000E+00
  0.00000000E+00  0.00000000E+00  0.00000000E+00
  0.00000000E+00  0.00000000E+00  0.00000000E+00
  0.00000000E+00  0.00000000E+00  0.00000000E+00
  0.00000000E+00  0.00000000E+00  0.00000000E+00
  0.00000000E+00  0.00000000E+00  0.00000000E+00
  0.00000000E+00  0.00000000E+00  0.00000000E+00
  0.00000000E+00  0.00000000E+00  0.00000000E+00
  0.00000000E+00  0.00000000E+00  0.00000000E+00
  0.00000000E+00  0.00000000E+00  0.00000000E+00
  0.00000000E+00  0.00000000E+00  0.00000000E+00
  0.00000000E+00  0.00000000E+00  0.00000000E+00
  0.00000000E+00  0.00000000E+00  0.00000000E+00
  0.00000000E+00  0.00000000E+00  0.00000000E+00
  0.00000000E+00  0.00000000E+00  0.00000000E+00
  0.00000000E+00  0.00000000E+00  0.00000000E+00
  0.00000000E+00  0.00000000E+00  0.00000000E+00
  0.00000000E+00  0.00000000E+00  0.00000000E+00
  0.00000000E+00  0.00000000E+00  0.00000000E+00
  0.00000000E+00  0.00000000E+00  0.00000000E+00
  0.00000000E+00  0.00000000E+00  0.00000000E+00
  0.00000000E+00  0.00000000E+00  0.00000000E+00
  0.00000000E+00  0.00000000E+00  0.00000000E+00
  0.00000000E+00  0.00000000E+00  0.00000000E+00
  0.00000000E+00  0.00000000E+00  0.00000000E+00
  0.00000000E+00  0.00000000E+00  0.00000000E+00
  0.00000000E+00  0.00000000E+00  0.00000000E+00
  0.00000000E+00  0.00000000E+00  0.00000000E+00
  0.00000000E+00  0.00000000E+00  0.00000000E+00
  0.00000000E+00  0.00000000E+00  0.00000000E+00
  0.00000000E+00  0.00000000E+00  0.00000000E+00
  0.00000000E+00  0.00000000E+00  0.00000000E+00
  0.00000000E+00  0.00000000E+00  0.00000000E+00
  0.00000000E+00  0.00000000E+00  0.00000000E+00
  0.00000000E+00  0.00000000E+00  0.00000000E+00
  0.00000000E+00  0.00000000E+00  0.00000000E+00
  0.00000000E+00  0.00000000E+00  0.00000000E+00
  0.00000000E+00  0.00000000E+00  0.00000000E+00
  0.00000000E+00  0.00000000E+00  0.00000000E+00
  0.00000000E+00  0.00000000E+00  0.00000000E+00
  0.00000000E+00  0.00000000E+00  0.00000000E+00
  0.00000000E+00  0.00000000E+00  0.00000000E+00
  0.00000000E+00  0.00000000E+00  0.00000000E+00
  0.00000000E+00  0.00000000E+00  0.00000000E+00
  0.00000000E+00  0.00000000E+00  0.00000000E+00
  0.00000000E+00  0.00000000E+00  0.00000000E+00
  0.00000000E+00  0.00000000E+00  0.00000000E+00
  0.00000000E+00  0.00000000E+00  0.00000000E+00
  0.00000000E+00  0.00000000E+00  0.00000000E+00
  0.00000000E+00  0.00000000E+00  0.00000000E+00
  0.00000000E+00  0.00000000E+00  0.00000000E+00
  0.00000000E+00  0.00000000E+00  0.00000000E+00
  0.00000000E+00  0.00000000E+00  0.00000000E+00
  0.00000000E+00  0.00000000E+00  0.00000000E+00
  0.00000000E+00  0.00000000E+00  0.00000000E+00
  0.00000000E+00  0.00000000E+00  0.00000000E+00
  0.00000000E+00  0.00000000E+00  0.00000000E+00
  0.00000000E+00  0.00000000E+00  0.00000000E+00
  0.00000000E+00  0.00000000E+00  0.00000000E+00
  0.00000000E+00  0.00000000E+00  0.00000000E+00
  0.00000000E+00  0.00000000E+00  0.00000000E+00
  0.00000000E+00  0.00000000E+00  0.00000000E+00
  0.00000000E+00  0.00000000E+00  0.00000000E+00
  0.00000000E+00  0.00000000E+00  0.00000000E+00
  0.00000000E+00  0.00000000E+00  0.00000000E+00
  0.00000000E+00  0.00000000E+00  0.00000000E+00
  0.00000000E+00  0.00000000E+00  0.00000000E+00
  0.00000000E+00  0.00000000E+00  0.00000000E+00
  0.00000000E+00  0.00000000E+00  0.00000000E+00
  0.00000000E+00  0.00000000E+00  0.00000000E+00
  0.00000000E+00  0.00000000E+00  0.00000000E+00
  0.00000000E+00  0.00000000E+00  0.00000000E+00
  0.00000000E+00  0.00000000E+00  0.00000000E+00
  0.00000000E+00  0.00000000E+00  0.00000000E+00
  0.00000000E+00  0.00000000E+00  0.00000000E+00
  0.00000000E+00  0.00000000E+00  0.00000000E+00
  0.00000000E+00  0.00000000E+00  0.00000000E+00
  0.00000000E+00  0.00000000E+00  0.00000000E+00
  0.00000000E+00  0.00000000E+00  0.00000000E+00
  0.00000000E+00  0.00000000E+00  0.00000000E+00
  0.00000000E+00  0.00000000E+00  0.00000000E+00
  0.00000000E+00  0.00000000E+00  0.00000000E+00
  0.00000000E+00  0.00000000E+00  0.00000000E+00
  0.00000000E+00  0.00000000E+00  0.00000000E+00
  0.00000000E+00  0.00000000E+00  0.00000000E+00
  0.00000000E+00  0.00000000E+00  0.00000000E+00
  0.00000000E+00  0.00000000E+00  0.00000000E+00
  0.00000000E+00  0.00000000E+00  0.00000000E+00
  0.00000000E+00  0.00000000E+00  0.00000000E+00
  0.00000000E+00  0.00000000E+00  0.00000000E+00
  0.00000000E+00  0.00000000E+00  0.00000000E+00
  0.00000000E+00  0.00000000E+00  0.00000000E+00
  0.00000000E+00  0.00000000E+00  0.00000000E+00
  0.00000000E+00  0.00000000E+00  0.00000000E+00
  0.00000000E+00  0.00000000E+00  0.00000000E+00
  0.00000000E+00  0.00000000E+00  0.00000000E+00
  0.00000000E+00  0.00000000E+00  0.00000000E+00
  0.00000000E+00  0.00000000E+00  0.00000000E+00
  0.00000000E+00  0.00000000E+00  0.00000000E+00
  0.00000000E+00  0.00000000E+00  0.00000000E+00
  0.00000000E+00  0.00000000E+00  0.00000000E+00
  0.00000000E+00  0.00000000E+00  0.00000000E+00
  0.00000000E+00  0.00000000E+00  0.00000000E+00
  0.00000000E+00  0.00000000E+00  0.00000000E+00
  0.00000000E+00  0.00000000E+00  0.00000000E+00
  0.00000000E+00  0.00000000E+00  0.00000000E+00
  0.00000000E+00  0.00000000E+00  0.00000000E+00
  0.00000000E+00  0.00000000E+00  0.00000000E+00
  0.00000000E+00  0.00000000E+00  0.00000000E+00
  0.00000000E+00  0.00000000E+00  0.00000000E+00
  0.00000000E+00  0.00000000E+00  0.00000000E+00
  0.00000000E+00  0.00000000E+00  0.00000000E+00
  0.00000000E+00  0.00000000E+00  0.00000000E+00
  0.00000000E+00  0.00000000E+00  0.00000000E+00
  0.00000000E+00  0.00000000E+00  0.00000000E+00
  0.00000000E+00  0.00000000E+00  0.00000000E+00
  0.00000000E+00  0.00000000E+00  0.00000000E+00
  0.00000000E+00  0.00000000E+00  0.00000000E+00
  0.00000000E+00  0.00000000E+00  0.00000000E+00
  0.00000000E+00  0.00000000E+00  0.00000000E+00
  0.00000000E+00  0.00000000E+00  0.00000000E+00
  0.00000000E+00  0.00000000E+00  0.00000000E+00
  0.00000000E+00  0.00000000E+00  0.00000000E+00
  0.00000000E+00  0.00000000E+00  0.00000000E+00
  0.00000000E+00  0.00000000E+00  0.00000000E+00
  0.00000000E+00  0.00000000E+00  0.00000000E+00
  0.00000000E+00  0.00000000E+00  0.00000000E+00
  0.00000000E+00  0.00000000E+00  0.00000000E+00
  0.00000000E+00  0.00000000E+00  0.00000000E+00
  0.00000000E+00  0.00000000E+00  0.00000000E+00
  0.00000000E+00  0.00000000E+00  0.00000000E+00
  0.00000000E+00  0.00000000E+00  0.00000000E+00
  0.00000000E+00  0.00000000E+00  0.00000000E+00
  0.00000000E+00  0.00000000E+00  0.00000000E+00
  0.00000000E+00  0.00000000E+00  0.00000000E+00
  0.00000000E+00  0.00000000E+00  0.00000000E+00
  0.00000000E+00  0.00000000E+00  0.00000000E+00
  0.00000000E+00  0.00000000E+00  0.00000000E+00
  0.00000000E+00  0.00000000E+00  0.00000000E+00
  0.00000000E+00  0.00000000E+00  0.00000000E+00
  0.00000000E+00  0.00000000E+00  0.00000000E+00
  0.00000000E+00  0.00000000E+00  0.00000000E+00
  0.00000000E+00  0.00000000E+00  0.00000000E+00
  0.00000000E+00  0.00000000E+00  0.00000000E+00
  0.00000000E+00  0.00000000E+00  0.00000000E+00
  0.00000000E+00  0.00000000E+00  0.00000000E+00
  0.00000000E+00  0.00000000E+00  0.00000000E+00
  0.00000000E+00  0.00000000E+00  0.00000000E+00
  0.00000000E+00  0.00000000E+00  0.00000000E+00
  0.00000000E+00  0.00000000E+00  0.00000000E+00
  0.00000000E+00  0.00000000E+00  0.00000000E+00
  0.00000000E+00  0.00000000E+00  0.00000000E+00
  0.00000000E+00  0.00000000E+00  0.00000000E+00
  0.00000000E+00  0.00000000E+00  0.00000000E+00
  0.00000000E+00  0.00000000E+00  0.00000000E+00
  0.00000000E+00  0.00000000E+00  0.00000000E+00
  0.00000000E+00  0.00000000E+00  0.00000000E+00
  0.00000000E+00  0.00000000E+00  0.00000000E+00
  0.00000000E+00  0.00000000E+00  0.00000000E+00
  0.00000000E+00  0.00000000E+00  0.00000000E+00
  0.00000000E+00  0.00000000E+00  0.00000000E+00
  0.00000000E+00  0.00000000E+00  0.00000000E+00
  0.00000000E+00  0.00000000E+00  0.00000000E+00
  0.00000000E+00  0.00000000E+00  0.00000000E+00
  0.00000000E+00  0.00000000E+00  0.00000000E+00
  0.00000000E+00  0.00000000E+00  0.00000000E+00
  0.00000000E+00  0.00000000E+00  0.00000000E+00
  0.00000000E+00  0.00000000E+00  0.00000000E+00
  0.00000000E+00  0.00000000E+00  0.00000000E+00
  0.00000000E+00  0.00000000E+00  0.00000000E+00
  0.00000000E+00  0.00000000E+00  0.00000000E+00
  0.00000000E+00  0.00000000E+00  0.00000000E+00
  0.00000000E+00  0.00000000E+00  0.00000000E+00
  0.00000000E+00  0.00000000E+00  0.00000000E+00
  0.00000000E+00  0.00000000E+00  0.00000000E+00
  0.00000000E+00  0.00000000E+00  0.00000000E+00
  0.00000000E+00  0.00000000E+00  0.00000000E+00
  0.00000000E+00  0.00000000E+00  0.00000000E+00
  0.00000000E+00  0.00000000E+00  0.00000000E+00
  0.00000000E+00  0.00000000E+00  0.00000000E+00
  0.00000000E+00  0.00000000E+00  0.00000000E+00
  0.00000000E+00  0.00000000E+00  0.00000000E+00
  0.00000000E+00  0.00000000E+00  0.00000000E+00
  0.00000000E+00  0.00000000E+00  0.00000000E+00
  0.00000000E+00  0.00000000E+00  0.00000000E+00
  0.00000000E+00  0.00000000E+00  0.00000000E+00
  0.00000000E+00  0.00000000E+00  0.00000000E+00
  0.00000000E+00  0.00000000E+00  0.00000000E+00
  0.00000000E+00  0.00000000E+00  0.00000000E+00
  0.00000000E+00  0.00000000E+00  0.00000000E+00
  0.00000000E+00  0.00000000E+00  0.00000000E+00
  0.00000000E+00  0.00000000E+00  0.00000000E+00
  0.00000000E+00  0.00000000E+00  0.00000000E+00
  0.00000000E+00  0.00000000E+00  0.00000000E+00
  0.00000000E+00  0.00000000E+00  0.00000000E+00
  0.00000000E+00  0.00000000E+00  0.00000000E+00
  0.00000000E+00  0.00000000E+00  0.00000000E+00
  0.00000000E+00  0.00000000E+00  0.00000000E+00
  0.00000000E+00  0.00000000E+00  0.00000000E+00
  0.00000000E+00  0.00000000E+00  0.00000000E+00
  0.00000000E+00  0.00000000E+00  0.00000000E+00
  0.00000000E+00  0.00000000E+00  0.00000000E+00
  0.00000000E+00  0.00000000E+00  0.00000000E+00
  0.00000000E+00  0.00000000E+00  0.00000000E+00
  0.00000000E+00  0.00000000E+00  0.00000000E+00
  0.00000000E+00  0.00000000E+00  0.00000000E+00
  0.00000000E+00  0.00000000E+00  0.00000000E+00
  0.00000000E+00  0.00000000E+00  0.00000000E+00
  0.00000000E+00  0.00000000E+00  0.00000000E+00
  0.00000000E+00  0.00000000E+00  0.00000000E+00
  0.00000000E+00  0.00000000E+00  0.00000000E+00
  0.00000000E+00  0.00000000E+00  0.00000000E+00
  0.00000000E+00  0.00000000E+00  0.00000000E+00
  0.00000000E+00  0.00000000E+00  0.00000000E+00
  0.00000000E+00  0.00000000E+00  0.00000000E+00
  0.00000000E+00  0.00000000E+00  0.00000000E+00
  0.00000000E+00  0.00000000E+00  0.00000000E+00
  0.00000000E+00  0.00000000E+00  0.00000000E+00
  0.00000000E+00  0.00000000E+00  0.00000000E+00
  0.00000000E+00  0.00000000E+00  0.00000000E+00
  0.00000000E+00  0.00000000E+00  0.00000000E+00
  0.00000000E+00  0.00000000E+00  0.00000000E+00
  0.00000000E+00  0.00000000E+00  0.00000000E+00
  0.00000000E+00  0.00000000E+00  0.00000000E+00
  0.00000000E+00  0.00000000E+00  0.00000000E+00
  0.00000000E+00  0.00000000E+00  0.00000000E+00
  0.00000000E+00  0.00000000E+00  0.00000000E+00
  0.00000000E+00  0.00000000E+00  0.00000000E+00