In2O3 structure 20 - random placement wi
   1.00000000000000     
     8.0060257190772273   -0.0829506560134892   -0.0004404912762851
    -0.0824267931874812    8.0189114730617685    0.0004207384530786
    -0.0003417932790474    0.0005102370495403    8.0892256901955264
   In   O 
    16    24
Direct
  0.8309127343312863  0.1594210294563983  0.2100548794713163
  0.3306901644084405  0.6595330530139212  0.2102931896474707
  0.3011927718725861  0.1892225109502197  0.7099767322648974
  0.0484725172231427  0.4372082567701320  0.4373532843537971
  0.0813937349728433  0.4093075533971280  0.9373120595800079
  0.0508048194087936  0.9394956386989363  0.4373792698850975
  0.5812612486261297  0.9095467787658825  0.9372351349349182
  0.7989422145267472  0.1871608417208786  0.7099873352272736
  0.5789939542198573  0.4070904159158983  0.9377234205088427
  0.8013788051530825  0.6893240002584544  0.7099761554043160
  0.5507840044906834  0.4394798733249553  0.4374405461173962
  0.5485524127012751  0.9371172902674795  0.4372284312007374
  0.8285854716536705  0.6572224397005630  0.2097572927858172
  0.3285888996553941  0.1573676184356304  0.2097729821160388
  0.2992748622851077  0.6870933623241106  0.7101877001214829
  0.0788809861176582  0.9069188119268005  0.9375468055527414
  0.2965913624214088  0.5523784756892365  0.4738028663178522
  0.8353790035199989  0.9435548232301175  0.8235271480488950
  0.5471387348311884  0.8022884612798380  0.6732929455681320
  0.7947321726131595  0.4033478601401101  0.3233858123482667
  0.0457352932703566  0.6531907465671744  0.8235227915003709
  0.5829735413902284  0.0448314611109215  0.1726958783814898
  0.4358065021478653  0.1914315573838731  0.4741156562496919
  0.9437229733965429  0.9049367290659525  0.1735727508720429
  0.9358352052265210  0.6914529323584919  0.4739650860798771
  0.6860267669545935  0.4415195394309566  0.6732380170398917
  0.1860780381465893  0.9413343909713013  0.6731301108011253
  0.1940461943391954  0.1548216070550038  0.9733143435890073
  0.3353962169580574  0.4434137859302867  0.8235434034316136
  0.5455017623840759  0.1533933496225810  0.8235292856672183
  0.2948712749804555  0.9036237855822182  0.3233262118973190
  0.7966397258073046  0.0523693243913429  0.4737900938436378
  0.0849391686042446  0.1937104627186219  0.3235070734154481
  0.8334085271951377  0.2944133005905779  0.9742694147982849
  0.6940266611372434  0.6550070565831404  0.9733301093293097
  0.0827899403483249  0.5445196720008343  0.1729392412382280
  0.5848917929703343  0.6936884215823242  0.3234060690053117
  0.0469936551496773  0.3021132709598125  0.6731554936279784
  0.3333693429822998  0.7943153532257535  0.9743981678339767
  0.4435700470595895  0.4051346469669805  0.1736123687511267
 
  0.00000000E+00  0.00000000E+00  0.00000000E+00
  0.00000000E+00  0.00000000E+00  0.00000000E+00
  0.00000000E+00  0.00000000E+00  0.00000000E+00
  0.00000000E+00  0.00000000E+00  0.00000000E+00
  0.00000000E+00  0.00000000E+00  0.00000000E+00
  0.00000000E+00  0.00000000E+00  0.00000000E+00
  0.00000000E+00  0.00000000E+00  0.00000000E+00
  0.00000000E+00  0.00000000E+00  0.00000000E+00
  0.00000000E+00  0.00000000E+00  0.00000000E+00
  0.00000000E+00  0.00000000E+00  0.00000000E+00
  0.00000000E+00  0.00000000E+00  0.00000000E+00
  0.00000000E+00  0.00000000E+00  0.00000000E+00
  0.00000000E+00  0.00000000E+00  0.00000000E+00
  0.00000000E+00  0.00000000E+00  0.00000000E+00
  0.00000000E+00  0.00000000E+00  0.00000000E+00
  0.00000000E+00  0.00000000E+00  0.00000000E+00
  0.00000000E+00  0.00000000E+00  0.00000000E+00
  0.00000000E+00  0.00000000E+00  0.00000000E+00
  0.00000000E+00  0.00000000E+00  0.00000000E+00
  0.00000000E+00  0.00000000E+00  0.00000000E+00
  0.00000000E+00  0.00000000E+00  0.00000000E+00
  0.00000000E+00  0.00000000E+00  0.00000000E+00
  0.00000000E+00  0.00000000E+00  0.00000000E+00
  0.00000000E+00  0.00000000E+00  0.00000000E+00
  0.00000000E+00  0.00000000E+00  0.00000000E+00
  0.00000000E+00  0.00000000E+00  0.00000000E+00
  0.00000000E+00  0.00000000E+00  0.00000000E+00
  0.00000000E+00  0.00000000E+00  0.00000000E+00
  0.00000000E+00  0.00000000E+00  0.00000000E+00
  0.00000000E+00  0.00000000E+00  0.00000000E+00
  0.00000000E+00  0.00000000E+00  0.00000000E+00
  0.00000000E+00  0.00000000E+00  0.00000000E+00
  0.00000000E+00  0.00000000E+00  0.00000000E+00
  0.00000000E+00  0.00000000E+00  0.00000000E+00
  0.00000000E+00  0.00000000E+00  0.00000000E+00
  0.00000000E+00  0.00000000E+00  0.00000000E+00
  0.00000000E+00  0.00000000E+00  0.00000000E+00
  0.00000000E+00  0.00000000E+00  0.00000000E+00
  0.00000000E+00  0.00000000E+00  0.00000000E+00
  0.00000000E+00  0.00000000E+00  0.00000000E+00
