Bond                                    
   1.00000000000000     
     5.4954734266350442    0.0000000000000000    0.0000000000000000
    -0.0000000000000000    2.9832079320807043   -0.0000000000000000
     0.0000000000000000   -0.0000000000000000    2.9832079320807043
   Ti   Sb
     1     1
Direct
  0.2500000000000000  0.5000000000000000  0.5000000000000000
  0.7500000000000000  0.5000000000000000  0.5000000000000000
 
  0.00000000E+00  0.00000000E+00  0.00000000E+00
  0.00000000E+00  0.00000000E+00  0.00000000E+00
