Ge43-Sb43-Te108-N10 3x3x3 fcc-rocksalt G
   1.00000000000000     
    18.5388377683968244   -0.0806066922220549    0.0089316265017888
    -0.0796017605792774   18.3811763031408582   -0.0612261481420640
     0.0088156045402264   -0.0615124020844168   18.4225763844250316
   Ge   Sb   Te   N 
    43    43   108    10
Direct
  0.1719057434536433  0.1744712395441720 -0.0059424839989896
  0.1537698830785676  0.0022015782215529  0.5102247583056632
 -0.0043284078204398 -0.0164314779406106  0.6611487075437555
  0.1595775725392724  0.1739553835009795  0.6658914822500785
  0.1582711044361655  0.0053698759923596  0.8393062973520676
 -0.0064479901681755  0.4808355648396671  0.1670398551207496
  0.1658590050854652  0.5114232810970013  0.6627867222576769
  0.1566607336244271  0.6533202933959636  0.1616169701796599
  0.1551089564984934  0.6843818370902979  0.4975649604786428
 -0.0056919664530621  0.6796502708796908  0.6591266838823884
  0.1593955634492766  0.8394916818005916  0.6657960415265450
  0.5069576491557071  0.1631102309986439 -0.0032259685507242
  0.4942271261390541  0.1555422835644609  0.3252149793905575
  0.4934410419161115 -0.0047724039377806  0.4954308385085563
  0.3208950091560713 -0.0109119993559921  0.6660481372776836
  0.3274831166177690  0.1673662282147459  0.8330950148418638
  0.4963748513174870  0.4988504608067652  0.0004344907777753
  0.4958258164513589  0.3257496159445780  0.1786257172265624
  0.3303229314574445  0.3387950313928928  0.3386931863532150
  0.3265048947952962  0.5156324677227810  0.5088591308977101
  0.3290303925136074  0.3260385639321672  0.6705044425417637
  0.5065629752921230  0.3305310300301140  0.8490703051779892
  0.3292230030269835  0.4946966995318602  0.8378942962565087
  0.3451691235059456  0.6648442556873416  0.0052491385804756
  0.5023079499339309  0.8261549012809666 -0.0081322362763364
  0.4913004413864275  0.6607707469917903  0.1721451787594496
  0.3378834406690244  0.8288509634386323  0.1729004153060361
  0.4978361288469211  0.8226269185465735  0.3376846610990185
  0.4881999382563881  0.6667750999003181  0.5035984966030312
  0.3185545495982953  0.8346029181890099  0.5097026526762428
  0.3362009609028680  0.6705632051833903  0.6587104042628127
  0.4922732220201852  0.6669741762770766  0.8419817501667081
  0.8319581934351319  0.0093962482090164  0.1662723283149124
  0.8255598683923218 -0.0076817812113194  0.4975018063246022
  0.6634481564721120  0.1637936260350600  0.5008837576326866
  0.6759615237823966  0.0024178123205218  0.6595695386522510
  0.8354534121973440  0.0106098297115824  0.8344980362814892
  0.6745819449208055  0.3431982764787355 -0.0022545259934096
  0.8377520972834601  0.4937113393790529 -0.0028510261193067
  0.6651129079722474  0.6648629364852392  0.3237861830923175
  0.8162999995294818  0.6671903289615054  0.4998188768868698
  0.8344978496492127  0.6708462061631288  0.8203754541193730
  0.6838732044161118  0.8373767920871407  0.8340330202143109
  0.0008157270018844 -0.0171402927603427  0.0196118428698732
  0.1587632877099958 -0.0025548214807569  0.1722125811066862
  0.1585336165477325  0.1621788960253366  0.3292605941048767
 -0.0044228814334526  0.1598266664361032  0.5051858602651448
 -0.0042526093389539  0.3288147305727213 -0.0006715813807391
  0.0006770439374300  0.3259736236107768  0.3265202940772909
  0.1662150782318089  0.3422046260586862  0.4926533561574563
  0.0016071781749777  0.5152540817200795  0.4972799189802829
  0.0012437544448049  0.3295595715929932  0.6622342626595965
  0.1607223696128809  0.3344825249063020  0.8410983940260573
  0.0011909100797538  0.5024794276472843  0.8363002391154368
 -0.0097456906727605  0.6647651342115197  0.0127275079881019
  0.1656470457939589  0.8190422194419797  0.0071455626821624
  0.1598191722216372  0.6695050088154748  0.8275237593960820
  0.3317718353083350 -0.0049917570414686 -0.0022626880046829
  0.4980476911260978 -0.0126971021841163  0.1645429844331865
  0.3324017415614305  0.1662843320980865  0.1677238845252361
  0.3113866202114859 -0.0087746589081836  0.3414330153276059
  0.3323569042385120  0.1749685997930557  0.5062386990534312
  0.5126953716117266  0.1571306643347154  0.6648231601853966
  0.4989944127940679 -0.0084105789590357  0.8247965167314933
  0.3357453546984822  0.3355715490285235  0.0054773427248501
  0.3131942434812764  0.5014127903595048  0.1733423148389824
  0.4878113963792005  0.4964803663390909  0.3341753908686745
  0.4941313189601159  0.5219230613157505  0.6682419349132901
  0.3344682526445459  0.8269544167575906  0.8316849060688903
  0.6694198987924537 -0.0154499712887730 -0.0043818072897818
  0.8343759503232701  0.1737528526417299 -0.0059329761982948
  0.6681695585966825 -0.0044085380174303  0.3320597432202514
  0.8241335614954812  0.1665660257652616  0.3387977684039548
  0.6757061642895368  0.1697683992368356  0.8446329745654068
  0.6592106783957966  0.4973783719880290  0.1649136257369158
  0.6632834632592080  0.3331590126732964  0.3249798498627592
  0.8453798592321551  0.4996943123191739  0.3298698389938087
  0.8164458079739429  0.3274114164527756  0.5093940624536454
  0.6558125953524245  0.4970808246065366  0.4995239893112021
  0.6736854789645944  0.3307117975425831  0.6680735576089210
  0.8354261345173455  0.5072623827161700  0.6687011956873069
  0.6634633303097973  0.5039220974726243  0.8376987885898186
  0.8423849431863866  0.8289273206138726 -0.0017084844009894
  0.8242498135130383  0.6594861106353123  0.1681351443149031
  0.8388950472611920  0.8324109249407211  0.3417538187845376
  0.6628868538024117  0.8286540347026566  0.4926526790236837
  0.1684707677371044  0.0026106034925644 -0.0026047119482143
  0.0057530793751998  0.1568535155598719 -0.0160584855048171
 -0.0075945698616718 -0.0074427107632055  0.1942942542718727
  0.1658595592065814  0.1607510961887530  0.1662747740517142
  0.1558457656177566 -0.0137585624873803  0.3355391998820261
 -0.0020739618628454  0.1606972814332934  0.3324025590701973
  0.0021691427514741 -0.0031540918450641  0.5092636073479498
  0.1682690654452245  0.1638763226563126  0.5049296706626781
  0.1693949133320570 -0.0005351156781492  0.6677057092422463
  0.0083638085794755  0.1670417246998400  0.6699677825290614
  0.0058987515951896  0.0276625065215537  0.8490502431021758
  0.1743560389468700  0.1625892026142593  0.8360687208325988
  0.1648722007952226  0.3306757506483689  0.0010739004198508
 -0.0029822527827676  0.4951444378456143  0.0014214356137306
 -0.0100729009767574  0.3300384251797146  0.1674208781033172
  0.1604905198119217  0.5049291263424887  0.1660464556686702
  0.1655801322561145  0.3284226008936736  0.3308442059833148
  0.0018513008927299  0.4986928475868012  0.3244444151309552
 -0.0034495281023401  0.3346044681763704  0.4997568567183074
  0.1724372572982518  0.5063370607786311  0.4975994975420936
  0.1766712327534544  0.3320240513201760  0.6666126480051342
  0.0069426983704912  0.5066719921304119  0.6625228084675574
  0.0018884153157901  0.3329586231889186  0.8347959688018536
  0.1716234131983163  0.5012118547398452  0.8276403714276837
  0.1716146529891643  0.6643935571598690  0.0040451583070368
  0.0079844947334881  0.8288984880248152 -0.0257501246714193
  0.0054910037133447  0.6633808416595913  0.1673505448322343
  0.1809149152734769  0.8278719393883219  0.1820528329491479
  0.1848413023747180  0.7068885026707199  0.3235738657368045
 -0.0065799961020923  0.8400278539639894  0.2846301639384127
  0.0047151884043800  0.6743339687744969  0.5001766752705568
  0.1671576289740963  0.8368176144220880  0.5092809446952424
  0.1721423836604614  0.6682175914730712  0.6607923745793450
  0.0100455514793121  0.8367690986868008  0.6859872630149108
  0.0033631116684189  0.6679417108940777  0.8285411795213597
  0.1758922421874669  0.8362883618550586  0.8363098800594284
  0.5037094748755548  0.0043918929883853 -0.0028704111946152
  0.3353614914284883  0.1689018878605214 -0.0028566391407556
  0.3339978139651251 -0.0074792903860784  0.1655801793104908
  0.4989009029969178  0.1699086569469717  0.1719358159291451
  0.5016235245118699  0.0003719731515565  0.3368292624906259
  0.3356540455318784  0.1611429905552169  0.3355919447214223
  0.3369617686212692 -0.0039701316335081  0.5038100773810246
  0.5059390232144647  0.1545650682364061  0.5045574825892178
  0.5246148850199873 -0.0345275816881204  0.6611432937343673
  0.3385829910641146  0.1689346367428932  0.6724379153996451
  0.3359521402794439  0.0043435432083806  0.8263891863393651
  0.5036009781403086  0.1752184338482299  0.8427721261796948
  0.5027665514499207  0.3399815465373219  0.0012055616823089
  0.3413225500649627  0.5047701079509278 -0.0059955672040468
  0.3285173055800134  0.3323358457760288  0.1665191717750047
  0.4966961332094090  0.5042094737043326  0.1586514457022246
  0.4892617039442728  0.3317020970448517  0.3327425924639535
  0.3286852871362611  0.4947904472933070  0.3353851483842700
  0.3326354057351920  0.3367623626330323  0.4950613125595192
  0.4943966815635298  0.5009684618830877  0.4963078753562405
  0.5065495568713100  0.3205498861311050  0.6462999614690780
  0.3326822961607768  0.5053230575574558  0.6633780835293449
  0.3381612684916588  0.3375709255144825  0.8285129771706572
  0.4965148960693156  0.5103795905839478  0.8328950150754278
  0.5004092483127054  0.6711399644515781 -0.0055864962209523
  0.3448997804548311  0.8305127993190190 -0.0015516068366646
  0.3392336293382258  0.6673757547248662  0.1603999178692939
  0.5056814831977314  0.8336361886472076  0.1602096824951128
  0.5052186192813186  0.6675293900547591  0.3257372532202500
  0.3359770697789272  0.8189678368572477  0.3276675467504729
  0.3345451256199105  0.6687027410761680  0.5015589972392039
  0.4988431702355104  0.8259808948267863  0.4904088980308553
  0.4981692260035193  0.6749775917918222  0.6601964899006357
  0.3413679800135562  0.8367997369818637  0.6611024332036513
  0.3407632015297454  0.6658874174795431  0.8291213866629239
  0.5132589151008646  0.8354545240655749  0.8324908416810886
  0.8350111808816224  0.0042779934246402  0.0039510707670429
  0.6663473147816940  0.1707887729157135  0.0025313932076745
  0.6784347814215365  0.0179348446566487  0.1651364321434224
  0.7971884356884348  0.1611825134987681  0.1722706908556766
  0.8332260978800723 -0.0012452181064629  0.3393408501359023
  0.6608707483428519  0.1677333487117703  0.3438889066092142
  0.6729893820199523  0.0032624751524272  0.5039237508334873
  0.8301507762104785  0.1645093116887137  0.5094544456024772
  0.8346364934465965 -0.0236851491842644  0.6764451873100035
  0.6737039190568835  0.1653165304142712  0.6679565201672243
  0.6769788900749794  0.0008528882929244  0.8349340884151821
  0.8380937033527516  0.1660636995522333  0.8372997878814367
  0.8291385243592992  0.3411405088771130  0.0087822110724100
  0.6711262442178301  0.5001775835264285 -0.0002516757461152
  0.6554939133976202  0.3318589556266399  0.1685954637436300
  0.8350818181433568  0.5004527711727543  0.1587932009878871
  0.8275520324718918  0.3321319373182537  0.3359856331836162
  0.6643349935337878  0.5033936706734137  0.3326744655734595
  0.6341271599677377  0.3270300236157428  0.5119717954608534
  0.8340779180625539  0.5052185022057252  0.4970880050993530
  0.8426155073034631  0.3353225816943583  0.6706777381322219
  0.6689098997487799  0.5004558109626570  0.6675389839222892
  0.6636815072092458  0.3407296060703464  0.8423421677739236
  0.8343150584752596  0.5104886830536968  0.8334060906239721
  0.8258362996704934  0.6690451098709489 -0.0107591349598231
  0.6799433208795994  0.8108310538109109 -0.0107116056586621
  0.6680490288873960  0.6678636164351290  0.1673682304993871
  0.8451494920932515  0.8469679312805023  0.1598891982740720
  0.8347050220518305  0.6657506105772671  0.3328545804585802
  0.6603298173156973  0.8321669100836139  0.3320020655433597
  0.6673474698640394  0.6654702426401705  0.4958860837865585
  0.8359489601795227  0.8340871801993804  0.4977465966777248
  0.8401803063416099  0.6723552933394116  0.6607719254709503
  0.6717580530679460  0.8494184484789836  0.6729954903398816
  0.6824587803245402  0.6802335539145595  0.8507422548842692
  0.8335560122242195  0.8405023251118784  0.8064476231010774
  0.0221202914044685 -0.0553619352926415  0.2924390226321902
  0.0041581095149969  0.1363401159169274  0.8749065824005077
 -0.0496398533173233  0.8770102798936003  0.1857219300716078
  0.1496920894729580  0.8029811790223579  0.2878892685161729
  0.5226824188394524  0.3231019308642826  0.5389969407845114
  0.2924117652396315  0.7168768945412406  0.3320113800978068
  0.5595041700344843  0.8622099793139938  0.6734835019173820
  0.6914670556813917  0.1280300767927235  0.1605730131815490
  0.7008405020534560  0.6977359373022139 -0.0413693093219989
  0.8025755975597290  0.8717276984595884  0.7008588462281999
 
  0.00000000E+00  0.00000000E+00  0.00000000E+00
  0.00000000E+00  0.00000000E+00  0.00000000E+00
  0.00000000E+00  0.00000000E+00  0.00000000E+00
  0.00000000E+00  0.00000000E+00  0.00000000E+00
  0.00000000E+00  0.00000000E+00  0.00000000E+00
  0.00000000E+00  0.00000000E+00  0.00000000E+00
  0.00000000E+00  0.00000000E+00  0.00000000E+00
  0.00000000E+00  0.00000000E+00  0.00000000E+00
  0.00000000E+00  0.00000000E+00  0.00000000E+00
  0.00000000E+00  0.00000000E+00  0.00000000E+00
  0.00000000E+00  0.00000000E+00  0.00000000E+00
  0.00000000E+00  0.00000000E+00  0.00000000E+00
  0.00000000E+00  0.00000000E+00  0.00000000E+00
  0.00000000E+00  0.00000000E+00  0.00000000E+00
  0.00000000E+00  0.00000000E+00  0.00000000E+00
  0.00000000E+00  0.00000000E+00  0.00000000E+00
  0.00000000E+00  0.00000000E+00  0.00000000E+00
  0.00000000E+00  0.00000000E+00  0.00000000E+00
  0.00000000E+00  0.00000000E+00  0.00000000E+00
  0.00000000E+00  0.00000000E+00  0.00000000E+00
  0.00000000E+00  0.00000000E+00  0.00000000E+00
  0.00000000E+00  0.00000000E+00  0.00000000E+00
  0.00000000E+00  0.00000000E+00  0.00000000E+00
  0.00000000E+00  0.00000000E+00  0.00000000E+00
  0.00000000E+00  0.00000000E+00  0.00000000E+00
  0.00000000E+00  0.00000000E+00  0.00000000E+00
  0.00000000E+00  0.00000000E+00  0.00000000E+00
  0.00000000E+00  0.00000000E+00  0.00000000E+00
  0.00000000E+00  0.00000000E+00  0.00000000E+00
  0.00000000E+00  0.00000000E+00  0.00000000E+00
  0.00000000E+00  0.00000000E+00  0.00000000E+00
  0.00000000E+00  0.00000000E+00  0.00000000E+00
  0.00000000E+00  0.00000000E+00  0.00000000E+00
  0.00000000E+00  0.00000000E+00  0.00000000E+00
  0.00000000E+00  0.00000000E+00  0.00000000E+00
  0.00000000E+00  0.00000000E+00  0.00000000E+00
  0.00000000E+00  0.00000000E+00  0.00000000E+00
  0.00000000E+00  0.00000000E+00  0.00000000E+00
  0.00000000E+00  0.00000000E+00  0.00000000E+00
  0.00000000E+00  0.00000000E+00  0.00000000E+00
  0.00000000E+00  0.00000000E+00  0.00000000E+00
  0.00000000E+00  0.00000000E+00  0.00000000E+00
  0.00000000E+00  0.00000000E+00  0.00000000E+00
  0.00000000E+00  0.00000000E+00  0.00000000E+00
  0.00000000E+00  0.00000000E+00  0.00000000E+00
  0.00000000E+00  0.00000000E+00  0.00000000E+00
  0.00000000E+00  0.00000000E+00  0.00000000E+00
  0.00000000E+00  0.00000000E+00  0.00000000E+00
  0.00000000E+00  0.00000000E+00  0.00000000E+00
  0.00000000E+00  0.00000000E+00  0.00000000E+00
  0.00000000E+00  0.00000000E+00  0.00000000E+00
  0.00000000E+00  0.00000000E+00  0.00000000E+00
  0.00000000E+00  0.00000000E+00  0.00000000E+00
  0.00000000E+00  0.00000000E+00  0.00000000E+00
  0.00000000E+00  0.00000000E+00  0.00000000E+00
  0.00000000E+00  0.00000000E+00  0.00000000E+00
  0.00000000E+00  0.00000000E+00  0.00000000E+00
  0.00000000E+00  0.00000000E+00  0.00000000E+00
  0.00000000E+00  0.00000000E+00  0.00000000E+00
  0.00000000E+00  0.00000000E+00  0.00000000E+00
  0.00000000E+00  0.00000000E+00  0.00000000E+00
  0.00000000E+00  0.00000000E+00  0.00000000E+00
  0.00000000E+00  0.00000000E+00  0.00000000E+00
  0.00000000E+00  0.00000000E+00  0.00000000E+00
  0.00000000E+00  0.00000000E+00  0.00000000E+00
  0.00000000E+00  0.00000000E+00  0.00000000E+00
  0.00000000E+00  0.00000000E+00  0.00000000E+00
  0.00000000E+00  0.00000000E+00  0.00000000E+00
  0.00000000E+00  0.00000000E+00  0.00000000E+00
  0.00000000E+00  0.00000000E+00  0.00000000E+00
  0.00000000E+00  0.00000000E+00  0.00000000E+00
  0.00000000E+00  0.00000000E+00  0.00000000E+00
  0.00000000E+00  0.00000000E+00  0.00000000E+00
  0.00000000E+00  0.00000000E+00  0.00000000E+00
  0.00000000E+00  0.00000000E+00  0.00000000E+00
  0.00000000E+00  0.00000000E+00  0.00000000E+00
  0.00000000E+00  0.00000000E+00  0.00000000E+00
  0.00000000E+00  0.00000000E+00  0.00000000E+00
  0.00000000E+00  0.00000000E+00  0.00000000E+00
  0.00000000E+00  0.00000000E+00  0.00000000E+00
  0.00000000E+00  0.00000000E+00  0.00000000E+00
  0.00000000E+00  0.00000000E+00  0.00000000E+00
  0.00000000E+00  0.00000000E+00  0.00000000E+00
  0.00000000E+00  0.00000000E+00  0.00000000E+00
  0.00000000E+00  0.00000000E+00  0.00000000E+00
  0.00000000E+00  0.00000000E+00  0.00000000E+00
  0.00000000E+00  0.00000000E+00  0.00000000E+00
  0.00000000E+00  0.00000000E+00  0.00000000E+00
  0.00000000E+00  0.00000000E+00  0.00000000E+00
  0.00000000E+00  0.00000000E+00  0.00000000E+00
  0.00000000E+00  0.00000000E+00  0.00000000E+00
  0.00000000E+00  0.00000000E+00  0.00000000E+00
  0.00000000E+00  0.00000000E+00  0.00000000E+00
  0.00000000E+00  0.00000000E+00  0.00000000E+00
  0.00000000E+00  0.00000000E+00  0.00000000E+00
  0.00000000E+00  0.00000000E+00  0.00000000E+00
  0.00000000E+00  0.00000000E+00  0.00000000E+00
  0.00000000E+00  0.00000000E+00  0.00000000E+00
  0.00000000E+00  0.00000000E+00  0.00000000E+00
  0.00000000E+00  0.00000000E+00  0.00000000E+00
  0.00000000E+00  0.00000000E+00  0.00000000E+00
  0.00000000E+00  0.00000000E+00  0.00000000E+00
  0.00000000E+00  0.00000000E+00  0.00000000E+00
  0.00000000E+00  0.00000000E+00  0.00000000E+00
  0.00000000E+00  0.00000000E+00  0.00000000E+00
  0.00000000E+00  0.00000000E+00  0.00000000E+00
  0.00000000E+00  0.00000000E+00  0.00000000E+00
  0.00000000E+00  0.00000000E+00  0.00000000E+00
  0.00000000E+00  0.00000000E+00  0.00000000E+00
  0.00000000E+00  0.00000000E+00  0.00000000E+00
  0.00000000E+00  0.00000000E+00  0.00000000E+00
  0.00000000E+00  0.00000000E+00  0.00000000E+00
  0.00000000E+00  0.00000000E+00  0.00000000E+00
  0.00000000E+00  0.00000000E+00  0.00000000E+00
  0.00000000E+00  0.00000000E+00  0.00000000E+00
  0.00000000E+00  0.00000000E+00  0.00000000E+00
  0.00000000E+00  0.00000000E+00  0.00000000E+00
  0.00000000E+00  0.00000000E+00  0.00000000E+00
  0.00000000E+00  0.00000000E+00  0.00000000E+00
  0.00000000E+00  0.00000000E+00  0.00000000E+00
  0.00000000E+00  0.00000000E+00  0.00000000E+00
  0.00000000E+00  0.00000000E+00  0.00000000E+00
  0.00000000E+00  0.00000000E+00  0.00000000E+00
  0.00000000E+00  0.00000000E+00  0.00000000E+00
  0.00000000E+00  0.00000000E+00  0.00000000E+00
  0.00000000E+00  0.00000000E+00  0.00000000E+00
  0.00000000E+00  0.00000000E+00  0.00000000E+00
  0.00000000E+00  0.00000000E+00  0.00000000E+00
  0.00000000E+00  0.00000000E+00  0.00000000E+00
  0.00000000E+00  0.00000000E+00  0.00000000E+00
  0.00000000E+00  0.00000000E+00  0.00000000E+00
  0.00000000E+00  0.00000000E+00  0.00000000E+00
  0.00000000E+00  0.00000000E+00  0.00000000E+00
  0.00000000E+00  0.00000000E+00  0.00000000E+00
  0.00000000E+00  0.00000000E+00  0.00000000E+00
  0.00000000E+00  0.00000000E+00  0.00000000E+00
  0.00000000E+00  0.00000000E+00  0.00000000E+00
  0.00000000E+00  0.00000000E+00  0.00000000E+00
  0.00000000E+00  0.00000000E+00  0.00000000E+00
  0.00000000E+00  0.00000000E+00  0.00000000E+00
  0.00000000E+00  0.00000000E+00  0.00000000E+00
  0.00000000E+00  0.00000000E+00  0.00000000E+00
  0.00000000E+00  0.00000000E+00  0.00000000E+00
  0.00000000E+00  0.00000000E+00  0.00000000E+00
  0.00000000E+00  0.00000000E+00  0.00000000E+00
  0.00000000E+00  0.00000000E+00  0.00000000E+00
  0.00000000E+00  0.00000000E+00  0.00000000E+00
  0.00000000E+00  0.00000000E+00  0.00000000E+00
  0.00000000E+00  0.00000000E+00  0.00000000E+00
  0.00000000E+00  0.00000000E+00  0.00000000E+00
  0.00000000E+00  0.00000000E+00  0.00000000E+00
  0.00000000E+00  0.00000000E+00  0.00000000E+00
  0.00000000E+00  0.00000000E+00  0.00000000E+00
  0.00000000E+00  0.00000000E+00  0.00000000E+00
  0.00000000E+00  0.00000000E+00  0.00000000E+00
  0.00000000E+00  0.00000000E+00  0.00000000E+00
  0.00000000E+00  0.00000000E+00  0.00000000E+00
  0.00000000E+00  0.00000000E+00  0.00000000E+00
  0.00000000E+00  0.00000000E+00  0.00000000E+00
  0.00000000E+00  0.00000000E+00  0.00000000E+00
  0.00000000E+00  0.00000000E+00  0.00000000E+00
  0.00000000E+00  0.00000000E+00  0.00000000E+00
  0.00000000E+00  0.00000000E+00  0.00000000E+00
  0.00000000E+00  0.00000000E+00  0.00000000E+00
  0.00000000E+00  0.00000000E+00  0.00000000E+00
  0.00000000E+00  0.00000000E+00  0.00000000E+00
  0.00000000E+00  0.00000000E+00  0.00000000E+00
  0.00000000E+00  0.00000000E+00  0.00000000E+00
  0.00000000E+00  0.00000000E+00  0.00000000E+00
  0.00000000E+00  0.00000000E+00  0.00000000E+00
  0.00000000E+00  0.00000000E+00  0.00000000E+00
  0.00000000E+00  0.00000000E+00  0.00000000E+00
  0.00000000E+00  0.00000000E+00  0.00000000E+00
  0.00000000E+00  0.00000000E+00  0.00000000E+00
  0.00000000E+00  0.00000000E+00  0.00000000E+00
  0.00000000E+00  0.00000000E+00  0.00000000E+00
  0.00000000E+00  0.00000000E+00  0.00000000E+00
  0.00000000E+00  0.00000000E+00  0.00000000E+00
  0.00000000E+00  0.00000000E+00  0.00000000E+00
  0.00000000E+00  0.00000000E+00  0.00000000E+00
  0.00000000E+00  0.00000000E+00  0.00000000E+00
  0.00000000E+00  0.00000000E+00  0.00000000E+00
  0.00000000E+00  0.00000000E+00  0.00000000E+00
  0.00000000E+00  0.00000000E+00  0.00000000E+00
  0.00000000E+00  0.00000000E+00  0.00000000E+00
  0.00000000E+00  0.00000000E+00  0.00000000E+00
  0.00000000E+00  0.00000000E+00  0.00000000E+00
  0.00000000E+00  0.00000000E+00  0.00000000E+00
  0.00000000E+00  0.00000000E+00  0.00000000E+00
  0.00000000E+00  0.00000000E+00  0.00000000E+00
  0.00000000E+00  0.00000000E+00  0.00000000E+00
  0.00000000E+00  0.00000000E+00  0.00000000E+00
  0.00000000E+00  0.00000000E+00  0.00000000E+00
  0.00000000E+00  0.00000000E+00  0.00000000E+00
  0.00000000E+00  0.00000000E+00  0.00000000E+00
  0.00000000E+00  0.00000000E+00  0.00000000E+00
  0.00000000E+00  0.00000000E+00  0.00000000E+00
  0.00000000E+00  0.00000000E+00  0.00000000E+00
  0.00000000E+00  0.00000000E+00  0.00000000E+00
  0.00000000E+00  0.00000000E+00  0.00000000E+00
  0.00000000E+00  0.00000000E+00  0.00000000E+00
  0.00000000E+00  0.00000000E+00  0.00000000E+00
  0.00000000E+00  0.00000000E+00  0.00000000E+00
  0.00000000E+00  0.00000000E+00  0.00000000E+00
