Sb                                      
   1.00000000000000     
    18.6673007965000011    0.0000000000000000    0.0000000000000000
     0.0000000000000000   18.6673007965000011    0.0000000000000000
     0.0000000000000000    0.0000000000000000   18.6673007965000011
   Tl   Se
   100   100
Direct
  0.0908027057755541  0.2704823110819443  0.1410005284384377
  0.7329873868398873  0.1667125472575658  0.6199015942616339
  0.0136839880984268  0.0443009112277673  0.4572730993966795
  0.5119768847974080  0.2908343171056770  0.5882246053247301
  0.2970895018204967  0.5878498242411607  0.3323616211592074
  0.4067081752652046  0.7392677416563300  0.7462655838039075
  0.9683930932278794  0.7462915867019800  0.5010577702834214
  0.1168737642905913  0.5571808670290701  0.4989330247590241
  0.7112228234942786  0.6594627215850213  0.2597635939887631
  0.8491571947981666  0.7113364161873081  0.0180801842097687
  0.7244014597401692  0.9652605283016477  0.2795712519221616
  0.3470137314576610  0.4450163698343663  0.4923762354513199
  0.3772076019634007  0.2578555557579781  0.9461506091068851
  0.3279041109131121  0.5204261796989146  0.0028897499258743
  0.1392887256517537  0.8401997386925806  0.6563004676049202
  0.2809811561672791  0.0399077869877104  0.8705545501083740
  0.7178418109124755  0.8868383183139363  0.7489761721756674
  0.4625124718228774  0.5435223162244815  0.8464028308106292
  0.2058917082461842  0.6002696752569381  0.7466012063958202
  0.7885705267074746  0.2527412005894965  0.3423465908273187
  0.0064262665318487  0.1745923379627614  0.9294176967707283
  0.8526120666451086  0.5978396864897578  0.4870105625668609
  0.3454122602730821  0.1599462853495148  0.6333597613296517
  0.1575497347497037  0.3526849548263229  0.4771202830690772
  0.5663731599242392  0.1183936576415973  0.2858677089524015
  0.0945838017242402  0.5226822720362667  0.2907999367741420
  0.5627062340515346  0.7727230831945850  0.1118089666108710
  0.5893638090193044  0.1509236007381316  0.7343462712517541
  0.5830007543824268  0.3378748571010134  0.3336065825198668
  0.5445331539264164  0.5048818554417270  0.5494419766807019
  0.9325385949759060  0.4449824486610186  0.3852232376004713
  0.0344619049308279  0.9938791920410338  0.0056897343204930
  0.9019563598359703  0.7112664573636595  0.2992846827363152
  0.1723484936077229  0.1230213020444077  0.9935762713577337
  0.1422322129294482  0.1680488696578974  0.5281658448856306
  0.0633974100350872  0.4729234556419712  0.9124131423982521
  0.3302336628210172  0.6468445550055745  0.1306505743532249
  0.1890372348561678  0.7001519879277794  0.0017344246392879
  0.8055493325328986  0.4827995257395483  0.9639414574819197
  0.1171923739948061  0.7596169085356077  0.3124317934167376
  0.1421622743579520  0.2972636480846243  0.6659695293864631
  0.3618919602125747  0.8373391354924586  0.5624686723268318
  0.9499742031748837  0.7490306166394208  0.7137478834979476
  0.1746046604380427  0.9537224010659492  0.3338730992775135
  0.4766396005631611  0.6553553007121709  0.2412615812749060
  0.2317402791643144  0.4255098839917436  0.1958685522767830
  0.5092636292841957  0.9025224156100663  0.2653975789797469
  0.4475593491194635  0.1882800406104897  0.4289851194707532
  0.0470255616210779  0.4804256367701124  0.7095354991195330
  0.8095551024504587  0.2951353436268606  0.0983128910849951
  0.8548282404445843  0.9228507242803236  0.1497884346075762
  0.6363659244393955  0.4281350149652849  0.8637246555755287
  0.7134955010705666  0.0765519411627358  0.0615389688276348
  0.3252233710633842  0.8153413422423864  0.2364513650181624
  0.2236478494249916  0.2441268076757224  0.3147904479099473
  0.5458881525882493  0.4691582893875044  0.2118697381231147
  0.6277278180891013  0.0746856705334019  0.5055148681318251
  0.0193565122241923  0.0698155832853063  0.2717452417697160
  0.0173093050074697  0.4432863380185039  0.1097737732936546
  0.6116019109605203  0.9463996815686938  0.9775723308418649
  0.7047261771641666  0.2208860966320379  0.8856532591773568
  0.2459088623170833  0.0230776757606291  0.6934969726256018
  0.9041118466894019  0.1383990153291872  0.1359188139027512
  0.4203626200042564  0.1653028993593957  0.1125775374264370
  0.7447744871407749  0.4176852353627692  0.2462820394672547
  0.0521698542373497  0.1082629571779264  0.6977507354409528
  0.8098794470660006  0.8655226330979992  0.5705734825210249
  0.7640050201888651  0.6996225797720297  0.6640909649645762
  0.9158344244432536  0.5439100662702602  0.2259248412705160
  0.6475055576881198  0.7884582712188168  0.3839411892438195
  0.3958465142439415  0.3434177617920436  0.7324892598855101
  0.2285720277894526  0.7973167429405101  0.8490118476721901
  0.3729900049226254  0.3589260831706176  0.3029797976893657
  0.1682501662393353  0.7497529189384684  0.4933577115409782
  0.1477972426388483  0.2903801864240839  0.8775071536079506
  0.9818155051242796  0.2686882792585182  0.4630327940975468
  0.4500948320355845  0.9715110707250666  0.4553383587835526
  0.8126692862380003  0.9083878147846756  0.9046494635618295
  0.6443471260400621  0.6234825109629750  0.9874606235046871
  0.2401695329108160  0.0895992234443444  0.1875001271484346
  0.4058485667431792  0.3741357067266293  0.1032525651746553
  0.2832469776030535  0.8902060412835571  0.0091878484490895
  0.6295750152844675  0.5970149832739262  0.7656067224063926
  0.6232495198010464  0.2296148459280423  0.1234021970726182
  0.9172678412180716  0.2672991093836695  0.6361253290695058
  0.7027474331548318  0.3788175969127936  0.6536768914640493
  0.7921407553319896  0.0200096158669569  0.4454036147507479
  0.0399885648154437  0.6689560423198533  0.1504372423184603
  0.1353987577652916  0.9172936969821401  0.1563835401944390
  0.9071146876825762  0.3645908246233511  0.7960881061759637
  0.5378402814032499  0.7684873355539071  0.8950235420480985
  0.8650461043773158  0.1240595783491042  0.7956336595116238
  0.2875582314633950  0.0567568100925976  0.4515171535731218
  0.0153380768908039  0.8253200694703243  0.8791481930089599
  0.5139138242605789  0.9655362878797557  0.6650628658087158
  0.9822442558146649  0.9226019847564075  0.6055417715215570
  0.4653285226412223  0.0502300245322792  0.8883244973760663
  0.4140850594414309  0.9613991514678571  0.1262072131893241
  0.7009984969753632  0.4553418816907677  0.4425605012901927
  0.8847167496940348  0.5747438578682653  0.8104241370885736
  0.7569528498151913  0.7373815514957444  0.4909415808329016
  0.3925423467555152  0.1099026670853913  0.2740490062847634
  0.8496457597240353  0.1032952220897369  0.3118488276927418
  0.2847617241985574  0.8648631250277367  0.7165077830380930
  0.8743528572667171  0.0339270965990169  0.0050975735919450
  0.5275395247265184  0.5606063223211709  0.3672826180665116
  0.2211626440408698  0.2740917079985485  0.0267767452941496
  0.4792683447959712  0.8088195157364065  0.4067074965953621
  0.6606915298800046  0.9296597556247883  0.5955059013276167
  0.9573426167529661  0.5645112712886403  0.0015716688651226
  0.5317050584262991  0.2091142881892307  0.8861221005550862
  0.5294650371813350  0.7596876502651019  0.6019827134070861
  0.3164782044150050  0.6361408420412394  0.8744208657294409
  0.7908725423333557  0.2637520675775601  0.7386421697303011
  0.6308777812275495  0.6181738162330019  0.4139798240142410
  0.3736329180406790  0.8894159528151546  0.8632616298642261
  0.9299684015141424  0.9392966630759358  0.7690020013537574
  0.2846157446583327  0.2362400075281540  0.4790314913979459
  0.0406802386298868  0.6452200348689726  0.8169511320978047
  0.8949333908712657  0.0596009439695076  0.6337673090565187
  0.8007968088044318  0.5395058051770786  0.3348453973780647
  0.0268840052293792  0.4211115074521843  0.5534117888675647
  0.0278875124996571 -0.0001754914688402  0.8264247293320840
  0.0579023104388137  0.6355034046390672  0.6407903666101046
  0.1473350010749892  0.1115550129600627  0.3778947822165484
  0.8998242396161440  0.4458313620749565  0.5699076776431132
  0.6737272490943792  0.3465137067770400  0.0075785601987052
  0.5494185009368370  0.1401915696644864  0.9949326408639124
  0.3119922251075614  0.0530920270380469  0.0386921482197733
  0.0199626735726565  0.2456026126297163  0.7808666209892595
  0.6108432455217520  0.9968934234393002  0.8086772174771768
  0.4685773905595843  0.6560581678636003  0.0156600755310709
  0.8368931761534901  0.8098139175240188  0.4134674521390672
  0.3840053202977108  0.5130865469969222  0.2163353153792628
  0.9115033578227063  0.3645766725195455  0.2240017649473205
  0.6632023338732075  0.4560070015597414  0.0718634857050233
  0.1881203283194531  0.7599924512392323  0.1578339860890094
  0.5320075670951201  0.4469176311654486  0.7126722913404532
  0.6619650346222588  0.2826590614289267  0.5204681912263286
  0.4647162277603040  0.3527442545641510  0.4343529859093329
  0.3423661245046412  0.1838490245629921  0.7997748775036049
  0.2293041807627541  0.4319629498846385  0.7066343270379317
  0.6385912627402497  0.9363593717594682  0.1435131334965857
  0.9951967703838861  0.8522346218939717  0.2250743284652212
  0.4280158029789015  0.5929280195087536  0.4424221917796731
  0.0925254389551741  0.3488851930856389  0.3195337506255445
  0.7144466997699224  0.0511957517597453  0.8634110834679271
  0.2041570204621220  0.9175244925337696  0.4996085330297722
  0.2159733789116192  0.1861956796976213  0.7734039342944508
  0.7634700366938582  0.5309266486580381  0.6896422955789799
  0.5733268874819755  0.8644055242872090  0.5260738539340047
  0.3747654551103166  0.7348382331088177  0.4079405552912941
  0.0765896100655374  0.1096850504547570  0.1265598266975634
  0.6416328045046472  0.2110788287698086  0.4151511530389546
  0.9857523623366760  0.2776042002701074  0.2934045514981027
  0.5328892805965437  0.4895737302055710  0.0385625222583314
  0.8513839794796741  0.1596738867575429  0.9750533787455755
  0.2229426978609389  0.4485699528514017  0.3731717051844824
  0.6999645763831273  0.7896468122810032  0.0115345956635232
  0.8401584364064468  0.3547169611235134  0.4987641814496439
  0.3544505315419870  0.4167005308029156  0.8801673389887421
  0.2317581010013964  0.4372803483549843  0.8346957310369141
  0.2949227186052786  0.3120968524675793  0.5830757458313445
  0.2740669911468931  0.8241920980506974  0.3894208106565793
  0.4785026336141860  0.6045797999307354  0.6648686179081860
  0.0202033029726642  0.6370877043771882  0.3883214486493543
  0.7073112726158612  0.5641445393433776  0.5764326881715240
  0.1738350930901937  0.5726609539672383  0.1063452086913539
  0.5020132061105248  0.3992470490851053  0.9532069887703980
  0.6075112745155026  0.7582223547867251  0.7039032046273200
  0.8364527905948045  0.7302111966469036  0.8483470559527382
  0.7085014540651785  0.7444074413636396  0.8435941993239923
  0.3536302080303905  0.9918958165900512  0.3083780476932403
  0.6050626652853032  0.6090865559896154  0.1461298247937113
  0.9973799250239198  0.3314880493391825  0.9857905716431513
  0.1385174865725415  0.9390867865468030  0.7916715649671044
  0.9340286763433815  0.5965136260201480  0.6502233726107854
  0.0444914312752279  0.8836941666030991  0.4225048621128525
  0.4973703202522584  0.2845739910177061  0.2068532987565136
  0.8736698337055482  0.3311109404208525  0.9509256750548077
  0.2938790704278533  0.6023922883550833  0.5733811409356757
  0.1337423111767546  0.0018747452540471  0.5750879912382523
  0.5911062010517679  0.9787896021364798  0.3774876971550187
  0.5718798122943397  0.3287303791236011  0.7542312727380719
  0.3673930219716297  0.5402638365676707  0.6592070181570786
  0.7492873408590469  0.1280020986321923  0.2326362699442971
  0.4449254984772537  0.8834538955885809  0.9736230053119910
  0.3838803461518410  0.7235429225842298  0.9447969407919662
  0.8694501115567366  0.1364931361075160  0.5316700951847885
  0.5530610890810171  0.0437178439940579  0.1406576528746503
  0.1762485279864255  0.4630128852087123  0.0372366608798453
  0.2732131993415533  0.7169677700098412  0.6337290618485100
  0.2745219623353130  0.2570357435443550  0.1429169885146604
  0.8346512523254700  0.4612272842434441  0.1204751618246160
  0.0256476466257618  0.6601504779897809  0.9455096870756385
  0.9350547146649620  0.8567409954548346  0.0215364960201459
  0.5003199261074346  0.1134340301911372  0.5921426063313787
  0.7258922902025196  0.8106433665088386  0.1382418626961147
  0.0496543602409622  0.8105708930023656  0.0675151481955310
  0.9486777408464726  0.9008046735323550  0.3377937904042590
 
  0.00000000E+00  0.00000000E+00  0.00000000E+00
  0.00000000E+00  0.00000000E+00  0.00000000E+00
  0.00000000E+00  0.00000000E+00  0.00000000E+00
  0.00000000E+00  0.00000000E+00  0.00000000E+00
  0.00000000E+00  0.00000000E+00  0.00000000E+00
  0.00000000E+00  0.00000000E+00  0.00000000E+00
  0.00000000E+00  0.00000000E+00  0.00000000E+00
  0.00000000E+00  0.00000000E+00  0.00000000E+00
  0.00000000E+00  0.00000000E+00  0.00000000E+00
  0.00000000E+00  0.00000000E+00  0.00000000E+00
  0.00000000E+00  0.00000000E+00  0.00000000E+00
  0.00000000E+00  0.00000000E+00  0.00000000E+00
  0.00000000E+00  0.00000000E+00  0.00000000E+00
  0.00000000E+00  0.00000000E+00  0.00000000E+00
  0.00000000E+00  0.00000000E+00  0.00000000E+00
  0.00000000E+00  0.00000000E+00  0.00000000E+00
  0.00000000E+00  0.00000000E+00  0.00000000E+00
  0.00000000E+00  0.00000000E+00  0.00000000E+00
  0.00000000E+00  0.00000000E+00  0.00000000E+00
  0.00000000E+00  0.00000000E+00  0.00000000E+00
  0.00000000E+00  0.00000000E+00  0.00000000E+00
  0.00000000E+00  0.00000000E+00  0.00000000E+00
  0.00000000E+00  0.00000000E+00  0.00000000E+00
  0.00000000E+00  0.00000000E+00  0.00000000E+00
  0.00000000E+00  0.00000000E+00  0.00000000E+00
  0.00000000E+00  0.00000000E+00  0.00000000E+00
  0.00000000E+00  0.00000000E+00  0.00000000E+00
  0.00000000E+00  0.00000000E+00  0.00000000E+00
  0.00000000E+00  0.00000000E+00  0.00000000E+00
  0.00000000E+00  0.00000000E+00  0.00000000E+00
  0.00000000E+00  0.00000000E+00  0.00000000E+00
  0.00000000E+00  0.00000000E+00  0.00000000E+00
  0.00000000E+00  0.00000000E+00  0.00000000E+00
  0.00000000E+00  0.00000000E+00  0.00000000E+00
  0.00000000E+00  0.00000000E+00  0.00000000E+00
  0.00000000E+00  0.00000000E+00  0.00000000E+00
  0.00000000E+00  0.00000000E+00  0.00000000E+00
  0.00000000E+00  0.00000000E+00  0.00000000E+00
  0.00000000E+00  0.00000000E+00  0.00000000E+00
  0.00000000E+00  0.00000000E+00  0.00000000E+00
  0.00000000E+00  0.00000000E+00  0.00000000E+00
  0.00000000E+00  0.00000000E+00  0.00000000E+00
  0.00000000E+00  0.00000000E+00  0.00000000E+00
  0.00000000E+00  0.00000000E+00  0.00000000E+00
  0.00000000E+00  0.00000000E+00  0.00000000E+00
  0.00000000E+00  0.00000000E+00  0.00000000E+00
  0.00000000E+00  0.00000000E+00  0.00000000E+00
  0.00000000E+00  0.00000000E+00  0.00000000E+00
  0.00000000E+00  0.00000000E+00  0.00000000E+00
  0.00000000E+00  0.00000000E+00  0.00000000E+00
  0.00000000E+00  0.00000000E+00  0.00000000E+00
  0.00000000E+00  0.00000000E+00  0.00000000E+00
  0.00000000E+00  0.00000000E+00  0.00000000E+00
  0.00000000E+00  0.00000000E+00  0.00000000E+00
  0.00000000E+00  0.00000000E+00  0.00000000E+00
  0.00000000E+00  0.00000000E+00  0.00000000E+00
  0.00000000E+00  0.00000000E+00  0.00000000E+00
  0.00000000E+00  0.00000000E+00  0.00000000E+00
  0.00000000E+00  0.00000000E+00  0.00000000E+00
  0.00000000E+00  0.00000000E+00  0.00000000E+00
  0.00000000E+00  0.00000000E+00  0.00000000E+00
  0.00000000E+00  0.00000000E+00  0.00000000E+00
  0.00000000E+00  0.00000000E+00  0.00000000E+00
  0.00000000E+00  0.00000000E+00  0.00000000E+00
  0.00000000E+00  0.00000000E+00  0.00000000E+00
  0.00000000E+00  0.00000000E+00  0.00000000E+00
  0.00000000E+00  0.00000000E+00  0.00000000E+00
  0.00000000E+00  0.00000000E+00  0.00000000E+00
  0.00000000E+00  0.00000000E+00  0.00000000E+00
  0.00000000E+00  0.00000000E+00  0.00000000E+00
  0.00000000E+00  0.00000000E+00  0.00000000E+00
  0.00000000E+00  0.00000000E+00  0.00000000E+00
  0.00000000E+00  0.00000000E+00  0.00000000E+00
  0.00000000E+00  0.00000000E+00  0.00000000E+00
  0.00000000E+00  0.00000000E+00  0.00000000E+00
  0.00000000E+00  0.00000000E+00  0.00000000E+00
  0.00000000E+00  0.00000000E+00  0.00000000E+00
  0.00000000E+00  0.00000000E+00  0.00000000E+00
  0.00000000E+00  0.00000000E+00  0.00000000E+00
  0.00000000E+00  0.00000000E+00  0.00000000E+00
  0.00000000E+00  0.00000000E+00  0.00000000E+00
  0.00000000E+00  0.00000000E+00  0.00000000E+00
  0.00000000E+00  0.00000000E+00  0.00000000E+00
  0.00000000E+00  0.00000000E+00  0.00000000E+00
  0.00000000E+00  0.00000000E+00  0.00000000E+00
  0.00000000E+00  0.00000000E+00  0.00000000E+00
  0.00000000E+00  0.00000000E+00  0.00000000E+00
  0.00000000E+00  0.00000000E+00  0.00000000E+00
  0.00000000E+00  0.00000000E+00  0.00000000E+00
  0.00000000E+00  0.00000000E+00  0.00000000E+00
  0.00000000E+00  0.00000000E+00  0.00000000E+00
  0.00000000E+00  0.00000000E+00  0.00000000E+00
  0.00000000E+00  0.00000000E+00  0.00000000E+00
  0.00000000E+00  0.00000000E+00  0.00000000E+00
  0.00000000E+00  0.00000000E+00  0.00000000E+00
  0.00000000E+00  0.00000000E+00  0.00000000E+00
  0.00000000E+00  0.00000000E+00  0.00000000E+00
  0.00000000E+00  0.00000000E+00  0.00000000E+00
  0.00000000E+00  0.00000000E+00  0.00000000E+00
  0.00000000E+00  0.00000000E+00  0.00000000E+00
  0.00000000E+00  0.00000000E+00  0.00000000E+00
  0.00000000E+00  0.00000000E+00  0.00000000E+00
  0.00000000E+00  0.00000000E+00  0.00000000E+00
  0.00000000E+00  0.00000000E+00  0.00000000E+00
  0.00000000E+00  0.00000000E+00  0.00000000E+00
  0.00000000E+00  0.00000000E+00  0.00000000E+00
  0.00000000E+00  0.00000000E+00  0.00000000E+00
  0.00000000E+00  0.00000000E+00  0.00000000E+00
  0.00000000E+00  0.00000000E+00  0.00000000E+00
  0.00000000E+00  0.00000000E+00  0.00000000E+00
  0.00000000E+00  0.00000000E+00  0.00000000E+00
  0.00000000E+00  0.00000000E+00  0.00000000E+00
  0.00000000E+00  0.00000000E+00  0.00000000E+00
  0.00000000E+00  0.00000000E+00  0.00000000E+00
  0.00000000E+00  0.00000000E+00  0.00000000E+00
  0.00000000E+00  0.00000000E+00  0.00000000E+00
  0.00000000E+00  0.00000000E+00  0.00000000E+00
  0.00000000E+00  0.00000000E+00  0.00000000E+00
  0.00000000E+00  0.00000000E+00  0.00000000E+00
  0.00000000E+00  0.00000000E+00  0.00000000E+00
  0.00000000E+00  0.00000000E+00  0.00000000E+00
  0.00000000E+00  0.00000000E+00  0.00000000E+00
  0.00000000E+00  0.00000000E+00  0.00000000E+00
  0.00000000E+00  0.00000000E+00  0.00000000E+00
  0.00000000E+00  0.00000000E+00  0.00000000E+00
  0.00000000E+00  0.00000000E+00  0.00000000E+00
  0.00000000E+00  0.00000000E+00  0.00000000E+00
  0.00000000E+00  0.00000000E+00  0.00000000E+00
  0.00000000E+00  0.00000000E+00  0.00000000E+00
  0.00000000E+00  0.00000000E+00  0.00000000E+00
  0.00000000E+00  0.00000000E+00  0.00000000E+00
  0.00000000E+00  0.00000000E+00  0.00000000E+00
  0.00000000E+00  0.00000000E+00  0.00000000E+00
  0.00000000E+00  0.00000000E+00  0.00000000E+00
  0.00000000E+00  0.00000000E+00  0.00000000E+00
  0.00000000E+00  0.00000000E+00  0.00000000E+00
  0.00000000E+00  0.00000000E+00  0.00000000E+00
  0.00000000E+00  0.00000000E+00  0.00000000E+00
  0.00000000E+00  0.00000000E+00  0.00000000E+00
  0.00000000E+00  0.00000000E+00  0.00000000E+00
  0.00000000E+00  0.00000000E+00  0.00000000E+00
  0.00000000E+00  0.00000000E+00  0.00000000E+00
  0.00000000E+00  0.00000000E+00  0.00000000E+00
  0.00000000E+00  0.00000000E+00  0.00000000E+00
  0.00000000E+00  0.00000000E+00  0.00000000E+00
  0.00000000E+00  0.00000000E+00  0.00000000E+00
  0.00000000E+00  0.00000000E+00  0.00000000E+00
  0.00000000E+00  0.00000000E+00  0.00000000E+00
  0.00000000E+00  0.00000000E+00  0.00000000E+00
  0.00000000E+00  0.00000000E+00  0.00000000E+00
  0.00000000E+00  0.00000000E+00  0.00000000E+00
  0.00000000E+00  0.00000000E+00  0.00000000E+00
  0.00000000E+00  0.00000000E+00  0.00000000E+00
  0.00000000E+00  0.00000000E+00  0.00000000E+00
  0.00000000E+00  0.00000000E+00  0.00000000E+00
  0.00000000E+00  0.00000000E+00  0.00000000E+00
  0.00000000E+00  0.00000000E+00  0.00000000E+00
  0.00000000E+00  0.00000000E+00  0.00000000E+00
  0.00000000E+00  0.00000000E+00  0.00000000E+00
  0.00000000E+00  0.00000000E+00  0.00000000E+00
  0.00000000E+00  0.00000000E+00  0.00000000E+00
  0.00000000E+00  0.00000000E+00  0.00000000E+00
  0.00000000E+00  0.00000000E+00  0.00000000E+00
  0.00000000E+00  0.00000000E+00  0.00000000E+00
  0.00000000E+00  0.00000000E+00  0.00000000E+00
  0.00000000E+00  0.00000000E+00  0.00000000E+00
  0.00000000E+00  0.00000000E+00  0.00000000E+00
  0.00000000E+00  0.00000000E+00  0.00000000E+00
  0.00000000E+00  0.00000000E+00  0.00000000E+00
  0.00000000E+00  0.00000000E+00  0.00000000E+00
  0.00000000E+00  0.00000000E+00  0.00000000E+00
  0.00000000E+00  0.00000000E+00  0.00000000E+00
  0.00000000E+00  0.00000000E+00  0.00000000E+00
  0.00000000E+00  0.00000000E+00  0.00000000E+00
  0.00000000E+00  0.00000000E+00  0.00000000E+00
  0.00000000E+00  0.00000000E+00  0.00000000E+00
  0.00000000E+00  0.00000000E+00  0.00000000E+00
  0.00000000E+00  0.00000000E+00  0.00000000E+00
  0.00000000E+00  0.00000000E+00  0.00000000E+00
  0.00000000E+00  0.00000000E+00  0.00000000E+00
  0.00000000E+00  0.00000000E+00  0.00000000E+00
  0.00000000E+00  0.00000000E+00  0.00000000E+00
  0.00000000E+00  0.00000000E+00  0.00000000E+00
  0.00000000E+00  0.00000000E+00  0.00000000E+00
  0.00000000E+00  0.00000000E+00  0.00000000E+00
  0.00000000E+00  0.00000000E+00  0.00000000E+00
  0.00000000E+00  0.00000000E+00  0.00000000E+00
  0.00000000E+00  0.00000000E+00  0.00000000E+00
  0.00000000E+00  0.00000000E+00  0.00000000E+00
  0.00000000E+00  0.00000000E+00  0.00000000E+00
  0.00000000E+00  0.00000000E+00  0.00000000E+00
  0.00000000E+00  0.00000000E+00  0.00000000E+00
  0.00000000E+00  0.00000000E+00  0.00000000E+00
  0.00000000E+00  0.00000000E+00  0.00000000E+00
  0.00000000E+00  0.00000000E+00  0.00000000E+00
  0.00000000E+00  0.00000000E+00  0.00000000E+00
  0.00000000E+00  0.00000000E+00  0.00000000E+00
  0.00000000E+00  0.00000000E+00  0.00000000E+00
  0.00000000E+00  0.00000000E+00  0.00000000E+00
  0.00000000E+00  0.00000000E+00  0.00000000E+00
