Bi6 Se6                                 
   1.00000000000000     
     2.1325962753547669   -3.6937651009466017    0.0000000000000001
     2.1325962753547669    3.6937651009466017   -0.0000000000000001
     0.0000000000000004    0.0000000000000009   23.9565406813849080
   Bi   Se
     6     6
Direct
  0.6666666666666643  0.3333333333333357  0.4627597839441359
  0.3333333333333357  0.6666666666666643  0.5372402160558637
  0.6666666666666643  0.3333333333333357  0.7123191345528254
  0.3333333333333357  0.6666666666666643  0.2876808654471756
  0.0000000000000000  0.0000000000000000  0.8708766920439832
  0.0000000000000000  0.0000000000000000  0.1291233079560172
  0.6666666666666643  0.3333333333333357  0.2097979950046790
  0.3333333333333357  0.6666666666666643  0.7902020049953213
  0.0000000000000000  0.0000000000000000  0.6471132186228724
  0.0000000000000000  0.0000000000000000  0.3528867813771273
  0.6666666666666643  0.3333333333333357  0.9339430197882245
  0.3333333333333357  0.6666666666666643  0.0660569802117756
 
  0.00000000E+00  0.00000000E+00  0.00000000E+00
  0.00000000E+00  0.00000000E+00  0.00000000E+00
  0.00000000E+00  0.00000000E+00  0.00000000E+00
  0.00000000E+00  0.00000000E+00  0.00000000E+00
  0.00000000E+00  0.00000000E+00  0.00000000E+00
  0.00000000E+00  0.00000000E+00  0.00000000E+00
  0.00000000E+00  0.00000000E+00  0.00000000E+00
  0.00000000E+00  0.00000000E+00  0.00000000E+00
  0.00000000E+00  0.00000000E+00  0.00000000E+00
  0.00000000E+00  0.00000000E+00  0.00000000E+00
  0.00000000E+00  0.00000000E+00  0.00000000E+00
  0.00000000E+00  0.00000000E+00  0.00000000E+00
