Sn4 Se4                                 
   1.00000000000000     
     4.2823843956000003    0.0000000000000000    0.0000000000000000
     0.0000000000000000    4.3548035621999999    0.0000000000000000
     0.0000000000000000    0.0000000000000000   12.0699119568000004
   Sn   Se
     4     4
Direct
  0.2500000000000000  0.5846216571078500  0.3731187255414901
  0.7500000000000000  0.0846216431078488  0.1268812594585122
  0.2500000000000000  0.9153783428921500  0.8731187555414858
  0.7500000000000000  0.4153783428921501  0.6268812444585142
  0.2500000000000000  0.5197597276064323  0.1450013597203288
  0.7500000000000000  0.0197597456064340  0.3549986402796713
  0.2500000000000000 -0.0197597276064325  0.6450013597203288
  0.7500000000000000  0.4802402423935650  0.8549986402796712
 
  0.00000000E+00  0.00000000E+00  0.00000000E+00
  0.00000000E+00  0.00000000E+00  0.00000000E+00
  0.00000000E+00  0.00000000E+00  0.00000000E+00
  0.00000000E+00  0.00000000E+00  0.00000000E+00
  0.00000000E+00  0.00000000E+00  0.00000000E+00
  0.00000000E+00  0.00000000E+00  0.00000000E+00
  0.00000000E+00  0.00000000E+00  0.00000000E+00
  0.00000000E+00  0.00000000E+00  0.00000000E+00
