Ge Se                                   
   1.00000000000000     
    20.2740058898925781    0.0000000000000000    0.0000000000000000
     0.0000000000000000   20.2740058898925781    0.0000000000000000
     0.0000000000000000    0.0000000000000000   20.2740058898925781
   Ge   Se
   150   150
Direct
  0.6465620208693695  0.1740752597293683  0.9365736677815918
  0.9120458638958837  0.5679753545426467  0.6430814301395588
  0.5687616214812288  0.0631086777024778  0.7871756509673998
  0.0537027318857370  0.1698351468948147  0.9535953014651268
  0.1672804605473433  0.5086425983169024  0.8327130646907629
  0.8013861504393066  0.6735638417891293  0.6157375360389707
  0.0908966051793476  0.7559160908972982  0.2139905398377178
  0.2675498684722948  0.1026973642198568  0.7875405178422272
  0.1088477150572640  0.1815497246689234  0.1115723665748747
  0.7234616547881896  0.9771314098741571  0.3915894612522735
  0.7549128218549380  0.5618531432760132  0.8125431623588493
  0.1070545777926824  0.1617567307732982  0.7000980120019814
  0.4499184160992992  0.1082218113598686  0.5186003125316810
  0.7481598976938039  0.3473880557514937  0.8416231672225745
  0.8460284422022748  0.9080078909737337  0.2773989549628211
  0.6317483170116736  0.1709709628173980  0.3499054694900861
  0.2299377213519874  0.9266506925711715  0.5538717694604952
  0.5113228387523338  0.8377383591478189  0.2045638734114653
  0.5068261439420908  0.5355587813885319  0.3812332173869345
  0.5548159589887725  0.5967811435061499  0.7573212270594213
  0.3506845158403381  0.7104344533745245  0.5573374475449190
  0.7528799276810343  0.3724972132429938  0.2396463341875777
  0.0750448036385526  0.6041808816759403  0.7244436516623970
  0.0046693543164816  0.4245915519466208  0.7487068830632756
  0.7259309478887234  0.2448970713599553  0.2318879968074481
  0.4398473301257170  0.0176003541387481  0.0701146171715142
  0.0921097347125698  0.5379576222728396  0.3522853632140743
  0.3481477552283071  0.9624619454440537  0.8792953769486684
  0.8551686270687077  0.7455590715133147  0.1650903543099478
  0.7080283227470672  0.1220588432299857  0.6267530297107321
  0.6057391935177587  0.7064789475931673  0.4227097585048540
  0.3943402394111720  0.0157161587592563  0.5900245644737977
  0.4669092983850680  0.3520560031875743  0.5019751052999610
  0.2332621418452699  0.5517912539150909  0.2760178734332193
  0.6905377811503670  0.8352935709323976  0.6069204453153918
  0.9148273732582966  0.4940560855075639  0.9765722064200177
  0.5406868398034554  0.2347751778472880  0.7074170359276483
  0.2698380263802378  0.6838150073650335  0.7993030862416214
  0.6994216720630243  0.5111373684066581  0.4101633598357450
  0.4276653088338299  0.7885015164687972  0.8687078044886735
  0.8852354674670150  0.2608966113300272  0.9016558994734043
  0.1023734597834815  0.8864185566344348  0.6828372641377541
  0.2436172365869911  0.6526904118860964  0.4945261310687850
  0.0626813844561926  0.2914529379131729  0.2564639374976196
  0.1453921457123078  0.8338704353581089  0.8498645068759181
  0.8168667520261567  0.1730687512990223  0.6875967949010002
  0.2117007209416152  0.2593179648026203  0.5636302581668345
  0.9605396289815307  0.0252237922218837  0.1867442861677089
  0.8437658144472332  0.5281957272166543  0.2710775771542480
  0.1878458018900868  0.7587155988068820  0.0684741558070208
  0.2762961602603248  0.2692020690603723  0.4069107569420941
  0.1917943495906091  0.6120076591050067  0.9922397065907473
  0.4437356030457075  0.9771181814869664  0.2512242540572427
  0.6265871923873444  0.7479600014071354  0.5412861704790055
  0.4239836302079832  0.5033655635951261  0.7617524242849415
  0.5975064248172899  0.9419621873399174  0.2534375004252162
  0.0598676369356133  0.4079043586782528  0.9385413365901276
  0.0804453503222083  0.0381843980358132  0.7919936909836844
  0.2601704642961543  0.0614727243924143  0.9818805704562757
  0.1672029260762624  0.7593980253239423  0.6426763446378625
  0.4778754074373009  0.2277396217236141  0.4793076506274945
  0.0854099059490277  0.6929863004635374  0.4887817863670588
  0.1612806899629784  0.2258108661173520  0.7966000812692242
  0.6524642423119341  0.4417475379887839  0.2082004224978240
  0.7928182642406902  0.0621696904625805  0.3069750799768102
  0.7322182139708648  0.9279209531515806  0.9503189873701525
  0.0764862347585404  0.3229139738642737  0.0324336252436018
  0.0428157221625615  0.3644307597121640  0.4100998047288518
  0.4960905057488398  0.6551523980882993  0.8961645737003595
  0.9872984973633905  0.4223502982297699  0.1347466906025007
  0.3319825147974669  0.4246584232445376  0.1600229697531224
  0.9842517714062462  0.6183025648550879  0.1719964821354460
  0.5139205025187031  0.6251750253494540  0.2838852030612865
  0.3629288119581234  0.9245653835023603  0.7567705201542252
  0.0990530274921778  0.3119398530249831  0.8652163173778619
  0.8921743897481333  0.3387660773587748  0.1114201940910614
  0.5193062142438730  0.4657077422998130  0.1025441047696896
  0.1657357424350052  0.1035721363042514  0.3897436211613883
  0.6844706113670388  0.5562570978454839  0.1449783667840617
  0.5028421391366930  0.3511917011738796  0.2405717515746968
  0.9596915096667915  0.0767716166764764  0.6362649526123336
  0.9210727569973848  0.4996071910858105  0.4586285103729164
  0.2379045782506881  0.8771292986406208  0.1201899669885034
  0.7026103675402841  0.8040821932283623  0.7372376421234805
  0.1821863253502089  0.0246682533050476  0.2539835966723813
  0.9408667762168891  0.3953381626292053  0.3223615226648237
  0.3333860795599753  0.2323375514570994  0.6930137404112681
  0.4881947763954327  0.3253142562888603  0.6317689844559027
  0.4014926060975418  0.1792106655161819  0.0814939371618674
  0.0602844259388755  0.3431572573859693  0.5927319340140060
  0.4687798969250395  0.7981337211071614  0.4650419729411395
  0.5570328135163031  0.6011675168708734  0.0128117773159865
  0.9689737125040675  0.4835671807641931  0.8599427898571799
  0.7211457231092748  0.6904023458652404  0.2801251433859536
  0.9211736479088568  0.8869848392182321  0.6299088929020206
  0.0508126471303285  0.8524076990089742  0.4896660944749229
  0.2913837138017780  0.3150402779860303  0.2246912443734233
  0.9860608207711593  0.7958472361930576  0.3046530451583795
  0.9894284924144939  0.8059469639329054  0.0241630429844713
  0.9509909468078915  0.9033408566958843  0.8367798536857607
  0.4064435715385895  0.8937669053101650  0.5936020624749518
  0.3193027419442809  0.8286798651557030  0.3149002463990346
  0.5907365959625472  0.8181652326285861  0.8856762058130674
  0.1970425153473411  0.4437680749708159  0.5093070121297225
  0.7996685842257540  0.9596304507909662  0.6489759749580072
  0.5837786124777480  0.7185342030087944  0.1465220044093576
  0.8296076073557545  0.1776673120738205  0.4820340330010812
  0.0539803434375189  0.9789016708869425  0.1064656404115076
  0.2711312770579714  0.6578032564052213  0.1686573626693320
  0.9089912738704321  0.4040848729808744  0.5826910731075582
  0.6691137140539072  0.9775813953177479  0.1549455938668559
  0.4579525743596828  0.6987729168305500  0.3820765192228312
  0.7590104646829373  0.4477732245839946  0.0012106685083920
  0.5170147176884305  0.0102689633667059  0.3908068558890582
  0.4491635074219215  0.4827298076116920  0.9426642099645920
  0.8425425766509065  0.6381981916261488  0.4693803550204647
  0.7612469359897994  0.0626083164156491  0.1840802608075822
  0.9394159653171579  0.9975758291170345  0.9881358914018091
  0.4541087196384000  0.5028408436785872  0.6349432340077321
  0.9199458278505143  0.0946459606624488  0.8516790809327273
  0.5323489076811960  0.8704379361389631  0.6019425716541730
  0.5973683155730892  0.1878157359911293  0.4696187828076934
  0.9028470404313703  0.6615511648344017  0.7991761340037619
  0.8309888002538144  0.7931226732836258  0.4395261066516660
  0.3013970342060615  0.8404780900628556  0.9814517801219054
  0.4023717615839623  0.6549702339854309  0.2255074505539822
  0.7088804286135806  0.9463859054894588  0.8256035214547810
  0.6969705265543387  0.3925899566147273  0.6398979223818692
  0.3385099828813248  0.3318558689646905  0.0703417286836685
  0.3225846699334370  0.5584905192570030  0.4470390441969748
  0.9382904646566927  0.1516998392631910  0.2137253828799894
  0.6077803885681395  0.4369325193098207  0.7739903420924709
  0.7953015914125353  0.1046202345358887  0.9464237588294250
  0.0148407858588116  0.7172386280329159  0.9335747825893953
  0.6632088850575919  0.3857439702642976  0.3805309592093500
  0.4017760327167328  0.4082409759352621  0.8466753293579293
  0.2954727588440607  0.8863024333592495  0.6584466013357755
  0.3222166299695489  0.4389397356336589  0.6360021135816992
  0.7571074426045157  0.7658142738289113  0.0383177988533620
  0.3386431751991436  0.9779364537805953  0.3893181338034987
  0.3530522068626690  0.1384094156908424  0.2337025950490293
  0.2550360853410427  0.5975303312526898  0.6983176561483594
  0.6523219484206271  0.2763158279177372  0.5481462160016528
  0.3113106632465819  0.4029812066137922  0.3629077158503403
  0.8443787406085372  0.8878636345555145  0.1306788802593629
  0.4820180297777268  0.2282983452931901  0.8717342537162173
  0.6401023343723344  0.5504521530595695  0.5921151781117451
  0.6070368176850286  0.9635960817493663  0.9694440969652810
  0.5829563201764154  0.3477865896600116  0.9626286253711358
  0.0504236214087144  0.9775295853595219  0.5094799354811028
  0.4362166350219774  0.5577724744445117  0.0362290307170324
  0.7953173458577409  0.6928378345951451  0.7397046865800739
  0.3400815232793926  0.5955249300443350  0.6124165031050230
  0.9384719607016082  0.3004154212138785  0.2463362323265923
  0.9515527387005832  0.6010434823875563  0.5273654548223488
  0.8604599919926057  0.0561160431521303  0.7121049493678299
  0.8103642431181021  0.4260007922314368  0.1502067666928526
  0.2842090476111053  0.1392059059618184  0.1223838480530846
  0.4534280607480876  0.8469356899093818  0.7653013240279568
  0.6857631435471909  0.8889174366969022  0.3135720040687666
  0.9039056677279466  0.5875499180367731  0.3687624929084145
  0.1624608027968025  0.9358574468193862  0.3336532899951871
  0.7947284459865076  0.8901652420711313  0.7567001962784626
  0.8848256363183811  0.8621862576535783  0.0103978946944794
  0.8596547442532428  0.6221621456832162  0.1754443496261303
  0.1608407686339492  0.6390946894756915  0.5866893710564111
  0.2404561625467567  0.2306166479229786  0.2961185767609970
  0.5926354153174428  0.7212720912390141  0.2777667834048433
  0.6855713857654241  0.6776875356738502  0.0669515287993305
  0.6077759785703273  0.2481859532225925  0.2618876842380348
  0.0602902368379538  0.1652647007779489  0.2368383312267672
  0.5924711455449271  0.3568391176620812  0.1448464346493788
  0.4439982984717087  0.8601144235332615  0.3077382847737258
  0.4016156076677962  0.0312425708882545  0.7113507200111050
  0.6897779654588605  0.9415058127458340  0.5466732240295504
  0.4344328603405579  0.6254894511034992  0.7858651994855498
  0.2401061534859618  0.9430416645839756  0.9326834128649484
  0.1656915074542191  0.9447227288943276  0.7759601198803366
  0.2415834360420893  0.1680280678673754  0.4688415751826541
  0.2939032576231706  0.7630745762992712  0.6597221646202860
  0.9701911129701458  0.6701392746485459  0.6939285836094565
  0.7536768139116992  0.1798356403538864  0.3359307018830678
  0.5652251105935802  0.0693672192946596  0.4941352777169736
  0.6960211201744511  0.0586582306544113  0.7825152286524493
  0.2080140092505660  0.3951613996883218  0.6240598169264980
  0.2852319134531062  0.0382071085210529  0.5502868343679479
  0.9804215129440814  0.7554988053198277  0.1373081549047560
  0.1709705367666267  0.4543302394346141  0.9431415207076376
  0.8178553417825830  0.5591310093660018 -0.0111688209593014
  0.6036634919156626  0.5802812462503932  0.4509828630728315
  0.2874850357786726  0.6863767950530303  0.0454677718337406
  0.1627125453739411  0.6415301053256300  0.4018357006224881
  0.1665120305135223  0.3297082522623076  0.4625304737798864
  0.7316021079817989  0.1090338654020044  0.5079531579838973
  0.4333072944737653  0.6102856360003621  0.4697776299302878
  0.0023131947087040  0.2342129098609335  0.8472641165416219
  0.2162152197444609  0.9913580398847319  0.4255286235518606
  0.2852753403089979  0.2317316992407517  0.8097798803458403
  0.6003127939227361  0.0283899778780575  0.0707348019772797
  0.8815127151021533  0.3806514113755294  0.9888857954357609
  0.9678245076269791  0.3223460468772597  0.5035970052391077
  0.5911945626798593  0.1891689370242979  0.8181783175544142
  0.6746545334185221  0.3264662743370697  0.7461427745827104
  0.1399208607366991  0.6675790335474526  0.1381791795014684
  0.1796093515058719  0.4528231718375939  0.3270360999573297
  0.1565225006095022  0.8002300433561099  0.4795418419015607
  0.6808620510783046  0.0023388748243618  0.6571786943970370
  0.3013266430584675  0.7935846518259421  0.8602778433507743
  0.0308070371280545  0.9805394431488226  0.8960739818335108
  0.3474001898453005  0.5259420620893832  0.3297183312425621
  0.0493914208791528  0.5742257685923359  0.8479741968831068
  0.5954950634537266  0.6990256223441349  0.8334791292324687
  0.4371790085734180  0.3514950552637029  0.3712355971477327
  0.7763294070294827  0.5337193541242881  0.5001836149244615
  0.1555679019656782  0.7281731428371138  0.7712421783251773
  0.7499153844264708  0.1748965287116834  0.1380852711287156
  0.8620769906694429  0.7802941006058635  0.2866723958234521
  0.5779841224844474  0.4404210702288352  0.3081239116492786
  0.5900602087973278  0.0664516257305477  0.3047205212609060
  0.9604473066661960  0.3343678252201578  0.6774681918355744
  0.7200123026865307  0.5641487859735406  0.3012553181781393
  0.9356788711211422 -0.0140100474805979  0.5475749934301525
  0.8107982748122234  0.3242817728554550  0.6071400481287782
  0.7135059239361902  0.4555710131000550  0.8776838655746979
  0.5528069482338400  0.5351472009824608  0.9003153323380406
  0.9703179404075659  0.7852903805043377  0.4287730533546172
  0.4034264469525337  0.2768486033472749  0.1658833939102214
  0.8163310924585386  0.4009681831059856  0.3390465795285157
  0.5163411060119616  0.3508348702645720  0.8438143750918253
  0.7149227941185394  0.8098101599891628  0.9179674061387902
  0.4167796908421256  0.8887842963265132  0.9508640934056946
  0.2550537078824335  0.5141549918155356  0.1558260897993839
  0.6377912773394518  0.5036009792655720  0.0411797151054251
  0.9937169241054686  0.9403163008301535  0.7206394218757676
  0.8345913781302992  0.9190667917560510  0.4059729105156721
  0.7253526030535900  0.7181662241375844  0.4002257159748193
  0.8174329868634346  0.1682820434246984  0.8405554588688332
  0.5932936634926950  0.3701118608246034  0.4872518334418083
  0.6090427743542953  0.8907026572030153  0.7833261477092819
  0.0980430911661109  0.3669676121862617  0.1462041112601010
  0.4269923253255056  0.9155866914324644  0.1460971458511281
  0.1124248077921657  0.0683808474565144  0.0515624028824357
  0.7690655335376135  0.2988020857393769  0.4984585069795914
  0.8446310281670787  0.9939634905983524  0.9010400385553449
 -0.0011287450550690  0.2344067013315131  0.0577909490589864
  0.2548458901667010  0.5959640455541426  0.8858322612038430
  0.4391562453509961  0.1812884146806205  0.7449799078480437
  0.1403989724101707  0.7268515187036215  0.9571862522183942
  0.5534468243044806  0.8822235089140524  0.4780477363994554
  0.1373861069793771  0.9274724997885334  0.1846988225931635
  0.4088959242921963  0.0866299109031433  0.4043076645692301
  0.4499209183826008  0.7410281909371078  0.1521264435433753
  0.2372407589298841  0.2783286112009004  0.1238086353164307
  0.0218450224981964  0.7972334039302909  0.8357522970579322
  0.0079965006918837  0.5119030609742025  0.0511169348800761
  0.3438459933073925  0.7060302161583022  0.3309043018207027
  0.0944898514127602  0.2226955134771846  0.5898770188919420
  0.5513225799336255  0.2291074107669726  0.9918087356467979
  0.7053114169422686  0.5058624518143909  0.7048911108073609
  0.9851091673554830  0.4845772037972915  0.2404288636460323
  0.5635104136688510  0.5946551502649073  0.1655572881005593
  0.3159666146749640  0.0153969299687632  0.2675573054301583
  0.7214951189706272  0.2839311043611631  0.9374951870160295
  0.6746992681184433  0.6673197826217666  0.6245975382523845
  0.2193450108309038  0.1253555185396996  0.6728782396197863
  0.7223677853368276  0.8795173688023841  0.1020532958618529
  0.4184313251916776  0.2310222279986519  0.3726536074080532
  0.8953053713223097  0.1789147783055562  0.5894241740648499
  0.5294274762219576  0.6008701521467222  0.6338706802435250
  0.3268548574699735  0.4395523097087998  0.4831840795335298
  0.0783915355981574  0.8847374257608902  0.0310895892967932
  0.3595148812341570  0.8482458112566511  0.4915830290521380
  0.0240878109709335  0.5038386753071545  0.6591209976950686
  0.0124879334683723  0.8094772513622025  0.5938720336447821
  0.5562609223963370  0.0545936544810109  0.9144460004324552
  0.8753370052704207  0.5355305132760955  0.7862629306401513
  0.5562330738792535  0.4227647577776489  0.6554139969938729
  0.9161619025533575  0.1253056768498343  0.9772925478032798
  0.0248325028371785  0.6739606492344897  0.2819470402760472
  0.1558567316299093  0.2448422023136132  0.9858678886793333
  0.3905169028236248  0.3497051533873641  0.7033191888149721
  0.4592968151664888  0.1038363676030928  0.1631470255673886
  0.9075975229212115  0.0942382165673108  0.3202680244609997
  0.8584015999031270  0.3399302328483901  0.8065530256676886
  0.8028568940621995  0.7952153032866797  0.5704970214897382
  0.1598985576957621  0.1178309917229167  0.8614852995636254
  0.5839763219724418  0.1430744353145070  0.6392566666714822
  0.2989796695836475  0.4911585322807489  0.7503165507378021
  0.3691563859362366  0.0729480324420968  0.9136955836140156
  0.1257603277861847  0.9850120543909686  0.6044051285626740
  0.8550800197833525  0.0150112293025306  0.1165404364838815
  0.9682683306496229  0.9291375460514822  0.2578196716839593
  0.1155215900141156  0.3872970925967737  0.7640729628392977
  0.2637547321858066  0.7940583916385210  0.2076150359954148
  0.5038515323385143  0.7499336153888418  0.5770996879997308
  0.4352228324598548  0.4594965328411443  0.2078797622501100
  0.3097896350789182  0.0205954756585229  0.0934078334561076
  0.4729171473103794  0.3853732608028259  0.0163530175839151
  0.0555633680687528  0.0747580559468431  0.4445192614985106
  0.0518342583263439  0.4791821048986201  0.4553156367886630
 
  0.00000000E+00  0.00000000E+00  0.00000000E+00
  0.00000000E+00  0.00000000E+00  0.00000000E+00
  0.00000000E+00  0.00000000E+00  0.00000000E+00
  0.00000000E+00  0.00000000E+00  0.00000000E+00
  0.00000000E+00  0.00000000E+00  0.00000000E+00
  0.00000000E+00  0.00000000E+00  0.00000000E+00
  0.00000000E+00  0.00000000E+00  0.00000000E+00
  0.00000000E+00  0.00000000E+00  0.00000000E+00
  0.00000000E+00  0.00000000E+00  0.00000000E+00
  0.00000000E+00  0.00000000E+00  0.00000000E+00
  0.00000000E+00  0.00000000E+00  0.00000000E+00
  0.00000000E+00  0.00000000E+00  0.00000000E+00
  0.00000000E+00  0.00000000E+00  0.00000000E+00
  0.00000000E+00  0.00000000E+00  0.00000000E+00
  0.00000000E+00  0.00000000E+00  0.00000000E+00
  0.00000000E+00  0.00000000E+00  0.00000000E+00
  0.00000000E+00  0.00000000E+00  0.00000000E+00
  0.00000000E+00  0.00000000E+00  0.00000000E+00
  0.00000000E+00  0.00000000E+00  0.00000000E+00
  0.00000000E+00  0.00000000E+00  0.00000000E+00
  0.00000000E+00  0.00000000E+00  0.00000000E+00
  0.00000000E+00  0.00000000E+00  0.00000000E+00
  0.00000000E+00  0.00000000E+00  0.00000000E+00
  0.00000000E+00  0.00000000E+00  0.00000000E+00
  0.00000000E+00  0.00000000E+00  0.00000000E+00
  0.00000000E+00  0.00000000E+00  0.00000000E+00
  0.00000000E+00  0.00000000E+00  0.00000000E+00
  0.00000000E+00  0.00000000E+00  0.00000000E+00
  0.00000000E+00  0.00000000E+00  0.00000000E+00
  0.00000000E+00  0.00000000E+00  0.00000000E+00
  0.00000000E+00  0.00000000E+00  0.00000000E+00
  0.00000000E+00  0.00000000E+00  0.00000000E+00
  0.00000000E+00  0.00000000E+00  0.00000000E+00
  0.00000000E+00  0.00000000E+00  0.00000000E+00
  0.00000000E+00  0.00000000E+00  0.00000000E+00
  0.00000000E+00  0.00000000E+00  0.00000000E+00
  0.00000000E+00  0.00000000E+00  0.00000000E+00
  0.00000000E+00  0.00000000E+00  0.00000000E+00
  0.00000000E+00  0.00000000E+00  0.00000000E+00
  0.00000000E+00  0.00000000E+00  0.00000000E+00
  0.00000000E+00  0.00000000E+00  0.00000000E+00
  0.00000000E+00  0.00000000E+00  0.00000000E+00
  0.00000000E+00  0.00000000E+00  0.00000000E+00
  0.00000000E+00  0.00000000E+00  0.00000000E+00
  0.00000000E+00  0.00000000E+00  0.00000000E+00
  0.00000000E+00  0.00000000E+00  0.00000000E+00
  0.00000000E+00  0.00000000E+00  0.00000000E+00
  0.00000000E+00  0.00000000E+00  0.00000000E+00
  0.00000000E+00  0.00000000E+00  0.00000000E+00
  0.00000000E+00  0.00000000E+00  0.00000000E+00
  0.00000000E+00  0.00000000E+00  0.00000000E+00
  0.00000000E+00  0.00000000E+00  0.00000000E+00
  0.00000000E+00  0.00000000E+00  0.00000000E+00
  0.00000000E+00  0.00000000E+00  0.00000000E+00
  0.00000000E+00  0.00000000E+00  0.00000000E+00
  0.00000000E+00  0.00000000E+00  0.00000000E+00
  0.00000000E+00  0.00000000E+00  0.00000000E+00
  0.00000000E+00  0.00000000E+00  0.00000000E+00
  0.00000000E+00  0.00000000E+00  0.00000000E+00
  0.00000000E+00  0.00000000E+00  0.00000000E+00
  0.00000000E+00  0.00000000E+00  0.00000000E+00
  0.00000000E+00  0.00000000E+00  0.00000000E+00
  0.00000000E+00  0.00000000E+00  0.00000000E+00
  0.00000000E+00  0.00000000E+00  0.00000000E+00
  0.00000000E+00  0.00000000E+00  0.00000000E+00
  0.00000000E+00  0.00000000E+00  0.00000000E+00
  0.00000000E+00  0.00000000E+00  0.00000000E+00
  0.00000000E+00  0.00000000E+00  0.00000000E+00
  0.00000000E+00  0.00000000E+00  0.00000000E+00
  0.00000000E+00  0.00000000E+00  0.00000000E+00
  0.00000000E+00  0.00000000E+00  0.00000000E+00
  0.00000000E+00  0.00000000E+00  0.00000000E+00
  0.00000000E+00  0.00000000E+00  0.00000000E+00
  0.00000000E+00  0.00000000E+00  0.00000000E+00
  0.00000000E+00  0.00000000E+00  0.00000000E+00
  0.00000000E+00  0.00000000E+00  0.00000000E+00
  0.00000000E+00  0.00000000E+00  0.00000000E+00
  0.00000000E+00  0.00000000E+00  0.00000000E+00
  0.00000000E+00  0.00000000E+00  0.00000000E+00
  0.00000000E+00  0.00000000E+00  0.00000000E+00
  0.00000000E+00  0.00000000E+00  0.00000000E+00
  0.00000000E+00  0.00000000E+00  0.00000000E+00
  0.00000000E+00  0.00000000E+00  0.00000000E+00
  0.00000000E+00  0.00000000E+00  0.00000000E+00
  0.00000000E+00  0.00000000E+00  0.00000000E+00
  0.00000000E+00  0.00000000E+00  0.00000000E+00
  0.00000000E+00  0.00000000E+00  0.00000000E+00
  0.00000000E+00  0.00000000E+00  0.00000000E+00
  0.00000000E+00  0.00000000E+00  0.00000000E+00
  0.00000000E+00  0.00000000E+00  0.00000000E+00
  0.00000000E+00  0.00000000E+00  0.00000000E+00
  0.00000000E+00  0.00000000E+00  0.00000000E+00
  0.00000000E+00  0.00000000E+00  0.00000000E+00
  0.00000000E+00  0.00000000E+00  0.00000000E+00
  0.00000000E+00  0.00000000E+00  0.00000000E+00
  0.00000000E+00  0.00000000E+00  0.00000000E+00
  0.00000000E+00  0.00000000E+00  0.00000000E+00
  0.00000000E+00  0.00000000E+00  0.00000000E+00
  0.00000000E+00  0.00000000E+00  0.00000000E+00
  0.00000000E+00  0.00000000E+00  0.00000000E+00
  0.00000000E+00  0.00000000E+00  0.00000000E+00
  0.00000000E+00  0.00000000E+00  0.00000000E+00
  0.00000000E+00  0.00000000E+00  0.00000000E+00
  0.00000000E+00  0.00000000E+00  0.00000000E+00
  0.00000000E+00  0.00000000E+00  0.00000000E+00
  0.00000000E+00  0.00000000E+00  0.00000000E+00
  0.00000000E+00  0.00000000E+00  0.00000000E+00
  0.00000000E+00  0.00000000E+00  0.00000000E+00
  0.00000000E+00  0.00000000E+00  0.00000000E+00
  0.00000000E+00  0.00000000E+00  0.00000000E+00
  0.00000000E+00  0.00000000E+00  0.00000000E+00
  0.00000000E+00  0.00000000E+00  0.00000000E+00
  0.00000000E+00  0.00000000E+00  0.00000000E+00
  0.00000000E+00  0.00000000E+00  0.00000000E+00
  0.00000000E+00  0.00000000E+00  0.00000000E+00
  0.00000000E+00  0.00000000E+00  0.00000000E+00
  0.00000000E+00  0.00000000E+00  0.00000000E+00
  0.00000000E+00  0.00000000E+00  0.00000000E+00
  0.00000000E+00  0.00000000E+00  0.00000000E+00
  0.00000000E+00  0.00000000E+00  0.00000000E+00
  0.00000000E+00  0.00000000E+00  0.00000000E+00
  0.00000000E+00  0.00000000E+00  0.00000000E+00
  0.00000000E+00  0.00000000E+00  0.00000000E+00
  0.00000000E+00  0.00000000E+00  0.00000000E+00
  0.00000000E+00  0.00000000E+00  0.00000000E+00
  0.00000000E+00  0.00000000E+00  0.00000000E+00
  0.00000000E+00  0.00000000E+00  0.00000000E+00
  0.00000000E+00  0.00000000E+00  0.00000000E+00
  0.00000000E+00  0.00000000E+00  0.00000000E+00
  0.00000000E+00  0.00000000E+00  0.00000000E+00
  0.00000000E+00  0.00000000E+00  0.00000000E+00
  0.00000000E+00  0.00000000E+00  0.00000000E+00
  0.00000000E+00  0.00000000E+00  0.00000000E+00
  0.00000000E+00  0.00000000E+00  0.00000000E+00
  0.00000000E+00  0.00000000E+00  0.00000000E+00
  0.00000000E+00  0.00000000E+00  0.00000000E+00
  0.00000000E+00  0.00000000E+00  0.00000000E+00
  0.00000000E+00  0.00000000E+00  0.00000000E+00
  0.00000000E+00  0.00000000E+00  0.00000000E+00
  0.00000000E+00  0.00000000E+00  0.00000000E+00
  0.00000000E+00  0.00000000E+00  0.00000000E+00
  0.00000000E+00  0.00000000E+00  0.00000000E+00
  0.00000000E+00  0.00000000E+00  0.00000000E+00
  0.00000000E+00  0.00000000E+00  0.00000000E+00
  0.00000000E+00  0.00000000E+00  0.00000000E+00
  0.00000000E+00  0.00000000E+00  0.00000000E+00
  0.00000000E+00  0.00000000E+00  0.00000000E+00
  0.00000000E+00  0.00000000E+00  0.00000000E+00
  0.00000000E+00  0.00000000E+00  0.00000000E+00
  0.00000000E+00  0.00000000E+00  0.00000000E+00
  0.00000000E+00  0.00000000E+00  0.00000000E+00
  0.00000000E+00  0.00000000E+00  0.00000000E+00
  0.00000000E+00  0.00000000E+00  0.00000000E+00
  0.00000000E+00  0.00000000E+00  0.00000000E+00
  0.00000000E+00  0.00000000E+00  0.00000000E+00
  0.00000000E+00  0.00000000E+00  0.00000000E+00
  0.00000000E+00  0.00000000E+00  0.00000000E+00
  0.00000000E+00  0.00000000E+00  0.00000000E+00
  0.00000000E+00  0.00000000E+00  0.00000000E+00
  0.00000000E+00  0.00000000E+00  0.00000000E+00
  0.00000000E+00  0.00000000E+00  0.00000000E+00
  0.00000000E+00  0.00000000E+00  0.00000000E+00
  0.00000000E+00  0.00000000E+00  0.00000000E+00
  0.00000000E+00  0.00000000E+00  0.00000000E+00
  0.00000000E+00  0.00000000E+00  0.00000000E+00
  0.00000000E+00  0.00000000E+00  0.00000000E+00
  0.00000000E+00  0.00000000E+00  0.00000000E+00
  0.00000000E+00  0.00000000E+00  0.00000000E+00
  0.00000000E+00  0.00000000E+00  0.00000000E+00
  0.00000000E+00  0.00000000E+00  0.00000000E+00
  0.00000000E+00  0.00000000E+00  0.00000000E+00
  0.00000000E+00  0.00000000E+00  0.00000000E+00
  0.00000000E+00  0.00000000E+00  0.00000000E+00
  0.00000000E+00  0.00000000E+00  0.00000000E+00
  0.00000000E+00  0.00000000E+00  0.00000000E+00
  0.00000000E+00  0.00000000E+00  0.00000000E+00
  0.00000000E+00  0.00000000E+00  0.00000000E+00
  0.00000000E+00  0.00000000E+00  0.00000000E+00
  0.00000000E+00  0.00000000E+00  0.00000000E+00
  0.00000000E+00  0.00000000E+00  0.00000000E+00
  0.00000000E+00  0.00000000E+00  0.00000000E+00
  0.00000000E+00  0.00000000E+00  0.00000000E+00
  0.00000000E+00  0.00000000E+00  0.00000000E+00
  0.00000000E+00  0.00000000E+00  0.00000000E+00
  0.00000000E+00  0.00000000E+00  0.00000000E+00
  0.00000000E+00  0.00000000E+00  0.00000000E+00
  0.00000000E+00  0.00000000E+00  0.00000000E+00
  0.00000000E+00  0.00000000E+00  0.00000000E+00
  0.00000000E+00  0.00000000E+00  0.00000000E+00
  0.00000000E+00  0.00000000E+00  0.00000000E+00
  0.00000000E+00  0.00000000E+00  0.00000000E+00
  0.00000000E+00  0.00000000E+00  0.00000000E+00
  0.00000000E+00  0.00000000E+00  0.00000000E+00
  0.00000000E+00  0.00000000E+00  0.00000000E+00
  0.00000000E+00  0.00000000E+00  0.00000000E+00
  0.00000000E+00  0.00000000E+00  0.00000000E+00
  0.00000000E+00  0.00000000E+00  0.00000000E+00
  0.00000000E+00  0.00000000E+00  0.00000000E+00
  0.00000000E+00  0.00000000E+00  0.00000000E+00
  0.00000000E+00  0.00000000E+00  0.00000000E+00
  0.00000000E+00  0.00000000E+00  0.00000000E+00
  0.00000000E+00  0.00000000E+00  0.00000000E+00
  0.00000000E+00  0.00000000E+00  0.00000000E+00
  0.00000000E+00  0.00000000E+00  0.00000000E+00
  0.00000000E+00  0.00000000E+00  0.00000000E+00
  0.00000000E+00  0.00000000E+00  0.00000000E+00
  0.00000000E+00  0.00000000E+00  0.00000000E+00
  0.00000000E+00  0.00000000E+00  0.00000000E+00
  0.00000000E+00  0.00000000E+00  0.00000000E+00
  0.00000000E+00  0.00000000E+00  0.00000000E+00
  0.00000000E+00  0.00000000E+00  0.00000000E+00
  0.00000000E+00  0.00000000E+00  0.00000000E+00
  0.00000000E+00  0.00000000E+00  0.00000000E+00
  0.00000000E+00  0.00000000E+00  0.00000000E+00
  0.00000000E+00  0.00000000E+00  0.00000000E+00
  0.00000000E+00  0.00000000E+00  0.00000000E+00
  0.00000000E+00  0.00000000E+00  0.00000000E+00
  0.00000000E+00  0.00000000E+00  0.00000000E+00
  0.00000000E+00  0.00000000E+00  0.00000000E+00
  0.00000000E+00  0.00000000E+00  0.00000000E+00
  0.00000000E+00  0.00000000E+00  0.00000000E+00
  0.00000000E+00  0.00000000E+00  0.00000000E+00
  0.00000000E+00  0.00000000E+00  0.00000000E+00
  0.00000000E+00  0.00000000E+00  0.00000000E+00
  0.00000000E+00  0.00000000E+00  0.00000000E+00
  0.00000000E+00  0.00000000E+00  0.00000000E+00
  0.00000000E+00  0.00000000E+00  0.00000000E+00
  0.00000000E+00  0.00000000E+00  0.00000000E+00
  0.00000000E+00  0.00000000E+00  0.00000000E+00
  0.00000000E+00  0.00000000E+00  0.00000000E+00
  0.00000000E+00  0.00000000E+00  0.00000000E+00
  0.00000000E+00  0.00000000E+00  0.00000000E+00