Amorphous Sb                            
   1.00000000000000     
    20.8858902478061488    0.0000000000000000    0.0000000000000000
     0.0000000000000000   20.8858902478061488    0.0000000000000000
     0.0000000000000000    0.0000000000000000   20.8858902478061488
   Ge   Te   Se
   150    90    60
Direct
  0.3485990806951390  0.5352188114520384  0.7595537883108547
  0.5435675743149472  0.3282349343152499  0.9606458476347876
  0.8186505521906281  0.4677861211379982  0.5697031184899447
  0.1507918708315032  0.3436463969755837  0.0976845827479228
  0.6650216795043505  0.5592491811851442  0.8765068541939377
  0.1557815677256711  0.6472467685380853  0.7449306927442908
  0.2061485247612019  0.2189821614793324  0.9437293925580810
  0.5377574248985749  0.7630094232086924  0.6121312685653697
  0.9371607925989404  0.6551369063521433  0.4501531167997781
  0.2523866931456358  0.1162890289954944  0.7210858474989577
  0.1037868406635693  0.4939996173734643  0.7430979397940345
  0.1983579696978648  0.5157934183232437  0.5076283038827916
  0.4156203151596932  0.3657995888326346  0.2201690480353029
  0.4399631929939032  0.9507158878783474  0.7808072151717184
  0.0052506277929914  0.5910963834972495  0.9317914597653923
  0.4554244251395277  0.0758020270835213  0.7598463601449061
  0.4232708431635083  0.6361762814977036  0.0470658877060705
  0.5733909815393792  0.6920772992677154  0.7430552585110332
  0.0299774510986474  0.4333950731832177  0.0120788656991797
  0.5242072455700370  0.1695849532554940  0.4105052937701879
  0.9528780801107896  0.9830210029512293  0.8362924111319608
  0.7209187516274723  0.4322334329985886  0.3722613231328737
  0.0411128650398580  0.3718789222816227  0.6375491467326254
  0.1803607169885291  0.8774145665081317  0.9762571491401996
  0.2114114632784943  0.1907114606318938  0.1275399833509844
  0.8388336025532853  0.7577786461502457  0.5846591412662304
  0.5309766923429891  0.6781469226218049  0.9390674165325360
  0.0421385171667196  0.7541917814131610  0.0252713084055594
  0.8086564779835903  0.2193372419890315  0.0117093561114266
  0.0392466193966739  0.9235109859764351  0.4465739786233747
  0.3197844052014960  0.2299046816716032  0.4408279729637949
  0.9160904514310373  0.0343667766936894  0.5120050398542125
  0.5006425424384798  0.7960931476462305  0.1401232851285628
  0.8804985252266083  0.3885501064730125  0.0591969626069479
  0.0128805853190042  0.7625366866706128  0.8726481353261873
  0.0238241246002277  0.1002235303075482  0.4981810681151448
  0.9001217313787667  0.6620396966938750  0.0972772733499639
  0.4037209613178227  0.6496238395340850  0.3298660279004806
  0.9292500118050178  0.0855941202701975  0.0864072039005609
  0.2128798860878519  0.3346171472597407  0.7278842577912985
  0.4535916893889176  0.8768387576645659  0.8778370349978184
  0.4881225703751343  0.7874472681435086  0.7714201627648487
  0.6866891699806388  0.0513475128781048  0.0112087187217344
  0.8588593675454130  0.4959314018342894  0.2244098520315020
  0.7315236314537055  0.0417539953124297  0.4743868408222666
  0.5701990760047063  0.2145545914981010  0.0919987929857225
  0.6724644951455010  0.5862151319215377  0.4922997211392179
  0.4154705255443112  0.1214690537999008  0.9585487361796303
  0.6128874507272885  0.9309843944523450  0.5726191348786381
  0.5747735529251806  0.0033682882028035  0.9597601236680867
  0.7833831633660875  0.3559226677252134  0.5102056234781320
  0.1317325170897960  0.8609604787266011  0.7848640809961175
  0.0808457495157878  0.7611060754030889  0.6131879350634984
  0.4188937420840170  0.7660045064729709  0.9267340022416235
  0.6247960399388727  0.8606094261094079  0.7926236298671672
  0.4341236927309081  0.8071478951100551  0.2469950533791001
  0.0720426529135946  0.9505002310147882  0.9756597945089874
  0.9151764069155501  0.6012145763290979  0.3407661333635818
  0.6300747004580425  0.3839667821446841  0.8875825143121835
  0.1931604342329559  0.2875838682865729  0.2552313173708429
  0.4177803077577665  0.5721114833811616  0.2365221975590394
  0.1510926641129176  0.0562836353978817  0.1379554770387532
  0.6533538053497603  0.1596410466671143  0.2841735228091433
  0.1473689154447383  0.7211698210939548  0.5089807091844292
  0.6234393753354669  0.7398748632598778  0.1762700687937906
  0.2589619747736530  0.1001055880276701  0.3141144016187205
  0.1648926392220999  0.8857006268067558  0.1902542046036165
  0.9830646055157576  0.5010648506205119  0.1894833276654464
  0.3926868808142796  0.2171267977509975  0.8762703201967685
  0.8840813354541648  0.4286396888811129  0.3259301454268586
  0.6038046223884604  0.5974692023859948  0.3114763363597733
  0.5264970680392972  0.5205834482874572  0.2556320524176677
  0.6690907830795235  0.4403614724087691  0.7268454099000398
  0.1090768920453352  0.4551328684518628  0.4438155495470173
  0.3336790370622928  0.4025969502462706  0.5931650596603414
  0.2272088247647303  0.9603597627299126  0.8078150774980104
  0.7599189517494105  0.7341643479880741  0.2932127988927482
  0.7448000353162799  0.4431707592804380  0.1866310769823044
  0.6458955807058493  0.7573323739552276  0.5494243061402428
  0.1771165487492354  0.7071343865548001  0.3048841685564743
  0.8214607287938919  0.7802544099304655  0.8187089986330839
  0.4120961810542190  0.6734452161777348  0.5785285006195399
  0.6709727964714935  0.8918977406262414  0.1159620928574552
  0.4007879804100988  0.7713075308915345  0.3623837496543363
  0.9524864845741069  0.9891234793371390  0.6318714172481977
  0.4525658247767390  0.6127006486498430  0.7628772167237077
  0.4673713985619081  0.9225331540057048  0.2863737259545108
  0.7780451458885471  0.0951868717143979  0.1705642381428715
  0.5239630972874176  0.6650555757844796  0.4549712805113615
  0.2245597928824749  0.9763465454627547  0.6019342676793579
  0.5481397908061793  0.9102974972009363  0.1291868859875656
  0.4517155362757383  0.1024573909137051  0.3290563512352077
  0.0600557981562195  0.2706286302868664  0.5385384262135370
  0.5518742184980105  0.1001446840674795  0.2409300790986553
  0.4670131914475467  0.2156443321922015  0.5576086879329657
  0.8526362433259650  0.8015614648715708  0.0007978513744225
  0.5344421621388046  0.4750863062592379  0.1443033618377975
  0.6881202923800340  0.2065100113304533  0.8530933797015614
  0.7547991983677955  0.6622797506788499  0.7845038520735046
  0.1328267992121032  0.8747482963766845  0.3782494930987706
  0.2830608559215371  0.3813133460109887  0.8268274888542425
  0.1931607134010394  0.1660264718897254  0.6040520918335474
  0.4387538000298534  0.5150840820649752  0.0769520564558148
  0.9519594318224960  0.8401225876526152  0.4465232821499702
  0.7338880262468850  0.8382783059287494  0.4196223926004201
  0.7578354011492093  0.5784781304293054  0.6000688676290470
  0.8258030828273104  0.6156791045980865  0.6948747715899395
  0.0658155679910583  0.6031561511303736  0.1231230048901828
  0.3611178551090222  0.9273429233186640  0.1396911767807591
  0.7308291710091225  0.7051551621973666  0.6176807868425906
  0.7741207244408703  0.7357367851080127  0.0958720043425907
  0.8368693673951028  0.0837419982017900  0.8876605403178248
  0.6444820498125886  0.5948063434615345  0.0589042528341234
  0.3855757908993519  0.9139612734227106  0.9782704200479578
  0.2809308787130282  0.6995356733229637  0.1278352197586650
  0.8374282945899337  0.3870746317043432  0.6637524409842315
  0.9435728399732703  0.9131010048251317  0.7323844715448610
  0.9348647607233940  0.5014906060429993  0.5935277055011823
  0.5791422570548475  0.3196833663208319  0.2685767653748056
  0.7724335660400783  0.9571763731158791  0.7851831485211145
  0.7579911386401097  0.5420961168689407  0.4094636399163719
  0.3481411832171021  0.2993924305509424  0.6932657459167707
  0.2256447111737918  0.5752444933716541  0.6145417949159716
  0.0660990250807136  0.4095704861274905  0.2326778432755643
  0.1335597428058440  0.1510643987352553  0.8622051014789317
  0.0793266478579766  0.0441176183963130  0.2914793346724674
  0.2748887948764258  0.7567496056444554  0.3615571145952460
  0.7732512565495208  0.1931943858170487  0.6235628089744155
  0.1294225233588710  0.0507268561201375  0.4497525467089447
  0.2271094398648932  0.5301346532543867  0.7965993501605391
  0.3203711423790522  0.8991708116496372  0.3282190899672915
  0.5881500834106580  0.9555492425532957  0.4491424410152159
  0.4705025318023068  0.3269516871441448  0.7196062607729938
  0.6022942118842357  0.1243329229826142  0.6250014739500612
  0.0103082489822498  0.3204937116150408  0.9354973644457640
  0.0827803957276447  0.2196753283514175  0.3282494425484058
  0.3987493212463340  0.2451873990974889  0.1440005744814158
  0.8006953168581250  0.9366764288388364  0.9087464540106782
  0.7706415543035364  0.4551947216080819  0.8027012692220754
  0.2035210229473575  0.3529148639346272  0.4098632649320473
  0.3566726214320295  0.5096487495554134  0.9135605447519328
  0.2955488310992200  0.6619616578201557  0.4424480022384939
  0.6941347298800185  0.9661369019457570  0.3087285683143723
  0.9645989257207276  0.6148674423684239  0.5627721282210675
  0.7928384231963236  0.2751773952122950  0.2249583687230599
  0.0490246847523980  0.2603047106596895  0.7589930417066275
  0.2247754739919443  0.7056714738856332  0.9516022819956611
  0.2409807375627498  0.0465527472350832  0.9842395459953557
  0.1311139415055592  0.6500636811583662  0.4031134837646391
  0.9057605747265727  0.1244685593983178  0.2685347237276210
  0.1445069588445749  0.4654034798301240  0.0690841982076320
  0.0597556949526473  0.9679952133990160  0.1796272681785653
  0.3931283429175558  0.7175805954853300  0.7092914054635682
  0.2539257929457299  0.6528178490187256  0.8334869450752004
  0.4629171011868332  0.4009178698625357  0.5606592732725804
  0.3980967088856392  0.8085729714259451  0.0584319559582498
  0.7088109183797979  0.0552650141498558  0.8810879195874243
  0.4818086281027820  0.2191732901570635  0.2472828597758230
  0.9512306143847101  0.5369461594502793  0.0660562805166985
  0.7649653300273679  0.3369605097786730  0.1102498941860899
  0.1568924922364481  0.0157812479758299  0.7093805392995142
  0.1910395387286702  0.2751603713558142  0.5280055806125398
  0.0665961734382501  0.9565481918870350  0.5681141597721237
  0.1105894213013829  0.6293810010632217  0.0018923044282973
  0.4574498826671970  0.7808111072762605  0.5089040920175828
  0.5126395384525571  0.4421597016125708  0.6761389850158792
  0.0934534652686584  0.8007171513059368  0.2787415532302213
  0.3502071981547376  0.5299623941968259  0.6270888586200614
  0.5738033363747834  0.5337690403011323  0.4220505233853905
  0.8797064410636307  0.5032389895769964  0.4331733241970736
  0.8213674605758771  0.6968713628844155  0.4737214699278026
  0.9982790222346077  0.3735572851002462  0.3379825055049863
  0.9061983235206675  0.8591622508079578  0.3264544459170202
  0.9773229231778960  0.0094329945255568  0.3741354669466603
  0.7436421556946168  0.8703028651220659  0.2193215682606537
  0.9455498702486463  0.4081815258302954  0.8543261615989240
  0.0545759827279223  0.5512367211592609  0.3748342149774910
  0.5033167896529350  0.2750346070303012  0.8431857672595986
  0.2059201823455931  0.9642559134860227  0.3215932635655576
  0.9986419846762062  0.2105558304170243  0.4323221935285957
  0.4514693160138989  0.2748766799530935  0.4437821215004481
  0.5663394189692241  0.5512882291534279  0.9675359193212110
  0.0149582395781380  0.8070601612458199  0.7414804714408031
  0.4790202483365689  0.4221274552131625  0.3218160741782582
  0.9463954603952714  0.8539001946134872  0.0810745308741620
  0.3478108164243533  0.2074783133246556  0.5989827091718918
  0.2941894021068736  0.6099159777108070  0.0275307173623260
  0.8887960232911627  0.7385365671183783  0.2710095101821240
  0.6778976659315219  0.5717930699739706  0.7024712110376512
  0.3176989408769899  0.1527188796449876  0.1934671735877567
  0.9162516309011991  0.3085131832294010  0.5966961250036580
  0.2732427712160666  0.0789908724856242  0.8494737281305870
  0.4016315397973811  0.5904029923912982  0.4456669912416044
  0.9436477910111123  0.9671530317996024  0.0081588386042220
  0.8404252886776481  0.3453573969307068  0.7867176048797194
  0.7020624765295544  0.1509572370027182  0.7255665556291039
  0.6629832204691659  0.3915681424962972  0.4759655121194902
  0.8278932907898111  0.0753248166611266  0.7416806538945772
  0.7305205472875295  0.3182154702114809  0.6276878971599537
  0.1719936773605838  0.4398017917443564  0.6438966919573433
  0.6543678897444953  0.4711095195549769  0.0935150153960002
  0.7389701974447034  0.4412527937832922  0.9280159357405218
  0.8859671987315778  0.0172091300519003  0.1918249382422244
  0.4782603982646167  0.9876792652724894  0.0479859570914627
  0.2987995738100299  0.8132687325388909  0.9037900037352729
  0.1575264945223721  0.7989063266885061  0.0792824123312223
  0.7555211589268805  0.6347817519774152  0.0132817607812501
  0.8215006208683915  0.1295148756960312  0.4972261696108028
  0.3073502920434091  0.3026092079822439  0.9292383554578412
  0.8913862406962325  0.2015405172357105  0.6741584913437076
  0.8581837251060449  0.5496380721007779  0.8054919282037903
  0.3707600910147950  0.0026521640654827  0.2535202798030091
  0.2935030482959899  0.4353551106192087  0.4693378604341337
  0.8179359419063964  0.2150727528682286  0.8794228746306630
  0.1852318292436767  0.7649616451089080  0.6935922246252397
  0.6549055788851671  0.7034758437248223  0.4329928518571001
  0.6413722830411349  0.2404028546040927  0.9809372720031402
  0.2407976033228373  0.9653858149213832  0.0960466377168222
  0.1119431769840858  0.3727027379763567  0.8037845557902549
  0.5234265078664354  0.0946376653341002  0.8834718358588686
  0.0366783066341475  0.6457432913825184  0.8130737929111299
  0.1111063564132219  0.0713031353605976  0.0116578313555386
  0.6052036334139607  0.0935963077035351  0.1235332453256655
  0.3086777507421799  0.8305213438485296  0.2147683213493865
  0.9737884648970586  0.0699043120450435  0.7377635569611284
  0.4684014462225412  0.9750270989549932  0.4039677931160216
  0.0614729495457409  0.1576791586536782  0.6100472731769943
  0.0831639104208642  0.6263863807857538  0.6039820442635815
  0.3542456951537026  0.4809087239379926  0.1725850971846547
  0.8277275880205676  0.8600416083931743  0.7121295675516907
  0.3397286324597576  0.0231351555538007  0.6565827174977139
  0.1976254899802545  0.6297806792877683  0.2067436327815380
  0.0053091447070519  0.4217448784166560  0.5186300168197205
  0.6332190315994661  0.2357175939107783  0.3863371232864499
  0.4115359825949900  0.4232997045482115  0.9958458417683319
  0.7961007843531932  0.9575793541566046  0.4025633913383020
  0.5379152780391925  0.6319083499238615  0.5935963687248346
  0.5516862581808423  0.2566730266576104  0.6414361144187932
  0.9321802941911805  0.2685811614934599  0.0308952410040703
  0.7220939364077239  0.8336846998912396  0.8842807679599258
  0.9021605016712727  0.6926029918397735  0.9819274013025233
  0.5196084699854941  0.3598406941038240  0.1531318506856938
  0.0215845760405057  0.2158808915923351  0.8687592112115273
  0.0712137773067408  0.9698161582212317  0.8582972998190870
  0.7066829017144700  0.8586794955693405  0.5384538549947491
  0.0700734999659382  0.3067669155312440  0.1731347797832770
  0.3563787796093318  0.2008645454987822  0.7654311103832023
  0.3911199241747907  0.4338571430850075  0.8113787963090457
  0.2247355317059208  0.5765864221711851  0.4026551143909364
  0.9182684014599114  0.6875819751305610  0.6449107851334686
  0.6179776272611135  0.6832227719535563  0.8544182253209008
  0.2392853879606076  0.4654625413483905  0.8991391648601963
  0.8949321701104388  0.8486181606713954  0.8905195377777210
  0.6346010017998649  0.0576680252486878  0.4089575562009281
  0.1236539093311501  0.2674656874829763  0.0130461524105499
  0.5344678408602900  0.0430380674563138  0.6775693585046260
  0.5133336665214017  0.1162955866725555  0.5179345342250867
  0.5671735383556021  0.8965234804487318  0.9042394416914331
  0.5657838551646132  0.9612032230719094  0.2343693912059665
  0.8643235234108715  0.1870899425747485  0.1700856274403441
  0.8037912081903063  0.3495502469674885  0.3582209183022893
  0.4583383493148733  0.2081545275462294  0.0367716003517225
  0.4016979232547751  0.6663403896883019  0.1652569753906155
  0.2585150547906308  0.6861703882647046  0.5503758390306666
  0.2115508088093337  0.8167921094134529  0.4455025008154784
  0.8938279453944725  0.8576400874334137  0.5457227886861332
  0.6621126831110145  0.7843295340609336  0.0668791677026505
  0.3264718655820273  0.9274404471333849  0.7357817134126187
  0.8251873853760058  0.0971477917840888  0.0214313691234584
  0.6846585442395675  0.7515799451126252  0.7171261373950942
  0.7550725258453419  0.1019280386712727  0.2922457364784706
  0.5674451033941726  0.6425942151682552  0.1289429414963549
  0.6739452694596032  0.2450015554461904  0.2046870974165874
  0.1648878978701447  0.2134948877338737  0.7622062934654925
  0.9168192114577888  0.3946444572146523  0.1771350208181390
  0.5172151885959734  0.6859437478499520  0.3223942376623057
  0.0521679146474433  0.4827382879069140  0.9073209960482480
  0.2902467851854316  0.3015547962147890  0.3414899460905012
  0.7432203969829909  0.9506019209549731  0.0464940419915466
  0.3440378307638360  0.1170662519338927  0.3978937453590768
  0.6630252476320452  0.3157709404607671  0.7982632890902571
  0.1758412213842463  0.4044212437990840  0.2813318599330324
  0.6916990427595182  0.0211811850679981  0.5814746419382087
  0.6606932368095290  0.4322867370364884  0.2707316110394224
  0.7294024351024184  0.6743398013976890  0.1910390871265220
  0.1678068796291002  0.1504693309164962  0.3840770680096694
  0.0067821985388568  0.7140714262292036  0.1353843234771521
  0.1323376301598830  0.7952704895550222  0.8902004004787196
  0.5914786530737258  0.4747475738260514  0.8164332198771983
  0.4304917662717787  0.6456221293445942  0.8781909361360339
  0.6665648737253068  0.9555851720899992  0.7367371210332947
  0.4990190262149605  0.8844318462712825  0.7037707073765308
  0.2537772620221463  0.3092327567318690  0.1397199202279975
  0.2200929737512324  0.0749497830859590  0.5287827352652824
  0.0309600918904415  0.1449216245330357  0.2438294017264032
  0.7897285693758221  0.6034222510199931  0.3160429127521703
  0.9773894801738596  0.4630128083070274  0.6959890646126317
  0.6272743242147463  0.8746718572711528  0.3722931316641465
  0.2750734569121410  0.1601598082676030  0.0238889412213153
  0.0153803527075109  0.7436945645170304  0.4433309271056083
 
  0.00000000E+00  0.00000000E+00  0.00000000E+00
  0.00000000E+00  0.00000000E+00  0.00000000E+00
  0.00000000E+00  0.00000000E+00  0.00000000E+00
  0.00000000E+00  0.00000000E+00  0.00000000E+00
  0.00000000E+00  0.00000000E+00  0.00000000E+00
  0.00000000E+00  0.00000000E+00  0.00000000E+00
  0.00000000E+00  0.00000000E+00  0.00000000E+00
  0.00000000E+00  0.00000000E+00  0.00000000E+00
  0.00000000E+00  0.00000000E+00  0.00000000E+00
  0.00000000E+00  0.00000000E+00  0.00000000E+00
  0.00000000E+00  0.00000000E+00  0.00000000E+00
  0.00000000E+00  0.00000000E+00  0.00000000E+00
  0.00000000E+00  0.00000000E+00  0.00000000E+00
  0.00000000E+00  0.00000000E+00  0.00000000E+00
  0.00000000E+00  0.00000000E+00  0.00000000E+00
  0.00000000E+00  0.00000000E+00  0.00000000E+00
  0.00000000E+00  0.00000000E+00  0.00000000E+00
  0.00000000E+00  0.00000000E+00  0.00000000E+00
  0.00000000E+00  0.00000000E+00  0.00000000E+00
  0.00000000E+00  0.00000000E+00  0.00000000E+00
  0.00000000E+00  0.00000000E+00  0.00000000E+00
  0.00000000E+00  0.00000000E+00  0.00000000E+00
  0.00000000E+00  0.00000000E+00  0.00000000E+00
  0.00000000E+00  0.00000000E+00  0.00000000E+00
  0.00000000E+00  0.00000000E+00  0.00000000E+00
  0.00000000E+00  0.00000000E+00  0.00000000E+00
  0.00000000E+00  0.00000000E+00  0.00000000E+00
  0.00000000E+00  0.00000000E+00  0.00000000E+00
  0.00000000E+00  0.00000000E+00  0.00000000E+00
  0.00000000E+00  0.00000000E+00  0.00000000E+00
  0.00000000E+00  0.00000000E+00  0.00000000E+00
  0.00000000E+00  0.00000000E+00  0.00000000E+00
  0.00000000E+00  0.00000000E+00  0.00000000E+00
  0.00000000E+00  0.00000000E+00  0.00000000E+00
  0.00000000E+00  0.00000000E+00  0.00000000E+00
  0.00000000E+00  0.00000000E+00  0.00000000E+00
  0.00000000E+00  0.00000000E+00  0.00000000E+00
  0.00000000E+00  0.00000000E+00  0.00000000E+00
  0.00000000E+00  0.00000000E+00  0.00000000E+00
  0.00000000E+00  0.00000000E+00  0.00000000E+00
  0.00000000E+00  0.00000000E+00  0.00000000E+00
  0.00000000E+00  0.00000000E+00  0.00000000E+00
  0.00000000E+00  0.00000000E+00  0.00000000E+00
  0.00000000E+00  0.00000000E+00  0.00000000E+00
  0.00000000E+00  0.00000000E+00  0.00000000E+00
  0.00000000E+00  0.00000000E+00  0.00000000E+00
  0.00000000E+00  0.00000000E+00  0.00000000E+00
  0.00000000E+00  0.00000000E+00  0.00000000E+00
  0.00000000E+00  0.00000000E+00  0.00000000E+00
  0.00000000E+00  0.00000000E+00  0.00000000E+00
  0.00000000E+00  0.00000000E+00  0.00000000E+00
  0.00000000E+00  0.00000000E+00  0.00000000E+00
  0.00000000E+00  0.00000000E+00  0.00000000E+00
  0.00000000E+00  0.00000000E+00  0.00000000E+00
  0.00000000E+00  0.00000000E+00  0.00000000E+00
  0.00000000E+00  0.00000000E+00  0.00000000E+00
  0.00000000E+00  0.00000000E+00  0.00000000E+00
  0.00000000E+00  0.00000000E+00  0.00000000E+00
  0.00000000E+00  0.00000000E+00  0.00000000E+00
  0.00000000E+00  0.00000000E+00  0.00000000E+00
  0.00000000E+00  0.00000000E+00  0.00000000E+00
  0.00000000E+00  0.00000000E+00  0.00000000E+00
  0.00000000E+00  0.00000000E+00  0.00000000E+00
  0.00000000E+00  0.00000000E+00  0.00000000E+00
  0.00000000E+00  0.00000000E+00  0.00000000E+00
  0.00000000E+00  0.00000000E+00  0.00000000E+00
  0.00000000E+00  0.00000000E+00  0.00000000E+00
  0.00000000E+00  0.00000000E+00  0.00000000E+00
  0.00000000E+00  0.00000000E+00  0.00000000E+00
  0.00000000E+00  0.00000000E+00  0.00000000E+00
  0.00000000E+00  0.00000000E+00  0.00000000E+00
  0.00000000E+00  0.00000000E+00  0.00000000E+00
  0.00000000E+00  0.00000000E+00  0.00000000E+00
  0.00000000E+00  0.00000000E+00  0.00000000E+00
  0.00000000E+00  0.00000000E+00  0.00000000E+00
  0.00000000E+00  0.00000000E+00  0.00000000E+00
  0.00000000E+00  0.00000000E+00  0.00000000E+00
  0.00000000E+00  0.00000000E+00  0.00000000E+00
  0.00000000E+00  0.00000000E+00  0.00000000E+00
  0.00000000E+00  0.00000000E+00  0.00000000E+00
  0.00000000E+00  0.00000000E+00  0.00000000E+00
  0.00000000E+00  0.00000000E+00  0.00000000E+00
  0.00000000E+00  0.00000000E+00  0.00000000E+00
  0.00000000E+00  0.00000000E+00  0.00000000E+00
  0.00000000E+00  0.00000000E+00  0.00000000E+00
  0.00000000E+00  0.00000000E+00  0.00000000E+00
  0.00000000E+00  0.00000000E+00  0.00000000E+00
  0.00000000E+00  0.00000000E+00  0.00000000E+00
  0.00000000E+00  0.00000000E+00  0.00000000E+00
  0.00000000E+00  0.00000000E+00  0.00000000E+00
  0.00000000E+00  0.00000000E+00  0.00000000E+00
  0.00000000E+00  0.00000000E+00  0.00000000E+00
  0.00000000E+00  0.00000000E+00  0.00000000E+00
  0.00000000E+00  0.00000000E+00  0.00000000E+00
  0.00000000E+00  0.00000000E+00  0.00000000E+00
  0.00000000E+00  0.00000000E+00  0.00000000E+00
  0.00000000E+00  0.00000000E+00  0.00000000E+00
  0.00000000E+00  0.00000000E+00  0.00000000E+00
  0.00000000E+00  0.00000000E+00  0.00000000E+00
  0.00000000E+00  0.00000000E+00  0.00000000E+00
  0.00000000E+00  0.00000000E+00  0.00000000E+00
  0.00000000E+00  0.00000000E+00  0.00000000E+00
  0.00000000E+00  0.00000000E+00  0.00000000E+00
  0.00000000E+00  0.00000000E+00  0.00000000E+00
  0.00000000E+00  0.00000000E+00  0.00000000E+00
  0.00000000E+00  0.00000000E+00  0.00000000E+00
  0.00000000E+00  0.00000000E+00  0.00000000E+00
  0.00000000E+00  0.00000000E+00  0.00000000E+00
  0.00000000E+00  0.00000000E+00  0.00000000E+00
  0.00000000E+00  0.00000000E+00  0.00000000E+00
  0.00000000E+00  0.00000000E+00  0.00000000E+00
  0.00000000E+00  0.00000000E+00  0.00000000E+00
  0.00000000E+00  0.00000000E+00  0.00000000E+00
  0.00000000E+00  0.00000000E+00  0.00000000E+00
  0.00000000E+00  0.00000000E+00  0.00000000E+00
  0.00000000E+00  0.00000000E+00  0.00000000E+00
  0.00000000E+00  0.00000000E+00  0.00000000E+00
  0.00000000E+00  0.00000000E+00  0.00000000E+00
  0.00000000E+00  0.00000000E+00  0.00000000E+00
  0.00000000E+00  0.00000000E+00  0.00000000E+00
  0.00000000E+00  0.00000000E+00  0.00000000E+00
  0.00000000E+00  0.00000000E+00  0.00000000E+00
  0.00000000E+00  0.00000000E+00  0.00000000E+00
  0.00000000E+00  0.00000000E+00  0.00000000E+00
  0.00000000E+00  0.00000000E+00  0.00000000E+00
  0.00000000E+00  0.00000000E+00  0.00000000E+00
  0.00000000E+00  0.00000000E+00  0.00000000E+00
  0.00000000E+00  0.00000000E+00  0.00000000E+00
  0.00000000E+00  0.00000000E+00  0.00000000E+00
  0.00000000E+00  0.00000000E+00  0.00000000E+00
  0.00000000E+00  0.00000000E+00  0.00000000E+00
  0.00000000E+00  0.00000000E+00  0.00000000E+00
  0.00000000E+00  0.00000000E+00  0.00000000E+00
  0.00000000E+00  0.00000000E+00  0.00000000E+00
  0.00000000E+00  0.00000000E+00  0.00000000E+00
  0.00000000E+00  0.00000000E+00  0.00000000E+00
  0.00000000E+00  0.00000000E+00  0.00000000E+00
  0.00000000E+00  0.00000000E+00  0.00000000E+00
  0.00000000E+00  0.00000000E+00  0.00000000E+00
  0.00000000E+00  0.00000000E+00  0.00000000E+00
  0.00000000E+00  0.00000000E+00  0.00000000E+00
  0.00000000E+00  0.00000000E+00  0.00000000E+00
  0.00000000E+00  0.00000000E+00  0.00000000E+00
  0.00000000E+00  0.00000000E+00  0.00000000E+00
  0.00000000E+00  0.00000000E+00  0.00000000E+00
  0.00000000E+00  0.00000000E+00  0.00000000E+00
  0.00000000E+00  0.00000000E+00  0.00000000E+00
  0.00000000E+00  0.00000000E+00  0.00000000E+00
  0.00000000E+00  0.00000000E+00  0.00000000E+00
  0.00000000E+00  0.00000000E+00  0.00000000E+00
  0.00000000E+00  0.00000000E+00  0.00000000E+00
  0.00000000E+00  0.00000000E+00  0.00000000E+00
  0.00000000E+00  0.00000000E+00  0.00000000E+00
  0.00000000E+00  0.00000000E+00  0.00000000E+00
  0.00000000E+00  0.00000000E+00  0.00000000E+00
  0.00000000E+00  0.00000000E+00  0.00000000E+00
  0.00000000E+00  0.00000000E+00  0.00000000E+00
  0.00000000E+00  0.00000000E+00  0.00000000E+00
  0.00000000E+00  0.00000000E+00  0.00000000E+00
  0.00000000E+00  0.00000000E+00  0.00000000E+00
  0.00000000E+00  0.00000000E+00  0.00000000E+00
  0.00000000E+00  0.00000000E+00  0.00000000E+00
  0.00000000E+00  0.00000000E+00  0.00000000E+00
  0.00000000E+00  0.00000000E+00  0.00000000E+00
  0.00000000E+00  0.00000000E+00  0.00000000E+00
  0.00000000E+00  0.00000000E+00  0.00000000E+00
  0.00000000E+00  0.00000000E+00  0.00000000E+00
  0.00000000E+00  0.00000000E+00  0.00000000E+00
  0.00000000E+00  0.00000000E+00  0.00000000E+00
  0.00000000E+00  0.00000000E+00  0.00000000E+00
  0.00000000E+00  0.00000000E+00  0.00000000E+00
  0.00000000E+00  0.00000000E+00  0.00000000E+00
  0.00000000E+00  0.00000000E+00  0.00000000E+00
  0.00000000E+00  0.00000000E+00  0.00000000E+00
  0.00000000E+00  0.00000000E+00  0.00000000E+00
  0.00000000E+00  0.00000000E+00  0.00000000E+00
  0.00000000E+00  0.00000000E+00  0.00000000E+00
  0.00000000E+00  0.00000000E+00  0.00000000E+00
  0.00000000E+00  0.00000000E+00  0.00000000E+00
  0.00000000E+00  0.00000000E+00  0.00000000E+00
  0.00000000E+00  0.00000000E+00  0.00000000E+00
  0.00000000E+00  0.00000000E+00  0.00000000E+00
  0.00000000E+00  0.00000000E+00  0.00000000E+00
  0.00000000E+00  0.00000000E+00  0.00000000E+00
  0.00000000E+00  0.00000000E+00  0.00000000E+00
  0.00000000E+00  0.00000000E+00  0.00000000E+00
  0.00000000E+00  0.00000000E+00  0.00000000E+00
  0.00000000E+00  0.00000000E+00  0.00000000E+00
  0.00000000E+00  0.00000000E+00  0.00000000E+00
  0.00000000E+00  0.00000000E+00  0.00000000E+00
  0.00000000E+00  0.00000000E+00  0.00000000E+00
  0.00000000E+00  0.00000000E+00  0.00000000E+00
  0.00000000E+00  0.00000000E+00  0.00000000E+00
  0.00000000E+00  0.00000000E+00  0.00000000E+00
  0.00000000E+00  0.00000000E+00  0.00000000E+00
  0.00000000E+00  0.00000000E+00  0.00000000E+00
  0.00000000E+00  0.00000000E+00  0.00000000E+00
  0.00000000E+00  0.00000000E+00  0.00000000E+00
  0.00000000E+00  0.00000000E+00  0.00000000E+00
  0.00000000E+00  0.00000000E+00  0.00000000E+00
  0.00000000E+00  0.00000000E+00  0.00000000E+00
  0.00000000E+00  0.00000000E+00  0.00000000E+00
  0.00000000E+00  0.00000000E+00  0.00000000E+00
  0.00000000E+00  0.00000000E+00  0.00000000E+00
  0.00000000E+00  0.00000000E+00  0.00000000E+00
  0.00000000E+00  0.00000000E+00  0.00000000E+00
  0.00000000E+00  0.00000000E+00  0.00000000E+00
  0.00000000E+00  0.00000000E+00  0.00000000E+00
  0.00000000E+00  0.00000000E+00  0.00000000E+00
  0.00000000E+00  0.00000000E+00  0.00000000E+00
  0.00000000E+00  0.00000000E+00  0.00000000E+00
  0.00000000E+00  0.00000000E+00  0.00000000E+00
  0.00000000E+00  0.00000000E+00  0.00000000E+00
  0.00000000E+00  0.00000000E+00  0.00000000E+00
  0.00000000E+00  0.00000000E+00  0.00000000E+00
  0.00000000E+00  0.00000000E+00  0.00000000E+00
  0.00000000E+00  0.00000000E+00  0.00000000E+00
  0.00000000E+00  0.00000000E+00  0.00000000E+00
  0.00000000E+00  0.00000000E+00  0.00000000E+00
  0.00000000E+00  0.00000000E+00  0.00000000E+00
  0.00000000E+00  0.00000000E+00  0.00000000E+00
  0.00000000E+00  0.00000000E+00  0.00000000E+00
  0.00000000E+00  0.00000000E+00  0.00000000E+00
  0.00000000E+00  0.00000000E+00  0.00000000E+00
  0.00000000E+00  0.00000000E+00  0.00000000E+00
  0.00000000E+00  0.00000000E+00  0.00000000E+00
  0.00000000E+00  0.00000000E+00  0.00000000E+00
  0.00000000E+00  0.00000000E+00  0.00000000E+00
  0.00000000E+00  0.00000000E+00  0.00000000E+00
  0.00000000E+00  0.00000000E+00  0.00000000E+00
  0.00000000E+00  0.00000000E+00  0.00000000E+00
  0.00000000E+00  0.00000000E+00  0.00000000E+00