Ge Se                                   
   1.00000000000000     
    20.0000000000000000    0.0000000000000000    0.0000000000000000
     0.0000000000000000   20.0000000000000000    0.0000000000000000
     0.0000000000000000    0.0000000000000000   20.0000000000000000
   Ge   Se
   155   155
Direct
  0.7029533912315711  0.3214226042919722  0.1303183183391557
  0.3550987138006620  0.2844302299687364  0.1076748440385206
  0.9471012923815709  0.1806120521525016  0.7518574466659129
  0.6506802941305280  0.3341967173758854  0.7518772683382025
  0.8962201786497179  0.0600584170352161  0.3444092465041755
  0.3872102745641902  0.9136936466268499  0.3086106883854194
  0.2289715489760568  0.0580399515097280  0.1550699747777987
  0.2876828321373378  0.4465669830844775  0.4819718896082338
  0.5941242562274093 -0.0060581681413847  0.1804335603349243
  0.7488767876665051  0.7645619407272172  0.8763471084896394
  0.8020831618122773  0.1933595622244744  0.2185192632052723
  0.8777265363850610  0.5530650573669735  0.6993607372545895
  0.8337521940099218  0.1278094491958816  0.9689786059551175
  0.9117122069275522  0.4560936783041226  0.4090656080819521
  0.8293726231073432 -0.0036775442205084  0.2500377165229223
  0.9331106689520553  0.4632969836017807  0.7760071589863482
  0.1370998793702074  0.8775547429477832  0.9374566679124984
  0.3467146909287661  0.3945807577184635  0.1667339871579334
  0.6400028178298700  0.4240765879883445  0.3175192996072312
  0.1798081937271905  0.2222636273931358  0.3864825348369392
  0.9800525872201042  0.7106667132628274  0.7678849505269865
  0.5173624216261499  0.9323699664089355  0.3247134642031522
  0.0153229730682032  0.9654287995490926  0.4533254619966536
  0.8600763858115815  0.6914617192152840  0.0432831135973173
  0.3159499462141728  0.5042816266510650  0.9492639730391907
  0.6110837592851269  0.5592639938337695  0.2116784717848111
  0.6127425075009476  0.0252684676327151  0.9037953224256088
  0.6953512740076544  0.7525434044145028  0.5993096430743030
  0.2014929995279542  0.8825793263389833  0.5951760570984986
  0.0248457184240598  0.2408575631803648  0.6285351999144161
  0.3201669386725767 -0.0056079083435779  0.9475932142566025
  0.0093203438302036  0.9494983519189228  0.6748191314914547
  0.6913038561755800  0.2437783613533512  0.5788708305654539
  0.4178430692484371  0.4395626548176326  0.0014983484104546
 -0.0120760613643898  0.4714476791134274  0.5788862396720045
  0.5984738405891310  0.2663990809327483 -0.0102321095235637
  0.1231078883958994  0.1308548648198919  0.7357825618119975
  0.2808587170281363  0.8188864721097080  0.3326723558432855
  0.9693693647006939  0.0860379592200394  0.8342588587575801
  0.9234401706315262  0.3964346413250810  0.0132252839614991
  0.5338992110261143  0.9708928842151854  0.0206386910806463
  0.8311036876894169  0.3969063482355950  0.8158333585798576
  0.6426890481904585  0.7690750510167422  0.7422219822047895
 -0.0005845633947981  0.3251898081308559  0.4599554068884656
  0.3731078480843382  0.9284202133083999  0.4457642873895709
  0.4481147455378896  0.5977942558787305  0.6373244648908660
  0.9537191090069902  0.6140063455076726  0.4316838039447302
  0.6152760628656621  0.4109451365194418  0.8497592301179024
  0.6474100042959103  0.9015337872146255  0.4671043344267305
  0.4889677660034453 -0.0018359618110665  0.4811107471085647
  0.7505543453833258  0.9170734510313384  0.7628437961809784
  0.4417784498885755  0.6865179756395495  0.7574434495621559
  0.7861645676864447  0.4929303520359580  0.8913580004860463
  0.4150191557731538  0.6268187873630620  0.1832054586061898
  0.5252511685601717  0.7978619076534041  0.1746724962051147
  0.7971670526806687  0.3687294352005051  0.9806321833719479
  0.3271325303276549  0.8083617220876919  0.1218885561496972
  0.5828385794012740  0.7015135073555430  0.4835299498670046
  0.7866047952743649  0.5622809644933623  0.4274995487687938
  0.8254437857047805  0.5521066960852877  0.0365726117270340
  0.7343582966810455  0.9125736743704982  0.2949305680141901
  0.7011160441583568  0.6403641421206493  0.1318378471350462
  0.8474520503884011  0.8462268819675605  0.4405816349607752
  0.1515616064650663  0.9843695658036230  0.7815905587839436
  0.2103457394091533  0.5589291012146368  0.0141960934183230
  0.0748206226428108  0.5779671346565689  0.4207683502959192
  0.8339882076930800  0.0282794572183257  0.4618735430501786
  0.0355088223505497  0.8418688850396003  0.0549735224669955
  0.1524598409080326  0.6621915060127475  0.2277620504950102
  0.4167716554217716  0.0475784623885398  0.1780503087935468
  0.0162334304901979  0.1625654848869525  0.2145877582605878
  0.6518927609954529  0.9884424310001358  0.6216200691984258
  0.2262261054163019  0.7901303259394935  0.7520528311437282
  0.2449576783698964  0.2301096583066432  0.1394935538865608
  0.6164867978155788  0.3057419017707037  0.4370806295066035
  0.7440310310631170  0.0481350386706485  0.9070769033615251
  0.3748686790141071  0.3823465573773363  0.8105757926135406
  0.3666753492520333  0.6555079605954818  0.4833365286771698
  0.2788478636714585  0.9600819230077787  0.7649378796345001
  0.3983428584553804  0.2531566130870714  0.7004512915366323
  0.3053570329974028  0.5951482717201784  0.3383996725758955
  0.5117672938297326  0.1261075282123282  0.2258334504154822
  0.5105032262505016  0.2891687276573179  0.5964180559582744
  0.5576073934312270  0.2879630150170709  0.1123439334911579
  0.0933764542776546  0.3844036760465998  0.9036147819953088
  0.5217206404345127  0.0099971666726798  0.6392924965873197
  0.8094329259742419  0.7610989774743627  0.2470514074249432
  0.3666527312385516  0.2622399639778858  0.2809073078616686
  0.4421897676551744  0.1356341375425691 -0.0027729839620569
  0.6628910199546459  0.0674035294646190  0.0278288246031688
  0.0932830980406755  0.3452016423039916  0.1232086376156458
  0.2755611252384220  0.2269048760777432  0.6639094544413050
  0.3575380485912220  0.3053390484188748  0.4038407646953185
  0.7297094201055014  0.1513515735170222  0.4052783229170444
  0.7762478558316698  0.2278941424715225  0.7873118364888985
  0.9275120510738641  0.6449644799131240  0.8695725021409487
  0.6108978888311288  0.5957403423245458  0.0376550063396205
  0.4075074399724213  0.8279834156529258  0.2162025313314195
  0.9105134486233180  0.8754040286408127  0.7920396229867777
  0.4641703140173756  0.5096615966012692  0.7645732886670170
  0.2574668083637333  0.4026369054739579  0.6746880598878628
  0.6682334086004732  0.8034677420294820  0.1330645226096287
  0.0032670745658436  0.0221797320513989  0.2557452898241416
  0.0591163318445453  0.3669337856632387  0.2995641251896118
  0.7908785062645515  0.4695670773159722  0.2003405424909341
  0.2529823111313142  0.2445985766233971  0.7927834672238038
  0.3548129336280175  0.0126979077320241  0.6034691839296525
  0.3346304492511472  0.6877351136049089  0.9247490900848170
  0.5039054585593549  0.7696925035398605  0.5933110241811297
  0.3575678958377607  0.1079928451269800  0.3792490961373699
  0.4565761620869724  0.8611999996448317  0.8606632580545647
 -0.0183829470571947  0.1042444679070167  0.0608534633993206
  0.0335764893383684  0.3332053562734915  0.0077687177040142
  0.6222301912760744  0.5743136784383156  0.7093595279807269
  0.4497960729169868  0.0968923707168311  0.8086748291255287
  0.7431297181603628  0.6054526755565391  0.5438865415048993
  0.6048176530993368  0.1486181746857463  0.8725636265649421
  0.5255751473584718  0.4221153625792721  0.1124381039726512
  0.9189551578992751  0.3156517586197130  0.6645953265283312
  0.8624192062203208  0.8728374561733384  0.0327093824334426
  0.1184230911590989  0.1083200181801457  0.3611525726280879
  0.2953094564772936  0.9007079598237795  0.0405035918379990
  0.1711448757679035  0.4508379267526116  0.5457164779290767
  0.1854228593390582  0.4694542917814618  0.2828831120986138
  0.8822954073197888  0.8929789280454079  0.5901573092085617
  0.0345655599679642  0.7763206470172790  0.4308711524671755
  0.2889053670963552  0.5359929878577601  0.8207350282463183
  0.1112497495179104  0.9929182608114504  0.0332859894133750
  0.8770528845927354  0.9709616486084157  0.1283738564053423
  0.6131651050757324 -0.0197796156206617  0.7814113938599289
  0.7350638179969572  0.3992642069470093  0.5303312857086661
 -0.0020117725201500  0.6649332504212282  0.0366090544515420
  0.9036480757492112  0.2962689775309617  0.0960327844175452
  0.6985087841943554  0.8680792690214650  0.9338987473535806
  0.4784011686153197  0.7506156928209715  0.3307409832599753
  0.4661336044094743  0.4845704328546832  0.4491261597548946
  0.2076737378800111  0.7094172298670968  0.0333847935068417
  0.6692283010747426  0.2385979491044648  0.2864043941202125
  0.1097727255952608  0.8016623318499619  0.3357785567956230
  0.2438450846147741  0.3651543288378968  0.9708952256376643
  0.0395754767781421  0.5526697053488254  0.9694374911648231
  0.2254977473416022  0.1892424752750476  0.0194948677684343
  0.2003157957267513  0.8166239237306787  0.4762548597629330
  0.1970087791182960  0.5977203314025802  0.6816026094958577
  0.9809113350049845  0.6828641264442578  0.2384845683240521
  0.2118594642008531  0.6561928660501462  0.4905907364090391
  0.7752398777282908  0.0798355112536025  0.6827492823416520
  0.2276012213046589  0.1177836132498847  0.8395043670360415
  0.4868021114624930  0.7640163197909767  0.0566602843944356
  0.6887451264227391  0.0329933963893719  0.3483966505377465
  0.4466827935113829  0.5154155937283739  0.2633253949531111
  0.0282751573131819  0.2766042823569141  0.8087705721303065
  0.6193370486346924  0.2106956830319992  0.7622811691616990
  0.0819919710267795  0.5770587984810845  0.7391517864928365
  0.2424408496677528  0.2003531301497246  0.5026300890564109
  0.1602155464429369  0.5147148650801158  0.8314327587145667
  0.9282699707460520  0.7335575752185144  0.3934493891808852
  0.7579532068034122  0.4496877026579520  0.0753742720605411
  0.6521038384573021 -0.0547590054953036  0.0770837746596295
  0.1272680263776026  0.0333183032141565  0.2630628007239121
  0.5613240330224412  0.6472884529977188  0.5992429365573022
  0.0110274405693657  0.1678650897778229  0.3412132914996711
  0.5127866423593300  0.1992106002199205  0.6940080795660194
  0.2720651861151959  0.3779511846601210  0.2600864981924206
  0.1199538455213268  0.4616619743227778  0.0120517974154209
  0.9153764547907879  0.4449912224762578  0.1971843869280935
  0.1515636828487320  0.5721968141504551  0.5680637233085458
  0.9136218922254580  0.3664289210577186  0.5483064127875549
  0.7320641206700922  0.2768207782337298  0.4210098414018611
  0.6376123301382376  0.5873327576857754  0.4639599379529421
  0.7952837318049183  0.9352568404811591  0.8830548821597758
  0.3886939951187935  0.5403931932682590  0.5375466125992334
  0.6624507825141346  0.6885649371944232  0.8384663132596811
  0.3259141291577413  0.8078613494093212  0.4522960615480059
  0.4100489421294778  0.3742294942472729  0.6883806274193451
  0.9636791045044364  0.6384543687422805  0.6715746537708425
  0.4837922610482848 -0.0146836103667335  0.7553803633589481
  0.5249167430777009  0.8721590622532844  0.4302234246487164
  0.4283052911284170  0.3663034981987065  0.4832218743209230
  0.7777803653785956  0.9336884381222176  0.5206321104955232
  0.3005964948182136  0.5263399822827769  0.6951925025411578
  0.3760630039845076  0.2499989101807777  0.8217778361190694
  0.3880822067588513  0.7104536840562776  0.5955948440629629
  0.0440177960379882  0.6224362408540857  0.1415264220626365
  0.8553612447367668  0.0936316761397578  0.0924467759910599
  0.1741964646114305  0.8968226006967832  0.3769396576487369
  0.5130219527835673  0.7877051457374243  0.7196049440020406
  0.9659387063764405  0.2261849272807341  0.0094841869913628
  0.2844259551808279 -0.0059232178014693  0.5002549000257738
  0.7367457143578162  0.7312279927988322  0.0469286616594663
  0.9224366180618973  0.7858421027459470  0.1075071009608864
  0.8639274062296203  0.7407005848220550  0.9231950929233058
  0.1309055017730683  0.8620060946144479  0.8115396888650099
  0.3659780367254828  0.7234620422467563  0.2781048983333738
  0.3781579172070000  0.7067814554719910  0.0715973670099440
  0.0739956209514427  0.1467461177110990  0.8542648682251536
  0.5704935707024954  0.7038701016194101 -0.0045847895128078
  0.6363300128759786  0.3805071357379426  0.9662527035981548
  0.6205519405814841  0.3452478239857633  0.6329710359064018
  0.6636829069697113  0.1473791546081611  0.6665916204785665
  0.6950319455795608  0.6108771145128045  0.3607558303815607
  0.2471533931216618  0.5644510145571510  0.2265565854926951
  0.1864727217155819  0.9958394458508558  0.9286297040622375
  0.1166134815699000  0.2595432780066889  0.7140911843180541
  0.0882122493447417  0.7350195164190340  0.9891769478616224
  0.6922596916329083  0.2015715546446035  0.9405382306471326
  0.3001225820944678  0.8751727468069721  0.6746908779338968
  0.3637671164409048  0.2001100861336131  0.4741531563412680
  0.2729115638130090  0.1790483925180517  0.3095755024470757
  0.0828619775223160  0.4426338581503579  0.1971602168671939
  0.1961253139329881  0.9395631569420555  0.1138696930740398
  0.8596801690184939  0.9563371469631050  0.7010195079074479
  0.7709259446778685  0.8662893434838497  0.1809458383404836
 -0.0234347930981164  0.9264521943987608  0.3470037300688026
  0.4423913089140883  0.7368939454464530  0.8735001062452944
  0.3317200547742002  0.0103616243044432  0.2589702430888343
  0.0586655033016347  0.7885620711603021  0.2301145713777525
  0.1771712473803528  0.2641623295865571  0.9345218164589025
  0.7844085633151225  0.1274369353121724  0.5148861298720107
  0.8433163611414650  0.1900201344521848  0.6795093640814660
  0.2187935214549948  0.7603116330577598  0.1482912288632970
  0.8786089119470806  0.5651649874623590  0.3426367965845590
  0.3446172422145420  0.0742396820611176  0.0827563255500904
  0.8355268326156937  0.1742647817875083  0.3429192087647489
  0.2369377225988283  0.3691042784286578  0.7987761990590280
  0.9042928389088575  0.5602768397700820  0.5310480429448454
  0.5349003325384003  0.6087131496618362  0.8015909617027195
  0.4503796244118690  0.8608886677399729  0.9903781296860108
  0.6895769731149994  0.7167165891164831  0.2300063916040671
  0.6092527280626643  0.8836400187751752  0.2546799478887448
  0.4535904313869112  0.1770318384974883  0.3260684697626768
  0.2147433619236972  0.3472630664080746  0.0975326796401256
  0.3286772225121909  0.8939090679949915  0.8531678948521372
  0.2404615586634856  0.3466563036965414  0.4157520999225179
  0.7651559079198509  0.3613935381924846  0.7178478112198343
  0.9383774831984333  0.5038627526561177  0.0684823766590492
  0.1990498337475944  0.7172536425987733  0.3448286599346989
  0.3730825348069420  0.4841217192524257  0.3586942729705117
  0.2499438895823557  0.3017764911190770  0.5727302372444253
  0.3285112473465541  0.0790524456243354  0.7645142359434498
  0.3023755285249664  0.1396776178321522  0.9385305149624805
  0.6295202518771961  0.4329365520866008  0.1874785359432853
  0.6173489339934578  0.0220720060384147  0.5028055216964442
  0.0795864991890147  0.6864637886962497  0.4973626181957138
  0.4546996849668337  0.9221832237749248  0.5810050615970145
  0.0600005468744543  0.5973115743067128  0.2971695534487063
  0.6172259268232544  0.8626855288226747  0.8318902860070027
  0.8280957090579580  0.5946396656617988  0.8112728267075888
  0.8670694440592051  0.2861689667030821  0.8576021573647629
  0.4802165749121854  0.6587651572019758  0.4206864818782650
  0.6374205275570403  0.2085321690360224  0.1636472575175677
  0.9374155109171406  0.0186785698064854  0.5312173020843609
  0.0133584195499515  0.1178154217773984  0.6652551760802834
 -0.0190628641367241  0.4605980941637282  0.8951848366327602
  0.0615311934216732  0.2337471328826575  0.5147243521523360
  0.4556556658650112  0.2176958350299485  0.1280192645889830
  0.6277544525088826  0.8626354805513570  0.5899123677580005
  0.7949607322328380  0.7979273765448958  0.7654690433458956
  0.9790484046976462  0.8211088855166029  0.6981208982466257
  0.2444438954890187  0.8131053305299808  0.9653869470826083
  0.1075505372153102  0.0402889614978330  0.4625998307619725
  0.1490843651527352  0.6049077006081314  0.9110802274785703
  0.9331010282847233  0.0513685467875797  0.9451552560140978
  0.7905232072064857  0.2604640636057933  0.0565049989970598
  0.0965359167531599  0.6906091586579836  0.7922907824409207
  0.3468676400784597  0.4926664956835222  0.0976019102044404
  0.4736994492244574  0.9443020420080184  0.1410719575503677
  0.7226288142881057  0.0576722820393429  0.2282912677659353
  0.1369575256669941  0.9738094165160514  0.6514774349107909
  0.1411773095640285  0.7813023202004050  0.6525952317730488
  0.0388335695421604  0.8626198850466396  0.5162493076409972
  0.0639113490708947  0.4391135708919993  0.4779576705083965
  0.0102682916423974  0.9747865330391923  0.8022946205454380
  0.9188215357756030  0.2456299734857478  0.2088755715747352
  0.4057544970477392  0.5856455089597551  0.9430372290758030
  0.8134804444961116  0.5962273422092776  0.1606393281607238
  0.5468712850167212  0.0963066748502055  0.0680635582338133
  0.7593331629331929  0.3198675588506227  0.2445328378352583
  0.6731168697203244  0.5162735767150818  0.8410724768999801
  0.4979772377712152  0.4290708492696954  0.8591745702375829
 -0.0340972223501029  0.8881831191865480  0.9653706942584215
  0.9283235575367960  0.3818655012918854  0.3026115904242949
  0.3660973114453107  0.3196071333733833 -0.0106354583630057
  0.2397062834565652  0.7099406660278752  0.6329528280696596
  0.5450193424279934  0.4839330303449816  0.6726646114863487
  0.5257041943182945  0.6827740691390877  0.2281791981610294
  0.2872260841019175  0.6561647725502152  0.8085298768177808
  0.8174969873644725  0.7708114056989983  0.6210295485193350
  0.5141975822605002  0.2244362342066549  0.9085169538196590
  0.4547909618484011  0.0936130184995249  0.5777264971004681
  0.7828730647289919  0.4390690114999539  0.4158793104992307
  0.7559326232204927  0.8058862645965166  0.3593282677921769
  0.0956184376092464  0.2661388713158593  0.2194821768431945
  0.4510822440535939  0.0329853320569720  0.9182647056213397
  0.1388954273934026  0.1145454261801118  0.0706823442794065
  0.7933608741260012  0.7491689801437961  0.5035737087125401
  0.7322406976481369  0.5011521025966027  0.6039344180254212
  0.4590005055021236  0.3982189412237950  0.2198470679237804
  0.5806474969126801  0.2153378685225347  0.5102175455372222
  0.8008583100246464  0.0990355644975022  0.8088684396071880
  0.5687583422291758  0.3131565019256897  0.3246042067810147
 -0.0002274249583397  0.9632701373673824  0.1467594539023880
  0.6165675323854509  0.4176150941156241  0.4763255311505616
  0.2198533371343162  0.5439178622157188  0.4171252681016400
  0.2450193351120532  0.1265839892134745  0.6052146560524305
  0.5197660023186769  0.5592629047432641  0.1184237688704837
  0.5615650070185680  0.0478876019951831  0.3403761053158688
  0.1350208752404659  0.4333064493365143  0.6594790698484010
  0.5540735533987174  0.5220547152369261  0.3237351605611627
  0.0080554778323279  0.3814371225735609  0.7265314106185649
 
  0.00000000E+00  0.00000000E+00  0.00000000E+00
  0.00000000E+00  0.00000000E+00  0.00000000E+00
  0.00000000E+00  0.00000000E+00  0.00000000E+00
  0.00000000E+00  0.00000000E+00  0.00000000E+00
  0.00000000E+00  0.00000000E+00  0.00000000E+00
  0.00000000E+00  0.00000000E+00  0.00000000E+00
  0.00000000E+00  0.00000000E+00  0.00000000E+00
  0.00000000E+00  0.00000000E+00  0.00000000E+00
  0.00000000E+00  0.00000000E+00  0.00000000E+00
  0.00000000E+00  0.00000000E+00  0.00000000E+00
  0.00000000E+00  0.00000000E+00  0.00000000E+00
  0.00000000E+00  0.00000000E+00  0.00000000E+00
  0.00000000E+00  0.00000000E+00  0.00000000E+00
  0.00000000E+00  0.00000000E+00  0.00000000E+00
  0.00000000E+00  0.00000000E+00  0.00000000E+00
  0.00000000E+00  0.00000000E+00  0.00000000E+00
  0.00000000E+00  0.00000000E+00  0.00000000E+00
  0.00000000E+00  0.00000000E+00  0.00000000E+00
  0.00000000E+00  0.00000000E+00  0.00000000E+00
  0.00000000E+00  0.00000000E+00  0.00000000E+00
  0.00000000E+00  0.00000000E+00  0.00000000E+00
  0.00000000E+00  0.00000000E+00  0.00000000E+00
  0.00000000E+00  0.00000000E+00  0.00000000E+00
  0.00000000E+00  0.00000000E+00  0.00000000E+00
  0.00000000E+00  0.00000000E+00  0.00000000E+00
  0.00000000E+00  0.00000000E+00  0.00000000E+00
  0.00000000E+00  0.00000000E+00  0.00000000E+00
  0.00000000E+00  0.00000000E+00  0.00000000E+00
  0.00000000E+00  0.00000000E+00  0.00000000E+00
  0.00000000E+00  0.00000000E+00  0.00000000E+00
  0.00000000E+00  0.00000000E+00  0.00000000E+00
  0.00000000E+00  0.00000000E+00  0.00000000E+00
  0.00000000E+00  0.00000000E+00  0.00000000E+00
  0.00000000E+00  0.00000000E+00  0.00000000E+00
  0.00000000E+00  0.00000000E+00  0.00000000E+00
  0.00000000E+00  0.00000000E+00  0.00000000E+00
  0.00000000E+00  0.00000000E+00  0.00000000E+00
  0.00000000E+00  0.00000000E+00  0.00000000E+00
  0.00000000E+00  0.00000000E+00  0.00000000E+00
  0.00000000E+00  0.00000000E+00  0.00000000E+00
  0.00000000E+00  0.00000000E+00  0.00000000E+00
  0.00000000E+00  0.00000000E+00  0.00000000E+00
  0.00000000E+00  0.00000000E+00  0.00000000E+00
  0.00000000E+00  0.00000000E+00  0.00000000E+00
  0.00000000E+00  0.00000000E+00  0.00000000E+00
  0.00000000E+00  0.00000000E+00  0.00000000E+00
  0.00000000E+00  0.00000000E+00  0.00000000E+00
  0.00000000E+00  0.00000000E+00  0.00000000E+00
  0.00000000E+00  0.00000000E+00  0.00000000E+00
  0.00000000E+00  0.00000000E+00  0.00000000E+00
  0.00000000E+00  0.00000000E+00  0.00000000E+00
  0.00000000E+00  0.00000000E+00  0.00000000E+00
  0.00000000E+00  0.00000000E+00  0.00000000E+00
  0.00000000E+00  0.00000000E+00  0.00000000E+00
  0.00000000E+00  0.00000000E+00  0.00000000E+00
  0.00000000E+00  0.00000000E+00  0.00000000E+00
  0.00000000E+00  0.00000000E+00  0.00000000E+00
  0.00000000E+00  0.00000000E+00  0.00000000E+00
  0.00000000E+00  0.00000000E+00  0.00000000E+00
  0.00000000E+00  0.00000000E+00  0.00000000E+00
  0.00000000E+00  0.00000000E+00  0.00000000E+00
  0.00000000E+00  0.00000000E+00  0.00000000E+00
  0.00000000E+00  0.00000000E+00  0.00000000E+00
  0.00000000E+00  0.00000000E+00  0.00000000E+00
  0.00000000E+00  0.00000000E+00  0.00000000E+00
  0.00000000E+00  0.00000000E+00  0.00000000E+00
  0.00000000E+00  0.00000000E+00  0.00000000E+00
  0.00000000E+00  0.00000000E+00  0.00000000E+00
  0.00000000E+00  0.00000000E+00  0.00000000E+00
  0.00000000E+00  0.00000000E+00  0.00000000E+00
  0.00000000E+00  0.00000000E+00  0.00000000E+00
  0.00000000E+00  0.00000000E+00  0.00000000E+00
  0.00000000E+00  0.00000000E+00  0.00000000E+00
  0.00000000E+00  0.00000000E+00  0.00000000E+00
  0.00000000E+00  0.00000000E+00  0.00000000E+00
  0.00000000E+00  0.00000000E+00  0.00000000E+00
  0.00000000E+00  0.00000000E+00  0.00000000E+00
  0.00000000E+00  0.00000000E+00  0.00000000E+00
  0.00000000E+00  0.00000000E+00  0.00000000E+00
  0.00000000E+00  0.00000000E+00  0.00000000E+00
  0.00000000E+00  0.00000000E+00  0.00000000E+00
  0.00000000E+00  0.00000000E+00  0.00000000E+00
  0.00000000E+00  0.00000000E+00  0.00000000E+00
  0.00000000E+00  0.00000000E+00  0.00000000E+00
  0.00000000E+00  0.00000000E+00  0.00000000E+00
  0.00000000E+00  0.00000000E+00  0.00000000E+00
  0.00000000E+00  0.00000000E+00  0.00000000E+00
  0.00000000E+00  0.00000000E+00  0.00000000E+00
  0.00000000E+00  0.00000000E+00  0.00000000E+00
  0.00000000E+00  0.00000000E+00  0.00000000E+00
  0.00000000E+00  0.00000000E+00  0.00000000E+00
  0.00000000E+00  0.00000000E+00  0.00000000E+00
  0.00000000E+00  0.00000000E+00  0.00000000E+00
  0.00000000E+00  0.00000000E+00  0.00000000E+00
  0.00000000E+00  0.00000000E+00  0.00000000E+00
  0.00000000E+00  0.00000000E+00  0.00000000E+00
  0.00000000E+00  0.00000000E+00  0.00000000E+00
  0.00000000E+00  0.00000000E+00  0.00000000E+00
  0.00000000E+00  0.00000000E+00  0.00000000E+00
  0.00000000E+00  0.00000000E+00  0.00000000E+00
  0.00000000E+00  0.00000000E+00  0.00000000E+00
  0.00000000E+00  0.00000000E+00  0.00000000E+00
  0.00000000E+00  0.00000000E+00  0.00000000E+00
  0.00000000E+00  0.00000000E+00  0.00000000E+00
  0.00000000E+00  0.00000000E+00  0.00000000E+00
  0.00000000E+00  0.00000000E+00  0.00000000E+00
  0.00000000E+00  0.00000000E+00  0.00000000E+00
  0.00000000E+00  0.00000000E+00  0.00000000E+00
  0.00000000E+00  0.00000000E+00  0.00000000E+00
  0.00000000E+00  0.00000000E+00  0.00000000E+00
  0.00000000E+00  0.00000000E+00  0.00000000E+00
  0.00000000E+00  0.00000000E+00  0.00000000E+00
  0.00000000E+00  0.00000000E+00  0.00000000E+00
  0.00000000E+00  0.00000000E+00  0.00000000E+00
  0.00000000E+00  0.00000000E+00  0.00000000E+00
  0.00000000E+00  0.00000000E+00  0.00000000E+00
  0.00000000E+00  0.00000000E+00  0.00000000E+00
  0.00000000E+00  0.00000000E+00  0.00000000E+00
  0.00000000E+00  0.00000000E+00  0.00000000E+00
  0.00000000E+00  0.00000000E+00  0.00000000E+00
  0.00000000E+00  0.00000000E+00  0.00000000E+00
  0.00000000E+00  0.00000000E+00  0.00000000E+00
  0.00000000E+00  0.00000000E+00  0.00000000E+00
  0.00000000E+00  0.00000000E+00  0.00000000E+00
  0.00000000E+00  0.00000000E+00  0.00000000E+00
  0.00000000E+00  0.00000000E+00  0.00000000E+00
  0.00000000E+00  0.00000000E+00  0.00000000E+00
  0.00000000E+00  0.00000000E+00  0.00000000E+00
  0.00000000E+00  0.00000000E+00  0.00000000E+00
  0.00000000E+00  0.00000000E+00  0.00000000E+00
  0.00000000E+00  0.00000000E+00  0.00000000E+00
  0.00000000E+00  0.00000000E+00  0.00000000E+00
  0.00000000E+00  0.00000000E+00  0.00000000E+00
  0.00000000E+00  0.00000000E+00  0.00000000E+00
  0.00000000E+00  0.00000000E+00  0.00000000E+00
  0.00000000E+00  0.00000000E+00  0.00000000E+00
  0.00000000E+00  0.00000000E+00  0.00000000E+00
  0.00000000E+00  0.00000000E+00  0.00000000E+00
  0.00000000E+00  0.00000000E+00  0.00000000E+00
  0.00000000E+00  0.00000000E+00  0.00000000E+00
  0.00000000E+00  0.00000000E+00  0.00000000E+00
  0.00000000E+00  0.00000000E+00  0.00000000E+00
  0.00000000E+00  0.00000000E+00  0.00000000E+00
  0.00000000E+00  0.00000000E+00  0.00000000E+00
  0.00000000E+00  0.00000000E+00  0.00000000E+00
  0.00000000E+00  0.00000000E+00  0.00000000E+00
  0.00000000E+00  0.00000000E+00  0.00000000E+00
  0.00000000E+00  0.00000000E+00  0.00000000E+00
  0.00000000E+00  0.00000000E+00  0.00000000E+00
  0.00000000E+00  0.00000000E+00  0.00000000E+00
  0.00000000E+00  0.00000000E+00  0.00000000E+00
  0.00000000E+00  0.00000000E+00  0.00000000E+00
  0.00000000E+00  0.00000000E+00  0.00000000E+00
  0.00000000E+00  0.00000000E+00  0.00000000E+00
  0.00000000E+00  0.00000000E+00  0.00000000E+00
  0.00000000E+00  0.00000000E+00  0.00000000E+00
  0.00000000E+00  0.00000000E+00  0.00000000E+00
  0.00000000E+00  0.00000000E+00  0.00000000E+00
  0.00000000E+00  0.00000000E+00  0.00000000E+00
  0.00000000E+00  0.00000000E+00  0.00000000E+00
  0.00000000E+00  0.00000000E+00  0.00000000E+00
  0.00000000E+00  0.00000000E+00  0.00000000E+00
  0.00000000E+00  0.00000000E+00  0.00000000E+00
  0.00000000E+00  0.00000000E+00  0.00000000E+00
  0.00000000E+00  0.00000000E+00  0.00000000E+00
  0.00000000E+00  0.00000000E+00  0.00000000E+00
  0.00000000E+00  0.00000000E+00  0.00000000E+00
  0.00000000E+00  0.00000000E+00  0.00000000E+00
  0.00000000E+00  0.00000000E+00  0.00000000E+00
  0.00000000E+00  0.00000000E+00  0.00000000E+00
  0.00000000E+00  0.00000000E+00  0.00000000E+00
  0.00000000E+00  0.00000000E+00  0.00000000E+00
  0.00000000E+00  0.00000000E+00  0.00000000E+00
  0.00000000E+00  0.00000000E+00  0.00000000E+00
  0.00000000E+00  0.00000000E+00  0.00000000E+00
  0.00000000E+00  0.00000000E+00  0.00000000E+00
  0.00000000E+00  0.00000000E+00  0.00000000E+00
  0.00000000E+00  0.00000000E+00  0.00000000E+00
  0.00000000E+00  0.00000000E+00  0.00000000E+00
  0.00000000E+00  0.00000000E+00  0.00000000E+00
  0.00000000E+00  0.00000000E+00  0.00000000E+00
  0.00000000E+00  0.00000000E+00  0.00000000E+00
  0.00000000E+00  0.00000000E+00  0.00000000E+00
  0.00000000E+00  0.00000000E+00  0.00000000E+00
  0.00000000E+00  0.00000000E+00  0.00000000E+00
  0.00000000E+00  0.00000000E+00  0.00000000E+00
  0.00000000E+00  0.00000000E+00  0.00000000E+00
  0.00000000E+00  0.00000000E+00  0.00000000E+00
  0.00000000E+00  0.00000000E+00  0.00000000E+00
  0.00000000E+00  0.00000000E+00  0.00000000E+00
  0.00000000E+00  0.00000000E+00  0.00000000E+00
  0.00000000E+00  0.00000000E+00  0.00000000E+00
  0.00000000E+00  0.00000000E+00  0.00000000E+00
  0.00000000E+00  0.00000000E+00  0.00000000E+00
  0.00000000E+00  0.00000000E+00  0.00000000E+00
  0.00000000E+00  0.00000000E+00  0.00000000E+00
  0.00000000E+00  0.00000000E+00  0.00000000E+00
  0.00000000E+00  0.00000000E+00  0.00000000E+00
  0.00000000E+00  0.00000000E+00  0.00000000E+00
  0.00000000E+00  0.00000000E+00  0.00000000E+00
  0.00000000E+00  0.00000000E+00  0.00000000E+00
  0.00000000E+00  0.00000000E+00  0.00000000E+00
  0.00000000E+00  0.00000000E+00  0.00000000E+00
  0.00000000E+00  0.00000000E+00  0.00000000E+00
  0.00000000E+00  0.00000000E+00  0.00000000E+00
  0.00000000E+00  0.00000000E+00  0.00000000E+00
  0.00000000E+00  0.00000000E+00  0.00000000E+00
  0.00000000E+00  0.00000000E+00  0.00000000E+00
  0.00000000E+00  0.00000000E+00  0.00000000E+00
  0.00000000E+00  0.00000000E+00  0.00000000E+00
  0.00000000E+00  0.00000000E+00  0.00000000E+00
  0.00000000E+00  0.00000000E+00  0.00000000E+00
  0.00000000E+00  0.00000000E+00  0.00000000E+00
  0.00000000E+00  0.00000000E+00  0.00000000E+00
  0.00000000E+00  0.00000000E+00  0.00000000E+00
  0.00000000E+00  0.00000000E+00  0.00000000E+00
  0.00000000E+00  0.00000000E+00  0.00000000E+00
  0.00000000E+00  0.00000000E+00  0.00000000E+00
  0.00000000E+00  0.00000000E+00  0.00000000E+00
  0.00000000E+00  0.00000000E+00  0.00000000E+00