3D\Atomistic                            
   1.00000000000000     
    18.8173099491580764    0.0000000000000000    0.0000000000000000
     0.0000000000000000   18.8173099491580764    0.0000000000000000
     0.0000000000000000    0.0000000000000000   18.8173099491580764
   Sb
   216
Direct
  0.0118681025319622  0.9540243387296831  0.4938113343490377
  0.5530694852230750  0.6869716336408689  0.4094709568326465
  0.9636072678720634  0.8938463381354581  0.0567178425087199
  0.3807858947751918  0.3013374414186729  0.0405843614028436
  0.7893322271201104  0.9355209017010014  0.7406017303556274
  0.3728698315144540  0.0942020881568021  0.9413478057242690
  0.0091084737193336  0.1131180955188576  0.4870581132912417
  0.7287959484870455  0.2099331702175335  0.7579048162884527
  0.2556472728765057  0.7506362312977728  0.0625814810076039
  0.2828648141753698  0.9739729485099529  0.1845302413984317
  0.4074044268786398  0.8435247876367232  0.3697102405363073
  0.5321100040310326  0.3701383826654100  0.5368431795869650
  0.4937028170144981  0.0257801552889072  0.4415470509419358
  0.5306606886211936  0.9427332540199148  0.0107697784469314
  0.2175409620562895  0.2470348605354044  0.3154824202531833
  0.8330975870753780  0.2011408290270448  0.1593136031959075
  0.5259775814957193  0.7339396420036873  0.7196175079011160
  0.5154044565230100  0.3242851009843056  0.3633546897221193
  0.0573080279636492  0.7656342642883351  0.0567743049168328
  0.7914231605925215  0.0881721448347331  0.8563911791576884
  0.1963024915784447  0.1157388119236370  0.9774682625306521
  0.5146378501600654  0.7491625077603389  0.8723183204388338
  0.7422381888555298  0.8983194076824869  0.5444490966867234
  0.8480653963529448  0.1494041640671789  0.4884146873263485
  0.5678695812849078  0.8768916099643406  0.3559969873382701
  0.9767410661495139  0.3725947817511565  0.9332040034781391
  0.5636426888062996  0.5957106637033297  0.0534099810732032
  0.7282654820047733  0.5025126363228098  0.9229733229484500
  0.8905072831627057  0.8131208102480648  0.3215830776061691
  0.9557017792378683  0.3685208777683608  0.1179606717000474
  0.7489919941554937  0.8084423619827532  0.8148219102560523
  0.1416739195398821  0.4181828108188450  0.2458164336812940
  0.2461560400824925  0.3083720732480612  0.1781249566404831
  0.7760097012367817  0.6717655026647409  0.5170245122346901
  0.4272618296831392  0.4446496099897525  0.9922935442949500
  0.0706933496224896  0.2504529884205767  0.1639715268380169
  0.7336360991455374  0.6912952777056706  0.9527363706405991
  0.3625488250267910  0.1165465429573957  0.6084546346052824
  0.1632672507347755  0.6217204617994336  0.0770855197212823
  0.2805582401826254  0.5268033279379931  0.8972986507824476
  0.6005352964017910  0.9675335028239614  0.5756637420499849
  0.0568870731381577  0.4769829877192439  0.1256595934197866
  0.0668570834865239  0.2302087580548416  0.8155871564281418
  0.0475090368770254  0.7679510782621712  0.9056405954195279
  0.2031130466810009  0.4061430842794606  0.4203633014311277
  0.2568147132475848  0.5709123633976856  0.7147498684700702
  0.8378955268449438  0.4915222701639740  0.4277027793723413
  0.0436765320976167  0.7776322490742468  0.3904076297880070
  0.6253637341648721  0.8493119277920274  0.9030857527885202
  0.7395198543180529  0.9071899446755517  0.2813044458421730
  0.8778856030903414  0.4601618313935638  0.0121031250493944
  0.7528081719086491  0.7315015876266830  0.6560161089495640
  0.5832409262521103  0.6141887080041185  0.5621108092066164
  0.1143612236282404  0.6550174087373017  0.7389942614012414
  0.1541425617696090  0.8742634419032079  0.1852264117388366
  0.4764412128243256  0.2146778085427795  0.9500498552428871
  0.8498815615431684  0.8103329539519036  0.9477159868737856
  0.9611656370424356  0.7554449214958153  0.7457970539031857
  0.7753760301844718  0.0888934338775590  0.0678423154937825
  0.5108891029124590  0.7357995667435033  0.0745445598793450
  0.4270043545297310  0.4557296221638109  0.6269733098607346
  0.1446090311000535  0.6411330474644242  0.9004888821886274
  0.8761628175802884  0.8631446048508523  0.4641218967136865
  0.5342154509277309  0.7408603006445302  0.2313261170566533
  0.9446758393979726  0.6227661389578630  0.2099761905517548
  0.5015613919556825  0.9728038264666589  0.2360427379989095
  0.9736055274559082  0.5757979753220106  0.9940833007174483
  0.3870767609528496  0.9688697451363210  0.5497362654268010
  0.9140898459614211  0.6892866950743690  0.0752561852337106
  0.5050710421644403  0.1805732774091674  0.4531752349338075
  0.7834459538888093  0.6083360134688338  0.0709130259312784
  0.6601069983645851  0.1151641027826206  0.3115713176431435
  0.8658272485312072  0.8458183432509883  0.6413587321271224
  0.2503773321456307  0.9305215802861613  0.6568533511709722
  0.2641683584838076  0.9811162023108602  0.4433584914942589
  0.5088490823953580  0.2849743325323917  0.1507650382454943
  0.0607451708857822  0.8149839744465192  0.6258826566763006
  0.3741675958883046  0.0119217083298119  0.3271631989288757
  0.9070946842841016  0.3475191286567342  0.4320373249108400
  0.2612455197342849  0.2852715522500885  0.9204488561565733
  0.1464862797918237  0.8977617512034550  0.3471902132931539
  0.1798105961787038  0.1091218759131896  0.8284746659472864
  0.6551744983145373  0.1560310008737179  0.4661669729120428
  0.6537792121955153  0.7772454753803070  0.0541992788697255
  0.2930522266807001  0.9688140096188167  0.0281995704880579
  0.3578352156031521  0.1599378648348924  0.2828702411261985
  0.2527352108180739  0.5565348657628383  0.5599072640828757
  0.4044579529503255  0.6231148485114327  0.9082296041239505
  0.4732573680108464  0.4984978036310350  0.1324703998798881
  0.4107023243898884  0.8402088263671570  0.6926180686960148
  0.0863881697957447  0.2358982561469244  0.9732484496231206
  0.8367058422701341  0.6643481816129708  0.3032883162558084
  0.9845691054264260  0.9574637564057717  0.2870135628293998
  0.5067475613157214  0.9717959272441412  0.6884105914037190
  0.0100167687862609  0.1095203823710243  0.3256490868282137
  0.3215007597768792  0.1674264367099262  0.1236766629517419
  0.4264052398822346  0.3053460877664244  0.6322682960328697
  0.2928382721639544  0.3071545209794985  0.5373609618563003
  0.2621477562355937  0.7419364664203002  0.2245155538422133
  0.4105592631891075  0.4836673129394473  0.4321996533462254
  0.9389306960963735  0.3480742592347447  0.7839879802568793
  0.3274342314211837  0.1750475109856593  0.4661594556745134
  0.6884881540802161  0.6142314114569957  0.3740745416884744
  0.3663097934279592  0.3434069261562224  0.3819387111749286
  0.5669558491178526  0.1834839721123656  0.6195081785833809
  0.4168048410965796  0.6267776913679335  0.7178933920643876
  0.6098390060696645  0.6152367805386072  0.9004009339104947
  0.9212578436313512  0.4072252548975792  0.2636162151819537
  0.9964358594715073  0.5569787391426442  0.7747496699400963
  0.1677213907757143  0.4346395569879619  0.5743645114279369
  0.4218936044776678  0.6325467723855061  0.5567425001254221
  0.2584111119118656  0.7577508150288862  0.5406461106768587
  0.7465331904585493  0.4938902069108420  0.5585130140468688
  0.5919427626748145  0.4195522418467688  0.2314744474175935
  0.9493513524469422  0.7233766102706604  0.5423265999028442
  0.3803394112786327  0.3808557929126782  0.2246856256918446
  0.5788650111515299  0.3689681436811302  0.9933629209034903
  0.8225320129989618  0.1707159531860655  0.3096510735317554
  0.5507432249005767  0.1544748195155845  0.0776895195200465
  0.8375407207574540  0.8532019314991661  0.1465376515387160
  0.6281854198517538  0.9187375190957933  0.1566650727898574
  0.3955803108676455  0.8565052431435068  0.2039434528064209
  0.1763543484922177  0.0826712801170770  0.3110092206515501
  0.4605101062168478  0.2897027866881114  0.7929465695993817
  0.0274112752868200  0.7502235835426619  0.2311991335993660
  0.2642604739867275  0.5061663170616498  0.0478632127239678
  0.9408680013873624  0.5992199509092516  0.4207017158235308
  0.5036245516495006  0.5363662058594054  0.3212705018093435
  0.1161412691593441  0.6666482713435810  0.5604231433241588
  0.2526661352519193  0.9481884235847267  0.8393808191693324
  0.6489623978110216  0.0656806370205842  0.9214913672187994
  0.1926113307852063  0.8751553955175860  0.9613927969258680
  0.7472937100634222  0.9172803263101029  0.0309716886008707
  0.1676789497746238  0.8806524515289742  0.5333811756151142
  0.7509963416374591  0.3454259845982408  0.8720309895573478
  0.7004964759195578  0.9885200819258206  0.3988385314259842
  0.6139632979243765  0.5055126318931086  0.4590448380077432
  0.8518829528039905  0.0258668555869491  0.3975005719672872
  0.5732959189867268  0.7799878071661283  0.5368674975830420
  0.7364062013798427  0.7120701591343647  0.1762925330360930
  0.7023611268791602  0.7923058409979891  0.4496356821873341
  0.8136099759750639  0.4986450357580904  0.2073830703470693
  0.6304624188437281  0.9702004075615857  0.7913009813377629
  0.0249261681945546  0.5254136883302621  0.3095230636361413
  0.0664058240253856  0.9972933555377365  0.8083490618680951
  0.1808146988414193  0.0934975244882961  0.1478065255942949
  0.2075056909842003  0.0916364392087374  0.6391698589953774
  0.3354756384194087  0.1953990220268186  0.8119096446856433
  0.9764033246320329  0.1335179652146897  0.1531766333006433
  0.6676486300246720  0.3147323678681122  0.4686909598944811
  0.8875098174685272  0.1858735288765155  0.6875568399365244
  0.1543693674648815  0.8639434443937288  0.7662351015047805
  0.0807554072686800  0.2631134603799444  0.4769560831790428
  0.4968184035545833  0.1314379703968171  0.7441445206740545
  0.8210680789420626  0.0578873855118534  0.6161872360066418
  0.5990563172941558  0.1955412370264751  0.8481762731614187
  0.5134046975127653  0.1811929343744516  0.2855085382251037
  0.4355457915499335  0.0461516155473057  0.0963554253615401
  0.8157326005666711  0.5680730953806739  0.8012435508879658
  0.7587549229706545  0.3350808012749600  0.5955916900244932
  0.9589448920675994  0.1374161250014972  0.9993961314221036
  0.6162707985860484  0.3994307137278589  0.8337472639976525
  0.0719901795352563  0.2673049564608830  0.6321449070889623
  0.0328094981226335  0.1178444874687861  0.6489210771699202
  0.0506393988595644  0.2691458832507093  0.3163910727084592
  0.6730137203396044  0.2821468369922958  0.2220108069509553
  0.7702595208511285  0.3212385131178936  0.3373770552916018
  0.6573639975163390  0.0759771647292973  0.1542564691843678
  0.9286949962655471  0.4791297640391211  0.6188634737925370
  0.7110856002623881  0.4726663075448543  0.3108430179714580
  0.0468274006916447  0.4281539358037154  0.7063651111216440
  0.1473581820129703  0.4001071449992354  0.0233264439621026
  0.9259616000014035  0.6806617881350829  0.8890359991117410
  0.0456781728450168  0.5225849354161941  0.5235818493526658
  0.6299345315890080  0.6108091657435788  0.2097428394471828
  0.4836754019483862  0.5041279729176177  0.7534553983620464
  0.2694663208390852  0.7351870905689754  0.7316994683665823
  0.1434270985908059  0.6317650707001430  0.2285288912573631
  0.6371403365675832  0.4969040557762641  0.6661526997937421
  0.2719812057506170  0.4156871530252531  0.7121563736903738
  0.4101763584015388  0.6488360008791512  0.2298738539604481
  0.0457937100449161  0.4137000051428459  0.4132620391022022
  0.3576770187356255  0.4032362701262484  0.8410443864319437
  0.3846195582373406  0.8594804515621974  0.8632160985397876
  0.8414642219715438  0.0034404407479732  0.2248235322476980
  0.6751763782983328  0.0781098249078036  0.6698412239478470
  0.7755861128100435  0.3425597608610970  0.1055543540919429
  0.1596195372236976  0.3585599302261833  0.8140521655523615
  0.6869739309526041  0.6288940251128285  0.7549286034508866
  0.9271512805413216  0.9157428849011715  0.8238706244204043
  0.6636655364668591  0.4703346629273017  0.0633658398628494
  0.6484304531373337  0.8457064398132348  0.6843445794935510
  0.4082094257373156  0.8043158451385787  0.5286623528671784
  0.2724494362735366  0.5092906847635191  0.2380936166329850
  0.2732577610469589  0.5448245127456651  0.3887526019458840
  0.3978502632002544  0.8506747586855076  0.0322450289980601
  0.1241367455895818  0.6502276929234647  0.4024223962375419
  0.0558146427712438  0.9799773746949001  0.1509826208375973
  0.1823027865137490  0.1042058863235718  0.4788545209085372
  0.0621770965264902  0.9879231620234318  0.9619943995354699
  0.8821667471400063  0.6357208171386740  0.6738846987574801
  0.2443469354117311  0.2536596537892437  0.6764471221638194
  0.8426179160614428  0.2302955470705438  0.9322456789619255
  0.2888918418507085  0.7310671125485737  0.8982046043325274
  0.8116069674045144  0.4200406781895432  0.7466230421390809
  0.3707591877022636  0.6441104195886772  0.0588763119417894
  0.2430685414080624  0.7643538028408787  0.3838054192297199
  0.8717242168398583  0.0016864337058334  0.9580922565838862
  0.6138700761596013  0.3271212472655466  0.6793736329153129
  0.9208565709693814  0.3248343878304714  0.5824356943335834
  0.7098624943525145  0.2176067296272288  0.0016759338652117
  0.3850333568699127  0.6854924929292027  0.3819043973388745
  0.9459923596539140  0.1280318323921022  0.8180326728891190
  0.1000885424696293  0.4697644768387307  0.9002785702730732
  0.9816893271342115  0.9542292056114432  0.6446628368762286
  0.4752350801218966  0.0014631781229504  0.8689594618494544
 
  0.25136587E-02  0.12167985E-02  0.64694459E-03
 -0.84657695E-04  0.21079522E-02  0.23805437E-03
 -0.19803002E-02 -0.16459975E-03  0.75741464E-03
 -0.38718433E-02 -0.12742303E-03  0.14250772E-02
  0.23574545E-03  0.39228469E-03  0.69422675E-03
  0.23603541E-03  0.90163753E-03 -0.14868946E-02
  0.15064204E-02 -0.30009630E-02 -0.13133211E-02
  0.12693715E-02  0.55498557E-04  0.97899744E-03
  0.78476219E-03 -0.23253833E-02 -0.15411791E-02
  0.14439880E-02  0.22355579E-03  0.14760752E-02
  0.72278802E-03 -0.25837341E-02  0.20497030E-02
 -0.23192222E-02  0.25033678E-02 -0.72970757E-03
 -0.49925782E-03  0.22908739E-02 -0.15733054E-02
  0.10149657E-02  0.18889040E-02 -0.96520846E-03
 -0.18621683E-03 -0.40808342E-03  0.26240603E-02
 -0.33488538E-02 -0.25698392E-02 -0.52569898E-04
 -0.71659618E-03 -0.32762134E-02 -0.28392203E-03
  0.87350670E-03  0.16540419E-03 -0.24399886E-02
  0.59495055E-03  0.12187202E-02  0.24225860E-02
  0.29717834E-03  0.18815389E-02 -0.29202685E-02
  0.16651877E-02 -0.48471688E-03  0.11601014E-03
 -0.96744787E-03  0.91835799E-03  0.31186970E-02
  0.26368429E-02 -0.18306125E-02 -0.31094111E-02
  0.31791233E-03 -0.71239890E-03  0.33768610E-02
 -0.32239163E-02  0.30141853E-02  0.54098951E-03
  0.93381253E-03 -0.19686041E-02  0.31757869E-02
 -0.40388996E-03 -0.15034814E-02 -0.11074200E-02
 -0.14196920E-02  0.70914863E-03  0.16399625E-02
 -0.15088498E-02 -0.14621346E-02 -0.44383164E-02
 -0.15982128E-02 -0.73230959E-04 -0.13160974E-02
  0.22039602E-02 -0.51105617E-03 -0.16262595E-03
  0.16300615E-02  0.65740949E-03 -0.17769106E-03
  0.40850718E-02 -0.14587238E-02  0.15154724E-02
 -0.11181607E-03  0.12269993E-03  0.11808861E-02
 -0.57825383E-03  0.95140670E-03  0.70722167E-03
  0.72546645E-03  0.52356048E-03  0.12031070E-02
  0.11534868E-02 -0.50486379E-03 -0.38521836E-03
 -0.77570909E-03 -0.12043364E-03  0.90170071E-03
  0.68754896E-03 -0.16409104E-02 -0.25883111E-02
  0.97608392E-03  0.18925165E-03  0.49987916E-03
 -0.31776494E-03 -0.17707958E-03  0.87072686E-03
  0.15195533E-03  0.18225971E-02 -0.18265999E-02
  0.47271910E-03  0.21912694E-02  0.47886914E-04
  0.17496417E-03 -0.17520493E-02  0.10595643E-02
 -0.40188130E-02  0.19271253E-03  0.75955919E-03
 -0.10459836E-02 -0.13682218E-02 -0.22630054E-02
 -0.15116997E-02  0.24268087E-02  0.52310924E-03
  0.92277692E-03  0.14500758E-02 -0.17045083E-02
  0.16470227E-02 -0.17536316E-02  0.27903052E-02
  0.33848034E-02 -0.27933008E-02  0.11060146E-02
 -0.10786576E-02 -0.16417328E-02  0.16286876E-02
 -0.94302819E-03 -0.24126479E-02 -0.14008878E-02
 -0.90190928E-03 -0.12250300E-02 -0.16031932E-02
  0.10522425E-02 -0.10872828E-02 -0.58373809E-03
  0.34986381E-02 -0.44378560E-03 -0.13949201E-02
 -0.60864160E-03 -0.90510091E-03  0.86344586E-03
  0.43744677E-02 -0.91345784E-03  0.48667268E-03
 -0.36022526E-03  0.12430917E-04  0.11397158E-02
 -0.15761878E-02 -0.89633304E-03 -0.13921542E-02
 -0.13428927E-02  0.11395697E-02 -0.49693655E-03
 -0.17743360E-03  0.11931782E-02  0.21103781E-02
 -0.20158012E-02  0.78757677E-03  0.39860693E-03
  0.22469556E-02  0.10461784E-02 -0.15736499E-02
  0.19680948E-02 -0.77384764E-03  0.34566012E-02
  0.19366320E-02  0.30614316E-02 -0.73727441E-04
 -0.34959430E-03 -0.45220410E-03  0.38425083E-03
  0.17305558E-02 -0.20447674E-03 -0.78539260E-04
 -0.23496007E-02 -0.21725035E-02 -0.18749635E-02
 -0.10446410E-02  0.25815077E-03 -0.25023170E-02
 -0.24648403E-04  0.25806321E-02 -0.14353967E-02
  0.18175010E-02  0.20793718E-02  0.77451457E-03
  0.13774335E-03  0.70669356E-03 -0.27866532E-02
  0.91998929E-03 -0.12025074E-02 -0.44305737E-02
 -0.15557372E-02 -0.88508033E-03 -0.61327855E-03
  0.70638166E-03 -0.15577535E-03  0.42912636E-02
 -0.88837061E-03  0.37589490E-02  0.18486898E-02
 -0.40043754E-03  0.88575224E-03  0.32493536E-03
  0.83511584E-03  0.23062592E-02  0.24022102E-02
  0.50831952E-03 -0.12540969E-02 -0.20916623E-02
  0.16297587E-02  0.18554915E-02  0.59204650E-03
  0.10525311E-02  0.89820248E-03 -0.29434954E-02
  0.33731439E-02 -0.69356730E-04 -0.17726779E-02
 -0.46565391E-02 -0.48091860E-02  0.32262503E-02
  0.15616274E-02  0.76450881E-03 -0.12413749E-02
  0.10348169E-02  0.24239906E-02  0.68043442E-03
 -0.10842240E-02 -0.25703698E-02  0.12275618E-02
  0.13536332E-02 -0.11555322E-02 -0.56904212E-03
 -0.10044364E-02  0.31867292E-02 -0.13851585E-02
 -0.15588845E-02  0.24878290E-03  0.17954444E-02
 -0.49954199E-03 -0.45697499E-03 -0.11072800E-02
 -0.96481796E-03 -0.75420939E-03 -0.84108743E-03
  0.42981630E-03  0.48106908E-03  0.27528450E-02
 -0.23396405E-02  0.13628692E-02 -0.26929995E-02
  0.57177735E-03  0.24364288E-02 -0.20545783E-02
  0.62722677E-03  0.23315339E-02  0.25310396E-02
 -0.19653594E-02  0.18122507E-02 -0.11193336E-02
 -0.19377840E-02  0.14792775E-02  0.38698746E-02
  0.23639115E-02  0.11258407E-02  0.15412743E-02
 -0.47358829E-02 -0.21189188E-02  0.10290025E-03
 -0.28996694E-03  0.84779903E-03  0.13766942E-02
 -0.11933332E-03 -0.26880644E-02 -0.72479515E-03
 -0.33792878E-02 -0.33503433E-03  0.20650451E-03
  0.13515305E-02 -0.87072724E-03  0.10670277E-02
 -0.51953256E-03  0.24699358E-03 -0.90636791E-03
 -0.59721517E-03  0.26172650E-03 -0.30840910E-02
  0.16707058E-02  0.21291663E-02 -0.87822551E-03
  0.65967252E-03  0.59770481E-03  0.28735919E-02
 -0.11713109E-02  0.25947896E-02  0.24162669E-03
  0.32655272E-02  0.38134084E-04  0.12083473E-04
  0.11707148E-02  0.20113534E-03 -0.22341004E-02
 -0.23952833E-02 -0.91206286E-03 -0.55834764E-05
  0.55914532E-03  0.58158595E-03 -0.14378230E-02
 -0.18497216E-02 -0.60196043E-03 -0.24997151E-02
  0.11307238E-02 -0.17551034E-02  0.19739613E-02
  0.40832814E-03  0.80081541E-03 -0.72580191E-03
 -0.22544933E-02 -0.21737624E-03 -0.23975184E-03
 -0.54373861E-03 -0.32555994E-03 -0.15927587E-03
 -0.20510370E-02  0.29761403E-02  0.12317969E-02
  0.28797049E-03 -0.11632086E-02 -0.29691056E-03
  0.40947916E-03  0.32009695E-03  0.97713979E-03
  0.17563347E-02  0.15453027E-02 -0.14585779E-02
 -0.17497255E-02 -0.65412843E-03 -0.21518326E-02
 -0.32931654E-02 -0.18185723E-02  0.76491484E-03
 -0.85800833E-03  0.14582464E-02  0.35185970E-03
  0.14581753E-02 -0.65409582E-04  0.37620745E-03
 -0.24664192E-02  0.20473247E-02  0.20812000E-02
 -0.16568601E-03 -0.12478718E-02  0.13532695E-02
 -0.10414490E-02 -0.19669890E-03  0.92658331E-03
 -0.27746472E-02 -0.14726852E-02  0.14915615E-02
  0.59202292E-03 -0.41184468E-03 -0.98020676E-03
 -0.22858026E-03 -0.81145150E-03 -0.18913947E-03
 -0.42374769E-02 -0.14662412E-02  0.37780480E-02
  0.88396611E-03 -0.91334560E-03  0.15161096E-02
  0.57973992E-03  0.90908107E-03 -0.19471787E-02
  0.18652773E-02 -0.96753974E-03  0.76592433E-03
  0.10064038E-02  0.18431094E-02  0.43530003E-03
  0.83273261E-03  0.11965450E-03  0.15309146E-02
  0.25669235E-02  0.21493392E-02 -0.32438533E-02
 -0.15433068E-03 -0.50889820E-03  0.13645084E-03
  0.30648499E-02  0.15059906E-02 -0.33876621E-03
 -0.17443618E-02 -0.31842872E-03  0.77174221E-03
  0.64931573E-03  0.58872200E-03 -0.17099512E-02
  0.53917434E-03 -0.80065350E-03  0.10051394E-02
 -0.34387638E-02  0.97095266E-03  0.20974962E-03
 -0.24587023E-02 -0.82744888E-04  0.11863183E-02
  0.44760942E-02  0.23813162E-02 -0.91783828E-03
 -0.60140836E-03 -0.70560527E-04 -0.20760927E-03
 -0.21581314E-02 -0.59470479E-03 -0.18542306E-02
 -0.34649237E-02 -0.86872301E-03  0.17824813E-02
 -0.11212652E-02 -0.39000686E-02  0.24569824E-02
 -0.38336606E-03 -0.25214134E-02 -0.26811425E-02
 -0.21966428E-02 -0.18704119E-03  0.47128496E-03
  0.13099440E-02 -0.14175006E-02 -0.36867068E-02
 -0.21166990E-02 -0.57252092E-03 -0.19119040E-03
  0.34211124E-02 -0.32753193E-02  0.81015249E-03
 -0.65972252E-03 -0.15790561E-02  0.38405590E-03
  0.14747075E-02  0.10371122E-02 -0.21402432E-02
  0.15057238E-02  0.42171403E-03 -0.99289196E-03
 -0.15358336E-02 -0.54469087E-04 -0.10926947E-02
 -0.10001143E-02  0.87367338E-03  0.66954002E-03
  0.11650501E-02 -0.32075854E-02  0.52410216E-03
 -0.13755022E-02 -0.76808451E-03  0.14911209E-02
  0.34150777E-03  0.17888833E-03 -0.18314837E-02
  0.70002739E-04 -0.18620833E-02  0.18313411E-02
  0.76704303E-03 -0.87189996E-03 -0.66000449E-04
 -0.48352519E-03  0.25479197E-02 -0.30465636E-02
 -0.24886191E-03  0.12938762E-02  0.14321258E-02
 -0.10160691E-02  0.86221196E-03  0.22469722E-02
  0.27370240E-03 -0.16952908E-02 -0.19831735E-02
 -0.67129082E-03 -0.10969673E-02 -0.29026275E-02
  0.38190994E-03  0.37726107E-03 -0.12522609E-02
  0.80691006E-03  0.12481916E-02 -0.21685318E-02
 -0.35151598E-03 -0.24419445E-02 -0.15046829E-02
  0.21204476E-02 -0.50607271E-03  0.12848681E-02
  0.59420847E-04  0.22424868E-02 -0.21749991E-03
  0.32471318E-03 -0.21282807E-03 -0.22410352E-02
 -0.53889852E-03  0.36455019E-03 -0.22927203E-02
 -0.49098557E-03  0.94467856E-03 -0.15939269E-03
  0.21536284E-02  0.15485342E-02 -0.25622321E-03
  0.12513872E-02 -0.44324125E-03  0.33715820E-03
  0.98616074E-03 -0.19228234E-02  0.10040582E-02
 -0.34422521E-03 -0.11473785E-02  0.15007050E-03
 -0.10235948E-02 -0.80476932E-04 -0.77701681E-03
  0.17671041E-02  0.86166022E-03  0.19437333E-03
  0.13469930E-02 -0.15882841E-02 -0.26728481E-02
  0.10459420E-02  0.90031928E-03  0.22594392E-02
  0.93037931E-03  0.18194979E-02  0.12080462E-02
 -0.65487339E-04  0.17842571E-02  0.24458473E-03
 -0.51498172E-03  0.39732746E-03  0.22304391E-03
 -0.30919558E-02  0.34956691E-03  0.19759316E-02
  0.10579275E-02  0.18316190E-02 -0.25247543E-02
  0.29527088E-02 -0.35100299E-03 -0.14751593E-02
 -0.10462241E-02  0.97071301E-03  0.30345611E-02
  0.12715867E-02  0.13812250E-02  0.42735889E-03
 -0.30677802E-03  0.68761945E-03  0.22451583E-03
 -0.13876009E-02  0.60382565E-03 -0.71484328E-03
 -0.21885092E-03 -0.88882925E-03 -0.62844968E-04
 -0.25363389E-03  0.13540673E-02  0.13365658E-02
 -0.22423206E-02  0.19065106E-04 -0.56569035E-03
  0.39302593E-03 -0.95286884E-03  0.22296571E-02
  0.29119845E-02  0.14071458E-02  0.92355854E-04
 -0.24156177E-02 -0.63027001E-03  0.45691832E-03
  0.23548861E-02 -0.51314836E-04 -0.28564618E-02
 -0.10748944E-02 -0.12525784E-02  0.14636675E-02
  0.19510735E-02 -0.39528737E-02  0.16464770E-02
  0.39498377E-02 -0.16646122E-02  0.20127828E-02
  0.28567700E-02  0.15194509E-02  0.21548374E-02
  0.14921931E-03 -0.51990342E-03 -0.91130400E-03
 -0.12987441E-02  0.16303286E-03 -0.94256724E-03
 -0.35037406E-02  0.81374308E-04 -0.54477728E-04
  0.26893271E-02 -0.26159001E-03  0.15227216E-02
 -0.15653814E-02 -0.44116261E-03  0.15466444E-02
 -0.36270365E-03 -0.27941353E-03  0.12546465E-02
  0.90498874E-04 -0.11350102E-02 -0.15633803E-02
  0.12278054E-02 -0.62138343E-03 -0.13533028E-02
 -0.17715358E-02  0.21997019E-02 -0.85155312E-04
 
           1
   5.00000000000000     
  0.10000000E+01  0.00000000E+00  0.00000000E+00  0.00000000E+00
  0.12536014E-01  0.95434766E+00  0.49398324E+00
  0.55304699E+00  0.68753174E+00  0.40953421E+00
  0.96308108E+00  0.89380260E+00  0.56919097E-01
  0.37975710E+00  0.30130358E+00  0.40963023E-01
  0.78939487E+00  0.93562514E+00  0.74078620E+00
  0.37293255E+00  0.94441665E-01  0.94095272E+00
  0.95087489E-02  0.11232070E+00  0.48670915E+00
  0.72913324E+00  0.20994792E+00  0.75816495E+00
  0.25585579E+00  0.75001835E+00  0.62171970E-01
  0.28324850E+00  0.97403235E+00  0.18492245E+00
  0.40759648E+00  0.84283826E+00  0.37025487E+00
  0.53149376E+00  0.37080356E+00  0.53664929E+00
  0.49357016E+00  0.26388870E-01  0.44112900E+00
  0.53093038E+00  0.94323516E+00  0.10513310E-01
  0.21749148E+00  0.24692643E+00  0.31617967E+00
  0.83220775E+00  0.20045799E+00  0.15929963E+00
  0.52578717E+00  0.73306911E+00  0.71954207E+00
  0.51563656E+00  0.32432905E+00  0.36270635E+00
  0.57466114E-01  0.76595809E+00  0.57418017E-01
  0.79150212E+00  0.88672094E-01  0.85561523E+00
  0.19674495E+00  0.11561002E+00  0.97749909E+00
  0.51438079E+00  0.74940653E+00  0.87314700E+00
  0.74293883E+00  0.89783299E+00  0.54362289E+00
  0.84814987E+00  0.14921487E+00  0.48931196E+00
  0.56701295E+00  0.87769252E+00  0.35614074E+00
  0.97698919E+00  0.37207170E+00  0.93404785E+00
  0.56353537E+00  0.59531117E+00  0.53115725E-01
  0.72788825E+00  0.50270107E+00  0.92340908E+00
  0.89010636E+00  0.81273230E+00  0.32040376E+00
  0.95527711E+00  0.36850142E+00  0.11761097E+00
  0.74957761E+00  0.80830657E+00  0.81477870E+00
  0.14210705E+00  0.41835749E+00  0.24576922E+00
  0.24724150E+00  0.30798447E+00  0.17852764E+00
  0.77597999E+00  0.67179811E+00  0.51733829E+00
  0.42710818E+00  0.44490241E+00  0.99248146E+00
  0.70886115E-01  0.25059211E+00  0.16429121E+00
  0.73394260E+00  0.69116113E+00  0.95263401E+00
  0.36234271E+00  0.11651454E+00  0.60869423E+00
  0.16344994E+00  0.62128445E+00  0.76397772E-01
  0.28081760E+00  0.52685361E+00  0.89743148E+00
  0.60045086E+00  0.96748645E+00  0.57589511E+00
  0.56927450E-01  0.47746728E+00  0.12517424E+00
  0.66982691E-01  0.23079101E+00  0.81559988E+00
  0.47555527E-01  0.76748554E+00  0.90592214E+00
  0.20204520E+00  0.40619429E+00  0.42056513E+00
  0.25653678E+00  0.57054881E+00  0.71414856E+00
  0.83749385E+00  0.49216710E+00  0.42784178E+00
  0.43921726E-01  0.77801755E+00  0.38995472E+00
  0.62580137E+00  0.84884597E+00  0.90382717E+00
  0.74041924E+00  0.90644773E+00  0.28159833E+00
  0.87759899E+00  0.45972560E+00  0.12535888E-01
  0.75255760E+00  0.73086052E+00  0.65564388E+00
  0.58300128E+00  0.61386320E+00  0.56168482E+00
  0.11464082E+00  0.65472850E+00  0.73883915E+00
  0.15507219E+00  0.87414552E+00  0.18485576E+00
  0.47627949E+00  0.21443731E+00  0.95027928E+00
  0.85104391E+00  0.81009024E+00  0.94784530E+00
  0.96106992E+00  0.75544822E+00  0.74609989E+00
  0.77495722E+00  0.88655267E-01  0.67472402E-01
  0.51053228E+00  0.73610236E+00  0.74412517E-01
  0.42695721E+00  0.45604666E+00  0.62753406E+00
  0.14407341E+00  0.64134232E+00  0.90059480E+00
  0.87675986E+00  0.86342259E+00  0.46370376E+00
  0.53473840E+00  0.74065468E+00  0.23224458E+00
  0.94519043E+00  0.62357960E+00  0.20995660E+00
  0.50146850E+00  0.97268367E+00  0.23614484E+00
  0.97406536E+00  0.57574364E+00  0.99406243E+00
  0.38645244E+00  0.96829248E+00  0.54923806E+00
  0.91381227E+00  0.68935529E+00  0.74591288E-01
  0.50506449E+00  0.18125898E+00  0.45279383E+00
  0.78392889E+00  0.60888853E+00  0.71118824E-01
  0.66014360E+00  0.11535188E+00  0.31083087E+00
  0.86607170E+00  0.84549882E+00  0.64018147E+00
  0.24996395E+00  0.93028640E+00  0.65669040E+00
  0.26435605E+00  0.98107481E+00  0.44449874E+00
  0.50861303E+00  0.28597313E+00  0.15125626E+00
  0.60638770E-01  0.81521933E+00  0.62596900E+00
  0.37438950E+00  0.12534511E-01  0.32780150E+00
  0.90722975E+00  0.34718590E+00  0.43148154E+00
  0.26167857E+00  0.28576458E+00  0.92060617E+00
  0.14676595E+00  0.89800042E+00  0.34640809E+00
  0.18070688E+00  0.10910345E+00  0.82800364E+00
  0.65393720E+00  0.15475314E+00  0.46702423E+00
  0.65419416E+00  0.77744862E+00  0.53869430E-01
  0.29332719E+00  0.96945809E+00  0.28380371E-01
  0.35754712E+00  0.15925488E+00  0.28319642E+00
  0.25309489E+00  0.55622783E+00  0.55975606E+00
  0.40419106E+00  0.62396160E+00  0.90786155E+00
  0.47284315E+00  0.49856391E+00  0.13294747E+00
  0.41056959E+00  0.84008740E+00  0.69232385E+00
  0.86131805E-01  0.23569785E+00  0.97302496E+00
  0.83682005E+00  0.66447601E+00  0.30401978E+00
  0.98394743E+00  0.95782589E+00  0.28629800E+00
  0.50689949E+00  0.97244332E+00  0.68786466E+00
  0.10183431E-01  0.11013990E+00  0.32632162E+00
  0.32097854E+00  0.16790797E+00  0.12337924E+00
  0.42589035E+00  0.30573915E+00  0.63329657E+00
  0.29346639E+00  0.30745367E+00  0.53777050E+00
  0.26088937E+00  0.74137344E+00  0.22454290E+00
  0.41048222E+00  0.48389258E+00  0.43256546E+00
  0.93889899E+00  0.34736001E+00  0.78379539E+00
  0.32653631E+00  0.17495849E+00  0.46621433E+00
  0.68884727E+00  0.61400005E+00  0.37435806E+00
  0.36617175E+00  0.34347256E+00  0.38169788E+00
  0.56679716E+00  0.18355352E+00  0.61868870E+00
  0.41724877E+00  0.62734344E+00  0.71766004E+00
  0.61001429E+00  0.61539560E+00  0.90116448E+00
  0.92094661E+00  0.40791472E+00  0.26368042E+00
  0.99730355E+00  0.55698887E+00  0.77475288E+00
  0.16803246E+00  0.43469300E+00  0.57377088E+00
  0.42125715E+00  0.63230443E+00  0.55674102E+00
  0.25855968E+00  0.75790535E+00  0.54026406E+00
  0.74604170E+00  0.49373026E+00  0.55784881E+00
  0.59224321E+00  0.41908589E+00  0.23199895E+00
  0.94945985E+00  0.72358940E+00  0.54213375E+00
  0.37974036E+00  0.38079803E+00  0.22462192E+00
  0.57872053E+00  0.36888164E+00  0.99332060E+00
  0.82198703E+00  0.17150675E+00  0.30997838E+00
  0.55081974E+00  0.15416574E+00  0.77610627E-01