POSCAR file written by OVITO Basic 3.10.
   1.00000000000000     
    22.0610166378000017    0.0000000000000000    0.0000000000000000
     0.0000000000000000   22.0610166378000017    0.0000000000000000
     0.0000000000000000    0.0000000000000000   22.0610166378000017
   Ge   Sb   Te
    68    68   170
Direct
  0.7705123848516672  0.7467905752631864  0.6176786905829856
  0.2739443198471573  0.2692705542217239  0.1039529963969940
  0.9809672960661938  0.7887725965193932  0.2275584961009673
  0.9769994106348135  0.2215119072476881  0.1143005931621820
  0.4938015647337358  0.5601576771605593  0.1209192669940057
  0.5617255220724696  0.9038808672942865  0.8662994965242572
  0.0721114780119525  0.6756520892275398  0.1236648971595946
  0.9191791725153768  0.7961881083042023  0.7269707158181229
  0.9787488348298801  0.2462752941770779  0.9348479658183452
  0.9891211628247235  0.2803861646642537  0.2198958544698848
  0.3468785966835898  0.1514326810069680  0.3585863558083561
  0.5659022985204792  0.3981430356338253  0.5956779542762528
  0.9451513215004301  0.2311507435668929  0.7695200214197770
  0.3330718572250023  0.3396584608084906  0.3170670660942860
  0.1991394339998128  0.9322122304404941  0.2584056120095068
  0.1040233562451480  0.7520094505609226  0.6282443853083060
  0.6031832388649281  0.4906573436774481  0.6543468077438914
  0.6357611995334955  0.4887060267788700  0.4884825593184348
  0.1235989576042339  0.1147184950869268  0.3828589025007035
  0.8627665830920306  0.0298061137751311  0.0668508143428466
  0.7452701608013294  0.4170865412215348  0.6394842582507831
  0.3876164069155513  0.4088096087161538  0.4991238150807109
  0.4122343655750458  0.6126570500133967  0.0092585498619298
  0.3658626150668225  0.6615670678435862  0.5600661671608819
  0.1437404508562949  0.8692571042695441  0.5906972312075163
  0.8339512869547242  0.4592106674869257  0.3740206087085004
  0.1486808453737377  0.5922811453157173  0.3176971644412624
  0.8143331625621365  0.5761760573431799  0.4008646085198049
  0.6340703023412104  0.2800174170974351  0.2452878115995112
  0.7704968507576091  0.2521557148466952  0.4482213985427681
  0.9384738292593561  0.6371992257146171  0.6975001218761504
  0.6169201131100637  0.7177679040494986  0.2010652614198559
  0.4396745735833044  0.2093706769788239  0.0117392178391370
  0.9469220155438541  0.4331099332453923  0.9072408163620560
  0.8366206226377256  0.8288222834893985  0.8804071681529739
  0.5703085591228254  0.0271580674775388  0.7065374469313899
  0.3472635054095269  0.8333421353465057  0.1602855640027952
  0.9304025648203823  0.9607249251582725  0.7915103846005754
  0.4107315397967631  0.9197647392143292  0.0218257158707342
  0.4514295591498120  0.9652427872910067  0.8540444310192938
  0.7482050904313603  0.9387659334275765  0.4429926767040873
  0.5366634371589776  0.6156631254495792  0.3360210136612842
  0.1849397944423900  0.6120897935889549  0.5029845570500369
  0.1579439507691053  0.2643443312908751  0.1235969762637201
  0.3441067188579387  0.6286779689552993  0.9204138965713932
  0.9696873169440565  0.5894046839149687  0.8893543822237969
  0.5908291452827548  0.7388595755412495  0.6936494867666253
  0.7575314273320638  0.8101265366478159  0.1159130199396847
  0.1413240612857599  0.7585003511055489  0.4545262377486065
  0.9479913152230274  0.1196295474799770  0.1984599875111170
  0.1397871428126325  0.9533411236274691  0.4461842189082377
  0.8203101015431591  0.2525820876210934  0.7253593411060397
  0.2231963262366248  0.6996702878360351  0.2336296950721122
  0.3278673989941087  0.9936377878178960  0.6773520536596355
  0.0210375374156217  0.0107626928523411  0.0956933348886097
  0.3480212061730268  0.9016213774171852  0.8522391371786355
  0.0983070466268320  0.1004612870964135  0.5472465941188147
  0.3162564162852754  0.8856213465690537  0.6014827014939234
  0.7409236466351243  0.6243229747595794  0.1451538277414673
  0.9550328246685940  0.8981994724087151  0.2065191258276203
  0.0792797776502561  0.7966165614070155  0.3517896543657583
  0.9732588270176112  0.9475038437593822  0.5796254489891551
  0.2514711496578323  0.6870659465688016  0.5613383479920024
  0.3189930657686657  0.9567742626919036  0.1514460137048333
  0.1841894866036547  0.8177859062797272  0.9874196241179516
  0.6340761225937457  0.3458381367876733  0.4104153091363503
  0.2663980704138286  0.5472227486139388  0.9320800395457796
  0.6027118014591627  0.7989540680821616  0.7974569162547488
  0.3099271096251481  0.5121915330208752  0.1143813111965007
  0.5901010421420922  0.4022077828785874  0.1361518885491574
  0.4098582380215839  0.5630005547784220  0.6302660436188532
  0.4293184888270066  0.8870830894401021  0.2698182926764507
  0.0220284826195740  0.3481173871063563  0.0845449398081362
  0.4270646101170217  0.6038240018160956  0.8300075253669883
  0.7065890069484518  0.5513693432924710  0.9765307714101416
  0.0947198392363164  0.4716937549032832  0.8377360121068315
  0.2398829018496978  0.7324449506318598  0.8244955548438002
  0.1086519383741986  0.6086531777750296  0.7297540007360733
  0.3267748409043241  0.4432999101094100  0.9184645035863594
  0.7049111793614740  0.9501791312007576  0.6169511748356102
  0.1995466910668454  0.1618110797020680  0.5121679652493653
  0.3348161894949787  0.4012190144390735  0.6943083907412281
  0.6037746551985608  0.9033911740637995  0.1051014283660096
  0.6962683565203224  0.2803600761957565  0.7317163015288093
  0.2414208761250145  0.3748174820240802  0.6014308895622953
  0.0547659553367876  0.7558496100398723  0.8924642793606825
  0.7637569318019246  0.1617340309615643  0.3138928549142012
  0.2598864694370063  0.4740037673893196  0.4118749968310093
  0.9672902040499497  0.1013288733973338  0.0367308056378438
  0.3815321324636671  0.1288170942672874  0.7974068581111972
  0.3693676597214997  0.2440669676938783  0.1981829801806236
  0.7408851577869715  0.1196493256148453  0.0690889106482521
  0.5665433104029234  0.5331811440399492  0.9384309409317647
  0.1508088750630421  0.0282854420408339  0.6391605587230479
  0.8543176589025702  0.8886775724695291  0.2857450088672573
  0.9335636946081747  0.5818997375109458  0.5677943746468056
  0.0168123882789573  0.1200486507134539  0.6390351727106325
  0.7210747066018491  0.4248789158362410  0.0078769293233360
  0.2278122129275424  0.8262896377747018  0.1039911868655602
  0.2079225423915793  0.0973319456826470  0.7501421308759496
  0.8481309296840805  0.2103307275193970  0.0512026012678367
  0.0495729762295453  0.4080100349000546  0.6353557723244673
  0.7185377962557702  0.2502548194496209  0.9157259327269839
  0.8051924687477143  0.7481092365213660  0.4190486600991455
  0.7622842980977943  0.6881915198401412  0.9761860554023184
  0.0909924941373165  0.9977582370954881  0.9000404834386170
  0.6075828618516164  0.3637847261133246  0.7945974972305345
  0.4897553814861755  0.2034574565446318  0.4702288369307839
  0.9878730676146851  0.4033251890997586  0.4567299456902576
  0.4993343118559530  0.7805921157758366  0.4938239798098475
  0.6305771112423948  0.1731317938378207  0.7923846190404842
  0.5025510639320598  0.0916328859186715  0.1233633158443663
  0.4893940066373003  0.4436854537986402  0.3743281867253744
  0.2272353666212968  0.9008156466762900  0.9049947556192790
  0.6690736843268505  0.1391057962990958  0.5917287714746701
  0.0948601954527287  0.2991855810976101  0.7044411003581749
  0.3155009945927084  0.3004778524853465  0.9344965801856002
  0.5253038519432935  0.3525504511476191  0.4735367161070962
  0.4678564493163546  0.1228997966822790  0.5775041228851794
  0.3338186292682923  0.2781694139354079  0.7511818677682403
  0.1145769770727782  0.1850324229415110  0.2697829488214752
  0.3800529042963756  0.0656254677285909  0.5074092486664274
  0.9632684390911511  0.7664571077080456  0.0723372118058799
  0.4326100201582732  0.7641647963894617  0.7472965643243491
  0.1037160930509820  0.2812666409975361  0.0125277076483329
  0.3053471172494263  0.7519403272442272  0.9341206656489739
  0.8344491404623332  0.3174611834271284  0.5348073173061770
  0.5777853924419942  0.9161794087512488  0.5797250682092453
  0.0098624668441758  0.4412273724788064  0.2635447149841093
  0.5093550964168913  0.5073567823232936  0.7248391816095778
  0.8228528215349274  0.0352171979900297  0.9336896250556185
  0.6024474278350308  0.0785788584076828  0.2608371105677996
  0.4789060561770304  0.9407698237270105  0.4195448732805858
  0.8042517744537739  0.1223003118403351  0.8330849145051007
  0.5257838098164093  0.0686032591039716  0.9906731883335833
  0.5979348110566266  0.5984983689899860  0.5910722900529266
  0.7227243789789451  0.2611983030697370  0.0479966297804628
  0.5082600197794054  0.7777317497073366  0.2010964125117119
  0.6036563667912551  0.7846126640584294  0.5862236964434976
  0.3237424576522406  0.0671281173662421  0.2443630891143828
  0.6581364185262929  0.1131263232004144  0.3906134602952587
  0.8248111148372529  0.6066300735866333  0.0617913740254498
  0.0386673132799764  0.4977611297050569  0.9549787651808256
  0.9177238994567708  0.3492736187977654  0.0015533333771879
  0.0651113906676433  0.8457041637880565  0.9843447628432578
  0.4415218735557730  0.9649067085908329  0.1409941934907027
  0.1469897505811621  0.8325956407933001  0.8228309919762293
  0.2462204517515857  0.2101775416541451  0.0004308254391498
  0.6133371097051397  0.6141290036894650  0.8231350582061416
  0.5370572420674119  0.9484108240179843  0.3029518572446799
  0.9048378361823278  0.4537341569513136  0.5426132174511114
  0.0491990437691916  0.0366700646452833  0.4545934273554544
  0.8319060900403406  0.0634047282920263  0.1807446275909219
  0.9004390121768828  0.7174443172134294  0.1758459988227371
  0.5751812021623565  0.5984748097732586  0.2103682396387591
  0.5038167367493975  0.3734728145505958  0.7002202526959427
  0.6787056067081678  0.8388802740292143  0.2093575932303822
  0.4201881973448773  0.9507140965892755  0.5652238329540770
  0.5991701261065875  0.8982382886959659  0.4531984024701021
  0.5063347536882886  0.3209440730953529  0.3429842515627902
  0.1347522531572209  0.8993568636953015  0.1610893252793686
  0.7467068074373219  0.5704149371864314  0.5058312596264234
  0.0713546984501793  0.0596948475138029  0.7769538289010598
  0.9260467178386758  0.0702987329528737  0.5631851419907070
  0.5097093188960573  0.6435863566034276  0.6790590995623585
  0.3004758502514898  0.4983263228263642  0.5453825222890580
  0.7319312935025285  0.8420930852336108  0.3625894046290800
  0.7406622773317847  0.4095591945119182  0.4689663022753663
  0.5352087871695903  0.7070364543985651  0.8515375293512759
  0.7014313191302874  0.0177635685341779  0.3076548696607138
  0.9552971216857691  0.7866021486964757  0.3483514032984704
  0.7120524864319580  0.8953456106339027  0.0349626541936406
  0.5472907295874976  0.9451179901819395  0.9871834120537073
  0.1729049138380616  0.6983750473469076  0.9546001513231529
  0.3177650473688071  0.1187900663676469  0.6707262182030606
  0.2270080923935294  0.3827066021577834  0.0945253069341175
  0.0914760554017367  0.7373805990252351  0.2481506735291922
  0.0250282146181838  0.0036176975342033  0.2114737979635705
  0.3946792943725854  0.3156048221780713  0.0427564415106435
  0.8836023953602258  0.0123818548958088  0.3262225572229694
  0.8891973616314748  0.6806045128228334  0.8025969589063402
  0.0872457569074267  0.6738709555543529  0.5304185155292926
  0.0926555231442753  0.9205666433607936  0.3303158485474409
  0.7078619566767952  0.3656026411573909  0.1752141022813596
  0.1251942996442006  0.1032629708624480  0.9763740170456640
  0.5938931486098200  0.3855258517830040  0.0074368214994665
  0.1131184409562451  0.3226308122449519  0.2304103489594698
  0.3394798680537796  0.9571404825479402  0.3223096788877047
  0.9141079520360659  0.3585093236023416  0.2751914810107054
  0.1879737361434695  0.2433102500598608  0.6330649415434568
  0.4117568096100373  0.0544715327551938  0.9317174765991793
  0.5305951085599011  0.2898348341627991  0.1671023069318661
  0.9997098872375304  0.5300528822921349  0.7664105747901520
  0.1895465810773610  0.5659342191372635  0.8416262061796949
  0.0605129886631067  0.9429901669737778  0.6715410844822718
  0.0944415827659568  0.5586202502188682  0.6049645403719974
  0.7257384478275188  0.6987404987970998  0.5054921028320197
  0.8264928455157808  0.1366649671737519  0.4387239313618925
  0.6964318138113672  0.0871913987620456  0.9553994041159487
  0.7851501610277852  0.8396109517348984  0.7442150003501622
  0.0652810009025836  0.8610516824209176  0.5008517790781740
  0.8591417901064473  0.5231748778422461  0.9119106645497224
  0.8544251618398623  0.2243578359628898  0.8876167648245945
  0.2250884140004067  0.9674808911893463  0.5585450444511539
  0.2851244497668619  0.9515574102808387  0.0335217236747070
  0.8466410198424076  0.4958414316823176  0.7846066375927636
  0.7519451836712872  0.0439349407928408  0.5326528112039863
  0.3814309392065818  0.1432056189094888  0.1008760416099513
  0.2690963896377151  0.2336240775880868  0.2775449520126629
  0.6564520138172645  0.2219715545371987  0.4673684447338396
  0.8522621876759837  0.3666234106773877  0.6989388749953162
  0.8335132513012453  0.5704499121573137  0.6517057950905667
  0.8516422004278864  0.7857660461153702  0.0021373438328879
  0.5867850053034341  0.2544696690332554  0.8880859895469319
  0.9872345659928895  0.2504170526081507  0.6479504819039902
  0.7409085779637306  0.3701654011329573  0.8856320795976469
  0.8926469432752565  0.7284122764627214  0.6121214798142017
  0.7572135027691225  0.4871043701481024  0.2888033415709380
  0.9618554633713707  0.8457775297991788  0.8475034761664146
  0.5737480563711779  0.0565930005933430  0.5432075353428714
  0.9861055862212998  0.1796150773064513  0.3065185850278667
  0.3667851064820533  0.3257317298210501  0.6005568326045487
  0.4594266239913594  0.0847159900677846  0.4055040982125343
  0.2716044889285333  0.1177934344431961  0.8672518182100669
  0.3450423600717469  0.4061195423947353  0.1930041552005050
  0.2388996087409463  0.0661701150965660  0.4180762838122534
  0.9172774398952248  0.6366426032405922  0.4511541015922915
  0.2809837057809717  0.3496470683602501  0.4320969437571471
  0.0278129784300715  0.5514562433963950  0.4112108149780244
  0.9110204864657114  0.1025447227114528  0.7612891158454225
  0.7848778822703308  0.6103130881533505  0.8058937783261354
  0.2058905490825816  0.7005972519266185  0.1111938508656936
  0.4021246246165762  0.7932676938938089  0.0640292203520372
  0.5325704689664759  0.6318614485137927  0.0107004163837526
  0.1806077025824409  0.3750301514750926  0.9724383845895099
  0.4089380525311260  0.4871249943853858  0.0214709450555852
  0.2416887700825611  0.4145589488548002  0.2676238164412159
  0.6922134829740690  0.0770266405979530  0.7091844385975478
  0.3170235778162411  0.8323134536891371  0.7535646379592472
  0.6123428056154980  0.4990787529277816  0.3659819416336624
  0.8287546144185649  0.0699597463959416  0.6466419170107278
  0.8076135315376085  0.9480811899827737  0.8370705885698370
  0.2386308529301013  0.4162780965368302  0.8126131417856749
  0.8728754397980909  0.9586907878500225  0.4429693141376533
  0.4499777241902874  0.1641076502391941  0.2694815919971311
  0.7770243684484301  0.8708553012015678  0.5433297610083853
  0.8029815908456608  0.2045076931769824  0.6026068909540715
  0.0937579317797385  0.5610160360735602  0.1691347073640781
  0.2283446973939405  0.2902627630272133  0.8284460781074801
  0.7315579266069230  0.7442258281341417  0.8077291428985666
  0.3369847082677895  0.6347126253979661  0.7575197847378012
  0.3643043444022799  0.2221618027847858  0.4683863304433744
  0.2375306898220172  0.6584973278990173  0.3926568487410865
  0.4874810781556296  0.4978174466431705  0.2365187660712464
  0.8892447022265211  0.9107286328826848  0.6707504353732232
  0.4860618696532138  0.5047963770343350  0.5372767723264927
  0.0393479369374730  0.7210319766273221  0.7253490486852469
  0.1434415354730862  0.0011432998455588  0.0571855111893846
  0.0079251277377884  0.6581246442061744  0.0087412913962095
  0.6601970176816041  0.5359445102795299  0.0932737726007327
  0.9663200960912536  0.0030297409412295  0.9455961865381963
  0.2020405102930425  0.5382981842783080  0.0265812500837497
  0.2382967396935635  0.5740878661746603  0.2313311173821555
  0.2049441696954671  0.7070928727034514  0.6766096046760844
  0.0626770729324269  0.1933869300234314  0.8270544144851693
  0.7635131814686628  0.2908575805113204  0.3296609590540091
  0.2340936548570655  0.9758089983727231  0.7578898221928949
  0.7731179053065387  0.6656095261550573  0.3253000354121905
  0.8477483414568894  0.2095039009473667  0.1854652911471117
  0.1579423067366041  0.4645267776655253  0.6874756787995491
  0.9353224216897912  0.9216424453772415  0.0817709214185747
  0.6767565476796895  0.3201735166379769  0.6144633971979632
  0.9282748899517131  0.5417375922862269  0.3070254242181231
  0.0063689599028161  0.3201985883632466  0.8480905077230516
  0.0898789714157419  0.1563358019117364  0.1320698471452861
  0.6810598215330163  0.4661555559723166  0.7408453280304196
  0.9829286212826278  0.4939520850707023  0.1467665457094673
  0.5098670126490992  0.6510959821139446  0.4729370166054581
  0.8440454902035746  0.5234975642631425  0.1926357651522013
  0.3352409409223049  0.7554986537989329  0.2514472062163851
  0.4102021632272510  0.7694201631111705  0.5890915438452691
  0.6319876444882948  0.0224418237224480  0.1267253947559156
  0.1124021477689630  0.2221833499887361  0.4408029329537997
  0.6800136456648355  0.7172648058343712  0.0718551917566940
  0.2504119600187729  0.8036512168839686  0.5131992021850765
  0.3842003920377088  0.6284409445765122  0.1324225204972364
  0.4201953443704228  0.8288307021270200  0.3867212932641067
  0.4326186758592035  0.0157382088313143  0.7444050082695637
  0.7802015083286283  0.9383701750659384  0.1902815974959395
  0.5536995527633056  0.2132847252912846  0.0701216912371768
  0.1367441409694184  0.4667637301126529  0.3702056623785348
  0.4191974301345751  0.4686948752271245  0.8375883736654886
  0.5337661297983437  0.1547112045247845  0.7133623972880111
  0.3841502861625125  0.6578088934692674  0.4395277918361495
  0.6796890065009238  0.1663041411299147  0.2003132180596135
  0.0922725056760006  0.3867137289047545  0.5223199662789594
  0.4164691813633727  0.2718361102677767  0.8532158430487591
  0.4217831377643307  0.8041308608917374  0.8901258157382889
  0.7011363130998972  0.8236679348494828  0.9187903444931262
  0.9420896914735187  0.2707085478580842  0.4805618381604570
  0.6865414556359586  0.6542492390755433  0.6725618701492545
  0.5092098027191876  0.8707919715802590  0.7423695655806350
  0.5881546748417108  0.0182973936280977  0.8280491191924099
  0.4158447473014626  0.5672192115373552  0.3306806070770070
  0.5615416213748642  0.7450156581588336  0.3109680385896516
  0.1928488228752992  0.0505064431713778  0.2269606925600783
 
  0.22562574E-03  0.12742024E-02 -0.29244010E-02
  0.60541415E-03 -0.45382786E-03  0.36791597E-02
 -0.10205500E-02  0.69763278E-05  0.12717323E-02
 -0.32808534E-02 -0.21010277E-03  0.21121294E-02
 -0.11891696E-02  0.83819989E-03  0.23801210E-02
  0.23503859E-02  0.22070265E-02  0.23473169E-02
 -0.29065888E-02 -0.26126669E-02 -0.16621795E-02
  0.40948714E-03 -0.18534274E-02  0.20430789E-03
  0.18449981E-03  0.69405518E-03  0.36547826E-02
 -0.77236457E-03  0.94716763E-04  0.29664356E-02
 -0.75652193E-03 -0.35059080E-02 -0.22106836E-02
 -0.12023131E-02 -0.10944923E-02  0.95675887E-03
  0.93079285E-03 -0.15767133E-02  0.53898904E-03
 -0.26037882E-02 -0.23634856E-02  0.15707747E-02
  0.20716828E-02  0.12570400E-02 -0.37048047E-03
  0.38513644E-02 -0.26725188E-02 -0.76421211E-04
  0.37376038E-03 -0.17473217E-02  0.16766315E-03
  0.87773065E-03  0.82568983E-03  0.13105415E-03
  0.53324640E-03 -0.35346027E-03  0.18369532E-03
  0.18060392E-02 -0.60223116E-04  0.64867156E-03
 -0.31095515E-02  0.23372498E-02  0.44266915E-02
 -0.81433847E-03 -0.32548529E-02  0.29983896E-02
  0.18323266E-02 -0.74849994E-03  0.17161388E-02
  0.35156308E-03  0.38574596E-03  0.40723418E-03
 -0.64797901E-03 -0.79536887E-03 -0.24624334E-02
  0.26201825E-02  0.26780132E-02  0.12788721E-02
 -0.79612720E-03 -0.11533470E-03 -0.28758333E-03
  0.15795687E-02 -0.17920830E-02  0.24880670E-02
 -0.68288538E-03 -0.21944738E-02  0.12035135E-02
  0.15284615E-02  0.15613674E-02  0.95800385E-04
 -0.10818698E-02  0.29995942E-02  0.76067051E-03
  0.37401755E-03 -0.40886348E-03 -0.56872596E-03
  0.10906929E-02  0.23519994E-02 -0.13344249E-02
 -0.16440567E-02  0.14425265E-02  0.18997356E-02
  0.15626822E-02  0.13307220E-02  0.10133204E-02
 -0.16540632E-02 -0.36650606E-02  0.10133175E-02
 -0.94761850E-04 -0.23867686E-02  0.17571891E-03
  0.16589764E-03  0.25458199E-02 -0.34103064E-02
 -0.31630260E-02  0.18987822E-02 -0.18187724E-02
  0.74674558E-03  0.43493085E-03 -0.82993182E-03
 -0.89543614E-04  0.25142953E-02  0.13307437E-02
  0.12147368E-02 -0.13417000E-02 -0.22134197E-02
 -0.25218950E-02  0.16885371E-02 -0.71389527E-03
  0.19630450E-03 -0.29534145E-04 -0.15238228E-03
 -0.50171219E-03  0.10833721E-02 -0.27526405E-02
  0.17376885E-03 -0.19090711E-03 -0.36184957E-04
 -0.15021383E-02 -0.11655045E-02 -0.40947140E-02
 -0.18567529E-03 -0.31153605E-02 -0.99695465E-03
 -0.64090488E-03  0.19976088E-02  0.16391642E-02
  0.31099666E-02  0.24916642E-02  0.17819976E-02
  0.12985258E-02 -0.81908928E-03 -0.90163234E-03
  0.48222012E-03 -0.11174568E-02  0.10355706E-02
 -0.48451535E-03 -0.22259017E-03  0.65521839E-03
 -0.10865733E-02 -0.25233267E-03  0.34949133E-02
  0.25113822E-02  0.21263158E-02 -0.14603760E-03
 -0.28499868E-02 -0.27615699E-02 -0.74327164E-03
  0.12349771E-03  0.11127856E-02 -0.23041463E-03
  0.84999887E-03  0.26333934E-02 -0.21167975E-02
 -0.19713730E-02 -0.10320897E-02 -0.20577335E-02
 -0.21874605E-02 -0.83374858E-03  0.14211328E-02
  0.55754945E-04  0.10697869E-02 -0.23477659E-02
 -0.85397119E-03 -0.87489015E-03  0.68414098E-04
 -0.92272291E-03 -0.27911191E-02  0.15309891E-02
 -0.12232633E-02  0.24989074E-03  0.62057091E-03
 -0.19942049E-02 -0.21682351E-02 -0.10337229E-02
 -0.45160239E-03 -0.19127057E-02 -0.44815811E-03
 -0.14663541E-02  0.12143760E-02  0.21738833E-02
 -0.19814312E-02 -0.20969319E-02 -0.21546170E-02
 -0.11411728E-02 -0.34538164E-03 -0.52963895E-03
  0.15485206E-02 -0.50149456E-03 -0.24929738E-03
  0.39362748E-02  0.25391152E-02  0.78824293E-03
  0.32678214E-03  0.31461471E-02  0.14420846E-03
  0.74203562E-03  0.56944585E-03 -0.66315407E-03
  0.14092181E-02  0.43048111E-03  0.62399682E-03
  0.24134601E-04  0.27364981E-02  0.12078358E-02
  0.81338113E-03 -0.26756445E-02 -0.75603493E-03
 -0.29214904E-03 -0.32852780E-02  0.21218503E-03
 -0.19166492E-02 -0.22036053E-02 -0.10102780E-02
 -0.24045734E-02  0.78314376E-03 -0.21136414E-06
 -0.19762849E-02  0.30629240E-03 -0.18322098E-02
 -0.15680536E-02  0.21445822E-02 -0.57857823E-03
  0.15312168E-02  0.92629396E-03 -0.12832482E-02
  0.17627532E-02 -0.27846404E-02  0.27026906E-02
 -0.26228378E-02  0.18893433E-03 -0.19171015E-02
  0.31510050E-03  0.17729252E-02  0.34564324E-02
  0.11760226E-02 -0.36482712E-02 -0.71164855E-04
 -0.12825873E-02 -0.53057421E-03  0.27742434E-02
  0.10486362E-02  0.13342696E-02  0.39946055E-03
  0.10408976E-02 -0.63582997E-03  0.14323491E-04
 -0.34429248E-04  0.15033195E-02  0.28287299E-03
  0.13197148E-03  0.12091096E-02  0.72266469E-03
  0.22629534E-02  0.20039417E-02 -0.46141487E-03
  0.58955016E-03 -0.10058075E-02  0.15169644E-02
  0.15560330E-02  0.19234663E-03  0.10764772E-03
  0.17773222E-03  0.12563967E-03  0.20290420E-02
 -0.15668696E-02  0.12559999E-02 -0.13835686E-03
  0.16187395E-02 -0.62735067E-03  0.12497101E-02
 -0.11959457E-02 -0.42155374E-04 -0.19002056E-02
  0.89417946E-03 -0.17961271E-02 -0.11631289E-02
  0.38648063E-03 -0.79192594E-03 -0.38586187E-03
 -0.15243858E-02  0.13152715E-02 -0.26157535E-02
 -0.12483692E-02  0.14078335E-02 -0.60141292E-03
  0.11437948E-02  0.12498834E-02 -0.15355730E-03
  0.34720069E-03  0.21121826E-02  0.67654776E-03
  0.14948403E-02 -0.70903424E-04  0.12404231E-02
  0.18034597E-02  0.84330708E-03  0.85509804E-03
  0.23073977E-03 -0.44440369E-03 -0.36381177E-03
 -0.68503919E-04 -0.66733503E-03 -0.42469418E-03
  0.40061393E-03 -0.21136630E-02 -0.48625679E-03
  0.14605860E-02 -0.15752347E-02  0.24398696E-02
 -0.21724658E-02  0.27273593E-03 -0.38017193E-03
 -0.54943180E-03  0.11411870E-02  0.39379594E-03
 -0.14365837E-02 -0.27194999E-03  0.29775440E-02
  0.65114243E-03 -0.45017832E-03 -0.29417718E-03
  0.16033432E-02 -0.15199009E-03 -0.21292161E-03
 -0.31655532E-03  0.88923872E-03 -0.17411675E-02
  0.14075301E-02 -0.13263828E-02  0.14293629E-02
  0.16893086E-02  0.19750315E-02 -0.40022328E-02
  0.67762305E-03 -0.23023189E-03 -0.12936194E-02
 -0.45576575E-03 -0.26313921E-03 -0.14509145E-02
 -0.15026902E-02  0.66671662E-03  0.11609316E-02
  0.48534369E-03 -0.17969731E-02 -0.25973260E-02
  0.11183844E-02 -0.13183558E-02 -0.18117720E-02
 -0.10546853E-02 -0.27318702E-03 -0.12000549E-02
  0.70594697E-04  0.15590588E-03 -0.10574414E-02
  0.15904157E-02  0.16457395E-03 -0.11761761E-02
 -0.26114155E-02 -0.47573770E-04  0.25009188E-02
 -0.73498532E-03  0.53789884E-03  0.34988805E-03
  0.12970442E-02  0.83302581E-03  0.19669701E-02
  0.46556151E-03 -0.11899357E-02  0.29991777E-02
  0.23007238E-03 -0.63245388E-04  0.13518152E-02
  0.35760535E-03 -0.28161789E-02 -0.51480365E-03
  0.29533126E-03  0.25479604E-02  0.10641443E-02
  0.43470196E-03  0.56560674E-03 -0.50521913E-03
 -0.27804669E-03  0.64774358E-03  0.51856321E-03
 -0.37995963E-02  0.28185633E-03 -0.11238457E-02
  0.22189360E-02 -0.48481481E-03 -0.17096830E-02
 -0.85594617E-03  0.16361262E-02 -0.82496392E-03
 -0.32421862E-02 -0.31072943E-02  0.43184799E-03
 -0.17416531E-02  0.64684230E-03  0.21319538E-03
 -0.52398317E-03  0.11429742E-02 -0.56693541E-03
 -0.54494126E-03  0.33482733E-04  0.31272935E-03
 -0.10294045E-02 -0.33530339E-02 -0.10576655E-02
  0.37341505E-03 -0.26194275E-02  0.77922311E-03
  0.13635465E-02  0.63755379E-03 -0.21131114E-03
 -0.24775278E-03 -0.88696691E-03 -0.30384031E-02
 -0.64500287E-03  0.65152990E-03 -0.11099891E-02
 -0.16672917E-02  0.18948310E-03  0.94438098E-03
 -0.97176105E-03 -0.65802929E-03 -0.99823410E-03
 -0.12280159E-02  0.23021829E-02  0.11916091E-02
  0.28868795E-03 -0.98308640E-03 -0.91926642E-03
  0.13709117E-02 -0.81638808E-03  0.36683794E-02
 -0.41078060E-03  0.55784331E-03  0.18339906E-03
  0.17442857E-02 -0.26489139E-03 -0.44535576E-03
 -0.17429572E-02  0.32700283E-03  0.12248337E-02
  0.17396016E-02  0.94856102E-03  0.15430199E-02
 -0.12415279E-02 -0.13079614E-02  0.80861848E-03
 -0.13775672E-03 -0.26650291E-02 -0.13043432E-02
 -0.11934774E-02 -0.64749650E-03  0.25773322E-02
 -0.80981344E-03  0.19216170E-02  0.31436057E-03
  0.22774407E-02 -0.19309298E-02 -0.14055669E-02
  0.91797311E-03 -0.30051342E-02  0.16462218E-02
  0.12494374E-02  0.21275033E-02  0.11850883E-03
  0.19174867E-02  0.85388349E-03  0.82431271E-03
  0.22713513E-02 -0.14930486E-02  0.19381760E-02
 -0.31137287E-02 -0.12591851E-02  0.11995076E-02
  0.23766422E-02  0.40236119E-03 -0.28181532E-03
 -0.58878913E-03  0.19514001E-02  0.64241830E-03
 -0.15248716E-02  0.47257339E-03 -0.50561109E-03
  0.10051081E-02 -0.12937171E-02 -0.36570999E-03
 -0.67058371E-03  0.35939937E-02 -0.23638623E-02
  0.17961292E-02 -0.44450220E-04 -0.92949535E-03
 -0.32317978E-03 -0.18191416E-02 -0.15666503E-02
  0.52896138E-03  0.17914258E-02 -0.26424853E-03
 -0.62639947E-03 -0.33543850E-03  0.13445118E-02
 -0.10478341E-02  0.11631893E-02 -0.43292645E-03
 -0.64432594E-03 -0.33657384E-03  0.11326090E-02
  0.15286316E-02 -0.85588216E-04  0.14592346E-02
 -0.11609409E-02 -0.21807700E-02 -0.79603377E-03
  0.10519513E-03 -0.80281864E-03 -0.10067054E-02
  0.26442254E-02 -0.28717906E-04 -0.11240514E-02
 -0.16319029E-02  0.10303810E-02  0.32980219E-03
 -0.44258764E-03  0.15956134E-02  0.69557659E-03
  0.13612552E-02  0.54902762E-03 -0.16579429E-02
 -0.16449591E-02 -0.81638794E-03 -0.12557063E-02
 -0.22906244E-03  0.91063244E-03  0.67711525E-03
  0.33003406E-02 -0.97689187E-03  0.87585162E-03
 -0.15017716E-02 -0.99122052E-03  0.63593697E-03
 -0.27745835E-02 -0.11148986E-02  0.80188540E-03
 -0.10885957E-03 -0.79116086E-03 -0.25352403E-03
  0.37653699E-02  0.36136867E-02  0.22153131E-03
  0.13952561E-02 -0.13924614E-02  0.10508027E-02
  0.23348797E-03 -0.15527607E-03 -0.80939270E-03
  0.81365874E-04  0.22151685E-02 -0.34810422E-03
  0.29181619E-03 -0.19096767E-02  0.23294723E-02
  0.11058166E-02  0.13392214E-02  0.25495879E-02
 -0.53225728E-03  0.14902887E-03 -0.68343848E-03
 -0.37662096E-03  0.27555397E-02  0.39104884E-03
  0.81204617E-03  0.66401049E-03  0.16171933E-02
 -0.18014544E-02 -0.19656697E-03  0.83163036E-04
  0.10662721E-02  0.57374583E-03 -0.83342007E-03
  0.12545772E-02 -0.27156036E-02  0.10465103E-02
  0.17591850E-02  0.13251665E-02  0.22583768E-02
 -0.50445864E-03  0.16009564E-02  0.12041968E-02
  0.11334250E-02 -0.66184007E-03 -0.13403820E-02
  0.86001666E-03  0.15455345E-03 -0.12222544E-02
  0.95325079E-03  0.52919516E-04  0.28559353E-03
 -0.14710240E-02 -0.29368109E-03  0.55651076E-03
  0.12899177E-02 -0.20680354E-02  0.23522335E-02
 -0.54455558E-03 -0.10860385E-02 -0.15911190E-02
  0.62595025E-04  0.12340843E-02  0.53845115E-03
 -0.13173572E-02  0.61715099E-03 -0.11127657E-02
 -0.13967608E-02 -0.13284556E-02 -0.92745116E-03
 -0.91247787E-03  0.12652103E-02 -0.99900730E-03
 -0.80257542E-03  0.48373309E-03  0.11547173E-02
 -0.15940114E-02 -0.12801952E-02 -0.13189901E-02
  0.17255402E-03  0.21338737E-03  0.13732380E-02
 -0.14765649E-02  0.13174621E-02 -0.55415698E-04
 -0.20450777E-02  0.27282112E-04  0.52017537E-03
 -0.21383105E-03 -0.69263006E-03  0.16439050E-02
  0.13298064E-03 -0.17898463E-02  0.50693158E-03
  0.14254107E-02 -0.98161659E-03  0.13999700E-03
 -0.11885626E-03 -0.55057525E-03 -0.91402574E-03
  0.43215997E-03  0.17926278E-03 -0.11610362E-02