Ge Se
 1.0000000000000000
    19.9678870000000011    0.0000000000000000    0.0000000000000000
     0.0000000000000000   19.9678870000000011    0.0000000000000000
     0.0000000000000000    0.0000000000000000   19.9678870000000011
 Ge  Se 
 150 150
Direct
  0.6070231697525130  0.7453185001497654  0.8731554700805348
  0.3318054499206651  0.6429943598939637  0.7937979902430337
  0.4018415098202430  0.2971867098406556  0.5083197501067589
  0.7849228999543116  0.9688954399631768  0.5763729697588933
  0.8958210901333726  0.3885118600681183  0.7239481298146369
  0.1244246599552571  0.8177935602299832  0.9708510399723316
  0.0413166901435290  0.0083369001437158  0.3892557399788971
  0.4792056300198413  0.6130570400363342  0.6990440500790093
  0.3952946398384566  0.7649194899790849  0.2148362999049424
  0.2909807597569035  0.1539293301289215  0.4494305701950336
  0.1197273797673234  0.8069250001264531  0.4589565500846434
  0.9756682402098930  0.2939578399056445  0.7715979402327345
  0.6907532699879562  0.2732524798442619  0.5843051200159536
  0.2229264598702907  0.0992633001178342  0.8474997800217919
  0.7697327699220252  0.0751230297927868  0.3553936002342160
  0.8707821498589209  0.6627106498549395  0.3196163099280359
  0.0594932398205178  0.6494303698733870  0.3111460000750204
  0.8784914598124477  0.3367879901363624  0.3153395299162099
  0.2782935600547018  0.5251851500361555  0.9445035200770117
  0.9469721398162959  0.8420523799037924  0.3862664301936404
  0.3115830297917851  0.7589646400743352  0.0293802298660845
  0.4565749701007422  0.6856374202237823  0.9453386900677071
  0.0632122202013663  0.1939434002205641  0.9864184798321424
  0.9657737200736360  0.1451049998429979  0.1353634898875379
  0.7218053101963167  0.2829770601165761  0.1439642301661663
  0.5463009801688080  0.2830450698163506  0.5104638202329570
  0.4438516899659937  0.6478741701613194  0.5593284402100230
  0.7295543098776550  0.8966301997802771  0.0029392899709418
  0.6307457899776775  0.6339028501112811  0.5921578302200928
  0.8770976899057972  0.6990620700127158  0.4529643301767482
  0.2890397902391975  0.2341238399436054  0.8442945400281961
  0.1896380498347171  0.0590365400204839  0.2797201601751853
  0.8474245897926004  0.5037311799691173  0.4342133802139405
  0.2395502198104386  0.4594664102416044  0.2799267198377074
  0.0244313001170329  0.5555668298803974  0.5731385098483379
  0.5653186398741138  0.7307180900012104  0.1191574902241784
  0.3997464198390145  0.1940183300316153  0.0074314998877948
  0.3251487300584183  0.1984098497752917  0.1764826899310878
  0.1908014899122776  0.1799132001297884  0.0171698597853644
  0.7247813802231553  0.5401990400887184  0.7254808002469164
  0.7911545998833026  0.8950098600818402  0.3058005902176830
  0.9124659399364590  0.0490873000232824  0.6384690097655300
  0.4441890301162061  0.0390745901156191  0.6574490200189934
  0.4267857099752217  0.1345091200686382  0.3189648098469307
  0.2445327900743829  0.7006847299366226  0.2384289198952297
  0.3670068099844515  0.5200859199573795  0.3134743300580577
  0.8842821100700339  0.6632411201044958  0.0861429499275512
  0.1290649501371877  0.1755228898280524  0.4471796099407012
  0.8411448897922950  0.7573825798393189  0.8037433199616965
  0.6091009900046008  0.1212603702134332  0.2161409402006331
  0.1044379898584162  0.6004117100622614  0.7332480301996901
  0.1539748697496135  0.2596164601692708  0.1581068302319620
  0.5822312400906515  0.9088125498706997  0.7203330998417609
  0.5630718898799858  0.4006733401486096  0.7948568198527965
  0.7221299800023908  0.5778187101118911  0.4310209998684387
  0.0914874898881389  0.9714688299267719  0.1690150199668097
  0.1153182001680999  0.6271144297841830  0.5097995000672828
  0.0003781601929138  0.3644622898757389  0.5718317201013807
  0.2775072600320705  0.1538298098341602  0.6535608499787684
  0.6010698698365029  0.5354567200826006  0.2034906898261193
  0.6969281902486728  0.9850885599462778  0.2026590600197206
  0.4500891801921754  0.5682323597884943  0.1185277300497544
  0.8068402800957357  0.6529611701027754  0.1964490699491639
  0.8033304901014313  0.1462123899238813  0.6809671599203260
  0.5096970801166893  0.0198363998153635  0.1452622598475242
  0.9934875102207859  0.4121944800669194  0.0551384300201619
  0.9032004002226174  0.8158496499905071  0.5370930800039082
  0.7850818201244828  0.7083139898578151  0.9367501098138226
  0.8037241101174100  0.1342582998391367  0.1018791202093642
  0.8676326097999252  0.2993975401603585  0.9627331499822690
  0.3507316898377880  0.3643405098396240  0.6980473001474817
  0.4022050500385944  0.3251139201659144  0.3316576000254808
  0.2638036297981854  0.5577110101835011  0.4026993401955850
  0.5636387901233615  0.9924127400160065  0.4017356698783401
  0.5341742498843267  0.3036238301028046  0.6741662199911287
  0.6261883097595654  0.0368903299582975  0.0521737397652541
  0.1822830001992700  0.3073598298107356  0.3565931798392088
  0.8879723698356266  0.7959121298112313  0.9411634701258074
  0.1103473602389677  0.8457795899986813  0.8274441702319327
  0.2864139600749944  0.3484631298244025  0.1424320099567871
  0.5499755797896893  0.8730294898002977  0.0146272898078800
  0.1223314600087631  0.5185206802302116  0.0082421099438313
  0.7646828400020492  0.4614486400088302  0.0852120897919745
  0.5854270098784112  0.5505388301726666  0.4339415502501591
  0.2558307501439686  0.9625577398349661  0.5853241301896389
  0.6505985200136599  0.1349789299188242  0.9740902399938460
  0.5788702099526103  0.7613720199838870  0.7178740499683316
  0.9153606197791484  0.2754637598860610  0.5954597198992562
  0.6293742001845262  0.6417828901976457  0.0506262700705388
  0.5877397297971487  0.3161182397516572  0.2857749500485454
  0.5522001000907106  0.2011161200982357  0.9294764398456381
  0.1143649000016877  0.0440839899584768  0.5920449199256786
  0.4730174099042127  0.5743732599247982  0.3710999601510163
  0.8709823598260547  0.2128036601969953  0.4981896001314510
  0.6551445698786256  0.8314194100757881  0.5625231998758806
  0.4823029602481224  0.8838135201786749  0.5193825500915545
  0.2746884399936758  0.9350853998723050  0.9469324400724022
  0.2746499897560518  0.5563159897689726  0.6375705301216898
  0.2226939500408831  0.7037316998037899  0.5201720497516837
  0.2883637101912686  0.2474714700659113  0.9733308802278378
  0.1032419900012455  0.3861341698297872  0.1982980302322424
  0.6572654998498337  0.3280238600108264  0.9567749602148690
  0.1056700601320510  0.5832948799239498  0.1381922699181941
  0.9167586199781679  0.9936358198541488  0.2176188602229169
  0.4040218902480768  0.8747906000269332  0.7350445898456855
  0.6272025898383740  0.8443245301818865  0.1147553499276112
  0.0737430700604425  0.3153951897864806  0.9345736001010022
  0.0368956800486701  0.7390122099549141  0.2305315399671483
  0.6728185200567290  0.1718107399145438  0.7866208001878214
  0.7779958500366112  0.9039473500626279  0.6973564098194265
  0.9531499702497314  0.8823626801373625  0.7098836802311630
  0.9732868099664226  0.8522143199227840  0.0535676799453042
  0.3173671600805834  0.8047182598739666  0.5274152002162271
  0.9348456699499550  0.1221506001110683  0.4311161401304003
  0.6746595300744640  0.7450332000576724  0.3080805400190816
  0.5897218198400261  0.7476482799607188  0.4913922299339935
  0.4339689302127962  0.4242949702189319  0.2535127001670232
  0.8069709699378808  0.6437519297860609  0.5998292298028328
  0.1900006901080720  0.2524245099143440  0.5944684798146141
  0.0043421299409397  0.0403218597941785  0.8519427198280920
  0.7002545797660013  0.4502552498419086  0.3648830199209360
  0.0036922499611501  0.1980589999332428  0.2752216000621397
  0.9880060599301267  0.5587143001159812  0.8938100501069542
  0.9754734399288215  0.0400379699664767  0.9867388402187972
  0.1969886698577571  0.4455405997640111  0.5249910999596502
  0.3232649498667535  0.7042066899717531  0.6794771499858748
  0.3482306199949949  0.7598194701322177  0.4086757101540088
  0.3481793201253593  0.9713155002329489  0.7996100799248312
  0.1821846497829240  0.2579630098066961  0.7744771001558651
  0.2265698098151297  0.9686274902296872  0.0627756697541407
  0.4860510899325502  0.6047140000341548  0.2447604701488945
  0.7611732598446695  0.6322799898657279  0.0391098897945486
  0.4114512802481304  0.2038618698112624  0.8028339598476293
  0.4698463397754604  0.3953173598187930  0.9681736800694033
  0.9853445499766699  0.7163936199158176  0.8049742899686883
  0.1654641900767968  0.7822185001347414  0.0946241001864644
  0.3194857297619924  0.3563410500069435  0.8682890297806672
  0.6670970899424661  0.1451518901323911  0.4120583800379077
  0.3382043498142793  0.9577941802254789  0.3303816898603242
  0.2244587301600815  0.8325757497525902  0.6478167199163335
  0.8717268797644938  0.3295662700815564  0.4389835299047916
  0.7396058701654309  0.4551118498416982  0.8484032601947316
  0.0405392298143514  0.9114031599838280  0.6176382999362926
  0.0944483299610019  0.1656627198461209  0.7266368499581350
  0.4917626702314570  0.0978617897827647  0.5289009102465374
  0.4085994797546680  0.4316762499707654  0.4932910597901520
  0.1337943098335843  0.6701207198338011  0.9192071599764160
  0.4396818301305491  0.8824332399316963  0.1708428999022280
  0.3850094499232692  0.5330057702149457  0.8225475599896974
  0.8925421698349955  0.5026963799424545  0.1890110000121695
  0.9026024300918769  0.1144861101227185  0.8373421599391061
  0.8933651497527004  0.9530503798423939  0.3428205998962233
  0.9671052600608165  0.5746530702021700  0.3167753498404713
  0.9994403799460604  0.4391852002167280  0.6669090500161584
  0.2463629201226950  0.8123086699158503  0.9290967101326244
  0.0662648701888187  0.8787024300568207  0.3667783000775194
  0.3930166997639760  0.4134151800839017  0.1380410901764418
  0.6572720198186217  0.0871187797687357  0.6969977900015158
  0.7293982998802027  0.2119220701719716  0.0306087699715047
  0.2631243200645116  0.9016378297813884  0.4744672498397051
  0.7899892998192546  0.7866321899758345  0.3552302699829982
  0.6824803701062611  0.9834320401552752  0.7542208502081366
  0.6943042801674508  0.7821410102130485  0.6694580297855250
  0.3011482001075026  0.6033950202142069  0.5198486299526834
  0.7392827698794570  0.5372214601374696  0.1796945099899654
  0.4485459598203854  0.1331323399416273  0.9081380398436749
  0.3981066399263978  0.1188179300093195  0.1008438599437186
  0.4496931498059859  0.9984161799393195  0.4612534400860742
  0.8773846902278643  0.9769363899144662  0.7417352997840982
  0.7341019898600186  0.1070531198418741  0.2377673100814322
  0.6214047400208144  0.9561240801292594  0.9520753798336299
  0.5777594299286649  0.2442106097655700  0.8177311400049488
  0.2049695799059760  0.1436326998445053  0.1321034198560919
  0.1285960001676692  0.3532292800935822  0.8323717602167920
  0.2853848401686167  0.3353729400612093  0.2753313698139417
  0.4715654300327320  0.4937223898552711  0.7487646499602084
  0.2267968698941455  0.6759146097932144  0.0797540801387748
  0.3006364098514780  0.1340951598934830  0.2869691199674758
  0.4477624302461247  0.6922940699734529  0.7954717897792590
  0.3922589801314479  0.9879894998404187  0.2103342201405687
  0.5813795701067419  0.2034998900985367  0.6084766199848787
  0.3110552899262701  0.3686732201559433  0.9908662298619778
  0.9262590197951340  0.7732460800684617  0.2744121498684363
  0.4500211399433500  0.9350219199457608  0.0561960997675918
  0.1238780998710580  0.4160518000727869  0.3198430600093040
  0.1163471102375529  0.5450648999566153  0.8817209597590370
  0.7665142200574352  0.3367177999354664  0.8883833502262908
  0.1855448100242154  0.0805531301333987  0.6962073999116681
  0.4430172501476997  0.2385583201667758  0.2505445999368887
  0.7075451598859709  0.3625325899530581  0.2698969500378282
  0.5741419400059705  0.5338696197549595  0.0796280998585379
  0.2795142200073548  0.4665802300463738  0.8241834201084971
  0.1996252202348701  0.7039642802465779  0.6469310999205874
  0.0643096397731017  0.1509505898145357  0.5531599798216005
  0.3891395499183263  0.9636105798275000  0.9121200700905407
  0.5019212598709116  0.9961341798458695  0.7590438497573628
  0.7285331101883740  0.5419713202503600  0.5978574898786235
  0.2284978200247227  0.9401083299399680  0.2799229297521565
  0.9584404098440661  0.4159832700375357  0.4664615800359848
  0.5632253698150436  0.8538280700406606  0.4262967298442744
  0.7428470698977814  0.2493702598577406  0.7272242501172006
  0.2441699499801857  0.7112427799696582  0.3679361101152064
  0.7205620599715934  0.1105931799393696  0.8783983698425376
  0.1581232100321882  0.0550868897645504  0.4086083299650082
  0.7145933598282079  0.7334320702035223  0.1875282998145973
  0.7049339401810517  0.6225235799862048  0.3179507200736863
  0.0519899802117270  0.6989189897759337  0.4237869700484582
  0.1173592398634868  0.9360145402465467  0.0069033698958733
  0.9633916798507522  0.3738791200090425  0.9142773198786630
  0.9079262397668816  0.9524290897679859  0.5479446698591594
  0.2698586800896860  0.8505885399892337  0.1128299098447422
  0.7611751298472391  0.6654805698770229  0.8241135098571020
  0.0292850500405977  0.7949228498738999  0.5546779501506593
  0.4113658300450117  0.2714802101995068  0.6327256699719905
  0.6776124399141480  0.4222407398439303  0.7383239598661591
  0.2742314797755015  0.2716338899554069  0.4991240700630968
  0.0510980901484469  0.0645546702062166  0.0850617398826426
  0.7496949001163719  0.0246665097814306  0.0672704898620470
  0.7797240098564258  0.5239140400784520  0.9842212899141506
  0.0358927997739570  0.0410710697631652  0.2664504601813902
  0.5856733499142899  0.4283344001295680  0.4119297399870101
  0.5514827698093443  0.4145637598009243  0.2079953697654639
  0.4505351402479390  0.6849908901227255  0.4252612201781791
  0.5231239099059404  0.7245843999417665  0.2385710000261920
  0.3967177899193841  0.8352810800662083  0.3241504201220690
  0.9854196801093675  0.8574479197523502  0.8274327098305394
  0.6837560899658536  0.7775752001200728  0.9703330001817416
  0.4531756299502294  0.6936146498625518  0.0781729799452491
  0.9854009600515066  0.6820996102391804  0.9272273000142679
  0.9045154697640265  0.1400269497719012  0.0195413600848202
  0.8173273902241134  0.9077088101510189  0.9059525401961659
  0.5582294901809089  0.9069894601266523  0.2022508500774268
  0.8006807600623941  0.9115560800198839  0.1878588200143561
  0.1206282402339316  0.7180919398231769  0.8007042497786571
  0.7717975101722080  0.4002614998772778  0.4631561301403598
  0.4401053401393948  0.3455327501602948  0.8542987202401536
  0.9896610697967190  0.8956741702314320  0.1763943100238899
  0.3574221598910290  0.6139048498221168  0.2260866199813731
  0.1338584698521181  0.2219437700143235  0.2761184300572213
  0.8516716100206295  0.4542130902483572  0.3008115300331978
  0.8713928599455715  0.1543909698607569  0.3260156500284682
  0.5119707097701424  0.7536830702217014  0.5959621300941857
  0.6901903701678600  0.9507232297538541  0.3318246302175086
  0.5039429399815814  0.8113991199970231  0.9184260102233149
  0.1417567897895256  0.7998995602288814  0.2186010698077368
  0.0141936900985067  0.2160701400203236  0.4030723200707215
  0.7550938299079916  0.8749775502034841  0.5068647298534893
  0.2239948999110422  0.3374637501704612  0.6843025599053119
  0.8431136899963426  0.4868112399674537  0.7752604198932015
  0.1245925800761993  0.3921442799631228  0.0190467799622464
  0.6023570000170774  0.6275541297884949  0.7183679099345863
  0.9908808097722107  0.5355410199386645  0.0191162399907411
  0.6045223002313664  0.2439145899613714  0.1776476098848115
  0.5035823299681133  0.2691094200402877  0.0183223898452550
  0.8599778198865007  0.7881270802463975  0.0730578398205078
  0.5709444699882366  0.1275908998283093  0.3348553600087981
  0.2735020500666895  0.6480326200764257  0.9040216097977717
  0.5790772599023623  0.3775395398621797  0.5838806099012880
  0.3597131999995793  0.0903023800164734  0.7429592199715473
  0.5358757999782350  0.5548256598206911  0.5518188098720711
  0.1306428401763291  0.8891471300894279  0.7071165897523358
  0.0967685098578533  0.1323740799414580  0.8534374698735024
  0.1401029297691839  0.5283200000080128  0.4384357097974362
  0.8978249000507664  0.9508007797720408  0.0237671101604291
  0.3452944900980259  0.4512849997598644  0.6045872400019090
  0.6574367998977557  0.2644543100629526  0.4487396097544020
  0.2933822897735749  0.8089379201715233  0.7495511297715175
  0.7548537198753177  0.6896328600016617  0.4907748501381242
  0.9677294002114495  0.3167449199807671  0.2408768398979822
  0.0234165597992417  0.4828557398186398  0.1718934001379314
  0.1121140198760139  0.3396490199488809  0.5267018999055832
  0.2570821199058267  0.0903075002377567  0.9677227199853443
  0.9323747400012830  0.2265482602140126  0.8727776699657804
  0.0362248098659613  0.2491968098577481  0.1013316100997567
  0.6188853497618451  0.0657482997575056  0.4959503101154368
  0.5760733601907904  0.6353465001078982  0.9358662100802153
  0.2242081297835870  0.9691078400033013  0.8365513601914915
  0.5919738598280329  0.4325352301923583  0.9155361200711922
  0.7708947401395048  0.1664890301111980  0.5557045399946424
  0.5853284501259447  0.9324285899654779  0.5942534300199114
  0.1598936302073424  0.5994250798795084  0.2593153301598712
  0.1572420301657356  0.5122787598908187  0.6288329401102880
  0.8720717900697253  0.7954327801434372  0.6722688499789686
  0.4095892099148999  0.5295496498953545  0.9417101599182727
  0.0218693500218626  0.6846202600205018  0.1244402600034746
  0.7518090502014558  0.8520476002293081  0.8134380102411436
  0.8294125202130801  0.3563471397849958  0.6258581701709349
  0.3801214600222848  0.9311761099208944  0.6249098800489005
  0.3064025497540125  0.4347926197699337  0.4234856602503810
  0.0155045598965980  0.6512857199161833  0.6562422498685013
  0.9284912700076877  0.2034429997525527  0.6907153601179734
  0.7789933802209518  0.2649150899141205  0.3010635802376085
  0.8610408898047149  0.3975775398769033  0.1187130701410720
  0.2079404901480061  0.4544041099591559  0.1567731102444640
  0.4198057200544053  0.1829560899458215  0.4417764097923830
  0.9016508001071920  0.5938672399337996  0.5244529298468085
  0.0269869300642577  0.0360637101962766  0.6874793402025963
  0.9792792797755715  0.5847042398627355  0.7585415201918960
  0.6701995999877203  0.3832777799674046  0.0758240298535343
  0.3112877301439055  0.0816041897672999  0.5574386999485724
