Sb                                      
   1.00000000000000     
    18.6888989090225550    0.0000000000000000    0.0000000000000000
     0.0000000000000000   18.6888989090225550    0.0000000000000000
     0.0000000000000000    0.0000000000000000   18.6888989090225550
   Sb   C 
   195    21
Direct
  0.9152400200000000  0.7519038400000000  0.5369931200000000
  0.5787014700000001  0.7600144400000000  0.3157927500000000
  0.2639586000000000  0.4136934400000000  0.0112853180000000
  0.7370183800000000  0.8892624099999999  0.8969309700000000
  0.8335585700000000  0.2681540200000000  0.5451106000000000
  0.5902253600000000  0.2430554000000000  0.6793390100000000
  0.3195934900000000  0.6234327400000000  0.1796721800000000
  0.2370004900000000  0.1288342600000000  0.2393236300000000
  0.2265311600000000  0.9338611600000000  0.2123265900000000
  0.5761162000000000  0.9181602400000000  0.8981570000000000
  0.0818153260000000  0.8865237200000000  0.5429108400000000
  0.7525897300000000  0.2493157000000000  0.2051509200000000
  0.4336787100000000  0.7676271400000000  0.4896160800000000
  0.2448753500000000  0.4811169800000000  0.1597842000000000
  0.0353700790000000  0.7463610899999999  0.8828247000000000
  0.9060152299999999  0.0722026280000000  0.0530384440000000
  0.4111455700000000  0.0875757600000000  0.0445419140000000
  0.7377123000000000  0.7345052399999999  0.8725336900000000
  0.9181920000000000  0.8801157800000000  0.4288759500000000
  0.7559685700000000  0.2373205900000000  0.7075425800000000
  0.6903662900000000  0.0714189490000000  0.3559291500000000
  0.0780593780000000  0.4257774000000000  0.0182733190000000
  0.5835213500000000  0.5483774700000000  0.0285006270000000
  0.7555831000000000  0.5855118200000000  0.9964773600000000
  0.7462186900000000  0.0801380010000000  0.2100094700000000
  0.9183960500000000  0.4093599700000000  0.6959151600000000
  0.7570169100000000  0.7619277900000000  0.5358203300000000
  0.8711254300000000  0.4124477400000000  0.0396309980000000
  0.9081295300000000  0.3791234800000000  0.3564465800000000
  0.8889241900000000  0.4183310500000000  0.8553327700000000
  0.4248608400000000  0.4165365700000000  0.0187077960000000
  0.0678475410000000  0.0855883370000000  0.2222542000000000
  0.7219952300000000  0.5714281600000000  0.1634501900000000
  0.2629890800000000  0.0696813820000000  0.7298539200000000
  0.1047663400000000  0.6034061300000000  0.0197635350000000
  0.4407867400000000  0.6013775200000000  0.0236743530000000
  0.7151757399999999  0.8873668000000000  0.3852445300000000
  0.9270781000000000  0.2672467100000000  0.2373381900000000
  0.0799381650000000  0.2729243800000000  0.2186962300000000
  0.0843084810000000  0.9389514900000000  0.8700810400000000
  0.5999086400000000  0.2505108200000000  0.1806327500000000
  0.0957291650000000  0.5649724200000000  0.6743107200000000
  0.7545871700000000  0.5629308500000000  0.3147046300000000
  0.2341120400000000  0.7760673900000000  0.1985817800000000
  0.1647200600000000  0.0636410820000000  0.5325404500000001
  0.9507288400000000  0.5637781600000000  0.0171079400000000
  0.9021902000000001  0.8958540200000000  0.7155492800000000
  0.2565101200000000  0.7363697400000000  0.5428266700000000
  0.1107660300000000  0.5922150300000000  0.1784218000000000
  0.4168202000000000  0.1982900900000000  0.8456519300000001
  0.8175688400000000  0.7335176000000000  0.0663878340000000
  0.0972444940000000  0.0749025570000000  0.7216802700000000
  0.5813653300000000  0.2553532700000000  0.0097799484000000
  0.6255421100000000  0.7163784800000000  0.0114679580000000
  0.8681165600000000  0.0905551610000000  0.4842531900000000
  0.5190633800000000  0.6208895700000000  0.1764290000000000
  0.0658990130000000  0.7595625900000000  0.2234031200000000
  0.5622467400000000  0.9118080300000000  0.2317933900000000
  0.0920743760000000  0.7553579700000000  0.0168251830000000
  0.0904994890000000  0.2421308900000000  0.6989453000000000
  0.8840012900000001  0.8638906200000001  0.2697167800000000
  0.9046907000000000  0.4310769500000000  0.5257526800000000
  0.5736791600000000  0.8840660900000000  0.6137317400000000
  0.3730888200000000  0.9586053300000000  0.3542669700000000
  0.2331508900000000  0.4445450100000000  0.3294327200000000
  0.9112579500000000  0.0592267310000000  0.7118103800000000
  0.4212306500000000  0.9175847100000000  0.5062525500000000
  0.7548842500000000  0.5976768200000000  0.5006050100000000
  0.2483172900000000  0.1396838000000000  0.9055804300000000
  0.0896885500000000  0.7333194200000001  0.5528220700000001
  0.4955402200000000  0.1060469400000000  0.3823155000000000
  0.7468542700000000  0.7369453400000000  0.1992250400000000
  0.5967971000000000  0.8624517700000000  0.0814976480000000
  0.1382733400000000  0.0493588590000000  0.3737344800000000
  0.2189736000000000  0.7608619000000000  0.7412895000000000
  0.4315587300000000  0.5763110299999999  0.8673034400000000
  0.4312496600000000  0.4497756300000000  0.1834274900000000
  0.7448270100000000  0.0658272730000000  0.7089785199999999
  0.0936652870000000  0.2542478500000000  0.0452440870000000
  0.0591053040000000  0.8706480800000000  0.3767905000000000
  0.4088004700000000  0.1089911500000000  0.2062873000000000
  0.7203496000000000  0.9185267200000000  0.5572329800000000
  0.6710997600000000  0.2433558600000000  0.5039867800000000
  0.2479562400000000  0.9184553700000000  0.0234869400000000
  0.1908830100000000  0.2462005400000000  0.5300161400000000
  0.3400996200000000  0.2200859800000000  0.5141378100000000
  0.0639494680000000  0.0905263700000000  0.0599826700000000
  0.0665031170000000  0.9066945900000000  0.7216573600000000
  0.2516286600000000  0.2880955500000000  0.7418481099999999
  0.7494646100000000  0.5738405100000000  0.6674377700000000
  0.1440373900000000  0.2229398200000000  0.3769494700000000
  0.5223873000000000  0.0703316380000000  0.5444703800000000
  0.2652817400000000  0.6049559000000000  0.6705229700000001
  0.6129729800000000  0.6065678900000000  0.8389829000000000
  0.7361281800000000  0.4367257900000000  0.4875957600000000
  0.9022618900000000  0.2547404500000000  0.0593724760000000
  0.2080946000000000  0.4098294400000000  0.4920210600000000
  0.3969284100000000  0.7450870500000000  0.6926201300000000
  0.6442328000000000  0.4144146100000000  0.8635459700000000
  0.7326208200000000  0.7320657000000000  0.6764367600000000
  0.0285759080000000  0.4562715800000000  0.1804014400000000
  0.4235432000000000  0.2519841200000000  0.0194090710000000
  0.7951229800000000  0.2148957100000000  0.3671467000000000
  0.5768936800000000  0.0443097350000000  0.0281517170000000
  0.9295598300000000  0.9181451200000000  0.0399366200000000
  0.7353807300000000  0.9022823500000000  0.2158973200000000
  0.0850496360000000  0.4003079600000000  0.6732110700000000
  0.3961124800000000  0.2442501100000000  0.6822887500000000
  0.0726227650000000  0.2555296000000000  0.8704819000000000
  0.9641282900000000  0.2226142900000000  0.4100409100000000
  0.3872193600000000  0.2579879800000000  0.3426310000000000
  0.4259447400000000  0.9288419500000000  0.0144256610000000
  0.7536644800000000  0.8856206800000000  0.0675060530000000
  0.2575531800000000  0.7464899800000000  0.0478489830000000
  0.4109535900000000  0.9225362900000000  0.7131510100000000
  0.2352621500000000  0.9111390200000000  0.5406779700000000
  0.7616176000000000  0.2347468400000000  0.8597821900000000
  0.9789785200000000  0.0235269430000000  0.4044298400000000
  0.7431351200000000  0.8998980700000000  0.7232657800000000
  0.8409996700000000  0.7028593600000000  0.3665688300000000
  0.9894205900000000  0.0920148010000000  0.5912405100000000
  0.9250514700000000  0.6807356500000000  0.2027728900000000
  0.5757205200000000  0.0832604260000000  0.8623276500000000
  0.0724718390000000  0.9266046400000000  0.2082777800000000
  0.9177797800000000  0.0374333070000000  0.8968373500000000
  0.7590715000000000  0.0824970300000000  0.8622811600000000
  0.4172397900000000  0.9108513000000000  0.1824552300000000
  0.2576549800000000  0.2736282600000000  0.1976789900000000
  0.5831219900000000  0.2455857900000000  0.8497911200000000
  0.2571911800000000  0.9083718000000000  0.7019550700000000
  0.9765244500000000  0.6127915100000000  0.3341450700000000
  0.3891303300000000  0.0132480700000000  0.8745823400000000
  0.4371787200000000  0.0716870750000000  0.7118717100000000
  0.5969708700000000  0.2392867100000000  0.3403325800000000
  0.5766967600000000  0.1083292800000000  0.2072440700000000
  0.0447559940000000  0.4236768100000000  0.8645574300000000
  0.7633854799999999  0.3906647200000000  0.6757905400000001
  0.9373276300000000  0.2072875000000000  0.6877475300000000
  0.7605371500000000  0.2220639300000000  0.0424384970000000
  0.0314119840000000  0.3447360000000000  0.5478337000000000
  0.2929051500000000  0.0883623470000000  0.4481220500000000
  0.7688709300000000  0.4068036000000000  0.1598718400000000
  0.2386222900000000  0.0709003640000000  0.0336572250000000
  0.4261637700000000  0.2724250100000000  0.1887862700000000
  0.9184806000000000  0.2531188800000000  0.8956450400000000
  0.7487761200000000  0.3897309000000000  0.3466206400000000
  0.0775710720000000  0.5442215800000000  0.5115651400000000
  0.2169447500000000  0.5617904200000000  0.8262164500000000
  0.0783701020000000  0.9398659400000000  0.0482762560000000
  0.0785362310000000  0.4196929000000000  0.3561576800000000
  0.5800319700000000  0.4327489700000000  0.1635478600000000
  0.4348035600000000  0.7555339800000000  0.0021602609000000
  0.1089595600000000  0.6810284200000000  0.3963156900000000
  0.9274244500000000  0.5955579100000000  0.5078103600000000
  0.4439278100000000  0.4226165800000000  0.8546081700000000
  0.5853346800000000  0.0905611210000000  0.6880323100000000
  0.6608853200000000  0.4058022400000000  0.0203950310000000
  0.8920208100000000  0.4972189400000000  0.2397534000000000
  0.8942574599999999  0.8422646400000000  0.8589198800000000
  0.5962271300000000  0.7628085300000000  0.5044359100000000
  0.5639345100000001  0.9458722800000000  0.4087019500000000
  0.2389229300000000  0.8958435700000000  0.3598140300000000
  0.2530241400000000  0.5990330900000000  0.3313746300000000
  0.3911716000000000  0.7648139200000000  0.1832142700000000
  0.0734951460000000  0.7517334700000000  0.7166576500000000
  0.6781198600000000  0.0933608270000000  0.5176264400000000
  0.2570821700000000  0.2529763600000000  0.0407916630000000
  0.2388129900000000  0.9382462700000000  0.8715518000000000
  0.9859647499999999  0.5843593700000000  0.8698067800000000
  0.2501832100000000  0.4143020900000000  0.6708242700000000
  0.9172466200000000  0.0649304050000000  0.2652837300000000
  0.5237467099999999  0.7665331300000000  0.8575007700000000
  0.7600182700000000  0.5382411400000000  0.8350379800000000
  0.2786895400000000  0.5836030000000000  0.9984037100000001
  0.2476786200000000  0.5775020300000000  0.5040979200000000
  0.2749449500000000  0.4178861800000000  0.8521052400000000
  0.5056142400000000  0.2658829300000000  0.4967994000000000
  0.9182486300000000  0.5734545800000000  0.6767633900000000
  0.8916378800000000  0.7386530600000000  0.6866792400000000
  0.4131322300000000  0.7434573000000000  0.3309161400000000
  0.1037205500000000  0.0884321260000000  0.8762471600000000
  0.3185922700000000  0.7244236800000000  0.8572412900000000
  0.7401922200000000  0.0526485960000000  0.0394520910000000
  0.4098299700000000  0.4105500000000000  0.3493199900000000
  0.4210000000000000  0.5906100300000000  0.3288600100000000
  0.5893000400000000  0.4294100100000000  0.3294600000000000
  0.4098299700000000  0.5795900200000000  0.5097299800000000
  0.5778700100000000  0.5859400000000000  0.3337799900000000
  0.4100900300000000  0.4120700100000000  0.6862800100000001
  0.4212600000000000  0.4230700100000000  0.5054100200000000
  0.5893000400000000  0.5984500000000000  0.4898800000000000
  0.5781300100000000  0.5874400100000000  0.6707500199999999
  0.4212600000000000  0.5921099800000000  0.6658300200000000
  0.5895600300000000  0.4309099900000000  0.6664199800000000
  0.5781300100000000  0.4183900100000000  0.5103300200000001
  0.9242448500000000  0.9256984100000000  0.9218920700000000
  0.5425371100000000  0.9348589899999999  0.0047398168000000
  0.4901065900000000  0.2244291400000000  0.3873444600000000
  0.5924242300000000  0.1210619100000000  0.3241912900000000
  0.8483438200000000  0.7534039700000000  0.2578468900000000
  0.3097816000000000  0.6073924300000000  0.8844366000000000
  0.9750035500000001  0.4585880300000000  0.0700078970000000
  0.5301293600000000  0.9542095300000000  0.5248341000000000
  0.8027687999999999  0.3820107100000000  0.5638831900000000
  0.2824933100000000  0.0474629520000000  0.8445938200000001
  0.4267857000000000  0.5627559600000001  0.2141493400000000
  0.0883569960000000  0.7644417900000000  0.3360747800000000
  0.2852333500000000  0.7205368800000000  0.6566765300000000
  0.6069202600000000  0.8320916200000000  0.4022698200000000
  0.2247275300000000  0.1337020500000000  0.3538818000000000
  0.4565743000000000  0.0907849680000000  0.8306037400000000
  0.0937807510000000  0.4290027100000000  0.4772170800000000
  0.9036503600000000  0.1808076100000000  0.3119185300000000
  0.7398167500000000  0.7042062500000000  0.9854721600000000
  0.6045868000000000  0.5457467499999999  0.1489265200000000
  0.6202073299999999  0.7107567100000000  0.8928400500000000
 
  0.00000000E+00  0.00000000E+00  0.00000000E+00
  0.00000000E+00  0.00000000E+00  0.00000000E+00
  0.00000000E+00  0.00000000E+00  0.00000000E+00
  0.00000000E+00  0.00000000E+00  0.00000000E+00
  0.00000000E+00  0.00000000E+00  0.00000000E+00
  0.00000000E+00  0.00000000E+00  0.00000000E+00
  0.00000000E+00  0.00000000E+00  0.00000000E+00
  0.00000000E+00  0.00000000E+00  0.00000000E+00
  0.00000000E+00  0.00000000E+00  0.00000000E+00
  0.00000000E+00  0.00000000E+00  0.00000000E+00
  0.00000000E+00  0.00000000E+00  0.00000000E+00
  0.00000000E+00  0.00000000E+00  0.00000000E+00
  0.00000000E+00  0.00000000E+00  0.00000000E+00
  0.00000000E+00  0.00000000E+00  0.00000000E+00
  0.00000000E+00  0.00000000E+00  0.00000000E+00
  0.00000000E+00  0.00000000E+00  0.00000000E+00
  0.00000000E+00  0.00000000E+00  0.00000000E+00
  0.00000000E+00  0.00000000E+00  0.00000000E+00
  0.00000000E+00  0.00000000E+00  0.00000000E+00
  0.00000000E+00  0.00000000E+00  0.00000000E+00
  0.00000000E+00  0.00000000E+00  0.00000000E+00
  0.00000000E+00  0.00000000E+00  0.00000000E+00
  0.00000000E+00  0.00000000E+00  0.00000000E+00
  0.00000000E+00  0.00000000E+00  0.00000000E+00
  0.00000000E+00  0.00000000E+00  0.00000000E+00
  0.00000000E+00  0.00000000E+00  0.00000000E+00
  0.00000000E+00  0.00000000E+00  0.00000000E+00
  0.00000000E+00  0.00000000E+00  0.00000000E+00
  0.00000000E+00  0.00000000E+00  0.00000000E+00
  0.00000000E+00  0.00000000E+00  0.00000000E+00
  0.00000000E+00  0.00000000E+00  0.00000000E+00
  0.00000000E+00  0.00000000E+00  0.00000000E+00
  0.00000000E+00  0.00000000E+00  0.00000000E+00
  0.00000000E+00  0.00000000E+00  0.00000000E+00
  0.00000000E+00  0.00000000E+00  0.00000000E+00
  0.00000000E+00  0.00000000E+00  0.00000000E+00
  0.00000000E+00  0.00000000E+00  0.00000000E+00
  0.00000000E+00  0.00000000E+00  0.00000000E+00
  0.00000000E+00  0.00000000E+00  0.00000000E+00
  0.00000000E+00  0.00000000E+00  0.00000000E+00
  0.00000000E+00  0.00000000E+00  0.00000000E+00
  0.00000000E+00  0.00000000E+00  0.00000000E+00
  0.00000000E+00  0.00000000E+00  0.00000000E+00
  0.00000000E+00  0.00000000E+00  0.00000000E+00
  0.00000000E+00  0.00000000E+00  0.00000000E+00
  0.00000000E+00  0.00000000E+00  0.00000000E+00
  0.00000000E+00  0.00000000E+00  0.00000000E+00
  0.00000000E+00  0.00000000E+00  0.00000000E+00
  0.00000000E+00  0.00000000E+00  0.00000000E+00
  0.00000000E+00  0.00000000E+00  0.00000000E+00
  0.00000000E+00  0.00000000E+00  0.00000000E+00
  0.00000000E+00  0.00000000E+00  0.00000000E+00
  0.00000000E+00  0.00000000E+00  0.00000000E+00
  0.00000000E+00  0.00000000E+00  0.00000000E+00
  0.00000000E+00  0.00000000E+00  0.00000000E+00
  0.00000000E+00  0.00000000E+00  0.00000000E+00
  0.00000000E+00  0.00000000E+00  0.00000000E+00
  0.00000000E+00  0.00000000E+00  0.00000000E+00
  0.00000000E+00  0.00000000E+00  0.00000000E+00
  0.00000000E+00  0.00000000E+00  0.00000000E+00
  0.00000000E+00  0.00000000E+00  0.00000000E+00
  0.00000000E+00  0.00000000E+00  0.00000000E+00
  0.00000000E+00  0.00000000E+00  0.00000000E+00
  0.00000000E+00  0.00000000E+00  0.00000000E+00
  0.00000000E+00  0.00000000E+00  0.00000000E+00
  0.00000000E+00  0.00000000E+00  0.00000000E+00
  0.00000000E+00  0.00000000E+00  0.00000000E+00
  0.00000000E+00  0.00000000E+00  0.00000000E+00
  0.00000000E+00  0.00000000E+00  0.00000000E+00
  0.00000000E+00  0.00000000E+00  0.00000000E+00
  0.00000000E+00  0.00000000E+00  0.00000000E+00
  0.00000000E+00  0.00000000E+00  0.00000000E+00
  0.00000000E+00  0.00000000E+00  0.00000000E+00
  0.00000000E+00  0.00000000E+00  0.00000000E+00
  0.00000000E+00  0.00000000E+00  0.00000000E+00
  0.00000000E+00  0.00000000E+00  0.00000000E+00
  0.00000000E+00  0.00000000E+00  0.00000000E+00
  0.00000000E+00  0.00000000E+00  0.00000000E+00
  0.00000000E+00  0.00000000E+00  0.00000000E+00
  0.00000000E+00  0.00000000E+00  0.00000000E+00
  0.00000000E+00  0.00000000E+00  0.00000000E+00
  0.00000000E+00  0.00000000E+00  0.00000000E+00
  0.00000000E+00  0.00000000E+00  0.00000000E+00
  0.00000000E+00  0.00000000E+00  0.00000000E+00
  0.00000000E+00  0.00000000E+00  0.00000000E+00
  0.00000000E+00  0.00000000E+00  0.00000000E+00
  0.00000000E+00  0.00000000E+00  0.00000000E+00
  0.00000000E+00  0.00000000E+00  0.00000000E+00
  0.00000000E+00  0.00000000E+00  0.00000000E+00
  0.00000000E+00  0.00000000E+00  0.00000000E+00
  0.00000000E+00  0.00000000E+00  0.00000000E+00
  0.00000000E+00  0.00000000E+00  0.00000000E+00
  0.00000000E+00  0.00000000E+00  0.00000000E+00
  0.00000000E+00  0.00000000E+00  0.00000000E+00
  0.00000000E+00  0.00000000E+00  0.00000000E+00
  0.00000000E+00  0.00000000E+00  0.00000000E+00
  0.00000000E+00  0.00000000E+00  0.00000000E+00
  0.00000000E+00  0.00000000E+00  0.00000000E+00
  0.00000000E+00  0.00000000E+00  0.00000000E+00
  0.00000000E+00  0.00000000E+00  0.00000000E+00
  0.00000000E+00  0.00000000E+00  0.00000000E+00
  0.00000000E+00  0.00000000E+00  0.00000000E+00
  0.00000000E+00  0.00000000E+00  0.00000000E+00
  0.00000000E+00  0.00000000E+00  0.00000000E+00
  0.00000000E+00  0.00000000E+00  0.00000000E+00
  0.00000000E+00  0.00000000E+00  0.00000000E+00
  0.00000000E+00  0.00000000E+00  0.00000000E+00
  0.00000000E+00  0.00000000E+00  0.00000000E+00
  0.00000000E+00  0.00000000E+00  0.00000000E+00
  0.00000000E+00  0.00000000E+00  0.00000000E+00
  0.00000000E+00  0.00000000E+00  0.00000000E+00
  0.00000000E+00  0.00000000E+00  0.00000000E+00
  0.00000000E+00  0.00000000E+00  0.00000000E+00
  0.00000000E+00  0.00000000E+00  0.00000000E+00
  0.00000000E+00  0.00000000E+00  0.00000000E+00
  0.00000000E+00  0.00000000E+00  0.00000000E+00
  0.00000000E+00  0.00000000E+00  0.00000000E+00
  0.00000000E+00  0.00000000E+00  0.00000000E+00
  0.00000000E+00  0.00000000E+00  0.00000000E+00
  0.00000000E+00  0.00000000E+00  0.00000000E+00
  0.00000000E+00  0.00000000E+00  0.00000000E+00
  0.00000000E+00  0.00000000E+00  0.00000000E+00
  0.00000000E+00  0.00000000E+00  0.00000000E+00
  0.00000000E+00  0.00000000E+00  0.00000000E+00
  0.00000000E+00  0.00000000E+00  0.00000000E+00
  0.00000000E+00  0.00000000E+00  0.00000000E+00
  0.00000000E+00  0.00000000E+00  0.00000000E+00
  0.00000000E+00  0.00000000E+00  0.00000000E+00
  0.00000000E+00  0.00000000E+00  0.00000000E+00
  0.00000000E+00  0.00000000E+00  0.00000000E+00
  0.00000000E+00  0.00000000E+00  0.00000000E+00
  0.00000000E+00  0.00000000E+00  0.00000000E+00
  0.00000000E+00  0.00000000E+00  0.00000000E+00
  0.00000000E+00  0.00000000E+00  0.00000000E+00
  0.00000000E+00  0.00000000E+00  0.00000000E+00
  0.00000000E+00  0.00000000E+00  0.00000000E+00
  0.00000000E+00  0.00000000E+00  0.00000000E+00
  0.00000000E+00  0.00000000E+00  0.00000000E+00
  0.00000000E+00  0.00000000E+00  0.00000000E+00
  0.00000000E+00  0.00000000E+00  0.00000000E+00
  0.00000000E+00  0.00000000E+00  0.00000000E+00
  0.00000000E+00  0.00000000E+00  0.00000000E+00
  0.00000000E+00  0.00000000E+00  0.00000000E+00
  0.00000000E+00  0.00000000E+00  0.00000000E+00
  0.00000000E+00  0.00000000E+00  0.00000000E+00
  0.00000000E+00  0.00000000E+00  0.00000000E+00
  0.00000000E+00  0.00000000E+00  0.00000000E+00
  0.00000000E+00  0.00000000E+00  0.00000000E+00
  0.00000000E+00  0.00000000E+00  0.00000000E+00
  0.00000000E+00  0.00000000E+00  0.00000000E+00
  0.00000000E+00  0.00000000E+00  0.00000000E+00
  0.00000000E+00  0.00000000E+00  0.00000000E+00
  0.00000000E+00  0.00000000E+00  0.00000000E+00
  0.00000000E+00  0.00000000E+00  0.00000000E+00
  0.00000000E+00  0.00000000E+00  0.00000000E+00
  0.00000000E+00  0.00000000E+00  0.00000000E+00
  0.00000000E+00  0.00000000E+00  0.00000000E+00
  0.00000000E+00  0.00000000E+00  0.00000000E+00
  0.00000000E+00  0.00000000E+00  0.00000000E+00
  0.00000000E+00  0.00000000E+00  0.00000000E+00
  0.00000000E+00  0.00000000E+00  0.00000000E+00
  0.00000000E+00  0.00000000E+00  0.00000000E+00
  0.00000000E+00  0.00000000E+00  0.00000000E+00
  0.00000000E+00  0.00000000E+00  0.00000000E+00
  0.00000000E+00  0.00000000E+00  0.00000000E+00
  0.00000000E+00  0.00000000E+00  0.00000000E+00
  0.00000000E+00  0.00000000E+00  0.00000000E+00
  0.00000000E+00  0.00000000E+00  0.00000000E+00
  0.00000000E+00  0.00000000E+00  0.00000000E+00
  0.00000000E+00  0.00000000E+00  0.00000000E+00
  0.00000000E+00  0.00000000E+00  0.00000000E+00
  0.00000000E+00  0.00000000E+00  0.00000000E+00
  0.00000000E+00  0.00000000E+00  0.00000000E+00
  0.00000000E+00  0.00000000E+00  0.00000000E+00
  0.00000000E+00  0.00000000E+00  0.00000000E+00
  0.00000000E+00  0.00000000E+00  0.00000000E+00
  0.00000000E+00  0.00000000E+00  0.00000000E+00
  0.00000000E+00  0.00000000E+00  0.00000000E+00
  0.00000000E+00  0.00000000E+00  0.00000000E+00
  0.00000000E+00  0.00000000E+00  0.00000000E+00
  0.00000000E+00  0.00000000E+00  0.00000000E+00
  0.00000000E+00  0.00000000E+00  0.00000000E+00
  0.00000000E+00  0.00000000E+00  0.00000000E+00
  0.00000000E+00  0.00000000E+00  0.00000000E+00
  0.00000000E+00  0.00000000E+00  0.00000000E+00
  0.00000000E+00  0.00000000E+00  0.00000000E+00
  0.00000000E+00  0.00000000E+00  0.00000000E+00
  0.00000000E+00  0.00000000E+00  0.00000000E+00
  0.00000000E+00  0.00000000E+00  0.00000000E+00
  0.00000000E+00  0.00000000E+00  0.00000000E+00
  0.00000000E+00  0.00000000E+00  0.00000000E+00
  0.00000000E+00  0.00000000E+00  0.00000000E+00
  0.00000000E+00  0.00000000E+00  0.00000000E+00
  0.00000000E+00  0.00000000E+00  0.00000000E+00
  0.00000000E+00  0.00000000E+00  0.00000000E+00
  0.00000000E+00  0.00000000E+00  0.00000000E+00
  0.00000000E+00  0.00000000E+00  0.00000000E+00
  0.00000000E+00  0.00000000E+00  0.00000000E+00
  0.00000000E+00  0.00000000E+00  0.00000000E+00
  0.00000000E+00  0.00000000E+00  0.00000000E+00
  0.00000000E+00  0.00000000E+00  0.00000000E+00
  0.00000000E+00  0.00000000E+00  0.00000000E+00
  0.00000000E+00  0.00000000E+00  0.00000000E+00
  0.00000000E+00  0.00000000E+00  0.00000000E+00
  0.00000000E+00  0.00000000E+00  0.00000000E+00
  0.00000000E+00  0.00000000E+00  0.00000000E+00
  0.00000000E+00  0.00000000E+00  0.00000000E+00
  0.00000000E+00  0.00000000E+00  0.00000000E+00
  0.00000000E+00  0.00000000E+00  0.00000000E+00
  0.00000000E+00  0.00000000E+00  0.00000000E+00
  0.00000000E+00  0.00000000E+00  0.00000000E+00
  0.00000000E+00  0.00000000E+00  0.00000000E+00
  0.00000000E+00  0.00000000E+00  0.00000000E+00
  0.00000000E+00  0.00000000E+00  0.00000000E+00
  0.00000000E+00  0.00000000E+00  0.00000000E+00
  0.00000000E+00  0.00000000E+00  0.00000000E+00
 
           1
   4.00000000000000     
  0.10000000E+01  0.00000000E+00  0.00000000E+00  0.00000000E+00
  0.91524002E+00  0.75190384E+00  0.53699312E+00
  0.57870147E+00  0.76001444E+00  0.31579275E+00
  0.26395860E+00  0.41369344E+00  0.11285318E-01
  0.73701838E+00  0.88926241E+00  0.89693097E+00
  0.83355857E+00  0.26815402E+00  0.54511060E+00
  0.59022536E+00  0.24305540E+00  0.67933901E+00
  0.31959349E+00  0.62343274E+00  0.17967218E+00
  0.23700049E+00  0.12883426E+00  0.23932363E+00
  0.22653116E+00  0.93386116E+00  0.21232659E+00
  0.57611620E+00  0.91816024E+00  0.89815700E+00
  0.81815326E-01  0.88652372E+00  0.54291084E+00
  0.75258973E+00  0.24931570E+00  0.20515092E+00
  0.43367871E+00  0.76762714E+00  0.48961608E+00
  0.24487535E+00  0.48111698E+00  0.15978420E+00
  0.35370079E-01  0.74636109E+00  0.88282470E+00
  0.90601523E+00  0.72202628E-01  0.53038444E-01
  0.41114557E+00  0.87575760E-01  0.44541914E-01
  0.73771230E+00  0.73450524E+00  0.87253369E+00
  0.91819200E+00  0.88011578E+00  0.42887595E+00
  0.75596857E+00  0.23732059E+00  0.70754258E+00
  0.69036629E+00  0.71418949E-01  0.35592915E+00
  0.78059378E-01  0.42577740E+00  0.18273319E-01
  0.58352135E+00  0.54837747E+00  0.28500627E-01
  0.75558310E+00  0.58551182E+00  0.99647736E+00
  0.74621869E+00  0.80138001E-01  0.21000947E+00
  0.91839605E+00  0.40935997E+00  0.69591516E+00
  0.75701691E+00  0.76192779E+00  0.53582033E+00
  0.87112543E+00  0.41244774E+00  0.39630998E-01
  0.90812953E+00  0.37912348E+00  0.35644658E+00
  0.88892419E+00  0.41833105E+00  0.85533277E+00
  0.42486084E+00  0.41653657E+00  0.18707796E-01
  0.67847541E-01  0.85588337E-01  0.22225420E+00
  0.72199523E+00  0.57142816E+00  0.16345019E+00
  0.26298908E+00  0.69681382E-01  0.72985392E+00
  0.10476634E+00  0.60340613E+00  0.19763535E-01
  0.44078674E+00  0.60137752E+00  0.23674353E-01
  0.71517574E+00  0.88736680E+00  0.38524453E+00
  0.92707810E+00  0.26724671E+00  0.23733819E+00
  0.79938165E-01  0.27292438E+00  0.21869623E+00
  0.84308481E-01  0.93895149E+00  0.87008104E+00
  0.59990864E+00  0.25051082E+00  0.18063275E+00
  0.95729165E-01  0.56497242E+00  0.67431072E+00
  0.75458717E+00  0.56293085E+00  0.31470463E+00
  0.23411204E+00  0.77606739E+00  0.19858178E+00
  0.16472006E+00  0.63641082E-01  0.53254045E+00
  0.95072884E+00  0.56377816E+00  0.17107940E-01
  0.90219020E+00  0.89585402E+00  0.71554928E+00
  0.25651012E+00  0.73636974E+00  0.54282667E+00
  0.11076603E+00  0.59221503E+00  0.17842180E+00
  0.41682020E+00  0.19829009E+00  0.84565193E+00
  0.81756884E+00  0.73351760E+00  0.66387834E-01
  0.97244494E-01  0.74902557E-01  0.72168027E+00
  0.58136533E+00  0.25535327E+00  0.97799484E-02
  0.62554211E+00  0.71637848E+00  0.11467958E-01
  0.86811656E+00  0.90555161E-01  0.48425319E+00
  0.51906338E+00  0.62088957E+00  0.17642900E+00
  0.65899013E-01  0.75956259E+00  0.22340312E+00
  0.56224674E+00  0.91180803E+00  0.23179339E+00
  0.92074376E-01  0.75535797E+00  0.16825183E-01
  0.90499489E-01  0.24213089E+00  0.69894530E+00
  0.88400129E+00  0.86389062E+00  0.26971678E+00
  0.90469070E+00  0.43107695E+00  0.52575268E+00
  0.57367916E+00  0.88406609E+00  0.61373174E+00
  0.37308882E+00  0.95860533E+00  0.35426697E+00
  0.23315089E+00  0.44454501E+00  0.32943272E+00
  0.91125795E+00  0.59226731E-01  0.71181038E+00
  0.42123065E+00  0.91758471E+00  0.50625255E+00
  0.75488425E+00  0.59767682E+00  0.50060501E+00
  0.24831729E+00  0.13968380E+00  0.90558043E+00
  0.89688550E-01  0.73331942E+00  0.55282207E+00
  0.49554022E+00  0.10604694E+00  0.38231550E+00
  0.74685427E+00  0.73694534E+00  0.19922504E+00
  0.59679710E+00  0.86245177E+00  0.81497648E-01
  0.13827334E+00  0.49358859E-01  0.37373448E+00
  0.21897360E+00  0.76086190E+00  0.74128950E+00
  0.43155873E+00  0.57631103E+00  0.86730344E+00
  0.43124966E+00  0.44977563E+00  0.18342749E+00
  0.74482701E+00  0.65827273E-01  0.70897852E+00
  0.93665287E-01  0.25424785E+00  0.45244087E-01
  0.59105304E-01  0.87064808E+00  0.37679050E+00
  0.40880047E+00  0.10899115E+00  0.20628730E+00
  0.72034960E+00  0.91852672E+00  0.55723298E+00
  0.67109976E+00  0.24335586E+00  0.50398678E+00
  0.24795624E+00  0.91845537E+00  0.23486940E-01
  0.19088301E+00  0.24620054E+00  0.53001614E+00
  0.34009962E+00  0.22008598E+00  0.51413781E+00
  0.63949468E-01  0.90526370E-01  0.59982670E-01
  0.66503117E-01  0.90669459E+00  0.72165736E+00
  0.25162866E+00  0.28809555E+00  0.74184811E+00
  0.74946461E+00  0.57384051E+00  0.66743777E+00
  0.14403739E+00  0.22293982E+00  0.37694947E+00
  0.52238730E+00  0.70331638E-01  0.54447038E+00
  0.26528174E+00  0.60495590E+00  0.67052297E+00
  0.61297298E+00  0.60656789E+00  0.83898290E+00
  0.73612818E+00  0.43672579E+00  0.48759576E+00
  0.90226189E+00  0.25474045E+00  0.59372476E-01
  0.20809460E+00  0.40982944E+00  0.49202106E+00
  0.39692841E+00  0.74508705E+00  0.69262013E+00
  0.64423280E+00  0.41441461E+00  0.86354597E+00
  0.73262082E+00  0.73206570E+00  0.67643676E+00
  0.28575908E-01  0.45627158E+00  0.18040144E+00
  0.42354320E+00  0.25198412E+00  0.19409071E-01
  0.79512298E+00  0.21489571E+00  0.36714670E+00
  0.57689368E+00  0.44309735E-01  0.28151717E-01
  0.92955983E+00  0.91814512E+00  0.39936620E-01
  0.73538073E+00  0.90228235E+00  0.21589732E+00
  0.85049636E-01  0.40030796E+00  0.67321107E+00
  0.39611248E+00  0.24425011E+00  0.68228875E+00
  0.72622765E-01  0.25552960E+00  0.87048190E+00
  0.96412829E+00  0.22261429E+00  0.41004091E+00
  0.38721936E+00  0.25798798E+00  0.34263100E+00
  0.42594474E+00  0.92884195E+00  0.14425661E-01
  0.75366448E+00  0.88562068E+00  0.67506053E-01
  0.25755318E+00  0.74648998E+00  0.47848983E-01
  0.41095359E+00  0.92253629E+00  0.71315101E+00
  0.23526215E+00  0.91113902E+00  0.54067797E+00
  0.76161760E+00  0.23474684E+00  0.85978219E+00
  0.97897852E+00  0.23526943E-01  0.40442984E+00
  0.74313512E+00  0.89989807E+00  0.72326578E+00