Ge Se                                   
   1.00000000000000     
    20.2740058898925781    0.0000000000000000    0.0000000000000000
     0.0000000000000000   20.2740058898925781    0.0000000000000000
     0.0000000000000000    0.0000000000000000   20.2740058898925781
   Ge   Se
   150   150
Direct
  0.5975966890558663  0.6519515333551164  0.4897060170019082
  0.0636147056618382  0.4297948310887192  0.4591537069090992
  0.7887404087459733  0.1488364147902172  0.0688975222470332
  0.5485407573340544  0.0906409367583267  0.2934138096742682
  0.7140977415009899  0.6623725623391933  0.5926362491648605
  0.1191357918834177  0.9738864167452472  0.9204392192442168
  0.9524097814250672  0.8947042230653951  0.3628778776359836
  0.2113597729738491  0.5021958485263956  0.8633541106688871
  0.2327975015232281  0.7595768399323741  0.0221395688580647
  0.3229341715535157  0.8833964195485076  0.4252625557255454
  0.5766517047249531  0.8909692734229266  0.7892176356164012
  0.3035202976222231  0.8689037386035816  0.0241404892325352
  0.2524908567088507  0.5649046054732012  0.6876671747426505
  0.4910484947856169  0.3650797653432893  0.6146507102414310
  0.5018749012995679  0.0028692438650417  0.5153618370919546
  0.5312740939337626  0.6452077542904976  0.9048790565420556
  0.9732500841252570  0.7873576290663445  0.7483383045134280
  0.1291441243974826  0.1874701343047133  0.3065685693231647
  0.1064415839384536  0.7526765236946630  0.1677894127927536
  0.2466600939886729  0.9471759966320640  0.5906250507039643
  0.0726011654164984  0.3673616602090400  0.2079471840745247
  0.2410189010527562  0.5036939341655642  0.4312368006026425
  0.3923359830890985  0.2667561931312127  0.1546524489656394
  0.5346789573919571  0.1821612124619863  0.7180266941655292
  0.9008305121470943  0.3049088538433111  0.1355050996682096
  0.7405289526280505  0.2184172832870339  0.5279856723227392
  0.2214568914094930  0.6040597861124382  0.2941684309221752
  0.0830851856654000  0.9096062702326768  0.1715239939275664
  0.0936026066846150  0.6675283814326733  0.7124174848960493
  0.7461686430813962  0.4421496774317069  0.2035851262835650
  0.0033516133761030  0.4433669286460605  0.6535555413741825
  0.6020462756438553  0.9194065952616803  0.3683214321068378
  0.9100781950332285  0.4559664419720494  0.2054849499875407
  0.8552958671556939  0.3633777769641734  0.9491766884478356
  0.6926355527945769  0.3155219467469304  0.0601409137698007
  0.5899245699758584  0.1879687216508449  0.5990090007884527
  0.8942479790488261  0.4976102130867169  0.9438176232763390
  0.8271094587169546  0.3824093269257197  0.6446522215644980
  0.9609833643282919  0.6239126272137797  0.1224444546138682
  0.8453754821499999  0.6470806564824320  0.7785774109209985
  0.7814017736555803  0.9903798513271185  0.4606597569470721
  0.8018198567613437  0.4916733741818681  0.7864037327833169
  0.3464109131622660  0.6622002510248806  0.7808849579148519
  0.4181410972966840  0.8030173720407073  0.4490569956069606
  0.5741823953117230  0.6001590875939643  0.3340370223654800
  0.3185965458299426  0.0662780009827810  0.8899323455184085
  0.7732086347408126  0.6400349346914164  0.8968855226065213
  0.5208974261496749  0.7361090114121547  0.7770859184656913
  0.8260897650948087  0.0453353166797216  0.5682069536699649
  0.5780633393232060  0.4758341178787501  0.3200452611669973
  0.7501360525559265  0.5999297688958188  0.2258184532667699
  0.4426066760831623  0.3606280329498045  0.2696018129712845
  0.0805480040759717  0.0245656317985564  0.2308412497756103
  0.4700401654309279  0.1936398809560677  0.2807719347419121
  0.6306736754587008  0.4439920815167576  0.4319816613928265
  0.1529489249277661  0.3707973184454714  0.7893485071723724
  0.2640581734171560  0.7723294871121267  0.5911599014813135
  0.9380154079350500  0.6774335079044994  0.5838749861985389
  0.7578011748050422  0.0441683246728919  0.2898265600657919
  0.4609756937484011  0.9021933567522987  0.6339248810416075
  0.6267673089478539  0.4852549928653643  0.2066234592854746
  0.2702304137845470  0.7421610280373671  0.3018729936568436
  0.9212014687952743  0.6092019934486134  0.0024470507366382
  0.2471169060320876  0.4090365339746145  0.6151484191827171
  0.0471950836953930  0.2710576131678958  0.6614770212256494
  0.6705390317077318  0.8883647772044879  0.0283995415607966
  0.1474631284113872  0.7829350903484430  0.8637107946861137
  0.7281718202846937  0.3407507688530388  0.3555466029505351
  0.3588988094175499  0.4212862945777471  0.4497128564438492
  0.0189920754137950  0.8591187246097836  0.5629711198069561
  0.8312893786592749  0.6051156313603695  0.5795983432299894
  0.0220730179770477  0.8931448417462613  0.9407253768608420
  0.6420645120934036  0.7524672271511285  0.3159956488010902
  0.2713223501524591  0.9677462944009174  0.9559797101006894
  0.5877519766616658  0.8394282234981061  0.2071743391388746
  0.6659876715264469  0.8904635404173007  0.8860207642612848
  0.4545540986217465  0.6153899118606364  0.0829556113151450
  0.9742716342275007  0.1840103524216702  0.5036894001285863
  0.9444637425682443  0.0186601598948943  0.3787485913511153
  0.2116395600193795  0.1055925273241844  0.4483100261929543
  0.4985188745822123  0.4738186550736238  0.7678882324975357
  0.5259943757240879  0.0761145391847977  0.8427387857111035
 -0.0049589157713099  0.0581454623423166  0.4853908120047446
  0.6841618618901151  0.4894717885253892  0.6556905951298696
  0.8229777446840981  0.9616708358242662  0.9801256932897975
  0.2739810302374595  0.2381354812449242  0.8161769354674414
  0.9538010496965293  0.5802632517556737  0.4146968940815784
  0.0783043578804008  0.2207964093749600  0.1626385727993555
  0.8591491229494616  0.4598363450367791  0.4420131093894435
  0.3849290817161393  0.5477822522289304  0.8908734813543144
  0.0282565920228969  0.9278111324758777  0.6719500215639547
  0.9281067987855763  0.0449416540681573  0.1589233898486256
  0.6214874611699990  0.3008338450867947  0.4252836985285440
  0.8768113336402678  0.2296731676272931  0.7815160000566295
  0.8334427606098819  0.8610703856399600  0.8682534598527957
  0.6003036258553660  0.1150952982501387  0.4089199018844469
  0.4508501996016291  0.0699401893569010  0.0144707413929533
  0.9511704758321586  0.0911896288744780  0.6971153524929917
  0.5587744863769502  0.6153986685126721  0.7125503300929653
  0.1118491210329863  0.6823299400752406  0.4095036045777496
  0.7357640404623923  0.1230892857186038  0.7057898659382498
  0.5159945542020884  0.0484600881538121  0.6786233006406239
  0.6226952036302811  0.0748009339562943  0.1503647028862749
  0.4203346950530853  0.7506841030244342  0.9074318930915842
  0.2292112232608179  0.1405052909724786  0.1368094955116352
  0.0336333893550866  0.3411092414983795  0.0270602648999780
  0.2839095866769790  0.1114682911901878  0.3292062535900140
  0.3891388290372932  0.8185536397003701  0.2004727997953922
  0.5947325694783440  0.5864616886409094  0.1404806178285870
  0.3569989985407780  0.2500479236183251  0.5223649746882064
  0.4379890883525455  0.5142155142085287  0.1805263611034971
  0.0686668658977330  0.5676708195986333  0.1692796583610629
  0.6132598443235137  0.2956411335275824  0.1976412122193833
  0.4190050920054924  0.1131500194143224  0.1936289224466151
  0.3097800720442336  0.6256084438467651  0.9598222363567056
  0.7927884718606554  0.7628436069084309  0.7328411248410988
  0.7649489366281804  0.8715025451317800  0.2337933524171519
  0.6625602319723948  0.0777488168761562  0.9601828615364321
  0.9174713907744216  0.3820628177512602  0.3359799202248975
  0.3626531132273749  0.3131594740645065  0.7174352206342940
  0.3742886497210877  0.5059618502695099  0.7513176278537796
  0.2210848575061315  0.1663128127586548  0.6488312433733718
  0.6717771068955136  0.7447750577013498  0.1283838142876315
  0.2771730964645016  0.4882417922350378  0.0291170298712494
  0.4535672573111695  0.2724521419599318  0.4363434184832753
  0.8805828532372751  0.2932108326620531  0.4928889828344459
  0.1902874531058228  0.5406354568411009  0.1279467464990685
  0.2058908903995900  0.3435226920090285  0.1329889462433206
  0.4807662381959053  0.7501294428442238  0.3460617997502523
  0.9833818836881355  0.4183996959599660  0.8655615857285194
  0.9791325379493473  0.8722091129457236  0.2422572405363494
  0.6240394673965584  0.3373768038763917  0.7068266244821113
  0.2843016618690391  0.7019627240491096  0.4314884959906667
  0.1397561846374548  0.9383415801778852  0.4112793271747985
  0.3435680829599937  0.4256803856504120  0.2004590300492481
  0.8986107252451987  0.1424935453175106  0.5977577827941802
  0.9859474539966608  0.6474471011766080  0.8958497199507688
  0.7800057639645329  0.8960122997559763  0.3654087271265584
  0.5183951031785260  0.1788996412401515  0.0117315126161526
  0.5002963359741771  0.4000518283290020  0.0277687391311869
  0.6839345597389622  0.5055513010077692  0.0264330693811605
  0.9403267474989903  0.0973984723222236  0.9071636952423875
  0.2256658573964485  0.8939944611201350  0.1915501253920941
  0.4666238715282681  0.8099024970889962  0.0835937079962367
  0.5145445686934156  0.3280362887405577  0.9105264328213578
  0.4276312903937557  0.0270027244340054  0.3503260194380779
  0.2394950990528687  0.3392526581603004  0.2585889529930240
  0.1335409399635399  0.1750801381778342  0.9142641925566212
  0.1251571974821108  0.5359385035262491  0.5708983359543105
  0.8764153403723047  0.0109402644516027  0.7660777071433313
  0.0568926727938079  0.0473258940280853  0.6517787516565273
  0.8324520874240336  0.5833146751101532  0.4585605903354336
  0.1987286873444657  0.5749617697356545  0.9696657858800675
  0.9917126243362103  0.1913204568604600  0.7509742190224853
  0.1112071787797508  0.0221885733631324  0.4997540945119065
  0.8399361208208889  0.9771650028829811  0.2247702922157012
  0.5600129894162396  0.2161571637874527  0.9039853148942968
  0.5814473782257219  0.9724693024764545  0.6108302442957064
  0.3164363350630168  0.5892064672543392  0.3861885183260354
  0.1644407042834925  0.4350964861086969  0.0612280733558767
  0.6889603593234613  0.1173364163256308  0.5844317126907116
  0.4244379258465089  0.2513311637801905  0.6248632801176862
  0.5440097971236553  0.8075334883857683  0.8782308360245680
  0.7620266662055569  0.4217257522192986  0.0786066921519907
  0.0754382357793221  0.1969782621597702  0.5681533387309252
  0.9648045279899846  0.3059306479379925  0.9250298967911291
  0.3622653149925102  0.3293308650361128  0.3621201146408176
  0.6551974531161152  0.0091639852200665  0.4437531670730306
  0.9347390095314971  0.5549244876939972  0.8358031865189576
  0.5514592129736330  0.4917753741087539  0.6588821745483621
  0.3147240591921400  0.1443157762916697  0.7343505897261339
  0.0924585571449296  0.0722583770794209  0.8470205736124166
  0.9463049491212385  0.3366466802852379  0.6118412140578968
  0.7440047798139302  0.7277454247578077  0.2477688965367116
  0.7424699691455995  0.7761160617260188  0.6259700260579165
  0.6947762481772678  0.4297969120663232  0.7669540205914314
  0.5629852423138034  0.3274083284484184  0.3106091738495545
  0.6304554026202435  0.1590721499685373  0.0547889446276422
  0.3268801031809969  0.9298819055565843  0.1247805280633339
  0.1699247025198340  0.2135741239497899  0.4180901195358072
  0.9257523420980275  0.9749067487932229  0.5444314221695523
  0.6954013295583609  0.1882155685275665  0.4092879094485998
 -0.0002572506317543  0.6771116324789169  0.4752799279285209
  0.4180839700515628  0.0279316790104435  0.6080742664507001
  0.0790924827905586  0.0967465973409928  0.1345700078776966
  0.3434266303044956  0.0326739639560451  0.2500039420406988
  0.1328474386989604  0.4151377471745746  0.9022669077636035
  0.3231793435936853  0.8698215637721998  0.6462384286594723
  0.1491569712302387  0.2390945164922648  0.8063598736992166
  0.2484209403726919  0.2044490392456879  0.2469540584861506
  0.5613845993417084  0.8923460617636677  0.0923621311386854
  0.5257929880442648  0.4310916809281769  0.1521751560073947
  0.7361303012574236  0.4616014091777391  0.3619943465581436
  0.1145321022691697  0.7946246888658353  0.6145831545182159
  0.8686992672548255  0.8630625516369291  0.7441894056365504
  0.1461029175697275  0.0539434959150690  0.7372743682062465
  0.7613977038236949  0.1472733493313876  0.2161692667257639
  0.7535899319154420  0.8406203103178956  0.1114530801756361
  0.4968845471728632  0.8641402352430206  0.5149352769766949
  0.4781209551840142  0.5484342313461738  0.9788605155800889
  0.5652089779769268  0.8144428499195375  0.6952442251044898
  0.9127675338438150  0.7333286866710015  0.8472431030201847
  0.6563847286388099  0.6463508432497416  0.9492715387342058
  0.3245782852083276  0.3632312598986907  0.0936326666783446
  0.4163332024916545  0.8582337211249859  0.9779181045108666
  0.6540188695657189  0.9382488907191805  0.2503416040095172
  0.2777093453571680  0.3450318073777963  0.5102755579678526
  0.8213794833092830  0.2110889827076119  0.6648028165193003
  0.6725410130333702  0.6523812372763117  0.3875232706503055
  0.3857897380132350  0.7044011075162132  0.2753987546056797
  0.6246182642452810  0.5337846730897589  0.5129420547953606
  0.5749524310107557  0.5543164287932357  0.8223650560518994
  0.0958021737114517  0.8300880543932732  0.2688315709954404
  0.2375199810755268  0.7723843368265485  0.1724365295215934
  0.7620537286681307  0.9715373157354051  0.8672023351103548
  0.4952642692242091  0.0406537564478679  0.1337770519096789
  0.9504995451105652  0.7448347155088273  0.1256084541354707
  0.7847318494385990  0.0048331247959576  0.6737174774062189
  0.7149981034242371  0.6164097024123595  0.1095427280149551
  0.3531681096394283  0.1598046688446359  0.0972690561011085
  0.2955767719160365  0.8659444173595684  0.3054554695067191
  0.6254562613355298  0.1697420069422936  0.2348719030167813
  0.2587303247355135  0.1654527925562486  0.9259967557555858
  0.4776023449008396  0.3868466112414519  0.4918164646224605
  0.1081951745202283  0.4075890852330775  0.5797437568282204
  0.6472828283139632  0.2237396085644046  0.7547390926987820
  0.8394531955508149  0.2892271619721248  0.3660091779231428
  0.6772724903899158  0.7551386276020414  0.9935946530633256
  0.4801480904594760  0.9753905164034137  0.7764574740244208
  0.8816375153415280  0.5811608369308897  0.2036451882854033
  0.1387563653153345  0.5587829019311590  0.3785590337912214
  0.6855979133073087  0.8348347176748794  0.4123026197247758
  0.5576214686008052  0.6647594678019044  0.2320065437574713
  0.0445411886555028  0.8551913860115318  0.4353785657472133
  0.2338844124464320  0.4822541405220893  0.2312826483748173
  0.1180110725483094  0.7898105591002771  0.9843445918852285
  0.8386278334232937  0.0781080733625190  0.3912223582547101
  0.3442921977000981 -0.0008801555591598  0.4398319044156824
  0.2208278453594486  0.8658899903984706  0.4910333823535742
  0.1756615251528175  0.2392755695088813  0.0739726583204025
  0.9172888215283561  0.7963310357921138  0.5852301702289635
  0.0900360479968238  0.6573654573872575  0.2478490268407260
  0.9809191572417091  0.0782684008557539  0.2777422923026160
  0.7691713008346635  0.5185027228479030  0.9272737633756889
  0.4958150862447707  0.2779714180093370  0.0817278220521841
  0.6152353423038076  0.3864534620332999  0.9766550157148840
  0.5272270042751063  0.1472675073635792  0.5023950618134518
  0.0273628985562200  0.4818267133042458  0.2485072571545887
  0.1292212752013369  0.5434407531713229  0.6989105728355629
  0.0940341988591120  0.6611879590419151  0.8416707596413309
  0.1813207943916067  0.0189728582996246  0.0149731706630131
  0.2114726096397412  0.9235128921269431  0.8597868419248583
  0.8735111533659552  0.0738403780605074  0.0115466079509385
  0.2515960321858760  0.6878682844086573  0.7015146323305232
  0.3667418320146560  0.7205925884730249  0.5236542174807407
  0.7331236886498437  0.3201171443650243  0.2326728563484901
  0.0315166018708741  0.3712137864914537  0.7593156097545521
  0.1605721966026419  0.0551158101586405  0.3126102034928263
  0.6450281236168066  0.2938509081570798  0.5671405603642554
  0.2940170255579367  0.1483422130664245  0.5440236916093867
  0.7953146080599985  0.3891278747324060  0.5218956741063349
  0.0507987093467735  0.8597650632312391  0.8244383894405506
  0.1502146593095386  0.8946835121028566  0.6683833570973078
  0.3986250784195164  0.1486828652089922  0.3733264042478980
  0.9353432803926339 -0.0267589049794628  0.8899579554677498
  0.7877598404181638  0.2593297773716811  0.9982213930615350
  0.4549677146373330  0.4857040712350941  0.3043962378327142
  0.2842581645711120  0.7305863130689909  0.9064826594498538
  0.1319328264549946  0.3391173789069505  0.3129566511265728
  0.8636931980269336  0.3870326945178957  0.8184289704832596
  0.3160420939195535  0.4450608312949658  0.9150523796943896
  0.7134481492138847  0.0041562756064194  0.0496064129827468
  0.4202631733224530  0.6056087757362718  0.6954148555995766
  0.4185026839522700  0.1308822262959559  0.8784223131106562
  0.1892018057823767  0.6806139900244493  0.5040210951240937
  0.8388455350502155  0.1182534513510716  0.8283684234826914
  0.8310834629244216  0.6851165975769633 -0.0038860555971106
  0.9442641485515512  0.4167793925506449  0.0832104453716697
  0.4823352328634911  0.8742498233829722  0.2636789017463067
  0.2532000581590766  0.5286181644509900  0.5574816535853041
  0.7277363841479674  0.7901806806855664  0.8385951144420246
  0.3386017784118163  0.6575458172972424  0.0719366150256814
  0.8682225612767874  0.8186114481196962  0.3955676181285948
  0.5256599315181819  0.7096807395738330  0.0469334001024874
  0.5503440992818712  0.0155752028702888  0.9522694087394861
  0.9698197932484438  0.4966403131595328  0.5072518421168205
  0.2783451599763646  0.0385494871643217  0.7783227864399642
  0.9729405187538748  0.6359193410060521  0.6913138411200835
  0.4910370774236815  0.6354524370000034  0.4142798687090768
  0.9707650103485832  0.3044274391282313  0.2438007035240062
  0.3783710526445562  0.4245926785016319  0.6502935153816463
  0.8732636971965606  0.1592196833595794  0.1670106593955865
  0.9093426653508115  0.7736810195791454  0.2330049788660787
  0.5219579260460397  0.3534530232695537  0.7887874330207942
  0.2459388421712333  0.2860767426279246  0.6784079578983798
  0.9878786689335212  0.3330018789478520  0.4278963554403253
  0.9888003049534769  0.2337915934746915  0.0754937191474508
  0.8548335906062181  0.5045005886046257  0.6591999068651113
  0.6976518708269290  0.6077466070900530  0.7024265678689334
  0.4008214953740769  0.7751810344487254  0.7841124097730159
 
  0.00000000E+00  0.00000000E+00  0.00000000E+00
  0.00000000E+00  0.00000000E+00  0.00000000E+00
  0.00000000E+00  0.00000000E+00  0.00000000E+00
  0.00000000E+00  0.00000000E+00  0.00000000E+00
  0.00000000E+00  0.00000000E+00  0.00000000E+00
  0.00000000E+00  0.00000000E+00  0.00000000E+00
  0.00000000E+00  0.00000000E+00  0.00000000E+00
  0.00000000E+00  0.00000000E+00  0.00000000E+00
  0.00000000E+00  0.00000000E+00  0.00000000E+00
  0.00000000E+00  0.00000000E+00  0.00000000E+00
  0.00000000E+00  0.00000000E+00  0.00000000E+00
  0.00000000E+00  0.00000000E+00  0.00000000E+00
  0.00000000E+00  0.00000000E+00  0.00000000E+00
  0.00000000E+00  0.00000000E+00  0.00000000E+00
  0.00000000E+00  0.00000000E+00  0.00000000E+00
  0.00000000E+00  0.00000000E+00  0.00000000E+00
  0.00000000E+00  0.00000000E+00  0.00000000E+00
  0.00000000E+00  0.00000000E+00  0.00000000E+00
  0.00000000E+00  0.00000000E+00  0.00000000E+00
  0.00000000E+00  0.00000000E+00  0.00000000E+00
  0.00000000E+00  0.00000000E+00  0.00000000E+00
  0.00000000E+00  0.00000000E+00  0.00000000E+00
  0.00000000E+00  0.00000000E+00  0.00000000E+00
  0.00000000E+00  0.00000000E+00  0.00000000E+00
  0.00000000E+00  0.00000000E+00  0.00000000E+00
  0.00000000E+00  0.00000000E+00  0.00000000E+00
  0.00000000E+00  0.00000000E+00  0.00000000E+00
  0.00000000E+00  0.00000000E+00  0.00000000E+00
  0.00000000E+00  0.00000000E+00  0.00000000E+00
  0.00000000E+00  0.00000000E+00  0.00000000E+00
  0.00000000E+00  0.00000000E+00  0.00000000E+00
  0.00000000E+00  0.00000000E+00  0.00000000E+00
  0.00000000E+00  0.00000000E+00  0.00000000E+00
  0.00000000E+00  0.00000000E+00  0.00000000E+00
  0.00000000E+00  0.00000000E+00  0.00000000E+00
  0.00000000E+00  0.00000000E+00  0.00000000E+00
  0.00000000E+00  0.00000000E+00  0.00000000E+00
  0.00000000E+00  0.00000000E+00  0.00000000E+00
  0.00000000E+00  0.00000000E+00  0.00000000E+00
  0.00000000E+00  0.00000000E+00  0.00000000E+00
  0.00000000E+00  0.00000000E+00  0.00000000E+00
  0.00000000E+00  0.00000000E+00  0.00000000E+00
  0.00000000E+00  0.00000000E+00  0.00000000E+00
  0.00000000E+00  0.00000000E+00  0.00000000E+00
  0.00000000E+00  0.00000000E+00  0.00000000E+00
  0.00000000E+00  0.00000000E+00  0.00000000E+00
  0.00000000E+00  0.00000000E+00  0.00000000E+00
  0.00000000E+00  0.00000000E+00  0.00000000E+00
  0.00000000E+00  0.00000000E+00  0.00000000E+00
  0.00000000E+00  0.00000000E+00  0.00000000E+00
  0.00000000E+00  0.00000000E+00  0.00000000E+00
  0.00000000E+00  0.00000000E+00  0.00000000E+00
  0.00000000E+00  0.00000000E+00  0.00000000E+00
  0.00000000E+00  0.00000000E+00  0.00000000E+00
  0.00000000E+00  0.00000000E+00  0.00000000E+00
  0.00000000E+00  0.00000000E+00  0.00000000E+00
  0.00000000E+00  0.00000000E+00  0.00000000E+00
  0.00000000E+00  0.00000000E+00  0.00000000E+00
  0.00000000E+00  0.00000000E+00  0.00000000E+00
  0.00000000E+00  0.00000000E+00  0.00000000E+00
  0.00000000E+00  0.00000000E+00  0.00000000E+00
  0.00000000E+00  0.00000000E+00  0.00000000E+00
  0.00000000E+00  0.00000000E+00  0.00000000E+00
  0.00000000E+00  0.00000000E+00  0.00000000E+00
  0.00000000E+00  0.00000000E+00  0.00000000E+00
  0.00000000E+00  0.00000000E+00  0.00000000E+00
  0.00000000E+00  0.00000000E+00  0.00000000E+00
  0.00000000E+00  0.00000000E+00  0.00000000E+00
  0.00000000E+00  0.00000000E+00  0.00000000E+00
  0.00000000E+00  0.00000000E+00  0.00000000E+00
  0.00000000E+00  0.00000000E+00  0.00000000E+00
  0.00000000E+00  0.00000000E+00  0.00000000E+00
  0.00000000E+00  0.00000000E+00  0.00000000E+00
  0.00000000E+00  0.00000000E+00  0.00000000E+00
  0.00000000E+00  0.00000000E+00  0.00000000E+00
  0.00000000E+00  0.00000000E+00  0.00000000E+00
  0.00000000E+00  0.00000000E+00  0.00000000E+00
  0.00000000E+00  0.00000000E+00  0.00000000E+00
  0.00000000E+00  0.00000000E+00  0.00000000E+00
  0.00000000E+00  0.00000000E+00  0.00000000E+00
  0.00000000E+00  0.00000000E+00  0.00000000E+00
  0.00000000E+00  0.00000000E+00  0.00000000E+00
  0.00000000E+00  0.00000000E+00  0.00000000E+00
  0.00000000E+00  0.00000000E+00  0.00000000E+00
  0.00000000E+00  0.00000000E+00  0.00000000E+00
  0.00000000E+00  0.00000000E+00  0.00000000E+00
  0.00000000E+00  0.00000000E+00  0.00000000E+00
  0.00000000E+00  0.00000000E+00  0.00000000E+00
  0.00000000E+00  0.00000000E+00  0.00000000E+00
  0.00000000E+00  0.00000000E+00  0.00000000E+00
  0.00000000E+00  0.00000000E+00  0.00000000E+00
  0.00000000E+00  0.00000000E+00  0.00000000E+00
  0.00000000E+00  0.00000000E+00  0.00000000E+00
  0.00000000E+00  0.00000000E+00  0.00000000E+00
  0.00000000E+00  0.00000000E+00  0.00000000E+00
  0.00000000E+00  0.00000000E+00  0.00000000E+00
  0.00000000E+00  0.00000000E+00  0.00000000E+00
  0.00000000E+00  0.00000000E+00  0.00000000E+00
  0.00000000E+00  0.00000000E+00  0.00000000E+00
  0.00000000E+00  0.00000000E+00  0.00000000E+00
  0.00000000E+00  0.00000000E+00  0.00000000E+00
  0.00000000E+00  0.00000000E+00  0.00000000E+00
  0.00000000E+00  0.00000000E+00  0.00000000E+00
  0.00000000E+00  0.00000000E+00  0.00000000E+00
  0.00000000E+00  0.00000000E+00  0.00000000E+00
  0.00000000E+00  0.00000000E+00  0.00000000E+00
  0.00000000E+00  0.00000000E+00  0.00000000E+00
  0.00000000E+00  0.00000000E+00  0.00000000E+00
  0.00000000E+00  0.00000000E+00  0.00000000E+00
  0.00000000E+00  0.00000000E+00  0.00000000E+00
  0.00000000E+00  0.00000000E+00  0.00000000E+00
  0.00000000E+00  0.00000000E+00  0.00000000E+00
  0.00000000E+00  0.00000000E+00  0.00000000E+00
  0.00000000E+00  0.00000000E+00  0.00000000E+00
  0.00000000E+00  0.00000000E+00  0.00000000E+00
  0.00000000E+00  0.00000000E+00  0.00000000E+00
  0.00000000E+00  0.00000000E+00  0.00000000E+00
  0.00000000E+00  0.00000000E+00  0.00000000E+00
  0.00000000E+00  0.00000000E+00  0.00000000E+00
  0.00000000E+00  0.00000000E+00  0.00000000E+00
  0.00000000E+00  0.00000000E+00  0.00000000E+00
  0.00000000E+00  0.00000000E+00  0.00000000E+00
  0.00000000E+00  0.00000000E+00  0.00000000E+00
  0.00000000E+00  0.00000000E+00  0.00000000E+00
  0.00000000E+00  0.00000000E+00  0.00000000E+00
  0.00000000E+00  0.00000000E+00  0.00000000E+00
  0.00000000E+00  0.00000000E+00  0.00000000E+00
  0.00000000E+00  0.00000000E+00  0.00000000E+00
  0.00000000E+00  0.00000000E+00  0.00000000E+00
  0.00000000E+00  0.00000000E+00  0.00000000E+00
  0.00000000E+00  0.00000000E+00  0.00000000E+00
  0.00000000E+00  0.00000000E+00  0.00000000E+00
  0.00000000E+00  0.00000000E+00  0.00000000E+00
  0.00000000E+00  0.00000000E+00  0.00000000E+00
  0.00000000E+00  0.00000000E+00  0.00000000E+00
  0.00000000E+00  0.00000000E+00  0.00000000E+00
  0.00000000E+00  0.00000000E+00  0.00000000E+00
  0.00000000E+00  0.00000000E+00  0.00000000E+00
  0.00000000E+00  0.00000000E+00  0.00000000E+00
  0.00000000E+00  0.00000000E+00  0.00000000E+00
  0.00000000E+00  0.00000000E+00  0.00000000E+00
  0.00000000E+00  0.00000000E+00  0.00000000E+00
  0.00000000E+00  0.00000000E+00  0.00000000E+00
  0.00000000E+00  0.00000000E+00  0.00000000E+00
  0.00000000E+00  0.00000000E+00  0.00000000E+00
  0.00000000E+00  0.00000000E+00  0.00000000E+00
  0.00000000E+00  0.00000000E+00  0.00000000E+00
  0.00000000E+00  0.00000000E+00  0.00000000E+00
  0.00000000E+00  0.00000000E+00  0.00000000E+00
  0.00000000E+00  0.00000000E+00  0.00000000E+00
  0.00000000E+00  0.00000000E+00  0.00000000E+00
  0.00000000E+00  0.00000000E+00  0.00000000E+00
  0.00000000E+00  0.00000000E+00  0.00000000E+00
  0.00000000E+00  0.00000000E+00  0.00000000E+00
  0.00000000E+00  0.00000000E+00  0.00000000E+00
  0.00000000E+00  0.00000000E+00  0.00000000E+00
  0.00000000E+00  0.00000000E+00  0.00000000E+00
  0.00000000E+00  0.00000000E+00  0.00000000E+00
  0.00000000E+00  0.00000000E+00  0.00000000E+00
  0.00000000E+00  0.00000000E+00  0.00000000E+00
  0.00000000E+00  0.00000000E+00  0.00000000E+00
  0.00000000E+00  0.00000000E+00  0.00000000E+00
  0.00000000E+00  0.00000000E+00  0.00000000E+00
  0.00000000E+00  0.00000000E+00  0.00000000E+00
  0.00000000E+00  0.00000000E+00  0.00000000E+00
  0.00000000E+00  0.00000000E+00  0.00000000E+00
  0.00000000E+00  0.00000000E+00  0.00000000E+00
  0.00000000E+00  0.00000000E+00  0.00000000E+00
  0.00000000E+00  0.00000000E+00  0.00000000E+00
  0.00000000E+00  0.00000000E+00  0.00000000E+00
  0.00000000E+00  0.00000000E+00  0.00000000E+00
  0.00000000E+00  0.00000000E+00  0.00000000E+00
  0.00000000E+00  0.00000000E+00  0.00000000E+00
  0.00000000E+00  0.00000000E+00  0.00000000E+00
  0.00000000E+00  0.00000000E+00  0.00000000E+00
  0.00000000E+00  0.00000000E+00  0.00000000E+00
  0.00000000E+00  0.00000000E+00  0.00000000E+00
  0.00000000E+00  0.00000000E+00  0.00000000E+00
  0.00000000E+00  0.00000000E+00  0.00000000E+00
  0.00000000E+00  0.00000000E+00  0.00000000E+00
  0.00000000E+00  0.00000000E+00  0.00000000E+00
  0.00000000E+00  0.00000000E+00  0.00000000E+00
  0.00000000E+00  0.00000000E+00  0.00000000E+00
  0.00000000E+00  0.00000000E+00  0.00000000E+00
  0.00000000E+00  0.00000000E+00  0.00000000E+00
  0.00000000E+00  0.00000000E+00  0.00000000E+00
  0.00000000E+00  0.00000000E+00  0.00000000E+00
  0.00000000E+00  0.00000000E+00  0.00000000E+00
  0.00000000E+00  0.00000000E+00  0.00000000E+00
  0.00000000E+00  0.00000000E+00  0.00000000E+00
  0.00000000E+00  0.00000000E+00  0.00000000E+00
  0.00000000E+00  0.00000000E+00  0.00000000E+00
  0.00000000E+00  0.00000000E+00  0.00000000E+00
  0.00000000E+00  0.00000000E+00  0.00000000E+00
  0.00000000E+00  0.00000000E+00  0.00000000E+00
  0.00000000E+00  0.00000000E+00  0.00000000E+00
  0.00000000E+00  0.00000000E+00  0.00000000E+00
  0.00000000E+00  0.00000000E+00  0.00000000E+00
  0.00000000E+00  0.00000000E+00  0.00000000E+00
  0.00000000E+00  0.00000000E+00  0.00000000E+00
  0.00000000E+00  0.00000000E+00  0.00000000E+00
  0.00000000E+00  0.00000000E+00  0.00000000E+00
  0.00000000E+00  0.00000000E+00  0.00000000E+00
  0.00000000E+00  0.00000000E+00  0.00000000E+00
  0.00000000E+00  0.00000000E+00  0.00000000E+00
  0.00000000E+00  0.00000000E+00  0.00000000E+00
  0.00000000E+00  0.00000000E+00  0.00000000E+00
  0.00000000E+00  0.00000000E+00  0.00000000E+00
  0.00000000E+00  0.00000000E+00  0.00000000E+00
  0.00000000E+00  0.00000000E+00  0.00000000E+00
  0.00000000E+00  0.00000000E+00  0.00000000E+00
  0.00000000E+00  0.00000000E+00  0.00000000E+00
  0.00000000E+00  0.00000000E+00  0.00000000E+00
  0.00000000E+00  0.00000000E+00  0.00000000E+00
  0.00000000E+00  0.00000000E+00  0.00000000E+00
  0.00000000E+00  0.00000000E+00  0.00000000E+00
  0.00000000E+00  0.00000000E+00  0.00000000E+00
  0.00000000E+00  0.00000000E+00  0.00000000E+00
  0.00000000E+00  0.00000000E+00  0.00000000E+00
  0.00000000E+00  0.00000000E+00  0.00000000E+00
  0.00000000E+00  0.00000000E+00  0.00000000E+00
  0.00000000E+00  0.00000000E+00  0.00000000E+00
  0.00000000E+00  0.00000000E+00  0.00000000E+00
  0.00000000E+00  0.00000000E+00  0.00000000E+00
  0.00000000E+00  0.00000000E+00  0.00000000E+00
  0.00000000E+00  0.00000000E+00  0.00000000E+00
  0.00000000E+00  0.00000000E+00  0.00000000E+00
  0.00000000E+00  0.00000000E+00  0.00000000E+00
  0.00000000E+00  0.00000000E+00  0.00000000E+00
  0.00000000E+00  0.00000000E+00  0.00000000E+00
  0.00000000E+00  0.00000000E+00  0.00000000E+00
  0.00000000E+00  0.00000000E+00  0.00000000E+00