Amorphous Sb                            
   1.00000000000000     
    20.5013969107436438    0.0000000000000000    0.0000000000000000
     0.0000000000000000   20.5013969107436438    0.0000000000000000
     0.0000000000000000    0.0000000000000000   20.5013969107436438
   Ge   Te   Se
   150    45   105
Direct
  0.0492408298820207  0.7124827033833604  0.5216928599629580
  0.4043506739205395  0.8346019563411597  0.9192100194808585
  0.1207655848675543  0.4756228528465366  0.0544682150443352
  0.2764674861532279  0.6037694917861445  0.2890743807312393
  0.9028878649253568  0.9899202734390146  0.2860193433301149
  0.2303304932146804  0.3119975647804426  0.4040916255077548
  0.8785943827083319  0.2835133647398468  0.9417732605894849
  0.4008790549454156  0.8874091598571021  0.5666694687233430
  0.6909131366390759  0.3412081125550455  0.1882272843533239
  0.9169562936889087  0.0799390521212033  0.8793327726001492
  0.9777494415992558  0.4582309165072287  0.8417324834493732
  0.5259306154887593  0.1627838261959220  0.4559177168608611
  0.2200188461310330  0.6765722995106450  0.6543823677827150
  0.1472960128809259  0.5017578078741493  0.4538658892002634
  0.3108183051570459  0.3754462527342510  0.7661309424704330
  0.9698050748494355  0.7436279466769148  0.2267825365789044
  0.9694228924877328  0.5720241620497588  0.2339737446652240
  0.7993559379510494  0.9518444630132313  0.0906326056002069
  0.5063069153776585  0.5143825269372357  0.4530451904216717
  0.6018934447687831  0.7835406820382653  0.8811387691227748
  0.9040552451861881  0.1620551607367899  0.3884204833079049
  0.4994229456840363  0.1152722813729478  0.9155368707018670
  0.4568132553359003  0.8910551425623261  0.6810056777605542
  0.7990228946407407  0.5491179996160540  0.2630273511657952
  0.6827808444337056  0.4067847338422260  0.0823990239830087
  0.3617478885427013  0.6211513061760648  0.0628399763390799
  0.1998743527210970  0.8153455270139217  0.1601532488576702
  0.8120623523171349  0.4086185201503443  0.7107823271464190
  0.0052921254713177  0.3983593997281187  0.6115773414702041
  0.7221518072067377  0.6068461811662033  0.7036360609764216
  0.2815855498095448  0.8627337982035712  0.9174749845069871
  0.4721079774643937  0.6547594749954614  0.3650248889595381
  0.6416858141645271  0.6656791652416135  0.3192777160454623
  0.3473307450635494  0.4868907063410090  0.9207863849075192
  0.6654184340849245  0.9383132315620842  0.2786216026587875
  0.4187356680929937  0.2462901286790387  0.3172158642668340
  0.6582691124418644  0.3121407576069383  0.6476549038166559
  0.0081894963995915  0.3335560210122576  0.7953711180616503
  0.3129803142287131  0.0708894144525850  0.8117964400750254
  0.2809638344251681  0.1902248919927193  0.4379319625743243
  0.5822678943521762  0.7528238797954375  0.7422633692227757
  0.3576108178432214  0.9876901221780424  0.3802657435745038
  0.9589647838388692  0.5382675313579458  0.0084281783100446
  0.6079667785199089  0.5833429326857198  0.5509852935471222
  0.0684364591098342  0.0390635712896564  0.1149281013591042
  0.5505249567712424  0.0987401925014918  0.2057160378994958
  0.7462157386277147  0.1348619301752856  0.6594352379774825
  0.6315036362368720  0.6381032430491546  0.0985299021461612
  0.4949940943666557  0.3367776761728221  0.4473351963180970
  0.1978177596022721  0.4954743029192867  0.6351867236825134
  0.0283527337994112  0.6179643254624362  0.8308687838951285
  0.8550031962092198  0.4024910692311302  0.2396891034698484
  0.1737682869890856  0.9198702967374423  0.3504751510401392
  0.5253246511971652  0.5617984598612129  0.6857559936093809
  0.8958940649044032  0.0839142293924801  0.0560730832189697
  0.1060742483976601  0.1566515055649536  0.3768410267181440
  0.0516404602063527  0.1723066736468458  0.9345489580366874
  0.0105349695414659  0.6991694003472747  0.0638726672621019
  0.5210153873353424  0.7315526294223307  0.5816094152828685
  0.8903754228749748  0.2834804534594673  0.2116029973269934
  0.2589466476366210  0.3885916336563195  0.5101878233176802
  0.7169920874219280  0.7876579844335070  0.7229133704880366
  0.8362276248700695  0.2761021938746817  0.5289481257428406
  0.1747571661081530  0.1783138053636953  0.5737755331983222
  0.5454775210673145  0.8251107861177500  0.3854771326508767
  0.5728268829176765  0.2403808341157733  0.8214521411104854
  0.1486716407476488  0.7643522217577151  0.9077301092349206
  0.7349675374792597  0.7588065719399205  0.3163426183036577
  0.2292681813709060  0.9466236734731845  0.5211196377736520
  0.2446364697046962  0.2864577585379600  0.0507333894902026
  0.3709457312421367  0.0772532894538569  0.9236024063433436
  0.7560994999439776  0.2122072461287116  0.8364230986233123
  0.6170899497338230  0.0130619327588838  0.4987781687034054
  0.3161606912572043  0.7778979529997961  0.3265437174222436
  0.6122480031675760  0.5652514383045846  0.3933327375204601
  0.8266278203091492  0.9683719370684771  0.5377229184721320
  0.0360902715355561  0.5561103912960826  0.6234160086196335
  0.9123313409241925  0.6671692030112385  0.3842057063300068
  0.9849284545239196  0.1763510805762081  0.2113575924659728
  0.1293099150058110  0.5369189705555374  0.8392964505620759
  0.1732345483866443  0.0647460205444687  0.5186661888675954
  0.4796350690731347  0.7402391784845088  0.9645716750939449
  0.0618440240000877  0.7911580093260545  0.4144399945219349
  0.6771542769368115  0.5266447504774266  0.0461078454264614
  0.3892751585980463  0.1910408838479509  0.0518810271814860
  0.2283632018923834  0.8996995059073483  0.8024350253994041
  0.7746551552554887  0.1498131165735921  0.3980539359667779
  0.0336879350604335  0.8707887574370069  0.2505950221810769
  0.3973047337522813  0.3010952964300239  0.9402040109967246
  0.0993548273165102  0.7289359425258288  0.6893911971785499
  0.5713205426653372  0.2970620952237877  0.1864905498705586
  0.7009706463223906  0.2213954611720814 -0.0012546799632184
  0.0988459858596423  0.3588844359471757  0.1922408077914238
  0.4115188491946846  0.8272224938242073  0.7818786738331230
  0.2829746386306979  0.9843230590783144  0.9465540406854389
  0.9336452335637809  0.0443144474560758  0.6530556015792187
  0.2988902605047998  0.2646146460168998  0.8691519096919706
  0.0280749750583207  0.1270327944824088  0.6276861556610289
  0.7112870424796691  0.7682238950049479  0.9911301763132895
  0.4935019847704709  0.4950181957174537  0.0267919089445310
  0.8390160317526651  0.8297756430486701  0.0255500919158890
  0.6477803433830918  0.9923094310184846  0.1377718296367998
  0.0050089357822896  0.1796138487521356  0.0691619846438709
  0.5566862248576347  0.1042423291752501  0.6797389495727236
  0.4602859885532244  0.8393794037173710  0.1383984253784245
  0.6723093168839650  0.3214805974977261  0.3995543139019884
  0.1782076960744745  0.6510912109597372  0.0968527336477919
  0.2672442596761849  0.0284918823132637  0.6515592814805834
  0.2715897530448800  0.4747812534387559  0.1873087992135798
  0.8001549192895299  0.6480457085759156  0.0592221665325581
  0.2237581611751295  0.8502792200184777  0.0328434932267025
  0.7434312037186334  0.4486761141640827  0.5180999484733160
  0.5993759992891113  0.7796144223908823  0.1421246965477089
  0.9369426047964178  0.8251753092144979  0.6395775414010053
  0.4435111751614162  0.4112092066080196  0.6163130240302311
  0.0301227509887045  0.9012807842055232  0.0537016107242038
  0.3138880904351161  0.9277380874538776  0.0995943614281100
  0.1573941921932657  0.1860138448127898  0.1943951112246959
  0.3328817954035459  0.6708280812960994  0.4729013276313753
  0.1557360376628521  0.1816566050274058  0.7373701229572124
  0.7622788264662060  0.6284459856081958  0.8823929502151222
  0.1438478940646277  0.2856624049415708  0.6645811029009636
  0.6820644697357222  0.9248002003822765  0.6974169181859091
  0.3498904121668475  0.0844134351721049  0.2181109631365406
  0.7303480002393694  0.9751061212276565  0.8552572882871963
  0.2522691287070852  0.5012678599674389  0.0070054866966245
  0.3807609468830370  0.8559136994552489  0.2417978026443548
  0.9990830402890276  0.9563927198067009  0.4423433403826700
  0.8716019434149984  0.4599728635207285  0.5365686588447576
  0.4286526070613844  0.4989569872439650  0.3222089385461315
  0.7294906407202405  0.1587199341668363  0.2181888905306852
  0.0499906215892121  0.8015057475094832  0.7789822334470429
  0.3913332934433875  0.7162544787614299  0.6595909894871604
  0.4650874557839180  0.9576162454369895  0.0798901283296602
  0.3415974245741819  0.3536889273128857  0.3221017661421400
  0.6224899933807182  0.5177873830965213  0.7887226502072318
  0.7221341575991971  0.6813886022482599  0.5281623029594391
  0.8647603318746856  0.8111539748399730  0.4797334941912060
  0.5939081211913466  0.3776808055437550  0.9368474395574533
  0.4768107518275057  0.9939184696881161  0.4445349111275037
  0.4942126482581038  0.3702576404089977  0.7870997910285249
  0.9384896994499773  0.4100342792656299  0.0391242930214652
  0.8792833937029245  0.0280341731262206  0.7675141990105309
  0.6118215050024532  0.5027175763246614  0.1824312625637435
  0.2967472847928179  0.8425728118905257  0.6241650192489525
  0.2764033086002735  0.4772204386282609  0.3446766573048898
  0.8534761967778306  0.7075268377080473  0.6418522801924800
  0.1327687764995163  0.3197960013221935  0.8730483102405179
  0.3235996498803876  0.6110503819867042  0.7898209684110625
  0.0071460823431770  0.4916435016110543  0.4035466300911541
  0.2458312394591163  0.7550731512514917  0.5386682885239810
  0.7463419372981007  0.0224025233879873  0.3790577067149158
  0.9892227019793894  0.6524504885153853  0.7075695290909247
  0.9227562986645848  0.8808467280196152  0.9348096180261348
  0.8458087804637847  0.9912483943930567  0.9502457379468620
  0.8298248454561725  0.4851339907193789  0.1448103914438981
  0.4587588126413451  0.9518209400424258  0.9469582249128154
  0.0399658543975176  0.6094150030076417  0.3481622501328855
  0.4421303224539408  0.1864009415551912  0.1993725758639927
  0.0330139354641815  0.0426657521769178  0.9254947280196201
  0.1907243502217514  0.6471016983672018  0.7970203981840329
  0.0192547504978888  0.2678091694748428  0.3101733022757521
  0.1976522163070003  0.0247968016057549  0.8529478644922773
  0.9400808156904518  0.8172006654549426  0.1140520353437862
  0.7388957438811817  0.5467314731975663  0.4243081796179448
  0.9143220145700830  0.5748324402913674  0.8843925827510366
  0.7038683827138278  0.1393784216358487  0.5088075292015356
  0.7598752222198698  0.7974633372872566  0.5942115404406028
  0.3828237069355688  0.7713780952857410  0.0524052449475381
  0.5046687344217750  0.9911503592014728  0.7539435838280176
  0.4438511702472048  0.2545030659707888  0.5351091107281850
  0.6317142033101337  0.4869502712958319  0.6510314918499706
  0.5909550219441636  0.7275457143416370  0.4694360733318925
  0.6338990832112592  0.2551786780650693  0.5227129273624578
  0.5649189342772221  0.4750839992987911  0.3056198137055557
  0.9395072937720770  0.8058134470584603  0.3641860169581925
  0.7797442712683853  0.8916333838721789  0.2161720101112151
  0.7372734775677785  0.7759115091649361  0.1537423395976826
  0.4310276528096471  0.5894029248855306  0.9432393775943106
  0.0900535052353625  0.4806913614347179  0.7199207748953372
  0.7308628833545892  0.4103550567612871  0.2894664513454572
  0.9591575913813011  0.2194164794352791  0.8503857263828475
  0.2579407296872510  0.1412422967542533  0.1314014693241063
  0.5748588593109901  0.0493708035820950  0.3726799070039501
  0.1257601509335007  0.2530146782314110  0.4715154928719307
  0.4141957343569947  0.4061223939537863  0.2257963629039553
  0.4968741089406464  0.2928886931829011  0.6561844280745426
  0.2876441113889266  0.1703592592704253  0.7330115645003187
  0.3975316333842225  0.1383798571549815  0.3911023808521331
  0.0428947026794701  0.0738924955390600  0.4964005203512642
  0.7250137561072849  0.8353902549370017  0.8710058391562295
  0.7258212443917932  0.3539829704975385  0.9651387158559284
  0.2747330040169705  0.6997714516214628  0.1825866248803935
  0.3166122527166305  0.3613320025419041  0.6307035225928939
  0.5735204154448973  0.8255669236563342  0.0146366331218191
  0.6787861771644986  0.6047029139235263  0.2138336408305317
  0.3437284688229915  0.9966750815666947  0.5550576512795314
  0.3041089588758224  0.7839438078756693  0.7335029568966425
  0.7787992485119768  0.5468846038581056  0.9846241619832703
  0.9517034435173374  0.0032731663458334  0.1306483401491216
  0.7830343118447705  0.3548692441887321  0.4459643719673786
  0.1651921873822748  0.2446771532651638  0.2967505432803614
  0.7971453438928748  0.6007753186947616  0.6036853041894620
  0.5263280904839153  0.5755522613487647  0.1236151405364419
  0.6131089550342766  0.6761533001786950  0.6455660720726347
  0.6688155283975716  0.8506470067834565  0.3676716691126101
  0.1076729897075647  0.8970794575675238  0.4603596456100223
  0.8081638213327116  0.1791691290077214  0.9479399411789512
  0.4476785737421077  0.4084779234082562  0.9067535654910557
  0.1121015872171534  0.8000133607272149  0.0217080952781251
  0.4067408442794919  0.7531657254293045  0.4082482497095724
  0.0235756736108383  0.9795244139457197  0.3187103852683968
  0.6519287527120398  0.1701419172423845  0.8918703564835981
  0.9565730611738880  0.8660246387607045  0.7533907783992304
  0.9268211649992061  0.7098259114719383  0.5189837836780468
  0.7440950901778787  0.5249278629784985  0.8041811069241636
  0.5100781891319941  0.0704201339801629  0.5415329018598865
  0.6602600781168994  0.0397737929655005  0.6502452536578460
  0.7930557820486143  0.7023741372424700  0.7594127844231384
  0.5462628294624770  0.0476310776361271  0.0867145828990605
  0.5841729900575490  0.8950413063587198  0.1921520096462528
  0.2860027912003444  0.8781937398094710  0.3955804283606340
  0.6486735112862250  0.6759147187161677  0.9263067747528237
  0.8448050529000801  0.0855451055908008  0.5828068859014290
  0.1533611295993827  0.1940453031140160  0.8628701362838869
  0.8930026060294713  0.1148144356407185  0.2740318724707161
  0.2024781476808781  0.9177826784371924  0.6418560942178784
  0.2437169112364696  0.6679386236290685  0.3870489770523646
  0.9379594852434211  0.5457064261349537  0.4870047216693461
  0.9339908774950543  0.3561877337639112  0.5147165814776222
  0.3684062932152171  0.3147385662957232  0.0585210342040528
  0.3438079446835709  0.4913792838311983  0.0884028825602041
  0.9166481417181049  0.6199003945160307  0.0918742860170533
  0.6897394157913519  0.9404480087495289  0.0395709404281575
  0.6236978970436297  0.1850731410459186  0.1532015749977483
  0.1146002737474149  0.8720253005328390  0.8524010885237520
  0.9287584313166570  0.2704174433885791  0.0570668757000628
  0.5664409580811459  0.3685512879806696  0.0827558183628979
  0.0718900477421282  0.5812874101005369  0.0017281264899718
  0.1450957375033362  0.4164908023238585  0.5504405845184475
  0.1285490853277131  0.8078893974204964  0.3100905817862016
  0.4844582085894241  0.5769781705609577  0.5624117105371312
  0.2852539026558976  0.4931284180767074  0.8150076524254335
  0.2083174271122235  0.9759725758936395  0.0438202967717325
  0.5306786316734998  0.2798035481142510  0.3497062852473011
  0.0839013063331592  0.0979846804956222  0.2291024196983007
  0.8654842009835813 -0.0141180260108842  0.4138634523570460
  0.5988684186485620  0.5045995457178939  0.9552109562030014
  0.2137635668427239  0.0891370250412261  0.4052175138290972
  0.0983376352297746  0.2554274779149936  0.1161326887724882
  0.6447451207954542  0.2095509226657489  0.7203295197183300
  0.0216362709866446  0.4375971981497069  0.1280357984790760
  0.7791707455699693  0.1002931616007889  0.7779363157032577
  0.8354087551448652  0.7185893855899451  0.9653789013994063
  0.2705326963168334  0.9069304499148734  0.2125774118215460
  0.8918052451513779  0.2764522449624795  0.3399642758308747
  0.8740181587080865  0.6568764917388468  0.2552621859939578
  0.4874429593203032  0.2268186583327872  0.9746266618894767
  0.0154144633916992  0.4009768004686084  0.9427897521157308
  0.3335548291591056  0.6060042205359423  0.6655358382320502
  0.2979400697898928  0.1739751304211860  0.9594133005381085
  0.0263491516534668  0.7313063039915797  0.8779739262500748
  0.1032331219537283  0.0779664588108636  0.7110131440437696
  0.1678668467767346  0.5406763220360628  0.1516699272033634
  0.7903983587569672  0.7239519898764212  0.4260955762983318
  0.8015956102887102  0.9329338746687592  0.7607811639122236
  0.6948719290852158  0.2112155566287776  0.3347417471810929
  0.0571356165492264  0.6765686905067582  0.1766632477432527
  0.1490979681264411  0.6003911883525715  0.5828531902396348
  0.7778995021544259  0.2594542378075369  0.1615718891805692
  0.9070840634503128  0.4668013176773105  0.6548749503808255
  0.9061433600928731  0.4813518542285287  0.3154790767617028
  0.4289563771045336  0.9564057474108212  0.2872258508136061
  0.1663948027224328  0.4266594709208905  0.3538829160457665
  0.2565743025323465  0.6256269197395896  0.9961765839308772
  0.7908246257391794  0.0742574937627647  0.1149041111905829
  0.5740977681708923  0.4125988052641916  0.4904861249026669
  0.2939953533789753  0.1770429301511663  0.5549596430294164
  0.2733074140210573  0.5057407279744633  0.4726061861031898
  0.1045141562209350  0.9237562484866976  0.1612356720477813
  0.5389936879646281  0.9040723376564065  0.4936694475890428
  0.6142876365687704  0.3965614379511146  0.8075215523265376
  0.4474799013131039  0.4676311492563193  0.7284675697429871
  0.3483563546179622  0.9856633874944708  0.7366236492960723
  0.9395056809269857  0.9418726667195833  0.5836805097234850
  0.5616781830328399  0.8352637987592538  0.6532313436469439
  0.2154239239791443  0.3722842984857975  0.1420367733189812
  0.3985011932270980  0.6131488638839055  0.2699886976466941
  0.0561977042755859  0.8075709416082413  0.6035998728689788
  0.3720751117970187  0.0391312147864643  0.1018998294843310
  0.7911692737685847  0.3000224872285719  0.6426880141243814
  0.6098048673005145  0.9323043696595902  0.7987089791625385
  0.5410637822669251  0.7192798818833585  0.2850864911048465
  0.3951687314913547  0.3952943269124767  0.4253186801997193
  0.4618010196521127  0.7142833999785041  0.7651597902846802
  0.0168385447718057  0.2899583628123153  0.6762903149111243
  0.2378757957307915  0.3502575296797010  0.9386521350178759
  0.1888558330728080  0.3519857777255760  0.7662865790673768
  0.4859213511666088  0.1555951451820219  0.8006040527952442
  0.8859904799750948  0.3736804628660519  0.8061127089732083
 
  0.00000000E+00  0.00000000E+00  0.00000000E+00
  0.00000000E+00  0.00000000E+00  0.00000000E+00
  0.00000000E+00  0.00000000E+00  0.00000000E+00
  0.00000000E+00  0.00000000E+00  0.00000000E+00
  0.00000000E+00  0.00000000E+00  0.00000000E+00
  0.00000000E+00  0.00000000E+00  0.00000000E+00
  0.00000000E+00  0.00000000E+00  0.00000000E+00
  0.00000000E+00  0.00000000E+00  0.00000000E+00
  0.00000000E+00  0.00000000E+00  0.00000000E+00
  0.00000000E+00  0.00000000E+00  0.00000000E+00
  0.00000000E+00  0.00000000E+00  0.00000000E+00
  0.00000000E+00  0.00000000E+00  0.00000000E+00
  0.00000000E+00  0.00000000E+00  0.00000000E+00
  0.00000000E+00  0.00000000E+00  0.00000000E+00
  0.00000000E+00  0.00000000E+00  0.00000000E+00
  0.00000000E+00  0.00000000E+00  0.00000000E+00
  0.00000000E+00  0.00000000E+00  0.00000000E+00
  0.00000000E+00  0.00000000E+00  0.00000000E+00
  0.00000000E+00  0.00000000E+00  0.00000000E+00
  0.00000000E+00  0.00000000E+00  0.00000000E+00
  0.00000000E+00  0.00000000E+00  0.00000000E+00
  0.00000000E+00  0.00000000E+00  0.00000000E+00
  0.00000000E+00  0.00000000E+00  0.00000000E+00
  0.00000000E+00  0.00000000E+00  0.00000000E+00
  0.00000000E+00  0.00000000E+00  0.00000000E+00
  0.00000000E+00  0.00000000E+00  0.00000000E+00
  0.00000000E+00  0.00000000E+00  0.00000000E+00
  0.00000000E+00  0.00000000E+00  0.00000000E+00
  0.00000000E+00  0.00000000E+00  0.00000000E+00
  0.00000000E+00  0.00000000E+00  0.00000000E+00
  0.00000000E+00  0.00000000E+00  0.00000000E+00
  0.00000000E+00  0.00000000E+00  0.00000000E+00
  0.00000000E+00  0.00000000E+00  0.00000000E+00
  0.00000000E+00  0.00000000E+00  0.00000000E+00
  0.00000000E+00  0.00000000E+00  0.00000000E+00
  0.00000000E+00  0.00000000E+00  0.00000000E+00
  0.00000000E+00  0.00000000E+00  0.00000000E+00
  0.00000000E+00  0.00000000E+00  0.00000000E+00
  0.00000000E+00  0.00000000E+00  0.00000000E+00
  0.00000000E+00  0.00000000E+00  0.00000000E+00
  0.00000000E+00  0.00000000E+00  0.00000000E+00
  0.00000000E+00  0.00000000E+00  0.00000000E+00
  0.00000000E+00  0.00000000E+00  0.00000000E+00
  0.00000000E+00  0.00000000E+00  0.00000000E+00
  0.00000000E+00  0.00000000E+00  0.00000000E+00
  0.00000000E+00  0.00000000E+00  0.00000000E+00
  0.00000000E+00  0.00000000E+00  0.00000000E+00
  0.00000000E+00  0.00000000E+00  0.00000000E+00
  0.00000000E+00  0.00000000E+00  0.00000000E+00
  0.00000000E+00  0.00000000E+00  0.00000000E+00
  0.00000000E+00  0.00000000E+00  0.00000000E+00
  0.00000000E+00  0.00000000E+00  0.00000000E+00
  0.00000000E+00  0.00000000E+00  0.00000000E+00
  0.00000000E+00  0.00000000E+00  0.00000000E+00
  0.00000000E+00  0.00000000E+00  0.00000000E+00
  0.00000000E+00  0.00000000E+00  0.00000000E+00
  0.00000000E+00  0.00000000E+00  0.00000000E+00
  0.00000000E+00  0.00000000E+00  0.00000000E+00
  0.00000000E+00  0.00000000E+00  0.00000000E+00
  0.00000000E+00  0.00000000E+00  0.00000000E+00
  0.00000000E+00  0.00000000E+00  0.00000000E+00
  0.00000000E+00  0.00000000E+00  0.00000000E+00
  0.00000000E+00  0.00000000E+00  0.00000000E+00
  0.00000000E+00  0.00000000E+00  0.00000000E+00
  0.00000000E+00  0.00000000E+00  0.00000000E+00
  0.00000000E+00  0.00000000E+00  0.00000000E+00
  0.00000000E+00  0.00000000E+00  0.00000000E+00
  0.00000000E+00  0.00000000E+00  0.00000000E+00
  0.00000000E+00  0.00000000E+00  0.00000000E+00
  0.00000000E+00  0.00000000E+00  0.00000000E+00
  0.00000000E+00  0.00000000E+00  0.00000000E+00
  0.00000000E+00  0.00000000E+00  0.00000000E+00
  0.00000000E+00  0.00000000E+00  0.00000000E+00
  0.00000000E+00  0.00000000E+00  0.00000000E+00
  0.00000000E+00  0.00000000E+00  0.00000000E+00
  0.00000000E+00  0.00000000E+00  0.00000000E+00
  0.00000000E+00  0.00000000E+00  0.00000000E+00
  0.00000000E+00  0.00000000E+00  0.00000000E+00
  0.00000000E+00  0.00000000E+00  0.00000000E+00
  0.00000000E+00  0.00000000E+00  0.00000000E+00
  0.00000000E+00  0.00000000E+00  0.00000000E+00
  0.00000000E+00  0.00000000E+00  0.00000000E+00
  0.00000000E+00  0.00000000E+00  0.00000000E+00
  0.00000000E+00  0.00000000E+00  0.00000000E+00
  0.00000000E+00  0.00000000E+00  0.00000000E+00
  0.00000000E+00  0.00000000E+00  0.00000000E+00
  0.00000000E+00  0.00000000E+00  0.00000000E+00
  0.00000000E+00  0.00000000E+00  0.00000000E+00
  0.00000000E+00  0.00000000E+00  0.00000000E+00
  0.00000000E+00  0.00000000E+00  0.00000000E+00
  0.00000000E+00  0.00000000E+00  0.00000000E+00
  0.00000000E+00  0.00000000E+00  0.00000000E+00
  0.00000000E+00  0.00000000E+00  0.00000000E+00
  0.00000000E+00  0.00000000E+00  0.00000000E+00
  0.00000000E+00  0.00000000E+00  0.00000000E+00
  0.00000000E+00  0.00000000E+00  0.00000000E+00
  0.00000000E+00  0.00000000E+00  0.00000000E+00
  0.00000000E+00  0.00000000E+00  0.00000000E+00
  0.00000000E+00  0.00000000E+00  0.00000000E+00
  0.00000000E+00  0.00000000E+00  0.00000000E+00
  0.00000000E+00  0.00000000E+00  0.00000000E+00
  0.00000000E+00  0.00000000E+00  0.00000000E+00
  0.00000000E+00  0.00000000E+00  0.00000000E+00
  0.00000000E+00  0.00000000E+00  0.00000000E+00
  0.00000000E+00  0.00000000E+00  0.00000000E+00
  0.00000000E+00  0.00000000E+00  0.00000000E+00
  0.00000000E+00  0.00000000E+00  0.00000000E+00
  0.00000000E+00  0.00000000E+00  0.00000000E+00
  0.00000000E+00  0.00000000E+00  0.00000000E+00
  0.00000000E+00  0.00000000E+00  0.00000000E+00
  0.00000000E+00  0.00000000E+00  0.00000000E+00
  0.00000000E+00  0.00000000E+00  0.00000000E+00
  0.00000000E+00  0.00000000E+00  0.00000000E+00
  0.00000000E+00  0.00000000E+00  0.00000000E+00
  0.00000000E+00  0.00000000E+00  0.00000000E+00
  0.00000000E+00  0.00000000E+00  0.00000000E+00
  0.00000000E+00  0.00000000E+00  0.00000000E+00
  0.00000000E+00  0.00000000E+00  0.00000000E+00
  0.00000000E+00  0.00000000E+00  0.00000000E+00
  0.00000000E+00  0.00000000E+00  0.00000000E+00
  0.00000000E+00  0.00000000E+00  0.00000000E+00
  0.00000000E+00  0.00000000E+00  0.00000000E+00
  0.00000000E+00  0.00000000E+00  0.00000000E+00
  0.00000000E+00  0.00000000E+00  0.00000000E+00
  0.00000000E+00  0.00000000E+00  0.00000000E+00
  0.00000000E+00  0.00000000E+00  0.00000000E+00
  0.00000000E+00  0.00000000E+00  0.00000000E+00
  0.00000000E+00  0.00000000E+00  0.00000000E+00
  0.00000000E+00  0.00000000E+00  0.00000000E+00
  0.00000000E+00  0.00000000E+00  0.00000000E+00
  0.00000000E+00  0.00000000E+00  0.00000000E+00
  0.00000000E+00  0.00000000E+00  0.00000000E+00
  0.00000000E+00  0.00000000E+00  0.00000000E+00
  0.00000000E+00  0.00000000E+00  0.00000000E+00
  0.00000000E+00  0.00000000E+00  0.00000000E+00
  0.00000000E+00  0.00000000E+00  0.00000000E+00
  0.00000000E+00  0.00000000E+00  0.00000000E+00
  0.00000000E+00  0.00000000E+00  0.00000000E+00
  0.00000000E+00  0.00000000E+00  0.00000000E+00
  0.00000000E+00  0.00000000E+00  0.00000000E+00
  0.00000000E+00  0.00000000E+00  0.00000000E+00
  0.00000000E+00  0.00000000E+00  0.00000000E+00
  0.00000000E+00  0.00000000E+00  0.00000000E+00
  0.00000000E+00  0.00000000E+00  0.00000000E+00
  0.00000000E+00  0.00000000E+00  0.00000000E+00
  0.00000000E+00  0.00000000E+00  0.00000000E+00
  0.00000000E+00  0.00000000E+00  0.00000000E+00
  0.00000000E+00  0.00000000E+00  0.00000000E+00
  0.00000000E+00  0.00000000E+00  0.00000000E+00
  0.00000000E+00  0.00000000E+00  0.00000000E+00
  0.00000000E+00  0.00000000E+00  0.00000000E+00
  0.00000000E+00  0.00000000E+00  0.00000000E+00
  0.00000000E+00  0.00000000E+00  0.00000000E+00
  0.00000000E+00  0.00000000E+00  0.00000000E+00
  0.00000000E+00  0.00000000E+00  0.00000000E+00
  0.00000000E+00  0.00000000E+00  0.00000000E+00
  0.00000000E+00  0.00000000E+00  0.00000000E+00
  0.00000000E+00  0.00000000E+00  0.00000000E+00
  0.00000000E+00  0.00000000E+00  0.00000000E+00
  0.00000000E+00  0.00000000E+00  0.00000000E+00
  0.00000000E+00  0.00000000E+00  0.00000000E+00
  0.00000000E+00  0.00000000E+00  0.00000000E+00
  0.00000000E+00  0.00000000E+00  0.00000000E+00
  0.00000000E+00  0.00000000E+00  0.00000000E+00
  0.00000000E+00  0.00000000E+00  0.00000000E+00
  0.00000000E+00  0.00000000E+00  0.00000000E+00
  0.00000000E+00  0.00000000E+00  0.00000000E+00
  0.00000000E+00  0.00000000E+00  0.00000000E+00
  0.00000000E+00  0.00000000E+00  0.00000000E+00
  0.00000000E+00  0.00000000E+00  0.00000000E+00
  0.00000000E+00  0.00000000E+00  0.00000000E+00
  0.00000000E+00  0.00000000E+00  0.00000000E+00
  0.00000000E+00  0.00000000E+00  0.00000000E+00
  0.00000000E+00  0.00000000E+00  0.00000000E+00
  0.00000000E+00  0.00000000E+00  0.00000000E+00
  0.00000000E+00  0.00000000E+00  0.00000000E+00
  0.00000000E+00  0.00000000E+00  0.00000000E+00
  0.00000000E+00  0.00000000E+00  0.00000000E+00
  0.00000000E+00  0.00000000E+00  0.00000000E+00
  0.00000000E+00  0.00000000E+00  0.00000000E+00
  0.00000000E+00  0.00000000E+00  0.00000000E+00
  0.00000000E+00  0.00000000E+00  0.00000000E+00
  0.00000000E+00  0.00000000E+00  0.00000000E+00
  0.00000000E+00  0.00000000E+00  0.00000000E+00
  0.00000000E+00  0.00000000E+00  0.00000000E+00
  0.00000000E+00  0.00000000E+00  0.00000000E+00
  0.00000000E+00  0.00000000E+00  0.00000000E+00
  0.00000000E+00  0.00000000E+00  0.00000000E+00
  0.00000000E+00  0.00000000E+00  0.00000000E+00
  0.00000000E+00  0.00000000E+00  0.00000000E+00
  0.00000000E+00  0.00000000E+00  0.00000000E+00
  0.00000000E+00  0.00000000E+00  0.00000000E+00
  0.00000000E+00  0.00000000E+00  0.00000000E+00
  0.00000000E+00  0.00000000E+00  0.00000000E+00
  0.00000000E+00  0.00000000E+00  0.00000000E+00
  0.00000000E+00  0.00000000E+00  0.00000000E+00
  0.00000000E+00  0.00000000E+00  0.00000000E+00
  0.00000000E+00  0.00000000E+00  0.00000000E+00
  0.00000000E+00  0.00000000E+00  0.00000000E+00
  0.00000000E+00  0.00000000E+00  0.00000000E+00
  0.00000000E+00  0.00000000E+00  0.00000000E+00
  0.00000000E+00  0.00000000E+00  0.00000000E+00
  0.00000000E+00  0.00000000E+00  0.00000000E+00
  0.00000000E+00  0.00000000E+00  0.00000000E+00
  0.00000000E+00  0.00000000E+00  0.00000000E+00
  0.00000000E+00  0.00000000E+00  0.00000000E+00
  0.00000000E+00  0.00000000E+00  0.00000000E+00
  0.00000000E+00  0.00000000E+00  0.00000000E+00
  0.00000000E+00  0.00000000E+00  0.00000000E+00
  0.00000000E+00  0.00000000E+00  0.00000000E+00
  0.00000000E+00  0.00000000E+00  0.00000000E+00
  0.00000000E+00  0.00000000E+00  0.00000000E+00
  0.00000000E+00  0.00000000E+00  0.00000000E+00
  0.00000000E+00  0.00000000E+00  0.00000000E+00
  0.00000000E+00  0.00000000E+00  0.00000000E+00
  0.00000000E+00  0.00000000E+00  0.00000000E+00
  0.00000000E+00  0.00000000E+00  0.00000000E+00
  0.00000000E+00  0.00000000E+00  0.00000000E+00
  0.00000000E+00  0.00000000E+00  0.00000000E+00
  0.00000000E+00  0.00000000E+00  0.00000000E+00
  0.00000000E+00  0.00000000E+00  0.00000000E+00
  0.00000000E+00  0.00000000E+00  0.00000000E+00
  0.00000000E+00  0.00000000E+00  0.00000000E+00
  0.00000000E+00  0.00000000E+00  0.00000000E+00
  0.00000000E+00  0.00000000E+00  0.00000000E+00
  0.00000000E+00  0.00000000E+00  0.00000000E+00
  0.00000000E+00  0.00000000E+00  0.00000000E+00
  0.00000000E+00  0.00000000E+00  0.00000000E+00
  0.00000000E+00  0.00000000E+00  0.00000000E+00
  0.00000000E+00  0.00000000E+00  0.00000000E+00
  0.00000000E+00  0.00000000E+00  0.00000000E+00
  0.00000000E+00  0.00000000E+00  0.00000000E+00