Amorphous GeTe6                         
   1.00000000000000     
    22.3444198496002358    0.0000000000000000    0.0000000000000000
     0.0000000000000000   22.3444198496002358    0.0000000000000000
     0.0000000000000000    0.0000000000000000   22.3444198496002358
   Al   Te
    30   270
Direct
  0.0608277769846006  0.4845365588595990  0.8025271334710737
  0.9961648006876620  0.5975365428056832  0.4722156099316890
  0.0837689941404860  0.8975678136086518  0.6717245974748983
  0.4719541074236610  0.8528508530295645  0.5971967243280923
  0.6874077436401270  0.4385254409939339  0.9453279077010492
  0.0973226066129871  0.2401134827718901  0.6700793902179527
  0.7472429200061192  0.8536015957263480  0.7905817469890529
  0.1321850259558713  0.5282774121860236  0.2135001166399647
  0.5993133638834254  0.4421217276201703  0.2059671411787124
  0.3511846302145054  0.7035869005275882  0.1660562211426777
  0.0201653940950803  0.2262438812251508  0.5057846311293384
  0.1222627522829528  0.3795584426307776  0.9953695266634729
  0.6346367803159613  0.6171902387830652  0.9041696496245468
  0.4410863386707325  0.8255196995461376  0.4243484919721432
  0.9762318209019584  0.8265416121101566  0.9795563173017735
  0.2084371193040786  0.9148275071248946  0.5913175117025334
  0.5139694913269693  0.8018850795150377  0.7519907613962797
  0.3897977856836988  0.4941965319600928  0.8266966666278998
  0.2577491935441387  0.4794826873601242  0.7089725651142661
  0.7380770641857735  0.6376468746191049  0.5562836049921347
  0.4106290972515269  0.3849063058594117  0.1540006407571263
  0.5526558914715688  0.4302087872301315  0.8708253747163361
  0.2535428059792447  0.4516936520056566  0.0965654321968346
  0.0164686832496032  0.9711445288189582  0.9098816281899827
  0.3364344207052327  0.5307696368088458  0.2609508932790403
  0.8126853345977292  0.5243436795306214  0.5757992492230491
  0.9313560354621802  0.1010651143823255  0.3136930904392993
  0.8612787174472760  0.0352154834620586  0.6413874993071834
  0.7854771738946912  0.1297657161721543  0.3228191367166272
  0.1239980421404808  0.8179304214433591  0.5195884150084709
  0.3336838753660267  0.8587726615849427  0.3704284393827418
  0.6277288785968439  0.1465790705591947  0.5768901066961304
  0.1234704517962586  0.2605707271882526  0.5515524721423125
  0.7849439672773723  0.3820678982698371  0.9140041611993370
  0.0700442868575187  0.6833966209271670  0.4382719485933617
  0.8724980102909461  0.9367901338781836  0.1202664498263515
  0.2636685760250925  0.8925165105303077  0.1836544936394441
  0.4753910137453866  0.9432520683351423  0.9844751118155366
  0.4095961534739681  0.1264380865333856  0.2824916234120209
  0.8238141303321630  0.1520530673309620  0.9636210440243700
  0.1378863657894889  0.9567036384391838  0.0713096344172417
  0.2130207794447265  0.0824133085450187  0.4995995069273049
  0.0394445982361690  0.0735949128473535  0.1013842387169990
  0.7402396316755008  0.1519655397275334  0.8437725139073116
  0.7117544219915567  0.6811552590965437  0.0632686120759494
  0.1409276988850156  0.4153600536105629  0.1059265496548132
  0.4899204530661835  0.7391868280471013  0.5668600424487539
  0.8918554261950410  0.1872452296915564  0.7885387749964515
  0.6124786671536780  0.4357078930286914  0.7000401333242469
  0.6168677185133864  0.6276505209232369  0.2493462959890752
  0.3520529157472797  0.1731938663772874  0.0876343950379010
  0.6361382383963290  0.1986330370052700  0.3612603964144753
  0.2299732819907663  0.1013357442040361  0.9891272629845300
  0.5855915236596861  0.3662238031640292  0.1153151874441811
  0.4195467945208737  0.6432950350782276  0.7183706329329271
  0.3081986435866798  0.1576522125776301  0.4332851306322508
  0.7911981083001836  0.7802524886003768  0.3601161915682089
  0.9867203555256160  0.0095731091699414  0.3628112525544561
  0.5665201536255100  0.4240748959789427  0.5780247969264936
  0.0110075213260347  0.1089915132244033  0.5090986463214976
  0.4263324270779525  0.9119023853318355  0.1045696627159632
  0.7847891311634432  0.5952312804653799  0.9863393990533836
  0.8490913782657581  0.9182570984731255  0.5066473667215221
  0.1204445874131425  0.1060398430891511  0.9282015177240224
  0.1143951554008771  0.8764095808395534  0.3293411570480651
  0.8427499049816939  0.8127540636283943  0.7318259203518576
  0.5361746489973048  0.6733520654997246  0.8667948387762443
  0.7503473031130936  0.3161962846157464  0.5275692141581285
  0.9630036515444657  0.3778493885378842  0.4849620804357707
  0.1412575350865037  0.4833557170044536  0.3831801551391466
  0.8283264220831820  0.7490864363003509  0.0804649879130647
  0.7442956369024443  0.2198235502091480  0.6111137048131724
  0.5178498050478852  0.5258545557311819  0.3711888738520883
  0.2701686401883958  0.5813809483389625  0.5832963267468804
  0.0673070520959592  0.7417421706880034  0.2228660045607693
  0.6851930837687489  0.4918475799427296  0.0508964977400367
  0.0459371516927790  0.1836568598616803  0.7686190410825391
  0.9362418874793561  0.2854850535519730  0.5697337974425019
  0.5227374006381476  0.3760356314602141  0.7698570510192998
  0.1401399759693910  0.5884948505594438  0.8257528364088544
  0.5858721709254961  0.8880926328724823  0.1670705843942367
  0.4494747628024457  0.1545506945695305  0.6273530057472463
  0.4308939210660264  0.3242167787479598  0.8771386287490164
  0.6796976521812867  0.0873367353153449  0.2044676056654527
  0.6320647277855775  0.9784662881566299  0.4795668283507983
  0.0666747230116453  0.5363094768296867  0.1147886182744664
  0.2451938539908782  0.6454224060648692  0.3496399583026017
  0.7338183012973909  0.7248992083719140  0.6834265219321035
  0.4125525305854811  0.2106452863924061  0.8183784902610901
  0.8987980038783359  0.7059354041701219  0.7800592614409626
  0.2573033776025009  0.7543526998250265  0.2200404123709071
  0.3960119099441944  0.7897675250957840  0.7390711552635217
  0.1768313276159083  0.9848202213189620  0.3256881468391274
  0.1888604643916718  0.1895304679924623  0.1084392958933648
  0.6032109412378799  0.6100853149216788  0.0176387229092771
  0.5508815314518963  0.8206462783333937  0.8636949321709133
  0.5189046952169253  0.1526332988131987  0.8606864519718656
  0.6108144708022974  0.7705453217382771  0.2067467338603308
  0.2385701321975468  0.8012237255993040  0.5588188435790924
  0.3259613636266016  0.6878411361046437  0.0498107970100650
  0.4630502996213560  0.1082183200305009  0.0638263995463970
  0.8760904447402318  0.5178534966260171  0.1453807418045487
  0.8715306814661753  0.4051738511176204  0.2847135073953134
  0.6103887239292622  0.8768366008158103  0.0424504783306418
  0.6791040851150043  0.1474190169119547  0.7308768297437469
  0.8902529663078069  0.7474434525507228  0.2087970467963849
  0.7837335842638543  0.0242578026846172  0.7299844364985584
  0.7913023687868607  0.6796578912031860  0.2680419178790728
  0.4161323746512814  0.4354726128756644  0.6594116466295601
  0.7553750086043095  0.9093331613919288  0.0987691915121938
  0.0945012227394626  0.9286537311829882  0.5548001980295957
  0.9891630222140386  0.1898454271537780  0.2616853748471851
  0.5376178961984114  0.0594899036478795  0.5341615528348665
  0.3954868683102514  0.7349295434799474  0.4855343280189084
  0.9563397869820877  0.4285319211900225  0.1825758799276256
  0.5104475911962785  0.2035172310872945  0.9819172146026289
  0.1780233439179867  0.8112119431607197  0.4153618088681469
  0.4921602612128979  0.1456102063358330  0.4425546416520699
  0.6522245044145194  0.1493537716859599  0.0310761525769983
  0.8767294064725857  0.3212632520889704  0.7418179161842954
  0.3039181722393368  0.7517943110546428  0.8888680794467532
  0.4805074994491140  0.7867722974124046  0.3145626785684165
  0.6242764140362072  0.6985224316622831  0.4273443131820430
  0.3729212177462683  0.8793534552562295  0.6544786388812445
  0.6911488353844737  0.2938447172039454  0.1501783685511944
  0.4189405482404149  0.0498494542528679  0.3959109118844981
  0.3139331199898491  0.1599292162114437  0.6471697870272510
  0.2929659330079175  0.0820804329600879  0.8129963534556596
  0.8167174621295331  0.6256305934334804  0.7313113039377322
  0.1938492679502475  0.9250835788844193  0.7078791175543130
  0.7590405857352533  0.8467504107254415  0.9747973971989082
  0.7303989232172324  0.7458462422655479  0.5115857634722488
  0.0023329244113965  0.7900030132714133  0.8683277051483601
  0.3084448976545607  0.5718745521581157  0.8549998394955121
  0.0082131672022526  0.9300573287235291  0.0196385491431624
  0.9942955902890293  0.4999640331451585  0.4025606092526979
  0.8615439569013177  0.4984347513616693  0.9213742495545203
  0.4007812046077392  0.2685564046067049  0.9925302280683245
  0.9886032411974269  0.5767206778538534  0.2795390477254769
  0.5856765343668979  0.0378896347699179  0.0341533495043251
  0.5265736324491900  0.6560196230390883  0.3477676875173547
  0.9926404079064548  0.9390447108943307  0.2550617602876888
  0.7143424363158780  0.4683213482330703  0.2240713585418612
  0.1317818549015743  0.9789107045867045  0.8754215423812139
  0.8935897321441726  0.0646012798845318  0.8307009223701562
  0.8013505658490149  0.2100773276240304  0.1452506846430338
  0.8861379858516987  0.6410710036174644  0.4570879876710457
  0.6140126338000179  0.0135257712934730  0.7961298251996944
  0.6044100038517849  0.2499155937688121  0.7504475314495941
  0.6532415450958196  0.4022921358982798  0.3822488519892654
  0.7004319258569753  0.9332801409213499  0.2386924158042525
  0.5394833068285696  0.2486104619261814  0.6186507010008753
  0.1792392407633097  0.1408745450053928  0.6593224446994611
  0.1631225413694103  0.1298780140691854  0.7857491613942643
  0.7216389048261718  0.5890625219018526  0.1668082658279957
  0.7458073291859296  0.2428591274025292  0.3127374514241580
  0.8512931285239824  0.5336653825226874  0.2822950677193478
  0.1169642293362740  0.4254503017757732  0.2726203372070359
  0.2204473505840577  0.2547064325835515  0.8264910906826245
  0.5595191578774487  0.8778134939630461  0.6749480802344560
  0.7383999192572610  0.6704361969567807  0.8825561869233883
  0.9354937812210773  0.3623164086817121  0.8434899984812815
  0.7347906836649198  0.5409400165597452  0.4888144519729899
  0.4845050869221340  0.2927804599707691  0.1714842786654923
  0.3839104854155931  0.3574562875438632  0.4499182891392271
  0.6131650445891410  0.8861814456767934  0.3721913062125077
  0.9016746708194753  0.1476084146178480  0.6510015695819934
  0.4514203404251726  0.7685770115683259  0.1627278253146079
  0.8643993932404227  0.5203290147510540  0.4174240873912041
  0.6729256932302565  0.7586928265956502  0.7930024648790374
  0.5862868235991205  0.7512934828416513  0.0301085209555198
  0.3931272292165254  0.3277173785460035  0.5742936731692083
  0.7408805448478909  0.9118147126511134  0.6859023005351714
  0.0435003257327992  0.7418029889804998  0.5631722561038279
  0.7256715851665900  0.9260283680160689  0.8802335685715593
  0.5666018966480366  0.8050168903512215  0.4658475490882634
  0.8825974842901313  0.3150475823650479  0.1574260048278865
  0.0581252765348639  0.3618003152698474  0.8012195229388814
  0.6441213184617922  0.0896555163304603  0.9124821146430694
  0.8944468392337105  0.6635260573635345  0.0140488269579040
  0.5432503475985797  0.6828356624282905  0.7407639766967770
  0.8549099097186019  0.2689422940950789  0.3842915737453311
  0.1638326435645662  0.2555766719189019  0.2168044920560752
  0.2061990320619367  0.0891168738651132  0.1920588865353373
  0.6516569573798345  0.5251416002561425  0.3318318592867977
  0.9298801077947276  0.9420214447209433  0.6251096135948816
  0.7312773951046886  0.8970095819656149  0.4282414333204735
  0.6796450442359948  0.0806273385946286  0.3451928127875418
  0.6698411010289144  0.6159112265502441  0.6499493852654429
  0.0530296930629590  0.5296013431601718  0.9154724432293365
  0.9695431205024343  0.7295700172163712  0.3155768515541411
  0.1124763118486473  0.0504148102366378  0.4161483982659261
  0.2585858188607906  0.1299725740417009  0.3185249303742572
  0.8431177568897590  0.0664990485470638  0.2413161632168094
  0.1167389202179868  0.3986079576398031  0.6216627423518735
  0.3306053619469096  0.4036543122429822  0.7687813822221492
  0.8687522199441570  0.1405180146280991  0.4083002943760484
  0.3098076078659112  0.8665093553459509  0.0626070550529175
  0.1736346578436254  0.4432982401308831  0.9086528493262592
  0.4685704250245936  0.5277921039862501  0.7428231513910204
  0.4082017348766634  0.0210038237334313  0.1574792390261764
  0.9571515417738712  0.4873009623357555  0.0033304728132985
  0.8734848873689419  0.8245101501903823  0.9217689522210938
  0.9115911537412240  0.4572990215351661  0.5884258043000197
  0.4668797049792855  0.9158737983322158  0.4978857658303510
  0.9967511911962149  0.6136300276487561  0.6819081386916365
  0.4175523122004356  0.0296781235585501  0.7637640699459137
  0.0036341066220937  0.3598806929117597  0.9813237387145026
  0.7287088045487837  0.0436037211538727  0.0621424091356555
  0.8524397487094328  0.6347222708900415  0.6037695632583888
  0.4506983607458185  0.4599310788168597  0.9222546487372583
  0.0154927413727183  0.7405531188587757  0.0490978368131427
  0.2103170710355454  0.7384995876673506  0.6646846397597937
  0.0473893974812314  0.6831207241643007  0.9357726617087305
  0.4030051891172834  0.6256675375528001  0.2398964355566711
  0.7857317632343407  0.3923626337906796  0.3886002746723965
  0.2562736130590013  0.0034767585566092  0.1123696047196771
  0.0101860638592114  0.3391502964644939  0.6749491194590503
  0.9008098681439198  0.2407374208874742  0.9088449395463151
  0.5373188236576290  0.5392946588016913  0.1771650234302649
  0.2027334371312227  0.6557761028705050  0.0575265401470797
  0.6026516199511405  0.3542442624569513  0.9490560946300342
  0.9933677136794458  0.2796309227684756  0.4010142206914985
  0.2474361861218865  0.2947178609115119  0.3248734077202166
  0.9813329983396675  0.0831931415809875  0.9200181754530158
  0.7684466139435128  0.4134313143850191  0.1095013968771224
  0.4062459219023929  0.2247879425230326  0.3636505974978183
  0.8606089695907306  0.0485104888302197  0.0523892754409797
  0.1681503476462833  0.7594574960127896  0.1239466191940131
  0.1845988675974494  0.6386524571359947  0.4796281588192128
  0.6447036645056569  0.5071951925555996  0.8546376394210146
  0.0545763878546542  0.2329415180303758  0.9603691149448366
  0.1430051194166442  0.3835521486942403  0.4598353891586582
  0.3836281084412821  0.5573979947398267  0.0699099414829247
  0.8805837048042192  0.7937804558322111  0.4597106787205480
  0.8112347809859840  0.3749005092550978  0.6285891942900192
  0.5161170794717280  0.3786735491423695  0.4517189584153433
  0.3114125499475145  0.3497436874416174  0.1031374736464957
  0.1123616483621271  0.6140511567618800  0.2910371903699960
  0.7320305791494449  0.8001874620611765  0.2410329079561123
  0.6939959159809375  0.0320095330387211  0.5812948255631130
  0.5213660527653330  0.9447409947354611  0.8465921177949987
  0.5613626184063453  0.2665101310237233  0.4896956808484518
  0.9947979767731608  0.8258743449886673  0.1604060180350753
  0.4117217393965185  0.5745455504603051  0.4266436317860628
  0.3497285393834194  0.0364055420282977  0.6537735965233069
  0.2867015402587097  0.5127598198610822  0.0008388487947693
  0.4583372487175789  0.7627632782036421  0.0361504880766123
  0.3894682798268573  0.4247105072217546  0.2659490618768726
  0.2519443058753347  0.3170573389806640  0.4526810255528366
  0.1352751320889625  0.1659452990657624  0.3018593139819599
  0.3815286926122294  0.9308965854168534  0.2747400744124600
  0.8088810650508457  0.0424800548602996  0.5321731871549906
  0.2484057118887859  0.5401916337142925  0.1800640853120185
  0.0917964754436628  0.6871374434193736  0.7609073506720915
  0.6956738130992478  0.2781721167158067  0.8920072647476086
  0.9717106754054683  0.6170210890786182  0.1576856778194578
  0.2045578791280386  0.9317889359324186  0.9665804172994091
  0.9465268574525442  0.1493216884962148  0.1478862702351424
  0.9756798831231426  0.8351105406690457  0.3865879364032909
  0.6686249176351052  0.3187208740212546  0.6577362152532398
  0.1541687231498902  0.6386880818016530  0.6051722185688179
  0.2559193576244674  0.4482062747067557  0.5944449929641087
  0.0823337629059318  0.0182267223673788  0.2056446796523669
  0.2581807525595932  0.8213291045344639  0.7890268968407624
  0.6153599332737513  0.1876985050993556  0.1850752813158581
  0.2825852622127907  0.9812539230641879  0.5252212191059747
  0.7853458779713566  0.9715648042947673  0.3307956913292469
  0.3211057294042679  0.1600669585719785  0.9083496168941830
  0.3741359334733158  0.8491549544598117  0.9356479345070398
  0.2783648531795059  0.3111593714314712  0.6234569780977209
  0.1753961782985588  0.7292002827157555  0.9320758985202848
  0.9717874651547266  0.2599407104758923  0.0780056605931254
  0.5840519302509070  0.3560846630552659  0.2876842903153253
  0.9577929801999204  0.5234473429443384  0.7556783908258171
  0.5260084068678582  0.5402158761467065  0.5635556890239348
  0.5227527727951735  0.0916863763004779  0.7262923465111814
  0.0209785156306793  0.5419405202928850  0.5746631181331876
  0.2896137657808924  0.5925059192793796  0.7308290665319862
  0.0091266576342120  0.9785031480079173  0.7236042077037425
  0.4723107487411449  0.4616519467405454  0.0885087883274644
  0.7581684457442716  0.2424846370756210  0.0275796817681301
  0.6569055509448036  0.8009933040227230  0.6054342098779597
  0.2556808723644743  0.4051047686348856  0.2693699564464114
  0.1769968774821799  0.3187623038537156  0.7240191989299062
  0.1706165868116740  0.2708837624398935  0.9942592236730361
  0.1365095553312743  0.4953065039458597  0.7077178778192995
  0.0273572466900853  0.7953924911638728  0.6824561492134391
  0.0281086970319556  0.1282818976972187  0.6388215055737022
  0.9523262764997054  0.9134407649680704  0.8254376894369110
  0.2981271027031642  0.5352908421101261  0.3764064590024369
  0.3602773269959813  0.7351231131216377  0.3218302771911328
  0.3891824311123969  0.0306602819083828  0.9553095670626613
  0.4889347620823759  0.9646928543824319  0.3315324292199087
  0.4047937311010165  0.5115689462624448  0.5509630374894021
  0.7535427519221093  0.4825352880749148  0.6685564647097817
  0.2713845013646829  0.3612407308936217  0.8844907960556215
  0.3710892724269467  0.2251854471185565  0.2015267104205343
  0.3252919103292523  0.9568259093354393  0.8701491360515415
  0.1387014805902601  0.7979065305707715  0.8265537565249941
 
  0.00000000E+00  0.00000000E+00  0.00000000E+00
  0.00000000E+00  0.00000000E+00  0.00000000E+00
  0.00000000E+00  0.00000000E+00  0.00000000E+00
  0.00000000E+00  0.00000000E+00  0.00000000E+00
  0.00000000E+00  0.00000000E+00  0.00000000E+00
  0.00000000E+00  0.00000000E+00  0.00000000E+00
  0.00000000E+00  0.00000000E+00  0.00000000E+00
  0.00000000E+00  0.00000000E+00  0.00000000E+00
  0.00000000E+00  0.00000000E+00  0.00000000E+00
  0.00000000E+00  0.00000000E+00  0.00000000E+00
  0.00000000E+00  0.00000000E+00  0.00000000E+00
  0.00000000E+00  0.00000000E+00  0.00000000E+00
  0.00000000E+00  0.00000000E+00  0.00000000E+00
  0.00000000E+00  0.00000000E+00  0.00000000E+00
  0.00000000E+00  0.00000000E+00  0.00000000E+00
  0.00000000E+00  0.00000000E+00  0.00000000E+00
  0.00000000E+00  0.00000000E+00  0.00000000E+00
  0.00000000E+00  0.00000000E+00  0.00000000E+00
  0.00000000E+00  0.00000000E+00  0.00000000E+00
  0.00000000E+00  0.00000000E+00  0.00000000E+00
  0.00000000E+00  0.00000000E+00  0.00000000E+00
  0.00000000E+00  0.00000000E+00  0.00000000E+00
  0.00000000E+00  0.00000000E+00  0.00000000E+00
  0.00000000E+00  0.00000000E+00  0.00000000E+00
  0.00000000E+00  0.00000000E+00  0.00000000E+00
  0.00000000E+00  0.00000000E+00  0.00000000E+00
  0.00000000E+00  0.00000000E+00  0.00000000E+00
  0.00000000E+00  0.00000000E+00  0.00000000E+00
  0.00000000E+00  0.00000000E+00  0.00000000E+00
  0.00000000E+00  0.00000000E+00  0.00000000E+00
  0.00000000E+00  0.00000000E+00  0.00000000E+00
  0.00000000E+00  0.00000000E+00  0.00000000E+00
  0.00000000E+00  0.00000000E+00  0.00000000E+00
  0.00000000E+00  0.00000000E+00  0.00000000E+00
  0.00000000E+00  0.00000000E+00  0.00000000E+00
  0.00000000E+00  0.00000000E+00  0.00000000E+00
  0.00000000E+00  0.00000000E+00  0.00000000E+00
  0.00000000E+00  0.00000000E+00  0.00000000E+00
  0.00000000E+00  0.00000000E+00  0.00000000E+00
  0.00000000E+00  0.00000000E+00  0.00000000E+00
  0.00000000E+00  0.00000000E+00  0.00000000E+00
  0.00000000E+00  0.00000000E+00  0.00000000E+00
  0.00000000E+00  0.00000000E+00  0.00000000E+00
  0.00000000E+00  0.00000000E+00  0.00000000E+00
  0.00000000E+00  0.00000000E+00  0.00000000E+00
  0.00000000E+00  0.00000000E+00  0.00000000E+00
  0.00000000E+00  0.00000000E+00  0.00000000E+00
  0.00000000E+00  0.00000000E+00  0.00000000E+00
  0.00000000E+00  0.00000000E+00  0.00000000E+00
  0.00000000E+00  0.00000000E+00  0.00000000E+00
  0.00000000E+00  0.00000000E+00  0.00000000E+00
  0.00000000E+00  0.00000000E+00  0.00000000E+00
  0.00000000E+00  0.00000000E+00  0.00000000E+00
  0.00000000E+00  0.00000000E+00  0.00000000E+00
  0.00000000E+00  0.00000000E+00  0.00000000E+00
  0.00000000E+00  0.00000000E+00  0.00000000E+00
  0.00000000E+00  0.00000000E+00  0.00000000E+00
  0.00000000E+00  0.00000000E+00  0.00000000E+00
  0.00000000E+00  0.00000000E+00  0.00000000E+00
  0.00000000E+00  0.00000000E+00  0.00000000E+00
  0.00000000E+00  0.00000000E+00  0.00000000E+00
  0.00000000E+00  0.00000000E+00  0.00000000E+00
  0.00000000E+00  0.00000000E+00  0.00000000E+00
  0.00000000E+00  0.00000000E+00  0.00000000E+00
  0.00000000E+00  0.00000000E+00  0.00000000E+00
  0.00000000E+00  0.00000000E+00  0.00000000E+00
  0.00000000E+00  0.00000000E+00  0.00000000E+00
  0.00000000E+00  0.00000000E+00  0.00000000E+00
  0.00000000E+00  0.00000000E+00  0.00000000E+00
  0.00000000E+00  0.00000000E+00  0.00000000E+00
  0.00000000E+00  0.00000000E+00  0.00000000E+00
  0.00000000E+00  0.00000000E+00  0.00000000E+00
  0.00000000E+00  0.00000000E+00  0.00000000E+00
  0.00000000E+00  0.00000000E+00  0.00000000E+00
  0.00000000E+00  0.00000000E+00  0.00000000E+00
  0.00000000E+00  0.00000000E+00  0.00000000E+00
  0.00000000E+00  0.00000000E+00  0.00000000E+00
  0.00000000E+00  0.00000000E+00  0.00000000E+00
  0.00000000E+00  0.00000000E+00  0.00000000E+00
  0.00000000E+00  0.00000000E+00  0.00000000E+00
  0.00000000E+00  0.00000000E+00  0.00000000E+00
  0.00000000E+00  0.00000000E+00  0.00000000E+00
  0.00000000E+00  0.00000000E+00  0.00000000E+00
  0.00000000E+00  0.00000000E+00  0.00000000E+00
  0.00000000E+00  0.00000000E+00  0.00000000E+00
  0.00000000E+00  0.00000000E+00  0.00000000E+00
  0.00000000E+00  0.00000000E+00  0.00000000E+00
  0.00000000E+00  0.00000000E+00  0.00000000E+00
  0.00000000E+00  0.00000000E+00  0.00000000E+00
  0.00000000E+00  0.00000000E+00  0.00000000E+00
  0.00000000E+00  0.00000000E+00  0.00000000E+00
  0.00000000E+00  0.00000000E+00  0.00000000E+00
  0.00000000E+00  0.00000000E+00  0.00000000E+00
  0.00000000E+00  0.00000000E+00  0.00000000E+00
  0.00000000E+00  0.00000000E+00  0.00000000E+00
  0.00000000E+00  0.00000000E+00  0.00000000E+00
  0.00000000E+00  0.00000000E+00  0.00000000E+00
  0.00000000E+00  0.00000000E+00  0.00000000E+00
  0.00000000E+00  0.00000000E+00  0.00000000E+00
  0.00000000E+00  0.00000000E+00  0.00000000E+00
  0.00000000E+00  0.00000000E+00  0.00000000E+00
  0.00000000E+00  0.00000000E+00  0.00000000E+00
  0.00000000E+00  0.00000000E+00  0.00000000E+00
  0.00000000E+00  0.00000000E+00  0.00000000E+00
  0.00000000E+00  0.00000000E+00  0.00000000E+00
  0.00000000E+00  0.00000000E+00  0.00000000E+00
  0.00000000E+00  0.00000000E+00  0.00000000E+00
  0.00000000E+00  0.00000000E+00  0.00000000E+00
  0.00000000E+00  0.00000000E+00  0.00000000E+00
  0.00000000E+00  0.00000000E+00  0.00000000E+00
  0.00000000E+00  0.00000000E+00  0.00000000E+00
  0.00000000E+00  0.00000000E+00  0.00000000E+00
  0.00000000E+00  0.00000000E+00  0.00000000E+00
  0.00000000E+00  0.00000000E+00  0.00000000E+00
  0.00000000E+00  0.00000000E+00  0.00000000E+00
  0.00000000E+00  0.00000000E+00  0.00000000E+00
  0.00000000E+00  0.00000000E+00  0.00000000E+00
  0.00000000E+00  0.00000000E+00  0.00000000E+00
  0.00000000E+00  0.00000000E+00  0.00000000E+00
  0.00000000E+00  0.00000000E+00  0.00000000E+00
  0.00000000E+00  0.00000000E+00  0.00000000E+00
  0.00000000E+00  0.00000000E+00  0.00000000E+00
  0.00000000E+00  0.00000000E+00  0.00000000E+00
  0.00000000E+00  0.00000000E+00  0.00000000E+00
  0.00000000E+00  0.00000000E+00  0.00000000E+00
  0.00000000E+00  0.00000000E+00  0.00000000E+00
  0.00000000E+00  0.00000000E+00  0.00000000E+00
  0.00000000E+00  0.00000000E+00  0.00000000E+00
  0.00000000E+00  0.00000000E+00  0.00000000E+00
  0.00000000E+00  0.00000000E+00  0.00000000E+00
  0.00000000E+00  0.00000000E+00  0.00000000E+00
  0.00000000E+00  0.00000000E+00  0.00000000E+00
  0.00000000E+00  0.00000000E+00  0.00000000E+00
  0.00000000E+00  0.00000000E+00  0.00000000E+00
  0.00000000E+00  0.00000000E+00  0.00000000E+00
  0.00000000E+00  0.00000000E+00  0.00000000E+00
  0.00000000E+00  0.00000000E+00  0.00000000E+00
  0.00000000E+00  0.00000000E+00  0.00000000E+00
  0.00000000E+00  0.00000000E+00  0.00000000E+00
  0.00000000E+00  0.00000000E+00  0.00000000E+00
  0.00000000E+00  0.00000000E+00  0.00000000E+00
  0.00000000E+00  0.00000000E+00  0.00000000E+00
  0.00000000E+00  0.00000000E+00  0.00000000E+00
  0.00000000E+00  0.00000000E+00  0.00000000E+00
  0.00000000E+00  0.00000000E+00  0.00000000E+00
  0.00000000E+00  0.00000000E+00  0.00000000E+00
  0.00000000E+00  0.00000000E+00  0.00000000E+00
  0.00000000E+00  0.00000000E+00  0.00000000E+00
  0.00000000E+00  0.00000000E+00  0.00000000E+00
  0.00000000E+00  0.00000000E+00  0.00000000E+00
  0.00000000E+00  0.00000000E+00  0.00000000E+00
  0.00000000E+00  0.00000000E+00  0.00000000E+00
  0.00000000E+00  0.00000000E+00  0.00000000E+00
  0.00000000E+00  0.00000000E+00  0.00000000E+00
  0.00000000E+00  0.00000000E+00  0.00000000E+00
  0.00000000E+00  0.00000000E+00  0.00000000E+00
  0.00000000E+00  0.00000000E+00  0.00000000E+00
  0.00000000E+00  0.00000000E+00  0.00000000E+00
  0.00000000E+00  0.00000000E+00  0.00000000E+00
  0.00000000E+00  0.00000000E+00  0.00000000E+00
  0.00000000E+00  0.00000000E+00  0.00000000E+00
  0.00000000E+00  0.00000000E+00  0.00000000E+00
  0.00000000E+00  0.00000000E+00  0.00000000E+00
  0.00000000E+00  0.00000000E+00  0.00000000E+00
  0.00000000E+00  0.00000000E+00  0.00000000E+00
  0.00000000E+00  0.00000000E+00  0.00000000E+00
  0.00000000E+00  0.00000000E+00  0.00000000E+00
  0.00000000E+00  0.00000000E+00  0.00000000E+00
  0.00000000E+00  0.00000000E+00  0.00000000E+00
  0.00000000E+00  0.00000000E+00  0.00000000E+00
  0.00000000E+00  0.00000000E+00  0.00000000E+00
  0.00000000E+00  0.00000000E+00  0.00000000E+00
  0.00000000E+00  0.00000000E+00  0.00000000E+00
  0.00000000E+00  0.00000000E+00  0.00000000E+00
  0.00000000E+00  0.00000000E+00  0.00000000E+00
  0.00000000E+00  0.00000000E+00  0.00000000E+00
  0.00000000E+00  0.00000000E+00  0.00000000E+00
  0.00000000E+00  0.00000000E+00  0.00000000E+00
  0.00000000E+00  0.00000000E+00  0.00000000E+00
  0.00000000E+00  0.00000000E+00  0.00000000E+00
  0.00000000E+00  0.00000000E+00  0.00000000E+00
  0.00000000E+00  0.00000000E+00  0.00000000E+00
  0.00000000E+00  0.00000000E+00  0.00000000E+00
  0.00000000E+00  0.00000000E+00  0.00000000E+00
  0.00000000E+00  0.00000000E+00  0.00000000E+00
  0.00000000E+00  0.00000000E+00  0.00000000E+00
  0.00000000E+00  0.00000000E+00  0.00000000E+00
  0.00000000E+00  0.00000000E+00  0.00000000E+00
  0.00000000E+00  0.00000000E+00  0.00000000E+00
  0.00000000E+00  0.00000000E+00  0.00000000E+00
  0.00000000E+00  0.00000000E+00  0.00000000E+00
  0.00000000E+00  0.00000000E+00  0.00000000E+00
  0.00000000E+00  0.00000000E+00  0.00000000E+00
  0.00000000E+00  0.00000000E+00  0.00000000E+00
  0.00000000E+00  0.00000000E+00  0.00000000E+00
  0.00000000E+00  0.00000000E+00  0.00000000E+00
  0.00000000E+00  0.00000000E+00  0.00000000E+00
  0.00000000E+00  0.00000000E+00  0.00000000E+00
  0.00000000E+00  0.00000000E+00  0.00000000E+00
  0.00000000E+00  0.00000000E+00  0.00000000E+00
  0.00000000E+00  0.00000000E+00  0.00000000E+00
  0.00000000E+00  0.00000000E+00  0.00000000E+00
  0.00000000E+00  0.00000000E+00  0.00000000E+00
  0.00000000E+00  0.00000000E+00  0.00000000E+00
  0.00000000E+00  0.00000000E+00  0.00000000E+00
  0.00000000E+00  0.00000000E+00  0.00000000E+00
  0.00000000E+00  0.00000000E+00  0.00000000E+00
  0.00000000E+00  0.00000000E+00  0.00000000E+00
  0.00000000E+00  0.00000000E+00  0.00000000E+00
  0.00000000E+00  0.00000000E+00  0.00000000E+00
  0.00000000E+00  0.00000000E+00  0.00000000E+00
  0.00000000E+00  0.00000000E+00  0.00000000E+00
  0.00000000E+00  0.00000000E+00  0.00000000E+00
  0.00000000E+00  0.00000000E+00  0.00000000E+00
  0.00000000E+00  0.00000000E+00  0.00000000E+00
  0.00000000E+00  0.00000000E+00  0.00000000E+00
  0.00000000E+00  0.00000000E+00  0.00000000E+00
  0.00000000E+00  0.00000000E+00  0.00000000E+00
  0.00000000E+00  0.00000000E+00  0.00000000E+00
  0.00000000E+00  0.00000000E+00  0.00000000E+00
  0.00000000E+00  0.00000000E+00  0.00000000E+00
  0.00000000E+00  0.00000000E+00  0.00000000E+00
  0.00000000E+00  0.00000000E+00  0.00000000E+00
  0.00000000E+00  0.00000000E+00  0.00000000E+00
  0.00000000E+00  0.00000000E+00  0.00000000E+00
  0.00000000E+00  0.00000000E+00  0.00000000E+00
  0.00000000E+00  0.00000000E+00  0.00000000E+00
  0.00000000E+00  0.00000000E+00  0.00000000E+00
  0.00000000E+00  0.00000000E+00  0.00000000E+00
  0.00000000E+00  0.00000000E+00  0.00000000E+00
  0.00000000E+00  0.00000000E+00  0.00000000E+00
  0.00000000E+00  0.00000000E+00  0.00000000E+00