Amorphous Sb                            
  0.980000000000000     
    19.8278869700586888    0.0000000000000000    0.0000000000000000
     0.0000000000000000   19.8278869700586888    0.0000000000000000
     0.0000000000000000    0.0000000000000000   19.8278869700586888
   Ge   B    Se
   100    50   150
Direct
  0.5476354256920732  0.7265520686733119  0.8480875220847309
  0.2037170317884119  0.4074237821254232  0.8182740181579427
  0.3446816326276354  0.3805960831081722  0.5854702190241543
  0.8809528866532280 -0.0183004539816324  0.5786853742241329
  0.9285726740358055  0.6144913074622553  0.6799239574398809
  0.1754004298311065  0.7513368731179386  0.9106471488150522
  0.2056638891052486  0.1601167285627081  0.3728325952547935
  0.3701879142806964  0.6794608517849307  0.7669548276878076
  0.3210571431958162  0.8599514775324807  0.2136389831253862
  0.4616151690791295 -0.0344400180766853  0.4732325184028147
  0.0972858057963296  0.0038923273494908  0.4026068095158883
  0.5453689533177740  0.3292913314658376  0.8437903846311667
  0.5807650640072380  0.4839543913014421  0.5921117015549636
  0.2298372222117551  0.0270643758278136  0.8620926402436572
  0.6844625532513684  0.9428741896384421  0.3859347435542942
  0.0147406130869891  0.7041476354683792  0.0756883073428535
  0.0835904279332107  0.7933055908874271  0.3250702414169369
  0.7928388493348475  0.3520797558123955  0.4153846624070182
  0.0721979522943476  0.4363977850302892  0.9860128920405196
  0.0881951830830987  0.9138810543222714  0.4970752372788085
  0.1234829534334591  0.7978623044069494  0.1800703924099573
  0.3929634396297459  0.7442244953985286  0.9757352257828038
  0.9577667238522294  0.1466840028139488  0.8467260892423769
  0.0637625100781562  0.0846770062145262  0.1981909095720924
  0.6378997913254989  0.4294480712476383  0.2701413929790820
  0.4086394620996787  0.1751231879590094  0.6314984477304058
  0.5033379526305510  0.6568627858846469  0.4175263956797906
  0.7890654255500793  0.8990587564773468 -0.0136426499825839
  0.7656071251670671  0.6059001476819987  0.6955939648326217
 -0.0038564489392278  0.7697809198251074  0.5980993813839043
  0.0477004651050496  0.3400823342717930  0.7512354146505353
  0.0092446964111272  0.0880939836204873  0.3429485243222847
  0.9187596675581594  0.5190071432949812  0.4689294153163135
  0.4225710580575288  0.4609050314734747  0.1924962793458521
  0.0554839304748048  0.5679969857408497  0.5831261527991130
  0.7325570023204421  0.6928991050074317  0.0943657907130617
  0.4402780244783507  0.4685386616118021  0.9480896739148503
  0.2844973227655501  0.0617588335769488  0.2205649508305355
  0.2512440973375396  0.3379688491928158  0.1807454977527289
  0.6737017789788267  0.3263833956002692  0.8057753947716705
  0.8096098072994851  0.8306683037377939  0.3322789844939866
  0.9384505886451986  0.1923428801877800  0.5155634406061157
  0.6093660457276120  0.7799471188221905  0.5010707949962255
  0.3730767663947463  0.0041846880608406  0.0796418837316601
  0.2218758259700544  0.6119782385307552  0.2710503548512818
  0.3595388070556816  0.5094739514499761  0.5098560028207074
  0.8749876077574610  0.7940064332749872  0.1355604327510464
  0.0553846489064356  0.3542016281190577  0.3903325865333793
  0.9543211183297988  0.7207689235679487  0.8258809152333478
  0.5826523491246193  0.0413395511833966  0.3456126878961011
  0.1946599811074274  0.4469341198740567  0.0382971107954485
  0.0503599961004693  0.2538366691984569  0.1433977973752675
  0.6157590334599639  0.8606941405260002  0.7734011858047545
  0.5255659838325990  0.2627688349660656  0.6249178463590350
  0.0185437403664266  0.5836321466797938  0.3222134034388838
 -0.0110638845196533  0.9154198478165593  0.1893442401788195
  0.1547679679326973  0.5990918017180261  0.4914981850906082
  0.9726371994335111  0.3310990389374242  0.5560290817427993
  0.1143620187916969  0.0540443036721029  0.7504481843467544
  0.4624700056352030  0.4343324082516272  0.3215289320411558
  0.6941878694323044  0.1065982682558205  0.1606343764311463
  0.4958748519970925  0.6796463210414143  0.2113840754725186
  0.9073985819066697  0.6782358322234341  0.2626320321747778
  0.8509566606262660 -0.0174360389077484  0.8152021432904974
  0.5300341306093260  0.7811042321068081 -0.0019218488091395
  0.0620903803376296  0.3114008356217741  0.9458036939992636
  0.8762036557376259  0.7998711661429870  0.5309249831671962
  0.7493943439884205  0.7551147500916886  0.6800285505012013
  0.8215181317209715  0.2422709704408099  0.1730522174257436
  0.8648758252895536  0.2975012452594438  0.0353361549271842
  0.9370315089897407  0.4149383779559001  0.7380416119819804
  0.4394473915360219  0.1583582137498050  0.1941178240787113
  0.3936656455330990  0.6334745721170963  0.4804196149125313
  0.4679320578708939  0.8838305105274884  0.3633777122007980
  0.3623176098341681  0.4483087677903909  0.6974096891594365
  0.6643867034730579  0.9277884245529165  0.0862148283612909
  0.2691234807086205  0.1834502840173704  0.1653652623154740
  0.8917273246290986  0.0697199870081923  0.1255946430575730
  0.2513884718823464  0.8442704810293068  0.9704072737729642
  0.3791342262462821  0.2750422422755485  0.0496756823165297
  0.6361304891034318  0.0010934516196674  0.8662599019046264
  0.9785598584433044  0.5672287611489361  0.8252112172184088
  0.8115839395007219  0.4581083435751486  0.0846475863434086
  0.7555145991009004  0.5590815025555735  0.3618322841725998
  0.3131313439191531  0.0950311482877620  0.6875203469806707
  0.6339071158838940  0.1672898708225962  0.0080700671723066
  0.5298816694328232  0.7114306836774709  0.6557026099221823
  0.7596995023855857  0.4069458109416352  0.5340903586502794
  0.6617065327868857  0.5941491081234459  0.1547622760266316
  0.5621257546019295  0.2006172065567723  0.3588869669563632
  0.6268956096290403  0.1293254915877632  0.8801969867790425
  0.1184769637811264  0.1483282231957367  0.5475933474217025
  0.2986441376637189  0.6272523803431049  0.6399603637942627
  0.8281677852070789 -0.0327825496612940  0.4003488788938093
  0.7144867713559974  0.9241975733206453  0.5821304097878072
  0.6920938295708041  0.6819581848140015  0.4710081362558007
  0.4459831220118486  0.0610108022233230  0.9075839032548018
  0.1567800663269305  0.4946268573346841  0.6796473256827773
  0.1946668175524189  0.7703126652606065  0.4614074088731597
  0.1488601081160565  0.1301592627494228  0.8540957688938784
  0.0818505207222867  0.4147334599184505  0.2421343659295646
  0.5237141412446165  0.2909072127458195  0.9425799066825109
  0.2545788919448275  0.5070629158753048  0.1085577086863206
  0.8754041763792747  0.0735527996186329  0.2333600700957688
  0.4441374052121576  0.8894238990824470  0.7239362822490762
  0.6913123837309458  0.7284687436343354 -0.0091549645403131
  0.9664684395617358  0.4412094916676545  0.0116203242223621
  0.0191815062916186  0.6093450693286522  0.0169581802688721
  0.6666386557517406  0.2058857163193480  0.7011569029913501
  0.6717197623258575  0.9582419295434540  0.7748932897952520
  0.1272943371166363  0.8942586172245264  0.6670019239070111
  0.2103688708375031  0.0399343628629640  0.0573370839660462
  0.1665069313160952  0.9620620044139848  0.3264558537342943
  0.7542150197513267  0.1351135254690419  0.3144201910707528
  0.7243727910057464  0.7983011522038421  0.2695501874842403
  0.7471090341378669  0.6696228064388562  0.3734838364292957
  0.3888829952955645  0.2982514448716441  0.2845795498439895
  0.6683707111652022  0.5912384216244927  0.7484264129241117
  0.2923895364166549  0.2245356735818896  0.5388089956751037
  0.1413831519855419  0.9479995242494906  0.7330825326069219
  0.9111764157132992  0.4199323717502893  0.3182941683210355
  0.8306783866334552  0.1615063509678372  0.3521281858820610
  0.7653919213314050  0.6200871162073007  0.8782586952102214
  0.8869969988987119  0.8081479927781081  0.8875076092257680
  0.1624795440057854  0.4796776903869809  0.3693127568903380
  0.2192006637986584  0.8101965015095223  0.7527175096423530
  0.4353659942909486  0.9816955566784694  0.5794435703428705
  0.5151531419257663  0.9221279958419836  0.7670853546707597
  0.0577844510339366  0.1249220656964632  0.0163740095484741
  0.2271037422201652  0.7778219905003357  0.0561371223611220
  0.5601130752800496  0.5608533213432919  0.4117363073601751
  0.8496487328990503  0.7268503024475271  0.9078717842462009
  0.4852413923619029  0.2122214458033544  0.9313621540919517
  0.4203876913646873  0.5466467795685401  0.1102549889445395
  0.0912624945413190  0.7265081659246660  0.6450918308472875
  0.1373324380734688  0.5866554437314766  0.2001678575868407
  0.3849696194898535  0.3014136175103537  0.8561919597769178
  0.5607682315337985  0.0710952912350487  0.5251633005111418
  0.3837399801219195  0.7523716054375454  0.3438702036725411
  0.3685104998499814  0.9006904038073507  0.6804588235277063
  0.7413550761251338  0.4262660047264857  0.2291217738579111
  0.5914317738793442  0.5137533669597895  0.1011754241404637
  0.2001431916779032  0.8802307936360833  0.6208436027659257
  0.9021149856233793  0.2546156074856325  0.6715748099108169
  0.6058785394686818  0.1385614080000799  0.5568727442541548
  0.1292793732705444  0.2455573179533602  0.4935066331103607
  0.1106835016808829  0.5059675986390003  0.9117072530871601
  0.4928822796888106  0.8693526777330537  0.1103216347064611
  0.4176527554800318  0.4106115668544504  0.7845760030992057
  0.9141732109384950  0.4110928255249083  0.9455233250123684
  0.8572227619733662  0.0768213575741748  0.8914741143137451
  0.9230822228134475  0.9122398712717787  0.4737483893270013
  0.0704344236135594  0.6724410129345858  0.1930782922238312
  0.9655569052576378  0.4693223173013319  0.5893959704419770
  0.2619297934518577  0.6973714153299323 -0.0059602990989457
  0.1209333830580569  0.9715737350824217  0.2310548670173794
  0.5659100382276808  0.4369111033396162  0.1653422654374311
  0.7733143262330505  0.0226933704601466  0.5196173265743393
  0.6264815184164299  0.2903849408209381 -0.0292395503048321
  0.1854888284528257  0.0716930553963943  0.4712501024869493
  0.9195990246659735  0.8114792499758433  0.2613446265475219
  0.7562332138512033  0.0012985450000592  0.7321287175834224
  0.7671404235701830  0.6765746840703420  0.5768873528898553
  0.2809951490078010  0.8316344002727584  0.6691403874730769
  0.8564518813652290  0.6632507899494607  0.1340440803091566
  0.5048392628109518  0.1418752048843477  0.0102856467783702
  0.2667972246656135  0.1267026357501467  0.0492035954211743
  0.3633428095099754  0.8252284973186760  0.4091968339988866
  0.9664014349885961 -0.0457717523710496  0.7759357623230599
  0.7163512603299047  0.2100961351238408  0.2447553607109257
  0.6973994479048999  0.0035031270551709  0.9780429765687993
  0.6549362973548261  0.1227182183376500  0.6465823676246503
  0.1043547302506844  0.0446059616886624  0.0708719367344788
  0.9006593312141878  0.4647576428129154  0.8528246200234516
  0.1617475601212637  0.3943753131109816  0.3136488921619545
  0.3476418524175279  0.3943100693700446  0.8672971858349779
  0.2486939710539620  0.7621480952518060  0.1587421088747487
  0.2603175871178958  0.0138239952405444  0.3329970638158666
  0.3430074196235363  0.5188465616060736  0.0470674501125599
  0.4073437958594218  0.0311735018981958  0.2110494718397941
  0.5890211986957844  0.2294132315135232  0.5175752626086459
  0.4207135285811091  0.3285401236596440  0.1920845149622852
  0.9316960535772595 -0.0043108774139868  0.2819577839705587
  0.3917537271545478  0.8695377249730682  0.0988262455029644
  0.0730109399390663  0.4997256940138569  0.4140848821162239
  0.0881130383610866  0.4804082523428871  0.8109534917239586
  0.5080630155211719  0.4516669857092078  0.8227620673945351
  0.3374380964531654  0.9833587350194908  0.6207974285471698
  0.5566665895089524  0.1301898008614984  0.2478206405764086
  0.9009608303971651  0.5229158639936470  0.3123005632493641
  0.6249630345325691  0.5465184013189818  0.3309033367840264
  0.3758799521442245  0.2243974285015709  0.9206912930827534
  0.2136152788721645  0.9011773261674142  0.5248140332651743
  0.0835948146560527  0.2153006342510217  0.4016439377587226
  0.5174336814223139  0.9490835150459603  0.8724861611041976
  0.5871601502181549  0.9764506024476491  0.7117163631727547
  0.6799129536213433  0.5053852851745552  0.6838207842160439
  0.1949807959408815  0.8597511651857408  0.3331561050873203
  0.9167987082493970  0.3902226924510911  0.4232428598666231
  0.5528275437924215  0.7713975330630428  0.3838517516858298
  0.8540864897446112  0.3170452220755054  0.7343316625999308
  0.3480654422810785  0.7164140538670448  0.5560751582107238
  0.7045613878006458  0.1961619234691182  0.7974883858643481
  0.3519916672496180  0.1486537632507128  0.5181039363792921
  0.7413016378359577  0.8058458088428520  0.1620926107300320
  0.7624261283422682  0.5306014276826911  0.2184694834140732
  0.1457898840539209  0.6839614082869437  0.3583616562036182
 -0.0180501557694887  0.8400034499470387  0.8595656232228014
  0.8082546004874602  0.3962686444666665  0.9678567743611597
  0.0111422952779100  0.0904661067032984  0.5571995503444882
  0.2524893572990557  0.9740912140831453  0.1322145704142052
  0.5701682648794416  0.6301504390761878  0.7565433017554232
  0.0394799829795687  0.9140317180443254  0.6122490511266735
  0.1118339263740832  0.2671111908917173  0.8386366452669579
  0.4743556115813173  0.3690565400590879  0.5819840466381389
  0.2973235637119313  0.2661626030715855  0.6311088530715538
  0.2552759906841378  0.9793882742053949 -0.0225015808665422
  0.7935353353415799  0.1371743387346188  0.0815494691993760
  0.8601294027935790  0.6200457001893019  0.9116248514963442
  0.8974863999604942  0.1728155713538224  0.2670074455151545
  0.4897165364295168  0.4880400845833814  0.4335610538497355
  0.5632147500000710  0.3522022935338508  0.3309435117258753
  0.6010925576303522  0.5937279958680430  0.5043848701124891
  0.6882716026796322  0.7025972031592037  0.2948760496007942
  0.4240037941303684  0.7822962122790270  0.2552101261791540
  0.1155491125671093  0.7998461276106232  0.7207457275706709
  0.7416086734794796  0.7206014195542297  0.8919385050061550
  0.5473133405670393  0.7837091158504276  0.1283218113755170
  0.9097886436363821  0.7413999285901640  0.7069295034262224
  0.1104693553841911  0.2197139089474964  0.0241812766787960
  0.8069164189806544  0.8714596955172482  0.8567187651472443
  0.6693359827157677  0.8331549120739308 -0.0139426696963008
  0.7733252285045344  0.0464437718337592  0.2539183155582824
  0.2643142239823257  0.5103727986837356  0.7552458872367888
  0.7873196262793856  0.5259995720739604  0.4889960602791643
  0.4334862917032293  0.3037202319451290  0.7664209629291635
  0.9116165723700143  0.9538480958201702  0.0886228944617472
  0.3708634873136524  0.6534183466371096  0.3528289463637087
  0.1460078110750471  0.1850919432589504  0.2138386081311207
  0.0628470311280528  0.7942009292243402  0.4617411598956354
  0.8080304537310110  0.2303524208742926  0.4303079531749042
  0.4545766529845734  0.7800663324505154  0.7470178850668365
  0.6507997001348077  0.8751876842681777  0.2828617622110281
  0.3646677562013784  0.8490226133809132  0.9135652923874563
  0.1186887335865108  0.7922321837044577  0.0460992028665570
  0.8967673267323322  0.0985706314014553  0.4177528325086403
  0.7193575039824224  0.8457760622973829  0.4695761743418742
  0.0049965008428921  0.2484650070919130  0.6655176416363880
  0.7095357068005869  0.5480097795463805  0.8391968569485756
  0.2601398545691538  0.3288341135493009  0.0489631307295043
  0.4337068041905134  0.6591627723508235  0.8815703737632905
  0.0652044640440851  0.6045843029647369  0.9249161092640129
  0.5367264733617310  0.9538270788371660  0.0820637736425779
  0.4753123886845704  0.3582288043609752  0.0112835941728351
  0.8807605594430374  0.7816444501823849 -0.0086801127290873
  0.6744134799114394  0.1254727965695883  0.3875196256983303
  0.2146365065348601  0.5096756321037287  0.9276842263460268
  0.2366874073420722  0.5274200852133336  0.5670583169498713
  0.5087785355991958  0.1561187989817236  0.8388708890672189
  0.4113970557025844  0.5475925972051209  0.6308431455939548
  0.1951176954683456  0.9066451579804929  0.8074371640293243
  0.0497123321951790  0.0796454550436759  0.9192009913071745
  0.2442248545401735  0.5335635323603507  0.3816427480685466
  0.9631043119360652  0.1503807478040625  0.0573038611898508
  0.1595807452547431  0.3621139426133114  0.6925249510732405
  0.3855918527515385  0.2002046843378522  0.3066805279291272
  0.2499037367802960  0.7261171116456229  0.8041793630374541
  0.8412989727754230  0.7117123676406625  0.3828383312884824
  0.0582637848675667  0.5148695311819083  0.2162277834763790
 -0.0411269375183781  0.5411595980666448  0.0543525005018064
  0.2322974680004244  0.2614300355573244  0.4640228135923157
  0.1788646132913075  0.1284139640549770  0.6667026129931348
  0.9379464099633594  0.3068150325637605  0.9212668222637211
  0.8167179027549700  0.3704739921124754  0.2866744335574418
  0.5874857140829549  0.9695387318656331  0.5057531945215652
  0.6762101208652688  0.5231134423238137  0.0433189528256930
  0.3386570621100174  0.0572655441986869  0.8079972734520773
  0.5077134747834503  0.5518646869295790  0.0517455294717587
  0.6371901718735550  0.4047032134618373  0.5128008951763098
  0.6286946042536855  0.8033715665623665  0.6567760021833620
  0.2797625091107239  0.4688939672773353  0.2017306651305095
  0.0982849191661528  0.3390638926524577  0.5267579991678292
  0.8258712957602220  0.8655749426242718  0.6344264551261097
  0.3912200628070029  0.6306826472077058  0.1621323852602809
  0.1861867393603489  0.5874019993092480  0.1071581339872652
  0.6022114313252168  0.6738901457548007 -0.0228970928037034
  0.6536239849001776  0.3022073908811326  0.6754258372827333
  0.4560317554585230  0.8802225602118577  0.6133803651149643
  0.3696747252857271  0.3606268476818598  0.3616428318987613
  0.1738117164805456  0.7082669714272091  0.5836439396499271
  0.8489611501403839  0.1942511723027346  0.6118487242349095
 -0.0111702886904122  0.3649768746370896  0.2669419997705486
  0.9387673312503204  0.3847359801442378  0.0979592789999702
  0.1200297696031044  0.3686984061075740  0.1540566866696753
  0.4978335255577620  0.0913837996057220  0.4378665319726200
  0.9558318955337969  0.6443459856110954  0.5515121817019010
  0.9867580900830557  0.0779831646058941  0.7342406663403314
  0.0681087395707040  0.6373259079375014  0.6978584549925484
  0.7338250280811596  0.3709778021821509  0.1404783494706191
  0.4926649431135722  0.0627249052236681  0.6115619840585003
 
  0.00000000E+00  0.00000000E+00  0.00000000E+00
  0.00000000E+00  0.00000000E+00  0.00000000E+00
  0.00000000E+00  0.00000000E+00  0.00000000E+00
  0.00000000E+00  0.00000000E+00  0.00000000E+00
  0.00000000E+00  0.00000000E+00  0.00000000E+00
  0.00000000E+00  0.00000000E+00  0.00000000E+00
  0.00000000E+00  0.00000000E+00  0.00000000E+00
  0.00000000E+00  0.00000000E+00  0.00000000E+00
  0.00000000E+00  0.00000000E+00  0.00000000E+00
  0.00000000E+00  0.00000000E+00  0.00000000E+00
  0.00000000E+00  0.00000000E+00  0.00000000E+00
  0.00000000E+00  0.00000000E+00  0.00000000E+00
  0.00000000E+00  0.00000000E+00  0.00000000E+00
  0.00000000E+00  0.00000000E+00  0.00000000E+00
  0.00000000E+00  0.00000000E+00  0.00000000E+00
  0.00000000E+00  0.00000000E+00  0.00000000E+00
  0.00000000E+00  0.00000000E+00  0.00000000E+00
  0.00000000E+00  0.00000000E+00  0.00000000E+00
  0.00000000E+00  0.00000000E+00  0.00000000E+00
  0.00000000E+00  0.00000000E+00  0.00000000E+00
  0.00000000E+00  0.00000000E+00  0.00000000E+00
  0.00000000E+00  0.00000000E+00  0.00000000E+00
  0.00000000E+00  0.00000000E+00  0.00000000E+00
  0.00000000E+00  0.00000000E+00  0.00000000E+00
  0.00000000E+00  0.00000000E+00  0.00000000E+00
  0.00000000E+00  0.00000000E+00  0.00000000E+00
  0.00000000E+00  0.00000000E+00  0.00000000E+00
  0.00000000E+00  0.00000000E+00  0.00000000E+00
  0.00000000E+00  0.00000000E+00  0.00000000E+00
  0.00000000E+00  0.00000000E+00  0.00000000E+00
  0.00000000E+00  0.00000000E+00  0.00000000E+00
  0.00000000E+00  0.00000000E+00  0.00000000E+00
  0.00000000E+00  0.00000000E+00  0.00000000E+00
  0.00000000E+00  0.00000000E+00  0.00000000E+00
  0.00000000E+00  0.00000000E+00  0.00000000E+00
  0.00000000E+00  0.00000000E+00  0.00000000E+00
  0.00000000E+00  0.00000000E+00  0.00000000E+00
  0.00000000E+00  0.00000000E+00  0.00000000E+00
  0.00000000E+00  0.00000000E+00  0.00000000E+00
  0.00000000E+00  0.00000000E+00  0.00000000E+00
  0.00000000E+00  0.00000000E+00  0.00000000E+00
  0.00000000E+00  0.00000000E+00  0.00000000E+00
  0.00000000E+00  0.00000000E+00  0.00000000E+00
  0.00000000E+00  0.00000000E+00  0.00000000E+00
  0.00000000E+00  0.00000000E+00  0.00000000E+00
  0.00000000E+00  0.00000000E+00  0.00000000E+00
  0.00000000E+00  0.00000000E+00  0.00000000E+00
  0.00000000E+00  0.00000000E+00  0.00000000E+00
  0.00000000E+00  0.00000000E+00  0.00000000E+00
  0.00000000E+00  0.00000000E+00  0.00000000E+00
  0.00000000E+00  0.00000000E+00  0.00000000E+00
  0.00000000E+00  0.00000000E+00  0.00000000E+00
  0.00000000E+00  0.00000000E+00  0.00000000E+00
  0.00000000E+00  0.00000000E+00  0.00000000E+00
  0.00000000E+00  0.00000000E+00  0.00000000E+00
  0.00000000E+00  0.00000000E+00  0.00000000E+00
  0.00000000E+00  0.00000000E+00  0.00000000E+00
  0.00000000E+00  0.00000000E+00  0.00000000E+00
  0.00000000E+00  0.00000000E+00  0.00000000E+00
  0.00000000E+00  0.00000000E+00  0.00000000E+00
  0.00000000E+00  0.00000000E+00  0.00000000E+00
  0.00000000E+00  0.00000000E+00  0.00000000E+00
  0.00000000E+00  0.00000000E+00  0.00000000E+00
  0.00000000E+00  0.00000000E+00  0.00000000E+00
  0.00000000E+00  0.00000000E+00  0.00000000E+00
  0.00000000E+00  0.00000000E+00  0.00000000E+00
  0.00000000E+00  0.00000000E+00  0.00000000E+00
  0.00000000E+00  0.00000000E+00  0.00000000E+00
  0.00000000E+00  0.00000000E+00  0.00000000E+00
  0.00000000E+00  0.00000000E+00  0.00000000E+00
  0.00000000E+00  0.00000000E+00  0.00000000E+00
  0.00000000E+00  0.00000000E+00  0.00000000E+00
  0.00000000E+00  0.00000000E+00  0.00000000E+00
  0.00000000E+00  0.00000000E+00  0.00000000E+00
  0.00000000E+00  0.00000000E+00  0.00000000E+00
  0.00000000E+00  0.00000000E+00  0.00000000E+00
  0.00000000E+00  0.00000000E+00  0.00000000E+00
  0.00000000E+00  0.00000000E+00  0.00000000E+00
  0.00000000E+00  0.00000000E+00  0.00000000E+00
  0.00000000E+00  0.00000000E+00  0.00000000E+00
  0.00000000E+00  0.00000000E+00  0.00000000E+00
  0.00000000E+00  0.00000000E+00  0.00000000E+00
  0.00000000E+00  0.00000000E+00  0.00000000E+00
  0.00000000E+00  0.00000000E+00  0.00000000E+00
  0.00000000E+00  0.00000000E+00  0.00000000E+00
  0.00000000E+00  0.00000000E+00  0.00000000E+00
  0.00000000E+00  0.00000000E+00  0.00000000E+00
  0.00000000E+00  0.00000000E+00  0.00000000E+00
  0.00000000E+00  0.00000000E+00  0.00000000E+00
  0.00000000E+00  0.00000000E+00  0.00000000E+00
  0.00000000E+00  0.00000000E+00  0.00000000E+00
  0.00000000E+00  0.00000000E+00  0.00000000E+00
  0.00000000E+00  0.00000000E+00  0.00000000E+00
  0.00000000E+00  0.00000000E+00  0.00000000E+00
  0.00000000E+00  0.00000000E+00  0.00000000E+00
  0.00000000E+00  0.00000000E+00  0.00000000E+00
  0.00000000E+00  0.00000000E+00  0.00000000E+00
  0.00000000E+00  0.00000000E+00  0.00000000E+00
  0.00000000E+00  0.00000000E+00  0.00000000E+00
  0.00000000E+00  0.00000000E+00  0.00000000E+00
  0.00000000E+00  0.00000000E+00  0.00000000E+00
  0.00000000E+00  0.00000000E+00  0.00000000E+00
  0.00000000E+00  0.00000000E+00  0.00000000E+00
  0.00000000E+00  0.00000000E+00  0.00000000E+00
  0.00000000E+00  0.00000000E+00  0.00000000E+00
  0.00000000E+00  0.00000000E+00  0.00000000E+00
  0.00000000E+00  0.00000000E+00  0.00000000E+00
  0.00000000E+00  0.00000000E+00  0.00000000E+00
  0.00000000E+00  0.00000000E+00  0.00000000E+00
  0.00000000E+00  0.00000000E+00  0.00000000E+00
  0.00000000E+00  0.00000000E+00  0.00000000E+00
  0.00000000E+00  0.00000000E+00  0.00000000E+00
  0.00000000E+00  0.00000000E+00  0.00000000E+00
  0.00000000E+00  0.00000000E+00  0.00000000E+00
  0.00000000E+00  0.00000000E+00  0.00000000E+00
  0.00000000E+00  0.00000000E+00  0.00000000E+00
  0.00000000E+00  0.00000000E+00  0.00000000E+00
  0.00000000E+00  0.00000000E+00  0.00000000E+00
  0.00000000E+00  0.00000000E+00  0.00000000E+00
  0.00000000E+00  0.00000000E+00  0.00000000E+00
  0.00000000E+00  0.00000000E+00  0.00000000E+00
  0.00000000E+00  0.00000000E+00  0.00000000E+00
  0.00000000E+00  0.00000000E+00  0.00000000E+00
  0.00000000E+00  0.00000000E+00  0.00000000E+00
  0.00000000E+00  0.00000000E+00  0.00000000E+00
  0.00000000E+00  0.00000000E+00  0.00000000E+00
  0.00000000E+00  0.00000000E+00  0.00000000E+00
  0.00000000E+00  0.00000000E+00  0.00000000E+00
  0.00000000E+00  0.00000000E+00  0.00000000E+00
  0.00000000E+00  0.00000000E+00  0.00000000E+00
  0.00000000E+00  0.00000000E+00  0.00000000E+00
  0.00000000E+00  0.00000000E+00  0.00000000E+00
  0.00000000E+00  0.00000000E+00  0.00000000E+00
  0.00000000E+00  0.00000000E+00  0.00000000E+00
  0.00000000E+00  0.00000000E+00  0.00000000E+00
  0.00000000E+00  0.00000000E+00  0.00000000E+00
  0.00000000E+00  0.00000000E+00  0.00000000E+00
  0.00000000E+00  0.00000000E+00  0.00000000E+00
  0.00000000E+00  0.00000000E+00  0.00000000E+00
  0.00000000E+00  0.00000000E+00  0.00000000E+00
  0.00000000E+00  0.00000000E+00  0.00000000E+00
  0.00000000E+00  0.00000000E+00  0.00000000E+00
  0.00000000E+00  0.00000000E+00  0.00000000E+00
  0.00000000E+00  0.00000000E+00  0.00000000E+00
  0.00000000E+00  0.00000000E+00  0.00000000E+00
  0.00000000E+00  0.00000000E+00  0.00000000E+00
  0.00000000E+00  0.00000000E+00  0.00000000E+00
  0.00000000E+00  0.00000000E+00  0.00000000E+00
  0.00000000E+00  0.00000000E+00  0.00000000E+00
  0.00000000E+00  0.00000000E+00  0.00000000E+00
  0.00000000E+00  0.00000000E+00  0.00000000E+00
  0.00000000E+00  0.00000000E+00  0.00000000E+00
  0.00000000E+00  0.00000000E+00  0.00000000E+00
  0.00000000E+00  0.00000000E+00  0.00000000E+00
  0.00000000E+00  0.00000000E+00  0.00000000E+00
  0.00000000E+00  0.00000000E+00  0.00000000E+00
  0.00000000E+00  0.00000000E+00  0.00000000E+00
  0.00000000E+00  0.00000000E+00  0.00000000E+00
  0.00000000E+00  0.00000000E+00  0.00000000E+00
  0.00000000E+00  0.00000000E+00  0.00000000E+00
  0.00000000E+00  0.00000000E+00  0.00000000E+00
  0.00000000E+00  0.00000000E+00  0.00000000E+00
  0.00000000E+00  0.00000000E+00  0.00000000E+00
  0.00000000E+00  0.00000000E+00  0.00000000E+00
  0.00000000E+00  0.00000000E+00  0.00000000E+00
  0.00000000E+00  0.00000000E+00  0.00000000E+00
  0.00000000E+00  0.00000000E+00  0.00000000E+00
  0.00000000E+00  0.00000000E+00  0.00000000E+00
  0.00000000E+00  0.00000000E+00  0.00000000E+00
  0.00000000E+00  0.00000000E+00  0.00000000E+00
  0.00000000E+00  0.00000000E+00  0.00000000E+00
  0.00000000E+00  0.00000000E+00  0.00000000E+00
  0.00000000E+00  0.00000000E+00  0.00000000E+00
  0.00000000E+00  0.00000000E+00  0.00000000E+00
  0.00000000E+00  0.00000000E+00  0.00000000E+00
  0.00000000E+00  0.00000000E+00  0.00000000E+00
  0.00000000E+00  0.00000000E+00  0.00000000E+00
  0.00000000E+00  0.00000000E+00  0.00000000E+00
  0.00000000E+00  0.00000000E+00  0.00000000E+00
  0.00000000E+00  0.00000000E+00  0.00000000E+00
  0.00000000E+00  0.00000000E+00  0.00000000E+00
  0.00000000E+00  0.00000000E+00  0.00000000E+00
  0.00000000E+00  0.00000000E+00  0.00000000E+00
  0.00000000E+00  0.00000000E+00  0.00000000E+00
  0.00000000E+00  0.00000000E+00  0.00000000E+00
  0.00000000E+00  0.00000000E+00  0.00000000E+00
  0.00000000E+00  0.00000000E+00  0.00000000E+00
  0.00000000E+00  0.00000000E+00  0.00000000E+00
  0.00000000E+00  0.00000000E+00  0.00000000E+00
  0.00000000E+00  0.00000000E+00  0.00000000E+00
  0.00000000E+00  0.00000000E+00  0.00000000E+00
  0.00000000E+00  0.00000000E+00  0.00000000E+00
  0.00000000E+00  0.00000000E+00  0.00000000E+00
  0.00000000E+00  0.00000000E+00  0.00000000E+00
  0.00000000E+00  0.00000000E+00  0.00000000E+00
  0.00000000E+00  0.00000000E+00  0.00000000E+00
  0.00000000E+00  0.00000000E+00  0.00000000E+00
  0.00000000E+00  0.00000000E+00  0.00000000E+00
  0.00000000E+00  0.00000000E+00  0.00000000E+00
  0.00000000E+00  0.00000000E+00  0.00000000E+00
  0.00000000E+00  0.00000000E+00  0.00000000E+00
  0.00000000E+00  0.00000000E+00  0.00000000E+00
  0.00000000E+00  0.00000000E+00  0.00000000E+00
  0.00000000E+00  0.00000000E+00  0.00000000E+00
  0.00000000E+00  0.00000000E+00  0.00000000E+00
  0.00000000E+00  0.00000000E+00  0.00000000E+00
  0.00000000E+00  0.00000000E+00  0.00000000E+00
  0.00000000E+00  0.00000000E+00  0.00000000E+00
  0.00000000E+00  0.00000000E+00  0.00000000E+00
  0.00000000E+00  0.00000000E+00  0.00000000E+00
  0.00000000E+00  0.00000000E+00  0.00000000E+00
  0.00000000E+00  0.00000000E+00  0.00000000E+00
  0.00000000E+00  0.00000000E+00  0.00000000E+00
  0.00000000E+00  0.00000000E+00  0.00000000E+00
  0.00000000E+00  0.00000000E+00  0.00000000E+00
  0.00000000E+00  0.00000000E+00  0.00000000E+00
  0.00000000E+00  0.00000000E+00  0.00000000E+00
  0.00000000E+00  0.00000000E+00  0.00000000E+00
  0.00000000E+00  0.00000000E+00  0.00000000E+00
  0.00000000E+00  0.00000000E+00  0.00000000E+00
  0.00000000E+00  0.00000000E+00  0.00000000E+00
  0.00000000E+00  0.00000000E+00  0.00000000E+00
  0.00000000E+00  0.00000000E+00  0.00000000E+00
  0.00000000E+00  0.00000000E+00  0.00000000E+00
  0.00000000E+00  0.00000000E+00  0.00000000E+00
  0.00000000E+00  0.00000000E+00  0.00000000E+00
  0.00000000E+00  0.00000000E+00  0.00000000E+00
  0.00000000E+00  0.00000000E+00  0.00000000E+00
  0.00000000E+00  0.00000000E+00  0.00000000E+00
  0.00000000E+00  0.00000000E+00  0.00000000E+00
  0.00000000E+00  0.00000000E+00  0.00000000E+00
  0.00000000E+00  0.00000000E+00  0.00000000E+00