Amorphous Sb                            
   1.00000000000000     
    21.5860336643530779    0.0000000000000000    0.0000000000000000
     0.0000000000000000   21.5860336643530779    0.0000000000000000
     0.0000000000000000    0.0000000000000000   21.5860336643530779
   In   Te   C 
   108   162    30
Direct
  0.2156408872164428  0.3823368870236483  0.0030853054151185
  0.8629822149385570  0.6797500030377213  0.2128167023172656
  0.1002339057726273  0.8158673038659107  0.0883024160953023
  0.6482545661167347  0.4803621558798261  0.2454992136376344
  0.4242842268557690  0.4720344180170479  0.7373451337467668
  0.0007444829988366  0.2308629904194631  0.9619656755449233
  0.5821672780542529  0.6612575547366560  0.2560620709318409
  0.0100013481703197  0.1099579496544949  0.7224146320799516
  0.8725040095248098  0.1926926169268563  0.0779827915582707
  0.1278404165352782  0.3194648196455027  0.8210760003763475
  0.7092903185236336  0.2237285780138300  0.9995403554812688
  0.5142776474359205  0.2231290559468062  0.3291032338994782
  0.9842942688534098  0.8003385316052757  0.8664282916948672
  0.9860498034155735  0.3874124245145054  0.7199656001665653
  0.2391915706914174  0.5825801319378932  0.2260557159694535
  0.4511375048778670  0.8036140707068071  0.2103926733950784
  0.2680396252143424  0.8473485660420390  0.0199328146009286
  0.1027034906144293  0.2166981054881742  0.2368978111526736
  0.5446754389058520  0.7688562893988766  0.8339254899926235
  0.9702281559416015  0.7666513423252936  0.7387343085262711
  0.1647570286439973  0.1243109497574318  0.4277836993691445
  0.9138234483627174  0.7368158830430234  0.0343380812558316
  0.8264017111433251  0.3245648649156518  0.8749694677712938
  0.8009778795594493  0.5173342883697226  0.1051907014600607
  0.7913369753659979  0.2389505689519281  0.6145351175748286
  0.7425978900611678  0.6509290711245647  0.5682053641807633
  0.3883706731497605  0.0111356253423297  0.2830701103894810
  0.0265706546023271  0.3718976783647076  0.0711315647977238
  0.0042742938732890  0.4599948357297640  0.2577218295353068
  0.8725197799055567  0.7975654908413988  0.5955485283352516
  0.1223519938215616  0.2623621924202105  0.6703776522067375
  0.4534937597896363  0.5855364126109457  0.4515533910275568
  0.3332827581614408  0.2390593101981879  0.2209348573953841
  0.3575241477426577  0.7207288182847077  0.8768609764814290
  0.2269013111213260  0.1740559172687339  0.9999520157775643
  0.3867468342011139  0.2368597513287802  0.5589958125203298
  0.8543716510956788  0.5176095925071844  0.6667624783250605
  0.7980883886780887  0.0678252664203702  0.8435224933808639
  0.7960555008902629  0.9521345240730333  0.9736686233754451
  0.6182822400377258  0.4497688072124666  0.6728434665738278
  0.8448031932890674  0.1957370561566243  0.7500128829470819
  0.6076149258195063  0.8613962448267518  0.9115928087346510
  0.2953834234135729  0.4122072172315508  0.1428151528537121
  0.4162114144279738  0.5260984124450130  0.2697413230908372
  0.9870733101855069  0.6390254256927752  0.4105976766884675
  0.9164770137310176  0.2819316207792242  0.2040211607452062
  0.2032160684453601  0.5219011002511880  0.5209964756246448
  0.8270418002180719  0.2583438584860005  0.3867631217517878
  0.5190372398121526  0.3695459766624697  0.6297647897609014
  0.5275520181143123  0.6488930301776772  0.9462687459213052
  0.0498210579569440  0.8665055245056894  0.3136708384286708
  0.4647210351605043  0.7858811826619706  0.4913134670687662
  0.2527304992482045  0.6021447798751508  0.4289823216830063
  0.0593642925172363  0.9904221933619293  0.8840123917552833
  0.1659789307263541  0.7284217253460481  0.8605845562635619
  0.8013120276948849  0.9596859416085166  0.5052677812120191
  0.6269487247705011  0.8959545400496384  0.2598046861136460
  0.9340109544139811  0.8100204768424866  0.4311948915331683
  0.5443509419789988  0.2416310167364581  0.9351767849123059
  0.9085037131039946  0.5243168388181662  0.8225298474116876
  0.0135762525489374  0.8787099386439874  0.5516992860685147
  0.7616530605632946  0.5958579942393659  0.3830290025932925
  0.5234570500909403  0.9175921124424037  0.4917574709710431
  0.1498112852404693  0.0597025845232789  0.5933059701604410
  0.1734630781340349  0.7587106127241917  0.5066129822474357
  0.2812033338285400  0.9034329350958659  0.6667038087675090
  0.4636583362276502  0.7760740819021416  0.6878379582344647
  0.7059509355463957  0.3333347566443381  0.3037089958639630
  0.7371947050964515  0.9931006978480039  0.6995000742677115
  0.4382623933779589  0.8746894381650323  0.7876246591596855
  0.5360106049391518  0.9188703335841978  0.0734070355203772
  0.0014343416131428  0.0787425172955048  0.0185536845620536
  0.3542014420569821  0.0180683965902120  0.0720876071159895
  0.8526103882941648  0.8620432824300599  0.2204858396713835
  0.6129766791895918  0.0801288427720238  0.5939080003655691
  0.6673160151471035  0.2579340415882818  0.5001492776326910
  0.6607850079737125  0.5109137308298753  0.8690528330350357
  0.4853954895431957  0.9519889436012925  0.6446746677386800
  0.4345337516281692  0.1842078467399553  0.0875153618241781
  0.0080022562983020  0.1187692583693937  0.8614440093003212
  0.6960090028143163  0.7722465150397942  0.3731942726818768
  0.3831061367599545  0.3814234821697444  0.4386900624525198
  0.6808766276996329  0.9639799876726413  0.4247948426030768
  0.3000966036856767  0.6673800706608771  0.1074429205648410
  0.5478688725001115  0.1702823881704414  0.7603598257819382
  0.2062925427575015  0.4051766800745624  0.7280836675087828
  0.8059124951577831  0.6778829783942099  0.8476231576854302
  0.4722505118903648  0.3663113790949435  0.0344777169121939
  0.0609954907132081  0.6094250883393856  0.9727421862463830
  0.5727396268630444  0.6141526811104023  0.6905802583219489
  0.7854460288369521  0.3881334480183997  0.7556320530793142
  0.0316664042422225  0.3290819357733287  0.4911279433284422
  0.7748455532702578  0.3404379618359645  0.0915533302182624
  0.8739522347185091  0.0769530875768376  0.2293413903579566
  0.3545604542972640  0.0448472459826096  0.7618837225684426
  0.8936008847834717  0.9459708284947931  0.7813091899440057
  0.0016672748555316  0.4824867890848848  0.5692398710474703
  0.2669928370431789  0.3011122413990697  0.8692119285134877
  0.5078752879172757  0.5502675259617865  0.1028153621515272
  0.1289902968912212  0.5687147000965903  0.7040572765667685
  0.1553775313318555  0.7919738138403786  0.7106686448137171
  0.7452137794933669  0.0412538054519809  0.1284664213706745
  0.8030974345359541  0.4379526899011051  0.3022357365144264
  0.7311828758473452  0.9896371142837384  0.3016814923703022
  0.0293792552373873  0.1417554034070871  0.3889011334383757
  0.4925999047551842  0.7596775525860103  0.0089100207009526
  0.2095933903629603  0.3288399816691712  0.3635799100379405
  0.2117019718316015  0.5138219128868259  0.9329870846804361
  0.5180283671403825  0.4364442294943594  0.2815264113772692
  0.4094542864310425  0.8194991650749530  0.3659605267329847
  0.2927854469182304  0.7184834016547215  0.3065298676762914
  0.2560038951582722  0.6486844410715213  0.6156709819686409
  0.1146303200667687  0.3751321626711482  0.2194607746550221
  0.8868195259812630  0.3267887981482716  0.0091944157327053
  0.5844009603984801  0.3028578147358216  0.2283803935421378
  0.9329078964154981  0.2059379325135718  0.6273598701220362
  0.3350868803802847  0.1197128068091155  0.3769245223976297
  0.5584115971736514  0.2526286134247077  0.5668719276296926
  0.4226601847492590  0.2040741785208513  0.6837374288729531
  0.8833282143596852  0.0482628558358912  0.0940863943306573
  0.3723031029848021  0.2566178192866430  0.9944315799020764
  0.5793357921981388  0.7788428276154157  0.2034421283793604
  0.5966026437870977  0.8544113846786492  0.3827933154738920
  0.1359116334395659  0.0814667047780149  0.0792423763154924
  0.1357646789564826  0.8565371926315664  0.8309974259810310
  0.6252722835724276  0.7261239493336663  0.7376540671018907
  0.2626891667577278  0.7343842784994752  0.7710843460109141
  0.5477181834576045  0.3787114744880556  0.9133126284385042
  0.9702417209091739  0.7559224872993672  0.3165133005502711
  0.7511232097475229  0.5787455932402253  0.2260697276244424
  0.8135356205786347  0.8365783868768427  0.7468915777987133
  0.9913689290815717  0.5421551520599874  0.1215915166026973
  0.4113910616404944  0.3362066811532814  0.7072342069582184
  0.4141715101519600  0.0066568427983566  0.4210437974383361
  0.4617778234975113  0.0672599957598363  0.0313336429466965
  0.2972994501029382  0.0478816834079037  0.9556064535221703
  0.2684680853947131  0.2762622727687855  0.1034375106110800
  0.6030564262813088  0.0264449486325893  0.1235601956868979
  0.6981058955016340  0.3602526347739746  0.9309335016876685
  0.7760872340633624  0.5262376925298351  0.7766829446663159
  0.5775004924317779  0.4293144147677440  0.1171593432388816
  0.8144368410752868  0.6829766805013655  0.7153733587733634
  0.0850771399496665  0.1843032808290442  0.5701295359380991
  0.6732681011544784  0.1447955118617242  0.6911532439432819
  0.2442751991359669  0.2773060062554900  0.6931474870059701
  0.6953387043479010  0.5008593820737652  0.0275507339912021
  0.4545120672522229  0.4523840841104429  0.5421570700729834
  0.5026763456404223  0.9451083800914575  0.2296013339202326
  0.4516358954729556  0.6526340910273675  0.6270661005519751
  0.4377302385761818  0.6966656055400384  0.1196930757907665
  0.5099174529143139  0.9464269376378066  0.9376129161772759
  0.8480114087535711  0.4229292908137080  0.1720783010391440
  0.4623499007964363  0.6442210791825013  0.3057516904248944
  0.2509658909827584  0.7964522669387520  0.1666165460745629
  0.9049997079548412  0.6197849985951980  0.9130659225635700
  0.6435979939690772  0.6500084734116703  0.3760852455724120
  0.2996530259146071  0.3389250593724993  0.5563462020335316
  0.6380475733084732  0.1723227192176839  0.8770488238627292
  0.3121639485903440  0.9232638768781867  0.7989952776636119
  0.6415518753633435  0.5534279133026585  0.6006676168417797
  0.7533953661213332  0.9055425770093538  0.1302028669198276
  0.2405446770205807  0.2032730633192856  0.3093307298472276
  0.0955855193309169  0.3283770118523779  0.9557915207097408
  0.6183332304892499  0.8084120454217969  0.0306605468417389
  0.2879919159002802  0.9296215317489253  0.2949211951337596
  0.4305976856940316  0.2049229126571868  0.8793425276105520
  0.6494979702323104  0.9462288773711457  0.5749384080333991
  0.5368113251030064  0.6820884260226210  0.5269486843331210
  0.8348932741188194  0.8049913301029256  0.9047994851513279
  0.3814153519627707  0.5366732779786784  0.1474279697383880
  0.7674864708101549  0.1158695938016681  0.4064476714080624
  0.6473893305375995  0.2163539601662678  0.3762547074064239
  0.2938617485229654  0.4867193226251982  0.6163367943827002
  0.1730853753902986  0.8269086447022178  0.3631700198619408
  0.1445143009503388  0.6087837048724557  0.0782528249147228
  0.0120138657763409  0.9053370820211162  0.7425353668396084
  0.6218805250270493  0.5946543058789475  0.1565135309159047
  0.7462763884391309  0.0876040160867146  0.9969266959975086
  0.9976960516092883  0.4949965277160146  0.9962993075297634
  0.0934720302709066  0.5731912795848650  0.2386427735546090
  0.4656781922192640  0.6627443027925913  0.8282840387755797
  0.9725699658317585  0.4099425791470852  0.8556257623504195
  0.4260770694367597  0.3843388353012980  0.8515904104297440
  0.5744436667019055  0.0416049136616699  0.3075643355939862
  0.5515855354447522  0.2505546476354281  0.0686341141258465
  0.0954492481245118  0.3949391648540290  0.6377617675590146
  0.5443888005969783  0.0454385694397141  0.4315057863050189
  0.3242045534741173  0.0882307497854736  0.1776073641850712
  0.1443451945436796  0.4524692774041549  0.1170589798558948
  0.4828886023968857  0.0390808323879224  0.8026743522036742
  0.3276588432486906  0.4962759283054691  0.3697320213677057
  0.0667747511662106  0.9311376282221379  0.0263008328982909
  0.1563557919742213  0.4136160460600957  0.4604321670150051
  0.4336907225661087  0.3402699550153288  0.1632519386624379
  0.0489593973617282  0.5076442291742206  0.3964832957024002
  0.8717991461246394  0.3906956461012225  0.6483337438733567
  0.6525663501645816  0.4542669968389463  0.3988756586912341
  0.8732184804608123  0.0653772964521556  0.7267635752416511
  0.1214376297493058  0.5972479211539499  0.8605878629258338
  0.1972526580537930  0.9639963297759544  0.9617381796720373
  0.9675076087000540  0.7512998753636635  0.1564407055186330
  0.5854397123673843  0.8056901406106154  0.6230375193698436
  0.0144162267541220  0.9072905048163202  0.1907783347416244
  0.1589209466807189  0.0241005961368470  0.7772380616593537
  0.3658197996913420  0.4407380007061470  0.9589688765437901
  0.9189215349815656  0.8850040801828203  0.0610783331398153
  0.8260139202432846  0.6954135703433713  0.4506530900529638
  0.9067960132981739  0.5795876886247887  0.2911256132026999
  0.0784233330024157  0.2739707308744507  0.3736313991559165
  0.9993871032311917  0.7027705377960759  0.5343636856682651
  0.3985493917694801  0.8537328166102766  0.5976663178385325
  0.3265933240633537  0.7104596938676527  0.4668984954397268
  0.7762465129679507  0.5052254763507122  0.4810569754064606
  0.9207985632335181  0.3647086794174882  0.3199202195892094
  0.7405000483041295  0.7967154205382555  0.5503276672472395
  0.9958097137876192  0.9381972354294689  0.4213563379997388
  0.5500018928623693  0.5111201621128081  0.7724949841308025
  0.7181852441025265  0.9406171683393233  0.8681795744940538
  0.3674527326199016  0.9017189165693423  0.1305462274291127
  0.3179772429831184  0.6026491189276103  0.9609481241282837
  0.9487273028855164  0.1706052082878700  0.2759337656701655
  0.8133813863846563  0.8619162686817713  0.4127262453288943
  0.9835754405562327  0.0667900973583239  0.5604760981136068
  0.9058806439717618  0.9914124225269098  0.9082511017410335
  0.0369820775265400  0.7434411147139576  0.9732420657045467
  0.3433360351220536  0.0200062744194021  0.6349818322525578
  0.0027933860036288  0.2238366807427047  0.1152718673323812
  0.9381614168926540  0.4535140754851752  0.4304998431253410
  0.7389574679122098  0.1098751373670153  0.2372807017304806
  0.0177747900838200  0.2508597229604108  0.7465772129421118
  0.4775579045550251  0.2770526875095224  0.4672423092345973
  0.7834891837074711  0.2485473976825109  0.1841093343343441
  0.8211370239536632  0.6438687877779110  0.0906028665794932
  0.9161796831044891  0.2033064402933591  0.4911425765399854
  0.7747022620792473  0.7631743726633584  0.2569726854750030
  0.4021705964256204  0.8391364725118560  0.9358186905700269
  0.0929121300956887  0.0669103096328632  0.2779515500121890
  0.6773534925270686  0.3345213671785489  0.6986438451644187
  0.4038511040950016  0.3204106115080370  0.3019592392356293
  0.9878732469280060  0.5265331483023448  0.7129778734716121
  0.2817026502492015  0.1453471799662637  0.5379870106562719
  0.1555248700212796  0.8708805613572660  0.6097283708728080
  0.7229596798342379  0.1391021515010874  0.5358252513466722
  0.8749207253295779  0.5701223181640386  0.5412633096261671
  0.0644408759941404  0.7016740609047594  0.6704287816707082
  0.7738653168195788  0.3281665048868067  0.5064805082679631
  0.1955748278133238  0.9478480063351734  0.1385743914182856
  0.2196489012095736  0.7195080454816525  0.9827626006408049
  0.4853977214305334  0.0612651789890116  0.5706200434220565
  0.1549524197932528  0.7191177097038332  0.2292354015695288
  0.1444968215419357  0.6559300406213365  0.3740403042274675
  0.8924572482500500  0.9324077348167158  0.6028706343534667
  0.6602790606915703  0.6625511019184503  0.8688933248819495
  0.7840159400590261  0.7905705998150535  0.0312409176021992
  0.1421555189048833  0.9791934229037967  0.4599307540413632
  0.2716029734012511  0.4446918087433227  0.8296678177887093
  0.2085500523566063  0.2650092098675575  0.4919525232552348
  0.2736259748464487  0.1411742765575893  0.8006440466504912
  0.2325317392803862  0.4317462625420242  0.2807380619326622
  0.6147824623347378  0.0866829435232455  0.0027574434981918
  0.8336154490530386  0.4541990499513710  0.9778541647491917
  0.8725734432939580  0.9678359490546891  0.2975755425390582
  0.3576231795488920  0.5955239558623561  0.7368941371931490
  0.8786653584057424  0.0507524855352054  0.4288383461178543
  0.2710316293720867  0.9969464764599894  0.4742721755209975
  0.5929435666601887  0.9214644319458071  0.7443156543828174
  0.8600640686207165  0.2002693744764270  0.8895956690020210
  0.1418880404572428  0.1692543011503010  0.8764840417671996
  0.4649190620121277  0.1279373092163479  0.2467345023237092
  0.0959171156004225  0.5814616794225335  0.5695279094164711
  0.3079895375182311  0.5778848727757500  0.6527962628381383
  0.7415353660575683  0.4094608749547364  0.0059727589594012
  0.3395655797491924  0.7546715601878948  0.3810449339027301
  0.8174350935265057  0.8841018117904945  0.0519635008807026
  0.8112549821682949  0.5469628420154919  0.3053714443715340
  0.4688821659679860  0.8907807029897004  0.1476392110333299
  0.3914207078695468  0.1648928315036768  0.1829167445819970
  0.7700450338568676  0.7802493789674190  0.4532619988651322
  0.9484175774331948  0.7866949815726931  0.5295037273641020
  0.5274740849467427  0.3817034838825689  0.1950727954284876
  0.1842465665526646  0.7340913686492618  0.3200889508943457
  0.4971434916346748  0.5671947609156317  0.0064930499977457
  0.2722989720834467  0.0965535905713895  0.4498475712797402
  0.9541270008676129  0.1117717289631204  0.4708577364584838
  0.1904075158214946  0.1051173156867256  0.8185857002325161
  0.5852007768628436  0.9027068992321051  0.6472464855341273
  0.2283137119603603  0.9984574628083799  0.2925353477710690
  0.1802730719506617  0.0288862314153195  0.2899650573125887
  0.4458314257281514  0.5488289978641321  0.9816477732803028
  0.0365966261132584  0.8915308269574448  0.8441708091352461
  0.3900889471863697  0.5349034381140424  0.9567124224288831
  0.8697199260126602  0.7705859036862043  0.6956252195305775
  0.9304348411430380  0.8508554989270563  0.1508683653540535
  0.0066636808460530  0.1448451804785570  0.6139251012712508
  0.1976805251661344  0.8550993570982236  0.1047764596600888
  0.4962297621014835  0.9595838739465327  0.7496982613336625
  0.5286657466220687  0.4630006225285994  0.4803213043359730
  0.1480889687356438  0.9794350037816302  0.0552649094040629
  0.5743253328114262  0.4622461117496050  0.4454183810586272
  0.0929225596463565  0.5474479327340452  0.1390994896566456
 
  0.25736665E-03  0.14409476E-02 -0.20417425E-02
  0.34975689E-03  0.63054645E-03 -0.68469991E-04
 -0.20530131E-02  0.17413442E-02  0.16381118E-02
  0.12988182E-02 -0.57938107E-03 -0.23134285E-02
  0.11774340E-02  0.15098862E-03  0.52445896E-03
 -0.19613893E-03 -0.56332520E-03 -0.27972862E-02
 -0.10358135E-02 -0.23658961E-02  0.14928489E-02
  0.17700214E-02  0.20684576E-02  0.30775982E-03
  0.75708252E-03 -0.15562285E-02  0.10691423E-03
  0.72870831E-03 -0.91157004E-04  0.96308110E-03
 -0.66980938E-04  0.12792382E-02  0.12416261E-02
  0.22263464E-04  0.32064798E-02 -0.12270899E-02
  0.19456835E-02 -0.65877771E-03 -0.50875804E-04
  0.18427011E-02 -0.85340302E-03  0.15879248E-02
 -0.21672988E-02 -0.12852455E-02  0.79590443E-03
  0.11773591E-03  0.14062412E-02 -0.25993208E-02
  0.17732795E-03 -0.98686788E-03  0.30555637E-03
 -0.53119063E-03 -0.12743138E-02 -0.50594915E-03
  0.20042297E-02  0.10120590E-02 -0.16995312E-02
  0.16752451E-02 -0.87253441E-03  0.95920087E-03
 -0.14461435E-02 -0.79422667E-03 -0.15695413E-02
 -0.10361436E-02  0.26929432E-02 -0.39396751E-03
  0.29953249E-02 -0.27022943E-03  0.16810105E-02
 -0.16580175E-03  0.91846572E-04 -0.12398109E-03
  0.52031674E-03 -0.47866670E-03 -0.10198012E-03
 -0.20510127E-02  0.20842328E-02 -0.29147387E-03
 -0.96428636E-03 -0.14444922E-02  0.24285718E-02
 -0.16117242E-02  0.13947551E-02 -0.27376119E-02
 -0.14995995E-02  0.12579304E-02  0.37342376E-03
  0.15246566E-02  0.13443512E-02  0.15558161E-02
 -0.88433946E-03 -0.96752575E-03  0.12080342E-02
  0.30845370E-02 -0.22598488E-02  0.44045341E-03
  0.14320680E-02 -0.51125167E-04 -0.17311067E-02
  0.71827515E-03 -0.30882751E-03  0.20894975E-02
  0.25412610E-02 -0.77420798E-04  0.21738104E-02
 -0.29320574E-03  0.14602189E-03 -0.22265210E-03
  0.22214603E-02 -0.24680649E-02  0.16970817E-02
 -0.52988146E-03  0.67858210E-03 -0.71043070E-03
 -0.43476127E-03 -0.87066620E-03  0.16380752E-02
 -0.57324292E-03 -0.86843489E-04 -0.13796870E-02
  0.11547622E-02  0.81897229E-03 -0.22690346E-02
  0.32426578E-02 -0.34613950E-03 -0.12780957E-02
 -0.12523555E-04  0.19362597E-02 -0.27509407E-02
 -0.87747808E-03 -0.19604323E-03  0.83420402E-03
  0.16617782E-02  0.22151915E-02 -0.23729771E-02
 -0.80487279E-03 -0.13754426E-02 -0.22418004E-03
  0.23717802E-03  0.82608456E-03  0.16513213E-02
 -0.48731719E-03  0.23391867E-02  0.90790179E-03
  0.10861077E-03 -0.19828951E-02 -0.27071253E-03
  0.42347829E-02 -0.10574020E-02 -0.21330246E-03
  0.42659178E-03  0.29801635E-03  0.49653395E-03
 -0.68366655E-03 -0.28089400E-03  0.15673996E-02
  0.12224988E-02  0.17443042E-02  0.25722486E-02
  0.39243234E-03 -0.43107274E-03  0.29280331E-02
 -0.63467967E-03 -0.45996217E-03 -0.19048186E-02
 -0.37495326E-03  0.22333414E-02  0.24299216E-03
  0.34817071E-03  0.28680698E-02  0.10653241E-03
  0.95120880E-03  0.98612412E-03  0.97544391E-03
 -0.27569853E-03 -0.37990062E-03 -0.14997046E-02
 -0.95167568E-03  0.75236508E-04  0.67210046E-03
  0.93500256E-03  0.32293114E-03  0.26360416E-02
  0.91320197E-03  0.18805313E-02 -0.47151566E-03
  0.14526452E-02 -0.12895589E-02 -0.10345217E-02
  0.47870797E-03 -0.58512689E-03 -0.30443822E-02
  0.21056298E-02  0.26717670E-02  0.33969102E-03
  0.83013022E-03 -0.81817036E-03 -0.44915130E-03
 -0.15543096E-02 -0.21878580E-02 -0.62296807E-03
  0.10762504E-02  0.15001865E-03 -0.20818246E-02
 -0.14964725E-02  0.11682237E-02  0.16115535E-03
  0.17508648E-02 -0.23306840E-02 -0.34772967E-03
 -0.25397487E-02 -0.13846511E-02  0.69640751E-03
 -0.79223155E-03 -0.60637573E-03  0.85408105E-03
  0.33220452E-02  0.14835439E-02 -0.60871370E-03
 -0.16253572E-02 -0.53701112E-03  0.17230914E-02
 -0.16540847E-02 -0.74527564E-03  0.38113802E-04
 -0.77141735E-03 -0.13567533E-02 -0.10535972E-02
 -0.32546872E-03 -0.39185455E-03  0.19922546E-03
 -0.23810093E-03  0.83935120E-03  0.57602229E-03
 -0.58419247E-03 -0.15620435E-02 -0.13511766E-02
  0.66080310E-03 -0.79098965E-03  0.21812006E-02
 -0.39027626E-03 -0.64894735E-04 -0.20139851E-02
  0.16628277E-02  0.12020980E-02  0.22872378E-03
 -0.68026795E-03  0.14814780E-02 -0.22012227E-02
 -0.11156798E-02  0.11515384E-02  0.10004545E-02
 -0.36404399E-03  0.53066977E-03  0.11564341E-02
  0.42224758E-03 -0.64641009E-03  0.14588181E-02
 -0.36061042E-03  0.21948021E-03 -0.89317872E-03
 -0.50623592E-03 -0.42578878E-03 -0.34994469E-03
 -0.15125658E-02 -0.55735803E-03 -0.86488671E-03
 -0.18041057E-04 -0.13590094E-02 -0.23801414E-02
  0.32609776E-02 -0.21562970E-02  0.13348703E-02
  0.24247904E-02 -0.81916615E-03 -0.78955170E-03
 -0.26653070E-03  0.13702228E-02 -0.21266010E-02
  0.95103600E-03 -0.35330608E-02 -0.10028593E-02
 -0.10590785E-02  0.29100798E-04  0.16238462E-02
 -0.15863912E-02 -0.10686231E-02 -0.14091475E-03
  0.14819123E-02 -0.56053089E-04 -0.10026893E-04
 -0.13859835E-02  0.15700747E-02 -0.90750005E-03
 -0.55725764E-04  0.40874081E-02  0.96354206E-03
  0.22025827E-02  0.14231667E-02 -0.30075761E-02
 -0.12996934E-04  0.13149473E-02 -0.53192931E-03
 -0.66959070E-03 -0.26508587E-02 -0.42646186E-03
 -0.33603402E-03  0.43575659E-03  0.52946324E-03
 -0.57299018E-03 -0.76571604E-03  0.33644287E-03
 -0.26896508E-03 -0.38741398E-04  0.24762471E-02
  0.94072697E-03 -0.97424506E-03 -0.27313591E-03
 -0.66306831E-03 -0.39840850E-03  0.13267580E-02
 -0.42428341E-03  0.77554437E-03 -0.29414954E-03
 -0.19916089E-02 -0.18806517E-03 -0.22463562E-02
 -0.36870638E-02  0.42787026E-03 -0.36410799E-02
 -0.19948636E-02 -0.15523502E-02  0.16672225E-02
  0.86551297E-03  0.47307358E-03 -0.23314739E-03
  0.26954959E-03  0.33856643E-03  0.47896254E-03
  0.23451845E-04 -0.17034610E-02  0.10343085E-02
 -0.21012744E-02 -0.11958161E-02 -0.62637227E-03
  0.55857344E-03  0.20745451E-02  0.15895036E-02
  0.14986381E-02 -0.39403092E-03 -0.16530119E-02
 -0.76361872E-05  0.38390048E-03 -0.18341975E-02
  0.36132747E-03 -0.28494069E-02  0.11757650E-02
 -0.12803418E-02  0.23511280E-02  0.56157525E-03
 -0.88596085E-03  0.60257431E-03 -0.15448490E-02
  0.18583057E-02  0.18106244E-02  0.24130622E-02
 -0.17966693E-02  0.17684991E-02  0.34309711E-02
  0.15377460E-02 -0.10498275E-02  0.31966385E-02
 -0.47098652E-03 -0.50304747E-03  0.30886939E-02
  0.45280837E-03 -0.86494166E-03  0.51716420E-03
 -0.34420985E-02 -0.69711990E-03 -0.23127964E-02
 -0.20951081E-03 -0.17282630E-02  0.59364986E-03
 -0.19560873E-03 -0.17710713E-02 -0.37785390E-03
 -0.75352005E-03  0.23692505E-03  0.80801281E-03
  0.54131190E-03  0.93798972E-03 -0.93605007E-03
 -0.16008778E-02 -0.49488073E-03  0.44332427E-03
  0.59332678E-03  0.48380700E-03 -0.16753546E-02
  0.31205314E-02  0.14743616E-03  0.37602851E-03
  0.61193127E-03  0.24424495E-02 -0.17252597E-02
 -0.26017146E-02 -0.15087271E-02  0.15155813E-02
  0.44997556E-03  0.31568347E-03  0.94714632E-03
 -0.31117286E-02 -0.30617786E-02  0.27608336E-04
 -0.73673456E-03  0.11023849E-02 -0.15004486E-02
 -0.16501524E-02 -0.92048900E-03 -0.24898497E-04
 -0.25904721E-02  0.24440557E-03  0.43208584E-03
  0.44687474E-03 -0.24916713E-03  0.74360245E-03
 -0.70007120E-03 -0.45997538E-03  0.12222593E-02
  0.13765888E-02 -0.44455952E-02  0.30631414E-03
 -0.72072452E-03  0.12867593E-02  0.18657238E-02
 -0.40667536E-03  0.79771321E-03  0.11712121E-04
 -0.20670606E-02 -0.35659250E-03 -0.92580728E-03
  0.12311481E-02  0.68543001E-03 -0.10100683E-02
 -0.29563716E-05 -0.12016564E-02 -0.33557823E-03
 -0.58166151E-03 -0.42825564E-03  0.78716070E-03
 -0.90104386E-03 -0.14408851E-02  0.84079488E-04
  0.28211888E-04 -0.71721489E-03  0.46634839E-05
 -0.13540367E-02 -0.49757094E-03  0.90912185E-03
  0.88368561E-04  0.87093267E-03 -0.13279246E-02
  0.71839730E-03  0.12180516E-02  0.17046153E-02
  0.18366113E-02 -0.36682912E-03 -0.79095601E-03
  0.69691156E-03 -0.11228004E-02  0.24399279E-02
 -0.11120443E-02  0.25687837E-03 -0.28681675E-03
  0.73278728E-03  0.87648975E-03  0.23702332E-02
 -0.82035251E-03 -0.51886974E-03  0.67012986E-03
 -0.22408669E-03 -0.14181051E-02  0.64583501E-03
 -0.39005051E-03 -0.25735262E-02 -0.44104654E-04
  0.96610546E-03  0.16992405E-02  0.70994903E-03
  0.17496384E-02 -0.16394184E-04 -0.23751250E-03
 -0.41215739E-02  0.97806341E-03 -0.37131764E-02
 -0.84824657E-03  0.71230013E-03  0.13111413E-02
  0.61687605E-03  0.75987509E-03  0.18948867E-03
 -0.88270801E-04  0.73749800E-03 -0.24045035E-03
 -0.38300173E-03  0.20313282E-02 -0.34278810E-03
  0.36198696E-03  0.17355293E-02  0.65502668E-04
  0.13179435E-03  0.57045923E-03 -0.32700804E-03
  0.13683664E-02  0.22986444E-02 -0.66050413E-03
 -0.13534805E-02 -0.63144985E-03  0.17071960E-02
  0.76065879E-03 -0.10865156E-02  0.65807699E-03
 -0.16118712E-02  0.12334301E-02  0.41760083E-03
  0.33399279E-03  0.24399765E-02  0.18852806E-02
  0.11288385E-02  0.32277524E-02 -0.38357903E-02
  0.12672708E-02  0.13241219E-02  0.14516428E-02
  0.15918061E-02 -0.25721739E-02 -0.10557889E-02
 -0.11135262E-02  0.78519793E-03  0.28245180E-03
  0.14883372E-02  0.51947412E-03  0.17528189E-02
  0.90403965E-04 -0.16350382E-02  0.89951017E-03
 -0.91862778E-03  0.11563994E-02 -0.15079087E-02
  0.57304327E-04  0.13694946E-02  0.27295736E-02
 -0.11384187E-02  0.12946217E-02 -0.13130802E-02
  0.60765764E-04 -0.13818097E-02  0.16595279E-02
 -0.10290829E-02  0.29957177E-03 -0.78048648E-03
 -0.19758315E-03  0.16346546E-02  0.98920244E-03
 -0.19654700E-03  0.14593880E-03 -0.47050766E-03
  0.10435833E-02  0.13201421E-02 -0.18996081E-02
  0.83532097E-03 -0.17903848E-02 -0.49691462E-03
  0.96511436E-03 -0.29059927E-03 -0.58684622E-03
  0.10854300E-02 -0.76787686E-03 -0.25628332E-03
 -0.66120288E-03 -0.35553865E-03 -0.16235058E-02
 -0.71094738E-03  0.13311533E-02 -0.71815587E-03
 -0.23659601E-02 -0.74447144E-03  0.13478694E-02
  0.17703629E-03 -0.73552549E-03 -0.33884597E-03
  0.10230505E-02  0.67387043E-03  0.24379655E-03
 -0.10824442E-02 -0.27515189E-02  0.14188986E-02
  0.60254494E-04 -0.14924563E-02 -0.75263266E-03
 -0.12503371E-02 -0.36662998E-02  0.35948089E-03
  0.87214593E-03 -0.27661250E-02  0.77986448E-03
 -0.20219494E-02 -0.17677773E-02  0.16818924E-03
 -0.26869298E-02  0.10464188E-02 -0.18646419E-02
 -0.55877209E-03 -0.13743318E-02  0.15130329E-02
 -0.14675382E-02  0.22806304E-02 -0.11823015E-03
  0.10423154E-03 -0.20950837E-02  0.30074591E-02
  0.44564763E-03 -0.91004849E-04 -0.35945956E-02
  0.96411766E-03 -0.31431930E-03 -0.77306302E-03
  0.10880139E-02 -0.31555723E-02  0.46467917E-03
 -0.15076364E-05  0.51188383E-03  0.68761262E-03
  0.17213572E-02  0.38770113E-03 -0.20389966E-02
 -0.15149753E-02  0.33954877E-03 -0.16937326E-02
  0.31585001E-02 -0.75954889E-03  0.13253422E-02
  0.28648404E-02  0.41893113E-03 -0.23688618E-02
 -0.27485172E-03  0.10076683E-02  0.10858178E-02
 -0.17464932E-02  0.35636584E-02  0.78614699E-03
 -0.16484806E-02 -0.11071627E-02  0.73238116E-03
 -0.20370719E-02 -0.22135615E-02 -0.42562698E-03
  0.97806516E-03  0.12736335E-02  0.18142852E-02
  0.29624163E-03 -0.22934376E-02  0.16685387E-03
 -0.61326306E-03 -0.48580499E-03  0.32281817E-02
  0.26260035E-02 -0.60579547E-03  0.72090285E-03
 -0.75475950E-03  0.45382514E-02  0.80171515E-03
 -0.28589188E-02 -0.12337691E-02 -0.10285945E-02
 -0.70871445E-04  0.17137656E-03 -0.17333916E-02
 -0.33400517E-02  0.42150146E-03  0.13880574E-02
  0.82083820E-03  0.61062875E-03 -0.20029714E-02
  0.94906439E-03 -0.77822513E-03  0.33427971E-03
 -0.26377162E-04  0.61871489E-03  0.30878359E-03
 -0.58484925E-03 -0.12152519E-02 -0.85509718E-03
  0.10210756E-02  0.18853523E-03 -0.27216502E-03