seed=3 POSCAR cation-sublattice shuffle 
   1.00000000000000     
    18.6482691762421204    0.0072573919700704    0.0600486988714458
     0.0134384640098825   18.4162893875549365   -0.0810674844647043
     0.0696462523461051   -0.0808019271677189   18.4648233698956226
   Ge   Sb   Te
    57    43   108
Direct
 -0.0040872690188975  0.9870731635372881  0.3298145375540487
  0.1579391652924473  0.0087157293666063  0.4932631156189324
  0.9924302736918532  0.9944446695622386  0.6494093125538192
  0.1585913563987373  0.1694274030665921  0.6592917848461465
  0.1644544277658218  0.0019058202439931  0.8304341238424834
  0.1665807567841805  0.5027276310074965  0.0103041141203335
  0.1651181330704156  0.6594955906762938  0.1716958754765205
  0.1625788772200742  0.6731906699390700  0.4981566908493237
  0.1580906606196382  0.8399492885568515  0.6686244086486322
  0.4949544190889601  0.1665294190112089  0.0036496477818736
  0.4898827562627644  0.1617045346713946  0.3294387506677112
  0.4950540857022989  0.9950546955513638  0.4987231591505525
  0.3346518492123972  0.1708402093208205  0.8314246121746997
  0.4977974266783434  0.4976748258583503  0.0015559922050677
  0.3189645154435223  0.3337670797186889  0.3299375320435244
  0.4915440439892350  0.3262876454433445  0.5036385492856945
  0.3242189554596507  0.3313010303677579  0.6614150019840586
  0.5050001048743974  0.3339785265524751  0.8339947101545435
  0.3294880148298521  0.8396752764367599  0.1701462225208590
  0.3222192387977776  0.6680615435020009  0.3318751072938280
  0.4942664874012263  0.8313072746946434  0.3394105092905269
  0.3330586677329178  0.6662544083442162  0.6654270842079619
  0.4958179455154428  0.8301389509178939  0.6693536572675773
  0.5002997371704674  0.6630066301063977  0.8318444498638086
  0.6776128647709356  0.1624929053504229  0.1688318305808584
  0.8297103187609890  0.0109535752269757  0.5027735130098755
  0.6652080476192475  0.9942252533752807  0.6566756655300537
  0.8338740854108542  0.0139295604188772  0.8301856122513870
  0.8394281216785749  0.3356587666608077  0.1609664449027949
  0.6705953078623155  0.8267812017910530  0.1706504550090766
  0.8304994165020435  0.6774230733531289  0.5003039971184436
  0.6649958328271668  0.6609580480165216  0.6672535609175810
  0.8318351797751665  0.8454705619749840  0.6658624680452099
  0.1694620702554877  0.0085235466193862  0.1670360948536319
  0.1577334154272837  0.1749690139405172  0.3294287898080386
 -0.0047780964758107  0.1594632397237575  0.4861867064464546
  0.9949812039134438  0.3328090677141077  0.9936375172358027
  0.1563269997537564  0.3372866749720550  0.4895585115580648
  0.3332108658265319  0.0011944256218392  0.0036737255231812
  0.3263273725843984  0.1692499673284360  0.1686287620090512
  0.3220181258144527  0.0024304671742899  0.3316551556170355
  0.3245336997102498  0.1641081184764489  0.4961204256318957
  0.3330150888267847  0.5045602591296564  0.1675413765579971
  0.3310471803673875  0.8396845202460912  0.8358835815032507
  0.6671370359388838  0.0012792142973674 -0.0069585271339591
  0.8291106239605049  0.1680240270337279  0.9948918860426652
  0.6603601960665122  0.0017118500503423  0.3264042256773954
  0.8278430485045067  0.1689416388934161  0.3371943721042965
  0.6678921538330496  0.4897460679245315  0.1677497698458564
  0.6545682509030644  0.3298310963363871  0.3311669078794084
  0.8257317062528829  0.3392265989231527  0.5073638984031550
  0.6667639630557555  0.5001273017960899  0.4973071802229538
  0.6600932653680989  0.3277551584534719  0.6627946774820409
  0.6635965754262418  0.5012740053179174  0.8314530556143039
  0.8368278867050080  0.6716105840516265  0.1705705875531396
  0.8262270680704366  0.8400777217933550  0.3398244315586587
  0.6820149087950894  0.8302336483213648  0.4987925157457542
  0.1620653430873512  0.1733470200163474  0.0000275081761726
  0.0011341590571221  0.1619647809739488  0.8344831448735271
  0.0047614941567626  0.4902620417691053  0.1636771472106109
  0.1639894427811727  0.5026820212352500  0.6568995708155727
  0.0043796183613793  0.8393519987717448  0.1674482530512895
  0.1616019712602353  0.8277092132937106  0.3350079036809299
  0.9985624632855602  0.6784540888211114  0.6534892398463894
  0.3278590256297667  0.0018522301339732  0.6668928912258441
  0.4902041915867083  0.3301317588687425  0.1698770574170000
  0.3306034617255496  0.4941374860811961  0.4972029928399516
  0.3302757010495293  0.5045841787389503  0.8347773367866144
  0.3316205152862942  0.6675437696576275  0.0003928430779868
  0.5024798487995484  0.8316966394405152  0.0014009598133451
  0.5002249813126191  0.6666135498244935  0.1672986246052025
  0.4972319369458637  0.6647958029140109  0.5003042769500990
  0.3320579517913076  0.8313904228252992  0.5018031287453032
  0.8373103162829764  0.0092460965490172  0.1688416311126981
  0.6664604744852092  0.1667959124785748  0.4995772881511474
  0.6645975033370662  0.3309458033461077 -0.0007038075062713
  0.8288060413697882  0.4963842482916618  0.9977915827020172
  0.6640897659739692  0.6662170025404404 -0.0021752541589894
  0.6718752154625184  0.6649321860346427  0.3340007740741759
  0.8351935712426342  0.6636997252430346  0.8310801661211180
  0.6781104947610915  0.8328227057142150  0.8303131775219400
  0.0029525900740627  0.0023889082827325 -0.0055239793532702
  0.9891529653366359  0.3292740562383145  0.3262636811828023
 -0.0005158259216532  0.5069226624591339  0.4948497544943619
  0.9924985438572249  0.3277150480822166  0.6615031521872712
  0.1581654933413510  0.3357518201328042  0.8366634214742180
  0.9959835037270807  0.5125472185283940  0.8295526133897989
 -0.0008478483069638  0.6674476742876875  0.0066595865342397
  0.1690978260941319  0.8358631208288931  0.0007059558974580
  0.1670175852568740  0.6713628965842350  0.8333833449578922
  0.5015581859398696 -0.0002065621320013  0.1688979570182642
  0.5070176443635163  0.1639996852055631  0.6687169493572658
  0.4997494961303203  0.9964454310294970  0.8318213993914197
  0.3242874612199617  0.3306569507667325 -0.0028066027824561
  0.4891433804800089  0.4973876887408086  0.3343981119333605
  0.4992082638205145  0.5008315259111813  0.6724599328090051
  0.6677911966054821  0.1713791716905634  0.8356453881184499
  0.8369055086922138  0.5026486710280043  0.3318622996374104
  0.8284315526742524  0.4974504116271881  0.6659115094308884
  0.8365520981895800  0.8360286373154772 -0.0004345693904854
  0.1779295659668269  0.0037010181345484  0.0052423648099630
  0.0017697278292571  0.1734780574540229  0.0015404128483860
  0.0083284248718112  0.0021443629565282  0.1712020687043090
  0.1745236945321279  0.1634060182762753  0.1730405387482048
  0.1716584647039435  0.0008998719281901  0.3388306887225483
  0.0049051733198871  0.1627147023161007  0.3330191837194345
  0.0064176880099471  0.0019304156553637  0.4960539459019615
  0.1712227595763099  0.1642029555540716  0.5024029731207602
  0.1698821721674548 -0.0012621806693560  0.6719099439283449
  0.0080445405008124  0.1624344262346347  0.6652411304155640
  0.0111802950610448  0.9995702375490118  0.8327843762671121
  0.1719315067306441  0.1641625924864421  0.8358557017708966
  0.1548743903474770  0.3414589789947395  0.0017818505079220
  0.9950096112567132  0.4985043295021988 -0.0049629742549964
  0.9931977429167967  0.3302567020125235  0.1603601671841520
  0.1648825808398406  0.5026289660035144  0.1630846846772953
  0.1674520609784581  0.3298813810047460  0.3368975000339132
  0.9957883577069184  0.4990195812214890  0.3278680007120675
  0.0026798310088198  0.3306368170516562  0.4976261803551864
  0.1640008178210602  0.4968672450660621  0.4943269374073562
  0.1719999276532454  0.3278145908498544  0.6654545354530411
 -0.0035585543160982  0.5029967100719682  0.6605197880060143
 -0.0002492152599301  0.3342780347726452  0.8360076235170907
  0.1609124316720665  0.5069068075195602  0.8321042833805729
  0.1659823179714777  0.6654906723487454 -0.0005631201059861
  0.0032872744114785  0.8364548296619009  0.9967909946584964
 -0.0002084537881880  0.6666266641757785  0.1652904895241240
  0.1749252504730916  0.8313623830164663  0.1666811169225475
  0.1718222706980802  0.6644792501902234  0.3308472230666568
  0.0031682073235767  0.8319185253254791  0.3309700191313847
  0.0081365064292264  0.6689663455984280  0.4939127511325760
  0.1727227674703805  0.8297405832454618  0.5062893869854848
  0.1777163628456299  0.6684561689820731  0.6589750418207376
  0.0094097380467047  0.8400998855644484  0.6763596825402088
  0.0037595353932411  0.6712993009666688  0.8293508066994064
  0.1786956901843206  0.8413915419117185  0.8307081966535508
  0.5097634097089845  0.0039866907105991  0.0005210612884360
  0.3409260149498479  0.1586300098068599  0.0093683764202129
  0.3309128967606336  0.9944642038007683  0.1732433661590279
  0.5030564893909495  0.1647009501620615  0.1745045398319328
  0.5077115434279461 -0.0007546320311804  0.3380419447454429
  0.3368417444400252  0.1603111114844766  0.3401256142894678
  0.3405133411751113 -0.0003873230402697  0.5017725886249712
  0.5051721829997914  0.1660362605802850  0.5044336514331240
  0.5093651483831465  0.9921579541568792  0.6603752069399685
  0.3384223309307247  0.1664892823118115  0.6749954353136296
  0.3394246486379969  0.9983107541297193  0.8431855161824243
  0.4963289593824740  0.1728203456212659  0.8442074737877896
  0.4948988747793679  0.3339551764387272  0.0032442729005561
  0.3244449791030066  0.4976034456741275  0.0043124636575320
  0.3292783936794466  0.3255170145837534  0.1757391188703850
  0.4918074185659236  0.5001557393685718  0.1657546131504898
  0.5005151121357495  0.3267260688635299  0.3447152705888357
  0.3294213642199305  0.4939092924509574  0.3277448220926893
  0.3374738389355543  0.3225529613894290  0.5059045284469821
  0.5009706836126326  0.4975717026393734  0.5052698627893460
  0.5053991320661887  0.3328135747972423  0.6731424798180727
  0.3298746036319199  0.4957548829770634  0.6649147721306158
  0.3349147836639182  0.3289865229253506  0.8369797871710117
  0.4980246079218119  0.5026589940023014  0.8432086186823857
  0.4979325920780717  0.6643959251030837 -0.0053952575171623
  0.3353334828100188  0.8346329887304964  0.0019134136166757
  0.3297663500768266  0.6598610742231291  0.1660617570016671
  0.5058006327658691  0.8318473599887465  0.1655051437274338
  0.5021454550184804  0.6690523753603295  0.3332935538845187
  0.3401026228767145  0.8275440205968835  0.3307155434391713
  0.3348988930736639  0.6599503366292355  0.4961060506362694
  0.5072052110670957  0.8359202052268861  0.4944948438167407
  0.5078158373185088  0.6689525497430396  0.6702058764481265
  0.3425388183555828  0.8266571312101917  0.6707345362263367
  0.3434559663557956  0.6676445081565570  0.8251642260538306
  0.5046361770350956  0.8316319125215407  0.8262578913110905
  0.8394940270095884  0.0041447701201018  0.9970649830177774
  0.6730235768649339  0.1625425637249786  0.0056018314770875
  0.6692931571207409  0.0015836509744356  0.1697015489656986
  0.8309309254986750  0.1670712472004739  0.1689199394515141
  0.8418579122111067 -0.0039619363389266  0.3377897292953301
  0.6722248329445292  0.1678920639622287  0.3310452196547187
  0.6762795873763676 -0.0011069568641148  0.5016460438756355
  0.8397570616678203  0.1646274813341606  0.4962882484748770
  0.8419032304423609  0.0005256637434510  0.6646713773206074
  0.6702626788673990  0.1703081707325070  0.6685944260044824
  0.6783652847727593  0.0042434043997891  0.8353288962770847
  0.8317267953355054  0.1663950184722810  0.8385629211060077
  0.8350490901764235  0.3281122681458510  0.0038997093717592
  0.6541460228788997  0.4992976195124417  0.0069488657834884
  0.6628020344083181  0.3340505455414632  0.1762550058447145
  0.8251211874538943  0.4960265617540362  0.1650635940020612
  0.8324095180845966  0.3274871647945501  0.3358618493629024
  0.6631504462958228  0.4971926821236530  0.3395300383707631
  0.6693433182512935  0.3372944258987776  0.5077511764363245
  0.8243963887431988  0.4986311118649991  0.5009781863811286
  0.8333647817102384  0.3358029292689224  0.6647034639184345
  0.6609412567674131  0.5028966156553306  0.6731307535423450
  0.6606643747066304  0.3406210912616286  0.8379920473172837
  0.8192702623018898  0.4985369707012225  0.8340269797638369
  0.8308047172186398  0.6648810702973927 -0.0016959191722727
  0.6695303751895498  0.8371090177856287  0.0007192752309057
  0.6708037417974961  0.6687005591411919  0.1669371301549180
  0.8334722257549002  0.8282285210397050  0.1655665778994161
  0.8348562677637983  0.6668716451573669  0.3276821734952866
  0.6732748938081340  0.8383801771365814  0.3314922156619270
  0.6751049072489113  0.6673941890761168  0.5064794432332940
  0.8349108116718914  0.8319079115244188  0.4954160460546184
  0.8360398505557147  0.6718180720602950  0.6568340064947463
  0.6776459927561169  0.8381143776097638  0.6600680261654025
  0.6652544898607020  0.6641113155575563  0.8300919544533182
  0.8368644451131870  0.8329756611694660  0.8266749751567790
 
  0.00000000E+00  0.00000000E+00  0.00000000E+00
  0.00000000E+00  0.00000000E+00  0.00000000E+00
  0.00000000E+00  0.00000000E+00  0.00000000E+00
  0.00000000E+00  0.00000000E+00  0.00000000E+00
  0.00000000E+00  0.00000000E+00  0.00000000E+00
  0.00000000E+00  0.00000000E+00  0.00000000E+00
  0.00000000E+00  0.00000000E+00  0.00000000E+00
  0.00000000E+00  0.00000000E+00  0.00000000E+00
  0.00000000E+00  0.00000000E+00  0.00000000E+00
  0.00000000E+00  0.00000000E+00  0.00000000E+00
  0.00000000E+00  0.00000000E+00  0.00000000E+00
  0.00000000E+00  0.00000000E+00  0.00000000E+00
  0.00000000E+00  0.00000000E+00  0.00000000E+00
  0.00000000E+00  0.00000000E+00  0.00000000E+00
  0.00000000E+00  0.00000000E+00  0.00000000E+00
  0.00000000E+00  0.00000000E+00  0.00000000E+00
  0.00000000E+00  0.00000000E+00  0.00000000E+00
  0.00000000E+00  0.00000000E+00  0.00000000E+00
  0.00000000E+00  0.00000000E+00  0.00000000E+00
  0.00000000E+00  0.00000000E+00  0.00000000E+00
  0.00000000E+00  0.00000000E+00  0.00000000E+00
  0.00000000E+00  0.00000000E+00  0.00000000E+00
  0.00000000E+00  0.00000000E+00  0.00000000E+00
  0.00000000E+00  0.00000000E+00  0.00000000E+00
  0.00000000E+00  0.00000000E+00  0.00000000E+00
  0.00000000E+00  0.00000000E+00  0.00000000E+00
  0.00000000E+00  0.00000000E+00  0.00000000E+00
  0.00000000E+00  0.00000000E+00  0.00000000E+00
  0.00000000E+00  0.00000000E+00  0.00000000E+00
  0.00000000E+00  0.00000000E+00  0.00000000E+00
  0.00000000E+00  0.00000000E+00  0.00000000E+00
  0.00000000E+00  0.00000000E+00  0.00000000E+00
  0.00000000E+00  0.00000000E+00  0.00000000E+00
  0.00000000E+00  0.00000000E+00  0.00000000E+00
  0.00000000E+00  0.00000000E+00  0.00000000E+00
  0.00000000E+00  0.00000000E+00  0.00000000E+00
  0.00000000E+00  0.00000000E+00  0.00000000E+00
  0.00000000E+00  0.00000000E+00  0.00000000E+00
  0.00000000E+00  0.00000000E+00  0.00000000E+00
  0.00000000E+00  0.00000000E+00  0.00000000E+00
  0.00000000E+00  0.00000000E+00  0.00000000E+00
  0.00000000E+00  0.00000000E+00  0.00000000E+00
  0.00000000E+00  0.00000000E+00  0.00000000E+00
  0.00000000E+00  0.00000000E+00  0.00000000E+00
  0.00000000E+00  0.00000000E+00  0.00000000E+00
  0.00000000E+00  0.00000000E+00  0.00000000E+00
  0.00000000E+00  0.00000000E+00  0.00000000E+00
  0.00000000E+00  0.00000000E+00  0.00000000E+00
  0.00000000E+00  0.00000000E+00  0.00000000E+00
  0.00000000E+00  0.00000000E+00  0.00000000E+00
  0.00000000E+00  0.00000000E+00  0.00000000E+00
  0.00000000E+00  0.00000000E+00  0.00000000E+00
  0.00000000E+00  0.00000000E+00  0.00000000E+00
  0.00000000E+00  0.00000000E+00  0.00000000E+00
  0.00000000E+00  0.00000000E+00  0.00000000E+00
  0.00000000E+00  0.00000000E+00  0.00000000E+00
  0.00000000E+00  0.00000000E+00  0.00000000E+00
  0.00000000E+00  0.00000000E+00  0.00000000E+00
  0.00000000E+00  0.00000000E+00  0.00000000E+00
  0.00000000E+00  0.00000000E+00  0.00000000E+00
  0.00000000E+00  0.00000000E+00  0.00000000E+00
  0.00000000E+00  0.00000000E+00  0.00000000E+00
  0.00000000E+00  0.00000000E+00  0.00000000E+00
  0.00000000E+00  0.00000000E+00  0.00000000E+00
  0.00000000E+00  0.00000000E+00  0.00000000E+00
  0.00000000E+00  0.00000000E+00  0.00000000E+00
  0.00000000E+00  0.00000000E+00  0.00000000E+00
  0.00000000E+00  0.00000000E+00  0.00000000E+00
  0.00000000E+00  0.00000000E+00  0.00000000E+00
  0.00000000E+00  0.00000000E+00  0.00000000E+00
  0.00000000E+00  0.00000000E+00  0.00000000E+00
  0.00000000E+00  0.00000000E+00  0.00000000E+00
  0.00000000E+00  0.00000000E+00  0.00000000E+00
  0.00000000E+00  0.00000000E+00  0.00000000E+00
  0.00000000E+00  0.00000000E+00  0.00000000E+00
  0.00000000E+00  0.00000000E+00  0.00000000E+00
  0.00000000E+00  0.00000000E+00  0.00000000E+00
  0.00000000E+00  0.00000000E+00  0.00000000E+00
  0.00000000E+00  0.00000000E+00  0.00000000E+00
  0.00000000E+00  0.00000000E+00  0.00000000E+00
  0.00000000E+00  0.00000000E+00  0.00000000E+00
  0.00000000E+00  0.00000000E+00  0.00000000E+00
  0.00000000E+00  0.00000000E+00  0.00000000E+00
  0.00000000E+00  0.00000000E+00  0.00000000E+00
  0.00000000E+00  0.00000000E+00  0.00000000E+00
  0.00000000E+00  0.00000000E+00  0.00000000E+00
  0.00000000E+00  0.00000000E+00  0.00000000E+00
  0.00000000E+00  0.00000000E+00  0.00000000E+00
  0.00000000E+00  0.00000000E+00  0.00000000E+00
  0.00000000E+00  0.00000000E+00  0.00000000E+00
  0.00000000E+00  0.00000000E+00  0.00000000E+00
  0.00000000E+00  0.00000000E+00  0.00000000E+00
  0.00000000E+00  0.00000000E+00  0.00000000E+00
  0.00000000E+00  0.00000000E+00  0.00000000E+00
  0.00000000E+00  0.00000000E+00  0.00000000E+00
  0.00000000E+00  0.00000000E+00  0.00000000E+00
  0.00000000E+00  0.00000000E+00  0.00000000E+00
  0.00000000E+00  0.00000000E+00  0.00000000E+00
  0.00000000E+00  0.00000000E+00  0.00000000E+00
  0.00000000E+00  0.00000000E+00  0.00000000E+00
  0.00000000E+00  0.00000000E+00  0.00000000E+00
  0.00000000E+00  0.00000000E+00  0.00000000E+00
  0.00000000E+00  0.00000000E+00  0.00000000E+00
  0.00000000E+00  0.00000000E+00  0.00000000E+00
  0.00000000E+00  0.00000000E+00  0.00000000E+00
  0.00000000E+00  0.00000000E+00  0.00000000E+00
  0.00000000E+00  0.00000000E+00  0.00000000E+00
  0.00000000E+00  0.00000000E+00  0.00000000E+00
  0.00000000E+00  0.00000000E+00  0.00000000E+00
  0.00000000E+00  0.00000000E+00  0.00000000E+00
  0.00000000E+00  0.00000000E+00  0.00000000E+00
  0.00000000E+00  0.00000000E+00  0.00000000E+00
  0.00000000E+00  0.00000000E+00  0.00000000E+00
  0.00000000E+00  0.00000000E+00  0.00000000E+00
  0.00000000E+00  0.00000000E+00  0.00000000E+00
  0.00000000E+00  0.00000000E+00  0.00000000E+00
  0.00000000E+00  0.00000000E+00  0.00000000E+00
  0.00000000E+00  0.00000000E+00  0.00000000E+00
  0.00000000E+00  0.00000000E+00  0.00000000E+00
  0.00000000E+00  0.00000000E+00  0.00000000E+00
  0.00000000E+00  0.00000000E+00  0.00000000E+00
  0.00000000E+00  0.00000000E+00  0.00000000E+00
  0.00000000E+00  0.00000000E+00  0.00000000E+00
  0.00000000E+00  0.00000000E+00  0.00000000E+00
  0.00000000E+00  0.00000000E+00  0.00000000E+00
  0.00000000E+00  0.00000000E+00  0.00000000E+00
  0.00000000E+00  0.00000000E+00  0.00000000E+00
  0.00000000E+00  0.00000000E+00  0.00000000E+00
  0.00000000E+00  0.00000000E+00  0.00000000E+00
  0.00000000E+00  0.00000000E+00  0.00000000E+00
  0.00000000E+00  0.00000000E+00  0.00000000E+00
  0.00000000E+00  0.00000000E+00  0.00000000E+00
  0.00000000E+00  0.00000000E+00  0.00000000E+00
  0.00000000E+00  0.00000000E+00  0.00000000E+00
  0.00000000E+00  0.00000000E+00  0.00000000E+00
  0.00000000E+00  0.00000000E+00  0.00000000E+00
  0.00000000E+00  0.00000000E+00  0.00000000E+00
  0.00000000E+00  0.00000000E+00  0.00000000E+00
  0.00000000E+00  0.00000000E+00  0.00000000E+00
  0.00000000E+00  0.00000000E+00  0.00000000E+00
  0.00000000E+00  0.00000000E+00  0.00000000E+00
  0.00000000E+00  0.00000000E+00  0.00000000E+00
  0.00000000E+00  0.00000000E+00  0.00000000E+00
  0.00000000E+00  0.00000000E+00  0.00000000E+00
  0.00000000E+00  0.00000000E+00  0.00000000E+00
  0.00000000E+00  0.00000000E+00  0.00000000E+00
  0.00000000E+00  0.00000000E+00  0.00000000E+00
  0.00000000E+00  0.00000000E+00  0.00000000E+00
  0.00000000E+00  0.00000000E+00  0.00000000E+00
  0.00000000E+00  0.00000000E+00  0.00000000E+00
  0.00000000E+00  0.00000000E+00  0.00000000E+00
  0.00000000E+00  0.00000000E+00  0.00000000E+00
  0.00000000E+00  0.00000000E+00  0.00000000E+00
  0.00000000E+00  0.00000000E+00  0.00000000E+00
  0.00000000E+00  0.00000000E+00  0.00000000E+00
  0.00000000E+00  0.00000000E+00  0.00000000E+00
  0.00000000E+00  0.00000000E+00  0.00000000E+00
  0.00000000E+00  0.00000000E+00  0.00000000E+00
  0.00000000E+00  0.00000000E+00  0.00000000E+00
  0.00000000E+00  0.00000000E+00  0.00000000E+00
  0.00000000E+00  0.00000000E+00  0.00000000E+00
  0.00000000E+00  0.00000000E+00  0.00000000E+00
  0.00000000E+00  0.00000000E+00  0.00000000E+00
  0.00000000E+00  0.00000000E+00  0.00000000E+00
  0.00000000E+00  0.00000000E+00  0.00000000E+00
  0.00000000E+00  0.00000000E+00  0.00000000E+00
  0.00000000E+00  0.00000000E+00  0.00000000E+00
  0.00000000E+00  0.00000000E+00  0.00000000E+00
  0.00000000E+00  0.00000000E+00  0.00000000E+00
  0.00000000E+00  0.00000000E+00  0.00000000E+00
  0.00000000E+00  0.00000000E+00  0.00000000E+00
  0.00000000E+00  0.00000000E+00  0.00000000E+00
  0.00000000E+00  0.00000000E+00  0.00000000E+00
  0.00000000E+00  0.00000000E+00  0.00000000E+00
  0.00000000E+00  0.00000000E+00  0.00000000E+00
  0.00000000E+00  0.00000000E+00  0.00000000E+00
  0.00000000E+00  0.00000000E+00  0.00000000E+00
  0.00000000E+00  0.00000000E+00  0.00000000E+00
  0.00000000E+00  0.00000000E+00  0.00000000E+00
  0.00000000E+00  0.00000000E+00  0.00000000E+00
  0.00000000E+00  0.00000000E+00  0.00000000E+00
  0.00000000E+00  0.00000000E+00  0.00000000E+00
  0.00000000E+00  0.00000000E+00  0.00000000E+00
  0.00000000E+00  0.00000000E+00  0.00000000E+00
  0.00000000E+00  0.00000000E+00  0.00000000E+00
  0.00000000E+00  0.00000000E+00  0.00000000E+00
  0.00000000E+00  0.00000000E+00  0.00000000E+00
  0.00000000E+00  0.00000000E+00  0.00000000E+00
  0.00000000E+00  0.00000000E+00  0.00000000E+00
  0.00000000E+00  0.00000000E+00  0.00000000E+00
  0.00000000E+00  0.00000000E+00  0.00000000E+00
  0.00000000E+00  0.00000000E+00  0.00000000E+00
  0.00000000E+00  0.00000000E+00  0.00000000E+00
  0.00000000E+00  0.00000000E+00  0.00000000E+00
  0.00000000E+00  0.00000000E+00  0.00000000E+00
  0.00000000E+00  0.00000000E+00  0.00000000E+00
  0.00000000E+00  0.00000000E+00  0.00000000E+00
  0.00000000E+00  0.00000000E+00  0.00000000E+00
  0.00000000E+00  0.00000000E+00  0.00000000E+00
  0.00000000E+00  0.00000000E+00  0.00000000E+00
  0.00000000E+00  0.00000000E+00  0.00000000E+00
  0.00000000E+00  0.00000000E+00  0.00000000E+00
  0.00000000E+00  0.00000000E+00  0.00000000E+00
  0.00000000E+00  0.00000000E+00  0.00000000E+00
  0.00000000E+00  0.00000000E+00  0.00000000E+00
  0.00000000E+00  0.00000000E+00  0.00000000E+00
  0.00000000E+00  0.00000000E+00  0.00000000E+00
  0.00000000E+00  0.00000000E+00  0.00000000E+00
