Amorphous GeAsSe                        
   1.00000000000000     
    20.0078869700586885    0.0000000000000000    0.0000000000000000
     0.0000000000000000   20.0078869700586885    0.0000000000000000
     0.0000000000000000    0.0000000000000000   20.0078869700586885
   Ge   As   Se
    90    60   150
Direct
  0.7828797766284565  0.3594928480656150  0.4207035633068476
  0.1005602908617944  0.1009032250214593  0.6051239895102746
  0.9107721468849569  0.2696442746809506  0.2490270524866241
  0.2694569003261146  0.7498623799537077  0.1442457773945073
  0.4333713425365109  0.2739812780782773  0.0733294736423026
  0.8919466968120437  0.2629827790463027  0.9195860334141698
  0.2147563101952659  0.9257834893708111  0.5245025598612185
  0.0365314192965228  0.6516623471217152  0.6509591452546343
  0.6945478091143534  0.3693826977508057  0.8438649304589533
  0.5342237252898761  0.6335510254207040  0.5351055897166925
  0.4319887046279910  0.2690435640824493  0.5290620302241766
  0.3286101721235801  0.9871694785408176  0.8546461971969654
  0.9530059898311432  0.6941107907965419  0.3444594492589945
  0.2950420355707588  0.8424473343947965  0.9903573532974513
  0.3474117032012664  0.1294054316664073  0.1505312381525916
  0.0774421742096880  0.2035060913396512  0.2802410378537971
  0.7461384494097114  0.2143772142363632  0.1686798548542431
  0.3264638319426942  0.5511970039136774  0.9013436246419388
  0.9587799920552370  0.7159191683930509  0.8232873446392588
  0.4778846514230765  0.7771440635481770  0.8229103322824260
  0.7135349163531333  0.0557740039412522  0.9816891576398024
  0.8474361388375516  0.3206323857817244  0.7259438882692296
  0.4527572866741942  0.2939429976498428  0.3288829221640658
  0.3221290527103796  0.5022825669139972  0.0809151009855700
  0.9051414739712880  0.8867804106800597  0.3787879582657802
  0.2710306322979507  0.6388370808316339  0.3600680293537944
  0.4080241525631440  0.3641562680285592  0.9080318817370541
 -0.0079168457075661  0.8570098275109629  0.8247648009636240
  0.6029745312496690  0.4311643460888627  0.1711508723319307
  0.6354156800447287  0.6898832644124751  0.8552371015284564
  0.1709868976625925  0.5449448752126520  0.0899967481861420
  0.1623106045861266  0.4719512562842906  0.6563916754436111
  0.4714217431488630  0.9560053328541955  0.0473980086843327
  0.0056056572534157  0.8143169770652036  0.3463617940059805
  0.5164910104798885  0.2017633985071765  0.3925016284507017
  0.2691135456289808  0.2634489257816458  0.3127498080820468
  0.8236088885763762  0.0477325517659727  0.5101436423106958
  0.5637176323390083  0.8047727091758528  0.9897998723049392
  0.3915465212291321  0.7511078986697332  0.3068321362637891
  0.7190246791488314  0.9121104828660128  0.9897773052701349
  0.0191223746128078  0.3007736256015024  0.6570721898522612
  0.4590144029337231  0.0277297065160758  0.6691804313532586
  0.3808587618410972  0.1421963846106177  0.8246998949126954
  0.5493482152261342  0.4579683494756259  0.8842642880435231
  0.2622112229738728  0.8222019182595651  0.8112935000258458
  0.3799672875285719  0.7472556752390673  0.5539288838460822
  0.5169105172829569  0.6195012137566109  0.4070085946465145
  0.1662815983197189  0.2778505627380717  0.5919714443442291
  0.0933066203846523  0.5203567812294786  0.8565311386750099
  0.6607380720863154  0.0445070012254264  0.8189611743086236
  0.3563061667474969  0.0490667668009330  0.4303618070227287
  0.2363940464513383  0.2473877031180196  0.0418027336773631
  0.1299052442229741  0.7485799918409490  0.4064452981787923
  0.9494487309980523  0.1944010461823062  0.1565720024073634
  0.7145231547666145  0.2498101920910419  0.5452840273066253
  0.3453033004891373  0.8738216217725543  0.1699990680275722
  0.5920477744052707  0.3115838508605237  0.0289155956240448
  0.2126243392417044  0.4034752876893437  0.9281779222346505
  0.9595308575178579  0.3627977800830285  0.8667027780664588
  0.5706166835060047  0.3508287952185448  0.3511291799669987
  0.6248344934871070  0.5496146048992464  0.5635899325426664
  0.2236196189532171  0.9666235569435757  0.9452225711011641
  0.1230265189959746  0.2621476522575791  0.9015258167103750
  0.8958526003756756  0.4751733444630195  0.2939194202457812
  0.9698418132000363  0.0879599799125573  0.3596849921823995
  0.2614058927273024  0.8203001155693849  0.4085022790862177
  0.7411920125689825  0.8445362736344024  0.4978450662102465
  0.6297353750829323  0.5549890006055105  0.8519768430868194
  0.7537085348164468  0.9758040549703014  0.2621340598068583
  0.1990946749461422  0.2440516001201639  0.7138120264100241
  0.5991557241524118  0.4961987910767124  0.6731286868631207
  0.9158891584724353  0.1352282262441358  0.7383293294883817
  0.6028865671549400  0.8678141646985169  0.2672458367920831
  0.2720947942642656  0.8550803603449610  0.6904223656459779
  0.6520462733464797  0.6601307553387959  0.0108237378705769
  0.8341940789607599  0.6096994516130564  0.7093763933755968
  0.1266405713024471  0.0053432622288150  0.7961362711958736
  0.5117036483335620  0.5088728477415922  0.1150235400360297
  0.0924227980635005  0.8737252034645847  0.6577366007630838
  0.1563542254884605  0.0451725311338565  0.3736947875835428
  0.5885747287577623  0.9073310237305131  0.6954855900814585
  0.6666817744255950  0.0931118888405010  0.5864584545876610
  0.9700817012269951  0.3834242040654977  0.1179856359784101
  0.0634147330906437  0.5465276835701338  0.3082164853172105
  0.8854077247460828  0.6503743106134655  0.5020746736669732
  0.0766258887510147  0.0616217326129302  0.9974318205988911
  0.4792612598561560  0.9661974227868751  0.2602531915316988
  0.0097608444902827  0.0059293247172865  0.5005965302410516
  0.8264590674253189  0.3899751596157789  0.5472850924762397
  0.2961167105590016  0.0758554503882938  0.2579079204572557
  0.4244551028438399  0.6452607277946381  0.2441460489088488
  0.8208553301908098  0.7973395537294673  0.4071546499617326
  0.6946327526168624  0.3137456031275772  0.2272382115331288
  0.8782620017417485  0.9797934059822352  0.0250092176536061
  0.7042029366647796  0.7932997933936128  0.1579543364768762
  0.9302075297216579  0.5157476274565210  0.6283342729733803
  0.6530424043921029  0.0126938918735624  0.4312292633109390
  0.3506574291759884  0.9813678298027072  0.3187708153579323
  0.6670935768805987  0.5846533291905928  0.3980297576219561
  0.8826522944974384  0.8842059207182865  0.1770284548049727
  0.3942769858716024  0.6817684166811506  0.0545854403525866
  0.2408637051327807  0.9824289045251561  0.1130948525389335
  0.1832966643035695  0.0310006055858681  0.2140401046782475
  0.6397441627230832  0.8485825364045575  0.8076760117464419
  0.6865134527008823  0.7241389022008458  0.6839448017856314
  0.8037253121416441  0.2301456238046684  0.0580823536220696
  0.2683284226376268  0.5758789760232271  0.5509410957620672
  0.6077246351849853  0.7212826025719981  0.2027235326329807
  0.2423281778452656  0.9368413913316040  0.3560930691129078
  0.0579858958287336  0.6919965730371571  0.0044854074461410
  0.7657616412108201  0.1054970271200484  0.7850373262415674
  0.6482500990443507  0.5165269922898016  0.0281207830284657
  0.5529331250322534  0.2255379179533975  0.5127216756338560
  0.8614689516439085  0.7002573450814691  0.9956668603525147
  0.4689311658400927  0.1694322656919984  0.1430896439615721
  0.2563404064385593  0.5115447784410768  0.2282861466270469
  0.7397458724753719  0.6033975903838141  0.2939540488839660
  0.6176978203541350  0.4550839630324090  0.2953367721647328
  0.5530329017856945  0.4366659861828329  0.0095254184001583
  0.3361853876731088  0.6397556308706190  0.1571767702682501
  0.6719856351084513  0.2734303760507618  0.3439988982865875
  0.1436302608053047  0.3889254703069108  0.3200552451920133
  0.2751416096534368  0.0865122580366021  0.0526452331527837
  0.4153854836563431  0.0899529062408708  0.0014756359173577
  0.4213779673314094  0.4426936846279241  0.2653364012852423
  0.5567926750895907  0.4845425400909123  0.4755558741855749
  0.3586530786632399  0.5506802924692360  0.2976968058203780
  0.9650088870801649  0.5610897819442905  0.9342968998400751
  0.0536321684174470  0.4605201137436116  0.1824515194471423
  0.7481818914044751  0.5194546578701773  0.5596446110480882
  0.3863966702531935  0.5164130948809476  0.4232154888438760
  0.9798378336053234  0.7206704483534693  0.1561594809510819
  0.7876126956613673  0.7017625537242564  0.1708062246809532
  0.7151853374988441  0.4449335516229690  0.1077306768145562
  0.2515207856913156  0.6924915020286423  0.8101711808027467
  0.3617575887940067  0.1980575250379217  0.6618126725349114
  0.5308124621733489  0.3371393957500076  0.8370879976345200
  0.2285034182263260  0.3424601271161861  0.5016945766685068
  0.4164336362212051  0.3752176711221416  0.7227902237521078
  0.4453506035246811  0.5734692846387788  0.6058694978133582
  0.2800742272579682  0.6720447978640502  0.6878609918596721
  0.6878300775530942  0.9578349709395318  0.5425346521561579
  0.3473464753635429  0.4839255440278394  0.7197223132439110
  0.3838822565584399  0.8634136342224661  0.6318874910732647
  0.6546121751967323  0.7521984904906781  0.5087928945307520
  0.8728561965815415  0.7648348276658349  0.1050864842666382
  0.4120364484944167  0.2099397743997614  0.9626406628280455
  0.3618915420394218  0.3162274557311428  0.6248339635175267
  0.8974600545595126  0.4553821114426733  0.9249441694772217
  0.5514847673707699  0.8095942156118405  0.4604168304202788
  0.7157676550300794  0.9368953608970362  0.8396337399098769
  0.2703138746002735  0.1441345749338409  0.3549062771329220
  0.8665087991499265  0.0630764013136267  0.6407039896927601
  0.9292661352971298  0.1126272471546953  0.4842839096568352
  0.8732110071963168  0.3743633779654734  0.1983447746708598
  0.0449861172838829  0.1189374030559770  0.7242604293554911
  0.7322509925530990  0.8431820896321800  0.2696714039189228
  0.5450042967011643  0.1087954641322422  0.5434698863962728
  0.4624891435941839  0.8929288797427749  0.7225476811549212
  0.6148942739070944  0.3172487211404675  0.7458548193395792
  0.8829232335287495  0.9660382351704095  0.2806870452445088
  0.6943971713172594  0.1692205616139680  0.0667026186904799
  0.7590572321435317  0.6957236284320090  0.7747636085292410
  0.7576141638559287  0.6343771933984738  0.0740611176074187
  0.9068360224907632  0.2355291011434293  0.6597740021077696
  0.9619285539498772  0.9403138221761230  0.1044027473891533
  0.1952807842823414  0.5424664861168524  0.7784684646118327
  0.3525360331763646  0.0439079153086783  0.7402430318707666
  0.3937940776496218  0.6375495687114646  0.4455925187274195
  0.5426539221069836  0.8807875103273811  0.8718048718910941
  0.4815029330807679  0.0816435188569182  0.3991911202558977
  0.2898406163014958  0.4635840889397543  0.6123072757705563
  0.8718231407044805  0.6109860159848949  0.3888100925906817
  0.0295875509269825  0.5298853436749782  0.6966728362235914
  0.1261493899554907  0.3889790769625306  0.5507554716761208
  0.8432119954724770  0.8737280723168117  0.9635871139512538
  0.0783455239995039  0.1541611657960892  0.3904302698224825
  0.2674684142951261  0.5067654346328958  0.4472138097117130
  0.3934046187330511  0.7143020831122975  0.6795289054035095
  0.7545945310482435  0.5089908574820212  0.4406011407145066
  0.4036968936115623  0.5671583247373124  0.0069174167076718
  0.9301441149842306  0.4024459574025011  0.7533141731217270
  0.5750773308435200  0.7174807387297970  0.7439388758000722
  0.2046502423449509  0.9494875560122952  0.6560680232570092
  0.5618965411689995  0.6972789877204293  0.0921234120844696
  0.4456459584362760  0.8110858198955665  0.2165753628566036
  0.1526208187363469  0.7042212069836230  0.1529085031165057
  0.3428368717288154  0.3204297822145480  0.8056761340931072
  0.1186352695031315  0.7790123769327232  0.0657722847618298
  0.4940359134349500  0.1851934606838183  0.7917270746384926
  0.3892910462123950  0.8152334036248557  0.4105478184831601
  0.1675192342453809  0.8853264187024619  0.8614935652885509
  0.0095597307934872  0.9664934399222546  0.6739687320115320
  0.3197395384720310  0.2585496440307515  0.1327869699250569
  0.6033498107797081  0.9731029714307768  0.1931656553281376
  0.1883316636720407  0.0446379974866530  0.4966297642027340
  0.7125744872051460  0.3482244036308663  0.0361141301245425
  0.8873412951249943  0.6168143221612179  0.8599112678584301
  0.1744294915863979  0.1497831774175412  0.0780405269291130
  0.2814915323043852  0.7139731010858065  0.0146794093202420
  0.4153356470552526  0.4295243127632512  0.1411589239026483
  0.7104271030985843  0.6977831951416786  0.4177188780547197
 -0.0002718429395848  0.8269305975852979  0.2218030082001914
  0.8392744447400420  0.2732283499283232  0.5017628754397669
  0.7912075489505507  0.2772369430822816  0.8231548922612789
  0.5369788215077365  0.7352043899044997  0.3632819799212602
  0.1486649395942631  0.3271096906662915  0.0150845539934005
  0.9367326909946970  0.6407351406265893  0.2354008237236950
  0.4998080134967229  0.5507056907280019  0.7135683792222174
  0.5902526913342582  0.0290126354897380  0.7213256621535730
  0.4140072120057328  0.9434620836931844  0.4824912294086763
  0.6876585435373063  0.7872185961551744  0.9736507564375629
  0.0799119750258416  0.7640765752880770  0.5199708418385383
  0.7983721438183691  0.0053741265294560  0.7213112148344362
  0.4582243133603110  0.4653515325522734  0.5492666476228920
  0.6018007183314166  0.3731241625349158  0.4703508081873692
  0.9057439056874159  0.7706208451746074  0.4939173866489729
  0.9150475690820816  0.6021282095367801  0.0404045219010532
  0.7849893006914133  0.9459550040748023  0.1035222247798955
  0.7992026066907144  0.1327265442548886  0.2415147344637939
  0.1411420093094158  0.9555005181114345  0.0458675527690807
  0.1004519829121716  0.4677703654288319  0.3985573687668152
  0.9523166935260525  0.1667044018240552  0.8690137846474222
  0.2598495253278471  0.4355791891720358  0.7929828457247344
  0.4374272307498211  0.0430960392745095  0.8890899546016000
  0.4836200157556451  0.1678520618290885  0.6738883953288528
  0.3609759652942380  0.8597043163249191  0.8743750797852735
  0.1754780933017347  0.5214034050461041  0.9589242034249033
  0.7891801473887569  0.6363624184299640  0.5800337318618082
  0.7190074756595097  0.8432501637738932  0.6754736875106809
  0.8072638095972589  0.8117324633317667  0.5976227330460523
  0.8285290969659659  0.2169726860236448  0.3206106499869869
  0.9235793781033812  0.6972627334233439  0.6922036028393289
  0.2941965029095795  0.2207757440080779  0.9380926251224642
  0.2248498793563705  0.6825947624731361  0.4643336196745751
  0.6103669889972302  0.0842349805825373  0.9192309133245161
  0.7278571407351305  0.1374091204825365  0.4820824432146621
  0.1859587034475936  0.9147098071877107  0.2519224089470348
  0.1750875876994922  0.2496866805193068  0.2292549005754460
  0.2647402821112821  0.4185418959561639  0.3077224109768980
  0.0635459085357035  0.2165654196333411  0.5620269818019288
  0.5750878334945372  0.9215392934523364  0.5717245392181859
  0.9090549639992116  0.9294493759274318  0.4921726080991724
  0.3202163931716347  0.4021327016693681 -0.0036893876610921
  0.5843923668391312  0.3080996202917606  0.1755394249663729
  0.7700374163589543  0.4881638964494146  0.2719604043391457
  0.6175302608677025  0.2769550050962393  0.8974028544982664
  0.7000084963646284  0.1898194689065189  0.6549157455111861
  0.2657695796179780  0.7549041075019062  0.2954821531493341
  0.8824303846381408  0.4132627999019521  0.0360124963940444
  0.0872550338951234  0.8840436204740779  0.5271245606884770
  0.3604650603267683  0.6658046762931971  0.8525340079408978
  0.7620692224869205  0.9811345131858517  0.3888105496620602
  0.5770646745985383  0.9027863199548645  0.0965020135499339
  0.7175699875115845  0.5112544985379279  0.9289866402383348
  0.0098993801688178  0.9602489445865426  0.9499989117757637
  0.8972165525613955  0.3917551491134977  0.3847713130533226
  0.7650412055237326  0.3671252226126752  0.6536499477016954
  0.5823785152787800  0.9225536490176509  0.3789713185249445
  0.0056195245928077  0.2949710542367336  0.3160441154211001
  0.2063624489931628  0.1319214956469454  0.6649264207984464
  0.5216141197771151  0.7034061502682323  0.9223815167306888
  0.6122671063279425  0.1708110051018445  0.3225827518134367
  0.3929848978301062  0.3326211728637989  0.4319682869964184
  0.8690793509725618  0.8748889034665723  0.8449431458221017
  0.4120493393649120  0.9910969921667159  0.1537182719121232
  0.5232887348261468  0.1028347646898490  0.0573775873470933
  0.9848784392019714  0.5898570616907930  0.5437210413500293
  0.1787812560732779  0.5963851963603409  0.2706156218151604
  0.0538634057137917  0.6415710856382377  0.3964700483362092
  0.8869383146443345  0.1369064298190071  0.0716927884036991
  0.1618631051852793  0.0710861853563533  0.9007951212753492
  0.6880478591776684  0.5043911506551841  0.7545860330010739
  0.1312610620840743  0.7132201296921135  0.9093897585373211
  0.0751233307523786  0.2325151561932084  0.7558422896966441
  0.1640863209790333  0.4282619885934711  0.1473236311297026
  0.2191427372204498  0.7617137508617668  0.6330487218623955
  0.1741921527806224  0.2959058050210917  0.3996675280406083
  0.1516973488468904  0.5704465733751664  0.5784388496732773
  0.8047468932841599  0.0785498000350172  0.8995850787521051
  0.0192959242271706  0.2180335094544421  0.9589781447702085
  0.4744971554086115  0.0916464148058145  0.2780939767155890
  0.0749617616973857  0.6538389736622259  0.8219195465877341
  0.0047443243749084  0.9883644977342341  0.8327515358076992
  0.5068329872674844  0.7499110736100955  0.5676390267417620
  0.6488672746525680  0.6044902999862884  0.2114033385543398
  0.9466093106168298  0.4110881602856550  0.5689156642168496
  0.4297468405368781  0.4781433456343539  0.8541668956825952
  0.0264544126838936  0.2751518393173975  0.1104112686569601
  0.0466992690276762  0.5554585097562469  0.1108194344534913
  0.5143242104471940  0.5184316947664724  0.2793009948355973
  0.9466361686127454  0.8680312723890798  0.7039061388221507
  0.4008865282506281  0.8421632724796574  0.0554706947487928
  0.9693637425439440  0.7617085698761852  0.9621459649643552
  0.0259784259959667  0.1176053138807540  0.2094454535632387
  0.0405700822379743  0.9801795267246280  0.3775528544917257
  0.5780312784010407  0.3768826376850386  0.6501208487819391
  0.3561212206835731  0.1721683439262450  0.5436355515977265
  0.3612109496814436  0.9769159662861340  0.5838821455522809
  0.0808994120275325  0.3729223220482336  0.8505893019479356
 
  0.00000000E+00  0.00000000E+00  0.00000000E+00
  0.00000000E+00  0.00000000E+00  0.00000000E+00
  0.00000000E+00  0.00000000E+00  0.00000000E+00
  0.00000000E+00  0.00000000E+00  0.00000000E+00
  0.00000000E+00  0.00000000E+00  0.00000000E+00
  0.00000000E+00  0.00000000E+00  0.00000000E+00
  0.00000000E+00  0.00000000E+00  0.00000000E+00
  0.00000000E+00  0.00000000E+00  0.00000000E+00
  0.00000000E+00  0.00000000E+00  0.00000000E+00
  0.00000000E+00  0.00000000E+00  0.00000000E+00
  0.00000000E+00  0.00000000E+00  0.00000000E+00
  0.00000000E+00  0.00000000E+00  0.00000000E+00
  0.00000000E+00  0.00000000E+00  0.00000000E+00
  0.00000000E+00  0.00000000E+00  0.00000000E+00
  0.00000000E+00  0.00000000E+00  0.00000000E+00
  0.00000000E+00  0.00000000E+00  0.00000000E+00
  0.00000000E+00  0.00000000E+00  0.00000000E+00
  0.00000000E+00  0.00000000E+00  0.00000000E+00
  0.00000000E+00  0.00000000E+00  0.00000000E+00
  0.00000000E+00  0.00000000E+00  0.00000000E+00
  0.00000000E+00  0.00000000E+00  0.00000000E+00
  0.00000000E+00  0.00000000E+00  0.00000000E+00
  0.00000000E+00  0.00000000E+00  0.00000000E+00
  0.00000000E+00  0.00000000E+00  0.00000000E+00
  0.00000000E+00  0.00000000E+00  0.00000000E+00
  0.00000000E+00  0.00000000E+00  0.00000000E+00
  0.00000000E+00  0.00000000E+00  0.00000000E+00
  0.00000000E+00  0.00000000E+00  0.00000000E+00
  0.00000000E+00  0.00000000E+00  0.00000000E+00
  0.00000000E+00  0.00000000E+00  0.00000000E+00
  0.00000000E+00  0.00000000E+00  0.00000000E+00
  0.00000000E+00  0.00000000E+00  0.00000000E+00
  0.00000000E+00  0.00000000E+00  0.00000000E+00
  0.00000000E+00  0.00000000E+00  0.00000000E+00
  0.00000000E+00  0.00000000E+00  0.00000000E+00
  0.00000000E+00  0.00000000E+00  0.00000000E+00
  0.00000000E+00  0.00000000E+00  0.00000000E+00
  0.00000000E+00  0.00000000E+00  0.00000000E+00
  0.00000000E+00  0.00000000E+00  0.00000000E+00
  0.00000000E+00  0.00000000E+00  0.00000000E+00
  0.00000000E+00  0.00000000E+00  0.00000000E+00
  0.00000000E+00  0.00000000E+00  0.00000000E+00
  0.00000000E+00  0.00000000E+00  0.00000000E+00
  0.00000000E+00  0.00000000E+00  0.00000000E+00
  0.00000000E+00  0.00000000E+00  0.00000000E+00
  0.00000000E+00  0.00000000E+00  0.00000000E+00
  0.00000000E+00  0.00000000E+00  0.00000000E+00
  0.00000000E+00  0.00000000E+00  0.00000000E+00
  0.00000000E+00  0.00000000E+00  0.00000000E+00
  0.00000000E+00  0.00000000E+00  0.00000000E+00
  0.00000000E+00  0.00000000E+00  0.00000000E+00
  0.00000000E+00  0.00000000E+00  0.00000000E+00
  0.00000000E+00  0.00000000E+00  0.00000000E+00
  0.00000000E+00  0.00000000E+00  0.00000000E+00
  0.00000000E+00  0.00000000E+00  0.00000000E+00
  0.00000000E+00  0.00000000E+00  0.00000000E+00
  0.00000000E+00  0.00000000E+00  0.00000000E+00
  0.00000000E+00  0.00000000E+00  0.00000000E+00
  0.00000000E+00  0.00000000E+00  0.00000000E+00
  0.00000000E+00  0.00000000E+00  0.00000000E+00
  0.00000000E+00  0.00000000E+00  0.00000000E+00
  0.00000000E+00  0.00000000E+00  0.00000000E+00
  0.00000000E+00  0.00000000E+00  0.00000000E+00
  0.00000000E+00  0.00000000E+00  0.00000000E+00
  0.00000000E+00  0.00000000E+00  0.00000000E+00
  0.00000000E+00  0.00000000E+00  0.00000000E+00
  0.00000000E+00  0.00000000E+00  0.00000000E+00
  0.00000000E+00  0.00000000E+00  0.00000000E+00
  0.00000000E+00  0.00000000E+00  0.00000000E+00
  0.00000000E+00  0.00000000E+00  0.00000000E+00
  0.00000000E+00  0.00000000E+00  0.00000000E+00
  0.00000000E+00  0.00000000E+00  0.00000000E+00
  0.00000000E+00  0.00000000E+00  0.00000000E+00
  0.00000000E+00  0.00000000E+00  0.00000000E+00
  0.00000000E+00  0.00000000E+00  0.00000000E+00
  0.00000000E+00  0.00000000E+00  0.00000000E+00
  0.00000000E+00  0.00000000E+00  0.00000000E+00
  0.00000000E+00  0.00000000E+00  0.00000000E+00
  0.00000000E+00  0.00000000E+00  0.00000000E+00
  0.00000000E+00  0.00000000E+00  0.00000000E+00
  0.00000000E+00  0.00000000E+00  0.00000000E+00
  0.00000000E+00  0.00000000E+00  0.00000000E+00
  0.00000000E+00  0.00000000E+00  0.00000000E+00
  0.00000000E+00  0.00000000E+00  0.00000000E+00
  0.00000000E+00  0.00000000E+00  0.00000000E+00
  0.00000000E+00  0.00000000E+00  0.00000000E+00
  0.00000000E+00  0.00000000E+00  0.00000000E+00
  0.00000000E+00  0.00000000E+00  0.00000000E+00
  0.00000000E+00  0.00000000E+00  0.00000000E+00
  0.00000000E+00  0.00000000E+00  0.00000000E+00
  0.00000000E+00  0.00000000E+00  0.00000000E+00
  0.00000000E+00  0.00000000E+00  0.00000000E+00
  0.00000000E+00  0.00000000E+00  0.00000000E+00
  0.00000000E+00  0.00000000E+00  0.00000000E+00
  0.00000000E+00  0.00000000E+00  0.00000000E+00
  0.00000000E+00  0.00000000E+00  0.00000000E+00
  0.00000000E+00  0.00000000E+00  0.00000000E+00
  0.00000000E+00  0.00000000E+00  0.00000000E+00
  0.00000000E+00  0.00000000E+00  0.00000000E+00
  0.00000000E+00  0.00000000E+00  0.00000000E+00
  0.00000000E+00  0.00000000E+00  0.00000000E+00
  0.00000000E+00  0.00000000E+00  0.00000000E+00
  0.00000000E+00  0.00000000E+00  0.00000000E+00
  0.00000000E+00  0.00000000E+00  0.00000000E+00
  0.00000000E+00  0.00000000E+00  0.00000000E+00
  0.00000000E+00  0.00000000E+00  0.00000000E+00
  0.00000000E+00  0.00000000E+00  0.00000000E+00
  0.00000000E+00  0.00000000E+00  0.00000000E+00
  0.00000000E+00  0.00000000E+00  0.00000000E+00
  0.00000000E+00  0.00000000E+00  0.00000000E+00
  0.00000000E+00  0.00000000E+00  0.00000000E+00
  0.00000000E+00  0.00000000E+00  0.00000000E+00
  0.00000000E+00  0.00000000E+00  0.00000000E+00
  0.00000000E+00  0.00000000E+00  0.00000000E+00
  0.00000000E+00  0.00000000E+00  0.00000000E+00
  0.00000000E+00  0.00000000E+00  0.00000000E+00
  0.00000000E+00  0.00000000E+00  0.00000000E+00
  0.00000000E+00  0.00000000E+00  0.00000000E+00
  0.00000000E+00  0.00000000E+00  0.00000000E+00
  0.00000000E+00  0.00000000E+00  0.00000000E+00
  0.00000000E+00  0.00000000E+00  0.00000000E+00
  0.00000000E+00  0.00000000E+00  0.00000000E+00
  0.00000000E+00  0.00000000E+00  0.00000000E+00
  0.00000000E+00  0.00000000E+00  0.00000000E+00
  0.00000000E+00  0.00000000E+00  0.00000000E+00
  0.00000000E+00  0.00000000E+00  0.00000000E+00
  0.00000000E+00  0.00000000E+00  0.00000000E+00
  0.00000000E+00  0.00000000E+00  0.00000000E+00
  0.00000000E+00  0.00000000E+00  0.00000000E+00
  0.00000000E+00  0.00000000E+00  0.00000000E+00
  0.00000000E+00  0.00000000E+00  0.00000000E+00
  0.00000000E+00  0.00000000E+00  0.00000000E+00
  0.00000000E+00  0.00000000E+00  0.00000000E+00
  0.00000000E+00  0.00000000E+00  0.00000000E+00
  0.00000000E+00  0.00000000E+00  0.00000000E+00
  0.00000000E+00  0.00000000E+00  0.00000000E+00
  0.00000000E+00  0.00000000E+00  0.00000000E+00
  0.00000000E+00  0.00000000E+00  0.00000000E+00
  0.00000000E+00  0.00000000E+00  0.00000000E+00
  0.00000000E+00  0.00000000E+00  0.00000000E+00
  0.00000000E+00  0.00000000E+00  0.00000000E+00
  0.00000000E+00  0.00000000E+00  0.00000000E+00
  0.00000000E+00  0.00000000E+00  0.00000000E+00
  0.00000000E+00  0.00000000E+00  0.00000000E+00
  0.00000000E+00  0.00000000E+00  0.00000000E+00
  0.00000000E+00  0.00000000E+00  0.00000000E+00
  0.00000000E+00  0.00000000E+00  0.00000000E+00
  0.00000000E+00  0.00000000E+00  0.00000000E+00
  0.00000000E+00  0.00000000E+00  0.00000000E+00
  0.00000000E+00  0.00000000E+00  0.00000000E+00
  0.00000000E+00  0.00000000E+00  0.00000000E+00
  0.00000000E+00  0.00000000E+00  0.00000000E+00
  0.00000000E+00  0.00000000E+00  0.00000000E+00
  0.00000000E+00  0.00000000E+00  0.00000000E+00
  0.00000000E+00  0.00000000E+00  0.00000000E+00
  0.00000000E+00  0.00000000E+00  0.00000000E+00
  0.00000000E+00  0.00000000E+00  0.00000000E+00
  0.00000000E+00  0.00000000E+00  0.00000000E+00
  0.00000000E+00  0.00000000E+00  0.00000000E+00
  0.00000000E+00  0.00000000E+00  0.00000000E+00
  0.00000000E+00  0.00000000E+00  0.00000000E+00
  0.00000000E+00  0.00000000E+00  0.00000000E+00
  0.00000000E+00  0.00000000E+00  0.00000000E+00
  0.00000000E+00  0.00000000E+00  0.00000000E+00
  0.00000000E+00  0.00000000E+00  0.00000000E+00
  0.00000000E+00  0.00000000E+00  0.00000000E+00
  0.00000000E+00  0.00000000E+00  0.00000000E+00
  0.00000000E+00  0.00000000E+00  0.00000000E+00
  0.00000000E+00  0.00000000E+00  0.00000000E+00
  0.00000000E+00  0.00000000E+00  0.00000000E+00
  0.00000000E+00  0.00000000E+00  0.00000000E+00
  0.00000000E+00  0.00000000E+00  0.00000000E+00
  0.00000000E+00  0.00000000E+00  0.00000000E+00
  0.00000000E+00  0.00000000E+00  0.00000000E+00
  0.00000000E+00  0.00000000E+00  0.00000000E+00
  0.00000000E+00  0.00000000E+00  0.00000000E+00
  0.00000000E+00  0.00000000E+00  0.00000000E+00
  0.00000000E+00  0.00000000E+00  0.00000000E+00
  0.00000000E+00  0.00000000E+00  0.00000000E+00
  0.00000000E+00  0.00000000E+00  0.00000000E+00
  0.00000000E+00  0.00000000E+00  0.00000000E+00
  0.00000000E+00  0.00000000E+00  0.00000000E+00
  0.00000000E+00  0.00000000E+00  0.00000000E+00
  0.00000000E+00  0.00000000E+00  0.00000000E+00
  0.00000000E+00  0.00000000E+00  0.00000000E+00
  0.00000000E+00  0.00000000E+00  0.00000000E+00
  0.00000000E+00  0.00000000E+00  0.00000000E+00
  0.00000000E+00  0.00000000E+00  0.00000000E+00
  0.00000000E+00  0.00000000E+00  0.00000000E+00
  0.00000000E+00  0.00000000E+00  0.00000000E+00
  0.00000000E+00  0.00000000E+00  0.00000000E+00
  0.00000000E+00  0.00000000E+00  0.00000000E+00
  0.00000000E+00  0.00000000E+00  0.00000000E+00
  0.00000000E+00  0.00000000E+00  0.00000000E+00
  0.00000000E+00  0.00000000E+00  0.00000000E+00
  0.00000000E+00  0.00000000E+00  0.00000000E+00
  0.00000000E+00  0.00000000E+00  0.00000000E+00
  0.00000000E+00  0.00000000E+00  0.00000000E+00
  0.00000000E+00  0.00000000E+00  0.00000000E+00
  0.00000000E+00  0.00000000E+00  0.00000000E+00
  0.00000000E+00  0.00000000E+00  0.00000000E+00
  0.00000000E+00  0.00000000E+00  0.00000000E+00
  0.00000000E+00  0.00000000E+00  0.00000000E+00
  0.00000000E+00  0.00000000E+00  0.00000000E+00
  0.00000000E+00  0.00000000E+00  0.00000000E+00
  0.00000000E+00  0.00000000E+00  0.00000000E+00
  0.00000000E+00  0.00000000E+00  0.00000000E+00
  0.00000000E+00  0.00000000E+00  0.00000000E+00
  0.00000000E+00  0.00000000E+00  0.00000000E+00
  0.00000000E+00  0.00000000E+00  0.00000000E+00
  0.00000000E+00  0.00000000E+00  0.00000000E+00
  0.00000000E+00  0.00000000E+00  0.00000000E+00
  0.00000000E+00  0.00000000E+00  0.00000000E+00
  0.00000000E+00  0.00000000E+00  0.00000000E+00
  0.00000000E+00  0.00000000E+00  0.00000000E+00
  0.00000000E+00  0.00000000E+00  0.00000000E+00
  0.00000000E+00  0.00000000E+00  0.00000000E+00
  0.00000000E+00  0.00000000E+00  0.00000000E+00
  0.00000000E+00  0.00000000E+00  0.00000000E+00
  0.00000000E+00  0.00000000E+00  0.00000000E+00
  0.00000000E+00  0.00000000E+00  0.00000000E+00
  0.00000000E+00  0.00000000E+00  0.00000000E+00
  0.00000000E+00  0.00000000E+00  0.00000000E+00
  0.00000000E+00  0.00000000E+00  0.00000000E+00
  0.00000000E+00  0.00000000E+00  0.00000000E+00
  0.00000000E+00  0.00000000E+00  0.00000000E+00
  0.00000000E+00  0.00000000E+00  0.00000000E+00
  0.00000000E+00  0.00000000E+00  0.00000000E+00
  0.00000000E+00  0.00000000E+00  0.00000000E+00
  0.00000000E+00  0.00000000E+00  0.00000000E+00
  0.00000000E+00  0.00000000E+00  0.00000000E+00
  0.00000000E+00  0.00000000E+00  0.00000000E+00