In2O3                                   
   1.00000000000000     
     7.9527915789806718    0.0759797047830873   -0.0020401781942602
     0.0762533918536694    7.9522531548227109    0.0024449303356693
    -0.0019493132847850    0.0023502419910197    8.0115294936629216
   In   O 
    16    24
Direct
  0.9957048479707638  0.0108249694540064  0.0173239147071342
  0.9675852498841024  0.9780269155770682  0.5175553694786075
  0.9980594877768993  0.5083083932465371  0.0175853595084803
  0.9649627697103753  0.4801781734989348  0.5174030404232823
  0.4979239375938604  0.0082913859459808  0.0175961691533431
  0.4649145193010042  0.9801650644279079  0.5172893402861973
  0.4957218578924127  0.5108741847534262  0.0173656321027380
  0.4676587742322980  0.4780099209673665  0.5174437606719238
  0.2154966337192761  0.2304106255623282  0.2461091937626705
  0.2477285392203470  0.2580245547538595  0.7460592986922165
  0.2178917857730411  0.7281409024361736  0.2460246910966717
  0.2453351045964780  0.7602344871329763  0.7459407883982081
  0.7178678979609074  0.2281044775884240  0.2459793371623462
  0.7452974039518381  0.2603528603603351  0.7460410520206580
  0.7156419952766626  0.7304844237555201  0.2461224540636664
  0.7476337484928095  0.7580831067179048  0.7460657042043053
  0.6035681214661608  0.4764040460439318  0.2820099025600911
  0.7497682590202572  0.6227648717020529  0.9819888736236564
  0.9994794742902613  0.3724677459340029  0.7820204250252587
  0.2111366061469937  0.0143655049097120  0.6319349700756547
  0.4638105157329520  0.1158517033839246  0.2818353872604078
  0.9615246678127889  0.2647210616006532  0.1319419348333426
  0.2135059145809493  0.3657427865014924  0.4818907463858864
  0.3600447617575355  0.5120508729079987  0.7818297473773512
  0.9638983283869109  0.6158317110632936  0.2818518128085898
  0.7111150926800747  0.5144179435119298  0.6320089676430598
  0.7134779832770164  0.8657624150680334  0.4819125544322844
  0.1034014140603503  0.9763480986533182  0.2820183806874681
  0.8599623802911580  0.0121058190209595  0.7818385004802053
  0.8531497037294500  0.2262709421600988  0.4819002622637498
  0.4615890403431777  0.7646870114529136  0.1320925701679343
  0.3531565943545587  0.7262001976176080  0.4818700295433374
  0.2523305623093748  0.4740446349129712  0.1319733296723058
  0.7522493600592313  0.9741152976028999  0.1319601551595611
  0.6101122370217027  0.2623689136124767  0.9819270429363200
  0.0017042794605260  0.7237244156273590  0.6318705832203335
  0.2496865902295369  0.1226966290843237  0.9819368724299622
  0.1102453386344990  0.7624244936745157  0.9818789347570984
  0.5017648996782285  0.2236506925080093  0.6318435310321959
  0.4993992740174136  0.8724218566424042  0.7820189716140931
 
  0.00000000E+00  0.00000000E+00  0.00000000E+00
  0.00000000E+00  0.00000000E+00  0.00000000E+00
  0.00000000E+00  0.00000000E+00  0.00000000E+00
  0.00000000E+00  0.00000000E+00  0.00000000E+00
  0.00000000E+00  0.00000000E+00  0.00000000E+00
  0.00000000E+00  0.00000000E+00  0.00000000E+00
  0.00000000E+00  0.00000000E+00  0.00000000E+00
  0.00000000E+00  0.00000000E+00  0.00000000E+00
  0.00000000E+00  0.00000000E+00  0.00000000E+00
  0.00000000E+00  0.00000000E+00  0.00000000E+00
  0.00000000E+00  0.00000000E+00  0.00000000E+00
  0.00000000E+00  0.00000000E+00  0.00000000E+00
  0.00000000E+00  0.00000000E+00  0.00000000E+00
  0.00000000E+00  0.00000000E+00  0.00000000E+00
  0.00000000E+00  0.00000000E+00  0.00000000E+00
  0.00000000E+00  0.00000000E+00  0.00000000E+00
  0.00000000E+00  0.00000000E+00  0.00000000E+00
  0.00000000E+00  0.00000000E+00  0.00000000E+00
  0.00000000E+00  0.00000000E+00  0.00000000E+00
  0.00000000E+00  0.00000000E+00  0.00000000E+00
  0.00000000E+00  0.00000000E+00  0.00000000E+00
  0.00000000E+00  0.00000000E+00  0.00000000E+00
  0.00000000E+00  0.00000000E+00  0.00000000E+00
  0.00000000E+00  0.00000000E+00  0.00000000E+00
  0.00000000E+00  0.00000000E+00  0.00000000E+00
  0.00000000E+00  0.00000000E+00  0.00000000E+00
  0.00000000E+00  0.00000000E+00  0.00000000E+00
  0.00000000E+00  0.00000000E+00  0.00000000E+00
  0.00000000E+00  0.00000000E+00  0.00000000E+00
  0.00000000E+00  0.00000000E+00  0.00000000E+00
  0.00000000E+00  0.00000000E+00  0.00000000E+00
  0.00000000E+00  0.00000000E+00  0.00000000E+00
  0.00000000E+00  0.00000000E+00  0.00000000E+00
  0.00000000E+00  0.00000000E+00  0.00000000E+00
  0.00000000E+00  0.00000000E+00  0.00000000E+00
  0.00000000E+00  0.00000000E+00  0.00000000E+00
  0.00000000E+00  0.00000000E+00  0.00000000E+00
  0.00000000E+00  0.00000000E+00  0.00000000E+00
  0.00000000E+00  0.00000000E+00  0.00000000E+00
  0.00000000E+00  0.00000000E+00  0.00000000E+00
