POSCAR file written by OVITO Basic 3.10.
   1.00000000000000     
    20.0000000000000000    0.0000000000000000    0.0000000000000000
     0.0000000000000000   20.0000000000000000    0.0000000000000000
     0.0000000000000000    0.0000000000000000   20.0000000000000000
   Sb   Te
    80   120
Direct
  0.1172175247780634  0.0297059841643252  0.9820724340719277
  0.6222587394804852  0.6986533621745786  0.3059228255774972
  0.0847930226515537  0.9909441704073133  0.4289406928930261
  0.2662653296532855  0.5724395925344153  0.5828256378561678
  0.0188159544773726  0.3906679137933032  0.3482409639532794
  0.5183648512471949  0.2207789315606179  0.9856221883564227
  0.3321042238201242  0.0798363221308769  0.2107543652546452
  0.1332544495030690  0.1599490676105378  0.8050918164427013
  0.2933202813968417  0.5025498686332520  0.4565421796657173
  0.0645715201345285  0.5834549165975215  0.7583250642151690
  0.4512913320346206  0.5144624227390304  0.4821952318923231
  0.9352000338868867  0.9181829480111747  0.2307197019448194
  0.0281977272096224  0.2746820373439611  0.6688370317362349
  0.1529495775980162  0.6479279143842769  0.4339990873800958
  0.8418561046935055  0.6625195762780303  0.4279726921062433
  0.1044444104344206  0.8148100620546260  0.3078305190242873
  0.3580811154361584  0.3101549537924652  0.2049404827602572
  0.5206886099735786  0.8604105043487220  0.3607166078788935
  0.8756492054021969  0.5928698585486109  0.2376003424796301
  0.1918858853494916  0.4541595106680538  0.7716890657909957
  0.1297438006258698  0.2321510421629144  0.4592604150794146
  0.6485282741453100  0.9201505427971102  0.6473462175708163
  0.5924349864723452  0.3868837546683745  0.5840342707321378
  0.7891495082667653  0.7066688843025056  0.7480158375091470
  0.9946427178686673  0.2566248976832247  0.4040468127016723
  0.0026103952543967  0.6548615632399579  0.0355870715705921
  0.9159464878979270  0.8653471359727916  0.6930451484072481
  0.1198211152020737  0.5280612251249165  0.2075070555294164
  0.8802224162938432  0.3378303891125675  0.0286970582846369
  0.8933501982539472  0.0313551117837840  0.5051607761470299
  0.3299864922932073  0.9723838732188724  0.1079383006310781
  0.5262966860013514  0.4233519795810211  0.0304457475095089
  0.0012659649784936  0.8744264227698481  0.0249494429784065
  0.3815145307331518  0.9098946147289371  0.7370645952489145
  0.9415989333931608  0.8598176429955414  0.4296325547100617
  0.7273061527118294  0.7828292489160251  0.0690378401242039
  0.5685999723005882  0.5682768141183813  0.3468991131330141
  0.7262612788921257  0.0916468518362659  0.3057491125834205
  0.6652830762583749  0.6035943983944343  0.1624032309287970
  0.4982182070765776  0.9717474736056019  0.2654836345440321
  0.4999913381145216  0.0566900610772989  0.6231067813044504
  0.7655624109527394  0.5333501208077626  0.8237855357752153
  0.3589560335099742  0.4998954676848983  0.9670879683803058
  0.5512418247339381  0.8193418428234122  0.1483238429810971
  0.3692812471666878  0.7129168159095076  0.0090162771207577
  0.6426796514978728  0.7019367049654580  0.7453674295616479
  0.9609405233698619  0.7927404966300158  0.3030258452726832
  0.3035986585794916  0.0875147736651085  0.6702130221742754
  0.7235765413041061  0.3062734657838170  0.2784538469281049
  0.2117397006694887  0.3712214666905584  0.9668980408104622
  0.3837892175935452  0.9370769597754808  0.5942213439644135
  0.8875181674674015  0.4173610543024952  0.4023699922213290
  0.9677266228828398  0.1416123073208805  0.6503427101371410
  0.5106376734686858  0.0204622817891302  0.0843633061281147
  0.1857380678644172  0.4199510301783138  0.1326579075415495
 -0.0033024435830683  0.7436983350150856  0.5031659124001743
  0.5761971442896574  0.9135476387507250  0.5192042235125158
  0.8720520864611475  0.0420524678928212  0.8022406467254911
  0.4919478581779552  0.6899093450437799  0.9343204544986599
  0.9379198285221472  0.0557626830160734  0.0789667048135654
  0.1026770658890429  0.4610477329769687  0.5731651613880083
  0.3438485052670558  0.5495890075192571  0.2132949807607896
  0.8296114322452751  0.8713258764897323  0.9357415606303233
  0.4049426905669360  0.4203627316238346  0.6694628442524715
  0.3778903366501270  0.5938866950234699  0.7942900899377300
  0.9999312578822994  0.2480117944274084  0.8108141315348131
  0.7028595376618043  0.3964957171925809  0.1213769230950063
  0.8064831994622094  0.9344479703347837  0.2974241434773827
  0.9490109103475661  0.6645557198864211  0.7227566337508775
  0.5527191513115867  0.0531362084047383  0.8833324893691509
  0.6515296350973939  0.9554774749959885  0.1655547159602940
  0.6249442861779327  0.0549189633264730  0.6998874212653594
  0.2732150086431572  0.2155942961708279  0.2771846414168785
  0.1948761818332515  0.7907001604968529  0.0037710909659052
  0.9897977040593302  0.1958308342083973  0.0835530385866572
  0.6030788285395808  0.7039669456345797  0.0753271382517738
  0.4655690496369607  0.8249396000701967  0.5518573590060504
  0.0051513240923319  0.7875053652092139  0.7779859047450672
  0.4566605685362576  0.1975010453204655  0.5939298617380474
  0.7547060413374548  0.2552468378765135  0.6482032026277234
  0.0873635307086380  0.1927887150421817  0.9734055476547603
  0.8948025395530191  0.1847673107511475  0.2233456533555982
  0.3795982724477854  0.0124450821330903  0.3273421165120349
  0.9591523753182377  0.3471959679501763  0.5101419259154989
  0.2268004067912756  0.5705028286574902  0.1208022667927035
  0.7476681950241248  0.0705026135047609  0.8651768235059576
  0.8021211800685646  0.9121325130353903  0.8017894419975339
  0.9582597011433587  0.0174759210655498  0.9428209712097942
  0.1755996913773317  0.3264142377892829  0.8348331900733291
  0.7394234305345930  0.7589554503186119  0.9248486554069044
  0.3949479986606733  0.1379870459402360  0.4804660167013510
  0.1331877212720367  0.8921797149153227  0.9269533452382930
  0.0546695821937245  0.0575115726996953  0.7573527057572108
  0.4273730405654554  0.0259186737644274  0.9590335142290384
  0.6673317469135817  0.9075804731709488  0.0309356971178757
  0.7510557111223825  0.6460580250927609  0.5337591811812592
  0.8025745319893500  0.8370598427386100  0.4058596479006139
  0.5231636323363467  0.1842060891442850  0.8455660361095960
  0.1301183988664247  0.7137026232418922  0.9008188086160956
  0.6286494831302742  0.1978772855861403  0.3008507952821771
  0.7446850417527073  0.2088181795792259  0.8774224026428767
  0.4391179833936061  0.0425041677504871  0.7580982548958123
  0.9394929216623160  0.0241028228554106  0.3647913851108851
  0.0141910990956415  0.1302148221205054  0.2795244405076742
  0.4923948554213624  0.7543093117640317  0.2631121615791407
  0.9412030077021489  0.7824681110273727  0.9148267323207376
  0.3983238015820719  0.8577105033525968  0.4282600433651210
  0.9727372469684421  0.3848741292721392  0.2125054129634385
  0.3487250896246861  0.2271799486472223  0.6792242298418645
  0.0625185214717378  0.7637951959313828  0.1052430880637193
  0.2906355067326272  0.6129620887823350  0.9140685150882655
  0.1616482616385254  0.1123733257738674  0.3877407622603361
  0.0203475304363152  0.6127219515864354  0.3573508795945313
 -0.0009287235106424  0.5457652566319156  0.1296354220441672
  0.7626798651007439  0.2603207702495180  0.1526524181594839
  0.0159748798778709  0.3806209852820779  0.8687040223502511
  0.2262450758775148  0.4142591312514188  0.6381865388695551
  0.7805841877593109  0.5765599420495355  0.6893125163900645
  0.6673016693206753  0.2325557965453384  0.7619121635033913
  0.4907883632926670  0.4875825654506267  0.2532912684637208
  0.6263171370871455  0.1989859361650305  0.4531317328023199
  0.0367008897248111  0.8158275844317586  0.6217680527120290
  0.8349105351061504  0.2528574415605639  0.3492590975080182
  0.0922304442362335  0.4228216727680283  0.0219100817346763
  0.2796120175180601  0.3579332204503359  0.4828920103934283
  0.4233345669464891  0.5454596151287129  0.0966183667185779
  0.1955268235887672  0.0129288809025240  0.2548805835204617
  0.8953217501225812  0.2101252556830897  0.9709217777970299
  0.7047401101782853  0.4081446218683875  0.7854474482077152
  0.1811831222080218  0.1123218563659910  0.5964593802415189
  0.9329672953534134  0.5489563538168759  0.4551064149188992
  0.7449001623975843  0.4042450792419220  0.6508145896257579
  0.8301707333446346  0.0082744078850867  0.6572268931010686
  0.4124127217552651  0.5593927941748945  0.6371496155058356
  0.5366480673834818  0.4290386656836983  0.7259147332587507
  0.7992011560378838  0.6283342024583659  0.1206794322754816
  0.1456502559156122  0.6819430690905416  0.2850853366958515
  0.1135582067430629  0.6023326512334654  0.5797250199597901
  0.0630934710120044  0.9928881568075217  0.1126087196538010
  0.1135402564894866  0.5943597547251308  0.9712207708978650
  0.8932451939769106  0.4236309825367514  0.9142175756254260
  0.3340978613240602  0.4464649254518035  0.8113302389013637
  0.1167775062113846  0.1778427216889726  0.1848509576212808
  0.6633711414312824  0.7990088794934975  0.5190054146774508
  0.4477727181072904  0.6290829276739267  0.3929228985596676
  0.6132913186845775  0.0907132862705242  0.0127470192154648
  0.0265309540591254  0.0154957827765109  0.5553947560728634
  0.1628159626169298  0.5104669181503773  0.3978213924038034
  0.6887979600018429  0.5205842947690618  0.4779033636804150
  0.8766688985263679  0.8801828467932683  0.1034241842661090
  0.5786418095797458  0.7142307627662390  0.4447401916135371
  0.2507276038388381  0.8829669754574616  0.5746327213568301
  0.1645590420552668  0.2339434580727849  0.6816571917822095
  0.6174801466983819  0.2372079683676654  0.6019300259081073
  0.2948424179397228  0.6700194747315863  0.4808102173254462
  0.2009516802310196  0.3219450093396516  0.3701586194104787
  0.4666166274030999  0.1295583445911918  0.1585223851496188
  0.6233925701757853 -0.0021175823528197  0.3384309514049220
  0.6246060059838653  0.8158903504636535  0.8276042147485744
  0.8774460645208717  0.1979465753510021  0.7498500476922326
  0.3198633054975538  0.8253278754549263  0.9381423615681866
  0.5768520169483188  0.5432160425276973  0.5615486225197487
  0.8487374097351401  0.4520767923444013  0.2395698533940389
  0.4796045715801714  0.4175491786618557  0.3776029449327681
  0.2392655948983101  0.9431187020729052  0.7284068195379042
  0.2398234563302497 -0.0036880772476132  0.8622033209306452
  0.6369982816561561  0.3815242702308674  0.4347285732727582
  0.4780213778307356  0.3673658443613393  0.8486981377622175
  0.7501441208558435  0.3002704960940861  0.4701852708613742
  0.2485340470216153  0.0657903583150383  0.0344390080251870
  0.4540792275561606  0.3622726900922066  0.5362004694059103
  0.7497646257903942  0.3784438163471073  0.9889238567629053
  0.5409179697308998  0.8573015167124356  0.7138394216347824
  0.0358371544121044  0.4538122020948304  0.7003738569101172
  0.4119920801039033  0.3245619288045830  0.9857298104132660
  0.1119652245223317  0.8145626277043692  0.4519338606360309
  0.5251379803392068  0.0915133718494628  0.4619593914350517
  0.4841686113895931  0.5457637762896632  0.9115961272949942
  0.6433267652556225  0.5216994007404120  0.0471467676820087
  0.2947565070756854  0.4242185959836579  0.2657280701525156
  0.1166635615863505  0.3138895632267603  0.2193650327084385
  0.2787838350933429  0.1252226452922487  0.8070438369286940
  0.2378500061706288  0.8992250314791550  0.1856880386120386
  0.5782914149957440  0.3280901859500193  0.1224583217304574
  0.7601275741105025  0.5970588218844401  0.3312190363917397
  0.4389435448980947  0.8357328201274645  0.0647606306230068
  0.3223472380373464  0.7278859130207679  0.7607415576664621
  0.6007241689267454  0.3590342504294981  0.9200509737341886
  0.4031467266950328  0.2451001967570059  0.3213590584712280
  0.6478473037775393  0.6124271262670629  0.8553842324712034
  0.2193768686164292 -0.0000275789051725  0.4978691861121738
  0.4558924580843278  0.7269580271319521  0.7956802156678298
  0.7299096609326780  0.0972826806745759  0.6101090097195019
  0.8236958190501023  0.7760670292271573  0.6294111609684878
  0.3879638383666280  0.1584068561514640  0.9790776498430159
  0.7171406678812247  0.8445038892640971  0.2271286540374933
  0.8903787861864598  0.1716961626515369  0.5241513846279469
  0.2108630623319691  0.2367054220587166  0.0189474493105108
  0.7577877108734256  0.0528974768112541  0.1733939823087788
  0.9516407653116326  0.5885032281889141  0.8426076704281401
 
  0.00000000E+00  0.00000000E+00  0.00000000E+00
  0.00000000E+00  0.00000000E+00  0.00000000E+00
  0.00000000E+00  0.00000000E+00  0.00000000E+00
  0.00000000E+00  0.00000000E+00  0.00000000E+00
  0.00000000E+00  0.00000000E+00  0.00000000E+00
  0.00000000E+00  0.00000000E+00  0.00000000E+00
  0.00000000E+00  0.00000000E+00  0.00000000E+00
  0.00000000E+00  0.00000000E+00  0.00000000E+00
  0.00000000E+00  0.00000000E+00  0.00000000E+00
  0.00000000E+00  0.00000000E+00  0.00000000E+00
  0.00000000E+00  0.00000000E+00  0.00000000E+00
  0.00000000E+00  0.00000000E+00  0.00000000E+00
  0.00000000E+00  0.00000000E+00  0.00000000E+00
  0.00000000E+00  0.00000000E+00  0.00000000E+00
  0.00000000E+00  0.00000000E+00  0.00000000E+00
  0.00000000E+00  0.00000000E+00  0.00000000E+00
  0.00000000E+00  0.00000000E+00  0.00000000E+00
  0.00000000E+00  0.00000000E+00  0.00000000E+00
  0.00000000E+00  0.00000000E+00  0.00000000E+00
  0.00000000E+00  0.00000000E+00  0.00000000E+00
  0.00000000E+00  0.00000000E+00  0.00000000E+00
  0.00000000E+00  0.00000000E+00  0.00000000E+00
  0.00000000E+00  0.00000000E+00  0.00000000E+00
  0.00000000E+00  0.00000000E+00  0.00000000E+00
  0.00000000E+00  0.00000000E+00  0.00000000E+00
  0.00000000E+00  0.00000000E+00  0.00000000E+00
  0.00000000E+00  0.00000000E+00  0.00000000E+00
  0.00000000E+00  0.00000000E+00  0.00000000E+00
  0.00000000E+00  0.00000000E+00  0.00000000E+00
  0.00000000E+00  0.00000000E+00  0.00000000E+00
  0.00000000E+00  0.00000000E+00  0.00000000E+00
  0.00000000E+00  0.00000000E+00  0.00000000E+00
  0.00000000E+00  0.00000000E+00  0.00000000E+00
  0.00000000E+00  0.00000000E+00  0.00000000E+00
  0.00000000E+00  0.00000000E+00  0.00000000E+00
  0.00000000E+00  0.00000000E+00  0.00000000E+00
  0.00000000E+00  0.00000000E+00  0.00000000E+00
  0.00000000E+00  0.00000000E+00  0.00000000E+00
  0.00000000E+00  0.00000000E+00  0.00000000E+00
  0.00000000E+00  0.00000000E+00  0.00000000E+00
  0.00000000E+00  0.00000000E+00  0.00000000E+00
  0.00000000E+00  0.00000000E+00  0.00000000E+00
  0.00000000E+00  0.00000000E+00  0.00000000E+00
  0.00000000E+00  0.00000000E+00  0.00000000E+00
  0.00000000E+00  0.00000000E+00  0.00000000E+00
  0.00000000E+00  0.00000000E+00  0.00000000E+00
  0.00000000E+00  0.00000000E+00  0.00000000E+00
  0.00000000E+00  0.00000000E+00  0.00000000E+00
  0.00000000E+00  0.00000000E+00  0.00000000E+00
  0.00000000E+00  0.00000000E+00  0.00000000E+00
  0.00000000E+00  0.00000000E+00  0.00000000E+00
  0.00000000E+00  0.00000000E+00  0.00000000E+00
  0.00000000E+00  0.00000000E+00  0.00000000E+00
  0.00000000E+00  0.00000000E+00  0.00000000E+00
  0.00000000E+00  0.00000000E+00  0.00000000E+00
  0.00000000E+00  0.00000000E+00  0.00000000E+00
  0.00000000E+00  0.00000000E+00  0.00000000E+00
  0.00000000E+00  0.00000000E+00  0.00000000E+00
  0.00000000E+00  0.00000000E+00  0.00000000E+00
  0.00000000E+00  0.00000000E+00  0.00000000E+00
  0.00000000E+00  0.00000000E+00  0.00000000E+00
  0.00000000E+00  0.00000000E+00  0.00000000E+00
  0.00000000E+00  0.00000000E+00  0.00000000E+00
  0.00000000E+00  0.00000000E+00  0.00000000E+00
  0.00000000E+00  0.00000000E+00  0.00000000E+00
  0.00000000E+00  0.00000000E+00  0.00000000E+00
  0.00000000E+00  0.00000000E+00  0.00000000E+00
  0.00000000E+00  0.00000000E+00  0.00000000E+00
  0.00000000E+00  0.00000000E+00  0.00000000E+00
  0.00000000E+00  0.00000000E+00  0.00000000E+00
  0.00000000E+00  0.00000000E+00  0.00000000E+00
  0.00000000E+00  0.00000000E+00  0.00000000E+00
  0.00000000E+00  0.00000000E+00  0.00000000E+00
  0.00000000E+00  0.00000000E+00  0.00000000E+00
  0.00000000E+00  0.00000000E+00  0.00000000E+00
  0.00000000E+00  0.00000000E+00  0.00000000E+00
  0.00000000E+00  0.00000000E+00  0.00000000E+00
  0.00000000E+00  0.00000000E+00  0.00000000E+00
  0.00000000E+00  0.00000000E+00  0.00000000E+00
  0.00000000E+00  0.00000000E+00  0.00000000E+00
  0.00000000E+00  0.00000000E+00  0.00000000E+00
  0.00000000E+00  0.00000000E+00  0.00000000E+00
  0.00000000E+00  0.00000000E+00  0.00000000E+00
  0.00000000E+00  0.00000000E+00  0.00000000E+00
  0.00000000E+00  0.00000000E+00  0.00000000E+00
  0.00000000E+00  0.00000000E+00  0.00000000E+00
  0.00000000E+00  0.00000000E+00  0.00000000E+00
  0.00000000E+00  0.00000000E+00  0.00000000E+00
  0.00000000E+00  0.00000000E+00  0.00000000E+00
  0.00000000E+00  0.00000000E+00  0.00000000E+00
  0.00000000E+00  0.00000000E+00  0.00000000E+00
  0.00000000E+00  0.00000000E+00  0.00000000E+00
  0.00000000E+00  0.00000000E+00  0.00000000E+00
  0.00000000E+00  0.00000000E+00  0.00000000E+00
  0.00000000E+00  0.00000000E+00  0.00000000E+00
  0.00000000E+00  0.00000000E+00  0.00000000E+00
  0.00000000E+00  0.00000000E+00  0.00000000E+00
  0.00000000E+00  0.00000000E+00  0.00000000E+00
  0.00000000E+00  0.00000000E+00  0.00000000E+00
  0.00000000E+00  0.00000000E+00  0.00000000E+00
  0.00000000E+00  0.00000000E+00  0.00000000E+00
  0.00000000E+00  0.00000000E+00  0.00000000E+00
  0.00000000E+00  0.00000000E+00  0.00000000E+00
  0.00000000E+00  0.00000000E+00  0.00000000E+00
  0.00000000E+00  0.00000000E+00  0.00000000E+00
  0.00000000E+00  0.00000000E+00  0.00000000E+00
  0.00000000E+00  0.00000000E+00  0.00000000E+00
  0.00000000E+00  0.00000000E+00  0.00000000E+00
  0.00000000E+00  0.00000000E+00  0.00000000E+00
  0.00000000E+00  0.00000000E+00  0.00000000E+00
  0.00000000E+00  0.00000000E+00  0.00000000E+00
  0.00000000E+00  0.00000000E+00  0.00000000E+00
  0.00000000E+00  0.00000000E+00  0.00000000E+00
  0.00000000E+00  0.00000000E+00  0.00000000E+00
  0.00000000E+00  0.00000000E+00  0.00000000E+00
  0.00000000E+00  0.00000000E+00  0.00000000E+00
  0.00000000E+00  0.00000000E+00  0.00000000E+00
  0.00000000E+00  0.00000000E+00  0.00000000E+00
  0.00000000E+00  0.00000000E+00  0.00000000E+00
  0.00000000E+00  0.00000000E+00  0.00000000E+00
  0.00000000E+00  0.00000000E+00  0.00000000E+00
  0.00000000E+00  0.00000000E+00  0.00000000E+00
  0.00000000E+00  0.00000000E+00  0.00000000E+00
  0.00000000E+00  0.00000000E+00  0.00000000E+00
  0.00000000E+00  0.00000000E+00  0.00000000E+00
  0.00000000E+00  0.00000000E+00  0.00000000E+00
  0.00000000E+00  0.00000000E+00  0.00000000E+00
  0.00000000E+00  0.00000000E+00  0.00000000E+00
  0.00000000E+00  0.00000000E+00  0.00000000E+00
  0.00000000E+00  0.00000000E+00  0.00000000E+00
  0.00000000E+00  0.00000000E+00  0.00000000E+00
  0.00000000E+00  0.00000000E+00  0.00000000E+00
  0.00000000E+00  0.00000000E+00  0.00000000E+00
  0.00000000E+00  0.00000000E+00  0.00000000E+00
  0.00000000E+00  0.00000000E+00  0.00000000E+00
  0.00000000E+00  0.00000000E+00  0.00000000E+00
  0.00000000E+00  0.00000000E+00  0.00000000E+00
  0.00000000E+00  0.00000000E+00  0.00000000E+00
  0.00000000E+00  0.00000000E+00  0.00000000E+00
  0.00000000E+00  0.00000000E+00  0.00000000E+00
  0.00000000E+00  0.00000000E+00  0.00000000E+00
  0.00000000E+00  0.00000000E+00  0.00000000E+00
  0.00000000E+00  0.00000000E+00  0.00000000E+00
  0.00000000E+00  0.00000000E+00  0.00000000E+00
  0.00000000E+00  0.00000000E+00  0.00000000E+00
  0.00000000E+00  0.00000000E+00  0.00000000E+00
  0.00000000E+00  0.00000000E+00  0.00000000E+00
  0.00000000E+00  0.00000000E+00  0.00000000E+00
  0.00000000E+00  0.00000000E+00  0.00000000E+00
  0.00000000E+00  0.00000000E+00  0.00000000E+00
  0.00000000E+00  0.00000000E+00  0.00000000E+00
  0.00000000E+00  0.00000000E+00  0.00000000E+00
  0.00000000E+00  0.00000000E+00  0.00000000E+00
  0.00000000E+00  0.00000000E+00  0.00000000E+00
  0.00000000E+00  0.00000000E+00  0.00000000E+00
  0.00000000E+00  0.00000000E+00  0.00000000E+00
  0.00000000E+00  0.00000000E+00  0.00000000E+00
  0.00000000E+00  0.00000000E+00  0.00000000E+00
  0.00000000E+00  0.00000000E+00  0.00000000E+00
  0.00000000E+00  0.00000000E+00  0.00000000E+00
  0.00000000E+00  0.00000000E+00  0.00000000E+00
  0.00000000E+00  0.00000000E+00  0.00000000E+00
  0.00000000E+00  0.00000000E+00  0.00000000E+00
  0.00000000E+00  0.00000000E+00  0.00000000E+00
  0.00000000E+00  0.00000000E+00  0.00000000E+00
  0.00000000E+00  0.00000000E+00  0.00000000E+00
  0.00000000E+00  0.00000000E+00  0.00000000E+00
  0.00000000E+00  0.00000000E+00  0.00000000E+00
  0.00000000E+00  0.00000000E+00  0.00000000E+00
  0.00000000E+00  0.00000000E+00  0.00000000E+00
  0.00000000E+00  0.00000000E+00  0.00000000E+00
  0.00000000E+00  0.00000000E+00  0.00000000E+00
  0.00000000E+00  0.00000000E+00  0.00000000E+00
  0.00000000E+00  0.00000000E+00  0.00000000E+00
  0.00000000E+00  0.00000000E+00  0.00000000E+00
  0.00000000E+00  0.00000000E+00  0.00000000E+00
  0.00000000E+00  0.00000000E+00  0.00000000E+00
  0.00000000E+00  0.00000000E+00  0.00000000E+00
  0.00000000E+00  0.00000000E+00  0.00000000E+00
  0.00000000E+00  0.00000000E+00  0.00000000E+00
  0.00000000E+00  0.00000000E+00  0.00000000E+00
  0.00000000E+00  0.00000000E+00  0.00000000E+00
  0.00000000E+00  0.00000000E+00  0.00000000E+00
  0.00000000E+00  0.00000000E+00  0.00000000E+00
  0.00000000E+00  0.00000000E+00  0.00000000E+00
  0.00000000E+00  0.00000000E+00  0.00000000E+00
  0.00000000E+00  0.00000000E+00  0.00000000E+00
  0.00000000E+00  0.00000000E+00  0.00000000E+00
  0.00000000E+00  0.00000000E+00  0.00000000E+00
  0.00000000E+00  0.00000000E+00  0.00000000E+00
  0.00000000E+00  0.00000000E+00  0.00000000E+00
  0.00000000E+00  0.00000000E+00  0.00000000E+00
  0.00000000E+00  0.00000000E+00  0.00000000E+00
  0.00000000E+00  0.00000000E+00  0.00000000E+00
  0.00000000E+00  0.00000000E+00  0.00000000E+00
  0.00000000E+00  0.00000000E+00  0.00000000E+00
  0.00000000E+00  0.00000000E+00  0.00000000E+00
  0.00000000E+00  0.00000000E+00  0.00000000E+00
  0.00000000E+00  0.00000000E+00  0.00000000E+00
  0.00000000E+00  0.00000000E+00  0.00000000E+00
