Amorphous Sb2Se3                        
   1.00000000000000     
    21.2503730487583617    0.0000000000000000    0.0000000000000000
     0.0000000000000000   21.2503730487583617    0.0000000000000000
     0.0000000000000000    0.0000000000000000   21.2503730487583617
   Sb   S 
   120   180
Direct
  0.5436381325992196  0.5358563962694141  0.1864185152063575
  0.5465688053081184  0.4101252286112285  0.4323854076317633
  0.4087884507120242  0.2748681567723125  0.2959505678990664
  0.7772340287564714  0.7273439555561413  0.2059432654330220
  0.4263201831458445  0.0297193289893690  0.7071255645602224
  0.3169972745837564  0.3165197868052799  0.9528346357870391
  0.5779444228615832  0.8585102203250341  0.2553670777604529
  0.4026310270566276  0.9312851373668574  0.5607794365412310
  0.4555363333893510  0.7679433667956805  0.0275342519969834
  0.8778656771019550  0.8163188812161931  0.0812341399941131
  0.7930154702797542  0.5868536583113466  0.9357347131482200
  0.7265887768434353  0.4269315416369110  0.4449787622673309
  0.3996910364109381  0.4571249125779446  0.3246511561977087
  0.6030937693889150  0.5293260653748986  0.8538744902694554
  0.0085350288396558  0.7142711886665334  0.8378622087331893
  0.8281230635512385  0.3834521073487202  0.3083370727505398
  0.8683469105319230  0.6814752333468166  0.4806635429511572
  0.5926362845553599  0.5823200182114732  0.4526486066001639
  0.6263719160097826  0.8696543982200341  0.9736789383766753
  0.5888713709176516  0.1422452212101175  0.4748628259600223
  0.0383942928457420  0.9834506536372118  0.2506775848371796
  0.0074806146085273  0.8594741847317321  0.0290096951733983
  0.5919213387114690  0.7780657901507673  0.8022693718401663
  0.4982428833514071  0.0480590044197673  0.8647173047634588
  0.3675917473611918  0.0874471267956269  0.2050664100218018
  0.3733190633011829  0.8645021639708064  0.7779408725692351
  0.0085477173390494  0.7459809741271886  0.5670153343700244
  0.9165446589224453  0.8731709529087741  0.5854828126865534
  0.2355208646524501  0.0177484124572602  0.2689000193001715
  0.2762142168949918  0.3905546740267538  0.7843806138565128
  0.8496824620430647  0.3993152956188887  0.9668877034694958
  0.0409896928520124  0.5624440394884475  0.4071062130862227
  0.2064478547186664  0.8013925875778873  0.4171223592877976
  0.5454992107941509  0.6330524940055691  0.0071946034357499
  0.5661048183539262  0.2323362410162123  0.1563545718010282
  0.6028253069589705  0.7560426358687156  0.5433526448576900
  0.8018320054804837  0.1559552984888433  0.6596050020312860
  0.8998141705655488  0.5759675669931729  0.7561691894099840
  0.4239543472772901  0.2719078518820018  0.0788020734002118
  0.7939540974152555  0.2676652658391427  0.0454728286311318
  0.1957144492632895  0.6874711485611779  0.5664397827799864
  0.6049791156959523  0.2614724759828368  0.3384880365462569
  0.3574084354910013  0.9352257801880723  0.9002480770259498
  0.7526902278733251  0.8556081503162983  0.5675442167985993
  0.5772924689764083  0.0582168529354993  0.3326771164157098
  0.5907396243727822  0.3469274133737673  0.7276385190816933
  0.4219330878103965  0.7109565933640920  0.8299790176220498
  0.0972227615289700  0.8924900595403529  0.5628637971873870
  0.1546882747285367  0.5288387035331854  0.2910745277196290
  0.9999120961427097  0.2237082037318314  0.8312451829045139
  0.0691602083065408  0.8784896437734846  0.7796619329530701
  0.2027190689463864  0.9516144771245415  0.7426642325068623
  0.3149962486185371  0.5416501442093796  0.0099777896377909
  0.2627909047452243  0.5215371336158693  0.4247698259127562
  0.4101119752966515  0.7055239936851869  0.2006595784630491
  0.9148298482005494  0.9371486344876411  0.1578560399626657
  0.6111354628772787  0.0261468259946861  0.1049627386746443
  0.8061156816126314  0.2009259242828136  0.3035892417043625
  0.5636231102282703  0.5199812538628169  0.6692462727288848
  0.0888497765252615  0.0564164856396739  0.5923664838431038
  0.0656111679364787  0.3509523879123441  0.2571805366398203
  0.6840690558117820  0.4257980747526529  0.1800566739865014
  0.8412411977735604  0.3431694864027304  0.6505703003826715
  0.2708450037488925  0.2282758331114308  0.7216008118497055
  0.8353948971036931  0.9654083856686539  0.9774840666641965
  0.1026820872517374  0.1590674461329596  0.2841457482515496
  0.7529502828136498  0.5494082592481491  0.6821435019175773
  0.2241446485712610  0.0960972303787722  0.8219338750711538
  0.9039747570021019  0.1153033386514991  0.4257086358823984
  0.1384579653759417  0.7974744529592794  0.9251772811363908
  0.0299463259485688  0.3558749827172000  0.6658487823163919
  0.7090524401614910  0.9496509073150997  0.7094571197770057
  0.8527772839846948  0.0440304477318354  0.7741578985261862
  0.6289423888064244  0.7259906019297511  0.3502918785089050
  0.9702640877812407  0.5003046782073010  0.6008293327933489
  0.5871074636616535  0.9935996854944971  0.5829392414468267
  0.7984833651960934  0.8046185547708341  0.7342662794739581
  0.7697637952060936  0.1922713958738291  0.4805706178381456
  0.1286964173568434  0.5184423920407047  0.9691745717779168
  0.2847540128412329  0.3171472308606294  0.5658559857865368
  0.3956176313853754  0.4428632153419965  0.5155631707081769
  0.4799162489449165  0.9893953583449465  0.2584473346924412
  0.0829779798934469  0.4319966713769898  0.4538669959338910
  0.1426927609627421  0.4402836205536442  0.6407062220732465
  0.7775631352290480  0.8417706201609521  0.3779885417170978
  0.1315728828041047  0.0952428240210296  0.4666975720063730
  0.4991417818886619  0.9033709410180780  0.0142271206008313
  0.4783003688335092  0.7813330969517183  0.4714882009421725
  0.0628643690452346  0.7213974828932862  0.2616020027169119
  0.9342035119012405  0.9208239788566815  0.3664674026913400
  0.5166937155040121  0.1185447672790078  0.7476580864355480
  0.6259381491709537  0.1880692950204751  0.0004444915040084
  0.2723309844691845  0.8037026301681288  0.5374380469159474
  0.0364030085480315  0.4830784663024604  0.8349756182002683
  0.3900216083495883  0.6795883677924853  0.6595731855235875
  0.7414266393055634  0.7660404760480126  0.8996219606930670
  0.8234681014618336  0.1993389358896039  0.8817771815767148
  0.2897427078089963  0.6094002311814463  0.8451816582298727
  0.0904689568726748  0.6743905796667916  0.0996025412306842
  0.7279509519227961  0.6095295480603367  0.0986033609963296
  0.0010181960002771  0.9950398750409272  0.8950511557400317
  0.2335274557654261  0.7165503750647612  0.2166418340722904
  0.4987679664950017  0.4110831612131758  0.8787306639499949
  0.2037613820087763  0.9758627094763065  0.0840415140839943
  0.3696480413132417  0.4086575232979246  0.1391524956036783
  0.1504792238022137  0.4201200210212939  0.1357818863572469
  0.3992632826158647  0.2644983177557057  0.6942151527712018
  0.8454030276548430  0.4804100347385293  0.4952377934204296
  0.3907031684707284  0.1303583369133481  0.4269067929685265
  0.0862413210836582  0.2598656239730271  0.5127693791716461
  0.7232030594815710  0.9241668932590641  0.1692501533096035
  0.5159778930348283  0.2828094376778855  0.5683165749272907
  0.0938268867647019  0.1280484711352389  0.9674875187280175
  0.2757371553920771  0.9547628149029589  0.4574716851210512
  0.1982924427447197  0.3190609569074647  0.2191749194332122
  0.2939516033707669  0.7768586211794036  0.0415311040507638
  0.6833749804762430  0.3882003657993023  0.5705688664136425
  0.1317649193267652  0.3418476158975244  0.8853240227687083
  0.1976514896073816  0.2699740797749116  0.3823792457057036
  0.7915448218034987  0.5536537138587114  0.2749721852242624
  0.2009562110095696  0.1784151750028023  0.9842103958739231
  0.3058334550473308  0.7459491150817535  0.4419705864054447
  0.3402668984467002  0.4101027682724510  0.8790412108982530
  0.3132145647665617  0.5502654247920218  0.3239057390208620
  0.8532330903830722  0.3003752668008322  0.2392295694969967
  0.1824349179928030  0.4479391787550546  0.3767247669603689
  0.2377045873589452  0.9806836685026175  0.8566940077013813
  0.6606406327494129  0.6796005314655612  0.4742276889712737
  0.5303371981888798  0.4114436188374679  0.6517792959668350
  0.1674244167572350  0.3655764030012086  0.0310519805959816
  0.8186455004045664  0.6469542663213759  0.0323060322659447
  0.4718974968442566  0.6649828682655925  0.7420252382604531
  0.8343478766972225  0.9043648534751836  0.6961063154573920
  0.0434899898381494  0.2368222783730734  0.9431428784546646
  0.0057758571940166  0.6057041832942468  0.0703956246996809
  0.7795350754452582  0.4767162979129583  0.0361394771694918
  0.2654364727692460  0.1041956266138673  0.9797911760197369
  0.9092780217278559  0.4830773372118128  0.3997511949902489
  0.3064373920242031  0.3767833837965001  0.2317760059470864
  0.6815969265486544  0.7043514891521531  0.8200206597282501
  0.8391042478939658  0.9116314826591203  0.3011193226506635
  0.0819411281019799  0.2507123146684181  0.3682670658442802
  0.7548847937994378  0.4312780744740667  0.6641587075334163
  0.3078777431462578  0.3000985030036758  0.0865880749469947
  0.2718837864667210  0.4940518600231462  0.1057175774810015
  0.8591422395973861  0.4683602971740387  0.2255706854494104
  0.4675683158592879  0.0329629055436003  0.5818668770958197
  0.5491535277710671  0.7246493098657418  0.0773606919974013
  0.0804305866189478  0.5353031699453638  0.6150880863532326
  0.6294490439084043  0.1041426170119981  0.5751492893307002
  0.7967990368242797  0.5326487746987868  0.7939553465540425
  0.6497416494163594  0.9828453027412110  0.9492657907499504
  0.8858603980307737  0.6883237250172277  0.3673567406643167
  0.4033671413391066  0.1635991628001848  0.7476263286610098
  0.6081478266160367  0.2984313592234261  0.4968988872914631
  0.0324070088685749  0.1566634433627274  0.4977251751538959
  0.4740571352447422  0.8964060252684525  0.9012286114439182
  0.6951739822978656  0.8443793348576731  0.2528495089552153
  0.3045176127906888  0.9180290707863972  0.7057066592035411
  0.4285822843966454  0.3490187651556632  0.9966383205506946
  0.8696626250978883  0.0113587197727528  0.0755886497488595
  0.6968293798023056  0.0273618708408542  0.0253442534980844
  0.0898280815615730  0.9095198498530740  0.8943663350924915
  0.0682630058914038  0.5840298647694773  0.8962455667620842
  0.2107927781031399  0.1651571318286405  0.3294921590203438
  0.0413857243249277  0.0044574009081765  0.5040127163112168
  0.9184122289254827  0.1908548626730726  0.3386163426049285
  0.6434925675183196  0.9584091623252633  0.3630325345707701
  0.4832723607978570  0.6573195660765618  0.5858527386798960
  0.5940632363114697  0.2924725988947868  0.0613948503116780
  0.3335217675297750  0.5073531599061539  0.7767981911649370
  0.6469093158525049  0.5104186438128671  0.7482884166330537
  0.9051650197282234  0.1089473098942633  0.6793614139125544
  0.7935521853155719  0.8655610709547424  0.0177975053091000
  0.2345895771137813  0.2815435109488708  0.8227021042738623
  0.1175904164399034  0.7164883422482574  0.4851150405503880
  0.9332813028208551  0.9063036820317847  0.9439453235692717
  0.9738147197255751  0.8146234375513595  0.7915415134042068
  0.4665684678154345  0.3335303614999667  0.1682421461982270
  0.5717600606978736  0.3695365898695536  0.3273192170517526
  0.4734875060475890  0.1467198280003142  0.9265400804488998
  0.8972446349489100  0.1019974473825469  0.8642851775083150
  0.0971521415413601  0.2449794668854766  0.2007382360335715
  0.3898528066430229  0.9362541824172920  0.4491975886951615
  0.2418545399676661  0.4043213311105961  0.9793537127103065
  0.5294561425884781  0.1241103216985451  0.0063200936196506
  0.5289562025482669  0.0492615762011553  0.4374830954254645
  0.6743075498124281  0.5181807318330192  0.4020677468787969
  0.7670408341426389  0.3225536103257747  0.9450780845269868
  0.6915387599100002  0.4430170808785058  0.0574042803096198
  0.2921299789531125  0.5437768121907512  0.6962602252889345
  0.9113741350676542  0.7215150291219804  0.9094106466432529
  0.3326330831321000  0.7452902368408389  0.2692658426627481
  0.3553932521196397  0.1996625601130255  0.2145254424625873
  0.2247111126678547  0.3214855729168029  0.6615016302422732
  0.9870839039101225  0.9797267154048034  0.7869651795369368
  0.1960766877867289  0.0646265909758962  0.7137488280896861
  0.1030062163808662  0.6271283755466355  0.2074322895624826
  0.0495516637453826  0.4235107772839759  0.9362809887624661
  0.8321501102811618  0.6930201374132994  0.8691105693038859
  0.1775799757091405  0.8355944619292629  0.6462289814826551
  0.7973338485816427  0.2576194746530713  0.7210417543917892
  0.9141066047327886  0.4925041238331943  0.8582173238455846
  0.8781332933101386  0.7828986185872796  0.3444714249194054
  0.2553108757963225  0.8673661878671263  0.9913050619046792
  0.3077569687385547  0.6843032315928725  0.7653293133786426
  0.0245355315034570  0.9378537340458140  0.1150325378006915
  0.8559408639785471  0.6029466727141769  0.6553012889142936
  0.4858519369863795  0.1815191654410738  0.5131923017453033
  0.3939872850904566  0.0432450909924290  0.3184402217956793
  0.6407375672508071  0.5170317893889019  0.5839531300309438
  0.1502418215147718  0.6070368027817317  0.3792067020289208
  0.4649737062685171  0.9226828984346570  0.7413520241143615
  0.2490236961457631  0.9410236956714607  0.1841033765595847
  0.4785039122308675  0.8396363465346228  0.5737378983959812
  0.0361968688462142  0.3880804907902782  0.1535803038595633
  0.6913297699043237  0.7176672857121732  0.1257122481990643
  0.6467290630500725  0.1528975286818291  0.1058132425144507
  0.4367583246154007  0.6733653039551295  0.5027274014539737
  0.9637086608991990  0.8088486342744942  0.4874595946717395
  0.5713794802103469  0.4238040450292556  0.1634561753142185
  0.2627901661843698  0.9055661317209909  0.3554200443235693
  0.6833894378346378  0.8374868511606024  0.6923473636362732
  0.0228732717407910  0.7557953517603522  0.1524895347354026
  0.6610607211773586  0.8412184562011439  0.4948076743425945
  0.1584466688454454  0.7845778220741595  0.2780257413143287
  0.7928282246207383  0.0969565988751945  0.3999126151948368
  0.6235394468305898  0.4170667479043464  0.8913330981296006
  0.3297145721135812  0.6404755749571077  0.1385723473115417
  0.8904739631457117  0.3386067703732349  0.0580111717082049
  0.6472615926854698  0.2694224620338609  0.2314174955226167
  0.3651462755384298  0.6441930770442761  0.0497222475216284
  0.1284660036633248  0.7714344059662924  0.8160526395132859
  0.5717544702218871  0.6278784625512717  0.3443537123380592
  0.1356410529246605  0.0657227240447002  0.1214155533979331
  0.6822038557111126  0.5391912248976263  0.2190479877102616
  0.5010000440673055  0.2069299517449097  0.3097439741358612
  0.3176749558372813  0.4116500012764635  0.4395508685459384
  0.5300360080914051  0.7247074985828359  0.8884837778956417
  0.0177433384871753  0.9188493136651922  0.6451530029898808
  0.7289718217964922  0.6813000208508004  0.3010001242155004
  0.8788143518653044  0.2016331339378745  0.5115865042564169
  0.1751691674284570  0.9694089697517961  0.6032150973912717
  0.9608236850288512  0.0285513179380463  0.3297292733120351
  0.5985987653580604  0.9969652869370119  0.6977217121981865
  0.9721048140908292  0.6391788088541630  0.5178903037890711
  0.9500975780293778  0.4749448457698034  0.7146421209858418
  0.3598114475530612  0.3910202084361002  0.6158318196327967
  0.3925966840004707  0.6131533200850373  0.9000176320610546
  0.1733119671838437  0.4266072750795591  0.5271117971194667
  0.4808350352408932  0.5094203510416589  0.3834413971396275
  0.9893514366910924  0.3922221426342341  0.5556343559656624
  0.8363026916963476  0.1716506235164326  0.9959034707805944
  0.7218266633630773  0.9715938742117106  0.5978799245791336
  0.4461928067713664  0.3474167557044441  0.4594847654941528
  0.0710687412029328  0.2459334500850228  0.6293570492701560
  0.9211615811489247  0.3880890627618644  0.3853806992690645
  0.8043261028632012  0.5850223756744699  0.4664707332146535
  0.4981895168049206  0.3272690184843131  0.7998898481949990
  0.9079038227185614  0.7725241949989524  0.6358231542788692
  0.9052447934134392  0.2846760167213587  0.8626495566877029
  0.6576852487111492  0.6093393536908763  0.9985883633506153
  0.5667556068250577  0.7441458442087332  0.2495714056715568
  0.8100421954306110  0.9068394860184615  0.4735292552883731
  0.0423003200574309  0.7320977420790488  0.9487391155140904
  0.9032497510535543  0.5377336186520721  0.9433676863253985
  0.7976147275974256  0.8525619527550238  0.8439906787934898
  0.2892009127364626  0.0720483231960144  0.4589742040526108
  0.2387018522931872  0.7023323266768950  0.9541033755808747
  0.0014886372171339  0.8773404067035642  0.2744440046778064
  0.6746286975115505  0.0305630572808959  0.1998830167061527
  0.3653348431260701  0.5633191576561124  0.6403800398712783
  0.6290848300805145  0.8992108759802293  0.1122942095210056
  0.1734940760682874  0.4316388779708837  0.8154271295855607
  0.7863541700657911  0.3208241453233470  0.5507994261272507
  0.0541344139144309  0.3267035688532363  0.7974148029457068
  0.3882558557270922  0.0332042026378813  0.8339085949707554
  0.1855709433336149  0.1072647832016123  0.1936032080790017
  0.4295888583563123  0.5082169627175442  0.2170207813031788
  0.3422466183924909  0.2137203742158541  0.5961153852645071
  0.7651213690121612  0.2697631939616654  0.3900332376529332
  0.1305249353360457  0.9904027786304020  0.3181127979692818
  0.8350407037834441  0.6242108766842078  0.1911929519105058
  0.0763619297407008  0.5375536320672886  0.0704853737073634
  0.1901448180104819  0.2169325998954956  0.4953386731129463
  0.4973743921327810  0.5186812969075509  0.8183679542782271
  0.4855646342517633  0.0757083083988802  0.1790959770391800
  0.6326036331651590  0.8721030422113049  0.8487195590745903
  0.1079083329385342  0.1095416848791825  0.8489918836589991
  0.5804149856265970  0.2490188379369682  0.6661376815243500
  0.3988684206868050  0.8006552378971589  0.1346100425477351
  0.2841543917721703  0.0630602816497342  0.0722450627913768
  0.5746547096998229  0.8910472607006032  0.3670031012580259
  0.3431291036242862  0.2272926522328121  0.3798400232667273
  0.1556760644748117  0.7399919957042829  0.6564980397853762
  0.2126383697396159  0.6195510805618255  0.9908941565349447
  0.2072751806833829  0.7816711790798353  0.1199143373231422
  0.7575101038158613  0.1047375871234278  0.7610440245117723
  0.0407849746989875  0.4999059989909886  0.3102504200581442
  0.5006178527129198  0.5471088843631088  0.0774392465966589
 
 -0.85176131E-04 -0.71433616E-04  0.20278822E-02
 -0.43085840E-03  0.25144575E-02  0.22906051E-02
 -0.11843896E-02 -0.41417694E-03 -0.20529705E-02
 -0.99255883E-03  0.14424120E-02  0.36120324E-03
 -0.11497497E-02  0.44385003E-03  0.64245650E-03
 -0.35821657E-04  0.85269071E-03 -0.27649045E-02
  0.14253006E-02 -0.14328574E-02 -0.10747021E-02
 -0.37964116E-03  0.99604266E-03  0.12298288E-02
  0.10159805E-02 -0.56306883E-03  0.16592210E-02
 -0.80838177E-03  0.10648082E-02  0.14162510E-02
 -0.12418253E-02  0.13888768E-02  0.24981307E-02
  0.14555061E-02 -0.32098272E-03 -0.78709367E-03
  0.24060708E-03  0.13736487E-02 -0.24335652E-02
 -0.24626877E-04 -0.44349727E-03 -0.10510018E-03
 -0.84838085E-03  0.93495024E-03 -0.84721056E-03
  0.22978775E-03  0.23487804E-02 -0.19313276E-03
 -0.10511098E-02  0.29403745E-03 -0.11936182E-02
 -0.27140268E-03  0.10821156E-02  0.38232347E-03
 -0.17130016E-03  0.54789515E-03  0.48499248E-03
 -0.87348292E-03 -0.75982435E-03 -0.34579696E-03
  0.38108766E-03  0.11391780E-02  0.34489258E-03
 -0.21133041E-02 -0.91645429E-04  0.27623153E-02
 -0.10480308E-02  0.35780396E-03  0.79312496E-03
  0.16213949E-02  0.59247424E-03 -0.43929721E-04
  0.23506655E-02  0.48680442E-04 -0.15216282E-02
  0.32038831E-02  0.67739148E-03 -0.22016865E-02
  0.18809220E-02  0.29956442E-03  0.20786985E-03
  0.26725290E-02  0.15319093E-02 -0.10367783E-02
  0.10338615E-03  0.10961097E-03  0.32049538E-04
  0.23567775E-02  0.93180445E-03  0.14610672E-02
 -0.34343389E-02 -0.87415960E-03  0.59813162E-04
 -0.59540207E-03  0.54951299E-03  0.17088782E-02
  0.97637216E-03 -0.13004010E-02 -0.41108602E-03
 -0.28343375E-03  0.69648922E-03 -0.28312416E-02
 -0.32450212E-03  0.29475518E-02 -0.10487639E-02
  0.12085510E-02  0.12220039E-02 -0.67629327E-03
 -0.23008242E-02 -0.14582352E-04 -0.18263425E-02
  0.16171805E-02 -0.22447846E-03  0.70125793E-03
  0.82456173E-03 -0.88333863E-03 -0.12675949E-04
  0.77745542E-03 -0.45073233E-03 -0.95580484E-03
  0.29825976E-03 -0.38383553E-03 -0.10892385E-02
 -0.19109824E-02 -0.17655801E-02 -0.10834332E-02
 -0.12194101E-02  0.65306730E-03  0.76253516E-03
 -0.10099636E-02 -0.20114536E-02 -0.16985246E-02
 -0.53216615E-03  0.37166922E-03 -0.12955259E-02
  0.28284810E-02 -0.34208103E-03  0.13826169E-02
 -0.19694197E-02 -0.56536144E-03  0.23795766E-02
 -0.31260188E-04 -0.20574673E-02  0.20357306E-02
 -0.11555345E-02  0.18023793E-02  0.13610828E-02
  0.13606582E-02  0.67597922E-03  0.17599090E-02
  0.17949898E-02  0.28923630E-02  0.25935586E-03
  0.82847787E-03 -0.18481048E-02  0.93390085E-03
  0.28751356E-02 -0.37332009E-04  0.54431030E-03
  0.30709826E-04 -0.11708086E-02  0.17120487E-02
 -0.88850929E-03 -0.63971831E-03  0.62402459E-03
 -0.13176052E-03 -0.17967336E-02  0.11796263E-02
  0.20842531E-02  0.22772274E-02 -0.11452140E-02
  0.42029186E-03 -0.14402075E-02  0.44682135E-03
  0.23490528E-03  0.13394651E-03 -0.44518484E-03
 -0.19638402E-02  0.65434676E-03 -0.22312260E-02
  0.25253795E-03 -0.20895471E-02  0.27585067E-02
  0.38526479E-03 -0.31323781E-03  0.36466286E-03
  0.16865129E-02  0.39926142E-03  0.28396488E-03
 -0.22986739E-02  0.31481561E-03 -0.12653290E-02
 -0.32895394E-03  0.15509387E-02  0.16906712E-02
  0.10618719E-02 -0.93231942E-03 -0.25846303E-03
 -0.29014705E-02 -0.11637063E-02  0.12668232E-03
 -0.55868018E-03 -0.71013283E-04 -0.20554879E-02
  0.31807120E-03  0.15977869E-03 -0.13685421E-03
  0.49706387E-03  0.12529200E-03  0.12533687E-02
  0.66224465E-03 -0.24009917E-02  0.25851449E-02
  0.19295526E-02 -0.57428124E-03 -0.11833905E-02
  0.14022084E-02  0.14933401E-02  0.29249317E-02
 -0.81375523E-03 -0.10144792E-02 -0.11034791E-02
 -0.15559808E-02  0.28642577E-03  0.10911962E-04
  0.49498491E-03 -0.37545984E-05 -0.12045771E-03
  0.26087209E-02  0.25213303E-02 -0.36322128E-04
  0.14092481E-02 -0.17880940E-02 -0.27363996E-02
  0.18155882E-03  0.27527692E-02 -0.16811059E-02
  0.23718898E-02  0.17193491E-02 -0.10185678E-02
  0.98350904E-03 -0.69359754E-03  0.13638926E-03
  0.22895371E-03 -0.18179824E-03 -0.17195759E-02
 -0.13870521E-02 -0.10198635E-02 -0.47427655E-03
  0.54562210E-03 -0.21750914E-02 -0.70369437E-03
  0.13607717E-02 -0.22415447E-02 -0.32143181E-02
 -0.33415427E-02 -0.39021980E-02  0.10019544E-02
  0.24777799E-04  0.40712865E-02  0.48193705E-02
  0.22911741E-02 -0.33495131E-03  0.92354035E-03
  0.18380104E-03 -0.24145477E-02 -0.39025991E-02
  0.23006609E-02 -0.25230765E-03  0.14052345E-02
 -0.13575691E-02 -0.53634778E-03  0.47602727E-03
  0.19255220E-04  0.37767774E-03  0.94738539E-03
  0.21510799E-02 -0.17727229E-02  0.30550242E-02
 -0.11766193E-02  0.31654246E-02  0.88886777E-03
 -0.42772765E-03 -0.48783571E-03 -0.23752084E-03
  0.77335352E-03 -0.41195382E-03  0.35814651E-03
 -0.10450383E-02  0.27358053E-03  0.15679278E-02
 -0.32098831E-03 -0.47833782E-03 -0.70069291E-03
  0.13190871E-02 -0.19358244E-02 -0.11524042E-02
  0.28885926E-03 -0.49065841E-03 -0.95025966E-03
 -0.17549716E-03 -0.21924075E-02  0.14024787E-03
  0.89792846E-04 -0.88553923E-03 -0.13538724E-02
 -0.17367529E-02 -0.15339896E-03 -0.26180983E-02
  0.36424809E-02  0.65219750E-05  0.47488685E-03
 -0.11158029E-02  0.50451214E-03 -0.14926206E-02
 -0.12589259E-02  0.88558626E-04 -0.20994301E-02
 -0.53759884E-03  0.19463745E-02 -0.12139409E-02
 -0.10401622E-02  0.65198719E-03 -0.95067607E-03
 -0.33948313E-02 -0.82821786E-03 -0.19761949E-02
 -0.17338230E-02 -0.25472285E-02  0.15982324E-02
  0.45483579E-03  0.86660621E-03 -0.13760439E-02
 -0.33499279E-02 -0.14118010E-02  0.30831081E-02
 -0.12244568E-02  0.17831782E-02  0.48329455E-03
 -0.57615125E-03 -0.98988086E-03  0.39297838E-03
 -0.25517863E-02  0.10606169E-03  0.38891404E-03
  0.26633876E-02 -0.12219282E-03  0.48392293E-03
 -0.10658030E-03  0.46721674E-04 -0.75215405E-03
  0.17456837E-02 -0.11517916E-02  0.26400343E-02
 -0.78378469E-03 -0.11514003E-02  0.27356975E-02
 -0.12267863E-02  0.55276630E-03  0.62328151E-03
 -0.47620334E-02  0.24483345E-02 -0.44240717E-03
  0.36048727E-02 -0.36472191E-02  0.46488254E-02
  0.14982082E-02  0.58763989E-02  0.23888158E-02
 -0.30330520E-02 -0.12829918E-02  0.41109302E-02
  0.61753228E-02 -0.15089425E-02 -0.12129214E-02
  0.12256327E-02 -0.22319362E-02 -0.34930137E-02
  0.13322726E-02  0.39954237E-02 -0.23128645E-02
 -0.24951114E-02  0.87121435E-03  0.11361593E-02
  0.14464197E-03  0.26674133E-03  0.17641821E-03
 -0.21079089E-02  0.16700837E-02  0.15524458E-02
  0.21420154E-02 -0.28133594E-02  0.67050440E-03
 -0.22983810E-02  0.89085540E-03 -0.25684616E-02
  0.35333660E-02 -0.12184928E-02  0.39156194E-03
 -0.34235317E-02 -0.25182173E-02 -0.47158606E-03
 -0.17274082E-02  0.30810692E-02  0.53029964E-02
  0.28817026E-02  0.10923909E-02 -0.56679031E-02
  0.59972755E-02  0.20524769E-02  0.42170814E-03
 -0.11621473E-02  0.23097973E-02 -0.23864958E-02
  0.23950779E-02 -0.19831548E-02  0.10451262E-02
 -0.35014629E-03  0.11649077E-02 -0.92410442E-03
 -0.77096590E-03  0.84921052E-03 -0.47603592E-03
 -0.52711827E-03  0.15947367E-03 -0.20047497E-02
 -0.26671158E-03 -0.10751812E-02  0.60067838E-03
  0.15372789E-02  0.26587604E-02 -0.39353556E-02
  0.39275590E-02 -0.55253808E-03  0.56266468E-02
 -0.49511577E-02  0.43096532E-02 -0.40976384E-02
 -0.22062649E-02  0.17182822E-03 -0.17050029E-02
  0.28591950E-02  0.24340154E-02  0.32823211E-02
 -0.15455466E-02 -0.38093876E-03 -0.42879019E-02
  0.91294155E-03 -0.93948699E-03 -0.13075854E-02
  0.14791795E-02 -0.96629841E-03  0.11009266E-02
  0.48161466E-02 -0.12699800E-02  0.29356843E-03
  0.46089895E-02 -0.11961632E-03 -0.42954565E-02
  0.16652046E-02  0.14603516E-02 -0.40313689E-04
 -0.55469585E-02 -0.17765262E-02 -0.37764002E-02
 -0.27680285E-02 -0.25678585E-02 -0.15924030E-02
 -0.44621307E-02 -0.27431288E-02 -0.17672521E-02
 -0.40702394E-02 -0.28364369E-03  0.14697367E-02
  0.27535088E-02 -0.36435267E-02 -0.91567046E-03
 -0.36910762E-02  0.18996336E-02 -0.39196418E-02
  0.55938649E-02  0.24565952E-02  0.16652065E-02
  0.24769587E-02 -0.19235877E-02 -0.17940944E-02
 -0.83008997E-03 -0.20367149E-02  0.70394278E-02
  0.26379915E-03 -0.27261797E-02 -0.87548951E-03
 -0.13827021E-02 -0.62137437E-02  0.16667916E-02
 -0.68906075E-02  0.49289727E-02 -0.73741454E-03
  0.20432657E-04 -0.18406454E-02  0.19673535E-02
 -0.24925805E-02 -0.14447890E-02  0.42367162E-02
 -0.39716233E-02 -0.41059126E-02  0.13363044E-02
  0.13707687E-02 -0.22472908E-02  0.35154642E-02
  0.11310149E-02  0.53449280E-02 -0.20002496E-02
 -0.21346020E-02  0.17412055E-02  0.20953280E-02
 -0.45279654E-02 -0.14706631E-02 -0.23921401E-02
 -0.10625383E-02  0.13341298E-02 -0.15439987E-02
  0.50854558E-03 -0.26446218E-03  0.15689211E-02
 -0.29931111E-02  0.15973841E-02 -0.25997642E-02
 -0.13230445E-02  0.26455988E-02 -0.18310008E-02
  0.10476427E-03 -0.38649139E-02  0.32959246E-03
 -0.26852399E-02  0.22075915E-02 -0.78664691E-03
 -0.27903645E-02 -0.22461048E-02 -0.21204459E-02
 -0.39983667E-02 -0.32270582E-02  0.12355379E-03
  0.44689524E-03 -0.40275526E-02  0.13804864E-02
 -0.27126772E-02 -0.11160664E-02 -0.12895825E-02
  0.19111126E-02 -0.38361174E-02 -0.54419432E-03
 -0.22654235E-02 -0.30367951E-02 -0.55621496E-02
  0.38768014E-02  0.28914022E-02  0.17956594E-02
  0.20327705E-02 -0.16123567E-02  0.19982290E-02
 -0.29023219E-02 -0.36125539E-02  0.14198580E-02
  0.45350758E-03  0.17767853E-02 -0.90320871E-03
 -0.18994158E-02 -0.29140333E-02  0.17842005E-02
 -0.36459958E-02 -0.13048341E-02 -0.90342664E-03
  0.36565961E-03  0.32115098E-02  0.75604382E-03
 -0.54142851E-02 -0.70913716E-03  0.65490865E-03
 -0.29343940E-02  0.33771925E-02 -0.53465834E-03
 -0.54877318E-02 -0.38325722E-02 -0.62566471E-03
 -0.28991355E-02 -0.68080593E-03  0.12944481E-03
  0.25460349E-03  0.30320229E-02 -0.45692265E-02
  0.26235562E-02  0.24809001E-02 -0.15689880E-02
  0.28908291E-02  0.28198394E-02 -0.38017055E-02
  0.65337184E-02  0.21919179E-02 -0.38172894E-02
 -0.60602232E-02 -0.17890133E-03 -0.13752291E-02
 -0.51078301E-03  0.13201064E-02 -0.92127360E-03
  0.29000113E-02 -0.40255335E-02  0.15586841E-02
 -0.43752445E-02  0.37126180E-02  0.14094090E-02
 -0.61551239E-02 -0.23411243E-02 -0.14715708E-02
 -0.33845206E-02 -0.37405513E-02 -0.11307140E-03
  0.50967295E-02  0.48843708E-04  0.19232204E-02
 -0.20912471E-02 -0.14786487E-02 -0.29664929E-02
 -0.56965820E-02  0.26397281E-02  0.31760473E-02
  0.10316045E-02 -0.30083067E-02  0.33873148E-02
  0.68895436E-02 -0.16652624E-02 -0.41789825E-04
 -0.54331154E-03  0.40496189E-04 -0.30126119E-03
 -0.78145376E-03 -0.17646245E-02 -0.70976684E-03
  0.19914809E-02 -0.46617235E-03 -0.82877106E-03
 -0.33402779E-03 -0.10001121E-02 -0.23574981E-02
 -0.20838520E-02 -0.90337597E-03 -0.23180958E-02
 -0.17968379E-02  0.25055573E-02  0.72143067E-03
  0.27086266E-02  0.27129534E-02  0.18613799E-02
 -0.38253934E-03  0.26410842E-02  0.85799632E-03
  0.13044282E-02 -0.47062024E-02 -0.97009777E-03
 -0.24607745E-03  0.45663314E-03  0.69182165E-02
  0.19662747E-02 -0.17523864E-02  0.17869608E-03
  0.27093749E-02  0.53909224E-02 -0.24405227E-02
 -0.22547011E-03 -0.49984458E-02  0.13775792E-02
  0.29485481E-02  0.90797598E-03 -0.44426800E-02
 -0.44589553E-02  0.14195046E-02  0.27828731E-02
 -0.15723966E-02 -0.19483593E-02  0.49255996E-02
 -0.46213904E-02 -0.15682113E-02  0.15494519E-02
  0.31822725E-02 -0.23726830E-02  0.36297112E-04
 -0.34057927E-02  0.15956674E-02 -0.31403086E-02
 -0.28301857E-02 -0.23993446E-02  0.29245299E-02
 -0.40441894E-03 -0.25986558E-02 -0.40165342E-02