Amorphous Sb                            
   1.00000000000000     
    21.6271481478061496    0.0000000000000000    0.0000000000000000
     0.0000000000000000   21.6271481478061496    0.0000000000000000
     0.0000000000000000    0.0000000000000000   21.6271481478061496
   As   Te
   120   180
Direct
  0.7771524299428677  0.6826668102519171  0.5411991033410312
  0.7034919774202343  0.8447690032980960  0.5277460732818144
  0.9909981488102827  0.4981214016814663  0.6946261014376460
  0.4959264748946490  0.5197960517955951  0.6414600761780745
  0.8237566624725390  0.2790772651425433  0.2233933632366063
  0.1878083695520302  0.5096185695959267  0.9393921492446399
  0.4642612250590515  0.6241428876394700  0.1972883223540434
  0.5706336236383973  0.9693431264607140  0.4456541657823084
  0.5986931827575404  0.4143278731180084  0.5113216820504066
  0.1528980205599098  0.2041453740680987  0.0462500217549180
  0.5822569489019035  0.2920528226657838  0.9170796387585206
  0.0050717138748188  0.4539294950212853  0.5260212993208548
  0.2781988893407223  0.9030098930926740  0.4039155098834222
  0.8966713554681957  0.6308782015821157  0.0420677754855915
  0.3170439799206555  0.0555864200102738  0.5220968253512410
  0.2206159286954839  0.3335556384924754  0.7591695667254318
  0.0430116759826593  0.0188351646153508  0.7266174266057974
  0.3227246567029006  0.3942218334558487  0.1424789641481080
  0.9165499820984614  0.2978393880530145  0.7111160084871038
  0.5462606244926257  0.7133342979294911  0.6833455167042001
  0.8574799668234628  0.1692495220154745  0.5269480589027011
  0.8983470040473951  0.0416990158225663  0.6378903167163247
  0.3448142123719372  0.6128932689196315  0.3000889868714311
  0.9197616408993616  0.7393424965158952  0.0076949190934063
  0.5181359933678846  0.3257194702425837  0.3904056328884274
  0.5107363109701459  0.3184965108818815  0.7640136731216990
  0.5736557343764647  0.8770284090336081  0.1285882128211122
  0.1069586588137087  0.0132997769537084  0.2225606198696737
  0.1583363009531545  0.2823031984976671  0.5076648365300166
  0.6242186948501921  0.7093792481118590  0.1942534363156929
  0.9027206939695293  0.2945122659275599  0.1393332621668100
  0.1961476876807201  0.3263241659653878  0.6469508262780049
  0.0314585074394471  0.6187026775392563  0.5377080542497754
  0.6576972147250284  0.4193053570729960  0.3478315170256758
  0.0198094544065615  0.6389999055231981  0.8288534022827133
  0.2722454108832192  0.7358408331115368  0.5707030749336158
  0.8932830639360811  0.4969162798430226  0.5179093565870079
  0.6870744806796092  0.8622061446618690  0.1119049998347241
  0.8792372327052465  0.0193494597348721  0.8640273478510188
  0.6148686859359057  0.3139181159260503  0.3258695867837094
  0.0155730177880616  0.3302060195234408  0.0316673300212797
  0.3530660260304803  0.7150947165523888  0.4887530111665837
  0.8238550495268987  0.8974659832835981  0.9143574107559196
  0.7242711492285215  0.3339795651746216  0.5231404109349791
  0.1157208881416188  0.0284829178404570  0.0226704810262358
  0.7939654836799773  0.0596889435043716  0.7944943930579687
  0.7391051821312304  0.4481237579540702  0.0980279964484419
  0.5021248319922975  0.9446765666356584  0.5404181026629513
  0.1154029000075305  0.3748320439163643  0.8846881071077722
  0.0688419367439475  0.9087011553743854  0.6870526795162043
  0.0539618104220976  0.2304168817598436  0.9892761542476899
  0.6645866095931957  0.2110857968133289  0.2053180827603281
  0.3320834160107632  0.8974983892406572  0.5862268211694314
  0.2503444605439048  0.3187893496841113  0.2937857468335159
  0.1908484344707310  0.3969298941527350  0.9702979132218769
  0.3854282774350815  0.1480357876014901  0.0347987297599681
  0.5657788964327291  0.1140887331894170  0.9783950357626621
  0.5690845026077402  0.9396301477633524  0.2271575931614541
  0.8291813232801476  0.0684869998612062  0.9832360265315171
  0.8321402115326164  0.8288761847459188  0.1683231454504434
  0.4894170680425947  0.1971071850559544  0.1850922346812949
  0.6753642761964193  0.0949526054816611  0.1886103152454331
  0.1161052191128294  0.1044715602438149  0.8247034528717301
  0.0461236726608256  0.5930066142827712  0.6524908271449218
  0.6999045836015981  0.4286574553011563  0.4581821811168767
  0.3664973505965125  0.0464232167751434  0.9796421665505637
  0.7184331454765953  0.2598345412490893  0.4333497008131383
  0.9026896484575818  0.8452891235264691  0.8448638237122679
  0.5554994538951322  0.8427910010228598  0.2918308865677224
  0.1112158094979709  0.6840735145975608  0.7720355908483564
  0.4552505513838258  0.5098023514815500  0.2078371843481181
  0.2350880971600913  0.9024661355036322  0.5149907161078964
  0.9659768195661204  0.0111781779982765  0.3471739153006845
  0.4683285590592208  0.2861439072599342  0.9375326481792264
  0.4306182181052783  0.4066443131369759  0.0980882215837325
  0.9752415906472964  0.8512161447664272  0.4071015938334646
  0.1858734112117851  0.9563848197910376  0.0806221769985001
  0.2068200839110790  0.2289143729015527  0.7106602499025171
  0.8338439724821770  0.2336143788426372  0.6619470098211739
  0.4125564257795969  0.6298029168934760  0.9399343532482654
  0.2211713298450505  0.9901160613117331  0.7527207290021983
  0.4004447735937137  0.7093685844518725  0.0257229934583865
  0.2531699387182854  0.5654509368547922  0.0205191961746687
  0.8704158184536877  0.0521501889400732  0.5231922948154843
  0.7327247327586959  0.8356571307116577  0.6397120529208216
  0.4624564093257327  0.8687359010912354  0.3547576265233938
  0.5851913015687585  0.6954895608991061  0.4124811517999173
  0.8142678817558547  0.4150437415239185  0.0118486296615114
  0.7877255387480878  0.5156820490235411  0.9574433694402549
  0.7920040463856305  0.6025190694619015  0.6274654400605629
  0.1841311805102202  0.9150212661796573  0.6716273124120156
  0.1653153532476350  0.2858426414518609  0.1301346974401865
  0.3340849982838834  0.3506328870984381  0.7474160449559377
  0.7393245831698289  0.8821131536806261  0.2136615955904825
  0.9780989501055402  0.1058767216228109  0.2815201031387491
  0.4715681118069125  0.9973522412342162  0.9955355141119533
  0.8340959968813948  0.1664290256526900  0.2572747578143583
  0.0938988689127134  0.0996614484302105  0.3005521164732373
  0.8112338171497157  0.1727611286781859  0.0405056482854357
  0.1287730032510826  0.2628926608862758  0.9071231488619459
  0.4070531572254185  0.8944695212892718  0.4953719502977478
  0.8982705810049636  0.3870116483614375  0.6382754751457757
  0.3460136577614038  0.5093818925484730  0.2490423985517290
  0.2154109052149174  0.1790622623880923  0.3836946423369696
  0.7871677521893939  0.6604740476570579  0.3675698450938877
  0.3701319353815306  0.4352425836938061  0.3365702993877833
  0.0734815792532926  0.5300326957466349  0.4755802319708943
  0.3116155690195993  0.2378291491245986  0.3505363024749408
  0.8157198019355894  0.4329439368532387  0.7059855628614167
  0.2639541770093662  0.4051963223927953  0.3718489164940409
  0.6811505387572988  0.9857889360256319  0.9309318451466643
  0.5783252045197965  0.2567895960515972  0.1429170607874212
  0.9876989377512596  0.5878035153324555  0.1022029817484170
  0.6647672406822207  0.7157793269741862  0.6854073871551565
  0.8020197950758695  0.6935064966380191  0.2564526137495511
  0.5315393234300544  0.7771643522961290  0.1694481809062707
  0.0114958215424443  0.0553730526071692  0.6203045451732078
  0.1965143449106028  0.1737853775682013  0.5005218090954887
  0.8103990359765503  0.5346250276991503  0.1285441759522954
  0.9157838212741739  0.8697114639992048  0.2360758635229463
  0.0926522427896032  0.9350197066096312  0.3251507619392253
  0.5753784669301049  0.5925107711239966  0.4854917422061281
  0.6862852307373629  0.6145218975673996  0.8538093601468578
  0.1349109465600113  0.4825558233847734  0.6305040270046646
  0.3633337786766224  0.6351813594683969  0.1186657226214056
  0.9847528950615279  0.0613126123870149  0.4604790990785727
  0.7334079220620252  0.1630348227480113  0.5073414644753855
  0.8480494226681883  0.9781152484297363  0.3271030880493612
  0.7348137747022729  0.1361000665927309  0.8757676743764530
  0.1341732295650033  0.6066566244418490  0.1688553860273461
  0.0053473124882563  0.3603365561143946  0.4472440873414430
  0.6265756185343609  0.9994845883467208  0.6263679518721048
  0.8081623493586901  0.9354851750955420  0.6475303544197675
  0.2156304053247484  0.8171420520000484  0.7393656546393516
  0.6193116239752297  0.8661063403134590  0.3967366097380425
  0.7156982908447290  0.7819138167832471  0.2813296087783620
  0.0894833325215453  0.6708031495614202  0.3681325191238434
  0.1400182680165312  0.2002897960479026  0.2468429365682134
  0.6172574331060197  0.0719076000182440  0.8638898741834395
  0.6093877845566934  0.3901157581306042  0.7774189334335592
  0.0197658779721323  0.2289809725879866  0.6408540393785686
  0.4223754589573516  0.5519457012893542  0.7350323400442803
  0.2126932407932809  0.6401992653276429  0.8299637480416604
  0.8191100712337728  0.7485120744471424  0.6384153764122523
  0.9642861757370095  0.4183441374963458  0.3341793204770545
  0.8880203918017086  0.1372901172712610  0.7215507186043875
  0.6386427429169237  0.2128988697108508  0.9934501987544179
  0.2021055674420754  0.6585342350538336  0.5047730581595120
  0.1957756026983271  0.0214664639015990  0.5188061739679518
  0.1978882125012844  0.4789867247272285  0.2956665078733339
  0.9618103148364882  0.6760123273022260  0.6992912318204325
  0.3225897586965281  0.1947741384141760  0.6803155121080317
  0.2879866350499671  0.1229455790828419  0.1106865731056561
  0.2573053968012886  0.5474104417195009  0.5416960705276326
  0.4853945009361122  0.7083625290854013  0.8792794784401721
  0.5381438686285156  0.1347709883657912  0.4672775382318249
  0.6029469211195193  0.8981281847490891  0.9522591135237934
  0.9233895393898134  0.5696916592439434  0.9401693158688484
  0.8424613723472257  0.7096307590708182  0.9170817927454824
  0.2326284821705197  0.5896947711362710  0.3505842664572759
  0.0517281229271592  0.5225475164515315  0.7989278894228555
  0.8451026009464022  0.4529197949067132  0.4127436393220039
  0.3889390965339240  0.7494091676883682  0.6975913243204174
  0.4986071761911713  0.9645986608869620  0.8808856069217520
  0.2030147325284281  0.6998228041909937  0.2303747139661320
  0.0375222744079967  0.9452428683402990  0.5712682090428383
  0.4466953940210578  0.7843566559839479  0.5323575250687079
  0.3409876443825473  0.0802962451406295  0.3828050245722083
  0.6845982953950995  0.0923243655200026  0.6920542659002266
  0.8836421313060305  0.4647235332028379  0.2017763576534136
  0.0550546017402738  0.3863672682996315  0.2405180353245995
  0.8490224133823202  0.3359765021866349  0.5315643677394323
  0.4690194619087976  0.8901427221887226  0.6882274921727564
  0.0240794011828874  0.5592357485602152  0.3644856951974288
  0.7736944333367423  0.0544714665054442  0.3985443628385490
  0.4907968781893940  0.9889037711254790  0.3572074941507997
  0.5154910395250514  0.4482340039010029  0.4250503848789425
  0.6846984696659890  0.5366806790793652  0.0294506130633956
  0.6800293800534688  0.7492320267423355  0.8049270684075693
  0.3842019484164231  0.4703223543084345  0.0062538437459342
  0.9835802766540754  0.8748337090583598  0.9321839176289322
  0.6962018929679736  0.7419737585471415  0.0980564253617157
  0.6868644135895673  0.5926346932368141  0.6954892403449996
  0.3270852979110236  0.6469753092794485  0.6356886715097458
  0.2492280890498288  0.0159443552986803  0.2396720498207343
  0.3447871043773801  0.3863609023976011  0.8666246366721957
  0.5045406587551894  0.3130075631046392  0.6407236422024800
  0.2897622880140242  0.5038572530270611  0.8663124514729116
  0.0524635456630334  0.6049714250309894  0.9500784457743026
  0.4223509058472710  0.8925112865487757  0.0442120418391293
  0.7982913560774610  0.0961095802411267  0.1632472572507439
  0.7439257015605171  0.3314123883974638  0.9528746985558237
  0.7657361347120882  0.4923930985233779  0.5782025827530384
  0.9014906958703125  0.7902537356965963  0.3297590043571564
  0.5232403573005436  0.0011245216452765  0.7199562500369239
  0.0593013898533636  0.9358242609113328  0.0801602991488366
  0.3243967806250440  0.9949115756279300  0.0841556388287714
  0.5543414336434918  0.3484412730945189  0.2239134648566584
  0.8383270657922742  0.3495846560183019  0.8015420857671590
  0.0041866752514073  0.3947193694898573  0.9296768643482215
  0.2207772966581549  0.0206183610121304  0.3735930336040380
  0.7276220778986564  0.1503952777602633  0.3183864695788435
  0.3688600708529244  0.3107508502572895  0.4346415469396176
  0.3861628662144131  0.8376328978512653  0.9320941468998313
  0.2938299034305683  0.8152163006120455  0.1010012836293954
  0.4668046177541622  0.6099398068472899  0.5607017357453038
  0.6040792708956944  0.3989443220489882  0.9760472244546747
  0.6055329105390787  0.4964710951585587  0.1687298106438833
  0.7467307165502567  0.9912019001619359  0.5465400081378559
  0.3366808283074977  0.0098040941632318  0.6351845733583890
  0.4529830954683851  0.9711878903909741  0.1999804067724627
  0.6618846673991839  0.7257171888861640  0.5343261123930286
  0.7987706310935913  0.5401479845406539  0.3202918605596897
  0.5488647481451960  0.1253689610320525  0.2661481079608974
  0.9647269756997612  0.7776287847188257  0.6121229469926818
  0.8772755421155165  0.9018058769804732  0.0779142483312819
  0.2205675792103481  0.5170918733346017  0.1300484888302680
  0.7418919522669166  0.2737346704493093  0.1332839965914429
  0.3246602609041525  0.1204121227411372  0.2537270337643609
  0.0102334727829704  0.2720730122017982  0.2016610347277388
  0.6363820317133970  0.2080231055068678  0.6561804807641372
  0.5195456265609597  0.7397525979195867  0.0474502206025007
  0.9024857627870968  0.8773723340851206  0.5062557288087899
  0.6706910800055160  0.6183509018956044  0.3649549563434011
  0.2019631915380369  0.5008719731627645  0.7423832570173839
  0.0765500843482303  0.3547795865460985  0.6515959165622283
  0.4630321401604819  0.0618209921314442  0.5466554278067292
  0.2855084138270579  0.3301030556039499  0.5321180581310258
  0.8328612110917127  0.2854277620173653  0.3903629419242418
  0.9128486908526435  0.6169529088284155  0.5069072864539178
  0.7691216983969218  0.9832698503335786  0.0567641521925242
  0.9474113677308627  0.0431239149942160  0.0079186309984464
  0.3568414897373655  0.9064825584425810  0.7679347939389115
  0.3896593235932930  0.0191339517231024  0.8178353180701059
  0.1102955389552265  0.7995724809145486  0.8136651246002230
  0.1500454630930421  0.0811463218961162  0.7050180516700773
  0.0963966824720965  0.1140177624794661  0.1117145414360153
  0.3806298018744109  0.8802643701565576  0.2637224818735383
  0.7388075090715713  0.4866091139796143  0.8518174102417980
  0.5492351449208585  0.4963668018889220  0.2909833797411179
  0.1317072853435285  0.8107203458570147  0.4945731353556846
  0.7452245758980799  0.2796873530617645  0.7362187988845479
  0.9220299675408536  0.1799627420982834  0.0942174864606809
  0.8411393973326312  0.2437762805328346  0.9385303338571594
  0.4703104084980868  0.1663353734258723  0.9096654129114159
  0.5976401394896249  0.6488827133947489  0.9511618022756843
  0.5704477689326153  0.2895587139449999  0.4960303393865755
  0.3661215894751481  0.3397269337735209  0.2461874292582308
  0.3162119381115200  0.4624604742460807  0.6865560720564509
  0.9854190664780934  0.8063683606288680  0.1497074320777882
  0.0188028959667941  0.7423032926021016  0.4551483147982404
  0.2397828703980821  0.7183807453727965  0.9293250497821127
  0.0217034673873642  0.7077990575583112  0.2236903576256545
  0.3559173454889064  0.5038649959591232  0.4595099813106752
  0.9031537710004710  0.1783203409113882  0.4140600668985729
  0.3665056349822103  0.7564836050221385  0.1904090784792214
  0.4693326728748847  0.1704831445339607  0.3645281022418774
  0.5673388277993390  0.6153257327320009  0.1236258813757909
  0.1376613230824233  0.2743763770679127  0.3807945465070853
  0.2213583163666825  0.1058500080426372  0.8880006726291185
  0.5411536465595698  0.6135339140545578  0.7548081611425770
  0.7553879671235966  0.7994981399636131  0.9482662654500731
  0.3125025165116494  0.1826310249436359  0.5402420163251392
  0.5519093775243940  0.4569980359900193  0.8718530861529936
  0.3680822496904625  0.2222024880319899  0.8068574483812071
  0.6329379046745682  0.4954890418669483  0.6095076748467032
  0.7418407009165839  0.9410584916095589  0.8290197795215116
  0.5609956129603728  0.8081392379958169  0.7634891218255127
  0.4850052411781814  0.1078524523495008  0.0989548014977306
  0.4999645342275726  0.5520016773946669  0.9813038107612427
  0.7588519850722570  0.4018756096243127  0.2832023886010058
  0.0272225505070560  0.7500000365131591  0.9475547333224705
  0.1871576814206701  0.8439303745515082  0.3462205232694248
  0.2653647646058928  0.2286239287380196  0.8853904262223508
  0.3625499569961995  0.7256615475488293  0.8217906381863670
  0.1784468070946734  0.6632762186342925  0.0305256849894758
  0.5551770801029585  0.2044475842942232  0.7618868115527953
  0.9188236221737300  0.9452333502699434  0.7697623976574901
  0.9840221288454145  0.0213866624605554  0.1909883017005476
  0.4366639687886367  0.4142601589112616  0.5978769926675330
  0.5051968220801195  0.6899193265951014  0.3174488430740581
  0.9442063238895491  0.4737157132346806  0.0844702533527287
  0.9587137208287407  0.1088783464020811  0.8954271129565161
  0.7324338252515024  0.5997774165274751  0.2060381796079975
  0.7966630328855776  0.8231443337676486  0.4490716438200110
  0.2828290175089355  0.9162221812539674  0.9062190396283349
  0.6424501810375113  0.0498892462205791  0.0775654225061028
  0.1741502147779679  0.7979805384926315  0.1545981843032803
  0.3170403480754245  0.7733281474940079  0.3879432570292864
  0.1485749879063076  0.9662122570258628  0.8476071636231586
  0.1159745210586637  0.3931802859581734  0.0696573759662435
  0.2825336127734473  0.2907126786816567  0.0865491902042018
  0.9402415326400601  0.6059553355934642  0.2151458164614052
  0.0799641685156570  0.2249178903998502  0.8022578314734833
  0.0439450846145721  0.2209716054935720  0.5145245599071295
  0.8807282894861757  0.5312780008685271  0.7417993453521300
  0.1972472268477853  0.8689765375737775  0.9940141821699520
  0.4442900313400401  0.2870728164446698  0.0592209417308455
  0.4248198830040343  0.5993413535216551  0.3938688335984806
  0.0989814729262071  0.7830150297790484  0.6200365428995067
 
  0.00000000E+00  0.00000000E+00  0.00000000E+00
  0.00000000E+00  0.00000000E+00  0.00000000E+00
  0.00000000E+00  0.00000000E+00  0.00000000E+00
  0.00000000E+00  0.00000000E+00  0.00000000E+00
  0.00000000E+00  0.00000000E+00  0.00000000E+00
  0.00000000E+00  0.00000000E+00  0.00000000E+00
  0.00000000E+00  0.00000000E+00  0.00000000E+00
  0.00000000E+00  0.00000000E+00  0.00000000E+00
  0.00000000E+00  0.00000000E+00  0.00000000E+00
  0.00000000E+00  0.00000000E+00  0.00000000E+00
  0.00000000E+00  0.00000000E+00  0.00000000E+00
  0.00000000E+00  0.00000000E+00  0.00000000E+00
  0.00000000E+00  0.00000000E+00  0.00000000E+00
  0.00000000E+00  0.00000000E+00  0.00000000E+00
  0.00000000E+00  0.00000000E+00  0.00000000E+00
  0.00000000E+00  0.00000000E+00  0.00000000E+00
  0.00000000E+00  0.00000000E+00  0.00000000E+00
  0.00000000E+00  0.00000000E+00  0.00000000E+00
  0.00000000E+00  0.00000000E+00  0.00000000E+00
  0.00000000E+00  0.00000000E+00  0.00000000E+00
  0.00000000E+00  0.00000000E+00  0.00000000E+00
  0.00000000E+00  0.00000000E+00  0.00000000E+00
  0.00000000E+00  0.00000000E+00  0.00000000E+00
  0.00000000E+00  0.00000000E+00  0.00000000E+00
  0.00000000E+00  0.00000000E+00  0.00000000E+00
  0.00000000E+00  0.00000000E+00  0.00000000E+00
  0.00000000E+00  0.00000000E+00  0.00000000E+00
  0.00000000E+00  0.00000000E+00  0.00000000E+00
  0.00000000E+00  0.00000000E+00  0.00000000E+00
  0.00000000E+00  0.00000000E+00  0.00000000E+00
  0.00000000E+00  0.00000000E+00  0.00000000E+00
  0.00000000E+00  0.00000000E+00  0.00000000E+00
  0.00000000E+00  0.00000000E+00  0.00000000E+00
  0.00000000E+00  0.00000000E+00  0.00000000E+00
  0.00000000E+00  0.00000000E+00  0.00000000E+00
  0.00000000E+00  0.00000000E+00  0.00000000E+00
  0.00000000E+00  0.00000000E+00  0.00000000E+00
  0.00000000E+00  0.00000000E+00  0.00000000E+00
  0.00000000E+00  0.00000000E+00  0.00000000E+00
  0.00000000E+00  0.00000000E+00  0.00000000E+00
  0.00000000E+00  0.00000000E+00  0.00000000E+00
  0.00000000E+00  0.00000000E+00  0.00000000E+00
  0.00000000E+00  0.00000000E+00  0.00000000E+00
  0.00000000E+00  0.00000000E+00  0.00000000E+00
  0.00000000E+00  0.00000000E+00  0.00000000E+00
  0.00000000E+00  0.00000000E+00  0.00000000E+00
  0.00000000E+00  0.00000000E+00  0.00000000E+00
  0.00000000E+00  0.00000000E+00  0.00000000E+00
  0.00000000E+00  0.00000000E+00  0.00000000E+00
  0.00000000E+00  0.00000000E+00  0.00000000E+00
  0.00000000E+00  0.00000000E+00  0.00000000E+00
  0.00000000E+00  0.00000000E+00  0.00000000E+00
  0.00000000E+00  0.00000000E+00  0.00000000E+00
  0.00000000E+00  0.00000000E+00  0.00000000E+00
  0.00000000E+00  0.00000000E+00  0.00000000E+00
  0.00000000E+00  0.00000000E+00  0.00000000E+00
  0.00000000E+00  0.00000000E+00  0.00000000E+00
  0.00000000E+00  0.00000000E+00  0.00000000E+00
  0.00000000E+00  0.00000000E+00  0.00000000E+00
  0.00000000E+00  0.00000000E+00  0.00000000E+00
  0.00000000E+00  0.00000000E+00  0.00000000E+00
  0.00000000E+00  0.00000000E+00  0.00000000E+00
  0.00000000E+00  0.00000000E+00  0.00000000E+00
  0.00000000E+00  0.00000000E+00  0.00000000E+00
  0.00000000E+00  0.00000000E+00  0.00000000E+00
  0.00000000E+00  0.00000000E+00  0.00000000E+00
  0.00000000E+00  0.00000000E+00  0.00000000E+00
  0.00000000E+00  0.00000000E+00  0.00000000E+00
  0.00000000E+00  0.00000000E+00  0.00000000E+00
  0.00000000E+00  0.00000000E+00  0.00000000E+00
  0.00000000E+00  0.00000000E+00  0.00000000E+00
  0.00000000E+00  0.00000000E+00  0.00000000E+00
  0.00000000E+00  0.00000000E+00  0.00000000E+00
  0.00000000E+00  0.00000000E+00  0.00000000E+00
  0.00000000E+00  0.00000000E+00  0.00000000E+00
  0.00000000E+00  0.00000000E+00  0.00000000E+00
  0.00000000E+00  0.00000000E+00  0.00000000E+00
  0.00000000E+00  0.00000000E+00  0.00000000E+00
  0.00000000E+00  0.00000000E+00  0.00000000E+00
  0.00000000E+00  0.00000000E+00  0.00000000E+00
  0.00000000E+00  0.00000000E+00  0.00000000E+00
  0.00000000E+00  0.00000000E+00  0.00000000E+00
  0.00000000E+00  0.00000000E+00  0.00000000E+00
  0.00000000E+00  0.00000000E+00  0.00000000E+00
  0.00000000E+00  0.00000000E+00  0.00000000E+00
  0.00000000E+00  0.00000000E+00  0.00000000E+00
  0.00000000E+00  0.00000000E+00  0.00000000E+00
  0.00000000E+00  0.00000000E+00  0.00000000E+00
  0.00000000E+00  0.00000000E+00  0.00000000E+00
  0.00000000E+00  0.00000000E+00  0.00000000E+00
  0.00000000E+00  0.00000000E+00  0.00000000E+00
  0.00000000E+00  0.00000000E+00  0.00000000E+00
  0.00000000E+00  0.00000000E+00  0.00000000E+00
  0.00000000E+00  0.00000000E+00  0.00000000E+00
  0.00000000E+00  0.00000000E+00  0.00000000E+00
  0.00000000E+00  0.00000000E+00  0.00000000E+00
  0.00000000E+00  0.00000000E+00  0.00000000E+00
  0.00000000E+00  0.00000000E+00  0.00000000E+00
  0.00000000E+00  0.00000000E+00  0.00000000E+00
  0.00000000E+00  0.00000000E+00  0.00000000E+00
  0.00000000E+00  0.00000000E+00  0.00000000E+00
  0.00000000E+00  0.00000000E+00  0.00000000E+00
  0.00000000E+00  0.00000000E+00  0.00000000E+00
  0.00000000E+00  0.00000000E+00  0.00000000E+00
  0.00000000E+00  0.00000000E+00  0.00000000E+00
  0.00000000E+00  0.00000000E+00  0.00000000E+00
  0.00000000E+00  0.00000000E+00  0.00000000E+00
  0.00000000E+00  0.00000000E+00  0.00000000E+00
  0.00000000E+00  0.00000000E+00  0.00000000E+00
  0.00000000E+00  0.00000000E+00  0.00000000E+00
  0.00000000E+00  0.00000000E+00  0.00000000E+00
  0.00000000E+00  0.00000000E+00  0.00000000E+00
  0.00000000E+00  0.00000000E+00  0.00000000E+00
  0.00000000E+00  0.00000000E+00  0.00000000E+00
  0.00000000E+00  0.00000000E+00  0.00000000E+00
  0.00000000E+00  0.00000000E+00  0.00000000E+00
  0.00000000E+00  0.00000000E+00  0.00000000E+00
  0.00000000E+00  0.00000000E+00  0.00000000E+00
  0.00000000E+00  0.00000000E+00  0.00000000E+00
  0.00000000E+00  0.00000000E+00  0.00000000E+00
  0.00000000E+00  0.00000000E+00  0.00000000E+00
  0.00000000E+00  0.00000000E+00  0.00000000E+00
  0.00000000E+00  0.00000000E+00  0.00000000E+00
  0.00000000E+00  0.00000000E+00  0.00000000E+00
  0.00000000E+00  0.00000000E+00  0.00000000E+00
  0.00000000E+00  0.00000000E+00  0.00000000E+00
  0.00000000E+00  0.00000000E+00  0.00000000E+00
  0.00000000E+00  0.00000000E+00  0.00000000E+00
  0.00000000E+00  0.00000000E+00  0.00000000E+00
  0.00000000E+00  0.00000000E+00  0.00000000E+00
  0.00000000E+00  0.00000000E+00  0.00000000E+00
  0.00000000E+00  0.00000000E+00  0.00000000E+00
  0.00000000E+00  0.00000000E+00  0.00000000E+00
  0.00000000E+00  0.00000000E+00  0.00000000E+00
  0.00000000E+00  0.00000000E+00  0.00000000E+00
  0.00000000E+00  0.00000000E+00  0.00000000E+00
  0.00000000E+00  0.00000000E+00  0.00000000E+00
  0.00000000E+00  0.00000000E+00  0.00000000E+00
  0.00000000E+00  0.00000000E+00  0.00000000E+00
  0.00000000E+00  0.00000000E+00  0.00000000E+00
  0.00000000E+00  0.00000000E+00  0.00000000E+00
  0.00000000E+00  0.00000000E+00  0.00000000E+00
  0.00000000E+00  0.00000000E+00  0.00000000E+00
  0.00000000E+00  0.00000000E+00  0.00000000E+00
  0.00000000E+00  0.00000000E+00  0.00000000E+00
  0.00000000E+00  0.00000000E+00  0.00000000E+00
  0.00000000E+00  0.00000000E+00  0.00000000E+00
  0.00000000E+00  0.00000000E+00  0.00000000E+00
  0.00000000E+00  0.00000000E+00  0.00000000E+00
  0.00000000E+00  0.00000000E+00  0.00000000E+00
  0.00000000E+00  0.00000000E+00  0.00000000E+00
  0.00000000E+00  0.00000000E+00  0.00000000E+00
  0.00000000E+00  0.00000000E+00  0.00000000E+00
  0.00000000E+00  0.00000000E+00  0.00000000E+00
  0.00000000E+00  0.00000000E+00  0.00000000E+00
  0.00000000E+00  0.00000000E+00  0.00000000E+00
  0.00000000E+00  0.00000000E+00  0.00000000E+00
  0.00000000E+00  0.00000000E+00  0.00000000E+00
  0.00000000E+00  0.00000000E+00  0.00000000E+00
  0.00000000E+00  0.00000000E+00  0.00000000E+00
  0.00000000E+00  0.00000000E+00  0.00000000E+00
  0.00000000E+00  0.00000000E+00  0.00000000E+00
  0.00000000E+00  0.00000000E+00  0.00000000E+00
  0.00000000E+00  0.00000000E+00  0.00000000E+00
  0.00000000E+00  0.00000000E+00  0.00000000E+00
  0.00000000E+00  0.00000000E+00  0.00000000E+00
  0.00000000E+00  0.00000000E+00  0.00000000E+00
  0.00000000E+00  0.00000000E+00  0.00000000E+00
  0.00000000E+00  0.00000000E+00  0.00000000E+00
  0.00000000E+00  0.00000000E+00  0.00000000E+00
  0.00000000E+00  0.00000000E+00  0.00000000E+00
  0.00000000E+00  0.00000000E+00  0.00000000E+00
  0.00000000E+00  0.00000000E+00  0.00000000E+00
  0.00000000E+00  0.00000000E+00  0.00000000E+00
  0.00000000E+00  0.00000000E+00  0.00000000E+00
  0.00000000E+00  0.00000000E+00  0.00000000E+00
  0.00000000E+00  0.00000000E+00  0.00000000E+00
  0.00000000E+00  0.00000000E+00  0.00000000E+00
  0.00000000E+00  0.00000000E+00  0.00000000E+00
  0.00000000E+00  0.00000000E+00  0.00000000E+00
  0.00000000E+00  0.00000000E+00  0.00000000E+00
  0.00000000E+00  0.00000000E+00  0.00000000E+00
  0.00000000E+00  0.00000000E+00  0.00000000E+00
  0.00000000E+00  0.00000000E+00  0.00000000E+00
  0.00000000E+00  0.00000000E+00  0.00000000E+00
  0.00000000E+00  0.00000000E+00  0.00000000E+00
  0.00000000E+00  0.00000000E+00  0.00000000E+00
  0.00000000E+00  0.00000000E+00  0.00000000E+00
  0.00000000E+00  0.00000000E+00  0.00000000E+00
  0.00000000E+00  0.00000000E+00  0.00000000E+00
  0.00000000E+00  0.00000000E+00  0.00000000E+00
  0.00000000E+00  0.00000000E+00  0.00000000E+00
  0.00000000E+00  0.00000000E+00  0.00000000E+00
  0.00000000E+00  0.00000000E+00  0.00000000E+00
  0.00000000E+00  0.00000000E+00  0.00000000E+00
  0.00000000E+00  0.00000000E+00  0.00000000E+00
  0.00000000E+00  0.00000000E+00  0.00000000E+00
  0.00000000E+00  0.00000000E+00  0.00000000E+00
  0.00000000E+00  0.00000000E+00  0.00000000E+00
  0.00000000E+00  0.00000000E+00  0.00000000E+00
  0.00000000E+00  0.00000000E+00  0.00000000E+00
  0.00000000E+00  0.00000000E+00  0.00000000E+00
  0.00000000E+00  0.00000000E+00  0.00000000E+00
  0.00000000E+00  0.00000000E+00  0.00000000E+00
  0.00000000E+00  0.00000000E+00  0.00000000E+00
  0.00000000E+00  0.00000000E+00  0.00000000E+00
  0.00000000E+00  0.00000000E+00  0.00000000E+00
  0.00000000E+00  0.00000000E+00  0.00000000E+00
  0.00000000E+00  0.00000000E+00  0.00000000E+00
  0.00000000E+00  0.00000000E+00  0.00000000E+00
  0.00000000E+00  0.00000000E+00  0.00000000E+00
  0.00000000E+00  0.00000000E+00  0.00000000E+00
  0.00000000E+00  0.00000000E+00  0.00000000E+00
  0.00000000E+00  0.00000000E+00  0.00000000E+00
  0.00000000E+00  0.00000000E+00  0.00000000E+00
  0.00000000E+00  0.00000000E+00  0.00000000E+00
  0.00000000E+00  0.00000000E+00  0.00000000E+00
  0.00000000E+00  0.00000000E+00  0.00000000E+00
  0.00000000E+00  0.00000000E+00  0.00000000E+00
  0.00000000E+00  0.00000000E+00  0.00000000E+00
  0.00000000E+00  0.00000000E+00  0.00000000E+00
  0.00000000E+00  0.00000000E+00  0.00000000E+00
  0.00000000E+00  0.00000000E+00  0.00000000E+00
  0.00000000E+00  0.00000000E+00  0.00000000E+00
  0.00000000E+00  0.00000000E+00  0.00000000E+00
  0.00000000E+00  0.00000000E+00  0.00000000E+00
  0.00000000E+00  0.00000000E+00  0.00000000E+00
  0.00000000E+00  0.00000000E+00  0.00000000E+00
  0.00000000E+00  0.00000000E+00  0.00000000E+00
  0.00000000E+00  0.00000000E+00  0.00000000E+00
  0.00000000E+00  0.00000000E+00  0.00000000E+00
  0.00000000E+00  0.00000000E+00  0.00000000E+00