Amorphous Sb                            
   1.00000000000000     
    20.1278896331999988    0.0000000000000000    0.0000000000000000
     0.0000000000000000   20.1278896331999988    0.0000000000000000
     0.0000000000000000    0.0000000000000000   20.1278896331999988
   Ge   Se   C 
   146   150     4
Direct
  0.5133207855996230  0.6717507579635729  0.8191105571141356
  0.2128801976408522  0.4327358437197237  0.8091734329831823
  0.3907993609728440  0.3209143900844282  0.6072098726993860
  0.8134734139441638  0.9866871448708268  0.6154009141157888
  0.9118041218345246  0.6609236700201158  0.7362830482130799
  0.2018314173973982  0.6989311873584102  0.9748984610530675
  0.1418155711459163  0.1410417877709746  0.3821879324226538
  0.3320499290559024  0.6210050494549212  0.8168878908213205
  0.3499591285549655  0.8699412696032903  0.2212238262663285
  0.3736429268477364  0.0138843611397850  0.4216187596841131
  0.9923193427693379  0.0889920381299139  0.4452518321173390
  0.6158476533159706  0.3297309707558271  0.8409556132789968
  0.6536846828393892  0.4239261073998045  0.6058528904245146
  0.2771297580059886  0.0007974256787859  0.8287494684163176
  0.6571409862164135  0.9092576692785761  0.4280864041710017
  0.0402388209717436  0.7835177294501005  0.0958600827079527
  0.0222896318696765  0.7656336136209436  0.3276582214954740
  0.1230585875385087  0.4595401750059740  0.9745668085122986
  0.0612063668919890  0.9211919811671582  0.4810565762084869
  0.1479122745022750  0.8433401813688161  0.2097293065695304
  0.4399689943203482  0.7452793630331215  0.9815543462102084
  0.9749226585205935  0.1622392251854668  0.9278442245696135
  0.0412696154463133  0.0821544967927088  0.1231343433232077
  0.5499085239544099  0.3216783602522315  0.1948055741822303
  0.3735799532734784  0.1345920235725099  0.5826948864083484
  0.4070925223880064  0.7470734332676382  0.5494569329947596
  0.8025137404952345  0.9253628906671971  0.0016166167502903
  0.8666171489483686  0.6259256910056989  0.6236478892011332
  0.9522314593630913  0.7952881716623823  0.5777694035183454
  0.0768766625994544  0.3454166725340223  0.7679917448794584
  0.0469259718187702  0.1062192966855867  0.2522002067686605
  0.8313142710893352  0.3982857318308723  0.3838153064238564
  0.3724175827921338  0.4343469845933580  0.2832156075864593
  0.0131793822752743  0.5642797487539166  0.5792208746945591
  0.7605106137861410  0.7250880616865205  0.1511184055944359
  0.4542917057569115  0.4665310511126897  0.9173840651202017
  0.2903765499539581  0.0676436550591942  0.2102622984611242
  0.2674001719608523  0.3629136072750227  0.1347777415614249
  0.7507156004187190  0.3690160457077812  0.7768588045053599
  0.8237760638804889  0.7986464584654867  0.3866468722943865
  0.8775768520635180  0.2199938245257301  0.5816934488448126
  0.5810399950277738  0.8149224788740052  0.5574344447249719
  0.3719801459050989  0.9833785387417135  0.0744927506133515
  0.3846862099179392  0.6886983572562619  0.1550556856136797
  0.3951438000257205  0.4620329379181645  0.4927676049643063
  0.9034253001668360  0.8184930843284877  0.1875792959389205
  0.0523202746070399  0.3573999712836367  0.4118720282425281
  0.0079761288526106  0.7638677863879684  0.8099669542511910
  0.5449064384553548  0.0762521778265620  0.2971446624814387
  0.2668144570485114  0.4360636992567597  0.9498412370255098
  0.0643056343447709  0.2754458897237161  0.1505019435045677
  0.6333630414761371  0.7187850890260755  0.8582043444195714
  0.5845737956196368  0.2919189182390092  0.7214015303649448
  0.0576810566167768  0.5568263890393989  0.3355378057115740
  0.0336947762136504  0.9302260463470766  0.2177973331562703
  0.1774099668023626  0.5804548108424971  0.4513327427371898
  0.9096989625209754  0.3477856355781548  0.5524164966190657
  0.0988896996573483  0.0694415375216737  0.8130110706595316
  0.4950020463413426  0.4485186030869861  0.3252237869683574
  0.6910422137976837  0.0954317596053016  0.1390410180386085
  0.5514595566745741  0.7123651899722044  0.2228135021179312
  0.9241744987448542  0.6770484166925711  0.3072508635709520
  0.8612998913416912  0.0159995929908249  0.8268375100031791
  0.5610663391265492  0.8238801061720793  0.0240529338577088
  0.0835501465490272  0.3407496766622302  0.9421381779149870
  0.8045722611514063  0.8253485020954051  0.5261831695261697
  0.7219065554002267  0.6921942510478757  0.6992811632731893
  0.8124260510091597  0.2377077231964184  0.1547666026472163
  0.8482663837366908  0.3277017888477838  0.0386301173888672
  0.9548488580256450  0.4421331652435179  0.7170142006080005
  0.4242072834926617  0.1631006820409724  0.1235390869195902
  0.3478323758419157  0.5638187979489072  0.4271175328550499
  0.5016222347634917  0.8029790677738763  0.4012546882052684
  0.3267862733038420  0.4604649520804174  0.6551288956626662
  0.6769631815814582  0.9529489712704289  0.0918507437227451
  0.2610400271920286  0.2377383743310992  0.1748598626011507
  0.8772298840860749  0.0526403260587691  0.0690005103298394
  0.2670058918851804  0.8483359580463308  0.9186089872678180
  0.3752739344325451  0.2663810690289019  0.0180210656758491
  0.6517301631256396  0.9937833785367743  0.8780995033784428
  0.9643987510250287  0.5987853729651205  0.8455864307188181
  0.8121189411608241  0.4896238037760002  0.0628066888912488
  0.3237747141664145  0.0855680806301990  0.6964794264972307
  0.6040212298833174  0.1337718214660452  0.0214599554798166
  0.5176367391409219  0.6644777763338229  0.6435104440197907
  0.7324964712738272  0.2812713483578318  0.4853802741443867
  0.6434219742934106  0.5612207362027051  0.1713771992919509
  0.5425363342195663  0.2350886257841449  0.3641479292571223
  0.6131695294368870  0.1142385876387723  0.8903222848666167
  0.0737655457054723  0.1396983121092935  0.5984339298218473
  0.2841151622614438  0.6031219327829807  0.5945596310654034
  0.7322030158268763  0.0129482213370103  0.4594246789687333
  0.6566824319229466  0.9143745844043449  0.6155538547348446
  0.4320204376579250  0.9544242730925988  0.9253929406289989
  0.1519623215774474  0.4765009339966614  0.6514163858008371
  0.1462466294175019  0.7691735465908666  0.4648853068072286
  0.2177626177484497  0.1196537890614215  0.8032859707688604
  0.1249748839790070  0.4157938324925541  0.2350866389081154
  0.5438141844085640  0.2866755336096434  0.9377800860314377
  0.2624408298364023  0.5046599537518383  0.1071964796626940
  0.8759699788032304  0.0697522094149115  0.2019366265803356
  0.4323270868131428  0.8465274351765313  0.7470795778140585
  0.7398428349405280  0.7287594480153995  0.9976291013416920
  0.0012059939922128  0.4778968418517413  0.0173437724969449
  0.0539974293002017  0.6608013952720243  0.0500284575032697
  0.7034273825226810  0.1691124235904371  0.7183317916061274
  0.7141573833211667  0.9210233595013347  0.7911056906406648
  0.1072764096835432  0.9077022929408002  0.6758530533341660
  0.1662053792309773  0.9712290723789841  0.0375145484735767
  0.1722570031990187  0.9737233918407857  0.3587353130536473
  0.7385702435198387  0.1422654561156397  0.3043377989711530
  0.7327829209911152  0.8075722864113372  0.2943378869827792
  0.4194895164279234  0.2591702060380092  0.2991258022291918
  0.6605137467162201  0.5816342550671864  0.7379989760893864
  0.3154595165850004  0.2272679304552370  0.4601959243449682
  0.0510349071160599  0.9569717565011879  0.7798071315372315
  0.9397940250635357  0.4514936994678418  0.2036979540220816
  0.8394732590575100  0.1931551916127838  0.3680851595712838
  0.7937973152098163  0.6387216655474872  0.8272395132511550
  0.9484751314372147  0.9156267491275367  0.9563261070149465
  0.2302118285051751  0.4124594764321357  0.4049054360090003
  0.2102985027690329  0.6891227747020366  0.6740659714508703
  0.3904086899354428  0.9443057709913965  0.5525672054317281
  0.5613838119967873  0.8511690903814647  0.7855176975071192
  0.1573291946326172  0.1547154378272134  0.9674160558907904
  0.2752606016444087  0.8225417492454582  0.0703357712104203
  0.5396363845542389  0.6009731304582102  0.3919401811706592
  0.8981269983170009  0.7464791698576789  0.8993704115464168
  0.4698901689304411  0.1862315343130642  0.9173666906747888
  0.4793901795209847  0.5228691455832744  0.0979437310465524
  0.0469945671680675  0.7312407860321601  0.6317935092098963
  0.2014690267676169  0.6476713186098821  0.1998051505950968
  0.3115789666961076  0.2848313830049298  0.8022619893522221
  0.5501270621728281  0.0535807581104632  0.4881628567777032
  0.3490542337256047  0.7345027629181872  0.3481241984398110
  0.3073171373410401  0.8144723472724027  0.7428096746906239
  0.7375939176706816  0.3914382530776999  0.2255631375350945
  0.6317914550802010  0.4548725875401849  0.0196049657540416
  0.1891806183384550  0.9830373520656722  0.6004014461237862
  0.9097548633104431  0.2506586136267368  0.7703391233044725
  0.5692076839340070  0.1804772825859751  0.5513493924478438
  0.0947492820586785  0.2372891532403541  0.5129416411904718
  0.1425087409906216  0.6004267344481755  0.8375348358848523
  0.5170291088022753  0.9070435805851713  0.1795435925446756
  0.4504581569869231  0.4180161019665747  0.7371756969931723
  0.9281586678825916  0.4457266855982534  0.9156193135009960
  0.8662766356984741  0.0968685560413710  0.9123929874113298
  0.8320843396346973  0.9438149437248109  0.4883242578057486
  0.0806780573667720  0.7344413070821649  0.2061582632941141
  0.9022530175229264  0.5063651316393071  0.6157360355726867
  0.3356312218532221  0.7042544878928106  0.0363120875206879
  0.1306320396702858  0.0115822057169699  0.2401799275777511
  0.5855358388637975  0.4509913809072587  0.1409937813768390
  0.6936765822541229  0.0307475042842845  0.5811964360570283
  0.6120132719467466  0.2557149582019288  0.0305035252249547
  0.1098625690415925  0.0708006678026263  0.4940021594290657
  0.9166464114773376  0.8424112539748358  0.3112861531181915
  0.7652411790239709  0.0308883185456498  0.7556474509252090
  0.7587351201637358  0.6596629715022629  0.5875472507366851
  0.2731309487264577  0.7875389912066726  0.6311083429783255
  0.8821780769702317  0.6920410998592479  0.1873043727005675
  0.4767180047940278  0.1093773063791144  0.0137542375719090
  0.3004868537181049  0.1570107787615281  0.0880151928272635
  0.3821159673674674  0.8163394571173574  0.4423893018378949
  0.9401609393693044  0.9903295616658414  0.7396205262622330
  0.6972898343619003  0.2095295526353628  0.2084362189869723
  0.7126871663238326  0.0166920654090548  0.9851160178207493
  0.5690812021326713  0.1787471288059183  0.6765322876782126
  0.1558303376232195  0.0957052412448622  0.0791778716836238
  0.8884372366799744  0.5001155405326718  0.8093874568710476
  0.2201245920884474  0.3693446471329684  0.2862467128227229
  0.3377833926983991  0.4007079217987349  0.8458659706936392
  0.2605109344233295  0.7770700723419726  0.1887803837777303
  0.2975602068089672  0.9913532020535187  0.3225382514838458
  0.3492694613006616  0.4979767781875815  0.0227768733027287
  0.4132648723026023  0.0460594156385059  0.1822279141186041
  0.4512920985589167  0.2258591133661003  0.5404947802369924
  0.4188021917485191  0.3418293581174783  0.2037584987068249
  0.9554598684621018  0.0166187844162258  0.2796187409659864
  0.4144313608046727  0.8647172772557612  0.1094766581779783
  0.0770518821861770  0.4852988700616788  0.4283541573241309
  0.0807120370036575  0.4909854863705785  0.8601682502111379
  0.5384736297215342  0.4309647808879720  0.8274705103284546
  0.3073272757116977  0.9681704263964799  0.6502701820028911
  0.5184889643353523  0.1917635133820503  0.2425480406768158
  0.9401896568964254  0.5549792724236613  0.3210783534999972
  0.5569537122566780  0.5420977129480044  0.2797906404384499
  0.3515202150019339  0.2105847170803208  0.9044240737004718
  0.1805645572263933  0.8900419051142278  0.5094182182880563
  0.0336314156397634  0.2039837659872382  0.4042887996131957
  0.5537926594558177  0.9155479131287588  0.8971643609971088
  0.6060337563487013  0.9544057652132035  0.7264163308483399
  0.7148060170728320  0.4728169666434290  0.7081553636608163
  0.1598696142716976  0.8508738079914259  0.3334044364289961
  0.9255052497597843  0.3269447196854485  0.4261158851720242
  0.5216208170381714  0.7136564375155157  0.4983852224089902
  0.8678169155767552  0.3529040047109246  0.7047326226059645
  0.2905415297244366  0.6572469297911615  0.4810181993531511
  0.6861583996373035  0.1987667041988162  0.8416056612364544
  0.3024512985264500  0.0973532551080511  0.4862770893507956
  0.7780408872780473  0.8473123580661331  0.1848095928213493
  0.7553948662620069  0.5211118003028657  0.2343358304856027
  0.1155708252315565  0.6578338983754262  0.3650672477658247
  0.0380409560710098  0.8741774779727979  0.8698161570487248
  0.8139325215615218  0.4192236803162675  0.9529941370549536
  0.9502138683790234  0.1197355742322282  0.5612188017752727
  0.2576812082751843  0.9560699492925704  0.1293783442556751
  0.5349793703602019  0.5761727735715831  0.7387877450629158
  0.0095683519781192  0.9161245949941720  0.6009932897574419
  0.1498129844433035  0.2913669295332281  0.8536929652559376
  0.5362664337475541  0.3792509381637066  0.6484340043306377
  0.2898021916161320  0.2506551471913434  0.5821870610403548
  0.2729191521288225  0.9778379298949099  0.9518510600968730
  0.7855096887466237  0.1427069546188442  0.0716375942636507
  0.8726694888906655  0.6247739924344275  0.9300063181475717
  0.8895954540408666  0.1864761987176679  0.2422342928819937
  0.5099820174727681  0.4834810952508466  0.4435627772547207
  0.5779916621818917  0.3547264937634592  0.3127964326041727
  0.6129310482391210  0.5437588155338460  0.5735438341218649
  0.6899591947279593  0.6971991530030039  0.2518625799132850
  0.4359016265581613  0.7881022160078135  0.2719253267361255
  0.1095919903875937  0.7906503558291403  0.7197036547874301
  0.7747388910230595  0.7575310389198893  0.8673386236172516
  0.5913580796142583  0.8085920363273758  0.1504691575946080
  0.9152118640756478  0.7821240740953348  0.7228340992301544
  0.0816734960474481  0.2445181000717228  0.0172469881430633
  0.8436575857605280  0.9078262070387414  0.8788606667328602
  0.7015954449072929  0.8498383306801884  0.0032170683388755
  0.7631364269592106  0.0372816190157283  0.2439551476183200
  0.2424249982100857  0.5308567672730978  0.7279418088181502
  0.7855921612678827  0.3771681470551912  0.5306904243415503
  0.4193759449384681  0.2923497191041484  0.7324381580929002
  0.0141321566862747  0.9660105625594270  0.0987278453044687
  0.4183125738000067  0.6247488836834001  0.3481360136816009
  0.1491436889503965  0.2085165624100527  0.2145174348584085
  0.0225296293077602  0.7955780879450318  0.4651715258764330
  0.7557118149675534  0.2926863554148944  0.3647897022702967
  0.4366935664790313  0.7163271991582204  0.7329877265728633
  0.6392131658264300  0.8832176344882273  0.3099402381193436
  0.3940415300606910  0.8337446618302469  0.8986170002815820
  0.1500880629461787  0.8104597860992118  0.0347475361835230
  0.7816259149863023  0.1767098996585358  0.5141913783791756
  0.6890076056750143  0.8005735391021052  0.4769904311136460
  0.0247870710378378  0.2396605473504738  0.7106844219446603
  0.6743165180479571  0.5947925543477536  0.8601924083446788
  0.2645417297228805  0.3222383388427975  0.0145769642127482
  0.4287615069738783  0.6418114960943722  0.9041662560334789
  0.0801253246861555  0.6734637140032755  0.9287106741790847
  0.5572480100127150  0.9606408598369861  0.0712761787554079
  0.4656800118484031  0.3633187778039629  0.9911026303230103
  0.9089789022145413  0.8061574136610407  0.0065100699381202
  0.6363284687782338  0.1285250839637287  0.3709231636618766
  0.2466907475542948  0.5774863109675602  0.9029700187020842
  0.2395582404808796  0.4883507295999759  0.5569254013361028
  0.5080885185178834  0.1178052941544046  0.8293273305476602
  0.3968348608100990  0.5565027814749395  0.6094588547773665
  0.2252472632391401  0.8907357280709089  0.7999065091654995
  0.0636626826631346  0.0706357505108284  0.9305814712555469
  0.2523442242567746  0.5305595605497753  0.3580364276140300
  0.9580541952929919  0.1496283386452175  0.0590174670576861
  0.1877159711798656  0.3642111936910000  0.6996009696428375
  0.3164720731819788  0.1938680132411758  0.2760640072019745
  0.2629855411391336  0.7266325182914466  0.8160982270199408
  0.8313673148382793  0.6779213404707185  0.3812280732478060
  0.1086048613145087  0.5342711435378298  0.2255926558932294
  0.9678977662474432  0.5780796656621974  0.0750101929127766
  0.1908327468392289  0.2456056193640181  0.4317395025275617
  0.2037377775398473  0.1154345881654924  0.6797195410354088
  0.9697925930742354  0.3338028011849044  0.8914392105599561
  0.8576858244768036  0.3668058240831083  0.2545235808914143
  0.5384198363112731  0.9161638724087078  0.4604370066001711
  0.7058163059885587  0.5557135145090570  0.0499780957024540
  0.3960503817494770  0.9828706702778660  0.8073028993506651
  0.5382678698138903  0.5354048636625036  0.9867322641294271
  0.6137605605116876  0.2887968757627467  0.5032139599097257
  0.6131943456107420  0.7475425353593352  0.6733132509286716
  0.3182242127818152  0.5810141067249812  0.1869789624562010
  0.0664982332418100  0.3509130702571889  0.5394146339349123
  0.7697105947980325  0.8706747882838262  0.6499337924976459
  0.5036301618843397  0.6516823287670037  0.1171002283747255
  0.1698264162596504  0.6189976170933441  0.0754787359434961
  0.6148860484447173  0.7056841167436756  0.9810556683979899
  0.7038638811516222  0.2961083189220926  0.6837330233983244
  0.4528609876974363  0.8541782624450057  0.6194967076454103
  0.3543227907178553  0.3747617997153951  0.3942923492438028
  0.1357018133096005  0.6834023449133023  0.5634486871653829
  0.8488009782262299  0.1740818946011608  0.6910005024570200
  0.0195734814459401  0.3695077335989971  0.2640448076282113
  0.9539737744878717  0.3847993193619966  0.0860366518969495
  0.1397975981350404  0.3762373857968794  0.1215711506143058
  0.4698429035943005  0.1015404439512711  0.3963139380648116
  0.9379472458870932  0.6557286421032116  0.5326656511694192
  0.0076995917781415  0.1215967786607963  0.7470742957651527
  0.0290860423673661  0.6262507428338936  0.6947029931280365
  0.7500614270680177  0.3845106408016374  0.0996943933314168
  0.4665643146347215  0.0412335868858940  0.5828220137006800
  0.7302807137228725  0.5245878749175256  0.3210574228303855
  0.7100438973720296  0.5307299165738666  0.3786949711537783
  0.6578731873441083  0.5411913926610901  0.4955277329776019
  0.6845911666085454  0.5366443333499520  0.4402352283433141
 
  0.00000000E+00  0.00000000E+00  0.00000000E+00
  0.00000000E+00  0.00000000E+00  0.00000000E+00
  0.00000000E+00  0.00000000E+00  0.00000000E+00
  0.00000000E+00  0.00000000E+00  0.00000000E+00
  0.00000000E+00  0.00000000E+00  0.00000000E+00
  0.00000000E+00  0.00000000E+00  0.00000000E+00
  0.00000000E+00  0.00000000E+00  0.00000000E+00
  0.00000000E+00  0.00000000E+00  0.00000000E+00
  0.00000000E+00  0.00000000E+00  0.00000000E+00
  0.00000000E+00  0.00000000E+00  0.00000000E+00
  0.00000000E+00  0.00000000E+00  0.00000000E+00
  0.00000000E+00  0.00000000E+00  0.00000000E+00
  0.00000000E+00  0.00000000E+00  0.00000000E+00
  0.00000000E+00  0.00000000E+00  0.00000000E+00
  0.00000000E+00  0.00000000E+00  0.00000000E+00
  0.00000000E+00  0.00000000E+00  0.00000000E+00
  0.00000000E+00  0.00000000E+00  0.00000000E+00
  0.00000000E+00  0.00000000E+00  0.00000000E+00
  0.00000000E+00  0.00000000E+00  0.00000000E+00
  0.00000000E+00  0.00000000E+00  0.00000000E+00
  0.00000000E+00  0.00000000E+00  0.00000000E+00
  0.00000000E+00  0.00000000E+00  0.00000000E+00
  0.00000000E+00  0.00000000E+00  0.00000000E+00
  0.00000000E+00  0.00000000E+00  0.00000000E+00
  0.00000000E+00  0.00000000E+00  0.00000000E+00
  0.00000000E+00  0.00000000E+00  0.00000000E+00
  0.00000000E+00  0.00000000E+00  0.00000000E+00
  0.00000000E+00  0.00000000E+00  0.00000000E+00
  0.00000000E+00  0.00000000E+00  0.00000000E+00
  0.00000000E+00  0.00000000E+00  0.00000000E+00
  0.00000000E+00  0.00000000E+00  0.00000000E+00
  0.00000000E+00  0.00000000E+00  0.00000000E+00
  0.00000000E+00  0.00000000E+00  0.00000000E+00
  0.00000000E+00  0.00000000E+00  0.00000000E+00
  0.00000000E+00  0.00000000E+00  0.00000000E+00
  0.00000000E+00  0.00000000E+00  0.00000000E+00
  0.00000000E+00  0.00000000E+00  0.00000000E+00
  0.00000000E+00  0.00000000E+00  0.00000000E+00
  0.00000000E+00  0.00000000E+00  0.00000000E+00
  0.00000000E+00  0.00000000E+00  0.00000000E+00
  0.00000000E+00  0.00000000E+00  0.00000000E+00
  0.00000000E+00  0.00000000E+00  0.00000000E+00
  0.00000000E+00  0.00000000E+00  0.00000000E+00
  0.00000000E+00  0.00000000E+00  0.00000000E+00
  0.00000000E+00  0.00000000E+00  0.00000000E+00
  0.00000000E+00  0.00000000E+00  0.00000000E+00
  0.00000000E+00  0.00000000E+00  0.00000000E+00
  0.00000000E+00  0.00000000E+00  0.00000000E+00
  0.00000000E+00  0.00000000E+00  0.00000000E+00
  0.00000000E+00  0.00000000E+00  0.00000000E+00
  0.00000000E+00  0.00000000E+00  0.00000000E+00
  0.00000000E+00  0.00000000E+00  0.00000000E+00
  0.00000000E+00  0.00000000E+00  0.00000000E+00
  0.00000000E+00  0.00000000E+00  0.00000000E+00
  0.00000000E+00  0.00000000E+00  0.00000000E+00
  0.00000000E+00  0.00000000E+00  0.00000000E+00
  0.00000000E+00  0.00000000E+00  0.00000000E+00
  0.00000000E+00  0.00000000E+00  0.00000000E+00
  0.00000000E+00  0.00000000E+00  0.00000000E+00
  0.00000000E+00  0.00000000E+00  0.00000000E+00
  0.00000000E+00  0.00000000E+00  0.00000000E+00
  0.00000000E+00  0.00000000E+00  0.00000000E+00
  0.00000000E+00  0.00000000E+00  0.00000000E+00
  0.00000000E+00  0.00000000E+00  0.00000000E+00
  0.00000000E+00  0.00000000E+00  0.00000000E+00
  0.00000000E+00  0.00000000E+00  0.00000000E+00
  0.00000000E+00  0.00000000E+00  0.00000000E+00
  0.00000000E+00  0.00000000E+00  0.00000000E+00
  0.00000000E+00  0.00000000E+00  0.00000000E+00
  0.00000000E+00  0.00000000E+00  0.00000000E+00
  0.00000000E+00  0.00000000E+00  0.00000000E+00
  0.00000000E+00  0.00000000E+00  0.00000000E+00
  0.00000000E+00  0.00000000E+00  0.00000000E+00
  0.00000000E+00  0.00000000E+00  0.00000000E+00
  0.00000000E+00  0.00000000E+00  0.00000000E+00
  0.00000000E+00  0.00000000E+00  0.00000000E+00
  0.00000000E+00  0.00000000E+00  0.00000000E+00
  0.00000000E+00  0.00000000E+00  0.00000000E+00
  0.00000000E+00  0.00000000E+00  0.00000000E+00
  0.00000000E+00  0.00000000E+00  0.00000000E+00
  0.00000000E+00  0.00000000E+00  0.00000000E+00
  0.00000000E+00  0.00000000E+00  0.00000000E+00
  0.00000000E+00  0.00000000E+00  0.00000000E+00
  0.00000000E+00  0.00000000E+00  0.00000000E+00
  0.00000000E+00  0.00000000E+00  0.00000000E+00
  0.00000000E+00  0.00000000E+00  0.00000000E+00
  0.00000000E+00  0.00000000E+00  0.00000000E+00
  0.00000000E+00  0.00000000E+00  0.00000000E+00
  0.00000000E+00  0.00000000E+00  0.00000000E+00
  0.00000000E+00  0.00000000E+00  0.00000000E+00
  0.00000000E+00  0.00000000E+00  0.00000000E+00
  0.00000000E+00  0.00000000E+00  0.00000000E+00
  0.00000000E+00  0.00000000E+00  0.00000000E+00
  0.00000000E+00  0.00000000E+00  0.00000000E+00
  0.00000000E+00  0.00000000E+00  0.00000000E+00
  0.00000000E+00  0.00000000E+00  0.00000000E+00
  0.00000000E+00  0.00000000E+00  0.00000000E+00
  0.00000000E+00  0.00000000E+00  0.00000000E+00
  0.00000000E+00  0.00000000E+00  0.00000000E+00
  0.00000000E+00  0.00000000E+00  0.00000000E+00
  0.00000000E+00  0.00000000E+00  0.00000000E+00
  0.00000000E+00  0.00000000E+00  0.00000000E+00
  0.00000000E+00  0.00000000E+00  0.00000000E+00
  0.00000000E+00  0.00000000E+00  0.00000000E+00
  0.00000000E+00  0.00000000E+00  0.00000000E+00
  0.00000000E+00  0.00000000E+00  0.00000000E+00
  0.00000000E+00  0.00000000E+00  0.00000000E+00
  0.00000000E+00  0.00000000E+00  0.00000000E+00
  0.00000000E+00  0.00000000E+00  0.00000000E+00
  0.00000000E+00  0.00000000E+00  0.00000000E+00
  0.00000000E+00  0.00000000E+00  0.00000000E+00
  0.00000000E+00  0.00000000E+00  0.00000000E+00
  0.00000000E+00  0.00000000E+00  0.00000000E+00
  0.00000000E+00  0.00000000E+00  0.00000000E+00
  0.00000000E+00  0.00000000E+00  0.00000000E+00
  0.00000000E+00  0.00000000E+00  0.00000000E+00
  0.00000000E+00  0.00000000E+00  0.00000000E+00
  0.00000000E+00  0.00000000E+00  0.00000000E+00
  0.00000000E+00  0.00000000E+00  0.00000000E+00
  0.00000000E+00  0.00000000E+00  0.00000000E+00
  0.00000000E+00  0.00000000E+00  0.00000000E+00
  0.00000000E+00  0.00000000E+00  0.00000000E+00
  0.00000000E+00  0.00000000E+00  0.00000000E+00
  0.00000000E+00  0.00000000E+00  0.00000000E+00
  0.00000000E+00  0.00000000E+00  0.00000000E+00
  0.00000000E+00  0.00000000E+00  0.00000000E+00
  0.00000000E+00  0.00000000E+00  0.00000000E+00
  0.00000000E+00  0.00000000E+00  0.00000000E+00
  0.00000000E+00  0.00000000E+00  0.00000000E+00
  0.00000000E+00  0.00000000E+00  0.00000000E+00
  0.00000000E+00  0.00000000E+00  0.00000000E+00
  0.00000000E+00  0.00000000E+00  0.00000000E+00
  0.00000000E+00  0.00000000E+00  0.00000000E+00
  0.00000000E+00  0.00000000E+00  0.00000000E+00
  0.00000000E+00  0.00000000E+00  0.00000000E+00
  0.00000000E+00  0.00000000E+00  0.00000000E+00
  0.00000000E+00  0.00000000E+00  0.00000000E+00
  0.00000000E+00  0.00000000E+00  0.00000000E+00
  0.00000000E+00  0.00000000E+00  0.00000000E+00
  0.00000000E+00  0.00000000E+00  0.00000000E+00
  0.00000000E+00  0.00000000E+00  0.00000000E+00
  0.00000000E+00  0.00000000E+00  0.00000000E+00
  0.00000000E+00  0.00000000E+00  0.00000000E+00
  0.00000000E+00  0.00000000E+00  0.00000000E+00
  0.00000000E+00  0.00000000E+00  0.00000000E+00
  0.00000000E+00  0.00000000E+00  0.00000000E+00
  0.00000000E+00  0.00000000E+00  0.00000000E+00
  0.00000000E+00  0.00000000E+00  0.00000000E+00
  0.00000000E+00  0.00000000E+00  0.00000000E+00
  0.00000000E+00  0.00000000E+00  0.00000000E+00
  0.00000000E+00  0.00000000E+00  0.00000000E+00
  0.00000000E+00  0.00000000E+00  0.00000000E+00
  0.00000000E+00  0.00000000E+00  0.00000000E+00
  0.00000000E+00  0.00000000E+00  0.00000000E+00
  0.00000000E+00  0.00000000E+00  0.00000000E+00
  0.00000000E+00  0.00000000E+00  0.00000000E+00
  0.00000000E+00  0.00000000E+00  0.00000000E+00
  0.00000000E+00  0.00000000E+00  0.00000000E+00
  0.00000000E+00  0.00000000E+00  0.00000000E+00
  0.00000000E+00  0.00000000E+00  0.00000000E+00
  0.00000000E+00  0.00000000E+00  0.00000000E+00
  0.00000000E+00  0.00000000E+00  0.00000000E+00
  0.00000000E+00  0.00000000E+00  0.00000000E+00
  0.00000000E+00  0.00000000E+00  0.00000000E+00
  0.00000000E+00  0.00000000E+00  0.00000000E+00
  0.00000000E+00  0.00000000E+00  0.00000000E+00
  0.00000000E+00  0.00000000E+00  0.00000000E+00
  0.00000000E+00  0.00000000E+00  0.00000000E+00
  0.00000000E+00  0.00000000E+00  0.00000000E+00
  0.00000000E+00  0.00000000E+00  0.00000000E+00
  0.00000000E+00  0.00000000E+00  0.00000000E+00
  0.00000000E+00  0.00000000E+00  0.00000000E+00
  0.00000000E+00  0.00000000E+00  0.00000000E+00
  0.00000000E+00  0.00000000E+00  0.00000000E+00
  0.00000000E+00  0.00000000E+00  0.00000000E+00
  0.00000000E+00  0.00000000E+00  0.00000000E+00
  0.00000000E+00  0.00000000E+00  0.00000000E+00
  0.00000000E+00  0.00000000E+00  0.00000000E+00
  0.00000000E+00  0.00000000E+00  0.00000000E+00
  0.00000000E+00  0.00000000E+00  0.00000000E+00
  0.00000000E+00  0.00000000E+00  0.00000000E+00
  0.00000000E+00  0.00000000E+00  0.00000000E+00
  0.00000000E+00  0.00000000E+00  0.00000000E+00
  0.00000000E+00  0.00000000E+00  0.00000000E+00
  0.00000000E+00  0.00000000E+00  0.00000000E+00
  0.00000000E+00  0.00000000E+00  0.00000000E+00
  0.00000000E+00  0.00000000E+00  0.00000000E+00
  0.00000000E+00  0.00000000E+00  0.00000000E+00
  0.00000000E+00  0.00000000E+00  0.00000000E+00
  0.00000000E+00  0.00000000E+00  0.00000000E+00
  0.00000000E+00  0.00000000E+00  0.00000000E+00
  0.00000000E+00  0.00000000E+00  0.00000000E+00
  0.00000000E+00  0.00000000E+00  0.00000000E+00
  0.00000000E+00  0.00000000E+00  0.00000000E+00
  0.00000000E+00  0.00000000E+00  0.00000000E+00
  0.00000000E+00  0.00000000E+00  0.00000000E+00
  0.00000000E+00  0.00000000E+00  0.00000000E+00
  0.00000000E+00  0.00000000E+00  0.00000000E+00
  0.00000000E+00  0.00000000E+00  0.00000000E+00
  0.00000000E+00  0.00000000E+00  0.00000000E+00
  0.00000000E+00  0.00000000E+00  0.00000000E+00
  0.00000000E+00  0.00000000E+00  0.00000000E+00
  0.00000000E+00  0.00000000E+00  0.00000000E+00
  0.00000000E+00  0.00000000E+00  0.00000000E+00
  0.00000000E+00  0.00000000E+00  0.00000000E+00
  0.00000000E+00  0.00000000E+00  0.00000000E+00
  0.00000000E+00  0.00000000E+00  0.00000000E+00
  0.00000000E+00  0.00000000E+00  0.00000000E+00
  0.00000000E+00  0.00000000E+00  0.00000000E+00
  0.00000000E+00  0.00000000E+00  0.00000000E+00
  0.00000000E+00  0.00000000E+00  0.00000000E+00
  0.00000000E+00  0.00000000E+00  0.00000000E+00
  0.00000000E+00  0.00000000E+00  0.00000000E+00
  0.00000000E+00  0.00000000E+00  0.00000000E+00
  0.00000000E+00  0.00000000E+00  0.00000000E+00
  0.00000000E+00  0.00000000E+00  0.00000000E+00
  0.00000000E+00  0.00000000E+00  0.00000000E+00
  0.00000000E+00  0.00000000E+00  0.00000000E+00
  0.00000000E+00  0.00000000E+00  0.00000000E+00
  0.00000000E+00  0.00000000E+00  0.00000000E+00
  0.00000000E+00  0.00000000E+00  0.00000000E+00
  0.00000000E+00  0.00000000E+00  0.00000000E+00
  0.00000000E+00  0.00000000E+00  0.00000000E+00
  0.00000000E+00  0.00000000E+00  0.00000000E+00
  0.00000000E+00  0.00000000E+00  0.00000000E+00
  0.00000000E+00  0.00000000E+00  0.00000000E+00
  0.00000000E+00  0.00000000E+00  0.00000000E+00
  0.00000000E+00  0.00000000E+00  0.00000000E+00
  0.00000000E+00  0.00000000E+00  0.00000000E+00
  0.00000000E+00  0.00000000E+00  0.00000000E+00
  0.00000000E+00  0.00000000E+00  0.00000000E+00
  0.00000000E+00  0.00000000E+00  0.00000000E+00