GST                                     
   1.00000000000000     
    21.9989429307461464    0.0000000000000000    0.0000000000000000
     0.0000000000000000   21.9989429307461464    0.0000000000000000
     0.0000000000000000    0.0000000000000000   21.9989429307461464
   Ge   Sb   Se
    68    68   170
Direct
  0.5000132699999966  0.1279654000000008  0.5544205400000024
  0.0916428789999983  0.3994342000000017  0.0659553850000023
  0.3652712600000001  0.3220757200000008  0.7608838700000007
  0.8933247699999995  0.9862276140000006  0.8241325700000033
  0.8834062099999969  0.7488680399999978  0.6474625399999994
  0.6002471899999975  0.8062627300000003  0.0841837350000034
  0.8346219900000023  0.5558790999999985  0.7170309500000016
  0.7947025900000000  0.4746219999999965  0.8069784400000017
  0.5959360700000005  0.3255729799999969  0.1531505900000028
  0.2975520099999969  0.5078167500000035  0.3714620599999989
  0.9342356800000005  0.1751703799999973  0.3086962200000016
  0.6422495699999970  0.1017695900000035  0.6419546400000016
  0.2604333700000012  0.6851123000000001  0.3685632500000011
  0.9289635700000005  0.4997900400000006  0.3192912600000000
  0.7878300899999999  0.0851355630000015  0.0750156240000024
  0.9964292388999993  0.8995482600000031  0.7799363800000023
  0.6722203300000018  0.0977343389999987  0.8205348999999984
  0.0245900170000013  0.6143377699999988  0.5816061000000019
  0.9015338399999990  0.5378032899999994  0.0971333419999993
  0.9823010300000021  0.1379251999999980  0.4702911500000013
  0.4448323800000011  0.8830147600000018  0.8864676900000035
  0.2791854999999970  0.4817878100000001  0.2120147999999986
  0.1038804000000013  0.4488401099999990  0.7312492699999993
  0.3320562099999975  0.8338444099999975  0.3822413800000035
  0.8285895499999967  0.8355596800000029  0.0905427659999987
  0.7601037399999981  0.3532862100000003  0.5852314500000020
  0.4685426599999971  0.8508497799999972  0.7353445099999973
  0.1970120800000004  0.5785787299999967  0.7416679600000009
  0.5328786099999974  0.0899331520000004  0.2885792300000034
  0.2148411100000018  0.7724582399999989  0.8002741999999969
  0.5471778200000017  0.7666693800000033  0.2596430199999986
  0.0070743913000015  0.9516836199999972  0.0213540700000010
  0.9326938499999997  0.9639870700000017  0.1155220699999973
  0.4463423300000002  0.3868625799999990  0.5925494600000007
  0.7943419300000016  0.2126204400000020  0.2148408099999983
  0.1181954999999988  0.0262124959999994  0.6829090199999968
  0.0238180719999974  0.7319987300000008  0.2653613900000025
  0.0351211739999968  0.2546088100000006  0.9678730750000000
  0.6094097900000008  0.6232791700000035  0.0256895500000027
  0.3873729800000021  0.8599365099999972  0.0412657769999996
  0.3544289199999966  0.4997439300000011  0.1245770199999967
  0.2495405399999981  0.9014138400000036  0.5166792799999982
  0.7384547699999970  0.3666594399999994  0.2677859499999968
  0.6566781000000006  0.3495056599999984  0.9209721699999989
  0.1910683799999973  0.9576926800000010  0.1402061499999974
  0.0623427430000021  0.5119716700000012  0.4520742600000034
  0.5595700499999978  0.2597677799999971  0.5628579099999982
  0.7885319800000019  0.1643913899999987  0.7316571900000000
  0.4743179800000021  0.5457287799999975  0.4155206900000010
  0.1423217500000007  0.2464751199999995  0.4415390699999975
  0.1554129800000013  0.3498666099999994  0.3913960000000003
  0.8694636800000026  0.2936829200000020  0.6919462800000034
  0.0949504270000006  0.0003849596499990  0.9607478000000000
  0.3467546999999982  0.0909651879999984  0.6008991300000019
  0.9380852299999987  0.3997408600000014  0.0108315630000035
  0.3506190399999980  0.1162897700000016  0.9818451499999981
  0.1754797899999971  0.5137880300000006  0.4911074199999987
  0.1011701400000007  0.0883770559999988  0.3889482200000032
  0.6146951300000012  0.9596056600000011  0.7600517899999986
  0.4869752700000021  0.9599801729999982  0.4268773000000010
  0.2701511100000005  0.9563770800000029  0.6630766500000007
  0.1729445200000015  0.5913713200000004  0.8684524299999978
  0.2186524099999971  0.3239173500000021  0.2958710999999994
  0.5597767399999967  0.2237451299999975  0.3491031499999977
  0.7330410000000001  0.9674721299999973  0.9267643499999991
  0.8906406099999984  0.8437811299999964  0.7768189499999991
  0.1327868899999984  0.8007589300000006  0.4249333699999980
  0.7791343199999972  0.8048160000000024  0.7636661399999980
  0.0406267859999971  0.7097126099999969  0.8640026300000017
  0.8638959399999990  0.6742067500000033  0.1700759900000008
  0.3497784300000006  0.8818843600000008  0.7614716499999972
  0.7710443499999968  0.7370437000000010  0.3505279500000000
  0.6424700399999992  0.6675619499999996  0.2093784300000010
  0.7096613699999992  0.8804475999999966  0.2377022900000014
  0.8496555500000014  0.9428508199999968  0.4962340599999990
  0.9351723099999987  0.9526003100000011  0.3928776500000026
  0.4059156000000002  0.2501309199999966  0.2613166000000007
  0.0906481729999982  0.8909327100000013  0.1729557199999974
  0.6575027199999965  0.2379855599999985  0.0481969889999974
  0.9374767500000019  0.9886445519999967  0.6322124200000019
  0.1913512799999992  0.1457582399999993  0.5484456300000033
  0.5668261699999988  0.4732954899999982  0.2059821200000016
  0.8715698299999985  0.8024240100000029  0.2938617699999995
  0.6564493799999980  0.5508285399999977  0.7495979199999994
  0.3296313299999980  0.7097520399999979  0.6939732599999999
  0.2870530300000027  0.9837898500000009  0.3145294099999987
  0.3960136800000029  0.7904305599999972  0.2010593500000013
  0.2333469000000008  0.3449536600000016  0.1333871900000005
  0.4364246600000001  0.8653671599999981  0.5616123300000027
  0.7925077900000019  0.0551901839999971  0.2864276500000003
  0.1703177600000032  0.1411032700000021  0.8024082499999992
  0.2011430000000018  0.0084596904999970  0.0250618179999975
  0.2685566399999999  0.4450669100000013  0.8193994200000034
  0.5661279400000012  0.2235862100000006  0.8983580800000013
  0.9810915300000005  0.4231152300000005  0.7172508700000009
  0.8608669199999994  0.1272565499999985  0.9150009600000004
  0.3827627399999969  0.9902925700000011  0.1653605500000026
  0.2136437699999973  0.8801038300000030  0.0019852996000012
  0.8393759300000028  0.3850062699999981  0.1671897399999978
  0.4695296000000013  0.0513836969999986  0.0828763629999969
  0.6873788099999985  0.2601749299999980  0.6196289100000030
  0.0628694110000012  0.3028226200000006  0.7996958700000008
  0.4490926100000010  0.4245517199999966  0.3333308799999983
  0.9537220099999999  0.8580534999999969  0.9569692999999972
  0.4364602599999969  0.7548024100000035  0.3837208099999998
  0.0313322559999989  0.7165998799999969  0.7283238999999995
  0.5210447600000023  0.3864319500000022  0.7217259100000035
  0.2965422099999984  0.2432402499999995  0.9091324199999988
  0.9338359199999999  0.2134803499999975  0.7955047299999976
  0.2472141800000003  0.4942694200000020  0.0040638107999982
  0.3998122599999974  0.1751740200000000  0.4359349699999981
  0.3008529100000032  0.9234081199999977  0.9000381099999970
  0.7214251500000017  0.5598392200000006  0.8636680899999973
  0.6941133500000021  0.1090997599999994  0.4177455900000027
  0.5634437100000014  0.4963300599999982  0.8251923500000018
  0.8334401700000029  0.3890770599999982  0.3959797799999976
  0.6405705000000026  0.9280477000000005  0.4359128700000028
  0.1412003800000008  0.3358158300000014  0.6993864000000016
  0.9708596899999975  0.4491683500000008  0.5053735600000024
  0.7401830900000022  0.6887521599999999  0.7288859200000033
  0.5559781600000022  0.1830551600000021  0.6948499599999991
  0.1427882999999994  0.9521634299999988  0.8542900300000014
  0.4803586999999965  0.4162242100000029  0.0689450969999967
  0.3704872799999990  0.9911096617000013  0.9889855139999995
  0.6757651699999982  0.9698333999999988  0.0976449349999982
  0.0507198620000011  0.0727768900000001  0.1019307600000019
  0.6621723700000004  0.3529352899999978  0.4202704799999992
  0.9464385799999988  0.7400664299999988  0.0362949279999967
  0.0455940539999986  0.5573966500000012  0.9727150900000012
  0.5230303499999991  0.6230251899999999  0.8511984499999983
  0.4828721399999978  0.6938887600000001  0.6384479000000027
  0.0346114809999989  0.3553448799999970  0.3499522799999966
  0.7045588900000013  0.8263456099999971  0.8605890500000015
  0.1766062299999973  0.7014141300000034  0.2768653899999975
  0.4269524400000009  0.7205528000000001  0.9722870599999993
  0.7792977599999986  0.4610876500000032  0.9812608200000028
  0.5681353499999986  0.3114379499999984  0.9948394282999971
  0.8884198399999974  0.4974181099999981  0.4314592699999977
  0.0513152979999987  0.5812179600000036  0.8548191100000011
  0.1380371199999999  0.2533482699999965  0.5503243200000014
  0.7862255900000008  0.9876164900000006  0.1417222500000008
  0.5527595499999975  0.1867587099999994  0.0728053890000027
  0.3316082799999975  0.9279790699999992  0.4434513499999966
  0.3900841499999999  0.1704346499999971  0.8926224100000013
  0.6272819900000002  0.4652428400000019  0.9190501300000022
  0.9298382200000006  0.0773940759999974  0.0746801599999998
  0.5830384200000012  0.6521492400000000  0.7561474700000019
  0.2150781499999965  0.4147058499999972  0.4574525700000009
  0.5839087900000024  0.0218515379999999  0.4903236099999972
  0.6855520200000029  0.8176972500000019  0.3376989899999998
  0.1218290400000015  0.5351277800000034  0.6679359700000020
  0.2872304200000002  0.8689380000000000  0.2826940599999972
  0.7388496900000021  0.4134261600000002  0.4942918899999995
  0.9869808600000027  0.3428064300000031  0.4588200499999999
  0.5082995200000013  0.6410604100000015  0.4514199799999972
  0.1588115300000013  0.5831992600000007  0.0001265690000025
  0.9354670800000022  0.7988649300000006  0.1383210400000010
  0.5692177099999967  0.0971252530000015  0.1344012699999979
  0.0126321110000021  0.3138505599999988  0.0594368650000021
  0.0462929259999996  0.4386803499999985  0.9627756200000022
  0.3035402100000013  0.1880972000000014  0.5620334899999975
  0.5959761700000001  0.6924278099999981  0.9291430099999971
  0.2587548400000017  0.5975109099999969  0.4384311000000025
  0.0372774759999999  0.8440790900000010  0.8737287200000026
  0.5366151500000029  0.8660887500000030  0.8207987199999991
  0.1583889099999993  0.9800901500000023  0.3664914300000035
  0.4840459199999998  0.3503855800000011  0.1681127599999996
  0.9467118000000028  0.5628152700000015  0.7342113099999992
  0.2546497100000025  0.0087031848999999  0.5676489599999996
  0.5089439999999996  0.1301287699999989  0.3990252700000028
  0.4500544099999999  0.2337122200000010  0.5298038199999979
  0.0122819859999979  0.6094314899999986  0.4688956500000003
  0.4627850099999975  0.4724724699999996  0.6678844099999992
  0.1787303300000005  0.3347483399999973  0.0290565640000011
  0.2981882500000026  0.5295987000000011  0.8990528100000006
  0.3316337400000009  0.1634858299999991  0.2962367399999977
  0.8919223600000024  0.1789013599999976  0.6794446299999990
  0.4074525699999967  0.7491307299999974  0.5623003199999985
  0.8187639499999975  0.2174859900000001  0.8383815500000011
  0.6053579900000017  0.3088943500000028  0.8261355400000028
  0.8835430399999993  0.5282002100000014  0.9894821000000036
  0.4106081999999986  0.0084202458999982  0.2768053899999998
  0.4498514000000000  0.7407331699999986  0.7441682099999980
  0.0291908120000031  0.8148183699999976  0.3503041100000033
  0.2976080800000034  0.6949888700000031  0.8076172199999974
  0.8725090499999979  0.1228172400000034  0.2210760099999973
  0.9077057599999989  0.0202253209999981  0.9834569900000005
  0.7550893399999978  0.2769227499999971  0.7191409300000018
  0.1670583599999986  0.7401456799999977  0.6973494200000019
  0.2562635999999969  0.7703093499999980  0.4404327900000027
  0.6911287200000018  0.8666659200000026  0.0406424239999978
  0.0390383129999989  0.1779075099999972  0.2591693099999972
  0.7087447600000019  0.4200342600000013  0.7506976000000023
  0.3081884799999983  0.5782017800000006  0.0625452339999981
  0.2467409200000006  0.2226819199999994  0.2575533799999974
  0.9541139900000033  0.5101550700000033  0.6369079600000020
  0.7932748699999976  0.0406244979999997  0.8567121600000007
  0.6337956599999970  0.9964544524999965  0.8687611499999974
  0.5258510700000016  0.8646491399999974  0.6428803100000025
  0.7349446899999990  0.9964995500000029  0.4056161600000010
  0.0869528549999998  0.1647256999999982  0.0131019470000027
  0.5605101399999981  0.3703247199999993  0.5808311899999978
  0.8648537099999984  0.9569791799999976  0.2958843899999977
  0.7483156300000005  0.6529738899999984  0.2654149399999994
  0.0331668019999967  0.3377961400000018  0.6476176400000000
  0.2500372800000008  0.1607260800000034  0.9849227699999972
  0.0823644529999967  0.6478949999999983  0.3181091200000026
  0.4467689499999992  0.8862046799999987  0.1393934199999975
  0.9655108099999978  0.6253745499999965  0.1180659899999981
  0.8681912400000016  0.0463018210000001  0.5538915500000030
  0.0237305320000019  0.1773733400000026  0.1533823099999978
  0.4250479000000027  0.2999926600000009  0.8566476499999993
  0.9526772399999999  0.4426159699999985  0.1224121899999986
  0.7320234600000006  0.1524393600000025  0.5957869900000006
  0.8192444000000023  0.5580196200000032  0.1632230499999991
  0.8103965600000009  0.6298799699999975  0.8078425899999999
  0.5701396099999982  0.9559535400000030  0.3458410599999979
  0.3579830799999968  0.6911908499999981  0.3128276099999994
  0.1421996300000004  0.8157646700000001  0.3105509999999967
  0.0685084509999996  0.1923712299999991  0.7545456699999988
  0.0520294219999968  0.8332058700000005  0.7094302200000016
  0.1486360899999966  0.9162680199999969  0.4540029400000023
  0.0444553990000003  0.2191226200000003  0.3961112699999987
  0.3503557599999993  0.4084981399999990  0.0651173179999986
  0.7241533700000033  0.4411472700000019  0.6450954999999965
  0.7510866499999977  0.4545961800000029  0.3391078900000011
  0.2622088999999974  0.8743856099999974  0.1126455699999980
  0.3131793700000003  0.8561508299999971  0.6449135900000016
  0.1572648599999980  0.7160593600000027  0.8858562799999987
  0.4036862199999973  0.4017652300000023  0.4408574200000004
  0.8744394200000016  0.2736439700000020  0.1569356099999979
  0.0440105890000027  0.4798598400000031  0.3443613399999990
  0.5126414300000022  0.8551058600000019  0.4671946599999970
  0.8151762899999966  0.3985327700000028  0.8891185199999967
  0.9364324299999964  0.8922049900000033  0.5640135800000010
  0.0699170199999983  0.0701368790000032  0.4960236800000004
  0.4386935300000019  0.2854251199999993  0.3701037599999992
  0.5497005900000005  0.4766830200000030  0.3762386000000006
  0.2359163100000004  0.0230293979999985  0.8825796799999992
  0.6753664100000023  0.8536143999999979  0.7457037799999995
  0.3900880500000028  0.1408132299999991  0.0838096949999994
  0.5591223400000018  0.1276010300000010  0.8025415800000033
  0.9709936699999986  0.7142405499999995  0.5854033099999967
  0.6420348099999984  0.1360060499999989  0.3105377199999992
  0.8288617999999985  0.7281926100000007  0.0382041140000027
  0.4101239000000021  0.4988110500000005  0.4920200999999977
  0.5143854399999981  0.1991963299999995  0.2418309099999973
  0.4729547000000025  0.9822300900000016  0.9301328499999997
  0.6416494300000011  0.2508770600000005  0.4809996799999965
  0.0752472890000035  0.0290994770000026  0.7936194199999989
  0.9373018400000035  0.2473558499999982  0.9249743330000015
  0.1198292600000030  0.2837375699999996  0.9034262799999979
  0.4084745600000019  0.5421093300000024  0.3257858899999988
  0.4118926599999995  0.0682842169999986  0.5073978599999975
  0.4344022000000010  0.4015696100000028  0.8139487999999986
  0.0748402440000007  0.1029333899999969  0.9226938199999992
  0.3474511900000010  0.9970116699999991  0.7293083599999974
  0.6949887600000011  0.0469810410000022  0.0063800190999999
  0.9150219400000026  0.7273868500000020  0.7630932499999972
  0.9660615100000030  0.0801290300000019  0.3705105900000021
  0.2030540299999970  0.1054230900000022  0.6941174000000032
  0.8106963299999990  0.6598890400000030  0.6384359600000025
  0.9158388099999968  0.6869299600000005  0.2888910899999999
  0.8573895299999990  0.8703055100000014  0.8863554500000035
  0.9176155399999999  0.8227682799999982  0.4042783100000023
  0.2209357600000033  0.6540698900000024  0.6565627599999999
  0.3975448699999973  0.6148126000000005  0.6625478300000012
  0.7234172100000009  0.1561259400000026  0.1375811699999971
  0.8656390900000019  0.3286610899999971  0.5846395399999977
  0.1489641000000006  0.4649315899999991  0.8347155700000002
  0.3572090899999978  0.7504706499999969  0.0646024600000032
  0.6780942099999976  0.1928796700000035  0.9359607299999979
  0.4486318800000006  0.2967625799999993  0.6818107200000014
  0.1972624599999975  0.4598405400000019  0.1431185699999986
  0.0200406700000002  0.9882229400000000  0.1928972400000006
  0.1461611200000021  0.3132524099999969  0.2137278300000034
  0.4662466999999992  0.1131809700000019  0.6632765800000016
  0.6221087500000024  0.0043175882000028  0.5919440099999989
  0.6642788400000015  0.7053140800000008  0.0942349780000029
  0.1762047400000029  0.9297330899999992  0.7083889099999965
  0.4608405399999995  0.8378540799999996  0.2945300599999996
  0.7726926100000000  0.7961955500000002  0.1851628800000000
  0.8055955999999966  0.1301141200000018  0.3792413299999993
  0.6911318800000004  0.7082478800000018  0.8764718600000023
  0.2329628199999974  0.0277796339999981  0.2143223100000000
  0.2066148500000011  0.1580307400000009  0.4255237200000010
  0.4873251400000029  0.8240428300000033  0.9813725400000024
  0.0799708560000028  0.8634817100000021  0.0584158289999976
  0.6479738900000029  0.5567726399999984  0.1684498300000001
  0.9070211900000018  0.3886302299999969  0.2939285699999985
  0.2425996400000017  0.5557782300000014  0.2808505499999967
  0.8538437699999974  0.9570612799999978  0.7179641500000002
  0.4630949800000010  0.5232235699999990  0.1252115099999997
  0.6076058800000013  0.4318677400000013  0.1015609600000005
  0.7404868100000002  0.2900483499999993  0.3535955700000031
  0.5456327300000012  0.6947084600000011  0.3564719000000025
  0.6964199199999968  0.0401395550000032  0.7183633900000004
  0.4893773399999972  0.7215433100000013  0.1742120299999996
  0.5992906600000012  0.8528659199999993  0.1933626599999982
  0.3089902500000008  0.3888697200000024  0.2659620700000005
  0.6225818099999998  0.3716976199999991  0.2604234900000009
  0.2460562999999993  0.2372247999999999  0.7999393099999992
  0.9440047200000024  0.0991056590000028  0.8339338800000036
  0.4956792199999995  0.6348221399999971  0.0178701869999998
  0.2855296299999992  0.5091137799999998  0.7237392700000029
  0.8059300700000023  0.3662409200000027  0.0488210720000026
 
  0.00000000E+00  0.00000000E+00  0.00000000E+00
  0.00000000E+00  0.00000000E+00  0.00000000E+00
  0.00000000E+00  0.00000000E+00  0.00000000E+00
  0.00000000E+00  0.00000000E+00  0.00000000E+00
  0.00000000E+00  0.00000000E+00  0.00000000E+00
  0.00000000E+00  0.00000000E+00  0.00000000E+00
  0.00000000E+00  0.00000000E+00  0.00000000E+00
  0.00000000E+00  0.00000000E+00  0.00000000E+00
  0.00000000E+00  0.00000000E+00  0.00000000E+00
  0.00000000E+00  0.00000000E+00  0.00000000E+00
  0.00000000E+00  0.00000000E+00  0.00000000E+00
  0.00000000E+00  0.00000000E+00  0.00000000E+00
  0.00000000E+00  0.00000000E+00  0.00000000E+00
  0.00000000E+00  0.00000000E+00  0.00000000E+00
  0.00000000E+00  0.00000000E+00  0.00000000E+00
  0.00000000E+00  0.00000000E+00  0.00000000E+00
  0.00000000E+00  0.00000000E+00  0.00000000E+00
  0.00000000E+00  0.00000000E+00  0.00000000E+00
  0.00000000E+00  0.00000000E+00  0.00000000E+00
  0.00000000E+00  0.00000000E+00  0.00000000E+00
  0.00000000E+00  0.00000000E+00  0.00000000E+00
  0.00000000E+00  0.00000000E+00  0.00000000E+00
  0.00000000E+00  0.00000000E+00  0.00000000E+00
  0.00000000E+00  0.00000000E+00  0.00000000E+00
  0.00000000E+00  0.00000000E+00  0.00000000E+00
  0.00000000E+00  0.00000000E+00  0.00000000E+00
  0.00000000E+00  0.00000000E+00  0.00000000E+00
  0.00000000E+00  0.00000000E+00  0.00000000E+00
  0.00000000E+00  0.00000000E+00  0.00000000E+00
  0.00000000E+00  0.00000000E+00  0.00000000E+00
  0.00000000E+00  0.00000000E+00  0.00000000E+00
  0.00000000E+00  0.00000000E+00  0.00000000E+00
  0.00000000E+00  0.00000000E+00  0.00000000E+00
  0.00000000E+00  0.00000000E+00  0.00000000E+00
  0.00000000E+00  0.00000000E+00  0.00000000E+00
  0.00000000E+00  0.00000000E+00  0.00000000E+00
  0.00000000E+00  0.00000000E+00  0.00000000E+00
  0.00000000E+00  0.00000000E+00  0.00000000E+00
  0.00000000E+00  0.00000000E+00  0.00000000E+00
  0.00000000E+00  0.00000000E+00  0.00000000E+00
  0.00000000E+00  0.00000000E+00  0.00000000E+00
  0.00000000E+00  0.00000000E+00  0.00000000E+00
  0.00000000E+00  0.00000000E+00  0.00000000E+00
  0.00000000E+00  0.00000000E+00  0.00000000E+00
  0.00000000E+00  0.00000000E+00  0.00000000E+00
  0.00000000E+00  0.00000000E+00  0.00000000E+00
  0.00000000E+00  0.00000000E+00  0.00000000E+00
  0.00000000E+00  0.00000000E+00  0.00000000E+00
  0.00000000E+00  0.00000000E+00  0.00000000E+00
  0.00000000E+00  0.00000000E+00  0.00000000E+00
  0.00000000E+00  0.00000000E+00  0.00000000E+00
  0.00000000E+00  0.00000000E+00  0.00000000E+00
  0.00000000E+00  0.00000000E+00  0.00000000E+00
  0.00000000E+00  0.00000000E+00  0.00000000E+00
  0.00000000E+00  0.00000000E+00  0.00000000E+00
  0.00000000E+00  0.00000000E+00  0.00000000E+00
  0.00000000E+00  0.00000000E+00  0.00000000E+00
  0.00000000E+00  0.00000000E+00  0.00000000E+00
  0.00000000E+00  0.00000000E+00  0.00000000E+00
  0.00000000E+00  0.00000000E+00  0.00000000E+00
  0.00000000E+00  0.00000000E+00  0.00000000E+00
  0.00000000E+00  0.00000000E+00  0.00000000E+00
  0.00000000E+00  0.00000000E+00  0.00000000E+00
  0.00000000E+00  0.00000000E+00  0.00000000E+00
  0.00000000E+00  0.00000000E+00  0.00000000E+00
  0.00000000E+00  0.00000000E+00  0.00000000E+00
  0.00000000E+00  0.00000000E+00  0.00000000E+00
  0.00000000E+00  0.00000000E+00  0.00000000E+00
  0.00000000E+00  0.00000000E+00  0.00000000E+00
  0.00000000E+00  0.00000000E+00  0.00000000E+00
  0.00000000E+00  0.00000000E+00  0.00000000E+00
  0.00000000E+00  0.00000000E+00  0.00000000E+00
  0.00000000E+00  0.00000000E+00  0.00000000E+00
  0.00000000E+00  0.00000000E+00  0.00000000E+00
  0.00000000E+00  0.00000000E+00  0.00000000E+00
  0.00000000E+00  0.00000000E+00  0.00000000E+00
  0.00000000E+00  0.00000000E+00  0.00000000E+00
  0.00000000E+00  0.00000000E+00  0.00000000E+00
  0.00000000E+00  0.00000000E+00  0.00000000E+00
  0.00000000E+00  0.00000000E+00  0.00000000E+00
  0.00000000E+00  0.00000000E+00  0.00000000E+00
  0.00000000E+00  0.00000000E+00  0.00000000E+00
  0.00000000E+00  0.00000000E+00  0.00000000E+00
  0.00000000E+00  0.00000000E+00  0.00000000E+00
  0.00000000E+00  0.00000000E+00  0.00000000E+00
  0.00000000E+00  0.00000000E+00  0.00000000E+00
  0.00000000E+00  0.00000000E+00  0.00000000E+00
  0.00000000E+00  0.00000000E+00  0.00000000E+00
  0.00000000E+00  0.00000000E+00  0.00000000E+00
  0.00000000E+00  0.00000000E+00  0.00000000E+00
  0.00000000E+00  0.00000000E+00  0.00000000E+00
  0.00000000E+00  0.00000000E+00  0.00000000E+00
  0.00000000E+00  0.00000000E+00  0.00000000E+00
  0.00000000E+00  0.00000000E+00  0.00000000E+00
  0.00000000E+00  0.00000000E+00  0.00000000E+00
  0.00000000E+00  0.00000000E+00  0.00000000E+00
  0.00000000E+00  0.00000000E+00  0.00000000E+00
  0.00000000E+00  0.00000000E+00  0.00000000E+00
  0.00000000E+00  0.00000000E+00  0.00000000E+00
  0.00000000E+00  0.00000000E+00  0.00000000E+00
  0.00000000E+00  0.00000000E+00  0.00000000E+00
  0.00000000E+00  0.00000000E+00  0.00000000E+00
  0.00000000E+00  0.00000000E+00  0.00000000E+00
  0.00000000E+00  0.00000000E+00  0.00000000E+00
  0.00000000E+00  0.00000000E+00  0.00000000E+00
  0.00000000E+00  0.00000000E+00  0.00000000E+00
  0.00000000E+00  0.00000000E+00  0.00000000E+00
  0.00000000E+00  0.00000000E+00  0.00000000E+00
  0.00000000E+00  0.00000000E+00  0.00000000E+00
  0.00000000E+00  0.00000000E+00  0.00000000E+00
  0.00000000E+00  0.00000000E+00  0.00000000E+00
  0.00000000E+00  0.00000000E+00  0.00000000E+00
  0.00000000E+00  0.00000000E+00  0.00000000E+00
  0.00000000E+00  0.00000000E+00  0.00000000E+00
  0.00000000E+00  0.00000000E+00  0.00000000E+00
  0.00000000E+00  0.00000000E+00  0.00000000E+00
  0.00000000E+00  0.00000000E+00  0.00000000E+00
  0.00000000E+00  0.00000000E+00  0.00000000E+00
  0.00000000E+00  0.00000000E+00  0.00000000E+00
  0.00000000E+00  0.00000000E+00  0.00000000E+00
  0.00000000E+00  0.00000000E+00  0.00000000E+00
  0.00000000E+00  0.00000000E+00  0.00000000E+00
  0.00000000E+00  0.00000000E+00  0.00000000E+00
  0.00000000E+00  0.00000000E+00  0.00000000E+00
  0.00000000E+00  0.00000000E+00  0.00000000E+00
  0.00000000E+00  0.00000000E+00  0.00000000E+00
  0.00000000E+00  0.00000000E+00  0.00000000E+00
  0.00000000E+00  0.00000000E+00  0.00000000E+00
  0.00000000E+00  0.00000000E+00  0.00000000E+00
  0.00000000E+00  0.00000000E+00  0.00000000E+00
  0.00000000E+00  0.00000000E+00  0.00000000E+00
  0.00000000E+00  0.00000000E+00  0.00000000E+00
  0.00000000E+00  0.00000000E+00  0.00000000E+00
  0.00000000E+00  0.00000000E+00  0.00000000E+00
  0.00000000E+00  0.00000000E+00  0.00000000E+00
  0.00000000E+00  0.00000000E+00  0.00000000E+00
  0.00000000E+00  0.00000000E+00  0.00000000E+00
  0.00000000E+00  0.00000000E+00  0.00000000E+00
  0.00000000E+00  0.00000000E+00  0.00000000E+00
  0.00000000E+00  0.00000000E+00  0.00000000E+00
  0.00000000E+00  0.00000000E+00  0.00000000E+00
  0.00000000E+00  0.00000000E+00  0.00000000E+00
  0.00000000E+00  0.00000000E+00  0.00000000E+00
  0.00000000E+00  0.00000000E+00  0.00000000E+00
  0.00000000E+00  0.00000000E+00  0.00000000E+00
  0.00000000E+00  0.00000000E+00  0.00000000E+00
  0.00000000E+00  0.00000000E+00  0.00000000E+00
  0.00000000E+00  0.00000000E+00  0.00000000E+00
  0.00000000E+00  0.00000000E+00  0.00000000E+00
  0.00000000E+00  0.00000000E+00  0.00000000E+00
  0.00000000E+00  0.00000000E+00  0.00000000E+00
  0.00000000E+00  0.00000000E+00  0.00000000E+00
  0.00000000E+00  0.00000000E+00  0.00000000E+00
  0.00000000E+00  0.00000000E+00  0.00000000E+00
  0.00000000E+00  0.00000000E+00  0.00000000E+00
  0.00000000E+00  0.00000000E+00  0.00000000E+00
  0.00000000E+00  0.00000000E+00  0.00000000E+00
  0.00000000E+00  0.00000000E+00  0.00000000E+00
  0.00000000E+00  0.00000000E+00  0.00000000E+00
  0.00000000E+00  0.00000000E+00  0.00000000E+00
  0.00000000E+00  0.00000000E+00  0.00000000E+00
  0.00000000E+00  0.00000000E+00  0.00000000E+00
  0.00000000E+00  0.00000000E+00  0.00000000E+00
  0.00000000E+00  0.00000000E+00  0.00000000E+00
  0.00000000E+00  0.00000000E+00  0.00000000E+00
  0.00000000E+00  0.00000000E+00  0.00000000E+00
  0.00000000E+00  0.00000000E+00  0.00000000E+00
  0.00000000E+00  0.00000000E+00  0.00000000E+00
  0.00000000E+00  0.00000000E+00  0.00000000E+00
  0.00000000E+00  0.00000000E+00  0.00000000E+00
  0.00000000E+00  0.00000000E+00  0.00000000E+00
  0.00000000E+00  0.00000000E+00  0.00000000E+00
  0.00000000E+00  0.00000000E+00  0.00000000E+00
  0.00000000E+00  0.00000000E+00  0.00000000E+00
  0.00000000E+00  0.00000000E+00  0.00000000E+00
  0.00000000E+00  0.00000000E+00  0.00000000E+00
  0.00000000E+00  0.00000000E+00  0.00000000E+00
  0.00000000E+00  0.00000000E+00  0.00000000E+00
  0.00000000E+00  0.00000000E+00  0.00000000E+00
  0.00000000E+00  0.00000000E+00  0.00000000E+00
  0.00000000E+00  0.00000000E+00  0.00000000E+00
  0.00000000E+00  0.00000000E+00  0.00000000E+00
  0.00000000E+00  0.00000000E+00  0.00000000E+00
  0.00000000E+00  0.00000000E+00  0.00000000E+00
  0.00000000E+00  0.00000000E+00  0.00000000E+00
  0.00000000E+00  0.00000000E+00  0.00000000E+00
  0.00000000E+00  0.00000000E+00  0.00000000E+00
  0.00000000E+00  0.00000000E+00  0.00000000E+00
  0.00000000E+00  0.00000000E+00  0.00000000E+00
  0.00000000E+00  0.00000000E+00  0.00000000E+00
  0.00000000E+00  0.00000000E+00  0.00000000E+00
  0.00000000E+00  0.00000000E+00  0.00000000E+00
  0.00000000E+00  0.00000000E+00  0.00000000E+00
  0.00000000E+00  0.00000000E+00  0.00000000E+00
  0.00000000E+00  0.00000000E+00  0.00000000E+00
  0.00000000E+00  0.00000000E+00  0.00000000E+00
  0.00000000E+00  0.00000000E+00  0.00000000E+00
  0.00000000E+00  0.00000000E+00  0.00000000E+00
  0.00000000E+00  0.00000000E+00  0.00000000E+00
  0.00000000E+00  0.00000000E+00  0.00000000E+00
  0.00000000E+00  0.00000000E+00  0.00000000E+00
  0.00000000E+00  0.00000000E+00  0.00000000E+00
  0.00000000E+00  0.00000000E+00  0.00000000E+00
  0.00000000E+00  0.00000000E+00  0.00000000E+00
  0.00000000E+00  0.00000000E+00  0.00000000E+00
  0.00000000E+00  0.00000000E+00  0.00000000E+00
  0.00000000E+00  0.00000000E+00  0.00000000E+00
  0.00000000E+00  0.00000000E+00  0.00000000E+00
  0.00000000E+00  0.00000000E+00  0.00000000E+00
  0.00000000E+00  0.00000000E+00  0.00000000E+00
  0.00000000E+00  0.00000000E+00  0.00000000E+00
  0.00000000E+00  0.00000000E+00  0.00000000E+00
  0.00000000E+00  0.00000000E+00  0.00000000E+00
  0.00000000E+00  0.00000000E+00  0.00000000E+00
  0.00000000E+00  0.00000000E+00  0.00000000E+00
  0.00000000E+00  0.00000000E+00  0.00000000E+00
  0.00000000E+00  0.00000000E+00  0.00000000E+00
  0.00000000E+00  0.00000000E+00  0.00000000E+00
  0.00000000E+00  0.00000000E+00  0.00000000E+00
  0.00000000E+00  0.00000000E+00  0.00000000E+00
  0.00000000E+00  0.00000000E+00  0.00000000E+00
  0.00000000E+00  0.00000000E+00  0.00000000E+00
  0.00000000E+00  0.00000000E+00  0.00000000E+00
  0.00000000E+00  0.00000000E+00  0.00000000E+00