Amorphous Sb                            
   1.00000000000000     
    18.3047332764000004    0.0000000000000000    0.0000000000000000
     0.0000000000000000   18.3047332764000004    0.0000000000000000
     0.0000000000000000    0.0000000000000000   18.3047332764000004
   Si
   300
Direct
  0.8581938845905850  0.4086664490943238  0.8228319185984312
  0.0376099992753391  0.1572580338168208  0.8633849068226394
  0.5214307974493942  0.1998636488931288  0.9926169496463857
  0.7431904086876239  0.9096074246489722  0.8810762387923965
  0.5563808877183063 -0.0059066436367814  0.8771633343775543
  0.7569094706862410 -0.0052568607326653  0.6756711467156142
  0.6441484331888426  0.1257671518026885  0.7369836115756041
  0.6426999107383016  0.4823207470774549  0.0963266910793450
  0.5297692586887540  0.2554834323368419  0.6933055238265984
  0.0407616062703901  0.3796849433478983  0.2784391777062057
  0.6989759259899841  0.6892774413299091  0.3228318568464488
  0.2038511093727566  0.3684804357998061  0.7519153770547750
  0.3606103398289184  0.0002997372104482  0.6536501276519799
  0.2410760407415365  0.5340192619839673  0.4986014878765495
  0.6661154536676105  0.8195705597023905  0.6011484805502413
  0.0884082163861983  0.6309479809981859  0.7561265578032309
  0.1532232238544836  0.1513939911053650  0.7481852458412296
  0.6480781816004142  0.9261889322167989  0.5273947240349782
  0.2456969834388872  0.5093870785481401  0.8962352353071764
  0.1403681704823705  0.7407338031580818  0.4155069015718011
  0.9333890427346039  0.3711027673684255  0.4416504913436876
  0.8522374489678917  0.5326076339658904  0.4667949236753594
  0.7392790311878819  0.4595707374806346  0.7880626246576852
  0.3364997907137725  0.7434652746527396  0.6458371444770244
  0.5000667990327597  0.1243874522758134  0.0978305397584552
  0.5921375869431230  0.9238500018372080  0.1556187644272281
  0.2479202502335202  0.2119206645181161  0.9608982737203153
  0.8520538589767779  0.6705631353556164  0.4215751127648846
  0.3427014713292963  0.3519065137266151  0.8713655949530030
  0.3411441120233055  0.3744563052934266  0.4932990313971393
  0.9748133410771422  0.7891987567091195  0.5394711039203260
  0.4509720192144642  0.1579955823897304  0.8920488919236395
  0.5750847392078052  0.8865514609777327  0.0324791435264196
  0.2536282349805659  0.1008988980990340  0.4782010153304754
  0.9862365605977513  0.5773576384640402  0.9095881339684396
  0.8525502278758222  0.2027047632491124  0.9676169331726261
  0.6750249668674860  0.1886120473681485  0.5512026124487657
  0.1485404328687236  0.6224941615934391  0.1885269559243334
  0.7231530831404216  0.9116719838511459  0.1325267436316451
  0.9352569762037821  0.2351185511076404  0.8703262700646935
  0.0083812021562375  0.8537151290544029  0.3265583724333768
  0.7220335282527426  0.6474465837727958  0.9243520794263413
  0.2952452334108748  0.4479104191727059  0.7927974773625381
  0.9716611079382973  0.3500939205915818  0.1745884067628266
  0.5298739760226557  0.3624808900704843  0.3776230398127324
  0.5942445792628851  0.3648922760067081  0.0878830545756529
  0.4894032961034870  0.3214386893461250  0.0231596804348993
  0.4168838518499899  0.5962047766289911  0.9432531131888653
  0.7867511976626638  0.3576242377442749  0.1791805752633779
  0.3374406288388416  0.6164847101808686  0.4397749103859918
  0.3514440695128574  0.3959179134655851  0.3401866682441390
  0.9266917033895696  0.0090530871876397  0.2170365831063744
  0.8597840860993440  0.9818535908392536  0.0049137095323772
  0.3764095055510484  0.7137909315415950  0.9730965756563505
  0.0515803323969501  0.2517550695735752  0.0219989253396073
  0.7475198727935446  0.5856132825095217  0.3942112028915564
  0.0211784698513931  0.2995944537525242  0.3793210266157701
  0.6525316979347534  0.5885759943155983  0.5964047328802797
  0.3434794641652345  0.1997053348299352  0.7296446396246845
  0.2472501108062746  0.3604530827859782  0.6358409064465408
  0.8987122655146553  0.6740045642192526  0.3016092907762838
  0.2394733488747318  0.7808469646182570  0.4892843147633157
  0.0833786828828332  0.3639002452038780  0.8902224835734208
  0.2566663889845531  0.7067620664123891  0.8092562942182200
  0.4542302868792605  0.3957535626051996  0.9205905903048279
  0.0775983405861773  0.6398888837351949  0.4669695730493031
  0.0575422183844325  0.9104911952731108  0.0655116033187370
  0.9549744129850367  0.4918240239194835  0.4021686547045091
  0.9497924320279473  0.1246750491082053  0.4568930349475896
  0.6996281000781128  0.5227869729010839  0.8948984918996558
  0.7302384223563105  0.4600835366065745  0.0017370321447106
  0.4331876084871172  0.2946095438708889  0.3266181077011737
  0.3838142396975417  0.6789814383596847  0.3260628660083207
  0.3591206292985850  0.4871967071144436  0.9572492739235139
  0.6108819816845132  0.1216286762154885  0.2881540480618696
  0.2969867947630792  0.9050348071495401  0.0675155273024190
  0.2643702553587345  0.6654209409121703  0.0195180822141383
  0.8183737577682934  0.9297795727804170  0.3542530886926152
  0.7497123454825391  0.7509584707736233  0.5269996846310355
  0.7084548309153504  0.2090224940974566  0.2814935944973741
  0.6971641812656657  0.0272742767719404  0.2770177451975713
  0.2124011956789751  0.7734511982907274  0.6191220373333708
  0.8762617415323777  0.2628834911982390  0.1909693004904771
  0.3824443022751164  0.1615791937338145  0.1276053663685691
  0.9147397403518586  0.5026300798176487  0.7557325657564093
  0.8132890768750491  0.6850922928763892  0.8428219041757374
  0.0211288310447063  0.7615919603097561  0.9323775159519641
  0.4588452978168749  0.7359586500101566  0.0698968359389227
  0.8894467878861406  0.7369318222002671  0.9393274915264922
  0.6679760026812536  0.7533253596065083  0.4285147997169910
  0.6328802975881730  0.3896772803425937  0.8258788179095902
  0.3555188603750259  0.7261617188973709  0.5091764477533059
  0.1353313072990272  0.8691725912091336  0.6600529990873468
  0.9616813162758584  0.8794370110361887  0.8985480457409445
  0.5453608525232231  0.6586661320121684  0.5863237115911691
  0.7098747187865792  0.2951041658655114  0.3760633316169917
  0.6323095181824788  0.6881498359675372  0.1110470027961421
  0.3051856553622285  0.4605645112101404  0.5828587404235057
  0.5766733542964118  0.7601084487618167  0.0185852831294866
  0.7948600811133193  0.7219994849001218  0.2417579841079303
  0.4657064531384645  0.5550246012410264  0.5928898220851216
  0.4403336124895205  0.0300228060019579  0.9201596918717836
  0.0634710079932273  0.0764416444123767  0.6594892379407106
  0.8425995680004310  0.5663037644754415  0.5912612993429740
  0.4257869875212559  0.1081967008517685  0.6868706317971928
  0.4933639786991294  0.8591819234425383  0.6936656349773674
  0.0514046547602724  0.2075680398749187  0.6282594701454888
  0.9021645084276516  0.8946704752478029  0.2676837431348348
  0.1858034620045195  0.9172577441294345  0.7684560924095722
  0.2078659685858806  0.2523402055425052  0.8067478039849630
  0.7720162905740267  0.2351088808056752  0.4757231634206202
  0.4494252771549494  0.7596297974503218  0.4170555905729922
  0.5381386278411511  0.8331017059715609  0.2336467838149892
  0.0051062268695799  0.5029879718495713  0.2735870703488590
  0.3837245581972117  0.8202429549184148  0.7435124650170784
  0.0358470715791834  0.1632923491195727  0.3716086429718800
  0.1276788119835002  0.2365196216469073  0.9151066235790619
  0.2697537666715787  0.1373621923535341  0.0687298108362294
  0.6924559921677770  0.2040635062863794  0.1511052824282940
  0.7659152147115121  0.0462887239071142  0.3828329081295618
  0.9590760950567834  0.6102456490478173  0.6109917494815182
  0.2112940485315068  0.6336934834454800  0.9058282219711540
  0.6523958112226558  0.9579065913402062  0.9606136577432574
  0.4689371756822757  0.9842012671219629  0.3820506804745676
  0.5689385835265269  0.7588423112397216  0.6648231661539495
  0.8107155214136769  0.0647644311852749  0.2243324417297670
  0.5669338605897521  0.5824901488523272  0.0736031743960674
  0.7002659680409810  0.9044313687157522  0.3165120801728249
  0.5577408806016805  0.4775643755756134  0.8846248372571983
  0.5767938065867361  0.5475273968679413  0.2782703897472444
  0.3350227872583694  0.7769907775815182  0.2399457327792217
  0.5696384240355021  0.1900860297626609  0.1859286540348141
  0.8397902607834937  0.8639345943891176  0.9528800132460249
  0.8332114092778282  0.1781156491097927  0.2813830342728533
  0.4104152365093457  0.9366680229143534  0.1229557644979717
  0.6272793840138179  0.8722840164863159  0.4139922528716453
  0.0431039357581677  0.5087279311309733  0.7352732798680883
  0.1875544038661147  0.3086574726811773  0.1574076912741982
  0.0873514092162675  0.1024257025007956  0.1634161381182353
  0.5731422701969202  0.9303984763888862  0.7670830565005550
  0.1288591933776219  0.2474390405943455  0.5332032517577174
  0.4257469954495530  0.1681318756501171  0.3494094479847818
  0.5687205991275220  0.3229690378498530  0.2032408941127504
  0.8829556708453666  0.1824533887358937  0.0889948170746148
  0.3350436059191140  0.2217093310729915  0.8594748269286296
  0.6471482497410213  0.4008705422962611  0.6148523444989988
  0.1386591952864683  0.9841790562323639  0.5902363768297392
  0.5628571436762839  0.1273567864778465  0.5179476852069167
  0.0299024496834678  0.0706863916835268  0.2741423166471513
  0.2282247599912462  0.3716949280953835  0.3586029136287935
  0.6267256138813554  0.7293543587197682  0.7807330371947556
  0.0106701244806900  0.3169295806257386  0.6881941201204197
  0.5303949405277082  0.1019933426474288  0.3913968620434918
  0.0109993116197232  0.7355398492522753  0.2724518931703204
  0.6108064570877453  0.3041307445408595  0.4613488982177783
  0.7329102207079050  0.3929299926253050  0.2952113650090114
  0.3963878027119148  0.2903432747342050  0.1124347604655628
  0.0062136887805121  0.1400338561855542  0.0707089453487040
  0.4469522213999252  0.3485148621457536  0.2124486783906644
  0.8767789852487171  0.1221838936936021  0.6271417330979413
  0.9960459967875178  0.3927402235096021  0.5764420185008367
  0.9640665516406315  0.0009758711854731  0.4918846459184764
  0.6360058822057254  0.1929338146034894  0.9368680445226897
  0.1892903766047673  0.9230031894002446  0.2343312858965408
  0.9451705908244209  0.2053012601782617  0.5556433574169253
  0.5631754002194528  0.0096345596213306  0.5735961771952635
  0.7580885884730121  0.6564728754484843  0.6142078534390903
  0.1120097251240096  0.4666722572861529  0.0783980848515889
  0.6494432772928393  0.2759735798517823  0.6480676858023577
  0.7589773289976881  0.0935896088061335  0.5913801526535871
  0.2899708143888482  0.3552576678350315  0.0931336077371963
  0.4518240154498397  0.6161801188043358  0.1212569541167686
  0.1775397585310061  0.7208083545001873  0.1014241097734129
  0.8898218649196565  0.5529189809715849  0.2330789846881223
  0.2741081783125807  0.0061017968764631  0.4001729855270673
  0.8234758562938760  0.4693702069750040  0.6696564127157709
  0.1541387040380367  0.0352421808674085  0.8097185596341788
  0.3788018913996736  0.2569234543488166  0.5393804874880332
  0.0853380764229067  0.6569083237357854  0.8842368934672867
  0.5383393883476906  0.4920367830515917  0.7557331569339716
  0.0291893885713017  0.0533581905658852  0.7861294815823754
  0.0832304900287183  0.3576658176862590  0.4829107922549674
  0.2159617948692702  0.0014654980761846  0.9181139330467079
  0.0586847662774369  0.9498259772700620  0.9444690558265115
  0.3647435903381206  0.3132434284967777  0.6671606785458076
  0.5118057818211745  0.1513443197033748  0.7729156963600498
  0.0446727479933460  0.5549991866521427  0.1496548361748840
  0.8026613336148514 -0.0070045378050776  0.7973340159726023
  0.1481864547092848  0.1685615889083696  0.4365985287708676
  0.1623942771293495  0.4532451594790807  0.4326563807883633
  0.4322447482003204  0.8179378447323470  0.1664248661967365
  0.1905880580026308  0.1804243839392692  0.1633281978408312
  0.2484468330709509  0.2504161306805718  0.5749172517907134
  0.0215668734293866  0.0743730069526870  0.9596536826093035
  0.2401152041806697  0.8201761767929706  0.1567672240861231
  0.4469425192610283  0.5539345331266785  0.4649238213950078
  0.2438806242123193  0.1578381102314557  0.2761804336090423
  0.7876575121552776  0.8151467943619600  0.0648819638359156
  0.1410407194497825  0.5834013088967692  0.5641853483331062
  0.2301275399333042  0.0149916504920484  0.0460212562855749
  0.9384153562055940  0.6231466824419116  0.1277644839889407
  0.2347870822978611  0.2419699516143052  0.3753134796832585
  0.8870968376412355  0.8370066427126812  0.1492374900760633
  0.5119726653409179  0.3478987357941697  0.7889391753853102
  0.5439081147143373  0.5888779734062092  0.9471130671526985
  0.0845680319749464  0.9578766309140514  0.4643779092636048
  0.1134933537439796  0.6637371171228346  0.3093803872956959
  0.6292181247449866  0.0093928839735100  0.6840637488176139
  0.7509247411990062  0.0016687668183177  0.5022951215782875
  0.2435793707898039  0.1563437196094330  0.6607195684103172
  0.4174539177106663  0.9041784079738220  0.4723657439649938
  0.9822385166273889  0.6876513945560474  0.7131134633061329
  0.3028362626042053  0.8845269202911870  0.3044781430426414
  0.3653539888019719  0.5181635162025073  0.6831600194111096
  0.3358178946264317  0.1912913664035341  0.4382682264494423
  0.0417534453614780  0.5114428054395578  0.6068828971800523
  0.2584005048744942  0.3439827648822587  0.9717748598239243
  0.3450538249884261  0.5700287671575088  0.0631229534225470
  0.9037525636472648  0.6050789390059367  0.0065893910100964
  0.9780545507620932  0.7433537967394908  0.1471006953273915
  0.3481744760975599  0.8757010247930669  0.9470751456068609
  0.8517175743661141  0.4897216551253100  0.0310111717629463
  0.7783196112934692  0.5126767749981866  0.2932972265089311
  0.6035496223011250  0.6944778668358070  0.9058510047479182
  0.4852307215676490  0.3426314143881005  0.5099718515461503
  0.7471952198729916  0.7057956885891867  0.7348454526074839
  0.9791683475661941  0.3235914808197350  0.9479941772930414
  0.9149319885621078  0.6192437412872336  0.8078554120688629
  0.3941534283537654  0.4658609370309371  0.2373323854291013
  0.1635992021468734  0.4342333214950489  0.9605931585904500
  0.0788974758849901  0.3444632283349264  0.1021075567506838
  0.1630513842853938  0.8834580168088851  0.8946006674795073
  0.0795597720537002  0.5436404543166331  0.3773286608567447
  0.6042552497398296  0.4159465869653580  0.2862750231280902
  0.8373305614932351  0.1501738981738771  0.4047595264653432
  0.2545365954868317  0.0467026226233352  0.5944981215349466
  0.7413039820198890  0.0303167413860076  0.0224781396068770
  0.4527879998747018  0.5850048550849536  0.2479665080471092
  0.1370089509209475  0.9870601558807032  0.1312082761092369
  0.8348595974752326  0.1963909573626762  0.7248413446584927
  0.3671852542843692 -0.0016459396560445  0.3069369805478758
  0.8814675831952151  0.4441591437826016  0.1503495559301797
  0.3029218903105200  0.6349124431662300  0.7109100692662823
  0.5564981333972796  0.6976659514532165  0.4612302955628075
  0.2062981459894883  0.0360318787800768  0.2992710414760533
  0.3109333879175484  0.4727063165298143  0.1406130148766905
  0.6148533557234590  0.7323580730528847  0.2310115057257299
  0.6914298620834397  0.2851668833723339  0.8703867356803442
  0.3634450075189408  0.1158477879409597  0.2498695773807819
  0.6112762611633583  0.1033014106282902  0.8522899182055217
  0.0659072927785953  0.7790435421770752  0.0576098556812330
  0.9388805539005112  0.9476654821212879  0.1022807753961009
  0.0511622861798532  0.8342675499844909  0.4465517729840071
  0.8763327151999412  0.3943483021820246  0.9503850015170401
  0.3143392372437778  0.9290070753974397  0.7534974702602271
  0.8091667436518779  0.4072247766085931  0.4648842733296668
  0.8525901024700484  0.8272153192274669  0.5393811975753976
  0.3340389334239593  0.9777791417116041  0.8716146428327669
  0.6581256567028922  0.5359751652213117  0.4764257235933324
  0.7419642791122264  0.8275107306833575  0.7024913746580200
  0.3515491800193053  0.7754620868993082  0.8634978120933379
  0.5135952995456371  0.8657405019522293  0.3576566437386210
  0.4355607602693993  0.4360189972577582  0.4279534055057562
  0.8554843711545354  0.9328352853768710  0.4732033868520421
  0.9558361108598937  0.0186488473435362  0.6188832298142010
  0.4469420565304248  0.4130432441325300  0.6946583132364718
  0.7751636860887230  0.1133586374906781  0.1140828022660011
  0.5006317592673957  0.0188084620585941  0.1769927769941672
  0.1928452735721240  0.4986966649112792  0.1766341202027028
  0.7154202696601990  0.2325401428042661  0.7489448419331007
  0.7125438196899114  0.8192425394959667  0.2225042879040418
  0.7505211886260803  0.6464862644291947  0.1455357809377826
  0.0819642134651461  0.3918230002427250  0.7664661324852436
  0.5231231741285005  0.4355267974996197  0.5925359572610819
  0.5602873285961235  0.5809595306009324  0.4061412876111295
  0.6665166950735492  0.8502286748305855  0.7992264445442976
  0.8971749247419004  0.0813579084189767  0.9337126363845289
  0.9581271193750095  0.6702426048767753  0.4993086431271022
  0.9035142218571346  0.2985022973901033  0.7625157769514604
  0.6897584308470583  0.5444815062488034  0.2024492705100916
  0.7494386577456208  0.1318481204751737  0.9400630564395516
  0.0169028229767119  0.8089294690214993  0.6607691907121960
  0.4577697254247117  0.9362657008383685  0.5939304411139381
  0.2937699027186784  0.8856638700804652  0.4351360620633031
  0.7099893550943077  0.3107149381467783  0.0839427740061157
  0.1809258805723532  0.6538702716726962  0.6665305364821742
  0.0915976506080420  0.9628957372235256  0.3255069788914535
  0.7906864182727283  0.6827829996949831  0.0283840991210269
  0.9461015273887980  0.9115970356070339  0.6889940135657336
  0.6546467299753810  0.4996160954637428  0.6938985427718642
  0.8300269262994260  0.8926886710882493  0.6456760754438360
  0.8345777051744674  0.2642711356043722  0.5870107170454607
  0.6807617154086141  0.4102090551613853  0.4922458483766874
  0.8203369599991772  0.1124786770653532  0.8330555074956015
  0.4731561218816795  0.1870844487552223  0.5943406032147774
  0.4552866468460892  0.9280097592102821  0.0038045458641439
  0.7648924692993456  0.3325211001000285  0.9697450283831018
  0.8643780945405952  0.3887105417192472  0.5799918226567510
  0.1660587370672237  0.3931506997783196  0.2504271158787056
  0.9318872087115959  0.9628232438258074  0.8034933392417731
 
  0.00000000E+00  0.00000000E+00  0.00000000E+00
  0.00000000E+00  0.00000000E+00  0.00000000E+00
  0.00000000E+00  0.00000000E+00  0.00000000E+00
  0.00000000E+00  0.00000000E+00  0.00000000E+00
  0.00000000E+00  0.00000000E+00  0.00000000E+00
  0.00000000E+00  0.00000000E+00  0.00000000E+00
  0.00000000E+00  0.00000000E+00  0.00000000E+00
  0.00000000E+00  0.00000000E+00  0.00000000E+00
  0.00000000E+00  0.00000000E+00  0.00000000E+00
  0.00000000E+00  0.00000000E+00  0.00000000E+00
  0.00000000E+00  0.00000000E+00  0.00000000E+00
  0.00000000E+00  0.00000000E+00  0.00000000E+00
  0.00000000E+00  0.00000000E+00  0.00000000E+00
  0.00000000E+00  0.00000000E+00  0.00000000E+00
  0.00000000E+00  0.00000000E+00  0.00000000E+00
  0.00000000E+00  0.00000000E+00  0.00000000E+00
  0.00000000E+00  0.00000000E+00  0.00000000E+00
  0.00000000E+00  0.00000000E+00  0.00000000E+00
  0.00000000E+00  0.00000000E+00  0.00000000E+00
  0.00000000E+00  0.00000000E+00  0.00000000E+00
  0.00000000E+00  0.00000000E+00  0.00000000E+00
  0.00000000E+00  0.00000000E+00  0.00000000E+00
  0.00000000E+00  0.00000000E+00  0.00000000E+00
  0.00000000E+00  0.00000000E+00  0.00000000E+00
  0.00000000E+00  0.00000000E+00  0.00000000E+00
  0.00000000E+00  0.00000000E+00  0.00000000E+00
  0.00000000E+00  0.00000000E+00  0.00000000E+00
  0.00000000E+00  0.00000000E+00  0.00000000E+00
  0.00000000E+00  0.00000000E+00  0.00000000E+00
  0.00000000E+00  0.00000000E+00  0.00000000E+00
  0.00000000E+00  0.00000000E+00  0.00000000E+00
  0.00000000E+00  0.00000000E+00  0.00000000E+00
  0.00000000E+00  0.00000000E+00  0.00000000E+00
  0.00000000E+00  0.00000000E+00  0.00000000E+00
  0.00000000E+00  0.00000000E+00  0.00000000E+00
  0.00000000E+00  0.00000000E+00  0.00000000E+00
  0.00000000E+00  0.00000000E+00  0.00000000E+00
  0.00000000E+00  0.00000000E+00  0.00000000E+00
  0.00000000E+00  0.00000000E+00  0.00000000E+00
  0.00000000E+00  0.00000000E+00  0.00000000E+00
  0.00000000E+00  0.00000000E+00  0.00000000E+00
  0.00000000E+00  0.00000000E+00  0.00000000E+00
  0.00000000E+00  0.00000000E+00  0.00000000E+00
  0.00000000E+00  0.00000000E+00  0.00000000E+00
  0.00000000E+00  0.00000000E+00  0.00000000E+00
  0.00000000E+00  0.00000000E+00  0.00000000E+00
  0.00000000E+00  0.00000000E+00  0.00000000E+00
  0.00000000E+00  0.00000000E+00  0.00000000E+00
  0.00000000E+00  0.00000000E+00  0.00000000E+00
  0.00000000E+00  0.00000000E+00  0.00000000E+00
  0.00000000E+00  0.00000000E+00  0.00000000E+00
  0.00000000E+00  0.00000000E+00  0.00000000E+00
  0.00000000E+00  0.00000000E+00  0.00000000E+00
  0.00000000E+00  0.00000000E+00  0.00000000E+00
  0.00000000E+00  0.00000000E+00  0.00000000E+00
  0.00000000E+00  0.00000000E+00  0.00000000E+00
  0.00000000E+00  0.00000000E+00  0.00000000E+00
  0.00000000E+00  0.00000000E+00  0.00000000E+00
  0.00000000E+00  0.00000000E+00  0.00000000E+00
  0.00000000E+00  0.00000000E+00  0.00000000E+00
  0.00000000E+00  0.00000000E+00  0.00000000E+00
  0.00000000E+00  0.00000000E+00  0.00000000E+00
  0.00000000E+00  0.00000000E+00  0.00000000E+00
  0.00000000E+00  0.00000000E+00  0.00000000E+00
  0.00000000E+00  0.00000000E+00  0.00000000E+00
  0.00000000E+00  0.00000000E+00  0.00000000E+00
  0.00000000E+00  0.00000000E+00  0.00000000E+00
  0.00000000E+00  0.00000000E+00  0.00000000E+00
  0.00000000E+00  0.00000000E+00  0.00000000E+00
  0.00000000E+00  0.00000000E+00  0.00000000E+00
  0.00000000E+00  0.00000000E+00  0.00000000E+00
  0.00000000E+00  0.00000000E+00  0.00000000E+00
  0.00000000E+00  0.00000000E+00  0.00000000E+00
  0.00000000E+00  0.00000000E+00  0.00000000E+00
  0.00000000E+00  0.00000000E+00  0.00000000E+00
  0.00000000E+00  0.00000000E+00  0.00000000E+00
  0.00000000E+00  0.00000000E+00  0.00000000E+00
  0.00000000E+00  0.00000000E+00  0.00000000E+00
  0.00000000E+00  0.00000000E+00  0.00000000E+00
  0.00000000E+00  0.00000000E+00  0.00000000E+00
  0.00000000E+00  0.00000000E+00  0.00000000E+00
  0.00000000E+00  0.00000000E+00  0.00000000E+00
  0.00000000E+00  0.00000000E+00  0.00000000E+00
  0.00000000E+00  0.00000000E+00  0.00000000E+00
  0.00000000E+00  0.00000000E+00  0.00000000E+00
  0.00000000E+00  0.00000000E+00  0.00000000E+00
  0.00000000E+00  0.00000000E+00  0.00000000E+00
  0.00000000E+00  0.00000000E+00  0.00000000E+00
  0.00000000E+00  0.00000000E+00  0.00000000E+00
  0.00000000E+00  0.00000000E+00  0.00000000E+00
  0.00000000E+00  0.00000000E+00  0.00000000E+00
  0.00000000E+00  0.00000000E+00  0.00000000E+00
  0.00000000E+00  0.00000000E+00  0.00000000E+00
  0.00000000E+00  0.00000000E+00  0.00000000E+00
  0.00000000E+00  0.00000000E+00  0.00000000E+00
  0.00000000E+00  0.00000000E+00  0.00000000E+00
  0.00000000E+00  0.00000000E+00  0.00000000E+00
  0.00000000E+00  0.00000000E+00  0.00000000E+00
  0.00000000E+00  0.00000000E+00  0.00000000E+00
  0.00000000E+00  0.00000000E+00  0.00000000E+00
  0.00000000E+00  0.00000000E+00  0.00000000E+00
  0.00000000E+00  0.00000000E+00  0.00000000E+00
  0.00000000E+00  0.00000000E+00  0.00000000E+00
  0.00000000E+00  0.00000000E+00  0.00000000E+00
  0.00000000E+00  0.00000000E+00  0.00000000E+00
  0.00000000E+00  0.00000000E+00  0.00000000E+00
  0.00000000E+00  0.00000000E+00  0.00000000E+00
  0.00000000E+00  0.00000000E+00  0.00000000E+00
  0.00000000E+00  0.00000000E+00  0.00000000E+00
  0.00000000E+00  0.00000000E+00  0.00000000E+00
  0.00000000E+00  0.00000000E+00  0.00000000E+00
  0.00000000E+00  0.00000000E+00  0.00000000E+00
  0.00000000E+00  0.00000000E+00  0.00000000E+00
  0.00000000E+00  0.00000000E+00  0.00000000E+00
  0.00000000E+00  0.00000000E+00  0.00000000E+00
  0.00000000E+00  0.00000000E+00  0.00000000E+00
  0.00000000E+00  0.00000000E+00  0.00000000E+00
  0.00000000E+00  0.00000000E+00  0.00000000E+00
  0.00000000E+00  0.00000000E+00  0.00000000E+00
  0.00000000E+00  0.00000000E+00  0.00000000E+00
  0.00000000E+00  0.00000000E+00  0.00000000E+00
  0.00000000E+00  0.00000000E+00  0.00000000E+00
  0.00000000E+00  0.00000000E+00  0.00000000E+00
  0.00000000E+00  0.00000000E+00  0.00000000E+00
  0.00000000E+00  0.00000000E+00  0.00000000E+00
  0.00000000E+00  0.00000000E+00  0.00000000E+00
  0.00000000E+00  0.00000000E+00  0.00000000E+00
  0.00000000E+00  0.00000000E+00  0.00000000E+00
  0.00000000E+00  0.00000000E+00  0.00000000E+00
  0.00000000E+00  0.00000000E+00  0.00000000E+00
  0.00000000E+00  0.00000000E+00  0.00000000E+00
  0.00000000E+00  0.00000000E+00  0.00000000E+00
  0.00000000E+00  0.00000000E+00  0.00000000E+00
  0.00000000E+00  0.00000000E+00  0.00000000E+00
  0.00000000E+00  0.00000000E+00  0.00000000E+00
  0.00000000E+00  0.00000000E+00  0.00000000E+00
  0.00000000E+00  0.00000000E+00  0.00000000E+00
  0.00000000E+00  0.00000000E+00  0.00000000E+00
  0.00000000E+00  0.00000000E+00  0.00000000E+00
  0.00000000E+00  0.00000000E+00  0.00000000E+00
  0.00000000E+00  0.00000000E+00  0.00000000E+00
  0.00000000E+00  0.00000000E+00  0.00000000E+00
  0.00000000E+00  0.00000000E+00  0.00000000E+00
  0.00000000E+00  0.00000000E+00  0.00000000E+00
  0.00000000E+00  0.00000000E+00  0.00000000E+00
  0.00000000E+00  0.00000000E+00  0.00000000E+00
  0.00000000E+00  0.00000000E+00  0.00000000E+00
  0.00000000E+00  0.00000000E+00  0.00000000E+00
  0.00000000E+00  0.00000000E+00  0.00000000E+00
  0.00000000E+00  0.00000000E+00  0.00000000E+00
  0.00000000E+00  0.00000000E+00  0.00000000E+00
  0.00000000E+00  0.00000000E+00  0.00000000E+00
  0.00000000E+00  0.00000000E+00  0.00000000E+00
  0.00000000E+00  0.00000000E+00  0.00000000E+00
  0.00000000E+00  0.00000000E+00  0.00000000E+00
  0.00000000E+00  0.00000000E+00  0.00000000E+00
  0.00000000E+00  0.00000000E+00  0.00000000E+00
  0.00000000E+00  0.00000000E+00  0.00000000E+00
  0.00000000E+00  0.00000000E+00  0.00000000E+00
  0.00000000E+00  0.00000000E+00  0.00000000E+00
  0.00000000E+00  0.00000000E+00  0.00000000E+00
  0.00000000E+00  0.00000000E+00  0.00000000E+00
  0.00000000E+00  0.00000000E+00  0.00000000E+00
  0.00000000E+00  0.00000000E+00  0.00000000E+00
  0.00000000E+00  0.00000000E+00  0.00000000E+00
  0.00000000E+00  0.00000000E+00  0.00000000E+00
  0.00000000E+00  0.00000000E+00  0.00000000E+00
  0.00000000E+00  0.00000000E+00  0.00000000E+00
  0.00000000E+00  0.00000000E+00  0.00000000E+00
  0.00000000E+00  0.00000000E+00  0.00000000E+00
  0.00000000E+00  0.00000000E+00  0.00000000E+00
  0.00000000E+00  0.00000000E+00  0.00000000E+00
  0.00000000E+00  0.00000000E+00  0.00000000E+00
  0.00000000E+00  0.00000000E+00  0.00000000E+00
  0.00000000E+00  0.00000000E+00  0.00000000E+00
  0.00000000E+00  0.00000000E+00  0.00000000E+00
  0.00000000E+00  0.00000000E+00  0.00000000E+00
  0.00000000E+00  0.00000000E+00  0.00000000E+00
  0.00000000E+00  0.00000000E+00  0.00000000E+00
  0.00000000E+00  0.00000000E+00  0.00000000E+00
  0.00000000E+00  0.00000000E+00  0.00000000E+00
  0.00000000E+00  0.00000000E+00  0.00000000E+00
  0.00000000E+00  0.00000000E+00  0.00000000E+00
  0.00000000E+00  0.00000000E+00  0.00000000E+00
  0.00000000E+00  0.00000000E+00  0.00000000E+00
  0.00000000E+00  0.00000000E+00  0.00000000E+00
  0.00000000E+00  0.00000000E+00  0.00000000E+00
  0.00000000E+00  0.00000000E+00  0.00000000E+00
  0.00000000E+00  0.00000000E+00  0.00000000E+00
  0.00000000E+00  0.00000000E+00  0.00000000E+00
  0.00000000E+00  0.00000000E+00  0.00000000E+00
  0.00000000E+00  0.00000000E+00  0.00000000E+00
  0.00000000E+00  0.00000000E+00  0.00000000E+00
  0.00000000E+00  0.00000000E+00  0.00000000E+00
  0.00000000E+00  0.00000000E+00  0.00000000E+00
  0.00000000E+00  0.00000000E+00  0.00000000E+00
  0.00000000E+00  0.00000000E+00  0.00000000E+00
  0.00000000E+00  0.00000000E+00  0.00000000E+00
  0.00000000E+00  0.00000000E+00  0.00000000E+00
  0.00000000E+00  0.00000000E+00  0.00000000E+00
  0.00000000E+00  0.00000000E+00  0.00000000E+00
  0.00000000E+00  0.00000000E+00  0.00000000E+00
  0.00000000E+00  0.00000000E+00  0.00000000E+00
  0.00000000E+00  0.00000000E+00  0.00000000E+00
  0.00000000E+00  0.00000000E+00  0.00000000E+00
  0.00000000E+00  0.00000000E+00  0.00000000E+00
  0.00000000E+00  0.00000000E+00  0.00000000E+00
  0.00000000E+00  0.00000000E+00  0.00000000E+00
  0.00000000E+00  0.00000000E+00  0.00000000E+00
  0.00000000E+00  0.00000000E+00  0.00000000E+00
  0.00000000E+00  0.00000000E+00  0.00000000E+00
  0.00000000E+00  0.00000000E+00  0.00000000E+00
  0.00000000E+00  0.00000000E+00  0.00000000E+00
  0.00000000E+00  0.00000000E+00  0.00000000E+00
  0.00000000E+00  0.00000000E+00  0.00000000E+00
  0.00000000E+00  0.00000000E+00  0.00000000E+00
  0.00000000E+00  0.00000000E+00  0.00000000E+00
  0.00000000E+00  0.00000000E+00  0.00000000E+00
  0.00000000E+00  0.00000000E+00  0.00000000E+00
  0.00000000E+00  0.00000000E+00  0.00000000E+00
  0.00000000E+00  0.00000000E+00  0.00000000E+00
  0.00000000E+00  0.00000000E+00  0.00000000E+00
  0.00000000E+00  0.00000000E+00  0.00000000E+00
  0.00000000E+00  0.00000000E+00  0.00000000E+00
  0.00000000E+00  0.00000000E+00  0.00000000E+00
  0.00000000E+00  0.00000000E+00  0.00000000E+00
  0.00000000E+00  0.00000000E+00  0.00000000E+00
  0.00000000E+00  0.00000000E+00  0.00000000E+00
  0.00000000E+00  0.00000000E+00  0.00000000E+00
  0.00000000E+00  0.00000000E+00  0.00000000E+00
  0.00000000E+00  0.00000000E+00  0.00000000E+00
  0.00000000E+00  0.00000000E+00  0.00000000E+00