Li6 Sb2 S8
1.0
   7.5080780000000003    0.0000000000000000    0.0000000000000000
   0.0000000000000000    6.3741519999999996    0.0000000000000000
   0.0000000000000000    2.1288679999999989    6.1067250000000000
Li Sb S
6 2 8
direct
   0.6130260000000000    0.2500000000000000    0.0000000000000000 Li
   0.3869740000000000    0.7500000000000000    0.0000000000000000 Li
   0.4013500000000000    0.2500000000000000    0.5000000000000000 Li
   0.8573809999999999    0.2500000000000000    0.5000000000000000 Li
   0.5986500000000000    0.7500000000000000    0.5000000000000000 Li
   0.1426190000000000    0.7500000000000000    0.5000000000000000 Li
   0.1372720000000000    0.2500000000000000    0.0000000000000000 Sb
   0.8627279999999991    0.7500000000000000    0.0000000000000000 Sb
   0.3640770000000000    0.0216890000000000    0.2510560000000000 S
   0.1097269999999990    0.4998660000000000    0.2354170000000000 S
   0.6359230000000000    0.5216890000000000    0.2510560000000000 S
   0.8902730000000000    0.9998659999999990    0.2354170000000000 S
   0.1097269999999990    0.0001340000000000    0.7645830000000000 S
   0.3640770000000000    0.4783110000000000    0.7489439999999991 S
   0.8902730000000000    0.5001340000000000    0.7645830000000000 S
   0.6359230000000000    0.9783109999999990    0.7489439999999991 S
