POSCAR file written by OVITO Basic 3.10.
   1.00000000000000     
    21.3156460000000010    0.0000000000000000    0.0000000000000000
     0.0000000000000000   21.3156460000000010    0.0000000000000000
     0.0000000000000000    0.0000000000000000   21.3156460000000010
   Ge   Te
   150   150
Direct
  0.2748812739205025  0.2172811766377483  0.3245048905857254
  0.0762229654426536  0.1928532479714711  0.1522638398273171
  0.3685333661575079  0.2097071416476615  0.1372539403370518
  0.3629387953630699  0.1752780213692057  0.2528024892152488
  0.5067253923243228  0.0523393484728915  0.1929457179570156
  0.8389009309584025  0.1180111865635402  0.0320399087303456
  0.9597883604219376  0.1853483557464293  0.9243468129877589
  0.1173083368645116  0.3006223683866707  0.1965826451654292
  0.0842536487134308  0.4837179968125539  0.0192910768680612
  0.2059811338095119  0.3591676960085797  0.1320754153263330
  0.3219105615740483  0.3945723281113956  0.0560931355111377
  0.6194058432366751  0.3945277991179946  0.1925126895788496
  0.5201562168536814  0.4239207212062489  0.2815450354569291
  0.5573498455180287  0.3080136730951184  0.1321649692404471
  0.7808301255227393  0.2603344365637733  0.0887497204932534
  0.9323347696752925  0.3382419443905910  0.0869341421990162
  0.8926331328570801  0.2285220652400463  0.0383837041759685
  0.7052164111316137  0.3043062122624891  0.1762881393890654
  0.9516869872204358  0.4462174618584860  0.1755693541515668
  0.0557452159155121  0.6094002725771420  0.1645325927588039
  0.1229400643045689  0.7980956637408860  0.0356071784477610
  0.2337205865202610  0.5500888656695769  0.0656746684370378
  0.5603684860302873  0.4146230831817824  0.0189225678089824
  0.6320760342324447  0.4938315681447596  0.1201147005055342
  0.6864959403609194  0.6823982112767677  0.1481115568145546
  0.5612502167021172  0.6339311893205229  0.2091728831875143
  0.8507874639812122  0.5877470892856386  0.2137802279969293
  0.9803462402124072  0.6801713798181588  0.9858009691161275
  0.8420865539524692  0.6916425220991951  0.0119025785695646
  0.0958105137283884  0.0801920611155797  0.0993224186308350
  0.1152310225436171  0.8808503782473612  0.2110042909849496
  0.1706698706521028  0.9181162063942498  0.1013544338823515
  0.2542608052573839  0.7815048719280495  0.0236324917597815
  0.5713223188838848  0.8317352132228250  0.2213638291973389
  0.4406250828057370  0.7455090499953199  0.0052151097416989
  0.5758344782872032  0.9030771322084542  0.1233458557995317
  0.8304336923246332  0.9149379888798638  0.0290638259625736
  0.7924770085995797  0.7329989295080052  0.1139416712383683
  0.1569962357597260  0.2393973016464232  0.2954008083911724
  0.1159404903081412  0.0234792398603032  0.2902166116808435
  0.4728768028238258  0.1754376988357388  0.5041589284291490
  0.3899519962155542  0.0132666211791740  0.3462148167629767
  0.2794987577872586  0.1536115109233994  0.4324012974565823
  0.3226885271389310  0.3274314938702496  0.3115738448446452
  0.5557663988198110  0.9443693550809266  0.2782288774352540
  0.6458969636144875  0.1098148748995537  0.4179042440493859
  0.7863131675854073  0.0375035926888736  0.1927116822673574
  0.7835300239066624  0.1679721300831886  0.3220336583683435
  0.0601855693084302  0.3815130432682427  0.3591962871489878
  0.9855715669504470  0.2851759333563192  0.4852739246124755
  0.1735039271836752  0.4956450191673171  0.4556513263737612
  0.4395047325989269  0.3275573207775656  0.2831855492645181
  0.5492564742805233  0.2997018741711642  0.4454941706524116
  0.4823765594010169  0.4915225321006794  0.4513469439559269
  0.3240600804618397  0.4053113067742503  0.4016124415455702
  0.6469760429400040  0.4512514650518282  0.5253292214496388
  0.8599847008548845  0.4229807445356327  0.5092076831938059
  0.7472882284130614  0.2757125437237547  0.4714551637968186
  0.8609604842049755  0.3406408618315354  0.3550868227870800
  0.1354787875160455  0.7119925789702068  0.3743319602673220
  0.2844786167329036  0.6305522392405535  0.3647804618725224
  0.7129214013336004  0.5659082668431610  0.1802923905962635
  0.4756788814641353  0.6168729399159959  0.3010345845568940
  0.9923218691464277  0.7217466918575893  0.1623074060607748
  0.6642129930581160  0.6441992553859048  0.3723891436150377
  0.9052219309479513  0.6597891146493103  0.3878817534587477
  0.2755749804791720  0.9680659518368901  0.3626633815338334
  0.2196712160848603  0.7504714143199682  0.2040505778489938
  0.3717880505270601  0.7893576983123581  0.2421646203070307
  0.7121768753875350  0.0432367188338860  0.3398920320257071
  0.5319736073255300  0.7639355552346808  0.4066512492474788
  0.5503197425672456  0.9464120587429056  0.4485334272911638
  0.8676923865264776  0.9867418551342091  0.3278394930453395
  0.9713007512089399  0.9268448473946329  0.3332822400436090
  0.9619599696473131  0.8054939538784508  0.3524885391968446
  0.8347691574907121  0.7737565983603621  0.5525137831455780
  0.1331557652662396  0.0953883455216915  0.5603156121004393
  0.4135400938430547  0.1924082353879459  0.7145731572343486
  0.2047759609963324  0.9957029175782388  0.7252325676829420
  0.3124571767914291  0.1344487387128876  0.6001875652849336
  0.5274612260655460  0.1578734984104816  0.6978974555765531
  0.4515689545812445  0.0830334909772624  0.8203734719625182
  0.6644089484157185  0.0928394443077932  0.5344615474305008
  0.5495999181806356  0.9022664238470094  0.7875383286765582
  0.8121683935734588  0.1509060254572634  0.6566952746229358
  0.9733120221764952  0.3515949418829333  0.6469537932686187
  0.0820667790853637  0.4385725543142366  0.5369423999255586
  0.3406811875467146  0.4344447671786107  0.5673504399561653
  0.5083213864666810  0.3389676687435368  0.6589800258363574
  0.6553219757067340  0.5522061171829795  0.6892379236062812
  0.5370198740324892  0.3116763073265047  0.8226473222377889
  0.0459938679463299  0.2215942967881380  0.6970939996206562
  0.1413261366183294  0.6067173614767459  0.5088647710134873
  0.2898282254799864  0.5215033681554054  0.4168802623207413
  0.2254171529507199  0.5671942420820263  0.6090044844190261
  0.6002356747425249  0.6256444014196061  0.5387091868875461
  0.9985735735338803  0.6663493856445504  0.5722738263147056
  0.7879046975503534  0.6594545554839290  0.5560537416199340
  0.8292780457545943  0.6538777412394701  0.6787797996960117
  0.8678485308147185  0.8655367107334879  0.7014867758176904
  0.1158466955502409  0.9266208329330025  0.4646376579615547
  0.2129660329834245  0.7583281564728442  0.6943657413790045
  0.3049416266337541  0.8969446470030495  0.5817946894895791
  0.4276752127005466  0.9128184895209894  0.4612289982509519
  0.3450946039422068  0.6907221071086401  0.6651433103708259
  0.3641805597616574  0.0821864011169022  0.7353401092907866
  0.7066023901337519  0.8823055266161823  0.5074273446272392
  0.7440682157896206  0.9963431418187567  0.5386128318604264
  0.5412186979163043  0.7458070917886092  0.6900316417357538
  0.5603968386266830  0.8047128974465528  0.5766563271225760
  0.9632702270847235  0.8819287677522945  0.5197686972160026
  0.0661776711067363  0.0911080697877241  0.8162602558987317
  0.3160081863164825  0.0277574372737268  0.9187422316203482
  0.2717662837812584  0.2580757102866288  0.8389784170434302
  0.1891531068879201  0.2458509342615221  0.0158622772719466
  0.4070208703820399  0.1786683002923343  0.0207639566407859
  0.6351931507897244  0.0308192382820728  0.0202689061186426
  0.4505483865964375 -0.0003149314331898  0.0344869642749565
  0.6024856047754492  0.1154005125331712  0.8947177813025292
  0.9267687923403495  0.9548425409708883  0.8828004535302617
  0.7914255348914312  0.1885813462708322  0.8279847936920801
  0.1412351607445473  0.3058163541559983  0.7381792737474042
  0.1394000303128022  0.3795488530149570  0.8704016364113250
  0.9993306338340550  0.3487140710338705  0.9098366689362619
  0.2723342714584074  0.5060361530910890  0.8568500102523222
  0.6908771828152961  0.3305166236009473  0.8290530582292387
  0.7509140864694017  0.4432072712832649  0.7383766506494572
  0.7794046795654520  0.3823778776392776  0.8982022508750696
  0.8962146896216107  0.3172790598717056  0.7639044796495466
  0.1584920974418343  0.6036599880336780  0.9648718638135254
  0.0710148646309491  0.5034890308965282  0.7036584661980437
  0.0043847761005058  0.6902481025618625  0.7839826033436155
  0.9960230606005835  0.5240943162929403  0.8253154221385944
  0.1273820868003483  0.6712480127521092  0.7951786588137258
  0.4269868843355871  0.5582061414037526  0.0522098723044745
  0.4925829380348127  0.5285302330739665  0.7906724409424882
  0.5209225818495055  0.6897973679473572  0.8164013285814962
  0.6553232838230493  0.5344989212734188  0.0077844184672048
  0.6018762010890625  0.6398397520181270  0.9743335600637665
  0.8398188127333527  0.4418605247761113  0.0616054642131889
  0.8336531730819740  0.4925030059290167  0.8762981592965952
  0.1361384326464677  0.9117393221114040  0.6619775210726823
  0.2728082406173164  0.7413974397507387  0.8520052417848282
  0.1849702627946521  0.8504279122098354  0.8364026208927073
  0.3972011929460724  0.8513819798714917  0.7975283408408536
  0.6897921759826315  0.8427769979151780  0.9912891877634454
  0.6430302215371209  0.8002935769869189  0.8762310928665735
  0.8562043118011433  0.0364517732723730  0.7476933801593335
  0.9490667411178935  0.7975906114802670  0.7760595034634344
  0.8957095502483255  0.8097847037797002  0.0029692772733202
  0.1898774399537403  0.0300715744382421  0.1731520063216312
  0.0684773909325485  0.1514259898186388  0.2732515201941498
  0.5122699316496234  0.1073318773833918  0.0712798090957036
  0.3705462155656704  0.0536109303793473  0.2258310894794287
  0.7240812431047194  0.1471307144481943  0.0709418719944042
  0.6453601348930681  0.0037937352980440  0.1497161394342408
  0.8788589692349436  0.0144836567477544  0.0968128340508447
  0.9490228867665045  0.2198852627829954  0.1536959970278337
  0.8629960708433367  0.0992317124449377  0.9092571189122236
  0.9501441741999233  0.4653393485432097  0.9313953956478876
  0.0062792362040616  0.3448419078110866  0.2522798814101365
  0.2414045131419962  0.2275513202955138  0.1355342704176551
  0.4285097006413760  0.3227760083865320  0.1551930478720111
  0.8056053462713925  0.2746664779156359  0.2497025955798699
  0.6181345806995031  0.2141180117293753  0.1883062436039320
  0.8218875840433886  0.4431079877046258  0.1892595461042937
  0.1400720574312944  0.4907126277807448  0.1352199708007125
  0.1563017880829450  0.6957492075815089  0.1051945704778819
  0.9881035618726878  0.5694749591615526  0.0607246565288739
  0.3373353045774212  0.5032611503712994  0.1328706574266350
  0.3341637292280041  0.6794381775081496  0.0528496719388915
  0.4775832917886593  0.6368918493525724  0.9370904653637949
  0.5121506405058660  0.5260151281601295  0.1479864758463392
  0.6653205707375448  0.7548603906914028  0.2502229358846179
  0.6124340971806611  0.7340536292590112  0.0562475228212530
  0.8725083348586519  0.7266468904566593  0.2129318311704498
  0.0056837995372625  0.8246343799621502  0.0884059392131407
  0.0189624695139010  0.9642491893062836  0.2207560560192224
  0.2810410973308560  0.8573942874221766  0.1231356738130482
  0.2322730322814937  0.9402755527407748  0.9515125781769367
  0.4579457430646964  0.9376546050489581  0.1556672600026452
  0.3494300510925744  0.8098546596200027  0.9364417128152435
  0.4788175334340423  0.7589170882795095  0.1796012494526911
  0.7556477281382863  0.8545522170542053  0.1132531975637163
  0.2175365879105426  0.1971171478831596  0.5343858382069054
  0.2016466804905878  0.0575791209243318  0.4110142171357898
  0.1180554847854795  0.2819132771783870  0.4081771875584752
  0.4672528978942878  0.2084658571002155  0.3113898688137724
  0.3738674342534343  0.0891390198004065  0.4935869252987620
  0.5274344390459361  0.0686838413796839  0.4108931238285023
  0.8545187168136196  0.2228116774635934  0.4153854894004969
  0.8044921877373770  0.0424043172582751  0.4295311586375446
  0.0177857395222848  0.1538941643605716  0.5113849275557630
  0.8828135342897120  0.0968046100087419  0.2667555032393474
  0.2664696697248211  0.4056177179321432  0.2336855160064519
  0.9722522127162134  0.4265394798811152  0.4359611433444819
  0.1377211770877175  0.4734416776065725  0.3369672472112100
  0.9741544043909688  0.5473285870451843  0.2512241529197934
  0.4199544741513177  0.3753866974364845  0.4785766187213371
  0.5835576721354345  0.4143127826163211  0.3930622729747542
  0.6351846510768133  0.5505182501268034  0.2823471461543703
  0.6540740498108522  0.2320751643326312  0.3875555018464246
  0.6093002877614777  0.3295091995767404  0.5559571568740840
  0.7672513856773677  0.4007707466030829  0.4214300321149979
  0.8980800910443708  0.6095321302148690  0.5106681625197975
  0.1911095984868985  0.6372464779224819  0.2816021633187743
  0.0574333851008248  0.6191843363996268  0.4160356341585320
  0.0567638977358250  0.7748972873728233  0.2632001838803570
  0.4209628427444889  0.5042630114922172  0.3187578194861908
  0.3291278720984941  0.6791382801217417  0.1865200374002030
  0.2348553038275724  0.6879466555374175  0.4661237845239951
  0.3888823744111797  0.7037045349924032  0.3452829038954494
  0.7038858552364728  0.5756404536695554  0.4759078535016641
  0.5326266044018588  0.6324334427027209  0.4131546581716874
  0.6375741471681824  0.7559306473704409  0.4838133331526234
  0.8123761005167948  0.5846454604756969  0.3375196568868568
  0.7980802500670418  0.7274982290241047  0.3849344351988678
  0.0259295510966212  0.0029842934362933  0.4129866179597523
  0.1774994175098919  0.8918429352956146  0.3254675593018500
  0.0473159927266873  0.8136468943144326  0.4495200503553975
  0.2970211455000227  0.8781779573134515  0.4503044608918611
  0.4447406918449590  0.8958029161022665  0.3311263463139648
  0.4526422623714447  0.7940175392041559  0.5060129753358868
  0.6519175154668114  0.9271122660737765  0.3704867623848395
  0.7939257605418830  0.9233311313399610  0.2536212759182447
  0.1391402859932253  0.1328701883800345  0.6852634893143978
  0.2462621774383029  0.0101088885837581  0.6014560790684618
  0.5379031953939160  0.0976547055570933  0.5874732904007101
  0.6546491342703229  0.8362948810771299  0.7556350899270932
  0.7170445621313609  0.1925005623914563  0.5808176483218657
  0.9615113947448184  0.1547521951656761  0.6284128500468343
  0.7402151459508546  0.0963435155952284  0.7519585427604810
  0.0071897322407339  0.9793976448531303  0.7831390030241315
  0.0774404734570692  0.3137538612343302  0.5739391042136182
  0.1714733641210114  0.4531713730663769  0.6386059809392243
  0.4039136045366716  0.2419130743160250  0.5994119001400998
  0.2386853804964682  0.3890671048946759  0.4950953270144212
  0.4160903475624050  0.3028894205320283  0.7718671048855116
  0.7411027792896642  0.4852182146289616  0.6142195524563278
  0.5456308641209864  0.5076920128727207  0.5756200953131683
  0.5961297304103953  0.2603883940847873  0.7174295864435132
  0.5612860628678068  0.4243160482666904  0.7514568662133583
  0.7721143573350512  0.2943845970356465  0.7320480462333893
  0.8782321739893364  0.3088644305842444  0.5641813973179374
  0.9824392411215491  0.4767787106123055  0.6093705258466425
  0.1371459900984850  0.6464569798108738  0.6654823995967583
  0.3623638743979606  0.5503429222839554  0.5132250238237829
  0.3029088659480432  0.5748511642157662  0.7174925605422501
  0.4626781305939859  0.6625929875418692  0.6280365961009762
  0.6559295053989281  0.6722838537876357  0.6459473611968121
  0.6493390886303251  0.6724913771868128  0.8624410139252785
  0.9518707271273915  0.7855768836386406  0.6082272391111914
  0.8254280716878912  0.7540929290479347  0.7600195511233524
  0.9537305165044806  0.6203598254900617  0.6901017635281969
  0.0517356587744581  0.9609749325078831  0.5815832571595189
  0.1943542168112594  0.8278786326240768  0.5846908074268067
  0.4698187079515257  0.8694210846394737  0.6913175606751234
  0.5975458776479619  0.9289187110250048  0.5700900834187984
  0.7540776596943116  0.8424024003842161  0.6209193107607625
  0.8393292344791980  0.8433215424771341  0.4457394904830225
  0.8430456790047388  0.0287572702246317  0.6131135487761048
  0.1388498074141653  0.2485728689350919  0.8566760606107261
  0.0470979342139822  0.3478398481410050  0.0366058566913638
  0.4896544869262964  0.1784152418652530  0.8944699717148947
  0.3230373471083446  0.0794622979709026  0.0326808874001735
  0.2784622434741735  0.1064787641535962  0.8274772072984855
  0.5687374472628430  0.0636044714497610  0.7733653937254105
  0.6868975456848656  0.2159147756902593  0.8981735511584718
  0.9643752978221990  0.1708461379122148  0.7895542116664771
  0.7387531644637414  0.9661683048878175  0.9596799851901716
  0.0413460406539567  0.0858825002379476  0.9495990288068544
  0.2439553030550986  0.3828419863971779  0.7944160424339376
  0.0471675880023340  0.3892840155596063  0.7714289214290933
  0.2364945211574676  0.4516294251488189  0.9745122566061052
  0.3042683706968355  0.2681608537270407  0.9640889141236474
  0.4319408909341563  0.4429424738878124  0.9894862230532402
  0.4031557225879446  0.4580146433039350  0.8543396192581485
  0.7425030257486915  0.3663886150071405  0.0193508241421721
  0.5597228578360413  0.2877069535321757  0.0097573367908009
  0.6163466143217814  0.4620313619960651  0.9135531887596449
  0.8757827176719885  0.3002443910753886  0.8935026733593365
  0.0987338457283583  0.7158328052904542  0.9357206363928399
  0.1256459519883890  0.5501940106527580  0.8469434499531585
  0.3821032511199310  0.7208607199200990  0.7844531209414956
  0.2785369219103899  0.6298659187815215  0.9185684524010587
  0.7846757326104861  0.7724731341092171  0.9318710507050280
  0.7626672114864564  0.5793886628072685  0.7616496326375802
  0.4011644391675139  0.4863437868594543  0.7089010517449863
  0.8778286208806367  0.4462471512068508  0.7568208866108158
  0.7799224962895109  0.5567155218261558  0.0120628475831076
  0.9348199668925006  0.6308804695897235  0.8730258312811231
  0.1685429180334981  0.1132358256369314  0.9943700369076836
  0.1266480450947807  0.9604679808367659  0.8653905899419526
  0.1002294506660514  0.8139000172635605  0.7396439263611367
  0.2756486479821563  0.8855701835148643  0.7463082243642961
  0.4298303099011488  0.9799802881681690  0.8895179263711289
  0.5587219806932778  0.9224238585287812  0.9995680525414729
  0.5129817039923743  0.8062987436396278  0.8747834113822320
  0.9709236913237653  0.8321982008432044  0.9002405968068002
  0.8216321159949435  0.9275471394538014  0.8078629089887968
 
  0.00000000E+00  0.00000000E+00  0.00000000E+00
  0.00000000E+00  0.00000000E+00  0.00000000E+00
  0.00000000E+00  0.00000000E+00  0.00000000E+00
  0.00000000E+00  0.00000000E+00  0.00000000E+00
  0.00000000E+00  0.00000000E+00  0.00000000E+00
  0.00000000E+00  0.00000000E+00  0.00000000E+00
  0.00000000E+00  0.00000000E+00  0.00000000E+00
  0.00000000E+00  0.00000000E+00  0.00000000E+00
  0.00000000E+00  0.00000000E+00  0.00000000E+00
  0.00000000E+00  0.00000000E+00  0.00000000E+00
  0.00000000E+00  0.00000000E+00  0.00000000E+00
  0.00000000E+00  0.00000000E+00  0.00000000E+00
  0.00000000E+00  0.00000000E+00  0.00000000E+00
  0.00000000E+00  0.00000000E+00  0.00000000E+00
  0.00000000E+00  0.00000000E+00  0.00000000E+00
  0.00000000E+00  0.00000000E+00  0.00000000E+00
  0.00000000E+00  0.00000000E+00  0.00000000E+00
  0.00000000E+00  0.00000000E+00  0.00000000E+00
  0.00000000E+00  0.00000000E+00  0.00000000E+00
  0.00000000E+00  0.00000000E+00  0.00000000E+00
  0.00000000E+00  0.00000000E+00  0.00000000E+00
  0.00000000E+00  0.00000000E+00  0.00000000E+00
  0.00000000E+00  0.00000000E+00  0.00000000E+00
  0.00000000E+00  0.00000000E+00  0.00000000E+00
  0.00000000E+00  0.00000000E+00  0.00000000E+00
  0.00000000E+00  0.00000000E+00  0.00000000E+00
  0.00000000E+00  0.00000000E+00  0.00000000E+00
  0.00000000E+00  0.00000000E+00  0.00000000E+00
  0.00000000E+00  0.00000000E+00  0.00000000E+00
  0.00000000E+00  0.00000000E+00  0.00000000E+00
  0.00000000E+00  0.00000000E+00  0.00000000E+00
  0.00000000E+00  0.00000000E+00  0.00000000E+00
  0.00000000E+00  0.00000000E+00  0.00000000E+00
  0.00000000E+00  0.00000000E+00  0.00000000E+00
  0.00000000E+00  0.00000000E+00  0.00000000E+00
  0.00000000E+00  0.00000000E+00  0.00000000E+00
  0.00000000E+00  0.00000000E+00  0.00000000E+00
  0.00000000E+00  0.00000000E+00  0.00000000E+00
  0.00000000E+00  0.00000000E+00  0.00000000E+00
  0.00000000E+00  0.00000000E+00  0.00000000E+00
  0.00000000E+00  0.00000000E+00  0.00000000E+00
  0.00000000E+00  0.00000000E+00  0.00000000E+00
  0.00000000E+00  0.00000000E+00  0.00000000E+00
  0.00000000E+00  0.00000000E+00  0.00000000E+00
  0.00000000E+00  0.00000000E+00  0.00000000E+00
  0.00000000E+00  0.00000000E+00  0.00000000E+00
  0.00000000E+00  0.00000000E+00  0.00000000E+00
  0.00000000E+00  0.00000000E+00  0.00000000E+00
  0.00000000E+00  0.00000000E+00  0.00000000E+00
  0.00000000E+00  0.00000000E+00  0.00000000E+00
  0.00000000E+00  0.00000000E+00  0.00000000E+00
  0.00000000E+00  0.00000000E+00  0.00000000E+00
  0.00000000E+00  0.00000000E+00  0.00000000E+00
  0.00000000E+00  0.00000000E+00  0.00000000E+00
  0.00000000E+00  0.00000000E+00  0.00000000E+00
  0.00000000E+00  0.00000000E+00  0.00000000E+00
  0.00000000E+00  0.00000000E+00  0.00000000E+00
  0.00000000E+00  0.00000000E+00  0.00000000E+00
  0.00000000E+00  0.00000000E+00  0.00000000E+00
  0.00000000E+00  0.00000000E+00  0.00000000E+00
  0.00000000E+00  0.00000000E+00  0.00000000E+00
  0.00000000E+00  0.00000000E+00  0.00000000E+00
  0.00000000E+00  0.00000000E+00  0.00000000E+00
  0.00000000E+00  0.00000000E+00  0.00000000E+00
  0.00000000E+00  0.00000000E+00  0.00000000E+00
  0.00000000E+00  0.00000000E+00  0.00000000E+00
  0.00000000E+00  0.00000000E+00  0.00000000E+00
  0.00000000E+00  0.00000000E+00  0.00000000E+00
  0.00000000E+00  0.00000000E+00  0.00000000E+00
  0.00000000E+00  0.00000000E+00  0.00000000E+00
  0.00000000E+00  0.00000000E+00  0.00000000E+00
  0.00000000E+00  0.00000000E+00  0.00000000E+00
  0.00000000E+00  0.00000000E+00  0.00000000E+00
  0.00000000E+00  0.00000000E+00  0.00000000E+00
  0.00000000E+00  0.00000000E+00  0.00000000E+00
  0.00000000E+00  0.00000000E+00  0.00000000E+00
  0.00000000E+00  0.00000000E+00  0.00000000E+00
  0.00000000E+00  0.00000000E+00  0.00000000E+00
  0.00000000E+00  0.00000000E+00  0.00000000E+00
  0.00000000E+00  0.00000000E+00  0.00000000E+00
  0.00000000E+00  0.00000000E+00  0.00000000E+00
  0.00000000E+00  0.00000000E+00  0.00000000E+00
  0.00000000E+00  0.00000000E+00  0.00000000E+00
  0.00000000E+00  0.00000000E+00  0.00000000E+00
  0.00000000E+00  0.00000000E+00  0.00000000E+00
  0.00000000E+00  0.00000000E+00  0.00000000E+00
  0.00000000E+00  0.00000000E+00  0.00000000E+00
  0.00000000E+00  0.00000000E+00  0.00000000E+00
  0.00000000E+00  0.00000000E+00  0.00000000E+00
  0.00000000E+00  0.00000000E+00  0.00000000E+00
  0.00000000E+00  0.00000000E+00  0.00000000E+00
  0.00000000E+00  0.00000000E+00  0.00000000E+00
  0.00000000E+00  0.00000000E+00  0.00000000E+00
  0.00000000E+00  0.00000000E+00  0.00000000E+00
  0.00000000E+00  0.00000000E+00  0.00000000E+00
  0.00000000E+00  0.00000000E+00  0.00000000E+00
  0.00000000E+00  0.00000000E+00  0.00000000E+00
  0.00000000E+00  0.00000000E+00  0.00000000E+00
  0.00000000E+00  0.00000000E+00  0.00000000E+00
  0.00000000E+00  0.00000000E+00  0.00000000E+00
  0.00000000E+00  0.00000000E+00  0.00000000E+00
  0.00000000E+00  0.00000000E+00  0.00000000E+00
  0.00000000E+00  0.00000000E+00  0.00000000E+00
  0.00000000E+00  0.00000000E+00  0.00000000E+00
  0.00000000E+00  0.00000000E+00  0.00000000E+00
  0.00000000E+00  0.00000000E+00  0.00000000E+00
  0.00000000E+00  0.00000000E+00  0.00000000E+00
  0.00000000E+00  0.00000000E+00  0.00000000E+00
  0.00000000E+00  0.00000000E+00  0.00000000E+00
  0.00000000E+00  0.00000000E+00  0.00000000E+00
  0.00000000E+00  0.00000000E+00  0.00000000E+00
  0.00000000E+00  0.00000000E+00  0.00000000E+00
  0.00000000E+00  0.00000000E+00  0.00000000E+00
  0.00000000E+00  0.00000000E+00  0.00000000E+00
  0.00000000E+00  0.00000000E+00  0.00000000E+00
  0.00000000E+00  0.00000000E+00  0.00000000E+00
  0.00000000E+00  0.00000000E+00  0.00000000E+00
  0.00000000E+00  0.00000000E+00  0.00000000E+00
  0.00000000E+00  0.00000000E+00  0.00000000E+00
  0.00000000E+00  0.00000000E+00  0.00000000E+00
  0.00000000E+00  0.00000000E+00  0.00000000E+00
  0.00000000E+00  0.00000000E+00  0.00000000E+00
  0.00000000E+00  0.00000000E+00  0.00000000E+00
  0.00000000E+00  0.00000000E+00  0.00000000E+00
  0.00000000E+00  0.00000000E+00  0.00000000E+00
  0.00000000E+00  0.00000000E+00  0.00000000E+00
  0.00000000E+00  0.00000000E+00  0.00000000E+00
  0.00000000E+00  0.00000000E+00  0.00000000E+00
  0.00000000E+00  0.00000000E+00  0.00000000E+00
  0.00000000E+00  0.00000000E+00  0.00000000E+00
  0.00000000E+00  0.00000000E+00  0.00000000E+00
  0.00000000E+00  0.00000000E+00  0.00000000E+00
  0.00000000E+00  0.00000000E+00  0.00000000E+00
  0.00000000E+00  0.00000000E+00  0.00000000E+00
  0.00000000E+00  0.00000000E+00  0.00000000E+00
  0.00000000E+00  0.00000000E+00  0.00000000E+00
  0.00000000E+00  0.00000000E+00  0.00000000E+00
  0.00000000E+00  0.00000000E+00  0.00000000E+00
  0.00000000E+00  0.00000000E+00  0.00000000E+00
  0.00000000E+00  0.00000000E+00  0.00000000E+00
  0.00000000E+00  0.00000000E+00  0.00000000E+00
  0.00000000E+00  0.00000000E+00  0.00000000E+00
  0.00000000E+00  0.00000000E+00  0.00000000E+00
  0.00000000E+00  0.00000000E+00  0.00000000E+00
  0.00000000E+00  0.00000000E+00  0.00000000E+00
  0.00000000E+00  0.00000000E+00  0.00000000E+00
  0.00000000E+00  0.00000000E+00  0.00000000E+00
  0.00000000E+00  0.00000000E+00  0.00000000E+00
  0.00000000E+00  0.00000000E+00  0.00000000E+00
  0.00000000E+00  0.00000000E+00  0.00000000E+00
  0.00000000E+00  0.00000000E+00  0.00000000E+00
  0.00000000E+00  0.00000000E+00  0.00000000E+00
  0.00000000E+00  0.00000000E+00  0.00000000E+00
  0.00000000E+00  0.00000000E+00  0.00000000E+00
  0.00000000E+00  0.00000000E+00  0.00000000E+00
  0.00000000E+00  0.00000000E+00  0.00000000E+00
  0.00000000E+00  0.00000000E+00  0.00000000E+00
  0.00000000E+00  0.00000000E+00  0.00000000E+00
  0.00000000E+00  0.00000000E+00  0.00000000E+00
  0.00000000E+00  0.00000000E+00  0.00000000E+00
  0.00000000E+00  0.00000000E+00  0.00000000E+00
  0.00000000E+00  0.00000000E+00  0.00000000E+00
  0.00000000E+00  0.00000000E+00  0.00000000E+00
  0.00000000E+00  0.00000000E+00  0.00000000E+00
  0.00000000E+00  0.00000000E+00  0.00000000E+00
  0.00000000E+00  0.00000000E+00  0.00000000E+00
  0.00000000E+00  0.00000000E+00  0.00000000E+00
  0.00000000E+00  0.00000000E+00  0.00000000E+00
  0.00000000E+00  0.00000000E+00  0.00000000E+00
  0.00000000E+00  0.00000000E+00  0.00000000E+00
  0.00000000E+00  0.00000000E+00  0.00000000E+00
  0.00000000E+00  0.00000000E+00  0.00000000E+00
  0.00000000E+00  0.00000000E+00  0.00000000E+00
  0.00000000E+00  0.00000000E+00  0.00000000E+00
  0.00000000E+00  0.00000000E+00  0.00000000E+00
  0.00000000E+00  0.00000000E+00  0.00000000E+00
  0.00000000E+00  0.00000000E+00  0.00000000E+00
  0.00000000E+00  0.00000000E+00  0.00000000E+00
  0.00000000E+00  0.00000000E+00  0.00000000E+00
  0.00000000E+00  0.00000000E+00  0.00000000E+00
  0.00000000E+00  0.00000000E+00  0.00000000E+00
  0.00000000E+00  0.00000000E+00  0.00000000E+00
  0.00000000E+00  0.00000000E+00  0.00000000E+00
  0.00000000E+00  0.00000000E+00  0.00000000E+00
  0.00000000E+00  0.00000000E+00  0.00000000E+00
  0.00000000E+00  0.00000000E+00  0.00000000E+00
  0.00000000E+00  0.00000000E+00  0.00000000E+00
  0.00000000E+00  0.00000000E+00  0.00000000E+00
  0.00000000E+00  0.00000000E+00  0.00000000E+00
  0.00000000E+00  0.00000000E+00  0.00000000E+00
  0.00000000E+00  0.00000000E+00  0.00000000E+00
  0.00000000E+00  0.00000000E+00  0.00000000E+00
  0.00000000E+00  0.00000000E+00  0.00000000E+00
  0.00000000E+00  0.00000000E+00  0.00000000E+00
  0.00000000E+00  0.00000000E+00  0.00000000E+00
  0.00000000E+00  0.00000000E+00  0.00000000E+00
  0.00000000E+00  0.00000000E+00  0.00000000E+00
  0.00000000E+00  0.00000000E+00  0.00000000E+00
  0.00000000E+00  0.00000000E+00  0.00000000E+00
  0.00000000E+00  0.00000000E+00  0.00000000E+00
  0.00000000E+00  0.00000000E+00  0.00000000E+00
  0.00000000E+00  0.00000000E+00  0.00000000E+00
  0.00000000E+00  0.00000000E+00  0.00000000E+00
  0.00000000E+00  0.00000000E+00  0.00000000E+00
  0.00000000E+00  0.00000000E+00  0.00000000E+00
  0.00000000E+00  0.00000000E+00  0.00000000E+00
  0.00000000E+00  0.00000000E+00  0.00000000E+00
  0.00000000E+00  0.00000000E+00  0.00000000E+00
  0.00000000E+00  0.00000000E+00  0.00000000E+00
  0.00000000E+00  0.00000000E+00  0.00000000E+00
  0.00000000E+00  0.00000000E+00  0.00000000E+00
  0.00000000E+00  0.00000000E+00  0.00000000E+00
  0.00000000E+00  0.00000000E+00  0.00000000E+00
  0.00000000E+00  0.00000000E+00  0.00000000E+00
  0.00000000E+00  0.00000000E+00  0.00000000E+00
  0.00000000E+00  0.00000000E+00  0.00000000E+00
  0.00000000E+00  0.00000000E+00  0.00000000E+00
  0.00000000E+00  0.00000000E+00  0.00000000E+00
  0.00000000E+00  0.00000000E+00  0.00000000E+00
  0.00000000E+00  0.00000000E+00  0.00000000E+00
  0.00000000E+00  0.00000000E+00  0.00000000E+00
  0.00000000E+00  0.00000000E+00  0.00000000E+00
  0.00000000E+00  0.00000000E+00  0.00000000E+00
  0.00000000E+00  0.00000000E+00  0.00000000E+00
  0.00000000E+00  0.00000000E+00  0.00000000E+00
  0.00000000E+00  0.00000000E+00  0.00000000E+00
  0.00000000E+00  0.00000000E+00  0.00000000E+00
  0.00000000E+00  0.00000000E+00  0.00000000E+00
  0.00000000E+00  0.00000000E+00  0.00000000E+00
  0.00000000E+00  0.00000000E+00  0.00000000E+00
  0.00000000E+00  0.00000000E+00  0.00000000E+00
  0.00000000E+00  0.00000000E+00  0.00000000E+00