In2O3 structure 36 - random placement wi
   1.00000000000000     
     8.1415488028075398    0.0552964875564302    0.0249146273488098
     0.0560945276130378    8.1084105137458202   -0.0606897105176782
     0.0242581718391729   -0.0611056739638451    7.9105661390155975
   In   Ga   O 
    14     2    24
Direct
  0.8932733672565760  0.0505128776297923  0.4452308171727424
  0.6122504968689881  0.2744129271295677  0.6688181135517581
  0.8950113055369968  0.0420095737868351  0.9420521506502908
  0.8840814930306919  0.5564575913217809  0.4153872333907103
  0.3857462130761604  0.0338836676116472  0.4393089996080377
  0.1106797488303286  0.2667570245172186  0.6797082300292487
  0.3960558276255597  0.0141288977011484  0.9368783144343737
  0.6081520632261714  0.2665209926249617  0.1701672603465383
  0.1444650825218972  0.7718512327088192  0.1766474064912842
  0.6508899339836418  0.7646168491351659  0.6786351648438753
  0.3515158217838987  0.5224066342726061  0.8978365313308458
  0.8566306066759779  0.5416417469191757  0.9133873312211520
  0.1079094298937804  0.2720041209729303  0.1596848230067565
  0.6411744477983348  0.7809251099221441  0.1829180265079842
  0.1158797874308135  0.7743622812900099  0.6872315602513055
  0.3031479865223972  0.4741580779747281  0.4029467516468230
  0.2363031361674715  0.5173329329463243  0.1558510394542481
  0.6235319306049121  0.5271148612968588  0.2949152980406851
  0.7503424299186889  0.5075760180184687  0.6535364654239331
  0.1567507626912388  0.1434797061984838  0.9201144458556243
  0.3541806997175456  0.3752586817253132  0.6238350626956688
  0.0138066345121359  0.3191922590062646  0.4183864330390819
  0.4911137239520400  0.2877298592810291  0.9238836576262273
  0.5932859553532026  0.6531141050060754  0.9302394295199079
  0.3847560944200907  0.8883364359338657  0.2069033535126579
  0.1450858376041779  0.9954393709257658  0.5672340671334908
  0.8982223416562150  0.6653037233472645  0.1557279895035819
  0.8538368297335666  0.3112378419269035  0.0585887143851167
  0.0949928120684689  0.5120771818508771  0.7956561497776136
  0.6512444029817175  0.0118871553462654  0.0482955862322498
  0.3481783124981632  0.2528350142405031  0.2890007730066912
  0.5044818063605021  0.9904031436604654  0.6829924199860073
  0.7678294276051929  0.8140290669587884  0.4369497552700565
  0.5001933729430732  0.6041834849589236  0.4152711345342439
  0.9013957563384523  0.8075561625087317  0.7938747684854377
  0.6436826052724243  0.1584437959249669  0.4148463334030481
  0.1408862643078521  0.6607110709761201  0.4625395789540292
  0.2563237953397532  0.7857079778227671  0.8856643400598045
  0.8582540926076589  0.1635120963378114  0.7022205362527743
  0.0117190115264876  0.0105884703825438  0.1976530065964184
 
  0.00000000E+00  0.00000000E+00  0.00000000E+00
  0.00000000E+00  0.00000000E+00  0.00000000E+00
  0.00000000E+00  0.00000000E+00  0.00000000E+00
  0.00000000E+00  0.00000000E+00  0.00000000E+00
  0.00000000E+00  0.00000000E+00  0.00000000E+00
  0.00000000E+00  0.00000000E+00  0.00000000E+00
  0.00000000E+00  0.00000000E+00  0.00000000E+00
  0.00000000E+00  0.00000000E+00  0.00000000E+00
  0.00000000E+00  0.00000000E+00  0.00000000E+00
  0.00000000E+00  0.00000000E+00  0.00000000E+00
  0.00000000E+00  0.00000000E+00  0.00000000E+00
  0.00000000E+00  0.00000000E+00  0.00000000E+00
  0.00000000E+00  0.00000000E+00  0.00000000E+00
  0.00000000E+00  0.00000000E+00  0.00000000E+00
  0.00000000E+00  0.00000000E+00  0.00000000E+00
  0.00000000E+00  0.00000000E+00  0.00000000E+00
  0.00000000E+00  0.00000000E+00  0.00000000E+00
  0.00000000E+00  0.00000000E+00  0.00000000E+00
  0.00000000E+00  0.00000000E+00  0.00000000E+00
  0.00000000E+00  0.00000000E+00  0.00000000E+00
  0.00000000E+00  0.00000000E+00  0.00000000E+00
  0.00000000E+00  0.00000000E+00  0.00000000E+00
  0.00000000E+00  0.00000000E+00  0.00000000E+00
  0.00000000E+00  0.00000000E+00  0.00000000E+00
  0.00000000E+00  0.00000000E+00  0.00000000E+00
  0.00000000E+00  0.00000000E+00  0.00000000E+00
  0.00000000E+00  0.00000000E+00  0.00000000E+00
  0.00000000E+00  0.00000000E+00  0.00000000E+00
  0.00000000E+00  0.00000000E+00  0.00000000E+00
  0.00000000E+00  0.00000000E+00  0.00000000E+00
  0.00000000E+00  0.00000000E+00  0.00000000E+00
  0.00000000E+00  0.00000000E+00  0.00000000E+00
  0.00000000E+00  0.00000000E+00  0.00000000E+00
  0.00000000E+00  0.00000000E+00  0.00000000E+00
  0.00000000E+00  0.00000000E+00  0.00000000E+00
  0.00000000E+00  0.00000000E+00  0.00000000E+00
  0.00000000E+00  0.00000000E+00  0.00000000E+00
  0.00000000E+00  0.00000000E+00  0.00000000E+00
  0.00000000E+00  0.00000000E+00  0.00000000E+00
  0.00000000E+00  0.00000000E+00  0.00000000E+00
