Bond                                    
   1.00000000000000     
     5.5081439502947775   -0.0000000000000000   -0.0000000000000000
     0.0000000000000000    4.2210470029781764    0.0000000000000000
     0.0000000000000000    0.0000000000000000    4.2210470029781764
   Zr   Sb
     1     1
Direct
  0.2500000000000000  0.5000000000000000  0.5000000000000000
  0.7500000000000000  0.5000000000000000  0.5000000000000000
 
  0.00000000E+00  0.00000000E+00  0.00000000E+00
  0.00000000E+00  0.00000000E+00  0.00000000E+00
