Amorphous Sb                            
   1.00000000000000     
    22.6278869700586895    0.0000000000000000    0.0000000000000000
     0.0000000000000000   22.6278869700586895    0.0000000000000000
     0.0000000000000000    0.0000000000000000   22.6278869700586895
   In   Te   Si
    77   178    45
Direct
  0.4105526845589566  0.2983035832306174  0.5581257767756890
  0.2233750116306591  0.5356113537401167  0.3035526138512831
  0.2141264929591503  0.0504338478644241  0.9356597716565501
  0.3074205502563072  0.8626349071415206  0.8227587109489668
  0.5492685322231551  0.5569328488553856  0.1169719490957962
  0.2681797214558522  0.0846166974958884  0.1073458996710282
  0.4134833483320106  0.2717710552554501  0.7017505329516807
  0.5272290332472532  0.2053512517260216  0.4107448939542034
  0.2401079537047184  0.2773883340349897  0.1338858955139599
  0.1730554464215197  0.7372993827123407  0.3733564400282836
 -0.0022388863262289  0.6164864744341370  0.2604376772712817
  0.9533870724059923  0.6116384884725039  0.6862526340838104
  0.8811662509263462  0.1822455108415469  0.1882506862950105
  0.0845415736088903  0.2964372262654087  0.6731889843833881
  0.5838274775764213  0.1537446525494399  0.0126161038555433
  0.9090426419506142  0.8737788414243809  0.7491361866699698
  0.6410790764547188 -0.0071137728929947  0.3290049564400254
  0.3839356555055246  0.6697262299072935  0.4584731155703883
  0.5262503097738007  0.8616206490729579  0.8287257652632692
  0.3853709913702684  0.0403436125905582  0.4648288303311023
  0.7942888821020568  0.8655619472310537  0.2715018734135105
  0.0629923734849002  0.3908041544713734  0.2673914886982811
  0.9216374246054476  0.8138575724289381  0.9334335855466587
  0.1362415348070561  0.6203876899475386  0.6807176937587062
  0.7917484333332285  0.7103269079362440  0.1156286287295900
  0.4983009591446406  0.8492239950365913  0.5786915979129698
  0.4999277199600306  0.9248923885039999  0.3303132308234500
  0.7110074360980870  0.3182519280596456  0.0339935002922854
  0.8221644297093939  0.6134805900200828  0.5670588534273300
  0.4550466060871213  0.4292398498760002  0.6631647175639716
  0.6731528365604803  0.3716762572854607  0.6980271329400447
  0.3303887840945732  0.8576201092677587  0.4780769486926567
  0.8138520542396843  0.1519270578035632  0.5757331456685395
  0.1537664131698881  0.9157635581697556  0.5773724340052653
  0.0163377034497584  0.4606897693409149  0.6391906880969063
  0.6945141026468479  0.5054798325570176  0.6134350016745264
  0.3083029970533137  0.6717063381373504  0.7841637550125760
  0.3689093882109185  0.7041465401717800  0.1631008373161764
  0.9363902466823538  0.5765691570815624  0.9402963229882503
  0.7516771381466678  0.5142426621993931  0.8180388000762845
  0.5981058823650768  0.4683401579640976  0.4247462696174532
  0.0694748704856445  0.9500664226926517  0.8258282203829210
  0.9560078401852210  0.4544457248155991  0.4317113361156338
  0.1920858765463521  0.8539025516878777 -0.0054376018751482
  0.3511174849401276  0.5236902770620785  0.2189677272955982
 -0.0117268795726196  0.2270093459399922  0.0875281656338176
  0.9083549525978312 -0.0216392255807182  0.5489131530096319
  0.9728691926200189  0.8105331919620063  0.5785871285520204
  0.6760126361636135  0.7545840329807466 -0.0045457012826023
  0.2255707629645768  0.1693293642982413  0.7054480969920478
  0.6144048540475631  0.5943461428179855  0.7529442086798971
  0.7776813643407767  0.9904201644354372  0.6962141517444533
  0.9838276884214838  0.3956544180180967  0.0631814435325704
  0.3467656836000356  0.1442160757981056  0.8561893814969685
  0.6469660363522802  0.7716526358192112  0.4663528319688384
  0.7238873104956028  0.4865546424854700  0.1439422382449775
  0.1536106475002657  0.3560339639355581  0.4007724694025998
  0.5803761134948980  0.3687883584458370  0.2331485979153329
  0.9056318818242208  0.9580006917369125  0.0711545975535126
  0.5600130908247788  0.7053842674108503  0.9008732662890784
  0.9552330998429536  0.2684495243280274  0.2428980250957425
  0.1635991436029076  0.6742749993791233  0.5286039069177724
  0.6247862198232844  0.8035672514964564  0.1200227316339367
  0.1265011641674368  0.8188894455810728  0.7380410554118223
  0.7302893079831083  0.2252404578225249  0.7800026612918282
  0.6941766021079756  0.9018772145434334  0.8841405223269120
  0.2992134767194531  0.1307979435429604  0.2949284289770294
  0.8803654133847066  0.0753380207054684 -0.0078744898845003
  0.2525797541980779  0.4747557067233867  0.7284022603553221
  0.7754360240500195  0.7102746111398714  0.8219734654706041
  0.4579602597912151  0.3521799954907153  0.2574507700632344
  0.1024156060270759  0.1520149379232736  0.2217238333373881
  0.0481800141234466  0.1850667382452809  0.5481393112450991
  0.4613208987243828  0.6351228797180248  0.6202338704363575
  0.7106381701264600  0.0094657359115267  0.0404781434691746
  0.2986147801055202  0.7433427751758752  0.6327482387830505
  0.0607191254019584  0.2267478503749568  0.8159841355544389
  0.6427768376848114  0.1357801042532090  0.7774144375411903
  0.0559627280773491  0.0967795386256623  0.9412888689222835
  0.8531361764720367  0.2186953597141121  0.8008661060941838
  0.5263711126343866  0.4191941908533490  0.5168134662567396
  0.9468283091880176  0.0893868849021225  0.5848809009937561
  0.5114017304922855  0.2321608807756620  0.0813048539577592
  0.3440164721354725  0.1802783926771735  0.1469711136138554
  0.6245546573303247  0.2541896328262852  0.1705474552290479
  0.1064293081888214  0.5372895762200312  0.1840055700442417
  0.8555652190366144  0.9642081977668165  0.3414851379472051
  0.5724689901277775  0.5263505733102769  0.2406915632931823
  0.2906735215880700  0.5691276380068216  0.9098607174994692
  0.0005187217734397  0.4705201072653741  0.9616841885581342
  0.3951622413337464  0.8313896674841645  0.3711391652778206
  0.3440403066905706  0.6364195571796220  0.3392731441607905
  0.5662697227543040  0.4340628268719389  0.7764558042767197
  0.2419645357045982  0.2432150228342653  0.2832530034343040
  0.0695465469914721  0.8705051251285290  0.0658771218687694
  0.5490119671021029  0.6991512476979148  0.7648985176442807
  0.2500053779388816  0.2862564159985362  0.9830302693905976
  0.5918006257370582  0.0425994913433157  0.0740453803571071
  0.8043048756110415  0.4195785819327045  0.0430591019475654
  0.9565413984762913  0.1474740194814518  0.8787824973035736
  0.2116864499973946  0.4105381798356567  0.1054019358942847
  0.7890213029248048  0.9856266878376770  0.5026459851815066
  0.2213632454783326  0.9139250941417488  0.4521595742722607
  0.9282033274657130  0.7627846884200127  0.1965059249655640
  0.6351615995827653  0.7405591884126277  0.6761443936888590
  0.2256395218672433  0.5360107379615692  0.0871053153655992
  0.2904783820457858  0.7405856023541586  0.5064943640636063
  0.5162708326186568  0.6793217774439652  0.0981398067212027
  0.0649826303323670  0.7339699951581269  0.3037042106703556
  0.8169552718914693  0.7196417705588105  0.9896857771704005
  0.4073625605620383  0.7257083352838255  0.6916189552537693
  0.2967293427667692  0.1833582123328161  0.6022230079568713
  0.3394174097144959  0.1419045885380447  0.9842072249953273
  0.6931882747112504  0.3345668699058706  0.8359800155477415
  0.7338909948428487  0.4554668797754113  0.3016255205941220
  0.6983703507427825  0.6416261050406388  0.5478875943859053
  0.6638518320704830  0.7019736740683185  0.3284049118820261
  0.7413586514714714  0.6125017045771000  0.7358193680412555
  0.1614181036449923  0.1912506156541904  0.9543348545282386
  0.2886318893490417  0.4643417555026852  0.4301866872240321
  0.5491481397827636  0.5839671739335373  0.4239503528752385
  0.4698466455845272  0.5739492721834277  0.9521175935768728
  0.7096690459475524  0.8734778885484329  0.3712869482979208
  0.1714506673075439  0.4451286350901776  0.9303997147221372
  0.2064647866216995  0.0728170567298937  0.2209205326849711
  0.2014624667284755  0.2347951173568534  0.5321517240831938
  0.1738196285862880  0.6972638119243826  0.1375968874459047
  0.6762842264065649  0.3196817169075547  0.4081419563879868
  0.9010021320719448  0.2063178832275346  0.9777157620220920
  0.2528592341387846  0.6229423869896952  0.6361948463378442
  0.2654416111630948  0.0919516301847358  0.4134107579762554
  0.3533865789378726  0.8193224280270799  0.0086969634851323
  0.9251410601177217  0.2462738656963002  0.6310733618082454
  0.3473487764943445  0.3622188792800936  0.1924311000718055
  0.6040235289770706 -0.0118732685680492  0.8685264182001305
  0.6619787197009824  0.6205108109827940  0.9506595607318695
  0.0448518647545022  0.1027931979206970  0.1161018771411685
  0.4461768873038091  0.4813338756791268  0.1157366067929573
  0.9365196961519382  0.8869494236572150  0.2165524743934275
  0.4116291048018429  0.7514945464434727  0.8518650804888753
  0.5493825651912151  0.5451168716740863  0.6549272424013719
  0.3056775216475229  0.0263560800847482  0.8215309604144989
  0.6818356816825973  0.6579616878445298  0.1474172696641730
  0.4320529757587065  0.9115368331669562  0.1428582628048541
  0.7983219910453078  0.1894543108068256  0.3599988915578120
  0.1046802417431769  0.9320642389746012  0.3376257696237092
  0.8146982507440715  0.9169999511340262  0.9213225809640516
  0.8748346085207256  0.6300412834930931  0.1693053421756189
  0.0916958009556152  0.4597440979131158  0.4415526227364674
  0.4109236174351612  0.3032448805367983  0.8804806512908887
  0.8896283792200309  0.3785743198223320  0.2066164129987491
  0.7230933762469215  0.2412390488993670  0.6520894254297345
  0.2559583110288499  0.2295311873647680  0.8164788254756690
  0.8354257719973008  0.0457667344987647  0.7936382411114598
  0.7692980475533158  0.8354137126707822  0.0969802907161854
  0.7866673716937087  0.0023034054422804  0.1390727954900910
  0.5191263612043042  0.8289368073517045  0.9878857758356884
  0.0309778352994108  0.9059027287653806  0.7122035645942867
  0.7224793983713355  0.8894632574434164  0.7504385794830906
  0.3599827849107106  0.4113556578743591 -0.0225167389548570
  0.0695117709757547  0.3177852757990429  0.0087681006222838
  0.3499185117578562  0.5539140104821731  0.7186267193535325
  0.5471942528543383  0.8788820750900010  0.4607899400738529
  0.6309844124644740  0.9167507818436889  0.2042571003813417
  0.8763599368375016  0.6964014424696060  0.6387667716401240
  0.4868290766858410  0.7416218116758522  0.4447925919248287
  0.0822950465514561  0.3299386884098857  0.5519263409016525
  0.4979803892255918  0.0557522796247664  0.3863578904662118
  0.8111713656963165  0.6407190452815186  0.4364580909558681
  0.4219893926129363  0.9467602198805447  0.8755219034574980
  0.6189089687277459  0.1408458902523937  0.5019836355462960
  0.4297458702882944  0.4602862674394197  0.3206865304706305
  0.0757180529251774  0.2779909344295695  0.1958959205579741
  0.0449119150403611  0.1177882056863816  0.3272752282514111
  0.0144978870217956  0.9282845677064152  0.4964183608502923
  0.4058952762987483  0.4644349300784176  0.7951346752970845
  0.0783927436660727  0.2529574782495103  0.3908401379155306
  0.6987257968630463  0.1895113920266458  0.9791916363960934
  0.1291757869591979  0.9704933387749678  0.0150450821596868
  0.2363718853104762  0.8440102133815167  0.6771584391699769
  0.0852981423348065  0.5097049613051948  0.3252717649431551
 -0.0158612519655862  0.3333650153271240  0.3540510027469047
  0.8536435153093331  0.9017846960471175  0.6379434186235524
  0.0635114780127087  0.7202190095001206  0.6962076474770041
  0.4272228987400622  0.1772722603770971  0.4996706530956737
  0.4526420921557514  0.2026553692478382  0.8190703642115303
  0.6993090871467849  0.0957312328276360  0.2344198316756179
  0.3894987495907834  0.0478694376663701  0.2556464019405745
  0.3817804894254155  0.8906886756985909  0.5860352377886913
  0.4025570765057929  0.5720102269206091  0.5312873570709350
  0.1011235993041544  0.1728818130577939  0.6842446768611700
  0.4158031859574981  0.2544299690515395  0.3376428629565070
  0.1382786202996674  0.8163464807567776  0.4695040302957061
  0.9683493122389850  0.3818132437858331  0.5533934501240990
  0.5548969853561478  0.9096118722025812  0.6747331851613516
  0.6244249744424177  0.5157767775977076  0.8551120460354149
  0.9694504857969205  0.9589988065792537  0.9033243838379580
  0.2510967737129634  0.8691973986627802  0.1337079383927635
  0.4868348669988085  0.1051086906686410  0.2097662196941339
  0.1399232023630228  0.5300776998680675  0.7707213764382004
  0.2178769182495779  0.0445668555690357  0.7357286763059551
  0.9710453116596934  0.3105290175799626  0.7253336039737849
  0.6710601576181582  0.7791390812639589  0.8585845015935035
  0.9332804210808215  0.0687674835760125  0.1637931294631097
  0.6319609756824184  0.9650109626562612  0.4897793041694386
  0.1676987761917656  0.1576238728382111  0.0736945315275024
  0.8282370023722214  0.2514437104503347  0.0888413682732709
  0.0444272310435347  0.5802341701466097  0.5991275861388931
  0.1590501207146996  0.1519325257136682  0.4478729576952853
  0.2541918439326845  0.3482385870161014  0.4733616318148043
  0.1196507278321590  0.0680549323367587  0.8304103676297427
  0.9028352679824549  0.4907573336070429  0.6913683965400401
  0.4070894316586448  0.1388659120103858  0.6760793130836146
  0.3169027825364314  0.8577624262762524  0.2748409025773420
  0.6187363124139272  0.3861959082236641  0.1092087887183611
  0.5474473298298123  0.3002959540938127  0.7017390193525624
  0.8391423687585103  0.4910830428059734  0.5807207007743986
  0.8127430747626998  0.5440709009873306  0.9291745359991257
  0.2130823509753413  0.6250928041209340  0.4096531767288646
  0.5399013030159655  0.7288781399548099  0.5603013064712655
 -0.0045036713673964  0.4601056934469003  0.1795744982068879
  0.6286649168808801  0.4959369129932773  0.0423196531482276
  0.5601805532407693  0.2817905507240530  0.5785082680121552
  0.9023935603826815  0.4231855745645139  0.8711299474434823
  0.6506332258735059  0.9023477476725666  0.0107886268179941
  0.1356170801876133  0.3590156812250359  0.7696096928589894
  0.2750725683232240  0.7249422879622390 -0.0003225493994537
  0.7305740124927430  0.2765451051964619  0.2355267858447982
  0.5074811505573738  0.3409470468784844  0.4222835050003086
  0.4380774545534268  0.6516826285542020  0.2525920528157737
  0.9908317846149169  0.4791880251837845  0.8028235358570904
  0.8081615329143085  0.4058867024699728  0.7876889706444280
  0.1976327907713145  0.3985705985188054  0.2864409193715744
  0.5665789916798483  0.3315132745399434  0.8448777537494422
  0.7056183583787049  0.8263875833234846  0.5823698009688342
  0.2978397302103654  0.9792469195584398  0.0383621067892367
  0.0259521034064530  0.7233578282541018  0.4837357693903236
  0.7472972384329462  0.0768125714951504 -0.0571683711399146
  0.0938426073237769  0.8660334571947798  0.1874720379247429
  0.1517951291826053  0.8589171704369862  0.8547315462039454
  0.6168598969703241  0.1596348745867613  0.3237421796170578
  0.8735997889288031  0.5905552625635314  0.3393462339984739
  0.4844814138593550  0.0235293501527108  0.5665819485387269
  0.8927134124736011  0.7577255462647153  0.8033550826758509
  0.8587409895881615  0.8168009542429651  0.4595902018757584
  0.7062260585169647  0.0592533354336410  0.6175081758352717
  0.7193857433797303  0.4743558981893692  0.4776250466066738
  0.1992268403907756  0.4457969904255772  0.6200812171829782
  0.8910724447678254  0.1456652226134967  0.7021243728476555
  0.0272211926204023  0.0066018911026348  0.2746719988205952
  0.9822025737195867  0.6033585887716513  0.8156303474671110
 -0.0386158445463973  0.6749281739040425  0.0118134715251543
  0.0741967370408692  0.6283894510448296  0.0379915493097700
  0.4987047606669984  0.0891809476225012  0.9396586570547449
  0.2585832110871154  0.6753101205493929  0.2366435862669075
  0.5566070607072922  0.0469382460421994  0.4820487462610559
  0.4778090962724230  0.1332006947814088  0.5899597112151526
  0.0205274395747591  0.8819716372367509  0.3927028573422719
  0.6984267452303520  0.2358461577327142  0.3382642276207531
  0.4006880915491771  0.5095228714258343  0.0175363716855254
  0.0668455843664543  0.6427023250696799  0.1515536573051799
  0.8769531981901612  0.3545897512174216  0.0964655026625745
  0.5640384314674322  0.9846650850381075  0.9748417608606831
  0.6384705408455473  0.4000462153478861  0.3347683040518221
  0.4456673819909835  0.1455769719199446  0.1115727983299581
  0.0055117783174041  0.7765779776300843  0.3892141260707309
  0.7381967772306769  0.9073678461895375  0.1803333191989732
  0.3052564546680560  0.4143699429804451  0.8122218586508620
  0.3575005653084265  0.8243073031510195  0.1292247709169669
  0.7143374933504254  0.5827389018510385  0.4531341314562479
  0.4428073997652154  0.6646880303775978  0.0132638681125761
  0.6467349276306111  0.6008250761417716  0.3752929500063484
  0.2350159474585716  0.7798548729846163  0.2827435628803264
  0.9053788131416106  0.7906926346144729  0.3596960413238943
  0.3950646039948680  0.3208207138958472  0.4309174770970388
  0.2820120934797570  0.4552112912422261  0.9066816883628326
  0.2986706414993005  0.3411496064187631  0.2916742334037145
  0.4102395413204145  0.9769184835499712  0.0494932568462968
  0.7663439918028473  0.6460997899467058  0.9207595473710872
  0.5752778168829964  0.1718047700725498  0.6018970460919981
  0.3523899043747889  0.3957922381630180  0.3700636232004235
  0.1734283766220216  0.3650442841619745  0.0083086538442554
  0.1846042873381976  0.7993677389132904  0.1925767671811725
  0.4275761760747567  0.0829088255971146  0.0277336531215376
  0.3125038270476740  0.5638524859101651  0.0216167495820041
  0.8802633061278337  0.9500279360044827  0.8343012136312881
  0.6727360323485024  0.5485152696400570  0.2874242703492031
  0.4705365009494546  0.9330734683741700  0.9740345151477626
  0.9357274076740010  0.8867323816800077  0.3305446939563824
  0.7172216202050969  0.6372382736041349  0.2515550880019745
  0.1179343907290968  0.4436377564054145  0.6971293804016534
  0.8204436662146688  0.6573357351859064  0.2644928749276858
  0.3373851664739965  0.3146832224800608  0.7947873132487180
  0.8014952713496230  0.9086169601702075  0.4246950487683328
  0.3467542643339909  0.6569645468489878  0.0554385824553467
  0.4374099991142536  0.7557125504071633  0.9585550518111501
  0.6573109918942475  0.1505169399377993  0.6682858688619020
  0.6489182783038644  0.8521668968783263  0.6732863658177588
  0.8481030833548903  0.7594839737868173  0.2775878210025194
  0.7803975657695578  0.1701578278615950  0.2494661336530518
 
  0.00000000E+00  0.00000000E+00  0.00000000E+00
  0.00000000E+00  0.00000000E+00  0.00000000E+00
  0.00000000E+00  0.00000000E+00  0.00000000E+00
  0.00000000E+00  0.00000000E+00  0.00000000E+00
  0.00000000E+00  0.00000000E+00  0.00000000E+00
  0.00000000E+00  0.00000000E+00  0.00000000E+00
  0.00000000E+00  0.00000000E+00  0.00000000E+00
  0.00000000E+00  0.00000000E+00  0.00000000E+00
  0.00000000E+00  0.00000000E+00  0.00000000E+00
  0.00000000E+00  0.00000000E+00  0.00000000E+00
  0.00000000E+00  0.00000000E+00  0.00000000E+00
  0.00000000E+00  0.00000000E+00  0.00000000E+00
  0.00000000E+00  0.00000000E+00  0.00000000E+00
  0.00000000E+00  0.00000000E+00  0.00000000E+00
  0.00000000E+00  0.00000000E+00  0.00000000E+00
  0.00000000E+00  0.00000000E+00  0.00000000E+00
  0.00000000E+00  0.00000000E+00  0.00000000E+00
  0.00000000E+00  0.00000000E+00  0.00000000E+00
  0.00000000E+00  0.00000000E+00  0.00000000E+00
  0.00000000E+00  0.00000000E+00  0.00000000E+00
  0.00000000E+00  0.00000000E+00  0.00000000E+00
  0.00000000E+00  0.00000000E+00  0.00000000E+00
  0.00000000E+00  0.00000000E+00  0.00000000E+00
  0.00000000E+00  0.00000000E+00  0.00000000E+00
  0.00000000E+00  0.00000000E+00  0.00000000E+00
  0.00000000E+00  0.00000000E+00  0.00000000E+00
  0.00000000E+00  0.00000000E+00  0.00000000E+00
  0.00000000E+00  0.00000000E+00  0.00000000E+00
  0.00000000E+00  0.00000000E+00  0.00000000E+00
  0.00000000E+00  0.00000000E+00  0.00000000E+00
  0.00000000E+00  0.00000000E+00  0.00000000E+00
  0.00000000E+00  0.00000000E+00  0.00000000E+00
  0.00000000E+00  0.00000000E+00  0.00000000E+00
  0.00000000E+00  0.00000000E+00  0.00000000E+00
  0.00000000E+00  0.00000000E+00  0.00000000E+00
  0.00000000E+00  0.00000000E+00  0.00000000E+00
  0.00000000E+00  0.00000000E+00  0.00000000E+00
  0.00000000E+00  0.00000000E+00  0.00000000E+00
  0.00000000E+00  0.00000000E+00  0.00000000E+00
  0.00000000E+00  0.00000000E+00  0.00000000E+00
  0.00000000E+00  0.00000000E+00  0.00000000E+00
  0.00000000E+00  0.00000000E+00  0.00000000E+00
  0.00000000E+00  0.00000000E+00  0.00000000E+00
  0.00000000E+00  0.00000000E+00  0.00000000E+00
  0.00000000E+00  0.00000000E+00  0.00000000E+00
  0.00000000E+00  0.00000000E+00  0.00000000E+00
  0.00000000E+00  0.00000000E+00  0.00000000E+00
  0.00000000E+00  0.00000000E+00  0.00000000E+00
  0.00000000E+00  0.00000000E+00  0.00000000E+00
  0.00000000E+00  0.00000000E+00  0.00000000E+00
  0.00000000E+00  0.00000000E+00  0.00000000E+00
  0.00000000E+00  0.00000000E+00  0.00000000E+00
  0.00000000E+00  0.00000000E+00  0.00000000E+00
  0.00000000E+00  0.00000000E+00  0.00000000E+00
  0.00000000E+00  0.00000000E+00  0.00000000E+00
  0.00000000E+00  0.00000000E+00  0.00000000E+00
  0.00000000E+00  0.00000000E+00  0.00000000E+00
  0.00000000E+00  0.00000000E+00  0.00000000E+00
  0.00000000E+00  0.00000000E+00  0.00000000E+00
  0.00000000E+00  0.00000000E+00  0.00000000E+00
  0.00000000E+00  0.00000000E+00  0.00000000E+00
  0.00000000E+00  0.00000000E+00  0.00000000E+00
  0.00000000E+00  0.00000000E+00  0.00000000E+00
  0.00000000E+00  0.00000000E+00  0.00000000E+00
  0.00000000E+00  0.00000000E+00  0.00000000E+00
  0.00000000E+00  0.00000000E+00  0.00000000E+00
  0.00000000E+00  0.00000000E+00  0.00000000E+00
  0.00000000E+00  0.00000000E+00  0.00000000E+00
  0.00000000E+00  0.00000000E+00  0.00000000E+00
  0.00000000E+00  0.00000000E+00  0.00000000E+00
  0.00000000E+00  0.00000000E+00  0.00000000E+00
  0.00000000E+00  0.00000000E+00  0.00000000E+00
  0.00000000E+00  0.00000000E+00  0.00000000E+00
  0.00000000E+00  0.00000000E+00  0.00000000E+00
  0.00000000E+00  0.00000000E+00  0.00000000E+00
  0.00000000E+00  0.00000000E+00  0.00000000E+00
  0.00000000E+00  0.00000000E+00  0.00000000E+00
  0.00000000E+00  0.00000000E+00  0.00000000E+00
  0.00000000E+00  0.00000000E+00  0.00000000E+00
  0.00000000E+00  0.00000000E+00  0.00000000E+00
  0.00000000E+00  0.00000000E+00  0.00000000E+00
  0.00000000E+00  0.00000000E+00  0.00000000E+00
  0.00000000E+00  0.00000000E+00  0.00000000E+00
  0.00000000E+00  0.00000000E+00  0.00000000E+00
  0.00000000E+00  0.00000000E+00  0.00000000E+00
  0.00000000E+00  0.00000000E+00  0.00000000E+00
  0.00000000E+00  0.00000000E+00  0.00000000E+00
  0.00000000E+00  0.00000000E+00  0.00000000E+00
  0.00000000E+00  0.00000000E+00  0.00000000E+00
  0.00000000E+00  0.00000000E+00  0.00000000E+00
  0.00000000E+00  0.00000000E+00  0.00000000E+00
  0.00000000E+00  0.00000000E+00  0.00000000E+00
  0.00000000E+00  0.00000000E+00  0.00000000E+00
  0.00000000E+00  0.00000000E+00  0.00000000E+00
  0.00000000E+00  0.00000000E+00  0.00000000E+00
  0.00000000E+00  0.00000000E+00  0.00000000E+00
  0.00000000E+00  0.00000000E+00  0.00000000E+00
  0.00000000E+00  0.00000000E+00  0.00000000E+00
  0.00000000E+00  0.00000000E+00  0.00000000E+00
  0.00000000E+00  0.00000000E+00  0.00000000E+00
  0.00000000E+00  0.00000000E+00  0.00000000E+00
  0.00000000E+00  0.00000000E+00  0.00000000E+00
  0.00000000E+00  0.00000000E+00  0.00000000E+00
  0.00000000E+00  0.00000000E+00  0.00000000E+00
  0.00000000E+00  0.00000000E+00  0.00000000E+00
  0.00000000E+00  0.00000000E+00  0.00000000E+00
  0.00000000E+00  0.00000000E+00  0.00000000E+00
  0.00000000E+00  0.00000000E+00  0.00000000E+00
  0.00000000E+00  0.00000000E+00  0.00000000E+00
  0.00000000E+00  0.00000000E+00  0.00000000E+00
  0.00000000E+00  0.00000000E+00  0.00000000E+00
  0.00000000E+00  0.00000000E+00  0.00000000E+00
  0.00000000E+00  0.00000000E+00  0.00000000E+00
  0.00000000E+00  0.00000000E+00  0.00000000E+00
  0.00000000E+00  0.00000000E+00  0.00000000E+00
  0.00000000E+00  0.00000000E+00  0.00000000E+00
  0.00000000E+00  0.00000000E+00  0.00000000E+00
  0.00000000E+00  0.00000000E+00  0.00000000E+00
  0.00000000E+00  0.00000000E+00  0.00000000E+00
  0.00000000E+00  0.00000000E+00  0.00000000E+00
  0.00000000E+00  0.00000000E+00  0.00000000E+00
  0.00000000E+00  0.00000000E+00  0.00000000E+00
  0.00000000E+00  0.00000000E+00  0.00000000E+00
  0.00000000E+00  0.00000000E+00  0.00000000E+00
  0.00000000E+00  0.00000000E+00  0.00000000E+00
  0.00000000E+00  0.00000000E+00  0.00000000E+00
  0.00000000E+00  0.00000000E+00  0.00000000E+00
  0.00000000E+00  0.00000000E+00  0.00000000E+00
  0.00000000E+00  0.00000000E+00  0.00000000E+00
  0.00000000E+00  0.00000000E+00  0.00000000E+00
  0.00000000E+00  0.00000000E+00  0.00000000E+00
  0.00000000E+00  0.00000000E+00  0.00000000E+00
  0.00000000E+00  0.00000000E+00  0.00000000E+00
  0.00000000E+00  0.00000000E+00  0.00000000E+00
  0.00000000E+00  0.00000000E+00  0.00000000E+00
  0.00000000E+00  0.00000000E+00  0.00000000E+00
  0.00000000E+00  0.00000000E+00  0.00000000E+00
  0.00000000E+00  0.00000000E+00  0.00000000E+00
  0.00000000E+00  0.00000000E+00  0.00000000E+00
  0.00000000E+00  0.00000000E+00  0.00000000E+00
  0.00000000E+00  0.00000000E+00  0.00000000E+00
  0.00000000E+00  0.00000000E+00  0.00000000E+00
  0.00000000E+00  0.00000000E+00  0.00000000E+00
  0.00000000E+00  0.00000000E+00  0.00000000E+00
  0.00000000E+00  0.00000000E+00  0.00000000E+00
  0.00000000E+00  0.00000000E+00  0.00000000E+00
  0.00000000E+00  0.00000000E+00  0.00000000E+00
  0.00000000E+00  0.00000000E+00  0.00000000E+00
  0.00000000E+00  0.00000000E+00  0.00000000E+00
  0.00000000E+00  0.00000000E+00  0.00000000E+00
  0.00000000E+00  0.00000000E+00  0.00000000E+00
  0.00000000E+00  0.00000000E+00  0.00000000E+00
  0.00000000E+00  0.00000000E+00  0.00000000E+00
  0.00000000E+00  0.00000000E+00  0.00000000E+00
  0.00000000E+00  0.00000000E+00  0.00000000E+00
  0.00000000E+00  0.00000000E+00  0.00000000E+00
  0.00000000E+00  0.00000000E+00  0.00000000E+00
  0.00000000E+00  0.00000000E+00  0.00000000E+00
  0.00000000E+00  0.00000000E+00  0.00000000E+00
  0.00000000E+00  0.00000000E+00  0.00000000E+00
  0.00000000E+00  0.00000000E+00  0.00000000E+00
  0.00000000E+00  0.00000000E+00  0.00000000E+00
  0.00000000E+00  0.00000000E+00  0.00000000E+00
  0.00000000E+00  0.00000000E+00  0.00000000E+00
  0.00000000E+00  0.00000000E+00  0.00000000E+00
  0.00000000E+00  0.00000000E+00  0.00000000E+00
  0.00000000E+00  0.00000000E+00  0.00000000E+00
  0.00000000E+00  0.00000000E+00  0.00000000E+00
  0.00000000E+00  0.00000000E+00  0.00000000E+00
  0.00000000E+00  0.00000000E+00  0.00000000E+00
  0.00000000E+00  0.00000000E+00  0.00000000E+00
  0.00000000E+00  0.00000000E+00  0.00000000E+00
  0.00000000E+00  0.00000000E+00  0.00000000E+00
  0.00000000E+00  0.00000000E+00  0.00000000E+00
  0.00000000E+00  0.00000000E+00  0.00000000E+00
  0.00000000E+00  0.00000000E+00  0.00000000E+00
  0.00000000E+00  0.00000000E+00  0.00000000E+00
  0.00000000E+00  0.00000000E+00  0.00000000E+00
  0.00000000E+00  0.00000000E+00  0.00000000E+00
  0.00000000E+00  0.00000000E+00  0.00000000E+00
  0.00000000E+00  0.00000000E+00  0.00000000E+00
  0.00000000E+00  0.00000000E+00  0.00000000E+00
  0.00000000E+00  0.00000000E+00  0.00000000E+00
  0.00000000E+00  0.00000000E+00  0.00000000E+00
  0.00000000E+00  0.00000000E+00  0.00000000E+00
  0.00000000E+00  0.00000000E+00  0.00000000E+00
  0.00000000E+00  0.00000000E+00  0.00000000E+00
  0.00000000E+00  0.00000000E+00  0.00000000E+00
  0.00000000E+00  0.00000000E+00  0.00000000E+00
  0.00000000E+00  0.00000000E+00  0.00000000E+00
  0.00000000E+00  0.00000000E+00  0.00000000E+00
  0.00000000E+00  0.00000000E+00  0.00000000E+00
  0.00000000E+00  0.00000000E+00  0.00000000E+00
  0.00000000E+00  0.00000000E+00  0.00000000E+00
  0.00000000E+00  0.00000000E+00  0.00000000E+00
  0.00000000E+00  0.00000000E+00  0.00000000E+00
  0.00000000E+00  0.00000000E+00  0.00000000E+00
  0.00000000E+00  0.00000000E+00  0.00000000E+00
  0.00000000E+00  0.00000000E+00  0.00000000E+00
  0.00000000E+00  0.00000000E+00  0.00000000E+00
  0.00000000E+00  0.00000000E+00  0.00000000E+00
  0.00000000E+00  0.00000000E+00  0.00000000E+00
  0.00000000E+00  0.00000000E+00  0.00000000E+00
  0.00000000E+00  0.00000000E+00  0.00000000E+00
  0.00000000E+00  0.00000000E+00  0.00000000E+00
  0.00000000E+00  0.00000000E+00  0.00000000E+00
  0.00000000E+00  0.00000000E+00  0.00000000E+00
  0.00000000E+00  0.00000000E+00  0.00000000E+00
  0.00000000E+00  0.00000000E+00  0.00000000E+00
  0.00000000E+00  0.00000000E+00  0.00000000E+00
  0.00000000E+00  0.00000000E+00  0.00000000E+00
  0.00000000E+00  0.00000000E+00  0.00000000E+00
  0.00000000E+00  0.00000000E+00  0.00000000E+00
  0.00000000E+00  0.00000000E+00  0.00000000E+00
  0.00000000E+00  0.00000000E+00  0.00000000E+00
  0.00000000E+00  0.00000000E+00  0.00000000E+00
  0.00000000E+00  0.00000000E+00  0.00000000E+00
  0.00000000E+00  0.00000000E+00  0.00000000E+00
  0.00000000E+00  0.00000000E+00  0.00000000E+00
  0.00000000E+00  0.00000000E+00  0.00000000E+00
  0.00000000E+00  0.00000000E+00  0.00000000E+00
  0.00000000E+00  0.00000000E+00  0.00000000E+00
  0.00000000E+00  0.00000000E+00  0.00000000E+00
  0.00000000E+00  0.00000000E+00  0.00000000E+00
  0.00000000E+00  0.00000000E+00  0.00000000E+00
  0.00000000E+00  0.00000000E+00  0.00000000E+00
  0.00000000E+00  0.00000000E+00  0.00000000E+00
  0.00000000E+00  0.00000000E+00  0.00000000E+00
  0.00000000E+00  0.00000000E+00  0.00000000E+00
  0.00000000E+00  0.00000000E+00  0.00000000E+00
  0.00000000E+00  0.00000000E+00  0.00000000E+00
  0.00000000E+00  0.00000000E+00  0.00000000E+00