Se
 1.0000000000000000
    23.7638753505487728    0.0000000000000000    0.0000000000000000
     0.0000000000000000   23.7638753505487763    0.0000000000000000
     0.0000000000000000    0.0000000000000000   23.7638753505487763
 Se 
 300
Direct
  0.6791814432555445  0.6718788230952129 -0.0397787972475389
  0.9430703728584182  0.2059889205047119  0.4160903144960142
 -0.0011603757134746  0.7430348592381609 -0.0344632499811589
 -0.0150554228801410  0.5170762390785784  0.3756919658397603
  0.0070235627080101  0.5607064534664133  0.8603109713561532
  0.6570893283175732  0.2788335866884945  0.3100971944349519
  0.9531285738726161  0.1641352235059018  0.3255474528557471
  0.7406892284371284  0.8327727296468111  0.2200342181149765
  0.8144425142869589  0.7371874124055826  0.0156811952028508
  0.2899186583386507  0.3524700814128001  0.6770256167260955
  0.3303999379322839  0.6477005169975016  0.7021715049632590
  0.1421307023536850 -0.0021255662081420  0.7999256835457106
  0.8129614387840544  0.3350134135260329  0.2959907733963970
  0.0388415697474861  0.2795933966471452  0.2472434733429625
  0.7743826829143153  0.6555586166217009  0.9733457966155707
  0.2608949863092214  0.6001360980037546  0.4035883844695863
  0.3687104557693259  0.7712534331320005  0.0989433626835725
  0.6087607280110225  0.5881546891850387  0.4680242619686500
  0.3481827427065949  0.9395677929822711  0.2906499922957501
  0.9389166635508102  0.8278061930790275  0.2189036781981768
  0.4394799811613125  0.3192166192800315  0.8476029887298659
  0.4391930319688889  0.8114464096881048  0.2352018032496734
  0.2319643436728693  0.0495334839925499  0.6791944448312246
  0.6353005981483816  0.3398364030101823  0.6413428246640371
  0.8755787286741540  0.9650865291034137  0.0432897632053340
  0.2998544955305448  0.1703881193823913  0.7644680866435065
  0.6464715266330003  0.6240864099957070  0.7557164100353397
  0.4874465084391584  0.3901542039231294  0.0896705698443494
  0.7007778098783970  0.5097014518869905  0.3529625723071073
  0.8580158482735946  0.7423428078230873  0.4197788527529355
  0.8448747688303859  0.9037776551860019  0.5588637161308198
  0.6040503779415314  0.1667180995137100 -0.0051989733928914
  0.7604946948912995  0.9067380728163986  0.7406042435851953
  0.5709214368875863  0.7099409608162920  0.8680436027639244
  0.6506392923208495  0.5810236868977563  0.1818011209600645
  0.0498578861985006  0.7721186145383275  0.6476445330002285
  0.6507802933831588  0.1492361881007125  0.6475519042877598
  0.7428110127036429  0.8792781185889963  0.3801200704775269
  0.1968934893444345  0.5676305675133000  0.5794737868529226
  0.3462078760956577  0.4453500221750547  0.0065964864458067
  0.5276954961620658  0.7202711975249851  0.7207848190030867
  0.6868825440350038  0.7975948796958998  0.5643727984587448
  0.3715681180260129  0.5018709230930161  0.9308602937080378
  0.3170144567553771  0.8092897611766123  0.5509096037566468
  0.5421534618147683  0.4726242798215747  0.9250374675020652
  0.5277173205664737  0.6782585399563226  0.3448378809891463
  0.1488952770834056  0.8525387397823172  0.1186513087535800
  0.3605292813215118  0.8411638151160888  0.7072259457112614
  0.0593145379307739  0.9614628296327379  0.3679214215999427
  0.5828004329462504  0.0959277789109695  0.9247603409756773
  0.5575909179891992  0.3413204296864615  0.5788641732576201
  0.0792776235206498  0.0419381569354888  0.3129622603145067
  0.4341734861400335  0.4156341546979507  0.8133453328693382
  0.2007524460852900  0.8851116334784632  0.3007556620689657
  0.2142932774068851  0.7857181309993921  0.2932865098408797
  0.8497054703999930  0.2629703225828279  0.2394705458491508
  0.6807311493060670  0.1302336423472800  0.2279335248756622
  0.9078891322183984  0.7208436591401306  0.5990234650277688
  0.0374041189966142  0.3297889575558355  0.4604284352855946
  0.7531061333167561  0.8039422506047158  0.3139126790352809
  0.6619720055642349  0.0365834547288239  0.9298900281594900
  0.4609656920409116  0.1585269328144286  0.1210421934684025
  0.8756233294599136  0.1345129616735730  0.6234171953746657
  0.4629311109908497  0.0123937242895306  0.8398691417396974
  0.0277287466668077  0.0962336047462722  0.0493544279520786
  0.2620102097816235  0.3502926566796196  0.7721906872229750
  0.2068618416906965  0.9058199389019304  0.4868821650691452
  0.4586257936850527  0.7975759264191612  0.1412110615459697
  0.0592382808289601  0.5748811918841886  0.7762670201932922
  0.5586098229175044  0.6880633651794953  0.2515797174401716
  0.0889952626767852  0.0044933835169165  0.1562943508487849
  0.3852584284199104  0.2512982511549237  0.4237270068998489
  0.2619418662925311  0.9293604438754300  0.2381266009369145
  0.4040493464684248  0.8238565573841029  0.5056807662672356
  0.0659559881765887  0.7640925818634531  0.4142369481999569
  0.6844092701894935  0.1787320030483940  0.1391610822006252
  0.4458237157391933  0.4990003217097474  0.1815397931215022
  0.3488350157690829  0.4504361864752947  0.8461910758928305
  0.5043641465876154  0.5641588473982649  0.1338021626338143
  0.0329351802531699  0.1598178232375430  0.6193750193199666
  0.0195798414484328  0.4652910442253473  0.8847276022593666
  0.4685549054170746  0.5719863088354458  0.0415884911588181
  0.8399254357279912  0.8588674879168243  0.8671354328864963
  0.6980496335662503  0.9491794157603737  0.5896552718108774
  0.0475697645765039  0.0601398679612311  0.9634603754282206
  0.8938843384678522  0.7077710695843435  0.8501156296627594
  0.2036525292446324  0.3858761928921827  0.1541529011368034
  0.7854109731241531  0.4831285662055251  0.0762422781543057
  0.3928048071138530  0.0996954479000211  0.4090508176447893
  0.4150490640741947  0.6125743428570213  0.8260124351122958
  0.8970205201389846  0.4522757344620681  0.6802547301028973
  0.0422119349572609  0.8803470155319674  0.7600050327500331
  0.8774907185832160  0.8998522166312981  0.1894973851796243
  0.6542219246065933  0.2605759824423337  0.4077674718311856
  0.6303818737177072  0.1125111402337687  0.4093890250667001
 -0.0135655400538388 -0.0213334436775923  0.5585694210093269
  0.2502001990532804  0.1919628284430433  0.4918396676376999
  0.1326006781600196  0.4295465447133427  0.2086103738530306
  0.3543241971138343  0.6255266453312629  0.2067560622475439
  0.2204997547560390  0.4961195032334083  0.6407907493899851
  0.8257219560723187  0.7041530767945603  0.5068528971431348
  0.7124342435744830  0.0757696716861910  0.4526346822001419
  0.4057430435120697  0.4327235486195720  0.5248313073618071
  0.6784681119217105  0.3927700014187699  0.8810848604898910
  0.0491863509517670  0.1619596843119586  0.9100503334140876
  0.1732596936433651  0.5140627874249427  0.4939156031618251
  0.8249615411820769  0.7157709060576071  0.6530799390699322
  0.7713737008919771  0.9590153503358891  0.5211058068809176
  0.7878630308269280  0.0883969599836893  0.3893472826629742
  0.4551040968247198  0.3891809402090914  0.4491238336994774
  0.7329127617068117  0.2393162589794531  0.9301073666513685
  0.0266175032894004  0.0309273752321495  0.2292537996997043
 -0.0086340278548267  0.7213184959428334  0.8679908368233532
  0.7983240316111568  0.6050098747638555  0.2716890958625684
  0.2958012841127988  0.2770599602298131  0.0142550932541410
  0.8077624821156053 -0.0029786886713768  0.7399020815764392
  0.6348256409854137  0.8850122752006171  0.5506361353199145
  0.3653637513373617  0.8303583080632890  0.8056919228869137
  0.4513527136804198  0.7808907157437246  0.8223985472107158
  0.1493171185059828  0.1912709270926397  0.9016916293626196
  0.5441972917640772  0.0447288826491405  0.2256905941098806
  0.6990725620223138  0.3387434116242324  0.4487671640944856
  0.4082786549277051  0.6435425493264760  0.6398702564964414
  0.2010732194582804  0.1152587970810397  0.8683313944092705
  0.3093268770878278  0.2077340335918854  0.9396718010592129
  0.6325140523115136  0.7292854308850971  0.5193177138216848
  0.5289795064561870  0.0224845836745740  0.7612446093993249
  0.4225163174501185  0.1011014231639252  0.8303443131827269
  0.5512299012338351  0.5684509085191715  0.8908188780238081
  0.0428181159526233  0.2501790984685218  0.6593512806664340
  0.8831837442599073  0.1243483120659416  0.8837164988490341
  0.6530872693381649  0.6541945183980133  0.2482934601361556
  0.3205357733046741  0.1197857964791536  0.1929289779111216
  0.8883873164309376  0.5105922801256807  0.3584083466954113
  0.6290299095378942  0.2454091425818580  0.9450686570142797
  0.2522723457420007  0.7596726098352155  0.3807763658197792
  0.3825918728771736  0.1492146643851415 -0.0296304681764850
  0.0974563098578606  0.3790379433203540  0.3987343923298042
  0.4484034054439960  0.8736739147291730  0.9487171121044101
  0.7607216205931622  0.0581183859246435  0.6801641573011368
  0.8619481880526836  0.2623144870948740  0.4202708605859190
  0.1045117088830179  0.3036326813773291  0.6029975522054205
  0.6456360345070631  0.9071461289841758  0.0650184458461434
  0.1628174055271063  0.3515893436970400  0.7748799469374694
  0.0967707844317764  0.7970482139314723  0.1844909106363179
  0.5202062938325788  0.0023451255335516  0.4409369254024210
  0.7805654008481875  0.7879163712379172  0.4691911887295698
  0.1290904457724841  0.4599193254551401  0.6674158723196173
  0.3944401649024917  0.9316915020625277  0.0146505115730169
  0.7168019723661699  0.6785007285947873  0.7956336435130031
  0.4219508752573379  0.9128763732237966  0.2329671427815891
  0.2256438815300191  0.7698643242923963  0.6842333104209207
  0.7587369873452464  0.1516056429270291  0.9604862971999861
  0.1712128421560745  0.6513050072813389  0.0493704352505205
  0.7944184210368461  0.0772694277115125  0.1256442289305276
  0.6474228011761698  0.7497604167193522  0.4206020895868128
  0.3615965291957706  0.1583768083690038  0.1112324177753076
  0.5555741542084791  0.7646690536878918  0.3868579681008499
  0.2164799997714678  0.5950247213533075 -0.0167053717297976
  0.7291312733204648  0.4466345025477116  0.2191478169530092
  0.3516234070562043  0.7547596761062549  0.3717326063374896
  0.2042685607822170  0.7543847505880984  0.8434281513030852
  0.5547425060790557  0.2858889573080919  0.1465538961887410
  0.5769697581492240  0.2798827919817679  0.7804104470445377
  0.9735447691945321  0.5484033497759579  0.1428530931543434
  0.9666024258146771  0.9747756181861867  0.4027539154843711
  0.8791063867659765  0.3468025796983906  0.3699621461490392
  0.7418576354469310  0.5122978234157360  0.4399864045545647
  0.2706902696323048  0.8980549297674056  0.5603250925495078
  0.8307136193792544  0.6316626330719584  0.7074307676069581
  0.0295698062117389  0.8691155649588893  0.6625596767670209
  0.8685179032290163  0.7005672569843164  0.1616365996807707
  0.6102805602940086  0.6760399586444046  0.6795061038037452
  0.0550774910119783  0.8454393347604219  0.4751297089884322
  0.4943216276754046  0.5512767548087860  0.5757029319306071
  0.0387899097054092  0.6573591669547211  0.5386969825550600
  0.5491057425331300  0.2486658356380660  0.5436753815307152
  0.9727819571357402  0.7217612658449886  0.6817519242383742
  0.2064784465419205  0.6403349201315273  0.2580756754892052
  0.5998524694809152  0.9572488380068342  0.7694936036931408
  0.5693467162988241  0.0927808288690092  0.6297871171727649
  0.1390077170977153  0.9025615890224297  0.7720624592005637
  0.5027615733708666  0.0072154087443567  0.1449393089679571
  0.1107356086343662  0.0882404646056845  0.1083226563905632
  0.9709581697881626  0.0379126315822811  0.4794552396279478
  0.4693068819168205  0.2022339072474340  0.5793704815440861
  0.5773207870701474  0.5176315541910493  0.5345251932878468
  0.5390649404385071  0.9088421277700575  0.9427426998595386
  0.2216270597687086  0.7379955146111409  0.0482865818175146
  0.1569835520634449  0.3330801383265922  0.0845491063967262
  0.6057429898949063  0.8933646506860184  0.1559936717849201
  0.4179942217283112  0.9205785410154043  0.6902089759923140
  0.2803647914118464  0.1020118629906382  0.5207369987454172
  0.6336881920946961  0.4479012224170821  0.9513249962308216
  0.0006962724926106  0.9091491376571640  0.9761840893205902
  0.6030553945881791  0.3626594648855302  0.7320874625121456
  0.2490851258029976  0.4593051444566946  0.4750103497224032
  0.6645069439636223  0.7299734240683451  0.8744206486762776
  0.8724864854165582  0.2723523364414183  0.7117172869936106
  0.5587565868192397  0.8674852112882534  0.7396274970642366
  0.6394043678487198  0.4898117737804392  0.2226234145799006
  0.5049008903095059  0.5733210576270124  0.8040722702779238
  0.1499979474996202  0.8052840763519930  0.0310067514576404
  0.9511209708873327  0.1594708530524005  0.5627562571012567
  0.7960373465423182  0.0246260257782958  0.0411821765657261
  0.8304004597034886  0.2528708654141071  0.7999561184904634
  0.3104766831593314  0.0532361800517955  0.4392945168056906
  0.2763610975348487  0.2603773254093815  0.6416218755173198
  0.7410687905896294  0.4519340732389990  0.8309767278936039
  0.1952792284992320 -0.0155468900057992  0.9602864066295324
 -0.0508736203953850  0.4117173768102823  0.8393518194061618
  0.4191968444940632  0.5298348265661090  0.5120990194605471
  0.8603336254240377  0.6080534657430428  0.3479239713137242
  0.6527899527298704  0.2705629584849825  0.1589085695393737
  0.1859527432488788  0.2500183375020175  0.3615626321337080
  0.7863714981126041  0.0166552402813446  0.3209240138427488
  0.5077824370144565  0.8889716654281749  0.6587013026274842
  0.8272968978280092  0.2195932545848662  0.6409660725695828
  0.2464413756990975  0.6512040299464548  0.8399961123079120
  0.3842084062713935  0.3461429113404083  0.3940219180825742
  0.5747424762420773  0.3328361050383236  0.2915248820588268
  0.0435979267732274  0.1955305740775689  0.3010679635206398
  0.0345503576058415  0.8562868388881125  0.2331143427733529
  0.2871553615294840  0.2700648375853527  0.2407124217150715
  0.1413222391434237  0.0574850479143942  0.7205577518788190
  0.3967801546254011  0.7191940140648055  0.0207722382002435
  0.6443683491856709  0.0405109762411564  0.2118726091929432
  0.0487680274548870  0.3681473493194653  0.5518721603421246
  0.3100434192052486  0.5174857676117828  0.4100755066077145
  0.3108551229238581  0.8823282194219847  0.0011819210420288
  0.0195942416906300  0.2170119269054508  0.9798500049595805
  0.1548585742925857  0.7553475962845723  0.7505901624638907
  0.3825319712392148  0.6212438256254852  0.0387580314104576
  0.4655149139434951  0.7258633590760638  0.6446795434525681
  0.9270318658342462  0.4605707588120704  0.1499972999756103
  0.1899357074013584  0.2593440112714512  0.2628790686495930
  0.2607952397788132  0.9197725571699222  0.9223903005867041
  0.8443103163375205  0.2829849268575335  0.0870236960962756
  0.1004705878015816  0.6891822555562008  0.4673584389034783
  0.4325002728326142  0.3843946577130136  0.0122839197977210
  0.6930920620206571  0.1177233048204433  0.7297934717134617
  0.7342845730629850  0.4132394146344097  0.1254175804524169
  0.4331674181622943  0.6972589459585899  0.8752959035111924
  0.6008649618266336  0.8503800191887011  0.9977104519393909
  0.1304982692117226  0.8550787602671072  0.5346178791445219
  0.9977744295207446  0.5781573897349088  0.6985130770394463
  0.8464216237371983  0.6063792206788121  0.1836117130508968
  0.6275867985554745  0.4101311022731343  0.4561404760264388
  0.8376302196099630  0.4983471349686583  0.6149043511308719
  0.9897105996727589  0.5148086279314081  0.4755820640544436
  0.0007202642594272  0.9329126796371441  0.8793092364061391
  0.4972966631123297  0.1522592237051786  0.6619251924017516
  0.3297041861037538  0.2494394574824823  0.5077947255915463
  0.0617955967812399  0.5291218063783562  0.1008005674983288
  0.2619898361653371  0.5913254878755587  0.1915096291468334
  0.7475864679048451  0.8822351669176057  0.8351985910717397
  0.3805094047755828  0.3007742461935353  0.0530774585051551
  0.3481366908440794  0.2077843898431100  0.6853952023185705
  0.1346410079130434  0.2443089281042068  0.1242495888795798
  0.9169698448409129  0.9778987396596018  0.8444188384531216
  0.7782354991129851  0.5563654983265564  0.6696406418740918
  0.1293746391988715  0.7446245096985169  0.9004258609719212
  0.6471804346449186  0.8098794475438594  0.1902006162397078
  0.8242175953425654  0.9355879705880141  0.3640937639269829
  0.8757514826781111  0.4012450981842035  0.9053704272464032
  0.8854387453289989  0.1970718282171181  0.0558739841477417
  0.9608907266906346  0.6051328728820241  0.5049113276553157
  0.5181146717043562  0.2708356303945836  0.2391711292133991
  0.3344465764833255  0.1870214941126265  0.2651833768144166
  0.2523252426012279  0.6796504265343268  0.6488660859403005
  0.9020850490990282  0.2178477120722414  0.8606892389056762
  0.9396229331820157  0.0699323206490041  0.8170382856754589
  0.1335714575393443  0.4467435973872791  0.7647819920119729
  0.7041028337896895  0.5968487415659203  0.4853105398635249
  0.1862145037640206  0.5846003743609043  0.3369302583518152
  0.3829715069000322  0.8407321897554895  0.4097680497769697
  0.4073481407838292  0.5571061643477693  0.2540941423187952
  0.1775673795231699  0.6073834832147631  0.8899583768244125
  0.5803516274070765  0.0374436495695091  0.3688748783067887
  0.5003496882496112  0.0806106609699414  0.0756881535960883
  0.8124721353168816  0.4771015951359366  0.8949726891531109
  0.2982159745609573  0.0718849873440851  0.7488392060952103
  0.8474590900526191  0.8846936247411387  0.0948887195876262
  0.4541149753804907  0.1644059890774252  0.9027976484325022
  0.8721403622133675  0.7909853080304865  0.8009855555967600
  0.7366649741013030  0.0849826057153741  0.8863351295954135
  0.9009179346109951 -0.0291145716265761  0.6081319702178635
  0.1256169270442126  0.5233416378962628  0.1768716975538219
 -0.0532440121842662  0.8251406255842633 -0.0157287884727373
  0.8794944522488833  0.1296501705166880  0.1278213452503013
  0.6151887367308261  0.4484178382525659  0.3681057623696304
  0.0389455746766462  0.2525428210176203  0.1511779110600450
  0.9014655551372773  0.3050413390269386  0.1648113048427014
  0.4778665754280216  0.2739896231143407  0.7692119162155988
 -0.0121613615638233  0.4862810195333795  0.6588164197772909
  0.7909504446500876  0.7390782458379159  0.1120840006663719
  0.4682166904481126  0.0807109605527181  0.4714670935021872
  0.1891412316071939  0.3400452972717132  0.4037072301869685
  0.2379330868508263  0.0735202584443261  0.9525851420898303
  0.8769243873465727  0.4462992268001698  0.0651681463496391
