Ge1
1.0
   1.3971490000000000   -2.6005159999999998    0.0000000000000000
   1.3971490000000000    2.6005159999999998    0.0000000000000000
   0.0000000000000000    0.0000000000000000    2.6982309999999998
Ge
1
direct
   0.5000000000000000    0.5000000000000000    0.0000000000000000 Ge
