Sb                                      
   1.00000000000000     
    19.4173007964999975    0.0000000000000000    0.0000000000000000
     0.0000000000000000   19.4173007964999975    0.0000000000000000
     0.0000000000000000    0.0000000000000000   19.4173007964999975
   Pb   Te
   100   100
Direct
  0.2431100798767958  0.4004907041720181  0.9271570399859446
  0.7537063705438318  0.9235692044860159  0.3711472528013625
  0.9464061200204447  0.5980277922016610  0.5473842932353530
  0.8388467412580571  0.4078694542263486  0.4758377583292419
  0.3643351289890066  0.6468969287894683  0.1938398193054662
  0.0487170163385042  0.9685127142520691  0.5592725595647421
  0.6583983000916465  0.7490030503017832  0.2649241974043123
  0.5215447497460578  0.7347849347765946  0.4246136006437469
  0.7652364218138099  0.0851655783650557  0.4759403069793162
  0.2665075301199754  0.8710841761968930 -0.0023305800412787
  0.5820726864148926  0.4754494111990609  0.1079559779092396
  0.2835701623221712  0.3868657639318833  0.2385191583328720
  0.5435672658620135  0.5539128847161697  0.9315511935018079
  0.3568753696611696  0.4490330724071454  0.0577383312293554
  0.8345709588967738  0.9452249843007768  0.1208567328392601
  0.1053840973819455  0.2553214768037237  0.2761093119246742
  0.2096826055856009  0.6757961504450590  0.0736181291748064
  0.4685210143460667  0.9611663882052482  0.7526918767683385
  0.9177989797228667  0.6969619091613453  0.2233081679337009
  0.3410931722547698  0.6541617364397473  0.5057631322881849
  0.0495501203814699  0.2657432912194249  0.0323434463675071
  0.5202942131509301  0.1625460028174815  0.8149147134047573
  0.5918573708329471  0.0582791895957753 -0.0060695252693666
  0.0681688228002104  0.7753866255706735  0.7061833392111658
  0.7170316197670925  0.7717680410913483  0.4638640423693788
  0.3661727654847201  0.0937101702611241  0.9333087766634393
  0.3324217548673001  0.8158947642964935  0.3206026045719138
  0.5496447919992542  0.5395746289746655  0.3349211958329260
  0.7328084698560060  0.2465385686737098  0.0496860886822394
  0.1879136707969414  0.5132958007889550  0.6111141428394383
  0.3639888771075754  0.7390241546658060  0.7167154385352571
  0.5596164468666717  0.3726298595418964  0.3052275428636979
  0.0117272677228387  0.8444076645611495  0.0773606410618755
  0.6663893886324547  0.1491784715161298  0.1795157536846625
  0.6431323863708944  0.0811066226674761  0.6301585832981168
  0.9554453253673210  0.0577154593551392  0.3969423583249173
  0.4998451425659686  0.5054216399003532  0.5046306004517773
  0.9821734528789459  0.5120213481245539  0.3432781350425417
  0.2709343557381689  0.9401614819385482  0.8021584107866967
  0.2247129887831161  0.1905816296264321  0.6340977008819311
  0.0212130395637839  0.0041229941836897  0.2159142228262441
  0.8057323123267128  0.2695736442435847  0.5966591697339174
  0.5624684102065279  0.8778480840659282  0.8946615469867004
  0.7504731382303661  0.5831549608336130  0.9001879897590433
  0.4096136205079486  0.2626798701639723  0.3610711128090272
  0.3798993920531272  0.6709281188927088  0.9427010971804564
  0.8396931966665604  0.7522898816625947  0.8627327202921953
  0.8831220148677327  0.9648196089311790  0.6689630721698938
  0.7548024356912597  0.9585073700068790  0.9180123454946020
  0.7061472887050861  0.9292496102875974  0.5411414371763543
  0.1390676599735291  0.6020532471443968  0.2639680231619583
  0.2191330298514213  0.2363295340950632  0.4749584245994986
  0.1280726666600794  0.0389142035822060  0.0193645393182121
  0.0398757443598848  0.4032697830425832  0.6956458884643790
  0.2034018601256732  0.0314497553418802  0.2129241928055151
  0.2206948053866866  0.8463347508475031  0.5568576784674869
  0.1334265057772782  0.6723062079060470  0.4727002812618814
  0.9291120552531137  0.6159595441779541  0.0267711368344570
  0.3722498542905195  0.9888063369494794  0.4786515642935749
  0.5847820487310198  0.3686639173834835  0.8220692194010748
  0.9377382036497921  0.8157150305737192  0.4324935289654663
  0.7529700137023745  0.3654362183819378  0.8945857494696129
  0.3914618701392202  0.1120851141125488  0.2295824197611012
  0.8020714441577462  0.8031120376098326  0.6749784264004516
  0.4495919262147312  0.4281104849743761  0.7037366902561242
  0.3396026341980888  0.3423182030437600  0.5462656132657551
  0.0646936116522973  0.5055073005900638  0.8827565856514519
  0.7672330043015450  0.6067476436456192  0.1126050835613538
  0.9689264942306777  0.9650859171690723  0.9038129625927979
  0.4986414256465936  0.2371641409757183  0.9734761722657547
  0.4783380927983443  0.1889865463304753  0.5749093173640563
  0.1988781900603303  0.0589047397145022  0.3939139732364342
  0.2715549074759030  0.2159895272231892  0.7975073069380468
  0.4521647413121514  0.2336882709390736  0.1309592371819005
  0.0779521677777957  0.4538925734509611  0.1496166609599996
  0.5505023632386381  0.0462844858366101  0.3222985593622224
  0.6496314263499144  0.6241337087798147  0.5795484135511996
  0.0306808396897884  0.0007394123129328  0.7416404768308210
  0.2586662902139094  0.2181457955742792  0.1146959572452416
  0.9633850440890315  0.1942212521475069  0.7762796274162097
  0.4959972266730848  0.8444550026658181  0.5907797075845435
  0.7424115080784807  0.5062653247589467  0.3004760189233790
  0.7705865485536207  0.4593523856701290  0.7197514335474171
  0.8612911571987470  0.4010779031940861  0.1127184167894287
  0.9185312797551867  0.2057255075044123  0.2799493428669360
  0.6275272564044463  0.7051450529125687  0.7904788267893836
  0.0951242595764976  0.8150944461183307  0.2820772430085333
  0.1562649952816688  0.6948247146373664  0.8413012862509938
  0.4106807681144511  0.4061956271570826  0.8732939167643161
  0.9260757443064904  0.5911246096341940  0.7468618119348694
  0.0535607434472969  0.3459505622336254  0.4619233158385307
  0.9704217701519028  0.1474023339323553  0.5525308958097994
  0.5664020211065589  0.7025878228606163  0.0849183381691489
  0.7300330728620740  0.1654929372351237  0.7787079914037484
  0.7067892708391873  0.2352659156469396  0.3537560229512747
  0.2741123347409621  0.5642146262055467  0.7792178299992101
  0.8908155124491445  0.1303523143393041  0.9591894003726659
  0.6385990137209960  0.3262858059177323  0.5521896725902081
  0.2325250985170960  0.4494254824789233  0.4372252604736512
  0.4240302523605141  0.9319052161113747  0.1151497629014131
  0.2187081621253378  0.0826636071056095  0.8839601442914184
  0.6362113635809493  0.5993438681800484  0.2082283113678302
  0.0514285231770372  0.8106150690337383  0.5542957866830993
  0.1510019170205076  0.9090974963194357  0.6985614308677144
  0.9401744788608815  0.8430042666465956  0.7727395503166410
  0.7132443752184948  0.8393715147869800  0.8167591194019107
  0.2412153041811392  0.5962478078366051  0.3852434819817478
  0.9606939722199821  0.2957957742829240  0.5906216498541886
  0.4264869961545723  0.6269783035392241  0.3569387700972190
  0.2185318303954612  0.7289310714624588  0.2205914238201730
  0.8470129698628415  0.2093206889104255  0.4300871693994405
  0.0400054785571122  0.1364885995482041  0.9047936390484548
  0.9314386041382602  0.3631473324237657  0.3589817787455634
  0.6585320394208752  0.2311142357400083  0.9067769960755684
  0.5387893442266615  0.3893224359195215  0.9728132334754994
  0.6748763152868236  0.3928673159545270  0.2024920249130127
  0.3698999816929103  0.4214264983619090  0.3631728607048100
  0.3496298190171535  0.8858493870098944  0.6619795095364419
  0.4232814372339974  0.9406619891153470  0.9575981769130715
  0.0750594933217727  0.1346062567274900  0.6713645411118154
  0.8560766928972920  0.5569268501161403  0.4279577091762766
  0.6123915409565475  0.0324952158207116  0.8210127889302852
  0.3861402443692389  0.2725929485327144  0.6784002754415025
  0.5553563799884695  0.8417821129603683  0.1576143748966620
  0.8158925087348595  0.3033465978312808  0.7539796756779780
  0.1743658700925967  0.3381854934806323  0.5979987634226041
  0.4436792521127584  0.5764151481589488  0.0664200718252426
  0.5987638588235391  0.8921827785254328  0.3381287792708439
  0.8515303184577739  0.7366646301581874  0.5357212197124670
  0.5075194169674704  0.7983942567115839  0.7461171089970285
  0.1970212331930934  0.8047546140106929  0.4023878878785421
  0.3528744259497549  0.7604108843996554  0.0729564464898562
  0.4333106970245986  0.5598704366940442  0.8157221020471255
  0.3636949425380060  0.1507500637986458  0.4656081605971492
  0.7025134233542162  0.0718487942269359  0.3079067597038868
  0.3097189543565930  0.0603585785538065  0.1019874937375042
  0.2663900155141198  0.2235351552679622  0.2778481731094289
  0.5431670383388136  0.2177693861964420  0.2668710964946882
  0.0943654252488950  0.5576111601382520  0.7315570568653768
  0.2142489610728573  0.5713759075328115  0.9267401050182973
  0.0742622076572377  0.9582317109882413  0.3701793959043365
  0.6370965709222929  0.5248207203954126  0.8062335911622328
  0.4964040879806726  0.0194898927415595  0.6072954248683639
  0.7708869029771187  0.7759897024604975  0.1506051378144383
  0.2221087246019955  0.6780004522156124  0.6140230237099021
  0.3277772194186503  0.9778966284974460  0.3175191226790839
  0.9943719560376588  0.6510618383320255  0.8876713593856761
  0.2943076115419396  0.7818507531709771  0.8522458192806676
  0.7129490642983366  0.7304757021696154  0.0238845772336200
  0.8878974163430504  0.9547618646503929  0.5033165059500888
  0.8686034421176742  0.8600257875679044  0.9815854274691240
  0.7430638188810530  0.0864462823538796  0.0446830157555782
  0.6538228016998779  0.6200632477722042  0.4163503514777426
  0.6878357990492581  0.3906739538037725  0.4131810403101201
  0.1236582519618338  0.7888754590621104  0.9645483703235768
  0.3799710349058008  0.8105509851778607  0.4720739959322938
  0.7911977655884761  0.2580646676012890  0.2140994184405331
  0.9414856453776399  0.8672007621157414  0.2168192652235765
  0.2899310299399377  0.4118485701223617  0.7572464385380927
  0.1382232978222298  0.4087058374473874  0.3138005258851602
  0.8180325783296822  0.1170652855700599  0.6286446328249922
  0.4964731727871127  0.6621207645821264  0.5703991686499905
  0.8625174510524060  0.4865164423056188  0.8468083074150047
  0.3591441072788801  0.4965103694914104  0.5764871346202792
  0.8770600800532816  0.0501442423755605  0.2599847910714437
  0.6294250967276899  0.1649427060134320  0.4933578385659103
  0.3380164710482287  0.2633952975209736  0.9572187263553338
  0.7275782942716719  0.4806803922990150  0.0206756020140857
  0.8655548949844356  0.2926179045376562  0.9828318393680477
  0.1332535138765062  0.9196228115821922  0.9017148225781711
  0.0712999509596036  0.5093595449579413  0.4980578786008795
  0.5632331969736502  0.9522346527669119  0.4690025659844894
  0.1760290139477752  0.3582563723393214  0.0701294616982384
  0.4950785161854634  0.3311392613993759  0.4898601963562544
  0.1578264574535191  0.9096080930989783  0.1262372804000002
  0.5352185059524345  0.7192267188963805  0.9282133413594897
  0.3803962830171751  0.0951520128476378  0.7725057069823359
  0.5227513775431550  0.0543249987698203  0.1525384032103015
  0.0031799886053180  0.3394578837802656  0.8414883220924118
  0.5968653908453424  0.4726760296028664  0.6234105357186119
  0.1480396640602681  0.3445344843450783  0.8119750355399766
  0.4463541829581225  0.3858545384532229  0.1713106646920805
  0.6431489709971282  0.9149822071735166  0.0244714705492783
  0.8809050548875146  0.5323047633393270  0.2138897262186048
  0.8083582142806462  0.7809338818231334  0.3256402640477686
  0.8595203005164704  0.0559973060332981  0.8152632361542764
  0.2239784668000769  0.0094977477051253  0.5385782011223363
  0.0765655133096071  0.1803735036350858  0.4248812960987141
  0.9628644204495108  0.0229085774043488  0.0594554702546596
  0.9016607863083725  0.4718916893747720  0.6310565546413441
  0.4840305506931480  0.7500317481201739  0.2509493704163852
  0.0388721225882509  0.6840104169861967  0.1147908835072948
  0.9895621473219176  0.3213819510986824  0.1692733033607391
  0.9796145638911335  0.4702042497981654  0.0248867176309851
  0.2471601113475221  0.5348166689891312  0.1468404487854149
  0.6010429027342026  0.2270217708764474  0.6944952991794424
  0.0179130817582218  0.6876005466840528  0.3480627769384622
  0.7787637343787607  0.6536031953666523  0.7257978854709752
  0.6543401921169172  0.7970447243617759  0.6126291740023733
  0.1108732971121954  0.1562388680225427  0.1362310366794839
 
  0.00000000E+00  0.00000000E+00  0.00000000E+00
  0.00000000E+00  0.00000000E+00  0.00000000E+00
  0.00000000E+00  0.00000000E+00  0.00000000E+00
  0.00000000E+00  0.00000000E+00  0.00000000E+00
  0.00000000E+00  0.00000000E+00  0.00000000E+00
  0.00000000E+00  0.00000000E+00  0.00000000E+00
  0.00000000E+00  0.00000000E+00  0.00000000E+00
  0.00000000E+00  0.00000000E+00  0.00000000E+00
  0.00000000E+00  0.00000000E+00  0.00000000E+00
  0.00000000E+00  0.00000000E+00  0.00000000E+00
  0.00000000E+00  0.00000000E+00  0.00000000E+00
  0.00000000E+00  0.00000000E+00  0.00000000E+00
  0.00000000E+00  0.00000000E+00  0.00000000E+00
  0.00000000E+00  0.00000000E+00  0.00000000E+00
  0.00000000E+00  0.00000000E+00  0.00000000E+00
  0.00000000E+00  0.00000000E+00  0.00000000E+00
  0.00000000E+00  0.00000000E+00  0.00000000E+00
  0.00000000E+00  0.00000000E+00  0.00000000E+00
  0.00000000E+00  0.00000000E+00  0.00000000E+00
  0.00000000E+00  0.00000000E+00  0.00000000E+00
  0.00000000E+00  0.00000000E+00  0.00000000E+00
  0.00000000E+00  0.00000000E+00  0.00000000E+00
  0.00000000E+00  0.00000000E+00  0.00000000E+00
  0.00000000E+00  0.00000000E+00  0.00000000E+00
  0.00000000E+00  0.00000000E+00  0.00000000E+00
  0.00000000E+00  0.00000000E+00  0.00000000E+00
  0.00000000E+00  0.00000000E+00  0.00000000E+00
  0.00000000E+00  0.00000000E+00  0.00000000E+00
  0.00000000E+00  0.00000000E+00  0.00000000E+00
  0.00000000E+00  0.00000000E+00  0.00000000E+00
  0.00000000E+00  0.00000000E+00  0.00000000E+00
  0.00000000E+00  0.00000000E+00  0.00000000E+00
  0.00000000E+00  0.00000000E+00  0.00000000E+00
  0.00000000E+00  0.00000000E+00  0.00000000E+00
  0.00000000E+00  0.00000000E+00  0.00000000E+00
  0.00000000E+00  0.00000000E+00  0.00000000E+00
  0.00000000E+00  0.00000000E+00  0.00000000E+00
  0.00000000E+00  0.00000000E+00  0.00000000E+00
  0.00000000E+00  0.00000000E+00  0.00000000E+00
  0.00000000E+00  0.00000000E+00  0.00000000E+00
  0.00000000E+00  0.00000000E+00  0.00000000E+00
  0.00000000E+00  0.00000000E+00  0.00000000E+00
  0.00000000E+00  0.00000000E+00  0.00000000E+00
  0.00000000E+00  0.00000000E+00  0.00000000E+00
  0.00000000E+00  0.00000000E+00  0.00000000E+00
  0.00000000E+00  0.00000000E+00  0.00000000E+00
  0.00000000E+00  0.00000000E+00  0.00000000E+00
  0.00000000E+00  0.00000000E+00  0.00000000E+00
  0.00000000E+00  0.00000000E+00  0.00000000E+00
  0.00000000E+00  0.00000000E+00  0.00000000E+00
  0.00000000E+00  0.00000000E+00  0.00000000E+00
  0.00000000E+00  0.00000000E+00  0.00000000E+00
  0.00000000E+00  0.00000000E+00  0.00000000E+00
  0.00000000E+00  0.00000000E+00  0.00000000E+00
  0.00000000E+00  0.00000000E+00  0.00000000E+00
  0.00000000E+00  0.00000000E+00  0.00000000E+00
  0.00000000E+00  0.00000000E+00  0.00000000E+00
  0.00000000E+00  0.00000000E+00  0.00000000E+00
  0.00000000E+00  0.00000000E+00  0.00000000E+00
  0.00000000E+00  0.00000000E+00  0.00000000E+00
  0.00000000E+00  0.00000000E+00  0.00000000E+00
  0.00000000E+00  0.00000000E+00  0.00000000E+00
  0.00000000E+00  0.00000000E+00  0.00000000E+00
  0.00000000E+00  0.00000000E+00  0.00000000E+00
  0.00000000E+00  0.00000000E+00  0.00000000E+00
  0.00000000E+00  0.00000000E+00  0.00000000E+00
  0.00000000E+00  0.00000000E+00  0.00000000E+00
  0.00000000E+00  0.00000000E+00  0.00000000E+00
  0.00000000E+00  0.00000000E+00  0.00000000E+00
  0.00000000E+00  0.00000000E+00  0.00000000E+00
  0.00000000E+00  0.00000000E+00  0.00000000E+00
  0.00000000E+00  0.00000000E+00  0.00000000E+00
  0.00000000E+00  0.00000000E+00  0.00000000E+00
  0.00000000E+00  0.00000000E+00  0.00000000E+00
  0.00000000E+00  0.00000000E+00  0.00000000E+00
  0.00000000E+00  0.00000000E+00  0.00000000E+00
  0.00000000E+00  0.00000000E+00  0.00000000E+00
  0.00000000E+00  0.00000000E+00  0.00000000E+00
  0.00000000E+00  0.00000000E+00  0.00000000E+00
  0.00000000E+00  0.00000000E+00  0.00000000E+00
  0.00000000E+00  0.00000000E+00  0.00000000E+00
  0.00000000E+00  0.00000000E+00  0.00000000E+00
  0.00000000E+00  0.00000000E+00  0.00000000E+00
  0.00000000E+00  0.00000000E+00  0.00000000E+00
  0.00000000E+00  0.00000000E+00  0.00000000E+00
  0.00000000E+00  0.00000000E+00  0.00000000E+00
  0.00000000E+00  0.00000000E+00  0.00000000E+00
  0.00000000E+00  0.00000000E+00  0.00000000E+00
  0.00000000E+00  0.00000000E+00  0.00000000E+00
  0.00000000E+00  0.00000000E+00  0.00000000E+00
  0.00000000E+00  0.00000000E+00  0.00000000E+00
  0.00000000E+00  0.00000000E+00  0.00000000E+00
  0.00000000E+00  0.00000000E+00  0.00000000E+00
  0.00000000E+00  0.00000000E+00  0.00000000E+00
  0.00000000E+00  0.00000000E+00  0.00000000E+00
  0.00000000E+00  0.00000000E+00  0.00000000E+00
  0.00000000E+00  0.00000000E+00  0.00000000E+00
  0.00000000E+00  0.00000000E+00  0.00000000E+00
  0.00000000E+00  0.00000000E+00  0.00000000E+00
  0.00000000E+00  0.00000000E+00  0.00000000E+00
  0.00000000E+00  0.00000000E+00  0.00000000E+00
  0.00000000E+00  0.00000000E+00  0.00000000E+00
  0.00000000E+00  0.00000000E+00  0.00000000E+00
  0.00000000E+00  0.00000000E+00  0.00000000E+00
  0.00000000E+00  0.00000000E+00  0.00000000E+00
  0.00000000E+00  0.00000000E+00  0.00000000E+00
  0.00000000E+00  0.00000000E+00  0.00000000E+00
  0.00000000E+00  0.00000000E+00  0.00000000E+00
  0.00000000E+00  0.00000000E+00  0.00000000E+00
  0.00000000E+00  0.00000000E+00  0.00000000E+00
  0.00000000E+00  0.00000000E+00  0.00000000E+00
  0.00000000E+00  0.00000000E+00  0.00000000E+00
  0.00000000E+00  0.00000000E+00  0.00000000E+00
  0.00000000E+00  0.00000000E+00  0.00000000E+00
  0.00000000E+00  0.00000000E+00  0.00000000E+00
  0.00000000E+00  0.00000000E+00  0.00000000E+00
  0.00000000E+00  0.00000000E+00  0.00000000E+00
  0.00000000E+00  0.00000000E+00  0.00000000E+00
  0.00000000E+00  0.00000000E+00  0.00000000E+00
  0.00000000E+00  0.00000000E+00  0.00000000E+00
  0.00000000E+00  0.00000000E+00  0.00000000E+00
  0.00000000E+00  0.00000000E+00  0.00000000E+00
  0.00000000E+00  0.00000000E+00  0.00000000E+00
  0.00000000E+00  0.00000000E+00  0.00000000E+00
  0.00000000E+00  0.00000000E+00  0.00000000E+00
  0.00000000E+00  0.00000000E+00  0.00000000E+00
  0.00000000E+00  0.00000000E+00  0.00000000E+00
  0.00000000E+00  0.00000000E+00  0.00000000E+00
  0.00000000E+00  0.00000000E+00  0.00000000E+00
  0.00000000E+00  0.00000000E+00  0.00000000E+00
  0.00000000E+00  0.00000000E+00  0.00000000E+00
  0.00000000E+00  0.00000000E+00  0.00000000E+00
  0.00000000E+00  0.00000000E+00  0.00000000E+00
  0.00000000E+00  0.00000000E+00  0.00000000E+00
  0.00000000E+00  0.00000000E+00  0.00000000E+00
  0.00000000E+00  0.00000000E+00  0.00000000E+00
  0.00000000E+00  0.00000000E+00  0.00000000E+00
  0.00000000E+00  0.00000000E+00  0.00000000E+00
  0.00000000E+00  0.00000000E+00  0.00000000E+00
  0.00000000E+00  0.00000000E+00  0.00000000E+00
  0.00000000E+00  0.00000000E+00  0.00000000E+00
  0.00000000E+00  0.00000000E+00  0.00000000E+00
  0.00000000E+00  0.00000000E+00  0.00000000E+00
  0.00000000E+00  0.00000000E+00  0.00000000E+00
  0.00000000E+00  0.00000000E+00  0.00000000E+00
  0.00000000E+00  0.00000000E+00  0.00000000E+00
  0.00000000E+00  0.00000000E+00  0.00000000E+00
  0.00000000E+00  0.00000000E+00  0.00000000E+00
  0.00000000E+00  0.00000000E+00  0.00000000E+00
  0.00000000E+00  0.00000000E+00  0.00000000E+00
  0.00000000E+00  0.00000000E+00  0.00000000E+00
  0.00000000E+00  0.00000000E+00  0.00000000E+00
  0.00000000E+00  0.00000000E+00  0.00000000E+00
  0.00000000E+00  0.00000000E+00  0.00000000E+00
  0.00000000E+00  0.00000000E+00  0.00000000E+00
  0.00000000E+00  0.00000000E+00  0.00000000E+00
  0.00000000E+00  0.00000000E+00  0.00000000E+00
  0.00000000E+00  0.00000000E+00  0.00000000E+00
  0.00000000E+00  0.00000000E+00  0.00000000E+00
  0.00000000E+00  0.00000000E+00  0.00000000E+00
  0.00000000E+00  0.00000000E+00  0.00000000E+00
  0.00000000E+00  0.00000000E+00  0.00000000E+00
  0.00000000E+00  0.00000000E+00  0.00000000E+00
  0.00000000E+00  0.00000000E+00  0.00000000E+00
  0.00000000E+00  0.00000000E+00  0.00000000E+00
  0.00000000E+00  0.00000000E+00  0.00000000E+00
  0.00000000E+00  0.00000000E+00  0.00000000E+00
  0.00000000E+00  0.00000000E+00  0.00000000E+00
  0.00000000E+00  0.00000000E+00  0.00000000E+00
  0.00000000E+00  0.00000000E+00  0.00000000E+00
  0.00000000E+00  0.00000000E+00  0.00000000E+00
  0.00000000E+00  0.00000000E+00  0.00000000E+00
  0.00000000E+00  0.00000000E+00  0.00000000E+00
  0.00000000E+00  0.00000000E+00  0.00000000E+00
  0.00000000E+00  0.00000000E+00  0.00000000E+00
  0.00000000E+00  0.00000000E+00  0.00000000E+00
  0.00000000E+00  0.00000000E+00  0.00000000E+00
  0.00000000E+00  0.00000000E+00  0.00000000E+00
  0.00000000E+00  0.00000000E+00  0.00000000E+00
  0.00000000E+00  0.00000000E+00  0.00000000E+00
  0.00000000E+00  0.00000000E+00  0.00000000E+00
  0.00000000E+00  0.00000000E+00  0.00000000E+00
  0.00000000E+00  0.00000000E+00  0.00000000E+00
  0.00000000E+00  0.00000000E+00  0.00000000E+00
  0.00000000E+00  0.00000000E+00  0.00000000E+00
  0.00000000E+00  0.00000000E+00  0.00000000E+00
  0.00000000E+00  0.00000000E+00  0.00000000E+00
  0.00000000E+00  0.00000000E+00  0.00000000E+00
  0.00000000E+00  0.00000000E+00  0.00000000E+00
  0.00000000E+00  0.00000000E+00  0.00000000E+00
  0.00000000E+00  0.00000000E+00  0.00000000E+00
  0.00000000E+00  0.00000000E+00  0.00000000E+00
  0.00000000E+00  0.00000000E+00  0.00000000E+00
  0.00000000E+00  0.00000000E+00  0.00000000E+00
  0.00000000E+00  0.00000000E+00  0.00000000E+00
  0.00000000E+00  0.00000000E+00  0.00000000E+00
  0.00000000E+00  0.00000000E+00  0.00000000E+00
  0.00000000E+00  0.00000000E+00  0.00000000E+00
  0.00000000E+00  0.00000000E+00  0.00000000E+00
  0.00000000E+00  0.00000000E+00  0.00000000E+00
