Amorphous GeAsSeSi                      
   1.00000000000000     
    18.3336188657994690    0.0000000000000000    0.0000000000000000
     0.0000000000000000   18.3336188657994690    0.0000000000000000
     0.0000000000000000    0.0000000000000000   18.3336188657994690
   Ge   N    Se
   102    36   102
Direct
  0.6197223002637046  0.4442605386643805  0.3484079418098218
  0.1142461047585958  0.1428754321365402  0.3489412734797764
  0.1410116993819669  0.5014688389384377  0.4844287222714634
  0.0836941666335105  0.2905009481740433  0.4052343756168878
  0.9236063926950818  0.8554972516331932  0.1077236518549450
  0.6748407178162512  0.0743029494079418  0.7051453100025484
  0.4589753794303271  0.7312154632014479  0.6902915528418789
  0.0526888129365350  0.0256267932482650  0.1529898146552783
  0.5575941679145699  0.4932616426414842  0.8756396279744006
  0.8708287500616962  0.9472816826819542  0.9695828048076218
  0.0059014449333637  0.1450276272157578  0.7283814579171510
  0.3096385803223979  0.3005500001070091  0.9212283202522120
  0.8259004835315173  0.7876321372835225  0.6912549112022222
  0.1961475486591468  0.2746187834911482  0.7457239286011808
  0.3913114302116213  0.1711279790778580  0.2855724432637816
  0.3532225728738622  0.3028187195953660  0.5848308141762292
  0.5856781347436694  0.9267083488277507  0.2959986322694783
  0.4039922990579880  0.0190684565603941  0.5193511677405808
  0.6407510982406183  0.8961865403524242  0.9554585465832712
  0.6043338016305244  0.5196316168583931  0.5711894235503474
  0.2758037559914975  0.7816507246935873  0.8114058500287298
  0.2837026440376355  0.8432938318801260  0.6432695648008033
  0.2718231503493478  0.6732824040751815  0.2557885751869451
  0.4861718807981144  0.6888873970796773  0.8243230409283864
  0.8433899951537009  0.6863800212675486  0.0319807585182426
  0.6594047124863631  0.0872943079777920  0.4909470127515256
  0.7210464606398178  0.7302670737428665  0.9004983003917583
  0.7403671547363772  0.6583754370272010  0.5912143270041418
  0.5689533453225603  0.1102930733943865  0.3103905584792225
  0.2963899506948874  0.5744003158099502  0.7640016599309317
  0.4351413230253923  0.4487963916100856  0.5134439977511625
  0.4917622532428007  0.8378189511205363  0.1741147090627260
  0.4281751991742927  0.3893925596510640  0.7972901355332790
  0.2420456427288100  0.0360412313001981  0.2960384484807831
  0.5410358108633185  0.1669485713230971  0.9512930718407248
  0.4819612582443414  0.2981747993289313  0.4444999860658953
  0.3363013274951728  0.8419808892381216  0.2274076248457558
  0.5751421813057392  0.5454855841976881  0.0545799076976439
  0.0095109131119795  0.6141739021872263  0.5834298635253232
  0.5372093380862505  0.3424825877507274  0.9408997568478329
  0.2109767896282467  0.2612120500935541  0.3519367839137064
  0.4801984787928920  0.7322199015958299  0.5235122690977173
  0.2917804456891023  0.3651834661044433  0.4511676183327923
  0.0816547520163739  0.3754574188265891  0.8698501035916862
  0.7388737858353219  0.4958326392813995  0.5324649220808292
  0.1323749651009043  0.8440428539205066  0.0202979032747294
  0.9006962703644665  0.6506585330011989  0.3289318088997437
  0.9734761630860245  0.3377314148287957  0.0133298273181352
  0.9814992870751129  0.8305960395371943  0.3952141870286724
  0.5443079079399225  0.7582893688707357  0.0656315292299238
  0.5634008070339744  0.6241818997053030  0.1937583572673044
  0.6749203864633854  0.0637583561925240  0.0264877515991725
  0.1402295750768892  0.9237769131219794  0.5751829099743088
  0.4439150113830657  0.9964430951431490  0.3675598550090318
  0.6331386244206403  0.3898367221706951  0.6741662215033376
  0.7395249917552135  0.6486812601398253  0.2639398272417338
  0.7450607752076804  0.0527752195245285  0.2553805641202353
  0.9937775736105353  0.2290286111157913  0.8753242066533282
  0.7733904476575714  0.2064456869650196  0.9921550718474996
  0.7457931753863708  0.9054011538571779  0.0908256966199519
  0.4906557589305532  0.9969196783065776  0.1431386179526055
  0.7146583588781835  0.9092589197148725  0.7892117632309029
  0.8171439316022890  0.1559698113026259  0.8403010007484291
  0.4434528641007040  0.2317639335376065  0.0358415292459951
  0.1714992915281307  0.0575381984368589  0.0743762735339071
  0.5242089833224683  0.1449255690206570  0.7427896078898404
  0.9827931469999818  0.5317549091873983  0.0611511218211758
  0.8997001242281767  0.7244355109447722  0.8573053057205664
  0.0319376480651839  0.8926826301938378  0.8738343390939587
  0.6691094580200104  0.2642516893216199  0.8534035234937596
  0.7542419808842631  0.2730586484416166  0.5519941784405812
  0.5145364263647809  0.2699083783085902  0.2462306163729858
  0.8776074928110364  0.1734165796739893  0.4527348975195976
  0.1777275988683743  0.5835870963530324  0.9447494579051595
  0.2465974349880332  0.0072439235871541  0.6970187204218632
  0.9742846705719226  0.7144522643822566  0.1271373955797738
  0.9043301435635903  0.2270813064110080  0.1930371830984041
  0.5322352819268676  0.5575518371132544  0.3753829692064931
  0.1364881942945275  0.0551564354524637  0.5187436831875804
  0.5888201630554297  0.0269570911446798  0.8639071363924690
  0.1514572330869203  0.2704960253811252  0.0895251079390028
  0.0001295802013332  0.6879109634707354  0.9396054769062908
  0.7810696494237988  0.8063357180888633  0.5150248344955982
  0.3498373674942648  0.6469879378793459  0.4249678083508300
  0.8344241105137001  0.1340538013261364  0.6466527715688151
  0.1732318598607679  0.8120365583798039  0.2463151061667461
  0.8443395835496849  0.5017129162912068  0.2359400941047639
  0.1728180044710352  0.3111355819737609  0.5897827379893538
  0.4731173449477907  0.5281884777388026  0.6430516720306960
  0.8643354632706282  0.6186211772604739  0.4654479809944038
  0.8025596138665312  0.5805121236036623  0.8982638819959587
  0.3243136784565815  0.5315500296177559  0.6292866170724213
  0.7123560515933918  0.2196780476022700  0.1548741409698020
  0.2769662512679549  0.5040198995786582  0.1619135965843807
  0.2617895909688234  0.1608142598486435  0.5986589713745336
  0.0212589977721668  0.4256581459563257  0.2531414623411914
  0.2936156296650964  0.8001261014857102  0.4323656563796849
  0.9710262039431058  0.4815871520705439  0.4859323547406937
  0.3876096795993478  0.4110761851494325  0.9798660359864907
  0.9083649503932613  0.0439447696459999  0.2743095686845775
  0.1076009146896203  0.7519893039719666  0.5694906444024342
  0.0068533737884523  0.5838943220225112  0.2685332937671989
  0.4278196415989217  0.6798137984580402  0.6033599767683214
  0.9074591558210725  0.4529517423354277  0.8093942011743576
  0.0685285194004631  0.8490568958732857  0.6021139075723160
  0.2271821850323013  0.1066153999722294  0.5145283015887975
  0.4972995833643699  0.1810496885694861  0.2961642743169181
  0.9434421640885380  0.4599892292514969  0.7606465456449215
  0.7924069466589039  0.7472065490831590  0.6010696379328532
  0.8194474396449390  0.6949530997384119  0.9191556833555495
  0.5440019937410643  0.0180642775425328  0.3440800431182561
  0.9423411130458679  0.6686581374522417  0.5122887994585046
  0.7409758727461709  0.2029823729969168  0.8905042313491065
  0.6036343116459816  0.0844803225903632  0.9510638533297665
  0.8413603573798971  0.8959371432734070  0.0555043603641464
  0.4562850672676199  0.3272086109979581  0.9997687970301298
  0.0651378110776913  0.1898376335734663  0.4273948480507478
  0.3954849273978771  0.3498538987572447  0.4905252840259137
  0.2189737252448651  0.9239953126222064  0.6432224216756918
  0.5373740825435562  0.9255078958429365  0.2010239202355285
  0.9494986652315716  0.5004178500878003  0.2446344437253785
  0.6951526954840385  0.8071404193661994  0.9656858171504585
  0.9994040377738068  0.3279404318043453  0.9149717392854446
  0.8222662961198307  0.5666629812046224  0.5508899771424413
  0.9979245985383027  0.4242271835218337  0.0649194239201253
  0.4307361581755475  0.8151424297690651  0.2602876965069566
  0.8321385473444287  0.6027855916392025  0.2680795955397280
  0.2645825648185129  0.7712610244082134  0.2128105558354733
  0.6905645629667486  0.9595425957487576  0.0221180374063265
  0.5064968692829962  0.4030323140681661  0.8628098450076016
  0.5871795912380239  0.2551398032546848  0.9175319828657524
  0.2627445917184084  0.3475325834495810  0.5490895569119278
  0.6462938926101672  0.9424056561904471  0.8655114928189871
  0.3383768573248297  0.7298890241268526  0.0298787112723401
  0.2804270082740578  0.7429052747136962  0.0161556143814348
  0.0493454560185693  0.5400257103881627  0.5159836406823265
  0.9491277025513504  0.7054334444742379  0.0252820561456751
  0.6015385170796733  0.0879037946438408  0.7823682571891845
  0.3766726610916090  0.8501177997840080  0.7374853848190538
  0.9723468244086435  0.8625331165371369  0.6215627853149130
  0.2080740004194308  0.0854135896395760  0.8707670618977432
  0.4662573078659063  0.1452006257060509  0.5112176353019572
  0.8887900976071637  0.1404200497626158  0.9511797942132821
  0.3635021568044018  0.8521477591543429  0.5379712303981858
  0.1978235804998042  0.6056046219527635  0.1550940806113828
  0.6877878745844803  0.7811141251353879  0.0653499157095981
  0.3247441189872118  0.1909752876620672  0.9983374622469212
  0.5713393968932723  0.6206163234344860  0.4881151847108846
  0.7893267398006167  0.0769685160237590  0.5146665824237543
  0.0185104309414331  0.2292418652047827  0.0721360597134316
  0.8178426639391397  0.3288684116031136  0.1379898325809661
  0.6727653770158147  0.6149446763736738  0.9364378507483958
  0.3769864432107224  0.8923618906627627  0.1125969376621529
  0.0306797745543358  0.1422081919702391  0.5132887224994342
  0.3328713686653714  0.6563071972946998  0.5713515707473098
  0.0767331209470807  0.4147020503816182  0.1293872342296497
  0.8983174613530451  0.5241582844981730  0.6080620194625893
  0.1208169999130294  0.0149919615006225  0.3889162689832320
  0.6872765288360280  0.9098928668079126  0.5695935731277390
  0.7478915384428184  0.6845752226086180  0.4472080569235545
  0.0595184771694332  0.3595466291552838  0.5146536518065427
  0.3818814839142018  0.2676369225292871  0.8078815163114972
  0.6250548105388919  0.4278533686938298  0.9903188639911252
  0.7929486038742748  0.0409777452712708  0.7839557557086662
  0.8282404293434763  0.3087538095527003  0.4399576497841269
  0.8833172957049602  0.6716869858785458  0.7405492369284550
  0.4091693501973911  0.2543488038962948  0.1635285595246214
  0.6384609720202850  0.2568728543875268  0.7263733515980714
  0.5180588133783768  0.8730040432395978  0.9929237804486311
  0.1583043970413014  0.6993095986186523  0.3432323484080098
  0.6181052063999100  0.9622355486508125  0.4715753874623462
  0.0379870921169316  0.5604431765366775  0.9288523254931755
  0.7405113453988783  0.3775184970561177  0.8558546864132849
  0.1898976287300125  0.5278453286811087  0.6176665208789076
  0.2111907890863270  0.6328234984169435  0.4486392052984262
  0.3188815136093265  0.4555333519229413  0.8257911382758135
  0.3990697730246340  0.5160566287710593  0.3966232627713022
  0.6649397840266934  0.5380183325284679  0.2278303955366801
  0.1600525202228983  0.1043469919164461  0.6782411025872040
  0.6231897958025385  0.9450552102928447  0.6856659848275251
  0.4707564645021912  0.3925078612307931  0.6732525037517739
  0.7611211240276320  0.3389282431748980  0.3294944184584665
  0.6892295282175477  0.7641163508958073  0.7804358668529215
  0.3566057294712174  0.0653253862285458  0.6532130369342646
  0.9049028815005177  0.8798832141197327  0.5057170211701629
  0.2940795975475867  0.4165866636470572  0.2607162429689923
  0.7877834134990518  0.2186442766264420  0.2768942778923232
  0.2646916357510047  0.4090696635356966  0.0682873878777287
  0.3873188910614444  0.0392848839293252  0.2443586253938611
  0.4614956998837777  0.9960644305215119  0.8723136603195734
  0.1022390657774733  0.5071916020133558  0.3202453981518736
  0.8834242609620472  0.7790443021139685  0.3129076166088263
  0.5744852611233714  0.4108071383878215  0.4901001382653373
  0.0080887015536787  0.0336227815379965  0.8157417565221864
  0.9500953801540195  0.0616795127402232  0.6380473395069374
  0.4614178043621903  0.3612470719672365  0.3226341723346052
  0.1771972156769338  0.9647075791065302  0.1831928672783628
  0.4890042027812465  0.5062791495496354  0.1660799981824613
  0.5772507457165580  0.1403341434003988  0.5835070044587443
  0.3825469477260345  0.5777109175033391  0.1396739189792809
  0.6269472339574524  0.0954086114642631  0.1897937251046945
  0.1886467305377910  0.1560315620786708  0.1600169824484076
  0.8459544698680784  0.5427464968855844  0.0291019736867692
  0.1666407689086361  0.8387326092972214  0.4735204748701728
  0.8436190548534708  0.0944914582349225  0.1584153056446093
  0.8898565365546796  0.2349491744446006  0.7646654276243446
  0.0892132337276837  0.0603723464424028  0.9147839750508056
  0.5608877854347063  0.7777005265387892  0.6243942545834438
  0.0222431719438282  0.1235667150931413  0.2462122157426603
  0.1449286825374120  0.4110173139716707  0.6854493909715402
  0.4604471707778571  0.8514030285782738  0.3508830249700304
  0.9798790348239488  0.3210094619301979  0.3201019404570272
  0.1031172586583578  0.7638294022866554  0.9080292484744492
  0.8893049949659667  0.2479733571520199  0.5711649083395600
  0.2568557553083393  0.9739676048293188  0.8254636582753513
  0.1832273209991881  0.2666142009502005  0.8841586903890865
  0.6552036855656210  0.1694141640888414  0.3896505471516362
  0.2719898340060352  0.9021974694032432  0.3292978132110448
  0.8386382140092409  0.3430659086831048  0.0093366253993082
  0.6194267966611700  0.3182279598322188  0.1897071012508592
  0.4800177976412689  0.5651434390680389  0.9588009486491021
  0.3510462642552253  0.6663757669812455  0.8482081252922102
  0.7699836318481462  0.3966593135572981  0.6189385103736984
  0.6727515310663602  0.4640283143651419  0.7915303066811644
  0.4410048080193782  0.1248945677310927  0.8610073480782864
  0.1028210044268317  0.7575015690213107  0.1190568552092473
  0.1891572722068086  0.3392862300697383  0.2391948279405797
  0.9729655848453893  0.9347847095441012  0.2171422416685402
  0.0143484200581197  0.7056587613504476  0.4494586284350878
  0.8991543413969990  0.8571523166870791  0.8497043481412875
  0.1716164395077082  0.5797857960380802  0.8062100727635652
  0.5308073268178082  0.5728015129186602  0.7648966058783536
  0.3025233652564572  0.0861315913623149  0.4474890634510936
  0.7466472669609961  0.4849008379813356  0.4014001517905412
  0.7470954244874441  0.9178407226958786  0.2179983238442675
  0.5065298143409370  0.6665314210311613  0.3083948475192506
  0.0629270803177732  0.3035951417529553  0.7438319031260128
  0.1794900779006231  0.4426847250719132  0.9721673529751244
  0.2186769397791181  0.7392076463841937  0.6893702342906337
  0.0093476415601749  0.9215850748024763  0.0175310386806571
 
  0.00000000E+00  0.00000000E+00  0.00000000E+00
  0.00000000E+00  0.00000000E+00  0.00000000E+00
  0.00000000E+00  0.00000000E+00  0.00000000E+00
  0.00000000E+00  0.00000000E+00  0.00000000E+00
  0.00000000E+00  0.00000000E+00  0.00000000E+00
  0.00000000E+00  0.00000000E+00  0.00000000E+00
  0.00000000E+00  0.00000000E+00  0.00000000E+00
  0.00000000E+00  0.00000000E+00  0.00000000E+00
  0.00000000E+00  0.00000000E+00  0.00000000E+00
  0.00000000E+00  0.00000000E+00  0.00000000E+00
  0.00000000E+00  0.00000000E+00  0.00000000E+00
  0.00000000E+00  0.00000000E+00  0.00000000E+00
  0.00000000E+00  0.00000000E+00  0.00000000E+00
  0.00000000E+00  0.00000000E+00  0.00000000E+00
  0.00000000E+00  0.00000000E+00  0.00000000E+00
  0.00000000E+00  0.00000000E+00  0.00000000E+00
  0.00000000E+00  0.00000000E+00  0.00000000E+00
  0.00000000E+00  0.00000000E+00  0.00000000E+00
  0.00000000E+00  0.00000000E+00  0.00000000E+00
  0.00000000E+00  0.00000000E+00  0.00000000E+00
  0.00000000E+00  0.00000000E+00  0.00000000E+00
  0.00000000E+00  0.00000000E+00  0.00000000E+00
  0.00000000E+00  0.00000000E+00  0.00000000E+00
  0.00000000E+00  0.00000000E+00  0.00000000E+00
  0.00000000E+00  0.00000000E+00  0.00000000E+00
  0.00000000E+00  0.00000000E+00  0.00000000E+00
  0.00000000E+00  0.00000000E+00  0.00000000E+00
  0.00000000E+00  0.00000000E+00  0.00000000E+00
  0.00000000E+00  0.00000000E+00  0.00000000E+00
  0.00000000E+00  0.00000000E+00  0.00000000E+00
  0.00000000E+00  0.00000000E+00  0.00000000E+00
  0.00000000E+00  0.00000000E+00  0.00000000E+00
  0.00000000E+00  0.00000000E+00  0.00000000E+00
  0.00000000E+00  0.00000000E+00  0.00000000E+00
  0.00000000E+00  0.00000000E+00  0.00000000E+00
  0.00000000E+00  0.00000000E+00  0.00000000E+00
  0.00000000E+00  0.00000000E+00  0.00000000E+00
  0.00000000E+00  0.00000000E+00  0.00000000E+00
  0.00000000E+00  0.00000000E+00  0.00000000E+00
  0.00000000E+00  0.00000000E+00  0.00000000E+00
  0.00000000E+00  0.00000000E+00  0.00000000E+00
  0.00000000E+00  0.00000000E+00  0.00000000E+00
  0.00000000E+00  0.00000000E+00  0.00000000E+00
  0.00000000E+00  0.00000000E+00  0.00000000E+00
  0.00000000E+00  0.00000000E+00  0.00000000E+00
  0.00000000E+00  0.00000000E+00  0.00000000E+00
  0.00000000E+00  0.00000000E+00  0.00000000E+00
  0.00000000E+00  0.00000000E+00  0.00000000E+00
  0.00000000E+00  0.00000000E+00  0.00000000E+00
  0.00000000E+00  0.00000000E+00  0.00000000E+00
  0.00000000E+00  0.00000000E+00  0.00000000E+00
  0.00000000E+00  0.00000000E+00  0.00000000E+00
  0.00000000E+00  0.00000000E+00  0.00000000E+00
  0.00000000E+00  0.00000000E+00  0.00000000E+00
  0.00000000E+00  0.00000000E+00  0.00000000E+00
  0.00000000E+00  0.00000000E+00  0.00000000E+00
  0.00000000E+00  0.00000000E+00  0.00000000E+00
  0.00000000E+00  0.00000000E+00  0.00000000E+00
  0.00000000E+00  0.00000000E+00  0.00000000E+00
  0.00000000E+00  0.00000000E+00  0.00000000E+00
  0.00000000E+00  0.00000000E+00  0.00000000E+00
  0.00000000E+00  0.00000000E+00  0.00000000E+00
  0.00000000E+00  0.00000000E+00  0.00000000E+00
  0.00000000E+00  0.00000000E+00  0.00000000E+00
  0.00000000E+00  0.00000000E+00  0.00000000E+00
  0.00000000E+00  0.00000000E+00  0.00000000E+00
  0.00000000E+00  0.00000000E+00  0.00000000E+00
  0.00000000E+00  0.00000000E+00  0.00000000E+00
  0.00000000E+00  0.00000000E+00  0.00000000E+00
  0.00000000E+00  0.00000000E+00  0.00000000E+00
  0.00000000E+00  0.00000000E+00  0.00000000E+00
  0.00000000E+00  0.00000000E+00  0.00000000E+00
  0.00000000E+00  0.00000000E+00  0.00000000E+00
  0.00000000E+00  0.00000000E+00  0.00000000E+00
  0.00000000E+00  0.00000000E+00  0.00000000E+00
  0.00000000E+00  0.00000000E+00  0.00000000E+00
  0.00000000E+00  0.00000000E+00  0.00000000E+00
  0.00000000E+00  0.00000000E+00  0.00000000E+00
  0.00000000E+00  0.00000000E+00  0.00000000E+00
  0.00000000E+00  0.00000000E+00  0.00000000E+00
  0.00000000E+00  0.00000000E+00  0.00000000E+00
  0.00000000E+00  0.00000000E+00  0.00000000E+00
  0.00000000E+00  0.00000000E+00  0.00000000E+00
  0.00000000E+00  0.00000000E+00  0.00000000E+00
  0.00000000E+00  0.00000000E+00  0.00000000E+00
  0.00000000E+00  0.00000000E+00  0.00000000E+00
  0.00000000E+00  0.00000000E+00  0.00000000E+00
  0.00000000E+00  0.00000000E+00  0.00000000E+00
  0.00000000E+00  0.00000000E+00  0.00000000E+00
  0.00000000E+00  0.00000000E+00  0.00000000E+00
  0.00000000E+00  0.00000000E+00  0.00000000E+00
  0.00000000E+00  0.00000000E+00  0.00000000E+00
  0.00000000E+00  0.00000000E+00  0.00000000E+00
  0.00000000E+00  0.00000000E+00  0.00000000E+00
  0.00000000E+00  0.00000000E+00  0.00000000E+00
  0.00000000E+00  0.00000000E+00  0.00000000E+00
  0.00000000E+00  0.00000000E+00  0.00000000E+00
  0.00000000E+00  0.00000000E+00  0.00000000E+00
  0.00000000E+00  0.00000000E+00  0.00000000E+00
  0.00000000E+00  0.00000000E+00  0.00000000E+00
  0.00000000E+00  0.00000000E+00  0.00000000E+00
  0.00000000E+00  0.00000000E+00  0.00000000E+00
  0.00000000E+00  0.00000000E+00  0.00000000E+00
  0.00000000E+00  0.00000000E+00  0.00000000E+00
  0.00000000E+00  0.00000000E+00  0.00000000E+00
  0.00000000E+00  0.00000000E+00  0.00000000E+00
  0.00000000E+00  0.00000000E+00  0.00000000E+00
  0.00000000E+00  0.00000000E+00  0.00000000E+00
  0.00000000E+00  0.00000000E+00  0.00000000E+00
  0.00000000E+00  0.00000000E+00  0.00000000E+00
  0.00000000E+00  0.00000000E+00  0.00000000E+00
  0.00000000E+00  0.00000000E+00  0.00000000E+00
  0.00000000E+00  0.00000000E+00  0.00000000E+00
  0.00000000E+00  0.00000000E+00  0.00000000E+00
  0.00000000E+00  0.00000000E+00  0.00000000E+00
  0.00000000E+00  0.00000000E+00  0.00000000E+00
  0.00000000E+00  0.00000000E+00  0.00000000E+00
  0.00000000E+00  0.00000000E+00  0.00000000E+00
  0.00000000E+00  0.00000000E+00  0.00000000E+00
  0.00000000E+00  0.00000000E+00  0.00000000E+00
  0.00000000E+00  0.00000000E+00  0.00000000E+00
  0.00000000E+00  0.00000000E+00  0.00000000E+00
  0.00000000E+00  0.00000000E+00  0.00000000E+00
  0.00000000E+00  0.00000000E+00  0.00000000E+00
  0.00000000E+00  0.00000000E+00  0.00000000E+00
  0.00000000E+00  0.00000000E+00  0.00000000E+00
  0.00000000E+00  0.00000000E+00  0.00000000E+00
  0.00000000E+00  0.00000000E+00  0.00000000E+00
  0.00000000E+00  0.00000000E+00  0.00000000E+00
  0.00000000E+00  0.00000000E+00  0.00000000E+00
  0.00000000E+00  0.00000000E+00  0.00000000E+00
  0.00000000E+00  0.00000000E+00  0.00000000E+00
  0.00000000E+00  0.00000000E+00  0.00000000E+00
  0.00000000E+00  0.00000000E+00  0.00000000E+00
  0.00000000E+00  0.00000000E+00  0.00000000E+00
  0.00000000E+00  0.00000000E+00  0.00000000E+00
  0.00000000E+00  0.00000000E+00  0.00000000E+00
  0.00000000E+00  0.00000000E+00  0.00000000E+00
  0.00000000E+00  0.00000000E+00  0.00000000E+00
  0.00000000E+00  0.00000000E+00  0.00000000E+00
  0.00000000E+00  0.00000000E+00  0.00000000E+00
  0.00000000E+00  0.00000000E+00  0.00000000E+00
  0.00000000E+00  0.00000000E+00  0.00000000E+00
  0.00000000E+00  0.00000000E+00  0.00000000E+00
  0.00000000E+00  0.00000000E+00  0.00000000E+00
  0.00000000E+00  0.00000000E+00  0.00000000E+00
  0.00000000E+00  0.00000000E+00  0.00000000E+00
  0.00000000E+00  0.00000000E+00  0.00000000E+00
  0.00000000E+00  0.00000000E+00  0.00000000E+00
  0.00000000E+00  0.00000000E+00  0.00000000E+00
  0.00000000E+00  0.00000000E+00  0.00000000E+00
  0.00000000E+00  0.00000000E+00  0.00000000E+00
  0.00000000E+00  0.00000000E+00  0.00000000E+00
  0.00000000E+00  0.00000000E+00  0.00000000E+00
  0.00000000E+00  0.00000000E+00  0.00000000E+00
  0.00000000E+00  0.00000000E+00  0.00000000E+00
  0.00000000E+00  0.00000000E+00  0.00000000E+00
  0.00000000E+00  0.00000000E+00  0.00000000E+00
  0.00000000E+00  0.00000000E+00  0.00000000E+00
  0.00000000E+00  0.00000000E+00  0.00000000E+00
  0.00000000E+00  0.00000000E+00  0.00000000E+00
  0.00000000E+00  0.00000000E+00  0.00000000E+00
  0.00000000E+00  0.00000000E+00  0.00000000E+00
  0.00000000E+00  0.00000000E+00  0.00000000E+00
  0.00000000E+00  0.00000000E+00  0.00000000E+00
  0.00000000E+00  0.00000000E+00  0.00000000E+00
  0.00000000E+00  0.00000000E+00  0.00000000E+00
  0.00000000E+00  0.00000000E+00  0.00000000E+00
  0.00000000E+00  0.00000000E+00  0.00000000E+00
  0.00000000E+00  0.00000000E+00  0.00000000E+00
  0.00000000E+00  0.00000000E+00  0.00000000E+00
  0.00000000E+00  0.00000000E+00  0.00000000E+00
  0.00000000E+00  0.00000000E+00  0.00000000E+00
  0.00000000E+00  0.00000000E+00  0.00000000E+00
  0.00000000E+00  0.00000000E+00  0.00000000E+00
  0.00000000E+00  0.00000000E+00  0.00000000E+00
  0.00000000E+00  0.00000000E+00  0.00000000E+00
  0.00000000E+00  0.00000000E+00  0.00000000E+00
  0.00000000E+00  0.00000000E+00  0.00000000E+00
  0.00000000E+00  0.00000000E+00  0.00000000E+00
  0.00000000E+00  0.00000000E+00  0.00000000E+00
  0.00000000E+00  0.00000000E+00  0.00000000E+00
  0.00000000E+00  0.00000000E+00  0.00000000E+00
  0.00000000E+00  0.00000000E+00  0.00000000E+00
  0.00000000E+00  0.00000000E+00  0.00000000E+00
  0.00000000E+00  0.00000000E+00  0.00000000E+00
  0.00000000E+00  0.00000000E+00  0.00000000E+00
  0.00000000E+00  0.00000000E+00  0.00000000E+00
  0.00000000E+00  0.00000000E+00  0.00000000E+00
  0.00000000E+00  0.00000000E+00  0.00000000E+00
  0.00000000E+00  0.00000000E+00  0.00000000E+00
  0.00000000E+00  0.00000000E+00  0.00000000E+00
  0.00000000E+00  0.00000000E+00  0.00000000E+00
  0.00000000E+00  0.00000000E+00  0.00000000E+00
  0.00000000E+00  0.00000000E+00  0.00000000E+00
  0.00000000E+00  0.00000000E+00  0.00000000E+00
  0.00000000E+00  0.00000000E+00  0.00000000E+00
  0.00000000E+00  0.00000000E+00  0.00000000E+00
  0.00000000E+00  0.00000000E+00  0.00000000E+00
  0.00000000E+00  0.00000000E+00  0.00000000E+00
  0.00000000E+00  0.00000000E+00  0.00000000E+00
  0.00000000E+00  0.00000000E+00  0.00000000E+00
  0.00000000E+00  0.00000000E+00  0.00000000E+00
  0.00000000E+00  0.00000000E+00  0.00000000E+00
  0.00000000E+00  0.00000000E+00  0.00000000E+00
  0.00000000E+00  0.00000000E+00  0.00000000E+00
  0.00000000E+00  0.00000000E+00  0.00000000E+00
  0.00000000E+00  0.00000000E+00  0.00000000E+00
  0.00000000E+00  0.00000000E+00  0.00000000E+00
  0.00000000E+00  0.00000000E+00  0.00000000E+00
  0.00000000E+00  0.00000000E+00  0.00000000E+00
  0.00000000E+00  0.00000000E+00  0.00000000E+00
  0.00000000E+00  0.00000000E+00  0.00000000E+00
  0.00000000E+00  0.00000000E+00  0.00000000E+00
  0.00000000E+00  0.00000000E+00  0.00000000E+00
  0.00000000E+00  0.00000000E+00  0.00000000E+00
  0.00000000E+00  0.00000000E+00  0.00000000E+00
  0.00000000E+00  0.00000000E+00  0.00000000E+00
  0.00000000E+00  0.00000000E+00  0.00000000E+00
  0.00000000E+00  0.00000000E+00  0.00000000E+00
  0.00000000E+00  0.00000000E+00  0.00000000E+00
  0.00000000E+00  0.00000000E+00  0.00000000E+00
  0.00000000E+00  0.00000000E+00  0.00000000E+00
  0.00000000E+00  0.00000000E+00  0.00000000E+00
  0.00000000E+00  0.00000000E+00  0.00000000E+00
  0.00000000E+00  0.00000000E+00  0.00000000E+00
  0.00000000E+00  0.00000000E+00  0.00000000E+00
  0.00000000E+00  0.00000000E+00  0.00000000E+00
  0.00000000E+00  0.00000000E+00  0.00000000E+00
  0.00000000E+00  0.00000000E+00  0.00000000E+00
  0.00000000E+00  0.00000000E+00  0.00000000E+00
  0.00000000E+00  0.00000000E+00  0.00000000E+00
  0.00000000E+00  0.00000000E+00  0.00000000E+00
  0.00000000E+00  0.00000000E+00  0.00000000E+00
  0.00000000E+00  0.00000000E+00  0.00000000E+00
  0.00000000E+00  0.00000000E+00  0.00000000E+00
  0.00000000E+00  0.00000000E+00  0.00000000E+00
  0.00000000E+00  0.00000000E+00  0.00000000E+00
  0.00000000E+00  0.00000000E+00  0.00000000E+00
  0.00000000E+00  0.00000000E+00  0.00000000E+00
