In2O3 structure 39 - random placement wi
   1.00000000000000     
     7.9154586017457991   -0.0960002293726238   -0.0050134798182026
    -0.0963727127665264    7.9412368805860467    0.0048914003830095
    -0.0050617353915389    0.0047077801708651    8.0145261497964331
   In   Ga   O 
    14     2    24
Direct
  0.6228035869308144  0.9002759550435684  0.3544331429540293
  0.1278514765159642  0.4052290564243819  0.3568527887203103
  0.1268013585976462  0.9007079230017254  0.3613107997530847
  0.8450538777701411  0.1776347110678742  0.5853614383023213
  0.3710777749111074  0.1493751089910873  0.0788253833239452
  0.3431354460960989  0.1808940154677217  0.5867088184644658
  0.5883582190960652  0.9278800876394797  0.8472402825323897
  0.5950173932301226  0.4385173846682804  0.8494497481282721
  0.3739149039208129  0.6553995384095543  0.0809300852041162
  0.6257363405338552  0.4014722175379930  0.3536512865805435
  0.8509350351372689  0.6871325116333011  0.5876788073815007
  0.0964710302597851  0.4346271506904174  0.8491909741346007
  0.8781615539123422  0.6563915496855373  0.0792847600967264
  0.8787800319201367  0.1492000559513968  0.0751127951326964
  0.1040432923279155  0.9304988177933708  0.8563920182627740
  0.3450424859009331  0.6722733712347804  0.5763287020422325
  0.6256827195371812  0.0344532261208386  0.1161368632356314
  0.4862494107919275  0.1864454844263719  0.8180040670753286
  0.8427865499514056  0.3987968555565473  0.9632282112967232
  0.8772536994437061  0.9341352290813703  0.4675900070798136
  0.4864154605522018  0.3999562675950230  0.1157738367978851
  0.1296663230309676  0.5332539285285094  0.1169888095647096
  0.8796828846718796  0.2834266075560166  0.3150685395990394
  0.7390053353707344  0.4368430697537562  0.6179807224484648
  0.3417173475975375  0.5577204977333352  0.8015827812755418
  0.1312518868791841  0.1755952882246987  0.9487123930314212
  0.3284127953523281  0.8957229555378206  0.9635370735944448
  0.0919225551500489  0.2978516450678441  0.6151646243543212
  0.6297761665359261  0.6889722166015630  0.9685726224521716
  0.9919357012982957  0.7025305062061236  0.8234103606485732
  0.0018093969878237  0.9014747625643835  0.1157886536665202
  0.7471752890212926  0.6484904133152227  0.3178004607588605
  0.5889509775189623  0.1459531940219208  0.4709769751629764
  0.3846711211985081  0.4475409381654600  0.4749240756748421
  0.2415711213987919  0.1503975465771887  0.3195331712413818
  0.1047986177191618  0.6469286984583391  0.4831426939665420
  0.2242263279357033  0.9324103301254567  0.6340720329279392
  0.3753728300834354  0.7815097003503695  0.3250857429173521
  0.5729809759387265  0.7828732670335796  0.6140627332159596
  0.8484849553183551  0.0307337281337468  0.8161203008049611
 
  0.00000000E+00  0.00000000E+00  0.00000000E+00
  0.00000000E+00  0.00000000E+00  0.00000000E+00
  0.00000000E+00  0.00000000E+00  0.00000000E+00
  0.00000000E+00  0.00000000E+00  0.00000000E+00
  0.00000000E+00  0.00000000E+00  0.00000000E+00
  0.00000000E+00  0.00000000E+00  0.00000000E+00
  0.00000000E+00  0.00000000E+00  0.00000000E+00
  0.00000000E+00  0.00000000E+00  0.00000000E+00
  0.00000000E+00  0.00000000E+00  0.00000000E+00
  0.00000000E+00  0.00000000E+00  0.00000000E+00
  0.00000000E+00  0.00000000E+00  0.00000000E+00
  0.00000000E+00  0.00000000E+00  0.00000000E+00
  0.00000000E+00  0.00000000E+00  0.00000000E+00
  0.00000000E+00  0.00000000E+00  0.00000000E+00
  0.00000000E+00  0.00000000E+00  0.00000000E+00
  0.00000000E+00  0.00000000E+00  0.00000000E+00
  0.00000000E+00  0.00000000E+00  0.00000000E+00
  0.00000000E+00  0.00000000E+00  0.00000000E+00
  0.00000000E+00  0.00000000E+00  0.00000000E+00
  0.00000000E+00  0.00000000E+00  0.00000000E+00
  0.00000000E+00  0.00000000E+00  0.00000000E+00
  0.00000000E+00  0.00000000E+00  0.00000000E+00
  0.00000000E+00  0.00000000E+00  0.00000000E+00
  0.00000000E+00  0.00000000E+00  0.00000000E+00
  0.00000000E+00  0.00000000E+00  0.00000000E+00
  0.00000000E+00  0.00000000E+00  0.00000000E+00
  0.00000000E+00  0.00000000E+00  0.00000000E+00
  0.00000000E+00  0.00000000E+00  0.00000000E+00
  0.00000000E+00  0.00000000E+00  0.00000000E+00
  0.00000000E+00  0.00000000E+00  0.00000000E+00
  0.00000000E+00  0.00000000E+00  0.00000000E+00
  0.00000000E+00  0.00000000E+00  0.00000000E+00
  0.00000000E+00  0.00000000E+00  0.00000000E+00
  0.00000000E+00  0.00000000E+00  0.00000000E+00
  0.00000000E+00  0.00000000E+00  0.00000000E+00
  0.00000000E+00  0.00000000E+00  0.00000000E+00
  0.00000000E+00  0.00000000E+00  0.00000000E+00
  0.00000000E+00  0.00000000E+00  0.00000000E+00
  0.00000000E+00  0.00000000E+00  0.00000000E+00
  0.00000000E+00  0.00000000E+00  0.00000000E+00
