Ge Se                                   
   1.00000000000000     
    20.8706398010253906    0.0000000000000000    0.0000000000000000
     0.0000000000000000   20.8706398010253906    0.0000000000000000
     0.0000000000000000    0.0000000000000000   20.8706398010253906
   Ge   Se
   150   150
Direct
  0.0134445540962479  0.9660580253938692  0.8529220934199359
  0.2694754970401247  0.2785361368937112  0.2368103296853314
  0.6590609415412377  0.2965086436140094  0.9200116530621841
  0.6181537758099636  0.8892380750694631  0.7467983200554646
  0.9214899976951553  0.9263060535345394  0.6207056575176847
  0.8815461691128832  0.0988945959575421  0.2721988318061866
  0.7883895103505209  0.2845343955341564  0.9399972995785790
  0.3193790636236408  0.7851874123766390  0.8093565453798225
  0.9786415254950082  0.7489126140207285  0.5442978805170416
  0.9914454733449856  0.7989043636634809  0.1512158659232344
  0.1418739766598681  0.6192563525755660  0.2970589332190458
  0.6729843463748658  0.7776067826879047  0.7788242588208349
  0.6051263639279240  0.9002472739623607  0.5361427689829777
  0.2843604925126967  0.7693529679286593  0.4818903296890428
  0.7825413114999543  0.8543247249606939  0.1390528943019862
  0.4271595405999100  0.1969242541139684  0.2770392113528986
  0.6639129792890165  0.3678786881772891  0.2457764649781566
  0.3225970219839431  0.4370504489868781  0.8345425091443476
  0.0020331846550908  0.1443425600554666  0.1516067405254420
  0.6004361763222335  0.2421722344363673  0.2125465879454450
  0.6624887911839845  0.8031991620623391  0.4656587095284461
  0.9017030857175129  0.9502072712964308  0.8070486364993259
  0.2155499108954954  0.4201054770473544  0.3250466926866444
  0.0159066791221005  0.2241777971546502  0.4755667833558390
  0.0841826363083079  0.2731130406125042  0.7377973383298155
  0.0883423356869161  0.3263712785199397  0.9871333415232360
  0.1728702271198561  0.5496064513266741  0.8515063392036073
  0.3306866048615750  0.1526029206424750  0.6079958357083612
  0.1309601636762399  0.8935181205831418  0.2192246062206679
  0.4241565371035656  0.4941336644566488  0.1529929786366574
  0.1252688084087291  0.1031162881412104  0.7692472859859956
  0.5678568581498906  0.4405545595522437  0.3797587205933566
  0.7477161011603898  0.6265768534964736  0.2243025133707544
  0.7118826307176503  0.2104637276620099  0.6932535149592214
  0.8569028987010422  0.7682263973536738  0.8698908618243120
  0.2834374122392273  0.3160521062931758  0.3556764887340286
  0.8759446188443631  0.2426748601918222  0.0311811262054262
  0.7611159005481121  0.0239101315044881  0.1897643789995444
  0.6203923539405095  0.5880442107012959  0.5010730336054943
  0.8394821139182348  0.7341132768452443  0.1242242831247667
  0.8092501295816878  0.1730820769162360  0.3615383659221915
  0.4151783912417646  0.6631191535390590  0.2873758117886635
  0.8196870110311266  0.3134535157563837  0.4604141096431355
  0.5969802986257303  0.1180059828531111  0.0906269871210818
  0.1316308915453999  0.4918495244925407  0.5388176589733653
  0.8114698125132336  0.4314157689401719  0.5995088086014303
  0.9724368973664291  0.2478382383351169  0.3587543571980911
  0.1465723178307718  0.4786796120991690  0.4143266705056380
  0.0192962194403609  0.9280035621321594  0.4681087233099401
  0.0504075458304551  0.8654161246962974  0.0227633499349273
  0.2268533467755060  0.7774750165291257  0.6284111771309907
  0.1066709120719969  0.0143293919051275  0.5894164828405676
  0.3880129981360060  0.1142374570481941  0.4615972374306059
  0.1167605381544493  0.7628121042738474  0.9794281761454795
  0.5893561171730178  0.2515692556834768  0.8113224912143985
  0.0468696244021136  0.9900382326064687  0.1987806710169503
  0.5041803271524787  0.1612850754453084  0.9288749312689656
  0.5066306328845379  0.6042738677791442  0.0331249094816723
  0.9706045337670626  0.0601203083677803  0.7164158920842832
  0.2438463755065198  0.9326971622695965  0.5124151064836985
  0.5332413475603143  0.0005343734806214  0.9626929341417586
  0.3762015716114376  0.7211306941237693  0.6590526340254785
  0.9058520421612434  0.6621946287665073  0.2677860770301840
  0.5228189976408577  0.7142325088489896  0.2425523277158667
  0.1733139833589493  0.2078435704871321  0.9228595343552060
  0.7570442875401009  0.8933164274503526  0.3332298905636714
  0.8974477909293801  0.4808724460121186  0.7375760865404218
  0.1183547289030299  0.7343607227125716  0.1781382552319774
  0.2900615489805118  0.1978139374145346  0.4135400864442565
  0.2523935867122709  0.9927416558598224  0.2215115702840360
  0.5050900650383834  0.7839776351657392  0.6354722650090815
  0.9852778574313492  0.3966637712450509  0.4148333860785237
  0.1898536631031694  0.4874778380477729  0.7059243199831389
  0.3659535333988342  0.3225423581465527  0.7956996373859920
  0.9228766939937354  0.9324348606793348  0.0924385723202517
  0.1194816297239596  0.6886341943956509  0.4334349580818786
  0.6006046637413649  0.7339404901672946  0.9378061564422131
  0.2001209923590394  0.6770698496845330  0.0150768511795273
  0.7254421848249729  0.0441222825917744  0.6175262955548954
  0.9125299183715168  0.0170223552815129  0.5141026306738919
  0.3867950175443171  0.7018193692971191  0.1235785305108004
  0.8094353946480887  0.3647462377302842  0.7455770853962572
  0.5327911085446542  0.8345359051974474  0.8981355136942818
  0.1130851967606909  0.0649834444469090  0.3753163261806002
  0.5010916337620815  0.3413156941578941  0.4147812223033756
  0.0602749387721445  0.0426057411284953  0.9371643511803907
  0.3623781894775406  0.4625064428388889  0.0039503086625329
  0.5200426982546111  0.0417325375240966  0.5560204594023311
  0.0134950488281309  0.1239507786499372  0.0200689063980053
  0.2722259511017321  0.3816494017702226  0.9943783312940506
  0.0274730278252416  0.7605266993928040  0.8431549315095446
  0.1617256652362764  0.8709975935826463  0.6976094190569384
  0.7699199233071354  0.6647093537849383  0.9357584488599161
  0.2707632418157940  0.9358511130727580  0.3749311745526162
  0.1476013894335893  0.2179667457333043  0.6290679779511515
  0.1537089157886089  0.3709972801460513  0.6866055590255372
  0.7380612097805870  0.2049116717355685  0.0287134520579630
  0.9372901038694548  0.0258578366416335  0.3552054725989155
  0.6239421832565004  0.4069991117300764  0.5461753210870235
  0.2049232802742549  0.4829078223756283  0.2024162200458330
  0.6565220103841451  0.6774779216295638  0.4169059337531691
  0.8197906812807794  0.6014726455059466  0.4915067404619141
  0.3029966761638153  0.6086262316335934  0.6067732959800928
  0.4320400391268818  0.1025922678557504  0.0459427639231835
  0.6995941118134977  0.6017855896517835  0.6323386524523372
  0.4266991476297769  0.7920645894940654  0.9608957251263386
  0.4065274768048715  0.8999817396143538  0.4684692712748029
  0.8255434107624190  0.7334696705674248  0.6419139995070656
  0.1360255311581489  0.7537877036891185  0.7806649407205649
  0.2107993063872135  0.7149957743502580  0.2623288065147378
  0.6077507894438382  0.0823007907399114  0.8115673774016532
  0.7616116403908358  0.4956471521624857  0.3637605187807242
  0.5671844460733040  0.5135390537975493  0.2697556225845266
  0.6809886805473722  0.7464858443586676  0.0902901769911858
  0.7708531810627620  0.0857943187082975  0.0163376815118988
  0.6817320635837356  0.3305612042518739  0.7010200709695205
  0.6825643684614142  0.0883097170285750  0.2615095760030199
  0.0720210880876215  0.5327772746014879  0.7174783888723322
  0.2905075405880284  0.8314365098629272  0.1285085990902194
  0.6641186270976491  0.2686905653927303  0.1028038943019821
  0.2067698554904959  0.5123347124477337  0.0121119889048051
  0.5001355023888826  0.3663396876169880  0.7301863477546091
  0.9945120185880172  0.4623737933990985  0.9137370112065536
  0.2413239094615842  0.8915914313622614  0.8896367618316656
  0.8068040571763352  0.4768104696655546  0.9158226905252036
  0.4268830389507001  0.4774955492207634  0.5472318097175269
  0.7903457480683330  0.9056079345515012  0.7044296576989999
  0.6843470692348627  0.2875410064752923  0.3552814489232669
  0.9627557924702078  0.2436896333684674  0.8590132024082839
  0.3410313845996954  0.0330704540668589  0.0881810338306085
  0.4671098576941318  0.8053405485870631  0.4094375265872069
  0.0545045891142697  0.9620680603057116  0.7339688429846158
  0.6541415481833323  0.6234583172781507  0.9139868002565077
  0.0741613439242214  0.5375642705204262  0.0956831435804075
  0.3886760381372172  0.2944747451223821  0.0740000846334423
  0.4805933975131281  0.6234726975850897  0.4234415341203839
  0.1855552329596112  0.3187989852045970  0.4812424860418921
  0.5770679767550223  0.4897811693669253  0.8258676113270245
  0.1334423534037581  0.3277480301203006  0.3058780145571326
  0.4433417320311056  0.3609720697262414  0.2108914673112797
  0.5649061283447098  0.4400261125581766  0.9398125484253040
  0.1849804108471285  0.9934111098694384  0.1021918317647447
  0.3308635438737156  0.5056864488023386  0.4061947708451757
  0.5893836187132955  0.2133558968587724  0.4883139633280907
  0.5004119302705508  0.7663421104196160  0.8078561977522680
  0.1994973641075053  0.3331287778328048  0.0836550611258886
  0.8725521319187053  0.1626372970657645  0.5857066285560448
  0.8890398281654524  0.7907983642630302  0.4352848395549820
  0.3996921880535460  0.8985686020856544  0.2471114617897796
  0.9035270578957013  0.4152211273708355  0.0535929351369610
  0.6413883256577102  0.5827806831946865  0.8060157370312371
  0.5745608441724310  0.9336808511866985  0.8502008946243161
  0.2092642077429561  0.9632600296511993  0.6314592791503365
  0.5433832877173157  0.8977605081151169  0.6453839977843919
  0.3633015295451675  0.8720241280103019  0.8921962630707186
  0.3980845945906491  0.3577809995687244  0.6829046219236998
  0.0579392206693359  0.5823508011836975  0.5396308927296631
  0.3226128152642088  0.1792843769425814  0.2191811068918492
  0.1861619921847476  0.2093314309821265  0.7492562085299466
  0.4306474391577406  0.0622498393941579  0.9298564834618146
  0.9099230203395138  0.2612682563444680  0.5305748489432280
  0.5789010109472194  0.1238374655037834  0.2140077881464652
  0.6881008414026506  0.0363535578944690  0.0911579083148396
  0.1813959279989117  0.6006110815027905  0.1049042868361809
  0.0343714654078339  0.5023027316920164  0.3996037867415033
  0.4118345913319618  0.8215588924021412  0.1402777554243413
  0.1366361263266413  0.9847794975890998  0.4692138695137069
  0.6110640767150763  0.5443463843935687  0.9915294303142597
  0.5111591755319642  0.1214093630050499  0.4620652110731732
  0.7936544063208066  0.3898460806576290  0.0020277171355786
  0.7266915230612641  0.3400970903238441  0.5879298456978373
  0.3508355361093529  0.5526366379873575  0.0754523243759328
  0.5916498278757830  0.3062717096851613  0.0166198815148011
  0.2804842656940085  0.5305335791737317  0.7706799171661356
  0.7558958811049151  0.0100254019516436  0.3750102169205521
  0.7716573707615960  0.6961556700690199  0.8183952144595628
  0.5231807652757307  0.3110604092832340  0.5283089056066965
  0.2105758368180080  0.1300565041812495  0.5826030609482026
  0.3675912286163918  0.5762152255827991  0.5014088786858014
  0.5166168659427722  0.5722018987436470  0.1496220136435528
  0.0452158532599466  0.6601226994445586  0.3412682227852816
  0.3009183115849046  0.3566746589126344  0.1490898599702742
  0.9199261871989554  0.6762942171123321  0.4637688282959752
  0.5165721667964674  0.0260403093388821  0.0867446911628269
  0.2877883429308079  0.9321416832756388  0.0543398386648245
  0.0825504758140345  0.2780096126992930  0.8708252838203528
  0.0886806212852125  0.5256084230792656  0.9724832204167663
  0.3352512971703245  0.8173755470609919  0.5964039823962717
  0.7244873934134864  0.3584140585432704  0.1464253481635524
  0.8738212054461031  0.8217395688321970  0.5641496474972385
  0.5172499641552354  0.9516906223445021  0.4704037417978141
  0.4212725358264000  0.8121233184861817  0.7331831788683487
  0.4506644664019080  0.6962062975199779  0.8859221248087518
  0.8595309106804702  0.0416577732970802  0.7467321913190551
  0.2216059446083826  0.4175969234592076  0.8956977388061064
  0.5095822414915889  0.1620916158356581  0.8056935475441872
  0.8295965664826185  0.1933127717072090  0.6877454216148903
  0.2476391491473491  0.6032961408252795  0.9342892250948908
  0.3016893853810831  0.7365999678482190  0.0384092728613076
  0.7756856731773574  0.4775159699569662  0.7077027723065119
  0.4503949917934399  0.4064719219675860  0.0594436051965286
  0.7621171371736806  0.6194561766047875  0.3801905868970396
  0.1557967088840863  0.2694140104781073  0.2051845644849550
  0.0418184404937833  0.9757118184142602  0.3219163860769026
  0.6900426638778955  0.4896584500686221  0.2622307366737863
  0.9317449721085821  0.7251616696125078  0.7890563535166234
  0.8131300926843430  0.9339086334966086  0.0537655195022293
  0.6453780322786731  0.8632676710098529  0.3674667630383464
  0.3689414053155156  0.0212887940502178  0.2040813643411727
  0.8078646796781237  0.8823085784386656  0.8265783938637425
  0.8244088636284503  0.1596565314534897  0.1027196931979222
  0.7526501739434561  0.6457606261913829  0.1000960044327289
  0.8605742982382945  0.2857307998986162  0.3445415660690913
  0.0156002930468272  0.3458085833206473  0.3034859472732511
  0.3862229781089904  0.9675182161411985  0.3716448508705134
  0.1966041382481470  0.5872491487532955  0.4010465913215986
  0.7136175047115766  0.7689026383451365  0.9736132749269155
  0.1593353429831343  0.0915157268490788  0.8870178912911759
  0.5359504009171092  0.5015605456115246  0.4784900305365535
  0.6927514362478558  0.1745607323339343  0.8060150421126187
  0.6455184163830893  0.0130210028095486  0.5309423154750884
  0.6482475951412059  0.0514205944425867  0.3636405490952458
  0.3919207146635398  0.7113562197254418  0.3931676608695817
  0.8152458830731342  0.0931292899186148  0.5141615315202547
  0.5471166273072544  0.7569182635973187  0.4832089665334572
  0.9367470423122796  0.0396394077266143  0.1714929178389732
  0.2026598388968293  0.7598881854993801  0.3692412228248995
  0.7099104131370986  0.9173195658317529  0.2167329103848848
  0.8961052831892513  0.8686709553324877  0.1928459995468420
  0.3677552454638859  0.0486425046100021  0.5586573789909378
  0.5025411345836599  0.8173569502146946  0.2985084868364269
  0.0893905600813695  0.6232426339262942  0.6425188969736300
  0.4258074949608702  0.5512294648330399  0.3338516834825858
  0.0288903291216246  0.6980598440838082  0.9424783758245096
  0.5618378393766864  0.7139547903660450  0.0492185174649654
  0.6528273169619712  0.1394764154693469  0.6252583269301319
  0.1014739734777666  0.5270043248303602  0.2412194999342159
  0.1751022317325862  0.1950849568400301  0.4666848343931575
  0.2753047809007304  0.8760641804822645  0.2617411948751242
  0.9046763257091734  0.3777054162555082  0.6708524833817181
  0.1959010122222405  0.7725294989255669  0.8856813976459240
  0.1497128347436640  0.8357761509664758  0.1169213918265427
  0.0098245703281654  0.8063381251159842  0.4395294656640401
  0.2314858635669711  0.0429092723668689  0.3307308444654657
  0.2706252428171156  0.7002536441835042  0.7163498042178925
  0.9107917998830688  0.5161265402041110  0.9837559627922763
  0.3365450417844453  0.2887750940234818  0.9657481554859597
  0.1021627835980463  0.2056291296631647  0.0241213390530464
  0.8560063839939075  0.5626440470991519  0.2110329812933432
  0.5679938739949802  0.2798548577515096  0.6865406259850890
  0.5714566253419112  0.2470937171334635  0.3662696080873361
  0.6661610271172924  0.3981393159838470  0.4307868213397439
  0.1463552681262232  0.2197192796684476  0.3508806580847564
  0.1234651973357367  0.9576519023853837  0.9880752947909091
  0.5551265671525747  0.4665021967103678  0.7141031286057650
  0.7270425933940931  0.8038317903302735  0.6712744224132940
  0.9706075174503435  0.3498951111575128  0.9698270293313066
  0.9824284692848766  0.0892124270825121  0.4434577465286058
  0.4853800970759758  0.2490227272333029  0.1783244053750860
  0.2251500276507724  0.6824354055265482  0.5487444605333099
  0.4796454368157160  0.3412766692221930  0.8405315565904714
  0.3146796653547198  0.6616861208475383  0.2218099683378331
  0.8057819427943694  0.7355451265736235  0.2424207868312704
  0.2435291379881015  0.0948803143845603  0.0802119034490170
  0.2614094434017252  0.8873386720137955  0.7668767025527220
  0.3953969255963603  0.5025138865668054  0.9009286918529443
  0.9640938439491469  0.8816725861088606  0.7297128827866894
  0.9764494470968175  0.1140175687124618  0.6110731115652728
  0.9890275052988078  0.1572753447974729  0.2857400485025134
  0.8804450454051183  0.9448846370964877  0.4169933403014000
  0.8784421385882872  0.4092687299974986  0.8396541404263304
  0.0538353292979347  0.8067210401555743  0.2568733111050651
  0.7097374375019667  0.5195065775807985  0.5391330517864312
  0.9542763371805095  0.6822103985497761  0.1571853755707887
  0.9928949180757408  0.8624219795486481  0.9067321044997634
  0.3874274746412388  0.4098216328318741  0.4580767840506203
  0.5841115045930706  0.6246958788173774  0.6031856709073148
  0.2200539620223438  0.3123182357982925  0.6041373619753225
  0.1829855421881100  0.8300380640473793  0.5109202503422524
  0.1093198446526558  0.6366548827024334  0.7954296574338698
  0.9266414328714252  0.1653269543969980  0.9470686367355597
  0.0712158897090717  0.4346417332229293  0.6252306970283055
  0.5550774994587940  0.4058214036689525  0.2052549006873493
  0.8623138124112377  0.4890537446405256  0.2988982283284237
  0.7330667220985441  0.1971011654814299  0.2699635372003129
  0.3542618577333438  0.2277652983577649  0.5112166072521065
  0.5732420601216522  0.7226222584721000  0.7245733476741661
  0.0396084971672708  0.9042927638186145  0.5869764000000099
  0.6109754940618993  0.0944189418522785  0.9361155572147475
  0.0621954426243401  0.3377900076826614  0.4898040342513306
  0.7388360106833964  0.2221096675393848  0.4502784479490005
  0.6704246556427294  0.4101770530118278  0.8784335240731647
  0.1295184452264206  0.4252306229947364  0.1257270337022113
  0.1049683398411333  0.0892248365590126  0.1790690047038793
  0.6954542651034824  0.9770898929663532  0.7293919707652590
  0.4067417066074850  0.3129396422695814  0.3273409775514903
  0.0125819777656991  0.1444380494105278  0.7910080831517973
  0.5738431434407579  0.6427096057120664  0.3325903151026157
  0.2360939429841958  0.5023683663733087  0.5958233453991496
  0.7551418737087519  0.6859299148785398  0.5525391438689150
 
  0.00000000E+00  0.00000000E+00  0.00000000E+00
  0.00000000E+00  0.00000000E+00  0.00000000E+00
  0.00000000E+00  0.00000000E+00  0.00000000E+00
  0.00000000E+00  0.00000000E+00  0.00000000E+00
  0.00000000E+00  0.00000000E+00  0.00000000E+00
  0.00000000E+00  0.00000000E+00  0.00000000E+00
  0.00000000E+00  0.00000000E+00  0.00000000E+00
  0.00000000E+00  0.00000000E+00  0.00000000E+00
  0.00000000E+00  0.00000000E+00  0.00000000E+00
  0.00000000E+00  0.00000000E+00  0.00000000E+00
  0.00000000E+00  0.00000000E+00  0.00000000E+00
  0.00000000E+00  0.00000000E+00  0.00000000E+00
  0.00000000E+00  0.00000000E+00  0.00000000E+00
  0.00000000E+00  0.00000000E+00  0.00000000E+00
  0.00000000E+00  0.00000000E+00  0.00000000E+00
  0.00000000E+00  0.00000000E+00  0.00000000E+00
  0.00000000E+00  0.00000000E+00  0.00000000E+00
  0.00000000E+00  0.00000000E+00  0.00000000E+00
  0.00000000E+00  0.00000000E+00  0.00000000E+00
  0.00000000E+00  0.00000000E+00  0.00000000E+00
  0.00000000E+00  0.00000000E+00  0.00000000E+00
  0.00000000E+00  0.00000000E+00  0.00000000E+00
  0.00000000E+00  0.00000000E+00  0.00000000E+00
  0.00000000E+00  0.00000000E+00  0.00000000E+00
  0.00000000E+00  0.00000000E+00  0.00000000E+00
  0.00000000E+00  0.00000000E+00  0.00000000E+00
  0.00000000E+00  0.00000000E+00  0.00000000E+00
  0.00000000E+00  0.00000000E+00  0.00000000E+00
  0.00000000E+00  0.00000000E+00  0.00000000E+00
  0.00000000E+00  0.00000000E+00  0.00000000E+00
  0.00000000E+00  0.00000000E+00  0.00000000E+00
  0.00000000E+00  0.00000000E+00  0.00000000E+00
  0.00000000E+00  0.00000000E+00  0.00000000E+00
  0.00000000E+00  0.00000000E+00  0.00000000E+00
  0.00000000E+00  0.00000000E+00  0.00000000E+00
  0.00000000E+00  0.00000000E+00  0.00000000E+00
  0.00000000E+00  0.00000000E+00  0.00000000E+00
  0.00000000E+00  0.00000000E+00  0.00000000E+00
  0.00000000E+00  0.00000000E+00  0.00000000E+00
  0.00000000E+00  0.00000000E+00  0.00000000E+00
  0.00000000E+00  0.00000000E+00  0.00000000E+00
  0.00000000E+00  0.00000000E+00  0.00000000E+00
  0.00000000E+00  0.00000000E+00  0.00000000E+00
  0.00000000E+00  0.00000000E+00  0.00000000E+00
  0.00000000E+00  0.00000000E+00  0.00000000E+00
  0.00000000E+00  0.00000000E+00  0.00000000E+00
  0.00000000E+00  0.00000000E+00  0.00000000E+00
  0.00000000E+00  0.00000000E+00  0.00000000E+00
  0.00000000E+00  0.00000000E+00  0.00000000E+00
  0.00000000E+00  0.00000000E+00  0.00000000E+00
  0.00000000E+00  0.00000000E+00  0.00000000E+00
  0.00000000E+00  0.00000000E+00  0.00000000E+00
  0.00000000E+00  0.00000000E+00  0.00000000E+00
  0.00000000E+00  0.00000000E+00  0.00000000E+00
  0.00000000E+00  0.00000000E+00  0.00000000E+00
  0.00000000E+00  0.00000000E+00  0.00000000E+00
  0.00000000E+00  0.00000000E+00  0.00000000E+00
  0.00000000E+00  0.00000000E+00  0.00000000E+00
  0.00000000E+00  0.00000000E+00  0.00000000E+00
  0.00000000E+00  0.00000000E+00  0.00000000E+00
  0.00000000E+00  0.00000000E+00  0.00000000E+00
  0.00000000E+00  0.00000000E+00  0.00000000E+00
  0.00000000E+00  0.00000000E+00  0.00000000E+00
  0.00000000E+00  0.00000000E+00  0.00000000E+00
  0.00000000E+00  0.00000000E+00  0.00000000E+00
  0.00000000E+00  0.00000000E+00  0.00000000E+00
  0.00000000E+00  0.00000000E+00  0.00000000E+00
  0.00000000E+00  0.00000000E+00  0.00000000E+00
  0.00000000E+00  0.00000000E+00  0.00000000E+00
  0.00000000E+00  0.00000000E+00  0.00000000E+00
  0.00000000E+00  0.00000000E+00  0.00000000E+00
  0.00000000E+00  0.00000000E+00  0.00000000E+00
  0.00000000E+00  0.00000000E+00  0.00000000E+00
  0.00000000E+00  0.00000000E+00  0.00000000E+00
  0.00000000E+00  0.00000000E+00  0.00000000E+00
  0.00000000E+00  0.00000000E+00  0.00000000E+00
  0.00000000E+00  0.00000000E+00  0.00000000E+00
  0.00000000E+00  0.00000000E+00  0.00000000E+00
  0.00000000E+00  0.00000000E+00  0.00000000E+00
  0.00000000E+00  0.00000000E+00  0.00000000E+00
  0.00000000E+00  0.00000000E+00  0.00000000E+00
  0.00000000E+00  0.00000000E+00  0.00000000E+00
  0.00000000E+00  0.00000000E+00  0.00000000E+00
  0.00000000E+00  0.00000000E+00  0.00000000E+00
  0.00000000E+00  0.00000000E+00  0.00000000E+00
  0.00000000E+00  0.00000000E+00  0.00000000E+00
  0.00000000E+00  0.00000000E+00  0.00000000E+00
  0.00000000E+00  0.00000000E+00  0.00000000E+00
  0.00000000E+00  0.00000000E+00  0.00000000E+00
  0.00000000E+00  0.00000000E+00  0.00000000E+00
  0.00000000E+00  0.00000000E+00  0.00000000E+00
  0.00000000E+00  0.00000000E+00  0.00000000E+00
  0.00000000E+00  0.00000000E+00  0.00000000E+00
  0.00000000E+00  0.00000000E+00  0.00000000E+00
  0.00000000E+00  0.00000000E+00  0.00000000E+00
  0.00000000E+00  0.00000000E+00  0.00000000E+00
  0.00000000E+00  0.00000000E+00  0.00000000E+00
  0.00000000E+00  0.00000000E+00  0.00000000E+00
  0.00000000E+00  0.00000000E+00  0.00000000E+00
  0.00000000E+00  0.00000000E+00  0.00000000E+00
  0.00000000E+00  0.00000000E+00  0.00000000E+00
  0.00000000E+00  0.00000000E+00  0.00000000E+00
  0.00000000E+00  0.00000000E+00  0.00000000E+00
  0.00000000E+00  0.00000000E+00  0.00000000E+00
  0.00000000E+00  0.00000000E+00  0.00000000E+00
  0.00000000E+00  0.00000000E+00  0.00000000E+00
  0.00000000E+00  0.00000000E+00  0.00000000E+00
  0.00000000E+00  0.00000000E+00  0.00000000E+00
  0.00000000E+00  0.00000000E+00  0.00000000E+00
  0.00000000E+00  0.00000000E+00  0.00000000E+00
  0.00000000E+00  0.00000000E+00  0.00000000E+00
  0.00000000E+00  0.00000000E+00  0.00000000E+00
  0.00000000E+00  0.00000000E+00  0.00000000E+00
  0.00000000E+00  0.00000000E+00  0.00000000E+00
  0.00000000E+00  0.00000000E+00  0.00000000E+00
  0.00000000E+00  0.00000000E+00  0.00000000E+00
  0.00000000E+00  0.00000000E+00  0.00000000E+00
  0.00000000E+00  0.00000000E+00  0.00000000E+00
  0.00000000E+00  0.00000000E+00  0.00000000E+00
  0.00000000E+00  0.00000000E+00  0.00000000E+00
  0.00000000E+00  0.00000000E+00  0.00000000E+00
  0.00000000E+00  0.00000000E+00  0.00000000E+00
  0.00000000E+00  0.00000000E+00  0.00000000E+00
  0.00000000E+00  0.00000000E+00  0.00000000E+00
  0.00000000E+00  0.00000000E+00  0.00000000E+00
  0.00000000E+00  0.00000000E+00  0.00000000E+00
  0.00000000E+00  0.00000000E+00  0.00000000E+00
  0.00000000E+00  0.00000000E+00  0.00000000E+00
  0.00000000E+00  0.00000000E+00  0.00000000E+00
  0.00000000E+00  0.00000000E+00  0.00000000E+00
  0.00000000E+00  0.00000000E+00  0.00000000E+00
  0.00000000E+00  0.00000000E+00  0.00000000E+00
  0.00000000E+00  0.00000000E+00  0.00000000E+00
  0.00000000E+00  0.00000000E+00  0.00000000E+00
  0.00000000E+00  0.00000000E+00  0.00000000E+00
  0.00000000E+00  0.00000000E+00  0.00000000E+00
  0.00000000E+00  0.00000000E+00  0.00000000E+00
  0.00000000E+00  0.00000000E+00  0.00000000E+00
  0.00000000E+00  0.00000000E+00  0.00000000E+00
  0.00000000E+00  0.00000000E+00  0.00000000E+00
  0.00000000E+00  0.00000000E+00  0.00000000E+00
  0.00000000E+00  0.00000000E+00  0.00000000E+00
  0.00000000E+00  0.00000000E+00  0.00000000E+00
  0.00000000E+00  0.00000000E+00  0.00000000E+00
  0.00000000E+00  0.00000000E+00  0.00000000E+00
  0.00000000E+00  0.00000000E+00  0.00000000E+00
  0.00000000E+00  0.00000000E+00  0.00000000E+00
  0.00000000E+00  0.00000000E+00  0.00000000E+00
  0.00000000E+00  0.00000000E+00  0.00000000E+00
  0.00000000E+00  0.00000000E+00  0.00000000E+00
  0.00000000E+00  0.00000000E+00  0.00000000E+00
  0.00000000E+00  0.00000000E+00  0.00000000E+00
  0.00000000E+00  0.00000000E+00  0.00000000E+00
  0.00000000E+00  0.00000000E+00  0.00000000E+00
  0.00000000E+00  0.00000000E+00  0.00000000E+00
  0.00000000E+00  0.00000000E+00  0.00000000E+00
  0.00000000E+00  0.00000000E+00  0.00000000E+00
  0.00000000E+00  0.00000000E+00  0.00000000E+00
  0.00000000E+00  0.00000000E+00  0.00000000E+00
  0.00000000E+00  0.00000000E+00  0.00000000E+00
  0.00000000E+00  0.00000000E+00  0.00000000E+00
  0.00000000E+00  0.00000000E+00  0.00000000E+00
  0.00000000E+00  0.00000000E+00  0.00000000E+00
  0.00000000E+00  0.00000000E+00  0.00000000E+00
  0.00000000E+00  0.00000000E+00  0.00000000E+00
  0.00000000E+00  0.00000000E+00  0.00000000E+00
  0.00000000E+00  0.00000000E+00  0.00000000E+00
  0.00000000E+00  0.00000000E+00  0.00000000E+00
  0.00000000E+00  0.00000000E+00  0.00000000E+00
  0.00000000E+00  0.00000000E+00  0.00000000E+00
  0.00000000E+00  0.00000000E+00  0.00000000E+00
  0.00000000E+00  0.00000000E+00  0.00000000E+00
  0.00000000E+00  0.00000000E+00  0.00000000E+00
  0.00000000E+00  0.00000000E+00  0.00000000E+00
  0.00000000E+00  0.00000000E+00  0.00000000E+00
  0.00000000E+00  0.00000000E+00  0.00000000E+00
  0.00000000E+00  0.00000000E+00  0.00000000E+00
  0.00000000E+00  0.00000000E+00  0.00000000E+00
  0.00000000E+00  0.00000000E+00  0.00000000E+00
  0.00000000E+00  0.00000000E+00  0.00000000E+00
  0.00000000E+00  0.00000000E+00  0.00000000E+00
  0.00000000E+00  0.00000000E+00  0.00000000E+00
  0.00000000E+00  0.00000000E+00  0.00000000E+00
  0.00000000E+00  0.00000000E+00  0.00000000E+00
  0.00000000E+00  0.00000000E+00  0.00000000E+00
  0.00000000E+00  0.00000000E+00  0.00000000E+00
  0.00000000E+00  0.00000000E+00  0.00000000E+00
  0.00000000E+00  0.00000000E+00  0.00000000E+00
  0.00000000E+00  0.00000000E+00  0.00000000E+00
  0.00000000E+00  0.00000000E+00  0.00000000E+00
  0.00000000E+00  0.00000000E+00  0.00000000E+00
  0.00000000E+00  0.00000000E+00  0.00000000E+00
  0.00000000E+00  0.00000000E+00  0.00000000E+00
  0.00000000E+00  0.00000000E+00  0.00000000E+00
  0.00000000E+00  0.00000000E+00  0.00000000E+00
  0.00000000E+00  0.00000000E+00  0.00000000E+00
  0.00000000E+00  0.00000000E+00  0.00000000E+00
  0.00000000E+00  0.00000000E+00  0.00000000E+00
  0.00000000E+00  0.00000000E+00  0.00000000E+00
  0.00000000E+00  0.00000000E+00  0.00000000E+00
  0.00000000E+00  0.00000000E+00  0.00000000E+00
  0.00000000E+00  0.00000000E+00  0.00000000E+00
  0.00000000E+00  0.00000000E+00  0.00000000E+00
  0.00000000E+00  0.00000000E+00  0.00000000E+00
  0.00000000E+00  0.00000000E+00  0.00000000E+00
  0.00000000E+00  0.00000000E+00  0.00000000E+00
  0.00000000E+00  0.00000000E+00  0.00000000E+00
  0.00000000E+00  0.00000000E+00  0.00000000E+00
  0.00000000E+00  0.00000000E+00  0.00000000E+00
  0.00000000E+00  0.00000000E+00  0.00000000E+00
  0.00000000E+00  0.00000000E+00  0.00000000E+00
  0.00000000E+00  0.00000000E+00  0.00000000E+00
  0.00000000E+00  0.00000000E+00  0.00000000E+00
  0.00000000E+00  0.00000000E+00  0.00000000E+00
  0.00000000E+00  0.00000000E+00  0.00000000E+00
  0.00000000E+00  0.00000000E+00  0.00000000E+00
  0.00000000E+00  0.00000000E+00  0.00000000E+00
  0.00000000E+00  0.00000000E+00  0.00000000E+00
  0.00000000E+00  0.00000000E+00  0.00000000E+00
  0.00000000E+00  0.00000000E+00  0.00000000E+00
  0.00000000E+00  0.00000000E+00  0.00000000E+00
  0.00000000E+00  0.00000000E+00  0.00000000E+00
  0.00000000E+00  0.00000000E+00  0.00000000E+00
  0.00000000E+00  0.00000000E+00  0.00000000E+00
  0.00000000E+00  0.00000000E+00  0.00000000E+00
  0.00000000E+00  0.00000000E+00  0.00000000E+00
  0.00000000E+00  0.00000000E+00  0.00000000E+00
  0.00000000E+00  0.00000000E+00  0.00000000E+00
  0.00000000E+00  0.00000000E+00  0.00000000E+00
  0.00000000E+00  0.00000000E+00  0.00000000E+00
  0.00000000E+00  0.00000000E+00  0.00000000E+00
  0.00000000E+00  0.00000000E+00  0.00000000E+00