Cr40 Te112 Se8 (1x1x5)                  
   1.00000000000000     
     0.0000000000000000    7.7534434207894298    0.0000000000000000
    10.9189113562343643    0.0000000000000000    0.0000000000000000
     0.0000000000000000  -25.7997711704695085  -48.8142852210098965
   Cr   Te   Se
    40   112     8
Direct
  0.4994519079188850  0.0015653892742374  0.0279352061493573
  0.4979738511377383  0.4955865292195130  0.0701663630246094
  0.5011773193696336 -0.0002703479793336  0.1717664474356350
  0.5012435737547001  0.4994460771237284  0.1279253015931630
  0.5328188334778675  0.7499254758054570  0.0020399674763872
  0.4625169519510299  0.2532248995661913  0.0969391554451382
  0.4658454687338649  0.2482243171191634  0.1976725212586535
  0.5452711415668633  0.7469894173035860  0.1026887214824071
  0.5004683882955983 -0.0029291526697948  0.2281018050933205
  0.4976102861658867  0.4973075566195518  0.2715631053710806
  0.5020890024645387  0.0056309136363163  0.3722079564716571
  0.5009397891646669  0.5014204432506770  0.3281703978377435
  0.5427349185396453  0.7444965519884165  0.2025773770829777
  0.4580393153250435  0.2540787313106084  0.2978711769611271
  0.4573533361201250  0.2422851146396803  0.3961563636628608
  0.5369217334979238  0.7464571999341584  0.3023413059932116
  0.5002168282618313  0.0012399060626105  0.4285651462569016
  0.5028076958255993  0.5019424473143169  0.4720533487615628
  0.4982948007138271  0.0012355477957273  0.5712305150692281
  0.5015623383833577  0.5062155106503079  0.5280727854008764
  0.5400291656109014  0.7540937254379670  0.4029654203797962
  0.4675474093934622  0.2529915168071024  0.4975578422763089
  0.4609840251983821  0.2454969212605465  0.5973058265533755
  0.5460907967680673  0.7500351010071737  0.5042320265181038
  0.5001674558401328  0.9975334059298671  0.6276117834949415
  0.5006869991225011  0.4988905670381186  0.6718485705703570
  0.4979226640134232  0.0020824541403773  0.7720845665814653
  0.4991577269151997  0.5006836956464784  0.7285775409028465
  0.5399665103314848  0.7534678226819225  0.6016288733131592
  0.4593842976544620  0.2533130216079074  0.6974223293754523
  0.4568112038499349  0.2420852363130544  0.7988228793920348
  0.5398866328689120  0.7459374061894839  0.7025402165958615
  0.4990306138911146  0.0038798472489717  0.8282743800184924
  0.5029955841295022  0.5008461286604529  0.8731964329782583
  0.4978045540397869  0.0017696463810226  0.9716609985379182
  0.5019153717534032  0.5043688323125874  0.9278976403522402
  0.5362445769399549  0.7540790348265184  0.8028225512711886
  0.4594192644886470  0.2545094015680284  0.8971150960693234
  0.4564442106814821  0.2620080180314021 -0.0016020083354098
  0.5406043279537084  0.7393794373816277  0.9025695532777527
  0.7488322542128559  0.1097221640782004  0.0164391380597310
  0.2496996345832102  0.6033573691491206  0.0825799492850647
  0.2484162905725087  0.8933346488308042  0.1830803249344031
  0.7559846468305682  0.3968603993818369  0.1161833085742607
  0.7855674006887777  0.6581093907216227  0.1495816464149739
  0.2191858066663892  0.1594443086485190  0.1504778794078839
  0.2108505659043411  0.3395272945402301  0.0499385357010127
  0.7808034326556667  0.8426374647985841  0.0490418143866145
  0.7855247330858282  0.8414006551106842  0.1882595939823442
  0.2152672779048549  0.3435285366660595  0.1112751649015732
  0.2117344177406961  0.1584028065349006  0.0113420704256990
  0.7833630135731505  0.6535267419438240  0.0871032549234449
  0.6737600404823036  0.3817002649414708  0.1775474627257862
  0.3323042684006591  0.8757541958481738  0.1233334911405979
  0.3137354181260662  0.6180291964293627  0.0215171670694710
  0.6741252926584363  0.1272834411828267  0.0761287553237747
  0.7671803108626984  0.5618815593103342  0.0192390217646564
  0.2175468565599522  0.0674538710993702  0.0814526459829906
  0.2161326731453165  0.4310155871320721  0.1817872920905450
  0.7856370597567082  0.9348035935388035  0.1177743827588604
  0.3318018319360168  0.8752482219344103  0.0541357508695296
  0.3212589302136491  0.6229363350507829  0.1532865954364648
  0.6723761531082042  0.1266644177813501  0.1457428193282531
  0.7572875738344741  0.1010074657603056  0.2170400837652766
  0.2417227200180423  0.6009264702016480  0.2829558093316368
  0.2459704529904388  0.8998395383762871  0.3830308636367680
  0.7546549967093904  0.3963997897946839  0.3167601469787088
  0.7836007138855290  0.6597564373390471  0.3496412844119938
  0.2122741578532026  0.3406630126832290  0.2503672160821750
  0.7835886273894581  0.8384539951210895  0.2494836602041051
  0.7848246862720124  0.8450821793519320  0.3883409534570458
  0.2245498433344733  0.3397709405446319  0.3141082466011836
  0.2177679577351821  0.1566861434230501  0.2118195527288855
  0.7822947317242187  0.6556656025195402  0.2880488499268790
  0.6757872782553648  0.3776295798128350  0.3770138837994391
  0.3298510097196590  0.8778712855864839  0.3236834645078981
  0.3213915233794697  0.6235877968515740  0.2231550422653271
  0.6690526686719748  0.1250274570897522  0.2762226226554896
  0.2143548056369221  0.0688643699440125  0.2822087861969317
  0.2144585734385127  0.4296526869653393  0.3813071283051230
  0.7850343993342852  0.9320101678513268  0.3177002117594954
  0.6735111252916455  0.3804505386684094  0.2450391490648137
  0.3246329970446239  0.8757807083786220  0.2541631379310388
  0.3277574103880187  0.6247291563242783  0.3547147871657919
  0.6797863216500447  0.1244188346195867  0.3457619651285146
  0.7575976382132470  0.1044956055911421  0.4175608858030592
  0.2475238324019661  0.6069193081939140  0.4829750545958564
  0.2427627414922131  0.8966188678003570  0.5823765013660855
  0.7589175340397762  0.4009598906441450  0.5173714588290389
  0.2145807215190911  0.1587740199157949  0.5498482826577873
  0.2208281861431605  0.3415549186961456  0.4505449515722208
  0.7833869930968413  0.8413428037080672  0.4500650409630675
  0.7751285821385576  0.8388139119239849  0.5856565904131730
  0.2195077987127587  0.3447095159255295  0.5117572319744543
  0.2141278657146308  0.1562810066269718  0.4115494133936549
  0.7876906556028643  0.6591144602237877  0.4889991065816441
  0.6712732754978988  0.3765951590407554  0.5761456676768152
  0.3167203782763701  0.8771111797239829  0.5226090433446791
  0.3296141324740104  0.6238986471586412  0.4233227518400368
  0.6744580375283475  0.1190117561710808  0.4778648887817467
  0.7852679805495903  0.5677832140093314  0.4186610187732892
  0.2164313846845342  0.0696859909248507  0.4816808862314987
  0.2144846547161555  0.4308478071688561  0.5818933549788046
  0.6712724343063020  0.3736881995366656  0.4459233735739661
  0.3234269688580282  0.8765969065019809  0.4539510012686491
  0.3207758014509238  0.6236160722465207  0.5539836297121630
  0.6735031680480938  0.1176855880252747  0.5444295252731912
  0.7561711919918989  0.1014620354350240  0.6163810738529354
  0.2447855452268482  0.6024308229454023  0.6832054818819283
  0.2422154608321455  0.8999436034736216  0.7835192741540714
  0.7547651978881817  0.3969669812895406  0.7171579171797119
  0.7828183250769534  0.6584260474287996  0.7498134658973729
  0.2134140881130618  0.1589999324884923  0.7509752629293796
  0.2167065525035103  0.3414672662020281  0.6503353339957527
  0.7846202528336632  0.8406984518693400  0.6490674872066884
  0.7811108013668306  0.8433544798095236  0.7882084777456689
  0.2154277928096944  0.3430043572340798  0.7123134147778672
  0.2160811980630545  0.1549129411901539  0.6116116137965277
  0.7845792879281516  0.6561567368016187  0.6879316348609035
  0.6712410864765870  0.3764073503327021  0.7773469066665295
  0.3284920049941584  0.8759599705729887  0.7235079893356221
  0.3304433067474818  0.6240695522882870  0.6232689582631492
  0.6704492064824032  0.1234502691402656  0.6764499944964467
  0.7850103151590785  0.5680458048826310  0.6174537954801712
  0.2144763322484939  0.0684165847306489  0.6818617067280188
  0.2131932847862415  0.4294139875561268  0.7829676058940798
  0.7841382345416784  0.9312313412182025  0.7180882537706823
  0.6752004839089453  0.3753963077594597  0.6456229515237130
  0.3258352265420249  0.8751765779719584  0.6539645271499902
  0.3238436426650025  0.6226502485939532  0.7548558803048898
  0.6732340396392823  0.1249537150633361  0.7458795920713988
  0.7575159736876292  0.1039539845728763  0.8169415045910470
  0.2425377312578428  0.8986407810543029  0.9828875979093959
  0.7590901323146831  0.3957420520241172  0.9177811057258909
  0.7893849811714478  0.6587761467689381  0.9500894157164361
  0.2189425071089497  0.1647310820039510  0.9508136560136845
  0.2250153751610222  0.3392987103881596  0.8500275796046014
  0.7819255231146304  0.8434784717837682  0.8497262064927992
  0.7821433676973517  0.8421207751354244  0.9884325643111165
  0.2159401180767164  0.3470211098013374  0.9116728808390139
  0.7900770894195028  0.6537584576544202  0.8882712670266796
  0.6777378141777303  0.3782075347725461  0.9768299979107926
  0.3286079953811373  0.8718617953218393  0.9234142255906044
  0.3280689852872831  0.6245894223547063  0.8238347718083394
  0.6753206602018267  0.1232713733552481  0.8776519590153831
  0.7862208622128587  0.5693106763853089  0.8190009353907355
  0.2153086118377649  0.0679563227213930  0.8820766793174792
  0.7841310167675576  0.9285632177902140  0.9182604547806412
  0.6774730703357477  0.3769493338810497  0.8464267400920864
  0.3244918926767082  0.8754952062201764  0.8544284989709290
  0.3244353434164108  0.6219246882898446  0.9543364690247402
  0.6716854127517127  0.1224980505299970  0.9456662351997858
  0.6482916861061475  0.3786494175530202  0.0437278341060234
  0.2488644902219104  0.1580954824611052  0.3528939859931165
  0.7549723673864804  0.5684962218644850  0.2164389625221592
  0.7527088006084079  0.6603286363716190  0.5471718479098454
  0.7572955203270348  0.9295285477046500  0.5174457529616341
  0.2753174879265053  0.5984012990166254  0.8852014466519679
  0.2473612680561197  0.1569043265454153  0.8144012494593311
  0.2379265346811134  0.4339263093407238  0.9827975161514984
 
  0.00000000E+00  0.00000000E+00  0.00000000E+00
  0.00000000E+00  0.00000000E+00  0.00000000E+00
  0.00000000E+00  0.00000000E+00  0.00000000E+00
  0.00000000E+00  0.00000000E+00  0.00000000E+00
  0.00000000E+00  0.00000000E+00  0.00000000E+00
  0.00000000E+00  0.00000000E+00  0.00000000E+00
  0.00000000E+00  0.00000000E+00  0.00000000E+00
  0.00000000E+00  0.00000000E+00  0.00000000E+00
  0.00000000E+00  0.00000000E+00  0.00000000E+00
  0.00000000E+00  0.00000000E+00  0.00000000E+00
  0.00000000E+00  0.00000000E+00  0.00000000E+00
  0.00000000E+00  0.00000000E+00  0.00000000E+00
  0.00000000E+00  0.00000000E+00  0.00000000E+00
  0.00000000E+00  0.00000000E+00  0.00000000E+00
  0.00000000E+00  0.00000000E+00  0.00000000E+00
  0.00000000E+00  0.00000000E+00  0.00000000E+00
  0.00000000E+00  0.00000000E+00  0.00000000E+00
  0.00000000E+00  0.00000000E+00  0.00000000E+00
  0.00000000E+00  0.00000000E+00  0.00000000E+00
  0.00000000E+00  0.00000000E+00  0.00000000E+00
  0.00000000E+00  0.00000000E+00  0.00000000E+00
  0.00000000E+00  0.00000000E+00  0.00000000E+00
  0.00000000E+00  0.00000000E+00  0.00000000E+00
  0.00000000E+00  0.00000000E+00  0.00000000E+00
  0.00000000E+00  0.00000000E+00  0.00000000E+00
  0.00000000E+00  0.00000000E+00  0.00000000E+00
  0.00000000E+00  0.00000000E+00  0.00000000E+00
  0.00000000E+00  0.00000000E+00  0.00000000E+00
  0.00000000E+00  0.00000000E+00  0.00000000E+00
  0.00000000E+00  0.00000000E+00  0.00000000E+00
  0.00000000E+00  0.00000000E+00  0.00000000E+00
  0.00000000E+00  0.00000000E+00  0.00000000E+00
  0.00000000E+00  0.00000000E+00  0.00000000E+00
  0.00000000E+00  0.00000000E+00  0.00000000E+00
  0.00000000E+00  0.00000000E+00  0.00000000E+00
  0.00000000E+00  0.00000000E+00  0.00000000E+00
  0.00000000E+00  0.00000000E+00  0.00000000E+00
  0.00000000E+00  0.00000000E+00  0.00000000E+00
  0.00000000E+00  0.00000000E+00  0.00000000E+00
  0.00000000E+00  0.00000000E+00  0.00000000E+00
  0.00000000E+00  0.00000000E+00  0.00000000E+00
  0.00000000E+00  0.00000000E+00  0.00000000E+00
  0.00000000E+00  0.00000000E+00  0.00000000E+00
  0.00000000E+00  0.00000000E+00  0.00000000E+00
  0.00000000E+00  0.00000000E+00  0.00000000E+00
  0.00000000E+00  0.00000000E+00  0.00000000E+00
  0.00000000E+00  0.00000000E+00  0.00000000E+00
  0.00000000E+00  0.00000000E+00  0.00000000E+00
  0.00000000E+00  0.00000000E+00  0.00000000E+00
  0.00000000E+00  0.00000000E+00  0.00000000E+00
  0.00000000E+00  0.00000000E+00  0.00000000E+00
  0.00000000E+00  0.00000000E+00  0.00000000E+00
  0.00000000E+00  0.00000000E+00  0.00000000E+00
  0.00000000E+00  0.00000000E+00  0.00000000E+00
  0.00000000E+00  0.00000000E+00  0.00000000E+00
  0.00000000E+00  0.00000000E+00  0.00000000E+00
  0.00000000E+00  0.00000000E+00  0.00000000E+00
  0.00000000E+00  0.00000000E+00  0.00000000E+00
  0.00000000E+00  0.00000000E+00  0.00000000E+00
  0.00000000E+00  0.00000000E+00  0.00000000E+00
  0.00000000E+00  0.00000000E+00  0.00000000E+00
  0.00000000E+00  0.00000000E+00  0.00000000E+00
  0.00000000E+00  0.00000000E+00  0.00000000E+00
  0.00000000E+00  0.00000000E+00  0.00000000E+00
  0.00000000E+00  0.00000000E+00  0.00000000E+00
  0.00000000E+00  0.00000000E+00  0.00000000E+00
  0.00000000E+00  0.00000000E+00  0.00000000E+00
  0.00000000E+00  0.00000000E+00  0.00000000E+00
  0.00000000E+00  0.00000000E+00  0.00000000E+00
  0.00000000E+00  0.00000000E+00  0.00000000E+00
  0.00000000E+00  0.00000000E+00  0.00000000E+00
  0.00000000E+00  0.00000000E+00  0.00000000E+00
  0.00000000E+00  0.00000000E+00  0.00000000E+00
  0.00000000E+00  0.00000000E+00  0.00000000E+00
  0.00000000E+00  0.00000000E+00  0.00000000E+00
  0.00000000E+00  0.00000000E+00  0.00000000E+00
  0.00000000E+00  0.00000000E+00  0.00000000E+00
  0.00000000E+00  0.00000000E+00  0.00000000E+00
  0.00000000E+00  0.00000000E+00  0.00000000E+00
  0.00000000E+00  0.00000000E+00  0.00000000E+00
  0.00000000E+00  0.00000000E+00  0.00000000E+00
  0.00000000E+00  0.00000000E+00  0.00000000E+00
  0.00000000E+00  0.00000000E+00  0.00000000E+00
  0.00000000E+00  0.00000000E+00  0.00000000E+00
  0.00000000E+00  0.00000000E+00  0.00000000E+00
  0.00000000E+00  0.00000000E+00  0.00000000E+00
  0.00000000E+00  0.00000000E+00  0.00000000E+00
  0.00000000E+00  0.00000000E+00  0.00000000E+00
  0.00000000E+00  0.00000000E+00  0.00000000E+00
  0.00000000E+00  0.00000000E+00  0.00000000E+00
  0.00000000E+00  0.00000000E+00  0.00000000E+00
  0.00000000E+00  0.00000000E+00  0.00000000E+00
  0.00000000E+00  0.00000000E+00  0.00000000E+00
  0.00000000E+00  0.00000000E+00  0.00000000E+00
  0.00000000E+00  0.00000000E+00  0.00000000E+00
  0.00000000E+00  0.00000000E+00  0.00000000E+00
  0.00000000E+00  0.00000000E+00  0.00000000E+00
  0.00000000E+00  0.00000000E+00  0.00000000E+00
  0.00000000E+00  0.00000000E+00  0.00000000E+00
  0.00000000E+00  0.00000000E+00  0.00000000E+00
  0.00000000E+00  0.00000000E+00  0.00000000E+00
  0.00000000E+00  0.00000000E+00  0.00000000E+00
  0.00000000E+00  0.00000000E+00  0.00000000E+00
  0.00000000E+00  0.00000000E+00  0.00000000E+00
  0.00000000E+00  0.00000000E+00  0.00000000E+00
  0.00000000E+00  0.00000000E+00  0.00000000E+00
  0.00000000E+00  0.00000000E+00  0.00000000E+00
  0.00000000E+00  0.00000000E+00  0.00000000E+00
  0.00000000E+00  0.00000000E+00  0.00000000E+00
  0.00000000E+00  0.00000000E+00  0.00000000E+00
  0.00000000E+00  0.00000000E+00  0.00000000E+00
  0.00000000E+00  0.00000000E+00  0.00000000E+00
  0.00000000E+00  0.00000000E+00  0.00000000E+00
  0.00000000E+00  0.00000000E+00  0.00000000E+00
  0.00000000E+00  0.00000000E+00  0.00000000E+00
  0.00000000E+00  0.00000000E+00  0.00000000E+00
  0.00000000E+00  0.00000000E+00  0.00000000E+00
  0.00000000E+00  0.00000000E+00  0.00000000E+00
  0.00000000E+00  0.00000000E+00  0.00000000E+00
  0.00000000E+00  0.00000000E+00  0.00000000E+00
  0.00000000E+00  0.00000000E+00  0.00000000E+00
  0.00000000E+00  0.00000000E+00  0.00000000E+00
  0.00000000E+00  0.00000000E+00  0.00000000E+00
  0.00000000E+00  0.00000000E+00  0.00000000E+00
  0.00000000E+00  0.00000000E+00  0.00000000E+00
  0.00000000E+00  0.00000000E+00  0.00000000E+00
  0.00000000E+00  0.00000000E+00  0.00000000E+00
  0.00000000E+00  0.00000000E+00  0.00000000E+00
  0.00000000E+00  0.00000000E+00  0.00000000E+00
  0.00000000E+00  0.00000000E+00  0.00000000E+00
  0.00000000E+00  0.00000000E+00  0.00000000E+00
  0.00000000E+00  0.00000000E+00  0.00000000E+00
  0.00000000E+00  0.00000000E+00  0.00000000E+00
  0.00000000E+00  0.00000000E+00  0.00000000E+00
  0.00000000E+00  0.00000000E+00  0.00000000E+00
  0.00000000E+00  0.00000000E+00  0.00000000E+00
  0.00000000E+00  0.00000000E+00  0.00000000E+00
  0.00000000E+00  0.00000000E+00  0.00000000E+00
  0.00000000E+00  0.00000000E+00  0.00000000E+00
  0.00000000E+00  0.00000000E+00  0.00000000E+00
  0.00000000E+00  0.00000000E+00  0.00000000E+00
  0.00000000E+00  0.00000000E+00  0.00000000E+00
  0.00000000E+00  0.00000000E+00  0.00000000E+00
  0.00000000E+00  0.00000000E+00  0.00000000E+00
  0.00000000E+00  0.00000000E+00  0.00000000E+00
  0.00000000E+00  0.00000000E+00  0.00000000E+00
  0.00000000E+00  0.00000000E+00  0.00000000E+00
  0.00000000E+00  0.00000000E+00  0.00000000E+00
  0.00000000E+00  0.00000000E+00  0.00000000E+00
  0.00000000E+00  0.00000000E+00  0.00000000E+00
  0.00000000E+00  0.00000000E+00  0.00000000E+00
  0.00000000E+00  0.00000000E+00  0.00000000E+00
  0.00000000E+00  0.00000000E+00  0.00000000E+00
  0.00000000E+00  0.00000000E+00  0.00000000E+00
  0.00000000E+00  0.00000000E+00  0.00000000E+00
  0.00000000E+00  0.00000000E+00  0.00000000E+00
  0.00000000E+00  0.00000000E+00  0.00000000E+00
  0.00000000E+00  0.00000000E+00  0.00000000E+00
  0.00000000E+00  0.00000000E+00  0.00000000E+00
  0.00000000E+00  0.00000000E+00  0.00000000E+00
