GeSe                                    
   1.00000000000000     
    21.3760070481496456    0.0000000000000000    0.0000000000000000
     0.0000000000000000   21.3760070481496456    0.0000000000000000
     0.0000000000000000    0.0000000000000000   21.3760070481496456
   Ge   Se
    75   225
Direct
  0.7280338471754150  0.9099147126690444  0.0027772557570818
  0.4380921364385147  0.3195865808385917  0.7834282005803778
  0.4838641901117907  0.4233535458171424  0.1278373585029464
  0.7144640600937847  0.2071600214162649  0.5021534169753634
  0.8513795327786824  0.6360813053549021  0.7106661085302379
  0.3090992379173302  0.8155725106881014  0.8998643658391697
  0.9770439736141259  0.2906932363452298  0.2428753987068263
  0.6571419448634137  0.7497068172552469  0.9762733063618716
  0.2026169140246764  0.8746413572017111  0.3260013879707842
  0.1988040033879587 -0.0120173405131936  0.5061138238729639
  0.9639191788883004  0.9713008703792944  0.9239748406276405
  0.6876682371644612  0.7251137297999759  0.8005102080678977
  0.7343797114743215  0.4073123702108832  0.5188697957799995
  0.2433883636548279  0.0908405894036167  0.1830897443029859
  0.5685135014747770  0.0446746331782766  0.4616117893147244
  0.3139075047133424  0.9503431038983742  0.1191043546944933
  0.8470249734053293  0.5103524926642578  0.2045430371895005
  0.5797521564523999  0.2799212826035130  0.5769140082864981
  0.3362819428063651  0.7177262311823399  0.7013896465926069
  0.0861005749951252  0.6880515305931403  0.5023138394387607
  0.0824369544131495  0.3865076930467736  0.3159676243900464
  0.3170883903824843  0.8961094714657675  0.7167898068094896
  0.9938932371843944  0.4215745469889576  0.9264117388083396
  0.8940976728115679  0.2314995060003555  0.7975892821031750
  0.7099154812879154  0.4068112780652183  0.2719813840941282
  0.0775526854577740  0.8713683345256891  0.5642115229629825
  0.5927061652659326  0.8953273973112206  0.6628970173019261
  0.6915968678142961  0.0024046818083342  0.1309092352588028
  0.6684044554255398  0.4540219098824000  0.6841326195177259
  0.9627972806193237  0.8125041980697465  0.7621132804143702
  0.1383663812384761  0.3149386046090482  0.8915614992378249
 -0.0078417633635185  0.0922021970017504  0.0814953886909412
  0.8053302993039119  0.4951619090194437  0.6266658381159618
  0.2260723339875665  0.3748994870254901  0.3981868142068558
  0.2368982655542189  0.8192836925487903  0.5491756890760853
  0.8555126899250939  0.8038794284675821  0.9235070860822832
  0.2999065418577527  0.2204602538522378  0.8335231629361800
  0.5701613924605361  0.7371681932197599  0.3500067816797387
  0.3568921345395948  0.4126281317582073  0.6572395562994963
  0.7451142931078442  0.1396941719050875  0.8157520126671998
  0.8498665145065110  0.2407128887755898  0.1345196096998683
  0.9871113368051745  0.1163827948931908  0.3775388289094609
  0.4229056165883181  0.6925246583700267  0.4736772363512274
  0.2503159278803327  0.2079615072434288  0.9897494181887579
  0.1144361476321999  0.4618780391618276  0.4958773594729404
  0.6225294737191552  0.5419802253180580  0.3366016896853875
  0.1271851464520225  0.6150089777323841  0.0674903014201337
  0.2920239621900656  0.2424010292800587  0.6679776987935677
  0.1029788523465490  0.5551202734341766  0.7024267570384646
  0.5917828510966143  0.0819628358457842  0.2522549011265994
  0.1322367445627654  0.5224649466390656  0.8648944809335669
  0.9620414115495403  0.4718606696431437  0.2419150304302668
  0.7377832456949220  0.9943909352934857  0.7103780698105217
  0.4782495356463843  0.1776796480874007  0.8227086056307610
  0.0533581540632456  0.6112475857795039  0.1937129701720085
  0.0590828768216584  0.0127370916100673  0.3854325975726585
  0.9127565740197172  0.4026882082132545  0.5129790270024269
  0.7081413579509828  0.0608829891612794  0.3974115394539712
  0.2851353411274743  0.0258086878797731  0.9323666801191629
  0.3740883434544610  0.2278541491475021  0.2829181659795437
  0.6561229174264825  0.1739750735259513  0.9529305816320608
  0.3022003758949710  0.7802988335317463  0.4059294903598459
  0.7966938249227439  0.7594191792033448  0.4688427311171746
  0.9864457611859387  0.9438336819986785  0.1982264594255054
  0.4922927253793801  0.9252850010514775  0.1747180057194028
  0.8557730774024884  0.4051822701864224  0.0311285198856748
  0.7157444802259366  0.7747421778768957  0.6358829027422731
  0.0920101894853575  0.7048046358638533  0.7424182734640634
  0.5659796103848128  0.3022225577994030  0.0521988174281802
  0.0296720757804658  0.1572721058883739  0.8676055404083073
  0.8875820238547772  0.5207763169942627  0.8572540827729309
  0.6263067202179351  0.2518561627831634  0.2509615555649537
  0.4112100606392953  0.7180786589789940  0.2822329351505984
  0.3637786356981651  0.0117994046272565  0.2753670960462872
  0.6882784839444200  0.4661584978458080  0.9726269787167047
  0.7142406628874280  0.8288253690957920  0.4286200450176913
  0.1636489433426237  0.1972594280790583  0.0630389670948692
  0.0666389173978265  0.2404372642576834  0.9378104057825556
  0.2586631937095986  0.0016770100944279  0.8177065356301642
  0.4714316571837125  0.8692869988488772  0.8405103746929300
  0.7980805892339208  0.2044338544870784  0.7411301690806739
  0.2318362011326947  0.4888459958932579  0.8129411385207785
  0.1088656705232681  0.4134116517026262  0.9410933627433196
  0.7131213669978306  0.5565243702559241  0.6416003836672433
  0.0299927735390142  0.1286470918291025  0.5499584802098644
  0.8392844170119041  0.8982741016179330  0.9939092596202451
  0.6972193254417103  0.8745106305104113  0.1116123426571546
  0.5594881135505833  0.4602077576999756  0.3838939350282720
  0.6777553755024390  0.5838345560980924  0.9503332952799016
  0.1696101788877410  0.0258479430722520  0.3524270483399735
  0.4937945775205609  0.2456498853693667  0.7236072570130453
  0.4795212180078361  0.6020887672741982  0.6422014362609264
  0.7486751313990375  0.8216125658850759  0.8059704192581827
  0.3745194345763698  0.0526265073086312  0.6123631538936182
  0.6694937974652917  0.8599334113281558  0.5810342681512137
  0.6029659053646607  0.7217563705736227  0.8714027895167782
  0.3786997638534541  0.1192673640817879  0.7784323337899288
  0.0461401103471656  0.5399233433124575  0.4446055133756785
  0.1130958194593610  0.7950397238972353  0.4755584341681998
  0.1966322735708906  0.2212968103576431  0.7632742235998689
  0.0270768913939421  0.3870484019248731  0.1977252647638471
  0.6702691851066985  0.3859689047404696  0.8144380218733849
  0.9950060809358368  0.7049926435706009  0.2247437552805128
  0.6684852069112647  0.7283012913806334  0.2867884571268641
  0.6278209618887439  0.0054278344852167  0.6917237831795480
  0.0808310802165842  0.4660027674568912  0.7761336328684020
  0.0486497613208402  0.5388850290439958  0.2784511361470675
  0.4396509906688472  0.7214626817864874  0.1156943370699091
  0.9174004370998418  0.1568419373323341  0.8791318896846587
 -0.0201752595972590  0.7801232096221564  0.9744432668715649
  0.0204139680667640  0.6800021289503513  0.9372222847558404
  0.4376607645606486  0.6973593563691270  0.8793950197077276
  0.2765481974346612  0.8816031954325407  0.4502937494309748
  0.4440227369658823  0.3429339678736923  0.0505378510560557
  0.6270532736682964  0.6407095163022184  0.4044698257375705
  0.4634956154539736  0.9663555609483173  0.2827609793478625
  0.5543787452294601  0.3507092379019042  0.1924249187006933
  0.4565775304072188  0.7040663912257658  0.6882110041528899
  0.0577331831678277  0.2686294853064952  0.3169283834280969
  0.1905582907056259  0.9167306755910553  0.8335052449987707
  0.7250975993827525  0.4960768208116137  0.3428629978932327
  0.8898038240153423  0.1184835676315693  0.0285316512273848
  0.4124473538558827  0.7881308243399922  0.3737569498901241
  0.9515362548045835  0.9769494510103234  0.0917268250617333
  0.1640541265306835  0.0981339859996520  0.2661842927732478
  0.2548218763363431  0.8225698130739445  0.7988528206909551
  0.3927247087007265  0.8891415063601219  0.9180019126146837
  0.5033155283798755  0.9272368673381398  0.5750470675361606
  0.9554818071648685  0.3566460078108507  0.0090422849424561
  0.3631293694427780  0.5432944741975778  0.0811026359139739
  0.4693596565697994  0.4569336410676494  0.8821163460491118
  0.0158192991224781  0.9201561594657904  0.0198401991210815
  0.0634676082614473  0.9829250639281929  0.8600620409265529
  0.2639059387750353  0.4868450031598018  0.0743810489363301
  0.1667611097989151  0.6286816289711467  0.7772363801739886
  0.2692720636797280  0.3966644229304941  0.2340314564360096
  0.3291278635373343  0.3345129416337824  0.7454076303366203
  0.6535200289105222  0.3058131918895793  0.4932162255947927
  0.4772138139260979  0.4416001286069913  0.3132289568532645
  0.3825202575424666  0.5820180076779526  0.3800131199894387
  0.6021517172277828  0.5735639318713422  0.2282499370306778
  0.4099491702441044  0.5025443428841516  0.1702114515952046
  0.9419963607153082  0.9030135290811312  0.6095818678164155
 -0.0133562718021082  0.2432903187650614  0.7318975778197090
  0.5705421604057528  0.6162117015247252  0.5034391005572868
  0.9070159535603748  0.1996164505045801  0.2953036101507291
  0.5274109294812710  0.3755843995193351  0.6076794214935249
  0.2170715177249604  0.4897991054636412  0.3735023710381851
  0.2115067901027400  0.0962989952340007  0.5870609826802412
  0.1220742387422409  0.6870946245382016  0.9772290841137038
  0.8721253986333293  0.8425137045188600  0.1327860850799637
  0.5783315835435430  0.7209886083106646  0.5390745718957981
  0.9302968365739941  0.0270040139196732  0.2478365697199507
  0.7543811030634168  0.6261336963074488  0.7971494357400453
  0.5738393907896890  0.8114055675615259  0.0348796293070805
  0.9123516620339337  0.6502055054173653  0.3751179177096991
  0.6120110290759676  0.6205464846809122  0.0334495208567413
  0.5064168227621798  0.2043950731182158  0.5297943246274333
  0.8566846721338461  0.5031567993057576  0.0887139635762136
  0.0097552278906787  0.9118167654007383  0.3476312796322047
  0.0869805738932223  0.8325067633941466  0.3463112937832847
  0.0753646771384577  0.0712579423890833  0.9256955555829705
  0.0071451870444891  0.6380684549893380  0.7085982892479096
  0.1592212716929546  0.6653811656542734  0.5863874625949254
  0.9287416901296603  0.8503536613043577  0.2272636114719683
  0.4244914566620549  0.8515977985064891  0.7372474590770159
  0.6942333821061024  0.3285315498483821  0.9045562530895913
  0.3063024395601845  0.7070960664075905  0.4898007791617071
  0.2385663482988329  0.8673418644577217  0.9761584995766440
  0.6504470358297032  0.4041355710220171  0.1735064684646677
  0.7649732723055005  0.1750638580998138  0.9217778542285231
  0.4871790188645017  0.0302767233214407  0.6153179299515693
  0.2409230101882820  0.0314781087687698  0.0851308492807642
  0.9741820769952364  0.5303756308257386  0.9391397963247843
  0.3666176858730119  0.1392274917694313  0.3940770850143459
  0.2475916866657552  0.3044870210542887  0.9279909438224414
  0.3639135388744786  0.3371630103794844  0.2391817286060967
  0.3303406999242884  0.0357636076407317  0.3820101075010688
  0.2901780965164877  0.2140987518426461  0.3590499378358263
  0.7893915339894143  0.9181654618638518  0.1616741996722630
  0.9121231320761679  0.0742692893475400  0.6902727262692002
  0.6458294659293567  0.4865145510936426  0.8664176222847092
  0.8081672710504542  0.6636150831181471  0.4050339115238880
  0.5531287862844617  0.2179519622509939  0.3343002247143016
  0.0769471058641912  0.4482298953727778  0.6035075019836649
  0.3101049171105885  0.5377615227107053  0.8757649613858495
  0.8915254208282556  0.6626351094989766  0.0642714429305396
 -0.0065029046289577  0.9191473429449299  0.7053779749827361
  0.3874562683932483  0.0852973987431620  0.9181489039331445
  0.6940270737692732  0.5448656301551177  0.1730212568560889
  0.5168087986901116  0.5682323372874779  0.0157408917975748
  0.6849007483366403  0.1416814226374733  0.2383052989806356
  0.9211227537261046  0.3648462884513569  0.6224168193786564
  0.9097395354724104  0.0883666642713498  0.4593764664798795
  0.4020371347012097  0.1448454856849231  0.6687537433141516
  0.7751638854172342  0.0297542233965899  0.8117350072615873
  0.6452134048422057  0.2264524780521159  0.6514212053247319
  0.1153691459023450  0.6207693178854558  0.4155479680790694
  0.8893439157446179  0.3372054877642273  0.3094937862549232
  0.8029571152811515  0.7973068278512957  0.7076758432233281
  0.6951755128756348  0.0163887633555698  0.0150371845981578
  0.3940818311927743  0.5980654957826750  0.5724362475844108
  0.6335378542057845  0.1485379125268700  0.7972498432058562
  0.1153671871861181  0.1500827114100139  0.6137891164742155
  0.7920555442756734  0.7046951094367003  0.0381776253250757
  0.5470164351954276  0.7475918597263108  0.1233499297607187
  0.2308668626679223  0.7598520203450504  0.3222978352027498
  0.5182426251118942  0.9791603888892649  0.8523407970766960
  0.7643311195770008  0.3883271977732067  0.6355979929548522
  0.8967633750554856  0.8143735842043806  0.4768985510799373
  0.2884631350858362  0.9382393668752673  0.2303456755264401
  0.6016206873426080  0.4565054228355733  0.5880039578145803
  0.8619757816342495  0.9934098233575992  0.4286504294011872
  0.0284006747321088  0.3471223601303320  0.6000840651575022
  0.2740077920077149  0.1844686897505139  0.5361714357154578
  0.2146553567945096  0.1997896042231653  0.1609821463740267
  0.3523228327161001  0.1076125905981043  0.2136700571168972
  0.6495018120425906  0.1681779453329864  0.0663236407977269
  0.8063446257228966  0.4410211716564092  0.9364384099105417
  0.2377840247362190  0.1339742292990485  0.9046354512782967
  0.6895647145522926  0.3145749015089687  0.3300709953589859
  0.3725880451846787  0.2719213781839997  0.1080069155399150
  0.4338021963987816  0.6379877960835922  0.7879097894177470
  0.6135978440911490  0.0149155340026632  0.3468147583204766
  0.9638122471257058  0.7458567311701874  0.0818231782145386
  0.2795774192396606  0.8474278003938369  0.0786935961682588
  0.0715984776503398  0.7964530388907168  0.8028756608614216
  0.7372119528560799  0.7200857162301491  0.1366583230251120
  0.9250175545972446  0.6404366045256353  0.8064917964915957
  0.8660525633566521  0.3335741452875983  0.8372078417029494
  0.9219113795493943  0.8751758146190592  0.8550490938246774
  0.4689609200242865  0.0127245943561618  0.9427424719253387
  0.6835705084959496  0.0247063199666954  0.4995127420592800
  0.3651223588815568  0.4503464781614413  0.9173059521503862
  0.0363602417151404  0.1891137092224827  0.4553002983604120
  0.4767039645287212  0.4257188299196511  0.7758580945466863
  0.1227139156513606  0.8420535860707353  0.2287109667469244
  0.3816487429068900  0.4744459698585897  0.3613078304910756
  0.3536353587035117  0.1920556536544983  0.0317481571913337
  0.9454919079306732  0.7634361090768191  0.5624335680650733
  0.9628099528657910  0.2483531057531989  0.1344513255089864
  0.6709298076484521  0.8568813191652599  0.9227122664013072
  0.7248812414261141  0.8196235814318489  0.3201572706448196
  0.4746845954375685  0.7613523383437140  0.5590771090583504
  0.8151439544455350  0.0380715691385926  0.6295134052153308
  0.7963683825396946  0.0153301116909750  0.3428809711824825
  0.6389875866999947  0.7199101315722509  0.6985152895148958
  0.9584713462484911  0.3948086199747892  0.8200059968659106
  0.8271540870708489  0.6333157850984665  0.8824409672729947
  0.8156003267093496  0.2401194080535944  0.2456239340544557
  0.3377592846727105  0.8167893563539627  0.6293016730427516
  0.1561929910695500  0.6525365462595419  0.1702802992889589
  0.7168115276931889  0.1734614415813594  0.3939070328971231
  0.5472139925564207  0.4625785119744177  0.0398162174738089
  0.1013581168678639  0.9459081867054498  0.2031612330769721
  0.5017453308142318  0.1478496618381182  0.2660730077842401
  0.9022098995475047  0.6591427663615917  0.2614267524278782
  0.2442006624129358  0.4207943181091697  0.6285150660946978
  0.6146757680041434  0.0892475741200255  0.8888101382360580
  0.2224801052182547  0.4946060958999671  0.4843579558728993
  0.7617710266905677  0.7027551391291618  0.5618598653069855
  0.4300123840993099  0.2717014201088051  0.8830339835546170
  0.1119209833422069  0.3613773626111733  0.4443285607091879
  0.8151221484908633  0.1365391760143538  0.1072107940899939
  0.0819318401704114  0.9785402081318602  0.4950334239281900
  0.5977922959254777  0.2702655501791906  0.9261381781839149
  0.1378167599558095  0.7549412843433991  0.6484703078970719
  0.9782249953947325  0.6628452302856688  0.5258467736452677
  0.5132836510375904  0.6762447580700665  0.2674552942969752
  0.0274554680767275  0.5677018620856622  0.0920269229730668
  0.8186612507526706  0.3288124597322082  0.4730631695232835
  0.1489715457235456  0.3219255639804545  0.7800537482194247
  0.7948474490492160  0.3130751614441488  0.0665987338286643
  0.9698831051697875  0.1184424581138663  0.1944292696002841
  0.4633849662895165  0.2701934607256342  0.4537960513991445
  0.5716149794985925  0.0214539677116640  0.1571894365927311
  0.4178654659392486  0.9840469213383896  0.1007699548465521
  0.1936664198618150  0.3307062367008348  0.2843713690975333
  0.8153165002138126  0.2415155110930043  0.5412548545709585
  0.8167569342389174  0.9279606125452579  0.6592212686346395
  0.3332336210814563  0.6368043899457643  0.2958853032218942
  0.1994302362716769  0.3196885510406637  0.6286236056844005
  0.9194888551698684 -0.0050665439582064  0.7594752324686165
  0.3858026918641820  0.7829578737227476  0.1907700610927668
  0.3334212817483129  0.7066508731061004  0.9183917884630962
  0.3111153922501523  0.6170514804503507  0.6432450154845447
  0.3604808116181389  0.2978874991460764  0.4948236760360568
  0.5302597194209383  0.9327291351244617  0.4664154589751680
  0.5407018424771765  0.1909557249302715  0.0715424083838709
  0.3818162367801388  0.3075942338257688  0.6029639509874876
  0.6667937103817955  0.1396074133688980  0.5798524541507544
  0.7659413553303961  0.6290026919392160  0.1913722216679474
  0.8086101379862517  0.4001590132931798  0.2162603298995258
  0.2084080587002964  0.5565668806330107  0.0108115453768564
  0.2022089279678577  0.2653201672050325  0.5248226970953319
  0.8395544635568213  0.4984745413764013  0.5198111185974305
  0.0417823805416414  0.1508437995296786  0.7554078017799576
  0.8793212994874857  0.5212222860462868  0.7054585268634515
  0.9474742493362752  0.4243651764241020  0.3486293981391612
  0.1888900983435016  0.9193134431396127  0.6016015597920890
 
  0.00000000E+00  0.00000000E+00  0.00000000E+00
  0.00000000E+00  0.00000000E+00  0.00000000E+00
  0.00000000E+00  0.00000000E+00  0.00000000E+00
  0.00000000E+00  0.00000000E+00  0.00000000E+00
  0.00000000E+00  0.00000000E+00  0.00000000E+00
  0.00000000E+00  0.00000000E+00  0.00000000E+00
  0.00000000E+00  0.00000000E+00  0.00000000E+00
  0.00000000E+00  0.00000000E+00  0.00000000E+00
  0.00000000E+00  0.00000000E+00  0.00000000E+00
  0.00000000E+00  0.00000000E+00  0.00000000E+00
  0.00000000E+00  0.00000000E+00  0.00000000E+00
  0.00000000E+00  0.00000000E+00  0.00000000E+00
  0.00000000E+00  0.00000000E+00  0.00000000E+00
  0.00000000E+00  0.00000000E+00  0.00000000E+00
  0.00000000E+00  0.00000000E+00  0.00000000E+00
  0.00000000E+00  0.00000000E+00  0.00000000E+00
  0.00000000E+00  0.00000000E+00  0.00000000E+00
  0.00000000E+00  0.00000000E+00  0.00000000E+00
  0.00000000E+00  0.00000000E+00  0.00000000E+00
  0.00000000E+00  0.00000000E+00  0.00000000E+00
  0.00000000E+00  0.00000000E+00  0.00000000E+00
  0.00000000E+00  0.00000000E+00  0.00000000E+00
  0.00000000E+00  0.00000000E+00  0.00000000E+00
  0.00000000E+00  0.00000000E+00  0.00000000E+00
  0.00000000E+00  0.00000000E+00  0.00000000E+00
  0.00000000E+00  0.00000000E+00  0.00000000E+00
  0.00000000E+00  0.00000000E+00  0.00000000E+00
  0.00000000E+00  0.00000000E+00  0.00000000E+00
  0.00000000E+00  0.00000000E+00  0.00000000E+00
  0.00000000E+00  0.00000000E+00  0.00000000E+00
  0.00000000E+00  0.00000000E+00  0.00000000E+00
  0.00000000E+00  0.00000000E+00  0.00000000E+00
  0.00000000E+00  0.00000000E+00  0.00000000E+00
  0.00000000E+00  0.00000000E+00  0.00000000E+00
  0.00000000E+00  0.00000000E+00  0.00000000E+00
  0.00000000E+00  0.00000000E+00  0.00000000E+00
  0.00000000E+00  0.00000000E+00  0.00000000E+00
  0.00000000E+00  0.00000000E+00  0.00000000E+00
  0.00000000E+00  0.00000000E+00  0.00000000E+00
  0.00000000E+00  0.00000000E+00  0.00000000E+00
  0.00000000E+00  0.00000000E+00  0.00000000E+00
  0.00000000E+00  0.00000000E+00  0.00000000E+00
  0.00000000E+00  0.00000000E+00  0.00000000E+00
  0.00000000E+00  0.00000000E+00  0.00000000E+00
  0.00000000E+00  0.00000000E+00  0.00000000E+00
  0.00000000E+00  0.00000000E+00  0.00000000E+00
  0.00000000E+00  0.00000000E+00  0.00000000E+00
  0.00000000E+00  0.00000000E+00  0.00000000E+00
  0.00000000E+00  0.00000000E+00  0.00000000E+00
  0.00000000E+00  0.00000000E+00  0.00000000E+00
  0.00000000E+00  0.00000000E+00  0.00000000E+00
  0.00000000E+00  0.00000000E+00  0.00000000E+00
  0.00000000E+00  0.00000000E+00  0.00000000E+00
  0.00000000E+00  0.00000000E+00  0.00000000E+00
  0.00000000E+00  0.00000000E+00  0.00000000E+00
  0.00000000E+00  0.00000000E+00  0.00000000E+00
  0.00000000E+00  0.00000000E+00  0.00000000E+00
  0.00000000E+00  0.00000000E+00  0.00000000E+00
  0.00000000E+00  0.00000000E+00  0.00000000E+00
  0.00000000E+00  0.00000000E+00  0.00000000E+00
  0.00000000E+00  0.00000000E+00  0.00000000E+00
  0.00000000E+00  0.00000000E+00  0.00000000E+00
  0.00000000E+00  0.00000000E+00  0.00000000E+00
  0.00000000E+00  0.00000000E+00  0.00000000E+00
  0.00000000E+00  0.00000000E+00  0.00000000E+00
  0.00000000E+00  0.00000000E+00  0.00000000E+00
  0.00000000E+00  0.00000000E+00  0.00000000E+00
  0.00000000E+00  0.00000000E+00  0.00000000E+00
  0.00000000E+00  0.00000000E+00  0.00000000E+00
  0.00000000E+00  0.00000000E+00  0.00000000E+00
  0.00000000E+00  0.00000000E+00  0.00000000E+00
  0.00000000E+00  0.00000000E+00  0.00000000E+00
  0.00000000E+00  0.00000000E+00  0.00000000E+00
  0.00000000E+00  0.00000000E+00  0.00000000E+00
  0.00000000E+00  0.00000000E+00  0.00000000E+00
  0.00000000E+00  0.00000000E+00  0.00000000E+00
  0.00000000E+00  0.00000000E+00  0.00000000E+00
  0.00000000E+00  0.00000000E+00  0.00000000E+00
  0.00000000E+00  0.00000000E+00  0.00000000E+00
  0.00000000E+00  0.00000000E+00  0.00000000E+00
  0.00000000E+00  0.00000000E+00  0.00000000E+00
  0.00000000E+00  0.00000000E+00  0.00000000E+00
  0.00000000E+00  0.00000000E+00  0.00000000E+00
  0.00000000E+00  0.00000000E+00  0.00000000E+00
  0.00000000E+00  0.00000000E+00  0.00000000E+00
  0.00000000E+00  0.00000000E+00  0.00000000E+00
  0.00000000E+00  0.00000000E+00  0.00000000E+00
  0.00000000E+00  0.00000000E+00  0.00000000E+00
  0.00000000E+00  0.00000000E+00  0.00000000E+00
  0.00000000E+00  0.00000000E+00  0.00000000E+00
  0.00000000E+00  0.00000000E+00  0.00000000E+00
  0.00000000E+00  0.00000000E+00  0.00000000E+00
  0.00000000E+00  0.00000000E+00  0.00000000E+00
  0.00000000E+00  0.00000000E+00  0.00000000E+00
  0.00000000E+00  0.00000000E+00  0.00000000E+00
  0.00000000E+00  0.00000000E+00  0.00000000E+00
  0.00000000E+00  0.00000000E+00  0.00000000E+00
  0.00000000E+00  0.00000000E+00  0.00000000E+00
  0.00000000E+00  0.00000000E+00  0.00000000E+00
  0.00000000E+00  0.00000000E+00  0.00000000E+00
  0.00000000E+00  0.00000000E+00  0.00000000E+00
  0.00000000E+00  0.00000000E+00  0.00000000E+00
  0.00000000E+00  0.00000000E+00  0.00000000E+00
  0.00000000E+00  0.00000000E+00  0.00000000E+00
  0.00000000E+00  0.00000000E+00  0.00000000E+00
  0.00000000E+00  0.00000000E+00  0.00000000E+00
  0.00000000E+00  0.00000000E+00  0.00000000E+00
  0.00000000E+00  0.00000000E+00  0.00000000E+00
  0.00000000E+00  0.00000000E+00  0.00000000E+00
  0.00000000E+00  0.00000000E+00  0.00000000E+00
  0.00000000E+00  0.00000000E+00  0.00000000E+00
  0.00000000E+00  0.00000000E+00  0.00000000E+00
  0.00000000E+00  0.00000000E+00  0.00000000E+00
  0.00000000E+00  0.00000000E+00  0.00000000E+00
  0.00000000E+00  0.00000000E+00  0.00000000E+00
  0.00000000E+00  0.00000000E+00  0.00000000E+00
  0.00000000E+00  0.00000000E+00  0.00000000E+00
  0.00000000E+00  0.00000000E+00  0.00000000E+00
  0.00000000E+00  0.00000000E+00  0.00000000E+00
  0.00000000E+00  0.00000000E+00  0.00000000E+00
  0.00000000E+00  0.00000000E+00  0.00000000E+00
  0.00000000E+00  0.00000000E+00  0.00000000E+00
  0.00000000E+00  0.00000000E+00  0.00000000E+00
  0.00000000E+00  0.00000000E+00  0.00000000E+00
  0.00000000E+00  0.00000000E+00  0.00000000E+00
  0.00000000E+00  0.00000000E+00  0.00000000E+00
  0.00000000E+00  0.00000000E+00  0.00000000E+00
  0.00000000E+00  0.00000000E+00  0.00000000E+00
  0.00000000E+00  0.00000000E+00  0.00000000E+00
  0.00000000E+00  0.00000000E+00  0.00000000E+00
  0.00000000E+00  0.00000000E+00  0.00000000E+00
  0.00000000E+00  0.00000000E+00  0.00000000E+00
  0.00000000E+00  0.00000000E+00  0.00000000E+00
  0.00000000E+00  0.00000000E+00  0.00000000E+00
  0.00000000E+00  0.00000000E+00  0.00000000E+00
  0.00000000E+00  0.00000000E+00  0.00000000E+00
  0.00000000E+00  0.00000000E+00  0.00000000E+00
  0.00000000E+00  0.00000000E+00  0.00000000E+00
  0.00000000E+00  0.00000000E+00  0.00000000E+00
  0.00000000E+00  0.00000000E+00  0.00000000E+00
  0.00000000E+00  0.00000000E+00  0.00000000E+00
  0.00000000E+00  0.00000000E+00  0.00000000E+00
  0.00000000E+00  0.00000000E+00  0.00000000E+00
  0.00000000E+00  0.00000000E+00  0.00000000E+00
  0.00000000E+00  0.00000000E+00  0.00000000E+00
  0.00000000E+00  0.00000000E+00  0.00000000E+00
  0.00000000E+00  0.00000000E+00  0.00000000E+00
  0.00000000E+00  0.00000000E+00  0.00000000E+00
  0.00000000E+00  0.00000000E+00  0.00000000E+00
  0.00000000E+00  0.00000000E+00  0.00000000E+00
  0.00000000E+00  0.00000000E+00  0.00000000E+00
  0.00000000E+00  0.00000000E+00  0.00000000E+00
  0.00000000E+00  0.00000000E+00  0.00000000E+00
  0.00000000E+00  0.00000000E+00  0.00000000E+00
  0.00000000E+00  0.00000000E+00  0.00000000E+00
  0.00000000E+00  0.00000000E+00  0.00000000E+00
  0.00000000E+00  0.00000000E+00  0.00000000E+00
  0.00000000E+00  0.00000000E+00  0.00000000E+00
  0.00000000E+00  0.00000000E+00  0.00000000E+00
  0.00000000E+00  0.00000000E+00  0.00000000E+00
  0.00000000E+00  0.00000000E+00  0.00000000E+00
  0.00000000E+00  0.00000000E+00  0.00000000E+00
  0.00000000E+00  0.00000000E+00  0.00000000E+00
  0.00000000E+00  0.00000000E+00  0.00000000E+00
  0.00000000E+00  0.00000000E+00  0.00000000E+00
  0.00000000E+00  0.00000000E+00  0.00000000E+00
  0.00000000E+00  0.00000000E+00  0.00000000E+00
  0.00000000E+00  0.00000000E+00  0.00000000E+00
  0.00000000E+00  0.00000000E+00  0.00000000E+00
  0.00000000E+00  0.00000000E+00  0.00000000E+00
  0.00000000E+00  0.00000000E+00  0.00000000E+00
  0.00000000E+00  0.00000000E+00  0.00000000E+00
  0.00000000E+00  0.00000000E+00  0.00000000E+00
  0.00000000E+00  0.00000000E+00  0.00000000E+00
  0.00000000E+00  0.00000000E+00  0.00000000E+00
  0.00000000E+00  0.00000000E+00  0.00000000E+00
  0.00000000E+00  0.00000000E+00  0.00000000E+00
  0.00000000E+00  0.00000000E+00  0.00000000E+00
  0.00000000E+00  0.00000000E+00  0.00000000E+00
  0.00000000E+00  0.00000000E+00  0.00000000E+00
  0.00000000E+00  0.00000000E+00  0.00000000E+00
  0.00000000E+00  0.00000000E+00  0.00000000E+00
  0.00000000E+00  0.00000000E+00  0.00000000E+00
  0.00000000E+00  0.00000000E+00  0.00000000E+00
  0.00000000E+00  0.00000000E+00  0.00000000E+00
  0.00000000E+00  0.00000000E+00  0.00000000E+00
  0.00000000E+00  0.00000000E+00  0.00000000E+00
  0.00000000E+00  0.00000000E+00  0.00000000E+00
  0.00000000E+00  0.00000000E+00  0.00000000E+00
  0.00000000E+00  0.00000000E+00  0.00000000E+00
  0.00000000E+00  0.00000000E+00  0.00000000E+00
  0.00000000E+00  0.00000000E+00  0.00000000E+00
  0.00000000E+00  0.00000000E+00  0.00000000E+00
  0.00000000E+00  0.00000000E+00  0.00000000E+00
  0.00000000E+00  0.00000000E+00  0.00000000E+00
  0.00000000E+00  0.00000000E+00  0.00000000E+00
  0.00000000E+00  0.00000000E+00  0.00000000E+00
  0.00000000E+00  0.00000000E+00  0.00000000E+00
  0.00000000E+00  0.00000000E+00  0.00000000E+00
  0.00000000E+00  0.00000000E+00  0.00000000E+00
  0.00000000E+00  0.00000000E+00  0.00000000E+00
  0.00000000E+00  0.00000000E+00  0.00000000E+00
  0.00000000E+00  0.00000000E+00  0.00000000E+00
  0.00000000E+00  0.00000000E+00  0.00000000E+00
  0.00000000E+00  0.00000000E+00  0.00000000E+00
  0.00000000E+00  0.00000000E+00  0.00000000E+00
  0.00000000E+00  0.00000000E+00  0.00000000E+00
  0.00000000E+00  0.00000000E+00  0.00000000E+00
  0.00000000E+00  0.00000000E+00  0.00000000E+00
  0.00000000E+00  0.00000000E+00  0.00000000E+00
  0.00000000E+00  0.00000000E+00  0.00000000E+00
  0.00000000E+00  0.00000000E+00  0.00000000E+00
  0.00000000E+00  0.00000000E+00  0.00000000E+00
  0.00000000E+00  0.00000000E+00  0.00000000E+00
  0.00000000E+00  0.00000000E+00  0.00000000E+00
  0.00000000E+00  0.00000000E+00  0.00000000E+00
  0.00000000E+00  0.00000000E+00  0.00000000E+00
  0.00000000E+00  0.00000000E+00  0.00000000E+00
  0.00000000E+00  0.00000000E+00  0.00000000E+00
  0.00000000E+00  0.00000000E+00  0.00000000E+00
  0.00000000E+00  0.00000000E+00  0.00000000E+00
  0.00000000E+00  0.00000000E+00  0.00000000E+00
  0.00000000E+00  0.00000000E+00  0.00000000E+00
  0.00000000E+00  0.00000000E+00  0.00000000E+00
  0.00000000E+00  0.00000000E+00  0.00000000E+00
  0.00000000E+00  0.00000000E+00  0.00000000E+00
  0.00000000E+00  0.00000000E+00  0.00000000E+00
  0.00000000E+00  0.00000000E+00  0.00000000E+00
  0.00000000E+00  0.00000000E+00  0.00000000E+00
  0.00000000E+00  0.00000000E+00  0.00000000E+00
  0.00000000E+00  0.00000000E+00  0.00000000E+00
  0.00000000E+00  0.00000000E+00  0.00000000E+00