Amorphous GeAsSeSi                      
   1.00000000000000     
    18.6494314742347207    0.0000000000000000    0.0000000000000000
     0.0000000000000000   18.6494314742347207    0.0000000000000000
     0.0000000000000000    0.0000000000000000   18.6494314742347207
   Ge   As   Te   Si   N 
    60    60    60    60    60
Direct
  0.3385631152837689  0.7468726559123624  0.6643361580154163
  0.6970443042538008  0.0560921202547817  0.6234660607889140
  0.1326330323147289  0.3505238826936861  0.5991256750365750
  0.4060726249366482  0.5422035387343129  0.0459534643157014
  0.0688360883495136  0.0217536831154632  0.1687903302132554
  0.3769876900512301  0.3998377892587044  0.3044813251047174
  0.0002515095668656  0.8704655710782490  0.6067252155717213
  0.0349988272880566  0.2333796351544990  0.8130890082234714
  0.3221274336614641  0.8645715595355483  0.1624386887524736
  0.7029828155325575  0.2317574295330544  0.4862904849997491
  0.5198463901755375  0.7918798519732135  0.1668864559555416
  0.9013919874592133  0.6910482417059640  0.3003208504312695
  0.3019173139736395  0.2757156208836875  0.9395870196058382
  0.5116057670678700  0.8845749584078959  0.3625241618037975
  0.0499515773301198  0.5013647230930900  0.7676104443647276
  0.8678575167907070  0.7465520527016452  0.0255129546333279
  0.6922842497526176  0.9018907631578159  0.8095549570416551
  0.9481449834192190  0.2554372048735445  0.4603198910939241
  0.0591529436642304  0.7616582630628059  0.2435111340535201
  0.4162252676408897  0.1954708576648869  0.3226348276714788
  0.2828392926546286  0.0813876451053162  0.1448571818440456
  0.6015489978318413  0.0164339614679321  0.7611974168364881
  0.7406438800019330  0.6906252010447602  0.6528114761433699
  0.2057587331185218  0.8610623382647518  0.8659590058412121
  0.3394832273787642  0.7634361594901620  0.2787074455992027
  0.5097338803166664  0.1728973503814046  0.8860281481375551
  0.4763921179224297  0.3625856526894395  0.9212575769986131
  0.9307605773010579  0.3686424036059535  0.8682519859946964
  0.2876536427043206  0.0516338070367439  0.7525509346464858
  0.9957008037222366  0.3652990963949350  0.3380171819049806
  0.5200170257062240  0.4590982119617948  0.1992350483257326
  0.8265425095754892  0.0208066090304726  0.7114314787568716
  0.4847511264506323  0.3121540127892501  0.2653347795410497
  0.6844914379371403  0.0663296018821882  0.1820421686975138
  0.1058261589245078  0.5960362051520747  0.5149183233163868
  0.7812969825763005  0.3249494012038028  0.3526743416394424
  0.2332936763773503  0.4365264500221286  0.0208404338565060
  0.0374444609661637  0.0100121329316138  0.9117091670508444
  0.6649766675749831  0.7907333644201628  0.6048099605436477
  0.2965765058227987  0.2730701321994360  0.7280985340494439
  0.5657415234269791  0.4550129167950345  0.5263925034268837
  0.8256221642467452  0.2338322186166124  0.6831951048960434
  0.5185941311103477  0.8604277806746339  0.6909611396310567
  0.4751273886637719  0.9778391378418334  0.8577591287643713
  0.6851467372116460  0.7702595502701755  0.8568290463173867
  0.6472896300158624  0.3663241779957005  0.3378644957101855
  0.0746045679061851  0.9047428162013347  0.7519502643051723
  0.7255053083091525  0.5471917463412055  0.3497816986673925
  0.2135598038420099  0.9174803361834023  0.7385901277314062
  0.8200641522043810  0.7776325047158252  0.3882428986234459
  0.9107682446098906  0.4809165408698419  0.2025002638187914
  0.9581812004254928  0.9738094888465767  0.2245117265819658
  0.8372006892095172  0.8408725409827227  0.6699124395859428
  0.0484674022905907  0.4124817561269936  0.5022537126038102
  0.6579066014252604  0.1142450375305017  0.3769918085523827
  0.4919274313685094  0.5009791855207837  0.7891658747857662
  0.4294282819742392  0.1062251750831038  0.1123718019351401
  0.7963604960768293  0.1183554483782601  0.0345387150555609
  0.2354164105341852  0.7274968666075452  0.9009101366476315
  0.4566610301355638  0.8534951752563344  0.9955497850678157
  0.8930277487759071  0.4298243315452481  0.4164294939043955
  0.7249753399587036  0.4060666848856158  0.7886243408810785
  0.9409858742442267  0.2941325475153747  0.6300674435478086
  0.6140121856938023  0.9694478863589282  0.1090107641539788
  0.6301787965645431  0.7576879824253950  0.0952725572864068
  0.7944886886436464  0.4448542698111098  0.2782410260430552
  0.7096622446691541  0.8956194855152191  0.6728019392801912
  0.7255053778796778  0.5792309975195309  0.5689122441225081
  0.4324252006962439  0.7429220192924362  0.0744169514023127
  0.0585748173235672  0.3580068589937824  0.1427207844934699
  0.4946308766690848  0.7587141543945393  0.2992615644890790
  0.0061137745810669  0.0267522942469824  0.7753660659475443
  0.9763386676485979  0.1781745482698867  0.5677374818905534
  0.8429293346995408  0.5836475053765042  0.1341881339612101
  0.1643376208447549  0.3278424006343315  0.0626511888768349
  0.5113234671188138  0.9254625127119667  0.1841431733948866
  0.4094811368062139  0.3293432373916190  0.7879891835238695
  0.6134870269634902  0.1375434208019399  0.5441002431435393
  0.5937531889991590  0.6002052323806879  0.9564084359080525
  0.1717265831756833  0.8458952492089651  0.3099680551136004
  0.4139056871531253  0.9438255168829102  0.0953727852825210
  0.5930803591853220  0.3640747746002120  0.8491378885366103
  0.5543138832379313  0.8706576526938861  0.8211057235733605
  0.2569346463708158  0.6632514689947371  0.5278227704863596
  0.9594531485338536  0.9607751125357993  0.0136021369321213
  0.3369560780380638  0.6708857562389312  0.4200222357899435
  0.6379238293909992  0.3174847440387794  0.2070559092307391
  0.5586559564991731  0.7620327950352603  0.9024651787131859
  0.6060578363773033  0.6838330338837793  0.3299628340807672
  0.3558773313532129  0.4118572539837686  0.0676459923650370
  0.0766398501556012  0.8773523671092391  0.8833495095032546
  0.5500085919557094  0.0593687988031490  0.4503319943409210
  0.5604120668890715  0.0560071095817491  0.9303394365142452
  0.3048385722642166  0.3770551598134162  0.1866553938980431
  0.2494166843011669  0.8392981751695459  0.0475400708826257
  0.4309928453753145  0.2464597209947996  0.9755076285342241
  0.3528477535637080  0.9393500921018685  0.8155165924091179
  0.5957412852757642  0.8497181981460429  0.0008989387951956
  0.8472415669364253  0.9171728329852016  0.9438094599897582
  0.6854715728597540  0.7885096708025614  0.3604370290165093
  0.9874847662743989  0.2779466938368742  0.0558303506707318
  0.3602427062789317  0.6030277778478208  0.5951812963125676
  0.8526458610326770  0.8790887221258146  0.3041086983189913
  0.9071089991905197  0.1480119234595776  0.1806341599226400
  0.9108793728143212  0.2548108275811956  0.3323319525640613
  0.2644204715494425  0.1743259935379342  0.8508006871481300
  0.7417154862701665  0.2415407280768065  0.2458400059971098
  0.5403613056277550  0.6592133733018457  0.0714761651857572
  0.6257709856605729  0.8807421824309287  0.2836558434021583
  0.9439591441190913  0.6733597297338321  0.1184628525863616
  0.7144549426119511  0.6292627681395118  0.0137274867602954
  0.5350787878998133  0.3213628328486138  0.7363949139606234
  0.4371063735525311  0.5832541998318561  0.3915051326955066
  0.4607435211943738  0.4623945333347876  0.4447265493815991
  0.1192080717787078  0.2740416050485734  0.4366144778195533
  0.3500476009921485  0.5336702539055622  0.3002914453423244
  0.4487462270290905  0.2522953135982746  0.1443307519038157
  0.1610163028439473  0.5311198967372306  0.0853278638408952
  0.2581226997421311  0.3728315230902624  0.3671343337639357
  0.2550895023806277  0.3996050479109741  0.8936274685461214
  0.0904899332944069  0.4102304528892162  0.9040854326186434
  0.2425971422779298  0.6777348601355513  0.1863787360237623
  0.5844563611157412  0.5229728695362255  0.6518812373399783
  0.5799589828311085  0.6680257216375836  0.4720041272059348
  0.8105265974307727  0.1467661495201824  0.5654082701801997
  0.3784840422867859  0.8874447878908498  0.6509555028460596
  0.0224435475732889  0.4767879049212169  0.0717168923556244
  0.7721513164752878  0.6539473985010886  0.2321171471564156
  0.1432501045145642  0.2509206367773871  0.2517256510238823
  0.9327223362356847  0.1252890315722297  0.9684456337966907
  0.8310964397306648  0.6094790198605153  0.4642812108950665
  0.1111918951945583  0.3544615494043057  0.7464080361088818
  0.8621597007681316  0.4046351940383772  0.7368915402811567
  0.8439090513974037  0.3321725896394412  0.5199790152825727
  0.8152439819173125  0.3017958219560839  0.9342819618074856
  0.2818649540361235  0.6121757088726056  0.9958722212448095
  0.4494786520175893  0.6433162054048367  0.8064991503582561
  0.1354114227063974  0.4944855257323226  0.4208226239494337
  0.2959832247449867  0.8437832015298170  0.4061439460240877
  0.3903372858616123  0.4768394137474914  0.9078606022489311
  0.8807416057173398  0.0509731728176845  0.3931937455115602
  0.1217075910412788  0.2070915410038339  0.5645585863641926
  0.8843556999561955  0.9168141565297176  0.8036459365988549
  0.6760600971566149  0.6410589559012365  0.7805711501518005
  0.1105239978381860  0.6961966434397127  0.9948414580685139
  0.1818598547845554  0.0166464953339656  0.5943334933576025
  0.3619674804701845  0.1007150798086158  0.9239083806482640
  0.8824491817143780  0.1379517483691188  0.7813403507325916
  0.1199866336044266  0.7026195990237127  0.4167539601158694
  0.9866580801247480  0.5839295684987604  0.9184411046362229
  0.7130905777561125  0.9904414944163591  0.3171833476701593
  0.6441602531650901  0.5283180884115879  0.1501053773262910
  0.3109589144407821  0.0168388481582227  0.3216911789240271
  0.8318700764770526  0.2761220687567345  0.1381543745770202
  0.4593256731343942  0.0706018278472484  0.2580591795796892
  0.7147727300207194  0.9833626146446264  0.4894707938349825
  0.1893638788475940  0.4655179166579657  0.2120827713266067
  0.9405332983268622  0.0012795328353619  0.6111750402188889
  0.8420118952514244  0.0240945936495436  0.1486400366130312
  0.9669248385425462  0.5615256622863001  0.3107519436915993
  0.6993615516672946  0.4491896408172096  0.4753112102330945
  0.5827497300186053  0.4953681502207132  0.3283060855277071
  0.5600710251185106  0.2780061781357261  0.4163198667670400
  0.6754220209479271  0.1494683471199991  0.7613882865723411
  0.8243790665088397  0.8710181580824283  0.5054409989016193
  0.3674423156545998  0.7877540123303390  0.8126664331259406
  0.6391740464358620  0.2409760743813294  0.9130353535600051
  0.2886378389949940  0.9583859302106816  0.9401125767368086
  0.6781572512072245  0.3098189124035216  0.6234938693673797
  0.5409914590621767  0.3852598011875514  0.0505022478069748
  0.1143234794316967  0.1213348361902717  0.7528008421643406
  0.8085460763913872  0.8448414931899322  0.1096516508635048
  0.1068478409851110  0.6167255325760337  0.2425131094461364
  0.7441978663223239  0.0154145983491603  0.9472560492164916
  0.4361737535419437  0.5819744883606575  0.1970030327851688
  0.5874446277073773  0.1545990967785471  0.2533293221959809
  0.4159035866232088  0.7726622583204303  0.4792557258874766
  0.9379703724306481  0.7580352959964998  0.5251196138278615
  0.5422925155182625  0.7281895729494678  0.6494889515253988
  0.6462894554641210  0.1711407938394842  0.0676529390123122
  0.0184254111475681  0.8010330013914313  0.9690560013452085
  0.1513326032983002  0.1520803004941769  0.9178608679387779
  0.3617248570244342  0.5745999922187295  0.7254480278743145
  0.2004514964143809  0.6025858802366955  0.7786366862239760
  0.1956126910197256  0.9449385294156158  0.1020730078640284
  0.4352991193887021  0.9692857051058184  0.5545214882833420
  0.4559813565662481  0.0692978496819663  0.6968724100681882
  0.2173993403575665  0.8032878797669198  0.6734678026998751
  0.8853964359014981  0.4872274876749714  0.9131207874432903
  0.9236252209106937  0.7018722149847463  0.8769742692449896
  0.1938097976159057  0.7954746599333475  0.4966409312252864
  0.7208058274908495  0.4112854591319390  0.1760524124420897
  0.0193329747862023  0.7423765710235344  0.7306154145974375
  0.7019329533032703  0.4524314302286996  0.6748257355222975
  0.5090690694285342  0.1838573902404548  0.6001329871021568
  0.2230706854909457  0.4811941430919120  0.7383405712709745
  0.9434397392110796  0.1341527853279629  0.3068873787641664
  0.2567063319506317  0.2505761104944284  0.3304521488334942
  0.1452055857661705  0.0849279459116161  0.0366864242469447
  0.2035652486278536  0.9575739309903355  0.2589495854269472
  0.7648358803627033  0.5262619150946719  0.9601186261705053
  0.5521559876036264  0.9413773679171200  0.5100537384851691
  0.8485677404670611  0.5313379639291185  0.6815724759783279
  0.0914936201506507  0.0444371491842404  0.3304942168082832
  0.0000421700962008  0.1522715814205355  0.0862413363072605
  0.9651448876007152  0.9371490281882586  0.3539799953477640
  0.0979119943401159  0.1762695238252405  0.3539706845322144
  0.2847625158531955  0.0563962884492497  0.5103158820999667
  0.1245166957508417  0.8940105813941557  0.5648403670092037
  0.7795729501724580  0.4051712377284602  0.0164464051941877
  0.3567947469539732  0.1513726885927014  0.6167428453999193
  0.7730771846905000  0.7149438556476539  0.9379481054024197
  0.8038076816808655  0.6069212606505943  0.8220456841685291
  0.9078062047277911  0.8237110167166861  0.2028760517676673
  0.5626057997321467  0.3266258975872702  0.5471696133507749
  0.2378578040985388  0.1013439615392429  0.4010190604643711
  0.9340397952499515  0.5432244802908244  0.5261645893781548
  0.1472717970216451  0.7193289809421088  0.7392669420927405
  0.9889348896287515  0.7639497681529335  0.3921400928390497
  0.0829145118090366  0.2910526415129624  0.9681325585550624
  0.8936849429676812  0.6874243726826492  0.7221233986549223
  0.5496832955202748  0.0702265182650237  0.0592917010642395
  0.3764015409146850  0.4432348314507308  0.5359239819374579
  0.1669558772651385  0.7593748802607365  0.1043923234543485
  0.5438687262600084  0.1948841123683565  0.7599858308115373
  0.2932313739015697  0.3621925886538762  0.4902836446202627
  0.3224028121048406  0.2013841839955006  0.4730197117637118
  0.3281975614355801  0.2441969778295032  0.1834678127791065
  0.4302230340335953  0.1000307268362306  0.4803701248607055
  0.9890556293890214  0.6020924928603009  0.6313593186002890
  0.3989724175647851  0.2947019864322939  0.5873136903007534
  0.3773296394391750  0.4143415501809713  0.6983329996041903
  0.0461788293043952  0.8677219206125528  0.1189393783874237
  0.6232093577172293  0.4862433874093810  0.0177872934868830
  0.2543801862434236  0.4520029397498888  0.6091982240489884
  0.0924178806234934  0.8923439998527414  0.3955881637432981
  0.1361476101720669  0.5741396548471016  0.6416064500483643
  0.2389556229472660  0.2251143073340032  0.0478048400462399
  0.5681284244211611  0.9712588425321158  0.6332665200015839
  0.6272237688575473  0.7996980045511179  0.4767991499204172
  0.2831106504970862  0.4184595328693916  0.6968471781845125
  0.9464654950513776  0.7272367218935258  0.7916853377314723
  0.7657007655971242  0.5137327244605601  0.6411764059141518
  0.9392306431105624  0.7331632188283592  0.2050574040062969
  0.3562710802849836  0.2385074509776786  0.6484158038914956
  0.1156481359514814  0.0678121561706746  0.9473771538521873
  0.2947100437211461  0.1441072435785173  0.5458566611516247
  0.0059194551599333  0.8552650041132992  0.3855412399258711
  0.0215988911404850  0.8315719148635736  0.7001938562871644
  0.1033733257794012  0.9413255960599116  0.1155823354633227
  0.4961436466532021  0.0360274240349980  0.7738692629045332
  0.0907806657705166  0.7907546487272938  0.1463755900243697
  0.5009043799577668  0.1538630870178253  0.6882867576820146
  0.3988531761132634  0.3853494270549263  0.6099659265801307
  0.2524092405556999  0.1965922064954739  0.4085235020481335
  0.9370566869177992  0.7646525134089259  0.9443171197650599
  0.0339544092701729  0.1181744798193307  0.3164247294251084
  0.3891570367356536  0.1580399181638796  0.4208992206879856
  0.0057284947622023  0.6014802114129409  0.5381341087979123
  0.1485499337350689  0.1001973742298574  0.3798287011855379
  0.0526109180837935  0.5537187556735645  0.6752255921406416
  0.2451833100274357  0.9359405178439673  0.1801106852936911
  0.2118914687954074  0.0333989053880899  0.0751986990838276
  0.3468595254447138  0.2847145891875584  0.5062809165896454
  0.9582216515897031  0.4623051548412676  0.4898654143972294
  0.0765906850506397  0.0994841767474242  0.1010164381812046
  0.2801479333048746  0.5553029844129895  0.7657296487323677
  0.3626219043097905  0.0864613798136205  0.6847986080932671
  0.3199443314973962  0.5077403987856854  0.5710910286818205
  0.7707151672179720  0.3798726394720262  0.1046104788980813
  0.8243180892658444  0.7378776198124086  0.6875425533439170
  0.7048876152744796  0.4567368239079386  0.9825738409760163
  0.8326928037126535  0.6807533820708471  0.8718799360429443
  0.1805351497284562  0.8208560330086527  0.5876426635728791
  0.2756104073672958  0.1922067081270811  0.1255007623368769
  0.9808272782831580  0.8795878991675892  0.1850638770566206
  0.9719071453858064  0.6849479442033370  0.6688661377726390
  0.3751294361961186  0.0231308527600049  0.5041571543425292
  0.1862946785875295  0.6840516311941087  0.8201815107152441
  0.4824514155283950  0.0147462884370029  0.6245950658176582
  0.3224794545038279  0.2173222412888549  0.2741007128839286
  0.4931529242332928  0.2755098032379308  0.5849797007840394
  0.8572085477381108  0.6014867633573786  0.7449482439699366
  0.0284594835437204  0.3263428087303950  0.4405023671801729
  0.1351539528725070  0.8736476527631467  0.4749604546052666
  0.0035514169227113  0.8618007735481257  0.0360646156049711
  0.1542832219443611  0.5206511075312434  0.7925630778103638
  0.0533039072828529  0.9763031379171494  0.3784870648629024
  0.1831051407844342  0.1646512579708244  0.0074741543389791
  0.8391101294992183  0.4769555978818758  0.9960503889377748
  0.8072837351201585  0.5321669374986229  0.8760332034557052
  0.9105163306924524  0.5514948468426581  0.6178249088414489
  0.1730235866468774  0.6405038237036607  0.6939409306768951
  0.4345884858308153  0.1458426373101460  0.5617730198052016
  0.4135886679984893  0.4967203927998085  0.7186635343554713
  0.0958888449805784  0.2259010654495484  0.9026726624077241
  0.1872148073647395  0.4981829954572206  0.6495853861601617
  0.5632775235362999  0.8646363486364095  0.4599705530175058
  0.1340196633131967  0.0201693139977195  0.2504209245911113
  0.2262895875761686  0.3806075902707278  0.5555295125008541
 
  0.00000000E+00  0.00000000E+00  0.00000000E+00
  0.00000000E+00  0.00000000E+00  0.00000000E+00
  0.00000000E+00  0.00000000E+00  0.00000000E+00
  0.00000000E+00  0.00000000E+00  0.00000000E+00
  0.00000000E+00  0.00000000E+00  0.00000000E+00
  0.00000000E+00  0.00000000E+00  0.00000000E+00
  0.00000000E+00  0.00000000E+00  0.00000000E+00
  0.00000000E+00  0.00000000E+00  0.00000000E+00
  0.00000000E+00  0.00000000E+00  0.00000000E+00
  0.00000000E+00  0.00000000E+00  0.00000000E+00
  0.00000000E+00  0.00000000E+00  0.00000000E+00
  0.00000000E+00  0.00000000E+00  0.00000000E+00
  0.00000000E+00  0.00000000E+00  0.00000000E+00
  0.00000000E+00  0.00000000E+00  0.00000000E+00
  0.00000000E+00  0.00000000E+00  0.00000000E+00
  0.00000000E+00  0.00000000E+00  0.00000000E+00
  0.00000000E+00  0.00000000E+00  0.00000000E+00
  0.00000000E+00  0.00000000E+00  0.00000000E+00
  0.00000000E+00  0.00000000E+00  0.00000000E+00
  0.00000000E+00  0.00000000E+00  0.00000000E+00
  0.00000000E+00  0.00000000E+00  0.00000000E+00
  0.00000000E+00  0.00000000E+00  0.00000000E+00
  0.00000000E+00  0.00000000E+00  0.00000000E+00
  0.00000000E+00  0.00000000E+00  0.00000000E+00
  0.00000000E+00  0.00000000E+00  0.00000000E+00
  0.00000000E+00  0.00000000E+00  0.00000000E+00
  0.00000000E+00  0.00000000E+00  0.00000000E+00
  0.00000000E+00  0.00000000E+00  0.00000000E+00
  0.00000000E+00  0.00000000E+00  0.00000000E+00
  0.00000000E+00  0.00000000E+00  0.00000000E+00
  0.00000000E+00  0.00000000E+00  0.00000000E+00
  0.00000000E+00  0.00000000E+00  0.00000000E+00
  0.00000000E+00  0.00000000E+00  0.00000000E+00
  0.00000000E+00  0.00000000E+00  0.00000000E+00
  0.00000000E+00  0.00000000E+00  0.00000000E+00
  0.00000000E+00  0.00000000E+00  0.00000000E+00
  0.00000000E+00  0.00000000E+00  0.00000000E+00
  0.00000000E+00  0.00000000E+00  0.00000000E+00
  0.00000000E+00  0.00000000E+00  0.00000000E+00
  0.00000000E+00  0.00000000E+00  0.00000000E+00
  0.00000000E+00  0.00000000E+00  0.00000000E+00
  0.00000000E+00  0.00000000E+00  0.00000000E+00
  0.00000000E+00  0.00000000E+00  0.00000000E+00
  0.00000000E+00  0.00000000E+00  0.00000000E+00
  0.00000000E+00  0.00000000E+00  0.00000000E+00
  0.00000000E+00  0.00000000E+00  0.00000000E+00
  0.00000000E+00  0.00000000E+00  0.00000000E+00
  0.00000000E+00  0.00000000E+00  0.00000000E+00
  0.00000000E+00  0.00000000E+00  0.00000000E+00
  0.00000000E+00  0.00000000E+00  0.00000000E+00
  0.00000000E+00  0.00000000E+00  0.00000000E+00
  0.00000000E+00  0.00000000E+00  0.00000000E+00
  0.00000000E+00  0.00000000E+00  0.00000000E+00
  0.00000000E+00  0.00000000E+00  0.00000000E+00
  0.00000000E+00  0.00000000E+00  0.00000000E+00
  0.00000000E+00  0.00000000E+00  0.00000000E+00
  0.00000000E+00  0.00000000E+00  0.00000000E+00
  0.00000000E+00  0.00000000E+00  0.00000000E+00
  0.00000000E+00  0.00000000E+00  0.00000000E+00
  0.00000000E+00  0.00000000E+00  0.00000000E+00
  0.00000000E+00  0.00000000E+00  0.00000000E+00
  0.00000000E+00  0.00000000E+00  0.00000000E+00
  0.00000000E+00  0.00000000E+00  0.00000000E+00
  0.00000000E+00  0.00000000E+00  0.00000000E+00
  0.00000000E+00  0.00000000E+00  0.00000000E+00
  0.00000000E+00  0.00000000E+00  0.00000000E+00
  0.00000000E+00  0.00000000E+00  0.00000000E+00
  0.00000000E+00  0.00000000E+00  0.00000000E+00
  0.00000000E+00  0.00000000E+00  0.00000000E+00
  0.00000000E+00  0.00000000E+00  0.00000000E+00
  0.00000000E+00  0.00000000E+00  0.00000000E+00
  0.00000000E+00  0.00000000E+00  0.00000000E+00
  0.00000000E+00  0.00000000E+00  0.00000000E+00
  0.00000000E+00  0.00000000E+00  0.00000000E+00
  0.00000000E+00  0.00000000E+00  0.00000000E+00
  0.00000000E+00  0.00000000E+00  0.00000000E+00
  0.00000000E+00  0.00000000E+00  0.00000000E+00
  0.00000000E+00  0.00000000E+00  0.00000000E+00
  0.00000000E+00  0.00000000E+00  0.00000000E+00
  0.00000000E+00  0.00000000E+00  0.00000000E+00
  0.00000000E+00  0.00000000E+00  0.00000000E+00
  0.00000000E+00  0.00000000E+00  0.00000000E+00
  0.00000000E+00  0.00000000E+00  0.00000000E+00
  0.00000000E+00  0.00000000E+00  0.00000000E+00
  0.00000000E+00  0.00000000E+00  0.00000000E+00
  0.00000000E+00  0.00000000E+00  0.00000000E+00
  0.00000000E+00  0.00000000E+00  0.00000000E+00
  0.00000000E+00  0.00000000E+00  0.00000000E+00
  0.00000000E+00  0.00000000E+00  0.00000000E+00
  0.00000000E+00  0.00000000E+00  0.00000000E+00
  0.00000000E+00  0.00000000E+00  0.00000000E+00
  0.00000000E+00  0.00000000E+00  0.00000000E+00
  0.00000000E+00  0.00000000E+00  0.00000000E+00
  0.00000000E+00  0.00000000E+00  0.00000000E+00
  0.00000000E+00  0.00000000E+00  0.00000000E+00
  0.00000000E+00  0.00000000E+00  0.00000000E+00
  0.00000000E+00  0.00000000E+00  0.00000000E+00
  0.00000000E+00  0.00000000E+00  0.00000000E+00
  0.00000000E+00  0.00000000E+00  0.00000000E+00
  0.00000000E+00  0.00000000E+00  0.00000000E+00
  0.00000000E+00  0.00000000E+00  0.00000000E+00
  0.00000000E+00  0.00000000E+00  0.00000000E+00
  0.00000000E+00  0.00000000E+00  0.00000000E+00
  0.00000000E+00  0.00000000E+00  0.00000000E+00
  0.00000000E+00  0.00000000E+00  0.00000000E+00
  0.00000000E+00  0.00000000E+00  0.00000000E+00
  0.00000000E+00  0.00000000E+00  0.00000000E+00
  0.00000000E+00  0.00000000E+00  0.00000000E+00
  0.00000000E+00  0.00000000E+00  0.00000000E+00
  0.00000000E+00  0.00000000E+00  0.00000000E+00
  0.00000000E+00  0.00000000E+00  0.00000000E+00
  0.00000000E+00  0.00000000E+00  0.00000000E+00
  0.00000000E+00  0.00000000E+00  0.00000000E+00
  0.00000000E+00  0.00000000E+00  0.00000000E+00
  0.00000000E+00  0.00000000E+00  0.00000000E+00
  0.00000000E+00  0.00000000E+00  0.00000000E+00
  0.00000000E+00  0.00000000E+00  0.00000000E+00
  0.00000000E+00  0.00000000E+00  0.00000000E+00
  0.00000000E+00  0.00000000E+00  0.00000000E+00
  0.00000000E+00  0.00000000E+00  0.00000000E+00
  0.00000000E+00  0.00000000E+00  0.00000000E+00
  0.00000000E+00  0.00000000E+00  0.00000000E+00
  0.00000000E+00  0.00000000E+00  0.00000000E+00
  0.00000000E+00  0.00000000E+00  0.00000000E+00
  0.00000000E+00  0.00000000E+00  0.00000000E+00
  0.00000000E+00  0.00000000E+00  0.00000000E+00
  0.00000000E+00  0.00000000E+00  0.00000000E+00
  0.00000000E+00  0.00000000E+00  0.00000000E+00
  0.00000000E+00  0.00000000E+00  0.00000000E+00
  0.00000000E+00  0.00000000E+00  0.00000000E+00
  0.00000000E+00  0.00000000E+00  0.00000000E+00
  0.00000000E+00  0.00000000E+00  0.00000000E+00
  0.00000000E+00  0.00000000E+00  0.00000000E+00
  0.00000000E+00  0.00000000E+00  0.00000000E+00
  0.00000000E+00  0.00000000E+00  0.00000000E+00
  0.00000000E+00  0.00000000E+00  0.00000000E+00
  0.00000000E+00  0.00000000E+00  0.00000000E+00
  0.00000000E+00  0.00000000E+00  0.00000000E+00
  0.00000000E+00  0.00000000E+00  0.00000000E+00
  0.00000000E+00  0.00000000E+00  0.00000000E+00
  0.00000000E+00  0.00000000E+00  0.00000000E+00
  0.00000000E+00  0.00000000E+00  0.00000000E+00
  0.00000000E+00  0.00000000E+00  0.00000000E+00
  0.00000000E+00  0.00000000E+00  0.00000000E+00
  0.00000000E+00  0.00000000E+00  0.00000000E+00
  0.00000000E+00  0.00000000E+00  0.00000000E+00
  0.00000000E+00  0.00000000E+00  0.00000000E+00
  0.00000000E+00  0.00000000E+00  0.00000000E+00
  0.00000000E+00  0.00000000E+00  0.00000000E+00
  0.00000000E+00  0.00000000E+00  0.00000000E+00
  0.00000000E+00  0.00000000E+00  0.00000000E+00
  0.00000000E+00  0.00000000E+00  0.00000000E+00
  0.00000000E+00  0.00000000E+00  0.00000000E+00
  0.00000000E+00  0.00000000E+00  0.00000000E+00
  0.00000000E+00  0.00000000E+00  0.00000000E+00
  0.00000000E+00  0.00000000E+00  0.00000000E+00
  0.00000000E+00  0.00000000E+00  0.00000000E+00
  0.00000000E+00  0.00000000E+00  0.00000000E+00
  0.00000000E+00  0.00000000E+00  0.00000000E+00
  0.00000000E+00  0.00000000E+00  0.00000000E+00
  0.00000000E+00  0.00000000E+00  0.00000000E+00
  0.00000000E+00  0.00000000E+00  0.00000000E+00
  0.00000000E+00  0.00000000E+00  0.00000000E+00
  0.00000000E+00  0.00000000E+00  0.00000000E+00
  0.00000000E+00  0.00000000E+00  0.00000000E+00
  0.00000000E+00  0.00000000E+00  0.00000000E+00
  0.00000000E+00  0.00000000E+00  0.00000000E+00
  0.00000000E+00  0.00000000E+00  0.00000000E+00
  0.00000000E+00  0.00000000E+00  0.00000000E+00
  0.00000000E+00  0.00000000E+00  0.00000000E+00
  0.00000000E+00  0.00000000E+00  0.00000000E+00
  0.00000000E+00  0.00000000E+00  0.00000000E+00
  0.00000000E+00  0.00000000E+00  0.00000000E+00
  0.00000000E+00  0.00000000E+00  0.00000000E+00
  0.00000000E+00  0.00000000E+00  0.00000000E+00
  0.00000000E+00  0.00000000E+00  0.00000000E+00
  0.00000000E+00  0.00000000E+00  0.00000000E+00
  0.00000000E+00  0.00000000E+00  0.00000000E+00
  0.00000000E+00  0.00000000E+00  0.00000000E+00
  0.00000000E+00  0.00000000E+00  0.00000000E+00
  0.00000000E+00  0.00000000E+00  0.00000000E+00
  0.00000000E+00  0.00000000E+00  0.00000000E+00
  0.00000000E+00  0.00000000E+00  0.00000000E+00
  0.00000000E+00  0.00000000E+00  0.00000000E+00
  0.00000000E+00  0.00000000E+00  0.00000000E+00
  0.00000000E+00  0.00000000E+00  0.00000000E+00
  0.00000000E+00  0.00000000E+00  0.00000000E+00
  0.00000000E+00  0.00000000E+00  0.00000000E+00
  0.00000000E+00  0.00000000E+00  0.00000000E+00
  0.00000000E+00  0.00000000E+00  0.00000000E+00
  0.00000000E+00  0.00000000E+00  0.00000000E+00
  0.00000000E+00  0.00000000E+00  0.00000000E+00
  0.00000000E+00  0.00000000E+00  0.00000000E+00
  0.00000000E+00  0.00000000E+00  0.00000000E+00
  0.00000000E+00  0.00000000E+00  0.00000000E+00
  0.00000000E+00  0.00000000E+00  0.00000000E+00
  0.00000000E+00  0.00000000E+00  0.00000000E+00
  0.00000000E+00  0.00000000E+00  0.00000000E+00
  0.00000000E+00  0.00000000E+00  0.00000000E+00
  0.00000000E+00  0.00000000E+00  0.00000000E+00
  0.00000000E+00  0.00000000E+00  0.00000000E+00
  0.00000000E+00  0.00000000E+00  0.00000000E+00
  0.00000000E+00  0.00000000E+00  0.00000000E+00
  0.00000000E+00  0.00000000E+00  0.00000000E+00
  0.00000000E+00  0.00000000E+00  0.00000000E+00
  0.00000000E+00  0.00000000E+00  0.00000000E+00
  0.00000000E+00  0.00000000E+00  0.00000000E+00
  0.00000000E+00  0.00000000E+00  0.00000000E+00
  0.00000000E+00  0.00000000E+00  0.00000000E+00
  0.00000000E+00  0.00000000E+00  0.00000000E+00
  0.00000000E+00  0.00000000E+00  0.00000000E+00
  0.00000000E+00  0.00000000E+00  0.00000000E+00
  0.00000000E+00  0.00000000E+00  0.00000000E+00
  0.00000000E+00  0.00000000E+00  0.00000000E+00
  0.00000000E+00  0.00000000E+00  0.00000000E+00
  0.00000000E+00  0.00000000E+00  0.00000000E+00
  0.00000000E+00  0.00000000E+00  0.00000000E+00
  0.00000000E+00  0.00000000E+00  0.00000000E+00
  0.00000000E+00  0.00000000E+00  0.00000000E+00
  0.00000000E+00  0.00000000E+00  0.00000000E+00
  0.00000000E+00  0.00000000E+00  0.00000000E+00
  0.00000000E+00  0.00000000E+00  0.00000000E+00
  0.00000000E+00  0.00000000E+00  0.00000000E+00
  0.00000000E+00  0.00000000E+00  0.00000000E+00
  0.00000000E+00  0.00000000E+00  0.00000000E+00
  0.00000000E+00  0.00000000E+00  0.00000000E+00
  0.00000000E+00  0.00000000E+00  0.00000000E+00
  0.00000000E+00  0.00000000E+00  0.00000000E+00
  0.00000000E+00  0.00000000E+00  0.00000000E+00
  0.00000000E+00  0.00000000E+00  0.00000000E+00
  0.00000000E+00  0.00000000E+00  0.00000000E+00