Ge2 Bi2 Te5                             
   1.00000000000000     
     2.1795367936334342   -3.7750684635388674    0.0000000000000000
     2.1795367936334342    3.7750684635388674    0.0000000000000001
     0.0000000000000004   -0.0000000000000001   17.7538691055967597
   Ge   Bi   Te
     2     2     5
Direct
  0.3333333333333357  0.6666666666666643  0.0967154841691467
  0.6666666666666643  0.3333333333333357  0.9032845158308529
  0.0000000000000000  0.0000000000000000  0.3090376965795079
  0.0000000000000000  0.0000000000000000  0.6909623034204919
  0.3333333333333357  0.6666666666666643  0.4071241532589839
  0.6666666666666643  0.3333333333333357  0.5928758467410160
  0.3333333333333357  0.6666666666666643  0.8114068355965429
  0.6666666666666643  0.3333333333333357  0.1885931644034576
  0.0000000000000000  0.0000000000000000  0.0000000000000000
 
  0.00000000E+00  0.00000000E+00  0.00000000E+00
  0.00000000E+00  0.00000000E+00  0.00000000E+00
  0.00000000E+00  0.00000000E+00  0.00000000E+00
  0.00000000E+00  0.00000000E+00  0.00000000E+00
  0.00000000E+00  0.00000000E+00  0.00000000E+00
  0.00000000E+00  0.00000000E+00  0.00000000E+00
  0.00000000E+00  0.00000000E+00  0.00000000E+00
  0.00000000E+00  0.00000000E+00  0.00000000E+00
  0.00000000E+00  0.00000000E+00  0.00000000E+00
