Ge Se                                   
   1.00000000000000     
    20.8706398010253906    0.0000000000000000    0.0000000000000000
     0.0000000000000000   20.8706398010253906    0.0000000000000000
     0.0000000000000000    0.0000000000000000   20.8706398010253906
   Ge   Se
   150   150
Direct
  0.6828585232658224  0.1569751036737108  0.8238388758118337
  0.2918894138887443  0.1300010687156202  0.9844979630839736
  0.6613903312989452  0.8083360434526219  0.4693798536778007
  0.7954610344264359  0.7692053123194796  0.2461083925062347
  0.0029692101033206  0.4925114883800897  0.0792068094402723
  0.6566945115043556  0.5824383863531550  0.5107762680453949
  0.3223734345807833  0.2428655254177874  0.8467392005486942
  0.6631035921799788  0.9423429119112048  0.3857875826382021
  0.4933101978648131  0.7352675728141225  0.2342275590776048
  0.7144886349056778  0.3621488088334143  0.8905712695720436
  0.4601905329427887  0.1867294517767876  0.5508862585402498
  0.6317272126667841  0.4975111619329990  0.3736377243139453
  0.2812695471328068  0.7137341942183869  0.2413034020306662
  0.8617559239383809  0.5850267358790449  0.4013290537372038
  0.9896964300535811  0.3606925880024581  0.1195069057340554
  0.8734996555822999  0.4561730897136630  0.6760892838862554
  0.8625004462174689  0.2341652331157185  0.3723967524334273
  0.4598336564933355  0.6325379249394867  0.9417534642609862
  0.3817558228917583  0.4504196206327747  0.9253992339143005
  0.1164005850382445  0.8716490243400355  0.7248071487254081
  0.2697712185175178  0.0349783354501154  0.1155386382516554
  0.3361713418193939  0.8747554380051750  0.1200796710664138
  0.6751393443183749  0.0555376523728481  0.1498569503606179
  0.9625663048803951  0.7509216347193811  0.7975279738987715
  0.1706731475130561  0.1499787365490696  0.9369241407297593
  0.5661729624371146  0.2832583020326295  0.9110103293805236
  0.4985314882903942  0.9934559535693368  0.6313459305127598
  0.0257380218705386  0.1443562353737408  0.6830175942015417
  0.9683434808314977  0.3861683006257578  0.4181435105381801
  0.8536086086536656  0.6757990618451015  0.5138354177788740
  0.5426841628682789  0.7238792783380035  0.5415846785101576
  0.2544394180826436  0.6738906497350763  0.8764966656008778
  0.1794055270579485  0.3545298959694193  0.1842475234861637
  0.5565319443294796  0.0547785537823966  0.2758709981904952
  0.5967477013050255  0.9362667596281582  0.9263750871316903
  0.3999571256779075  0.2848752625851789  0.5919740017263110
  0.2000350025128165  0.2906434946277393  0.5955010016601021
  0.3598921087644706  0.8927172917716639  0.6293041170957534
  0.3078755656555320  0.5215628710282979  0.3642150363354867
  0.1629430879125972  0.3205632739928178  0.0572334402712684
  0.1735169950842952  0.5527892229885142  0.8523040410478423
  0.9860541124779260  0.7793939929597818  0.5672656635413827
  0.9898796519911589  0.1816399979526438  0.1165139176838562
  0.0756889171273072  0.9760491728675150  0.0328208502415969
  0.1651014669028140  0.0329016102898799  0.6789896361046237
  0.0672586945034229  0.5808637175763884  0.0129420092818783
  0.1073193342908521  0.6610436561939929  0.7771026314032100
  0.6166331234709493  0.9494200621851224  0.6687564058452020
  0.9133788133259574  0.5213100815507604  0.2398640200312704
  0.2945200314789156  0.6644109342211770  0.4774580089502803
  0.2053576726955614  0.0255970602987979  0.4051565653777562
  0.7818066849280677  0.8805496230684783  0.6071828131217782
  0.2944974056714858  0.2805253708683568  0.1229899317526769
  0.2007082517613695  0.9037214337040801  0.6034051666226206
  0.0786497523124171  0.5000165057807533  0.7935237635470734
  0.1831256106056430  0.6099107533685455  0.4547704575898877
  0.0412742896314337  0.3377105833773011  0.6721419160738004
  0.1573138493161547  0.5915461861914710  0.6584605107475546
  0.0002922232859250  0.0278242420353627  0.8846569352203018
  0.4831616463454307  0.1391377320073232  0.1285778535049154
  0.8384768540128799  0.0779360102689909  0.2000283092839299
  0.7680197713797905  0.6377545622707841  0.6690328546948305
  0.2406545078769164  0.4472632547620538  0.2862248394871814
  0.3357274121789748  0.2434309924583787  0.6838348203798088
  0.6176082461240805  0.6283847075243197  0.0782208122833600
  0.7750514366915564  0.0208130877812529  0.0146145280767413
  0.2860203947167853  0.1284288862071223  0.6841296950419911
  0.2145219372957600  0.4920226869484577  0.0326547286274362
  0.7480082443843457  0.2531638100037732  0.3211204867232648
  0.7850857730104291  0.4332505213811380  0.4332109510263596
  0.1874698897427997  0.5533200507228528  0.1686184715223004
  0.2431316122476768  0.7174373265649784  0.6703989466421318
  0.1064098575438510  0.1645126715026173  0.1547105397030964
  0.1731484072377344  0.9011119851479693  0.4649673611308004
  0.3078487783790703  0.3581575800882586  0.7219715594036987
  0.2793835576690274  0.1629510541945207  0.4837746313286325
  0.5170546844679559  0.7943865914400182  0.6345568907193614
  0.4160639852396261  0.9729321023069866  0.0518439331945908
  0.9895971791398365  0.6243945481761843  0.9277640452202088
  0.9114234083516840  0.8805704408147080  0.2239622462200679
  0.5038918969117149  0.8331142657277064  0.9353272163355379
  0.2846893210245248  0.7963862598623276  0.3953561041251903
  0.7756440418060618  0.5121507456047139  0.8037538274084512
  0.1150869087965760  0.8166600323245853  0.3640541222768609
  0.7191840281426989  0.7390196183893702  0.9600487781736549
  0.1570578570649254  0.7996504149036495  0.1187144617868999
  0.4496227496464082  0.3511585566042728  0.7802223951482534
  0.7399865953094631  0.3868911453031836  0.2250761294321977
  0.9339343363895286  0.1096273371196649  0.0363357453734392
  0.1704347852794659  0.3455376487111433  0.8042011265721239
  0.5912191604526983  0.8613257286344522  0.8071810981058190
  0.5356336346601789  0.3039988344270353  0.5398663023659837
  0.4061966940239153  0.7300478398285414  0.0866676343940244
  0.4855581576712388  0.3490921968936180  0.1001669581865944
  0.4994274957040176  0.9494877254183740  0.8012116821160444
  0.8092317804720541  0.9694917895869126  0.3769664298511126
  0.8875093290737517  0.1182169832969915  0.4121652105591872
  0.4209674553224687  0.7443011745265836  0.9658819481721131
  0.8282769331813012  0.0380245649965949  0.7490634119548484
  0.4479163348535088  0.7062769562646477  0.6901121881413871
  0.6907555172302348  0.3213087334749628  0.0381151175193126
  0.4046861993187688  0.5598671335516038  0.8635017992988134
  0.3295079309996612  0.3442126388733935  0.5129959224061768
  0.5685169404223906  0.2115474122695140  0.7606972560651030
  0.8407765219132357  0.8256744075502063  0.7119251589469012
  0.3778073261189749  0.8413468486933898  0.8204947915200066
  0.7617382043219894  0.2767011006278164  0.5585650778036828
  0.6460287980771900  0.8449328099497795  0.3075748506758902
  0.9593283453521060  0.7418093422127858  0.1120011256988256
  0.9315681986461397  0.4382363951790891  0.8917833951605203
  0.4189039452979985  0.4161064959370446  0.4696962822621807
  0.2652479190839794  0.4261067067336364  0.9417444224188906
  0.0293995485119411  0.8539666329498695  0.2396918881887409
  0.7413912449408555  0.1141479762518305  0.3254952462594901
  0.9406346541730110  0.6311964493974171  0.6407665222380126
  0.6400112018986063  0.7778718588456114  0.1202238231291319
 -0.0022134037073842  0.0261796484082253  0.2206029183970733
  0.8553589679026615  0.0882281051385174  0.5847365348346897
  0.7066575605946599  0.6190785977913082  0.2550340384575647
  0.3959997362415604  0.2566578753335029  0.0134096181804677
  0.8368504921048945  0.4804967325334656  0.9671308572043353
  0.0655134775164284  0.3012812945046437  0.3172495476512443
  0.3300471524363749  0.5622370174213897  0.5400356117560490
  0.8312780970462568  0.0798109615881563  0.9131596205983986
  0.0532290094048286  0.5208446374734134  0.2769998461077759
  0.5921074073443545  0.4929813264274792  0.8150658421961250
  0.5835464860855077  0.6156991664292053  0.9464336480170275
  0.5444342379786529  0.6055351569854986  0.7286532798017240
  0.8762489402141398  0.6606156327545685  0.9601945139928120
  0.0212332393079031  0.7348468489957476  0.3815104027171299
  0.6590217892618671  0.3987770386385322  0.1341665374436208
  0.3939431431035264  0.5806275953253384  0.0298490783282978
  0.3184920270755154  0.4244313651747182  0.6169008043919304
  0.6243205270078137  0.2400785627439470  0.6091327106078468
  0.6267791279236589  0.0388526542803806  0.8497615264029447
  0.5970358509391360  0.0661047389709051  0.4566013364121758
  0.9263406212603849  0.2497746922726603  0.5735925352070269
  0.5692865606326633  0.6973441204643732  0.3577981012165282
  0.1006729071805883  0.1546595625124352  0.5816001978201492
  0.8702886533985170  0.8966814174410809  0.4689775444142577
  0.6120676406298450  0.2309830362663572  0.4391214275337886
  0.0618596949555504  0.9314442893618206  0.3438973440483930
  0.5867300300195094  0.0014541180919738  0.0306562906683910
  0.1482068334513395  0.1886199830570776  0.7970568145951833
  0.8385234296901415  0.5727727798155382  0.0542415864775417
  0.7584192918210961  0.5613766360474235  0.1499649704153096
  0.8529923384289865  0.6977703049814247  0.8336924767708636
  0.1596614221183290  0.6601539896059559  0.0395796012140629
  0.7203532636376128  0.5210675173363324  0.6919956781143164
  0.2466476583957296  0.9210046241853634  0.2604621626786113
  0.6156468884624933  0.8300471485960594  0.6867284093030873
  0.8273221552076999  0.2075204352407265  0.6306170928895800
  0.0864473442319265  0.4792695391521327  0.1665571093634059
  0.1523782100516820  0.7671847155632905  0.0014434075172738
  0.5207636998339481  0.7707598674579036  0.4394964023024420
  0.2711202922178516  0.5980130379154046  0.0065550370685474
  0.7132146953177225  0.9138450142896472  0.9309622515324244
  0.5471349657555040  0.9765031061456242  0.3925811483949275
  0.4288238495401889  0.9301020901527890  0.8953291398857210
  0.3104548346454848  0.0125116541159368 -0.0013452494286243
  0.0668288993414861  0.5150851658356052  0.6792665948260449
  0.0463752860030965  0.9151853806173077  0.8555351448607779
  0.3715965555857298  0.8862537730847503  0.2366381485396034
  0.1729368926063060  0.5531327664279192  0.2898141255697348
  0.6258851932374075  0.1363843090111808  0.3557652412458047
  0.4677340426903716  0.6458452864391990  0.5852583639017397
  0.5273117146682024  0.3793594132233779  0.4514886118817359
  0.5111600070605959  0.2368669493790095  0.0530872428927851
  0.1445721033877258  0.6667931469000483  0.1553059132293642
  0.5229989675610881  0.0638630401082792  0.8028152160515979
  0.1819932932822170  0.1941241170010813  0.6670490426690154
  0.3091369623878220  0.4713072981241935  0.1896764548099622
  0.8482132106938937  0.6017753612825288  0.7584459337835233
  0.0385965475502236  0.8455715245416441  0.1197953984090043
  0.9415903454422734  0.3110934687327956  0.3230185695959629
  0.2946436645215315  0.1082708337026281  0.3676450071330823
  0.6876363716306801  0.2396859215418061  0.9144247719084732
  0.0091676930870480  0.2421919473346576  0.7413190016254413
  0.4721455823586200  0.5152390553304672  0.7767932508258264
  0.2756786826285726  0.5337965761423158  0.6431606332065196
  0.4066062938643202  0.3034874352556557  0.1844694971670185
  0.7466947547289675  0.5338593685370030  0.9131926987218970
  0.9752225794439713  0.6635883609319737  0.5249805244232038
  0.7074786013401358  0.8442673764588127  0.2056224653539409
  0.5336742330091808  0.8357106915233682  0.2890472275539642
  0.6961191948681491  0.9615497699900283  0.5842213757376375
  0.1240834335584581  0.4993020333802800  0.9495830778429667
  0.5704313716672288  0.3307543202637321  0.7898926240356937
  0.0679705599498674  0.4200057438487916  0.3490708874576545
  0.4164623318354309  0.4823666936879640  0.5715097117207566
  0.9180408145017490  0.2697541028288453  0.0954502448964009
  0.9322129513403408  0.3684235843141198  0.6168728409916575
  0.6702262001196647  0.0848589605881656  0.0220470461241183
  0.6604716251892545  0.7018252076329088  0.5432446230075972
  0.4852524513534559  0.3527409220549548  0.6341725960825788
  0.1583730648507841  0.7940078339931511  0.6275696647624623
  0.1315999827983087  0.0392315821621962  0.9421499635792423
  0.5382103559765137  0.1598259640274011  0.6370420539307677
  0.8836915720772315  0.9344938250812443  0.5817243023890748
  0.3868534483495403  0.1719016609581942  0.9241095966965515
  0.7946481932239065  0.3673566659992302  0.9878340106959246
  0.2502973390904326  0.5045329989536014  0.4679183696848891
  0.4225665841245667  0.6238601652504218  0.1323350691220167
  0.9561177506828509 -0.0015174419178580  0.0018018557101785
  0.3328441169030430  0.6391563822255667  0.3689317859689364
  0.0870331536051789  0.0409594148318216  0.1344661773658810
  0.2370145338112709  0.4506825335370785  0.8269746449158306
  0.9621728616444162  0.8686859073300707  0.7902265762350574
  0.3223203582129528  0.7778273648385420  0.9155040455778326
  0.3857728554837359  0.4017129502874817  0.2423860381779788
  0.5948903630947129  0.7337633797418008  0.9657827708949408
  0.9486161728506571  0.1176081464139953  0.5111397022882472
  0.9129129621119941  0.0265710083098464  0.3437810633945655
  0.0687360304091834  0.3002054692716939  0.1948611806232571
  0.9184924046440016  0.7612491606913644  0.9970035967036280
  0.1742568397671284  0.7803525660738331  0.4598596225284903
  0.7113622156612779  0.0023590238566610  0.2866096341346013
  0.1918437802202457  0.3762886993723860  0.6812501415569175
  0.9741011200307668  0.5442201845411966  0.8394825441358416
  0.0442031121780922  0.7182055721529235  0.8775977172562514
  0.4721704663655698  0.8864140877446332  0.5746453894333595
  0.2632337280847363  0.1383165907310609  0.8079206026039628
  0.0887498077916539  0.0827421207107213  0.7672038241319020
  0.3449343276310490  0.7642364534568168  0.4982304746211980
  0.7834555142112462  0.2797122665003517  0.2118164814036390
  0.8214881542691658  0.4604436194149588  0.1785758293977408
  0.6125110895070657  0.6769524431002848  0.1923410707248968
  0.4143658307533196  0.4677461132455124  0.0370628652586805
  0.6860829478600888  0.1799931499161951  0.5249898963629632
  0.6036981382252555  0.4986221727011410  0.6917285228599778
  0.8850422604054280  0.4657029174098341  0.3703933941121364
  0.3703198242003515  0.1129796902699391  0.5505189099038483
  0.4361405949368942  0.3495791543521382  0.9037931505587440
  0.4131516029746230  0.9662408957417683  0.7165285051256045
  0.2212238800757207  0.9186498953166702  0.1324442107512878
  0.0585751936042525  0.3867963770869892  0.8139092190037533
  0.8766779563016077  0.9908482482336985  0.8493352052607199
  0.3129645650576318  0.2644001185554090  0.4306150453242854
  0.5109941221097027  0.1596646642794841  0.4479511087449274
  0.0600102793129731  0.3623082319295588  0.0215783664929851
  0.6145881535330548  0.3831399531648769  0.9644010937133278
  0.8249441305645606  0.1165225104408860  0.0829668641467412
  0.3785468443874530  0.0096168176126223  0.1627034780030942
  0.2316178765541939  0.3159588506558740  0.9564714915516841
  0.6872874554644323  0.7469917211790392  0.3656345211876132
  0.7245879114580283  0.6930766877168755  0.0750495545692092
  0.8314472283868696  0.5769704525657374  0.5837444029777317
  0.6823129150449163  0.2213306081667554  0.7184078739438684
  0.3508241915636207  0.7845875844337288  0.6840383179537733
  0.0280357498034015  0.7200553622444487  0.7046254045315236
  0.0811707691184900  0.2739961900500371  0.5646931487660244
  0.9461029685172220  0.1394095970442340  0.2193955917061598
  0.1959025481004074  0.8066641749653886  0.2709826086537352
  0.9336701571957414  0.5842693044329540  0.1273868741051468
  0.2006432153029238  0.7408745711457734  0.7833529299429320
  0.5992883267529689  0.9604351533327571  0.1363623225540670
  0.8491996325946136  0.4192830129994398  0.8048930392014177
  0.2964019191797490  0.7568105254915835  0.1239641068460014
  0.8562480298942007  0.2937134871573251  0.4751794375048843
  0.9745855166284972  0.8302080878144422  0.4522579940999991
  0.2785548095466582  0.9250625769518234  0.4105595719825059
  0.5645769743661214  0.3678792486900174  0.1886941429620254
  0.4199825496152737  0.4886131576402485  0.3812472143507174
  0.1597283646912808  0.1993118567101733  0.0514462689154212
  0.7310452087905069  0.8431651398021582  0.0189333277843229
  0.4827593092308102  0.8015955938225486  0.1309399901901954
  0.4921472398588927  0.0714832754134640  0.0239662925603186
  0.2354022709557389  0.2572127797371436  0.2226314893574977
  0.9154136918172301  0.1588615320891633  0.9338619023688671
  0.3757606108570678  0.7794653022263990  0.2857582610737679
  0.7848094835965387  0.8151586427600258  0.5047799778010849
  0.1449431892352566  0.0078225432106404  0.3024942086625820
  0.8598520591953845  0.8096682364041515  0.1450949353151932
  0.8618893738496795  0.6178892889653190  0.2886564379789716
  0.3932904459879125  0.0491676068666318  0.3594315533348095
  0.8013328312744242  0.1416970965342211  0.8142367844855355
  0.6795076582787820  0.9656241578586606  0.7699870956709211
  0.7611762692304627  0.4221099834405113  0.6483702615871864
  0.6716908842322170  0.5131075589994042  0.0855807922093720
  0.8996644122773735  0.9791946552442256  0.1583775191261996
  0.3395089447038513  0.1687292444313073  0.0896327742160116
  0.1165251167342985  0.6012108996514375  0.5501845118965932
  0.9940871861752617  0.7454424613430291  0.2676792886065837
  0.6199498579135476  0.6134388971947730  0.8249641985115368
  0.4179331670183336  0.2300101410782219  0.7691196306461874
  0.7394487704146171  0.5513100489665483  0.4162814576142900
  0.0881002585357240  0.9499457893803319  0.6301836067647976
  0.8462833693515093  0.8570864345169006  0.3174703203403615
  0.8764091538252538  0.7419139290014445  0.6265361156210975
  0.7774980373340384  0.0859733931565747  0.4391628737643348
  0.6386575743265642  0.5216997562736304  0.2594653510278722
  0.3255269779847288  0.6129078325321076  0.7990532205176871
  0.7196978999403763  0.3788622886783171  0.3421125414872401
  0.4907829038670237  0.7834312696703666  0.8247304364835190
  0.5714166499244814  0.5946442341262487  0.4273890603402672
  0.4514090865054881  0.1147068169854710  0.2854468564404957
  0.5943002579699131  0.1396268545292530  0.1841318981764611
  0.2262766553221588  0.9353492713566177  0.7232396138223166
  0.9302882162540285  0.0714620419400188  0.6819202270917586
  0.7704354734450890  0.7655368797410589  0.7875684295812336
 
  0.00000000E+00  0.00000000E+00  0.00000000E+00
  0.00000000E+00  0.00000000E+00  0.00000000E+00
  0.00000000E+00  0.00000000E+00  0.00000000E+00
  0.00000000E+00  0.00000000E+00  0.00000000E+00
  0.00000000E+00  0.00000000E+00  0.00000000E+00
  0.00000000E+00  0.00000000E+00  0.00000000E+00
  0.00000000E+00  0.00000000E+00  0.00000000E+00
  0.00000000E+00  0.00000000E+00  0.00000000E+00
  0.00000000E+00  0.00000000E+00  0.00000000E+00
  0.00000000E+00  0.00000000E+00  0.00000000E+00
  0.00000000E+00  0.00000000E+00  0.00000000E+00
  0.00000000E+00  0.00000000E+00  0.00000000E+00
  0.00000000E+00  0.00000000E+00  0.00000000E+00
  0.00000000E+00  0.00000000E+00  0.00000000E+00
  0.00000000E+00  0.00000000E+00  0.00000000E+00
  0.00000000E+00  0.00000000E+00  0.00000000E+00
  0.00000000E+00  0.00000000E+00  0.00000000E+00
  0.00000000E+00  0.00000000E+00  0.00000000E+00
  0.00000000E+00  0.00000000E+00  0.00000000E+00
  0.00000000E+00  0.00000000E+00  0.00000000E+00
  0.00000000E+00  0.00000000E+00  0.00000000E+00
  0.00000000E+00  0.00000000E+00  0.00000000E+00
  0.00000000E+00  0.00000000E+00  0.00000000E+00
  0.00000000E+00  0.00000000E+00  0.00000000E+00
  0.00000000E+00  0.00000000E+00  0.00000000E+00
  0.00000000E+00  0.00000000E+00  0.00000000E+00
  0.00000000E+00  0.00000000E+00  0.00000000E+00
  0.00000000E+00  0.00000000E+00  0.00000000E+00
  0.00000000E+00  0.00000000E+00  0.00000000E+00
  0.00000000E+00  0.00000000E+00  0.00000000E+00
  0.00000000E+00  0.00000000E+00  0.00000000E+00
  0.00000000E+00  0.00000000E+00  0.00000000E+00
  0.00000000E+00  0.00000000E+00  0.00000000E+00
  0.00000000E+00  0.00000000E+00  0.00000000E+00
  0.00000000E+00  0.00000000E+00  0.00000000E+00
  0.00000000E+00  0.00000000E+00  0.00000000E+00
  0.00000000E+00  0.00000000E+00  0.00000000E+00
  0.00000000E+00  0.00000000E+00  0.00000000E+00
  0.00000000E+00  0.00000000E+00  0.00000000E+00
  0.00000000E+00  0.00000000E+00  0.00000000E+00
  0.00000000E+00  0.00000000E+00  0.00000000E+00
  0.00000000E+00  0.00000000E+00  0.00000000E+00
  0.00000000E+00  0.00000000E+00  0.00000000E+00
  0.00000000E+00  0.00000000E+00  0.00000000E+00
  0.00000000E+00  0.00000000E+00  0.00000000E+00
  0.00000000E+00  0.00000000E+00  0.00000000E+00
  0.00000000E+00  0.00000000E+00  0.00000000E+00
  0.00000000E+00  0.00000000E+00  0.00000000E+00
  0.00000000E+00  0.00000000E+00  0.00000000E+00
  0.00000000E+00  0.00000000E+00  0.00000000E+00
  0.00000000E+00  0.00000000E+00  0.00000000E+00
  0.00000000E+00  0.00000000E+00  0.00000000E+00
  0.00000000E+00  0.00000000E+00  0.00000000E+00
  0.00000000E+00  0.00000000E+00  0.00000000E+00
  0.00000000E+00  0.00000000E+00  0.00000000E+00
  0.00000000E+00  0.00000000E+00  0.00000000E+00
  0.00000000E+00  0.00000000E+00  0.00000000E+00
  0.00000000E+00  0.00000000E+00  0.00000000E+00
  0.00000000E+00  0.00000000E+00  0.00000000E+00
  0.00000000E+00  0.00000000E+00  0.00000000E+00
  0.00000000E+00  0.00000000E+00  0.00000000E+00
  0.00000000E+00  0.00000000E+00  0.00000000E+00
  0.00000000E+00  0.00000000E+00  0.00000000E+00
  0.00000000E+00  0.00000000E+00  0.00000000E+00
  0.00000000E+00  0.00000000E+00  0.00000000E+00
  0.00000000E+00  0.00000000E+00  0.00000000E+00
  0.00000000E+00  0.00000000E+00  0.00000000E+00
  0.00000000E+00  0.00000000E+00  0.00000000E+00
  0.00000000E+00  0.00000000E+00  0.00000000E+00
  0.00000000E+00  0.00000000E+00  0.00000000E+00
  0.00000000E+00  0.00000000E+00  0.00000000E+00
  0.00000000E+00  0.00000000E+00  0.00000000E+00
  0.00000000E+00  0.00000000E+00  0.00000000E+00
  0.00000000E+00  0.00000000E+00  0.00000000E+00
  0.00000000E+00  0.00000000E+00  0.00000000E+00
  0.00000000E+00  0.00000000E+00  0.00000000E+00
  0.00000000E+00  0.00000000E+00  0.00000000E+00
  0.00000000E+00  0.00000000E+00  0.00000000E+00
  0.00000000E+00  0.00000000E+00  0.00000000E+00
  0.00000000E+00  0.00000000E+00  0.00000000E+00
  0.00000000E+00  0.00000000E+00  0.00000000E+00
  0.00000000E+00  0.00000000E+00  0.00000000E+00
  0.00000000E+00  0.00000000E+00  0.00000000E+00
  0.00000000E+00  0.00000000E+00  0.00000000E+00
  0.00000000E+00  0.00000000E+00  0.00000000E+00
  0.00000000E+00  0.00000000E+00  0.00000000E+00
  0.00000000E+00  0.00000000E+00  0.00000000E+00
  0.00000000E+00  0.00000000E+00  0.00000000E+00
  0.00000000E+00  0.00000000E+00  0.00000000E+00
  0.00000000E+00  0.00000000E+00  0.00000000E+00
  0.00000000E+00  0.00000000E+00  0.00000000E+00
  0.00000000E+00  0.00000000E+00  0.00000000E+00
  0.00000000E+00  0.00000000E+00  0.00000000E+00
  0.00000000E+00  0.00000000E+00  0.00000000E+00
  0.00000000E+00  0.00000000E+00  0.00000000E+00
  0.00000000E+00  0.00000000E+00  0.00000000E+00
  0.00000000E+00  0.00000000E+00  0.00000000E+00
  0.00000000E+00  0.00000000E+00  0.00000000E+00
  0.00000000E+00  0.00000000E+00  0.00000000E+00
  0.00000000E+00  0.00000000E+00  0.00000000E+00
  0.00000000E+00  0.00000000E+00  0.00000000E+00
  0.00000000E+00  0.00000000E+00  0.00000000E+00
  0.00000000E+00  0.00000000E+00  0.00000000E+00
  0.00000000E+00  0.00000000E+00  0.00000000E+00
  0.00000000E+00  0.00000000E+00  0.00000000E+00
  0.00000000E+00  0.00000000E+00  0.00000000E+00
  0.00000000E+00  0.00000000E+00  0.00000000E+00
  0.00000000E+00  0.00000000E+00  0.00000000E+00
  0.00000000E+00  0.00000000E+00  0.00000000E+00
  0.00000000E+00  0.00000000E+00  0.00000000E+00
  0.00000000E+00  0.00000000E+00  0.00000000E+00
  0.00000000E+00  0.00000000E+00  0.00000000E+00
  0.00000000E+00  0.00000000E+00  0.00000000E+00
  0.00000000E+00  0.00000000E+00  0.00000000E+00
  0.00000000E+00  0.00000000E+00  0.00000000E+00
  0.00000000E+00  0.00000000E+00  0.00000000E+00
  0.00000000E+00  0.00000000E+00  0.00000000E+00
  0.00000000E+00  0.00000000E+00  0.00000000E+00
  0.00000000E+00  0.00000000E+00  0.00000000E+00
  0.00000000E+00  0.00000000E+00  0.00000000E+00
  0.00000000E+00  0.00000000E+00  0.00000000E+00
  0.00000000E+00  0.00000000E+00  0.00000000E+00
  0.00000000E+00  0.00000000E+00  0.00000000E+00
  0.00000000E+00  0.00000000E+00  0.00000000E+00
  0.00000000E+00  0.00000000E+00  0.00000000E+00
  0.00000000E+00  0.00000000E+00  0.00000000E+00
  0.00000000E+00  0.00000000E+00  0.00000000E+00
  0.00000000E+00  0.00000000E+00  0.00000000E+00
  0.00000000E+00  0.00000000E+00  0.00000000E+00
  0.00000000E+00  0.00000000E+00  0.00000000E+00
  0.00000000E+00  0.00000000E+00  0.00000000E+00
  0.00000000E+00  0.00000000E+00  0.00000000E+00
  0.00000000E+00  0.00000000E+00  0.00000000E+00
  0.00000000E+00  0.00000000E+00  0.00000000E+00
  0.00000000E+00  0.00000000E+00  0.00000000E+00
  0.00000000E+00  0.00000000E+00  0.00000000E+00
  0.00000000E+00  0.00000000E+00  0.00000000E+00
  0.00000000E+00  0.00000000E+00  0.00000000E+00
  0.00000000E+00  0.00000000E+00  0.00000000E+00
  0.00000000E+00  0.00000000E+00  0.00000000E+00
  0.00000000E+00  0.00000000E+00  0.00000000E+00
  0.00000000E+00  0.00000000E+00  0.00000000E+00
  0.00000000E+00  0.00000000E+00  0.00000000E+00
  0.00000000E+00  0.00000000E+00  0.00000000E+00
  0.00000000E+00  0.00000000E+00  0.00000000E+00
  0.00000000E+00  0.00000000E+00  0.00000000E+00
  0.00000000E+00  0.00000000E+00  0.00000000E+00
  0.00000000E+00  0.00000000E+00  0.00000000E+00
  0.00000000E+00  0.00000000E+00  0.00000000E+00
  0.00000000E+00  0.00000000E+00  0.00000000E+00
  0.00000000E+00  0.00000000E+00  0.00000000E+00
  0.00000000E+00  0.00000000E+00  0.00000000E+00
  0.00000000E+00  0.00000000E+00  0.00000000E+00
  0.00000000E+00  0.00000000E+00  0.00000000E+00
  0.00000000E+00  0.00000000E+00  0.00000000E+00
  0.00000000E+00  0.00000000E+00  0.00000000E+00
  0.00000000E+00  0.00000000E+00  0.00000000E+00
  0.00000000E+00  0.00000000E+00  0.00000000E+00
  0.00000000E+00  0.00000000E+00  0.00000000E+00
  0.00000000E+00  0.00000000E+00  0.00000000E+00
  0.00000000E+00  0.00000000E+00  0.00000000E+00
  0.00000000E+00  0.00000000E+00  0.00000000E+00
  0.00000000E+00  0.00000000E+00  0.00000000E+00
  0.00000000E+00  0.00000000E+00  0.00000000E+00
  0.00000000E+00  0.00000000E+00  0.00000000E+00
  0.00000000E+00  0.00000000E+00  0.00000000E+00
  0.00000000E+00  0.00000000E+00  0.00000000E+00
  0.00000000E+00  0.00000000E+00  0.00000000E+00
  0.00000000E+00  0.00000000E+00  0.00000000E+00
  0.00000000E+00  0.00000000E+00  0.00000000E+00
  0.00000000E+00  0.00000000E+00  0.00000000E+00
  0.00000000E+00  0.00000000E+00  0.00000000E+00
  0.00000000E+00  0.00000000E+00  0.00000000E+00
  0.00000000E+00  0.00000000E+00  0.00000000E+00
  0.00000000E+00  0.00000000E+00  0.00000000E+00
  0.00000000E+00  0.00000000E+00  0.00000000E+00
  0.00000000E+00  0.00000000E+00  0.00000000E+00
  0.00000000E+00  0.00000000E+00  0.00000000E+00
  0.00000000E+00  0.00000000E+00  0.00000000E+00
  0.00000000E+00  0.00000000E+00  0.00000000E+00
  0.00000000E+00  0.00000000E+00  0.00000000E+00
  0.00000000E+00  0.00000000E+00  0.00000000E+00
  0.00000000E+00  0.00000000E+00  0.00000000E+00
  0.00000000E+00  0.00000000E+00  0.00000000E+00
  0.00000000E+00  0.00000000E+00  0.00000000E+00
  0.00000000E+00  0.00000000E+00  0.00000000E+00
  0.00000000E+00  0.00000000E+00  0.00000000E+00
  0.00000000E+00  0.00000000E+00  0.00000000E+00
  0.00000000E+00  0.00000000E+00  0.00000000E+00
  0.00000000E+00  0.00000000E+00  0.00000000E+00
  0.00000000E+00  0.00000000E+00  0.00000000E+00
  0.00000000E+00  0.00000000E+00  0.00000000E+00
  0.00000000E+00  0.00000000E+00  0.00000000E+00
  0.00000000E+00  0.00000000E+00  0.00000000E+00
  0.00000000E+00  0.00000000E+00  0.00000000E+00
  0.00000000E+00  0.00000000E+00  0.00000000E+00
  0.00000000E+00  0.00000000E+00  0.00000000E+00
  0.00000000E+00  0.00000000E+00  0.00000000E+00
  0.00000000E+00  0.00000000E+00  0.00000000E+00
  0.00000000E+00  0.00000000E+00  0.00000000E+00
  0.00000000E+00  0.00000000E+00  0.00000000E+00
  0.00000000E+00  0.00000000E+00  0.00000000E+00
  0.00000000E+00  0.00000000E+00  0.00000000E+00
  0.00000000E+00  0.00000000E+00  0.00000000E+00
  0.00000000E+00  0.00000000E+00  0.00000000E+00
  0.00000000E+00  0.00000000E+00  0.00000000E+00
  0.00000000E+00  0.00000000E+00  0.00000000E+00
  0.00000000E+00  0.00000000E+00  0.00000000E+00
  0.00000000E+00  0.00000000E+00  0.00000000E+00
  0.00000000E+00  0.00000000E+00  0.00000000E+00
  0.00000000E+00  0.00000000E+00  0.00000000E+00
  0.00000000E+00  0.00000000E+00  0.00000000E+00
  0.00000000E+00  0.00000000E+00  0.00000000E+00
  0.00000000E+00  0.00000000E+00  0.00000000E+00
  0.00000000E+00  0.00000000E+00  0.00000000E+00
  0.00000000E+00  0.00000000E+00  0.00000000E+00
  0.00000000E+00  0.00000000E+00  0.00000000E+00
  0.00000000E+00  0.00000000E+00  0.00000000E+00
  0.00000000E+00  0.00000000E+00  0.00000000E+00
  0.00000000E+00  0.00000000E+00  0.00000000E+00
  0.00000000E+00  0.00000000E+00  0.00000000E+00
  0.00000000E+00  0.00000000E+00  0.00000000E+00
  0.00000000E+00  0.00000000E+00  0.00000000E+00
  0.00000000E+00  0.00000000E+00  0.00000000E+00
  0.00000000E+00  0.00000000E+00  0.00000000E+00
  0.00000000E+00  0.00000000E+00  0.00000000E+00
  0.00000000E+00  0.00000000E+00  0.00000000E+00
  0.00000000E+00  0.00000000E+00  0.00000000E+00
  0.00000000E+00  0.00000000E+00  0.00000000E+00
  0.00000000E+00  0.00000000E+00  0.00000000E+00
  0.00000000E+00  0.00000000E+00  0.00000000E+00
  0.00000000E+00  0.00000000E+00  0.00000000E+00