Tl18 S9
1.0
   7.3373289999999987   -6.3076999999999996    0.0000000000000000
   7.3373289999999987    6.3076999999999996    0.0000000000000000
   1.9147719999999999    0.0000000000000000    9.4845729999999993
Tl S
18 9
direct
   0.7335840000000000    0.7589669999999999    0.4275660000000000 Tl
   0.0855389999999990    0.7645620000000000    0.0551479999999990 Tl
   0.6923170000000000    0.6606500000000001    0.0362100000000000 Tl
   0.4270859999999990    0.0949879999999990    0.3971810000000000 Tl
   0.0551479999999990    0.0855389999999990    0.7645620000000000 Tl
   0.7589669999999999    0.4275660000000000    0.7335840000000000 Tl
   0.3334300000000000    0.6996400000000000    0.3657680000000000 Tl
   0.0012380000000000    0.3654440000000000    0.0315140000000000 Tl
   0.0315140000000000    0.0012380000000000    0.3654440000000000 Tl
   0.6996400000000000    0.3657680000000000    0.3334300000000000 Tl
   0.3971810000000000    0.4270859999999990    0.0949879999999990 Tl
   0.4275660000000000    0.7335840000000000    0.7589669999999999 Tl
   0.0949879999999990    0.3971810000000000    0.4270859999999990 Tl
   0.0362100000000000    0.6923170000000000    0.6606500000000001 Tl
   0.7645620000000000    0.0551479999999990    0.0855389999999990 Tl
   0.3654440000000000    0.0315140000000000    0.0012380000000000 Tl
   0.6606500000000001    0.0362100000000000    0.6923170000000000 Tl
   0.3657680000000000    0.3334300000000000    0.6996400000000000 Tl
   0.5409450000000000    0.5409450000000000    0.5409450000000000 S
   0.2077520000000000    0.2077520000000000    0.2077520000000000 S
   0.5763730000000000    0.2413970000000000    0.9111769999999990 S
   0.5426580000000000    0.8745489999999990    0.2096839999999990 S
   0.2413970000000000    0.9111769999999990    0.5763730000000000 S
   0.8745489999999990    0.2096839999999990    0.5426580000000000 S
   0.9111769999999990    0.5763730000000000    0.2413970000000000 S
   0.2096839999999990    0.5426580000000000    0.8745489999999990 S
   0.8626330000000000    0.8626330000000000    0.8626330000000000 S
