Amorphous Sb                            
   1.00000000000000     
    20.1607677405284171    0.0000000000000000    0.0000000000000000
     0.0000000000000000   20.1607677405284171    0.0000000000000000
     0.0000000000000000    0.0000000000000000   20.1607677405284171
   Sn   S 
   120   180
Direct
  0.2314490388904706  0.6004831043289856  0.0077258886440897
  0.9209105706983511  0.6176173448909656  0.5680492209342699
  0.1269133678936820  0.4748792746197951  0.0186067134805366
  0.7498374178841368  0.2935071839611975  0.6112030626294257
  0.5333955783339133  0.5224622059897198  0.0883352082148496
  0.9955052974516001  0.9059700760028973  0.4236396553139676
  0.8777871662395336  0.7619161731411259  0.2490126590837546
  0.5442945889636925  0.1330487664417353  0.8802968710328013
  0.5259379474511444  0.2034278147977780  0.0861801982991043
  0.1073894970614522  0.9242456609158842  0.5988510354060260
  0.2492077902746389  0.2631544128815167  0.9329144611825512
  0.4138520770685506  0.3263184696096111  0.9135743285034165
  0.9239724984799238  0.2417996497406035  0.1330054203257218
  0.0995880729285824  0.4126461599295535  0.5900724034022772
  0.8149234276100129  0.8911635327704860  0.9850937642151528
  0.7092993621176533  0.2286020590531227  0.8119080482860593
  0.2939187590399799  0.4690454036849973  0.1285843697729050
  0.1694943991183362  0.9225888875394502  0.8684124207430728
  0.8137519864656511  0.1582699023509184  0.2545497287117394
  0.2925827137683849  0.5022242539163052  0.8316345182604059
  0.5885994134768561  0.8215413978260517  0.9770807507286130
  0.8228933502747818  0.0354001063300193  0.8608906849963012
  0.6271551927605240  0.1318183790852843  0.2386940786940920
  0.1543991651078097  0.1721482908805474  0.4409008849352269
  0.6737600852233506  0.9414327823829173  0.8518618258014238
  0.9649640865331833  0.5342923728377105  0.7998841216577550
  0.0199473155729226  0.1572893516257658  0.2595644425216559
  0.1933409980103232  0.0466947839299018  0.0045618963398874
  0.6177981848835437  0.9973883781269447  0.5500497615819253
  0.1875888325830479  0.8374329800008619  0.0349096955012840
  0.1716950707923679  0.4818633284571435  0.3640805390255379
  0.1042550328266696  0.2632029671422357  0.0769095651838089
  0.5942839498956480  0.6215602366451691  0.9315176007722530
  0.8250881157414338  0.9369481056531507  0.2455182242509780
  0.2281220445177731  0.2733100526076609  0.2774410048037496
  0.3207245324605509  0.3153710752035727  0.7139728796817482
  0.4082298757393142  0.9906566522843803  0.3160197887850301
  0.7837180397266761  0.4152734354690440  0.7484771119703434
  0.7825232121822525  0.7631162261156677  0.4647113317997802
  0.3842922003256943  0.5842580864316169  0.6006970442155661
  0.8483818038230198  0.1185389027769896  0.0284145467597593
  0.5735474169253261  0.5703088288264728  0.6488711794450824
  0.3865545413227028  0.6186320618946747  0.9452233609632458
  0.5231079358862090  0.4121910332296111  0.5284421069624046
  0.3278096880616527  0.9261480786884260  0.6568672045682280
  0.5356948135849123  0.7675089014251736  0.1640758986410043
  0.8638698514592874  0.6981673976918330  0.8854410725191366
  0.5534676654377327  0.3450224454554743  0.6860904302116658
  0.4343641829715119  0.0306492583450478  0.5015690501940047
  0.7898548592394101  0.9098087952514133  0.6561399210487135
  0.7109156301472856  0.8464132569970353  0.1250370856362311
  0.7373973579092841  0.3975978803580765  0.4451608731963202
  0.7328845587816263  0.2088036767740832  0.4364260542782978
  0.7161472648551246  0.6073967898783149  0.6171296443540263
  0.3221525880456271  0.2758288322810614  0.1097351609287978
  0.4034444842509988  0.1653760094569819  0.6124541993134909
  0.5351856544225672  0.6032855902863857  0.4605080115875162
  0.9660661717953778  0.8123472365757809  0.5860489095467113
  0.9237386074406997  0.4450527812773580  0.4767528869903473
  0.5396788982158630  0.9174969003918733  0.7455554275016458
  0.5040129491216905  0.2435407450912221  0.4626758557055446
  0.9730894461717139  0.0692298609334153  0.5091183209463356
  0.6964504048438470  0.6386470455562138  0.1031525427502935
  0.2361599058746678  0.6642221141236817  0.2768583532008949
  0.2655685856148845  0.7375584356147614  0.8233914297344280
  0.6079131106589519  0.8076557866790243  0.5894672152786413
  0.8795754759274850  0.1113390070071705  0.6890011521392326
  0.3953994044913783  0.9328958016890554  0.9589872530554996
  0.9685006373798170  0.5902034355031205  0.2459620191508511
  0.8616384694130227  0.7592412899425519  0.7180229987995521
  0.9833356240648649  0.8571213788618494  0.9643204750413665
  0.1749613948220410  0.8576380878371300  0.2276562498663517
  0.6497675584322885  0.1092892146610480  0.6830644953757068
  0.9269181291914722  0.5645584625717786  0.0676716335075462
  0.0424223412140599  0.9798686783640712  0.1234190295578567
  0.8976413705596125  0.2167321604747107  0.4365232222625635
  0.6024434724158103  0.9483381489614364  0.2887217238539441
  0.8231022021067841  0.5050528750750561  0.9083287646398598
  0.6100566660392117  0.0022240802392654  0.0315654109282018
  0.3741475441943297  0.3174312936331762  0.2881393909012527
  0.9754867930663851  0.3652274597125552  0.9417663409832553
  0.1649759662631197  0.5943765409557764  0.6616717003823624
  0.3129929345377766  0.8319319607753141  0.3508090372991030
  0.4143694570536154  0.9757701370748597  0.1369839184406146
  0.4247771984406404  0.4708388857812564  0.3779938201650891
  0.4466563688562434  0.6928159815978838  0.3606435418442326
  0.2433595012526217  0.1050077047464172  0.7878888524805209
  0.7137218740276308  0.2026572144438808  0.0556323435065936
  0.6572284532737391  0.7106291282444455  0.7903048857987681
  0.8854417637789224  0.6088187935410618  0.3605589120232041
  0.0843468776036957  0.6928159656154464  0.9323294157203261
  0.6110867981950866  0.3733304184431266  0.9413685445116454
  0.5914065572811292  0.5512221956860721  0.3032464305474484
  0.0651312482170869  0.4268227033497308  0.1980485811388226
  0.0741549850032743  0.1798690539440153  0.8531120377189121
  0.3039740677114282  0.6030055088806038  0.4608559427200148
  0.1126448211372408  0.4165431528392865  0.8036987585543186
  0.2400086310567596  0.0580825997691310  0.2579051480538267
  0.4286366691834695  0.1644479798963955  0.2214505687150745
  0.6335737723025375  0.7494653916613304  0.3202472500145715
  0.8970264468270244  0.2160650716162565  0.8448479338939719
  0.0864461973474027  0.6829529399894344  0.1419792873692110
  0.0703291141303980  0.7104178925229753  0.3789362067644659
  0.7131395142384392  0.5822309043840372  0.4244677722805067
  0.8059703042873788  0.3290799332377051  0.9355010929198507
  0.0541555602037284  0.7873853577362835  0.7589772186554410
  0.3694966650778961  0.1092894688620614  0.0085390314902934
  0.3477898060574093  0.8062716217090643  0.1548697828277510
  0.5392150546593184  0.3577762849832871  0.2574052256124390
  0.0114915300498025  0.0360175280306701  0.9188737100136629
  0.2255276320342620  0.0109889138678160  0.4922978768021182
  0.3273144813051450  0.3364149295786262  0.5260231142077494
  0.4645001164806531  0.7524622337629447  0.7818353032482563
  0.7180243239929571  0.4420392083469691  0.1576999773638429
  0.4226299629087253  0.7734571676857648  0.5600763363280952
  0.4872313856231631  0.8836832590660408  0.4277417561023924
  0.0921622923964453  0.1699514039822792  0.6240397215402941
  0.8594484259866466  0.3609726695184872  0.2784854135303813
  0.4740707385107795  0.5300763873344221  0.7995164735831513
  0.2084688588247269  0.7612930545047548  0.5182127012043195
  0.5893967372972267  0.4792735633608938  0.8150561622173336
  0.8029879998304388  0.6085058289384117  0.1681695448880957
  0.2044285106154586  0.4968109072008714  0.5562031875994129
  0.7833648081007456  0.0368465107718607  0.1721528207807922
  0.5023232440886065  0.3036729481701966  0.8024850497268274
  0.6089948315073848  0.1484156915216970  0.9970667411258299
  0.1329190585964937  0.2809486950597861  0.9158980652564341
  0.2292579220452292  0.3929659578194089  0.8219881072223388
  0.1840352042919684  0.5655206048364539  0.8555636981223195
  0.8017382352026656  0.1557229345153154  0.9116326219457668
  0.0657708490772854  0.9253180804133534  0.7895959348724352
  0.7274559940129272  0.3333828103444789  0.3247816051230519
  0.3308978635485055  0.2482089806632752  0.8455626231457692
  0.1961982217416652  0.6159581053824269  0.3957431935961577
  0.1798848887113033  0.2992098114239570  0.4383189595738651
  0.6324462341507210  0.6832439399531482  0.4511703794864662
  0.2263667687968868  0.8889954988842155  0.5510356437788572
  0.1922255328700463  0.7805568267568700  0.3294701178532560
  0.9048194542825266  0.2420876753401508  0.3118651533521037
  0.9780019547921605  0.3130523140196655  0.7125866773134903
  0.1283101111836815  0.9484615987874343  0.3081205109829657
  0.6481805013258942  0.2542316769648348  0.6906517366828442
  0.0257675810559373  0.7003567487712971  0.6258443155201404
  0.5345341464404683  0.8323930872287982  0.2820676079782836
  0.6281260647437601  0.4601863417706450  0.7227181796189923
  0.0462242483964000  0.3111598903794273  0.7878311808790580
  0.8612780466528905  0.4818699156700166  0.5896217198080965
  0.1694442055821826  0.1639259203178328  0.3090161541455580
  0.8457707242553505  0.7192166994514161  0.0123206053793869
  0.9522791288810815  0.8535143156005457  0.7016720730424798
  0.1615898831611244  0.9307916022989222  0.1238872431107278
  0.5242164598504763  0.0572960834296996  0.6918436438040682
  0.4186631014307478  0.2936201788728564  0.6104110834749034
  0.4604293245795165  0.7925671189919941  0.9914651922658438
  0.8628737262140591  0.1600225284131029  0.5731565653611570
  0.2979537173089396  0.8990733378822460  0.2328505654081111
  0.1755430582097910  0.6420063921557384  0.7898510202585394
  0.9946568774533827  0.0829233628105911  0.6379587559160534
  0.3294860579686285  0.0345272042677720  0.9203126957650924
  0.8262031060668007  0.5398755797269330  0.7594259347704272
  0.9161357941588083  0.1273761716229358  0.1771760531568908
  0.7848664183582305  0.0336129020948186  0.6951064746972708
  0.2121304865567393  0.4923267468209752  0.2330522731281203
  0.3534072891998503  0.0385194515122871  0.5990050805098842
  0.0997134888799302  0.0904971597073621  0.1643938426582046
  0.7292422985900959  0.9894752627810600  0.9604602382190051
  0.8411462229042876  0.0659656911671793  0.3452801032575722
  0.0147065625218471  0.4980643482769997  0.5429209861732678
  0.5710309820112308  0.3910154825166557  0.1245912080621696
  0.2542832696269842  0.1701671142623579  0.0140395836647051
  0.5738666338592929  0.8069854276425463  0.8228543322476458
  0.5652107123478097  0.9394928272699410  0.9231566603131385
  0.9505933350025583  0.4882252305959451  0.1813086459794400
  0.5399623770924687  0.6405508989211949  0.7592541264602385
  0.7251312334074592  0.5265393221751741  0.0385251001255699
  0.2870800565526319  0.7006438213166392  0.9457612247977109
  0.2249360960706376  0.7666411518821311  0.1441531566828252
  0.8221454917875068  0.8445371095463146  0.3439827301981085
  0.3147127188508150  0.5130289746174999  0.9578213525612842
  0.5886386826892618  0.2282145438950975  0.3140332355504643
  0.0899890347942212  0.4838297243474972  0.7042656561652766
  0.9728703345536641  0.6767407457836530  0.7111278768239866
  0.0192893136266236  0.2822374578344132  0.6246399585765162
  0.0905900033942307  0.9373756155077601  0.9696799131181931
  0.6518036561486767  0.1101709775463271  0.4268917543330198
  0.2420210890532404  0.2671950133609872  0.6098035774778693
  0.2873601582719049  0.1952553827273158  0.6690534271986796
  0.3383670959355884  0.1563543870055896  0.4988737398221920
  0.6656874585227240  0.7372385975413682  0.1813216243762812
  0.8608953336959790  0.7517942195833518  0.5867292139771222
  0.7614857346009258  0.1703660169601798  0.5649800266065765
  0.3702050312196683  0.6072610446045702  0.8146212538686416
  0.0473228927447156  0.3839871061848021  0.0632898212792065
  0.6866983328603978  0.7323588740705219  0.6626670241765467
  0.3263732919672928  0.9117428010915584  0.0598100040695553
  0.0807888289002886  0.6262727165895643  0.2782517793354580
  0.7304864500035437  0.8247371893817479  0.8770624303767152
  0.8553089588139222  0.3384990878757683  0.4775136488385193
  0.0559819253737956  0.8101753258534562  0.2046044248183714
  0.6645449095890017  0.4059574546051179  0.2848945860685907
  0.1583644909245517  0.7908531648351588  0.8718712947325283
  0.8986414685944301  0.0035121692798079  0.9733970174957776
  0.6871480543878565  0.0737988985685852  0.3392816979142261
  0.4949637328547769  0.6578757578788855  0.5717448661669589
  0.3743138767771142  0.3794941569757244  0.1718777912660672
  0.7787618839680555  0.5349214417455155  0.2333238690672597
  0.8211267349660784  0.2153814038412236  0.7371926954959808
  0.8213145057623514  0.9212249746052658  0.5287616257794641
  0.5799788135200876  0.8788127495874004  0.0985849346180945
  0.6349916532439359  0.5051078799568822  0.9949171436439149
  0.0377734680220824  0.4886966536997118  0.3419699539024385
  0.0047066688194947  0.7990636201912130  0.2930749057370761
  0.2225307920846614  0.9880876377496413  0.7145773443292799
  0.4069862489859706  0.9466532161797315  0.7756126341916320
  0.5022418847709408  0.1295306448242097  0.5371343108277828
  0.9546615078490414  0.6715536537295453  0.1526525681559624
  0.7875456841461789  0.6343286495996505  0.5187766209145921
  0.6565424118389434  0.9167929773881854  0.6486591003334148
  0.3930594228961262  0.8720098495271643  0.8429237572940598
  0.9615583168739217  0.6501999469576620  0.4441810889300873
  0.4981971476279884  0.8153062771496319  0.6717432735832372
  0.3241854276929434  0.7334812652943958  0.4688455002871139
  0.5208784725920876  0.0738213556191561  0.2112564563896807
  0.7266723826036476  0.4042752365871245  0.8667363092697901
  0.6603588394576010  0.1087150327948019  0.8114046186344710
  0.8938423951143443  0.4250979739727350  0.8249716029438804
  0.8438544852538294  0.5003648902021023  0.3977708862828999
  0.9334186928807128  0.2225613476004324  0.0153934607355991
  0.8257294010611398  0.8621098929601925  0.8586466785136561
  0.3691548689328050  0.2384986145124852  0.4467428006412540
  0.1547249666001932  0.0763155175435888  0.8819631346811478
  0.5369527729322072  0.6636945598441631  0.2734009031495094
  0.0833324949902121  0.9956778807206570  0.4934758788784159
  0.3528572962310504  0.1059620491489327  0.3104263122885900
  0.2487131653267774  0.7179268223297108  0.6388177291003221
  0.7808674733325823  0.6727748718514670  0.3554412133251755
  0.6275562513599543  0.5399127434195652  0.1770899756270985
  0.1723515817395782  0.0309856989333989  0.6349177444452700
  0.9801518003701900  0.9342982955999093  0.8457567022300994
  0.3497487310571611  0.0893614165048250  0.1296346929437873
  0.8750525556558375  0.4241544880712977  0.0004422628180446
  0.3506440966812178  0.9691567453641937  0.4349131245556605
  0.7753415992472648  0.6223280797544303  0.7268823057963183
  0.6169307804575399  0.8730723848128606  0.4038480175805331
  0.4984267722712964  0.1912567916503582  0.3447003223981293
  0.5723531527701855  0.2600687512879607  0.8634807942358362
  0.0253484817557774  0.1832195633810493  0.4618692185071453
  0.7598262380868696  0.4764861660329123  0.5915514968996525
  0.4646810368934409  0.1342419687143609  0.7206273359755510
  0.3930718330384635  0.4307911671045324  0.8111222250278867
  0.3724622653193256  0.5847528193951692  0.3510401231082025
  0.9323909484645982  0.5928121863228257  0.9122031522923830
  0.4679396460097834  0.5046696835953356  0.6728660255592147
  0.6697159144233317  0.3005426034799649  0.5032841445923173
  0.9362906838376897  0.0988110557856390  0.8019448230230275
  0.5080299350865822  0.0118503831629392  0.3944527792489013
  0.6822321421329149  0.0349445227700552  0.1676505284341634
  0.5799984313695449  0.6550694564696933  0.0543470647316600
  0.1431105600581117  0.1742638873075236  0.7461839667095945
  0.2805766811222049  0.5368464445699161  0.6958802846440676
  0.3551771701599588  0.7315609656091522  0.2772794915042289
  0.5082391301915365  0.3773326423669873  0.4043092221296428
  0.8284350855795881  0.3062672832197246  0.1623550206527659
  0.6734795767270564  0.8999096198654064  0.4845211905509026
  0.7098557548159736  0.8827146445655402  0.2523551928614766
  0.1422291429308234  0.5254508870288946  0.1614525277473355
  0.0512395386052360  0.8136169881298800  0.4983112566734582
  0.0697852817338793  0.7715065515522006  0.0341654217631536
  0.4900662132396435  0.5424902018069858  0.9302952261126058
  0.0291613818247431  0.2696580232398817  0.1876275598785737
  0.2675624823767013  0.4584200338216327  0.6269170635936966
  0.9459064817752263  0.9778120373403951  0.2567080182677465
  0.4205255416839727  0.4865230519805457  0.5036000189228087
  0.3014772709362192  0.3483303268275499  0.0020805026883379
  0.4663875095945973  0.0173244674880851  0.0236427704449244
  0.8966430861349138  0.8052670609299533  0.4050911561802242
  0.7426383924117641  0.7205197010841816  0.0155972814872249
  0.5242253198124863  0.3324906725262879  0.0536901016598546
  0.6018264178270331  0.5151606422269468  0.5269851964942975
  0.1437287086204529  0.3332300193473834  0.3480442264951766
  0.3505211588450297  0.7146223886575845  0.6539908452523424
  0.2017274810724859  0.3073831837851487  0.1569051531328415
  0.3217809285963016  0.4085087769117695  0.3594295207099916
  0.9389228641671534  0.0366242598934662  0.3408565142227060
  0.8639571470890788  0.8548691241329375  0.1615772885128424
  0.9856475685566337  0.7606237658925706  0.8736088150482683
  0.2156823936116812  0.9732447265791092  0.3565243565151042
  0.7063684212137948  0.3249677520033471  0.0173454035067649
  0.4413822078918909  0.2007929302249973  0.9750738256938534
  0.0518655722159789  0.4690672996255151  0.8967727574985802
  0.0762983304154031  0.0961838489626057  0.0622389866852388
  0.0552765368889841  0.5754795003961277  0.0468269266291605
  0.5019760276697499  0.9345518755684361  0.5487886992066791
  0.3521140918175580  0.6342714902975679  0.0729105825298348
  0.4708900811464513  0.7152821162140053  0.9259239930093532
  0.3831688752346045  0.5653132175214490  0.1410993763122761
  0.9968437849271254  0.4027532298384217  0.3808648968483053
  0.6440069921197171  0.2277903431617349  0.1589451487479142
  0.4877668094633691  0.4840545580966398  0.2681345608746773
  0.9228504418292578  0.9274934358687590  0.5426561041300628
 
  0.00000000E+00  0.00000000E+00  0.00000000E+00
  0.00000000E+00  0.00000000E+00  0.00000000E+00
  0.00000000E+00  0.00000000E+00  0.00000000E+00
  0.00000000E+00  0.00000000E+00  0.00000000E+00
  0.00000000E+00  0.00000000E+00  0.00000000E+00
  0.00000000E+00  0.00000000E+00  0.00000000E+00
  0.00000000E+00  0.00000000E+00  0.00000000E+00
  0.00000000E+00  0.00000000E+00  0.00000000E+00
  0.00000000E+00  0.00000000E+00  0.00000000E+00
  0.00000000E+00  0.00000000E+00  0.00000000E+00
  0.00000000E+00  0.00000000E+00  0.00000000E+00
  0.00000000E+00  0.00000000E+00  0.00000000E+00
  0.00000000E+00  0.00000000E+00  0.00000000E+00
  0.00000000E+00  0.00000000E+00  0.00000000E+00
  0.00000000E+00  0.00000000E+00  0.00000000E+00
  0.00000000E+00  0.00000000E+00  0.00000000E+00
  0.00000000E+00  0.00000000E+00  0.00000000E+00
  0.00000000E+00  0.00000000E+00  0.00000000E+00
  0.00000000E+00  0.00000000E+00  0.00000000E+00
  0.00000000E+00  0.00000000E+00  0.00000000E+00
  0.00000000E+00  0.00000000E+00  0.00000000E+00
  0.00000000E+00  0.00000000E+00  0.00000000E+00
  0.00000000E+00  0.00000000E+00  0.00000000E+00
  0.00000000E+00  0.00000000E+00  0.00000000E+00
  0.00000000E+00  0.00000000E+00  0.00000000E+00
  0.00000000E+00  0.00000000E+00  0.00000000E+00
  0.00000000E+00  0.00000000E+00  0.00000000E+00
  0.00000000E+00  0.00000000E+00  0.00000000E+00
  0.00000000E+00  0.00000000E+00  0.00000000E+00
  0.00000000E+00  0.00000000E+00  0.00000000E+00
  0.00000000E+00  0.00000000E+00  0.00000000E+00
  0.00000000E+00  0.00000000E+00  0.00000000E+00
  0.00000000E+00  0.00000000E+00  0.00000000E+00
  0.00000000E+00  0.00000000E+00  0.00000000E+00
  0.00000000E+00  0.00000000E+00  0.00000000E+00
  0.00000000E+00  0.00000000E+00  0.00000000E+00
  0.00000000E+00  0.00000000E+00  0.00000000E+00
  0.00000000E+00  0.00000000E+00  0.00000000E+00
  0.00000000E+00  0.00000000E+00  0.00000000E+00
  0.00000000E+00  0.00000000E+00  0.00000000E+00
  0.00000000E+00  0.00000000E+00  0.00000000E+00
  0.00000000E+00  0.00000000E+00  0.00000000E+00
  0.00000000E+00  0.00000000E+00  0.00000000E+00
  0.00000000E+00  0.00000000E+00  0.00000000E+00
  0.00000000E+00  0.00000000E+00  0.00000000E+00
  0.00000000E+00  0.00000000E+00  0.00000000E+00
  0.00000000E+00  0.00000000E+00  0.00000000E+00
  0.00000000E+00  0.00000000E+00  0.00000000E+00
  0.00000000E+00  0.00000000E+00  0.00000000E+00
  0.00000000E+00  0.00000000E+00  0.00000000E+00
  0.00000000E+00  0.00000000E+00  0.00000000E+00
  0.00000000E+00  0.00000000E+00  0.00000000E+00
  0.00000000E+00  0.00000000E+00  0.00000000E+00
  0.00000000E+00  0.00000000E+00  0.00000000E+00
  0.00000000E+00  0.00000000E+00  0.00000000E+00
  0.00000000E+00  0.00000000E+00  0.00000000E+00
  0.00000000E+00  0.00000000E+00  0.00000000E+00
  0.00000000E+00  0.00000000E+00  0.00000000E+00
  0.00000000E+00  0.00000000E+00  0.00000000E+00
  0.00000000E+00  0.00000000E+00  0.00000000E+00
  0.00000000E+00  0.00000000E+00  0.00000000E+00
  0.00000000E+00  0.00000000E+00  0.00000000E+00
  0.00000000E+00  0.00000000E+00  0.00000000E+00
  0.00000000E+00  0.00000000E+00  0.00000000E+00
  0.00000000E+00  0.00000000E+00  0.00000000E+00
  0.00000000E+00  0.00000000E+00  0.00000000E+00
  0.00000000E+00  0.00000000E+00  0.00000000E+00
  0.00000000E+00  0.00000000E+00  0.00000000E+00
  0.00000000E+00  0.00000000E+00  0.00000000E+00
  0.00000000E+00  0.00000000E+00  0.00000000E+00
  0.00000000E+00  0.00000000E+00  0.00000000E+00
  0.00000000E+00  0.00000000E+00  0.00000000E+00
  0.00000000E+00  0.00000000E+00  0.00000000E+00
  0.00000000E+00  0.00000000E+00  0.00000000E+00
  0.00000000E+00  0.00000000E+00  0.00000000E+00
  0.00000000E+00  0.00000000E+00  0.00000000E+00
  0.00000000E+00  0.00000000E+00  0.00000000E+00
  0.00000000E+00  0.00000000E+00  0.00000000E+00
  0.00000000E+00  0.00000000E+00  0.00000000E+00
  0.00000000E+00  0.00000000E+00  0.00000000E+00
  0.00000000E+00  0.00000000E+00  0.00000000E+00
  0.00000000E+00  0.00000000E+00  0.00000000E+00
  0.00000000E+00  0.00000000E+00  0.00000000E+00
  0.00000000E+00  0.00000000E+00  0.00000000E+00
  0.00000000E+00  0.00000000E+00  0.00000000E+00
  0.00000000E+00  0.00000000E+00  0.00000000E+00
  0.00000000E+00  0.00000000E+00  0.00000000E+00
  0.00000000E+00  0.00000000E+00  0.00000000E+00
  0.00000000E+00  0.00000000E+00  0.00000000E+00
  0.00000000E+00  0.00000000E+00  0.00000000E+00
  0.00000000E+00  0.00000000E+00  0.00000000E+00
  0.00000000E+00  0.00000000E+00  0.00000000E+00
  0.00000000E+00  0.00000000E+00  0.00000000E+00
  0.00000000E+00  0.00000000E+00  0.00000000E+00
  0.00000000E+00  0.00000000E+00  0.00000000E+00
  0.00000000E+00  0.00000000E+00  0.00000000E+00
  0.00000000E+00  0.00000000E+00  0.00000000E+00
  0.00000000E+00  0.00000000E+00  0.00000000E+00
  0.00000000E+00  0.00000000E+00  0.00000000E+00
  0.00000000E+00  0.00000000E+00  0.00000000E+00
  0.00000000E+00  0.00000000E+00  0.00000000E+00
  0.00000000E+00  0.00000000E+00  0.00000000E+00
  0.00000000E+00  0.00000000E+00  0.00000000E+00
  0.00000000E+00  0.00000000E+00  0.00000000E+00
  0.00000000E+00  0.00000000E+00  0.00000000E+00
  0.00000000E+00  0.00000000E+00  0.00000000E+00
  0.00000000E+00  0.00000000E+00  0.00000000E+00
  0.00000000E+00  0.00000000E+00  0.00000000E+00
  0.00000000E+00  0.00000000E+00  0.00000000E+00
  0.00000000E+00  0.00000000E+00  0.00000000E+00
  0.00000000E+00  0.00000000E+00  0.00000000E+00
  0.00000000E+00  0.00000000E+00  0.00000000E+00
  0.00000000E+00  0.00000000E+00  0.00000000E+00
  0.00000000E+00  0.00000000E+00  0.00000000E+00
  0.00000000E+00  0.00000000E+00  0.00000000E+00
  0.00000000E+00  0.00000000E+00  0.00000000E+00
  0.00000000E+00  0.00000000E+00  0.00000000E+00
  0.00000000E+00  0.00000000E+00  0.00000000E+00
  0.00000000E+00  0.00000000E+00  0.00000000E+00
  0.00000000E+00  0.00000000E+00  0.00000000E+00
  0.00000000E+00  0.00000000E+00  0.00000000E+00
  0.00000000E+00  0.00000000E+00  0.00000000E+00
  0.00000000E+00  0.00000000E+00  0.00000000E+00
  0.00000000E+00  0.00000000E+00  0.00000000E+00
  0.00000000E+00  0.00000000E+00  0.00000000E+00
  0.00000000E+00  0.00000000E+00  0.00000000E+00
  0.00000000E+00  0.00000000E+00  0.00000000E+00
  0.00000000E+00  0.00000000E+00  0.00000000E+00
  0.00000000E+00  0.00000000E+00  0.00000000E+00
  0.00000000E+00  0.00000000E+00  0.00000000E+00
  0.00000000E+00  0.00000000E+00  0.00000000E+00
  0.00000000E+00  0.00000000E+00  0.00000000E+00
  0.00000000E+00  0.00000000E+00  0.00000000E+00
  0.00000000E+00  0.00000000E+00  0.00000000E+00
  0.00000000E+00  0.00000000E+00  0.00000000E+00
  0.00000000E+00  0.00000000E+00  0.00000000E+00
  0.00000000E+00  0.00000000E+00  0.00000000E+00
  0.00000000E+00  0.00000000E+00  0.00000000E+00
  0.00000000E+00  0.00000000E+00  0.00000000E+00
  0.00000000E+00  0.00000000E+00  0.00000000E+00
  0.00000000E+00  0.00000000E+00  0.00000000E+00
  0.00000000E+00  0.00000000E+00  0.00000000E+00
  0.00000000E+00  0.00000000E+00  0.00000000E+00
  0.00000000E+00  0.00000000E+00  0.00000000E+00
  0.00000000E+00  0.00000000E+00  0.00000000E+00
  0.00000000E+00  0.00000000E+00  0.00000000E+00
  0.00000000E+00  0.00000000E+00  0.00000000E+00
  0.00000000E+00  0.00000000E+00  0.00000000E+00
  0.00000000E+00  0.00000000E+00  0.00000000E+00
  0.00000000E+00  0.00000000E+00  0.00000000E+00
  0.00000000E+00  0.00000000E+00  0.00000000E+00
  0.00000000E+00  0.00000000E+00  0.00000000E+00
  0.00000000E+00  0.00000000E+00  0.00000000E+00
  0.00000000E+00  0.00000000E+00  0.00000000E+00
  0.00000000E+00  0.00000000E+00  0.00000000E+00
  0.00000000E+00  0.00000000E+00  0.00000000E+00
  0.00000000E+00  0.00000000E+00  0.00000000E+00
  0.00000000E+00  0.00000000E+00  0.00000000E+00
  0.00000000E+00  0.00000000E+00  0.00000000E+00
  0.00000000E+00  0.00000000E+00  0.00000000E+00
  0.00000000E+00  0.00000000E+00  0.00000000E+00
  0.00000000E+00  0.00000000E+00  0.00000000E+00
  0.00000000E+00  0.00000000E+00  0.00000000E+00
  0.00000000E+00  0.00000000E+00  0.00000000E+00
  0.00000000E+00  0.00000000E+00  0.00000000E+00
  0.00000000E+00  0.00000000E+00  0.00000000E+00
  0.00000000E+00  0.00000000E+00  0.00000000E+00
  0.00000000E+00  0.00000000E+00  0.00000000E+00
  0.00000000E+00  0.00000000E+00  0.00000000E+00
  0.00000000E+00  0.00000000E+00  0.00000000E+00
  0.00000000E+00  0.00000000E+00  0.00000000E+00
  0.00000000E+00  0.00000000E+00  0.00000000E+00
  0.00000000E+00  0.00000000E+00  0.00000000E+00
  0.00000000E+00  0.00000000E+00  0.00000000E+00
  0.00000000E+00  0.00000000E+00  0.00000000E+00
  0.00000000E+00  0.00000000E+00  0.00000000E+00
  0.00000000E+00  0.00000000E+00  0.00000000E+00
  0.00000000E+00  0.00000000E+00  0.00000000E+00
  0.00000000E+00  0.00000000E+00  0.00000000E+00
  0.00000000E+00  0.00000000E+00  0.00000000E+00
  0.00000000E+00  0.00000000E+00  0.00000000E+00
  0.00000000E+00  0.00000000E+00  0.00000000E+00
  0.00000000E+00  0.00000000E+00  0.00000000E+00
  0.00000000E+00  0.00000000E+00  0.00000000E+00
  0.00000000E+00  0.00000000E+00  0.00000000E+00
  0.00000000E+00  0.00000000E+00  0.00000000E+00
  0.00000000E+00  0.00000000E+00  0.00000000E+00
  0.00000000E+00  0.00000000E+00  0.00000000E+00
  0.00000000E+00  0.00000000E+00  0.00000000E+00
  0.00000000E+00  0.00000000E+00  0.00000000E+00
  0.00000000E+00  0.00000000E+00  0.00000000E+00
  0.00000000E+00  0.00000000E+00  0.00000000E+00
  0.00000000E+00  0.00000000E+00  0.00000000E+00
  0.00000000E+00  0.00000000E+00  0.00000000E+00
  0.00000000E+00  0.00000000E+00  0.00000000E+00
  0.00000000E+00  0.00000000E+00  0.00000000E+00
  0.00000000E+00  0.00000000E+00  0.00000000E+00
  0.00000000E+00  0.00000000E+00  0.00000000E+00
  0.00000000E+00  0.00000000E+00  0.00000000E+00
  0.00000000E+00  0.00000000E+00  0.00000000E+00
  0.00000000E+00  0.00000000E+00  0.00000000E+00
  0.00000000E+00  0.00000000E+00  0.00000000E+00
  0.00000000E+00  0.00000000E+00  0.00000000E+00
  0.00000000E+00  0.00000000E+00  0.00000000E+00
  0.00000000E+00  0.00000000E+00  0.00000000E+00
  0.00000000E+00  0.00000000E+00  0.00000000E+00
  0.00000000E+00  0.00000000E+00  0.00000000E+00
  0.00000000E+00  0.00000000E+00  0.00000000E+00
  0.00000000E+00  0.00000000E+00  0.00000000E+00
  0.00000000E+00  0.00000000E+00  0.00000000E+00
  0.00000000E+00  0.00000000E+00  0.00000000E+00
  0.00000000E+00  0.00000000E+00  0.00000000E+00
  0.00000000E+00  0.00000000E+00  0.00000000E+00
  0.00000000E+00  0.00000000E+00  0.00000000E+00
  0.00000000E+00  0.00000000E+00  0.00000000E+00
  0.00000000E+00  0.00000000E+00  0.00000000E+00
  0.00000000E+00  0.00000000E+00  0.00000000E+00
  0.00000000E+00  0.00000000E+00  0.00000000E+00
  0.00000000E+00  0.00000000E+00  0.00000000E+00
  0.00000000E+00  0.00000000E+00  0.00000000E+00
  0.00000000E+00  0.00000000E+00  0.00000000E+00
  0.00000000E+00  0.00000000E+00  0.00000000E+00
  0.00000000E+00  0.00000000E+00  0.00000000E+00
  0.00000000E+00  0.00000000E+00  0.00000000E+00
  0.00000000E+00  0.00000000E+00  0.00000000E+00
  0.00000000E+00  0.00000000E+00  0.00000000E+00
  0.00000000E+00  0.00000000E+00  0.00000000E+00
  0.00000000E+00  0.00000000E+00  0.00000000E+00
  0.00000000E+00  0.00000000E+00  0.00000000E+00
  0.00000000E+00  0.00000000E+00  0.00000000E+00
  0.00000000E+00  0.00000000E+00  0.00000000E+00
  0.00000000E+00  0.00000000E+00  0.00000000E+00