Amorphous Sb                            
   1.00000000000000     
    22.2283632703415037    0.0000000000000000    0.0000000000000000
     0.0000000000000000   22.2283632703415037    0.0000000000000000
     0.0000000000000000    0.0000000000000000   22.2283632703415037
   Sb   Te
   120   180
Direct
  0.6634632238960231  0.4607287872073340  0.6501925865382523
  0.1573860129080954  0.3118597532675348  0.1528806719474544
  0.6333060270490798  0.8904934909198777  0.9435801180193935
  0.0559688147371894  0.2032224384933018  0.9660412767729614
  0.2591393450334655  0.2443731683397886 -0.0033585493036048
  0.5278179312098529  0.1276528823194154  0.6407289607050430
  0.2926862470314217  0.9672508662723716  0.9355488566974021
  0.6510331177256234  0.1925000818993300  0.1601834343935028
  0.3348605767507907  0.2264453315938410  0.6371497608892225
  0.9808637810473658  0.2007183967125210  0.3416938708298718
 -0.0017350085965186  0.5468262035854120  0.1719113150382998
  0.2290825092433241  0.7693577384591089  0.5661623414602066
  0.3823632589662428  0.6532083389374197  0.0476576006153975
  0.4617093052910018  0.1550211074998641  0.2439716395201251
  0.4805070993696819  0.3783727335024510  0.2880693147829244
  0.6072574452943398  0.4429063369745334  0.7703415457954244
  0.9380031146216218  0.1055338196338607  0.5839513788634131
  0.2614618550428517  0.9455108040283366  0.5787537438602932
  0.5164251176878177  0.0533973073398353  0.3496212139594742
  0.4520874572840013  0.9507762504922195  0.4065224811457911
  0.3982342490981207  0.3419530715265359  0.9955908658125150
  0.4973158481259645  0.1461031783990276  0.0547763216940788
  0.2571577723173449  0.4949550926537735  0.1187045404907246
  0.8382118636180252  0.1572914958251720  0.1949881703810356
  0.1305659642068276  0.5539064320307865  0.0302876401795346
  0.6129118743627430  0.3484099194147393  0.5508864780151228
  0.9402531325735718  0.7962079297927593  0.0614122769083437
  0.1208285457602617  0.0242534302177262  0.1734767158912653
  0.3240284636906831  0.1470657420777108  0.1619668791216658
  0.8468034175001493  0.3464403455705197  0.2743921911388984
  0.9823820969966555  0.3612559989790046  0.9770794020750044
  0.2982585340479982  0.9679622740764182  0.7321647603945013
  0.3717876813328913  0.0533455281795337  0.6308663180414432
  0.0930533599556181  0.4814268222307141  0.6810706068314181
  0.2403052781456549  0.7877245857662100  0.7476796584624983
  0.9103897118463505  0.9171769112543698  0.5030927192154484
  0.6208314731776132  0.3214852966137976  0.0353274910428923
  0.6432930960453163  0.1201543725477828  0.7438657877036390
  0.3397961643393889  0.8218001760225412  0.4204161909410405
  0.6471878137179510  0.5785420305462442  0.5088833686181907
  0.9308023865615737  0.6818178175329423  0.9149632653732673
  0.1869215233284301  0.3392488711648911  0.6341858985908478
  0.9501742814885030  0.7536044268108515  0.6203738991297402
  0.8850718509171047  0.5014968842803224  0.1219478878531133
  0.8752440203392172  0.2273093754997594  0.9142811059778218
  0.3959807091633685  0.3832931161012199  0.1868573265846166
  0.0573145315981638  0.4143299028010907  0.7878248953017097
  0.5269974646395496  0.8214080976715347  0.8426663187320745
  0.3917842060694151  0.8195861979986455  0.2104811822770127
  0.9583324318327154  0.6268200708713866  0.2668317340636601
  0.9604719135175707  0.8544128287756809  0.8576935193635422
  0.5159023011668563  0.6705949574079726  0.5328532194872434
  0.6949650685711832  0.5797717055833895  0.3320172334857998
  0.7277604082827120  0.6532578598720507  0.4359615389210760
  0.0665489462003184  0.6163252168217366  0.9282293837065986
  0.8171232019407876  0.8598510273708682  0.9867132875867209
  0.0623236218457265  0.2461421427221544  0.6823093928558281
  0.3523265248839957  0.1627959864843900  0.9440814256753489
  0.6932181994831927  0.4565818410878106  0.4679210748336365
  0.3888108956984557  0.5005182960580539  0.6261629003500696
  0.7046892414898731  0.2018154452107760  0.6599889379092789
  0.3676962178403951  0.3574370567078499  0.6065687439102208
  0.7093479558064223  0.8700137233039098  0.1313715265380183
  0.4401753173224855  0.6406334154286518  0.8837905889670359
  0.9484289592092222  0.0734262806389858  0.0705179868948725
  0.4918109092496665  0.7603156975435356  0.2695538507110287
  0.5459888595286478  0.2334675579775622  0.3110507043047324
  0.1105071113743242  0.5119549413179136  0.8603520297145575
  0.0629744107570350  0.9055025231312466  0.1874590018719871
  0.0954126928190822  0.9886818780243752  0.5608457103205550
  0.0881306819364270  0.6855144345895675  0.7279380353482978
  0.7053003748728260  0.6283761661135784  0.9931466773458972
  0.3263099297531216  0.4810592004226826  0.8136740448248172
  0.1487752113823960  0.3347782595192424  0.8770658846817435
  0.5869634748786831  0.6933809432585960  0.7102998742138170
  0.9832120316130455  0.5560366340044912  0.6665579545188884
  0.1185998135557792  0.5583053195605943  0.3879158164791022
  0.5840127681559099  0.6571754566669170  0.0442439777906389
  0.9657831113651083  0.3835461561799992  0.2299868383823379
  0.5195974928842197  0.8558178943444186  0.0396713522707517
  0.8469147747327982  0.5130529484100624  0.9705765098344176
  0.2943585596784587  0.9860256454093203  0.2003338154143033
  0.7543980951765943  0.3177114805254635  0.0268540155786641
  0.0767425686434305  0.0869007673824086  0.4534484987911865
  0.5243845713844820  0.5989972308319775  0.6432251340643099
  0.2775389102208355  0.7479335077666491  0.3273361798232403
  0.4029222708921266  0.6212553230042278  0.6848727211889462
  0.4638817396860753  0.9599909328191384  0.6564356709338827
  0.3741360591728776  0.2366705241700129  0.3499402876431427
  0.9382371977090328  0.7883572881316870  0.3173953173996250
  0.6348182950389152 -0.0030337258337288  0.0245844517876758
  0.4000610017947455  0.3713849316374190  0.8058369402209883
  0.8037223719663292  0.5409060762772310  0.6816323654612934
  0.3338133216404106  0.3471964516598880  0.4165272180749963
  0.6842499705166082  0.0046926394647958  0.6483602626314070
  0.7267268047695268  0.6991946534026329  0.8514626715925830
  0.6611087460311663  0.0426763140912435  0.2589192713258320
  0.5121119358154524  0.2659652497409568  0.5440826870574855
  0.8395915638625425  0.0887141882336724  0.7869072908017982
  0.7528895391781578  0.5852221049723150  0.1078826343938836
  0.9410239354829310  0.5249086040525581  0.3495878240467939
  0.2815611891820234  0.0706795722564049  0.4051479615586934
  0.4074809335089517  0.9263012877855386  0.0366444757732407
  0.7391693217363182  0.4250523635231200  0.8128407790451065
  0.6271779313135435  0.8243607387723019  0.2250518797621251
  0.8457378542218352  0.6698784991282476  0.6976270655064566
  0.6348364480638355  0.9003232597305398  0.3945974625501619
  0.4130310768507108  0.6189614898422374  0.3568417525038977
  0.9159305263615918  0.9707084018096950  0.1485188693499660
  0.2437038660649354  0.3567510074315570  0.2447288206106097
  0.8991194050469616  0.7388537051545334  0.4357979894464302
  0.2024876383405923  0.2295849672628509  0.8160453942601623
  0.9457778058431462  0.4794733087437891  0.8309282513773323
  0.2207600599998327  0.8905777704160723  0.0184177045422048
  0.4440153766230096  0.5364554703685502  0.0594645816839934
  0.5731569655608255  0.4697399512943600  0.2649685501951235
  0.9904936665088472  0.3105817047299216  0.4148462452376974
  0.0606448713276508  0.1572622768978858  0.5814110242272235
  0.0015640835757701  0.6328826140740927  0.0729773245503297
  0.1850806518665560  0.1087625424041329  0.3184114929829278
  0.0426833981846481  0.6561407325271846  0.6060386710263433
  0.8652129915830911  0.8734108744993924  0.6185181381038714
  0.4517644487577385  0.7379365645530294  0.3934151328629782
  0.1064623579559546  0.0085210928239105  0.3486429811261981
  0.1822780828040864  0.7865086603353453  0.9257302475178117
  0.5530432415820823 -0.0165482684980086  0.7662736655064250
  0.1191291138137006  0.4800100729282188  0.5102487098497162
  0.4185173915218826  0.2362933886207158  0.1506840444083673
  0.9888226349934622  0.5013756247030351  0.5319948958041018
  0.4419223649547561  0.9280300240843609  0.8140927288461807
  0.3364184325741292  0.5940008675475809  0.9424568693200474
  0.6043962523989715  0.7141852572014797  0.8799888495128215
  0.0825613178075660  0.3293967646183850  0.5472022988027410
  0.2602338774704798  0.3935763591893277  0.5444830223158410
  0.5781999407393746  0.3371534050932882  0.4227698719939927
  0.1800709176103777  0.5740313388487701  0.5709186078504702
  0.7122239232677552  0.3204432583545465  0.8820094917971563
  0.6981906774387674  0.5050049253832311  0.9566503975712304
  0.5439081900959563  0.0072368227590658  0.5693240875472858
  0.5843248636771395  0.5275911015558793  0.3798914101413008
  0.0944537276225949  0.1647058765033781  0.7765127991779137
  0.7801339330341327  0.0876816610155209  0.6491056609568054
  0.3175111197538342  0.7078951545289174  0.8111325306014896
  0.1256400324682181  0.6208127741233989  0.2675290105730641
  0.4769701164869878  0.7535392603048328  0.7419930695597475
  0.6741991551315082  0.7996194135893558  0.0235480906282563
  0.0372137415719211  0.2803816234483220  0.2496883633146484
  0.2347268090576492  0.8782078638818905  0.2388828963013336
  0.8886154620839252  0.9326923644408217  0.7733102517711037
  0.7179378958814718  0.9432854874054922  0.5353096897271966
  0.7125308085122357  0.5729110206738848  0.8231761804575823
  0.4781102790910229  0.7657465324162228  0.1214180719657831
  0.4340280582559257  0.1332507802682532  0.5511857550021854
  0.8450887749204695  0.5309570923758211  0.5596249481978240
  0.1693422608242997  0.9457354985010722  0.7423099727400060
  0.4912495787533959  0.2554761396805874  0.6733699770538590
  0.2227851134233466  0.6850218413863389  0.6683417716975570
  0.6376370353045435  0.7417081091252321  0.4123058949065577
  0.4749483782735920  0.4161670025896287  0.7102391027644026
  0.5232707221030530  0.5713754720178251  0.9578305895748214
  0.4786924334102749  0.0874752221372720  0.8239895370464875
  0.3346745872935126  0.7173560593114001  0.5083631207834544
  0.3144527118662993  0.7709022394694821  0.9248024180151562
  0.1746905879310928  0.5672311224206499  0.7668303082109279
  0.6837916507574672  0.5914690553786334  0.6333534755152701
  0.9124557541915526  0.3768424010170854  0.1101294444166378
  0.5345423721320309  0.8620090819337959  0.4757629840443351
  0.1593276544547242  0.8307070571135853  0.1502626172294308
  0.5441065844013574  0.5720143724702973  0.1311266901991102
  0.9535676725289010  0.1200427169774990  0.7233806406790527
  0.7627634669147257  0.0457290983511252  0.3375777778778570
  0.8966579004735692  0.4427580261668149  0.7180329373461268
  0.4363825639905860  0.5465323749793901  0.7885924097020808
  0.0222999180910536  0.7993160878530212  0.7186940610105770
  0.2200893718497937  0.0663746263492557  0.5171687424953978
  0.2822402112888414  0.3301745760181233  0.8952229747511993
  0.8998951604262242  0.9065694109680698  0.3502348617483873
  0.2895309807699892  0.6325435417128440  0.3869915152788220
  0.3163497104670038  0.8387533597060969  0.6557789705189658
  0.1970223837679138  0.3722415656590384  0.3661845528500406
  0.1832173265839191  0.0076108698869101  0.8831898811202991
  0.2335780157735758  0.0029228346975448  0.0823587547395394
  0.2775784808314269  0.6379405662950798  0.1244048212674135
  0.7019242496957753  0.4671266169459228  0.0804585884029230
  0.7577296143065287  0.3572679878426431  0.7071119892499703
  0.9431719900088668  0.2450891116761664  0.0283177917658062
  0.2705514816577445  0.2279424550633795  0.2715459760322502
  0.3249134428255401  0.8272540963693282  0.0599790499748601
  0.5845190936038283  0.8737536243106667  0.5930196446342562
  0.4587380081617710  0.7737934019806367  0.9444489960949206
  0.3702593987629597  0.0894728529932637  0.0476791426310069
  0.0071683381630092  0.9101517396462683  0.0696712202673197
  0.1218301265582309  0.3064037511087036  0.0067571034984018
  0.5318601191103483  0.8978557484423266  0.3153255199762858
  0.8123166688036970  0.9665025163062080  0.0709470277353952
  0.9477454971948150  0.0933499852305693  0.4441222728199489
  0.7505573129184129  0.9271770348182664  0.9022301400992104
  0.3143484775341627  0.8859685906498336  0.8361561868550910
  0.1639518233092081  0.6764103725649281  0.8561670584408178
  0.9161199018281039  0.9346578875585476  0.9497210576386699
  0.9011269242605860  0.1028816909852772  0.9049500220679428
  0.7327895004254246  0.9326819977933662  0.7436480399269917
 -0.0036411225385587  0.7908999255122654  0.4993567364639654
  0.2276155926405049  0.8835419204253973  0.4708496493427349
  0.8232423780454641  0.4880662649974539  0.2336920282442950
  0.6233840384766710  0.8697554515083580  0.7363297043621544
  0.8569137525738840  0.7782562386015464  0.8691194895180161
  0.3200291553096976  0.5569082771653266  0.5268750819635757
  0.7019086240204812  0.3240913645705502  0.3915901590967312
  0.6611680582158108  0.7141427469753817  0.2851462704547171
  0.0520006637872314  0.4592869548526385  0.3382807802155949
  0.6781206862303529  0.6818702462519192  0.1465706799615824
  0.4402602839580133  0.5664418383238851  0.4781688655208219
  0.7715973061374835  0.8051299587946145  0.5666852845443529
  0.6335514498915401  0.3150088929758432  0.6969183591760819
  0.2964339798477419  0.3198022165318947  0.7198939299007731
  0.0817576921723338  0.7320883175514517  0.3047691986181530
  0.3686892657037654  0.5104303023737894  0.1840391509275929
  0.3970156394447116  0.6828818335127209  0.2232328763279855
  0.9706905372249740  0.1587980273376596  0.1644435552975284
  0.5856689902257766  0.5690824223823225  0.8004335095178549
  0.1915513037951375  0.4716150574723160  0.9507402471479006
  0.8211823646289456  0.7593431733542920  0.2672058280852713
  0.0755174471809690  0.0620137309250367  0.0584843181172303
  0.9440606753276289  0.2638736863068689  0.5264146229783516
  0.0006167530921814 -0.0095718403162678  0.7632097430784101
  0.1214714003786620  0.1934603898310296  0.3919592599230332
  0.7417789730859569  0.2811537019645425  0.5140105561063706
  0.7816098866100452  0.5011536205283722  0.3870348538022389
  0.9821576928812542  0.6007691976123885  0.4455801795129442
  0.0269848893166918  0.0175067388554129  0.8859060627190647
  0.7197808961559340  0.0813655545558500  0.1484496363775334
  0.6264260136390484  0.0296742969508773  0.4118567941029108
  0.7104808280976649  0.9100305586591549  0.2738470412681245
  0.0122561851250530  0.7377667194402973  0.1486356487038749
  0.9736784686080592  0.9825487230235425  0.6102317919755922
  0.9909316293533088  0.6128391133427790  0.7876257530114807
  0.5933126270819836  0.3554585957687668  0.9121099718648249
  0.0932245103327406  0.4250955677648889  0.1383702326793332
  0.4562369763781396  0.4236914510176876  0.9170944054746055
  0.8297811281715578  0.6223965068601525  0.2494127732450818
  0.0164905924051420  0.2813269458814788  0.8698366351097246
  0.1931443007531919  0.6649430339067213  0.0351531154229957
  0.6234026927102786  0.1688288260115638  0.5646216713810359
  0.8060602229293452  0.2142005362659506  0.7844607141775287
  0.5558700853577940  0.4625450777382787  0.5767214611001011
  0.8244382912468062  0.6852726047359601  0.5693737032781447
  0.3553216810308346  0.9245063734872666  0.3167670910293613
  0.8519352851380421  0.2200543024030524  0.3090190718607173
  0.8406120650188058  0.2044240185412828  0.4861647466520980
  0.9313102850642919  0.2443986132081855  0.6952075738067408
  0.2801460158491852  0.4903333410982553  0.6947536118729358
  0.6594127457321056  0.1747930289991549  0.2972876950706293
  0.1010985287356957  0.9117146682985640  0.9049449741693623
  0.1379547072404450  0.8887318988691519  0.6333286474167602
  0.5397117719116707  0.0897784857881840  0.1666570464068950
  0.3846852890726890  0.1438136121224923  0.7416447892363545
  0.2325358702656978  0.4955789448108728  0.3613146208582132
  0.7924688858947971  0.4123964598992648  0.5416079794184382
  0.8778140533303332  0.6588577305353990  0.0334856706433482
  0.6697988617547627  0.3827590874856058  0.2659481491033661
  0.4146384533654686  0.9536617906385668  0.1632337164150212
  0.8689651411215030  0.3938571510576993  0.9111175756046302
  0.4252009401802563  0.7480960985458985  0.5916004027562981
  0.5069962370590885  0.1634496181258983  0.4146410775239533
  0.7176554691557847  0.1459530843362875  0.8462778930519145
  0.8786769697023100  0.3719770859608595  0.3953378620750866
  0.5813692665248825  0.3270878760156409  0.1929992574271276
  0.3098895595096748  0.1868341664172662  0.4485771030167893
  0.7395962310508104  0.7352311647095002  0.7260805968926745
  0.2070641291573325  0.2166363204043530  0.6062321293534974
  0.1656658892337119  0.7775999266369801  0.3874582906709684
  0.4439723004273267  0.3673195117222040  0.4929583740328575
  0.8191500037884673  0.0110063279329472  0.4986982273996773
  0.6229500917529271  0.1933350530457342  0.0235592944343204
  0.8667781651763766  0.0493700269741871  0.2655068144566133
  0.5207478474766101  0.0358780246181417  0.9833360801602264
  0.4564553746334455  0.2375966325093355  0.9452615408054893
  0.9808792251451277  0.5110141064720347 -0.0186270520820402
  0.8472287014896396  0.5797555000680878  0.8592793962952359
  0.3863795291280022  0.9518159371459165  0.5425517125034179
  0.5554380214845877  0.1854070916365939  0.8140164597942338
  0.3805890845693508  0.4429691527037908  0.3455900974515790
  0.1217243252418595  0.0701640079628438  0.6549230779235979
  0.4835990602899169  0.3767495665651101  0.0906908885306032
  0.5879558590444947  0.9370844322310597  0.1282999577731388
  0.0249362566731564  0.0746114876969553  0.2518562010336561
  0.7744554695964594  0.1958495756744793 -0.0124298003895924
  0.8406594179023463  0.8296173562017465  0.1641387894534736
  0.0046353621472537  0.3918529586137207  0.6282624869294746
  0.0223472643530627  0.7707001109313558  0.9585831358426889
  0.8200977745994468  0.8455989479565786  0.4359193643100434
  0.2834008939066444  0.0834385811555388  0.7904538697926247
  0.2666457477462212  0.3601147700777930  0.0960342632438149
  0.1736634850358925  0.4816970813750271  0.2195667287778449
  0.7539835562348652  0.2777140378537682  0.1540797979000252
  0.1661842271348162  0.6756254475662085  0.4855381249829488
  0.1893698346194388  0.1602441230846699  0.9250271164178770
  0.2137047654049598  0.1747656202514831  0.1081454116849031
  0.6182739382084653  0.7448878641681516  0.5901776266056935
 
  0.00000000E+00  0.00000000E+00  0.00000000E+00
  0.00000000E+00  0.00000000E+00  0.00000000E+00
  0.00000000E+00  0.00000000E+00  0.00000000E+00
  0.00000000E+00  0.00000000E+00  0.00000000E+00
  0.00000000E+00  0.00000000E+00  0.00000000E+00
  0.00000000E+00  0.00000000E+00  0.00000000E+00
  0.00000000E+00  0.00000000E+00  0.00000000E+00
  0.00000000E+00  0.00000000E+00  0.00000000E+00
  0.00000000E+00  0.00000000E+00  0.00000000E+00
  0.00000000E+00  0.00000000E+00  0.00000000E+00
  0.00000000E+00  0.00000000E+00  0.00000000E+00
  0.00000000E+00  0.00000000E+00  0.00000000E+00
  0.00000000E+00  0.00000000E+00  0.00000000E+00
  0.00000000E+00  0.00000000E+00  0.00000000E+00
  0.00000000E+00  0.00000000E+00  0.00000000E+00
  0.00000000E+00  0.00000000E+00  0.00000000E+00
  0.00000000E+00  0.00000000E+00  0.00000000E+00
  0.00000000E+00  0.00000000E+00  0.00000000E+00
  0.00000000E+00  0.00000000E+00  0.00000000E+00
  0.00000000E+00  0.00000000E+00  0.00000000E+00
  0.00000000E+00  0.00000000E+00  0.00000000E+00
  0.00000000E+00  0.00000000E+00  0.00000000E+00
  0.00000000E+00  0.00000000E+00  0.00000000E+00
  0.00000000E+00  0.00000000E+00  0.00000000E+00
  0.00000000E+00  0.00000000E+00  0.00000000E+00
  0.00000000E+00  0.00000000E+00  0.00000000E+00
  0.00000000E+00  0.00000000E+00  0.00000000E+00
  0.00000000E+00  0.00000000E+00  0.00000000E+00
  0.00000000E+00  0.00000000E+00  0.00000000E+00
  0.00000000E+00  0.00000000E+00  0.00000000E+00
  0.00000000E+00  0.00000000E+00  0.00000000E+00
  0.00000000E+00  0.00000000E+00  0.00000000E+00
  0.00000000E+00  0.00000000E+00  0.00000000E+00
  0.00000000E+00  0.00000000E+00  0.00000000E+00
  0.00000000E+00  0.00000000E+00  0.00000000E+00
  0.00000000E+00  0.00000000E+00  0.00000000E+00
  0.00000000E+00  0.00000000E+00  0.00000000E+00
  0.00000000E+00  0.00000000E+00  0.00000000E+00
  0.00000000E+00  0.00000000E+00  0.00000000E+00
  0.00000000E+00  0.00000000E+00  0.00000000E+00
  0.00000000E+00  0.00000000E+00  0.00000000E+00
  0.00000000E+00  0.00000000E+00  0.00000000E+00
  0.00000000E+00  0.00000000E+00  0.00000000E+00
  0.00000000E+00  0.00000000E+00  0.00000000E+00
  0.00000000E+00  0.00000000E+00  0.00000000E+00
  0.00000000E+00  0.00000000E+00  0.00000000E+00
  0.00000000E+00  0.00000000E+00  0.00000000E+00
  0.00000000E+00  0.00000000E+00  0.00000000E+00
  0.00000000E+00  0.00000000E+00  0.00000000E+00
  0.00000000E+00  0.00000000E+00  0.00000000E+00
  0.00000000E+00  0.00000000E+00  0.00000000E+00
  0.00000000E+00  0.00000000E+00  0.00000000E+00
  0.00000000E+00  0.00000000E+00  0.00000000E+00
  0.00000000E+00  0.00000000E+00  0.00000000E+00
  0.00000000E+00  0.00000000E+00  0.00000000E+00
  0.00000000E+00  0.00000000E+00  0.00000000E+00
  0.00000000E+00  0.00000000E+00  0.00000000E+00
  0.00000000E+00  0.00000000E+00  0.00000000E+00
  0.00000000E+00  0.00000000E+00  0.00000000E+00
  0.00000000E+00  0.00000000E+00  0.00000000E+00
  0.00000000E+00  0.00000000E+00  0.00000000E+00
  0.00000000E+00  0.00000000E+00  0.00000000E+00
  0.00000000E+00  0.00000000E+00  0.00000000E+00
  0.00000000E+00  0.00000000E+00  0.00000000E+00
  0.00000000E+00  0.00000000E+00  0.00000000E+00
  0.00000000E+00  0.00000000E+00  0.00000000E+00
  0.00000000E+00  0.00000000E+00  0.00000000E+00
  0.00000000E+00  0.00000000E+00  0.00000000E+00
  0.00000000E+00  0.00000000E+00  0.00000000E+00
  0.00000000E+00  0.00000000E+00  0.00000000E+00
  0.00000000E+00  0.00000000E+00  0.00000000E+00
  0.00000000E+00  0.00000000E+00  0.00000000E+00
  0.00000000E+00  0.00000000E+00  0.00000000E+00
  0.00000000E+00  0.00000000E+00  0.00000000E+00
  0.00000000E+00  0.00000000E+00  0.00000000E+00
  0.00000000E+00  0.00000000E+00  0.00000000E+00
  0.00000000E+00  0.00000000E+00  0.00000000E+00
  0.00000000E+00  0.00000000E+00  0.00000000E+00
  0.00000000E+00  0.00000000E+00  0.00000000E+00
  0.00000000E+00  0.00000000E+00  0.00000000E+00
  0.00000000E+00  0.00000000E+00  0.00000000E+00
  0.00000000E+00  0.00000000E+00  0.00000000E+00
  0.00000000E+00  0.00000000E+00  0.00000000E+00
  0.00000000E+00  0.00000000E+00  0.00000000E+00
  0.00000000E+00  0.00000000E+00  0.00000000E+00
  0.00000000E+00  0.00000000E+00  0.00000000E+00
  0.00000000E+00  0.00000000E+00  0.00000000E+00
  0.00000000E+00  0.00000000E+00  0.00000000E+00
  0.00000000E+00  0.00000000E+00  0.00000000E+00
  0.00000000E+00  0.00000000E+00  0.00000000E+00
  0.00000000E+00  0.00000000E+00  0.00000000E+00
  0.00000000E+00  0.00000000E+00  0.00000000E+00
  0.00000000E+00  0.00000000E+00  0.00000000E+00
  0.00000000E+00  0.00000000E+00  0.00000000E+00
  0.00000000E+00  0.00000000E+00  0.00000000E+00
  0.00000000E+00  0.00000000E+00  0.00000000E+00
  0.00000000E+00  0.00000000E+00  0.00000000E+00
  0.00000000E+00  0.00000000E+00  0.00000000E+00
  0.00000000E+00  0.00000000E+00  0.00000000E+00
  0.00000000E+00  0.00000000E+00  0.00000000E+00
  0.00000000E+00  0.00000000E+00  0.00000000E+00
  0.00000000E+00  0.00000000E+00  0.00000000E+00
  0.00000000E+00  0.00000000E+00  0.00000000E+00
  0.00000000E+00  0.00000000E+00  0.00000000E+00
  0.00000000E+00  0.00000000E+00  0.00000000E+00
  0.00000000E+00  0.00000000E+00  0.00000000E+00
  0.00000000E+00  0.00000000E+00  0.00000000E+00
  0.00000000E+00  0.00000000E+00  0.00000000E+00
  0.00000000E+00  0.00000000E+00  0.00000000E+00
  0.00000000E+00  0.00000000E+00  0.00000000E+00
  0.00000000E+00  0.00000000E+00  0.00000000E+00
  0.00000000E+00  0.00000000E+00  0.00000000E+00
  0.00000000E+00  0.00000000E+00  0.00000000E+00
  0.00000000E+00  0.00000000E+00  0.00000000E+00
  0.00000000E+00  0.00000000E+00  0.00000000E+00
  0.00000000E+00  0.00000000E+00  0.00000000E+00
  0.00000000E+00  0.00000000E+00  0.00000000E+00
  0.00000000E+00  0.00000000E+00  0.00000000E+00
  0.00000000E+00  0.00000000E+00  0.00000000E+00
  0.00000000E+00  0.00000000E+00  0.00000000E+00
  0.00000000E+00  0.00000000E+00  0.00000000E+00
  0.00000000E+00  0.00000000E+00  0.00000000E+00
  0.00000000E+00  0.00000000E+00  0.00000000E+00
  0.00000000E+00  0.00000000E+00  0.00000000E+00
  0.00000000E+00  0.00000000E+00  0.00000000E+00
  0.00000000E+00  0.00000000E+00  0.00000000E+00
  0.00000000E+00  0.00000000E+00  0.00000000E+00
  0.00000000E+00  0.00000000E+00  0.00000000E+00
  0.00000000E+00  0.00000000E+00  0.00000000E+00
  0.00000000E+00  0.00000000E+00  0.00000000E+00
  0.00000000E+00  0.00000000E+00  0.00000000E+00
  0.00000000E+00  0.00000000E+00  0.00000000E+00
  0.00000000E+00  0.00000000E+00  0.00000000E+00
  0.00000000E+00  0.00000000E+00  0.00000000E+00
  0.00000000E+00  0.00000000E+00  0.00000000E+00
  0.00000000E+00  0.00000000E+00  0.00000000E+00
  0.00000000E+00  0.00000000E+00  0.00000000E+00
  0.00000000E+00  0.00000000E+00  0.00000000E+00
  0.00000000E+00  0.00000000E+00  0.00000000E+00
  0.00000000E+00  0.00000000E+00  0.00000000E+00
  0.00000000E+00  0.00000000E+00  0.00000000E+00
  0.00000000E+00  0.00000000E+00  0.00000000E+00
  0.00000000E+00  0.00000000E+00  0.00000000E+00
  0.00000000E+00  0.00000000E+00  0.00000000E+00
  0.00000000E+00  0.00000000E+00  0.00000000E+00
  0.00000000E+00  0.00000000E+00  0.00000000E+00
  0.00000000E+00  0.00000000E+00  0.00000000E+00
  0.00000000E+00  0.00000000E+00  0.00000000E+00
  0.00000000E+00  0.00000000E+00  0.00000000E+00
  0.00000000E+00  0.00000000E+00  0.00000000E+00
  0.00000000E+00  0.00000000E+00  0.00000000E+00
  0.00000000E+00  0.00000000E+00  0.00000000E+00
  0.00000000E+00  0.00000000E+00  0.00000000E+00
  0.00000000E+00  0.00000000E+00  0.00000000E+00
  0.00000000E+00  0.00000000E+00  0.00000000E+00
  0.00000000E+00  0.00000000E+00  0.00000000E+00
  0.00000000E+00  0.00000000E+00  0.00000000E+00
  0.00000000E+00  0.00000000E+00  0.00000000E+00
  0.00000000E+00  0.00000000E+00  0.00000000E+00
  0.00000000E+00  0.00000000E+00  0.00000000E+00
  0.00000000E+00  0.00000000E+00  0.00000000E+00
  0.00000000E+00  0.00000000E+00  0.00000000E+00
  0.00000000E+00  0.00000000E+00  0.00000000E+00
  0.00000000E+00  0.00000000E+00  0.00000000E+00
  0.00000000E+00  0.00000000E+00  0.00000000E+00
  0.00000000E+00  0.00000000E+00  0.00000000E+00
  0.00000000E+00  0.00000000E+00  0.00000000E+00
  0.00000000E+00  0.00000000E+00  0.00000000E+00
  0.00000000E+00  0.00000000E+00  0.00000000E+00
  0.00000000E+00  0.00000000E+00  0.00000000E+00
  0.00000000E+00  0.00000000E+00  0.00000000E+00
  0.00000000E+00  0.00000000E+00  0.00000000E+00
  0.00000000E+00  0.00000000E+00  0.00000000E+00
  0.00000000E+00  0.00000000E+00  0.00000000E+00
  0.00000000E+00  0.00000000E+00  0.00000000E+00
  0.00000000E+00  0.00000000E+00  0.00000000E+00
  0.00000000E+00  0.00000000E+00  0.00000000E+00
  0.00000000E+00  0.00000000E+00  0.00000000E+00
  0.00000000E+00  0.00000000E+00  0.00000000E+00
  0.00000000E+00  0.00000000E+00  0.00000000E+00
  0.00000000E+00  0.00000000E+00  0.00000000E+00
  0.00000000E+00  0.00000000E+00  0.00000000E+00
  0.00000000E+00  0.00000000E+00  0.00000000E+00
  0.00000000E+00  0.00000000E+00  0.00000000E+00
  0.00000000E+00  0.00000000E+00  0.00000000E+00
  0.00000000E+00  0.00000000E+00  0.00000000E+00
  0.00000000E+00  0.00000000E+00  0.00000000E+00
  0.00000000E+00  0.00000000E+00  0.00000000E+00
  0.00000000E+00  0.00000000E+00  0.00000000E+00
  0.00000000E+00  0.00000000E+00  0.00000000E+00
  0.00000000E+00  0.00000000E+00  0.00000000E+00
  0.00000000E+00  0.00000000E+00  0.00000000E+00
  0.00000000E+00  0.00000000E+00  0.00000000E+00
  0.00000000E+00  0.00000000E+00  0.00000000E+00
  0.00000000E+00  0.00000000E+00  0.00000000E+00
  0.00000000E+00  0.00000000E+00  0.00000000E+00
  0.00000000E+00  0.00000000E+00  0.00000000E+00
  0.00000000E+00  0.00000000E+00  0.00000000E+00
  0.00000000E+00  0.00000000E+00  0.00000000E+00
  0.00000000E+00  0.00000000E+00  0.00000000E+00
  0.00000000E+00  0.00000000E+00  0.00000000E+00
  0.00000000E+00  0.00000000E+00  0.00000000E+00
  0.00000000E+00  0.00000000E+00  0.00000000E+00
  0.00000000E+00  0.00000000E+00  0.00000000E+00
  0.00000000E+00  0.00000000E+00  0.00000000E+00
  0.00000000E+00  0.00000000E+00  0.00000000E+00
  0.00000000E+00  0.00000000E+00  0.00000000E+00
  0.00000000E+00  0.00000000E+00  0.00000000E+00
  0.00000000E+00  0.00000000E+00  0.00000000E+00
  0.00000000E+00  0.00000000E+00  0.00000000E+00
  0.00000000E+00  0.00000000E+00  0.00000000E+00
  0.00000000E+00  0.00000000E+00  0.00000000E+00
  0.00000000E+00  0.00000000E+00  0.00000000E+00
  0.00000000E+00  0.00000000E+00  0.00000000E+00
  0.00000000E+00  0.00000000E+00  0.00000000E+00
  0.00000000E+00  0.00000000E+00  0.00000000E+00
  0.00000000E+00  0.00000000E+00  0.00000000E+00
  0.00000000E+00  0.00000000E+00  0.00000000E+00
  0.00000000E+00  0.00000000E+00  0.00000000E+00
  0.00000000E+00  0.00000000E+00  0.00000000E+00
  0.00000000E+00  0.00000000E+00  0.00000000E+00
  0.00000000E+00  0.00000000E+00  0.00000000E+00
  0.00000000E+00  0.00000000E+00  0.00000000E+00
  0.00000000E+00  0.00000000E+00  0.00000000E+00
  0.00000000E+00  0.00000000E+00  0.00000000E+00
  0.00000000E+00  0.00000000E+00  0.00000000E+00
  0.00000000E+00  0.00000000E+00  0.00000000E+00
  0.00000000E+00  0.00000000E+00  0.00000000E+00
  0.00000000E+00  0.00000000E+00  0.00000000E+00
  0.00000000E+00  0.00000000E+00  0.00000000E+00
  0.00000000E+00  0.00000000E+00  0.00000000E+00
  0.00000000E+00  0.00000000E+00  0.00000000E+00