Ge Se                                   
   1.00000000000000     
    20.8706398010253906    0.0000000000000000    0.0000000000000000
     0.0000000000000000   20.8706398010253906    0.0000000000000000
     0.0000000000000000    0.0000000000000000   20.8706398010253906
   Ge   Se
   150   150
Direct
  0.2260459423071105  0.8578756190191981  0.5803845355350339
  0.4742228083007544  0.3341432733792553  0.6956466705022772
  0.0687780710913432  0.2813871218735997  0.6324656655668568
  0.2136922416649268  0.0119837477687823  0.4830201382912584
  0.4001216565965433  0.7306451861634951  0.0267102963554240
  0.5132278494856822  0.8863764216354726  0.9321514754968304
  0.6340854166071769  0.4847205783618979  0.2017988452709187
  0.3590828864957023  0.2947707443681640  0.8221914086696032
  0.5573543763830363  0.7797997812434084  0.0032975579978487
  0.3135139749270046  0.6913235697675737  0.2329563436172816
  0.4967328908754059  0.0222130903722547  0.4784256424086745
  0.2895540229162686  0.7494724748813842  0.7030793504230402
  0.4242106850491944  0.3378659400625789  0.2716180622253153
  0.3879647116122452  0.0945751026515229  0.9193923544340207
  0.6057113263249201  0.6410779605854157  0.2851826074632687
  0.6363214358430664  0.0889832477680887  0.9525076554736208
  0.6058265588899951  0.7885244978782582  0.2174062385636631
  0.2594815380956345  0.3351467892099188  0.9580519568549950
  0.1823124789932093  0.4006450599051072  0.4118072957615648
  0.0591481407580695  0.3445394168913370  0.9542791425179098
  0.7983866364117397  0.9754703228304966  0.6327892095545238
  0.0090037833429555  0.4674458126814888  0.1046067584646486
  0.0580740735573353  0.9786616247009159  0.8920699362727830
  0.2863073519243224  0.4943668752359985  0.5883935290385823
  0.4245595045797160  0.0737385842023234  0.6350923396896569
  0.3082327928414523  0.1148065627173023  0.2057390133699177
  0.9884354735434888  0.6178608841418957  0.9731387352929861
  0.3141350682650855  0.1718138989152369  0.0562102100734342
  0.4218492201992630  0.7922249648632513  0.6348065698152159
  0.0695526471864668  0.2685978409843980  0.4127066174318804
  0.5477096268947557  0.9703587690506355  0.6527128062287215
  0.7862036044890852  0.1657666051204018  0.0949036290104722
  0.1188478886246373  0.8539286444176376  0.4510208105698295
  0.4409416412710360  0.4455167837077722  0.7871276725055680
  0.9710412225998667  0.1535760946590367  0.1455010312672133
  0.0055640216042695  0.7422237421875942  0.6932965399809509
  0.1106806558959577  0.5537897118623557  0.5974858833114285
  0.1428916335692649  0.7145686902438269  0.2502236167977512
  0.2362572236140962  0.1207748116272308  0.7016191347067277
  0.7804234313446713  0.6688222228485270  0.9753388579394701
  0.2338381292917568  0.8383172748231797  0.2890090556496653
  0.3154778388944566  0.9910674121265827  0.2918669106312644
  0.4920525138791242  0.5984257598613368  0.8049411915245842
  0.7870777252320703  0.5145784049398990  0.2864809032776716
  0.3599512326694666  0.1409157630122425  0.5353621925020032
  0.9897935532610770  0.7416765378044805  0.4009199253390309
  0.1940096531463924  0.3051029155502250  0.2511795091538271
  0.9586995327913790  0.9447998706742861  0.6571803882188409
  0.3096713408149717  0.5154947718062080  0.2452038021408865
  0.8893791891443615  0.6616346492083214  0.2789375317192244
  0.3651769134498181  0.8834149865238666  0.1830135072853943
  0.7764625486003104  0.7418959140592501  0.5487668496563481
  0.4940932230982841  0.1618287591467089  0.0508000747119727
  0.3489879458554978  0.3073182408337180  0.1393612342696740
  0.5452039348138160  0.4234179281587722  0.8850395192310693
  0.3252662445665053  0.8140447653103258  0.8916896168637470
  0.6369896717987117  0.2040367933166953  0.9128364331340864
  0.6634413200145195  0.3736041642314110  0.9192646833909183
  0.1270341207205415  0.1137041905116953  0.0500689300838473
  0.8782588102804472  0.7897091160664990  0.2377386789967943
  0.0041060384308343  0.4466231874149379  0.6520484871195307
  0.8547636646195564  0.2701857293980452  0.5647659253687487
  0.6435697882874020  0.8574525614624601  0.8814107457653167
  0.3221207153274442  0.5019295737342312  0.4140721107782406
  0.8442542062451236  0.1140347868688300  0.5612388436794016
  0.1185358107761390  0.1279985314458466  0.2423719192008707
  0.9550500852296455  0.3268057321840946  0.0971791511845568
  0.7104820632661990  0.3562369201907255  0.3087039316123059
  0.0097131471609252  0.1663905713961009  0.5320120264921171
  0.7121808131765963  0.3624143950105279  0.6250706415138613
  0.0249738402839409  0.2896489534506050  0.7883393774825346
  0.6524408738730859  0.1585375705053490  0.2329415411723390
  0.9589739163072327  0.0700355224985083  0.2345922292766228
  0.0892029558888302  0.4643312336135975  0.3455400177977496
  0.8658117591510568  0.5537175751204684  0.0778914578827745
  0.5299782429828283  0.8682247489267753  0.3694277184570995
  0.3807438692544235  0.1224034255175883  0.7861859732896160
  0.9063261662204160  0.5667445906640656  0.8154271143211947
  0.7243054659088809  0.3670887735742887  0.4923384063720945
  0.2515832387878285  0.5531593646970454  0.7162976753182770
  0.7169749950655616  0.0079341270574391  0.9054734732581918
  0.9606658911418799  0.1104958028656634  0.9815067838787507
  0.0303088109145203  0.5684593264947262  0.3864892802150393
  0.5234194105844427  0.4323667686836641  0.1912618044479346
  0.9271143722109201  0.5054609551847845  0.3668580251580085
  0.2601595612183355  0.2828079975788413  0.6403713359122489
  0.8233178912020106  0.2045318065398839  0.2096785495854175
  0.8310760404965473  0.3927528406552043  0.5603717772018657
  0.7715763733323046  0.4778796760021479  0.9888475281612586
  0.6588917505540985  0.8694979757594010  0.6119707370366795
  0.0833253107646736  0.8246461010650857  0.6441450553255265
  0.3578868801336029  0.2981054605231150  0.5667092875066424
  0.5851595155395926  0.3222037782631101  0.3291835441109797
  0.6894197950231510  0.8123488262236906  0.3098827990327405
  0.4626975529419173  0.6063470290223314  0.1379862834079958
  0.9025536908477548  0.5160556511263275  0.6794072125254852
  0.0274840950195645  0.7203850633167956  0.8095509356945284
  0.5635338201243268  0.5982657660594228  0.0552957669306203
  0.9452014632205514  0.9447713563493246  0.2560023151763824
  0.0598786724989930  0.8023740297237725  0.2013989951796515
  0.4891157414571888  0.8103400312785456  0.2649865731206568
  0.0982574248508262  0.3362474231362348  0.5250390292147536
  0.1450229793551568  0.7474277418831412  0.8158489937824192
  0.1551480543404437  0.3910682314652233  0.1627106628124512
  0.9925415713786788  0.8107894046158554  0.0648219815397501
  0.9595835457323707  0.6544906787155080  0.5537662303002227
  0.3983473758284824  0.9334586063634487  0.9628197764731633
  0.9747472798231186  0.8004087742737741  0.8848943420893721
  0.7382761178895885  0.0958567203268463  0.6285101124521159
  0.8885606476573453  0.7213442417552047  0.6731570139138322
  0.8279694357594404  0.8161198192628435  0.6288269204630687
  0.0790114460518157  0.9494497934221107  0.6197408613559960
  0.1980780141114337  0.4045529336481650  0.7138666654550486
  0.4097801742228322  0.4297310343194577  0.4543658872239412
  0.2157194439578368  0.0075483919139098  0.3566695096768345
  0.1634719072211645  0.4850823430264000  0.8944846496507207
  0.2435389376024905  0.6493056531787116  0.9195638910437267
  0.1820891341491952  0.8122920993913681  0.9139591053262787
  0.4272808475495956  0.9027472247344922  0.7894802499569236
  0.5306769179116341  0.9064751984477576  0.1061808541738572
  0.7942510978845611  0.7631159709640787  0.4247196356522179
  0.5611618783942892  0.3188149929103958  0.1498117921944564
  0.5293131001226575  0.9811575471534568  0.8367260378952580
  0.8935535839705662  0.8871491431472123  0.8391855465728325
  0.9470342990163444  0.9287810291002376  0.0932192126759585
  0.6986115981084403  0.1713300603461514  0.5303687893525875
  0.4525498043087990  0.4040181214452248  0.0514863875497304
  0.6307700157217323  0.0979720469952708  0.0759990185380768
  0.4716274576453509  0.5566845100200808  0.3516002579031604
  0.8101879602810205  0.6433760473636080  0.6173811953573483
  0.7287603489714607  0.6403793526694926  0.1655242552972544
  0.8675356014279950  0.3821637325868738  0.9576703422890307
  0.9607333188604955  0.4434299101168085  0.8501908600507204
  0.5604376830160788  0.2986899116651499  0.8209117603359983
  0.3745515826711752  0.5329586175882721  0.9633865050041440
  0.7396366630824130  0.7115467708067204  0.8445667755154546
  0.2663990135852868  0.6508697999806625  0.5318384604749455
  0.4988134763384371  0.1484635883171633  0.4848130730411959
  0.6017778777952885  0.4676928726706250  0.4415708458057182
  0.6204351315706358  0.6948451106004503  0.1360951065583491
  0.3697652987372511  0.5933703041587498  0.6852502566133625
  0.4261877721906753  0.3222741672643530  0.3965369075714902
  0.6179654212290402  0.1228294109878172  0.4433108059755410
  0.6553388137045686  0.8343804702808071  0.4697327818505090
  0.7425207010031354  0.2877597168731115  0.0518714904675295
  0.7554712105782075  0.6106176859162123  0.7324700977378554
  0.7349960996789435  0.8309587763995502  0.1161324832851112
  0.1706506537642068  0.5519418613025805  0.1541356239487867
  0.6283612238803945  0.0407660604789671  0.5947135732758966
  0.6994190069344360  0.5584543197714359  0.8564893881074438
  0.5753624383358169  0.0725629256721134  0.2506709205712055
  0.7521826640955225  0.8737125205990525  0.6959766960253267
  0.9398799911845035  0.9842949442247942  0.8901097351405954
  0.5381942708275756  0.8170886169808367  0.4734015196528739
  0.3643116915331954  0.0333848540501649  0.0169296676030152
  0.0208443799564712  0.6207438518838774  0.6528265277911307
  0.4531094561745747  0.9658619809536307  0.5800739663567286
  0.3329908036055044  0.0423928131824443  0.4798254300153486
  0.1178606005130548  0.2336418431239690  0.1970642314854409
  0.0346909398683178  0.9204430997605414  0.1776790016983836
  0.1046280023775691  0.7945189773651801  0.0888375171145233
  0.4915695757942259  0.5075159917855357  0.4743444107414601
  0.7666955393363032  0.9102723664762943  0.0326175008330817
  0.9031520050017358  0.4262584426683816  0.1396336769706799
  0.5890289160241562  0.5152619408834206  0.8209861486294017
  0.3486310026801939  0.8600581412294586  0.7046119247795433
  0.3864411020815289  0.5399039504637851  0.8399497068020753
  0.6709847147541134  0.3690203753255830  0.1946060725218505
  0.4273371554409595  0.4875704107815308  0.1509942756230639
  0.9790461030055785  0.4382999573676560  0.9742393093646390
  0.6710844907026910  0.7517279906932014  0.0417846618255484
  0.9740767393762157  0.3351717883707004  0.6833157252596544
  0.9656523662573895  0.7430613135473103  0.1598443808638433
  0.2044738407110540  0.6328592097011853  0.6382997086837550
  0.4523925449173249  0.8079359501580879  0.8642808660956963
  0.4715190353137749  0.5300380723102951  0.7017500216595812
  0.9790437436443107  0.5859048027990212  0.0997614376298399
  0.3029670322334969  0.2561705805605297  0.2417999356954345
  0.3116773079373992  0.7657128347251720  0.5789887126719903
  0.2892894984566628  0.9818776370995355  0.1786982239078181
  0.9894069639667691  0.4059363143175029  0.3589100109519251
  0.5346169676630594  0.2972394049391067  0.4334334762578338
  0.5308194193331542  0.0611841124823591  0.1221065545994582
  0.6605313153399630  0.0856734101898569  0.3363669430231033
  0.2748388541465783  0.4326005327130792  0.3307126718233228
  0.8473725015886642  0.6839567234758648  0.7836618084911157
  0.2056926828096909  0.6418691163983385  0.8082471203186936
  0.4092374057232543  0.6984132634213926  0.7201496009464731
  0.8720647369087517  0.5786003458418439  0.9474776996767170
  0.1386328638256498  0.7765010694126301  0.5488295708441178
  0.2407309283209531  0.4233409299684433  0.8269349237841882
  0.1006664374128396  0.4848111660050682  0.7107788607885845
  0.0577897172354486  0.6205281231670663  0.4860946640734553
  0.3373508441586269  0.9442885580235370  0.8612345564284525
  0.7503668272305057  0.4488715181469353  0.8696806368197100
  0.9579401312348864  0.2658798703789751  0.5055178609773966
  0.2514612730365761  0.2800733158961788  0.0695656417396828
  0.4608581412715499  0.2406108612033762  0.7758945153625658
  0.9307233772448577  0.2557503796445160  0.1950024714953996
  0.1865667307655200  0.2845958620933792  0.3691731220998706
  0.3892170371119686  0.0781687780668529  0.2870757134691528
  0.6644982246008998  0.7513102974238710  0.5786077536968094
  0.3533129044000942  0.6835615619440301  0.9171598494273034
  0.2391178022045388  0.8925261775966670  0.4629472802699505
  0.8780087303593209  0.6788584628639219  0.4032646954225722
  0.8604794069390128  0.9021872107203973  0.1780978369639286
  0.8833088402533379  0.9010396008325168  0.5697657271091841
  0.7346060605339442  0.2703940339526127  0.9300710251323288
  0.8775049884461794  0.5600269929990460  0.5649113097539664
  0.5502949606708879  0.1325496983059007  0.5929787012413148
  0.7194843689299668  0.0787495291676208  0.1505421610185793
  0.8041263814939408  0.1975831639853602  0.4793233739694535
  0.8982836545182702  0.3432096221605061  0.8479882138472529
  0.3449412756401454  0.2611668231522354  0.4544638669174792
  0.7559263550500328  0.8262501744210734  0.8688453389256334
  0.2101889635710100  0.3604802751643618  0.5572030323970645
  0.0684317690433438  0.3908912032409287  0.8385061872707107
  0.5135437699627231  0.4883088223636340  0.9877544122377300
  0.3265125307380687  0.0406997228215822  0.7100257309209016
  0.0672622622615615  0.8589388828700563  0.9329511996191527
  0.3624813391757565  0.4086921265422179  0.9699448109315374
  0.1990428169112163  0.7500639061359483  0.3521780586969523
  0.9442954076819879  0.0729019445854721  0.5166927433065072
  0.2515092828020367  0.1687504886622709  0.5903322148163679
  0.3584417236773546  0.3729973171098731  0.7226235607273948
  0.4791076115883484  0.9239161051162368  0.2161515693902749
  0.6773808740096395  0.6988027371743383  0.7433575777655770
  0.3584286099065735  0.6020677548685998  0.3727505584331919
  0.8818994178461289  0.0208458523530822  0.7019703222517011
  0.5199454286534128  0.2593754725086092  0.2486951319083713
  0.0446361472263015  0.1689449371577521  0.6422153957575847
  0.0179773028410831  0.6063127166653309  0.8341448048402360
  0.3751823241656365  0.2042795078764937  0.9566923599806697
  0.5160989006241798  0.4218643516972472  0.3104173131710080
  0.6089156513338198  0.2124352622237006  0.0852308839077684
  0.2849991661985755  0.1969230652484850  0.7887304547506581
  0.8852510830097527  0.0928647513927783  0.0835857646790822
  0.7986216302635490  0.8479242369557545  0.3429357735296858
  0.0302358687859278  0.1931408075097709  0.0509440889118987
  0.4107869914678711  0.1973346100065076  0.1360073343320287
  0.6398587997482867  0.8907362707157092  0.1659330931756842
  0.6481289661147042  0.9653463010340547  0.8160063741742427
  0.9641741463247101  0.8264921401714345  0.3169759080803813
  0.1047178235384035  0.1679016997289555  0.4679976809601678
  0.8542842130402216  0.1125379923906153  0.2738448292036570
  0.8191216665938003  0.5003031709610943  0.4040783839981334
  0.6179687629707286  0.0050648362657740  0.4833661935301841
  0.4858174684161846  0.6426705740579791  0.2484329191478562
  0.0325481797361273  0.4350642893304102  0.5394374204634556
  0.5016434332687107  0.7850687755439042  0.1089319081840560
  0.1691637970484966  0.8221177620546053  0.7277762188068120
  0.8209413764328070  0.6714849729576097  0.0991374082205064
  0.4664593355274039  0.2722757815686257  0.5934197152075188
  0.0469675815248749  0.0264660101559302  0.0083698574181836
  0.9098304663155203  0.5413187382660872  0.2566743786951733
  0.8238824155635182  0.4247516541141455  0.6759138322053818
  0.7213489230776964  0.5258530127353627  0.1366421241627842
  0.5245525366275823  0.0684486802286762  0.9187135065962221
  0.1398115728364139  0.2889769519661499  0.7260071746463314
  0.6651247823172948  0.9305995746665590  0.9850078983299085
  0.6519817139358065  0.2790436310325305  0.5476374594354927
  0.0898044628555260  0.4808775718530514  0.2209167374153406
  0.8698941294395504  0.2806202606150367  0.0236796400949286
  0.5478003429977514  0.2729112100789655  0.9396917542914394
  0.2229488868054695  0.6038737823980589  0.2533679569488900
  0.6236897653173094  0.5869906680237853  0.4643942178365045
  0.3798975274328667  0.4170466858975150  0.5662700380477346
  0.0344918197539635  0.1085322361496063  0.3174489624469841
  0.6838894263314917  0.7302486043210357  0.3979543172252387
  0.2171773974913939  0.1164695794224796  0.3031248272251875
  0.6921049105130185  0.5816906920224958  0.9765941070234659
  0.5127525502442755  0.0504438930260110  0.7326555715141975
  0.8588867653249171  0.1912729332562410  0.6497166323120549
  0.2374845860224011  0.7812508179714194  0.1857514548545375
  0.9704988316547640  0.8656408724060545  0.7437377801791387
  0.3673587760455842  0.5905165439401918  0.5659707403552207
  0.1549958329466593  0.9236027363201259  0.2989108583401307
  0.7754517395854853  0.2567603957885984  0.3042032241824926
  0.5155126631053294  0.6713372244531276  0.9725536596991993
  0.2306589998112852  0.5209231436908038  0.4847990073973248
  0.1100669826550836  0.0561580724399220  0.1542303243804178
  0.0604740444833898  0.9454994812357419  0.5054469327005475
  0.2545232606943978  0.4604079954267999  0.1482501020366859
  0.6431568517428656  0.5256190767428355  0.3105361808002267
  0.5664752147954076  0.8641588292198118  0.6926214180125382
  0.0281258142656140  0.6619389238422421  0.3152598385549338
  0.2468971620911584  0.5448224092203199  0.9677679117600010
  0.6613655200798729  0.4498352013503707  0.5534230794435624
  0.9418595085370847  0.7362125404485895  0.9815820147409839
  0.7648570013310463  0.6404030272151249  0.2781754025819185
  0.1598247072857223  0.4057899525730936  0.9921671301122396
  0.1717431680458000  0.7128616178800953  0.9816300791784389
  0.3458637086285865  0.8736207053135664  0.3084720181690589
  0.6372687157245558  0.2084187108506065  0.7986126373222491
  0.3309983153836142  0.8472038456253150  0.0091901084850579
  0.6824603644736567  0.4009502734067583  0.0328237522133400
  0.4653251460195196  0.9644129071366272  0.3842452962538561
  0.5507454555940609  0.6442208391880287  0.3966756867901122
  0.6408218569364988  0.9077734916806303  0.3579927083697810
  0.3516910712117821  0.6499955269700902  0.1190685483322489
 
  0.00000000E+00  0.00000000E+00  0.00000000E+00
  0.00000000E+00  0.00000000E+00  0.00000000E+00
  0.00000000E+00  0.00000000E+00  0.00000000E+00
  0.00000000E+00  0.00000000E+00  0.00000000E+00
  0.00000000E+00  0.00000000E+00  0.00000000E+00
  0.00000000E+00  0.00000000E+00  0.00000000E+00
  0.00000000E+00  0.00000000E+00  0.00000000E+00
  0.00000000E+00  0.00000000E+00  0.00000000E+00
  0.00000000E+00  0.00000000E+00  0.00000000E+00
  0.00000000E+00  0.00000000E+00  0.00000000E+00
  0.00000000E+00  0.00000000E+00  0.00000000E+00
  0.00000000E+00  0.00000000E+00  0.00000000E+00
  0.00000000E+00  0.00000000E+00  0.00000000E+00
  0.00000000E+00  0.00000000E+00  0.00000000E+00
  0.00000000E+00  0.00000000E+00  0.00000000E+00
  0.00000000E+00  0.00000000E+00  0.00000000E+00
  0.00000000E+00  0.00000000E+00  0.00000000E+00
  0.00000000E+00  0.00000000E+00  0.00000000E+00
  0.00000000E+00  0.00000000E+00  0.00000000E+00
  0.00000000E+00  0.00000000E+00  0.00000000E+00
  0.00000000E+00  0.00000000E+00  0.00000000E+00
  0.00000000E+00  0.00000000E+00  0.00000000E+00
  0.00000000E+00  0.00000000E+00  0.00000000E+00
  0.00000000E+00  0.00000000E+00  0.00000000E+00
  0.00000000E+00  0.00000000E+00  0.00000000E+00
  0.00000000E+00  0.00000000E+00  0.00000000E+00
  0.00000000E+00  0.00000000E+00  0.00000000E+00
  0.00000000E+00  0.00000000E+00  0.00000000E+00
  0.00000000E+00  0.00000000E+00  0.00000000E+00
  0.00000000E+00  0.00000000E+00  0.00000000E+00
  0.00000000E+00  0.00000000E+00  0.00000000E+00
  0.00000000E+00  0.00000000E+00  0.00000000E+00
  0.00000000E+00  0.00000000E+00  0.00000000E+00
  0.00000000E+00  0.00000000E+00  0.00000000E+00
  0.00000000E+00  0.00000000E+00  0.00000000E+00
  0.00000000E+00  0.00000000E+00  0.00000000E+00
  0.00000000E+00  0.00000000E+00  0.00000000E+00
  0.00000000E+00  0.00000000E+00  0.00000000E+00
  0.00000000E+00  0.00000000E+00  0.00000000E+00
  0.00000000E+00  0.00000000E+00  0.00000000E+00
  0.00000000E+00  0.00000000E+00  0.00000000E+00
  0.00000000E+00  0.00000000E+00  0.00000000E+00
  0.00000000E+00  0.00000000E+00  0.00000000E+00
  0.00000000E+00  0.00000000E+00  0.00000000E+00
  0.00000000E+00  0.00000000E+00  0.00000000E+00
  0.00000000E+00  0.00000000E+00  0.00000000E+00
  0.00000000E+00  0.00000000E+00  0.00000000E+00
  0.00000000E+00  0.00000000E+00  0.00000000E+00
  0.00000000E+00  0.00000000E+00  0.00000000E+00
  0.00000000E+00  0.00000000E+00  0.00000000E+00
  0.00000000E+00  0.00000000E+00  0.00000000E+00
  0.00000000E+00  0.00000000E+00  0.00000000E+00
  0.00000000E+00  0.00000000E+00  0.00000000E+00
  0.00000000E+00  0.00000000E+00  0.00000000E+00
  0.00000000E+00  0.00000000E+00  0.00000000E+00
  0.00000000E+00  0.00000000E+00  0.00000000E+00
  0.00000000E+00  0.00000000E+00  0.00000000E+00
  0.00000000E+00  0.00000000E+00  0.00000000E+00
  0.00000000E+00  0.00000000E+00  0.00000000E+00
  0.00000000E+00  0.00000000E+00  0.00000000E+00
  0.00000000E+00  0.00000000E+00  0.00000000E+00
  0.00000000E+00  0.00000000E+00  0.00000000E+00
  0.00000000E+00  0.00000000E+00  0.00000000E+00
  0.00000000E+00  0.00000000E+00  0.00000000E+00
  0.00000000E+00  0.00000000E+00  0.00000000E+00
  0.00000000E+00  0.00000000E+00  0.00000000E+00
  0.00000000E+00  0.00000000E+00  0.00000000E+00
  0.00000000E+00  0.00000000E+00  0.00000000E+00
  0.00000000E+00  0.00000000E+00  0.00000000E+00
  0.00000000E+00  0.00000000E+00  0.00000000E+00
  0.00000000E+00  0.00000000E+00  0.00000000E+00
  0.00000000E+00  0.00000000E+00  0.00000000E+00
  0.00000000E+00  0.00000000E+00  0.00000000E+00
  0.00000000E+00  0.00000000E+00  0.00000000E+00
  0.00000000E+00  0.00000000E+00  0.00000000E+00
  0.00000000E+00  0.00000000E+00  0.00000000E+00
  0.00000000E+00  0.00000000E+00  0.00000000E+00
  0.00000000E+00  0.00000000E+00  0.00000000E+00
  0.00000000E+00  0.00000000E+00  0.00000000E+00
  0.00000000E+00  0.00000000E+00  0.00000000E+00
  0.00000000E+00  0.00000000E+00  0.00000000E+00
  0.00000000E+00  0.00000000E+00  0.00000000E+00
  0.00000000E+00  0.00000000E+00  0.00000000E+00
  0.00000000E+00  0.00000000E+00  0.00000000E+00
  0.00000000E+00  0.00000000E+00  0.00000000E+00
  0.00000000E+00  0.00000000E+00  0.00000000E+00
  0.00000000E+00  0.00000000E+00  0.00000000E+00
  0.00000000E+00  0.00000000E+00  0.00000000E+00
  0.00000000E+00  0.00000000E+00  0.00000000E+00
  0.00000000E+00  0.00000000E+00  0.00000000E+00
  0.00000000E+00  0.00000000E+00  0.00000000E+00
  0.00000000E+00  0.00000000E+00  0.00000000E+00
  0.00000000E+00  0.00000000E+00  0.00000000E+00
  0.00000000E+00  0.00000000E+00  0.00000000E+00
  0.00000000E+00  0.00000000E+00  0.00000000E+00
  0.00000000E+00  0.00000000E+00  0.00000000E+00
  0.00000000E+00  0.00000000E+00  0.00000000E+00
  0.00000000E+00  0.00000000E+00  0.00000000E+00
  0.00000000E+00  0.00000000E+00  0.00000000E+00
  0.00000000E+00  0.00000000E+00  0.00000000E+00
  0.00000000E+00  0.00000000E+00  0.00000000E+00
  0.00000000E+00  0.00000000E+00  0.00000000E+00
  0.00000000E+00  0.00000000E+00  0.00000000E+00
  0.00000000E+00  0.00000000E+00  0.00000000E+00
  0.00000000E+00  0.00000000E+00  0.00000000E+00
  0.00000000E+00  0.00000000E+00  0.00000000E+00
  0.00000000E+00  0.00000000E+00  0.00000000E+00
  0.00000000E+00  0.00000000E+00  0.00000000E+00
  0.00000000E+00  0.00000000E+00  0.00000000E+00
  0.00000000E+00  0.00000000E+00  0.00000000E+00
  0.00000000E+00  0.00000000E+00  0.00000000E+00
  0.00000000E+00  0.00000000E+00  0.00000000E+00
  0.00000000E+00  0.00000000E+00  0.00000000E+00
  0.00000000E+00  0.00000000E+00  0.00000000E+00
  0.00000000E+00  0.00000000E+00  0.00000000E+00
  0.00000000E+00  0.00000000E+00  0.00000000E+00
  0.00000000E+00  0.00000000E+00  0.00000000E+00
  0.00000000E+00  0.00000000E+00  0.00000000E+00
  0.00000000E+00  0.00000000E+00  0.00000000E+00
  0.00000000E+00  0.00000000E+00  0.00000000E+00
  0.00000000E+00  0.00000000E+00  0.00000000E+00
  0.00000000E+00  0.00000000E+00  0.00000000E+00
  0.00000000E+00  0.00000000E+00  0.00000000E+00
  0.00000000E+00  0.00000000E+00  0.00000000E+00
  0.00000000E+00  0.00000000E+00  0.00000000E+00
  0.00000000E+00  0.00000000E+00  0.00000000E+00
  0.00000000E+00  0.00000000E+00  0.00000000E+00
  0.00000000E+00  0.00000000E+00  0.00000000E+00
  0.00000000E+00  0.00000000E+00  0.00000000E+00
  0.00000000E+00  0.00000000E+00  0.00000000E+00
  0.00000000E+00  0.00000000E+00  0.00000000E+00
  0.00000000E+00  0.00000000E+00  0.00000000E+00
  0.00000000E+00  0.00000000E+00  0.00000000E+00
  0.00000000E+00  0.00000000E+00  0.00000000E+00
  0.00000000E+00  0.00000000E+00  0.00000000E+00
  0.00000000E+00  0.00000000E+00  0.00000000E+00
  0.00000000E+00  0.00000000E+00  0.00000000E+00
  0.00000000E+00  0.00000000E+00  0.00000000E+00
  0.00000000E+00  0.00000000E+00  0.00000000E+00
  0.00000000E+00  0.00000000E+00  0.00000000E+00
  0.00000000E+00  0.00000000E+00  0.00000000E+00
  0.00000000E+00  0.00000000E+00  0.00000000E+00
  0.00000000E+00  0.00000000E+00  0.00000000E+00
  0.00000000E+00  0.00000000E+00  0.00000000E+00
  0.00000000E+00  0.00000000E+00  0.00000000E+00
  0.00000000E+00  0.00000000E+00  0.00000000E+00
  0.00000000E+00  0.00000000E+00  0.00000000E+00
  0.00000000E+00  0.00000000E+00  0.00000000E+00
  0.00000000E+00  0.00000000E+00  0.00000000E+00
  0.00000000E+00  0.00000000E+00  0.00000000E+00
  0.00000000E+00  0.00000000E+00  0.00000000E+00
  0.00000000E+00  0.00000000E+00  0.00000000E+00
  0.00000000E+00  0.00000000E+00  0.00000000E+00
  0.00000000E+00  0.00000000E+00  0.00000000E+00
  0.00000000E+00  0.00000000E+00  0.00000000E+00
  0.00000000E+00  0.00000000E+00  0.00000000E+00
  0.00000000E+00  0.00000000E+00  0.00000000E+00
  0.00000000E+00  0.00000000E+00  0.00000000E+00
  0.00000000E+00  0.00000000E+00  0.00000000E+00
  0.00000000E+00  0.00000000E+00  0.00000000E+00
  0.00000000E+00  0.00000000E+00  0.00000000E+00
  0.00000000E+00  0.00000000E+00  0.00000000E+00
  0.00000000E+00  0.00000000E+00  0.00000000E+00
  0.00000000E+00  0.00000000E+00  0.00000000E+00
  0.00000000E+00  0.00000000E+00  0.00000000E+00
  0.00000000E+00  0.00000000E+00  0.00000000E+00
  0.00000000E+00  0.00000000E+00  0.00000000E+00
  0.00000000E+00  0.00000000E+00  0.00000000E+00
  0.00000000E+00  0.00000000E+00  0.00000000E+00
  0.00000000E+00  0.00000000E+00  0.00000000E+00
  0.00000000E+00  0.00000000E+00  0.00000000E+00
  0.00000000E+00  0.00000000E+00  0.00000000E+00
  0.00000000E+00  0.00000000E+00  0.00000000E+00
  0.00000000E+00  0.00000000E+00  0.00000000E+00
  0.00000000E+00  0.00000000E+00  0.00000000E+00
  0.00000000E+00  0.00000000E+00  0.00000000E+00
  0.00000000E+00  0.00000000E+00  0.00000000E+00
  0.00000000E+00  0.00000000E+00  0.00000000E+00
  0.00000000E+00  0.00000000E+00  0.00000000E+00
  0.00000000E+00  0.00000000E+00  0.00000000E+00
  0.00000000E+00  0.00000000E+00  0.00000000E+00
  0.00000000E+00  0.00000000E+00  0.00000000E+00
  0.00000000E+00  0.00000000E+00  0.00000000E+00
  0.00000000E+00  0.00000000E+00  0.00000000E+00
  0.00000000E+00  0.00000000E+00  0.00000000E+00
  0.00000000E+00  0.00000000E+00  0.00000000E+00
  0.00000000E+00  0.00000000E+00  0.00000000E+00
  0.00000000E+00  0.00000000E+00  0.00000000E+00
  0.00000000E+00  0.00000000E+00  0.00000000E+00
  0.00000000E+00  0.00000000E+00  0.00000000E+00
  0.00000000E+00  0.00000000E+00  0.00000000E+00
  0.00000000E+00  0.00000000E+00  0.00000000E+00
  0.00000000E+00  0.00000000E+00  0.00000000E+00
  0.00000000E+00  0.00000000E+00  0.00000000E+00
  0.00000000E+00  0.00000000E+00  0.00000000E+00
  0.00000000E+00  0.00000000E+00  0.00000000E+00
  0.00000000E+00  0.00000000E+00  0.00000000E+00
  0.00000000E+00  0.00000000E+00  0.00000000E+00
  0.00000000E+00  0.00000000E+00  0.00000000E+00
  0.00000000E+00  0.00000000E+00  0.00000000E+00
  0.00000000E+00  0.00000000E+00  0.00000000E+00
  0.00000000E+00  0.00000000E+00  0.00000000E+00
  0.00000000E+00  0.00000000E+00  0.00000000E+00
  0.00000000E+00  0.00000000E+00  0.00000000E+00
  0.00000000E+00  0.00000000E+00  0.00000000E+00
  0.00000000E+00  0.00000000E+00  0.00000000E+00
  0.00000000E+00  0.00000000E+00  0.00000000E+00
  0.00000000E+00  0.00000000E+00  0.00000000E+00
  0.00000000E+00  0.00000000E+00  0.00000000E+00
  0.00000000E+00  0.00000000E+00  0.00000000E+00
  0.00000000E+00  0.00000000E+00  0.00000000E+00
  0.00000000E+00  0.00000000E+00  0.00000000E+00
  0.00000000E+00  0.00000000E+00  0.00000000E+00
  0.00000000E+00  0.00000000E+00  0.00000000E+00
  0.00000000E+00  0.00000000E+00  0.00000000E+00
  0.00000000E+00  0.00000000E+00  0.00000000E+00
  0.00000000E+00  0.00000000E+00  0.00000000E+00
  0.00000000E+00  0.00000000E+00  0.00000000E+00
  0.00000000E+00  0.00000000E+00  0.00000000E+00
  0.00000000E+00  0.00000000E+00  0.00000000E+00
  0.00000000E+00  0.00000000E+00  0.00000000E+00
  0.00000000E+00  0.00000000E+00  0.00000000E+00
  0.00000000E+00  0.00000000E+00  0.00000000E+00
  0.00000000E+00  0.00000000E+00  0.00000000E+00
  0.00000000E+00  0.00000000E+00  0.00000000E+00
  0.00000000E+00  0.00000000E+00  0.00000000E+00
  0.00000000E+00  0.00000000E+00  0.00000000E+00
  0.00000000E+00  0.00000000E+00  0.00000000E+00
  0.00000000E+00  0.00000000E+00  0.00000000E+00
  0.00000000E+00  0.00000000E+00  0.00000000E+00
  0.00000000E+00  0.00000000E+00  0.00000000E+00
  0.00000000E+00  0.00000000E+00  0.00000000E+00