Amorphous Sb2Se3                        
   1.00000000000000     
    20.9283632703415030    0.0000000000000000    0.0000000000000000
     0.0000000000000000   20.9283632703415030    0.0000000000000000
     0.0000000000000000    0.0000000000000000   20.9283632703415030
   In   S 
   120   180
Direct
  0.6954276590845675  0.0846829166115421  0.5777398791524337
  0.3157255495353815  0.7707402050384401  0.3749072513721299
  0.5012875082946722  0.0346143642500790  0.6365349530207398
  0.9840813857669483  0.3307068147647363  0.1865813909163742
  0.3081268708075020  0.3260010237535411  0.5301801463005944
  0.1216705975843802  0.8927207325255047  0.2686317013276953
  0.2424705836915404  0.1303233040140680  0.4762279760488276
  0.0810093518036272  0.4708076232238957  0.3089700864618681
  0.5495430652604023  0.3312143974047570  0.2591244768636305
  0.3619358509344429  0.7834303621784994  0.8734441584943685
  0.4935074888674870  0.9834738581614801  0.8360527052740493
  0.6988350774755158  0.5026432774016227  0.1051779830684583
  0.4411525032306121  0.3170263061981472  0.9759991069873910
  0.2766364171777622  0.2621929752806327  0.7159297473174125
  0.3930999632025513  0.1547107787522142  0.1136511902180175
  0.8878823592342392  0.8535529608227899  0.0920481465064508
  0.8493809206694463  0.8114203781470001  0.2827528612790368
  0.5761752600523249  0.5779225318879119  0.5495360719875890
  0.7213511144020307  0.4924910376307373  0.4748825274453374
  0.7664374220915787  0.7404450928355075  0.8736144004303121
  0.1658963250698359  0.3869188022752985  0.4240174929590580
  0.1593482635519445  0.4687338109880814  0.1803167479907772
  0.5322329695948939  0.8025243325177390  0.5955738244367030
  0.2638272576396866  0.7885889051371049  0.7435986541501540
  0.8938259150631387  0.7401208843715689  0.5615089303880668
  0.8217437993330646  0.1455531173789427  0.4720046968324482
  0.4492779268117547  0.2685466785512429  0.6571141859170855
  0.3030742214734995  0.3188399463461309  0.1177894857661528
  0.5891363248393585  0.0782692318909863  0.3899881118608301
  0.9749584456991693  0.4592622458366901  0.5797061987858259
  0.3518887936470980  0.7347482666837940  0.5740478005884024
  0.7412108529769067  0.0145921765549231  0.3383449810560039
  0.4167684356525369  0.4419782974223974  0.6078473216848689
  0.2050616133664505 -0.0011577287343656  0.8728684094622499
  0.1945093570705476  0.6680568380471462  0.9336051714934088
  0.3923854133131489  0.4703114957793966  0.7361729439210970
  0.7330315236092354  0.3206786146941158  0.3525623387640881
  0.9486986446734055  0.9699326654143176  0.9133450273961681
  0.1233095425392549  0.5173413471919756  0.6653263974392352
  0.9454588529024238  0.6166200512899065  0.8924156869585008
  0.9447919261672995  0.4737461737295130  0.7562546378653638
  0.0123908169110208  0.6223569512198561  0.2332480587940438
  0.7075502508756902  0.1727143483052120  0.2510185476121800
  0.4418620558265267  0.6616588049638574  0.7112869715260909
  0.6036705625194861  0.8820562694689478  0.4276779091897594
  0.6935145704682334  0.9029414903107722  0.8077263277656415
  0.4408728343218146  0.9155928247807148  0.3816405653586449
  0.0485914769747709  0.2195240628802877  0.9916254601464957
  0.6936494112517164  0.8351927140426466  0.2978199491655887
  0.8328665612166974  0.3634152041817449  0.5059766978459840
  0.4375829460952016  0.8321249848781695  0.1101804939947950
  0.6977635086324560  0.8895437970406553  0.0035987758841126
  0.8019325389584135  0.1277274216241047  0.7283720826808248
  0.9600758392556177  0.7618820773968077  0.9774737870976181
  0.6176342126214677  0.3198965723771983  0.0489409631654775
  0.5166936978279302  0.4048810054276434  0.4267863158714253
  0.6925216137407755  0.8877299951504339  0.1763894788116320
  0.6020409771857578  0.4408160632386372  0.6538055706322811
  0.4623608113090797  0.5941271730616535  0.2012122366602273
  0.1146106040804600  0.9295614264536421  0.7343979337322245
  0.1079472638766758  0.3382191512129696  0.0340048656483425
  0.5239215338472996  0.4997652041078869  0.0522637680557376
  0.0338130890320899  0.7856828198138763  0.2589045992323623
  0.5578123154075236  0.4289070308973907  0.7831192459873288
  0.2533280525277850  0.3894658748235623  0.8907591633673585
  0.2328572678314422  0.9027140449685510  0.5251404729733158
  0.0721571481514992  0.0532488592623403  0.1501534997005335
  0.7791614510414827  0.6935373269774813  0.0628975454544922
  0.4102478535270873  0.6542155870119641  0.0606797785847189
  0.9605676784535875  0.6270603515648092  0.6625115241391301
  0.7328154040606701  0.7772664303565645  0.5265112400944186
  0.8122421786217195  0.4038498706429576  0.8186871146304072
  0.7914759375062428  0.0493956760680706  0.1375669401187047
  0.1475145741743607  0.5109947718873201  0.9571281365737836
  0.3856760907415260  0.1427644551187437  0.7842217424125313
  0.3673576612232685  0.4858012693667027  0.1093797621523531
  0.6462612624947546 -0.0119121375696442  0.7122956762624880
  0.1359911545362734  0.3215016222955203  0.2406211585576553
  0.2403367193877862  0.9735214101962906  0.1461474038744492
  0.9426006109774442  0.9480411494813712  0.7760626246713930
  0.6846571317270528  0.3083109153065468  0.8822639230596810
 -0.0278143430461283  0.1699569498525477  0.2904592470027964
  0.4417570058365990  0.1410341843104705  0.5020590799967898
  0.2148629505736893  0.1634795427537912  0.1011625902940783
  0.2724557954078048  0.8185155522495662  0.0488101797218065
  0.0443437228839552  0.1018315122876720  0.4103872285546769
  0.0662864361212287  0.7117750627024710  0.0563054844001017
  0.4010278329747847  0.1275410770689431  0.3158719210939342
  0.2555179169316790  0.5610294044407341  0.8013798581522771
  0.2972211943170788 -0.0011241772469306  0.3272078818337742
  0.8896836832793715  0.6336668083323235  0.3895341497816377
  0.3913997698067965  0.2557646353127104  0.8600831693025254
  0.7857384952189983  0.0201005184626480  0.9423045769955709
  0.2284511985584825  0.4401989157800773  0.6362749569738446
  0.7108456275036883  0.3538940840545367  0.1780195971188370
  0.1417498997788384  0.7320538605768809  0.5478252033555977
  0.9306807182902022  0.3028336152137788  0.6797334489850770
  0.9328013904193090  0.9723186327907558  0.2521929612611641
  0.9650203345071887  0.3390564140329007  0.8985353151115369
  0.6243944292620278  0.0682246096743275  0.9419128218448286
  0.6470008437783167  0.5074036978425213  0.3113688948231286
  0.6141583264901253  0.7308964956595132  0.0765548053602818
  0.9194941989837624  0.3253868655509479  0.3349927958335155
  0.5331336526743633  0.7767292996383111  0.7828651786355473
  0.2024004145701215  0.2291043197987750  0.3346287766965443
  0.5193733747838688  0.1329399842845154  0.9912768966739214
  0.4020227416083481  0.0080052403707685  0.0070663400005761
  0.0950180070763421  0.1796214508159558  0.7824926264015040
  0.1423836953419418  0.5990851554075020  0.4305129833156651
  0.1250533290002344  0.6807243312477845  0.7421395584510452
  0.3281312910923057  0.0893886405113637  0.6196222804220647
  0.9962719250179862  0.9443769564370348  0.5616152133991564
  0.5251352348341526  0.9594836849048161  0.1795573639397133
  0.8829353634311298  0.0106520992036003  0.5979506741782427
  0.7950883654086524  0.5489145990508181  0.6700323966814626
  0.3217106849971841  0.4334453827508579  0.3223790784612528
  0.6060737293204840  0.2832190110827697  0.4708925390993063
  0.5284117623499396  0.5816387950597575  0.8826264247906018
  0.0341721017030347  0.7961034626728334  0.4456659984868058
  0.8822815061205973  0.8177867115571134  0.7636997685060654
  0.3541705411991272  0.3876549752035368  0.0326671790671805
  0.0654520568445310  0.7584768509440579  0.8863042232430799
  0.4931397913034455  0.6047836982272664  0.3156529348040971
  0.3324846970936537  0.1922456308830206  0.5311883188885842
  0.6225760533816921  0.2731524018335378  0.1600584782187578
  0.2811443634446358 -0.0086874262632218  0.0205210237605659
  0.7712661534018302  0.9057183999544828  0.9037603016356031
  0.8899764208981576  0.0508575326222515  0.9801144825037443
  0.7136067695012309  0.7320257748873590  0.3570006934031506
  0.6382821840683561  0.2501945719759051  0.3425125768138614
  0.0060111760368532  0.1706682681868681  0.8852332323387559
  0.0580977316023689  0.1025831910201632  0.0372388483659187
  0.3817437306358737  0.3174057271736848  0.7455755118527203
  0.7432664145901777  0.5767691273839287  0.3060415563637618
  0.5677136308785758  0.8107633252877922  0.9334616460382980
  0.4480217455059410  0.8024476450886403  0.4401080480527382
  0.6328973848625984  0.2406122118487364 -0.0370378505646289
  0.0327936003620718  0.4342300848228040  0.6877923133390956
  0.4197286926496499  0.2104698581523739  0.2228129136056310
  0.6119200716632454  0.7878638392552694  0.5046455693470299
  0.0786106329174421  0.6272628829384791  0.6370415125841037
  0.1701586186459509  0.4411782081601918  0.0508595813177307
  0.9416475970982980  0.1676208969709918  0.4881026935634152
  0.7210639725767477  0.0792399436793054  0.8566794339713470
  0.9399646319831231  0.7077597907089543  0.2790716042763876
  0.4278478332469671  0.3272485319565195  0.5545728826496762
  0.2680668538635684  0.2498142344426736  0.8889093969949734
  0.2976034334429048  0.8667568248711891  0.1533535467935132
  0.0879629616834292  0.6997928849077226  0.1778322710516999
  0.9704005597056442  0.2431650565790595  0.8249016362313790
  0.6116566521986886  0.5706237523147355  0.6686383979899830
  0.2744084520728093  0.4434907116799913  0.7599220816808006
  0.4778168892221688  0.4780210723249363  0.1631620005012404
  0.0003048274126441  0.5278413366485751  0.1595565115022157
  0.3721899445142023  0.7564130505164632  0.0093207019785443
  0.8236853002719267  0.2773553164751713  0.4204027125127244
  0.4213565909356977  0.9024228341541587  0.9004635365608754
  0.8004199224702471  0.5410807716447295  0.1585328802156891
  0.1220136420640871  0.9489361737180960  0.1274925999193965
  0.3689617188341680  0.7653128936011623  0.6881221262374891
  0.3107242018879993  0.4526482334834128  0.5458663911315860
  0.9730636102030815  0.1185190563662877  0.5695254738427266
  0.3226263188819072  0.9172720328609429  0.4079586144689073
  0.6200120551301311  0.5647181757890413  0.0422870712144118
  0.4981312551291825  0.8628464858034338  0.2857061234652146
  0.1981836109504177  0.9903987750227301  0.2648473459682362
  0.2335432999755902  0.0447547615238848  0.5556148087215476
  0.8363776400526385  0.8809203934488260  0.6079294926433066
  0.6638539229376229  0.4156065459735028  0.3952298078522591
  0.7422306016545678  0.8864103645405393  0.5812461451150732
  0.3156248848437870  0.2134632804096864  0.0463682210948530
  0.9464919994659766  0.7450467203833954  0.6694202007077993
  0.9631840368086262  0.0731724785395533  0.1972003533456373
  0.0685176686562178  0.8575289228321373  0.8817853993789735
  0.7212573461535551  0.7660168395665091  0.9841240831227489
  0.3460832194778392  0.5850722149828324  0.7239800490632560
  0.1058596207846225  0.4447266350245492  0.8653180104707552
  0.4843414654675754  0.1648633404591890  0.3930135506793495
  0.9482803593378347  0.8673768982878576  0.1941833984121735
  0.5652002112975310  0.3060566652406184  0.6613514622490019
  0.4168782192408803  0.0326831176501174  0.5429400572815204
  0.0654063636189521  0.3618241144029047  0.3612897057285055
  0.6482593594551855  0.4296871279384090  0.8715003895179492
  0.0397103153672433  0.5780020901718455  0.3425936102833639
  0.2662368332502404  0.7386271453413029  0.4975845055631114
  0.5279656456519186  0.5146044670280085  0.3355624810248898
  0.1556850777803304  0.8731039238276066  0.8353500188219636
  0.4361316337220010  0.0786878049766522  0.9157849118064713
  0.0886490960797778  0.3555445012486305  0.9076922340120360
  0.7108322094635293  0.4399704848788056  0.5880229210339430
  0.2666671233139102  0.3203675892608717  0.4156833171920449
  0.1924358553609679  0.7304128869502254  0.0353441520627264
  0.2279786072861917  0.6953573524148502  0.8199773177949048
  0.4547689921703197  0.4569653279420322  0.8378345324683363
  0.0546925671097115  0.0252059577445842  0.7939007586632475
  0.0902838058709579  0.6158252802954820  0.9674356049170943
  0.7903235349861717  0.0359471567815584  0.5203051754433115
  0.8914294202748489  0.7332501039487350  0.0810312176078377
  0.7866552633904283  0.7592175504111621  0.4167466434395022
  0.5270412675480496  0.9694113036133981  0.4462825845384509
  0.9858522208287390  0.4570562636358124  0.2266854645894464
  0.2267537286759943  0.3144851348178848  0.6207940684248722
  0.0087617184432230  0.9468116312600573  0.3449621390960926
  0.2860808033891440  0.4282359495417161  0.1847674471121279
  0.8051087829195532  0.5832847545323514  0.9175633355270186
  0.2242252905418501  0.9466143727633025  0.6886709537389131
  0.6287817598760377  0.7929623152657546  0.8531403979146555
  0.5520180399712354  0.7198459641475051  0.6792542113732707
  0.4282345332583504  0.8264598956494014  0.5338528874941150
  0.6402058641101911  0.0369604252559342  0.2699257491822474
  0.2584156771664826  0.9098772867317514  0.9692216231614077
  0.8520644941623841  0.4143931849798249  0.7054392816424397
  0.1442305220926603  0.1839092087171352  0.4375176709667564
  0.1367732191737050  0.5631337947422937  0.7804877991358841
  0.0489173208137719  0.0622261533412170  0.5421526165672040
  0.3557970324642912  0.2870672230303367  0.2265162883254706
  0.6111965908220786  0.8580921164664961  0.0874280558298526
  0.9417597311686686  0.3484526846019630  0.5526024884383299
  0.7753912707861843  0.1619519725202830  0.8413602803234714
  0.7181540118665092  0.9103217583021611  0.3964394287224960
  0.7113820569191139  0.4659628472553805  0.8023814794862894
  0.1861275786304075  0.2833837980978403  0.1189185566216947
  0.5262179732581869  0.4661632902735451  0.5518823485394875
  0.5426472346003360  0.1602878257390479  0.5701823813791738
  0.2871630702969375  0.1212936874330231  0.3584967781875512
  0.1301374837198928  0.4039530745286191  0.5375273920055785
  0.6625443232413698  0.5934347002494277  0.4712572499740436
  0.4584471398287440  0.6965030818314356  0.8307941747670284
  0.5491095812636727  0.7246056931237761  0.9746413374298680
  0.4101110032030220  0.0120477562075845  0.2842636591277609
  0.7555020135011119  0.7979657106824254  0.7678854496180997
  0.1691575468121552  0.7706672795383098  0.6739725444684302
  0.6390392274373173  0.4485834430720259  0.2049328740113300
  0.4200590609394859  0.6306812764009050  0.5859560102555202
  0.8144443562046580  0.9632202220614319  0.2567437195853532
  0.5384803322866429  0.3941096092301912  0.9923516398941407
  0.4846211253573713  0.2302887741267794  0.0528971963261643
  0.7700978972751531  0.2025110414850288  0.5704852964574191
  0.6901276086879268  0.1055570901483425  0.6942100359073274
  0.0648282990088063  0.0177573568809592  0.8914156758738878
  0.9393039584895551  0.3017906513504774  0.0131770898092119
  0.1165843192001241  0.7526322023585132  0.3640046427935553
  0.8331886493416131  0.4678935338617079  0.4504381116988043
  0.5485605153570989  0.0523780092050070  0.7507220168544224
  0.4701915983734438  0.0654632686102915  0.0908860870791784
  0.5313027711963415  0.5597671006737693  0.7269220906609850
  0.7221980502354083  0.3879382685445590  0.0627031099146983
  0.1385926524053286  0.1394672069580666  0.2055878852678448
  0.3849461638598145 -0.0013194676222088  0.6874525207368776
  0.4793954958732471  0.8795026723520045  0.7510701881761502
  0.6185603994206516  0.1517290640334563  0.5045114291335155
  0.6131037006987926 -0.0067003724013489  0.5920627476648314
  0.1802969292208324  0.8277068224017816  0.3606660287682696
  0.7884269873638413  0.6918670597221444  0.5855367709468735
  0.3477605104569018  0.6017910804536863  0.1526611923887398
  0.0279454777735738  0.7207276838640241  0.8038421313621087
  0.6006007692507433  0.9592345288789107  0.8926668454054663
  0.9196922259681904  0.4463388324708097  0.8718328486535413
  0.4599643558886066  0.9049341199168954  0.9926752064361934
  0.8885175685370759  0.8575425242214619  0.5261893279653097
  0.7317743845672312  0.3428760663301966  0.5698808319702192
  0.2085083128535229  0.2809542660948103  0.8145513201830443
  0.7330424044383510  0.6246340997807588  0.8665166169580286
  0.6973849506875430  0.0171567607554145  0.0254593673133836
  0.8890110041312266  0.7437231677965337  0.8782884480094837
  0.3791683027695515  0.0201816866913187  0.7829937545176030
  0.9722291811534050  0.6999925693601192  0.4794402513185719
  0.0126477362916775  0.9024416111568030  0.6809176917724821
  0.6601784455293840  0.0096621511950708  0.1729125957215302
  0.9666849221194576  0.8571242626391999  0.3588269315166200
  0.0673077667589216  0.2112194667831928  0.2073802666912194
  0.4245563261056595  0.5501174150184064  0.0016691945745274
  0.2921754834364027  0.0859212763427989  0.1581113811275801
  0.7001693412911151  0.7011900976832752  0.1508784362418802
  0.1528760433246431  0.1155045396634522  0.0077123351280915
  0.5704083862650979  0.8113229089422055  0.3310877900049305
  0.5353771029467802  0.9019710808927356  0.6716535837098037
  0.8026910386089777  0.3100327866629433  0.8851599321609195
  0.4371751742874305  0.1523615333450616  0.6684832733948506
  0.8457760290764583  0.1948607915953220  0.6348821871343960
  0.6529785214186727  0.2549495574022231  0.7779365973940381
 -0.0115741896013272  0.3729304814664716  0.0611464146469541
  0.2719954934301925  0.9071062701036875  0.7654915356797439
  0.5651820317151864  0.2944220107437363  0.7596739490074927
  0.7870139371972658  0.1225235799648246  0.3597166359041117
  0.5007894267076216  0.6897489941946275  0.1338494838591323
  0.7839739114663342  0.9098777748919075  0.0953670931516649
  0.1946103113329556  0.4861732568232044  0.3616911956351501
  0.2743856696422945  0.1431874727335260  0.7191924391286109
  0.0853586207133187  0.8823562218326665  0.5090229075039520
  0.9640434826722052  0.8806252665873066  0.0029180960107360
  0.7974546378693734  0.5134820205583073  0.2525623839145518
  0.4952528322589595  0.6638027931270303  0.5294691677723781
  0.8550978989553666  0.0186764783856539  0.7175787967225773
  0.7966377846336995  0.3216170876237660  0.2515355141775518
  0.0818530665912639  0.4900752008795006  0.5269109277509014
  0.2571347366609177  0.5615614626663693  0.9252440719335951
  0.9107860943498695  0.5865538977865368  0.7639463719988433
  0.9056723977037433  0.5559170570184384  0.5825501216066103
  0.7910813558351797  0.5822604172788430  0.0158832682044864
 
  0.00000000E+00  0.00000000E+00  0.00000000E+00
  0.00000000E+00  0.00000000E+00  0.00000000E+00
  0.00000000E+00  0.00000000E+00  0.00000000E+00
  0.00000000E+00  0.00000000E+00  0.00000000E+00
  0.00000000E+00  0.00000000E+00  0.00000000E+00
  0.00000000E+00  0.00000000E+00  0.00000000E+00
  0.00000000E+00  0.00000000E+00  0.00000000E+00
  0.00000000E+00  0.00000000E+00  0.00000000E+00
  0.00000000E+00  0.00000000E+00  0.00000000E+00
  0.00000000E+00  0.00000000E+00  0.00000000E+00
  0.00000000E+00  0.00000000E+00  0.00000000E+00
  0.00000000E+00  0.00000000E+00  0.00000000E+00
  0.00000000E+00  0.00000000E+00  0.00000000E+00
  0.00000000E+00  0.00000000E+00  0.00000000E+00
  0.00000000E+00  0.00000000E+00  0.00000000E+00
  0.00000000E+00  0.00000000E+00  0.00000000E+00
  0.00000000E+00  0.00000000E+00  0.00000000E+00
  0.00000000E+00  0.00000000E+00  0.00000000E+00
  0.00000000E+00  0.00000000E+00  0.00000000E+00
  0.00000000E+00  0.00000000E+00  0.00000000E+00
  0.00000000E+00  0.00000000E+00  0.00000000E+00
  0.00000000E+00  0.00000000E+00  0.00000000E+00
  0.00000000E+00  0.00000000E+00  0.00000000E+00
  0.00000000E+00  0.00000000E+00  0.00000000E+00
  0.00000000E+00  0.00000000E+00  0.00000000E+00
  0.00000000E+00  0.00000000E+00  0.00000000E+00
  0.00000000E+00  0.00000000E+00  0.00000000E+00
  0.00000000E+00  0.00000000E+00  0.00000000E+00
  0.00000000E+00  0.00000000E+00  0.00000000E+00
  0.00000000E+00  0.00000000E+00  0.00000000E+00
  0.00000000E+00  0.00000000E+00  0.00000000E+00
  0.00000000E+00  0.00000000E+00  0.00000000E+00
  0.00000000E+00  0.00000000E+00  0.00000000E+00
  0.00000000E+00  0.00000000E+00  0.00000000E+00
  0.00000000E+00  0.00000000E+00  0.00000000E+00
  0.00000000E+00  0.00000000E+00  0.00000000E+00
  0.00000000E+00  0.00000000E+00  0.00000000E+00
  0.00000000E+00  0.00000000E+00  0.00000000E+00
  0.00000000E+00  0.00000000E+00  0.00000000E+00
  0.00000000E+00  0.00000000E+00  0.00000000E+00
  0.00000000E+00  0.00000000E+00  0.00000000E+00
  0.00000000E+00  0.00000000E+00  0.00000000E+00
  0.00000000E+00  0.00000000E+00  0.00000000E+00
  0.00000000E+00  0.00000000E+00  0.00000000E+00
  0.00000000E+00  0.00000000E+00  0.00000000E+00
  0.00000000E+00  0.00000000E+00  0.00000000E+00
  0.00000000E+00  0.00000000E+00  0.00000000E+00
  0.00000000E+00  0.00000000E+00  0.00000000E+00
  0.00000000E+00  0.00000000E+00  0.00000000E+00
  0.00000000E+00  0.00000000E+00  0.00000000E+00
  0.00000000E+00  0.00000000E+00  0.00000000E+00
  0.00000000E+00  0.00000000E+00  0.00000000E+00
  0.00000000E+00  0.00000000E+00  0.00000000E+00
  0.00000000E+00  0.00000000E+00  0.00000000E+00
  0.00000000E+00  0.00000000E+00  0.00000000E+00
  0.00000000E+00  0.00000000E+00  0.00000000E+00
  0.00000000E+00  0.00000000E+00  0.00000000E+00
  0.00000000E+00  0.00000000E+00  0.00000000E+00
  0.00000000E+00  0.00000000E+00  0.00000000E+00
  0.00000000E+00  0.00000000E+00  0.00000000E+00
  0.00000000E+00  0.00000000E+00  0.00000000E+00
  0.00000000E+00  0.00000000E+00  0.00000000E+00
  0.00000000E+00  0.00000000E+00  0.00000000E+00
  0.00000000E+00  0.00000000E+00  0.00000000E+00
  0.00000000E+00  0.00000000E+00  0.00000000E+00
  0.00000000E+00  0.00000000E+00  0.00000000E+00
  0.00000000E+00  0.00000000E+00  0.00000000E+00
  0.00000000E+00  0.00000000E+00  0.00000000E+00
  0.00000000E+00  0.00000000E+00  0.00000000E+00
  0.00000000E+00  0.00000000E+00  0.00000000E+00
  0.00000000E+00  0.00000000E+00  0.00000000E+00
  0.00000000E+00  0.00000000E+00  0.00000000E+00
  0.00000000E+00  0.00000000E+00  0.00000000E+00
  0.00000000E+00  0.00000000E+00  0.00000000E+00
  0.00000000E+00  0.00000000E+00  0.00000000E+00
  0.00000000E+00  0.00000000E+00  0.00000000E+00
  0.00000000E+00  0.00000000E+00  0.00000000E+00
  0.00000000E+00  0.00000000E+00  0.00000000E+00
  0.00000000E+00  0.00000000E+00  0.00000000E+00
  0.00000000E+00  0.00000000E+00  0.00000000E+00
  0.00000000E+00  0.00000000E+00  0.00000000E+00
  0.00000000E+00  0.00000000E+00  0.00000000E+00
  0.00000000E+00  0.00000000E+00  0.00000000E+00
  0.00000000E+00  0.00000000E+00  0.00000000E+00
  0.00000000E+00  0.00000000E+00  0.00000000E+00
  0.00000000E+00  0.00000000E+00  0.00000000E+00
  0.00000000E+00  0.00000000E+00  0.00000000E+00
  0.00000000E+00  0.00000000E+00  0.00000000E+00
  0.00000000E+00  0.00000000E+00  0.00000000E+00
  0.00000000E+00  0.00000000E+00  0.00000000E+00
  0.00000000E+00  0.00000000E+00  0.00000000E+00
  0.00000000E+00  0.00000000E+00  0.00000000E+00
  0.00000000E+00  0.00000000E+00  0.00000000E+00
  0.00000000E+00  0.00000000E+00  0.00000000E+00
  0.00000000E+00  0.00000000E+00  0.00000000E+00
  0.00000000E+00  0.00000000E+00  0.00000000E+00
  0.00000000E+00  0.00000000E+00  0.00000000E+00
  0.00000000E+00  0.00000000E+00  0.00000000E+00
  0.00000000E+00  0.00000000E+00  0.00000000E+00
  0.00000000E+00  0.00000000E+00  0.00000000E+00
  0.00000000E+00  0.00000000E+00  0.00000000E+00
  0.00000000E+00  0.00000000E+00  0.00000000E+00
  0.00000000E+00  0.00000000E+00  0.00000000E+00
  0.00000000E+00  0.00000000E+00  0.00000000E+00
  0.00000000E+00  0.00000000E+00  0.00000000E+00
  0.00000000E+00  0.00000000E+00  0.00000000E+00
  0.00000000E+00  0.00000000E+00  0.00000000E+00
  0.00000000E+00  0.00000000E+00  0.00000000E+00
  0.00000000E+00  0.00000000E+00  0.00000000E+00
  0.00000000E+00  0.00000000E+00  0.00000000E+00
  0.00000000E+00  0.00000000E+00  0.00000000E+00
  0.00000000E+00  0.00000000E+00  0.00000000E+00
  0.00000000E+00  0.00000000E+00  0.00000000E+00
  0.00000000E+00  0.00000000E+00  0.00000000E+00
  0.00000000E+00  0.00000000E+00  0.00000000E+00
  0.00000000E+00  0.00000000E+00  0.00000000E+00
  0.00000000E+00  0.00000000E+00  0.00000000E+00
  0.00000000E+00  0.00000000E+00  0.00000000E+00
  0.00000000E+00  0.00000000E+00  0.00000000E+00
  0.00000000E+00  0.00000000E+00  0.00000000E+00
  0.00000000E+00  0.00000000E+00  0.00000000E+00
  0.00000000E+00  0.00000000E+00  0.00000000E+00
  0.00000000E+00  0.00000000E+00  0.00000000E+00
  0.00000000E+00  0.00000000E+00  0.00000000E+00
  0.00000000E+00  0.00000000E+00  0.00000000E+00
  0.00000000E+00  0.00000000E+00  0.00000000E+00
  0.00000000E+00  0.00000000E+00  0.00000000E+00
  0.00000000E+00  0.00000000E+00  0.00000000E+00
  0.00000000E+00  0.00000000E+00  0.00000000E+00
  0.00000000E+00  0.00000000E+00  0.00000000E+00
  0.00000000E+00  0.00000000E+00  0.00000000E+00
  0.00000000E+00  0.00000000E+00  0.00000000E+00
  0.00000000E+00  0.00000000E+00  0.00000000E+00
  0.00000000E+00  0.00000000E+00  0.00000000E+00
  0.00000000E+00  0.00000000E+00  0.00000000E+00
  0.00000000E+00  0.00000000E+00  0.00000000E+00
  0.00000000E+00  0.00000000E+00  0.00000000E+00
  0.00000000E+00  0.00000000E+00  0.00000000E+00
  0.00000000E+00  0.00000000E+00  0.00000000E+00
  0.00000000E+00  0.00000000E+00  0.00000000E+00
  0.00000000E+00  0.00000000E+00  0.00000000E+00
  0.00000000E+00  0.00000000E+00  0.00000000E+00
  0.00000000E+00  0.00000000E+00  0.00000000E+00
  0.00000000E+00  0.00000000E+00  0.00000000E+00
  0.00000000E+00  0.00000000E+00  0.00000000E+00
  0.00000000E+00  0.00000000E+00  0.00000000E+00
  0.00000000E+00  0.00000000E+00  0.00000000E+00
  0.00000000E+00  0.00000000E+00  0.00000000E+00
  0.00000000E+00  0.00000000E+00  0.00000000E+00
  0.00000000E+00  0.00000000E+00  0.00000000E+00
  0.00000000E+00  0.00000000E+00  0.00000000E+00
  0.00000000E+00  0.00000000E+00  0.00000000E+00
  0.00000000E+00  0.00000000E+00  0.00000000E+00
  0.00000000E+00  0.00000000E+00  0.00000000E+00
  0.00000000E+00  0.00000000E+00  0.00000000E+00
  0.00000000E+00  0.00000000E+00  0.00000000E+00
  0.00000000E+00  0.00000000E+00  0.00000000E+00
  0.00000000E+00  0.00000000E+00  0.00000000E+00
  0.00000000E+00  0.00000000E+00  0.00000000E+00
  0.00000000E+00  0.00000000E+00  0.00000000E+00
  0.00000000E+00  0.00000000E+00  0.00000000E+00
  0.00000000E+00  0.00000000E+00  0.00000000E+00
  0.00000000E+00  0.00000000E+00  0.00000000E+00
  0.00000000E+00  0.00000000E+00  0.00000000E+00
  0.00000000E+00  0.00000000E+00  0.00000000E+00
  0.00000000E+00  0.00000000E+00  0.00000000E+00
  0.00000000E+00  0.00000000E+00  0.00000000E+00
  0.00000000E+00  0.00000000E+00  0.00000000E+00
  0.00000000E+00  0.00000000E+00  0.00000000E+00
  0.00000000E+00  0.00000000E+00  0.00000000E+00
  0.00000000E+00  0.00000000E+00  0.00000000E+00
  0.00000000E+00  0.00000000E+00  0.00000000E+00
  0.00000000E+00  0.00000000E+00  0.00000000E+00
  0.00000000E+00  0.00000000E+00  0.00000000E+00
  0.00000000E+00  0.00000000E+00  0.00000000E+00
  0.00000000E+00  0.00000000E+00  0.00000000E+00
  0.00000000E+00  0.00000000E+00  0.00000000E+00
  0.00000000E+00  0.00000000E+00  0.00000000E+00
  0.00000000E+00  0.00000000E+00  0.00000000E+00
  0.00000000E+00  0.00000000E+00  0.00000000E+00
  0.00000000E+00  0.00000000E+00  0.00000000E+00
  0.00000000E+00  0.00000000E+00  0.00000000E+00
  0.00000000E+00  0.00000000E+00  0.00000000E+00
  0.00000000E+00  0.00000000E+00  0.00000000E+00
  0.00000000E+00  0.00000000E+00  0.00000000E+00
  0.00000000E+00  0.00000000E+00  0.00000000E+00
  0.00000000E+00  0.00000000E+00  0.00000000E+00
  0.00000000E+00  0.00000000E+00  0.00000000E+00
  0.00000000E+00  0.00000000E+00  0.00000000E+00
  0.00000000E+00  0.00000000E+00  0.00000000E+00
  0.00000000E+00  0.00000000E+00  0.00000000E+00
  0.00000000E+00  0.00000000E+00  0.00000000E+00
  0.00000000E+00  0.00000000E+00  0.00000000E+00
  0.00000000E+00  0.00000000E+00  0.00000000E+00
  0.00000000E+00  0.00000000E+00  0.00000000E+00
  0.00000000E+00  0.00000000E+00  0.00000000E+00
  0.00000000E+00  0.00000000E+00  0.00000000E+00
  0.00000000E+00  0.00000000E+00  0.00000000E+00
  0.00000000E+00  0.00000000E+00  0.00000000E+00
  0.00000000E+00  0.00000000E+00  0.00000000E+00
  0.00000000E+00  0.00000000E+00  0.00000000E+00
  0.00000000E+00  0.00000000E+00  0.00000000E+00
  0.00000000E+00  0.00000000E+00  0.00000000E+00
  0.00000000E+00  0.00000000E+00  0.00000000E+00
  0.00000000E+00  0.00000000E+00  0.00000000E+00
  0.00000000E+00  0.00000000E+00  0.00000000E+00
  0.00000000E+00  0.00000000E+00  0.00000000E+00
  0.00000000E+00  0.00000000E+00  0.00000000E+00
  0.00000000E+00  0.00000000E+00  0.00000000E+00
  0.00000000E+00  0.00000000E+00  0.00000000E+00
  0.00000000E+00  0.00000000E+00  0.00000000E+00
  0.00000000E+00  0.00000000E+00  0.00000000E+00
  0.00000000E+00  0.00000000E+00  0.00000000E+00
  0.00000000E+00  0.00000000E+00  0.00000000E+00
  0.00000000E+00  0.00000000E+00  0.00000000E+00
  0.00000000E+00  0.00000000E+00  0.00000000E+00
  0.00000000E+00  0.00000000E+00  0.00000000E+00
  0.00000000E+00  0.00000000E+00  0.00000000E+00
  0.00000000E+00  0.00000000E+00  0.00000000E+00
  0.00000000E+00  0.00000000E+00  0.00000000E+00
  0.00000000E+00  0.00000000E+00  0.00000000E+00
  0.00000000E+00  0.00000000E+00  0.00000000E+00
  0.00000000E+00  0.00000000E+00  0.00000000E+00
  0.00000000E+00  0.00000000E+00  0.00000000E+00
  0.00000000E+00  0.00000000E+00  0.00000000E+00
  0.00000000E+00  0.00000000E+00  0.00000000E+00
  0.00000000E+00  0.00000000E+00  0.00000000E+00
  0.00000000E+00  0.00000000E+00  0.00000000E+00
  0.00000000E+00  0.00000000E+00  0.00000000E+00
  0.00000000E+00  0.00000000E+00  0.00000000E+00
  0.00000000E+00  0.00000000E+00  0.00000000E+00
  0.00000000E+00  0.00000000E+00  0.00000000E+00