Amorphous Sb                            
   1.00000000000000     
    19.6167014927297174    0.0000000000000000    0.0000000000000000
     0.0000000000000000   19.6167014927297174    0.0000000000000000
     0.0000000000000000    0.0000000000000000   19.6167014927297174
   Si   Se
   150   150
Direct
  0.8712810145529279  0.5423838641114102  0.5268904799834997
  0.3012874901561421  0.7066942401397339  0.7013018731523016
  0.4066040618019605  0.1672475659559498  0.7935548794151277
  0.1302094883445978  0.0026001514633922  0.7551464572348794
  0.1629650870757127  0.4803850982329523  0.8069765911544109
  0.4646335283369087  0.0875682478190334  0.8657909574241993
  0.8141650595836428  0.4514366775222564  0.8085465512719803
  0.5708653421731297  0.8420622036350955  0.0383290172395983
  0.7656067407684515  0.4571737200145417  0.3808143699910286
  0.7486761773084706  0.4140317091171667  0.6113157303036793
  0.4557981436868540  0.5853565711538788  0.8947049380436288
  0.2015995801181535  0.3124685759833645  0.4107899260363241
  0.4747062773430762  0.3596024253413190  0.9048175035558228
  0.6768171501683594  0.9515630765994569  0.4837839038061857
  0.3193056280147299  0.1102413007605640  0.2469627938895080
  0.8652569570400658  0.8538438784422450  0.7838944933251791
  0.4757205762432868  0.7475036618474640  0.6286836761433174
  0.8021609249284328  0.7900314838530429  0.8647045654752454
  0.5992806724832872  0.7612472585422633  0.1936218438812048
  0.7924902698674307  0.3428839108542573  0.3452067715441882
  0.6296111622543905  0.6444494466922622  0.1968721192846548
  0.1156319686747950  0.4910271299524801  0.3443476642788898
  0.9642070696124806  0.5958959530525231  0.0855497117324140
  0.9711520588873849  0.3681893282404552  0.2801196434447590
  0.6007719576458005  0.5738374430465479  0.4004284409635392
  0.0580621949961991  0.9440022784507759  0.6792552570562386
  0.7444062030742459  0.2629056556633872  0.1812417262498008
  0.6207040138407052  0.4950723633537076  0.5525030635826880
 -0.0021904354568466  0.3618640940675137  0.8623560994866150
  0.1755190672871415  0.9767602915972692  0.1701833441739282
  0.6492926385741752  0.8103534164936823  0.5997637111464831
  0.7184462148161457  0.7594928830557965  0.0517019878034001
  0.1646933175051648  0.9187413871079571  0.4751591500986767
  0.2287799447498748  0.1670449890100889  0.0860655656036823
  0.9095056781486269  0.9900750726196780  0.9785212379843901
  0.7733465900608094  0.3718763484516747  0.8921483415399916
  0.9524922962010793  0.4910027245808234  0.1440097842220876
  0.3565712967521889  0.4652302517409902  0.8261558639710374
  0.1098028056893579  0.5197302229688989  0.4619991252593725
  0.6633918654583589  0.6081692686474954  0.3057109769863023
  0.8189265903820284  0.2649621408838242  0.9286334393375296
  0.5377774830296276  0.2324582529792486  0.1056048989733306
  0.5676691565250900  0.4169718987409300  0.1858189088472735
  0.3567038060449296  0.3540315084277397  0.8776080300572439
  0.3202159506570207  0.7585521607131355  0.9404332636060652
  0.1631736570070529  0.8501533394627375  0.2476649092359135
  0.3222981667749579  0.8391465701792764  0.3661665479178119
  0.9649468305736997  0.0065747347699193  0.8239350476145295
  0.5348389729647002  0.4113230542152818  0.5303533144686253
  0.8719089857855292  0.7789375200676811  0.6813620679217350
  0.0184322736930270  0.7726491495833633  0.5948238950833595
  0.9436626267255221  0.8879570040816726  0.1252723680545279
  0.2935826738675762  0.9426351419284773  0.1590474026227204
  0.2836465815058341  0.9613664164522395  0.5775492139602543
  0.2440285794974839  0.4231475828618231  0.4484114772927076
  0.5612750765105489  0.8115095298142364  0.2984104970523382
  0.4864563329915282  0.4611898382967028  0.3834869020343976
  0.4598982263514712  0.4696805061072078  0.7609684995339986
  0.3654629968619583  0.3124236724956402  0.0606444545471765
  0.3516094282192371  0.5911899629346653  0.6206768761963234
  0.9237130988843786  0.6972685704565814  0.1440868420711370
  0.0870487073690201  0.6306339695690334  0.8830458439478573
  0.3169873684344126  0.0594749040777487  0.5100915621339910
  0.2761109051637536  0.0129333676868281  0.6886918287176544
  0.7173037145498893  0.3281267798198395  0.7893479710662371
  0.0508973465858298  0.1967724788429987  0.4452196716595005
  0.5851012774209967  0.1049432712162516  0.8360368673742012
  0.8416895879620635  0.6950473030861092  0.2389376752007329
  0.4295085344645475  0.6744020206664342  0.8165185496812174
  0.5237440583290937  0.3203548985742747  0.6803218020069599
  0.8591147918163632  0.1276293770038431  0.2671292712882592
  0.5987693668291919  0.3424489403667079  0.7744963638851755
  0.1380680307562038  0.8588405263195082  0.1318838480063942
  0.7107707193124237  0.6157532393634098  0.7998666099436912
  0.0913645730361372  0.8226134058136274  0.6769936440318780
  0.7667363380004992  0.5489530269182008  0.2993390158385278
  0.6612347164018738  0.4762677490578717  0.4415978579135060
  0.6361899198450234  0.0319821109492281  0.7522093647557923
  0.9965859808244593  0.5579614986293741  0.8458883004716351
  0.6002546093701034  0.1506883285630884  0.0026998481091364
  0.3701046171401557  0.7341293073111862  0.3226019593909643
  0.9416509885822701  0.8290025636340383  0.3137972362815135
  0.5676632793695146  0.5319118125780089  0.8986743544714221
  0.3615279063921439  0.0843726645720608  0.3975515569777996
  0.7787510050433436  0.9188121720918482  0.7246687489605267
  0.5843004627636984  0.6073043776394657  0.8054628858756872
  0.1500030686562040  0.2833946194317270  0.9706062868716262
  0.1131521760193765  0.6831527603330990  0.7743182994739570
  0.1931311482829511  0.8640492370050749  0.0256677139009613
  0.1495846286783054  0.0418117802989725  0.4863572710558374
  0.9072390486038090  0.2930714884585672  0.3687323008550901
  0.9077657271685020  0.5326967348075015  0.9954754647720236
  0.5796042082875140  0.9665641318897807  0.2061715265914950
  0.5042306547849793  0.1536420166505633  0.1918184118577238
  0.7907757680103391  0.0156197742561750  0.6507676297658468
  0.7264809187938720  0.2403036299812701  0.3639277436484999
  0.2728306327141856  0.5776074769333120  0.2844103657633930
  0.7789598495805471  0.9801818485228547  0.2250596757367023
  0.0371215143902181  0.3981082370448354  0.7422164106892771
  0.1456847032525248  0.3098866577694466  0.1867771668221409
  0.4147137204865392  0.7648827015713298  0.0191410894622157
  0.2680469558241312  0.5197890875475435  0.7655000251965346
  0.5975342349755668  0.2153560710424796  0.7902023366378187
  0.1739336871138712  0.2969675819977068  0.7629821441086679
  0.8754289222501765  0.5584855161194634  0.8158609515663710
  0.8385517681882136  0.6055676706236798  0.9190557654464455
  0.4967077874094157  0.2091016258350814  0.7190687726614353
  0.9730520779182433  0.2135226945580860  0.5360120778031507
  0.3937211760783317  0.1320137302125243  0.0403303980982089
  0.7647254264351947  0.7048891842811452  0.4229576678605590
  0.3828168368255421  0.9018327213525773  0.5482042941189799
  0.1205089906918141  0.0059610443461320  0.5990151494539775
  0.0487987823464304  0.4244542349355043  0.1189778484409489
  0.1688564951852317  0.6281644194382018  0.2459149968660782
  0.6164218024933112  0.8405426726425598  0.4039633183549484
  0.4009287792827973  0.1027072682016020  0.1574022920557403
  0.3169923678009229  0.2502961604023983  0.8194982313076691
  0.3604509197784368  0.6577877713351878  0.0576178762969427
  0.2840665525609855  0.8534091332065367  0.2479416247095025
  0.8880269800862290  0.0928937406709937  0.6486404855153256
  0.3057075351077913  0.2923466705846072  0.4795391867188175
  0.7455363547168345  0.8396336885074056  0.9652923861413243
  0.8494344888653660  0.9645421376798236  0.1207011109914675
  0.0991875300169364  0.7864997527713882  0.3270471734164846
  0.4674812366795797  0.0266642755799379  0.6676525193989297
  0.7486023058725372  0.6485323877672888  0.1765141934752228
  0.6597195559240788  0.2455135922210296  0.0976165143760017
  0.9932962760277168  0.2477998111606892  0.6565957044150522
  0.4972300405371189  0.3173714094043651  0.1826131296357501
  0.5237552922881193  0.5467160022678508  0.3080460709657522
  0.6275723717374616  0.3797248666858674  0.0093685675101612
  0.0750330947116523  0.8529073922815459  0.4255767932723321
  0.8228715734387728  0.1933924309489256  0.1166903784524065
  0.0702708536834369  0.6533231631810400  0.0810911708698619
  0.6566084048225633  0.6540678406369828  0.4696598365870610
  0.4494492478068957  0.2367032086593800  0.0232678465160430
  0.0519074658856898  0.9244645465060150  0.0838699231454793
  0.3569462140460893  0.3888311048308271  0.4350715761511997
  0.9889452188263398  0.4689730707151152  0.9284751189550933
  0.1791691823672314  0.9004917410132709  0.5935142344819684
  0.4117425848312501  0.1325240591352484  0.5341628800849176
  0.3748897396642409  0.0609274545929127  0.7390706238116163
  0.6050036759180096  0.7606591322346341  0.4948825797678694
  0.0603113733620747  0.5152940956866590  0.7560311400288087
  0.9353787584065865  0.6874019989685900  0.6246978857758171
  0.9864696557796246  0.5371605732475677  0.5516582820411348
  0.5427151991960824  0.4294900691084427  0.8346388480901400
  0.4326946303647417  0.4579772934803016  0.4935990419254566
  0.7506606733630494  0.8074956239864479  0.6783700641752217
  0.4221914859629645  0.6597875892303547  0.6966159438939646
  0.0372779179583230  0.7317232095870529  0.1614650762482039
  0.6252885754242549  0.6097674896724301  0.5777009054188629
  0.8414138811525712  0.9655158662611707  0.3246743212741691
  0.6657313115933613  0.1958417688462477  0.4456456176213703
  0.6916897174048285  0.1312232634377635  0.0830327134760383
  0.7326679803552288  0.8598038000318403  0.4317766111357657
  0.8713789635092301  0.2683993982058890  0.0388114083194847
  0.2568866132766143  0.3673052188329541  0.5569095856914023
  0.0773604333078384  0.7070558809805930  0.9735637590946349
  0.2113093458570135  0.2108822820137932  0.8599015337645923
  0.5427447584369279  0.7126193115816304  0.8369483205934246
  0.4059301717791445  0.8985028058472684  0.4285475981787934
  0.8320123821120131  0.8060586227680157  0.2811650996409587
  0.0765122792006219  0.0308022926684925  0.1295700946102293
  0.4739692632064597  0.8541674829267666  0.9710897100285113
  0.0592953182526188  0.3900081290031988  0.3561018825916097
  0.2314204344332011  0.9467816372576369  0.7774332685838842
  0.9182358422225064  0.1912576645501612  0.1909720509161969
  0.2228759661026876  0.1304868539017603  0.5142514361165353
  0.1780871143774885  0.0857711067283015  0.6781770141378797
  0.5147910926310580  0.5670546828273495  0.7060653651145132
  0.3712601349020295  0.5664513163628554  0.2220482169726733
  0.5032188403307291  0.5045318546066749  0.1406103978338114
  0.9612074463171766  0.5781217870602224  0.6638313903331227
  0.8035541952040753  0.3686598732737927  0.7131432343361641
  0.1815078372338579  0.7035576407285924  0.3373964047813005
  0.2316841187397733  0.4689676326484249  0.3154739088950773
  0.8870284610382417  0.0676279665269827  0.0748336515188257
  0.9479199926163004  0.9931801709324909  0.7052377260295837
  0.6686149123127918  0.2712735904695286  0.9805202916350361
  0.8170784230697766  0.6339588759148759  0.7441976057876409
  0.1670232578289086  0.5482835480359287  0.9081488095943669
  0.9610071260822691  0.3613775830351109  0.6585523224244192
  0.2813490695667639  0.6321303336825673  0.7972736712083961
  0.4983116767600249  0.9072445322092610  0.2697200376579857
  0.0038071550281193  0.2214805525875040  0.3412053504638598
  0.2958684063095307  0.3615449990455006  0.9805271983435012
  0.6954669382091694  0.4495082975460468  0.9480880771242562
  0.4892863952386234  0.7410971485131036  0.5132643761904366
  0.8715725833926129  0.6649149710076395  0.5247386972592623
  0.0736564808358117  0.0847980149259116  0.4100020487465275
  0.4351541192554527  0.3975292029462638  0.6707544708398921
  0.0367942380212856  0.6103241684290432  0.4754192888150779
  0.4953661991258164  0.2409592144644351  0.9128050447474764
  0.3349021680836934  0.6301377617736272  0.3728868523245073
  0.0726246838316376  0.0513938169559509  0.8445008022002811
  0.1225945327318712  0.1849321776369272  0.0443861668299145
  0.9226473641700539  0.1051758672917820  0.5386998289259058
  0.4709856497009855  0.9800071605097911  0.5588632699732141
  0.7845300946289505  0.6623807006196996  0.0642653335526421
  0.7083338881473504  0.4976098910399556  0.7914468602922327
  0.2387539065721447  0.8248533745638416  0.4477269020624068
  0.7100798489293286  0.9611010518494150  0.8104531810045013
  0.5785062269236599  0.9524310511658859  0.4208892846463985
  0.8168678602250116  0.9733106994926514  0.5425886032410284
  0.7229058661504989  0.6309647445339347  0.9180680324978764
  0.2993434387353832  0.4922083207884008  0.6557390132166840
  0.0560698804192931  0.4445087952010175  0.5375615471002173
  0.4885144638622837  0.7202972351969307  0.3314126393456066
  0.1594438893636266  0.9628891206405117  0.2877100518133852
  0.4206723811095102  0.5700707577899324  0.5264642183279225
  0.5921255017457171  0.5810828865516798  0.1057494538282965
  0.1404224399972013  0.3828496436554568  0.6853741582348927
  0.6450058930097957  0.4482570446438877  0.6569049953081806
  0.6777182904701621  0.9336487623698851  0.2668174558743139
  0.9288404913167755  0.0355706527034687  0.2772674514173241
  0.8701630638735386  0.4466855083502857  0.0688324029447366
  0.5741570139527886  0.7780938887496986  0.6851367842469972
  0.7534448435278321  0.0941894951645859  0.2307682186256625
  0.3354657457741332  0.7508189334315479  0.2114542024221076
  0.7461932675364646  0.3374250457065873  0.5328017590622093
  0.7387016691247049  0.0517796988921721  0.4820009144745702
  0.0134264925545812  0.3212674829850920  0.1727898586196375
  0.3345348221634931  0.5532076626809437  0.1065432439776878
  0.8363566511705122  0.1830948710675239  0.3697134794925052
  0.9959309989181384  0.8941558624254223  0.2322828796701981
  0.1906277647329733  0.7684399008516801  0.7367625335710184
  0.5063182010542079  0.1329511814382915  0.6215146703877819
  0.8872861637337687  0.7151532664120758  0.9068398868083209
  0.0250147211074979  0.7615893591603202  0.7643608367609257
  0.7830717697881540  0.5354592343274196  0.1841449056067103
  0.7867829754586678  0.5259186609679677  0.6034424819369850
  0.0869899617345325  0.7621282704636866  0.5010534934706170
  0.3119228859296167  0.1777377501316702  0.3437030525073766
  0.6635453787623651  0.4013595500455724  0.1188149652692591
  0.7030523770695488  0.8124545519459949  0.1556684561423013
  0.8852880103006666  0.7935906087445502  0.0838248050109698
  0.1577628115121527  0.4291081264707762  0.1597657134963844
  0.9055548325921380  0.1861592674546828  0.7145035325533100
  0.9108230820523530  0.3035308998378875  0.4897510537181269
  0.3710312316650402  0.2377434504928530  0.5637249834462422
  0.2210733063818464  0.8179932033773725  0.9202286515494756
  0.2778682628797213  0.6554484502214037  0.9754755349357253
  0.2665944314057050  0.6669603983492423  0.5937338644348076
  0.5112731178376648  0.3984699579495047  0.0116345196018553
  0.5775458428715418  0.0783034958044772  0.2457589798191197
  0.0393889143371329  0.2687144563480711  0.9229408975016313
  0.6572203212289697  0.0821900282627000  0.9244651755269171
  0.3532286176249836  0.0116868374420109  0.3061439554438534
  0.3827037659840896  0.8236763972220629  0.6359193536727967
  0.5925501051836147  0.9547944654397206  0.0902503563418227
  0.6181435207695497  0.4659603396313587  0.2794068238644384
  0.9248947958746875  0.8469829779761799  0.5945420171568748
  0.7923180295990416  0.9456941914397153  0.0115549161808624
  0.6401525842933821  0.8839402378008847  0.9422656332593228
  0.2853245248249047  0.1099292368456388  0.0006550617108722
  0.6136166374372523  0.7268312391723213  0.0180163391368388
  0.1239090698575643  0.2733906703560239  0.4928450508338778
  0.5594701041411654  0.3030169189347555  0.5706027465193740
  0.2217949092825479  0.5330875878783325  0.4903383108613060
  0.3017792732736994  0.9019421915119525  0.0483323318848172
  0.8521342058046674  0.6255564032150577  0.3378033654187981
  0.0994401030303170  0.9212881921615584  0.9765378558213963
  0.2105290271949093  0.1127814003797757  0.1939985733966697
  0.5020974141348764  0.7962360492372442  0.1308356890294928
  0.7132816295261201  0.2133266460798497  0.7608298095795869
  0.7109568903329032  0.7653979348004828  0.7878598325475684
  0.4794962096136169  0.2401721617421524  0.2710790667099671
  0.9272781076128169  0.4772000534388481  0.2579684055939649
  0.1284508193703738  0.5959682641392121  0.6955616848942745
  0.3673163462245114  0.7748023316997852  0.8326985774862105
  0.8712520698087651  0.4757618165738493  0.4319756573114287
  0.1815664358351443  0.3738887051641341  0.8563497040952683
  0.3759570164999807  0.5082088447047128  0.9343755867470914
  0.4714940778336002  0.0608983876711982  0.9834593824588558
  0.5814419205004184  0.3862514929473986  0.4194860708492261
  0.0789522683094252  0.4476188962605722  0.0065617098577787
  0.6657773161491448  0.2320361489540688  0.2623296783285174
  0.4069353609094675  0.9853415313589888  0.1466049614962152
  0.2926092251973103  0.2539597848707039  0.1350482500875227
  0.1899211462102216  0.2765877830407265  0.2993098309238152
  0.3985484697832871  0.3792372611682723  0.1534119169471997
  0.2792398541938304  0.2783883692967627  0.7116979398788431
  0.6921129579943872  0.0811326049267397  0.6587918505479611
  0.8988199438541425  0.3017901149479515  0.8378442783494205
  0.4693902169901624  0.1217669258075560  0.4324782121513283
  0.9642778417755672  0.8922656656013621  0.4129156221365293
  0.9585052146535983  0.8918958993129031  0.8502500549441340
  0.0778928956168723  0.2221053508198303  0.7392566988442933
  0.5438708786491420  0.9618634020586536  0.7292149673520936
  0.6444047065404761  0.9274391465265062  0.5946777758710854
  0.4105602120557072  0.3867776609504069  0.3304227693264999
  0.0702167061465770  0.5667542292701365  0.2669278008028758
  0.1795717686394342  0.6340551767251148  0.1267477886241137
  0.6899617200023097  0.7226617831852906  0.3284729948471364
  0.9968095488937678  0.7270147199777850  0.3252085780251691
  0.8881841119121707  0.0682296624540941  0.8850312166625316
  0.3950570474456555  0.9960572625372498  0.8353873962907373
  0.4673608076478380  0.6523388030159711  0.9973037203993260
  0.8039548551943033  0.3548444780693293  0.2256766996481352
 
  0.00000000E+00  0.00000000E+00  0.00000000E+00
  0.00000000E+00  0.00000000E+00  0.00000000E+00
  0.00000000E+00  0.00000000E+00  0.00000000E+00
  0.00000000E+00  0.00000000E+00  0.00000000E+00
  0.00000000E+00  0.00000000E+00  0.00000000E+00
  0.00000000E+00  0.00000000E+00  0.00000000E+00
  0.00000000E+00  0.00000000E+00  0.00000000E+00
  0.00000000E+00  0.00000000E+00  0.00000000E+00
  0.00000000E+00  0.00000000E+00  0.00000000E+00
  0.00000000E+00  0.00000000E+00  0.00000000E+00
  0.00000000E+00  0.00000000E+00  0.00000000E+00
  0.00000000E+00  0.00000000E+00  0.00000000E+00
  0.00000000E+00  0.00000000E+00  0.00000000E+00
  0.00000000E+00  0.00000000E+00  0.00000000E+00
  0.00000000E+00  0.00000000E+00  0.00000000E+00
  0.00000000E+00  0.00000000E+00  0.00000000E+00
  0.00000000E+00  0.00000000E+00  0.00000000E+00
  0.00000000E+00  0.00000000E+00  0.00000000E+00
  0.00000000E+00  0.00000000E+00  0.00000000E+00
  0.00000000E+00  0.00000000E+00  0.00000000E+00
  0.00000000E+00  0.00000000E+00  0.00000000E+00
  0.00000000E+00  0.00000000E+00  0.00000000E+00
  0.00000000E+00  0.00000000E+00  0.00000000E+00
  0.00000000E+00  0.00000000E+00  0.00000000E+00
  0.00000000E+00  0.00000000E+00  0.00000000E+00
  0.00000000E+00  0.00000000E+00  0.00000000E+00
  0.00000000E+00  0.00000000E+00  0.00000000E+00
  0.00000000E+00  0.00000000E+00  0.00000000E+00
  0.00000000E+00  0.00000000E+00  0.00000000E+00
  0.00000000E+00  0.00000000E+00  0.00000000E+00
  0.00000000E+00  0.00000000E+00  0.00000000E+00
  0.00000000E+00  0.00000000E+00  0.00000000E+00
  0.00000000E+00  0.00000000E+00  0.00000000E+00
  0.00000000E+00  0.00000000E+00  0.00000000E+00
  0.00000000E+00  0.00000000E+00  0.00000000E+00
  0.00000000E+00  0.00000000E+00  0.00000000E+00
  0.00000000E+00  0.00000000E+00  0.00000000E+00
  0.00000000E+00  0.00000000E+00  0.00000000E+00
  0.00000000E+00  0.00000000E+00  0.00000000E+00
  0.00000000E+00  0.00000000E+00  0.00000000E+00
  0.00000000E+00  0.00000000E+00  0.00000000E+00
  0.00000000E+00  0.00000000E+00  0.00000000E+00
  0.00000000E+00  0.00000000E+00  0.00000000E+00
  0.00000000E+00  0.00000000E+00  0.00000000E+00
  0.00000000E+00  0.00000000E+00  0.00000000E+00
  0.00000000E+00  0.00000000E+00  0.00000000E+00
  0.00000000E+00  0.00000000E+00  0.00000000E+00
  0.00000000E+00  0.00000000E+00  0.00000000E+00
  0.00000000E+00  0.00000000E+00  0.00000000E+00
  0.00000000E+00  0.00000000E+00  0.00000000E+00
  0.00000000E+00  0.00000000E+00  0.00000000E+00
  0.00000000E+00  0.00000000E+00  0.00000000E+00
  0.00000000E+00  0.00000000E+00  0.00000000E+00
  0.00000000E+00  0.00000000E+00  0.00000000E+00
  0.00000000E+00  0.00000000E+00  0.00000000E+00
  0.00000000E+00  0.00000000E+00  0.00000000E+00
  0.00000000E+00  0.00000000E+00  0.00000000E+00
  0.00000000E+00  0.00000000E+00  0.00000000E+00
  0.00000000E+00  0.00000000E+00  0.00000000E+00
  0.00000000E+00  0.00000000E+00  0.00000000E+00
  0.00000000E+00  0.00000000E+00  0.00000000E+00
  0.00000000E+00  0.00000000E+00  0.00000000E+00
  0.00000000E+00  0.00000000E+00  0.00000000E+00
  0.00000000E+00  0.00000000E+00  0.00000000E+00
  0.00000000E+00  0.00000000E+00  0.00000000E+00
  0.00000000E+00  0.00000000E+00  0.00000000E+00
  0.00000000E+00  0.00000000E+00  0.00000000E+00
  0.00000000E+00  0.00000000E+00  0.00000000E+00
  0.00000000E+00  0.00000000E+00  0.00000000E+00
  0.00000000E+00  0.00000000E+00  0.00000000E+00
  0.00000000E+00  0.00000000E+00  0.00000000E+00
  0.00000000E+00  0.00000000E+00  0.00000000E+00
  0.00000000E+00  0.00000000E+00  0.00000000E+00
  0.00000000E+00  0.00000000E+00  0.00000000E+00
  0.00000000E+00  0.00000000E+00  0.00000000E+00
  0.00000000E+00  0.00000000E+00  0.00000000E+00
  0.00000000E+00  0.00000000E+00  0.00000000E+00
  0.00000000E+00  0.00000000E+00  0.00000000E+00
  0.00000000E+00  0.00000000E+00  0.00000000E+00
  0.00000000E+00  0.00000000E+00  0.00000000E+00
  0.00000000E+00  0.00000000E+00  0.00000000E+00
  0.00000000E+00  0.00000000E+00  0.00000000E+00
  0.00000000E+00  0.00000000E+00  0.00000000E+00
  0.00000000E+00  0.00000000E+00  0.00000000E+00
  0.00000000E+00  0.00000000E+00  0.00000000E+00
  0.00000000E+00  0.00000000E+00  0.00000000E+00
  0.00000000E+00  0.00000000E+00  0.00000000E+00
  0.00000000E+00  0.00000000E+00  0.00000000E+00
  0.00000000E+00  0.00000000E+00  0.00000000E+00
  0.00000000E+00  0.00000000E+00  0.00000000E+00
  0.00000000E+00  0.00000000E+00  0.00000000E+00
  0.00000000E+00  0.00000000E+00  0.00000000E+00
  0.00000000E+00  0.00000000E+00  0.00000000E+00
  0.00000000E+00  0.00000000E+00  0.00000000E+00
  0.00000000E+00  0.00000000E+00  0.00000000E+00
  0.00000000E+00  0.00000000E+00  0.00000000E+00
  0.00000000E+00  0.00000000E+00  0.00000000E+00
  0.00000000E+00  0.00000000E+00  0.00000000E+00
  0.00000000E+00  0.00000000E+00  0.00000000E+00
  0.00000000E+00  0.00000000E+00  0.00000000E+00
  0.00000000E+00  0.00000000E+00  0.00000000E+00
  0.00000000E+00  0.00000000E+00  0.00000000E+00
  0.00000000E+00  0.00000000E+00  0.00000000E+00
  0.00000000E+00  0.00000000E+00  0.00000000E+00
  0.00000000E+00  0.00000000E+00  0.00000000E+00
  0.00000000E+00  0.00000000E+00  0.00000000E+00
  0.00000000E+00  0.00000000E+00  0.00000000E+00
  0.00000000E+00  0.00000000E+00  0.00000000E+00
  0.00000000E+00  0.00000000E+00  0.00000000E+00
  0.00000000E+00  0.00000000E+00  0.00000000E+00
  0.00000000E+00  0.00000000E+00  0.00000000E+00
  0.00000000E+00  0.00000000E+00  0.00000000E+00
  0.00000000E+00  0.00000000E+00  0.00000000E+00
  0.00000000E+00  0.00000000E+00  0.00000000E+00
  0.00000000E+00  0.00000000E+00  0.00000000E+00
  0.00000000E+00  0.00000000E+00  0.00000000E+00
  0.00000000E+00  0.00000000E+00  0.00000000E+00
  0.00000000E+00  0.00000000E+00  0.00000000E+00
  0.00000000E+00  0.00000000E+00  0.00000000E+00
  0.00000000E+00  0.00000000E+00  0.00000000E+00
  0.00000000E+00  0.00000000E+00  0.00000000E+00
  0.00000000E+00  0.00000000E+00  0.00000000E+00
  0.00000000E+00  0.00000000E+00  0.00000000E+00
  0.00000000E+00  0.00000000E+00  0.00000000E+00
  0.00000000E+00  0.00000000E+00  0.00000000E+00
  0.00000000E+00  0.00000000E+00  0.00000000E+00
  0.00000000E+00  0.00000000E+00  0.00000000E+00
  0.00000000E+00  0.00000000E+00  0.00000000E+00
  0.00000000E+00  0.00000000E+00  0.00000000E+00
  0.00000000E+00  0.00000000E+00  0.00000000E+00
  0.00000000E+00  0.00000000E+00  0.00000000E+00
  0.00000000E+00  0.00000000E+00  0.00000000E+00
  0.00000000E+00  0.00000000E+00  0.00000000E+00
  0.00000000E+00  0.00000000E+00  0.00000000E+00
  0.00000000E+00  0.00000000E+00  0.00000000E+00
  0.00000000E+00  0.00000000E+00  0.00000000E+00
  0.00000000E+00  0.00000000E+00  0.00000000E+00
  0.00000000E+00  0.00000000E+00  0.00000000E+00
  0.00000000E+00  0.00000000E+00  0.00000000E+00
  0.00000000E+00  0.00000000E+00  0.00000000E+00
  0.00000000E+00  0.00000000E+00  0.00000000E+00
  0.00000000E+00  0.00000000E+00  0.00000000E+00
  0.00000000E+00  0.00000000E+00  0.00000000E+00
  0.00000000E+00  0.00000000E+00  0.00000000E+00
  0.00000000E+00  0.00000000E+00  0.00000000E+00
  0.00000000E+00  0.00000000E+00  0.00000000E+00
  0.00000000E+00  0.00000000E+00  0.00000000E+00
  0.00000000E+00  0.00000000E+00  0.00000000E+00
  0.00000000E+00  0.00000000E+00  0.00000000E+00
  0.00000000E+00  0.00000000E+00  0.00000000E+00
  0.00000000E+00  0.00000000E+00  0.00000000E+00
  0.00000000E+00  0.00000000E+00  0.00000000E+00
  0.00000000E+00  0.00000000E+00  0.00000000E+00
  0.00000000E+00  0.00000000E+00  0.00000000E+00
  0.00000000E+00  0.00000000E+00  0.00000000E+00
  0.00000000E+00  0.00000000E+00  0.00000000E+00
  0.00000000E+00  0.00000000E+00  0.00000000E+00
  0.00000000E+00  0.00000000E+00  0.00000000E+00
  0.00000000E+00  0.00000000E+00  0.00000000E+00
  0.00000000E+00  0.00000000E+00  0.00000000E+00
  0.00000000E+00  0.00000000E+00  0.00000000E+00
  0.00000000E+00  0.00000000E+00  0.00000000E+00
  0.00000000E+00  0.00000000E+00  0.00000000E+00
  0.00000000E+00  0.00000000E+00  0.00000000E+00
  0.00000000E+00  0.00000000E+00  0.00000000E+00
  0.00000000E+00  0.00000000E+00  0.00000000E+00
  0.00000000E+00  0.00000000E+00  0.00000000E+00
  0.00000000E+00  0.00000000E+00  0.00000000E+00
  0.00000000E+00  0.00000000E+00  0.00000000E+00
  0.00000000E+00  0.00000000E+00  0.00000000E+00
  0.00000000E+00  0.00000000E+00  0.00000000E+00
  0.00000000E+00  0.00000000E+00  0.00000000E+00
  0.00000000E+00  0.00000000E+00  0.00000000E+00
  0.00000000E+00  0.00000000E+00  0.00000000E+00
  0.00000000E+00  0.00000000E+00  0.00000000E+00
  0.00000000E+00  0.00000000E+00  0.00000000E+00
  0.00000000E+00  0.00000000E+00  0.00000000E+00
  0.00000000E+00  0.00000000E+00  0.00000000E+00
  0.00000000E+00  0.00000000E+00  0.00000000E+00
  0.00000000E+00  0.00000000E+00  0.00000000E+00
  0.00000000E+00  0.00000000E+00  0.00000000E+00
  0.00000000E+00  0.00000000E+00  0.00000000E+00
  0.00000000E+00  0.00000000E+00  0.00000000E+00
  0.00000000E+00  0.00000000E+00  0.00000000E+00
  0.00000000E+00  0.00000000E+00  0.00000000E+00
  0.00000000E+00  0.00000000E+00  0.00000000E+00
  0.00000000E+00  0.00000000E+00  0.00000000E+00
  0.00000000E+00  0.00000000E+00  0.00000000E+00
  0.00000000E+00  0.00000000E+00  0.00000000E+00
  0.00000000E+00  0.00000000E+00  0.00000000E+00
  0.00000000E+00  0.00000000E+00  0.00000000E+00
  0.00000000E+00  0.00000000E+00  0.00000000E+00
  0.00000000E+00  0.00000000E+00  0.00000000E+00
  0.00000000E+00  0.00000000E+00  0.00000000E+00
  0.00000000E+00  0.00000000E+00  0.00000000E+00
  0.00000000E+00  0.00000000E+00  0.00000000E+00
  0.00000000E+00  0.00000000E+00  0.00000000E+00
  0.00000000E+00  0.00000000E+00  0.00000000E+00
  0.00000000E+00  0.00000000E+00  0.00000000E+00
  0.00000000E+00  0.00000000E+00  0.00000000E+00
  0.00000000E+00  0.00000000E+00  0.00000000E+00
  0.00000000E+00  0.00000000E+00  0.00000000E+00
  0.00000000E+00  0.00000000E+00  0.00000000E+00
  0.00000000E+00  0.00000000E+00  0.00000000E+00
  0.00000000E+00  0.00000000E+00  0.00000000E+00
  0.00000000E+00  0.00000000E+00  0.00000000E+00
  0.00000000E+00  0.00000000E+00  0.00000000E+00
  0.00000000E+00  0.00000000E+00  0.00000000E+00
  0.00000000E+00  0.00000000E+00  0.00000000E+00
  0.00000000E+00  0.00000000E+00  0.00000000E+00
  0.00000000E+00  0.00000000E+00  0.00000000E+00
  0.00000000E+00  0.00000000E+00  0.00000000E+00
  0.00000000E+00  0.00000000E+00  0.00000000E+00
  0.00000000E+00  0.00000000E+00  0.00000000E+00
  0.00000000E+00  0.00000000E+00  0.00000000E+00
  0.00000000E+00  0.00000000E+00  0.00000000E+00
  0.00000000E+00  0.00000000E+00  0.00000000E+00
  0.00000000E+00  0.00000000E+00  0.00000000E+00
  0.00000000E+00  0.00000000E+00  0.00000000E+00
  0.00000000E+00  0.00000000E+00  0.00000000E+00
  0.00000000E+00  0.00000000E+00  0.00000000E+00
  0.00000000E+00  0.00000000E+00  0.00000000E+00
  0.00000000E+00  0.00000000E+00  0.00000000E+00
  0.00000000E+00  0.00000000E+00  0.00000000E+00
  0.00000000E+00  0.00000000E+00  0.00000000E+00
  0.00000000E+00  0.00000000E+00  0.00000000E+00
  0.00000000E+00  0.00000000E+00  0.00000000E+00
  0.00000000E+00  0.00000000E+00  0.00000000E+00
  0.00000000E+00  0.00000000E+00  0.00000000E+00
  0.00000000E+00  0.00000000E+00  0.00000000E+00
  0.00000000E+00  0.00000000E+00  0.00000000E+00
  0.00000000E+00  0.00000000E+00  0.00000000E+00