Amorphous Sb2Se3                        
   1.00000000000000     
    21.3367606951059727    0.0000000000000000    0.0000000000000000
     0.0000000000000000   21.3367606951059727    0.0000000000000000
     0.0000000000000000    0.0000000000000000   21.3367606951059727
   Bi   S 
   120   180
Direct
  0.9592716201523644  0.2723090508149584  0.4838829784948060
  0.2212681679660741  0.4380580592944354  0.4698444940636189
  0.5214767481582576  0.1831882725238647  0.1817853136822211
  0.0778156797702088  0.4294937660912062  0.4548448499200574
  0.5405515975017920  0.6800100007654221  0.5550471306033338
  0.7971171086838510  0.9748662756899908  0.3006091205569680
  0.4240366702119531  0.3605507151987901  0.4306793926993648
  0.9919437311602405  0.8556601643558843  0.9801356124442751
  0.0079617966527767  0.5701326107638705  0.2899722528476025
  0.0140199210629362  0.0331833007819934  0.9559677295427228
  0.0879543723418272  0.9438053744202940  0.2098943549247636
  0.6728001621148402  0.4179239537668185  0.4895822173752084
  0.8464471332716212  0.0621246709599927  0.6768953188906676
  0.3385429379659840  0.5840284554284922  0.5850022668557110
  0.4652432777948798  0.3455702625405079  0.9700229076118003
  0.8978909849125709  0.5929984918645258  0.8491870699289613
  0.9471203103381438  0.0958583358106167  0.4724170813502253
  0.8177715503715725  0.7777539189016773  0.4786704982648832
  0.6360649174171645  0.4143494903822162  0.9927028086765946
  0.8974584252751703  0.1827400251134193 -0.0033204188609756
  0.1869293747202443  0.7289248658164873  0.5645775216596941
  0.6886234082357792  0.6571003410155113  0.3927417211488606
  0.0053042817563850  0.5543581815477914  0.6538218487715287
  0.7174855785549585  0.6584648819527446  0.1450468473969941
  0.3869549891838788  0.7270104848263071  0.0943443570129658
  0.9824564495015500  0.7467430503356464  0.5346397628283162
  0.5137321665769258  0.6147028123754530  0.7291412334532535
  0.9159140241931941  0.4325882649842198  0.7424054531049160
  0.4579986146346741  0.6812877429245934  0.3876855513353483
  0.7135577898406515  0.9920276435207754  0.4430247043781718
  0.3039522851258183  0.7671759939628819  0.4511633078302327
  0.1323738850961469  0.4501921639371586  0.0804153543691116
  0.1159311648136530  0.6463441394567241  0.1684238986521047
  0.6135414306406938  0.8238095426462489  0.3949969603477118
  0.2549598620153162  0.1208166274377611  0.6939859740466519
  0.3032887035171515  0.5052376576399789  0.0592685593066528
  0.7429453376456645  0.2641396065334012  0.2173827004758369
  0.3343873482313569  0.1088297181178513  0.8816348753067345
  0.7030642772317063  0.2831335618566789  0.8733593120535015
  0.0326960851748658  0.7707218209621122  0.8701521783464414
  0.1675002158449690  0.3046312371771802  0.8101106531835713
  0.3193234651047109  0.7048397965516624  0.2797001714235940
  0.5621682249827962  0.3675985325028140  0.2412100128054265
  0.1668809076424809  0.7606815313011633  0.9282112355349783
  0.6075357903143407  0.0385159649818945  0.6635031082088144
  0.2754730842185225  0.0786642890887889  0.5315958779135819
  0.0891974344810460  0.2185783489308508  0.6849008717309897
  0.1443810865285869  0.9886840454516005  0.8249638477292967
  0.1231932213703226  0.6063625819371928  0.4264955492297800
  0.7540822230140218  0.5732971900758850  0.9832675889808031
  0.7500046601546356  0.0971516140516852  0.8441927019576473
  0.3088999789028931  0.2052448261284852  0.0218812349236076
  0.7853250733759831  0.9202433366262133  0.7659808644854057
  0.2632643914493234  0.0596922746072513  0.1139600103409204
  0.4300358658964246  0.7052510689699419  0.9268086749137314
  0.1108590953743936  0.1947524424567839  0.8887366264697999
  0.6994130555649389  0.7801519681398529  0.6425143366753149
  0.7281307169009948  0.4850739850094047  0.2210816372199199
  0.0903204007521712  0.1269522664224428  0.1510348854430824
  0.3700440206329524  0.0406840138291497  0.3325750349137739
  0.8502889116876297  0.3618950737842493  0.3503109317376411
  0.3237673869499242  0.3998733471864715  0.6221820643916773
  0.2837215774325283  0.5714475694520984  0.8814128593915684
  0.5537882967482428  0.5506682118578151  0.2963874173698590
  0.6113453005643344  0.0238724732706302  0.2532067984803837
  0.6802806399826697  0.8674139698318023  0.1141229988799570
  0.3296791996482714  0.3175339116121817  0.1163318965760621
  0.4469816462010774  0.9445944655599707  0.6051486195804279
  0.4326562141727199  0.1730534095060224  0.5510461024900197
  0.1812126911985872  0.8102605469195642  0.1057116134759599
  0.7687023082566775  0.3177831939050897  0.6667818984827206
  0.2429947048356305  0.8878284021701593  0.6575210112154835
  0.8804298075479066  0.7051779705446578  0.6688481923200119
  0.4656786062602800  0.2272757418419692  0.3781346871124672
  0.7178273761731095  0.6955451327903965  0.8129809674755825
  0.1896285721272306  0.3458428205051520  0.9992557329736765
  0.4432014681322615  0.0486546239660154  0.7526954895148916
  0.8336661033145297  0.5137800982106965  0.6053146699398296
  0.4849100990949065  0.5626952369118393  0.0946134775392855
  0.3072397744531045  0.9046476899112336  0.7907928008766444
  0.0406901899123858  0.4816685330018198  0.8809539289209958
  0.3809399181688992  0.7095213578187999  0.7487563967645063
  0.5206748442510168  0.5343608213953258  0.9035638212864584
  0.5783918201193985  0.9440813459722924  0.4704655903637837
  0.0136363324388834  0.6674038930122305  0.9867879154621197
  0.8699017872420898  0.6190569637417392  0.3843757902172913
  0.9979677876439663  0.3184364072155048  0.0415298192071576
  0.4025905368749844  0.4682101655883914  0.2578475657446436
  0.9567107505756300  0.5565237048294848  0.0640659198345173
  0.9407222773740694  0.9166129248634546  0.5414744587351987
  0.8180645765553243  0.7951460583249166  0.9975160181462122
  0.7323244029642545  0.6029784559830980  0.5199140925593501
  0.7623335407499331  0.1643233821661057  0.3230780429413871
  0.2218436578396345  0.6840197684995435  0.8112087140169761
  0.5412125279982406  0.3765717310574543  0.7807501009062825
  0.5297284921811788  0.3130786145598365  0.5800744852014356
  0.9725355963783150  0.7843748015354035  0.3003659309829293
  0.5857085335788128  0.1936487084303026  0.7598117969962050
  0.4410682922556398  0.8194347895275129  0.3263276286359665
  0.4543672158643571  0.9919844944764054  0.1567579304955103
  0.1109891936885935  0.2104063609819068  0.5458329377660800
  0.7957331658002276  0.4179515192183944  0.0746657855682859
  0.0455917117338803  0.0389056238371353  0.6316219651245060
  0.7559356468438325  0.9521556423238118  0.9539244739675904
  0.8968030797951859  0.9126013852829271  0.2075758169654469
  0.0551721418991489  0.8481086151449051  0.6822916752439175
  0.7480219075985600  0.2537002019789087  0.5012064293697532
  0.5647089048885373  0.8100690361663195  0.6906095590737187
  0.9536260545356472  0.2119117198873019  0.3131698477020102
  0.2675940167604983  0.9033340641488080  0.9722376400139437
  0.6869275185900595  0.1384464033227995  0.0915122648688717
  0.5751645532916891  0.7150386820827705  0.0599622442194459
  0.9063513692404975  0.2477291546335687  0.8207115330318775
  0.2124230664452261  0.1152448781402668  0.3301048897088232
  0.0572495795028145  0.3416184291237269  0.2413657259584193
  0.2734962133524816  0.8883658836963855  0.2884800649439420
  0.9648818289456864  0.9696504551333454  0.8325307940724662
  0.3724680905139237  0.2886497307383505  0.8207518803415305
  0.4957884670125606  0.5018450950144764  0.5733787321006918
  0.3364074339160906  0.4851191246292157  0.7715127574678041
  0.4440001856362427  0.3147082442918174  0.1651689740252716
  0.4768884728079836  0.7697134500752754  0.8091968581906442
  0.6452780775859137  0.7566315444969631  0.1672611239370051
  0.5303922217797806  0.2060737406805027  0.4786179148855508
  0.3154093340356060  0.0159719573042867  0.6288026328591890
  0.5265068840956432  0.4909272778501381  0.1868234100596375
  0.6137351756006344  0.0316396377188040  0.3794599081376788
  0.7863520760666449  0.1715755095561619  0.7061542169726038
  0.2283048170789400  0.5926848603227813  0.1659428573087299
  0.4393284567370682  0.9268805625765975  0.7243275844646764
  0.0213608697566253  0.1847369340214693  0.4120287609001135
  0.5646196223898087  0.0531741459683911  0.7770469967130137
  0.7939362312058742  0.7143414702471029  0.3631824341368621
  0.3741869005289856  0.5476615145673208  0.1462221502104181
  0.1813968181994840  0.1408178273674862  0.0703250999035213
  0.5184779249263368  0.8914453748326880  0.1972718665294497
  0.5685176802978558  0.0233935509477907  0.1124449806893547
  0.2983695178460239  0.1805408997494780  0.5930219945378561
  0.8333342399888090  0.3379900465188921  0.7863637974122883
  0.7155177233562789  0.3309748729714940  0.4140916443552289
  0.2641025100539147  0.0229607238076644  0.8007265150550258
  0.0397021171063153  0.4835463943613195  0.7444766807545298
  0.2063199266446786  0.8791826443933949  0.8588349202384824
  0.8082982682471744  0.5259073339464196  0.3203749379223957
  0.3752601078734760  0.6340275506337116  0.0142123902756479
  0.4767291083776736  0.7370384074811598  0.6389424285793980
  0.8915086532224193  0.4764206060766134  0.3117893782567066
  0.0708676655530118  0.3389725420455440  0.7062545850017568
  0.9704694020468004  0.3376182746334341  0.3691414684247287
  0.0414882457387252  0.0158293802694178  0.1241200387766158
  0.5218176301377118  0.2897388315679068  0.1099197677383706
  0.9027217622774101  0.2974675490200929  0.9617430146558149
  0.1309257120099330  0.5200471660254318  0.5224136608586605
  0.7392381068977381  0.6755812959034397  0.6952926910225692
  0.5677981746971377  0.5250084851706254  0.7876405174968267
  0.1082407542736552  0.4878856989519633  0.3414526184522710
  0.6881119220508145  0.8407802055324826  0.7450582112736555
  0.6385074940437960  0.2363786634389019  0.0349490530323425
  0.8039036869561628  0.5377489049779870  0.1031081945392093
  0.5010879774573693  0.4072580333348910  0.6564954077711853
  0.2246008163312780  0.3630687970935806  0.5626040144055812
  0.7174118706915780  0.9679545255015477  0.2106158995400787
  0.2052848501252616  0.2444386289266074  0.7085234942942723
  0.9435194998127034  0.4611177455664368  0.5984474690790735
  0.0046604092160702  0.5725111912415403  0.4158208344709777
  0.1574726514654401  0.1002624565907658  0.6015152627385437
  0.0034967969966130  0.7064653933967575  0.6595030225342213
  0.6659373492265687  0.7467148431967991  0.4776042224255054
  0.7484375194134968  0.9860842867965104  0.6714730550688677
  0.0266393665749032  0.0819233329126304  0.7590669468811756
  0.4296362918650726  0.5813639976377241  0.2931168834014382
  0.7681777328586907  0.5908253783836268  0.8459696706844675
  0.4987011224268997  0.7913148184475983  0.4399901741570178
  0.3769156091480261  0.1159452744116027  0.4625539612681574
  0.0673593432893155  0.2242080030106307  0.2556760327592840
  0.4644187286337197  0.7888590732452667  0.0227056121710300
  0.0504615436775834  0.8482763643333789  0.5543230008469417
  0.2171965905948847  0.8309266078903143  0.5055736356895365
  0.1652764037129346  0.0635768935457276  0.2311306349005477
  0.2096861963427830  0.9088699101662978  0.1718011681408736
  0.6728988043962937  0.3181648779146873  0.5790634690183619
  0.2531028990095710  0.6524461685287974  0.4869827227326671
  0.8779075568867578  0.6060029903386195  0.9704679985535626
  0.9305222397274887  0.7715498113235141  0.0437676271881354
  0.5113561347143523  0.4494103743142006  0.0148492158060553
  0.9254537148931947  0.0878639780765451  0.3117335273502974
  0.3702246624611353  0.4761568870978360  0.5296685372666043
  0.0430119234067353  0.8487630517351923  0.1420758210129751
  0.1225447839081516  0.9525769222494903  0.6759182843689940
  0.8489865185130108  0.1052652593514557  0.2548086265971866
  0.2461153841930679  0.4347369943344387  0.1376675549593993
  0.1795087383732609  0.4432218619442653  0.2921896847982668
  0.8984347718879266  0.5801417873775988  0.7078320261614885
  0.5567757405929181  0.2549298665604942  0.3009774832938257
  0.5394243867426408  0.6520833065604273  0.9449369775438725
  0.6440439789247460  0.3045373680891121  0.7454147895882091
  0.9884455332575635  0.2039858604484126  0.0805903549355400
  0.1322218737497227  0.0363745914245167  0.9377780142861570
  0.6414768218393065  0.9280601069618767 -0.0034356845096098
  0.1531051303061970  0.8851062242351155  0.0126647359599985
  0.7759478543884554  0.4402096157615300  0.6818862329522027
  0.5846700396231109  0.3383507640800735  0.9011086882881312
  0.0968292572147237  0.6559927578537146  0.2906554179171903
  0.7454027947634732  0.8910462927334568  0.3837068808992520
  0.7993884001639819  0.8711261496081210  0.0934700522755016
  0.4938517888776716  0.0575181675550378  0.6106530829748622
  0.3333033903727772  0.4698665727873919  0.3625499972424815
  0.3552448378424949  0.1630508131693827  0.7701047731931612
  0.9454510703714362  0.9590145394608937  0.6594594454749457
  0.4305236613532086  0.3983721076278454  0.8638769093425686
  0.9947047972751418  0.1690785934997659  0.5678300121120163
  0.0260240589113810  0.0076848835538348  0.5027092040516459
  0.7646018894814265  0.4425281419962003  0.9617998142551395
  0.3420397348233742  0.9761098918585949  0.2321418427619650
  0.2594518176485259  0.6848630525444028  0.1689798918132006
  0.0137539254575343  0.4653263035804104  0.0069092603159558
  0.6449026355530278  0.1770273723066227  0.8704845191924856
  0.6417793333276041  0.1544688717267185  0.6571187641641895
  0.2150763107034782  0.4196399741703207  0.9040781517154541
  0.2668376049594187  0.5036291943836985  0.6697573756506260
  0.8504916301346783  0.3236909492922787  0.2355020653742209
  0.3218358638398383  0.1438934585489097  0.2899725361072474
  0.6629184426347395  0.8315913688455689  0.9948335556287689
  0.2948465297468079  0.3679074678755611  0.7560291576148550
  0.0340300178619432  0.6025772169285221  0.8800746483494915
  0.0612135897868455  0.7777441449771043  0.2062360264958104
  0.5632006431384017  0.9012951393939984  0.5958663636398139
  0.6724793589679580  0.5904987920132817  0.2495721821664680
  0.6857123796841255  0.4100123859399588  0.1237262362087127
  0.0557200540982269  0.8788632058604506  0.8173120525507411
  0.4026747130881308  0.6110435476672111  0.8347944331211349
  0.4232467019141641  0.5480318118900998  0.6707615527411313
  0.1615729169690058  0.3493927269078009  0.3015337379682703
  0.7124991546643887  0.2883249714609190  0.0022455569471376
  0.8758194100910037  0.7977041377624557  0.2311014013129963
  0.9140040634348044  0.4682969456121236  0.8651401405584916
  0.6376370649188521  0.6027857173511536  0.0739821641652841
  0.4451252450669015  0.6160756855353147  0.5126082284823886
  0.2299386954458161  0.2332336309680668  0.8911097783263868
  0.3585726917594708  0.8811246242854747  0.3884609629056285
  0.1663597869470358  0.7937211653863334  0.6907361885571112
  0.3004177143977266  0.0194139088750450  0.0040928433864561
  0.8339413943878701  0.0841566813399939  0.5428828366599101
  0.4992167111905152  0.6738185222746250  0.1483317531068837
  0.8918374087698457  0.7315312294478098  0.7958262347837903
  0.0502127092411294  0.3281350337816973  0.5360453244855977
  0.9758051244674841  0.1423290079054365  0.9094459339658172
  0.4786773718605423  0.0682312051321715  0.2461630284199323
  0.4932450933241022  0.4191952250304088  0.3290255655912082
  0.2355066666696557  0.7597091614722893  0.3462034605089825
  0.9838152904857063  0.9134975925206466  0.2927369839414910
  0.9257463133211133  0.8128889201919479  0.4340479822328570
  0.5469215786313749  0.1113626254373209  0.0772972960661868
  0.5852798682641004  0.5920739823893162  0.6312523327863198
  0.3488464141091916  0.8096769323815608  0.2244491363379943
  0.1061194593319207  0.3385536866806015  0.1268797750156269
  0.5437714311399291  0.3942171330180121  0.4922009146531318
  0.7649659878051633  0.0713276201332390  0.9650990397763753
  0.7437954286283073  0.7029661520941404  0.0241152499226808
  0.8385435630987391  0.3090740518510045  0.5584456251057316
  0.6417969596131969  0.1599473035142496  0.2055314544146145
  0.3146420636023762  0.7619440051228382  0.8354710292605383
  0.1172633802494508  0.1099234704563002  0.7809595185074143
  0.8818048414206812  0.1937861069569125  0.7094257414235617
  0.9769749420765843  0.3237313649170516  0.7255368721014377
  0.3556919781232943  0.1407412386333705  0.1146532052555227
  0.8423965709219998  0.9992505682313796  0.4955946680009559
  0.1735068832146537  0.5048251208419193  0.9262264982977848
  0.3173963412654302  0.7327689026630315  0.5943854339917692
  0.8973316368913754  0.9012788946667937  0.9161225701979476
  0.3422131473657751  0.8054735257590628  0.6547396325271104
  0.7896697608240046  0.1951463799389634  0.1295173481803249
  0.8532528170663439  0.6649377876577489  0.5205313190396843
  0.8546330990471681  0.0345752352300407  0.8032215224017442
  0.9198206826015585  0.6577915276865455  0.2795363027544004
  0.2532786599655731  0.0112354644782125  0.3764359107493400
  0.5490873398793960  0.9199637235622082  0.2850544916696779
  0.6591910843034419  0.4182619429227194  0.2972160702892551
  0.0465173673627451  0.5467922337356732  0.1582910140302854
  0.5605293238071103  0.6769381574053438  0.3255352191618953
  0.5631769909816026  0.7290395178475551  0.7939220498881180
  0.8089339908171204  0.1998691811313565  0.8834745994722366
  0.4254239225914987  0.0308957126134998  0.8712071030349549
  0.8407084996032799  0.2237974633707842  0.3932722335649850
  0.4012944802171176  0.2117695967695300  0.9389972629767345
  0.0807473859136769  0.3126502826638503  0.9493224728051410
  0.2878462376338884  0.7967857370706348  0.0431301108126425
  0.1298314919201598  0.6833492846196981  0.0229661104440365
  0.8721311868411994  0.8144634715251116  0.5946095303410053
  0.4732824083235691  0.2766725472219598  0.7501894794281554
  0.8129553423401565  0.7718243583313539  0.8329239898628100
  0.7019795427811911  0.9600297985542288  0.8448555596738830
  0.4063926206508781  0.3006266111658177  0.5452297519128673
  0.6385253859939941  0.5144080166419916  0.9233519298487564
  0.6129480660678710  0.5534717508257151  0.4949317634790140
  0.0916134218530881  0.7133186094548252  0.4769316094783141
  0.7860587612186545  0.4970838615857247  0.4889201394030674
  0.6309702608310030  0.5105395741235301  0.4085224423228923
  0.3508280711721373  0.3890026783299295  0.0204582994158520
  0.3093160220243912  0.3762627041733136  0.3758080899704551
 
  0.00000000E+00  0.00000000E+00  0.00000000E+00
  0.00000000E+00  0.00000000E+00  0.00000000E+00
  0.00000000E+00  0.00000000E+00  0.00000000E+00
  0.00000000E+00  0.00000000E+00  0.00000000E+00
  0.00000000E+00  0.00000000E+00  0.00000000E+00
  0.00000000E+00  0.00000000E+00  0.00000000E+00
  0.00000000E+00  0.00000000E+00  0.00000000E+00
  0.00000000E+00  0.00000000E+00  0.00000000E+00
  0.00000000E+00  0.00000000E+00  0.00000000E+00
  0.00000000E+00  0.00000000E+00  0.00000000E+00
  0.00000000E+00  0.00000000E+00  0.00000000E+00
  0.00000000E+00  0.00000000E+00  0.00000000E+00
  0.00000000E+00  0.00000000E+00  0.00000000E+00
  0.00000000E+00  0.00000000E+00  0.00000000E+00
  0.00000000E+00  0.00000000E+00  0.00000000E+00
  0.00000000E+00  0.00000000E+00  0.00000000E+00
  0.00000000E+00  0.00000000E+00  0.00000000E+00
  0.00000000E+00  0.00000000E+00  0.00000000E+00
  0.00000000E+00  0.00000000E+00  0.00000000E+00
  0.00000000E+00  0.00000000E+00  0.00000000E+00
  0.00000000E+00  0.00000000E+00  0.00000000E+00
  0.00000000E+00  0.00000000E+00  0.00000000E+00
  0.00000000E+00  0.00000000E+00  0.00000000E+00
  0.00000000E+00  0.00000000E+00  0.00000000E+00
  0.00000000E+00  0.00000000E+00  0.00000000E+00
  0.00000000E+00  0.00000000E+00  0.00000000E+00
  0.00000000E+00  0.00000000E+00  0.00000000E+00
  0.00000000E+00  0.00000000E+00  0.00000000E+00
  0.00000000E+00  0.00000000E+00  0.00000000E+00
  0.00000000E+00  0.00000000E+00  0.00000000E+00
  0.00000000E+00  0.00000000E+00  0.00000000E+00
  0.00000000E+00  0.00000000E+00  0.00000000E+00
  0.00000000E+00  0.00000000E+00  0.00000000E+00
  0.00000000E+00  0.00000000E+00  0.00000000E+00
  0.00000000E+00  0.00000000E+00  0.00000000E+00
  0.00000000E+00  0.00000000E+00  0.00000000E+00
  0.00000000E+00  0.00000000E+00  0.00000000E+00
  0.00000000E+00  0.00000000E+00  0.00000000E+00
  0.00000000E+00  0.00000000E+00  0.00000000E+00
  0.00000000E+00  0.00000000E+00  0.00000000E+00
  0.00000000E+00  0.00000000E+00  0.00000000E+00
  0.00000000E+00  0.00000000E+00  0.00000000E+00
  0.00000000E+00  0.00000000E+00  0.00000000E+00
  0.00000000E+00  0.00000000E+00  0.00000000E+00
  0.00000000E+00  0.00000000E+00  0.00000000E+00
  0.00000000E+00  0.00000000E+00  0.00000000E+00
  0.00000000E+00  0.00000000E+00  0.00000000E+00
  0.00000000E+00  0.00000000E+00  0.00000000E+00
  0.00000000E+00  0.00000000E+00  0.00000000E+00
  0.00000000E+00  0.00000000E+00  0.00000000E+00
  0.00000000E+00  0.00000000E+00  0.00000000E+00
  0.00000000E+00  0.00000000E+00  0.00000000E+00
  0.00000000E+00  0.00000000E+00  0.00000000E+00
  0.00000000E+00  0.00000000E+00  0.00000000E+00
  0.00000000E+00  0.00000000E+00  0.00000000E+00
  0.00000000E+00  0.00000000E+00  0.00000000E+00
  0.00000000E+00  0.00000000E+00  0.00000000E+00
  0.00000000E+00  0.00000000E+00  0.00000000E+00
  0.00000000E+00  0.00000000E+00  0.00000000E+00
  0.00000000E+00  0.00000000E+00  0.00000000E+00
  0.00000000E+00  0.00000000E+00  0.00000000E+00
  0.00000000E+00  0.00000000E+00  0.00000000E+00
  0.00000000E+00  0.00000000E+00  0.00000000E+00
  0.00000000E+00  0.00000000E+00  0.00000000E+00
  0.00000000E+00  0.00000000E+00  0.00000000E+00
  0.00000000E+00  0.00000000E+00  0.00000000E+00
  0.00000000E+00  0.00000000E+00  0.00000000E+00
  0.00000000E+00  0.00000000E+00  0.00000000E+00
  0.00000000E+00  0.00000000E+00  0.00000000E+00
  0.00000000E+00  0.00000000E+00  0.00000000E+00
  0.00000000E+00  0.00000000E+00  0.00000000E+00
  0.00000000E+00  0.00000000E+00  0.00000000E+00
  0.00000000E+00  0.00000000E+00  0.00000000E+00
  0.00000000E+00  0.00000000E+00  0.00000000E+00
  0.00000000E+00  0.00000000E+00  0.00000000E+00
  0.00000000E+00  0.00000000E+00  0.00000000E+00
  0.00000000E+00  0.00000000E+00  0.00000000E+00
  0.00000000E+00  0.00000000E+00  0.00000000E+00
  0.00000000E+00  0.00000000E+00  0.00000000E+00
  0.00000000E+00  0.00000000E+00  0.00000000E+00
  0.00000000E+00  0.00000000E+00  0.00000000E+00
  0.00000000E+00  0.00000000E+00  0.00000000E+00
  0.00000000E+00  0.00000000E+00  0.00000000E+00
  0.00000000E+00  0.00000000E+00  0.00000000E+00
  0.00000000E+00  0.00000000E+00  0.00000000E+00
  0.00000000E+00  0.00000000E+00  0.00000000E+00
  0.00000000E+00  0.00000000E+00  0.00000000E+00
  0.00000000E+00  0.00000000E+00  0.00000000E+00
  0.00000000E+00  0.00000000E+00  0.00000000E+00
  0.00000000E+00  0.00000000E+00  0.00000000E+00
  0.00000000E+00  0.00000000E+00  0.00000000E+00
  0.00000000E+00  0.00000000E+00  0.00000000E+00
  0.00000000E+00  0.00000000E+00  0.00000000E+00
  0.00000000E+00  0.00000000E+00  0.00000000E+00
  0.00000000E+00  0.00000000E+00  0.00000000E+00
  0.00000000E+00  0.00000000E+00  0.00000000E+00
  0.00000000E+00  0.00000000E+00  0.00000000E+00
  0.00000000E+00  0.00000000E+00  0.00000000E+00
  0.00000000E+00  0.00000000E+00  0.00000000E+00
  0.00000000E+00  0.00000000E+00  0.00000000E+00
  0.00000000E+00  0.00000000E+00  0.00000000E+00
  0.00000000E+00  0.00000000E+00  0.00000000E+00
  0.00000000E+00  0.00000000E+00  0.00000000E+00
  0.00000000E+00  0.00000000E+00  0.00000000E+00
  0.00000000E+00  0.00000000E+00  0.00000000E+00
  0.00000000E+00  0.00000000E+00  0.00000000E+00
  0.00000000E+00  0.00000000E+00  0.00000000E+00
  0.00000000E+00  0.00000000E+00  0.00000000E+00
  0.00000000E+00  0.00000000E+00  0.00000000E+00
  0.00000000E+00  0.00000000E+00  0.00000000E+00
  0.00000000E+00  0.00000000E+00  0.00000000E+00
  0.00000000E+00  0.00000000E+00  0.00000000E+00
  0.00000000E+00  0.00000000E+00  0.00000000E+00
  0.00000000E+00  0.00000000E+00  0.00000000E+00
  0.00000000E+00  0.00000000E+00  0.00000000E+00
  0.00000000E+00  0.00000000E+00  0.00000000E+00
  0.00000000E+00  0.00000000E+00  0.00000000E+00
  0.00000000E+00  0.00000000E+00  0.00000000E+00
  0.00000000E+00  0.00000000E+00  0.00000000E+00
  0.00000000E+00  0.00000000E+00  0.00000000E+00
  0.00000000E+00  0.00000000E+00  0.00000000E+00
  0.00000000E+00  0.00000000E+00  0.00000000E+00
  0.00000000E+00  0.00000000E+00  0.00000000E+00
  0.00000000E+00  0.00000000E+00  0.00000000E+00
  0.00000000E+00  0.00000000E+00  0.00000000E+00
  0.00000000E+00  0.00000000E+00  0.00000000E+00
  0.00000000E+00  0.00000000E+00  0.00000000E+00
  0.00000000E+00  0.00000000E+00  0.00000000E+00
  0.00000000E+00  0.00000000E+00  0.00000000E+00
  0.00000000E+00  0.00000000E+00  0.00000000E+00
  0.00000000E+00  0.00000000E+00  0.00000000E+00
  0.00000000E+00  0.00000000E+00  0.00000000E+00
  0.00000000E+00  0.00000000E+00  0.00000000E+00
  0.00000000E+00  0.00000000E+00  0.00000000E+00
  0.00000000E+00  0.00000000E+00  0.00000000E+00
  0.00000000E+00  0.00000000E+00  0.00000000E+00
  0.00000000E+00  0.00000000E+00  0.00000000E+00
  0.00000000E+00  0.00000000E+00  0.00000000E+00
  0.00000000E+00  0.00000000E+00  0.00000000E+00
  0.00000000E+00  0.00000000E+00  0.00000000E+00
  0.00000000E+00  0.00000000E+00  0.00000000E+00
  0.00000000E+00  0.00000000E+00  0.00000000E+00
  0.00000000E+00  0.00000000E+00  0.00000000E+00
  0.00000000E+00  0.00000000E+00  0.00000000E+00
  0.00000000E+00  0.00000000E+00  0.00000000E+00
  0.00000000E+00  0.00000000E+00  0.00000000E+00
  0.00000000E+00  0.00000000E+00  0.00000000E+00
  0.00000000E+00  0.00000000E+00  0.00000000E+00
  0.00000000E+00  0.00000000E+00  0.00000000E+00
  0.00000000E+00  0.00000000E+00  0.00000000E+00
  0.00000000E+00  0.00000000E+00  0.00000000E+00
  0.00000000E+00  0.00000000E+00  0.00000000E+00
  0.00000000E+00  0.00000000E+00  0.00000000E+00
  0.00000000E+00  0.00000000E+00  0.00000000E+00
  0.00000000E+00  0.00000000E+00  0.00000000E+00
  0.00000000E+00  0.00000000E+00  0.00000000E+00
  0.00000000E+00  0.00000000E+00  0.00000000E+00
  0.00000000E+00  0.00000000E+00  0.00000000E+00
  0.00000000E+00  0.00000000E+00  0.00000000E+00
  0.00000000E+00  0.00000000E+00  0.00000000E+00
  0.00000000E+00  0.00000000E+00  0.00000000E+00
  0.00000000E+00  0.00000000E+00  0.00000000E+00
  0.00000000E+00  0.00000000E+00  0.00000000E+00
  0.00000000E+00  0.00000000E+00  0.00000000E+00
  0.00000000E+00  0.00000000E+00  0.00000000E+00
  0.00000000E+00  0.00000000E+00  0.00000000E+00
  0.00000000E+00  0.00000000E+00  0.00000000E+00
  0.00000000E+00  0.00000000E+00  0.00000000E+00
  0.00000000E+00  0.00000000E+00  0.00000000E+00
  0.00000000E+00  0.00000000E+00  0.00000000E+00
  0.00000000E+00  0.00000000E+00  0.00000000E+00
  0.00000000E+00  0.00000000E+00  0.00000000E+00
  0.00000000E+00  0.00000000E+00  0.00000000E+00
  0.00000000E+00  0.00000000E+00  0.00000000E+00
  0.00000000E+00  0.00000000E+00  0.00000000E+00
  0.00000000E+00  0.00000000E+00  0.00000000E+00
  0.00000000E+00  0.00000000E+00  0.00000000E+00
  0.00000000E+00  0.00000000E+00  0.00000000E+00
  0.00000000E+00  0.00000000E+00  0.00000000E+00
  0.00000000E+00  0.00000000E+00  0.00000000E+00
  0.00000000E+00  0.00000000E+00  0.00000000E+00
  0.00000000E+00  0.00000000E+00  0.00000000E+00
  0.00000000E+00  0.00000000E+00  0.00000000E+00
  0.00000000E+00  0.00000000E+00  0.00000000E+00
  0.00000000E+00  0.00000000E+00  0.00000000E+00
  0.00000000E+00  0.00000000E+00  0.00000000E+00
  0.00000000E+00  0.00000000E+00  0.00000000E+00
  0.00000000E+00  0.00000000E+00  0.00000000E+00
  0.00000000E+00  0.00000000E+00  0.00000000E+00
  0.00000000E+00  0.00000000E+00  0.00000000E+00
  0.00000000E+00  0.00000000E+00  0.00000000E+00
  0.00000000E+00  0.00000000E+00  0.00000000E+00
  0.00000000E+00  0.00000000E+00  0.00000000E+00
  0.00000000E+00  0.00000000E+00  0.00000000E+00
  0.00000000E+00  0.00000000E+00  0.00000000E+00
  0.00000000E+00  0.00000000E+00  0.00000000E+00
  0.00000000E+00  0.00000000E+00  0.00000000E+00
  0.00000000E+00  0.00000000E+00  0.00000000E+00
  0.00000000E+00  0.00000000E+00  0.00000000E+00
  0.00000000E+00  0.00000000E+00  0.00000000E+00
  0.00000000E+00  0.00000000E+00  0.00000000E+00
  0.00000000E+00  0.00000000E+00  0.00000000E+00
  0.00000000E+00  0.00000000E+00  0.00000000E+00
  0.00000000E+00  0.00000000E+00  0.00000000E+00
  0.00000000E+00  0.00000000E+00  0.00000000E+00
  0.00000000E+00  0.00000000E+00  0.00000000E+00
  0.00000000E+00  0.00000000E+00  0.00000000E+00
  0.00000000E+00  0.00000000E+00  0.00000000E+00
  0.00000000E+00  0.00000000E+00  0.00000000E+00
  0.00000000E+00  0.00000000E+00  0.00000000E+00
  0.00000000E+00  0.00000000E+00  0.00000000E+00
  0.00000000E+00  0.00000000E+00  0.00000000E+00
  0.00000000E+00  0.00000000E+00  0.00000000E+00
  0.00000000E+00  0.00000000E+00  0.00000000E+00
  0.00000000E+00  0.00000000E+00  0.00000000E+00
  0.00000000E+00  0.00000000E+00  0.00000000E+00
  0.00000000E+00  0.00000000E+00  0.00000000E+00
  0.00000000E+00  0.00000000E+00  0.00000000E+00
  0.00000000E+00  0.00000000E+00  0.00000000E+00
  0.00000000E+00  0.00000000E+00  0.00000000E+00
  0.00000000E+00  0.00000000E+00  0.00000000E+00
  0.00000000E+00  0.00000000E+00  0.00000000E+00
  0.00000000E+00  0.00000000E+00  0.00000000E+00
  0.00000000E+00  0.00000000E+00  0.00000000E+00
  0.00000000E+00  0.00000000E+00  0.00000000E+00
  0.00000000E+00  0.00000000E+00  0.00000000E+00
  0.00000000E+00  0.00000000E+00  0.00000000E+00
  0.00000000E+00  0.00000000E+00  0.00000000E+00
  0.00000000E+00  0.00000000E+00  0.00000000E+00
  0.00000000E+00  0.00000000E+00  0.00000000E+00
  0.00000000E+00  0.00000000E+00  0.00000000E+00
  0.00000000E+00  0.00000000E+00  0.00000000E+00