Ge Se                                   
   1.00000000000000     
    20.2809563580836283    0.0000000000000000    0.0000000000000000
     0.0000000000000000   20.2809563580836283    0.0000000000000000
     0.0000000000000000    0.0000000000000000   20.2809563580836283
   Ge   Se
   180   120
Direct
  0.6441410358307724  0.5016443845352104  0.7836859530240500
  0.2418913452330618  0.5407679538709758  0.9944431442682332
  0.2107762474802589  0.9057264465079385  0.3668452446953874
  0.0224362047603162  0.5223546937975321  0.8537627203755129
  0.7624470942204181  0.6778519434963780  0.1833804269404586
  0.7185018799365239  0.3879401502277092  0.3451866304706313
  0.8758184153977007  0.0988218558377662  0.1383763626359508
  0.8566711574281141  0.6571915213688373  0.5144111562146925
  0.7552333362213581  0.0774169934692785  0.2807944703889143
  0.6611300174505212  0.6813869718246398  0.9827627801756889
  0.7607873460037892  0.1548589113729828  0.5661387481232553
  0.7549447119083649  0.9493782084389586  0.6023960892463012
  0.3640932065720345  0.4089478076470521  0.7752361708819787
  0.1328314520162280  0.1213751736815641  0.0334213389636326
  0.0103162302699330  0.3656185852230479  0.5917413848512527
  0.5166402479181316  0.5426544994143199  0.1136901188625665
  0.6658728365626035  0.5560813636273141 -0.0080904556030657
  0.0993633578635879  0.8236175695878311  0.8752987787257235
  0.4280427189234388  0.8111362045518619  0.7133766039914411
  0.4277251954820528  0.6880694211595960  0.4858345339220256
  0.5932925373345282  0.0268616078937344  0.3126118237611705
  0.5851915527514828  0.2898187773439850  0.9160069883501381
  0.6130621895489986  0.7532920443430320  0.3579263104414884
  0.0986884731766061  0.4636658066114138  0.4100227501363818
  0.4789882252024056  0.7380086380534238  0.0850149321860107
  0.3792475483685551  0.4354505449052717  0.5964466920408223
  0.3340137722800939  0.9248511294343893  0.1797755968836037
  0.8795229246361657  0.9811009401875027  0.0080830735915849
  0.0399356948374580  0.9154873942520134  0.2725327446972259
  0.3143190426792749  0.1105878211595053  0.5223116669876707
  0.5603360721201860  0.0717469806900961  0.1997744722919494
  0.3569205350870822  0.0740476786453303  0.1196540705220940
  0.3277368089879063  0.7261355756369268  0.9837664001508428
  0.5482436591331170  0.1412317250505789  0.0491146939439726
  0.9416818982511370  0.5470100418204791  0.0404204749903684
  0.2495497663534173  0.4170182302767090  0.0587832881078497
  0.4841276498545156  0.3981329195334784  0.7296691323514241
  0.3931496780725572  0.0796887168165558  0.3376553271709263
  0.8522908046732139  0.5608386219931795  0.8079063732669721
  0.7043225160896919  0.2306472925242214  0.7967580419353858
  0.2779164428803650  0.3906615212084109  0.5077652633138876
  0.4599355316939724  0.8715000289741798  0.3262678627788170
  0.9410699821819963  0.0385759287282040  0.6579677164847416
  0.2680380777521153 -0.0244871437850977 -0.0340168811215129
  0.8060410191826833  0.6806261954509354  0.8278793827758388
  0.1319648276710049  0.8350483449042694  0.2218462361480870
  0.5902999376771337  0.8136322704363879  0.8165567328930826
  0.4167969048658726  0.5972311553870778  0.8883169755223442
  0.4693671552674029  0.0162550984895418  0.1331903660508474
  0.5923726298043890  0.0689683432322615  0.5619253665265145
  0.9014162915835863  0.2523451947164810  0.1789703705628114
  0.5385206416474032  0.7162391457922896  0.9746085379057799
  0.8237103445038956  0.4813064478614678  0.5186407156646636
  0.0952863984946129  0.2508283909725199  0.7821356110526121
  0.7902385225759160  0.0024910503865643  0.4891423379077879
  0.6755603296701269  0.9300364806563071  0.4678270431890537
  0.4485730522709820  0.1722859795465722  0.6393034907085784
  0.2675066137259767  0.0143621906670400  0.5953536150327082
  0.2482960045158217  0.8676734630532387  0.2546235971196036
  0.8655798048448671  0.1175573843694316  0.3245845015825492
  0.6165673752195773  0.1604818449727885  0.6898788710544527
  0.2339320626949401  0.2056874115045010  0.0449640714896787
  0.6306197826825162  0.7832463993091476  0.6253586116721055
  0.4407397782977241  0.1762292319739865  0.1162087618547212
  0.5262460727637287  0.0175436933802189  0.0210985755790542
  0.3354594888874928  0.7008568219384679  0.3645896890908354
  0.8831179574915701  0.8710761483108252  0.9456404818319899
  0.6553558218872889  0.6815905056537410  0.7001349977675878
  0.4620742739269402  0.3915034987216658  0.2979751837594485
  0.7564131212800724  0.7477878695314317  0.9328708213866197
  0.8469340550316128  0.0782181735817227  0.8776818186169505
  0.8996979127212313  0.4052438685849783  0.6752398893776285
  0.6982146516510473  0.7410520977412177  0.4440205477170338
  0.6965807871246821  0.7488615862175499  0.2649138861210074
  0.1707921997242487  0.6011172537267775  0.4814721832009808
  0.6338066005315932  0.9277737512766397  0.2427003485751693
  0.5110165773730363  0.8936273191079042  0.7636205593438419
  0.1505567017360064  0.0943231453960437  0.4726212771183499
  0.5326785396770759  0.1958614499699893  0.1984922572528721
  0.2870297215956269  0.8876705954011952  0.6013313099710218
  0.8513703374808711  0.2892787097990516  0.6631203382212129
  0.2939195894873531  0.5979592596689028  0.8430356234916609
  0.7537408843825357  0.3527667108434887  0.1538167148146378
  0.9308791827565931  0.7171214196568995  0.4267190227773188
  0.8323536110712895  0.7800079842241812  0.1538430065305865
  0.0789407803807340  0.7287590354359736  0.6719900276123536
  0.4878408302676956  0.4600077263931071  0.5137561404241389
  0.1793450914989000  0.3235337326019801  0.8957855741992793
  0.3132326398192056  0.3043056647168478  0.7290473861661128
  0.7514522905273395  0.1377893998714280  0.1692794339411283
  0.6023365255388963  0.8926856864308249  0.6775762930564625
  0.0849775600170655  0.4829490665137868  0.1160089187803140
  0.3188229396080137  0.8668987737881877  0.8039110333832659
  0.2475976447065151  0.6178006081461834  0.1051188278156385
  0.7330380535018924  0.9511310073202389  0.9190584490662117
  0.7455701970370578  0.6274754998028449  0.4181791956393393
  0.1330746549694450  0.7023781823027534  0.3933716524394562
  0.3152905063731563  0.4826831924276578  0.4243025918460592
  0.7511918345891893  0.4018123563160578  0.8958600199652658
  0.0502485830405896 -0.0100461516116240 -0.0041190267094450
  0.6625176474063217  0.1234773773025936  0.3571329268674297
  0.0437660067831372  0.2931625985126357  0.4223121860436154
  0.8352094652662030  0.3619456376871854  0.4936449205275303
  0.8983079446760147  0.9479546701638606  0.4615637861922879
  0.4262790308065224  0.2747689513872683  0.0291034723766005
  0.5414711856334609  0.1521256979550233  0.4017462348825616
  0.9570757392747673  0.0652659430297474  0.9558156572566679
  0.8620978932302039  0.0798187907929492  0.5653078693251719
  0.7074682137616300  0.8241644077725824  0.5333698018708748
  0.6121574658251245  0.9330777478884092  0.0487225363119144
  0.1620735231098373  0.7171272811019840  0.2660444360432130
  0.4361473498890072  0.8545096498433606  0.9101165865045797
  0.5483768133044972  0.8431494706238606  0.1099021499416356
  0.9456536174246106  0.3736925985763396  0.7889124816953668
  0.7548732916483498  0.5127092161259179  0.6177530116294572
  0.2165429699411115  0.3039583162689485  0.4341849118631251
  0.5610631056374891  0.3253566638468230  0.1931182165610549
  0.9167010646883673  0.4289049708946832  0.0896542136430053
  0.1333116642726865  0.5874803669409150  0.8634645855641129
  0.9436302905040864  0.5153166197153302  0.2730642093589286
  0.6772004011519274  0.1811756168772655  0.0682442162652246
  0.5121212031173583  0.6898714678896950  0.3874821342692374
  0.1365446950474138  0.6449569592520572  0.7512703536817512
  0.6640300588611721  0.1333914004650054  0.9357503394253122
  0.8078089965388167  0.4738676901392190  0.7260477278146894
  0.0755617870697845  0.9283877501308232  0.5833630000188740
  0.9367531844852970  0.8823014837470857  0.5680977927366772
  0.2992731997442555  0.2765460922693870  0.8872941373348018
  0.6688668350420690  0.7011661888522580  0.1041047539273683
  0.8412073031136323  0.2231934231075453  0.0682702923760085
  0.3880062653955443  0.5592525213712661  0.2910125951805641
  0.8749459553178142  0.8328559779351171  0.4168462223985769
  0.4895291920066367  0.0132570721047836  0.8086084543206137
  0.8659496031229343  0.7087016662394738  0.9872745532174543
  0.3655947101145521  0.9783732637415220  0.7619667683593712
  0.8450380329448722  0.2002691782080670  0.4160237059666183
  0.0698986519203399  0.0644289573357497  0.3827697185448797
  0.2636386200683248  0.0846756942334068  0.4109718446173108
  0.1298391878082748  0.8278028813426278  0.4220090409634696
  0.8831553698073452  0.9476563319507471  0.2582668641328777
  0.0346830172265848  0.1530265566820228  0.6314688085274579
  0.5044764695131103  0.7762222634114386  0.6104316547046769
  0.3394936800436509  0.7803455250337967  0.5423180159920186
  0.2207169488466895  0.1500661682557847  0.3038434497625860
  0.9432085670136475  0.0432337230365369  0.3917530664709334
  0.9336400084036611  0.2033312336516795  0.7033751699049934
  0.6188708852492896  0.4617898394570459  0.1538458370921860
  0.5907399870208591  0.3281050352262254  0.6901401201287737
  0.6560966811413993  0.8134522308881994  0.1660746893635220
  0.0723868213129054 -0.0332254172988711  0.1231877930480063
  0.7073462762734068  0.8557625509473716  0.0018914199046969
  0.2856759903518928  0.4604684651548595  0.6826172441279569
  0.2610570868209169  0.3095837016417106  0.6151130861029344
  0.1876452504099587  0.0769181827493413  0.7941173547343112
  0.6034746533912331  0.6520595269835759  0.5206073316843342
  0.5685865896673026  0.2797522583811302  0.4012928644996925
  0.9914217477459329  0.3427085545343597  0.2236557813259371
  0.2490367538417312  0.5787413015592013  0.6482088737348581
  0.7312463901421590  0.2522532343424345  0.6435821577364231
  0.3697123357392923  0.2775966250449446  0.1751319624874747
  0.4553846400744006  0.7152879552174977  0.8792844525657483
  0.9666100560331653  0.6736302143058974  0.7085973148621065
  0.2276336193546617  0.5145750154212719  0.2375194784731296
  0.7508296915083804  0.1142815315454458  0.4462684483779538
  0.7161806699596902  0.8303153559417006  0.8224342220015590
  0.1572322068504801  0.4315928639935411  0.6573470755060055
  0.1246710783401439  0.9041763309502789  0.7009952046811099
  0.7484414267686861  0.5005417865070320  0.4144269555397798
  0.9559530498295329  0.6620608612301182  0.9066763677202102
  0.8701072222647044  0.4984714277406505  0.3758499495124390
  0.8542791777476431  0.3700904425314190  0.3669692171823951
  0.1480235335885050  0.2183645585811243  0.5018030553847869
  0.8234602053342740  0.5683323412002321  0.1658143211742803
  0.7774999811114258  0.7818157818701982  0.3554517103538145
  0.9135062743170330  0.5181512753395536  0.9146314339548105
  0.2386833041224183  0.9476394328560535  0.0915257855922363
  0.5672043157764001  0.5824568166882101  0.3583939583446206
  0.4615880845599140  0.4780047252672734  0.9168031737672626
  0.6363417369200736 -0.0040313516355525  0.8379493256017702
  0.7264974129460890  0.3380026696120615  0.5529664600959626
  0.8378261289350664  0.3456655359579625  0.0441702877901962
  0.9428456115574338  0.5999200870311129  0.1894693938730388
  0.5476976447383808  0.4354956028615584  0.8336305409163073
  0.8420492234094828  0.6733166554396330  0.3468920609559045
  0.0509033973131010  0.4693531336505372  0.2855536423880971
  0.8813053189059500  0.3948317120116647  0.8928938111756746
  0.6647919907773820  0.4361057828335239  0.5917869183350504
  0.9436137974009149  0.1424212785736262  0.2295163812008932
  0.5379773455943078  0.7091808092778648  0.7886768331995072
  0.4440851816315972  0.7370785837390178  0.3012339116947153
  0.3894545313766554  0.3107157310142698  0.6270211787533829
  0.8718703488411498  0.6491857174985883  0.6386043449259223
  0.4660214291437564  0.1821790779926468  0.3055336873662134
  0.1301928383831473  0.2125116202221107  0.8929860095804339
  0.8328054972690933  0.8054121618553342  0.5345733564958876
  0.4916002027468569  0.6543227288278186  0.5877577924917197
  0.6760377029122181  0.6060380305417916  0.3112890145762383
  0.4307015103610792  0.1332384933077469  0.5208811548694726
  0.3960955006736696  0.9218847466825080  0.6552937641246656
  0.4797289965039281  0.3637918768993626  0.4164348067715835
  0.9354189828053046  0.1340614772635780  0.4781295607100698
  0.4483378821925466  0.9855268976807779  0.9322951316375230
  0.3907897616182661  0.6188473856523720  0.0058758623494418
  0.2606477679882884  0.6644904361766519  0.7397144410996290
  0.9186049955891271  0.7768777552751437  0.0711240178682131
  0.5973535328871841  0.5353101862404887  0.4668550051537685
  0.5773187846213133  0.8671096575724407  0.3676479068115195
  0.1372966658017608 -0.0073162149438515  0.3076425605767203
  0.6806893601400276  0.3002556650824098  0.4476558826524115
  0.0042808686649438  0.4035745925806705  0.4722092897023928
  0.0060042797140722  0.9026749417638453  0.9192071288457032
  0.5105117752326153  0.5098084137851889  0.2758376267786136
  0.1725996949632500  0.0470035731559765  0.1287155095382125
  0.7216109095218178  0.5277470953166827  0.8850341174781451
  0.3379268874026510  0.2001807051754491 -0.0220728931599597
  0.2883357299181634  0.0628890907533843  0.7076206003632929
  0.3429446969304097  0.4401302145264244  0.3099873111535928
  0.7563024386233612  0.8718553812979343  0.1199006826566788
  0.3669565427238865  0.3675812758892548  0.0904478505896271
  0.2402667636113579  0.5689544125577597  0.3837245265425653
  0.0247186076941821  0.8746629918008362  0.3901891816400941
  0.5565516776750323  0.5052704423691153 -0.0008933168794700
  0.2219913073452165  0.6601142411153177  0.9199387166048933
  0.2213866544287138  0.5026697550165001  0.8351262000307949
  0.0191922452784403  0.6742936320198794  0.3577518572153238
  0.5541878769398259  0.2382676652495982  0.6064265472639087
  0.4759835432225332  0.4946852092700259  0.6585390728352710
  0.5617761941200912  0.8335162256243447  0.9357150181543060
  0.1551843488096883  0.0354386383976770  0.9438097276551842
  0.7090234330748499  0.4582789936934423  0.2357748137803174
  0.5881517894701391  0.9440889760479071  0.5588276215177242
  0.7066569076231420  0.6244215406600712  0.5952253686956364
  0.5792013458384127  0.2486741212102198  0.7905391255442720
  0.9039744316072452  0.9815028994051425  0.1315328231112951
  0.1274308836474061  0.4951639909639324 -0.0026847197077074
  0.9482330323624893  0.2916147096324270  0.3408027352350668
  0.8983523850919406  0.8268294321013000  0.2445357888336177
  0.9473241691916966  0.1470229806422842  0.0485369731206846
  0.0488659291594534  0.8213571863815520  0.7506965562555564
 -0.0332297392115086  0.2537718057598371  0.8105865209725170
  0.5388963857339085  0.1728527241433441  0.9286556896386137
  0.8388305016760419  0.9530528460159581  0.8518202484881258
  0.7144127651927022  0.4876525801495040  0.0785044198993153
  0.2423362170780499  0.1895673960902386  0.5850817561088794
  0.3442769879042129  0.2113462275833688  0.7965399295994295
  0.2741468049025471  0.7323142566642448  0.0937222437068772
  0.6965724056654549  0.9353839619587282  0.7432665455097166
  0.4878202033899207  0.0059281558635454  0.3723552062730147
  0.8295307822514353  0.6015571280289059  0.0410637573770955
  0.0818409917269518  0.1331227955981770  0.7446050531399753
  0.0982388076156492  0.1715716049927750  0.3343984020811674
  0.1228782404653482  0.9710567277732043  0.7973318071768037
  0.1358877619553604  0.3525248741747063  0.3566279693819647
  0.0937268568477836  0.2659438775902655  0.6033409060339929
  0.3317574758979179  0.5487500833289654  0.1708825320073951
  0.6541458856104477  0.0112425501172808  0.1423575996467774
  0.7589136537740944  0.9559361793156882  0.2892254632788454
  0.2939893717746230  0.7968418839184674  0.4301579091514272
  0.9206898460045080  0.5462991873519151  0.4814547486307605
  0.4562697707879850  0.8182917971830901  0.5057379803294589
  0.1462348476114979  0.0383626306523180  0.5836179421026428
  0.1837742962822968  0.3161895164419311  0.0207111260307323
  0.3251016463625909  0.0393741888070692  0.2365391272094171
  0.8724660025726411  0.9349884727657130  0.6601520467059745
  0.1545432321579371  0.6178751641665124  0.1882293327399937
  0.2327759361176689  0.8435408197911770  0.7045063320242786
  0.8878503825952774  0.4180603671704037  0.2138395913523124
  0.2806912714022319  0.7470848664105650  0.2592400138772858
  0.0566833690598627  0.4127081293237039  0.8164563775513032
  0.2869343380199449  0.2392182059736786  0.3651512530557313
  0.1276385497044732  0.5604489893571226  0.6589522458751741
  0.2622370954431959  0.6491488524411398  0.5536986562600436
  0.7046930340690700  0.1016877010815343  0.8171547126954061
  0.9115592974762874  0.2868733259567219  0.5537031052170213
  0.7200483808822284  0.3979707712228551  0.7708969271887852
  0.4171061125603855  0.5439738878385547  0.4527924667708128
  0.1801497518661724  0.4587294617939831  0.5357068585837438
  0.1483923215847352  0.8397621887334682  0.5420617052347694
  0.0641920023057947  0.7110416195085358  0.9224188015527509
  0.7012076365591977  0.0689996160740854  0.6315642632329778
  0.4019917867638650  0.8241933057871782  0.0262628569196823
  0.2660089441833475  0.2120892924741913  0.1595640227947015
  0.4978867205952124  0.9110097072938023  0.1994710875428409
  0.6468501652263818  0.2988711801645612  0.1012302351402689
  0.9162514120572551  0.7330496181086084  0.8109245650992197
  0.0220281457911089  0.3747081721452393  0.0856101480808523
  0.7739114201278581  0.0432063345039602  0.9938754149022578
  0.7580441845361637  0.7480818587750312  0.7350651649726461
  0.2546308363795190  0.8662364400136542  0.9097223455801019
  0.7869378568152718  0.2448002287297791  0.2283227919354250
  0.9646500120433553  0.5566224059296696  0.7467804582147747
  0.1413465151341967  0.8623746763614186  0.1013975400528324
  0.5266570462925237  0.0727888358250638  0.6717632705448282
  0.1849211703592291  0.4177361757326467  0.1647678338824236
  0.7080130271960714  0.2525602713718088  0.9245681236448842
  0.5760118132743037  0.6414779551013615  0.1549797220915017
  0.8722534071934149  0.1045655675277125  0.7388437985206689
  0.6296003301281657  0.3048559386809219  0.2959842428181890
  0.3643338473727558  0.3834889259104891  0.8946642624829615
  0.2881370213347856  0.9668373758289628  0.4342324187257912
 
  0.00000000E+00  0.00000000E+00  0.00000000E+00
  0.00000000E+00  0.00000000E+00  0.00000000E+00
  0.00000000E+00  0.00000000E+00  0.00000000E+00
  0.00000000E+00  0.00000000E+00  0.00000000E+00
  0.00000000E+00  0.00000000E+00  0.00000000E+00
  0.00000000E+00  0.00000000E+00  0.00000000E+00
  0.00000000E+00  0.00000000E+00  0.00000000E+00
  0.00000000E+00  0.00000000E+00  0.00000000E+00
  0.00000000E+00  0.00000000E+00  0.00000000E+00
  0.00000000E+00  0.00000000E+00  0.00000000E+00
  0.00000000E+00  0.00000000E+00  0.00000000E+00
  0.00000000E+00  0.00000000E+00  0.00000000E+00
  0.00000000E+00  0.00000000E+00  0.00000000E+00
  0.00000000E+00  0.00000000E+00  0.00000000E+00
  0.00000000E+00  0.00000000E+00  0.00000000E+00
  0.00000000E+00  0.00000000E+00  0.00000000E+00
  0.00000000E+00  0.00000000E+00  0.00000000E+00
  0.00000000E+00  0.00000000E+00  0.00000000E+00
  0.00000000E+00  0.00000000E+00  0.00000000E+00
  0.00000000E+00  0.00000000E+00  0.00000000E+00
  0.00000000E+00  0.00000000E+00  0.00000000E+00
  0.00000000E+00  0.00000000E+00  0.00000000E+00
  0.00000000E+00  0.00000000E+00  0.00000000E+00
  0.00000000E+00  0.00000000E+00  0.00000000E+00
  0.00000000E+00  0.00000000E+00  0.00000000E+00
  0.00000000E+00  0.00000000E+00  0.00000000E+00
  0.00000000E+00  0.00000000E+00  0.00000000E+00
  0.00000000E+00  0.00000000E+00  0.00000000E+00
  0.00000000E+00  0.00000000E+00  0.00000000E+00
  0.00000000E+00  0.00000000E+00  0.00000000E+00
  0.00000000E+00  0.00000000E+00  0.00000000E+00
  0.00000000E+00  0.00000000E+00  0.00000000E+00
  0.00000000E+00  0.00000000E+00  0.00000000E+00
  0.00000000E+00  0.00000000E+00  0.00000000E+00
  0.00000000E+00  0.00000000E+00  0.00000000E+00
  0.00000000E+00  0.00000000E+00  0.00000000E+00
  0.00000000E+00  0.00000000E+00  0.00000000E+00
  0.00000000E+00  0.00000000E+00  0.00000000E+00
  0.00000000E+00  0.00000000E+00  0.00000000E+00
  0.00000000E+00  0.00000000E+00  0.00000000E+00
  0.00000000E+00  0.00000000E+00  0.00000000E+00
  0.00000000E+00  0.00000000E+00  0.00000000E+00
  0.00000000E+00  0.00000000E+00  0.00000000E+00
  0.00000000E+00  0.00000000E+00  0.00000000E+00
  0.00000000E+00  0.00000000E+00  0.00000000E+00
  0.00000000E+00  0.00000000E+00  0.00000000E+00
  0.00000000E+00  0.00000000E+00  0.00000000E+00
  0.00000000E+00  0.00000000E+00  0.00000000E+00
  0.00000000E+00  0.00000000E+00  0.00000000E+00
  0.00000000E+00  0.00000000E+00  0.00000000E+00
  0.00000000E+00  0.00000000E+00  0.00000000E+00
  0.00000000E+00  0.00000000E+00  0.00000000E+00
  0.00000000E+00  0.00000000E+00  0.00000000E+00
  0.00000000E+00  0.00000000E+00  0.00000000E+00
  0.00000000E+00  0.00000000E+00  0.00000000E+00
  0.00000000E+00  0.00000000E+00  0.00000000E+00
  0.00000000E+00  0.00000000E+00  0.00000000E+00
  0.00000000E+00  0.00000000E+00  0.00000000E+00
  0.00000000E+00  0.00000000E+00  0.00000000E+00
  0.00000000E+00  0.00000000E+00  0.00000000E+00
  0.00000000E+00  0.00000000E+00  0.00000000E+00
  0.00000000E+00  0.00000000E+00  0.00000000E+00
  0.00000000E+00  0.00000000E+00  0.00000000E+00
  0.00000000E+00  0.00000000E+00  0.00000000E+00
  0.00000000E+00  0.00000000E+00  0.00000000E+00
  0.00000000E+00  0.00000000E+00  0.00000000E+00
  0.00000000E+00  0.00000000E+00  0.00000000E+00
  0.00000000E+00  0.00000000E+00  0.00000000E+00
  0.00000000E+00  0.00000000E+00  0.00000000E+00
  0.00000000E+00  0.00000000E+00  0.00000000E+00
  0.00000000E+00  0.00000000E+00  0.00000000E+00
  0.00000000E+00  0.00000000E+00  0.00000000E+00
  0.00000000E+00  0.00000000E+00  0.00000000E+00
  0.00000000E+00  0.00000000E+00  0.00000000E+00
  0.00000000E+00  0.00000000E+00  0.00000000E+00
  0.00000000E+00  0.00000000E+00  0.00000000E+00
  0.00000000E+00  0.00000000E+00  0.00000000E+00
  0.00000000E+00  0.00000000E+00  0.00000000E+00
  0.00000000E+00  0.00000000E+00  0.00000000E+00
  0.00000000E+00  0.00000000E+00  0.00000000E+00
  0.00000000E+00  0.00000000E+00  0.00000000E+00
  0.00000000E+00  0.00000000E+00  0.00000000E+00
  0.00000000E+00  0.00000000E+00  0.00000000E+00
  0.00000000E+00  0.00000000E+00  0.00000000E+00
  0.00000000E+00  0.00000000E+00  0.00000000E+00
  0.00000000E+00  0.00000000E+00  0.00000000E+00
  0.00000000E+00  0.00000000E+00  0.00000000E+00
  0.00000000E+00  0.00000000E+00  0.00000000E+00
  0.00000000E+00  0.00000000E+00  0.00000000E+00
  0.00000000E+00  0.00000000E+00  0.00000000E+00
  0.00000000E+00  0.00000000E+00  0.00000000E+00
  0.00000000E+00  0.00000000E+00  0.00000000E+00
  0.00000000E+00  0.00000000E+00  0.00000000E+00
  0.00000000E+00  0.00000000E+00  0.00000000E+00
  0.00000000E+00  0.00000000E+00  0.00000000E+00
  0.00000000E+00  0.00000000E+00  0.00000000E+00
  0.00000000E+00  0.00000000E+00  0.00000000E+00
  0.00000000E+00  0.00000000E+00  0.00000000E+00
  0.00000000E+00  0.00000000E+00  0.00000000E+00
  0.00000000E+00  0.00000000E+00  0.00000000E+00
  0.00000000E+00  0.00000000E+00  0.00000000E+00
  0.00000000E+00  0.00000000E+00  0.00000000E+00
  0.00000000E+00  0.00000000E+00  0.00000000E+00
  0.00000000E+00  0.00000000E+00  0.00000000E+00
  0.00000000E+00  0.00000000E+00  0.00000000E+00
  0.00000000E+00  0.00000000E+00  0.00000000E+00
  0.00000000E+00  0.00000000E+00  0.00000000E+00
  0.00000000E+00  0.00000000E+00  0.00000000E+00
  0.00000000E+00  0.00000000E+00  0.00000000E+00
  0.00000000E+00  0.00000000E+00  0.00000000E+00
  0.00000000E+00  0.00000000E+00  0.00000000E+00
  0.00000000E+00  0.00000000E+00  0.00000000E+00
  0.00000000E+00  0.00000000E+00  0.00000000E+00
  0.00000000E+00  0.00000000E+00  0.00000000E+00
  0.00000000E+00  0.00000000E+00  0.00000000E+00
  0.00000000E+00  0.00000000E+00  0.00000000E+00
  0.00000000E+00  0.00000000E+00  0.00000000E+00
  0.00000000E+00  0.00000000E+00  0.00000000E+00
  0.00000000E+00  0.00000000E+00  0.00000000E+00
  0.00000000E+00  0.00000000E+00  0.00000000E+00
  0.00000000E+00  0.00000000E+00  0.00000000E+00
  0.00000000E+00  0.00000000E+00  0.00000000E+00
  0.00000000E+00  0.00000000E+00  0.00000000E+00
  0.00000000E+00  0.00000000E+00  0.00000000E+00
  0.00000000E+00  0.00000000E+00  0.00000000E+00
  0.00000000E+00  0.00000000E+00  0.00000000E+00
  0.00000000E+00  0.00000000E+00  0.00000000E+00
  0.00000000E+00  0.00000000E+00  0.00000000E+00
  0.00000000E+00  0.00000000E+00  0.00000000E+00
  0.00000000E+00  0.00000000E+00  0.00000000E+00
  0.00000000E+00  0.00000000E+00  0.00000000E+00
  0.00000000E+00  0.00000000E+00  0.00000000E+00
  0.00000000E+00  0.00000000E+00  0.00000000E+00
  0.00000000E+00  0.00000000E+00  0.00000000E+00
  0.00000000E+00  0.00000000E+00  0.00000000E+00
  0.00000000E+00  0.00000000E+00  0.00000000E+00
  0.00000000E+00  0.00000000E+00  0.00000000E+00
  0.00000000E+00  0.00000000E+00  0.00000000E+00
  0.00000000E+00  0.00000000E+00  0.00000000E+00
  0.00000000E+00  0.00000000E+00  0.00000000E+00
  0.00000000E+00  0.00000000E+00  0.00000000E+00
  0.00000000E+00  0.00000000E+00  0.00000000E+00
  0.00000000E+00  0.00000000E+00  0.00000000E+00
  0.00000000E+00  0.00000000E+00  0.00000000E+00
  0.00000000E+00  0.00000000E+00  0.00000000E+00
  0.00000000E+00  0.00000000E+00  0.00000000E+00
  0.00000000E+00  0.00000000E+00  0.00000000E+00
  0.00000000E+00  0.00000000E+00  0.00000000E+00
  0.00000000E+00  0.00000000E+00  0.00000000E+00
  0.00000000E+00  0.00000000E+00  0.00000000E+00
  0.00000000E+00  0.00000000E+00  0.00000000E+00
  0.00000000E+00  0.00000000E+00  0.00000000E+00
  0.00000000E+00  0.00000000E+00  0.00000000E+00
  0.00000000E+00  0.00000000E+00  0.00000000E+00
  0.00000000E+00  0.00000000E+00  0.00000000E+00
  0.00000000E+00  0.00000000E+00  0.00000000E+00
  0.00000000E+00  0.00000000E+00  0.00000000E+00
  0.00000000E+00  0.00000000E+00  0.00000000E+00
  0.00000000E+00  0.00000000E+00  0.00000000E+00
  0.00000000E+00  0.00000000E+00  0.00000000E+00
  0.00000000E+00  0.00000000E+00  0.00000000E+00
  0.00000000E+00  0.00000000E+00  0.00000000E+00
  0.00000000E+00  0.00000000E+00  0.00000000E+00
  0.00000000E+00  0.00000000E+00  0.00000000E+00
  0.00000000E+00  0.00000000E+00  0.00000000E+00
  0.00000000E+00  0.00000000E+00  0.00000000E+00
  0.00000000E+00  0.00000000E+00  0.00000000E+00
  0.00000000E+00  0.00000000E+00  0.00000000E+00
  0.00000000E+00  0.00000000E+00  0.00000000E+00
  0.00000000E+00  0.00000000E+00  0.00000000E+00
  0.00000000E+00  0.00000000E+00  0.00000000E+00
  0.00000000E+00  0.00000000E+00  0.00000000E+00
  0.00000000E+00  0.00000000E+00  0.00000000E+00
  0.00000000E+00  0.00000000E+00  0.00000000E+00
  0.00000000E+00  0.00000000E+00  0.00000000E+00
  0.00000000E+00  0.00000000E+00  0.00000000E+00
  0.00000000E+00  0.00000000E+00  0.00000000E+00
  0.00000000E+00  0.00000000E+00  0.00000000E+00
  0.00000000E+00  0.00000000E+00  0.00000000E+00
  0.00000000E+00  0.00000000E+00  0.00000000E+00
  0.00000000E+00  0.00000000E+00  0.00000000E+00
  0.00000000E+00  0.00000000E+00  0.00000000E+00
  0.00000000E+00  0.00000000E+00  0.00000000E+00
  0.00000000E+00  0.00000000E+00  0.00000000E+00
  0.00000000E+00  0.00000000E+00  0.00000000E+00
  0.00000000E+00  0.00000000E+00  0.00000000E+00
  0.00000000E+00  0.00000000E+00  0.00000000E+00
  0.00000000E+00  0.00000000E+00  0.00000000E+00
  0.00000000E+00  0.00000000E+00  0.00000000E+00
  0.00000000E+00  0.00000000E+00  0.00000000E+00
  0.00000000E+00  0.00000000E+00  0.00000000E+00
  0.00000000E+00  0.00000000E+00  0.00000000E+00
  0.00000000E+00  0.00000000E+00  0.00000000E+00
  0.00000000E+00  0.00000000E+00  0.00000000E+00
  0.00000000E+00  0.00000000E+00  0.00000000E+00
  0.00000000E+00  0.00000000E+00  0.00000000E+00
  0.00000000E+00  0.00000000E+00  0.00000000E+00
  0.00000000E+00  0.00000000E+00  0.00000000E+00
  0.00000000E+00  0.00000000E+00  0.00000000E+00
  0.00000000E+00  0.00000000E+00  0.00000000E+00
  0.00000000E+00  0.00000000E+00  0.00000000E+00
  0.00000000E+00  0.00000000E+00  0.00000000E+00
  0.00000000E+00  0.00000000E+00  0.00000000E+00
  0.00000000E+00  0.00000000E+00  0.00000000E+00
  0.00000000E+00  0.00000000E+00  0.00000000E+00
  0.00000000E+00  0.00000000E+00  0.00000000E+00
  0.00000000E+00  0.00000000E+00  0.00000000E+00
  0.00000000E+00  0.00000000E+00  0.00000000E+00
  0.00000000E+00  0.00000000E+00  0.00000000E+00
  0.00000000E+00  0.00000000E+00  0.00000000E+00
  0.00000000E+00  0.00000000E+00  0.00000000E+00
  0.00000000E+00  0.00000000E+00  0.00000000E+00
  0.00000000E+00  0.00000000E+00  0.00000000E+00
  0.00000000E+00  0.00000000E+00  0.00000000E+00
  0.00000000E+00  0.00000000E+00  0.00000000E+00
  0.00000000E+00  0.00000000E+00  0.00000000E+00
  0.00000000E+00  0.00000000E+00  0.00000000E+00
  0.00000000E+00  0.00000000E+00  0.00000000E+00
  0.00000000E+00  0.00000000E+00  0.00000000E+00
  0.00000000E+00  0.00000000E+00  0.00000000E+00
  0.00000000E+00  0.00000000E+00  0.00000000E+00
  0.00000000E+00  0.00000000E+00  0.00000000E+00
  0.00000000E+00  0.00000000E+00  0.00000000E+00
  0.00000000E+00  0.00000000E+00  0.00000000E+00
  0.00000000E+00  0.00000000E+00  0.00000000E+00
  0.00000000E+00  0.00000000E+00  0.00000000E+00
  0.00000000E+00  0.00000000E+00  0.00000000E+00
  0.00000000E+00  0.00000000E+00  0.00000000E+00
  0.00000000E+00  0.00000000E+00  0.00000000E+00
  0.00000000E+00  0.00000000E+00  0.00000000E+00
  0.00000000E+00  0.00000000E+00  0.00000000E+00
  0.00000000E+00  0.00000000E+00  0.00000000E+00