Amorphous Sb                            
   1.00000000000000     
    21.1885642626252952    0.0000000000000000    0.0000000000000000
     0.0000000000000000   21.1885642626252952    0.0000000000000000
     0.0000000000000000    0.0000000000000000   21.1885642626252952
   Pb   Se
   150   150
Direct
  0.5045831100000000  0.0047513016000000  0.5278086400000001
  0.3743612200000000  0.5039838400000000  0.3836301200000000
  0.6500700200000000  0.8815552100000000  0.0492227010000000
  0.6937721100000001  0.2838352700000000  0.0888290790000000
  0.1735533900000000  0.6885998300000000  0.6435882600000000
  0.9801147200000000  0.2686092400000000  0.1456576600000000
  0.7277445700000000  0.4316041100000000  0.2107235600000000
  0.8731816500000000  0.9107733500000000  0.7058065500000000
  0.4184202000000000  0.2592237100000000  0.0213757540000000
  0.4442221100000000  0.2277785500000000  0.4191417800000000
  0.1031380300000000  0.1334729400000000  0.1779558100000000
  0.3793007400000000  0.8675404900000000  0.2649060200000000
  0.5867911000000000  0.7129268600000001  0.3307913800000000
  0.4112622300000000  0.6831308200000000  0.2911031300000000
  0.6222760700000000  0.1500492800000000  0.5166612400000000
  0.9718924100000000  0.6557283800000000  0.6621632100000000
  0.3420388200000000  0.0842249970000000  0.5379784900000000
  0.3060446400000000  0.2332678600000000  0.8650331400000000
  0.4411192000000000  0.3547717500000000  0.1717743800000000
  0.8062799300000000  0.4865988900000000  0.3895997000000000
  0.5352759700000000  0.3144862700000000  0.5244157800000000
  0.9932827400000001  0.3959016200000000  0.7441542300000000
  0.4263319800000000  0.5216887200000000  0.7594570200000000
  0.5254249500000000  0.5290188300000001  0.2496019200000000
  0.9337385900000000  0.3734478000000000  0.0105666620000000
  0.8479216200000000  0.9356124900000000  0.0933518070000000
  0.0108540680000000  0.0176346200000000  0.6160273800000000
  0.9066286900000000  0.7037929000000001  0.8313526100000000
  0.4063690600000000  0.8748151500000000  0.7070518300000000
  0.1817622200000000  0.7314208100000000  0.8228234400000000
  0.4935127100000000  0.8635659600000000  0.9614887100000000
  0.2537971500000000  0.1636576900000000  0.0490772260000000
  0.8090150400000000  0.3818892000000000  0.7246564000000000
  0.9376092300000000  0.1142611000000000  0.7586260500000001
  0.8812937000000000  0.6424700100000000  0.2300663700000000
  0.0499882660000000  0.4441981400000000  0.5286636700000000
  0.7756644300000000  0.2211187800000000  0.8229373000000000
  0.1369031100000000 -0.0006899101000000  0.3523586400000000
  0.6098218200000000  0.2453825200000000  0.7122784700000000
 -0.0048450323000000  0.6124825300000000  0.0589823060000000
  0.3248169100000000  0.5531520800000000  0.1772807300000000
  0.1772164900000000  0.3518018300000000  0.4370032000000000
  0.7016913900000000  0.0744869220000000  0.9494932200000000
  0.2645913100000000  0.9347003500000000  0.0215208580000000
  0.4274591900000000  0.3077579200000000  0.6818688600000000
  0.5827800700000000  0.2152072300000000  0.9446137100000001
  0.4142371000000000  0.4211236800000000  0.9373267900000000
  0.7058886300000000  0.8144582700000000  0.9047542200000001
  0.9831980100000000  0.5055553200000000  0.3447039700000000
  0.7879878200000000 -0.0014242988000000  0.5192677600000000
  0.9291048400000000  0.2408376800000000  0.8792278200000000
  0.7798653000000000  0.9126498400000000  0.3008713000000000
  0.2460396700000000  0.8937181900000000  0.8375611200000000
  0.2555215500000000  0.7388533400000000  0.3499670100000000
  0.1840243700000000  0.3528198100000000  0.6573166700000000
  0.2435982800000000  0.9219879200000000  0.6171218400000000
  0.6242042200000000  0.4647605400000000  0.8099213700000000
  0.3663151900000000  0.0368112250000000  0.8635257600000000
  0.7390571100000000  0.2805966300000000  0.4552495300000000
  0.0584815620000000  0.8311515900000001  0.7647993600000000
  0.1414706100000000  0.7039905800000000  0.4619385400000000
  0.8514396100000000  0.7857334500000001  0.5713584800000000
  0.8013312299999999  0.5083251600000001  0.0291690970000000
  0.2618370400000000  0.5630976900000000  0.9095261100000001
  0.3305745700000000  0.1048005200000000  0.3494693600000000
  0.8545055900000000  0.7072701200000000  0.9816180100000000
  0.9742916700000001  0.2328448100000000  0.6080144600000000
  0.3346953900000000  0.7063971100000001  0.9000963600000000
  0.5676641500000000  0.7039958900000000  0.6777976900000000
  0.5390039500000000  0.1780986000000000  0.1580412300000000
  0.1604723100000000  0.6764567900000000 -0.0073516705000000
  0.3505528500000000  0.1863932400000000  0.2154561500000000
  0.8172425300000000  0.1830922000000000  0.1017142200000000
  0.2790132300000000  0.4089507800000000  0.7898147000000000
  0.3538989300000000  0.6899823899999999  0.6874561600000000
  0.0232100320000000  0.7908011100000000  0.0776793080000000
  0.9555567900000000  0.9278015400000000  0.2877596100000000
  0.7498971900000000  0.7962639800000000  0.7501256300000000
  0.9210680800000000  0.0978763840000000 -0.0006676999800000
  0.9287228600000000  0.9632385999999999  0.8787146200000000
  0.1447805300000000  0.3510099100000000  0.2281711200000000
  0.2667439800000000  0.9909743400000000  0.1999614600000000
  0.3499656800000000  0.3389907600000000  0.3222654200000000
  0.7415323200000000  0.0180435760000000  0.7937032100000000
  0.4777895800000000  0.2125930000000000  0.8148064500000000
  0.5845719300000000  0.8961730999999999  0.2417532900000000
  0.8489889500000000  0.4833330300000000  0.8508411800000000
  0.3169034000000000  0.7553783300000000  0.0753020660000000
  0.2632362200000000  0.3963802200000000  0.0802684490000000
  0.5818898000000000  0.5300377700000000  0.6664160400000000
  0.6538607900000000  0.8616200400000000  0.5746200100000000
  0.4506008300000000  0.0499853080000000  0.7157835299999999
  0.1099644900000000  0.0416960090000000  0.9550395800000000
  0.5281583800000000  0.7349611300000000  0.1157368800000000
  0.7028966300000000  0.3651623700000000  0.9278356200000000
  0.6576662200000000  0.6305640000000000  0.9344473900000000
  0.8559546099999999  0.4960327300000000  0.5924608099999999
  0.6871671400000000  0.4212937300000000  0.5824323000000000
  0.3167334500000000  0.7841796200000000  0.5420325700000000
  0.5202851500000000  0.0388896910000000  0.9228693700000000
  0.4936295700000000  0.4837607400000000  0.5167350000000001
  0.1284329900000000  0.4179565800000000  0.9169013400000000
 -0.0000848264570000  0.7593724300000000  0.3214085000000000
  0.7933048500000000  0.2142668800000000  0.6307858800000000
  0.5250473000000000  0.0515173050000000  0.3171019800000000
  0.1632449000000000  0.0226603120000000  0.7373776600000000
  0.0277225080000000  0.5741122500000000  0.8716774700000000
  0.7896403600000000  0.6309650300000000  0.7105183000000000
  0.8000971800000000  0.2978235100000000  0.2660497300000000
  0.2287920200000000  0.5390171400000000  0.4523625900000000
  0.1214618300000000  0.2801167100000000  0.0007924072600000
  0.5833276200000000  0.9222434900000001  0.7833984899999999
  0.7719896300000000  0.7613189900000000  0.1444356500000000
  0.0241675940000000  0.1349893700000000  0.3770654700000000
  0.0911917940000000  0.8214977100000000  0.9259539100000000
  0.1672939300000000  0.8047913700000000  0.2009036400000000
  0.0762568410000000  0.8675239300000001  0.5309366500000000
  0.5861252100000000  0.3403566500000000  0.3441250900000000
  0.6323812500000000  0.5525928900000000  0.4153883900000000
  0.3092858000000000  0.5291014600000000  0.6175558900000000
  0.5584157000000000  0.4345696000000000  0.0446361920000000
  0.1472879000000000  0.5692998300000000  0.2969981600000000
  0.5204788700000000  0.7099123000000001  0.8649075400000000
  0.7077903800000001  0.0379236940000000  0.1874861800000000
  0.9047058900000000  0.1116128200000000  0.2724738600000000
  0.3256319100000000  0.3293575100000000  0.5198979900000000
  0.9335561999999999  0.4519231400000000  0.1707811700000000
  0.1071207000000000  0.5175037000000000  0.1206564900000000
  0.3121021300000000  0.9246561300000000  0.4214133500000000
  0.2380204800000000  0.1742377200000000  0.7029908000000000
  0.4759658000000000  0.6737649400000000  0.5042451600000000
  0.9809974900000000  0.3153087000000000  0.3721818900000000
  0.9203439000000000  0.8964505900000000  0.4419928600000000
  0.1353383500000000  0.1464488500000000  0.5414649900000000
  0.4282337900000000  0.5927141800000000  0.0312698080000000
  0.7071202300000000  0.6642995600000000  0.5144934600000000
  0.4450588600000000 -0.0012227250000000  0.1172844700000000
  0.9483745700000000  0.6115135900000001  0.4813819600000000
  0.7425917500000000  0.1253967400000000  0.3624337300000000
  0.4828022400000000  0.8483765599999999  0.4915108900000000
  0.1020839500000000  0.1954291100000000  0.8157970100000000
  0.8119779700000000  0.7456791600000000  0.3954565000000000
  0.6657695500000000  0.5797916200000000  0.1319401300000000
  0.1593441000000000  0.1965226100000000  0.3628406100000000
  0.7323324000000000  0.6585493400000000  0.2879636400000000
  0.1309142700000000  0.5457864300000000  0.6922677699999999
  0.8973396400000000  0.1421360900000000  0.4712302200000000
  0.6221886500000000  0.0388213900000000  0.6610439600000000
  0.0662233560000000  0.9643290600000000  0.1284084800000000
  0.6335988900000000  0.8988267700000000  0.4117509000000000
  0.9200660400000000  0.5305398900000000  0.9569578100000000
  0.5562419000000000  0.3967659300000000  0.9120885900000000
  0.2631582700000000  0.4316806800000000  0.9298680000000000
  0.6091708900000000  0.7601670699999999 -0.0136336210000000
  0.8797521600000000  0.0999793100000000  0.6277437600000000
  0.8106548500000000  0.3596963400000000  0.5904232800000000
  0.1135513800000000  0.4535796300000000  0.7859179600000000
  0.1720710200000000  0.0468801230000000  0.0874819130000000
  0.2804498500000000  0.6190077500000000  0.0423487260000000
  0.6242811800000000  0.9425961600000000  0.9245850000000000
  0.7199668500000000  0.5044455400000000  0.8963694400000000
  0.9183050200000000  0.4661924400000000  0.4735146300000000
  0.7487435200000000  0.6350274000000000  0.0355973900000000
  0.8564063900000000  0.3297579900000000  0.1180438100000000
  0.6482788400000000  0.7029962300000000  0.1836537800000000
  0.4295912400000000  0.3849440900000000  0.4392293000000000
  0.5271426700000000  0.9313170300000000  0.6524812500000000
  0.7593062300000000  0.1444242000000000  0.5073188800000000
  0.2097485800000000  0.4753651300000000  0.1946844700000000
  0.4642708400000000  0.2427289600000000  0.2679282700000000
  0.7654661100000000  0.8614396900000000  0.4835321700000000
  0.9081616700000000  0.5784321900000000  0.7627421800000000
  0.1446513700000000  0.8697024900000000  0.0711965250000000
  0.0125069120000000  0.5626992700000000  0.2202560400000000
  0.1917093000000000  0.4400882700000000  0.5442219000000000
  0.7195831600000000  0.5088032200000000  0.6947047900000000
  0.2277004400000000  0.2433409000000000  0.5898355900000000
  0.8661115100000000  0.6128006900000000  0.3698248400000000
  0.8518723000000000 -0.0005760005100000  0.2166769600000000
  0.9098409600000000  0.7080308199999999  0.1073760500000000
  0.3060793100000000  0.2364072600000000  0.4075198100000000
  0.6706392700000000  0.0055385682000000  0.3251208500000000
  0.9784980200000000  0.9839886100000000  0.7513096900000000
  0.1139810900000000  0.9301062500000000  0.8420904299999999
  0.8469787300000000  0.2336865600000000  0.3765747500000000
 -0.0107983090000000  0.2444277700000000  0.0097929505000000
  0.2138874100000000  0.8516190100000000  0.4822196600000000
  0.7185199600000000  0.2168760200000000  0.9537566100000000
  0.3922795800000000  0.3396810600000000  0.8265126900000000
  0.4434519800000000  0.0930164410000000  0.4329002100000000
  0.5829334500000000  0.7529839000000000  0.4643005300000000
  0.5236498300000000  0.4027561200000000  0.6270129600000000
  0.5897719700000000  0.6044932000000000  0.5532136300000000
  0.8849643500000000  0.7635447100000000  0.7121153800000000
  0.5662094600000001  0.0406211970000000  0.1830189400000000
  0.8623248300000000  0.7929903400000000  0.2783941400000000
  0.4354931900000000  0.5792262800000000  0.6316731500000000
  0.4084170500000000  0.7537952100000000  0.7946219300000000
  0.5870223500000000  0.3936673600000000  0.2079996800000000
  0.6500535400000000  0.0028174531000000  0.5264533100000000
  0.4606817400000000  0.7665964100000000  0.6073423400000000
  0.6046606700000000  0.4254746100000000  0.4588811500000000
  0.5231574600000000  0.8779227300000000  0.0977914680000000
  0.2931819900000000  0.5727443300000000  0.7465188500000000
  0.8452474900000000  0.3524654800000000  0.9091964800000000
  0.2415361000000000  0.0145266320000000  0.9052248000000001
  0.9309988100000000  0.7553450600000000  0.4598281700000000
  0.0287267280000000  0.8410700500000000  0.2079139500000000
  0.4298857500000000  0.7342596500000000 -0.0016899836000000
  0.6751638500000000  0.8149046800000000  0.3139026500000000
  0.3885748000000000  0.7776996000000000  0.4261643800000000
  0.5057258600000000  0.9240361300000000  0.3593133200000000
  0.4106000000000000  0.1501735600000000  0.1007006400000000
  0.6030762500000000  0.7857307500000000  0.7867204300000000
  0.8552284700000000  0.6402359200000000  0.5796164200000000
  0.0108475980000000  0.5211230500000000  0.6324216200000000
  0.7466319800000000  0.5253410100000000  0.5103837000000000
  0.2843602900000000  0.6038789500000000  0.3267890600000000
  0.0833711160000000  0.4081290900000000  0.3521985500000000
  0.0451745790000000  0.3429386100000000  0.6325342300000000
  0.4935947900000000  0.7872805800000000  0.2439054700000000
  0.7429921500000000  0.1730027900000000  0.2170801800000000
  0.2066536800000000  0.2920323800000000  0.7864485300000000
  0.2588907500000000  0.6595579100000000  0.5325863500000000
  0.3932609800000000  0.0208660640000000  0.2525650900000000
  0.3860288200000000  0.4578109400000000  0.0827998110000000
  0.8879925700000000  0.2663424900000000  0.7354712500000000
  0.6419967900000000  0.2898126400000000  0.2153419800000000
  0.8081971000000000  0.9072726000000000  0.8351756500000000
  0.0353755020000000  0.2383458900000000  0.4807253600000000
  0.3084315400000000  0.7489020199999999  0.2266377500000000
  0.1115240300000000  0.9228922600000000  0.6617498800000000
  0.3741800100000000  0.9467760700000000  0.5494132200000000
  0.7202974000000000  0.3730820400000000  0.3492239700000000
  0.7665965300000001  0.6913544900000000  0.8514164300000000
  0.0098444794000000  0.1126302200000000  0.8830793200000000
  0.6287013700000000  0.2155779700000000  0.3961439200000000
  0.6926840399999999  0.4178988000000000  0.0644553640000000
  0.4554463500000000  0.6217892699999999  0.1761416500000000
  0.2028761500000000  0.1080510000000000  0.2703915300000000
  0.3086635200000000  0.3144070800000000  0.1867229800000000
  0.5126527100000000  0.1130105400000000  0.6113832100000000
  0.1058032300000000  0.6873644700000000  0.1141226800000000
  0.5896009500000000  0.1047839800000000  0.0218161450000000
  0.7072941100000000  0.1557411400000000  0.7213861700000000
  0.1715932700000000  0.1681810400000000  0.9367969700000000
  0.0370655950000000  0.3109391900000000  0.8457899000000000
  0.6820526200000000  0.5355984300000000  0.2869177300000000
  0.0548990680000000  0.2398126500000000  0.2788794800000000
  0.0147583770000000  0.6890231800000000  0.9481036700000000
  0.0659444690000000  0.7289956900000000  0.5727893400000000
  0.9884367600000000  0.0245069250000000  0.4580008400000000
  0.9679415200000000  0.8325361200000000  0.8714204800000001
  0.2399582100000000  0.7885782700000000  0.7077626200000000
  0.0489681100000000  0.8701122900000000  0.3864404800000000
  0.4035107700000000  0.9719271200000000 -0.0188711410000000
  0.8199060000000000  0.5322170200000000  0.1642137000000000
  0.6981677300000000  0.7322580800000000  0.6325277300000000
  0.5549100300000001  0.0966002190000000  0.7928481700000000
  0.2566457000000000  0.8033583100000000  0.9587734999999999
  0.2504535100000000  0.0481989750000000  0.4407144700000000
  0.6516185100000000  0.2686376700000000  0.5869644500000000
  0.7843038200000000  0.0498849500000000  0.0529872350000000
  0.7966492500000000  0.0192382350000000  0.6602108400000000
  0.9411757600000000  0.8961523900000000  0.5760573600000000
  0.2220967400000000  0.9018793800000000  0.2941142100000000
  0.7131081500000001  0.9156201200000000  0.6821171200000000
  0.1213291800000000  0.5416380600000000  0.9707993200000000
  0.1311077200000000  0.7079215100000000  0.3018976800000000
  0.7918881200000000  0.8227754200000000  0.0147025320000000
  0.4532240100000000  0.9247359600000000  0.8240784100000000
  0.4035046200000000  0.5531044700000000  0.8971636900000000
  0.5608482400000000  0.2847117500000000  0.0581068520000000
  0.5700162900000000  0.5760870500000000  0.0317203680000000
  0.4163438700000000  0.2386638600000000  0.5614790100000000
  0.2515870000000000  0.4306211300000000  0.3576000500000000
  0.0664352800000000  0.1474606000000000  0.6657125200000000
  0.4052538500000000  0.4622774800000000  0.2580279100000000
  0.0843644900000000  0.6560485700000001  0.7636788600000000
  0.8533499600000000  0.0365478040000000  0.3915693100000000
  0.2884339300000000  0.2867360200000000 -0.0065049816000000
  0.5012899500000000  0.5823992500000000  0.3733320600000000
  0.7303182200000000  0.8930389300000000  0.1696659500000000
  0.3735771600000000  0.1735650300000000  0.7357179600000000
  0.2982734400000000 -0.0249264290000000  0.7387084900000001
  0.6899684400000000  0.3381748000000000  0.7787839800000000
  0.2220894600000000  0.0616989930000000  0.6134752500000000
  0.3462910600000000  0.8957065000000000  0.1336950300000000
  0.3298712900000000  0.3957105500000000  0.6521787800000000
  0.8977630700000000  0.4073089300000000  0.2927081800000000
  0.9395348300000000  0.1355182500000000  0.1381502200000000
  0.5475330899999999  0.5971590400000000  0.7865994300000000
  0.4246041200000000  0.1613503300000000  0.9267325700000000
 -0.0211273290000000  0.9777108799999999  0.0198401280000000
  0.0951058030000000  0.0093829887000000  0.4999504500000000
  0.1665885900000000  0.2424642900000000  0.1212857400000000
  0.0664444300000000  0.3875534400000000  0.1161241800000000
  0.0983265900000000  0.5731451400000001  0.4352068800000000
  0.0298539170000000  0.0378346160000000  0.2643002400000000
  0.8353154200000000  0.0945832310000000  0.8552545800000000
 
  0.00000000E+00  0.00000000E+00  0.00000000E+00
  0.00000000E+00  0.00000000E+00  0.00000000E+00
  0.00000000E+00  0.00000000E+00  0.00000000E+00
  0.00000000E+00  0.00000000E+00  0.00000000E+00
  0.00000000E+00  0.00000000E+00  0.00000000E+00
  0.00000000E+00  0.00000000E+00  0.00000000E+00
  0.00000000E+00  0.00000000E+00  0.00000000E+00
  0.00000000E+00  0.00000000E+00  0.00000000E+00
  0.00000000E+00  0.00000000E+00  0.00000000E+00
  0.00000000E+00  0.00000000E+00  0.00000000E+00
  0.00000000E+00  0.00000000E+00  0.00000000E+00
  0.00000000E+00  0.00000000E+00  0.00000000E+00
  0.00000000E+00  0.00000000E+00  0.00000000E+00
  0.00000000E+00  0.00000000E+00  0.00000000E+00
  0.00000000E+00  0.00000000E+00  0.00000000E+00
  0.00000000E+00  0.00000000E+00  0.00000000E+00
  0.00000000E+00  0.00000000E+00  0.00000000E+00
  0.00000000E+00  0.00000000E+00  0.00000000E+00
  0.00000000E+00  0.00000000E+00  0.00000000E+00
  0.00000000E+00  0.00000000E+00  0.00000000E+00
  0.00000000E+00  0.00000000E+00  0.00000000E+00
  0.00000000E+00  0.00000000E+00  0.00000000E+00
  0.00000000E+00  0.00000000E+00  0.00000000E+00
  0.00000000E+00  0.00000000E+00  0.00000000E+00
  0.00000000E+00  0.00000000E+00  0.00000000E+00
  0.00000000E+00  0.00000000E+00  0.00000000E+00
  0.00000000E+00  0.00000000E+00  0.00000000E+00
  0.00000000E+00  0.00000000E+00  0.00000000E+00
  0.00000000E+00  0.00000000E+00  0.00000000E+00
  0.00000000E+00  0.00000000E+00  0.00000000E+00
  0.00000000E+00  0.00000000E+00  0.00000000E+00
  0.00000000E+00  0.00000000E+00  0.00000000E+00
  0.00000000E+00  0.00000000E+00  0.00000000E+00
  0.00000000E+00  0.00000000E+00  0.00000000E+00
  0.00000000E+00  0.00000000E+00  0.00000000E+00
  0.00000000E+00  0.00000000E+00  0.00000000E+00
  0.00000000E+00  0.00000000E+00  0.00000000E+00
  0.00000000E+00  0.00000000E+00  0.00000000E+00
  0.00000000E+00  0.00000000E+00  0.00000000E+00
  0.00000000E+00  0.00000000E+00  0.00000000E+00
  0.00000000E+00  0.00000000E+00  0.00000000E+00
  0.00000000E+00  0.00000000E+00  0.00000000E+00
  0.00000000E+00  0.00000000E+00  0.00000000E+00
  0.00000000E+00  0.00000000E+00  0.00000000E+00
  0.00000000E+00  0.00000000E+00  0.00000000E+00
  0.00000000E+00  0.00000000E+00  0.00000000E+00
  0.00000000E+00  0.00000000E+00  0.00000000E+00
  0.00000000E+00  0.00000000E+00  0.00000000E+00
  0.00000000E+00  0.00000000E+00  0.00000000E+00
  0.00000000E+00  0.00000000E+00  0.00000000E+00
  0.00000000E+00  0.00000000E+00  0.00000000E+00
  0.00000000E+00  0.00000000E+00  0.00000000E+00
  0.00000000E+00  0.00000000E+00  0.00000000E+00
  0.00000000E+00  0.00000000E+00  0.00000000E+00
  0.00000000E+00  0.00000000E+00  0.00000000E+00
  0.00000000E+00  0.00000000E+00  0.00000000E+00
  0.00000000E+00  0.00000000E+00  0.00000000E+00
  0.00000000E+00  0.00000000E+00  0.00000000E+00
  0.00000000E+00  0.00000000E+00  0.00000000E+00
  0.00000000E+00  0.00000000E+00  0.00000000E+00
  0.00000000E+00  0.00000000E+00  0.00000000E+00
  0.00000000E+00  0.00000000E+00  0.00000000E+00
  0.00000000E+00  0.00000000E+00  0.00000000E+00
  0.00000000E+00  0.00000000E+00  0.00000000E+00
  0.00000000E+00  0.00000000E+00  0.00000000E+00
  0.00000000E+00  0.00000000E+00  0.00000000E+00
  0.00000000E+00  0.00000000E+00  0.00000000E+00
  0.00000000E+00  0.00000000E+00  0.00000000E+00
  0.00000000E+00  0.00000000E+00  0.00000000E+00
  0.00000000E+00  0.00000000E+00  0.00000000E+00
  0.00000000E+00  0.00000000E+00  0.00000000E+00
  0.00000000E+00  0.00000000E+00  0.00000000E+00
  0.00000000E+00  0.00000000E+00  0.00000000E+00
  0.00000000E+00  0.00000000E+00  0.00000000E+00
  0.00000000E+00  0.00000000E+00  0.00000000E+00
  0.00000000E+00  0.00000000E+00  0.00000000E+00
  0.00000000E+00  0.00000000E+00  0.00000000E+00
  0.00000000E+00  0.00000000E+00  0.00000000E+00
  0.00000000E+00  0.00000000E+00  0.00000000E+00
  0.00000000E+00  0.00000000E+00  0.00000000E+00
  0.00000000E+00  0.00000000E+00  0.00000000E+00
  0.00000000E+00  0.00000000E+00  0.00000000E+00
  0.00000000E+00  0.00000000E+00  0.00000000E+00
  0.00000000E+00  0.00000000E+00  0.00000000E+00
  0.00000000E+00  0.00000000E+00  0.00000000E+00
  0.00000000E+00  0.00000000E+00  0.00000000E+00
  0.00000000E+00  0.00000000E+00  0.00000000E+00
  0.00000000E+00  0.00000000E+00  0.00000000E+00
  0.00000000E+00  0.00000000E+00  0.00000000E+00
  0.00000000E+00  0.00000000E+00  0.00000000E+00
  0.00000000E+00  0.00000000E+00  0.00000000E+00
  0.00000000E+00  0.00000000E+00  0.00000000E+00
  0.00000000E+00  0.00000000E+00  0.00000000E+00
  0.00000000E+00  0.00000000E+00  0.00000000E+00
  0.00000000E+00  0.00000000E+00  0.00000000E+00
  0.00000000E+00  0.00000000E+00  0.00000000E+00
  0.00000000E+00  0.00000000E+00  0.00000000E+00
  0.00000000E+00  0.00000000E+00  0.00000000E+00
  0.00000000E+00  0.00000000E+00  0.00000000E+00
  0.00000000E+00  0.00000000E+00  0.00000000E+00
  0.00000000E+00  0.00000000E+00  0.00000000E+00
  0.00000000E+00  0.00000000E+00  0.00000000E+00
  0.00000000E+00  0.00000000E+00  0.00000000E+00
  0.00000000E+00  0.00000000E+00  0.00000000E+00
  0.00000000E+00  0.00000000E+00  0.00000000E+00
  0.00000000E+00  0.00000000E+00  0.00000000E+00
  0.00000000E+00  0.00000000E+00  0.00000000E+00
  0.00000000E+00  0.00000000E+00  0.00000000E+00
  0.00000000E+00  0.00000000E+00  0.00000000E+00
  0.00000000E+00  0.00000000E+00  0.00000000E+00
  0.00000000E+00  0.00000000E+00  0.00000000E+00
  0.00000000E+00  0.00000000E+00  0.00000000E+00
  0.00000000E+00  0.00000000E+00  0.00000000E+00
  0.00000000E+00  0.00000000E+00  0.00000000E+00
  0.00000000E+00  0.00000000E+00  0.00000000E+00
  0.00000000E+00  0.00000000E+00  0.00000000E+00
  0.00000000E+00  0.00000000E+00  0.00000000E+00
  0.00000000E+00  0.00000000E+00  0.00000000E+00
  0.00000000E+00  0.00000000E+00  0.00000000E+00
  0.00000000E+00  0.00000000E+00  0.00000000E+00
  0.00000000E+00  0.00000000E+00  0.00000000E+00
  0.00000000E+00  0.00000000E+00  0.00000000E+00
  0.00000000E+00  0.00000000E+00  0.00000000E+00
  0.00000000E+00  0.00000000E+00  0.00000000E+00
  0.00000000E+00  0.00000000E+00  0.00000000E+00
  0.00000000E+00  0.00000000E+00  0.00000000E+00
  0.00000000E+00  0.00000000E+00  0.00000000E+00
  0.00000000E+00  0.00000000E+00  0.00000000E+00
  0.00000000E+00  0.00000000E+00  0.00000000E+00
  0.00000000E+00  0.00000000E+00  0.00000000E+00
  0.00000000E+00  0.00000000E+00  0.00000000E+00
  0.00000000E+00  0.00000000E+00  0.00000000E+00
  0.00000000E+00  0.00000000E+00  0.00000000E+00
  0.00000000E+00  0.00000000E+00  0.00000000E+00
  0.00000000E+00  0.00000000E+00  0.00000000E+00
  0.00000000E+00  0.00000000E+00  0.00000000E+00
  0.00000000E+00  0.00000000E+00  0.00000000E+00
  0.00000000E+00  0.00000000E+00  0.00000000E+00
  0.00000000E+00  0.00000000E+00  0.00000000E+00
  0.00000000E+00  0.00000000E+00  0.00000000E+00
  0.00000000E+00  0.00000000E+00  0.00000000E+00
  0.00000000E+00  0.00000000E+00  0.00000000E+00
  0.00000000E+00  0.00000000E+00  0.00000000E+00
  0.00000000E+00  0.00000000E+00  0.00000000E+00
  0.00000000E+00  0.00000000E+00  0.00000000E+00
  0.00000000E+00  0.00000000E+00  0.00000000E+00
  0.00000000E+00  0.00000000E+00  0.00000000E+00
  0.00000000E+00  0.00000000E+00  0.00000000E+00
  0.00000000E+00  0.00000000E+00  0.00000000E+00
  0.00000000E+00  0.00000000E+00  0.00000000E+00
  0.00000000E+00  0.00000000E+00  0.00000000E+00
  0.00000000E+00  0.00000000E+00  0.00000000E+00
  0.00000000E+00  0.00000000E+00  0.00000000E+00
  0.00000000E+00  0.00000000E+00  0.00000000E+00
  0.00000000E+00  0.00000000E+00  0.00000000E+00
  0.00000000E+00  0.00000000E+00  0.00000000E+00
  0.00000000E+00  0.00000000E+00  0.00000000E+00
  0.00000000E+00  0.00000000E+00  0.00000000E+00
  0.00000000E+00  0.00000000E+00  0.00000000E+00
  0.00000000E+00  0.00000000E+00  0.00000000E+00
  0.00000000E+00  0.00000000E+00  0.00000000E+00
  0.00000000E+00  0.00000000E+00  0.00000000E+00
  0.00000000E+00  0.00000000E+00  0.00000000E+00
  0.00000000E+00  0.00000000E+00  0.00000000E+00
  0.00000000E+00  0.00000000E+00  0.00000000E+00
  0.00000000E+00  0.00000000E+00  0.00000000E+00
  0.00000000E+00  0.00000000E+00  0.00000000E+00
  0.00000000E+00  0.00000000E+00  0.00000000E+00
  0.00000000E+00  0.00000000E+00  0.00000000E+00
  0.00000000E+00  0.00000000E+00  0.00000000E+00
  0.00000000E+00  0.00000000E+00  0.00000000E+00
  0.00000000E+00  0.00000000E+00  0.00000000E+00
  0.00000000E+00  0.00000000E+00  0.00000000E+00
  0.00000000E+00  0.00000000E+00  0.00000000E+00
  0.00000000E+00  0.00000000E+00  0.00000000E+00
  0.00000000E+00  0.00000000E+00  0.00000000E+00
  0.00000000E+00  0.00000000E+00  0.00000000E+00
  0.00000000E+00  0.00000000E+00  0.00000000E+00
  0.00000000E+00  0.00000000E+00  0.00000000E+00
  0.00000000E+00  0.00000000E+00  0.00000000E+00
  0.00000000E+00  0.00000000E+00  0.00000000E+00
  0.00000000E+00  0.00000000E+00  0.00000000E+00
  0.00000000E+00  0.00000000E+00  0.00000000E+00
  0.00000000E+00  0.00000000E+00  0.00000000E+00
  0.00000000E+00  0.00000000E+00  0.00000000E+00
  0.00000000E+00  0.00000000E+00  0.00000000E+00
  0.00000000E+00  0.00000000E+00  0.00000000E+00
  0.00000000E+00  0.00000000E+00  0.00000000E+00
  0.00000000E+00  0.00000000E+00  0.00000000E+00
  0.00000000E+00  0.00000000E+00  0.00000000E+00
  0.00000000E+00  0.00000000E+00  0.00000000E+00
  0.00000000E+00  0.00000000E+00  0.00000000E+00
  0.00000000E+00  0.00000000E+00  0.00000000E+00
  0.00000000E+00  0.00000000E+00  0.00000000E+00
  0.00000000E+00  0.00000000E+00  0.00000000E+00
  0.00000000E+00  0.00000000E+00  0.00000000E+00
  0.00000000E+00  0.00000000E+00  0.00000000E+00
  0.00000000E+00  0.00000000E+00  0.00000000E+00
  0.00000000E+00  0.00000000E+00  0.00000000E+00
  0.00000000E+00  0.00000000E+00  0.00000000E+00
  0.00000000E+00  0.00000000E+00  0.00000000E+00
  0.00000000E+00  0.00000000E+00  0.00000000E+00
  0.00000000E+00  0.00000000E+00  0.00000000E+00
  0.00000000E+00  0.00000000E+00  0.00000000E+00
  0.00000000E+00  0.00000000E+00  0.00000000E+00
  0.00000000E+00  0.00000000E+00  0.00000000E+00
  0.00000000E+00  0.00000000E+00  0.00000000E+00
  0.00000000E+00  0.00000000E+00  0.00000000E+00
  0.00000000E+00  0.00000000E+00  0.00000000E+00
  0.00000000E+00  0.00000000E+00  0.00000000E+00
  0.00000000E+00  0.00000000E+00  0.00000000E+00
  0.00000000E+00  0.00000000E+00  0.00000000E+00
  0.00000000E+00  0.00000000E+00  0.00000000E+00
  0.00000000E+00  0.00000000E+00  0.00000000E+00
  0.00000000E+00  0.00000000E+00  0.00000000E+00
  0.00000000E+00  0.00000000E+00  0.00000000E+00
  0.00000000E+00  0.00000000E+00  0.00000000E+00
  0.00000000E+00  0.00000000E+00  0.00000000E+00
  0.00000000E+00  0.00000000E+00  0.00000000E+00
  0.00000000E+00  0.00000000E+00  0.00000000E+00
  0.00000000E+00  0.00000000E+00  0.00000000E+00
  0.00000000E+00  0.00000000E+00  0.00000000E+00
  0.00000000E+00  0.00000000E+00  0.00000000E+00
  0.00000000E+00  0.00000000E+00  0.00000000E+00
  0.00000000E+00  0.00000000E+00  0.00000000E+00
  0.00000000E+00  0.00000000E+00  0.00000000E+00
  0.00000000E+00  0.00000000E+00  0.00000000E+00
  0.00000000E+00  0.00000000E+00  0.00000000E+00
  0.00000000E+00  0.00000000E+00  0.00000000E+00
  0.00000000E+00  0.00000000E+00  0.00000000E+00
  0.00000000E+00  0.00000000E+00  0.00000000E+00
  0.00000000E+00  0.00000000E+00  0.00000000E+00