Amorphous GeAsSeSi                      
   1.00000000000000     
    20.8930323354591110    0.0000000000000000    0.0000000000000000
     0.0000000000000000   20.8930323354591110    0.0000000000000000
     0.0000000000000000    0.0000000000000000   20.8930323354591110
   Ge   As   Te   Si
    30    90   165    15
Direct
  0.4573111049754187  0.7879905985126510  0.5338732419271984
  0.7013644777969242  0.8200339950185043  0.6598536419264860
  0.0910838535145350  0.4242708092310301  0.7750451405903198
  0.0691431660203653  0.8505060323645645  0.2881869837587264
  0.0300727874704093  0.1587321413827528  0.7554556012461897
  0.5943259996581056  0.2388219307440295  0.3897832462325568
  0.8284172112829062  0.8617329890800253  0.6011646703599520
  0.1338724690545944  0.6729730178104624  0.9285846917441239
  0.8144391605062120  0.0551820126838005  0.9595860606930449
  0.9411703298145871  0.1622794988779996  0.6603732777841947
  0.4224014466640783  0.0944534223226270  0.4550453096025979
  0.7937697402266584  0.4329091637177402  0.2246560655490053
  0.6992608140157995  0.8762579509250068  0.7925546855856845
  0.2098217150844973  0.8141627529986238  0.6580083356961376
  0.0115045605524631  0.4551799762272459  0.6828786026842018
  0.5822846274622944  0.8495364683158678  0.0267016374695949
  0.5938008473165359  0.4591129294810306  0.8048638986296408
  0.5634570600122072  0.2118665987042054  0.5909531609623979
  0.3886338817660842  0.7838657920586091  0.9337821435915571
  0.7193630713127072  0.1508846758749587  0.8343766027541115
  0.3042373633701318  0.2454191827833065  0.0872809684484144
  0.8323800852418671  0.5675708595781720  0.0054943754040393
  0.6174144509334283  0.8620925210152135  0.4866441982948478
  0.2480494088238920  0.6790421930602094  0.6368147383651325
  0.1147116479203113  0.8878287179740293  0.5227951261226386
  0.6560735052001551  0.1441299455934542  0.4402299775023678
  0.6500291550809189  0.5083760290148337  0.4521416036182692
  0.9588339604843557  0.9415615156518109  0.0211624913949608
  0.1705786549079133  0.1482900523551707  0.5427849884268173
  0.4600958172169507  0.3816054455660455  0.3957764388016177
  0.6888823020262875  0.2023005834705275  0.5489085415657081
  0.9757046259104666  0.0241614242133004  0.3558907868404126
  0.3531261662779021  0.9087811615097650  0.3883023000190984
  0.6623692110777694  0.1208692523454741  0.6487367632259047
  0.9911432594801673  0.7516946651597913  0.4535637584734309
  0.6202151022699437  0.7430640741242269  0.3034090111926572
  0.0199430732954882  0.9264321297754411  0.1924878680120037
  0.6993984684201567  0.7859655745640715  0.9483069662504716
  0.5356702903614002  0.5995097914903726  0.8814125488207397
  0.6518309368263195  0.3205073633222549  0.5150750208236575
  0.6207512573232884  0.8975670543276638  0.6098280198836541
  0.3632528543637213  0.5006241563359743  0.8521285375649456
  0.2430369016525959  0.6666928992628819  0.0778947423692234
  0.2641039307967030  0.1152665519032720  0.9044028466813269
  0.5377825181817176  0.9989993683544662  0.6479005244303759
  0.8932036199902843  0.9138707979466110  0.3421377388584442
  0.1448451769688515  0.2535846553434771  0.4092395316485936
  0.9404243097204994  0.3066783522514880  0.2820602066632921
  0.9856476583422600  0.7598005518217800  0.0075474454537312
  0.7374483055917708  0.3682626669254302  0.5910202312443921
  0.4957934936423034  0.7613739492462109  0.9934405914758463
  0.7899869985176998  0.8859168390129114  0.1224329298646341
  0.7074252497915248  0.7392505152798934  0.5586592261723738
  0.8117770323143583  0.9053389327482581  0.7416462846728294
  0.0305882258701781  0.1328118833913498  0.4014863703043916
  0.2432666452443667  0.3960542993758602  0.9339932074588718
  0.4331395897353040  0.1016007871649691  0.8572732891562541
  0.3296320066419144  0.9906229147536356  0.8328403661391764
  0.1845495159988614  0.2789541857135810  0.8549654462487909
  0.7023736785937442  0.4224349518716521  0.9390700725605626
  0.4830241811576068  0.2761770759428034  0.7665752000060412
  0.2372968304522423  0.4953609978838224  0.8655739103108306
  0.9832981572271734  0.7235774365257990  0.8029010951348284
  0.2203830023796515  0.0861191090374671  0.0260453268405039
  0.7614820722329183  0.9598460857698957  0.8950790120402741
  0.8611741256145824  0.3230222799442070  0.5565517715690036
  0.6907078951241176  0.1484248351806538  0.1767275772935674
  0.5507915447012193  0.4343457380383263  0.4737270911336495
  0.3726672987314268  0.6497803997328034  0.2383160115441076
  0.3235922765256842  0.1778226259667774  0.1899951287678291
  0.5182649572875611  0.6482472882632742  0.5794093077798713
  0.1969661362042443  0.7028660562538500  0.4288871864223411
  0.1162927122916966  0.2622951548123256  0.5206809700359799
  0.9153870613505791  0.4463391380174183  0.4998873105742015
  0.0661373227362915  0.6626453840524457  0.3776874615490767
  0.3646850902547134  0.7928301839996361  0.3333801016686986
  0.4724207450447053  0.8035367378685457  0.3982732074670975
  0.7388938673621374  0.0787298769921433  0.3784022890471330
  0.7584548989727046  0.7742340657400328  0.8417428976976346
  0.4881501022448895  0.3926884854940861  0.7009822784680881
  0.5217830734658229  0.6930236308453619  0.3665087989104738
  0.7474476831033000  0.3976635463884101  0.0539530497196378
  0.6675313253533433  0.8408617803671581  0.1272881056814287
  0.4793048346224288  0.9288325761967995  0.0098380215038366
  0.7347178439089487  0.9523733810680288  0.6204281923489318
  0.8485407345094765  0.7905081035942964  0.7056929098279668
  0.2158667328623999  0.8846356249273696  0.4474414848409794
  0.8832599973895404  0.1403931023178711  0.1514538367593135
  0.4744224276561332  0.6608293111778736  0.0629658544910705
  0.4807069566225500  0.5143862151141786  0.4068789489838918
  0.2932521756310393  0.4640558301729767  0.0176636687754515
  0.5636504151683251  0.8793046632238862  0.8293310831478528
  0.0473561121626590  0.6482767609282963  0.0149827266521000
  0.1133354366791209  0.3567236247441883  0.1800152197137928
  0.1590236729766981  0.7930080433968146  0.9221561313957869
  0.2829442607702585  0.2374029523530566  0.9250943675015434
  0.1829698106243496  0.7549642104461495  0.8006596436941652
  0.8871912489285462  0.9902972601526525  0.4461987269597074
  0.6368879475678643  0.5783727325185485  0.8124456106022545
  0.6241507675464749  0.6072095974528716  0.3759653688929526
  0.5265385729921689  0.5057314361812132  0.5699256772427297
  0.4845530038799938  0.5240961441922604  0.7868542029142285
  0.5580223588512189  0.9576991635688860  0.4244185449559996
  0.9666539872990303  0.2147143648188424  0.1978379889301503
  0.2223225733705637  0.3401204848200947  0.3454947986213375
  0.7133463874918988  0.0570198104366012  0.0989854186692027
  0.3615176039471755  0.3784980484041411  0.7180978834729507
  0.6399210436986087  0.8922787231593006  0.9227376872596094
  0.6908859296486680  0.7096987103865489  0.3995858845221465
  0.5851996731133211  0.6413979586526471  0.2388805024898857
  0.4055477210765790  0.6970280305464277  0.8453875447795991
  0.3309808539314312  0.1098314443680889  0.7925392260541844
  0.1555297206839557  0.8069700526654883  0.3772189501978456
  0.6001854321146797  0.7379838552015801  0.4813778916227858
  0.9189729584985861  0.4073977522581084  0.7593700296770521
  0.6767383686930223  0.4707958683840641  0.2308331020629421
  0.2123357970166680  0.1340862768241019  0.2045724893829771
  0.0921557932486913  0.6613679268070456  0.8089874434745312
  0.3520199906620637  0.5141943870179121  0.2578451037936506
  0.1038502449803902  0.2579818744373851  0.7458890327717536
  0.4632425729982267  0.4390655637589400  0.1055486103144504
  0.2016268077725956  0.1478794161709868  0.3371344522792487
  0.3493949273843453  0.8356359827108280  0.6051134956279473
  0.5293748110703876  0.4988158445547977  0.2746263915224078
  0.7099123146919688  0.8781284306457007  0.3891023488487714
  0.3386348040284140  0.1051757108715150  0.6460975845329425
  0.2533582635813173  0.6108970711584987  0.9388026776219044
  0.1485876023835289  0.9915478231018118  0.9554416581349126
  0.2312502582678046  0.9804691389927114  0.2368329751041157
  0.6488696276510273  0.4714533696351965  0.1020909814551657
  0.1250255114676540  0.5497053532428151  0.3169944102882377
  0.3854195690277141  0.6679294113702182  0.6447126053125714
  0.9059519444295615  0.2935620193153397  0.6856435544991916
  0.0436682259947345  0.3258891782852079  0.6461360119710632
  0.9458918567598791  0.3815960112576011  0.1638258726237317
  0.3462335173212118  0.2417550706674665  0.3488910361846415
  0.0995263050256753  0.0080416245879412  0.8151555492259391
  0.0673883594544585  0.6005948559318196  0.5165827811819393
  0.2606672202671374  0.0147644585341173  0.3818655763597310
  0.2867865886798802  0.9165638871506350  0.9543273167935149
  0.2194189078679018  0.2937282242984126  0.6361101032005495
  0.0608158304871395  0.4198030806808867  0.4390471385041341
  0.7501961185870960  0.6652763863194624  0.6732745966151419
  0.5725124764127804  0.3519169742122506  0.3040737360190806
  0.1023853517323974  0.4876051293161814  0.0189171439068181
  0.8981912893389998  0.0386894230312674  0.6323070962933193
  0.2393045356194293  0.9017028744643621  0.1218818408332075
  0.8066271047016994  0.2048240030808532  0.6129390863064829
  0.1314446663415981  0.7561827303329091  0.5480317766576157
  0.8577843798640614  0.0111160843907254  0.0765623388041332
  0.4630367842227012  0.2267616258949662  0.8917504957252119
  0.1378489126578726  0.6915969789950052  0.1591665252907116
  0.8092274277124745  0.2264425349978533  0.0442232036299769
  0.8438763090249030  0.1907788767150879  0.7840483060054495
  0.3511157098124452  0.7478749571336932  0.1365015814531866
  0.8046790263760917  0.8553475774460239  0.9841281036656989
  0.2306662020484370  0.5969366892620050  0.5327248661072070
  0.9685705730289506  0.5533808816041815  0.4059559110015577
  0.0372180163720152  0.7187597159835669  0.2565558389043153
  0.9357609183702131  0.5902835244239265  0.2059326006585759
  0.7924178554133985  0.3025350007755937  0.2436043976263653
  0.4768343904348577  0.3184703711482222  0.0399336878697770
  0.7880488190050501  0.9386224290928691  0.2619199748685879
  0.8824499875745452  0.9064819302510113  0.8612423614341124
  0.9081121617847326  0.7672269540960585  0.3417684333283286
  0.5647168545411407  0.8704568889637020  0.3037199672974057
  0.0717859711587198  0.3121580873927872  0.3016660389861532
  0.9202045387667767  0.3265302132325286  0.4229369244208663
  0.3748682526309984  0.3710151619541892  0.8509767960019129
  0.5741191124285052  0.4117686856812249  0.9321493074555468
  0.0241424872046150  0.8187334022644571  0.8896426032203620
  0.8384681496549233  0.6960866441409095  0.2256531259201395
  0.0199624371581687  0.8823120363802642  0.4221443569246123
  0.6386925824807451  0.1757895572226858  0.9407626358301560
  0.3093078018174392  0.5616692626254101  0.1285612621270104
  0.5492564951405403  0.9273766461960261  0.1491685948963817
  0.5586171423426566  0.0258932139816728  0.9703682468529053
  0.9556106029824566  0.8686633426276056  0.7200760887355483
  0.3137564644575092  0.9602448235872425  0.6875186031483732
  0.0399894522255579  0.2436644391088572  0.0931261802566209
  0.8648945985619547  0.6934122755798025  0.9772265305858679
  0.9313241874877075  0.1188963034100626  0.9652837761874458
  0.0477345038430932  0.3288841893157348  0.8570185524771807
  0.2177011821538570  0.3958427350743831  0.7627273175527988
  0.1945785368439904  0.2175427497811514  0.0260865121470893
  0.2773953793660065  0.7778147873233785  0.0079017954816956
  0.6847989668867187  0.2333820354720180  0.7306001732648717
  0.9772151838407379  0.2042207575667362  0.5408013233994755
  0.9182877852135573  0.3603653807889552  0.9953895318541208
  0.7725138719890271  0.3325462368655549  0.8614124562094114
  0.1939048312864428  0.1585184941618925  0.6817717641231090
  0.5737345051164207  0.5954488653948500  0.0073719762155067
  0.9235519683532094  0.7173001385257443  0.5676882404387373
  0.6693064721736932  0.0252570726672539  0.8133283788511433
  0.3940395552824243  0.7812966051051842  0.7446299853932455
  0.4051057703164285  0.6738960278778152  0.4610544615378582
  0.8020611903805146  0.1369671742185363  0.2579793337048857
  0.4658400446135574  0.2278967865144000  0.4316933432571043
  0.1606858910987974  0.5324082322684014  0.1314349302629714
  0.6029081807867460  0.0506261176972479  0.2977363318443659
  0.7774036085472296  0.7511495245523208  0.1083503006633245
  0.6573451355953687  0.7345318525072161  0.7707194373990223
  0.9803789748199813  0.4590455072337944  0.9002406556126437
  0.9317032598473634  0.8473791376007167  0.1172759424343590
  0.2976478442755385  0.3762860315681958  0.1114776135304891
  0.0452409346356286  0.0215778987096627  0.0974511109093573
  0.2481286137255246  0.6771693291367046  0.2919583125329147
  0.3494304052770149  0.9841684544911482  0.5095177749510711
  0.1343253989667307  0.0406541971771145  0.4638958510439974
  0.3731428216120474  0.9145161949614125  0.2101746411062055
  0.4548359011163335  0.9427182226686364  0.7286427239871847
  0.3983734942572403  0.1951430221893752  0.0154619029944008
  0.7338379938038756  0.5595354410808869  0.9187537297334667
  0.9399834828144421  0.5989409506534137  0.7225274654292896
  0.5431471757380798  0.7620233262493694  0.6446129373782395
  0.0971137043986997  0.9900904027945244  0.2927842555933552
  0.8546463242580781  0.4523695282175108  0.3382619485542270
  0.3696700890407563  0.5237583142707720  0.6930199567771231
  0.6130370955421784  0.4565599006170549  0.6571545888515014
  0.1411071016342285  0.1556228118777546  0.8616448568167890
  0.7588364287689537  0.5396696567684413  0.7460407088642047
  0.4627597474246352  0.5773616174396076  0.1721541747199610
  0.7069843316011978  0.3266286272086235  0.3994585806564108
  0.2010967547890677  0.8127675201303967  0.2526175272599753
  0.4067489338669144  0.5138163413478064  0.9734234157297134
  0.3718778593753237  0.5173785993066272  0.4932393733113529
  0.4731202081340772  0.1131616299369461  0.5889452619261653
  0.4918856095251276  0.0939876934943689  0.1049295254492410
  0.4425210282679080  0.8979464085336977  0.8831467125514965
  0.8432816494418127  0.4530895129042662  0.6575361193232754
  0.6091203606203789  0.0480462529398808  0.5144199265938124
  0.5567504267821025  0.6096795362656025  0.7057617266638879
  0.9150285040975570  0.1881951586775053  0.3631086045875674
  0.4516995279389416  0.7655701964527138  0.2418582599179495
  0.3661062370837580  0.3780516093320064  0.2891048800549602
  0.1875485711313356  0.9561884814341085  0.6171565362167006
  0.1510576983313278  0.4472700631316777  0.6039315948948155
  0.3686882225963534  0.0316866380349008  0.9731196792407891
  0.4800399843761299  0.9296707243682432  0.5404811435900595
  0.8292077212134091  0.1330807539653914  0.4738137618701747
  0.3029617722701841  0.1588216551421806  0.4999575858079305
  0.0742379031824879  0.5947952464835832  0.6797801832540471
  0.9655581723516588  0.6210619937321438  0.9104151226333134
  0.0291245773907377  0.7580776349166896  0.6763791935111947
  0.5328816199840519  0.0976760666633467  0.7653323734267135
  0.9480021857082692  0.0267166268978565  0.7887058786775287
  0.3621407313434652  0.0900767331138506  0.3109938804687525
  0.3034302569476833  0.7826953156478529  0.4689508207720283
  0.8045615777853590  0.7990892125553530  0.4833857171329756
  0.2158224541502683  0.2700252834408695  0.2108843393674602
  0.1147308935330665  0.8625203557899223  0.7684749136660327
  0.8699288873794144  0.6520194800802422  0.4261445175025356
  0.3638037103380052  0.2444151467678972  0.7148616449548976
  0.6477829808153104  0.6000371747654109  0.5472082345292502
  0.5889261611447371  0.1925270242742673  0.0795063157055531
  0.0959796279634494  0.8223915145567244  0.0603343129165193
  0.9269382561449266  0.0202952317997941  0.2242202626800579
  0.7556559283376673  0.9995772377094787  0.4821949761083440
  0.7737444217338464  0.5672576840772797  0.3496218751630619
  0.0667971969389938  0.1547910422873429  0.2737502064181107
  0.2186268638852162  0.4216404419621687  0.4500424235078492
  0.4763537684788210  0.1296829692466997  0.2376987151493369
  0.2011240816426678  0.4274555819538434  0.2505647651827466
  0.6194642804589195  0.3245523854207576  0.1160792557047202
  0.7682573648108681  0.4405514640429108  0.4892825214512346
  0.0434668927889919  0.4911730390642989  0.2194372975554647
  0.0933696501479134  0.5254964901361890  0.8624740593270515
  0.4949929541782626  0.3271364227848951  0.5857753110244929
  0.2734762613518968  0.5456388358277817  0.3533603185053598
  0.7142689686850094  0.6010318367568588  0.2218016820655380
  0.7763726890022885  0.0540047640431182  0.7134056620217850
  0.5783661352014645  0.7167513213356622  0.1296147355554691
  0.7271965460204107  0.6025815106610883  0.0774729710235020
  0.0125080023063663  0.0616499473450246  0.5382458393369073
  0.3214762471324389  0.0574786532097942  0.1136085448033751
  0.9537146837425311  0.9031904992053359  0.5589525519863874
  0.8174185006531559  0.5860679856121795  0.5573212313876229
  0.5318216785068525  0.7392089227988101  0.8679620044327608
  0.2347304213382860  0.6017776215773836  0.7489060269627030
  0.2784377598652653  0.8596599557064252  0.7889392377073116
  0.4515799635227795  0.9695096169894021  0.3300103871213910
  0.6091269625238311  0.2158569595897935  0.2615607636091702
  0.8334813416224764  0.4611235974067620  0.8470121107999371
  0.2890910291895371  0.3103435153628700  0.5004656815659635
  0.0826169546803314  0.0522285127380132  0.6869130647079308
  0.8765553148584506  0.4856102905433619  0.1562797626720219
  0.0282850176967889  0.4802549763161002  0.5465984427008090
  0.5985607096466361  0.0259727790099710  0.0907016732782200
  0.7342668839836691  0.1302968955047369  0.0075762811796512
  0.0318706785592851  0.3730653244802561  0.0657374168099153
  0.8510119678337974  0.4557165080068409  0.0468226844148778
  0.9276148603612447  0.5389562716185560  0.6075661834422511
  0.2402996454779358  0.4954340567212612  0.6795280889855219
  0.5617132940900459  0.2066925213206790  0.7115135881723336
  0.4221060344551090  0.4559226937891958  0.5991091663066094
  0.9444799567352256  0.1405771466981222  0.8417790133824201
  0.3954199491295258  0.3844864203158877  0.5088662485709327
  0.7287841388917022  0.2573751627934709  0.1406920842698709
  0.1331920642331464  0.9398207272882058  0.0654630699010494
  0.4784271982234651  0.3933930491737296  0.2251462186489971
 
 -0.51183510E-03  0.68858524E-03  0.68658134E-03
 -0.21110897E-02  0.15676175E-02 -0.40467249E-04
  0.16892226E-02 -0.77998834E-03  0.38976647E-03
  0.25900772E-03 -0.17014210E-02 -0.32779727E-02
 -0.72225269E-03  0.13008663E-02  0.11383697E-02
 -0.88859268E-03  0.23563597E-02  0.13392785E-02
 -0.10537366E-02 -0.14230129E-02 -0.13448332E-02
 -0.11582783E-02 -0.19658826E-02 -0.64960069E-03
  0.13083658E-02  0.48755204E-03 -0.28323681E-02
 -0.21846300E-02  0.61351266E-03 -0.10503861E-02
  0.29970483E-02 -0.66547865E-03  0.12558770E-03
 -0.19309201E-03 -0.45050222E-03 -0.21422819E-02
  0.45432952E-03 -0.11743178E-02 -0.31586344E-02
 -0.24218290E-02  0.19286894E-02 -0.10729937E-02
  0.15095107E-02  0.94278109E-03  0.65594715E-03
 -0.41322216E-03  0.88468539E-03 -0.14496987E-02
  0.75503176E-03 -0.87955822E-03 -0.25955974E-03
 -0.16929682E-03 -0.14569096E-02  0.12342504E-02
  0.32373231E-03  0.44690462E-03 -0.23404094E-02
 -0.52531669E-03 -0.61874939E-03  0.10936720E-02
 -0.15507523E-02 -0.86006749E-03  0.78213742E-03
  0.30032404E-03  0.16943949E-02 -0.98785488E-03
 -0.11462944E-02  0.95860270E-03 -0.19102342E-02
 -0.18746448E-03  0.12058275E-04 -0.10351288E-02
  0.34850827E-03  0.71839305E-03  0.15496133E-02
  0.49676134E-03 -0.55415613E-03 -0.30492770E-02
  0.72573450E-03  0.96281501E-03 -0.10172677E-02
  0.16765965E-02 -0.63803996E-03 -0.60519915E-03
  0.22179204E-02 -0.10222964E-02 -0.26524289E-04
  0.16965659E-02  0.22932765E-02  0.34271380E-03
 -0.25026831E-03 -0.23101626E-02 -0.29919378E-04
 -0.80986137E-03  0.26347639E-02 -0.25560455E-02
  0.16946760E-02 -0.17538055E-02  0.99478114E-03
 -0.31223733E-02  0.79193653E-03  0.32851785E-02
 -0.35734744E-03  0.11514410E-02 -0.74848428E-03
  0.20752492E-02 -0.72387824E-03 -0.11930823E-02
 -0.24972142E-02  0.10593216E-02  0.12423727E-02
  0.14611772E-02 -0.61752944E-03  0.28588712E-03
 -0.14786867E-02 -0.22817902E-02  0.65876608E-03
 -0.24702241E-03 -0.23969639E-02 -0.48480197E-03
 -0.41891596E-03  0.29108651E-03 -0.80977927E-03
 -0.58024629E-03  0.99195198E-03  0.15164738E-02
  0.21174539E-02 -0.11553338E-02  0.96192630E-04
 -0.83929248E-03  0.26536640E-03  0.31182482E-02
 -0.95834814E-03 -0.37599774E-02  0.22158799E-02
 -0.24026116E-03  0.10305925E-02 -0.18967968E-02
 -0.87449625E-03  0.73846181E-04  0.65451967E-04
  0.52833236E-03  0.52734274E-04 -0.16386128E-02
  0.26583897E-02  0.26661671E-02  0.32710599E-03
 -0.24858354E-02  0.74972408E-03  0.10737074E-02
  0.91603219E-03  0.82073102E-03 -0.33658609E-02
 -0.12798794E-02  0.55897500E-03  0.19621514E-02
 -0.28302288E-03  0.53097795E-03  0.69638284E-03
  0.14482613E-02  0.15626049E-02  0.19138836E-03
  0.33095965E-02  0.25789986E-02 -0.23118625E-02
 -0.18443299E-02 -0.15362872E-03  0.17974448E-02
 -0.13788995E-03  0.18666466E-02 -0.34932686E-02
  0.67402507E-03  0.20907286E-02 -0.19942994E-02
 -0.24454915E-02  0.14546183E-02  0.15151825E-02
 -0.33080784E-03  0.50539379E-05 -0.11509952E-02
  0.62794024E-03  0.30450902E-02  0.15989039E-02
  0.14095145E-03  0.44864470E-03  0.15531954E-02
 -0.12125656E-03 -0.16418179E-03  0.15388994E-02
 -0.18888581E-02  0.15371343E-02  0.32619379E-02
 -0.30405455E-02 -0.14723688E-02  0.11130797E-02
 -0.11996867E-02  0.42710882E-03  0.16529685E-02
 -0.47395207E-02 -0.25003333E-02 -0.21183266E-02
 -0.11479142E-02  0.47588337E-02  0.10366918E-03
  0.25103062E-02  0.30944761E-02 -0.32710589E-02
 -0.93896762E-03 -0.22674790E-03 -0.22757886E-02
  0.14760330E-02 -0.35080918E-02 -0.25587185E-03
 -0.21930546E-03 -0.20982249E-04 -0.97991419E-03
  0.70443830E-03 -0.13623320E-02  0.21223752E-02
 -0.22432265E-02  0.13996474E-02  0.16423142E-02
 -0.74368146E-03 -0.21761761E-02 -0.15217674E-02
 -0.17116353E-04 -0.26222913E-03 -0.10360424E-02
 -0.24425027E-03  0.55076594E-04  0.32356247E-03
 -0.16567772E-03 -0.25757745E-02 -0.18424234E-02
 -0.23347688E-03 -0.49217434E-03 -0.19766314E-03
  0.95922127E-03 -0.54568837E-03 -0.23831704E-02
  0.15471154E-02  0.41459405E-03  0.85032639E-03
  0.99028520E-03 -0.16139466E-02 -0.27625201E-02
 -0.20500844E-02 -0.15438022E-03  0.10517638E-02
  0.11089466E-02 -0.66087904E-03 -0.41339172E-03
 -0.10578404E-03 -0.54601588E-03  0.56846074E-03
 -0.70575432E-03  0.82127480E-03 -0.64156882E-03
 -0.65350651E-03 -0.48808540E-03 -0.69206399E-03
  0.28234595E-04 -0.27740294E-03 -0.20541989E-02
 -0.58136499E-03  0.16346268E-02 -0.15478677E-02
 -0.14133111E-02  0.18640166E-02  0.54011553E-03
 -0.18026318E-03  0.73619925E-03  0.25800136E-04
  0.21197167E-02  0.12332115E-03 -0.93295184E-04
 -0.17954822E-02  0.14237175E-03 -0.51755130E-03
 -0.13362465E-02  0.84754735E-03 -0.15088947E-02
  0.10195210E-02 -0.23908242E-02  0.23266426E-02
 -0.11584150E-02  0.70909584E-03 -0.21477954E-02
 -0.19803018E-03 -0.37084508E-02  0.20770293E-02
  0.87588320E-03 -0.25664571E-02  0.98503683E-03
 -0.16419958E-02  0.42040917E-03  0.10860539E-02
 -0.27910516E-02  0.47801823E-03 -0.31439818E-03
 -0.53111317E-03  0.96191347E-03  0.29646861E-02
  0.75328001E-03 -0.22495473E-02 -0.20888027E-02
 -0.16770335E-02  0.34276052E-02  0.24761933E-02
 -0.80592131E-03  0.25901802E-03 -0.12250837E-02
 -0.29776364E-03  0.18851305E-03  0.24765534E-03
 -0.81496673E-03 -0.77730316E-03 -0.31965321E-02
  0.92243672E-03  0.22443881E-02  0.15004498E-02
  0.12989486E-02 -0.57971958E-03  0.89852224E-04
 -0.12754613E-04  0.40543832E-03 -0.26656430E-03
  0.14032486E-02  0.20255840E-02 -0.35583153E-02
 -0.67682867E-04 -0.10300039E-02 -0.66368571E-03
 -0.29315676E-02  0.19970608E-02  0.87304077E-03
 -0.40181963E-03  0.74690344E-04 -0.18941080E-02
 -0.96530035E-03  0.80624781E-03 -0.12385369E-02
  0.10717202E-02  0.44916832E-03  0.10234654E-02
  0.12982791E-02  0.16588394E-02 -0.19809218E-03
 -0.37010303E-02  0.25994825E-02 -0.12429923E-03
  0.30892801E-03 -0.10583998E-02  0.28673225E-04
  0.29767928E-02  0.23594256E-02  0.27880462E-02
 -0.42272604E-03  0.25460241E-04 -0.11248127E-02
  0.23625888E-02 -0.58866603E-03  0.14395265E-02
 -0.22336705E-03 -0.49848825E-03  0.81029065E-03
 -0.12419956E-02  0.13241127E-02 -0.35686022E-03
  0.39034613E-03  0.93260976E-03  0.83201501E-03
  0.49471572E-03 -0.22275127E-03 -0.40796689E-03
 -0.52861392E-03 -0.40399525E-03 -0.65243704E-03
  0.10490903E-02  0.22610259E-02 -0.91915699E-03
  0.14287369E-03  0.68751472E-03  0.26444206E-02
  0.33887645E-03 -0.35122225E-03 -0.10902279E-02
  0.43858173E-03 -0.64278639E-03 -0.18498651E-02
  0.39041811E-03  0.14006675E-02 -0.29558584E-02
  0.44909761E-03  0.10709086E-02  0.21269274E-02
 -0.20032022E-02  0.39385288E-03  0.25426998E-02
 -0.16653723E-02  0.17214292E-02  0.64220238E-03
 -0.15812664E-02  0.13962438E-02 -0.25360851E-02
  0.12685405E-02  0.12724624E-02  0.41338336E-03
  0.84127909E-03 -0.15247010E-02  0.10102719E-02
 -0.16680958E-02 -0.13705118E-03  0.15487853E-02
 -0.21533294E-03 -0.25820680E-02  0.71848855E-03
 -0.31485446E-03  0.57603992E-03 -0.92769631E-04
  0.32974811E-02  0.13271089E-02 -0.40304116E-04
  0.38734658E-03 -0.23444172E-02  0.59415250E-03
  0.15921771E-02  0.14150579E-02  0.30944432E-02
 -0.35776623E-03  0.65647384E-03  0.20904641E-03
 -0.20587120E-02 -0.26220876E-02  0.19725054E-02
 -0.10966128E-02  0.20533462E-02 -0.33023102E-02
  0.13710367E-02  0.23746351E-02 -0.14115206E-02
  0.10115298E-02  0.12003503E-02  0.75389176E-03
 -0.21350628E-02 -0.43492409E-04  0.28747675E-03
  0.66086163E-04 -0.75649236E-03 -0.23024459E-02
  0.19543728E-02  0.64428645E-03 -0.45187163E-03
 -0.17752712E-02 -0.36685979E-02  0.97307219E-03
 -0.20876428E-03  0.98045129E-03  0.87512525E-03
  0.13788941E-02  0.16630923E-02  0.28628653E-02
 -0.30603545E-02 -0.57001811E-03 -0.39288025E-02
  0.43981425E-03 -0.17198490E-02  0.15802727E-02
 -0.58291279E-03 -0.80754062E-03 -0.10323913E-02
 -0.15723086E-02 -0.16696049E-02 -0.10485920E-02
 -0.15898565E-02 -0.19698283E-02 -0.34474706E-02
  0.18777276E-03 -0.22082854E-03 -0.76702196E-03
 -0.11910817E-02 -0.13648585E-02 -0.20441464E-02
 -0.36194764E-02 -0.10292074E-02 -0.13119111E-02
 -0.43863512E-02 -0.16021238E-02 -0.52494859E-03
 -0.84507381E-03 -0.69981050E-03  0.10139987E-02
  0.96147410E-03 -0.26604908E-02 -0.30863656E-02
  0.33007135E-02 -0.22210289E-02  0.22834399E-02
 -0.20142886E-03 -0.15044047E-02 -0.20452084E-02
  0.10266665E-03 -0.14277038E-02  0.14272708E-02
  0.26961866E-03  0.84882720E-03  0.10487037E-02
 -0.20092363E-03 -0.22620013E-02  0.62372548E-03
  0.19717517E-02  0.18174355E-02 -0.42013393E-03
 -0.14978100E-03  0.50482179E-02 -0.26799758E-02
  0.19118978E-03  0.16161244E-02 -0.14485446E-02
 -0.11842134E-03  0.19530750E-02  0.57882170E-03
  0.68224687E-03 -0.12090592E-02 -0.13287718E-03
  0.21519631E-02 -0.98304394E-03  0.22455999E-03
  0.11410630E-02 -0.80947884E-03  0.61691952E-03
 -0.55325384E-03  0.15205028E-02 -0.93206303E-03
  0.30091854E-02 -0.17500677E-02  0.34745154E-03
 -0.16805777E-02  0.56802398E-03 -0.17487403E-03
  0.10259375E-02  0.96136111E-03 -0.72839345E-04
  0.14291105E-02  0.56376959E-03  0.24850146E-03
 -0.10571494E-02 -0.11503137E-03  0.35078319E-03
  0.30226856E-02  0.76444460E-03  0.16341756E-02
 -0.75776624E-03  0.21596101E-02 -0.81242277E-03
 -0.51258972E-03 -0.27185015E-03 -0.29439736E-02
 -0.72332011E-03 -0.79851516E-03 -0.11684443E-03
  0.90390131E-03  0.25896087E-02 -0.96117591E-04
  0.73085067E-03  0.37779935E-03 -0.31157834E-02
 -0.16398464E-02 -0.16536503E-02  0.11976409E-03
  0.42358942E-03 -0.24570099E-02  0.11776308E-02
 -0.13405692E-02 -0.14808540E-02 -0.40654980E-03
  0.11008033E-02  0.12539957E-02  0.11128843E-02
  0.48760494E-04 -0.10241364E-02  0.18309236E-02
 -0.85308334E-03 -0.64718415E-03  0.44745861E-03
  0.24293639E-02 -0.16086883E-02 -0.24107081E-02
  0.31686506E-02 -0.16060333E-02 -0.11970420E-02
 -0.14787479E-02 -0.13481347E-02  0.24856019E-02
 -0.34396459E-03  0.33449595E-03  0.12675224E-02
  0.39807044E-02  0.16174504E-02  0.25073632E-02
  0.38830561E-03 -0.11475072E-02  0.47426008E-02
  0.13900270E-03 -0.22930752E-02  0.12181996E-02
  0.28345706E-03 -0.36965445E-02  0.38243757E-02
  0.95326886E-04 -0.28450693E-03  0.26934457E-03
 -0.19916403E-02  0.25725343E-02  0.15549709E-02
  0.44010001E-03  0.82140111E-03  0.11438954E-02
 -0.14792861E-02  0.27291035E-02 -0.29330660E-02
  0.14642598E-02 -0.22024254E-02 -0.23502732E-03
 -0.26283423E-02  0.73386938E-03 -0.13589502E-02
  0.51776472E-03 -0.87800774E-03  0.11933243E-02
 -0.23109905E-02 -0.24511835E-02  0.70779001E-03
  0.20624046E-02  0.80656190E-03  0.15104443E-03
 -0.29634028E-03  0.90929158E-03 -0.34298785E-03
 -0.10190189E-03  0.38283339E-02  0.10379765E-02
 -0.45943174E-03 -0.19128164E-02 -0.29067547E-03
  0.16351155E-02 -0.11679931E-03  0.13229480E-02
  0.37388239E-03  0.10858571E-02 -0.20452593E-02
  0.10349155E-02 -0.29691648E-03  0.20274859E-02
  0.40719123E-02 -0.14636437E-02 -0.16715101E-03
 -0.85560635E-03  0.32948696E-03  0.21827596E-03
  0.91837834E-03 -0.13406193E-02  0.91830385E-03
 -0.36942902E-03 -0.16634403E-03 -0.93788423E-03
  0.22771862E-02  0.12745040E-02  0.12965482E-02
  0.11584746E-02 -0.30922372E-02 -0.65826164E-03
 -0.29374622E-03  0.16987493E-03  0.14803922E-02
 -0.15398781E-02 -0.55157261E-03  0.17597206E-02
  0.14911936E-03 -0.27057888E-02  0.15319981E-02
 -0.13432321E-02  0.24038327E-03  0.85416848E-03
  0.56991637E-03  0.36243901E-03 -0.64875802E-03
 -0.42292548E-03  0.43523056E-03  0.20691525E-02
 -0.23172822E-03  0.31966736E-02  0.26488790E-02
  0.11557840E-02  0.14713400E-02  0.14767297E-02