Sb                                      
   1.00000000000000     
    18.3173007964999961    0.0000000000000000    0.0000000000000000
     0.0000000000000000   18.3173007964999961    0.0000000000000000
     0.0000000000000000    0.0000000000000000   18.3173007964999961
   Sn   Se
   100   100
Direct
  0.5362120554737421  0.0941182646376036  0.9682324460402328
  0.2749804839165133  0.0284201102436873  0.9223239074222411
  0.2909725845271480  0.6862032081456374  0.1439083926945807
  0.7270219849815200  0.1335183160180168  0.8604806820233584
  0.8659949336442058  0.4709766595594935  0.4177340218285080
  0.9596041930696542  0.9801056949543863  0.5595545509313974
  0.7449089714839066  0.6531087334308715  0.5982921450072450
  0.5802849428326159  0.7640645790447034  0.8033371143180018
  0.7590326151866355  0.0900524500411886  0.3209088382394660
  0.0145376929445933  0.8633095005732085  0.0655428858263670
  0.1766191688758907  0.2160215308290740  0.2003842612676514
  0.9689910034202788  0.3539296646621894  0.8024915250117043
  0.3436272846920105  0.8489217539773363  0.5872201400189678
  0.5764519299537696  0.7482744071752259  0.0161669626690105
  0.2713907710402296  0.6368187354334477  0.4044660571879520
  0.8725685477644707  0.2220491383142997  0.4976379029983599
  0.7337220876851057  0.2805232954238486  0.2113379243572834
  0.1318507408207077  0.2341186615275145  0.8577309680673784
  0.9075414873536434  0.9350806683420884  0.2069085177315545
  0.1707605099026813  0.6561481331531263  0.7242477053441184
  0.9801717008164424  0.0389808480589650  0.3645474010908205
  0.9267161598016054  0.9643514385713080  0.8977345624409132
  0.5006396474951167  0.5866049751988266  0.8732872056432833
  0.3190823729367527  0.6830194346222560  0.9521446660103852
  0.6706315990430446  0.4492409137410239  0.5293039380793481
  0.5210425906242998  0.4608710761214633  0.0249177050436850
  0.4759216646597510  0.0001545697988481  0.4354635577086226
  0.2243573889625275  0.8945790963684869  0.0849007154047946
  0.4297306123179703  0.5617029426602146  0.2783571280435669
  0.7856816237827143  0.3182897432210544  0.6717062641526784
  0.5079648850827396  0.6506211718607021  0.1490164772128231
  0.2368104508114722  0.2668947520857291  0.4256974763661199
  0.7083011184728523  0.7611246614081508  0.2266677289805575
  0.4192161317543825  0.3268849194240583  0.6513978497117585
  0.1523539712557400  0.0905078490305096  0.3218876352780774
  0.4101530610243085  0.8422378370765283  0.2764072983664413
  0.1160918682097485  0.6006012214815705  0.5209126526953722
  0.0841967655314114  0.6389583262367865  0.1922701239425418
  0.3356329685211190  0.2455105014326130  0.0244330191571924
  0.1365611859487446  0.8151513814227831  0.8632831261387978
  0.2721260695224980  0.3858152386703574  0.2800913755960216
  0.3935273901024734  0.5130222794073003  0.6894869006342814
  0.1360366634503380  0.6587304380396677  0.9792883083961106
  0.7600731025666633  0.5211373200589449  0.0253800346829717
  0.7756591147459381  0.9110416478623474  0.3813165545431190
  0.1332288262929245  0.2779577898872120  0.6318833598010344
  0.3714738148104538  0.4555964260346970  0.4629250855470582
  0.4231485074259377  0.0184214930127371  0.6952398238560947
  0.3744385712880786  0.7069611941002114  0.7325739601624994
  0.4688739116842440  0.1827767409544852  0.5233107118546505
  0.1495410068123965  0.9510034271763445  0.6783315764640964
  0.9758342084126805  0.2566802029927083  0.9933194649154544
  0.9345852269642713  0.6944518686981639  0.5441539991622472
  0.0601713667926771  0.0692346484588254  0.0730174870282387
  0.2953080810257853  0.0635198670635633  0.1848910887754816
  0.2418675701629940  0.8551560981529762  0.3308380488621530
  0.9354163464776606  0.6699239518964922  0.3533775699514844
  0.1041368979720646  0.3882866200444782  0.1108888932534613
  0.5969654309935000  0.9536184725357197  0.2545725808773015
  0.7303587257992923  0.8162864785438994  0.5526065930391465
  0.0654830387593297  0.8437816464894136  0.3001484841420619
  0.2262050362412964  0.4444108226012135  0.9039584727485699
  0.7718837564194854  0.1004068271000914  0.6950352695603338
  0.3518591812973309  0.8704435607383083  0.8131976637660824
  0.5935360683853820  0.7236330939952389  0.3978115696391629
  0.2972933102541065  0.0032594910574351  0.4369565733910250
  0.6394596882897106  0.9392441971481329  0.7786728591384683
  0.0773002825476596  0.4759271402537103  0.3800532079624930
  0.8955834928861054  0.6942000068562748  0.0619108912528201
  0.8334290420525031  0.8971059616785821  0.7179532072545268
  0.6917693962826897  0.9181115529723222  0.0437412911309361
  0.4362924945020919  0.3173563429081389  0.3050991282900335
  0.8842130756610340  0.4612512233675200  0.1938622577414100
  0.4874538505953821  0.0723333603445783  0.1420140821428768
  0.7626726961860754  0.8071788396796969  0.8940841636338837
  0.5857255298977003  0.1768461828275038  0.6922914780077090
  0.4654790848613851  0.6387900375599589  0.5482630666561190
  0.5592910107133937  0.8825595989083822  0.5721119848966402
  0.9696339652597979  0.2534211590994336  0.2943573085777887
  0.0138641216259292  0.4021690050542062  0.5772305800376710
  0.5378797664391005  0.2567023871439822  0.1203238442595430
  0.6037095035996821  0.4435136717678477  0.2178517365231438
  0.1924571185303121  0.4603681283295470  0.6859013620688974
  0.6554828554494634  0.2830041903396546  0.4246003826186325
  0.7586211437761989  0.5967435843418097  0.3186034803319454
  0.3259796017875426  0.4752942329918270  0.0902884063216576
  0.8778832365704753  0.4992664683854700  0.6605976789665197
  0.9678886575075537  0.7855552660112760  0.7624823646110606
  0.6239267217499868  0.3204355928529908  0.9349853874302204
  0.0953975111234725  0.8123906087620233  0.4808638830483790
  0.6657482639024479  0.0649255232667522  0.4926017744565573
  0.0912145251611832  0.1141879973544750  0.5309051239909105
  0.2729644588575302  0.1580248103375456  0.7312211291909021
  0.7903566469492475  0.3157784139240439  0.9760000610729238
  0.6093595223322337  0.4022520432350048  0.7355296922710137
  0.4320682392432251  0.8923964110821097  0.0002655304207782
  0.7375902857015185  0.5695994062908062  0.8149804546634730
  0.7762966025997435  0.1041233431401930  0.0852654901979351
  0.9446569343364472  0.5196797303039632  0.9148930258256699
  0.9883974788879234  0.1508682885199134  0.7680336531930505
  0.9803921486819246  0.7439619289427644  0.2267182513000462
  0.6113161896056042  0.5561177320379004  0.0975933867659509
  0.1601128473594723  0.7540028258200192  0.1014573520620270
  0.0689564800337458  0.7232795077322611  0.6048127576492583
  0.0165466091752955  0.6045100078622303  0.0563011702926814
  0.5960204545938770  0.3000619250821203  0.2866659992725089
  0.2167992667167502  0.8000376280353120  0.7332629656524865
  0.6695822352850449  0.1706280132399103  0.9974589764665420
  0.9305015380077104  0.2739655124221643  0.6803181033685806
  0.2353857386416325  0.7160739130712943  0.2806633780749901
  0.7179407409023085  0.7709324337077419  0.0737354238938687
  0.8059616006525762  0.3784327966227808  0.5236438597573936
  0.5894519394982725  0.0779314679110032  0.8235907242309822
  0.5600958180313194  0.9212642591696685  0.1088343825906997
  0.9103852157407436  0.0453913755893325  0.6873042960813580
  0.4180753280495076 -0.0027254205411048  0.8784398208161754
  0.4245688213230069  0.5814853577159732  0.0359176377079217
  0.7210433828370584  0.9705980852680727  0.6452146192517140
  0.7466216563241913  0.7647702223194316  0.4062176252750520
  0.8379764498311585  0.6244637053508314  0.9354263712578931
  0.0810864792147102  0.6836939487850541  0.3989014805158419
  0.8918436472799491  0.0831519755695163  0.2481008197718499
  0.8760521328181857  0.0631326826570940  0.4704280740672653
  0.6172817316076211  0.9406789984778188  0.4219647358503265
  0.3526282633901059  0.3931671559099926  0.9665916847497446
  0.2698430883265235  0.1799610952724689  0.8821443965962328
  0.4680787290606058  0.8679570350285932  0.6957926457239776
  0.2837220374080415  0.5329471950684731  0.2729126352290968
  0.8861748896418773  0.4241101389254783  0.0196331675764971
  0.7694528544082632  0.9611384060176607  0.8609098938682443
  0.3269789047876817  0.6367451304489519  0.6013944433884204
  0.3719914002646447  0.0203465908929731  0.0619629479095900
  0.6378227352528802  0.4709031195631580  0.8657720320153973
  0.2039429455756012  0.1295287926378643  0.0831385189365035
  0.7647512021657069  0.4470018470172261  0.2880772778589172
  0.0495576962126707  0.9134199026203884  0.7864445105200086
  0.5015704356881648  0.6175789247394340  0.7208468353336041
  0.5394851734970634  0.0345432565005499  0.5838038778679229
  0.8523069182399099  0.4567090286492945  0.8061006748152971
  0.1931866124057412  0.5261885971109957  0.0283492746963887
  0.9105081679743486  0.9724360699574567  0.0490752550932087
  0.8198171866804292  0.5893524730746199  0.1482782050832065
  0.6022475178051797  0.8656743804974486  0.9242708584013988
  0.2901563004547290  0.1373815424253673  0.3670574895012277
  0.7496883782729199  0.1976772964771544  0.5836081137812317
  0.8476377634944245  0.2375130847337418  0.0902092103781424
  0.0439572191680867  0.4679187010550901  0.7127300909458825
  0.2849401812754155  0.8448729594078662  0.9550203391546581
  0.0670727785424680  0.9428786716631979  0.1937430610928466
  0.7296974960066562  0.7818838150269268  0.7459368921765176
  0.6149618853677131  0.6197249501364600  0.2935487434778029
  0.2916196819564853  0.6107729310637391  0.8210165528098514
  0.4202421208819808  0.6566281902916377  0.3934817475669214
  0.3849050153706684  0.3036230756540075  0.4588105813424891
  0.8734778225426223  0.2447242911305435  0.8776019857211531
  0.0752580354035409  0.2004157131178936  0.3895517879243422
  0.6601923415619300  0.3579146693715259  0.0997908961633866
  0.4807209889988062  0.4526159362452494  0.3608481702940287
  0.0414788123612790  0.1319886152251974  0.9367999793053666
  0.5633693297043494  0.8041356601416255  0.2708916219055478
  0.7903066896925304  0.2297275075096916  0.3694379517022839
  0.2207945923117667  0.1869778533584083  0.5509706655709901
  0.4785585135097304  0.4882658344387658  0.5630637643859412
  0.3097153529950607 -0.0029134329709144  0.5853430609926030
  0.9241921939374566  0.8139665416081860  0.9062219828330301
  0.2330984575309878  0.3167211729185223  0.7334226635819282
  0.1223178330801235  0.3447150300226808  0.9559604002127364
  0.5759195706700576  0.1550711082207545  0.4131703028697291
  0.1471168057176223  0.9984528695322237  0.4485166243887615
  0.3849348676531951  0.8019461880661861  0.1374767988301138
  0.0408016879277154  0.2488616248893656  0.1540523511630579
  0.4472854315282414  0.7340458947329386  0.8968643342146018
  0.2636354322452889  0.9896327990879125  0.7698380421870968
  0.1673170480136168  0.4062622970978195  0.5461796291929296
  0.9377712691829959  0.8914371128224843  0.3647420378299127
  0.1147463275312432  0.9484974431080170  0.9942300264278103
  0.4846665901263466  0.2367090541126103  0.9721888678121847
  0.1275439297283154  0.3863618276783956  0.2748007297876659
  0.4635722020779148  0.3894813935005492  0.1510693082411276
  0.4467636974090854  0.8549239108736608  0.4761735567561817
  0.3868292265781843  0.1851083430227851  0.1779205196466066
  0.6825878903743055  0.1348239955987251  0.1996025977134013
  0.4408440072752412 -0.0123206341868172  0.2709595829919266
  0.9818882006436876  0.5453927026442024  0.2817980233226751
  0.9768378234891982  0.5420554930783394  0.5169361090319887
  0.8749402407883546  0.6497042245370148  0.6750055471478689
  0.4302646222907811  0.1835949987755393  0.7025636464162471
  0.9759833798298161  0.3690961902128146  0.4031053852231580
  0.6312644541089202  0.6603265641849613  0.9034913047330188
  0.5544058040326496  0.2902263344678889  0.5875010661105167
  0.4704098094094462  0.3938158873036572  0.7756662722343407
  0.0596989246310993  0.6797458132447601  0.8229310262439450
  0.7099125016338048  0.5244510082314550  0.6600982554744347
  0.6668953976109163  0.2660844641560263  0.7916079842995822
  0.2445032901056556  0.7954031858969267  0.4656566132761069
  0.2456789575814557  0.3353471859322016  0.1371470498542013
  0.7498207640421221  0.9080706169310551  0.2330791492042076
  0.7234822391686545  0.5774070541291669  0.4703766168004058
  0.1154264774411774  0.1081259482551829  0.6958076834480077
  0.8772663974141098  0.8474927017325868  0.5701067385328211
 
  0.00000000E+00  0.00000000E+00  0.00000000E+00
  0.00000000E+00  0.00000000E+00  0.00000000E+00
  0.00000000E+00  0.00000000E+00  0.00000000E+00
  0.00000000E+00  0.00000000E+00  0.00000000E+00
  0.00000000E+00  0.00000000E+00  0.00000000E+00
  0.00000000E+00  0.00000000E+00  0.00000000E+00
  0.00000000E+00  0.00000000E+00  0.00000000E+00
  0.00000000E+00  0.00000000E+00  0.00000000E+00
  0.00000000E+00  0.00000000E+00  0.00000000E+00
  0.00000000E+00  0.00000000E+00  0.00000000E+00
  0.00000000E+00  0.00000000E+00  0.00000000E+00
  0.00000000E+00  0.00000000E+00  0.00000000E+00
  0.00000000E+00  0.00000000E+00  0.00000000E+00
  0.00000000E+00  0.00000000E+00  0.00000000E+00
  0.00000000E+00  0.00000000E+00  0.00000000E+00
  0.00000000E+00  0.00000000E+00  0.00000000E+00
  0.00000000E+00  0.00000000E+00  0.00000000E+00
  0.00000000E+00  0.00000000E+00  0.00000000E+00
  0.00000000E+00  0.00000000E+00  0.00000000E+00
  0.00000000E+00  0.00000000E+00  0.00000000E+00
  0.00000000E+00  0.00000000E+00  0.00000000E+00
  0.00000000E+00  0.00000000E+00  0.00000000E+00
  0.00000000E+00  0.00000000E+00  0.00000000E+00
  0.00000000E+00  0.00000000E+00  0.00000000E+00
  0.00000000E+00  0.00000000E+00  0.00000000E+00
  0.00000000E+00  0.00000000E+00  0.00000000E+00
  0.00000000E+00  0.00000000E+00  0.00000000E+00
  0.00000000E+00  0.00000000E+00  0.00000000E+00
  0.00000000E+00  0.00000000E+00  0.00000000E+00
  0.00000000E+00  0.00000000E+00  0.00000000E+00
  0.00000000E+00  0.00000000E+00  0.00000000E+00
  0.00000000E+00  0.00000000E+00  0.00000000E+00
  0.00000000E+00  0.00000000E+00  0.00000000E+00
  0.00000000E+00  0.00000000E+00  0.00000000E+00
  0.00000000E+00  0.00000000E+00  0.00000000E+00
  0.00000000E+00  0.00000000E+00  0.00000000E+00
  0.00000000E+00  0.00000000E+00  0.00000000E+00
  0.00000000E+00  0.00000000E+00  0.00000000E+00
  0.00000000E+00  0.00000000E+00  0.00000000E+00
  0.00000000E+00  0.00000000E+00  0.00000000E+00
  0.00000000E+00  0.00000000E+00  0.00000000E+00
  0.00000000E+00  0.00000000E+00  0.00000000E+00
  0.00000000E+00  0.00000000E+00  0.00000000E+00
  0.00000000E+00  0.00000000E+00  0.00000000E+00
  0.00000000E+00  0.00000000E+00  0.00000000E+00
  0.00000000E+00  0.00000000E+00  0.00000000E+00
  0.00000000E+00  0.00000000E+00  0.00000000E+00
  0.00000000E+00  0.00000000E+00  0.00000000E+00
  0.00000000E+00  0.00000000E+00  0.00000000E+00
  0.00000000E+00  0.00000000E+00  0.00000000E+00
  0.00000000E+00  0.00000000E+00  0.00000000E+00
  0.00000000E+00  0.00000000E+00  0.00000000E+00
  0.00000000E+00  0.00000000E+00  0.00000000E+00
  0.00000000E+00  0.00000000E+00  0.00000000E+00
  0.00000000E+00  0.00000000E+00  0.00000000E+00
  0.00000000E+00  0.00000000E+00  0.00000000E+00
  0.00000000E+00  0.00000000E+00  0.00000000E+00
  0.00000000E+00  0.00000000E+00  0.00000000E+00
  0.00000000E+00  0.00000000E+00  0.00000000E+00
  0.00000000E+00  0.00000000E+00  0.00000000E+00
  0.00000000E+00  0.00000000E+00  0.00000000E+00
  0.00000000E+00  0.00000000E+00  0.00000000E+00
  0.00000000E+00  0.00000000E+00  0.00000000E+00
  0.00000000E+00  0.00000000E+00  0.00000000E+00
  0.00000000E+00  0.00000000E+00  0.00000000E+00
  0.00000000E+00  0.00000000E+00  0.00000000E+00
  0.00000000E+00  0.00000000E+00  0.00000000E+00
  0.00000000E+00  0.00000000E+00  0.00000000E+00
  0.00000000E+00  0.00000000E+00  0.00000000E+00
  0.00000000E+00  0.00000000E+00  0.00000000E+00
  0.00000000E+00  0.00000000E+00  0.00000000E+00
  0.00000000E+00  0.00000000E+00  0.00000000E+00
  0.00000000E+00  0.00000000E+00  0.00000000E+00
  0.00000000E+00  0.00000000E+00  0.00000000E+00
  0.00000000E+00  0.00000000E+00  0.00000000E+00
  0.00000000E+00  0.00000000E+00  0.00000000E+00
  0.00000000E+00  0.00000000E+00  0.00000000E+00
  0.00000000E+00  0.00000000E+00  0.00000000E+00
  0.00000000E+00  0.00000000E+00  0.00000000E+00
  0.00000000E+00  0.00000000E+00  0.00000000E+00
  0.00000000E+00  0.00000000E+00  0.00000000E+00
  0.00000000E+00  0.00000000E+00  0.00000000E+00
  0.00000000E+00  0.00000000E+00  0.00000000E+00
  0.00000000E+00  0.00000000E+00  0.00000000E+00
  0.00000000E+00  0.00000000E+00  0.00000000E+00
  0.00000000E+00  0.00000000E+00  0.00000000E+00
  0.00000000E+00  0.00000000E+00  0.00000000E+00
  0.00000000E+00  0.00000000E+00  0.00000000E+00
  0.00000000E+00  0.00000000E+00  0.00000000E+00
  0.00000000E+00  0.00000000E+00  0.00000000E+00
  0.00000000E+00  0.00000000E+00  0.00000000E+00
  0.00000000E+00  0.00000000E+00  0.00000000E+00
  0.00000000E+00  0.00000000E+00  0.00000000E+00
  0.00000000E+00  0.00000000E+00  0.00000000E+00
  0.00000000E+00  0.00000000E+00  0.00000000E+00
  0.00000000E+00  0.00000000E+00  0.00000000E+00
  0.00000000E+00  0.00000000E+00  0.00000000E+00
  0.00000000E+00  0.00000000E+00  0.00000000E+00
  0.00000000E+00  0.00000000E+00  0.00000000E+00
  0.00000000E+00  0.00000000E+00  0.00000000E+00
  0.00000000E+00  0.00000000E+00  0.00000000E+00
  0.00000000E+00  0.00000000E+00  0.00000000E+00
  0.00000000E+00  0.00000000E+00  0.00000000E+00
  0.00000000E+00  0.00000000E+00  0.00000000E+00
  0.00000000E+00  0.00000000E+00  0.00000000E+00
  0.00000000E+00  0.00000000E+00  0.00000000E+00
  0.00000000E+00  0.00000000E+00  0.00000000E+00
  0.00000000E+00  0.00000000E+00  0.00000000E+00
  0.00000000E+00  0.00000000E+00  0.00000000E+00
  0.00000000E+00  0.00000000E+00  0.00000000E+00
  0.00000000E+00  0.00000000E+00  0.00000000E+00
  0.00000000E+00  0.00000000E+00  0.00000000E+00
  0.00000000E+00  0.00000000E+00  0.00000000E+00
  0.00000000E+00  0.00000000E+00  0.00000000E+00
  0.00000000E+00  0.00000000E+00  0.00000000E+00
  0.00000000E+00  0.00000000E+00  0.00000000E+00
  0.00000000E+00  0.00000000E+00  0.00000000E+00
  0.00000000E+00  0.00000000E+00  0.00000000E+00
  0.00000000E+00  0.00000000E+00  0.00000000E+00
  0.00000000E+00  0.00000000E+00  0.00000000E+00
  0.00000000E+00  0.00000000E+00  0.00000000E+00
  0.00000000E+00  0.00000000E+00  0.00000000E+00
  0.00000000E+00  0.00000000E+00  0.00000000E+00
  0.00000000E+00  0.00000000E+00  0.00000000E+00
  0.00000000E+00  0.00000000E+00  0.00000000E+00
  0.00000000E+00  0.00000000E+00  0.00000000E+00
  0.00000000E+00  0.00000000E+00  0.00000000E+00
  0.00000000E+00  0.00000000E+00  0.00000000E+00
  0.00000000E+00  0.00000000E+00  0.00000000E+00
  0.00000000E+00  0.00000000E+00  0.00000000E+00
  0.00000000E+00  0.00000000E+00  0.00000000E+00
  0.00000000E+00  0.00000000E+00  0.00000000E+00
  0.00000000E+00  0.00000000E+00  0.00000000E+00
  0.00000000E+00  0.00000000E+00  0.00000000E+00
  0.00000000E+00  0.00000000E+00  0.00000000E+00
  0.00000000E+00  0.00000000E+00  0.00000000E+00
  0.00000000E+00  0.00000000E+00  0.00000000E+00
  0.00000000E+00  0.00000000E+00  0.00000000E+00
  0.00000000E+00  0.00000000E+00  0.00000000E+00
  0.00000000E+00  0.00000000E+00  0.00000000E+00
  0.00000000E+00  0.00000000E+00  0.00000000E+00
  0.00000000E+00  0.00000000E+00  0.00000000E+00
  0.00000000E+00  0.00000000E+00  0.00000000E+00
  0.00000000E+00  0.00000000E+00  0.00000000E+00
  0.00000000E+00  0.00000000E+00  0.00000000E+00
  0.00000000E+00  0.00000000E+00  0.00000000E+00
  0.00000000E+00  0.00000000E+00  0.00000000E+00
  0.00000000E+00  0.00000000E+00  0.00000000E+00
  0.00000000E+00  0.00000000E+00  0.00000000E+00
  0.00000000E+00  0.00000000E+00  0.00000000E+00
  0.00000000E+00  0.00000000E+00  0.00000000E+00
  0.00000000E+00  0.00000000E+00  0.00000000E+00
  0.00000000E+00  0.00000000E+00  0.00000000E+00
  0.00000000E+00  0.00000000E+00  0.00000000E+00
  0.00000000E+00  0.00000000E+00  0.00000000E+00
  0.00000000E+00  0.00000000E+00  0.00000000E+00
  0.00000000E+00  0.00000000E+00  0.00000000E+00
  0.00000000E+00  0.00000000E+00  0.00000000E+00
  0.00000000E+00  0.00000000E+00  0.00000000E+00
  0.00000000E+00  0.00000000E+00  0.00000000E+00
  0.00000000E+00  0.00000000E+00  0.00000000E+00
  0.00000000E+00  0.00000000E+00  0.00000000E+00
  0.00000000E+00  0.00000000E+00  0.00000000E+00
  0.00000000E+00  0.00000000E+00  0.00000000E+00
  0.00000000E+00  0.00000000E+00  0.00000000E+00
  0.00000000E+00  0.00000000E+00  0.00000000E+00
  0.00000000E+00  0.00000000E+00  0.00000000E+00
  0.00000000E+00  0.00000000E+00  0.00000000E+00
  0.00000000E+00  0.00000000E+00  0.00000000E+00
  0.00000000E+00  0.00000000E+00  0.00000000E+00
  0.00000000E+00  0.00000000E+00  0.00000000E+00
  0.00000000E+00  0.00000000E+00  0.00000000E+00
  0.00000000E+00  0.00000000E+00  0.00000000E+00
  0.00000000E+00  0.00000000E+00  0.00000000E+00
  0.00000000E+00  0.00000000E+00  0.00000000E+00
  0.00000000E+00  0.00000000E+00  0.00000000E+00
  0.00000000E+00  0.00000000E+00  0.00000000E+00
  0.00000000E+00  0.00000000E+00  0.00000000E+00
  0.00000000E+00  0.00000000E+00  0.00000000E+00
  0.00000000E+00  0.00000000E+00  0.00000000E+00
  0.00000000E+00  0.00000000E+00  0.00000000E+00
  0.00000000E+00  0.00000000E+00  0.00000000E+00
  0.00000000E+00  0.00000000E+00  0.00000000E+00
  0.00000000E+00  0.00000000E+00  0.00000000E+00
  0.00000000E+00  0.00000000E+00  0.00000000E+00
  0.00000000E+00  0.00000000E+00  0.00000000E+00
  0.00000000E+00  0.00000000E+00  0.00000000E+00
  0.00000000E+00  0.00000000E+00  0.00000000E+00
  0.00000000E+00  0.00000000E+00  0.00000000E+00
  0.00000000E+00  0.00000000E+00  0.00000000E+00
  0.00000000E+00  0.00000000E+00  0.00000000E+00
  0.00000000E+00  0.00000000E+00  0.00000000E+00
  0.00000000E+00  0.00000000E+00  0.00000000E+00
  0.00000000E+00  0.00000000E+00  0.00000000E+00
  0.00000000E+00  0.00000000E+00  0.00000000E+00
  0.00000000E+00  0.00000000E+00  0.00000000E+00
  0.00000000E+00  0.00000000E+00  0.00000000E+00
  0.00000000E+00  0.00000000E+00  0.00000000E+00
  0.00000000E+00  0.00000000E+00  0.00000000E+00
  0.00000000E+00  0.00000000E+00  0.00000000E+00
