Bi6 Se9                                 
   1.00000000000000     
     2.0940739662316390   -3.6270425043204710   -0.0000000000000001
     2.0940739662316399    3.6270425043204710    0.0000000000000001
    -0.0000000000000002    0.0000000000000005   31.3112986821517296
   Bi   Se
     6     9
Direct
  0.3333333333333357  0.6666666666666643  0.0621875371643616
  0.3333333333333357  0.6666666666666643  0.2711457961689670
  0.0000000000000000  0.0000000000000000  0.3955208704976973
  0.0000000000000000  0.0000000000000000  0.6044791295023029
  0.6666666666666643  0.3333333333333357  0.7288542038310328
  0.6666666666666643  0.3333333333333357  0.9378124628356386
  0.0000000000000000  0.0000000000000000  0.0000000000000000
  0.6666666666666643  0.3333333333333357  0.1121918124291191
  0.0000000000000000  0.0000000000000000  0.2211415209042094
  0.6666666666666643  0.3333333333333357  0.3333333333333357
  0.3333333333333357  0.6666666666666643  0.4455251457624550
  0.6666666666666643  0.3333333333333357  0.5544748542375456
  0.3333333333333357  0.6666666666666643  0.6666666666666643
  0.0000000000000000  0.0000000000000000  0.7788584790957901
  0.3333333333333357  0.6666666666666643  0.8878081875708813
 
  0.00000000E+00  0.00000000E+00  0.00000000E+00
  0.00000000E+00  0.00000000E+00  0.00000000E+00
  0.00000000E+00  0.00000000E+00  0.00000000E+00
  0.00000000E+00  0.00000000E+00  0.00000000E+00
  0.00000000E+00  0.00000000E+00  0.00000000E+00
  0.00000000E+00  0.00000000E+00  0.00000000E+00
  0.00000000E+00  0.00000000E+00  0.00000000E+00
  0.00000000E+00  0.00000000E+00  0.00000000E+00
  0.00000000E+00  0.00000000E+00  0.00000000E+00
  0.00000000E+00  0.00000000E+00  0.00000000E+00
  0.00000000E+00  0.00000000E+00  0.00000000E+00
  0.00000000E+00  0.00000000E+00  0.00000000E+00
  0.00000000E+00  0.00000000E+00  0.00000000E+00
  0.00000000E+00  0.00000000E+00  0.00000000E+00
  0.00000000E+00  0.00000000E+00  0.00000000E+00
