K4 Bi4 Se8                              
   1.00000000000000     
     6.3432545757912315    0.0000000000000000    0.0000000000000004
     0.0000000000000011    6.3432545757912315    0.0000000000000004
     0.0000000000000000    0.0000000000000000   12.6040782233666508
   K    Bi   Se
     4     4     8
Direct
  0.0000000000000000  0.0000000000000000  0.0000000000000000
  0.0000000000000000  0.5000000000000000  0.2500000000000000
  0.5000000000000000  0.5000000000000000  0.5000000000000000
  0.5000000000000000  0.0000000000000000  0.7500000000000000
  0.5000000000000000  0.5000000000000000  0.0000000000000000
  0.5000000000000000  0.0000000000000000  0.2500000000000000
  0.0000000000000000  0.0000000000000000  0.5000000000000000
  0.0000000000000000  0.5000000000000000  0.7500000000000000
  0.5000000000000000  0.5000000000000000  0.2247585220147010
  0.5000000000000000  0.0000000000000000  0.4747585220147010
  0.0000000000000000  0.0000000000000000  0.2752414779852990
  0.5000000000000000  0.0000000000000000  0.0252414779852990
  0.0000000000000000  0.0000000000000000  0.7247585220147008
  0.0000000000000000  0.5000000000000000  0.9747585220147008
  0.5000000000000000  0.5000000000000000  0.7752414779852992
  0.0000000000000000  0.5000000000000000  0.5252414779852992
 
  0.00000000E+00  0.00000000E+00  0.00000000E+00
  0.00000000E+00  0.00000000E+00  0.00000000E+00
  0.00000000E+00  0.00000000E+00  0.00000000E+00
  0.00000000E+00  0.00000000E+00  0.00000000E+00
  0.00000000E+00  0.00000000E+00  0.00000000E+00
  0.00000000E+00  0.00000000E+00  0.00000000E+00
  0.00000000E+00  0.00000000E+00  0.00000000E+00
  0.00000000E+00  0.00000000E+00  0.00000000E+00
  0.00000000E+00  0.00000000E+00  0.00000000E+00
  0.00000000E+00  0.00000000E+00  0.00000000E+00
  0.00000000E+00  0.00000000E+00  0.00000000E+00
  0.00000000E+00  0.00000000E+00  0.00000000E+00
  0.00000000E+00  0.00000000E+00  0.00000000E+00
  0.00000000E+00  0.00000000E+00  0.00000000E+00
  0.00000000E+00  0.00000000E+00  0.00000000E+00
  0.00000000E+00  0.00000000E+00  0.00000000E+00
