Sb8 Se12                                
   1.00000000000000     
     4.0299370000000003    0.0000000000000000    0.0000000000000002
     0.0000000000000019   11.5414270000000005    0.0000000000000007
     0.0000000000000000    0.0000000000000000   12.8429459999999995
   Sb   Se
     8    12
Direct
  0.7500000000000000  0.0371323127716610  0.1348688167540479
  0.2500000000000000  0.9628676872283390  0.8651311832459516
  0.2500000000000000  0.5371323127716610  0.3651311832459521
  0.7500000000000000  0.4628676872283390  0.6348688167540484
  0.2500000000000000  0.3327323704022722  0.0428065728373172
  0.7500000000000000  0.6672676295977285  0.9571934271626827
  0.7500000000000000  0.8327323704022715  0.4571934271626827
  0.2500000000000000  0.1672676295977281  0.5428065728373173
  0.7500000000000000  0.1353616084301854  0.9509552216157144
  0.2500000000000000  0.8646383915698145  0.0490447783842855
  0.2500000000000000  0.6353616084301855  0.5490447783842856
  0.7500000000000000  0.3646383915698146  0.4509552216157142
  0.2500000000000000  0.1840218765910530  0.2054235561317952
  0.7500000000000000  0.8159781234089470  0.7945764438682044
  0.7500000000000000  0.6840218765910530  0.2945764438682046
  0.2500000000000000  0.3159781234089472  0.7054235561317956
  0.7500000000000000  0.0493053899754094  0.6315871843109159
  0.2500000000000000  0.9506946100245907  0.3684128156890841
  0.2500000000000000  0.5493053899754093  0.8684128156890841
  0.7500000000000000  0.4506946100245905  0.1315871843109160
 
  0.00000000E+00  0.00000000E+00  0.00000000E+00
  0.00000000E+00  0.00000000E+00  0.00000000E+00
  0.00000000E+00  0.00000000E+00  0.00000000E+00
  0.00000000E+00  0.00000000E+00  0.00000000E+00
  0.00000000E+00  0.00000000E+00  0.00000000E+00
  0.00000000E+00  0.00000000E+00  0.00000000E+00
  0.00000000E+00  0.00000000E+00  0.00000000E+00
  0.00000000E+00  0.00000000E+00  0.00000000E+00
  0.00000000E+00  0.00000000E+00  0.00000000E+00
  0.00000000E+00  0.00000000E+00  0.00000000E+00
  0.00000000E+00  0.00000000E+00  0.00000000E+00
  0.00000000E+00  0.00000000E+00  0.00000000E+00
  0.00000000E+00  0.00000000E+00  0.00000000E+00
  0.00000000E+00  0.00000000E+00  0.00000000E+00
  0.00000000E+00  0.00000000E+00  0.00000000E+00
  0.00000000E+00  0.00000000E+00  0.00000000E+00
  0.00000000E+00  0.00000000E+00  0.00000000E+00
  0.00000000E+00  0.00000000E+00  0.00000000E+00
  0.00000000E+00  0.00000000E+00  0.00000000E+00
  0.00000000E+00  0.00000000E+00  0.00000000E+00
