Amorphous Sb                            
   1.00000000000000     
    19.3671579077798057    0.0000000000000000    0.0000000000000000
     0.0000000000000000   19.3671579077798057    0.0000000000000000
     0.0000000000000000    0.0000000000000000   19.3671579077798057
   Zn   Sb
    45   255
Direct
  0.2643721342203299  0.1417930731660444  0.4331201784376565
  0.5138117712438716  0.6290392505715837  0.0926146132379359
  0.6710299519528216  0.9506542508953382  0.0847130355085616
  0.5726962256931791  0.2051032170847309  0.0267336304110913
  0.1179703848649941  0.4067012967281627  0.8163262747158999
  0.8557007812385005  0.4320326741413082  0.2674693218987614
  0.9428669101803087  0.2636580250147678  0.9623787759063016
  0.4405011479548153  0.1889204653781963  0.1548751553253184
  0.7131834136542944  0.3596995132128161  0.7549073722276536
  0.2865398216915134  0.7794257563347758  0.2247866249554394
  0.4504226768485774  0.0064525108187197  0.2127999483161581
  0.4778614704512800  0.2542691309626598  0.3898824876509656
  0.5736556422381157  0.9944460603030931  0.4453002656638526
  0.7713966223445962  0.2658549626159867  0.3098015610393520
  0.0091225922464854  0.5407768612364139  0.7031744613027132
  0.6853188218109201  0.9899842850354430  0.5218871858827362
  0.0657344387911087  0.1674814948256982  0.4781584733310527
  0.3297873321629990  0.8806211291679403  0.6065831568531047
  0.6586687296983108  0.1380917256367921  0.6916607915660913
  0.7471858987934472  0.2508476043051424  0.1374383715286766
  0.6283090113551341  0.6700328581889087  0.1535375932733318
  0.5492681955265867  0.7566628133221995  0.9591020205334219
  0.3006160567985970  0.8266601336315428  0.9191670487612126
  0.9943669014888977  0.3049106508667829  0.0777474654088288
  0.8936318277272564  0.8488389604853283  0.5822710597379901
  0.4335821100068023  0.3731262900441327  0.3718131303731685
  0.5584073419939855  0.5520303622980050  0.6867061623934927
  0.7968282162068566  0.8983161496039783  0.1186893781083378
  0.5935983921736734  0.9002861044109381  0.7795278542122698
  0.4899118042631012  0.7983663428806119  0.8236604128102504
  0.1191363611143571  0.3909789164304769  0.6731019674373875
  0.0038098547580799  0.1298152905191436  0.5919926682485807
  0.7847606486429942  0.8509184223686016  0.9400286227304946
  0.2278930338600895  0.5619577325154468  0.9992343364023373
  0.6517116228200059  0.7985385448650989  0.6061551383550906
  0.1368248212807426  0.6519768605051026  0.5403635333311742
  0.0567826859513080  0.3613254322259939  0.9730353869418803
  0.9375259955738044  0.1686907443097592  0.4850580928046504
  0.8319422427000484  0.4568989286179820  0.5130242735274275
  0.3702881113424352  0.5073360943082649  0.2267080478559149
  0.7037720235841737  0.7414071213613620  0.7858541558371183
  0.0581928113752909  0.0686153685965196  0.1426759586056471
  0.3711975442963492  0.9137614169054501  0.4227588032769532
  0.6192583029047241  0.7343173092665356  0.2858338610067171
  0.0250813649587434  0.8275839995786062  0.0995990393411254
  0.3026718456113588  0.0007815129866217  0.6830578432960340
  0.5366754485712039  0.0930157091372052  0.8158032459423884
  0.5495071943892114  0.9138198342353796  0.1547855949135837
  0.4025493892485609  0.4726382090447948  0.0142075512813158
  0.1474545154728193  0.9970754062357096  0.2633429262771068
  0.8518174341308092  0.0743631190650855  0.5492982664527905
  0.9721859274135859  0.7072117639055806  0.9356925561297256
  0.8930048774105008  0.5504264855621012  0.3371597170565704
  0.6978793647400440  0.2222002625733774  0.8070748988241970
  0.5787583486870446  0.3415494422489316  0.4350517817893910
  0.2767974396438314  0.5015386943961391  0.1181409948600897
  0.6681953569096324  0.6723900475400542  0.9912351725862064
  0.6391447741560737  0.3773946557871521  0.8857096364381488
  0.5823036369555996  0.0184970716598146  0.6779794844793886
  0.8867446163270847  0.0182436766995041  0.2820829119113945
  0.9067331587415675  0.8846156683129031  0.0093179288439593
  0.8562559562070340  0.3596412690879803  0.0616649153917931
  0.6373511138606380  0.6640266539333299  0.6806904763714764
  0.2765928330003328  0.9287125063163334  0.0094541683504116
  0.9329778943270249  0.2098547363700387  0.8455521228408447
  0.0042715025731606  0.5808036718504521  0.0153451760718987
  0.6621478738731704  0.3449870032309565  0.2924742113070822
  0.3165322143609792  0.6290900946085027  0.2927252617550565
  0.2352512020582306  0.4215116181560723  0.8888486188993906
  0.0108325651613436  0.1226826398556325  0.2724047913243120
  0.6671806326601163  0.5411789488732185  0.5617107469438835
  0.8506429695628699  0.7047483113783376  0.2702798779213885
  0.4428922629842481  0.2645085142425236  0.0426149819278943
  0.2181127383453661  0.3687237547577504  0.0722488482476784
  0.3872420490810290  0.6572377360417244  0.4620275611000375
  0.4711323690555600  0.6373380405821967  0.9429906856143589
  0.6012350058108266  0.1921318865603807  0.3645023364463587
  0.8965559510480174  0.8296191989121329  0.1628314756752434
  0.4273659939387634  0.8173669068614432  0.9608324344784300
  0.9136928433081649  0.2121256066425194  0.3533205803829657
  0.6756428653739625  0.5052707178927801  0.1382779089548926
  0.4336619754705005  0.9779407885746051  0.5492164936489542
  0.8622567988199631  0.5707008099863872  0.6259952540464088
  0.4490189285571797  0.6605393457755372  0.2244604395715800
  0.5162094588719075  0.6772208937350674  0.3771579411650005
  0.2356649868296047  0.6913882250369698  0.7565722804062873
  0.1467131771574623  0.6255826958161029  0.2849370760014636
  0.4106594204969381  0.0630777003692707  0.4189270750517612
  0.5709293369791064  0.2558534256329588  0.5708041484477275
  0.1236863873083001  0.2735454784783358  0.8891288476226690
  0.9924115610790828  0.3541828705227362  0.8091414158499599
  0.9970592431746463  0.8062993680909097  0.2929469425251542
  0.1572180374759600  0.1531656224859472  0.3179326062536258
  0.7393711737081057  0.4588564703827725  0.3678649797176914
  0.7704056657188224  0.9834812932425003  0.9778481672923548
  0.7883021324839212  0.4165844903982442  0.8650359819603227
  0.8731470023768005  0.0228998118875766  0.1122625321344904
  0.4516967640851022  0.9489844731162264  0.8544660620867002
  0.2376097966560160  0.7888340033852521  0.5160957540535528
  0.9416079231668039  0.8353211220446387  0.4336485691581453
  0.9268030003509032  0.6611272583640139  0.5225004555443825
  0.2449517626334420  0.6641061109856898  0.1652002184238756
  0.5516933542774128  0.3641903469937279  0.7567143861859897
  0.7274261534453836  0.1583520421064819  0.2464443973206289
  0.9973345486544717  0.3979194364551676  0.2808836528973810
  0.0124411168184149  0.5646401998244152  0.2426424003834290
  0.4516257820178132  0.9258202008944374  0.6949448620985247
  0.8673566822063454  0.5119747424676808  0.1519359888680852
  0.4423217993491980  0.3466003393738301  0.8507709137008314
  0.1006052363569445  0.0590841698070388  0.8077684861550505
  0.7706081497578211  0.0818443512897599  0.7658979747858791
  0.8183860229468225  0.7413983869302642  0.4167437628553429
  0.2297283559805048  0.8040302977125409  0.0768654247350580
  0.0599719873381939  0.7252979460009124  0.8242875638976263
  0.3970741542111927  0.3758998603133357  0.1416040252713614
  0.7481316779118189  0.5726392333235419  0.2625446973070650
  0.1945590492997121  0.2599609234103795  0.4666457209133594
  0.3185043508279126  0.3902985331668961  0.7614655728836243
  0.7686079828409540  0.6132488758203704  0.7470242874427074
  0.8709106060798961  0.1461024891832723  0.1999997655121614
  0.1480933250783131  0.7644835333112899  0.3481925508760226
  0.4931475722307643  0.9463570610812411  0.3517149972277463
  0.1904318708242309  0.3001634554748229  0.7385475943111079
  0.4005521925650431  0.2182869342987188  0.4981091311950528
  0.9609362156588768  0.9730102775304061  0.5398655905758383
  0.6556457680784614  0.0045270524177361  0.8580703371986617
  0.8017892244694901  0.5791325425115850  0.4607376538318134
  0.5531667139716926  0.2145433202512954  0.7259889631356625
  0.4067829117008659  0.1843440898492299  0.9091612647707730
  0.8625836238032838  0.2753745030312578  0.5340801797161379
  0.3148521322509423  0.5540305456530585  0.8777401616154791
  0.6001737156198277  0.5118393623725543  0.8227332134400792
  0.7335840789245012  0.5605501462399328  0.8864453249261025
  0.7649200121750187  0.6285860981882181  0.0963000999387608
  0.7095466499782950  0.4731137747561546  0.6947082343026311
  0.3621350161713995  0.5292750962801741  0.5745233699558999
  0.4333853627529108  0.7030494872421451  0.6375092978042840
  0.9918990882284007  0.9494485001272308  0.1988933495977004
  0.1590538499079517  0.9566636189592918  0.9274543486580312
  0.1267050348578163  0.6627248754359657  0.0478670254504404
  0.0948687259089774  0.9475149486127266  0.0698643005855759
  0.2416950149796509  0.1363341965984644  0.7282893263576822
  0.7020086502646856  0.3118365054462912  0.6313105518046576
  0.1111032797762362  0.9027411046444180  0.5550222600495812
  0.3723656945242454  0.0384913965528673  0.9443403152510034
  0.8795705723479614  0.2936528598731055  0.2155580701401643
  0.5765362102818680  0.9414917730183175  0.9725379097893466
  0.8236572425134800  0.1669194990827336  0.0501396386785410
  0.9860231232725737  0.0393399866469710  0.4027447282757726
  0.6791573041415702  0.8275398124988297  0.4045738513015177
  0.0775154873032746  0.9219180339936506  0.3915080447217721
  0.3725639070602051  0.7928967863422973  0.3391667193916165
  0.0150376401284188  0.8586857513410996  0.7299131459974150
  0.5784278015336248  0.6663868788615173  0.8370722151658707
  0.7679388024212600  0.8630639656865409  0.5339893049328629
  0.2776597182410224  0.2395493522038201  0.6208746987887850
  0.4491083944928144  0.6165601183170082  0.7577764753094700
  0.0042177447688023  0.4432425835393010  0.1062687775534209
  0.2966380130571535  0.9418232049813147  0.8255899906717522
  0.5693380807859115  0.3826913826134695  0.1357242450288388
  0.0741857068366385  0.7259239320977621  0.1849063725728342
  0.4438831495759697  0.4697646739094840  0.6942476837295165
  0.9901621346087432  0.4075995347744731  0.6413742500908517
  0.1706882765562820  0.8088758179741588  0.6589717792013963
  0.4485953443304977  0.4987711734636844  0.8624043378413917
  0.1812458043588823  0.8062575222109830  0.8423049020131013
  0.9020365260582668  0.9461496927081549  0.6955132898919977
  0.1209589620208757  0.5352261445886801  0.1329473987887360
  0.6008533835186113  0.2273745459251498  0.1633815785160422
  0.7956313255030086  0.1842460421765032  0.6488455185189530
  0.4191659148797796  0.5220793479987473  0.3673198933452361
  0.8538075447818674  0.5490808169110010  0.9967447253508755
  0.8923213652302332  0.6088594815850493  0.8481063745766958
  0.4836013275613693  0.5111457521720245  0.1483725682988439
  0.9009282984488417  0.4658572296164392  0.7619395032898290
  0.5723520106680449  0.9173980995450705  0.5643470872078566
  0.1314704364989308  0.2492071043858031  0.0421163122675664
  0.3854785348156911  0.7769895651078516  0.1127153797990638
  0.6404202709533552  0.8805084158107511  0.2703445931011059
  0.9994476602110330  0.6661539495798897  0.3660494234277138
  0.4727779393555560  0.4476525743371381  0.4953526144664733
  0.0522320680196827  0.2725416863697280  0.3695139787230498
  0.0223469832371661  0.5215463689667696  0.8589399362601783
  0.2828355883215756  0.6670602382805408  0.5945625948067361
  0.2924102197169635  0.3953861960003000  0.6040406074965177
  0.0788047634412171  0.7664099831481600  0.4800765162809847
  0.1579431651256721  0.1594769977273108  0.1664172749181810
  0.7960203721105871  0.2672628903535948  0.9284924192096143
  0.1694369769299575  0.8504596918036574  0.2084376460660562
  0.3198762004206420  0.1025485633252198  0.5578557065441414
  0.3137761902280382  0.3515683080691371  0.4580362164959242
  0.2427501494147401  0.6447175253519438  0.4304480524802643
  0.9556777536144326  0.0198064111485415  0.8361356755425589
  0.5281084948697291  0.3947040798988525  0.9916221697714027
  0.1919923446233988  0.3018447304525776  0.3061246433307593
  0.0087760705888685  0.8873479622095531  0.8837374693010994
  0.1748035894726057  0.0875063283649782  0.0168873346861831
  0.1125913864984294  0.4398829203202946  0.3775184283296841
  0.8385780506722572  0.9563503071265806  0.4270894009936322
  0.7283308910406987  0.2384307970040346  0.4491177358834877
  0.0259718347942971  0.5340918273018873  0.5611017651044780
  0.5180997636915160  0.0864002532492460  0.9796336217439879
  0.1104570510255004  0.6557495991875877  0.6726442381093486
  0.0505237245161132  0.0187322457591985  0.6582335101068092
  0.4477532438983606  0.1350114425604560  0.2878327142382919
  0.2659623990446677  0.4968086594033618  0.4232082055182974
  0.2531696490412212  0.9667698538664270  0.5171584881247799
  0.9948652582265695  0.7639740012582897  0.6086681186835468
  0.1034443964618165  0.5772498849727212  0.4256614661130720
  0.1729996149088776  0.0836884494402017  0.5992762338554274
  0.9191691268942369  0.1032242551792445  0.7039948562721171
  0.3911497738220736  0.0955927163617423  0.7641962183194286
  0.8461809168239334  0.3506143191527151  0.3946231474372044
  0.3971839619773100  0.7986033651596831  0.5123015035740419
  0.2868642173994800  0.1987309439827218  0.0269760481326330
  0.4166734923200506  0.9275789341983610  0.0717509210112908
  0.5293142577503254  0.7976871159803837  0.6900390221604391
  0.7854134276393445  0.1188821308144143  0.3906114971780140
  0.2392452356590966  0.8787195973159915  0.3850570743982971
  0.9349537618133826  0.4173127938050633  0.9425090474167070
  0.0800844378215506  0.1993969161928520  0.7463887164691897
  0.7029318963904809  0.3990107261170921  0.5050502779398098
  0.3390400538011253  0.8251998721206741  0.7320175103905945
  0.9839870994757014  0.0226878225111765  0.9918242693369567
  0.8208137746407401  0.8701995212659903  0.2987547798519354
  0.3714546022857438  0.7176701741125372  0.8486488323870740
  0.1883053521350111  0.5209281727336311  0.5957220807253372
  0.5084924783979451  0.6089897359792881  0.5586160971481071
  0.3671665244213048  0.0842763851751196  0.0891843967511753
  0.5990216789928406  0.0577378251158127  0.2813783285642746
  0.1719247179040053  0.9335197146111825  0.7462315968631287
  0.5401444038789958  0.4368809612275990  0.2873539096236033
  0.4964399948396093  0.8024605619303546  0.2569314593723449
  0.5554830007803593  0.2451847902334857  0.8863062202551178
  0.3999747981618568  0.2516781469568298  0.7184820200484202
  0.7532455529643285  0.9796699273204029  0.6350062855427103
  0.5909928244057746  0.5292970708491118  0.4214986959358378
  0.6967981990059477  0.9957821106295115  0.3792837494199415
  0.7548643578025774  0.3802827075095657  0.1851244645025700
  0.6177472902100116  0.6982171682920538  0.5138515056335484
  0.8325374787503711  0.7670256266813302  0.6853835385447273
  0.7091339397120451  0.8558713237405722  0.7177450903114648
  0.8913623077991076  0.8017563159839571  0.8314904499498360
  0.3497317049859666  0.9184905178594851  0.2224848020527616
  0.8089672448618510  0.9297656353898288  0.8213860768085894
  0.5543324445605435  0.7685666655487463  0.0968213613378686
  0.5874639793441626  0.5340714913854741  0.0089628018207767
  0.3136154020332005  0.5524560434127646  0.7294579893526152
  0.0580061567443070  0.1460648573464282  0.9321945624864552
  0.1260931933312429  0.4752482971628634  0.9819253701903508
  0.8509077129950461  0.7407207868967496  0.0388991771504502
  0.1586988906897362  0.5099107383742060  0.7422831453968806
  0.6491102466976619  0.8286218455499541  0.8924269869693527
  0.5434303151342458  0.1251151775502120  0.4849547646075794
  0.9360166628524469  0.6639773711049848  0.1427159248168741
  0.1411729226758505  0.3922474402250890  0.5294578109476564
  0.4683068395264617  0.1133243336574919  0.6329989434797099
  0.0416374119697783  0.2505222529897621  0.1979506736359011
  0.8397422780299558  0.2901947707045202  0.7527153699116280
  0.4410641301916850  0.3251702256145287  0.5936528491090811
  0.3268530134662722  0.3432181958100801  0.9727063229717768
  0.2850741417458021  0.2687737659763693  0.1654775496588363
  0.2350873366989454  0.0894775290006349  0.8778412905078037
  0.2648236025626548  0.6969931999444878  0.9598129860010054
  0.9630781094128751  0.4600981039185552  0.4473315906267570
  0.7392232516303672  0.9954588107765762  0.2095899110391133
  0.5854454746128722  0.5769836048172388  0.2529509802509813
  0.7010527955616347  0.8120818159989944  0.0587523477185153
  0.2767798559566146  0.2403796267942208  0.8593092732319624
  0.4766518711045865  0.2937217034339630  0.2429850417837322
  0.6920775096370119  0.0922787623558116  0.0977764378377135
  0.6928250298397010  0.1264140390242394  0.5492390400716008
  0.6900234370086765  0.6522481980298173  0.3823260193549660
  0.9789839966850590  0.1623599685196935  0.0685160992297797
  0.7275863125671925  0.7643454322776448  0.2027557906559326
  0.0046029247901858  0.3266706813074459  0.5022295105070467
  0.6775211563088657  0.1353091537984071  0.9476905006126987
  0.1193195675487795  0.3841846640531158  0.1931218529647055
  0.1545407199521263  0.0510545481304163  0.4389836304875396
  0.3332171748377565  0.2261327744206959  0.3480536773299966
  0.6782787478331458  0.3050009438857136  0.0238894332761022
  0.7737983418078720  0.6915401792054997  0.5750755279062475
  0.9563243951727639  0.2502154293326765  0.6633866909904540
  0.0973293076040327  0.7976407511936455  0.9786409235241207
  0.1501647247493547  0.5987781736263406  0.8676163769447717
  0.8399943886486237  0.0968959235071611  0.9042518849722402
  0.3134807088424705  0.1209228667795265  0.2309165672459903
  0.5413949829042030  0.8248222394465091  0.4495444352691221
  0.2204548068399217  0.4883217868647394  0.2755488168279787
  0.3278008969682190  0.3831574461546410  0.2873161135143454
  0.5856574153617955  0.4288702069342383  0.6095792031076771
  0.3658268217675431  0.6268504592717025  0.0603554133597644
  0.8373464301013415  0.3990791856960998  0.6279857906367770
  0.7355305876830048  0.4533256581058127  0.0098960269834050
  0.2930522217642614  0.0117094134452830  0.3274235672049478
  0.2444979748211305  0.0032715854012800  0.1352128626237639
  0.1143816380349930  0.2340837019086391  0.5980808558178891
  0.5426805571744440  0.0807132734203284  0.1324767701301948
  0.7835426121247538  0.7089624438983252  0.8983100225378914
  0.9525987072930798  0.6701002249310072  0.7185416716327010
 
  0.13040352E-02 -0.22158098E-02  0.31057085E-02
 -0.18963717E-02  0.12232591E-03 -0.12358478E-02
 -0.29811861E-02  0.30185201E-03 -0.55380430E-03
  0.45558905E-02 -0.14272248E-02 -0.24317482E-02
  0.11741948E-02 -0.34071810E-02 -0.14075108E-02
  0.95564508E-03 -0.90622372E-03  0.21074172E-02
 -0.17666203E-02 -0.91521868E-03  0.34222681E-02
 -0.73635288E-03  0.43048420E-03 -0.11272832E-02
  0.19327109E-02  0.54930687E-03 -0.36762691E-02
  0.24947994E-02  0.41348299E-02  0.27624717E-02
 -0.57904016E-03  0.12734925E-02  0.25234563E-02
 -0.15677565E-02  0.15100696E-02  0.53144316E-02
  0.11505663E-04  0.27675150E-03  0.11137729E-02
  0.62914776E-03 -0.27711541E-02 -0.32540626E-02
 -0.16681263E-02 -0.75411091E-04 -0.44759294E-03
 -0.45040667E-03  0.33633349E-02  0.21007205E-02
 -0.15415472E-02 -0.40679146E-02 -0.10783853E-02
  0.84985664E-03 -0.20120785E-02 -0.13645597E-02
  0.68129471E-03  0.97808094E-03 -0.74413519E-03
 -0.21457637E-02 -0.32404641E-02  0.35625205E-02
  0.11834759E-02 -0.24937070E-02  0.10533565E-02
  0.12206632E-02  0.30939389E-02 -0.39099887E-02
 -0.37858680E-02 -0.70125856E-03  0.22421635E-02
 -0.18617859E-02  0.13385557E-02  0.66164914E-03
  0.47399797E-02 -0.19178244E-02 -0.17488847E-02
  0.10873761E-02 -0.12792503E-02 -0.18651942E-02
  0.13761534E-02  0.12477565E-02 -0.16739329E-02
  0.15865883E-02 -0.19302006E-02  0.11212137E-02
  0.21167658E-03 -0.24963154E-02 -0.72191046E-03
  0.18687953E-02  0.52549757E-03 -0.18365012E-02
  0.38425614E-03  0.13178872E-02 -0.37596364E-02
  0.99551161E-03 -0.35511382E-03 -0.12104398E-02
 -0.18213316E-02 -0.11218572E-02  0.24909693E-03
  0.10655009E-02 -0.82575951E-03  0.14632998E-02
  0.30456715E-02 -0.24678639E-03  0.21017749E-02
  0.73444463E-03 -0.21256089E-02  0.16730483E-02
 -0.29814896E-02 -0.48936391E-03 -0.15816584E-02
 -0.78319952E-02 -0.15829494E-02  0.24827909E-02
  0.37745053E-02 -0.57387163E-03 -0.46296008E-03
 -0.42683732E-04  0.15145284E-03 -0.12405685E-02
 -0.44929273E-03 -0.23607962E-02 -0.14409308E-02
 -0.21279874E-02 -0.16810931E-02  0.64829663E-03
  0.54519197E-03 -0.12316292E-02  0.27949763E-03
 -0.23163533E-02  0.19889125E-02  0.18445826E-02
  0.16680401E-02 -0.11236885E-02 -0.64679837E-03
 -0.37454111E-03 -0.10959379E-02 -0.84978237E-03
  0.16984275E-02 -0.31661950E-02 -0.11263321E-03
 -0.21966089E-02  0.75641755E-03  0.36078352E-02
  0.15100287E-02 -0.35901876E-02 -0.10159593E-02
  0.80386375E-03  0.32082495E-02  0.59238386E-04
 -0.44793277E-02 -0.64500261E-03 -0.13127874E-02
 -0.12202655E-02  0.19323610E-02  0.14793153E-02
 -0.73731936E-03 -0.23583086E-02 -0.79066179E-03
  0.17306581E-02  0.20770896E-03  0.46621323E-03
 -0.46285236E-03 -0.13623939E-02  0.18518249E-02
 -0.10874495E-02  0.10446545E-02  0.44940978E-03
 -0.60237842E-03 -0.26766000E-02 -0.16592534E-02
 -0.19542141E-02  0.16670580E-03  0.13392958E-02
 -0.27922392E-03  0.48196382E-03 -0.15322507E-02
 -0.39899089E-05  0.18671302E-02  0.13981311E-03
  0.36837154E-03 -0.12934990E-02  0.16965667E-02
  0.30497515E-03  0.65932538E-03  0.10079295E-02
  0.11910514E-03  0.13936077E-02 -0.45669714E-03
 -0.11424370E-02  0.11308347E-02  0.16179080E-02
 -0.25490738E-03  0.12055705E-02  0.12587750E-02
 -0.14834044E-02 -0.12054171E-02  0.33604421E-03
  0.22675196E-02 -0.71817179E-03 -0.76532118E-04
  0.77325921E-03 -0.11002771E-04 -0.66082911E-03
  0.19026175E-02  0.64671691E-03  0.71363147E-03
 -0.33836281E-03  0.22969859E-02  0.28999080E-02
  0.88735725E-03 -0.30012618E-02 -0.88693881E-03
 -0.41787416E-03 -0.25156045E-02  0.15823934E-03
  0.27047872E-02  0.83748033E-03 -0.33838977E-02
 -0.14260461E-02 -0.86395516E-04  0.23213772E-03
  0.31484600E-03  0.14491395E-02  0.49496911E-04
 -0.31714268E-03  0.11812540E-02  0.15439541E-02
  0.46255357E-02  0.81791648E-03  0.12407857E-02
  0.12076916E-02  0.60273988E-03  0.35041325E-02
 -0.70303328E-03 -0.73164324E-03 -0.89255738E-03
  0.91578659E-03  0.13077745E-02  0.18891526E-02
 -0.11413186E-02 -0.60385164E-03 -0.56648889E-03
 -0.99608044E-03  0.76843681E-03  0.53437807E-03
  0.11941209E-02  0.74967238E-05 -0.17376846E-02
 -0.51233236E-03 -0.24785475E-02  0.13588072E-02
  0.30344808E-02 -0.24261005E-03  0.79649311E-04
  0.11460738E-02  0.13769413E-02  0.18305422E-02
 -0.84355786E-03  0.16276116E-02 -0.14716887E-03
  0.12537272E-03 -0.80329675E-03  0.57808269E-03
  0.26429570E-02 -0.72963670E-03  0.42944683E-03
  0.21476749E-02  0.35054393E-03  0.46267342E-03
  0.20327272E-02 -0.14684367E-02  0.20055561E-02
 -0.32185582E-02  0.18764903E-02 -0.14757447E-02
  0.11150850E-02  0.14511920E-03  0.19588000E-02
  0.54533274E-03  0.11827890E-02 -0.17422828E-02
 -0.19319908E-02  0.14507641E-02  0.33459389E-02
  0.26048437E-02  0.32438598E-02 -0.22641832E-02
 -0.99238988E-03  0.44703745E-03 -0.26473510E-03
 -0.52562564E-03  0.76718529E-04  0.11190928E-02
  0.12596310E-02  0.75188647E-03 -0.13279244E-02
  0.48287845E-03 -0.27880476E-02 -0.24214843E-03
 -0.24409219E-03  0.15164303E-02  0.83533030E-03
  0.71256790E-04 -0.28582692E-02  0.23440806E-02
  0.25159499E-02  0.15051811E-02 -0.27190095E-02
  0.10968926E-02 -0.99495574E-03  0.12603544E-02
  0.32459610E-02  0.72820546E-03 -0.69509767E-05
  0.13404866E-02  0.12780915E-02  0.78575722E-03
 -0.21519853E-02  0.23397226E-02  0.67104499E-03
 -0.19685755E-02  0.48270116E-04 -0.27058964E-03
 -0.16869416E-02  0.18418781E-02 -0.12821506E-02
 -0.18026313E-03  0.30922921E-03  0.18189230E-02
 -0.89859224E-03  0.18494512E-02 -0.15641125E-02
 -0.13456441E-02  0.68289378E-03  0.11742974E-02
 -0.14554092E-02  0.46415379E-03  0.16181836E-02
  0.20633749E-02 -0.52296556E-03 -0.10042405E-02
  0.85422559E-03 -0.57929192E-03 -0.15431046E-02
  0.21415175E-02 -0.11314808E-02 -0.94347171E-03
  0.79112090E-03 -0.38365070E-03 -0.18123201E-02
  0.13377249E-02 -0.32936778E-03  0.18181693E-02
 -0.82293999E-03  0.12341854E-03 -0.76613458E-03
  0.10967784E-02 -0.55811882E-03 -0.32737192E-02
 -0.14292673E-02  0.76485449E-03 -0.39678826E-02
  0.29101791E-03  0.33589628E-03 -0.17773407E-02
 -0.24690355E-02  0.13349521E-02 -0.17233022E-02
  0.81006526E-05  0.13898574E-02 -0.65467588E-03
 -0.10335352E-02  0.92355838E-04  0.34495874E-02
  0.91789188E-04  0.11899981E-02  0.76153312E-03
  0.50649041E-03 -0.22727099E-02  0.13722987E-02
  0.14960503E-02  0.88879294E-03 -0.67059013E-03
  0.54785848E-03  0.36550274E-03 -0.18203153E-02
  0.52920588E-03  0.10839489E-02  0.10928340E-02
  0.13445989E-02 -0.14301642E-02  0.62307017E-03
  0.17593270E-02 -0.11776707E-02  0.17545756E-02
  0.73440915E-03 -0.16255217E-02 -0.14944495E-03
  0.14575425E-02  0.17796303E-02 -0.75995295E-03
  0.66633300E-03  0.27362011E-02  0.24088277E-03
 -0.74463171E-03  0.49669072E-03 -0.31677600E-02
 -0.20316631E-02 -0.52353623E-03 -0.14343187E-02
 -0.15926390E-02 -0.35747750E-03 -0.59791968E-03
 -0.11596407E-02 -0.71566075E-03  0.46729606E-03
  0.17012618E-02  0.15334924E-02 -0.60243597E-03
 -0.14631717E-02  0.13146260E-03 -0.11791402E-02
  0.11585493E-02 -0.62997020E-03 -0.24745602E-03
 -0.10618771E-02 -0.32213575E-03 -0.10670888E-02
 -0.12930635E-02  0.11281690E-02 -0.11232358E-02
 -0.10715148E-02  0.75723946E-03 -0.31731324E-03
 -0.11296043E-02  0.69548371E-03 -0.18298185E-02
 -0.23386622E-02 -0.49612554E-03  0.21514665E-03
 -0.16299844E-03  0.25360194E-03 -0.93229090E-04
 -0.17540087E-02 -0.33595332E-05 -0.11731560E-02
 -0.11961448E-02 -0.24502544E-03  0.33934203E-02
 -0.20571316E-03  0.50048992E-03 -0.52860777E-03
  0.64368248E-03  0.94908824E-04  0.11893419E-02
  0.51080881E-03  0.97339606E-03 -0.62428913E-03
 -0.11539213E-02  0.62014373E-03 -0.73612483E-03
 -0.24513681E-02 -0.22660039E-03  0.72393864E-03
  0.49064564E-03  0.28014469E-02  0.77546160E-03
 -0.13157183E-02  0.85866703E-03 -0.15859404E-02
 -0.15682147E-02 -0.40905170E-03 -0.46625813E-03
 -0.83005926E-03  0.72230675E-03  0.96061220E-03
  0.16492788E-02  0.12053059E-02 -0.55367337E-03
  0.74919671E-03  0.74100222E-03 -0.66871440E-03
 -0.13198367E-02 -0.12395110E-02 -0.41172710E-03
 -0.30185094E-04  0.34072266E-03  0.17079606E-02
 -0.38477664E-03 -0.63645647E-04 -0.15560724E-02
  0.14452185E-02 -0.15970353E-03 -0.31914552E-02
 -0.15538082E-02  0.62042163E-03  0.13170536E-02
  0.12648909E-02  0.26199826E-03  0.17529948E-02
  0.12486144E-02 -0.10657422E-02  0.61270392E-03
 -0.16994205E-02 -0.74324859E-03 -0.22760607E-02
 -0.59897664E-03  0.27960382E-03  0.18920151E-02
 -0.27777521E-02  0.91131046E-03  0.43609923E-03
  0.57843885E-03  0.21233697E-02 -0.21641924E-03
  0.47588967E-04 -0.45965693E-03  0.10426415E-02
 -0.79163164E-03  0.34206938E-03 -0.11902369E-02
  0.58685786E-03 -0.44077761E-03  0.17089700E-03
 -0.41958767E-03  0.18840271E-02 -0.82468473E-03
  0.22645061E-02  0.16663282E-02 -0.10305316E-02
 -0.21306020E-03  0.29316252E-02 -0.12153417E-02
  0.12802985E-02 -0.14750265E-04 -0.12901591E-02
  0.20256831E-02  0.11960875E-02 -0.24963575E-02
 -0.26095975E-02  0.58747274E-03 -0.21289076E-02
  0.17972402E-02 -0.31735921E-02 -0.21377711E-02
 -0.16697557E-02 -0.14364569E-02 -0.39330945E-03
 -0.50368018E-03  0.89337355E-03  0.22990804E-02
  0.79064059E-03  0.13007141E-02  0.16007089E-03
  0.80513870E-04 -0.91590349E-03 -0.57302219E-03
  0.15617154E-02 -0.18244021E-03 -0.15204155E-03
  0.15539665E-03 -0.82548184E-03 -0.11154649E-02
  0.47382279E-03  0.95868184E-03  0.10188018E-02
 -0.51609073E-03 -0.71720738E-03 -0.74335836E-03
  0.13940411E-02 -0.14223157E-02  0.16845167E-02
  0.67759633E-03 -0.30226069E-03 -0.81535602E-03
 -0.28501917E-02  0.59585020E-04 -0.12280805E-02
 -0.81806484E-03  0.18050305E-02  0.44706838E-04
  0.65700831E-03 -0.24136030E-02 -0.25928088E-02
 -0.85490149E-03 -0.11031693E-02  0.13027557E-02
  0.62056379E-03 -0.27951871E-03  0.38422904E-03
 -0.14582331E-02 -0.72634927E-03 -0.10084162E-02
  0.67827020E-03  0.15763190E-02 -0.78925066E-03
  0.16924399E-02 -0.87098310E-05 -0.20690907E-03
  0.16759247E-02  0.15060570E-02 -0.31386392E-02
 -0.88002152E-03  0.16220372E-03  0.20005246E-03
  0.70139511E-03 -0.64313109E-03 -0.48538039E-03
 -0.82453677E-03  0.41549914E-03  0.15868918E-02
  0.22445851E-03  0.55244535E-03 -0.75158858E-03
 -0.20623292E-02 -0.51602768E-03 -0.37043096E-02
  0.94318453E-03 -0.10592093E-03  0.21832128E-03
  0.10753999E-02 -0.24095329E-02  0.40312567E-03
 -0.22381450E-02  0.29009385E-03  0.11298332E-02
 -0.17002693E-02 -0.13030798E-02 -0.33318172E-03
  0.76361174E-03 -0.57566261E-03  0.22613857E-02
 -0.50357610E-03  0.88805461E-03 -0.27477517E-02
  0.70459971E-04  0.29237140E-02  0.26786301E-03
  0.10280753E-02  0.13018265E-02  0.23994354E-02
 -0.12695812E-02  0.14012492E-02  0.15450855E-02
  0.57065356E-03 -0.75702066E-05 -0.44586895E-03
 -0.34231160E-03 -0.20044519E-03 -0.41208765E-03
 -0.11678684E-02 -0.18296654E-02  0.22789290E-02
  0.66720837E-04 -0.44436677E-03 -0.85098387E-03
 -0.22311671E-02  0.15199867E-02 -0.13715964E-02
 -0.65079402E-03 -0.11689113E-02  0.20873275E-02
  0.11708890E-02 -0.68777371E-03 -0.15565590E-02
 -0.22246134E-02 -0.18489632E-02  0.11798173E-03
 -0.50113378E-03 -0.27991285E-02 -0.12057126E-02
  0.77482905E-04  0.67093046E-03 -0.24550551E-02
  0.61715614E-03  0.73552463E-03  0.19171291E-02
 -0.16080237E-02 -0.27672064E-02 -0.11466670E-03
 -0.14512861E-02 -0.16564136E-02 -0.47732096E-03
  0.27699697E-02  0.13987771E-02  0.25829645E-02
  0.14811087E-02 -0.11439063E-02  0.36137713E-02
 -0.31402647E-03 -0.43185201E-03  0.64056875E-03
  0.29248285E-03 -0.25487559E-02  0.70419487E-03