Ge Sb Te                                
   1.00000000000000     
    21.5130229156017272    0.0000000000000000    0.0000000000000000
     0.0000000000000000   21.5130229156017272    0.0000000000000000
     0.0000000000000000    0.0000000000000000   21.5130229156017272
   Ge   Sb   Te
    72   108   126
Direct
  0.4789065519481284  0.0816761841491527  0.2670315162461137
  0.7569005321666253  0.5956437397799093  0.0443552084480316
  0.8230858965843098  0.9318592294748314  0.6467750138890409
  0.3360242268656535  0.8246684586722992  0.4982259356557748
  0.8516612277727305  0.6303616410471307  0.2371164845387668
  0.3651566066634757  0.1512098782915601  0.7911293378457600
  0.1129186760157879  0.5759686895000158  0.0617967360761469
  0.8541185131174700  0.7245752317234775  0.1362113927795647
  0.6138098885639778  0.2380644672110677  0.5590601664511468
  0.1134697241520755  0.2974023929320566  0.7454751989171271
  0.6993994952899030  0.4921904116387239  0.0012999964661091
  0.5522802942211769  0.4990729775974643  0.4831893986059157
  0.8140249653525160  0.1532143322121158  0.9134158751346888
  0.4321160411795830  0.0870787973425777  0.9346094659187187
  0.0738805869186621  0.8261480781002248  0.8771308488008103
  0.8784195787860654  0.0053766592477942  0.3802851746270406
  0.3056896055115814  0.4591048911120836  0.6346368465841579
  0.6621742812596949  0.6758713403844610  0.6511196183044490
  0.3307971480061127  0.9314798191533455  0.6380925033625502
  0.7646880962612528  0.0142600565322510  0.4950314421198101
  0.5816560410654645  0.2589733362197606  0.2389696978210054
  0.6318070355203105  0.3748827537228721  0.1078541532573212
  0.3740209905400746  0.6647628126691600  0.9941871898642063
  0.1911069547701345  0.4466199212059294  0.8185728570551873
  0.2202593925575087  0.6416211346091742  0.0801062395765157
  0.6448691215344198  0.8634024242859297  0.5124872173001620
  0.4297432941465118  0.8227080199328540  0.0430603414111062
  0.6894401061301920  0.4044586297284098  0.6192590158913731
  0.2997467807930505  0.6960434910324835  0.1557526588380114
  0.4612810565845393  0.8085840240807087  0.9223571859702773
  0.6856536155123365  0.2752376784583532  0.2849115808626834
  0.7199755018148082  0.3728270703929581  0.4955140187580582
  0.4219961313171865  0.3726424891939786  0.0983579999413138
  0.6893155254916508  0.6579389317278839  0.1113558676912163
  0.5100754830972676  0.0209155633493907  0.5994784780265405
  0.8223042802801217  0.0323113616883859  0.0047264480777542
  0.9772953243248566  0.9099291725402310  0.7436308623789785
  0.6829875879518141  0.3969764221529246  0.2832023059745836
  0.6425960186122950  0.1206124685933219  0.6218856278224294
  0.7065533398729897  0.4512705268726691  0.8264154379915567
  0.0970058701596841  0.7290816750489313  0.9418182579314873
  0.7567447626779611  0.1875950125502044  0.0198675636979360
  0.2883963593512249  0.4884487815086871  0.2739182797383535
  0.5212183037025540  0.3121731788979218  0.0807345199277520
  0.3479939676143715  0.6951965191120166  0.8138517756747774
  0.8581279341866974  0.9621621431134173  0.8884204073413642
  0.4216461957621291  0.8179834566594693  0.7669618531544913
  0.4691399768650157  0.5896935190478345  0.2064942206853075
  0.1248346223530064  0.1422080241477559  0.4464251755013606
  0.1329857496917626  0.4113534446468279  0.3100799403881069
  0.3932577633070906  0.0619084650212045  0.3515937141720684
  0.9799770437844231  0.0332893702276849  0.9350920683257229
  0.5400171523207362  0.7179510336097223  0.7757729995916947
  0.4056948532881677  0.0028103963989921  0.5307168731622767
  0.7220882018594992  0.7684517125258523  0.7987694483787990
  0.1058066800384765  0.4288287297953843  0.1875923935789103
  0.3757668722239771  0.6980953300625217  0.6163037509055442
  0.8722481231948294  0.4922555625264309  0.4642500149501601
  0.0244064438643150  0.1543084736882534  0.3576152433265278
  0.1997607004710176  0.6754608804298385  0.6857119489443804
  0.5593063316029472  0.4052768425007329  0.6337249342136175
  0.0851822467455037  0.7163619020780843  0.1304835263526130
  0.4267208354828327  0.1620927336201774  0.1880950981798435
  0.6434881876131513  0.5033568686915828  0.3352214085954586
  0.6839395118424818  0.9586955631735989  0.5945254619067768
  0.1763935610957006  0.5873357411057967  0.2255430938402654
  0.3363885577745194  0.1958216786055686  0.6725563450911665
  0.7552311418456483  0.8174975213349072  0.3934640181478599
  0.2598249705166822  0.8563218047235424  0.0203868113236823
  0.9820266534270061  0.5256262703840804  0.4634709107791650
  0.4937366127241845  0.6025857617105572  0.6219343684532461
  0.8614981579766550  0.4712876818576248  0.3530353491532736
  0.4369413739445847  0.8591551773129140  0.5686051998018371
  0.4873001795332357  0.7220650230837364  0.5238680027278235
  0.5197539720627802  0.8421937000731532  0.4597056562319679
  0.1045663327501529  0.2006662469313412  0.8251305331045273
  0.9557989143888079  0.1592912027286317  0.1624579482570709
  0.2208105086097945  0.7272987054100568  0.9831744953200428
  0.7507597338836902  0.0052276847248933  0.2648720735254031
  0.2366047486366227  0.1323684584918752  0.1245244267797574
  0.3309054410817751  0.2022695767854117  0.5002411168940881
  0.7728724610906283  0.5449671397002120  0.2969172833383169
  0.3833545614053477  0.3900302201001296  0.9738605332416626
  0.5747221858551228  0.6353219434703448  0.4723414129691506
  0.2243261284205573  0.4772009920541294  0.1497571667140676
  0.0545112687213063  0.7560306579985649  0.3292071364989084
  0.9784330326217088  0.2316566902757558  0.8899235005197852
  0.0205852487233997  0.4982467745877770  0.1230983108753563
  0.2984455018843164  0.9436066581971048  0.4596593939211147
  0.3756273999480726  0.8720618207162474  0.2877645128584092
  0.2645229786198300  0.3549666672593190  0.4158332195024812
  0.9803366661228097  0.6434935304608373  0.4234591186940904
  0.0638766748934145  0.8764419047586856  0.4945629836326972
  0.5120399273244018  0.3082357734122922  0.8649738960639723
  0.1615981115042757  0.3626654285772801  0.5951618087705484
  0.2513410815827513  0.5260630477280799  0.0234890882705017
  0.5633454172843742  0.9258424880828500  0.2911549167619754
  0.6662790241133933  0.1881053547219764  0.3759302313813535
  0.3589523413008493  0.0158324618568386  0.8176040377951921
  0.6653194794670512  0.3215717516054752  0.8324089805655390
  0.8668424759063029  0.4216807412786707  0.7494278211415022
  0.1978372607929231  0.1052309628281876  0.7756014330158436
  0.9288499797042604  0.7511750532151638  0.2455294783123776
  0.0438952997218962  0.5034296454240632  0.5710510673933982
  0.9067708804691748  0.1594843467520306  0.4935114837778301
  0.1852876558199910  0.8494793581110542  0.2180222133404683
  0.0881825628647732  0.1285586862983621  0.1717748555708454
  0.2686434434727332  0.0430008105238926  0.3161409139707629
  0.1563151922262662  0.3721624366488925  0.9545120121293067
  0.2092947276148465  0.0800405246528157  0.5936215344688662
  0.7753613477217272  0.2202736820870257  0.2201369077229245
  0.2016321586610701  0.7143712662513124  0.2321351651276444
  0.9092428515095818  0.7930761670644415  0.7895583556683121
  0.7130599757117437  0.9168757045853511  0.9843301919059684
  0.7525929140918635  0.4276266423866417  0.1743182367763012
  0.4595792221484203  0.9558731789300197  0.9032510926248847
  0.8898085864011165  0.6908565539563085  0.5224337643409385
  0.1076539470199762  0.6468299685962791  0.4693515062154532
  0.8378996881634251  0.7649689559672126  0.9875262250974117
  0.6531775226851266  0.0913810147823995  0.2336261136072935
  0.0661369878125342  0.7244699275834705  0.5823040861668218
  0.0017157106911441  0.1954141269971004  0.5816716710018213
  0.4892278252616080  0.5218247869899031  0.8731247301305984
  0.6402878108055603  0.2484124640117926  0.0006002156328790
  0.0597671835632525  0.0708527789982014  0.7328236546013756
  0.5907390675086432  0.0127594252282321  0.1250394043008001
  0.5780663704957760  0.0541324256724138  0.3382216356786216
  0.9528110496632323  0.4014477531041507  0.3036751363931174
  0.2506378477099460  0.0971930431095771  0.4628583531986052
  0.6558426951461485  0.9288043186507053  0.7880046966946495
  0.3869145695789626  0.5298403998713468  0.0276273657924904
  0.3452733254099698  0.4534322361615963  0.3849406051300832
  0.9805883419667083  0.5350997022859261  0.9429370121406038
  0.8704881142250400  0.2835312997424566  0.3053056653770980
  0.6308129467256975  0.0591622563925327  0.9355608329821479
  0.8109476534074531  0.5812878516921387  0.5290364711274265
  0.7832581327941313  0.3128395120664038  0.1152423952496306
  0.3458449754558757  0.2610598084541564  0.3761310022424524
  0.6383851830007430  0.6515746294757534  0.3412671024633696
  0.5344864249171408  0.2010108570513296  0.4399019707199230
  0.4277142581069242  0.1111726754089233  0.4684452005209536
  0.1843027843733083  0.7772428276337635  0.6042425814659964
  0.8222009136418293  0.5117050529283844  0.8469116956615608
  0.9296422223466152  0.6528960087376987  0.6487598262830758
  0.4394176408937440  0.3152809685425453  0.4858267436932877
  0.5185605453688353  0.7862248706020125  0.1376007341207810
  0.4157437983442449  0.4651230953101191  0.7182921890732032
  0.8034714647413850  0.3051740016077744  0.7887738156802442
  0.9268677432223029  0.9659780868088887  0.2697464889207666
  0.2688826379278026  0.6875595297711925  0.3558536648977082
  0.3118596741406137  0.2388126163585298  0.0609265717678937
  0.4446223810258161  0.9511879274647796  0.3840973686324176
  0.3169657686867282  0.1642626834292571  0.9197472472584920
  0.7604232473760959  0.1880572321887186  0.6227828435348499
  0.5292061403860799  0.1165882148263009  0.6832121779756264
  0.9570032875794467  0.4079748985324514  0.9015558086446234
  0.9038798600051194  0.4613597806060241  0.1900982657818275
  0.5059135025099621  0.3016158815792451  0.6943847096288778
  0.0695530457234312  0.3340337420433244  0.4130807845507718
  0.9437256108133738  0.7322304823018086  0.9081243720617920
  0.4595125433354994  0.6416463608658916  0.3874007503954005
  0.7936805605079584  0.8515145859759130  0.8902442606153116
  0.3719327390900062  0.3274801153081555  0.7073185040901464
  0.1908866927697872  0.2444811992388694  0.9196675565362895
  0.0345438257680826  0.7501647388648109  0.7568129052363730
  0.9246605132974608  0.1599436981004914  0.6997885929254650
  0.1089129525508596  0.9616727163254097  0.0039861521915441
  0.8686660798297510  0.0446312366795638  0.1706325855772874
  0.0924506036832540  0.6446901447813360  0.8395730313986434
  0.2496113882611510  0.5558825816563910  0.5660950994672902
  0.3854412098459790  0.7667711024745429  0.3881367393077184
  0.1587860433447048  0.8331238338489513  0.7253345287850337
  0.9616264154357737  0.9550120583238595  0.5600009944215856
  0.0637360866606400  0.8786732978867846  0.2706680356300311
  0.7702213882146580  0.7383756502430856  0.6112879427999474
  0.0079599473526955  0.2852555759841451  0.2082950349235091
  0.2849460497284753  0.7125163547197104  0.5326476934081441
  0.1996881287568399  0.9842026338310603  0.1797779328766396
  0.6087672602485057  0.7443619629102116  0.0504035589470178
  0.4455429834338887  0.3660264777815527  0.3571330192926894
  0.0510760975139917  0.0107827439634178  0.1251991770497511
  0.2141831174825342  0.9361909681322089  0.5637567000517265
  0.3255861097241848  0.7965710422087895  0.6841311663868481
  0.2872084263142796  0.1588565975419058  0.2560175293595677
  0.7578353530935544  0.6726206101336913  0.9447599433100109
  0.8421481959313937  0.2794852746354337  0.9163987772212252
  0.1148830960369267  0.3153679713445499  0.1374896047588621
  0.2477302685262899  0.0444585193262554  0.9011707084806986
  0.3093862968043197  0.3500136954312296  0.5600694125161638
  0.0769657805617854  0.9474746580900515  0.6659972589407985
  0.9950188418664183  0.8159578445946920  0.1452955634290731
  0.1017842972138610  0.0871326275222941  0.9427591669625883
  0.1806792729115330  0.8837899159050338  0.8998516541407255
  0.2035877935014412  0.2023123086481533  0.6697281205502748
  0.2545729885149655  0.9579348154104110  0.7473066192601863
  0.6750779248541008  0.2892508690297149  0.6728461607481080
  0.9256937963838254  0.8501162382345058  0.6334058844947208
  0.6440134325190385  0.5420271159673788  0.8916138951974659
  0.0833444407194293  0.6281293459107076  0.6803516174547752
  0.7509189200460185  0.4782485439559707  0.7124733033745443
  0.8362214392002301  0.4038462838164492  0.5461790064744036
  0.4027464302048998  0.4800724284821385  0.1535200694920178
  0.4875504785410030  0.1604002242855813  0.8356333777018179
  0.3509178084469724  0.5740149350433867  0.4843323502383967
  0.4374834696380816  0.9372468224803683  0.7240897109604205
  0.9002322169053301  0.5282873235584731  0.6219344584516548
  0.3507233841123778  0.0698044984827320  0.6276901546934184
  0.8304505614503555  0.6924786665860623  0.7484125567467643
  0.6373075163788542  0.5654233139883544  0.1834780314857980
  0.5191625626913137  0.1118317669688764  0.0171136525710978
  0.3828149557627469  0.3065849670686376  0.8419525399487213
  0.4099247257164294  0.9463194447760941  0.0289949144527597
  0.7796032800286099  0.1481659109194027  0.7548160895649900
  0.9661350742394532  0.2732945720460762  0.7569301256454040
  0.2353920781210448  0.9899978745921985  0.0429598209002151
  0.9751461114232640  0.8714933976006520  0.9421883841883698
  0.2825788190128762  0.6319131933225250  0.9059586074382722
  0.9764794650095681  0.0555447588845652  0.4421052557847531
  0.5724573690017891  0.9353401108038781  0.6571780204555822
  0.0198419882621721  0.3767521830938065  0.5920423781288235
  0.5386500277348318  0.4328056149616586  0.7745041392094123
  0.6143230108993265  0.5646867391259605  0.6090312984751165
  0.2252313689571821  0.3207889170898355  0.7977704895266626
  0.2355547447122603  0.3507218958117519  0.2766924687956660
  0.7398919136252289  0.0093321938476478  0.8558281143654654
  0.9272062788260058  0.1145981134776619  0.8427560136110017
  0.0808450951277564  0.0863725098566874  0.5489049987575783
  0.6971364727391105  0.7423137363663983  0.4979889806051716
  0.1875170427552888  0.5337696395414255  0.3404958631614150
  0.4651249864342333  0.6655725221317610  0.1091044205224563
  0.7862006705364948  0.6472553370176897  0.3789008746431719
  0.0714983546036763  0.3998821401495434  0.8197588705769618
  0.9752963552587843  0.8123170889810112  0.4226598977648450
  0.4907194066023948  0.2188652233701589  0.3146597608694037
  0.5622113311573358  0.7574143470370558  0.6367901178766644
  0.3463659519494087  0.8188632784830787  0.8677022894404871
  0.8666910549758100  0.5950450542577741  0.1026873448064194
  0.6865841851767982  0.9298509822355783  0.4094491687749198
  0.9447869546573742  0.6003309183076055  0.8351534589938083
  0.9015600630504963  0.1330059578331273  0.0151697213613318
  0.0264687909328174  0.6657355526249091  0.0256761067377766
  0.8735388370026556  0.2645756162641035  0.6127071169806939
  0.8687166945023748  0.9478542959399547  0.0903546833778464
  0.5812432687038722  0.9314730204658446  0.9859057618104998
  0.0709577453744146  0.0605569486978510  0.2871390949360304
  0.7269402093046935  0.8438775385932971  0.6878707263026129
  0.7438497526934214  0.7027080494195985  0.2155012075671152
  0.5557156003074866  0.1977396078958478  0.1363532484677066
  0.3295931956223299  0.9887384326667998  0.2135051634706286
  0.1853942946528946  0.4678649098798147  0.6831339994800913
  0.7235082369987751  0.0857416428510547  0.0744468154445954
  0.6702871864135531  0.1891797459245268  0.8825153373572263
  0.3530326935556687  0.4990495491112767  0.8536537316210939
  0.8366305800237228  0.4589544251975042  0.9648220043129356
  0.3309500182920146  0.8284619474430528  0.1305061038565682
  0.5600452376627914  0.3776302232421500  0.2121073041472812
  0.7116866490187519  0.0346751829861844  0.6942527721934155
  0.1003060980894332  0.2539411762367862  0.3075769919543490
  0.5943908778711204  0.4905156382918463  0.0831889948999134
  0.7828929755958995  0.0956455980614308  0.3836495866931600
  0.5706973670194486  0.0327509670589876  0.8143715338013706
  0.4607335705422102  0.4743535088057627  0.5895719693489170
  0.6412334374643365  0.7867784675554006  0.3390488828265603
  0.7223270452185204  0.2345748542659578  0.4890408710469956
  0.8405909542995218  0.8544176677630588  0.2598648374087844
  0.1430648850299363  0.8391853762459647  0.0843033516311138
  0.5125187172578336  0.4959169672753490  0.3547903068503118
  0.9298664704466972  0.2852268986978359  0.4310458304618336
  0.4624071503967144  0.6063586557758356  0.7489913781605040
  0.3127943529865149  0.6131455044251837  0.6843908019918032
  0.9115216169270397  0.3602523355422136  0.1074829007463762
  0.7064186911567560  0.3502506236980025  0.9569984507477400
  0.7227460504941376  0.8107433044944585  0.0686392542910212
  0.6053729435698401  0.8163104184766610  0.8494955004861069
  0.3384528577639401  0.6233311831113184  0.2465475187280930
  0.3646560012804656  0.2870499387650582  0.1754068765304311
  0.8804847699475289  0.9898764920396488  0.7507771248291277
  0.9025485313301047  0.1498338670676063  0.2914486239756542
  0.5183979590688068  0.4128581617635447  0.9508785426581881
  0.4731553025135327  0.2090461388251796  0.6049536964396225
  0.0156218439313989  0.5256377715644476  0.3431098852048819
  0.4798927024686748  0.9591863982412576  0.1937737111430593
  0.8556755733970860  0.9194751886330295  0.4670618944593983
  0.6520761026582917  0.6536506610540158  0.7655604308246140
  0.1530160599497634  0.2572929379494866  0.4881574557594561
  0.8514562636854563  0.0673866913711691  0.5891339996926490
  0.7799518836924904  0.3795874810893523  0.3699623227968303
  0.0305505596739337  0.3586889860389419  0.0035530599105797
  0.5225127318414664  0.6919908172651787  0.2816249279627243
  0.1043401719425319  0.9479728721458685  0.3889735399600696
  0.0644838007025825  0.9866783244923454  0.8300408684548017
  0.5682573343566659  0.3507755722633021  0.5147411726810560
  0.1586398168725438  0.4617180415909701  0.5016887806693759
  0.3633674808069856  0.0988607412209817  0.0869902532852933
  0.2460216683983063  0.8916489232570797  0.3436872605228913
  0.6793926209736227  0.5055923004590426  0.4567318480719322
  0.4483734055366071  0.2594042189424073  0.9800610886849483
  0.4752981768711209  0.6772944273743278  0.9176536789156060
  0.6109144325822342  0.0374932214832455  0.5269327162629125
  0.1192656536155852  0.5351140097591625  0.9357211574189819
  0.1630794490757665  0.7616429237859634  0.4235907763853959
  0.0462197094635002  0.6031751828361323  0.2042532051460739
  0.2055643535961593  0.7286208842688424  0.7935750061265736
  0.2499129011028103  0.3713732018950253  0.0508051832365197
  0.6656054313532991  0.9090408713373037  0.1813334648885601
  0.1156515197175878  0.1869455604894057  0.0242302865303969
 
  0.00000000E+00  0.00000000E+00  0.00000000E+00
  0.00000000E+00  0.00000000E+00  0.00000000E+00
  0.00000000E+00  0.00000000E+00  0.00000000E+00
  0.00000000E+00  0.00000000E+00  0.00000000E+00
  0.00000000E+00  0.00000000E+00  0.00000000E+00
  0.00000000E+00  0.00000000E+00  0.00000000E+00
  0.00000000E+00  0.00000000E+00  0.00000000E+00
  0.00000000E+00  0.00000000E+00  0.00000000E+00
  0.00000000E+00  0.00000000E+00  0.00000000E+00
  0.00000000E+00  0.00000000E+00  0.00000000E+00
  0.00000000E+00  0.00000000E+00  0.00000000E+00
  0.00000000E+00  0.00000000E+00  0.00000000E+00
  0.00000000E+00  0.00000000E+00  0.00000000E+00
  0.00000000E+00  0.00000000E+00  0.00000000E+00
  0.00000000E+00  0.00000000E+00  0.00000000E+00
  0.00000000E+00  0.00000000E+00  0.00000000E+00
  0.00000000E+00  0.00000000E+00  0.00000000E+00
  0.00000000E+00  0.00000000E+00  0.00000000E+00
  0.00000000E+00  0.00000000E+00  0.00000000E+00
  0.00000000E+00  0.00000000E+00  0.00000000E+00
  0.00000000E+00  0.00000000E+00  0.00000000E+00
  0.00000000E+00  0.00000000E+00  0.00000000E+00
  0.00000000E+00  0.00000000E+00  0.00000000E+00
  0.00000000E+00  0.00000000E+00  0.00000000E+00
  0.00000000E+00  0.00000000E+00  0.00000000E+00
  0.00000000E+00  0.00000000E+00  0.00000000E+00
  0.00000000E+00  0.00000000E+00  0.00000000E+00
  0.00000000E+00  0.00000000E+00  0.00000000E+00
  0.00000000E+00  0.00000000E+00  0.00000000E+00
  0.00000000E+00  0.00000000E+00  0.00000000E+00
  0.00000000E+00  0.00000000E+00  0.00000000E+00
  0.00000000E+00  0.00000000E+00  0.00000000E+00
  0.00000000E+00  0.00000000E+00  0.00000000E+00
  0.00000000E+00  0.00000000E+00  0.00000000E+00
  0.00000000E+00  0.00000000E+00  0.00000000E+00
  0.00000000E+00  0.00000000E+00  0.00000000E+00
  0.00000000E+00  0.00000000E+00  0.00000000E+00
  0.00000000E+00  0.00000000E+00  0.00000000E+00
  0.00000000E+00  0.00000000E+00  0.00000000E+00
  0.00000000E+00  0.00000000E+00  0.00000000E+00
  0.00000000E+00  0.00000000E+00  0.00000000E+00
  0.00000000E+00  0.00000000E+00  0.00000000E+00
  0.00000000E+00  0.00000000E+00  0.00000000E+00
  0.00000000E+00  0.00000000E+00  0.00000000E+00
  0.00000000E+00  0.00000000E+00  0.00000000E+00
  0.00000000E+00  0.00000000E+00  0.00000000E+00
  0.00000000E+00  0.00000000E+00  0.00000000E+00
  0.00000000E+00  0.00000000E+00  0.00000000E+00
  0.00000000E+00  0.00000000E+00  0.00000000E+00
  0.00000000E+00  0.00000000E+00  0.00000000E+00
  0.00000000E+00  0.00000000E+00  0.00000000E+00
  0.00000000E+00  0.00000000E+00  0.00000000E+00
  0.00000000E+00  0.00000000E+00  0.00000000E+00
  0.00000000E+00  0.00000000E+00  0.00000000E+00
  0.00000000E+00  0.00000000E+00  0.00000000E+00
  0.00000000E+00  0.00000000E+00  0.00000000E+00
  0.00000000E+00  0.00000000E+00  0.00000000E+00
  0.00000000E+00  0.00000000E+00  0.00000000E+00
  0.00000000E+00  0.00000000E+00  0.00000000E+00
  0.00000000E+00  0.00000000E+00  0.00000000E+00
  0.00000000E+00  0.00000000E+00  0.00000000E+00
  0.00000000E+00  0.00000000E+00  0.00000000E+00
  0.00000000E+00  0.00000000E+00  0.00000000E+00
  0.00000000E+00  0.00000000E+00  0.00000000E+00
  0.00000000E+00  0.00000000E+00  0.00000000E+00
  0.00000000E+00  0.00000000E+00  0.00000000E+00
  0.00000000E+00  0.00000000E+00  0.00000000E+00
  0.00000000E+00  0.00000000E+00  0.00000000E+00
  0.00000000E+00  0.00000000E+00  0.00000000E+00
  0.00000000E+00  0.00000000E+00  0.00000000E+00
  0.00000000E+00  0.00000000E+00  0.00000000E+00
  0.00000000E+00  0.00000000E+00  0.00000000E+00
  0.00000000E+00  0.00000000E+00  0.00000000E+00
  0.00000000E+00  0.00000000E+00  0.00000000E+00
  0.00000000E+00  0.00000000E+00  0.00000000E+00
  0.00000000E+00  0.00000000E+00  0.00000000E+00
  0.00000000E+00  0.00000000E+00  0.00000000E+00
  0.00000000E+00  0.00000000E+00  0.00000000E+00
  0.00000000E+00  0.00000000E+00  0.00000000E+00
  0.00000000E+00  0.00000000E+00  0.00000000E+00
  0.00000000E+00  0.00000000E+00  0.00000000E+00
  0.00000000E+00  0.00000000E+00  0.00000000E+00
  0.00000000E+00  0.00000000E+00  0.00000000E+00
  0.00000000E+00  0.00000000E+00  0.00000000E+00
  0.00000000E+00  0.00000000E+00  0.00000000E+00
  0.00000000E+00  0.00000000E+00  0.00000000E+00
  0.00000000E+00  0.00000000E+00  0.00000000E+00
  0.00000000E+00  0.00000000E+00  0.00000000E+00
  0.00000000E+00  0.00000000E+00  0.00000000E+00
  0.00000000E+00  0.00000000E+00  0.00000000E+00
  0.00000000E+00  0.00000000E+00  0.00000000E+00
  0.00000000E+00  0.00000000E+00  0.00000000E+00
  0.00000000E+00  0.00000000E+00  0.00000000E+00
  0.00000000E+00  0.00000000E+00  0.00000000E+00
  0.00000000E+00  0.00000000E+00  0.00000000E+00
  0.00000000E+00  0.00000000E+00  0.00000000E+00
  0.00000000E+00  0.00000000E+00  0.00000000E+00
  0.00000000E+00  0.00000000E+00  0.00000000E+00
  0.00000000E+00  0.00000000E+00  0.00000000E+00
  0.00000000E+00  0.00000000E+00  0.00000000E+00
  0.00000000E+00  0.00000000E+00  0.00000000E+00
  0.00000000E+00  0.00000000E+00  0.00000000E+00
  0.00000000E+00  0.00000000E+00  0.00000000E+00
  0.00000000E+00  0.00000000E+00  0.00000000E+00
  0.00000000E+00  0.00000000E+00  0.00000000E+00
  0.00000000E+00  0.00000000E+00  0.00000000E+00
  0.00000000E+00  0.00000000E+00  0.00000000E+00
  0.00000000E+00  0.00000000E+00  0.00000000E+00
  0.00000000E+00  0.00000000E+00  0.00000000E+00
  0.00000000E+00  0.00000000E+00  0.00000000E+00
  0.00000000E+00  0.00000000E+00  0.00000000E+00
  0.00000000E+00  0.00000000E+00  0.00000000E+00
  0.00000000E+00  0.00000000E+00  0.00000000E+00
  0.00000000E+00  0.00000000E+00  0.00000000E+00
  0.00000000E+00  0.00000000E+00  0.00000000E+00
  0.00000000E+00  0.00000000E+00  0.00000000E+00
  0.00000000E+00  0.00000000E+00  0.00000000E+00
  0.00000000E+00  0.00000000E+00  0.00000000E+00
  0.00000000E+00  0.00000000E+00  0.00000000E+00
  0.00000000E+00  0.00000000E+00  0.00000000E+00
  0.00000000E+00  0.00000000E+00  0.00000000E+00
  0.00000000E+00  0.00000000E+00  0.00000000E+00
  0.00000000E+00  0.00000000E+00  0.00000000E+00
  0.00000000E+00  0.00000000E+00  0.00000000E+00
  0.00000000E+00  0.00000000E+00  0.00000000E+00
  0.00000000E+00  0.00000000E+00  0.00000000E+00
  0.00000000E+00  0.00000000E+00  0.00000000E+00
  0.00000000E+00  0.00000000E+00  0.00000000E+00
  0.00000000E+00  0.00000000E+00  0.00000000E+00
  0.00000000E+00  0.00000000E+00  0.00000000E+00
  0.00000000E+00  0.00000000E+00  0.00000000E+00
  0.00000000E+00  0.00000000E+00  0.00000000E+00
  0.00000000E+00  0.00000000E+00  0.00000000E+00
  0.00000000E+00  0.00000000E+00  0.00000000E+00
  0.00000000E+00  0.00000000E+00  0.00000000E+00
  0.00000000E+00  0.00000000E+00  0.00000000E+00
  0.00000000E+00  0.00000000E+00  0.00000000E+00
  0.00000000E+00  0.00000000E+00  0.00000000E+00
  0.00000000E+00  0.00000000E+00  0.00000000E+00
  0.00000000E+00  0.00000000E+00  0.00000000E+00
  0.00000000E+00  0.00000000E+00  0.00000000E+00
  0.00000000E+00  0.00000000E+00  0.00000000E+00
  0.00000000E+00  0.00000000E+00  0.00000000E+00
  0.00000000E+00  0.00000000E+00  0.00000000E+00
  0.00000000E+00  0.00000000E+00  0.00000000E+00
  0.00000000E+00  0.00000000E+00  0.00000000E+00
  0.00000000E+00  0.00000000E+00  0.00000000E+00
  0.00000000E+00  0.00000000E+00  0.00000000E+00
  0.00000000E+00  0.00000000E+00  0.00000000E+00
  0.00000000E+00  0.00000000E+00  0.00000000E+00
  0.00000000E+00  0.00000000E+00  0.00000000E+00
  0.00000000E+00  0.00000000E+00  0.00000000E+00
  0.00000000E+00  0.00000000E+00  0.00000000E+00
  0.00000000E+00  0.00000000E+00  0.00000000E+00
  0.00000000E+00  0.00000000E+00  0.00000000E+00
  0.00000000E+00  0.00000000E+00  0.00000000E+00
  0.00000000E+00  0.00000000E+00  0.00000000E+00
  0.00000000E+00  0.00000000E+00  0.00000000E+00
  0.00000000E+00  0.00000000E+00  0.00000000E+00
  0.00000000E+00  0.00000000E+00  0.00000000E+00
  0.00000000E+00  0.00000000E+00  0.00000000E+00
  0.00000000E+00  0.00000000E+00  0.00000000E+00
  0.00000000E+00  0.00000000E+00  0.00000000E+00
  0.00000000E+00  0.00000000E+00  0.00000000E+00
  0.00000000E+00  0.00000000E+00  0.00000000E+00
  0.00000000E+00  0.00000000E+00  0.00000000E+00
  0.00000000E+00  0.00000000E+00  0.00000000E+00
  0.00000000E+00  0.00000000E+00  0.00000000E+00
  0.00000000E+00  0.00000000E+00  0.00000000E+00
  0.00000000E+00  0.00000000E+00  0.00000000E+00
  0.00000000E+00  0.00000000E+00  0.00000000E+00
  0.00000000E+00  0.00000000E+00  0.00000000E+00
  0.00000000E+00  0.00000000E+00  0.00000000E+00
  0.00000000E+00  0.00000000E+00  0.00000000E+00
  0.00000000E+00  0.00000000E+00  0.00000000E+00
  0.00000000E+00  0.00000000E+00  0.00000000E+00
  0.00000000E+00  0.00000000E+00  0.00000000E+00
  0.00000000E+00  0.00000000E+00  0.00000000E+00
  0.00000000E+00  0.00000000E+00  0.00000000E+00
  0.00000000E+00  0.00000000E+00  0.00000000E+00
  0.00000000E+00  0.00000000E+00  0.00000000E+00
  0.00000000E+00  0.00000000E+00  0.00000000E+00
  0.00000000E+00  0.00000000E+00  0.00000000E+00
  0.00000000E+00  0.00000000E+00  0.00000000E+00
  0.00000000E+00  0.00000000E+00  0.00000000E+00
  0.00000000E+00  0.00000000E+00  0.00000000E+00
  0.00000000E+00  0.00000000E+00  0.00000000E+00
  0.00000000E+00  0.00000000E+00  0.00000000E+00
  0.00000000E+00  0.00000000E+00  0.00000000E+00
  0.00000000E+00  0.00000000E+00  0.00000000E+00
  0.00000000E+00  0.00000000E+00  0.00000000E+00
  0.00000000E+00  0.00000000E+00  0.00000000E+00
  0.00000000E+00  0.00000000E+00  0.00000000E+00
  0.00000000E+00  0.00000000E+00  0.00000000E+00
  0.00000000E+00  0.00000000E+00  0.00000000E+00
  0.00000000E+00  0.00000000E+00  0.00000000E+00
  0.00000000E+00  0.00000000E+00  0.00000000E+00
  0.00000000E+00  0.00000000E+00  0.00000000E+00
  0.00000000E+00  0.00000000E+00  0.00000000E+00
  0.00000000E+00  0.00000000E+00  0.00000000E+00
  0.00000000E+00  0.00000000E+00  0.00000000E+00
  0.00000000E+00  0.00000000E+00  0.00000000E+00
  0.00000000E+00  0.00000000E+00  0.00000000E+00
  0.00000000E+00  0.00000000E+00  0.00000000E+00
  0.00000000E+00  0.00000000E+00  0.00000000E+00
  0.00000000E+00  0.00000000E+00  0.00000000E+00
  0.00000000E+00  0.00000000E+00  0.00000000E+00
  0.00000000E+00  0.00000000E+00  0.00000000E+00
  0.00000000E+00  0.00000000E+00  0.00000000E+00
  0.00000000E+00  0.00000000E+00  0.00000000E+00
  0.00000000E+00  0.00000000E+00  0.00000000E+00
  0.00000000E+00  0.00000000E+00  0.00000000E+00
  0.00000000E+00  0.00000000E+00  0.00000000E+00
  0.00000000E+00  0.00000000E+00  0.00000000E+00
  0.00000000E+00  0.00000000E+00  0.00000000E+00
  0.00000000E+00  0.00000000E+00  0.00000000E+00
  0.00000000E+00  0.00000000E+00  0.00000000E+00
  0.00000000E+00  0.00000000E+00  0.00000000E+00
  0.00000000E+00  0.00000000E+00  0.00000000E+00
  0.00000000E+00  0.00000000E+00  0.00000000E+00
  0.00000000E+00  0.00000000E+00  0.00000000E+00
  0.00000000E+00  0.00000000E+00  0.00000000E+00
  0.00000000E+00  0.00000000E+00  0.00000000E+00
  0.00000000E+00  0.00000000E+00  0.00000000E+00