GST                                     
   1.00000000000000     
     20.49549893          0.0000000000000000    0.0000000000000000
     0.0000000000000000   20.49549893     0.0000000000000000
     0.0000000000000000    0.0000000000000000   20.49549893
   Ge   Sb   Te
    68    68   170
Direct
  0.3671345300000000  0.8288281100000000  0.8501687300000000
  0.5869960600000000  0.2688304100000000  0.2567291900000000
  0.1615323300000000  0.8611846500000000  0.8554584400000000
  0.2701735000000000  0.1014953300000000  0.4038683500000000
  0.7439678000000000  0.6702603700000000  0.6533794200000000
  0.0315904160000000  0.7576833200000000  0.8104242900000000
  0.8960830300000000  0.2494084200000000  0.7694939100000000
  0.1280998000000000  0.1763180500000000  0.4854987700000000
  0.0953195230000000  0.6827305000000000  0.0625045460000000
  0.8930089100000000  0.5331176800000000  0.7771473800000001
  0.2421895600000000  0.0800524500000000  0.1190316300000000
  0.5202515900000000  0.4743119400000000  0.0667722180000000
  0.7393107700000000  0.0689920060000000  0.8911050700000001
  0.9535880799999999  0.7905626700000000  0.6642045500000000
  0.2628221300000000  0.7189235700000000  0.0921401340000000
  0.4882242100000000  0.0652161780000000  0.7845252500000000
  0.6234976800000001 -0.0098063574000000  0.4230729000000000
  0.7783204900000000  0.2319153400000000  0.2037047200000000
  0.8715691100000000  0.5483591100000000  0.2397085700000000
  0.9429090900000000  0.3361011600000000  0.1551932200000000
  0.0886129300000000  0.4877178600000000  0.7236258800000001
  0.4471229700000000  0.0345752960000000  0.1332684700000000
  0.8836009800000000  0.6658237000000000  0.2567192300000000
  0.8798695100000000  0.2535378900000000  0.4883327900000000
  0.6842984800000000  0.8602343900000000  0.4727321200000000
  0.6319285500000000  0.5902102500000000  0.1088386000000000
  0.4571954000000000  0.3508096200000000  0.3695777600000000
  0.2817605700000000  0.4794606500000000  0.9014863200000000
  0.1969382800000000  0.2269979200000000  0.8362351700000000
  0.4438868900000000  0.5066387600000000 -0.0211193020000000
  0.8019314800000000  0.1590834000000000  0.9451306200000000
  0.0371616900000000  0.2836387200000000  0.4227997600000000
  0.3064318600000000  0.1104184200000000  0.2862004300000000
  0.6224635700000000  0.3834268800000000  0.4262753300000000
  0.9138060600000000  0.2848211000000000  0.9160500499999999
  0.3704504300000000  0.4296603100000000  0.3294205000000000
  0.3183373400000000  0.1239716300000000  0.7119078300000000
  0.9550012900000000  0.0978236020000000  0.8059207600000000
  0.3151954800000000  0.4396608400000000  0.4885891300000000
  0.1521639000000000  0.8043873200000000  0.1637625700000000
  0.3680209800000000  0.2519020600000000  0.6494804100000000
  0.3414021400000000  0.5115618800000000  0.7299319300000000
  0.3544040800000000  0.2134071100000000  0.1322747100000000
  0.3233454000000000  0.6469763100000000  0.9419588600000000
  0.7539826800000000  0.4098670500000000  0.6471558200000000
  0.9162084000000000  0.9911514500000000  0.4442129300000000
  0.3844457900000000  0.9533926100000000  0.6710462800000000
  0.8206151300000000  0.8820761600000000  0.0205816540000000
  0.3103507100000000  0.5580610600000000  0.1902181200000000
  0.8348320900000000  0.0764698220000000  0.6675235100000000
  0.8772336200000000  0.5551706300000000  0.5164955100000000
  0.4441235400000000  0.3968753400000000  0.9345996000000000
  0.5923440600000000  0.3597951500000000  0.6960602700000000
  0.3718862400000000  0.1490354900000000  0.4545302400000000
  0.9449178400000000  0.6143179700000000  0.8734405100000000
  0.0871336800000000  0.3043720500000000  0.7493508200000000
  0.0519014610000000  0.3066983800000000  0.9454869100000000
  0.1213729900000000  0.9596557500000000  0.7932281700000000
  0.7563388300000000  0.5641113200000000  0.2120948000000000
  0.6297952400000000  0.1767310400000000  0.8783553300000000
  0.5960543100000000  0.8962618200000000  0.6775799200000000
  0.7278807100000000  0.6564334500000000  0.3869072900000000
  0.7484967100000000  0.9062067200000000  0.9260676700000000
  0.1089965200000000  0.0669455250000000  0.0172340220000000
  0.1250074100000000  0.1936469500000000  0.3016145300000000
  0.8028965900000000  0.6265440900000000  0.8986418500000000
  0.2011323000000000  0.5206598600000000  0.0506248150000000
  0.7528391000000000  0.0558410800000000  0.5094399900000000
  0.4182480800000000  0.5430528100000001  0.5630445200000000
  0.0047663252000000  0.5269195300000000  0.5342966300000001
  0.0838274150000000  0.7813576500000000  0.4030224500000000
  0.9197484100000000  0.8879454700000000  0.1100096300000000
  0.2500511100000000  0.9025532000000001  0.3810252800000000
  0.5295514700000000  0.7703394900000000  0.8171382200000000
  0.1432690200000000  0.7325464300000000  0.8657808600000000
  0.9264950500000000  0.4799385400000000  0.1464298700000000
  0.3893419500000000  0.2653701900000000  0.5216815700000000
  0.3935416900000000  0.9001968000000000  0.5491504400000000
 -0.0046508273000000  0.8803458400000000  0.2565869900000000
  0.4181915700000000  0.7667015400000000  0.5773064999999999
  0.5819571600000000  0.7844875500000000  0.6138974000000000
  0.1242162200000000  0.6564499900000000  0.3588051400000000
  0.5967011500000000  0.5897481800000000  0.2915190600000000
  0.1347288800000000  0.9742820200000000  0.4203399000000000
  0.9215239800000000  0.1717962000000000  0.5959520800000000
  0.0133631180000000  0.6734650800000000  0.2549292400000000
  0.4721365500000000  0.2968845000000000  0.0094819534000000
  0.1655545500000000  0.2377263200000000  0.6492119000000000
  0.9679985700000000  0.6629921300000000  0.7535649400000000
  0.3331725700000000  0.2964673100000000  0.0374809700000000
  0.7416031300000000  0.3492329400000000  0.3831333300000000
  0.6768906600000000  0.5063466100000000  0.4972998300000000
  0.0828474660000000  0.9535767500000000  0.5744767700000000
  0.8680880900000000  0.6143263100000000  0.4013473200000000
  0.0570168390000000  0.5448480500000000  0.0216350670000000
  0.0802147710000000  0.6194976500000000  0.6869548900000000
  0.7965802800000000  0.4344948100000000  0.1389656200000000
  0.5301644500000000  0.2505008500000000  0.8546504400000000
  0.4448280700000000  0.7129361600000000  0.4544262500000000
  0.0432219230000000  0.4081113300000000  0.8178664700000000
  0.1114816700000000  0.3985305200000000  0.1446858300000000
  0.2782009200000000  0.5181076200000000  0.3707628000000000
  0.5418598100000001  0.0977271070000000  0.5162001700000000
  0.8805151000000000  0.6913622500000000  0.1285971600000000
  0.6250958100000000  0.1989090600000000  0.0049970424000000
  0.6607647900000000  0.7555077800000000  0.8493638300000000
  0.3897633600000000  0.2494808400000000  0.3275059500000000
  0.6948755100000000  0.7140183000000000  0.0247309920000000
  0.8232058600000000  0.8094789100000001  0.8451868900000000
  0.6207273800000001  0.0642885550000000  0.8159726300000000
  0.1530730700000000  0.5237126400000000  0.5418748200000000
  0.4937770500000000  0.5349127000000000  0.7421226000000000
  0.5618225700000000  0.6626611900000000  0.5136876300000000
 -0.0048394549000000  0.0510625760000000  0.5318344100000000
  0.9054536800000000  0.1170971900000000  0.1520621500000000
  0.4971675800000000  0.3595888500000000  0.1293099800000000
  0.0301594960000000  0.3983655200000000  0.2557307600000000
  0.2446672400000000  0.3503929800000000  0.6604525900000000
  0.9121368600000000  0.4031043700000000  0.7823879400000000
  0.4572127400000000  0.2222497400000000  0.2102921400000000
  0.6859154500000000  0.9539266600000000  0.6031892300000000
  0.2816248200000000  0.0283802780000000  0.9119064700000000
  0.5997245100000000  0.1122054800000000  0.2667317900000000
  0.1015046700000000  0.5098140700000000  0.2972861700000000
  0.7307659300000000  0.8333665600000000  0.1014169600000000
  0.2409385600000000  0.7161511100000000  0.2805366200000000
  0.4358506600000000  0.8113929200000000  0.3123748400000000
  0.5865494200000000  0.8454107400000000  0.2679216000000000
  0.3426751000000000  0.0182273490000000  0.7869600300000000
  0.0036472919000000  0.0218185450000000  0.1621551300000000
  0.6440146200000000  0.8273342299999999  0.9677637600000000
  0.2598814100000000  0.8058634700000000  0.6856981300000000
  0.6367211000000000  0.4354130200000000  0.8740338400000000
  0.3880134600000000  0.5617154100000000  0.8747533300000000
  0.6984627100000000  0.2265786400000000  0.7813019600000000
  0.0731048680000000  0.0274533250000000  0.6908824300000000
  0.5384395500000000  0.5354255000000000  0.4799028900000000
  0.7128764200000000  0.6309832800000000  0.5278639000000001
  0.0540222360000000  0.5510374800000000  0.8862675800000001
  0.1647699000000000  0.4490886000000000  0.4325260700000000
  0.6261083400000000  0.5450113000000000  0.7639372400000000
  0.4792712100000000  0.6322559900000000  0.6439941500000000
  0.0725295170000000  0.2185256400000000  0.8517257300000000
  0.4490416800000000  0.9627785400000000  0.8528961700000000
  0.5011646400000001  0.6333066200000000  0.8547215400000000
  0.0242881090000000  0.4133540200000000  0.0436963910000000
  0.5406766500000000  0.7851048100000000  0.0489878380000000
  0.9765510600000000  0.4877606100000000  0.6600896200000000
  0.4414974700000000  0.3902247800000000  0.4912258800000000
  0.7022446000000000  0.0052115783000000  0.9975557900000001
  0.3333609400000000  0.3914877200000000  0.1326870600000000
 -0.0176248030000000  0.9948735399999999  0.0294046380000000
  0.0041298980000000  0.5856946600000000  0.3775589700000000
  0.3480986400000000  0.9413943000000000  0.1413936900000000
  0.4785716500000000  0.1185530900000000  0.3985390600000000
  0.2854882300000000  0.1780132800000000  0.9135319200000001
  0.5092225800000000  0.6353988699999999 -0.0007192863400000
  0.1371626900000000  0.9305736600000000  0.1551045900000000
  0.2035312700000000  0.3476593600000000  0.7964776700000000
  0.4269817300000000  0.0944324410000000  0.2476240100000000
  0.8068893700000001  0.5499657200000000  0.6823830000000000
  0.0043492478000000  0.9574309500000000  0.8591164500000000
  0.3894430200000000  0.8352273500000000  0.7216380300000000
  0.2640925700000000  0.3266587000000000  0.5156763500000000
  0.3661193900000000  0.1087993100000000  0.0647487510000000
  0.9612313400000000  0.7833953400000000  0.3449070000000000
  0.5637664300000000 -0.0112312850000000  0.3094123500000000
  0.7546619100000000  0.2638256300000000  0.4822857200000000
  0.3521103800000000  0.6197057000000000  0.4728792900000000
  0.5277191300000000  0.9279223400000000  0.5231799200000000
  0.9186132500000000  0.2977515900000000  0.3771474900000000
  0.7396595000000000  0.1514189000000000  0.6194037900000000
  0.5679374200000000  0.7206290700000000  0.2078898900000000
  0.8403087100000000  0.0218856400000000  0.0244284180000000
  0.3075550900000000  0.7185509500000000  0.8401775400000000
  0.8906805700000000  0.2738917000000000  0.0495749700000000
  0.7844256800000000  0.0769779050000000  0.3298547100000000
  0.6352307800000000  0.4921932900000000  0.0237413010000000
  0.7110078399999999  0.8008508800000000  0.5868042000000000
  0.7722507300000000  0.3399778200000000  0.0493616380000000
  0.8898741000000000 -0.0252297860000000  0.5733185800000000
  0.5624477500000000  0.8296595700000000  0.4372249400000000
  0.1884377900000000  0.1431523500000000  0.7425539400000000
  0.1367946200000000  0.8531894000000000  0.2977841600000000
  0.0180287670000000  0.7550044400000000  0.1414513100000000
  0.9292060300000000  0.1453086600000000  0.9392753600000000
  0.8722881500000000  0.6468717600000000  0.6053338500000000
  0.7030348800000000  0.2435231300000000  0.3094532900000000
  0.1768785600000000  0.3125065900000000  0.9863963700000000
  0.9757192400000000  0.8680176900000000  0.5616315500000000
  0.7783198700000000  0.5967047599999999  0.0915867120000000
  0.7620659200000000  0.9702233600000000  0.7158428500000000
  0.3044009000000000  0.3353196400000000  0.2734776400000000
  0.5181055600000000  0.0904415480000000  0.9863461600000000
  0.8286841700000001  0.9844977400000000  0.8639933500000000
  0.6556371500000000  0.1152279300000000  0.4416042700000000
  0.8387511500000000 -0.0111266250000000  0.1583533200000000
  0.1818206400000000  0.0593178450000000  0.5121714900000000
  0.1218679100000000  0.4029140800000000  0.6332638400000000
  0.2879357000000000  0.8026668200000000  0.1844792400000000
  0.2413351600000000  0.9022761400000000  0.5911940100000000
  0.7170620900000000  0.6746087000000000  0.2536973900000000
  0.2144013200000000  0.8231666500000000  0.4851122200000000
  0.1865709900000000  0.6374485300000000  0.1518694500000000
  0.5642519000000000  0.3882405500000000  0.3087710300000000
  0.1558816800000000  0.0496750510000000  0.8776284100000000
  0.4062455800000000  0.9300858500000000  0.0205801520000000
  0.8773722400000000  0.4873032700000000  0.3457553900000000
  0.8422586700000000  0.2760067200000000  0.6562356400000000
  0.8758586700000000  0.1743029000000000  0.2717161700000000
  0.6406509800000000  0.4739911100000000  0.6469921600000000
  0.7850748200000000  0.2725088400000000  0.8949729000000000
  0.0208494240000000  0.2072769700000000  0.0258455600000000
  0.3716488600000000  0.9534002300000000  0.4231133600000000
 -0.0124834140000000  0.4167520500000000  0.4599668500000000
  0.2780910000000000  0.1790052600000000  0.5917311000000000
  0.2997067200000000  0.7120137100000000  0.6009831600000000
  0.1981317800000000  0.9703935600000000  0.0451477360000000
  0.8135995600000000  0.6909381900000000  0.7864391400000000
  0.6357415600000000  0.0741674230000000  0.6450395500000000
  0.7013129200000000  0.3624365700000000  0.7768043900000000
  0.1814401100000000  0.6754212800000000  0.7503299300000000
  0.6203688500000000  0.3115839600000000  0.1419492600000000
  0.4732487600000000  0.4300628100000000  0.6499518399999999
  0.9560741600000000  0.8178023400000000  0.8952396400000000
  0.4397726100000000  0.7572874000000001  0.1912994600000000
  0.8084861200000000  0.4482553200000000  0.5256364700000000
  0.8312299600000000  0.1330982300000000  0.7825316000000000
  0.4426656000000000  0.1444820700000000  0.6516621000000000
  0.7623061700000000  0.7856978600000000  0.4030897700000000
  0.6916164299999999  0.5174617100000000  0.3625844100000000
  0.9937794500000000  0.7017308700000000  0.9587486400000000
  0.1189454900000000  0.3261604100000000  0.3227365700000000
  0.7816401400000000  0.4465622200000000  0.9469284600000000
  0.3909816300000000  0.0684138270000000  0.5529034200000000
  0.1995057100000000  0.1633731600000000  0.0209762590000000
  0.8404874200000000  0.3473984000000000  0.2326288900000000
  0.9243796500000000  0.3551840500000000  0.5604427300000000
  0.5592753800000000  0.2701678100000000  0.4213471200000000
  0.2718685600000000  0.8876288800000000  0.9130683500000000
  0.0403797950000000  0.1522121900000000  0.3954920100000000
  0.8208652300000000  0.7480082800000000 -0.0133769070000000
  0.7483362300000000  0.9670093300000000  0.4050411100000000
  0.7437935400000000  0.1696634900000000  0.0557541230000000
  0.5248058500000000  0.9188537500000000  0.0782599620000000
  0.9250168700000000  0.5736219299999999  0.0495333770000000
  0.5674914000000000  0.2201959500000000  0.7284504900000000
  0.0661414230000000  0.7513078700000000  0.6117385200000000
  0.6196604700000000  0.3327684000000000  0.9660573300000000
  0.2155340200000000  0.2161944400000000  0.3940464800000000
  0.6730968000000001  0.6344596700000000  0.9151397000000000
  0.1700050400000000  0.4397207400000000  0.9502065300000000
  0.3402522500000000  0.6276130200000000  0.2926726000000000
  0.7747547400000000  0.5203240700000000  0.8318745600000000
  0.2286880900000000  0.5001508000000000  0.7858727400000000
  0.6506412400000000  0.4967027000000000  0.1984423700000000
  0.2525031300000000  0.1896564300000000  0.2036266500000000
  0.2351074100000000  0.9696861200000000  0.7200617200000000
  0.4198501100000000  0.4898243400000000  0.2302200200000000
  0.8596059400000000  0.1061069300000000  0.4527819800000000
  0.9518901000000000  0.9902452899999999  0.7283014100000000
  0.6031482200000000  0.6936638700000000  0.3875577900000000
  0.5593241100000000  0.1200748700000000  0.1396300500000000
  0.6544023300000000  0.9186864700000000  0.1729557500000000
  0.9006707200000000  0.7273379300000000  0.4935981700000000
  0.9078752000000000  0.4238104500000000  0.9163471800000000
  0.2059148700000000  0.6068314800000000  0.9556751600000000
  0.3543841600000000  0.2173630000000000  0.7904351100000000
  0.6137511100000000  0.6957890100000000  0.7075175600000000
  0.8316656700000000  0.8573641600000000  0.7123195000000000
  0.3209928600000000  0.7749309400000000  0.3745513800000000
  0.7164048700000000  0.8412749100000000  0.2912340500000000
  0.1409427800000000  0.0516483820000000  0.3117351500000000
  0.5129874700000000  0.4102222700000000  0.8275811100000000
 -0.0036327715000000  0.1825510300000000  0.7131073999999999
  0.0533146110000000  0.8440355400000000  0.7243951500000000
  0.4801669400000000  0.5349610100000000  0.3481192100000000
  0.7175059100000000  0.0880306070000000  0.2125741200000000
  0.8336332200000000  0.8087009200000000  0.1879016100000000
  0.4447689300000000  0.1469348500000000  0.8873505100000000
  0.2889226100000000  0.5056667700000000  0.6028909500000000
  0.3752183200000000  0.6931874200000000  0.0440754450000000
  0.8759976600000000  0.9397480900000000  0.2912966600000000
  0.5085120600000000  0.9861569200000000  0.6730959000000000
  0.1720672500000000  0.6484117700000001  0.4874990900000000
  0.1046269400000000  0.2647606400000000  0.1332774700000000
  0.5747916199999999  0.9908779100000000  0.9205221300000000
  0.0564083080000000  0.5629430000000000  0.1813813800000000
  0.3898635500000000  0.9330362400000000  0.2816755100000000
  0.0857694850000000  0.8912645700000000  0.9505073100000000
  0.3359585900000000  0.3632508100000000  0.8834531600000000
  0.2258691700000000  0.4739706200000000  0.2498256800000000
  0.5003267900000000  0.5845420000000000  0.1268337100000000
  0.6612828200000000  0.3411221700000000  0.5860839000000000
  0.1064617200000000  0.1040471500000000  0.1467523500000000
  0.5343707200000000  0.2311657500000000  0.5450752300000000
  0.0306344510000000  0.6857651100000000  0.4999358000000000
  0.1720768700000000  0.7817305600000000  0.0314224650000000
  0.2503730400000000  0.0038296157000000  0.2447150200000000
  0.3384545000000000  0.5001086900000000  0.0508513030000000
  0.3822976400000000  0.3913210400000000  0.7430656800000000
 -0.0064679041000000  0.2276707900000000  0.2070560000000000
  0.6180744200000000  0.8872722500000000  0.8000386500000000
  0.0251656090000000  0.2551746000000000  0.5577754900000000
  0.4660284700000000  0.8114350299999999  0.9302666500000000
  0.9908097000000000  0.0055222829000000  0.3164587400000000
 
  0.00000000E+00  0.00000000E+00  0.00000000E+00
  0.00000000E+00  0.00000000E+00  0.00000000E+00
  0.00000000E+00  0.00000000E+00  0.00000000E+00
  0.00000000E+00  0.00000000E+00  0.00000000E+00
  0.00000000E+00  0.00000000E+00  0.00000000E+00
  0.00000000E+00  0.00000000E+00  0.00000000E+00
  0.00000000E+00  0.00000000E+00  0.00000000E+00
  0.00000000E+00  0.00000000E+00  0.00000000E+00
  0.00000000E+00  0.00000000E+00  0.00000000E+00
  0.00000000E+00  0.00000000E+00  0.00000000E+00
  0.00000000E+00  0.00000000E+00  0.00000000E+00
  0.00000000E+00  0.00000000E+00  0.00000000E+00
  0.00000000E+00  0.00000000E+00  0.00000000E+00
  0.00000000E+00  0.00000000E+00  0.00000000E+00
  0.00000000E+00  0.00000000E+00  0.00000000E+00
  0.00000000E+00  0.00000000E+00  0.00000000E+00
  0.00000000E+00  0.00000000E+00  0.00000000E+00
  0.00000000E+00  0.00000000E+00  0.00000000E+00
  0.00000000E+00  0.00000000E+00  0.00000000E+00
  0.00000000E+00  0.00000000E+00  0.00000000E+00
  0.00000000E+00  0.00000000E+00  0.00000000E+00
  0.00000000E+00  0.00000000E+00  0.00000000E+00
  0.00000000E+00  0.00000000E+00  0.00000000E+00
  0.00000000E+00  0.00000000E+00  0.00000000E+00
  0.00000000E+00  0.00000000E+00  0.00000000E+00
  0.00000000E+00  0.00000000E+00  0.00000000E+00
  0.00000000E+00  0.00000000E+00  0.00000000E+00
  0.00000000E+00  0.00000000E+00  0.00000000E+00
  0.00000000E+00  0.00000000E+00  0.00000000E+00
  0.00000000E+00  0.00000000E+00  0.00000000E+00
  0.00000000E+00  0.00000000E+00  0.00000000E+00
  0.00000000E+00  0.00000000E+00  0.00000000E+00
  0.00000000E+00  0.00000000E+00  0.00000000E+00
  0.00000000E+00  0.00000000E+00  0.00000000E+00
  0.00000000E+00  0.00000000E+00  0.00000000E+00
  0.00000000E+00  0.00000000E+00  0.00000000E+00
  0.00000000E+00  0.00000000E+00  0.00000000E+00
  0.00000000E+00  0.00000000E+00  0.00000000E+00
  0.00000000E+00  0.00000000E+00  0.00000000E+00
  0.00000000E+00  0.00000000E+00  0.00000000E+00
  0.00000000E+00  0.00000000E+00  0.00000000E+00
  0.00000000E+00  0.00000000E+00  0.00000000E+00
  0.00000000E+00  0.00000000E+00  0.00000000E+00
  0.00000000E+00  0.00000000E+00  0.00000000E+00
  0.00000000E+00  0.00000000E+00  0.00000000E+00
  0.00000000E+00  0.00000000E+00  0.00000000E+00
  0.00000000E+00  0.00000000E+00  0.00000000E+00
  0.00000000E+00  0.00000000E+00  0.00000000E+00
  0.00000000E+00  0.00000000E+00  0.00000000E+00
  0.00000000E+00  0.00000000E+00  0.00000000E+00
  0.00000000E+00  0.00000000E+00  0.00000000E+00
  0.00000000E+00  0.00000000E+00  0.00000000E+00
  0.00000000E+00  0.00000000E+00  0.00000000E+00
  0.00000000E+00  0.00000000E+00  0.00000000E+00
  0.00000000E+00  0.00000000E+00  0.00000000E+00
  0.00000000E+00  0.00000000E+00  0.00000000E+00
  0.00000000E+00  0.00000000E+00  0.00000000E+00
  0.00000000E+00  0.00000000E+00  0.00000000E+00
  0.00000000E+00  0.00000000E+00  0.00000000E+00
  0.00000000E+00  0.00000000E+00  0.00000000E+00
  0.00000000E+00  0.00000000E+00  0.00000000E+00
  0.00000000E+00  0.00000000E+00  0.00000000E+00
  0.00000000E+00  0.00000000E+00  0.00000000E+00
  0.00000000E+00  0.00000000E+00  0.00000000E+00
  0.00000000E+00  0.00000000E+00  0.00000000E+00
  0.00000000E+00  0.00000000E+00  0.00000000E+00
  0.00000000E+00  0.00000000E+00  0.00000000E+00
  0.00000000E+00  0.00000000E+00  0.00000000E+00
  0.00000000E+00  0.00000000E+00  0.00000000E+00
  0.00000000E+00  0.00000000E+00  0.00000000E+00
  0.00000000E+00  0.00000000E+00  0.00000000E+00
  0.00000000E+00  0.00000000E+00  0.00000000E+00
  0.00000000E+00  0.00000000E+00  0.00000000E+00
  0.00000000E+00  0.00000000E+00  0.00000000E+00
  0.00000000E+00  0.00000000E+00  0.00000000E+00
  0.00000000E+00  0.00000000E+00  0.00000000E+00
  0.00000000E+00  0.00000000E+00  0.00000000E+00
  0.00000000E+00  0.00000000E+00  0.00000000E+00
  0.00000000E+00  0.00000000E+00  0.00000000E+00
  0.00000000E+00  0.00000000E+00  0.00000000E+00
  0.00000000E+00  0.00000000E+00  0.00000000E+00
  0.00000000E+00  0.00000000E+00  0.00000000E+00
  0.00000000E+00  0.00000000E+00  0.00000000E+00
  0.00000000E+00  0.00000000E+00  0.00000000E+00
  0.00000000E+00  0.00000000E+00  0.00000000E+00
  0.00000000E+00  0.00000000E+00  0.00000000E+00
  0.00000000E+00  0.00000000E+00  0.00000000E+00
  0.00000000E+00  0.00000000E+00  0.00000000E+00
  0.00000000E+00  0.00000000E+00  0.00000000E+00
  0.00000000E+00  0.00000000E+00  0.00000000E+00
  0.00000000E+00  0.00000000E+00  0.00000000E+00
  0.00000000E+00  0.00000000E+00  0.00000000E+00
  0.00000000E+00  0.00000000E+00  0.00000000E+00
  0.00000000E+00  0.00000000E+00  0.00000000E+00
  0.00000000E+00  0.00000000E+00  0.00000000E+00
  0.00000000E+00  0.00000000E+00  0.00000000E+00
  0.00000000E+00  0.00000000E+00  0.00000000E+00
  0.00000000E+00  0.00000000E+00  0.00000000E+00
  0.00000000E+00  0.00000000E+00  0.00000000E+00
  0.00000000E+00  0.00000000E+00  0.00000000E+00
  0.00000000E+00  0.00000000E+00  0.00000000E+00
  0.00000000E+00  0.00000000E+00  0.00000000E+00
  0.00000000E+00  0.00000000E+00  0.00000000E+00
  0.00000000E+00  0.00000000E+00  0.00000000E+00
  0.00000000E+00  0.00000000E+00  0.00000000E+00
  0.00000000E+00  0.00000000E+00  0.00000000E+00
  0.00000000E+00  0.00000000E+00  0.00000000E+00
  0.00000000E+00  0.00000000E+00  0.00000000E+00
  0.00000000E+00  0.00000000E+00  0.00000000E+00
  0.00000000E+00  0.00000000E+00  0.00000000E+00
  0.00000000E+00  0.00000000E+00  0.00000000E+00
  0.00000000E+00  0.00000000E+00  0.00000000E+00
  0.00000000E+00  0.00000000E+00  0.00000000E+00
  0.00000000E+00  0.00000000E+00  0.00000000E+00
  0.00000000E+00  0.00000000E+00  0.00000000E+00
  0.00000000E+00  0.00000000E+00  0.00000000E+00
  0.00000000E+00  0.00000000E+00  0.00000000E+00
  0.00000000E+00  0.00000000E+00  0.00000000E+00
  0.00000000E+00  0.00000000E+00  0.00000000E+00
  0.00000000E+00  0.00000000E+00  0.00000000E+00
  0.00000000E+00  0.00000000E+00  0.00000000E+00
  0.00000000E+00  0.00000000E+00  0.00000000E+00
  0.00000000E+00  0.00000000E+00  0.00000000E+00
  0.00000000E+00  0.00000000E+00  0.00000000E+00
  0.00000000E+00  0.00000000E+00  0.00000000E+00
  0.00000000E+00  0.00000000E+00  0.00000000E+00
  0.00000000E+00  0.00000000E+00  0.00000000E+00
  0.00000000E+00  0.00000000E+00  0.00000000E+00
  0.00000000E+00  0.00000000E+00  0.00000000E+00
  0.00000000E+00  0.00000000E+00  0.00000000E+00
  0.00000000E+00  0.00000000E+00  0.00000000E+00
  0.00000000E+00  0.00000000E+00  0.00000000E+00
  0.00000000E+00  0.00000000E+00  0.00000000E+00
  0.00000000E+00  0.00000000E+00  0.00000000E+00
  0.00000000E+00  0.00000000E+00  0.00000000E+00
  0.00000000E+00  0.00000000E+00  0.00000000E+00
  0.00000000E+00  0.00000000E+00  0.00000000E+00
  0.00000000E+00  0.00000000E+00  0.00000000E+00
  0.00000000E+00  0.00000000E+00  0.00000000E+00
  0.00000000E+00  0.00000000E+00  0.00000000E+00
  0.00000000E+00  0.00000000E+00  0.00000000E+00
  0.00000000E+00  0.00000000E+00  0.00000000E+00
  0.00000000E+00  0.00000000E+00  0.00000000E+00
  0.00000000E+00  0.00000000E+00  0.00000000E+00
  0.00000000E+00  0.00000000E+00  0.00000000E+00
  0.00000000E+00  0.00000000E+00  0.00000000E+00
  0.00000000E+00  0.00000000E+00  0.00000000E+00
  0.00000000E+00  0.00000000E+00  0.00000000E+00
  0.00000000E+00  0.00000000E+00  0.00000000E+00
  0.00000000E+00  0.00000000E+00  0.00000000E+00
  0.00000000E+00  0.00000000E+00  0.00000000E+00
  0.00000000E+00  0.00000000E+00  0.00000000E+00
  0.00000000E+00  0.00000000E+00  0.00000000E+00
  0.00000000E+00  0.00000000E+00  0.00000000E+00
  0.00000000E+00  0.00000000E+00  0.00000000E+00
  0.00000000E+00  0.00000000E+00  0.00000000E+00
  0.00000000E+00  0.00000000E+00  0.00000000E+00
  0.00000000E+00  0.00000000E+00  0.00000000E+00
  0.00000000E+00  0.00000000E+00  0.00000000E+00
  0.00000000E+00  0.00000000E+00  0.00000000E+00
  0.00000000E+00  0.00000000E+00  0.00000000E+00
  0.00000000E+00  0.00000000E+00  0.00000000E+00
  0.00000000E+00  0.00000000E+00  0.00000000E+00
  0.00000000E+00  0.00000000E+00  0.00000000E+00
  0.00000000E+00  0.00000000E+00  0.00000000E+00
  0.00000000E+00  0.00000000E+00  0.00000000E+00
  0.00000000E+00  0.00000000E+00  0.00000000E+00
  0.00000000E+00  0.00000000E+00  0.00000000E+00
  0.00000000E+00  0.00000000E+00  0.00000000E+00
  0.00000000E+00  0.00000000E+00  0.00000000E+00
  0.00000000E+00  0.00000000E+00  0.00000000E+00
  0.00000000E+00  0.00000000E+00  0.00000000E+00
  0.00000000E+00  0.00000000E+00  0.00000000E+00
  0.00000000E+00  0.00000000E+00  0.00000000E+00
  0.00000000E+00  0.00000000E+00  0.00000000E+00
  0.00000000E+00  0.00000000E+00  0.00000000E+00
  0.00000000E+00  0.00000000E+00  0.00000000E+00
  0.00000000E+00  0.00000000E+00  0.00000000E+00
  0.00000000E+00  0.00000000E+00  0.00000000E+00
  0.00000000E+00  0.00000000E+00  0.00000000E+00
  0.00000000E+00  0.00000000E+00  0.00000000E+00
  0.00000000E+00  0.00000000E+00  0.00000000E+00
  0.00000000E+00  0.00000000E+00  0.00000000E+00
  0.00000000E+00  0.00000000E+00  0.00000000E+00
  0.00000000E+00  0.00000000E+00  0.00000000E+00
  0.00000000E+00  0.00000000E+00  0.00000000E+00
  0.00000000E+00  0.00000000E+00  0.00000000E+00
  0.00000000E+00  0.00000000E+00  0.00000000E+00
  0.00000000E+00  0.00000000E+00  0.00000000E+00
  0.00000000E+00  0.00000000E+00  0.00000000E+00
  0.00000000E+00  0.00000000E+00  0.00000000E+00
  0.00000000E+00  0.00000000E+00  0.00000000E+00
  0.00000000E+00  0.00000000E+00  0.00000000E+00
  0.00000000E+00  0.00000000E+00  0.00000000E+00
  0.00000000E+00  0.00000000E+00  0.00000000E+00
  0.00000000E+00  0.00000000E+00  0.00000000E+00
  0.00000000E+00  0.00000000E+00  0.00000000E+00
  0.00000000E+00  0.00000000E+00  0.00000000E+00
  0.00000000E+00  0.00000000E+00  0.00000000E+00
  0.00000000E+00  0.00000000E+00  0.00000000E+00
  0.00000000E+00  0.00000000E+00  0.00000000E+00
  0.00000000E+00  0.00000000E+00  0.00000000E+00
  0.00000000E+00  0.00000000E+00  0.00000000E+00
  0.00000000E+00  0.00000000E+00  0.00000000E+00
  0.00000000E+00  0.00000000E+00  0.00000000E+00
  0.00000000E+00  0.00000000E+00  0.00000000E+00
  0.00000000E+00  0.00000000E+00  0.00000000E+00
  0.00000000E+00  0.00000000E+00  0.00000000E+00
  0.00000000E+00  0.00000000E+00  0.00000000E+00
  0.00000000E+00  0.00000000E+00  0.00000000E+00
  0.00000000E+00  0.00000000E+00  0.00000000E+00
  0.00000000E+00  0.00000000E+00  0.00000000E+00
  0.00000000E+00  0.00000000E+00  0.00000000E+00
  0.00000000E+00  0.00000000E+00  0.00000000E+00
  0.00000000E+00  0.00000000E+00  0.00000000E+00
  0.00000000E+00  0.00000000E+00  0.00000000E+00
  0.00000000E+00  0.00000000E+00  0.00000000E+00
  0.00000000E+00  0.00000000E+00  0.00000000E+00
  0.00000000E+00  0.00000000E+00  0.00000000E+00
  0.00000000E+00  0.00000000E+00  0.00000000E+00
  0.00000000E+00  0.00000000E+00  0.00000000E+00
  0.00000000E+00  0.00000000E+00  0.00000000E+00
  0.00000000E+00  0.00000000E+00  0.00000000E+00
  0.00000000E+00  0.00000000E+00  0.00000000E+00
  0.00000000E+00  0.00000000E+00  0.00000000E+00