In2O3 structure 5 - random placement wit
   1.00000000000000     
     8.0006746595193867    0.0425429221989338    0.0398790390227032
     0.0426249746968257    7.9104474118471302    0.0992060920533720
     0.0402578514894446    0.0989658649917498    7.9497735929870634
   In   Ga   O 
    14     2    24
Direct
  0.7845505820583581  0.4594549108859184  0.1012770410610496
  0.7880725369606502  0.4493350668028579  0.6062495055275782
  0.5256836410868519  0.1916038695141786  0.8519576430012362
  0.7894733212606335  0.9394200899036428  0.1084351893089073
  0.2990920753383561  0.4164886772394970  0.5690230730448117
  0.0246574077666914  0.1647219975505239  0.3218414685832912
  0.3001293447198348  0.4191840980345027  0.0719276600912588
  0.0265892555637955  0.6669162879548907  0.3229065912359686
  0.5263435071548643  0.1929477769434295  0.3492653612950126
  0.7907439552390750  0.9429120774395119  0.6029080599438584
  0.0242151900872867  0.6632303245272090  0.8239514520683152
  0.0228600881761742  0.1646750315363947  0.8224158840040019
  0.3042422611332873  0.9083737937677090  0.5732188245601442
  0.3060181955600034  0.9091099979520487  0.0716066139934606
  0.5158291453080222  0.6890242279288816  0.8366153088435074
  0.5195708056098238  0.6902033720120248  0.3487815588581508
  0.5605639716271301  0.2994263773127387  0.6018607593737100
  0.2719091419479354  0.7896823356713978  0.3219744762671242
  0.7609682377553721  0.2044090467135808  0.2115691124304312
  0.4270157877283872  0.6535426507762659  0.6057429807486315
  0.5567046277432677  0.4625968306691203  0.9474271205246937
  0.7456807673405513  0.7005861539737238  0.7340487333963405
  0.4310968843872726  0.9320002777988164  0.8161781674140901
  0.2610661831177432  0.2967663438799679  0.8178091307383083
  0.2632294221059427  0.1602952249299547  0.4564809890818620
  0.7631557097778935  0.0577939521915390  0.8594562805055649
  0.0636451807640050  0.9098088114685591  0.7053389706848521
  0.0668344080838967  0.0455814181687650  0.0702846551686061
  0.5626990939864510  0.9333132549849091  0.4518852905947675
  0.2697677314402080  0.6628007869034122  0.9434008849957831
  0.4204278860488248  0.4611809425683833  0.3134354707574113
  0.9127332265933730  0.9117414891864958  0.3591009174361271
  0.5606166172071299  0.7888564782788423  0.1160528306877539
  0.4149744496347845  0.1601696608397709  0.1045222323047323
  0.9076490930207390  0.4112204684008341  0.8595285019439118
  0.0578765098159112  0.5506600976166121  0.5700678546041168
  0.9064743718755330  0.2011366829634025  0.5670418930156575
  0.0620751347181970  0.4147247670549493  0.2089413236335925
  0.7450488915152905  0.5748265558442022  0.3600194919781660
  0.9170317844565157  0.7014918002636918  0.0699703123188131
 
  0.00000000E+00  0.00000000E+00  0.00000000E+00
  0.00000000E+00  0.00000000E+00  0.00000000E+00
  0.00000000E+00  0.00000000E+00  0.00000000E+00
  0.00000000E+00  0.00000000E+00  0.00000000E+00
  0.00000000E+00  0.00000000E+00  0.00000000E+00
  0.00000000E+00  0.00000000E+00  0.00000000E+00
  0.00000000E+00  0.00000000E+00  0.00000000E+00
  0.00000000E+00  0.00000000E+00  0.00000000E+00
  0.00000000E+00  0.00000000E+00  0.00000000E+00
  0.00000000E+00  0.00000000E+00  0.00000000E+00
  0.00000000E+00  0.00000000E+00  0.00000000E+00
  0.00000000E+00  0.00000000E+00  0.00000000E+00
  0.00000000E+00  0.00000000E+00  0.00000000E+00
  0.00000000E+00  0.00000000E+00  0.00000000E+00
  0.00000000E+00  0.00000000E+00  0.00000000E+00
  0.00000000E+00  0.00000000E+00  0.00000000E+00
  0.00000000E+00  0.00000000E+00  0.00000000E+00
  0.00000000E+00  0.00000000E+00  0.00000000E+00
  0.00000000E+00  0.00000000E+00  0.00000000E+00
  0.00000000E+00  0.00000000E+00  0.00000000E+00
  0.00000000E+00  0.00000000E+00  0.00000000E+00
  0.00000000E+00  0.00000000E+00  0.00000000E+00
  0.00000000E+00  0.00000000E+00  0.00000000E+00
  0.00000000E+00  0.00000000E+00  0.00000000E+00
  0.00000000E+00  0.00000000E+00  0.00000000E+00
  0.00000000E+00  0.00000000E+00  0.00000000E+00
  0.00000000E+00  0.00000000E+00  0.00000000E+00
  0.00000000E+00  0.00000000E+00  0.00000000E+00
  0.00000000E+00  0.00000000E+00  0.00000000E+00
  0.00000000E+00  0.00000000E+00  0.00000000E+00
  0.00000000E+00  0.00000000E+00  0.00000000E+00
  0.00000000E+00  0.00000000E+00  0.00000000E+00
  0.00000000E+00  0.00000000E+00  0.00000000E+00
  0.00000000E+00  0.00000000E+00  0.00000000E+00
  0.00000000E+00  0.00000000E+00  0.00000000E+00
  0.00000000E+00  0.00000000E+00  0.00000000E+00
  0.00000000E+00  0.00000000E+00  0.00000000E+00
  0.00000000E+00  0.00000000E+00  0.00000000E+00
  0.00000000E+00  0.00000000E+00  0.00000000E+00
  0.00000000E+00  0.00000000E+00  0.00000000E+00
