Amorphous Sb2Se3                        
   1.00000000000000     
    23.1567606951059801    0.0000000000000000    0.0000000000000000
     0.0000000000000000   23.1567606951059801    0.0000000000000000
     0.0000000000000000    0.0000000000000000   23.1567606951059801
   Bi   Te
   120   180
Direct
  0.3127582408571686  0.5837238845779789  0.8987465474591217
  0.7652404744147983  0.3546899892148417  0.3116428024602395
  0.4771453942337323  0.2491311871769961  0.0107307984400758
  0.3593537660321893  0.0628343885119770  0.3294427204511123
  0.7843726287453141  0.8804353914789446  0.2866752280161622
  0.1483840749922406  0.8204544162527553  0.4971729601474459
  0.1663468193572063  0.6035406705313214  0.6283827681229006
  0.4454328930555553  0.3606961371504062  0.2987790440142450
  0.0636306783465373  0.7106246128044316  0.6161218577602307
  0.9655146613610749  0.8894326657331052  0.8442045674953925
  0.2321871414689110  0.2875865612741081  0.0919499412040961
  0.7657429261109414  0.6466449156776273  0.0381829154374977
  0.6708277650006417  0.0570757241159376  0.8827594208374464
  0.5041903580038061  0.6617314407234336  0.4102782106015357
  0.0617506790433388  0.7370708649730312  0.8783505332802664
  0.7511720848325858  0.2273221086115251  0.7324562806879917
  0.1466488050906873  0.4558707000657690  0.2406313983071171
  0.7823830268251126  0.9737311803319685  0.6388492447371912
  0.9355152071650198  0.6868862053116415  0.0344474935295508
  0.3435971645071306  0.2757968536712101  0.6864909814634005
  0.0728496716585330  0.4848485527967156  0.5392748014022128
  0.3609195271668237  0.5536034506940235  0.5787925913368117
  0.2310502928348755  0.3818607791912466  0.6018125986560492
  0.5078283243689782  0.1392106154884959  0.1884107713219649
  0.7534941746871562  0.9903329298769755  0.1815944312141785
  0.6642727539851728  0.3022792646278237  0.8004484502476155
  0.5902453843753162  0.0596329106657239  0.6094644659515446
  0.8573883226571187  0.2301686256250066  0.9341483272435576
  0.6336781054192638  0.0698400728359588  0.4108242474676789
  0.7237392916429084  0.7626967491192236  0.2754523199612496
  0.2072624264137496  0.0230106462060364  0.9658318097537119
  0.3256112285176353  0.1080478462574659  0.2034597121652397
  0.1463454166302272  0.4007058331473412  0.7239797103308396
  0.8541128625664325  0.0987352615286586  0.0298968797328831
  0.4729715230326159  0.7616756634160089  0.7952634446133980
  0.3577550117001117  0.4880589441291724  0.0509388861582853
  0.1571511208988575  0.6752735203892473  0.0031946947136792
  0.5607947610974529  0.3416621267693785  0.1009635218396976
  0.2760247754992701  0.7213996896147632  0.1030756947259048
  0.3862772270096076  0.0702771294461284  0.5760621500920309
  0.4572446388872828  0.2320290343666619  0.7470974628142221
  0.9992519752031293  0.8832685025973527  0.2834758447929047
  0.8630773913301907  0.7809459059786360  0.6021993179619453
  0.0053332350926798  0.2353167070148241  0.4052654622299447
  0.8800826847581436  0.6403953672270566  0.2030695565377220
  0.9177248004057018  0.1071345561847771  0.3586593427634436
  0.6754480909517192  0.5171639352909269  0.8268386015298346
  0.3728106531198551  0.8496903086633734  0.7684720242779622
  0.6984410190699627  0.2660118933422671  0.6156933098720727
  0.1011288750091847  0.5395491919343336  0.8617316504945296
  0.2766500549719540  0.8871117050160433  0.1769218119991706
  0.3470461519437241  0.8797202121404358  0.0576756929818591
  0.8094987806831504  0.3478810077932604  0.7209385236349810
  0.0948235355955673  0.4834456087295974  0.9839642493925206
  0.9780563388249469  0.4160891689557337  0.4742935680618719
  0.7430048946255572  0.7109584122195189  0.8637762974228319
  0.5274941234403795  0.4441045147735684  0.0188998748789393
  0.1901544485388618  0.9619405700121660  0.3513703785919802
  0.0283762743824496  0.2937521908287326  0.8836346418981927
  0.5326288335029812  0.2894047248972054  0.3702609903863463
  0.1353323318871252  0.0589657982274566  0.1814697796148891
  0.8546465202699747  0.0173215161171215  0.8108400737864033
  0.9865352886384006  0.1072489041091902  0.2392541274185146
  0.6180340398737829  0.6600919746351348  0.7403652847556723
  0.4392462344511055  0.7373192542746254  0.1920574759933437
  0.4467865393686169  0.9746641538521271  0.1893672047290056
  0.6726937504997966  0.7987930701115655  0.5520231655253002
  0.6375476983982141  0.0260289339966633  0.2421060627739416
  0.4074636403337127  0.2206857695752161  0.2166598271411443
  0.9923678523321621  0.6623142011188460  0.7185707791903158
  0.5992916780215312  0.8368594088453168  0.0579063077595384
  0.6006454419043538  0.2683227198389146  0.9665885741202048
  0.2565332395159384  0.8569554668505951  0.6317719152601493
  0.9219850684588017  0.3707861451568258  0.9710162364703887
  0.6327871104975670  0.4311735860327793  0.1754556320048379
  0.0220132098655808  0.0819000189962634  0.9142823255794347
  0.2395390930552164  0.6301943692618557  0.4568711452975400
  0.4788831729830101  0.3473663162560971  0.8651516089602777
  0.8565394852206750  0.2199726557454029  0.1890656659532479
  0.1907080809153072  0.6802099056168291  0.2952506913484140
  0.6433841951212007  0.4960463639800496  0.3938288982969858
  0.7179607444849748  0.4053128378708017  0.9950196503062968
  0.9765210215804686  0.5546817195491720  0.6396484953345165
  0.1587938359477244  0.8765974404145196  0.7823102670371721
  0.1938282583884887  0.5654820386559724  0.0723822316042744
  0.3038701063475246  0.5155631108084294  0.7797718751730126
  0.3101046778472908  0.4399038703285637  0.3550870629358336
  0.3776227822807436  0.3032869405168122  0.4985927542422688
  0.7127916973147328  0.1415841792680466  0.3214142890161750
  0.6168627314967028  0.9676040728107880  0.5159255897035769
  0.0594060869684661  0.9017209439997147  0.9400110139031098
  0.4412039431031472  0.1922752655833991  0.3434957470946600
  0.6213162760751255  0.8412651720026401  0.2428775343199626
  0.0522726324041477  0.3250310075087616  0.3121210071088570
  0.1439703963685776  0.1940072634601322  0.7456250315712323
  0.0196323906831102  0.3629459939430089  0.7680166476471360
  0.0371190557282426  0.7766853818913311  0.4323773789245854
  0.2208388311605775  0.2176597947446180  0.4838738591196871
  0.6458328576589473  0.8530495616733513  0.9034172519853004
  0.4652782186486992  0.1120881248026934  0.4703373798617606
  0.6387640307649287  0.2316115331481711  0.1581599522399948
  0.0894459906505044  0.9762061761253813  0.0815753302216186
  0.0694912776392112  0.2112043826615626  0.5788815348640656
  0.0413396666890657  0.4075382142048414  0.1686078363858191
  0.7715731858681686  0.3905501509764693  0.5066952788755477
  0.5524661213108031  0.0224710476675927  0.0267445463220116
  0.8786355013736760  0.2290647932927061  0.3270605828209312
  0.3242191757617004  0.1645294417155045  0.9869450467437961
  0.4545928685947297  0.8971473476236128  0.5536547639569593
  0.0558963444418509  0.8447708607274400  0.5926267822901152
  0.7616859002409209  0.0802365409048261  0.4624693969489752
  0.6776475689501602  0.7299875138400510  0.3952111128836542
  0.3798186238141935  0.8220032047547856  0.3582705161514050
  0.3577461385473483  0.5794881303376144  0.2668095363856033
  0.8492983818271400  0.3962441698180683  0.8607683095114618
  0.4962739225230821  0.5801472427668311  0.6053432468681399
  0.4769853453509007  0.4452329413122570  0.7041305949050517
  0.3325875934852533  0.6656306872257418  0.6467140230095778
  0.8535045776941104  0.5310310711294860  0.4561779626216875
  0.9765635298075609  0.9747302640930254  0.1525529181469917
  0.5954961382805017  0.4522817507134801  0.5784237342044466
  0.3408254643289254  0.4558431533814624  0.2310333826719020
  0.8093941381428781  0.1153383723660458  0.9048237061990797
  0.9667229353728526  0.4898390322200235  0.9713313638037122
  0.4879903744888299  0.0513521509743185  0.2834359719029048
  0.2513160896758608  0.0954485011303015  0.5168678417490962
  0.1144278818877821  0.8434014845923061  0.3367500136234157
  0.4342771968506657  0.6377793682656182  0.8381955944214515
  0.4303598936715016  0.1996713168400945  0.6270437777225690
  0.2331158023156699  0.1633032781589216  0.1053488021896884
  0.8006288721458056  0.5425209102870101  0.1044382801734598
  0.6717634807037559  0.9739478840418293  0.0036873936323369
  0.8414741980236727  0.5734056996275328  0.5780605673801282
  0.4227018366808306  0.5479989978568368  0.9618422842121893
  0.9194739278657184  0.0868995780556487  0.5093439285319641
  0.0855183741702844  0.0085165596977434  0.2890389355038238
  0.4468231594596264  0.3550084862225293  0.1588398412963998
  0.5059832412863771  0.8529131353070425  0.3597630478535763
  0.8011256315955477  0.2128536047064594  0.0518405629881358
  0.1013446241850116  0.0967026304457515  0.6323570799503904
  0.5288492954514037  0.5167627881064369  0.4955848262067374
  0.5822819423357013  0.1618001739462608  0.4916451388919785
  0.7992958256637371  0.7465536841293733  0.4624096997979401
  0.7472619082786528  0.8282444745417263  0.6494142111821712
  0.4342230841514333  0.0686555704103362  0.1047226473797908
  0.5355641790611354  0.3314535825463845  0.7307143903695169
  0.6582387538924427  0.9444266269710904  0.3361659673999134
  0.9305574019679109  0.8817817562274434  0.6709050730476050
  0.2225877357618186  0.0812904009471758  0.6336956100192439
  0.3126370352861179  0.9758363771499590  0.8882691123657070
  0.5088315374208856  0.7043403243088769  0.5821829998563283
  0.2356697183373321  0.9900143360182545  0.7682965974746568
  0.2376454858607991  0.5444791920894385  0.3459972814624006
  0.5120657621369115  0.4697932972624237  0.3026867279423235
  0.5047096000578885  0.9133005912880157  0.8922832944409329
  0.5865871888142989  0.8770193858371560  0.6068100102390337
  0.1576794711137720  0.8136109728805281  0.9103546783644877
  0.3359715062723735  0.9416611512139739  0.2947626510005077
  0.5908124865204444  0.3943021348377857  0.9058094828246681
  0.2548436088639151  0.1143254238294090  0.8927885423077289
  0.6535504434656039  0.9926853133350783  0.7006168050307446
  0.7240222126379935  0.5149656912805560  0.4908876649129530
  0.9670773535835523  0.2891826556389970  0.5111338866129920
  0.0451028996038540  0.6184537207346936  0.9803969062008875
  0.7784616203343353  0.6790871372103821  0.5706437014872239
  0.7029901310914145  0.1276644138974372  0.5780242365913887
  0.4556983163865560  0.3780260494041705  0.4331930706810926
  0.1042995619264193  0.6589815054301075  0.3897112823745823
  0.8842437265399228  0.7257473887031956  0.7173750800070628
  0.9980250349842748  0.6872225426421198  0.2241680810780385
  0.5726831748598993  0.7539650150658022  0.9585926834517327
  0.2441743320081403  0.6222849626118592  0.7315310155768316
  0.4247414275646861  0.3711215611554682  0.9839383230568092
  0.8314092112934655  0.7311525902668312  0.1068059160126860
  0.8835724667374385  0.2708459232172337  0.6501216331221813
  0.8476821722150389  0.3670447148079539  0.2120619127211882
  0.7375239733025390  0.1505643708704182  0.1835771841763808
  0.0716876251365150  0.4536528916285962  0.3446929913321493
  0.7809338309084546  0.5532016373320222  0.7669894376909869
  0.8558634711978226  0.6376210560730433  0.9496718514922072
  0.1362689569658112  0.7776570128852259  0.2348226550990312
  0.2310962474337560  0.0906268576633738  0.3689045437443187
  0.2686234320845892  0.3669109462736870  0.4785140455119473
  0.3794464159329610  0.3873470271193800  0.6342200999160321
  0.3299942900339510  0.8548791998087661  0.8988755400714231
  0.8527347206484259  0.9513665008475649  0.9191320456991060
  0.5999242112027081  0.5359441287313739  0.7141504977803150
  0.9206823399618369  0.5663687546103274  0.1095422552748838
  0.2486017511728081  0.7423809201830656  0.3893912424056964
  0.8571632752304735  0.8373248058086519  0.3853314169124190
  0.1018051726698878  0.0905003248979636  0.0203002261425860
  0.2166021824400945  0.2973051354056656  0.7694149789856967
  0.2225506627347473  0.5174700587102888  0.5531325108226232
  0.3111492903319403  0.5888841942482622  0.1209807064515963
  0.0396017835758354  0.8638829000293908  0.1653399680382521
  0.1952800486536671  0.4540035867003112  0.8311891599065003
  0.2325539185543022  0.7103196342070089  0.5685109456093138
  0.4588918666852643  0.7926485996467736  0.9184508951124083
  0.5840375783836739  0.1626296696272617  0.0508671285297356
  0.0870091294565891  0.5308877450840611  0.7074286172057698
  0.9494687416511060  0.4126856886672345  0.2660665007990538
  0.7218082943523851  0.9491636938153082  0.8385817159461512
  0.7982209968269828  0.1013244446865886  0.6479556034480947
  0.8365448368043833  0.9013738144094218  0.7488141980852747
  0.3069361382645622  0.7506602509705322  0.2223274153598444
  0.3186136245016931  0.9570374842290134  0.6868762487355072
  0.2752117598781764  0.8889472895917478  0.4869296051329239
  0.9996935953493917  0.6033369479511694  0.3373240141268182
  0.3918251078633507  0.8143820024473372  0.6363552987952095
  0.9852681281301935  0.2351210813989633  0.2242527321532104
  0.9556611540003015  0.4774312903393376  0.8254622102554211
  0.7333879604017393  0.7863411278596155  0.9707128744904872
  0.7701610482369741  0.4956535457501894  0.9244084428709415
  0.9171789090363925  0.4638604605139991  0.7075125983801566
  0.4042481142583473  0.7573620434185706  0.0690543847125641
  0.1287897264556181  0.3599988752880437  0.9504310887895103
  0.4303891677611563  0.5332933597310734  0.3695538619046222
  0.6510650578335313  0.3645556087218166  0.4216592254405049
  0.4244175671633725  0.1960239293858717  0.9075049128812944
  0.8117008677584295  0.2604244702178253  0.5534002821375538
  0.0053360232536153  0.9039770673413005  0.4653926344346571
  0.6760044401795626  0.7927730149205471  0.7941101274657967
  0.7137630109184178  0.8708522796558735  0.1558327122294488
  0.7491170375688310  0.3092488199884378  0.8990119475457290
  0.4911863154900517  0.9052358347136410  0.0302168914895230
  0.8790315401661277  0.0916507926366241  0.1713731645788066
  0.1058369008572491  0.3666057712822007  0.5811794313968300
  0.4095881483209396  0.6979189939921121  0.3342386429260802
  0.6547771804466254  0.0993810047560202  0.7600665181394177
  0.4320854803655333  0.4571943070444156  0.8216120800265345
  0.8700987780056608  0.9217952224011001  0.1079032353184908
  0.5257438397677450  0.7820457874474173  0.4561208417017569
  0.2240130909675760  0.8407059961330101  0.0662684817022777
  0.1386129983281666  0.9191596109359934  0.6574792656757851
  0.7720576567648306  0.2185545579806294  0.4050424385837050
  0.6612768043449974  0.5005360319192664  0.0730416002422501
  0.0387008531052877  0.8082531361786108  0.7715304609593863
  0.5969429025214773  0.2079244084531732  0.2804345958715083
  0.5747024788597351  0.7556123383885262  0.1527009769915463
  0.9547895515686993  0.9860312221354640  0.9817531116186746
  0.7493646855168539  0.9577596053402478  0.5116683721920110
  0.8280786341554851  0.3750022926752953  0.0537522664755831
  0.7169593752083845  0.0614446088052227  0.0800150112854788
  0.8326351540181205  0.6338713340449034  0.3712915154062081
  0.2432235367896631  0.0076116014853225  0.1357941562498887
  0.9713745213560031  0.7925767438510634  0.9517900732223474
  0.1674340367767101  0.2825607844675251  0.3539387629021900
  0.8856637066484963  0.5460444713133775  0.3010741573774948
  0.7182323482926671  0.4718822009670185  0.2892799595571734
  0.1037407010178488  0.1920208506755571  0.8711729163822864
  0.3694453795666980  0.8065214444268040  0.4849248324791454
  0.8075223020232729  0.0445897904043751  0.3379908398797415
  0.8495499532719746  0.3888160076917366  0.3979526529742408
  0.5906485648582561  0.3458304268574890  0.5256322646141097
  0.3709237742471175  0.9758112005124242  0.4826122822145371
  0.9871671078406760  0.5582509227245464  0.4535571988230550
  0.3456957421473930  0.0098442868841532  0.0054711971914947
  0.5017942247341014  0.9947381975550607  0.4416660987126275
  0.2819510432856032  0.2853718892516524  0.9781574009658293
  0.9694780875675990  0.7149681431176018  0.5329129081343068
  0.1076934678208486  0.3156406942289919  0.0601134588727718
  0.2468659951476485  0.4935922979339604  0.9710410932276027
  0.2189201059306141  0.1475152148110301  0.2605667921466145
  0.1826024073419467  0.6375069937186629  0.8759973671967847
  0.9152775436001460  0.9821750261087917  0.5924244914890163
  0.1475331091220626  0.9504148554661652  0.4721499564120556
  0.4636818528263554  0.4787053300640579  0.1338560991394167
  0.1216288235825314  0.9962355340044009  0.8696139268526079
  0.0358539332989191  0.2447021275930218  0.7086931637590245
  0.2458230363405533  0.7897534620668603  0.7425698816569756
  0.3366285741972306  0.2443940403136925  0.3928182888729896
  0.1031709534733575  0.1644981562483627  0.4580247096583686
  0.1180611605052370  0.4013945782373621  0.4514350151567436
  0.9594141841875942  0.1711888717638773  0.9948840866575041
  0.2162470438228483  0.2476251580178269  0.6094033620742157
  0.9805061416225712  0.0104833745394646  0.7929404894764550
  0.0697626017788486  0.5291693706269914  0.1639082034729288
  0.7170685505389571  0.3378400148250066  0.1552704584836419
  0.4163995415173481  0.5889890368552441  0.7282696502535211
  0.5411465700218449  0.0381769634552186  0.8956602123917272
  0.4715933647390663  0.9964894120772145  0.6390284287215759
  0.9071454521141150  0.2833998739217832  0.8103758795283903
  0.2360882534218896  0.3556931886151494  0.2858103897915603
  0.4584871442177832  0.6112308732523473  0.1881993814893672
  0.4991367075400124  0.8935055788758223  0.7694791240228118
  0.6295100430186451  0.6845839784173654  0.5961375365264442
  0.7194455834892474  0.3931233858034449  0.6387006891212924
  0.9419716156151274  0.7646074562187845  0.3059974306830517
  0.7059611088615420  0.6183678922118230  0.3440126355993624
  0.9603976478494595  0.1440786156643671  0.6066898501673927
  0.8856611962777364  0.9114815434216781  0.4913334165595795
  0.6383684146225773  0.6327582924352021  0.8719503716229208
  0.8841770281386819  0.8455929218848515  0.2072458035351260
  0.5957237463116186  0.2080143282888192  0.8524464342161913
  0.8806918042409256  0.4384175618143286  0.5599742148535827
  0.7469738299092400  0.6620441067381915  0.7289658856039094
  0.1525124705580975  0.6783982252179251  0.1420013928663714
  0.5849774903869577  0.6692350328630701  0.3136475622553251
  0.3681787914065938  0.6200034932972847  0.4709844167998682
  0.5710749638818120  0.9564496564055460  0.1570838703681758
 
  0.00000000E+00  0.00000000E+00  0.00000000E+00
  0.00000000E+00  0.00000000E+00  0.00000000E+00
  0.00000000E+00  0.00000000E+00  0.00000000E+00
  0.00000000E+00  0.00000000E+00  0.00000000E+00
  0.00000000E+00  0.00000000E+00  0.00000000E+00
  0.00000000E+00  0.00000000E+00  0.00000000E+00
  0.00000000E+00  0.00000000E+00  0.00000000E+00
  0.00000000E+00  0.00000000E+00  0.00000000E+00
  0.00000000E+00  0.00000000E+00  0.00000000E+00
  0.00000000E+00  0.00000000E+00  0.00000000E+00
  0.00000000E+00  0.00000000E+00  0.00000000E+00
  0.00000000E+00  0.00000000E+00  0.00000000E+00
  0.00000000E+00  0.00000000E+00  0.00000000E+00
  0.00000000E+00  0.00000000E+00  0.00000000E+00
  0.00000000E+00  0.00000000E+00  0.00000000E+00
  0.00000000E+00  0.00000000E+00  0.00000000E+00
  0.00000000E+00  0.00000000E+00  0.00000000E+00
  0.00000000E+00  0.00000000E+00  0.00000000E+00
  0.00000000E+00  0.00000000E+00  0.00000000E+00
  0.00000000E+00  0.00000000E+00  0.00000000E+00
  0.00000000E+00  0.00000000E+00  0.00000000E+00
  0.00000000E+00  0.00000000E+00  0.00000000E+00
  0.00000000E+00  0.00000000E+00  0.00000000E+00
  0.00000000E+00  0.00000000E+00  0.00000000E+00
  0.00000000E+00  0.00000000E+00  0.00000000E+00
  0.00000000E+00  0.00000000E+00  0.00000000E+00
  0.00000000E+00  0.00000000E+00  0.00000000E+00
  0.00000000E+00  0.00000000E+00  0.00000000E+00
  0.00000000E+00  0.00000000E+00  0.00000000E+00
  0.00000000E+00  0.00000000E+00  0.00000000E+00
  0.00000000E+00  0.00000000E+00  0.00000000E+00
  0.00000000E+00  0.00000000E+00  0.00000000E+00
  0.00000000E+00  0.00000000E+00  0.00000000E+00
  0.00000000E+00  0.00000000E+00  0.00000000E+00
  0.00000000E+00  0.00000000E+00  0.00000000E+00
  0.00000000E+00  0.00000000E+00  0.00000000E+00
  0.00000000E+00  0.00000000E+00  0.00000000E+00
  0.00000000E+00  0.00000000E+00  0.00000000E+00
  0.00000000E+00  0.00000000E+00  0.00000000E+00
  0.00000000E+00  0.00000000E+00  0.00000000E+00
  0.00000000E+00  0.00000000E+00  0.00000000E+00
  0.00000000E+00  0.00000000E+00  0.00000000E+00
  0.00000000E+00  0.00000000E+00  0.00000000E+00
  0.00000000E+00  0.00000000E+00  0.00000000E+00
  0.00000000E+00  0.00000000E+00  0.00000000E+00
  0.00000000E+00  0.00000000E+00  0.00000000E+00
  0.00000000E+00  0.00000000E+00  0.00000000E+00
  0.00000000E+00  0.00000000E+00  0.00000000E+00
  0.00000000E+00  0.00000000E+00  0.00000000E+00
  0.00000000E+00  0.00000000E+00  0.00000000E+00
  0.00000000E+00  0.00000000E+00  0.00000000E+00
  0.00000000E+00  0.00000000E+00  0.00000000E+00
  0.00000000E+00  0.00000000E+00  0.00000000E+00
  0.00000000E+00  0.00000000E+00  0.00000000E+00
  0.00000000E+00  0.00000000E+00  0.00000000E+00
  0.00000000E+00  0.00000000E+00  0.00000000E+00
  0.00000000E+00  0.00000000E+00  0.00000000E+00
  0.00000000E+00  0.00000000E+00  0.00000000E+00
  0.00000000E+00  0.00000000E+00  0.00000000E+00
  0.00000000E+00  0.00000000E+00  0.00000000E+00
  0.00000000E+00  0.00000000E+00  0.00000000E+00
  0.00000000E+00  0.00000000E+00  0.00000000E+00
  0.00000000E+00  0.00000000E+00  0.00000000E+00
  0.00000000E+00  0.00000000E+00  0.00000000E+00
  0.00000000E+00  0.00000000E+00  0.00000000E+00
  0.00000000E+00  0.00000000E+00  0.00000000E+00
  0.00000000E+00  0.00000000E+00  0.00000000E+00
  0.00000000E+00  0.00000000E+00  0.00000000E+00
  0.00000000E+00  0.00000000E+00  0.00000000E+00
  0.00000000E+00  0.00000000E+00  0.00000000E+00
  0.00000000E+00  0.00000000E+00  0.00000000E+00
  0.00000000E+00  0.00000000E+00  0.00000000E+00
  0.00000000E+00  0.00000000E+00  0.00000000E+00
  0.00000000E+00  0.00000000E+00  0.00000000E+00
  0.00000000E+00  0.00000000E+00  0.00000000E+00
  0.00000000E+00  0.00000000E+00  0.00000000E+00
  0.00000000E+00  0.00000000E+00  0.00000000E+00
  0.00000000E+00  0.00000000E+00  0.00000000E+00
  0.00000000E+00  0.00000000E+00  0.00000000E+00
  0.00000000E+00  0.00000000E+00  0.00000000E+00
  0.00000000E+00  0.00000000E+00  0.00000000E+00
  0.00000000E+00  0.00000000E+00  0.00000000E+00
  0.00000000E+00  0.00000000E+00  0.00000000E+00
  0.00000000E+00  0.00000000E+00  0.00000000E+00
  0.00000000E+00  0.00000000E+00  0.00000000E+00
  0.00000000E+00  0.00000000E+00  0.00000000E+00
  0.00000000E+00  0.00000000E+00  0.00000000E+00
  0.00000000E+00  0.00000000E+00  0.00000000E+00
  0.00000000E+00  0.00000000E+00  0.00000000E+00
  0.00000000E+00  0.00000000E+00  0.00000000E+00
  0.00000000E+00  0.00000000E+00  0.00000000E+00
  0.00000000E+00  0.00000000E+00  0.00000000E+00
  0.00000000E+00  0.00000000E+00  0.00000000E+00
  0.00000000E+00  0.00000000E+00  0.00000000E+00
  0.00000000E+00  0.00000000E+00  0.00000000E+00
  0.00000000E+00  0.00000000E+00  0.00000000E+00
  0.00000000E+00  0.00000000E+00  0.00000000E+00
  0.00000000E+00  0.00000000E+00  0.00000000E+00
  0.00000000E+00  0.00000000E+00  0.00000000E+00
  0.00000000E+00  0.00000000E+00  0.00000000E+00
  0.00000000E+00  0.00000000E+00  0.00000000E+00
  0.00000000E+00  0.00000000E+00  0.00000000E+00
  0.00000000E+00  0.00000000E+00  0.00000000E+00
  0.00000000E+00  0.00000000E+00  0.00000000E+00
  0.00000000E+00  0.00000000E+00  0.00000000E+00
  0.00000000E+00  0.00000000E+00  0.00000000E+00
  0.00000000E+00  0.00000000E+00  0.00000000E+00
  0.00000000E+00  0.00000000E+00  0.00000000E+00
  0.00000000E+00  0.00000000E+00  0.00000000E+00
  0.00000000E+00  0.00000000E+00  0.00000000E+00
  0.00000000E+00  0.00000000E+00  0.00000000E+00
  0.00000000E+00  0.00000000E+00  0.00000000E+00
  0.00000000E+00  0.00000000E+00  0.00000000E+00
  0.00000000E+00  0.00000000E+00  0.00000000E+00
  0.00000000E+00  0.00000000E+00  0.00000000E+00
  0.00000000E+00  0.00000000E+00  0.00000000E+00
  0.00000000E+00  0.00000000E+00  0.00000000E+00
  0.00000000E+00  0.00000000E+00  0.00000000E+00
  0.00000000E+00  0.00000000E+00  0.00000000E+00
  0.00000000E+00  0.00000000E+00  0.00000000E+00
  0.00000000E+00  0.00000000E+00  0.00000000E+00
  0.00000000E+00  0.00000000E+00  0.00000000E+00
  0.00000000E+00  0.00000000E+00  0.00000000E+00
  0.00000000E+00  0.00000000E+00  0.00000000E+00
  0.00000000E+00  0.00000000E+00  0.00000000E+00
  0.00000000E+00  0.00000000E+00  0.00000000E+00
  0.00000000E+00  0.00000000E+00  0.00000000E+00
  0.00000000E+00  0.00000000E+00  0.00000000E+00
  0.00000000E+00  0.00000000E+00  0.00000000E+00
  0.00000000E+00  0.00000000E+00  0.00000000E+00
  0.00000000E+00  0.00000000E+00  0.00000000E+00
  0.00000000E+00  0.00000000E+00  0.00000000E+00
  0.00000000E+00  0.00000000E+00  0.00000000E+00
  0.00000000E+00  0.00000000E+00  0.00000000E+00
  0.00000000E+00  0.00000000E+00  0.00000000E+00
  0.00000000E+00  0.00000000E+00  0.00000000E+00
  0.00000000E+00  0.00000000E+00  0.00000000E+00
  0.00000000E+00  0.00000000E+00  0.00000000E+00
  0.00000000E+00  0.00000000E+00  0.00000000E+00
  0.00000000E+00  0.00000000E+00  0.00000000E+00
  0.00000000E+00  0.00000000E+00  0.00000000E+00
  0.00000000E+00  0.00000000E+00  0.00000000E+00
  0.00000000E+00  0.00000000E+00  0.00000000E+00
  0.00000000E+00  0.00000000E+00  0.00000000E+00
  0.00000000E+00  0.00000000E+00  0.00000000E+00
  0.00000000E+00  0.00000000E+00  0.00000000E+00
  0.00000000E+00  0.00000000E+00  0.00000000E+00
  0.00000000E+00  0.00000000E+00  0.00000000E+00
  0.00000000E+00  0.00000000E+00  0.00000000E+00
  0.00000000E+00  0.00000000E+00  0.00000000E+00
  0.00000000E+00  0.00000000E+00  0.00000000E+00
  0.00000000E+00  0.00000000E+00  0.00000000E+00
  0.00000000E+00  0.00000000E+00  0.00000000E+00
  0.00000000E+00  0.00000000E+00  0.00000000E+00
  0.00000000E+00  0.00000000E+00  0.00000000E+00
  0.00000000E+00  0.00000000E+00  0.00000000E+00
  0.00000000E+00  0.00000000E+00  0.00000000E+00
  0.00000000E+00  0.00000000E+00  0.00000000E+00
  0.00000000E+00  0.00000000E+00  0.00000000E+00
  0.00000000E+00  0.00000000E+00  0.00000000E+00
  0.00000000E+00  0.00000000E+00  0.00000000E+00
  0.00000000E+00  0.00000000E+00  0.00000000E+00
  0.00000000E+00  0.00000000E+00  0.00000000E+00
  0.00000000E+00  0.00000000E+00  0.00000000E+00
  0.00000000E+00  0.00000000E+00  0.00000000E+00
  0.00000000E+00  0.00000000E+00  0.00000000E+00
  0.00000000E+00  0.00000000E+00  0.00000000E+00
  0.00000000E+00  0.00000000E+00  0.00000000E+00
  0.00000000E+00  0.00000000E+00  0.00000000E+00
  0.00000000E+00  0.00000000E+00  0.00000000E+00
  0.00000000E+00  0.00000000E+00  0.00000000E+00
  0.00000000E+00  0.00000000E+00  0.00000000E+00
  0.00000000E+00  0.00000000E+00  0.00000000E+00
  0.00000000E+00  0.00000000E+00  0.00000000E+00
  0.00000000E+00  0.00000000E+00  0.00000000E+00
  0.00000000E+00  0.00000000E+00  0.00000000E+00
  0.00000000E+00  0.00000000E+00  0.00000000E+00
  0.00000000E+00  0.00000000E+00  0.00000000E+00
  0.00000000E+00  0.00000000E+00  0.00000000E+00
  0.00000000E+00  0.00000000E+00  0.00000000E+00
  0.00000000E+00  0.00000000E+00  0.00000000E+00
  0.00000000E+00  0.00000000E+00  0.00000000E+00
  0.00000000E+00  0.00000000E+00  0.00000000E+00
  0.00000000E+00  0.00000000E+00  0.00000000E+00
  0.00000000E+00  0.00000000E+00  0.00000000E+00
  0.00000000E+00  0.00000000E+00  0.00000000E+00
  0.00000000E+00  0.00000000E+00  0.00000000E+00
  0.00000000E+00  0.00000000E+00  0.00000000E+00
  0.00000000E+00  0.00000000E+00  0.00000000E+00
  0.00000000E+00  0.00000000E+00  0.00000000E+00
  0.00000000E+00  0.00000000E+00  0.00000000E+00
  0.00000000E+00  0.00000000E+00  0.00000000E+00
  0.00000000E+00  0.00000000E+00  0.00000000E+00
  0.00000000E+00  0.00000000E+00  0.00000000E+00
  0.00000000E+00  0.00000000E+00  0.00000000E+00
  0.00000000E+00  0.00000000E+00  0.00000000E+00
  0.00000000E+00  0.00000000E+00  0.00000000E+00
  0.00000000E+00  0.00000000E+00  0.00000000E+00
  0.00000000E+00  0.00000000E+00  0.00000000E+00
  0.00000000E+00  0.00000000E+00  0.00000000E+00
  0.00000000E+00  0.00000000E+00  0.00000000E+00
  0.00000000E+00  0.00000000E+00  0.00000000E+00
  0.00000000E+00  0.00000000E+00  0.00000000E+00
  0.00000000E+00  0.00000000E+00  0.00000000E+00
  0.00000000E+00  0.00000000E+00  0.00000000E+00
  0.00000000E+00  0.00000000E+00  0.00000000E+00
  0.00000000E+00  0.00000000E+00  0.00000000E+00
  0.00000000E+00  0.00000000E+00  0.00000000E+00
  0.00000000E+00  0.00000000E+00  0.00000000E+00
  0.00000000E+00  0.00000000E+00  0.00000000E+00
  0.00000000E+00  0.00000000E+00  0.00000000E+00
  0.00000000E+00  0.00000000E+00  0.00000000E+00
  0.00000000E+00  0.00000000E+00  0.00000000E+00
  0.00000000E+00  0.00000000E+00  0.00000000E+00
  0.00000000E+00  0.00000000E+00  0.00000000E+00
  0.00000000E+00  0.00000000E+00  0.00000000E+00
  0.00000000E+00  0.00000000E+00  0.00000000E+00
  0.00000000E+00  0.00000000E+00  0.00000000E+00
  0.00000000E+00  0.00000000E+00  0.00000000E+00
  0.00000000E+00  0.00000000E+00  0.00000000E+00
  0.00000000E+00  0.00000000E+00  0.00000000E+00
  0.00000000E+00  0.00000000E+00  0.00000000E+00
  0.00000000E+00  0.00000000E+00  0.00000000E+00
  0.00000000E+00  0.00000000E+00  0.00000000E+00
  0.00000000E+00  0.00000000E+00  0.00000000E+00
  0.00000000E+00  0.00000000E+00  0.00000000E+00
  0.00000000E+00  0.00000000E+00  0.00000000E+00
  0.00000000E+00  0.00000000E+00  0.00000000E+00
  0.00000000E+00  0.00000000E+00  0.00000000E+00
  0.00000000E+00  0.00000000E+00  0.00000000E+00
  0.00000000E+00  0.00000000E+00  0.00000000E+00
  0.00000000E+00  0.00000000E+00  0.00000000E+00