Amorphous GeAsSeSi                      
   1.00000000000000     
    19.0036188657994742    0.0000000000000000    0.0000000000000000
     0.0000000000000000   19.0036188657994742    0.0000000000000000
     0.0000000000000000    0.0000000000000000   19.0036188657994742
   Ge   Si   Se
   108    24   108
Direct
  0.0355248183324878  0.2160102535759441  0.6733325130192223
  0.1257757879921048  0.7972753455393263  0.9842689640905872
  0.6669570554796060  0.6829632649353911  0.8162720740655922
  0.6286371920357877  0.6179260875063721  0.9324630341109419
  0.3865321729606190  0.1784591074912979  0.3298533387279152
  0.8812710528632846  0.5448909174378992  0.2153750324193895
  0.3142096745490557  0.9625159115432307  0.9478086489103419
  0.1136795271685969  0.4281631732367762  0.6542660526680631
  0.0163701840310394  0.4919975804400503  0.3201183123485720
  0.4469694997344076  0.6220964208980349  0.2901245456950325
  0.9237098277643714  0.1609915958974038  0.3844047544333740
  0.5411563327285431  0.1812174621847667  0.2120430062864334
  0.4551289269536111  0.2979685771008944  0.1628184548880530
 -0.0038351933910017  0.9337305219618038  0.7289622783442694
  0.9427309949632937  0.9222584596556926  0.9012397983522901
  0.3466236299145984  0.0239281637128077  0.7000368025694892
  0.4065366419825094  0.6847822328048525  0.7582639763664276
  0.2744611756119674  0.4021265059407508  0.3175175206443174
  0.5707878255620282  0.7062841580681952  0.4504926625331135
  0.0054000104544362  0.7223014194129810  0.3494702229553768
  0.8549968616909968  0.5398493570366847  0.0181719302488396
  0.7958917966017311  0.6282410660812380  0.9295915017540554
  0.7183872717979306  0.0719457225605306  0.8003109367480488
  0.5118192474580735  0.9334198704873096  0.3785438634562708
  0.0189079363817085  0.2402979712526749  0.2182464553665453
  0.2342299686998233  0.1629235305695749  0.6914279406453059
  0.8746239871010905  0.8393070283611844  0.6464466637916612
  0.4593697159012785 -0.0095149270490091  0.9691165878899856
  0.8612651574518971  0.1124206619955261  0.5799774857809441
  0.6490554755134157  0.8462227860887248  0.5845089492912783
  0.2910644894497629  0.7446208673281741  0.4502226971105694
  0.5993004041534504  0.5267453267066068  0.2764593218730694
  0.2818342988784326  0.9169313305347258  0.1455848987098695
  0.5528633510215719  0.1829730367162742  0.8000117181048245
  0.5335331642647890  0.5820994005438211  0.0543975771646830
  0.7516780323928263  0.1811556016389474  0.6321219710760105
  0.6647710395367131  0.0376462293022195  0.4886903413178492
  0.1328072457218731  0.7376348956861344  0.5304321374256207
  0.6945345067760610  0.8127160777688612  0.9853955238827293
  0.8554797008365769  0.2371557875465073  0.8075845947225545
  0.7957518541135227  0.9143224815259131  0.7239744451070048
  0.2443509918767804  0.6065786326299913  0.9977067958501326
  0.3926261657340325  0.4489358599732600  0.9333344498585282
  0.4846923408185262  0.8334571915242014  0.6051467694219970
  0.2722756636221773  0.6609290865480946  0.2359217359736655
  0.4552619013213745  0.6416200033516340  0.1560161245401906
  0.9125554385979026  0.1974727787159658  0.0074304068295135
  0.8948943423757504  0.4958094377839406  0.6062140720506692
  0.7832225173253267  0.4200547615765688  0.8453881379355843
  0.2010408634860529  0.0927628657192349  0.8847200970724630
  0.1261568504644876  0.1621350135931485  0.2629671240512961
  0.5515420706977064  0.4602194440583261  0.5860079442389673
  0.9937024986769154  0.8640258819051287  0.3218493953051312
  0.5626225102188064  0.0741055676431874  0.3029064253731898
  0.7289533714682628  0.3546348004039330  0.4984453836154488
  0.3292919070676013  0.6550804275459982  0.1118539197123804
  0.8912239084092853  0.3027726414683798  0.5784605028304741
  0.1886515086061671  0.7557347113353095  0.0939440119156327
  0.5112786987262616  0.3531224436562878  0.9671263595521159
  0.9481157665369699  0.8937281315203074  0.1998301444435427
  0.0073300494539757  0.6420867409664283  0.4990513389413910
  0.3103757632426593  0.2700300038613317  0.7776728087917398
  0.2590325864036587  0.4080332557509094  0.9456719163071392
  0.6878930066820866  0.8549118202199565  0.7731871311849473
  0.6006837097106271  0.9395439918342154  0.8262853084978902
  0.1902210547848079  0.4013065930021654  0.5361229754216443
  0.0255542841258744  0.8049321785749697  0.6714932134189229
  0.3908888330529275  0.4814123188273913  0.4202116502178814
  0.1030975181272322  0.6561811049135571  0.8391478300368919
  0.0081524420779639  0.5734799826963145  0.1739965874844315
  0.9741855845127810  0.7958923328103270  0.8313633984164972
  0.1882457922473062  0.5288021784896859  0.4770546388361406
  0.1798987083030921  0.9861437292610721  0.0745914116024911
  0.3932612838215765  0.3585783774934443  0.4802211880450763
  0.0149286072579099  0.7283762073068246  0.0212648024787902
  0.7905742259835205  0.6337967684628294  0.4611710884887855
  0.8588141239407632  0.6751293158241238  0.2378146727743706
  0.5372264525133914  0.1863716385842971  0.4475017003618161
  0.5164999060563701  0.5911342654620808  0.6055345017209717
  0.9675206662396464 -0.0051307013276145  0.3577093571508536
  0.5037145098465284  0.3389148948708754  0.5564063475401553
  0.0858495878573903  0.4844879485414421  0.8528012182506476
  0.4063853536916401  0.2126569294351070  0.6929499833510889
  0.5599145415329334  0.1939244305985175  0.0328164506283930
  0.3564449327437221  0.0082968730735839  0.2266653713265324
  0.7802683585123465  0.2468191322071712  0.1557322005270236
  0.5186280131042149  0.2798833492423745  0.6744792173177339
  0.8498996089478280  0.3254410654009761  0.0251346874843347
  0.6104171650243007  0.4389468712014082  0.1710940221585624
  0.5715531329245515  0.6570651562453549  0.3206240194743653
  0.6098436393200997  0.3081515201886122  0.1272716358017668
  0.4811956339842459  0.6531558653386018  0.8757506781346177
  0.2184813417529940  0.3634584776792112  0.8215946634458853
  0.2726755598651108  0.1540768848542481  0.5110277706986994
  0.3325191409132364  0.6486156697597399  0.3557747006172328
  0.5968270914203191  0.4704042640689144  0.8799322801383923
  0.1264378574627399  0.8755393674983403  0.3434114649505109
  0.4274908263312718  0.0430977056114974  0.3406008637191697
  0.9545667724371969  0.0348345590909465  0.8115988316350939
  0.6011596843111480  0.0684732475179513  0.8614870096277858
  0.3802017464491603  0.4116927244922837  0.2237705443328831
  0.0827146644599745  0.1876441848728853  0.5496708406472820
  0.8542893335745816  0.8397075467749617  0.3508166584477394
  0.2638557542694603  0.5325181018062578  0.3644890565223529
  0.5866660969252194  0.7803328458741794  0.2624086185305187
  0.8642678191562682  0.4782126141517214  0.7406722810512038
  0.1344878125584718  0.3241745905317853  0.2951257278135104
  0.6532730481621735  0.5572009023188620  0.4542644875579264
  0.1760213475073549  0.3139607980520985  0.1189878420293804
  0.5049589268804552  0.8894970902026149  0.8967198276261703
  0.2300818699839641  0.4718689773087281  0.2170652827654148
  0.6008220635462881  0.7639634685096129  0.7394595285720146
  0.0459788162650863  0.3386373227800487  0.7217868205856318
  0.8757440626429217  0.9978639964792783  0.2125377378596709
  0.1173726937550790  0.0306900353917676  0.6953318890536906
  0.8364956034048036  0.8496477949207201  0.1519432398176951
  0.6650283204016566  0.0333456449939213  0.6851983630840056
  0.8270637811188606  0.0037704709983126  0.8101010761049446
  0.4803136262171867  0.7879822571983440  0.7296582544329455
  0.2650809867521375  0.9723122811732529  0.3767296426590367
  0.0188835202996890  0.2524827206032625  0.4050878191081063
  0.4369002347201176  0.4975422454755898  0.7555931726533489
  0.5371978627830248  0.8393529464031255  0.0808131228925811
  0.4839597943978734  0.3787918566068461  0.7505937512224009
  0.2215360108572200  0.8710206551969438  0.2534163624162912
  0.7190049465368687  0.5344267440906022  0.8648434518948062
  0.3593992812319460  0.2152491549781957  0.2070553266863075
  0.0162641643035601  0.5156266767810570  0.6511496209895669
  0.7751511159298976  0.7586881878365616  0.5004954106146788
  0.9590061697251178  0.8457265821399290  0.0077717691957317
  0.3152789133263595  0.7987030255426968  0.6269595492844009
  0.8104050225613851  0.4868962730433668  0.1262794296951083
  0.7232639605474185  0.2933473074531218  0.0427241560515818
  0.4316392267100826  0.1304727197552607  0.7878867105050198
  0.1999048542965158  0.7127093334696484  0.9142615068695272
  0.4374046674346413  0.2590187934237358  0.0362316975149139
  0.8449291760742909  0.8038366951910970  0.0398782995760234
  0.5885251836620005  0.2482499255443578  0.9157450375177421
  0.0861703842175514  0.3386372620935500  0.8387534756283418
  0.3225554133420568  0.5007624009113799  0.1416738789729421
  0.7074020467003904  0.6793294589570964  0.0192790978693282
  0.4994306780661820  0.7904059100153572  0.3691951469479231
  0.2845965869299794  0.0057110705335203  0.8272023732798646
  0.1993896856693007  0.2440631993215988  0.5908977094592853
  0.9833536442331053  0.6823818359191119  0.9015621343006718
  0.4986441832405893  0.2438008128784040  0.3266896889174458
  0.0540447688664429  0.5239526114934194  0.4491296995643214
  0.1621030410332333  0.4883882457650082  0.9671722311402667
  0.8712919446921165  0.3819194807995189  0.1404139601205776
  0.3124759782472047  0.7939624863874236  0.0896033652696947
  0.4247938940653030  0.5860805497134544  0.9758628712820686
  0.8406445016420905  0.0009515087974217  0.3300277611812150
  0.3787798688843938  0.1110057846358773  0.1476133542300365
 -0.0162425971472053  0.0681755666100298  0.4592299022165748
  0.9709214739946207  0.5483602162077008  0.7611475399936936
  0.2299176268610029  0.6460115356943490  0.5266341645652330
  0.1182590671054832  0.9504956343743141  0.7820239825046983
  0.4605269043983062  0.9320447035495628  0.0853981415452403
  0.9180835115448573  0.7412506097390894  0.7259052633046269
  0.1816702958113275  0.4783975926309388  0.7549917161316727
  0.6796683255511569  0.4693640492950634  0.5571666218450190
  0.3420925080293754  0.5092849308455781  0.8273452269128238
  0.2205739665537926  0.0408061919205594  0.6311364843706295
  0.6021250404763342  0.3890836579000931  0.7744508146164262
  0.5014986491782690  0.5359483714161207  0.4806654111129749
  0.7245961726889106  0.5855950763701463  0.7528161919779943
  0.6435084615245540  0.1311625425614067  0.3898264238760172
  0.5796423770269429  0.0578872032090042  0.9887295307534321
  0.8474690519973578  0.1496214599879384  0.9061943844525350
  0.3762069679073167  0.1318596292898676  0.5959073737003809
  0.7330147239280714  0.1960993932297580  0.7620388561180387
  0.2918187718706384  0.7422990788193979  0.7310465709240879
  0.8447926573506440  0.2068388844209402  0.4845646700494313
  0.2613108554156836  0.0694652482805759  0.0098397486410186
  0.7524502834948746  0.9786838732450557  0.6190230754512855
  0.0987561596487073  0.7803447094101343  0.7858924590317408
  0.8662627888365984  0.6992098069545984  0.3669725434109680
  0.1513481228645443  0.7568753174088922  0.3930483375359388
  0.6489417438294817  0.8531988467035153  0.1131432919344420
  0.8158712878870956  0.9388773484651017  0.9133438231310077
  0.9962692598249262  0.3429878832803072  0.3194932255814213
  0.7482964656091590  0.3098722714714160  0.6237225834305373
  0.3277796104550915  0.2495440121474205  0.4269304713294737
  0.6710662515645008  0.8030397901086728  0.4509694606224078
  0.6949669877488648  0.5024794143961004  0.0957398738784873
  0.9822180784313653  0.7080082018912949  0.2096198073398795
  0.3687690585347603  0.9089648271062899  0.6202887916840172
  0.2588732667829207  0.3102852377950125  0.0332885202019546
  0.4636911278028963  0.4878409891247673  0.3019450813926354
  0.5482385389609747 -0.0199920457179842  0.4961903524446592
  0.8740443467659300  0.4290329752404625  0.9441526871422009
  0.4169722864683507  0.3289590416221725  0.8440263375363793
  0.5069211229535519  0.4578739518212682  0.0946889384912680
  0.1106738493636229  0.1429049283199146  0.7530683932005341
  0.5648107112197832  0.9641549968228320  0.7012000439658180
  0.6320964999622204  0.1241388144802989  0.6047302220009020
  0.9765122159412796  0.5721330826863151  0.0458302424027362
  0.0298177133557006  0.0046998770571035  0.6202735514540206
  0.3132648793275357  0.8662164797729975  0.3362017144509388
  0.4820961014687787  0.7722588105701564  0.1734641449822064
  0.5437622647781197  0.7918574574762378  0.9656635363489044
  0.3183721420476249  0.4079807416479319  0.5729441882120742
  0.1740154611106914  0.9162529285824912  0.9630654547740241
  0.7554613082666561  0.7719747568197369  0.8473164028509999
  0.2392405132302540  0.0379967602078768  0.2775888929757345
  0.3958220835624480  0.7360550602784063  0.5594774831268602
  0.9166093327984264  0.1049366148069852  0.1721857854052544
  0.6606894483684039  0.2411084371479536  0.2277305093864170
  0.1344837133550917  0.4221497249803129  0.1575157192649750
  0.2637216642243779  0.2134065375012965  0.8815588730586248
  0.9197089347429749  0.1630295747950506  0.7021379562098284
  0.2134302796426215  0.8344706696858897  0.5726677105376230
  0.8864102513019183  0.5023157067872891  0.3345966255763024
  0.6759579184218094  0.4709472696240035  0.3596363112698723
  0.1538325220973749  0.6318437737603878  0.0892391102270848
  0.5937251431277123  0.3049634706696420  0.4724231869323042
  0.0314433758814242  0.3077308161346210  0.5134751325550551
  0.3972133200932647  0.5743933093956798  0.6673905565757385
  0.4189231322985947  0.8476289138920994  0.8216959342840235
  0.6045012776832372  0.9553597158258336  0.2902497111241278
  0.8202948008965379  0.1359402189265381  0.0868130943001489
  0.2371331542487524  0.2541865448541671  0.2124110744867717
  0.1596470103633851  0.9605836579349878  0.4335638593799422
  0.1751951518973291  0.7572308020922632  0.2248687030236427
  0.5370365078365565  0.5603038886392259  0.7941825010171467
  0.0279464955927733  0.0537629373460290  0.2616875709086862
  0.5971589161754800  0.7234364055012330  0.6238983331407146
  0.1751226061301772  0.5733578611516901  0.2635409642041013
  0.7800500681553336  0.9582306300403812  0.1485566224059325
  0.9253776245901612  0.3603581327481678  0.7195970122889981
  0.0161389269786873  0.9143133429973928  0.0939558699594302
  0.8678960540452293  0.4180818844252470  0.5088751526778778
  0.0697679809344266  0.2615674428444525  0.0974642760242522
  0.7704375512368868  0.7673590480659017  0.2126034414201414
  0.7634886598159732  0.7664965156779189  0.6223124561216518
  0.3504781688427969  0.0206284753541714  0.4459671793674502
  0.8557026158628285  0.8482601360870117  0.4808425325185292
  0.0642851333213820  0.6210310990944048  0.6159854178580895
  0.8835924526827440  0.6182545691729298  0.5552500215573253
  0.1378690694737254  0.2168476871332835  0.3845970685480437
 
  0.00000000E+00  0.00000000E+00  0.00000000E+00
  0.00000000E+00  0.00000000E+00  0.00000000E+00
  0.00000000E+00  0.00000000E+00  0.00000000E+00
  0.00000000E+00  0.00000000E+00  0.00000000E+00
  0.00000000E+00  0.00000000E+00  0.00000000E+00
  0.00000000E+00  0.00000000E+00  0.00000000E+00
  0.00000000E+00  0.00000000E+00  0.00000000E+00
  0.00000000E+00  0.00000000E+00  0.00000000E+00
  0.00000000E+00  0.00000000E+00  0.00000000E+00
  0.00000000E+00  0.00000000E+00  0.00000000E+00
  0.00000000E+00  0.00000000E+00  0.00000000E+00
  0.00000000E+00  0.00000000E+00  0.00000000E+00
  0.00000000E+00  0.00000000E+00  0.00000000E+00
  0.00000000E+00  0.00000000E+00  0.00000000E+00
  0.00000000E+00  0.00000000E+00  0.00000000E+00
  0.00000000E+00  0.00000000E+00  0.00000000E+00
  0.00000000E+00  0.00000000E+00  0.00000000E+00
  0.00000000E+00  0.00000000E+00  0.00000000E+00
  0.00000000E+00  0.00000000E+00  0.00000000E+00
  0.00000000E+00  0.00000000E+00  0.00000000E+00
  0.00000000E+00  0.00000000E+00  0.00000000E+00
  0.00000000E+00  0.00000000E+00  0.00000000E+00
  0.00000000E+00  0.00000000E+00  0.00000000E+00
  0.00000000E+00  0.00000000E+00  0.00000000E+00
  0.00000000E+00  0.00000000E+00  0.00000000E+00
  0.00000000E+00  0.00000000E+00  0.00000000E+00
  0.00000000E+00  0.00000000E+00  0.00000000E+00
  0.00000000E+00  0.00000000E+00  0.00000000E+00
  0.00000000E+00  0.00000000E+00  0.00000000E+00
  0.00000000E+00  0.00000000E+00  0.00000000E+00
  0.00000000E+00  0.00000000E+00  0.00000000E+00
  0.00000000E+00  0.00000000E+00  0.00000000E+00
  0.00000000E+00  0.00000000E+00  0.00000000E+00
  0.00000000E+00  0.00000000E+00  0.00000000E+00
  0.00000000E+00  0.00000000E+00  0.00000000E+00
  0.00000000E+00  0.00000000E+00  0.00000000E+00
  0.00000000E+00  0.00000000E+00  0.00000000E+00
  0.00000000E+00  0.00000000E+00  0.00000000E+00
  0.00000000E+00  0.00000000E+00  0.00000000E+00
  0.00000000E+00  0.00000000E+00  0.00000000E+00
  0.00000000E+00  0.00000000E+00  0.00000000E+00
  0.00000000E+00  0.00000000E+00  0.00000000E+00
  0.00000000E+00  0.00000000E+00  0.00000000E+00
  0.00000000E+00  0.00000000E+00  0.00000000E+00
  0.00000000E+00  0.00000000E+00  0.00000000E+00
  0.00000000E+00  0.00000000E+00  0.00000000E+00
  0.00000000E+00  0.00000000E+00  0.00000000E+00
  0.00000000E+00  0.00000000E+00  0.00000000E+00
  0.00000000E+00  0.00000000E+00  0.00000000E+00
  0.00000000E+00  0.00000000E+00  0.00000000E+00
  0.00000000E+00  0.00000000E+00  0.00000000E+00
  0.00000000E+00  0.00000000E+00  0.00000000E+00
  0.00000000E+00  0.00000000E+00  0.00000000E+00
  0.00000000E+00  0.00000000E+00  0.00000000E+00
  0.00000000E+00  0.00000000E+00  0.00000000E+00
  0.00000000E+00  0.00000000E+00  0.00000000E+00
  0.00000000E+00  0.00000000E+00  0.00000000E+00
  0.00000000E+00  0.00000000E+00  0.00000000E+00
  0.00000000E+00  0.00000000E+00  0.00000000E+00
  0.00000000E+00  0.00000000E+00  0.00000000E+00
  0.00000000E+00  0.00000000E+00  0.00000000E+00
  0.00000000E+00  0.00000000E+00  0.00000000E+00
  0.00000000E+00  0.00000000E+00  0.00000000E+00
  0.00000000E+00  0.00000000E+00  0.00000000E+00
  0.00000000E+00  0.00000000E+00  0.00000000E+00
  0.00000000E+00  0.00000000E+00  0.00000000E+00
  0.00000000E+00  0.00000000E+00  0.00000000E+00
  0.00000000E+00  0.00000000E+00  0.00000000E+00
  0.00000000E+00  0.00000000E+00  0.00000000E+00
  0.00000000E+00  0.00000000E+00  0.00000000E+00
  0.00000000E+00  0.00000000E+00  0.00000000E+00
  0.00000000E+00  0.00000000E+00  0.00000000E+00
  0.00000000E+00  0.00000000E+00  0.00000000E+00
  0.00000000E+00  0.00000000E+00  0.00000000E+00
  0.00000000E+00  0.00000000E+00  0.00000000E+00
  0.00000000E+00  0.00000000E+00  0.00000000E+00
  0.00000000E+00  0.00000000E+00  0.00000000E+00
  0.00000000E+00  0.00000000E+00  0.00000000E+00
  0.00000000E+00  0.00000000E+00  0.00000000E+00
  0.00000000E+00  0.00000000E+00  0.00000000E+00
  0.00000000E+00  0.00000000E+00  0.00000000E+00
  0.00000000E+00  0.00000000E+00  0.00000000E+00
  0.00000000E+00  0.00000000E+00  0.00000000E+00
  0.00000000E+00  0.00000000E+00  0.00000000E+00
  0.00000000E+00  0.00000000E+00  0.00000000E+00
  0.00000000E+00  0.00000000E+00  0.00000000E+00
  0.00000000E+00  0.00000000E+00  0.00000000E+00
  0.00000000E+00  0.00000000E+00  0.00000000E+00
  0.00000000E+00  0.00000000E+00  0.00000000E+00
  0.00000000E+00  0.00000000E+00  0.00000000E+00
  0.00000000E+00  0.00000000E+00  0.00000000E+00
  0.00000000E+00  0.00000000E+00  0.00000000E+00
  0.00000000E+00  0.00000000E+00  0.00000000E+00
  0.00000000E+00  0.00000000E+00  0.00000000E+00
  0.00000000E+00  0.00000000E+00  0.00000000E+00
  0.00000000E+00  0.00000000E+00  0.00000000E+00
  0.00000000E+00  0.00000000E+00  0.00000000E+00
  0.00000000E+00  0.00000000E+00  0.00000000E+00
  0.00000000E+00  0.00000000E+00  0.00000000E+00
  0.00000000E+00  0.00000000E+00  0.00000000E+00
  0.00000000E+00  0.00000000E+00  0.00000000E+00
  0.00000000E+00  0.00000000E+00  0.00000000E+00
  0.00000000E+00  0.00000000E+00  0.00000000E+00
  0.00000000E+00  0.00000000E+00  0.00000000E+00
  0.00000000E+00  0.00000000E+00  0.00000000E+00
  0.00000000E+00  0.00000000E+00  0.00000000E+00
  0.00000000E+00  0.00000000E+00  0.00000000E+00
  0.00000000E+00  0.00000000E+00  0.00000000E+00
  0.00000000E+00  0.00000000E+00  0.00000000E+00
  0.00000000E+00  0.00000000E+00  0.00000000E+00
  0.00000000E+00  0.00000000E+00  0.00000000E+00
  0.00000000E+00  0.00000000E+00  0.00000000E+00
  0.00000000E+00  0.00000000E+00  0.00000000E+00
  0.00000000E+00  0.00000000E+00  0.00000000E+00
  0.00000000E+00  0.00000000E+00  0.00000000E+00
  0.00000000E+00  0.00000000E+00  0.00000000E+00
  0.00000000E+00  0.00000000E+00  0.00000000E+00
  0.00000000E+00  0.00000000E+00  0.00000000E+00
  0.00000000E+00  0.00000000E+00  0.00000000E+00
  0.00000000E+00  0.00000000E+00  0.00000000E+00
  0.00000000E+00  0.00000000E+00  0.00000000E+00
  0.00000000E+00  0.00000000E+00  0.00000000E+00
  0.00000000E+00  0.00000000E+00  0.00000000E+00
  0.00000000E+00  0.00000000E+00  0.00000000E+00
  0.00000000E+00  0.00000000E+00  0.00000000E+00
  0.00000000E+00  0.00000000E+00  0.00000000E+00
  0.00000000E+00  0.00000000E+00  0.00000000E+00
  0.00000000E+00  0.00000000E+00  0.00000000E+00
  0.00000000E+00  0.00000000E+00  0.00000000E+00
  0.00000000E+00  0.00000000E+00  0.00000000E+00
  0.00000000E+00  0.00000000E+00  0.00000000E+00
  0.00000000E+00  0.00000000E+00  0.00000000E+00
  0.00000000E+00  0.00000000E+00  0.00000000E+00
  0.00000000E+00  0.00000000E+00  0.00000000E+00
  0.00000000E+00  0.00000000E+00  0.00000000E+00
  0.00000000E+00  0.00000000E+00  0.00000000E+00
  0.00000000E+00  0.00000000E+00  0.00000000E+00
  0.00000000E+00  0.00000000E+00  0.00000000E+00
  0.00000000E+00  0.00000000E+00  0.00000000E+00
  0.00000000E+00  0.00000000E+00  0.00000000E+00
  0.00000000E+00  0.00000000E+00  0.00000000E+00
  0.00000000E+00  0.00000000E+00  0.00000000E+00
  0.00000000E+00  0.00000000E+00  0.00000000E+00
  0.00000000E+00  0.00000000E+00  0.00000000E+00
  0.00000000E+00  0.00000000E+00  0.00000000E+00
  0.00000000E+00  0.00000000E+00  0.00000000E+00
  0.00000000E+00  0.00000000E+00  0.00000000E+00
  0.00000000E+00  0.00000000E+00  0.00000000E+00
  0.00000000E+00  0.00000000E+00  0.00000000E+00
  0.00000000E+00  0.00000000E+00  0.00000000E+00
  0.00000000E+00  0.00000000E+00  0.00000000E+00
  0.00000000E+00  0.00000000E+00  0.00000000E+00
  0.00000000E+00  0.00000000E+00  0.00000000E+00
  0.00000000E+00  0.00000000E+00  0.00000000E+00
  0.00000000E+00  0.00000000E+00  0.00000000E+00
  0.00000000E+00  0.00000000E+00  0.00000000E+00
  0.00000000E+00  0.00000000E+00  0.00000000E+00
  0.00000000E+00  0.00000000E+00  0.00000000E+00
  0.00000000E+00  0.00000000E+00  0.00000000E+00
  0.00000000E+00  0.00000000E+00  0.00000000E+00
  0.00000000E+00  0.00000000E+00  0.00000000E+00
  0.00000000E+00  0.00000000E+00  0.00000000E+00
  0.00000000E+00  0.00000000E+00  0.00000000E+00
  0.00000000E+00  0.00000000E+00  0.00000000E+00
  0.00000000E+00  0.00000000E+00  0.00000000E+00
  0.00000000E+00  0.00000000E+00  0.00000000E+00
  0.00000000E+00  0.00000000E+00  0.00000000E+00
  0.00000000E+00  0.00000000E+00  0.00000000E+00
  0.00000000E+00  0.00000000E+00  0.00000000E+00
  0.00000000E+00  0.00000000E+00  0.00000000E+00
  0.00000000E+00  0.00000000E+00  0.00000000E+00
  0.00000000E+00  0.00000000E+00  0.00000000E+00
  0.00000000E+00  0.00000000E+00  0.00000000E+00
  0.00000000E+00  0.00000000E+00  0.00000000E+00
  0.00000000E+00  0.00000000E+00  0.00000000E+00
  0.00000000E+00  0.00000000E+00  0.00000000E+00
  0.00000000E+00  0.00000000E+00  0.00000000E+00
  0.00000000E+00  0.00000000E+00  0.00000000E+00
  0.00000000E+00  0.00000000E+00  0.00000000E+00
  0.00000000E+00  0.00000000E+00  0.00000000E+00
  0.00000000E+00  0.00000000E+00  0.00000000E+00
  0.00000000E+00  0.00000000E+00  0.00000000E+00
  0.00000000E+00  0.00000000E+00  0.00000000E+00
  0.00000000E+00  0.00000000E+00  0.00000000E+00
  0.00000000E+00  0.00000000E+00  0.00000000E+00
  0.00000000E+00  0.00000000E+00  0.00000000E+00
  0.00000000E+00  0.00000000E+00  0.00000000E+00
  0.00000000E+00  0.00000000E+00  0.00000000E+00
  0.00000000E+00  0.00000000E+00  0.00000000E+00
  0.00000000E+00  0.00000000E+00  0.00000000E+00
  0.00000000E+00  0.00000000E+00  0.00000000E+00
  0.00000000E+00  0.00000000E+00  0.00000000E+00
  0.00000000E+00  0.00000000E+00  0.00000000E+00
  0.00000000E+00  0.00000000E+00  0.00000000E+00
  0.00000000E+00  0.00000000E+00  0.00000000E+00
  0.00000000E+00  0.00000000E+00  0.00000000E+00
  0.00000000E+00  0.00000000E+00  0.00000000E+00
  0.00000000E+00  0.00000000E+00  0.00000000E+00
  0.00000000E+00  0.00000000E+00  0.00000000E+00
  0.00000000E+00  0.00000000E+00  0.00000000E+00
  0.00000000E+00  0.00000000E+00  0.00000000E+00
  0.00000000E+00  0.00000000E+00  0.00000000E+00
  0.00000000E+00  0.00000000E+00  0.00000000E+00
  0.00000000E+00  0.00000000E+00  0.00000000E+00
  0.00000000E+00  0.00000000E+00  0.00000000E+00
  0.00000000E+00  0.00000000E+00  0.00000000E+00
  0.00000000E+00  0.00000000E+00  0.00000000E+00
  0.00000000E+00  0.00000000E+00  0.00000000E+00
  0.00000000E+00  0.00000000E+00  0.00000000E+00
  0.00000000E+00  0.00000000E+00  0.00000000E+00
  0.00000000E+00  0.00000000E+00  0.00000000E+00
  0.00000000E+00  0.00000000E+00  0.00000000E+00
  0.00000000E+00  0.00000000E+00  0.00000000E+00
  0.00000000E+00  0.00000000E+00  0.00000000E+00
  0.00000000E+00  0.00000000E+00  0.00000000E+00
  0.00000000E+00  0.00000000E+00  0.00000000E+00
  0.00000000E+00  0.00000000E+00  0.00000000E+00
  0.00000000E+00  0.00000000E+00  0.00000000E+00
  0.00000000E+00  0.00000000E+00  0.00000000E+00
  0.00000000E+00  0.00000000E+00  0.00000000E+00
  0.00000000E+00  0.00000000E+00  0.00000000E+00
  0.00000000E+00  0.00000000E+00  0.00000000E+00
  0.00000000E+00  0.00000000E+00  0.00000000E+00
  0.00000000E+00  0.00000000E+00  0.00000000E+00
  0.00000000E+00  0.00000000E+00  0.00000000E+00
  0.00000000E+00  0.00000000E+00  0.00000000E+00
  0.00000000E+00  0.00000000E+00  0.00000000E+00
  0.00000000E+00  0.00000000E+00  0.00000000E+00
  0.00000000E+00  0.00000000E+00  0.00000000E+00
  0.00000000E+00  0.00000000E+00  0.00000000E+00
  0.00000000E+00  0.00000000E+00  0.00000000E+00
  0.00000000E+00  0.00000000E+00  0.00000000E+00
  0.00000000E+00  0.00000000E+00  0.00000000E+00
  0.00000000E+00  0.00000000E+00  0.00000000E+00
  0.00000000E+00  0.00000000E+00  0.00000000E+00
  0.00000000E+00  0.00000000E+00  0.00000000E+00
  0.00000000E+00  0.00000000E+00  0.00000000E+00
  0.00000000E+00  0.00000000E+00  0.00000000E+00
  0.00000000E+00  0.00000000E+00  0.00000000E+00
  0.00000000E+00  0.00000000E+00  0.00000000E+00
