Ge Se                                   
   1.00000000000000     
    20.2255032372391987    0.0000000000000000    0.0000000000000000
     0.0000000000000000   20.2255032372391987    0.0000000000000000
     0.0000000000000000    0.0000000000000000   20.2255032372391987
   Ge   Se
   200   100
Direct
  0.0152921090066391  0.5357860458897026  0.9176625646939505
  0.0341329575121274  0.4215829875487858  0.3146975897265194
  0.1547652981430261  0.1217643230690378  0.5448432482849899
  0.2342225676150723  0.1280109907729673  0.0142904185330460
  0.7089917831349644  0.4559783134289592  0.3827158665299478
  0.7251190725433557  0.5290887623684492  0.6093678774185807
  0.0688121026837952  0.8377701582579378  0.2108413945070534
 -0.0007643839062973  0.3055465633806484  0.9437382803695918
  0.2814697737048321  0.5215157889234837  0.3512108818077609
  0.5061120896513458  0.7372383581507530  0.7493871781858978
  0.7647515416249986  0.9311370176433386  0.6977880828018319
  0.0304482930813630  0.8979661653461688  0.6216792577062018
  0.4597319209554004  0.8597200770017920  0.7237076064223905
  0.8886812726725999  0.3776587307316661  0.2691067393982780
  0.2354613696451365  0.2174440533657558  0.5627607453199226
  0.1443190698910577  0.4123627212446743  0.9604837312091982
  0.6378121368463369  0.0801049712562891  0.4801118507639829
  0.6964926994751562  0.3482620753892908  0.2162898700527849
  0.7561299056029852  0.5707896344009133  0.9930056115003290
  0.1957068381142734  0.6986130330798167  0.0862709029497478
  0.3310844226655373  0.7501546721481781 -0.0075688454799353
  0.2235018487516771  0.9946181383208708  0.0037002746955833
  0.1580625120908868  0.7275936039639105  0.5894695556829539
  0.8865385718145731  0.4952116836287517  0.8541158030600619
  0.5706715089225943  0.3438935780987906  0.1887788266532204
  0.0413902108761654  0.4226065454240551  0.4998399549082159
  0.8634936620026843  0.4859006398085166  0.4738751511625253
  0.4154263069151225  0.4210933342794726  0.4628672771012894
  0.6692436685134314  0.8743972253880314  0.1056500673270140
  0.0416310241547433  0.9398419543125820  0.8326627892608156
  0.3796549776238287  0.0097747375664987  0.7007012053584689
  0.8191498963841629  0.1020636192059438  0.3870337171686411
  0.5076133159274665  0.3579405339083763  0.6981609886037837
  0.4745999027048526  0.6198417380160303  0.9256545393179942
  0.5080135449155155  0.9530826143877069  0.5426859105281205
  0.3192841713191796  0.5346405194611059  0.0409669078999607
  0.4215132400795198  0.5263887614131164  0.8650819570195953
  0.2504748028690668  0.8593635787076399  0.6911475100017641
  0.7362722620508143  0.1450899108223120 -0.0024330853305268
  0.4516149468359850  0.6510611462472176  0.0452398998924093
  0.6366326071325102  0.3022302781165851  0.6739672801533737
  0.8385683412916894  0.4048395276507231  0.1520603429637384
  0.5886563324845620  0.8009392514541590  0.0290794363233915
  0.8854744670153983  0.8859403007673318  0.7220554268786413
  0.9113800588325979  0.9534890576458409  0.5868081573541452
  0.0392513915627545  0.0338416768854001  0.2965325919342400
  0.2490806472543326  0.4862038525807595  0.5998844386725658
  0.6636180612665827  0.7726238421896253  0.4928408469746184
  0.5018083510723638  0.7284388286347916  0.8738065131692330
 -0.0098921702225520  0.6433487620065618  0.0555337861676116
  0.9681142557746286  0.7525478856176183  0.7833344301551795
  0.7057865207440303  0.1637980931105086  0.4130867451855431
  0.4504109210925771  0.8810062547128955  0.3331331101261372
  0.2469506356783865  0.1869570323736685  0.6910888262790328
  0.6554404205510417  0.9506821433990131  0.9676290885613221
  0.2852397125279404  0.8897610537452594  0.1481308985334791
  0.2615760219401059  0.9277256133381108  0.5789826346210712
  0.9781021169718555  0.8081362445679022  0.2965992711041794
  0.6815923704013863  0.2430205055320301  0.8201179967154077
  0.6171442942570484  0.7445515002455171  0.9195925676802131
  0.0640759786492152  0.4468092472460604  0.1338678914617301
  0.2412402891057286  0.0509050326672829  0.6036394708217766
  0.3387840883500745  0.2756701263160285  0.6955830439483751
  0.1507832533546515  0.8653711844908017  0.5838700332958352
  0.9006714650862424  0.5133570766699884  0.1074706043225895
  0.1602860457589557  0.3691674864436274  0.4717258222077968
  0.5754121627296733  0.9210969392100233  0.7205307233647213
  0.4661605567691167  0.5473961872677717  0.7487503531625289
  0.9823543374984971  0.2916933031796384  0.2369033308529447
  0.9736514343474547  0.0489071165895496  0.5310102271603461
  0.8014988278336141  0.1809982787804033  0.6908016422819436
  0.7565861688632941  0.0450887421661333  0.7958485342757822
  0.0171120391076211  0.2427513596349849  0.6158569097385828
  0.2172633951523757  0.0379898658939890  0.3786420808942246
  0.0345175237360902  0.7879156932550045  0.4623207985746830
  0.6017734767959400  0.6581807183029518  0.7278262104563802
  0.7844779108641109  0.1293965505696783  0.1224695364337977
  0.5949769213172824  0.5318174943385247  0.7614646513692482
  0.1479350509544297  0.8168709145418985  0.7551550527387271
  0.5463574004123943  0.4172194940086106  0.8097296137372827
  0.2199937719163428  0.5893977828425172  0.8848867887079066
  0.7761907705503475  0.2116942717185961  0.8959535205453623
  0.2749964214158108  0.7008671787785966  0.2854248475933636
  0.6931208907444282  0.4583909364377372  0.8745531842011462
  0.9421353655676494  0.5919347229840739  0.4635574124949268
  0.7187635826945012  0.7885444247094119  0.8517741622396482
  0.7027898517624096  0.1368524978944742  0.5747721467629017
  0.2016261960722492  0.1725253889198249  0.1803355551143282
  0.4444111228089950  0.2478424123947632  0.4167927307742481
  0.6810214509348365  0.8894315010176653  0.5378812510637196
  0.3687143166554241  0.3566662267374181  0.2798248670702588
  0.2272855295769268  0.0461296334580940  0.2041224597253126
  0.7664047438389854  0.0242726456196870  0.5928631947905343
  0.6537448665301333  0.4968044833492936  0.0973440719539072
  0.4268071080129185  0.5111495495405364  0.5601817019434630
  0.4610774977425323  0.1911027893326899  0.2364987852485164
  0.9757323604914362  0.8796510877340805  0.4038144105450611
  0.1738152092966134  0.7922343976783215  0.8777416595261266
  0.9387233308887629  0.4180370444578660  0.7145525800617297
  0.8579939683088650  0.7563401529971387  0.3766420829744312
  0.7335942474892418  0.0394335238172493  0.9237663738775955
  0.0771012891235982  0.1290796852487826  0.4412947991351606
  0.4999550658413148  0.5415331141393872  0.0851313861865040
  0.3113484667126101  0.5169832159555551  0.9178498640639368
  0.3710907931501882  0.2119949305053237  0.5891074268887699
  0.3615432981142389  0.3034000726293863  0.4967863285460558
  0.4268378378068944  0.1197146300969629  0.4226250828420103
  0.5427793509080807  0.3499506575556797  0.5426018256385668
  0.5545578084634853  0.0376872848934847  0.7715471551370682
  0.2792314530368094  0.8788396347860165  0.4489296792815577
  0.6064763045066784  0.5031316462214461  0.4879775798481691
  0.1324452321917504  0.5522823699453233  0.9636188183377209
  0.3568074257123270  0.8129194577628651  0.5430448900712805
  0.5017681299292862  0.8638815480804509  0.4484770051134684
  0.3116157401886002  0.6417721473260662  0.6963396982843767
  0.8231135838895626 -0.0036466036768268  0.4657739534340734
  0.0639952831291260  0.6198682826381139  0.5804304108359113
  0.3682839305101256  0.9688496697939751  0.2863252691572167
  0.2570435260467362  0.2619269943176963  0.4383561857425514
  0.9755674618990597  0.7019362821785646  0.3879626853253166
  0.2093102131118606  0.1106992005999894  0.8505487502966614
  0.5608724991129979  0.5365782795846616  0.9681274432724020
  0.8826018635400472  0.7685343345762202  0.8774967109555702
  0.9408014389684510  0.3565597451000878  0.0515970127492935
  0.9302594288807168  0.2628876569443700  0.8294539660873075
  0.2998213119843071  0.1373860861218118  0.4068872191199132
  0.2607890413532216  0.7060052566711866  0.8983695480205456
  0.0779087354966855  0.7163769363874096  0.8994586790191612
  0.0195403367561078  0.0025718501174609  0.4215379765067750
  0.4198680430933928  0.8106176332125361  0.9252494916256702
  0.1916365542330094  0.4307577299507304  0.7914412993770098
  0.7499587653502007  0.3230816139677918  0.3308723199356680
  0.5601730460808478  0.9036467224301323  0.8959660761071733
  0.0893110434189163  0.3306542955559540  0.6778599936455345
  0.0497776270733681  0.3307757206460277  0.8173009024555435
  0.6678255385501465  0.9117420020117817  0.3374241999925674
  0.0308623716919749  0.4337594885688883  0.6261573598390490
  0.6505651750641778  0.1225338160048806  0.7820436143894574
  0.7290764751992721  0.6173805011971832  0.4360514835637658
  0.6235192780275679  0.1085151510754629  0.9059710380592230
  0.3292118343145383  0.8954294171880515  0.8831860541743890
  0.8637637708455544  0.1091378515065935  0.5266768875671284
  0.7212413972236449  0.5949867164685680  0.8238458453751674
  0.3216247702645895  0.7071638758443752  0.4492070824165879
  0.0898091978344997  0.0726030246572302  0.7166632406316551
  0.9474648918217378  0.4085396214046571  0.4134437669692017
  0.8535572852331164  0.2350826002730337  0.5266854134221466
  0.0460959329792157  0.1199246736068572  0.6089085774888877
  0.0278174657851565  0.8567530322573436  0.7411333156099636
  0.2334651929242649  0.9456037433754890  0.2881184353541612
  0.4804631477651882  0.3006140797546212  0.3021505265972999
  0.1555765852859020  0.5366692835894455  0.1971372425438579
  0.7005349700783176  0.3377450126424950  0.0142028835077340
  0.4109563425307869  0.9115619673693239  0.6150482553424425
  0.8145456666529557  0.9819767843907323  0.0073911032428349
  0.8898030409784096  0.0368955916798025  0.1772777998612938
  0.0441012146461795  0.6500197398744234  0.7930783895015673
  0.7319261592533393  0.2406671256982247  0.5091435154055586
  0.1051900445469690  0.6633967216177309  0.0093337905708992
  0.7796312785577885  0.5277539705666230  0.7274071791296806
  0.3148543837981292  0.3685347647783039  0.6061272339918231
 -0.0075240025213554  0.4740015421644234  0.0292832134176507
  0.5134663227506095  0.0730890491850996  0.5058588276962682
  0.8045531973166538  0.1030190974178663  0.2606750330950119
  0.6768948200159686  0.1994336583278185  0.2279797689018129
  0.2423934484474722  0.8116552884103072  0.0563100569083459
  0.4720890448546111  0.7603750318381244  0.5140804816097125
  0.5289850594723727  0.5852715698292565  0.5448279099685090
  0.9293850807263920  0.2857430945325082  0.4409552254630376
  0.3199786707300478  0.6575705494684312  0.0779205496939933
  0.0764112355949596  0.5959003835320045  0.3463201443442247
  0.9409693141724631  0.9667702775699637  0.0366336445897950
  0.3418521712141542  0.0655249026325379  0.1507262647565597
  0.1974476805610596  0.5221536372288448  0.0715093349054238
  0.3141428894729681  0.4143033012348882  0.1734764957805439
  0.3438955517510175  0.8278994495103571  0.7781623485260367
  0.4997236894459187  0.1665861984360269  0.5911751697574412
  0.0638256780815867  0.0758965471304530  0.1050076126749635
  0.1835747734132848  0.2987448280992029  0.2215995942858740
  0.9024553734117107  0.1949260076134114  0.3558930860321788
  0.1331581029815716  0.6673128110033414  0.1914067743048493
  0.8834094608359998  0.7429345766021425  0.5787226501494186
  0.9658494601757277  0.9030623024381166  0.9266302641955089
  0.1602193766599752  0.8127027769212101  0.4618244643541215
  0.0665418934994041  0.1185894385902052  0.9004956373327664
  0.4768585344788528  0.0260201049217710  0.2506144223002846
  0.2705104493245550  0.2820773777552169  0.3135710155567868
  0.7245019364913097  0.4427240692999723  0.5159021305357113
  0.4658383396237348  0.0978661419131862  0.1450683290741230
  0.1783128773320839  0.9792575705751160  0.7287911173254650
  0.8942217825468676  0.2599873714456069  0.6409268425824612
  0.6503384661914013  0.6189600061250680  0.9354451502675776
  0.6972896939310367  0.9749057816864060  0.4470792183576866
  0.6685925040737890  0.3372758066131335  0.5557503382575618
  0.2709254516639279  0.0673074829277403  0.7292860785666155
  0.7350062672405250  0.6516579223161145  0.5629450063017689
  0.9639830614789356  0.4713093759484562  0.2191148092202757
  0.4921822095066770  0.4371684734310711  0.9213467542216890
  0.6146398742587420  0.9680312660016386  0.6090216838927092
  0.6137358964913405  0.6551691614090154  0.6034938902494903
  0.2626731132343605  0.1974682970032627  0.9199760349877129
  0.9361253705433390  0.6205311042929427  0.5863374769957852
  0.8049817749879360  0.5366795387133383  0.3748163221575651
  0.3348551364926262  0.9749329028114059  0.0626441564848161
  0.1941805699218394  0.6939019281173916  0.4644579063702383
  0.3651077670507351  0.7115306920949453  0.1862462661140844
  0.7495291875204494  0.8725708480280006  0.0010921461662169
  0.7492006814704365  0.2891077939029943  0.7303899240822823
  0.6144122700758483  0.1764566839371065  0.6543295911685065
  0.1451946202954477  0.6985642958833828  0.7296019884613576
  0.0068371534804297  0.7814957222468133  0.5828786561334506
  0.9750423581311422  0.1703504686657063  0.2602662429644036
  0.8143669885650039  0.6000740058332579  0.0915948768387513
  0.8445228669291326  0.3096212519768947  0.9072620403550709
  0.4916144389008822  0.8756865511371449  0.0018418424457610
  0.6002429953570075  0.8168939242758476  0.3917492008004665
  0.7667005735127908  0.8439574886590515  0.6097557732074105
  0.5076634445562092  0.1157944489053591  0.3273060461364800
  0.8738264819734951  0.0594419270835659  0.6535564329226967
  0.8658924465453425  0.8940870073216749  0.8528283959546070
  0.5658528172517637  0.5271375704142217  0.1808085881992523
  0.1346774285130556  0.9939461148718689  0.4681386944912457
  0.0138900023907234  0.6687270140233098  0.1694424983821244
  0.4280594744443106  0.2967939056939325  0.7721785944737316
  0.0358459345517448  0.3187723250530592  0.1269246540901253
  0.5392061680437170  0.4135574669200625  0.4318074181472341
  0.9852779653662713  0.7836700645760841  0.9559239552653803
  0.1596569892572286  0.9912491489722171  0.1140494467721376
  0.8288545622148608  0.6037141677067566  0.8932988362484116
  0.0403527114469351  0.0304907838951905  0.9898618727115097
  0.7651317157298620  0.3065664388330462  0.1196792888427005
  0.1396697584913578  0.1786312081918781  0.7631534626352396
  0.7679470379992698  0.4473311455228407  0.9797758731079791
  0.8716813359768730  0.7585422862560425  0.7057109387233442
  0.5695010244650131  0.2195340666478706  0.1652730008303823
  0.6153441527131933  0.4865673702675472  0.6488983938261845
  0.3919183701195568  0.8205328377477084  0.1525896107023586
  0.1882059528713156  0.3310862725560875  0.5909923742712174
  0.7883551734423621  0.4282888693455437  0.7975410391739126
  0.3419763746762926  0.7066645765265167  0.8086090206307242
  0.9023092349562065  0.5423336117565734  0.7357028973162851
  0.8672709974402595  0.3772389779652773  0.6228442727972212
  0.3520395468160669  0.6269578223646577  0.3552298503214322
  0.7421414734695145  0.7175724869054051  0.3693723996488966
  0.1581265116099389  0.9644688795880336  0.8494443725132932
  0.6150207166917910  0.9818053850057750  0.0752089651280645
  0.1347979537948201  0.1132602597310847  0.3256360293262371
  0.4124419481696344  0.9562994808546265  0.8103833056664457
  0.3238367492189300  0.7941600633393169  0.3563477292837641
  0.5703610186293765  0.7707843799182543  0.5876940112178991
  0.9020988514865806  0.1175379427616341  0.0851957724770182
  0.6206351920363518  0.1877610730134244 -0.0052696525093251
  0.3487457649737747  0.0903583098109929  0.5589415631167153
  0.5434703094293756  0.2373748177172872  0.4905852966881951
  0.1057648493478838  0.9232825065113437  0.2989246504731845
  0.1415737099133935  0.7565769152888253  0.2736369738928741
  0.8647397565040577  0.7952054094749353  0.2631221077578523
  0.5991334937595261  0.3844510105970754  0.0681244536175398
  0.0019424043629681  0.0544948947453786  0.8059225831173130
  0.3280691918469606  0.5809931192438452  0.5672343482545615
  0.0863673346670759  0.3030529303736245  0.3048228671791661
  0.1388029208924061  0.4867302066704421  0.3233177049964671
  0.8617833832604204  0.8591103468570848  0.4445221743089830
  0.2583375445127580  0.4068990861650360  0.9000384437144415
  0.2804178675215405  0.5282952190531971  0.2180008849875985
  0.4017619239762585  0.4580588689895025  0.0880923479470457
  0.1315294940868452  0.1757108302692836  0.0697779559235323
  0.7131929946381128  0.7013922008879201  0.7570984934884813
  0.7780644168834845  0.0015243272267851  0.1237802827670966
  0.8206729065103805  0.2329229176971332  0.2706696400159773
  0.4193780044355634  0.4607269390610454  0.6741308691950322
  0.1038380152520134  0.5288014520931319  0.6503562393384748
  0.6310421044720497  0.3462340284240615  0.8710115027756646
  0.0688659679395191  0.4532500665225737  0.8317023697221878
  0.1202473301727869  0.2891456206171449  0.9158758878517592
  0.5388238609461847  0.7147766269857873  0.0975406414722000
 -0.0343475486681743  0.5589311670521243  0.3049787618866013
  0.2279001022924311  0.4728051489407007  0.4808208143872568
  0.1624755876780591  0.8593864326543347 -0.0197575377557781
  0.2858833056999532  0.7511536024639517  0.6262719685292162
  0.3053441168571233  0.1775838503647232  0.1045872017756785
  0.2220842380005688  0.5483783475619949  0.7715839147520145
  0.1858965871302129  0.4012345877108433  0.0839009216298744
  0.9647343102513891  0.1872067102707550  0.9279717720311105
  0.3920168455831435  0.4602400549916648  0.3432313410033970
  0.5549636769810171  0.9335520912095787  0.2771840429845916
  0.4415166836722155  0.6500665172313776  0.6837194712362054
  0.6467982363162562  0.2477300923986595  0.3438623909276126
  0.7348186169843099  0.4641664127996529  0.1972133418017118
  0.5272652088367386  0.0290283580430130  0.8948395873716866
  0.4634441629774136  0.0967838878873368  0.7180451140796636
  0.6318598558367818  0.5629308232590156  0.3811456452028834
  0.4903549769621022  0.6577437804360188  0.4553169857422471
  0.6849910775807966  0.0800030701520125  0.2603163505941855
  0.0599897353786526  0.5478603219511511  0.4724042862853109
  0.0377816040787637  0.2590000221345344  0.4927746110808845
  0.3183770328398944  0.1702864100771666  0.2863512199185326
  0.6788101450637617  0.8936525668623949  0.7878800649546038
  0.8372424839788728  0.1435115645414022  0.8108795138191920
  0.3844613713190372  0.9761210586031677  0.4055902752302012
 
  0.00000000E+00  0.00000000E+00  0.00000000E+00
  0.00000000E+00  0.00000000E+00  0.00000000E+00
  0.00000000E+00  0.00000000E+00  0.00000000E+00
  0.00000000E+00  0.00000000E+00  0.00000000E+00
  0.00000000E+00  0.00000000E+00  0.00000000E+00
  0.00000000E+00  0.00000000E+00  0.00000000E+00
  0.00000000E+00  0.00000000E+00  0.00000000E+00
  0.00000000E+00  0.00000000E+00  0.00000000E+00
  0.00000000E+00  0.00000000E+00  0.00000000E+00
  0.00000000E+00  0.00000000E+00  0.00000000E+00
  0.00000000E+00  0.00000000E+00  0.00000000E+00
  0.00000000E+00  0.00000000E+00  0.00000000E+00
  0.00000000E+00  0.00000000E+00  0.00000000E+00
  0.00000000E+00  0.00000000E+00  0.00000000E+00
  0.00000000E+00  0.00000000E+00  0.00000000E+00
  0.00000000E+00  0.00000000E+00  0.00000000E+00
  0.00000000E+00  0.00000000E+00  0.00000000E+00
  0.00000000E+00  0.00000000E+00  0.00000000E+00
  0.00000000E+00  0.00000000E+00  0.00000000E+00
  0.00000000E+00  0.00000000E+00  0.00000000E+00
  0.00000000E+00  0.00000000E+00  0.00000000E+00
  0.00000000E+00  0.00000000E+00  0.00000000E+00
  0.00000000E+00  0.00000000E+00  0.00000000E+00
  0.00000000E+00  0.00000000E+00  0.00000000E+00
  0.00000000E+00  0.00000000E+00  0.00000000E+00
  0.00000000E+00  0.00000000E+00  0.00000000E+00
  0.00000000E+00  0.00000000E+00  0.00000000E+00
  0.00000000E+00  0.00000000E+00  0.00000000E+00
  0.00000000E+00  0.00000000E+00  0.00000000E+00
  0.00000000E+00  0.00000000E+00  0.00000000E+00
  0.00000000E+00  0.00000000E+00  0.00000000E+00
  0.00000000E+00  0.00000000E+00  0.00000000E+00
  0.00000000E+00  0.00000000E+00  0.00000000E+00
  0.00000000E+00  0.00000000E+00  0.00000000E+00
  0.00000000E+00  0.00000000E+00  0.00000000E+00
  0.00000000E+00  0.00000000E+00  0.00000000E+00
  0.00000000E+00  0.00000000E+00  0.00000000E+00
  0.00000000E+00  0.00000000E+00  0.00000000E+00
  0.00000000E+00  0.00000000E+00  0.00000000E+00
  0.00000000E+00  0.00000000E+00  0.00000000E+00
  0.00000000E+00  0.00000000E+00  0.00000000E+00
  0.00000000E+00  0.00000000E+00  0.00000000E+00
  0.00000000E+00  0.00000000E+00  0.00000000E+00
  0.00000000E+00  0.00000000E+00  0.00000000E+00
  0.00000000E+00  0.00000000E+00  0.00000000E+00
  0.00000000E+00  0.00000000E+00  0.00000000E+00
  0.00000000E+00  0.00000000E+00  0.00000000E+00
  0.00000000E+00  0.00000000E+00  0.00000000E+00
  0.00000000E+00  0.00000000E+00  0.00000000E+00
  0.00000000E+00  0.00000000E+00  0.00000000E+00
  0.00000000E+00  0.00000000E+00  0.00000000E+00
  0.00000000E+00  0.00000000E+00  0.00000000E+00
  0.00000000E+00  0.00000000E+00  0.00000000E+00
  0.00000000E+00  0.00000000E+00  0.00000000E+00
  0.00000000E+00  0.00000000E+00  0.00000000E+00
  0.00000000E+00  0.00000000E+00  0.00000000E+00
  0.00000000E+00  0.00000000E+00  0.00000000E+00
  0.00000000E+00  0.00000000E+00  0.00000000E+00
  0.00000000E+00  0.00000000E+00  0.00000000E+00
  0.00000000E+00  0.00000000E+00  0.00000000E+00
  0.00000000E+00  0.00000000E+00  0.00000000E+00
  0.00000000E+00  0.00000000E+00  0.00000000E+00
  0.00000000E+00  0.00000000E+00  0.00000000E+00
  0.00000000E+00  0.00000000E+00  0.00000000E+00
  0.00000000E+00  0.00000000E+00  0.00000000E+00
  0.00000000E+00  0.00000000E+00  0.00000000E+00
  0.00000000E+00  0.00000000E+00  0.00000000E+00
  0.00000000E+00  0.00000000E+00  0.00000000E+00
  0.00000000E+00  0.00000000E+00  0.00000000E+00
  0.00000000E+00  0.00000000E+00  0.00000000E+00
  0.00000000E+00  0.00000000E+00  0.00000000E+00
  0.00000000E+00  0.00000000E+00  0.00000000E+00
  0.00000000E+00  0.00000000E+00  0.00000000E+00
  0.00000000E+00  0.00000000E+00  0.00000000E+00
  0.00000000E+00  0.00000000E+00  0.00000000E+00
  0.00000000E+00  0.00000000E+00  0.00000000E+00
  0.00000000E+00  0.00000000E+00  0.00000000E+00
  0.00000000E+00  0.00000000E+00  0.00000000E+00
  0.00000000E+00  0.00000000E+00  0.00000000E+00
  0.00000000E+00  0.00000000E+00  0.00000000E+00
  0.00000000E+00  0.00000000E+00  0.00000000E+00
  0.00000000E+00  0.00000000E+00  0.00000000E+00
  0.00000000E+00  0.00000000E+00  0.00000000E+00
  0.00000000E+00  0.00000000E+00  0.00000000E+00
  0.00000000E+00  0.00000000E+00  0.00000000E+00
  0.00000000E+00  0.00000000E+00  0.00000000E+00
  0.00000000E+00  0.00000000E+00  0.00000000E+00
  0.00000000E+00  0.00000000E+00  0.00000000E+00
  0.00000000E+00  0.00000000E+00  0.00000000E+00
  0.00000000E+00  0.00000000E+00  0.00000000E+00
  0.00000000E+00  0.00000000E+00  0.00000000E+00
  0.00000000E+00  0.00000000E+00  0.00000000E+00
  0.00000000E+00  0.00000000E+00  0.00000000E+00
  0.00000000E+00  0.00000000E+00  0.00000000E+00
  0.00000000E+00  0.00000000E+00  0.00000000E+00
  0.00000000E+00  0.00000000E+00  0.00000000E+00
  0.00000000E+00  0.00000000E+00  0.00000000E+00
  0.00000000E+00  0.00000000E+00  0.00000000E+00
  0.00000000E+00  0.00000000E+00  0.00000000E+00
  0.00000000E+00  0.00000000E+00  0.00000000E+00
  0.00000000E+00  0.00000000E+00  0.00000000E+00
  0.00000000E+00  0.00000000E+00  0.00000000E+00
  0.00000000E+00  0.00000000E+00  0.00000000E+00
  0.00000000E+00  0.00000000E+00  0.00000000E+00
  0.00000000E+00  0.00000000E+00  0.00000000E+00
  0.00000000E+00  0.00000000E+00  0.00000000E+00
  0.00000000E+00  0.00000000E+00  0.00000000E+00
  0.00000000E+00  0.00000000E+00  0.00000000E+00
  0.00000000E+00  0.00000000E+00  0.00000000E+00
  0.00000000E+00  0.00000000E+00  0.00000000E+00
  0.00000000E+00  0.00000000E+00  0.00000000E+00
  0.00000000E+00  0.00000000E+00  0.00000000E+00
  0.00000000E+00  0.00000000E+00  0.00000000E+00
  0.00000000E+00  0.00000000E+00  0.00000000E+00
  0.00000000E+00  0.00000000E+00  0.00000000E+00
  0.00000000E+00  0.00000000E+00  0.00000000E+00
  0.00000000E+00  0.00000000E+00  0.00000000E+00
  0.00000000E+00  0.00000000E+00  0.00000000E+00
  0.00000000E+00  0.00000000E+00  0.00000000E+00
  0.00000000E+00  0.00000000E+00  0.00000000E+00
  0.00000000E+00  0.00000000E+00  0.00000000E+00
  0.00000000E+00  0.00000000E+00  0.00000000E+00
  0.00000000E+00  0.00000000E+00  0.00000000E+00
  0.00000000E+00  0.00000000E+00  0.00000000E+00
  0.00000000E+00  0.00000000E+00  0.00000000E+00
  0.00000000E+00  0.00000000E+00  0.00000000E+00
  0.00000000E+00  0.00000000E+00  0.00000000E+00
  0.00000000E+00  0.00000000E+00  0.00000000E+00
  0.00000000E+00  0.00000000E+00  0.00000000E+00
  0.00000000E+00  0.00000000E+00  0.00000000E+00
  0.00000000E+00  0.00000000E+00  0.00000000E+00
  0.00000000E+00  0.00000000E+00  0.00000000E+00
  0.00000000E+00  0.00000000E+00  0.00000000E+00
  0.00000000E+00  0.00000000E+00  0.00000000E+00
  0.00000000E+00  0.00000000E+00  0.00000000E+00
  0.00000000E+00  0.00000000E+00  0.00000000E+00
  0.00000000E+00  0.00000000E+00  0.00000000E+00
  0.00000000E+00  0.00000000E+00  0.00000000E+00
  0.00000000E+00  0.00000000E+00  0.00000000E+00
  0.00000000E+00  0.00000000E+00  0.00000000E+00
  0.00000000E+00  0.00000000E+00  0.00000000E+00
  0.00000000E+00  0.00000000E+00  0.00000000E+00
  0.00000000E+00  0.00000000E+00  0.00000000E+00
  0.00000000E+00  0.00000000E+00  0.00000000E+00
  0.00000000E+00  0.00000000E+00  0.00000000E+00
  0.00000000E+00  0.00000000E+00  0.00000000E+00
  0.00000000E+00  0.00000000E+00  0.00000000E+00
  0.00000000E+00  0.00000000E+00  0.00000000E+00
  0.00000000E+00  0.00000000E+00  0.00000000E+00
  0.00000000E+00  0.00000000E+00  0.00000000E+00
  0.00000000E+00  0.00000000E+00  0.00000000E+00
  0.00000000E+00  0.00000000E+00  0.00000000E+00
  0.00000000E+00  0.00000000E+00  0.00000000E+00
  0.00000000E+00  0.00000000E+00  0.00000000E+00
  0.00000000E+00  0.00000000E+00  0.00000000E+00
  0.00000000E+00  0.00000000E+00  0.00000000E+00
  0.00000000E+00  0.00000000E+00  0.00000000E+00
  0.00000000E+00  0.00000000E+00  0.00000000E+00
  0.00000000E+00  0.00000000E+00  0.00000000E+00
  0.00000000E+00  0.00000000E+00  0.00000000E+00
  0.00000000E+00  0.00000000E+00  0.00000000E+00
  0.00000000E+00  0.00000000E+00  0.00000000E+00
  0.00000000E+00  0.00000000E+00  0.00000000E+00
  0.00000000E+00  0.00000000E+00  0.00000000E+00
  0.00000000E+00  0.00000000E+00  0.00000000E+00
  0.00000000E+00  0.00000000E+00  0.00000000E+00
  0.00000000E+00  0.00000000E+00  0.00000000E+00
  0.00000000E+00  0.00000000E+00  0.00000000E+00
  0.00000000E+00  0.00000000E+00  0.00000000E+00
  0.00000000E+00  0.00000000E+00  0.00000000E+00
  0.00000000E+00  0.00000000E+00  0.00000000E+00
  0.00000000E+00  0.00000000E+00  0.00000000E+00
  0.00000000E+00  0.00000000E+00  0.00000000E+00
  0.00000000E+00  0.00000000E+00  0.00000000E+00
  0.00000000E+00  0.00000000E+00  0.00000000E+00
  0.00000000E+00  0.00000000E+00  0.00000000E+00
  0.00000000E+00  0.00000000E+00  0.00000000E+00
  0.00000000E+00  0.00000000E+00  0.00000000E+00
  0.00000000E+00  0.00000000E+00  0.00000000E+00
  0.00000000E+00  0.00000000E+00  0.00000000E+00
  0.00000000E+00  0.00000000E+00  0.00000000E+00
  0.00000000E+00  0.00000000E+00  0.00000000E+00
  0.00000000E+00  0.00000000E+00  0.00000000E+00
  0.00000000E+00  0.00000000E+00  0.00000000E+00
  0.00000000E+00  0.00000000E+00  0.00000000E+00
  0.00000000E+00  0.00000000E+00  0.00000000E+00
  0.00000000E+00  0.00000000E+00  0.00000000E+00
  0.00000000E+00  0.00000000E+00  0.00000000E+00
  0.00000000E+00  0.00000000E+00  0.00000000E+00
  0.00000000E+00  0.00000000E+00  0.00000000E+00
  0.00000000E+00  0.00000000E+00  0.00000000E+00
  0.00000000E+00  0.00000000E+00  0.00000000E+00
  0.00000000E+00  0.00000000E+00  0.00000000E+00
  0.00000000E+00  0.00000000E+00  0.00000000E+00
  0.00000000E+00  0.00000000E+00  0.00000000E+00
  0.00000000E+00  0.00000000E+00  0.00000000E+00
  0.00000000E+00  0.00000000E+00  0.00000000E+00
  0.00000000E+00  0.00000000E+00  0.00000000E+00
  0.00000000E+00  0.00000000E+00  0.00000000E+00
  0.00000000E+00  0.00000000E+00  0.00000000E+00
  0.00000000E+00  0.00000000E+00  0.00000000E+00
  0.00000000E+00  0.00000000E+00  0.00000000E+00
  0.00000000E+00  0.00000000E+00  0.00000000E+00
  0.00000000E+00  0.00000000E+00  0.00000000E+00
  0.00000000E+00  0.00000000E+00  0.00000000E+00
  0.00000000E+00  0.00000000E+00  0.00000000E+00
  0.00000000E+00  0.00000000E+00  0.00000000E+00
  0.00000000E+00  0.00000000E+00  0.00000000E+00
  0.00000000E+00  0.00000000E+00  0.00000000E+00
  0.00000000E+00  0.00000000E+00  0.00000000E+00
  0.00000000E+00  0.00000000E+00  0.00000000E+00
  0.00000000E+00  0.00000000E+00  0.00000000E+00
  0.00000000E+00  0.00000000E+00  0.00000000E+00
  0.00000000E+00  0.00000000E+00  0.00000000E+00
  0.00000000E+00  0.00000000E+00  0.00000000E+00
  0.00000000E+00  0.00000000E+00  0.00000000E+00
  0.00000000E+00  0.00000000E+00  0.00000000E+00
  0.00000000E+00  0.00000000E+00  0.00000000E+00
  0.00000000E+00  0.00000000E+00  0.00000000E+00
  0.00000000E+00  0.00000000E+00  0.00000000E+00
  0.00000000E+00  0.00000000E+00  0.00000000E+00
  0.00000000E+00  0.00000000E+00  0.00000000E+00
  0.00000000E+00  0.00000000E+00  0.00000000E+00
  0.00000000E+00  0.00000000E+00  0.00000000E+00
  0.00000000E+00  0.00000000E+00  0.00000000E+00
  0.00000000E+00  0.00000000E+00  0.00000000E+00
  0.00000000E+00  0.00000000E+00  0.00000000E+00
  0.00000000E+00  0.00000000E+00  0.00000000E+00
  0.00000000E+00  0.00000000E+00  0.00000000E+00
  0.00000000E+00  0.00000000E+00  0.00000000E+00
  0.00000000E+00  0.00000000E+00  0.00000000E+00
  0.00000000E+00  0.00000000E+00  0.00000000E+00