Bi12 Te9 S9                             
   1.00000000000000     
     2.1155548857081792   -3.6642485482471323    0.0000000000000000
     2.1155548857081792    3.6642485482471323    0.0000000000000001
     0.0000000000000049    0.0000000000000007   63.1528481581720484
   Bi   Te   S 
    12     9     9
Direct
  0.6666666666666643  0.3333333333333357  0.1373803951550331
  0.0000000000000000  0.0000000000000000  0.3077029502186389
  0.6666666666666643  0.3333333333333357  0.0309462530982851
  0.0000000000000000  0.0000000000000000  0.1935683439204374
  0.3333333333333357  0.6666666666666643  0.4707137284883687
  0.6666666666666643  0.3333333333333357  0.6410362835519678
  0.3333333333333357  0.6666666666666643  0.3642795864316138
  0.6666666666666643  0.3333333333333357  0.5269016772537665
  0.0000000000000000  0.0000000000000000  0.8040470618216974
  0.3333333333333357  0.6666666666666643  0.9743696168853035
  0.0000000000000000  0.0000000000000000  0.6976129197649495
  0.3333333333333357  0.6666666666666643  0.8602350105871022
  0.6666666666666643  0.3333333333333357  0.2224549690443276
  0.0000000000000000  0.0000000000000000  0.1086879827797253
  0.3333333333333357  0.6666666666666643  0.2788139544487900
  0.3333333333333357  0.6666666666666643  0.5557883023776562
  0.6666666666666643  0.3333333333333357  0.4420213161130612
  0.0000000000000000  0.0000000000000000  0.6121472877821185
  0.0000000000000000  0.0000000000000000  0.8891216357109919
  0.3333333333333357  0.6666666666666643  0.7753546494463966
  0.6666666666666643  0.3333333333333357  0.9454806211154542
  0.0000000000000000  0.0000000000000000  0.0025808465882624
  0.3333333333333357  0.6666666666666643  0.1657641371689980
  0.3333333333333357  0.6666666666666643  0.0521001675775168
  0.6666666666666643  0.3333333333333357  0.3359141799215982
  0.0000000000000000  0.0000000000000000  0.4990974705023264
  0.0000000000000000  0.0000000000000000  0.3854335009108453
  0.3333333333333357  0.6666666666666643  0.6692475132549341
  0.6666666666666643  0.3333333333333357  0.8324308038356630
  0.6666666666666643  0.3333333333333357  0.7187668342441810
 
  0.00000000E+00  0.00000000E+00  0.00000000E+00
  0.00000000E+00  0.00000000E+00  0.00000000E+00
  0.00000000E+00  0.00000000E+00  0.00000000E+00
  0.00000000E+00  0.00000000E+00  0.00000000E+00
  0.00000000E+00  0.00000000E+00  0.00000000E+00
  0.00000000E+00  0.00000000E+00  0.00000000E+00
  0.00000000E+00  0.00000000E+00  0.00000000E+00
  0.00000000E+00  0.00000000E+00  0.00000000E+00
  0.00000000E+00  0.00000000E+00  0.00000000E+00
  0.00000000E+00  0.00000000E+00  0.00000000E+00
  0.00000000E+00  0.00000000E+00  0.00000000E+00
  0.00000000E+00  0.00000000E+00  0.00000000E+00
  0.00000000E+00  0.00000000E+00  0.00000000E+00
  0.00000000E+00  0.00000000E+00  0.00000000E+00
  0.00000000E+00  0.00000000E+00  0.00000000E+00
  0.00000000E+00  0.00000000E+00  0.00000000E+00
  0.00000000E+00  0.00000000E+00  0.00000000E+00
  0.00000000E+00  0.00000000E+00  0.00000000E+00
  0.00000000E+00  0.00000000E+00  0.00000000E+00
  0.00000000E+00  0.00000000E+00  0.00000000E+00
  0.00000000E+00  0.00000000E+00  0.00000000E+00
  0.00000000E+00  0.00000000E+00  0.00000000E+00
  0.00000000E+00  0.00000000E+00  0.00000000E+00
  0.00000000E+00  0.00000000E+00  0.00000000E+00
  0.00000000E+00  0.00000000E+00  0.00000000E+00
  0.00000000E+00  0.00000000E+00  0.00000000E+00
  0.00000000E+00  0.00000000E+00  0.00000000E+00
  0.00000000E+00  0.00000000E+00  0.00000000E+00
  0.00000000E+00  0.00000000E+00  0.00000000E+00
  0.00000000E+00  0.00000000E+00  0.00000000E+00
