I4 Pb, 2(C8 H12 N)                      
   1.00000000000000     
     8.8446000304999988    0.0000000000000000    0.0000000000000000
     0.0000000000000000    9.2885000005999991    0.0000000000000000
     0.0000000000000000    0.0000000000000000   28.7950000915999986
   C    H    N    Pb   I 
    64    96     8     4    16
Direct
  0.8818688341887732  0.4322991473644751  0.1629629861072135
  0.6181311658112316  0.5677008526355253  0.6629630161072140
  0.1181311658112291  0.9322991473644767  0.3370370138927863
  0.3818688341887728  0.0677008516355246  0.8370369838927846
  0.7995163955910973  0.3371802247208394  0.1912526711862371
  0.7004836044089153  0.6628197452791598  0.6912526711862377
  0.2004836044089167  0.8371802547208169  0.3087473288137629
  0.2995163955910877  0.1628197752791805  0.8087473288137674
  0.8344810287887666  0.2947850745899507  0.2361292003770652
  0.6655189712112339  0.7052149254100455  0.7361291903770657
  0.1655189712112271  0.7947850745899455  0.2638708096229357
  0.3344810287887716  0.2052149254100444  0.7638708096229346
  0.9593743066785413  0.3557179030323345  0.2571117658278216
  0.5406256933214594  0.6442820969676654  0.7571117658278212
  0.0406256913214572  0.8557179030323314  0.2428882341721779
  0.4593743066785413  0.1442820939676632  0.7428882341721780
  0.0502557434185866  0.4456584356563955  0.2291266543738179
  0.4497442515814149  0.5543415643436114  0.7291266643738190
  0.9497442515814231  0.9456584356563834  0.2708733356261824
  0.5502557484185905  0.0543415643436240  0.7708733356261797
  0.0219208040071052  0.4703583426101751  0.1831230050545478
  0.4780791989928885  0.5296416873898341  0.6831230350545493
  0.9780791989928846  0.9703583106101659  0.3168769949454553
  0.5219208010071098  0.0296416573898378  0.8168769649454514
  0.8289254879466476  0.4650732292424991  0.1127052613986959
  0.6710745120533388  0.5349268007575070  0.6127052313986942
  0.1710745120533395  0.9650731992424885  0.3872947386013047
  0.3289254879466524  0.0349267707575099  0.8872947686012999
  0.8076339857032955  0.6207750496665775  0.1000479083780733
  0.6923660142967122  0.3792249503334223  0.6000479123780738
  0.1923660142967078  0.1207750496665748  0.3999520876219248
  0.3076339857032797  0.8792249503334226  0.8999520876219215
  0.4894955100405176  0.0151391103371498  0.1712603821599408
  0.0105044919594842  0.9848608936628546  0.6712603821599404
  0.5105045199594853  0.5151391063371514  0.3287396178400603
  0.9894954800405154  0.4848608936628479  0.8287396178400596
  0.3769555303183126  0.1101681843179540  0.1858164517338461
  0.1230444696816885  0.8898318456820496  0.6858164517338449
  0.6230444696816885  0.6101681543179517  0.3141835482661517
  0.8769555303183149  0.3898318156820503  0.8141835482661577
  0.3649930425652751  0.1547520602780965  0.2330006071602731
  0.1350069574347215  0.8452479497219034  0.7330006071602710
  0.6350069574347288  0.6547520502780866  0.2669993928397288
  0.8649930425652711  0.3452479497219048  0.7669993928397276
  0.4632052128294940  0.0911950089869976  0.2681762375342016
  0.0367947871704963  0.9088050110130008  0.7681762675341957
  0.5367947571705087  0.5911949889869940  0.2318237624658024
  0.9632052428294954  0.4088049810130175  0.7318237324658038
  0.5790860874646456  0.9994449964316938  0.2533066185214369
  0.9209139125353496  0.0005550005682963  0.7533066085214367
  0.4209139125353394  0.4994449994317052  0.2466933914785642
  0.0790860864646556  0.5005550005682896  0.7466933914785647
  0.5933531069319005  0.9684683136616504  0.2052003657877650
  0.9066468930681039  0.0315316713383540  0.7052003957877623
  0.4066468930680920  0.4684683386616513  0.2947996342122367
  0.0933531039319101  0.5315316913383517  0.7947996042122369
  0.4763011601884490  0.9412141903514456  0.1217448341452377
  0.0236988438115448  0.0587857956485535  0.6217448141452353
  0.5236988098115463  0.4412141903514475  0.3782551558547603
  0.9763011901884554  0.5587858096485545  0.8782551858547653
  0.3103945090222703  0.8845025409313486  0.1143207365716821
  0.1896054909777234  0.1154974690686505  0.6143207365716825
  0.6896054909777264  0.3845025409313546  0.3856792634283178
  0.8103945090222741  0.6154974590686479  0.8856792634283183
  0.6915730451570208  0.2967593919957921  0.1787063107112945
  0.8084269548429446  0.7032406380042328  0.6787063307112987
  0.3084269548429723  0.7967593619958122  0.3212936692886984
  0.1915730451570279  0.2032406080041945  0.8212936692887075
  0.7464161080674627  0.2233301402598950  0.2524981127959723
  0.7535838919325105  0.7766698597400823  0.7524981427959688
  0.2535838919325199  0.7233301402599100  0.2475018872040307
  0.2464161080674931  0.2766698597401420  0.7475018572040217
  0.9835831482183554  0.3317328111527321  0.2935823261070743
  0.5164168517816508  0.6682671888472129  0.7935822961071032
  0.0164168527816495  0.8317328111527293  0.2064176738928925
  0.4835831482183435  0.1682671868472179  0.7064177038928767
  0.1371964905621137  0.4935758253504121  0.2486928619879953
  0.3628035094378719  0.5064241746496323  0.7486928619879957
  0.8628035094379191  0.9935758273504431  0.2513071380120049
  0.6371964905621047  0.0064241746495701  0.7513071380120041
  0.0977189490563873  0.5374679032823981  0.1630134135801970
  0.4022810489436548  0.4625320967175904  0.6630134035801872
  0.9022810489436247  0.0374679032824685  0.3369865964198159
  0.5977189510563696  0.9625320967175247  0.8369865964198198
  0.7222539336929418  0.4042905497832598  0.1114020703213734
  0.7777460663070384  0.5957094502167433  0.6114020503213746
  0.2777460663070266  0.9042905497832570  0.3885979496786252
  0.2222539336929696  0.0957094502167123  0.8885979496786374
  0.7675672287445265  0.6335208926507876  0.0633913568247707
  0.7324327712554322  0.3664791073492114  0.5633913638247738
  0.2324327712554285  0.1335208926507809  0.4366086361752251
  0.2675672287445237  0.8664791073492283  0.9366086361752169
  0.9172527222756641  0.6796523617370871  0.1045384250085122
  0.5827472777243337  0.3203476382629298  0.6045384450085145
  0.0827472777243516  0.1796523617370689  0.3954615549914975
  0.4172527222756462  0.8203476382629321  0.8954615549914886
  0.7224835404573621  0.6873435240543102  0.1209822263876226
  0.7775164595426446  0.3126564759456840  0.6209821963876314
  0.2775164595426416  0.1873435240543021  0.3790177736123732
  0.2224835404573656  0.8126564759456919  0.8790178036123766
  0.2881342348627992  0.1553632459186679  0.1616009449971531
  0.2118657651372813  0.8446367340813266  0.6616009149971434
  0.7118657351372096  0.6553632659186780  0.3383990550028519
  0.7881342648628151  0.3446367340812819  0.8383990850028491
  0.2811792687378489  0.2400644576512032  0.2435433888432974
  0.2188207312621359  0.7599355723488495  0.7435433888433085
  0.7188207312621308  0.7400644276511513  0.2564566111567006
  0.7811792687379194  0.2599355423488595  0.7564566111567032
  0.4483186781629296  0.1037831000492783  0.3049418435535908
  0.0516813178370683  0.8962168899506614  0.8049418435535914
  0.5516813218370717  0.6037831100492952  0.1950581564464169
  0.9483186781629287  0.3962168899507003  0.6950581564464068
  0.6509789778749555  0.9640280870690628  0.2813291620306799
  0.8490210221251185  0.0359719449309331  0.7813291620306565
  0.3490210221250850  0.4640280550690046  0.2186708379693340
  0.1509789778749259  0.5359719149309601  0.7186708379693162
  0.6728753371151525  0.8908250679924947  0.1942240971783992
  0.8271246628847978  0.1091749430075028  0.6942240771783901
  0.3271246628848450  0.3908250679924970  0.3057759228216004
  0.1728753371152084  0.6091749320075298  0.8057759228215978
  0.5590236615494669  0.8537784867475767  0.1163687890416762
  0.9409763384504997  0.1462215402524121  0.6163688090416696
  0.4409763384504657  0.3537784567476197  0.3836311909583309
  0.0590236575494966  0.6462215132524035  0.8836311909583228
  0.3063079441148470  0.8260486447233208  0.0815756172883157
  0.1936920558851514  0.1739513452766788  0.5815756002883060
  0.6936920858851390  0.3260486447233136  0.4184243997116826
  0.8063079141148446  0.6739513552767008  0.9184243997116902
  0.2376979557842728  0.9791528483917111  0.1126861611759547
  0.2623020342156817  0.0208471186082922  0.6126861811759545
  0.7623020342156848  0.4791528783916866  0.3873138488240443
  0.7376979657843145  0.5208471516083256  0.8873138188240448
  0.2755447696106205  0.8091512957391327  0.1427359420540873
  0.2244552303893657  0.1908487042608566  0.6427359620541008
  0.7244552003893769  0.3091512957391321  0.3572640679458971
  0.7755447996106213  0.6908487042608621  0.8572640379459059
  0.9104658116785967  0.4141891099878257  0.0440568953288046
  0.5895341883213565  0.5858108600121782  0.5440569083288068
  0.0895341863213734  0.9141891399878220  0.4559430916712031
  0.4104658116786336  0.0858108900121786  0.9559430916711879
  0.9057363580937731  0.2794875062747457  0.0770593618180328
  0.5942636419062202  0.7205124637252116  0.5770593788180485
  0.0942636379062203  0.7794875362747788  0.4229406211819819
  0.4057363580937736  0.2205124937252639  0.9229406211819732
  0.0496789321414386  0.4014149678803225  0.0835104659363686
  0.4503210648585272  0.5985850321196631  0.5835104519363628
  0.9503210648585315  0.9014149678802943  0.4164895480636160
  0.5496789351414774  0.0985850361197050  0.9164895480636254
  0.4610720310705634  0.1617739567447827  0.0858926459587044
  0.0389279689294442  0.8382260432551941  0.5858926339587064
  0.5389279689294547  0.6617739567448002  0.4141073660413117
  0.9610720320705276  0.3382260432551953  0.9141073660412979
  0.4745416369900467  0.0159350652067829  0.0492638564898865
  0.0254583630099725  0.9840649247932428  0.5492638464898943
  0.5254583630100134  0.5159350752067097  0.4507361535101002
  0.9745416369899679  0.4840649247932372  0.9507361535101116
  0.6244165147786925  0.0667533553425684  0.0790818167534949
  0.8755834832212782  0.9332466171574183  0.5790817977534789
  0.3755835152212814  0.5667533853425584  0.4209181722465231
  0.1244164847786993  0.4332466446574442  0.9209182022465026
  0.9325798101981241  0.3866076134080109  0.0793745629908261
  0.5674201898018723  0.6133923865919927  0.5793745519908245
  0.0674201858018712  0.8866076134080073  0.4206254480091773
  0.4325798101981162  0.1133923865919906  0.9206254480091773
  0.5066453385279914  0.0547661056575502  0.0821416686684333
  0.9933546644720147  0.9452339113424461  0.5821416716684333
  0.4933546614720144  0.5547660886575612  0.4178583283315641
  0.0066453385279971  0.4452338813424419  0.9178583283315632
  0.9098344748418927  0.0020346520212641  0.0007892470468296
  0.5901655251581082  0.9979653429787353  0.5007892470468319
  0.0901655251581059  0.5020346570212645  0.4992107529531699
  0.4098344748418935  0.4979653429787348  0.9992107493531698
  0.8990994597772652  0.0234735296920186  0.0975867148596162
  0.6009005402227364  0.9765264663079832  0.5975867038596167
  0.1009005402227343  0.5234735336920184  0.4024132961403852
  0.3990994597772676  0.4765264663079830  0.9024132961403840
  0.1319806032203579  0.1717316507468296  0.9999864755084319
  0.3680193967796420  0.8282683492531688  0.4999864932084294
  0.8680193967796415  0.6717316507468308  0.5000135067915671
  0.6319806032203563  0.3282683492531701  0.0000135067915703
  0.1598997075691371  0.6759632801443580  0.0041168917847516
  0.3401002924308626  0.3240367198556414  0.5041169003847509
  0.8401002924308638  0.1759632801443579  0.4958830996152476
  0.6598997075691360  0.8240367198556426  0.9958830996152492
  0.8588291021076750  0.0449228649510748  0.9132050775583387
  0.6411708978923250  0.9550771380489237  0.4132050475583385
  0.1411708978923258  0.5449228619510770  0.5867949224416612
  0.3588291021076740  0.4550771380489242  0.0867949444416609
 
 -0.97614372E-03  0.30380569E-04  0.37932681E-02
  0.97614372E-03 -0.30380569E-04  0.37932681E-02
  0.97614372E-03  0.30380569E-04 -0.37932681E-02
 -0.97614372E-03 -0.30380569E-04 -0.37932681E-02
 -0.51862709E-02  0.96252261E-03 -0.70551001E-03
  0.51862709E-02 -0.96252261E-03 -0.70551001E-03
  0.51862709E-02  0.96252261E-03  0.70551001E-03
 -0.51862709E-02 -0.96252261E-03  0.70551001E-03
 -0.20859997E-02 -0.41208097E-02 -0.19734359E-02
  0.20859997E-02  0.41208097E-02 -0.19734359E-02
  0.20859997E-02 -0.41208097E-02  0.19734359E-02
 -0.20859997E-02  0.41208097E-02  0.19734359E-02
  0.56469031E-02  0.32456380E-03 -0.90800325E-02
 -0.56469031E-02 -0.32456380E-03 -0.90800325E-02
 -0.56469031E-02  0.32456380E-03  0.90800325E-02
  0.56469031E-02 -0.32456380E-03  0.90800325E-02
  0.75439863E-03  0.99221582E-03  0.56965599E-02
 -0.75439863E-03 -0.99221582E-03  0.56965599E-02
 -0.75439863E-03  0.99221582E-03 -0.56965599E-02
  0.75439863E-03 -0.99221582E-03 -0.56965599E-02
  0.58035802E-02 -0.52851895E-02 -0.38828615E-02
 -0.58035802E-02  0.52851895E-02 -0.38828615E-02
 -0.58035802E-02 -0.52851895E-02  0.38828615E-02
  0.58035802E-02  0.52851895E-02  0.38828615E-02
  0.76404704E-03 -0.18741013E-02 -0.47953324E-02
 -0.76404704E-03  0.18741013E-02 -0.47953324E-02
 -0.76404704E-03 -0.18741013E-02  0.47953324E-02
  0.76404704E-03  0.18741013E-02  0.47953324E-02
  0.15525641E-02  0.82018074E-02  0.27730042E-02
 -0.15525641E-02 -0.82018074E-02  0.27730042E-02
 -0.15525641E-02  0.82018074E-02 -0.27730042E-02
  0.15525641E-02 -0.82018074E-02 -0.27730042E-02
  0.98436250E-02 -0.54379706E-02  0.32795995E-02
 -0.98436250E-02  0.54379706E-02  0.32795995E-02
 -0.98436250E-02 -0.54379706E-02 -0.32795995E-02
  0.98436250E-02  0.54379706E-02 -0.32795995E-02
 -0.53827885E-02 -0.90293924E-02 -0.13982481E-01
  0.53827885E-02  0.90293924E-02 -0.13982481E-01
  0.53827885E-02 -0.90293924E-02  0.13982481E-01
 -0.53827885E-02  0.90293924E-02  0.13982481E-01
  0.96873586E-02 -0.55722090E-02  0.61876338E-02
 -0.96873586E-02  0.55722090E-02  0.61876338E-02
 -0.96873586E-02 -0.55722090E-02 -0.61876338E-02
  0.96873586E-02  0.55722090E-02 -0.61876338E-02
  0.80755821E-03  0.34250555E-02  0.25326464E-02
 -0.80755821E-03 -0.34250555E-02  0.25326464E-02
 -0.80755821E-03  0.34250555E-02 -0.25326464E-02
  0.80755821E-03 -0.34250555E-02 -0.25326464E-02
 -0.53395803E-02  0.79179175E-03  0.46244436E-02
  0.53395803E-02 -0.79179175E-03  0.46244436E-02
  0.53395803E-02  0.79179175E-03 -0.46244436E-02
 -0.53395803E-02 -0.79179175E-03 -0.46244436E-02
  0.63111950E-02 -0.93073032E-03 -0.25540701E-03
 -0.63111950E-02  0.93073032E-03 -0.25540701E-03
 -0.63111950E-02 -0.93073032E-03  0.25540701E-03
  0.63111950E-02  0.93073032E-03  0.25540701E-03
  0.16318189E-02 -0.10478002E-02 -0.21864292E-02
 -0.16318189E-02  0.10478002E-02 -0.21864292E-02
 -0.16318189E-02 -0.10478002E-02  0.21864292E-02
  0.16318189E-02  0.10478002E-02  0.21864292E-02
 -0.32086398E-02  0.22197124E-03 -0.19075649E-02
  0.32086398E-02 -0.22197124E-03 -0.19075649E-02
  0.32086398E-02  0.22197124E-03  0.19075649E-02
 -0.32086398E-02 -0.22197124E-03  0.19075649E-02
 -0.65723537E-03 -0.19624187E-02 -0.14362150E-03
  0.65723537E-03  0.19624187E-02 -0.14362150E-03
  0.65723537E-03 -0.19624187E-02  0.14362150E-03
 -0.65723537E-03  0.19624187E-02  0.14362150E-03
  0.20348719E-01  0.19010464E-01  0.21867849E-01
 -0.20348719E-01 -0.19010464E-01  0.21867849E-01
 -0.20348719E-01  0.19010464E-01 -0.21867849E-01
  0.20348719E-01 -0.19010464E-01 -0.21867849E-01
 -0.88072214E-02 -0.13156756E-01 -0.23451018E-02
  0.88072214E-02  0.13156756E-01 -0.23451018E-02
  0.88072214E-02 -0.13156756E-01  0.23451018E-02
 -0.88072214E-02  0.13156756E-01  0.23451018E-02
  0.70463475E-02  0.14658175E-01 -0.97392055E-03
 -0.70463475E-02 -0.14658175E-01 -0.97392055E-03
 -0.70463475E-02  0.14658175E-01  0.97392055E-03
  0.70463475E-02 -0.14658175E-01  0.97392055E-03
  0.66394974E-02 -0.26148611E-02  0.20431548E-01
 -0.66394974E-02  0.26148611E-02  0.20431548E-01
 -0.66394974E-02 -0.26148611E-02 -0.20431548E-01
  0.66394974E-02  0.26148611E-02 -0.20431548E-01
  0.22936130E-01 -0.17891780E-01 -0.28467475E-01
 -0.22936130E-01  0.17891780E-01 -0.28467475E-01
 -0.22936130E-01 -0.17891780E-01  0.28467475E-01
  0.22936130E-01  0.17891780E-01  0.28467475E-01
  0.21373765E-02  0.79806553E-02  0.18742712E-03
 -0.21373765E-02 -0.79806553E-02  0.18742712E-03
 -0.21373765E-02  0.79806553E-02 -0.18742712E-03
  0.21373765E-02 -0.79806553E-02 -0.18742712E-03
  0.57017283E-02 -0.17283035E-01  0.58324599E-02
 -0.57017283E-02  0.17283035E-01  0.58324599E-02
 -0.57017283E-02 -0.17283035E-01 -0.58324599E-02
  0.57017283E-02  0.17283035E-01 -0.58324599E-02
 -0.20527445E-01 -0.30198468E-01 -0.19275393E-01
  0.20527445E-01  0.30198468E-01 -0.19275393E-01
  0.20527445E-01 -0.30198468E-01  0.19275393E-01
 -0.20527445E-01  0.30198468E-01  0.19275393E-01
 -0.42736453E-02  0.17484090E-01 -0.62822642E-02
  0.42736453E-02 -0.17484090E-01 -0.62822642E-02
  0.42736453E-02  0.17484090E-01  0.62822642E-02
 -0.42736453E-02 -0.17484090E-01  0.62822642E-02
  0.43045947E-02 -0.10620232E-01  0.99838257E-02
 -0.43045947E-02  0.10620232E-01  0.99838257E-02
 -0.43045947E-02 -0.10620232E-01 -0.99838257E-02
  0.43045947E-02  0.10620232E-01 -0.99838257E-02
 -0.23114673E-02  0.19504257E-02  0.12083730E-01
  0.23114673E-02 -0.19504257E-02  0.12083730E-01
  0.23114673E-02  0.19504257E-02 -0.12083730E-01
 -0.23114673E-02 -0.19504257E-02 -0.12083730E-01
 -0.98658875E-02  0.51158176E-02  0.20366113E-02
  0.98658875E-02 -0.51158176E-02  0.20366113E-02
  0.98658875E-02  0.51158176E-02 -0.20366113E-02
 -0.98658875E-02 -0.51158176E-02 -0.20366113E-02
  0.10755179E-01  0.20178644E-01 -0.21265824E-01
 -0.10755179E-01 -0.20178644E-01 -0.21265824E-01
 -0.10755179E-01  0.20178644E-01  0.21265824E-01
  0.10755179E-01 -0.20178644E-01  0.21265824E-01
  0.19802408E-01  0.66288032E-02 -0.17239263E-03
 -0.19802408E-01 -0.66288032E-02 -0.17239263E-03
 -0.19802408E-01  0.66288032E-02  0.17239263E-03
  0.19802408E-01 -0.66288032E-02  0.17239263E-03
 -0.67952997E-05 -0.23114508E-01  0.84346945E-02
  0.67952997E-05  0.23114508E-01  0.84346945E-02
  0.67952997E-05 -0.23114508E-01 -0.84346945E-02
 -0.67952997E-05  0.23114508E-01 -0.84346945E-02
 -0.30590760E-01  0.10384305E-01 -0.20707178E-01
  0.30590760E-01 -0.10384305E-01 -0.20707178E-01
  0.30590760E-01  0.10384305E-01  0.20707178E-01
 -0.30590760E-01 -0.10384305E-01  0.20707178E-01
 -0.16997356E-01  0.15291983E-01  0.81709910E-02
  0.16997356E-01 -0.15291983E-01  0.81709910E-02
  0.16997356E-01  0.15291983E-01 -0.81709910E-02
 -0.16997356E-01 -0.15291983E-01 -0.81709910E-02
  0.13460127E-01  0.49434544E-02  0.77300247E-02
 -0.13460127E-01 -0.49434544E-02  0.77300247E-02
 -0.13460127E-01  0.49434544E-02 -0.77300247E-02
  0.13460127E-01 -0.49434544E-02 -0.77300247E-02
  0.54953907E-02 -0.76833265E-02  0.23289515E-01
 -0.54953907E-02  0.76833265E-02  0.23289515E-01
 -0.54953907E-02 -0.76833265E-02 -0.23289515E-01
  0.54953907E-02  0.76833265E-02 -0.23289515E-01
  0.78519036E-02 -0.15869986E-02 -0.56918889E-02
 -0.78519036E-02  0.15869986E-02 -0.56918889E-02
 -0.78519036E-02 -0.15869986E-02  0.56918889E-02
  0.78519036E-02  0.15869986E-02  0.56918889E-02
 -0.55583207E-02 -0.24468077E-01 -0.16465013E-01
  0.55583207E-02  0.24468077E-01 -0.16465013E-01
  0.55583207E-02 -0.24468077E-01  0.16465013E-01
 -0.55583207E-02  0.24468077E-01  0.16465013E-01
  0.32078144E-01 -0.25834353E-02 -0.59860443E-02
 -0.32078144E-01  0.25834353E-02 -0.59860443E-02
 -0.32078144E-01 -0.25834353E-02  0.59860443E-02
  0.32078144E-01  0.25834353E-02  0.59860443E-02
 -0.18875489E-01  0.28714840E-01 -0.11106542E-01
  0.18875489E-01 -0.28714840E-01 -0.11106542E-01
  0.18875489E-01  0.28714840E-01  0.11106542E-01
 -0.18875489E-01 -0.28714840E-01  0.11106542E-01
  0.36319385E-02 -0.12070220E-02 -0.77162633E-02
 -0.36319385E-02  0.12070220E-02 -0.77162633E-02
 -0.36319385E-02 -0.12070220E-02  0.77162633E-02
  0.36319385E-02  0.12070220E-02  0.77162633E-02
 -0.36541320E-02  0.47287707E-03 -0.97914809E-03
  0.36541320E-02 -0.47287707E-03 -0.97914809E-03
  0.36541320E-02  0.47287707E-03  0.97914809E-03
 -0.36541320E-02 -0.47287707E-03  0.97914809E-03
 -0.53998901E-03  0.90342426E-03 -0.32427589E-02
  0.53998901E-03 -0.90342426E-03 -0.32427589E-02
  0.53998901E-03  0.90342426E-03  0.32427589E-02
 -0.53998901E-03 -0.90342426E-03  0.32427589E-02
  0.82790345E-03  0.13431158E-02 -0.39122682E-03
 -0.82790345E-03 -0.13431158E-02 -0.39122682E-03
 -0.82790345E-03  0.13431158E-02  0.39122682E-03
  0.82790345E-03 -0.13431158E-02  0.39122682E-03
  0.30158018E-03 -0.23032525E-02 -0.77133001E-03
 -0.30158018E-03  0.23032525E-02 -0.77133001E-03
 -0.30158018E-03 -0.23032525E-02  0.77133001E-03
  0.30158018E-03  0.23032525E-02  0.77133001E-03
 -0.19425158E-02 -0.10855762E-02  0.98224707E-05
  0.19425158E-02  0.10855762E-02  0.98224707E-05
  0.19425158E-02 -0.10855762E-02 -0.98224707E-05
 -0.19425158E-02  0.10855762E-02 -0.98224707E-05
  0.12105188E-02 -0.83347462E-03  0.30550025E-02
 -0.12105188E-02  0.83347462E-03  0.30550025E-02
 -0.12105188E-02 -0.83347462E-03 -0.30550025E-02
  0.12105188E-02  0.83347462E-03 -0.30550025E-02
 
           1
   2.00000000000000     
  0.10000000E+01  0.00000000E+00  0.00000000E+00  0.00000000E+00
  0.88164810E+00  0.43230569E+00  0.16322645E+00
  0.61835190E+00  0.56769431E+00  0.66322648E+00
  0.11835190E+00  0.93230569E+00  0.33677355E+00
  0.38164810E+00  0.67694310E-01  0.83677352E+00
  0.79834364E+00  0.33738748E+00  0.19120367E+00
  0.70165636E+00  0.66261249E+00  0.69120367E+00
  0.20165636E+00  0.83738751E+00  0.30879633E+00
  0.29834364E+00  0.16261252E+00  0.80879633E+00
  0.83400933E+00  0.29389778E+00  0.23599213E+00
  0.66599067E+00  0.70610222E+00  0.73599212E+00
  0.16599067E+00  0.79389778E+00  0.26400788E+00
  0.33400933E+00  0.20610222E+00  0.76400788E+00
  0.96065122E+00  0.35578779E+00  0.25648110E+00
  0.53934878E+00  0.64421221E+00  0.75648110E+00
  0.39348776E-01  0.85578779E+00  0.24351890E+00
  0.46065122E+00  0.14421221E+00  0.74351890E+00
  0.50426333E-01  0.44587208E+00  0.22952232E+00
  0.44957366E+00  0.55412792E+00  0.72952233E+00
  0.94957366E+00  0.94587208E+00  0.27047767E+00
  0.55042634E+00  0.54127920E-01  0.77047767E+00
  0.23233148E-01  0.46922034E+00  0.18285332E+00
  0.47676685E+00  0.53077969E+00  0.68285335E+00
  0.97676685E+00  0.96922030E+00  0.31714668E+00
  0.52323315E+00  0.30779664E-01  0.81714665E+00
  0.82909826E+00  0.46466970E+00  0.11237219E+00
  0.67090174E+00  0.53533033E+00  0.61237216E+00
  0.17090174E+00  0.96466967E+00  0.38762781E+00
  0.32909826E+00  0.35330302E-01  0.88762784E+00
  0.80798506E+00  0.62254106E+00  0.10024051E+00
  0.69201494E+00  0.37745894E+00  0.60024052E+00
  0.19201494E+00  0.12254106E+00  0.39975948E+00
  0.30798506E+00  0.87745894E+00  0.89975948E+00
  0.49172142E+00  0.13968206E-01  0.17148817E+00
  0.82785858E-02  0.98603180E+00  0.67148817E+00
  0.50827861E+00  0.51396820E+00  0.32851183E+00
  0.99172139E+00  0.48603180E+00  0.82851183E+00
  0.37573834E+00  0.10822398E+00  0.18484528E+00
  0.12426166E+00  0.89177605E+00  0.68484528E+00
  0.62426166E+00  0.60822395E+00  0.31515472E+00
  0.87573834E+00  0.39177602E+00  0.81515472E+00
  0.36718361E+00  0.15355225E+00  0.23343038E+00
  0.13281639E+00  0.84644776E+00  0.73343038E+00
  0.63281639E+00  0.65355224E+00  0.26656962E+00
  0.86718361E+00  0.34644776E+00  0.76656962E+00
  0.46338782E+00  0.91932492E-01  0.26835215E+00
  0.36612177E-01  0.90806753E+00  0.76835218E+00
  0.53661215E+00  0.59193247E+00  0.23164785E+00
  0.96338785E+00  0.40806750E+00  0.73164782E+00
  0.57787867E+00  0.99961549E+00  0.25362782E+00
  0.92212133E+00  0.38451195E-03  0.75362781E+00
  0.42212133E+00  0.49961549E+00  0.24637219E+00
  0.77878665E-01  0.50038451E+00  0.74637219E+00
  0.59478024E+00  0.96826791E+00  0.20518263E+00
  0.90521976E+00  0.31732076E-01  0.70518266E+00
  0.40521976E+00  0.46826793E+00  0.29481737E+00
  0.94780233E-01  0.53173210E+00  0.79481734E+00
  0.47667016E+00  0.94098858E+00  0.12159297E+00
  0.23329846E-01  0.59011408E-01  0.62159295E+00
  0.52332981E+00  0.44098858E+00  0.37840702E+00
  0.97667019E+00  0.55901142E+00  0.87840705E+00
  0.30966895E+00  0.88455034E+00  0.11418824E+00
  0.19033105E+00  0.11544967E+00  0.61418824E+00
  0.69033105E+00  0.38455034E+00  0.38581176E+00
  0.80966895E+00  0.61544966E+00  0.88581176E+00
  0.69142443E+00  0.29633684E+00  0.17869634E+00
  0.80857557E+00  0.70366319E+00  0.67869636E+00
  0.30857557E+00  0.79633681E+00  0.32130364E+00
  0.19142443E+00  0.20366316E+00  0.82130364E+00
  0.75101750E+00  0.22742347E+00  0.25401698E+00
  0.74898250E+00  0.77257653E+00  0.75401701E+00
  0.24898250E+00  0.72742347E+00  0.24598302E+00
  0.25101750E+00  0.27257653E+00  0.74598299E+00
  0.98159160E+00  0.32889990E+00  0.29341944E+00
  0.51840840E+00  0.67110010E+00  0.79341941E+00
  0.18408400E-01  0.82889990E+00  0.20658056E+00
  0.48159160E+00  0.17110010E+00  0.70658059E+00
  0.13878986E+00  0.49673202E+00  0.24862522E+00
  0.36121014E+00  0.50326798E+00  0.74862522E+00
  0.86121014E+00  0.99673203E+00  0.25137478E+00
  0.63878986E+00  0.32679761E-02  0.75137478E+00
  0.99220317E-01  0.53690487E+00  0.16443252E+00
  0.40077968E+00  0.46309513E+00  0.66443251E+00
  0.90077968E+00  0.36904871E-01  0.33556749E+00
  0.59922032E+00  0.96309513E+00  0.83556749E+00
  0.72744040E+00  0.40043809E+00  0.10942482E+00
  0.77255960E+00  0.59956191E+00  0.60942480E+00
  0.27255960E+00  0.90043809E+00  0.39057520E+00
  0.22744040E+00  0.99561909E-01  0.89057520E+00
  0.76805055E+00  0.63523929E+00  0.63404375E-01
  0.73194945E+00  0.36476071E+00  0.56340438E+00
  0.23194945E+00  0.13523929E+00  0.43659562E+00
  0.26805055E+00  0.86476071E+00  0.93659562E+00
  0.91854204E+00  0.67593098E+00  0.10494353E+00
  0.58145796E+00  0.32406902E+00  0.60494355E+00
  0.81457965E-01  0.17593098E+00  0.39505645E+00
  0.41854204E+00  0.82406902E+00  0.89505645E+00
  0.71784174E+00  0.68084119E+00  0.11964342E+00
  0.78215826E+00  0.31915881E+00  0.61964339E+00
  0.28215826E+00  0.18084119E+00  0.38035658E+00
  0.21784174E+00  0.81915881E+00  0.88035661E+00
  0.28716785E+00  0.15912792E+00  0.16116460E+00
  0.21283215E+00  0.84087206E+00  0.66116457E+00
  0.71283212E+00  0.65912794E+00  0.33883540E+00
  0.78716788E+00  0.34087206E+00  0.83883543E+00
  0.28215265E+00  0.23777771E+00  0.24423683E+00
  0.21784735E+00  0.76222232E+00  0.74423683E+00
  0.71784735E+00  0.73777768E+00  0.25576317E+00
  0.78215265E+00  0.26222229E+00  0.75576317E+00
  0.44779599E+00  0.10420307E+00  0.30578114E+00
  0.52204002E-01  0.89579692E+00  0.80578114E+00
  0.55220401E+00  0.60420308E+00  0.19421886E+00
  0.94779599E+00  0.39579692E+00  0.69421886E+00
  0.64874804E+00  0.96512963E+00  0.28147062E+00
  0.85125196E+00  0.34870407E-01  0.78147062E+00
  0.35125196E+00  0.46512959E+00  0.21852938E+00
  0.14874804E+00  0.53487038E+00  0.71852938E+00
  0.67530737E+00  0.89516993E+00  0.19274705E+00
  0.82469263E+00  0.10483008E+00  0.69274703E+00
  0.32469263E+00  0.39516993E+00  0.30725297E+00
  0.17530737E+00  0.60483007E+00  0.80725297E+00
  0.56350151E+00  0.85520580E+00  0.11635682E+00
  0.93649849E+00  0.14479423E+00  0.61635684E+00
  0.43649849E+00  0.35520577E+00  0.38364316E+00
  0.63501510E-01  0.64479420E+00  0.88364316E+00
  0.30630641E+00  0.82107163E+00  0.82161462E-01
  0.19369359E+00  0.17892836E+00  0.58216144E+00
  0.69369362E+00  0.32107163E+00  0.41783856E+00
  0.80630638E+00  0.67892837E+00  0.91783856E+00
  0.23078057E+00  0.98138880E+00  0.11124791E+00
  0.26921942E+00  0.18611170E-01  0.61124793E+00
  0.76921942E+00  0.48138883E+00  0.38875210E+00
  0.73078058E+00  0.51861120E+00  0.88875207E+00
  0.27170121E+00  0.81244397E+00  0.14330347E+00
  0.22829879E+00  0.18755603E+00  0.64330349E+00
  0.72829876E+00  0.31244397E+00  0.35669654E+00
  0.77170124E+00  0.68755603E+00  0.85669651E+00
  0.91350951E+00  0.41525353E+00  0.44593796E-01
  0.58649049E+00  0.58474644E+00  0.54459381E+00
  0.86490492E-01  0.91525356E+00  0.45540619E+00
  0.41350951E+00  0.84746465E-01  0.95540619E+00
  0.90697901E+00  0.27783313E+00  0.78676970E-01
  0.59302099E+00  0.72216684E+00  0.57867699E+00
  0.93020983E-01  0.77783316E+00  0.42132301E+00
  0.40697901E+00  0.22216687E+00  0.92132301E+00
  0.51454457E-01  0.40107326E+00  0.83115127E-01
  0.44854554E+00  0.59892674E+00  0.58311511E+00
  0.94854554E+00  0.90107326E+00  0.41688489E+00
  0.55145446E+00  0.98926749E-01  0.91688489E+00
  0.45981515E+00  0.15650549E+00  0.84749044E-01
  0.40184854E-01  0.84349451E+00  0.58474903E+00
  0.54018485E+00  0.65650549E+00  0.41525097E+00
  0.95981515E+00  0.34349451E+00  0.91525097E+00
  0.48179536E+00  0.15378800E-01  0.48848087E-01
  0.18204639E-01  0.98462119E+00  0.54884808E+00
  0.51820464E+00  0.51537881E+00  0.45115192E+00
  0.98179536E+00  0.48462119E+00  0.95115192E+00
  0.62014826E+00  0.72936235E-01  0.78310395E-01
  0.87985173E+00  0.92706374E+00  0.57831038E+00
  0.37985177E+00  0.57293627E+00  0.42168959E+00
  0.12014823E+00  0.42706376E+00  0.92168962E+00
  0.93340109E+00  0.38634772E+00  0.78838618E-01
  0.56659891E+00  0.61365228E+00  0.57883861E+00
  0.66598908E-01  0.88634772E+00  0.42116139E+00
  0.43340109E+00  0.11365228E+00  0.92116139E+00
  0.50581904E+00  0.54867926E-01  0.82073660E-01
  0.99418096E+00  0.94513209E+00  0.58207366E+00
  0.49418096E+00  0.55486791E+00  0.41792634E+00
  0.58190418E-02  0.44513206E+00  0.91792634E+00
  0.90971237E+00  0.22291774E-02  0.56401635E-03
  0.59028763E+00  0.99777082E+00  0.50056402E+00
  0.90287631E-01  0.50222918E+00  0.49943598E+00
  0.40971237E+00  0.49777082E+00  0.99943598E+00
  0.89928667E+00  0.23762729E-01  0.97559542E-01
  0.60071333E+00  0.97623727E+00  0.59755953E+00
  0.10071333E+00  0.52376273E+00  0.40244047E+00
  0.39928667E+00  0.47623727E+00  0.90244047E+00
  0.13204880E+00  0.17123571E+00  0.99993290E+00
  0.36795120E+00  0.82876429E+00  0.49993292E+00
  0.86795120E+00  0.67123571E+00  0.50006708E+00
  0.63204880E+00  0.32876429E+00  0.67080676E-04
  0.15946045E+00  0.67572953E+00  0.41175740E-02