Sb                                      
   1.00000000000000     
    17.0273007965000012    0.0000000000000000    0.0000000000000000
     0.0000000000000000   17.0273007965000012    0.0000000000000000
     0.0000000000000000    0.0000000000000000   17.0273007965000012
   B    S 
    66   132
Direct
  0.4839285810731994  0.1385777970451552  0.4034860959655687
  0.8231129160196493  0.0179005288802517  0.3671157475055007
  0.2288865555772469  0.9114860560513055  0.7453363795592858
  0.7448319308809042  0.8770785178567391  0.3718231779265723
  0.9293979496578041  0.0838995299723675  0.6943293311449746
  0.2655580815889488  0.0420724077239630  0.4120545904605250
  0.7751650915621606  0.0218865342843716  0.6702011948879759
  0.1076398622444423  0.6573048444374450  0.1145309127636504
  0.1192235187392353  0.6152235736014423  0.7838025775347085
  0.6521671362928370  0.9939293008029292  0.9930995151407137
  0.1604246483433374  0.7751811520444615  0.8417891298589270
  0.6772451889386887  0.4272369169534717  0.1068896142733690
  0.4532925171384006  0.9320318270222425  0.5592979818004920
  0.8473141650612028  0.9628111703114487  0.8900737674364202
  0.5169922119564858  0.0716144759058527  0.5533687895630902
  0.0905421876800803  0.3286250873775878  0.1332593489801245
  0.5467365008942006  0.6222722118658512  0.4018569730749039
  0.8220161021601047  0.8635194650243206  0.9386189798209166
  0.6590087713331405  0.5968654900128112  0.0806927270275331
  0.9195647128273512  0.0697626475182524  0.0155114621393039
  0.2899868370731996  0.3201404700123355  0.4567284120990402
  0.5331481800257772  0.3541152442595250  0.9791710369653764
  0.0668840352198297  0.4606315319841831  0.7457695892404629
  0.7057375957379050  0.1899531201745179  0.1802897015707954
  0.2356686095670991  0.5588218088392217  0.5504242895278739
  0.5220453641834286  0.3788987060514771  0.6467611963362777
  0.8629604808609426  0.6331712764718886  0.2358147468323210
  0.4088052149805684  0.0201978097853792  0.3240089877525786
  0.0215615945212828  0.1609370339495488  0.1133477936350423
  0.1536288564323373  0.6360512716199697  0.9470791667940301
  0.0070423151870998  0.8021316241738077  0.1414127743896908
  0.1890973822713328  0.0879769606109885  0.0052332551282225
  0.1265863138416196  0.3468254803846946  0.8697156250968238
  0.7142857042369934  0.8657817185573280  0.0592218236900853
  0.2641764993472272  0.4404972861826842  0.3299642200300476
  0.7956253297953304  0.9602194743239184  0.7898464512662552
  0.3658831282843585  0.8766996617166500  0.6414599344966646
  0.9634696370491087  0.3362163439617645  0.8102858685630836
  0.3537200361871227  0.5416167368403562  0.6595137880093389
  0.1562136600695833  0.1561540127617390  0.4557123350939264
  0.6367390189427317  0.1763799076928707  0.3195221979007351
  0.9690535083241187  0.7510124653941235  0.5704877842457252
  0.5402122684996723  0.1988657797359897  0.6837975714800262
  0.9119648911933312  0.3487616688301781  0.3943723680486657
  0.5938997356556233  0.5367621276944404  0.6867711675247451
  0.8218294963699071  0.3091948863499772  0.7293581161375507
  0.2101979629731263  0.5797617770813519  0.2294828636097119
  0.8520307101376402  0.5917823415809514  0.8847441823392910
  0.7536106459459658  0.9122643353494132  0.8760389960357601
  0.1706075760765853  0.1133229373710200  0.8183779712145336
  0.6913471103924624  0.7411593464483136  0.4430086610469737
  0.6542143997797892  0.2692614946805538  0.0324350175400956
  0.5856828606257994  0.6879021475375001  0.7641839855423240
  0.8434938743498824  0.7341984977248054  0.3138355836752176
  0.9942956231351497  0.9141420890258645  0.2083834490559478
  0.5823749308534499  0.7472894727501390  0.0917357195380215
  0.4446110306823691  0.4685481971445724  0.0306495118836353
  0.4185627579928569  0.4116492219762685  0.3927540989856930
  0.4863756402071417  0.6458942761653024  0.0520652166414619
  0.8528826519798108  0.0732049005458920  0.5340032301282219
  0.9953189675138222  0.2720616067168181  0.2498428109265482
  0.6949469841479159  0.5650254271311614  0.8138131883227292
  0.1809339226164482  0.2678265831245950  0.0313881273257110
  0.2016371975317847  0.2161225209073987  0.6940768782583416
  0.2321678333069241  0.2840315108485500  0.5326997838109988
  0.8084605622960782  0.5294231696868246  0.1218938116896175
  0.0277168890214345  0.1728981301801067  0.2229015805726286
  0.2528556962538147  0.6600210355230386  0.5803816071513280
  0.5738199492391325  0.0581604066609173  0.0293033281099063
  0.3860635898460988  0.3809697143160078  0.0559136146255929
  0.6108710111827659  0.2893396992867945  0.9350794246508796
  0.1287462734892285  0.2479253100709275  0.5104436446271036
  0.6332196095398948  0.4850112584223158  0.7736799417299292
  0.2664380575735567  0.1463581488769074  0.4346934477926849
  0.0194481456100132  0.3693874268802115  0.2050761804714683
  0.2624453876925854  0.2880241073379650  0.6344559661888718
  0.7151095393235694  0.1929825317820144  0.0694189929137976
  0.8621838655668572  0.4583545997704723  0.5391428431483242
  0.4875535645212479  0.6673089120489307  0.8139519818056051
  0.9778325431981284  0.1170140125421729  0.7769650069874193
  0.6046555240148845  0.1662962756679908  0.2194961316182857
  0.9319810024140192  0.6747379124824798  0.3125149565332115
  0.0913094928768261  0.6270214408740857  0.4667552678812528
  0.2229821592026185  0.9995719223427908  0.6809102356621547
  0.9141101377529229  0.8558081111286999  0.1686195451515970
  0.4719771672325973  0.6253880834842821  0.4888660850523309
  0.5838379072402172  0.1692848056296469  0.4134575350640322
  0.3463115408752701  0.6515500461797443  0.6535830860978503
  0.8424093886242878  0.0607833061772051  0.9374011794071485
  0.1252598809542195  0.6478450857101844  0.2182955146178016
  0.4402697606732064  0.1334397213517664  0.5038857889504176
  0.7379862162944553  0.9759192585594870  0.0627365075031314
  0.5410592148233332  0.5377397192320931  0.3278598697743633
  0.4240054515446569  0.1070681168035311  0.7957068380759335
  0.4106623095511317  0.5624188866534983  0.0733717845221949
  0.5026320131230189  0.7061776526521222  0.1480682359044915
  0.2076634683171178  0.3324437032509280  0.9377615925009057
  0.7395417292173677  0.1890183492513367  0.3480985996478380
  0.7870089172815603  0.6894579518525529  0.6052334895215117
  0.8295754618457756  0.3722138280068604  0.3296026327895651
  0.3543689276051409  0.4885425436209553  0.3574417352878134
  0.5598795043626744  0.2800736635278675  0.6168059290402330
  0.9137810993824872  0.1561378559050005  0.0792334434618030
  0.4272301595684571  0.8229831245068298  0.5680291523657645
  0.3961982231228808  0.3262237413562169  0.4571789351062710
  0.8880490684607379  0.7377628226905869  0.6528709146765979
  0.6770313729220888  0.8410047386435953  0.6893864090584330
  0.7915767432904998  0.1983968560050341  0.2372465154793346
  0.5952121535442038  0.6393427729283251  0.6610782610239399
  0.3808719047340797  0.9810676646175676  0.6218639831937355
  0.0026460933908084  0.0014798565599921  0.0219101080287519
  0.6589878814913515  0.8188100283105081  0.3678084148445658
  0.7559441136229335  0.0576459271191848  0.5710868285762082
  0.8901767037159098  0.0663128419807709  0.4311339030449295
  0.4241893218510430  0.1269776350404047  0.3118376424182063
  0.0312845318104826  0.2986988844328390  0.8803305878200466
  0.3025931469012789  0.6313297140838838  0.2128455299394306
  0.8505060719623023  0.5426380294654418  0.4448647690860954
  0.3056790337329063  0.8399350139562977  0.7182492752531985
  0.0625814073263947  0.2581807912550705  0.0548161015844264
  0.1696352798950655  0.7435512287365141  0.9399945524786003
  0.4307329222860787  0.3819005315675193  0.7029804145048215
  0.5237208671714475  0.4330025199335926  0.3926483645367337
  0.8504483136154777  0.0005737719804582  0.2666157913502930
  0.2493962516080094  0.1785123412573762  0.0280063680246684
  0.6145893481284298  0.5134159051287305  0.1347788606581884
  0.5657908711537702  0.0941983873976468  0.6448873281782942
  0.7817838338963021  0.5154705327266002  0.8727251380427908
  0.7710276674937160  0.8445777115119618  0.7839589468590512
  0.6930368947788620  0.6676851574560059  0.8192999313471311
  0.9394677488182185  0.1019793746845477  0.5909419241615146
  0.5269559947201754  0.4604141799221605  0.9646222525669774
  0.1607806151230063  0.5941696436000803  0.0479000938500802
  0.1511777741098927  0.4082554324558328  0.7810725132214963
  0.1584663990897608  0.5693202123347638  0.8689214238273367
  0.9933933497827138  0.6379051214888929  0.5446672992843153
  0.7648595771807215  0.6144611809656726  0.0693822249679060
  0.4069364988109195  0.1034722467348041  0.9139473227955626
  0.8915513312262727  0.5447418581591864  0.1865560147887158
  0.4498483440778500  0.2942211625874840  0.9949233104424768
  0.3644216434140528  0.9007733007136337  0.0956254728672077
  0.8632400421444929  0.2916793020804787  0.8254161354308618
  0.4151614876327348  0.6899979790025306  0.9827781532000718
  0.6000117073368826  0.6591200632828897  0.0117947193341176
  0.5796894244898528  0.7983246108278355  0.7492934570648472
  0.3408037551267576  0.9694280088432605  0.3847238654279455
  0.0968052469626559  0.0715030153632641  0.4558108226487240
  0.7229266046983169  0.9806748840774652  0.3885905819908280
  0.9296518468539218  0.6468823307498099  0.8818112961350298
  0.7160839822717365  0.0351718399330122  0.7591174699939606
  0.1192508589735307  0.0657610036559567  0.7302691948977044
  0.3086814847996617  0.0107257923136931  0.1012836238164787
  0.1717836024402761  0.9900736167184917  0.4053130812073191
  0.4804740796496181  0.0183092321022518  0.9645118789899363
  0.1146829519135446  0.7195404650905038  0.7630110272115711
  0.8416357585752036  0.8364745872781216  0.3581075260683742
  0.0466510338808895  0.8215379838914179  0.5820205338302451
  0.1561306665934376  0.5279841368800274  0.4868975339511386
  0.5752233893878795  0.4651435543986274  0.6049101799742813
  0.6073017069877118  0.3437326067594025  0.1018619482721359
  0.2404048012263993  0.1860578068821929  0.7902195806549617
  0.7749858107442077  0.6988344930210769  0.2358554380249547
  0.2305152710805467  0.3441941253746040  0.3692486947788389
  0.7844004654507106  0.4222446287291816  0.0970381621809489
  0.9774311938128990  0.9908632578249780  0.2804061336644582
  0.9520420931052723  0.3870042864276270  0.4894798861520778
  0.8673593165356521  0.9723386851858341  0.7015854569541731
  0.6493155601749724  0.9392760309450996  0.8993317975639342
  0.3854460794995425  0.5470132956813685  0.2002293499720693
  0.5436671531442783  0.9733315136042580  0.5150270374641018
  0.3035153936422392  0.4832917685624595  0.5871271638701943
  0.6492078952845030  0.6389055460888002  0.4472351378049018
  0.7832523773491133  0.3051640737020578  0.6427024007893377
  0.4850710079432781  0.9682892481072767  0.2655079387965679
  0.7572816005240457  0.7756964967093453  0.5188780019098832
  0.1188174616023391  0.1647587761803838  0.6500910585824631
  0.6274695924828981  0.8370150709350657  0.1191950566996352
  0.4148870878044205  0.5038328491922259  0.7378864737564621
  0.1298698535789520  0.0720724343320965  0.9055657210377819
  0.4688094211148000  0.6954279261456505  0.3917393653956912
  0.4725927854373971  0.7557071236491997  0.8978425198260147
  0.0901196515940771  0.8630224576387359  0.1870895585417727
  0.3400303248882097  0.8498906630621147  0.2082229712472650
  0.1934924945811112  0.3431135502175306  0.1208761863550216
  0.9687604588684369  0.2676237955481130  0.3545311603005752
  0.9620843034500061  0.4248139979852461  0.7492305600160909
  0.0152804474769404  0.7074799864727811  0.0843659898185446
  0.7847085543436698  0.7977971367665941  0.0174479430763966
  0.0866917289136837  0.0681295568362057  0.0825114376111252
  0.2362312464987861  0.9926269883784656  0.0016929310033765
  0.9195511551929428  0.8749592770152681  0.8976631303726117
  0.4982511963591701  0.2144506452720918  0.7775190395203508
  0.9737737248075538  0.8219301474653734  0.4812673418507317
  0.1652009443334467  0.8855687209945643  0.8284957659577404
  0.0826532315692251  0.5593468793808520  0.6986849042949599
  0.7731640718941007  0.4840840395751328  0.3719863445313387
  0.4479195223925286  0.8515827432341789  0.2700832473497251
  0.1848123383065116  0.4816411496154863  0.2716195433510833
 
 -0.46594484E-02 -0.65659216E-02 -0.33341546E-02
 -0.19752252E-02 -0.46609703E-02 -0.62910351E-02
  0.27169845E-02 -0.10666348E-02  0.20850488E-03
  0.27518460E-02  0.15661395E-02  0.66806476E-02
 -0.75121310E-02  0.14060235E-02 -0.28447196E-03
 -0.28025107E-03 -0.29999984E-02  0.27096641E-02
  0.69228754E-02  0.29124995E-02  0.11716265E-02
 -0.33719111E-02 -0.27425366E-03 -0.10384631E-01
 -0.14758148E-02 -0.49116030E-02 -0.20540580E-02
  0.13854770E-02  0.19500786E-02  0.80876377E-03
 -0.16873091E-02  0.49010666E-02 -0.36723188E-02
 -0.77785383E-04 -0.26736189E-02  0.17375134E-03
 -0.51199308E-02  0.39417717E-02 -0.21228823E-02
 -0.10204017E-01  0.34594888E-02 -0.43895180E-02
  0.51459257E-03  0.33069204E-02  0.76855028E-03
 -0.42751779E-02 -0.25968113E-02 -0.13727613E-02
 -0.11375544E-02 -0.12335658E-02  0.54746831E-02
 -0.55493384E-03  0.36951313E-02 -0.14129104E-02
  0.18124050E-02 -0.64845918E-02  0.10452974E-02
 -0.40875926E-02  0.78560331E-02 -0.48616319E-02
 -0.32613631E-03  0.57231465E-02 -0.21167133E-02
 -0.61291384E-03 -0.53741940E-02  0.44888876E-02
 -0.98119483E-03 -0.23574927E-02 -0.94953290E-03
  0.31705597E-02 -0.63120140E-02  0.28457731E-02
  0.99611926E-02  0.35635401E-03 -0.42782097E-02
 -0.35107614E-02  0.74723320E-03  0.83127154E-02
  0.15092647E-02  0.46240677E-02  0.35944517E-02
  0.31700560E-02 -0.61473437E-02 -0.39084419E-02
  0.28705764E-02 -0.45466153E-02  0.24079571E-02
 -0.45150543E-02 -0.60796379E-02 -0.12676231E-02
  0.10086973E-03 -0.46571296E-02 -0.37776370E-02
 -0.13520805E-02  0.49108968E-02 -0.95668102E-02
 -0.17298219E-02  0.34351867E-02  0.15472904E-02
 -0.38403848E-02 -0.61811251E-02  0.64813534E-02
 -0.51806049E-04 -0.56783203E-02  0.66924300E-02
  0.57275053E-03  0.63213127E-02  0.50508074E-04
 -0.13298175E-02  0.35592112E-02  0.34207746E-02
  0.53833889E-02 -0.46893870E-02 -0.92313608E-02
 -0.83369606E-03  0.12902812E-02  0.19676330E-02
  0.34303479E-02  0.55643979E-03  0.79098691E-02
  0.25480802E-03  0.20153871E-03  0.15238867E-02
 -0.81623943E-03 -0.24094909E-02  0.69676573E-02
 -0.75565736E-02  0.44487139E-02 -0.24418613E-02
 -0.49539022E-02 -0.19904147E-02  0.51228500E-02
  0.32857171E-02 -0.73057648E-02  0.21022707E-02
  0.53905792E-02  0.19245093E-02  0.37042824E-02
 -0.71083409E-02  0.32885741E-02  0.35798471E-02
  0.10156972E-02  0.44152416E-02  0.42451020E-02
  0.83588173E-02  0.46229534E-02 -0.35193995E-02
 -0.21222228E-03  0.53803804E-02 -0.19623090E-02
  0.86303832E-02  0.28529598E-02  0.24071517E-02
 -0.15916837E-02  0.26135686E-02  0.47921294E-02
  0.12598982E-01  0.64406667E-02  0.27612491E-03
 -0.32573526E-02  0.50737269E-02 -0.95627837E-02
 -0.71642484E-02 -0.38842924E-02 -0.18612340E-02
 -0.72551201E-03  0.96459334E-03  0.32103646E-02
  0.20725500E-02  0.69870473E-02 -0.98458386E-03
  0.12171143E-01 -0.12711933E-02  0.11524477E-03
  0.85619904E-02  0.10711421E-02  0.64204876E-03
 -0.19389229E-02  0.34235978E-02  0.10404069E-01
  0.31277066E-02 -0.54965409E-02 -0.60719175E-02
  0.29005234E-02 -0.40173048E-02 -0.34530421E-02
 -0.50198009E-03  0.19035822E-02 -0.53897928E-02
  0.58705968E-02  0.62573143E-02 -0.43334256E-02
  0.39317316E-02  0.41367320E-02 -0.46284613E-02
  0.49593209E-02 -0.44114474E-02  0.38310182E-02
 -0.48750795E-02  0.14132112E-02 -0.27098215E-02
 -0.54266583E-02  0.23214108E-03 -0.14611125E-02
 -0.39962482E-02 -0.10396001E-02  0.81654284E-03
 -0.36077992E-02  0.42941337E-02 -0.30682406E-02
  0.16630211E-02  0.35374723E-02  0.32585347E-03
  0.38915488E-02  0.52102783E-02  0.43337301E-02
 -0.42314981E-02  0.22996942E-02  0.35539564E-02
  0.44185565E-02  0.30916401E-02 -0.10311857E-02
 -0.41826895E-02  0.67592511E-03  0.26241793E-02
  0.56025019E-02  0.72139273E-04  0.51237892E-03
  0.17461266E-02  0.21483925E-02 -0.15335291E-02
 -0.13238055E-03 -0.36422140E-03  0.16598358E-02
  0.97955952E-03 -0.26062156E-02  0.48707636E-02
 -0.55684796E-03  0.32659956E-02  0.51255792E-02
  0.24794845E-02  0.44420131E-03  0.64333882E-05
 -0.15366463E-02 -0.13518661E-02 -0.32083587E-02
  0.40502878E-04 -0.12738821E-02  0.16215532E-02
  0.36167379E-02 -0.58811914E-02 -0.66248334E-02
  0.33693222E-02 -0.26795833E-02 -0.30704804E-02
  0.34264670E-02 -0.11488201E-02  0.74478313E-03
 -0.22430022E-02 -0.54171163E-02  0.35256254E-02
 -0.42222980E-02  0.23202161E-02  0.30203834E-02
 -0.21571542E-02 -0.28125548E-02 -0.43597363E-02
 -0.37017983E-02 -0.31595516E-02 -0.25719709E-02
  0.99808433E-03  0.51079263E-03 -0.42767604E-02
 -0.45249056E-02 -0.34068280E-02  0.30909496E-03
 -0.58866562E-02 -0.29670757E-03 -0.35397638E-03
  0.96785890E-03 -0.46381973E-02 -0.13275222E-02
 -0.14130925E-03 -0.20571233E-02 -0.15106666E-02
  0.43051602E-02  0.16492118E-02  0.13508179E-02
 -0.32465103E-02  0.34086540E-03 -0.12868465E-02
  0.56717265E-02  0.21971831E-02  0.39196321E-02
  0.14521152E-02 -0.20402981E-02 -0.57535915E-03
 -0.75573208E-03 -0.28721833E-03 -0.76530543E-03
  0.24156239E-02 -0.27540358E-02  0.50847068E-03
 -0.53333750E-03  0.38430771E-02  0.25029593E-02
 -0.70673517E-03 -0.94914461E-03 -0.23612556E-02
  0.17405652E-03  0.69640169E-02 -0.24048275E-02
 -0.49203745E-02  0.17077892E-03 -0.13232447E-02
  0.23187239E-02  0.59277320E-03 -0.37367129E-03
 -0.17605912E-02  0.12850787E-02 -0.27707129E-02
  0.38545750E-04  0.99173436E-03 -0.80574508E-03
 -0.49718204E-03  0.16355176E-02  0.23994007E-03
 -0.46379515E-02  0.62598265E-02 -0.52468129E-02
 -0.54210107E-03  0.92940135E-03 -0.15132361E-02
 -0.91249921E-03  0.31605700E-02  0.24172941E-02
  0.19054460E-02 -0.48156912E-02  0.24603210E-02
 -0.42469944E-02  0.13459809E-02  0.17738404E-02
  0.11783153E-02  0.25778838E-02 -0.40345090E-02
 -0.24620594E-03 -0.22680091E-02 -0.39046876E-02
 -0.27471535E-02  0.16867879E-02  0.89041839E-03
 -0.32697391E-02  0.17895702E-02 -0.11404563E-02
  0.52215455E-02  0.16738139E-02  0.31463406E-02
  0.61011641E-02 -0.21892903E-02 -0.55655824E-02
 -0.55604669E-02  0.31960194E-02 -0.57988600E-02
 -0.33600327E-02 -0.89769729E-03 -0.45581806E-02
  0.22906816E-03  0.18211191E-03 -0.83293100E-02
  0.52265785E-03 -0.37045195E-02  0.33746882E-02
  0.29701760E-02  0.31404515E-02  0.23361400E-02
  0.14097785E-02  0.18384136E-02 -0.81360941E-03
  0.12172141E-03  0.29208362E-02  0.18482139E-02
 -0.13089966E-02  0.92180879E-03  0.46579679E-02
 -0.50838420E-02 -0.20974310E-03 -0.27890184E-02
 -0.21147836E-02 -0.19173393E-02  0.15652129E-02
  0.58468712E-03 -0.10358153E-02  0.36300906E-02
 -0.30982327E-02 -0.30722724E-02 -0.18771291E-02
 -0.94168703E-03  0.31184400E-03 -0.62630489E-02
 -0.46888967E-03 -0.19517754E-02 -0.55730454E-02
  0.43094948E-02 -0.36004196E-02  0.21635725E-02
  0.82542450E-05 -0.53384370E-02 -0.28853254E-02
  0.24727569E-02  0.38250443E-02 -0.14329260E-02
  0.32300450E-02 -0.35397461E-02  0.16884836E-02
 -0.30291834E-02 -0.42231641E-03  0.40378201E-02
 -0.18744280E-02  0.14567098E-02  0.99034587E-03
 -0.14300653E-02  0.16808835E-02 -0.45244114E-02
 -0.28984886E-02  0.29093137E-02  0.64380096E-03
 -0.22524912E-02 -0.35868802E-02  0.65765267E-04
 -0.15569401E-02 -0.29117244E-02  0.43609253E-02
  0.31940615E-02  0.40576577E-02  0.36320631E-02
 -0.18112600E-02  0.74447110E-03 -0.19371313E-03
 -0.77549098E-03 -0.26821504E-02  0.21855385E-02
 -0.45952330E-02 -0.85718464E-03  0.12546535E-02
  0.18232250E-02  0.13966742E-02 -0.61417480E-02
  0.44554571E-02  0.92726093E-03  0.26191100E-02
  0.27072341E-02 -0.26399584E-02 -0.28718614E-02
  0.49238702E-03 -0.20729728E-02 -0.34506508E-03
  0.96706074E-03  0.13744279E-02 -0.11951647E-02
 -0.47806789E-02 -0.22288077E-02  0.13320771E-02
  0.72201454E-03  0.43810738E-02  0.78248325E-03
  0.42381852E-02  0.15160025E-02  0.12758157E-02
 -0.35368766E-02  0.26776399E-02  0.57958765E-02
 -0.24588448E-02 -0.52186874E-02  0.24998594E-02
 -0.15796769E-03  0.17349534E-02  0.33625435E-02
 -0.40891204E-03 -0.57165702E-03 -0.30700881E-02
 -0.35235719E-03  0.15866830E-02 -0.16934581E-02
 -0.19689246E-02  0.18608401E-02 -0.92198808E-03
  0.10114589E-02  0.27505854E-02 -0.32568501E-02
  0.29673562E-02  0.31465451E-02 -0.55198774E-02
  0.16823456E-02 -0.41563761E-02  0.11361778E-02
 -0.20756289E-02  0.60320679E-02 -0.12288477E-02
  0.16688690E-02 -0.43674096E-03 -0.38937513E-03
  0.20084106E-02  0.17659115E-02 -0.11503841E-02
  0.16648183E-02 -0.14239509E-02 -0.19281422E-02
 -0.48236700E-02  0.65365703E-02  0.23616386E-03
  0.10059539E-02  0.24016817E-03  0.44248081E-02
  0.41857402E-02 -0.65598255E-02  0.27783884E-02
 -0.56147591E-02 -0.37784797E-02  0.41442607E-02
  0.18451105E-02 -0.23044727E-03 -0.32620245E-02
  0.34808106E-02  0.99890430E-03  0.22709716E-02
  0.18532043E-02 -0.84708972E-03 -0.65165492E-03
  0.10928372E-02 -0.32236041E-03  0.57758520E-03
 -0.27280762E-02  0.73551161E-03  0.29048072E-02
  0.33998869E-02 -0.25530892E-02 -0.20385473E-03
  0.15778326E-02  0.13161438E-02  0.13356221E-02
  0.19615527E-02 -0.37120960E-02  0.40609390E-02
 -0.13215575E-02  0.61877865E-04  0.12712644E-03
  0.12464099E-02  0.78600866E-03 -0.36078812E-03
  0.38964788E-02 -0.24370026E-02  0.82256088E-03
  0.54871396E-03  0.16360328E-02  0.46675004E-02
  0.21352285E-02 -0.13333319E-02 -0.32920930E-02
 -0.80668563E-03 -0.44085787E-03  0.64687999E-03
 -0.11262233E-02 -0.55093251E-03  0.29423727E-02
 -0.84970024E-03 -0.87786258E-02  0.80824714E-03
 -0.15518091E-02  0.13540944E-02 -0.14643969E-02
  0.22472916E-03 -0.51236899E-02 -0.21116767E-02
  0.62943001E-03  0.51161025E-03  0.28263935E-02
  0.45516102E-02 -0.32312278E-02  0.66457105E-04
  0.40187158E-02  0.15315982E-02  0.23169782E-02
 -0.19080670E-02  0.37725617E-02  0.37686271E-02
  0.56821988E-03 -0.53385577E-03  0.44746185E-02
  0.28440576E-03 -0.23306960E-02  0.18946096E-02
  0.17586478E-02 -0.38279290E-03 -0.26017487E-02
 
           1
   3.00000000000000     
  0.10000000E+01  0.00000000E+00  0.00000000E+00  0.00000000E+00
  0.48309789E+00  0.13740721E+00  0.40289168E+00
  0.82276077E+00  0.17069563E-01  0.36599417E+00
  0.22937094E+00  0.91129589E+00  0.74537355E+00
  0.74532253E+00  0.87735773E+00  0.37301422E+00
  0.92805867E+00  0.84150198E-01  0.69427861E+00
  0.26550812E+00  0.41537563E-01  0.41253767E+00
  0.77639931E+00  0.22405780E-01  0.67041007E+00
  0.10703871E+00  0.65725595E+00  0.11267952E+00
  0.11896041E+00  0.61434792E+00  0.78343638E+00
  0.65241414E+00  0.99427696E+00  0.99324370E+00
  0.16012383E+00  0.77605492E+00  0.84113442E+00
  0.67723132E+00  0.42676026E+00  0.10692059E+00
  0.45237973E+00  0.93273457E+00  0.55891951E+00
  0.84549498E+00  0.96342793E+00  0.88929120E+00
  0.51708395E+00  0.72204039E-01  0.55350581E+00
  0.89780002E-01  0.32816212E+00  0.13301461E+00
  0.54653370E+00  0.62205229E+00  0.40283301E+00
  0.82191717E+00  0.86417824E+00  0.93836708E+00
  0.65933189E+00  0.59570941E+00  0.80879084E-01
  0.91883597E+00  0.71163235E-01  0.14644722E-01
  0.28992869E+00  0.32116080E+00  0.45635104E+00
  0.53303891E+00  0.35315712E+00  0.97997132E+00
  0.66709106E-01  0.46021123E+00  0.74560030E+00
  0.70630285E+00  0.18882780E+00  0.18079705E+00
  0.23744451E+00  0.55888534E+00  0.54966156E+00
  0.52141946E+00  0.37903192E+00  0.64824320E+00
  0.86322956E+00  0.63399566E+00  0.23645557E+00
  0.40937038E+00  0.19101851E-01  0.32331218E+00
  0.22073366E-01  0.16012646E+00  0.11377709E+00
  0.15282390E+00  0.63496738E+00  0.94685317E+00
  0.70602984E-02  0.80130134E+00  0.14073929E+00
  0.18885633E+00  0.88852484E-01  0.35276678E-02
  0.12627792E+00  0.34743791E+00  0.86999148E+00
  0.71360103E+00  0.86467974E+00  0.60377330E-01
  0.26416726E+00  0.43948495E+00  0.33115736E+00
  0.79572744E+00  0.96134645E+00  0.78985546E+00
  0.36564605E+00  0.87733420E+00  0.64206980E+00
  0.96442940E+00  0.33538031E+00  0.80864009E+00
  0.35357140E+00  0.54184677E+00  0.65986458E+00
  0.15682523E+00  0.15625322E+00  0.45712252E+00
  0.63678445E+00  0.17641584E+00  0.31979388E+00
  0.96890799E+00  0.75058290E+00  0.57172999E+00
  0.53886507E+00  0.19965890E+00  0.68336223E+00
  0.91108170E+00  0.34840681E+00  0.39528568E+00
  0.59448552E+00  0.53545964E+00  0.68714596E+00
  0.82279054E+00  0.30953799E+00  0.73001852E+00
  0.20893068E+00  0.58034807E+00  0.23012108E+00
  0.85221179E+00  0.59256950E+00  0.88550101E+00
  0.75510087E+00  0.91308852E+00  0.87541155E+00
  0.17056974E+00  0.11428216E+00  0.81802813E+00
  0.69288575E+00  0.74166798E+00  0.44343781E+00
  0.65393063E+00  0.26972745E+00  0.33289367E-01
  0.58792903E+00  0.68905040E+00  0.76423321E+00
  0.84291315E+00  0.73510305E+00  0.31213071E+00
  0.99301837E+00  0.91344959E+00  0.20805163E+00
  0.58224559E+00  0.74746144E+00  0.92308069E-01
  0.44498053E+00  0.46979386E+00  0.30473979E-01
  0.42073265E+00  0.41142259E+00  0.39277465E+00
  0.48790209E+00  0.64608524E+00  0.52179682E-01
  0.85253698E+00  0.73815265E-01  0.53585809E+00
  0.99587658E+00  0.27108167E+00  0.24876030E+00
  0.69546409E+00  0.56430922E+00  0.81319757E+00
  0.18084443E+00  0.26816596E+00  0.30427226E-01
  0.20268382E+00  0.21723809E+00  0.69330431E+00
  0.23286879E+00  0.28476901E+00  0.53187461E+00
  0.80934472E+00  0.52863669E+00  0.12257681E+00
  0.26847752E-01  0.17315008E+00  0.22241847E+00
  0.25188822E+00  0.66006242E+00  0.58012112E+00
  0.57310749E+00  0.57975065E-01  0.29448903E-01
  0.38542039E+00  0.38173528E+00  0.55366603E-01
  0.61116750E+00  0.28997037E+00  0.93513752E+00
  0.12944007E+00  0.24885421E+00  0.51121627E+00
  0.63246521E+00  0.48542125E+00  0.77431355E+00
  0.26722581E+00  0.14690933E+00  0.43450961E+00
  0.18702449E-01  0.36950793E+00  0.20554402E+00
  0.26344421E+00  0.28803697E+00  0.63454731E+00
  0.71542084E+00  0.19336555E+00  0.69145593E-01
  0.86216026E+00  0.45828967E+00  0.53943876E+00
  0.48772820E+00  0.66684427E+00  0.81482035E+00
  0.97773327E+00  0.11759628E+00  0.77787880E+00
  0.60509757E+00  0.16637547E+00  0.21949728E+00
  0.93170705E+00  0.67449690E+00  0.31194296E+00
  0.91316714E-01  0.62679433E+00  0.46704436E+00
  0.22362696E+00  0.99852341E+00  0.67972915E+00
  0.91471083E+00  0.85533039E+00  0.16807213E+00
  0.47258804E+00  0.62518327E+00  0.48899887E+00
  0.58343802E+00  0.16831903E+00  0.41408609E+00
  0.34555878E+00  0.65196370E+00  0.65412157E+00
  0.84202481E+00  0.60281879E-01  0.93662392E+00
  0.12459992E+00  0.64728180E+00  0.21783698E+00
  0.44044770E+00  0.13353079E+00  0.50312332E+00
  0.73717951E+00  0.97531188E+00  0.62791613E-01
  0.54000973E+00  0.53768682E+00  0.32779676E+00
  0.42417800E+00  0.10624121E+00  0.79547017E+00
  0.41063712E+00  0.56205214E+00  0.73102460E-01
  0.50339954E+00  0.70647168E+00  0.14830906E+00
  0.20708467E+00  0.33250447E+00  0.93753217E+00
  0.74055289E+00  0.18941007E+00  0.34879740E+00
  0.78726780E+00  0.68909420E+00  0.60513091E+00
  0.82944073E+00  0.37216262E+00  0.32946619E+00
  0.35479959E+00  0.48805155E+00  0.35753239E+00
  0.55978442E+00  0.28075881E+00  0.61725216E+00
  0.91365510E+00  0.15596864E+00  0.78812475E-01
  0.42726119E+00  0.82422468E+00  0.56760042E+00
  0.39532101E+00  0.32625419E+00  0.45694302E+00
  0.88846245E+00  0.73786850E+00  0.65280430E+00
  0.67671749E+00  0.84123384E+00  0.68889244E+00
  0.79158362E+00  0.19857366E+00  0.23710287E+00
  0.59512352E+00  0.63963436E+00  0.66112104E+00
  0.38004504E+00  0.98218368E+00  0.62092857E+00
  0.25494467E-02  0.16455518E-02  0.21640326E-01
  0.65882520E+00  0.81937350E+00  0.36823937E+00
  0.75628382E+00  0.56787377E-01  0.57152546E+00
  0.88941954E+00  0.66552806E-01  0.43145015E+00
  0.42439939E+00  0.12743722E+00  0.31111836E+00
  0.31240638E-01  0.29829454E+00  0.87963445E+00
  0.30210338E+00  0.63163044E+00  0.21300428E+00
  0.84992314E+00  0.54295708E+00  0.44466145E+00
  0.30660994E+00  0.84023342E+00  0.71881021E+00
  0.63669133E-01  0.25779048E+00  0.53823860E-01
  0.16864395E+00  0.74412102E+00  0.93896072E+00
  0.43013389E+00  0.38174049E+00  0.70216777E+00
  0.52376171E+00  0.43303499E+00  0.39116340E+00
  0.85054149E+00  0.99991332E+00  0.26721744E+00
  0.24992578E+00  0.17907223E+00  0.28422859E-01
  0.61484069E+00  0.51374366E+00  0.13463381E+00
  0.56581257E+00  0.94719119E-01  0.64521683E+00
  0.78155046E+00  0.51563487E+00  0.87355557E+00
  0.77012131E+00  0.84454032E+00  0.78346172E+00
  0.69265987E+00  0.66734333E+00  0.81957898E+00
  0.93957199E+00  0.10179471E+00  0.59158910E+00
  0.52640364E+00  0.45986645E+00  0.96428759E+00
  0.16061273E+00  0.59422524E+00  0.46783507E-01
  0.15109418E+00  0.40790747E+00  0.78007894E+00
  0.15923470E+00  0.56867832E+00  0.86930715E+00
  0.99339482E+00  0.63695338E+00  0.54415290E+00
  0.76530042E+00  0.61514312E+00  0.69126760E-01
  0.40751236E+00  0.10284117E+00  0.91424835E+00
  0.89101128E+00  0.54466657E+00  0.18727588E+00
  0.44951417E+00  0.29448087E+00  0.99509987E+00
  0.36416669E+00  0.90107297E+00  0.94818853E-01
  0.86272329E+00  0.29219798E+00  0.82553091E+00
  0.41475991E+00  0.68935850E+00  0.98278988E+00
  0.59973413E+00  0.65860096E+00  0.12572193E-01
  0.58025887E+00  0.79904802E+00  0.74994099E+00
  0.34048084E+00  0.96956073E+00  0.38468933E+00
  0.96666991E-01  0.71024837E-01  0.45620046E+00
  0.72210736E+00  0.98052206E+00  0.38881426E+00
  0.92997689E+00  0.64713133E+00  0.88071633E+00
  0.71687831E+00  0.35337154E-01  0.75958441E+00
  0.11973351E+00  0.65290347E-01  0.72975719E+00
  0.30876927E+00  0.10356219E-01  0.10122211E+00
  0.17195601E+00  0.99031865E+00  0.40510001E+00
  0.47962177E+00  0.17911876E-01  0.96474936E+00
  0.11481167E+00  0.72032153E+00  0.76315053E+00
  0.84239135E+00  0.83674486E+00  0.35833498E+00
  0.46020473E-01  0.82201536E+00  0.58305383E+00
  0.15569230E+00  0.52705374E+00  0.48734321E+00
  0.57519523E+00  0.46545286E+00  0.60550966E+00