Amorphous Sb                            
   1.00000000000000     
    19.3671579077798057    0.0000000000000000    0.0000000000000000
     0.0000000000000000   19.3671579077798057    0.0000000000000000
     0.0000000000000000    0.0000000000000000   19.3671579077798057
   Zn   Sb
    45   255
Direct
  0.2463303237096020  0.8497978892836678  0.6410811369022071
  0.5003711131894338  0.2606875301100632  0.5467854363293915
  0.8836471225198219 -0.0136235744303389  0.0379831013021566
  0.1814199053004132  0.0576143907792319  0.5890490889496383
  0.2038731473297296 -0.0059150457893890  0.4746939512048410
  0.0296845911547548  0.5208645453754231  0.2346157714823043
  0.8449657864978857  0.0516365207428110  0.7884331862188736
  0.8913201488413375  0.4235339696130872 -0.0019020807700106
  0.1991297344872658  0.1794454839909033  0.3977024571955136
  0.5011490527349380 -0.0064665114918223  0.4805857130294602
  0.5062256723109158  0.1776946692918428  0.8705503043037880
  0.3850654980335539  0.2736428576950434  0.2322029971677409
  0.3329151877030456  0.7563449434782769  0.8181549566252049
  0.9388166766964543  0.9505170460200255  0.1624241749831708
  0.4324329404944852  0.7082222987520572  0.2809015401183106
  0.5374667526736268 -0.0053921738220772  0.6097965665887349
  0.9535136873362671  0.5519380404552831  0.7702973897903711
  0.2178761669343465  0.6602557220535791  0.5510683419832756
  0.7529176366396881  0.3555555181015291  0.9014344161576963
  0.8303351241283837  0.8661954249197431  0.1648280661763952
  0.5243531206378821  0.5031692680052514  0.5213187259846320
  0.4841157503217319  0.5842822169828296 -0.0213211310858597
  0.2078196982168068  0.7502154771858264  0.1567542100918932
  0.1873133190998088  0.1873129485126734  0.0514056843031325
  0.8835419074440890  0.9108876158852715  0.7955453378772139
  0.3845641535337426  0.2241763834626823  0.9256450669348578
  0.7502057885839837  0.3380934698593320  0.5092985972084495
  0.2866102294208424  0.0563782424634511  0.3882824442088342
  0.4248921138386212  0.7304159237182302  0.6116094196056012
  0.4363562297091482  0.4925508058321638  0.8946471938747425
  0.2077101260878438  0.4781512510990799  0.6844409421113165
 -0.0062811371242698  0.2480585216634431  0.0165184290684589
  0.6936399349527808  0.6653944993232281  0.1559226811759244
  0.3674400464100896  0.9014462803694118  0.2542940363663587
  0.7022251246683507  0.6643292509204966  0.8928351585212135
  0.7646451830106231  0.4640693918977230  0.5417062019531345
  0.1409477993175263  0.3846170816312917  0.4306853493950786
  0.0006887497639761  0.9686017033826624  0.5976916577602823
  0.9322490298724098  0.5114264788097551  0.6465236272264495
  0.4795341900052226  0.5831869934008163  0.2301451981044052
  0.3099027253799054  0.7378278238993422  0.6779778117170228
  0.7232684593338047  0.0650189182257067  0.3640492063009240
  0.4842512471751629  0.3646254636430565  0.6260406858300837
  0.6238286409598057  0.9466744224473513  0.5198255243509270
  0.2552700021916730  0.8120392694080228  0.2650797779810846
  0.3252842423614949  0.7923249395430531  0.5353987652324109
  0.7614629532336268  0.3778951423305160  0.6688459408781636
  0.4182524246241403  0.0814622387524772  0.5715774516406831
  0.4182771512991065  0.5295821465949565  0.1121741149703856
  0.9081980674026029  0.8522517042600970  0.3456829442755692
  0.1442646254124596  0.2185179647961911  0.5214265591797699
  0.6270748584095661  0.8633571521036781  0.9043579616654337
  0.2069753764542555  0.4895787576188015  0.1243522875555622
  0.9163241416801999  0.3728270715511962  0.6568791108374563
  0.8041775060435856  0.3737000713416636  0.0990475008221476
  0.3607478290940241  0.7682096779782032  0.1805030810763092
  0.7451713565566453  0.4237927100609213  0.2320684158760443
  0.6180872458315698  0.4098866320799301  0.8883385394218540
  0.8563176690194750  0.2546817362222307  0.5752214181504278
  0.5990254689621511  0.9380127360553260  0.3602303211117003
  0.0009707589620833  0.7109419451737481  0.8042865814519373
  0.9080157331380435  0.5399385270543463  0.0787000102669892
  0.3453259990209167  0.6268839339541982  0.9078153101781116
  0.3526154428990045  0.7860040898287832  0.9530939393710407
  0.8988301560710522  0.6929467443265658  0.1056022132370650
  0.3728143165984832  0.3744285962416409  0.9266350071429893
  0.0137696340555053  0.1390354322686437  0.3978685153275697
  0.6131594482814794  0.7426575205073060  0.9921811691086959
  0.8747991035590797  0.2923345012078858  0.9503339572079033
  0.8354813338779673  0.1258218821352407  0.3106384605773604
  0.7124338524112038  0.5012513660165567  0.4120513010050449
  0.6648872926923400  0.0093077308275860  0.2382497139821485
  0.5142313715484534  0.3017377837545710  0.9363435820824766
  0.3244845189453401  0.3565496170926834  0.0729101667109906
  0.3417659302736074  0.9477712944329727  0.5094205724715402
  0.4038687610742287  0.6774384199424381  0.0508629723018992
  0.6468345099643277  0.1660405098033407  0.3017419433377425
  0.9187517720299588  0.6994468838021051  0.3578139465004854
  0.0739919060035168  0.5683091427633349  0.9526879284397693
  0.0952337236330045  0.2588654256274299  0.3185175006361468
  0.3552803351959408  0.5136080051737566  0.3994821188560004
  0.6013760372210898  0.2532302471194501  0.4540847431754919
  0.6997186201406183  0.7068079290705761  0.6628493576340968
  0.8790443501172390  0.0075785192173906  0.4907104896825361
  0.5240390641644829  0.8214590885789482  0.7254049630104148
  0.1693653046767498  0.4480856361167403  0.9542712637922806
  0.2797819392926117  0.6323567114336187  0.1307305963988934
  0.5211316186099008  0.0617938931217889  0.2937423314550678
  0.8646588522354386  0.5562858966417120  0.4826083110185656
  0.1958746096900421  0.1928659920912024  0.8110014635502446
  0.2254190696990359  0.0413998481923691  0.8392687234423976
  0.9390491337934185  0.0148097778774518  0.3533337943412624
  0.9751592292016800  0.1732407168317907  0.2480431234929554
  0.4313776525195284  0.5841360947474323  0.5874198598053573
  0.7637255315809119  0.8372980729500104  0.7605504902412894
  0.9255599438737285  0.3410736324353661  0.8132389360423792
  0.6168506896539591  0.4781452557165327  0.1429903281623928
  0.3626543973715099  0.8750233246278346  0.7304854994161361
 -0.0306389466156372  0.0402917197748909  0.7193681436320057
  0.1971817947933936  0.5726718434185086  0.4391652853293626
  0.7442253189597752  0.9563936678266437  0.4471597379112183
  0.5096399980282815  0.7831748798000202  0.0945014302840440
  0.4737422028695280  0.3661286194655376  0.7992968838928803
  0.7098899693157013  0.1575286146693426  0.1578431392059303
  0.0033651834275281  0.5041245655394879  0.5261275635397562
  0.1666743645275839  0.5766260134961864  0.2457115893370108
  0.4556709756055118  0.8743995131713478  0.5909995304930734
  0.7718878078120092  0.6665601382624403  0.0209852553065128
  0.3291668272614424  0.4665862684155507  0.5511409672262234
  0.2089312037154697  0.9514295476504531  0.9849113542080064
  0.0338190942341463  0.9684145583657274  0.0526148291304430
  0.8039986457795412  0.9478892879320079  0.2729454828777808
  0.1764873836159923  0.8949642309478988  0.1698596700569888
  0.7949505532537826  0.7378882428129596  0.2237767963261692
  0.4482673204765429  0.9003023574647333  0.0159816717314499
  0.8230953694957502  0.4087876076945965  0.3621869101205567
  0.1928823816598457  0.1603156961034266  0.2395781677430762
  0.3454334617753614  0.3945239540189449  0.6856012240273355
  0.6413592789902806  0.4373000996243815  0.7411897369050521
  0.5053592225203336  0.8479129950792864  0.2757680302860321
  0.0758206381682343  0.2032740076250752  0.1312796399898460
  0.5638580606501119  0.1434500529562293  0.5942381111655060
  0.8303683207263556  0.4756627205559906  0.7688494114851534
  0.4928873193604709  0.1763355681824085  0.1956417481926173
  0.1570336943985812  0.7507762739068070  0.6870807140674821
  0.6690353977759333  0.0576989601259463  0.9369321988964067
  0.7417280792468540  0.9677624063809094  0.1024260462813053
  0.4979863135539633  0.4853905205569847  0.6932582891185369
  0.5326141873747318  0.9978790742542653  0.8595091251676561
  0.7581074913257672  0.1458092340618319  0.7065406327421763
  0.2314519386329705  0.5027129276777655  0.8230078031161284
  0.7166224937590946  0.5806844873278665  0.7716117857356088
  0.6931783948802668  0.2340476758192759  0.5992953039826103
  0.8872685812104869  0.6091375699214105  0.9366020374747043
  0.5700474689563374  0.6305260926445979  0.6985914641163218
  0.0667248900369621  0.5919848992255123  0.3636781933313116
  0.3539001572013248  0.8271154235740801  0.3789974820380466
  0.0624096613076305  0.8208242085889631  0.0828822660461034
  0.0800438263577219  0.8926299743724458  0.9194220352077500
  0.0994129206261534  0.6654531804805601  0.1099834593385969
  0.9639500081171215  0.4827565943873952  0.8897381478348205
  0.1990016258546211  0.3369477260345954  0.6795505884599822
  0.6495078668091383  0.5271022697843608  0.6098448255812440
  0.0494360538531156  0.7733497685894367  0.4078366475727634
  0.3690169844481715  0.0839972390610917  0.2053985756462829
  0.1536666659693423  0.0414361772965915  0.1318527588890163
  0.9036374542277040  0.8451457314942588  0.0416990979307392
  0.5845222427571264  0.0762147134671044  0.1176473665865320
  0.7399672985863246  0.9703769533071041  0.8319808161734241
  0.6856238515267327  0.0398044625651596  0.6125927663653761
  0.1362881459836758  0.0615452962248276  0.3504425081093660
  0.6362734058514847  0.8038518278951178  0.4772511907885315
 -0.0225417781814197  0.6481232096444161  0.6613607757470291
  0.6316007791579947  0.7460744088742304  0.8038291226420436
  0.1547273438133978  0.9682732522336825  0.7196589837790024
  0.0603183901149398  0.9443648076056196  0.4341010058811982
  0.0571785317055704  0.6478491242955435  0.5061389352676883
  0.7151831947708839  0.2340561593544065  0.9859309077873697
  0.4460595308911710  0.0571817298297948  0.0347641351170708
  0.7544682732321201  0.5204011412520939  0.0766909060442976
  0.8532311132181452  0.0610640277305548  0.1735257756197153
  0.3900963157186006  0.2477284942953000  0.6365671576353711
  0.2281470145229187  0.6640178383226880  0.7966184190636176
  0.0052965017885024  0.2032669711893666  0.5985472478757832
  0.0661497154213945  0.8449713976827679  0.7684303428220423
  0.8080999084245591  0.9696062792437594  0.6658407255876552
  0.6218225059517549  0.6040210137165188  0.4791242957701788
  0.9312371385687901  0.3136687977950846  0.3066985171297517
  0.7895519037253935  0.4880372240379169  0.9171616826948311
  0.8869496410238382  0.3920715586082693  0.5039701388444815
  0.5043984930278980  0.5484205230065308  0.3779863590140696
  0.0942631320733726  0.5856988573907091  0.8027869833671553
  0.8005386855570804  0.7669809803555181  0.8891539743000787
  0.2190857274764781  0.7998498943445412  0.0214988848809004
  0.9780838750351888  0.3282860843207285  0.1543442095972312
  0.2915620041238682 -0.0100965035941166  0.6498602740835256
  0.5082767849086696  0.2555746796348837  0.3352883963509641
  0.4935793794709320  0.8476350721687502  0.4463899836930710
  0.7551095524824821  0.1306587791561994  0.4990771897423660
  0.9475807728242380  0.8688849917150324  0.6773341108983916
  0.2439667387619433  0.3362586185710356  0.5318810419087504
  0.2158506898016078  0.4582075197435134  0.3275598968360908
  0.0621704125909776  0.4599430816961779  0.7156338811541265
  0.1377809386549887  0.7420139318489264  0.9005049537639601
  0.2533589954875218  0.3481082583572124  0.8219892543512215
  0.2534475432954251  0.6982679010126542  0.3597480424952954
  0.2417533516319783  0.3114029309314278  0.2264485696914077
  0.5995466968776589  0.9536230732540442  0.0261653416777254
  0.0290416455958911  0.3846130186210266  0.0189874625487376
  0.5026745340669473  0.1618550111211795  0.7325026605977369
  0.3670983460250711  0.2534209409450778  0.4826491466808717
  0.2138005134122961  0.8894925713236190  0.3789212331415748
  0.7282111239584497  0.8002664721984962  0.0863127856083434
  0.4664707512533918  0.3435816990366688  0.1339064027555845
  0.3032568187869720  0.2083657616275184  0.1260008693795828
  0.0066097197856490  0.7034546107893699  0.9893050748012112
  0.3257954915495457  0.9028421075983700  0.1102856809962429
  0.4000288536054298  0.3693210760880734  0.3374124349525940
  0.9393740634130051  0.8656774640286254  0.4985980170994742
  0.9040636580420431  0.5391585503150850  0.3364564784435239
  0.7813475020094143  0.8099498903690987  0.4170454717054566
  0.5859005224435319  0.6120186312450079  0.0791468286733190
  0.8503487311485909  0.7469418259586932  0.6687649043804880
  0.9690254411710560  0.1126573857556521  0.0637790499202965
  0.5905903477561248  0.4138669194038459  0.4063631059016221
  0.7972791023833113  0.8543884027018914  0.5701044635331989
  0.0565099777885436  0.0735190389090740  0.5289128377695204
  0.1238760379862166  0.5988873387258474  0.6440772846496940
  0.0427998659019296  0.7822352505347590  0.5920370571561564
  0.5793144371810341  0.2980793526673953  0.7081625709024509
  0.1052675698208323  0.1162912129888295  0.6967303191698945
  0.2816804792535550  0.1240998644312153  0.5112855115666822
  0.5051227881524227  0.4423238778365602  0.2452176067923697
  0.1829488303127850  0.7766568429710654  0.4784726151327408
  0.4349388624186161  0.2106795604544167  0.0517304703089992
  0.3290711519924726  0.9383820773851345  0.8935165030509209
  0.4724157621472406  0.8591003103224396  0.8647654518754605
  0.7995721877904547  0.2617084235845693  0.2395828688294739
  0.2561930499138880 -0.0092954480814330  0.2652046533300910
  0.0671661928250296  0.2651404668469924  0.7365343946171048
  0.4094184981729972  0.0789502907299756  0.8914172773877916
  0.7689241252327623  0.6507091624340302  0.3627463278925141
  0.5507145365304508  0.7073824873597011  0.5635460067346394
  0.7900865632988323  0.5745965245269196  0.2195934857687485
  0.8751784091084602  0.1001787164209065  0.6100540305422595
  0.2094894465562999  0.6365484145709079 -0.0102466532282778
  0.0573518660446167  0.3562584857649144  0.5999086909650400
  0.1584241040099604  0.4703610559017867  0.5465757293894535
  0.4696160381362537  0.9661040799371294  0.1770696050902549
  0.4577932807667677  0.0113814728721836  0.7254989086290551
  0.1084559566185107  0.0930107282394890  0.9775487759437256
  0.6195020512953550  0.3377902873286889  0.2692498956543550
  0.4517946735790855  0.1312542431025933  0.4215464330574724
  0.7827545400630150  0.2794698154273781  0.7821107766882552
  0.0610437893171217  0.0219855216574789  0.8445995059844581
  0.8752276463864598  0.2163091341845395  0.4247965865509725
  0.4480796104624025  0.3867779904646500  0.4899776579871961
  0.6513215700116278  0.8472517531531287  0.6273277226240854
  0.9071205326538431  0.4513978380670846  0.2018779332684234
  0.2880682020661014  0.5957547022445487  0.6584147046898327
  0.4345947917024095  0.6921857759030196  0.7473280123250323
  0.7504386828454687  0.6783165169436410  0.5216285176353848
  0.8521907075483826  0.6534871991882034  0.7981084928976447
  0.2984236723300525  0.0485837559503027  0.0680177752787637
  0.6458799099285337  0.2558383852358951  0.8447769174491302
  0.4068916272579771  0.9852101080726393  0.3714083267405248
  0.5091377101564138  0.4463874881019493  0.0231717949268161
  0.9323193270795408  0.1925706327253387  0.7547587007989541
  0.1536321874929578  0.3438342585366929  0.1052762021768255
  0.0216002068540516  0.4465750949682176  0.3789945898480342
  0.9432261386579451  0.8266240439770808  0.8931636761566185
  0.2553762725545238  0.3118968460750247  0.3786696199211339
  0.5455568991778169  0.5603223055191293  0.8401585300252438
  0.7394246229294561  0.2781074810989579  0.3843175988802913
  0.1236729668310311  0.7300079763844375  0.2796395942801708
  0.3417147348232712  0.5956505186741022  0.2701168041149524
  0.2420679691197596  0.1905280408731463  0.6517763629367047
  0.8662400945846068  0.2294695232426870  0.1019390325447407
  0.7901790356331654  0.0964729503196267  0.0235799033799558
  0.3755397675173469  0.5366519690836004  0.7742499417860046
  0.5788683861814059  0.1665657564792267  0.9960431523093420
  0.3652192686424129  0.2512070238253409  0.7932456490030332
  0.6352131681750641  0.1124464037328299  0.7899154159093045
  0.0555916877720578  0.5166856334643829  0.0968705385259593
  0.9083949998662085  0.6979317310564724  0.5105038322370588
  0.6238403166739310  0.7067081745346366  0.3558414636022090
  0.3284643965291040  0.4454240690322800  0.2119438159983110
  0.5630337167939073  0.6933809284050210  0.2128057813023554
  0.3335505235986980  0.1012172611991614  0.7487077216247843
  0.6659672022433725  0.3680110516286620  0.0380685422020679
  0.6124976431143199  0.8745287071288015  0.1650202472339157
  0.0247101628502669  0.2983101611056716  0.4542226592394411
  0.5049890683024310  0.7005075071551555  0.8909002108686115
  0.2193625714096623  0.3020429768907875  0.9669039757941446
  0.6958914338754590  0.8309379597877321  0.2928256911727867
  0.0892146595287878  0.2369620458566380  0.9123973168442285
  0.9608550309042030  0.1464588913912198  0.9023608037382591
  0.0950190085168531  0.3935382359566403  0.2458481894295948
  0.1357604338865693  0.9044018760379838  0.5714189647952680
  0.2718241044376831  0.1456543247170864  0.9454519782389953
 -0.0310723657054776  0.8192003271892202  0.2032228506280266
  0.6502426702838482  0.5503036963602322  0.9500591131701895
  0.8016933666269775  0.5706945138158516  0.6300175658785754
  0.2288635015515065  0.8546788782796094  0.8135086057554811
  0.9916855258815530  0.6593620406677020  0.2240045161859753
  0.7707110425528186  0.8955440339555798  0.9663896527996001
  0.6050608962710855  0.0993818377088392  0.4503630821296995
  0.3475920613312652  0.6475968651491466  0.4763379581364326
  0.3083912471225295  0.4991594200521820  0.0038606578096778
  0.4727097718414072  0.6966826721393068  0.4099279934847102
  0.6227939400905079  0.3861040714536131  0.5523099323707338
  0.6428457771208862  0.5618315038868059  0.2742325985031433
  0.9201157578170468 -0.0052478753508158  0.9034248408891016
  0.8114725683187927  0.1532969432019111  0.8804961253873810
  0.3306159770131009  0.1747923724690947  0.3227231567026762
  0.0765617820977644  0.8858850953848084  0.2874934398381369
  0.0330591410161216  0.0302028817448361  0.2274686274421836
  0.6067443719884525  0.2703955475715898  0.1347139729109735
  0.6194450239568854  0.9620582142426365  0.7324740701684520
  0.0771412132868288  0.3796923189871587  0.8451572760298826
 
  0.00000000E+00  0.00000000E+00  0.00000000E+00
  0.00000000E+00  0.00000000E+00  0.00000000E+00
  0.00000000E+00  0.00000000E+00  0.00000000E+00
  0.00000000E+00  0.00000000E+00  0.00000000E+00
  0.00000000E+00  0.00000000E+00  0.00000000E+00
  0.00000000E+00  0.00000000E+00  0.00000000E+00
  0.00000000E+00  0.00000000E+00  0.00000000E+00
  0.00000000E+00  0.00000000E+00  0.00000000E+00
  0.00000000E+00  0.00000000E+00  0.00000000E+00
  0.00000000E+00  0.00000000E+00  0.00000000E+00
  0.00000000E+00  0.00000000E+00  0.00000000E+00
  0.00000000E+00  0.00000000E+00  0.00000000E+00
  0.00000000E+00  0.00000000E+00  0.00000000E+00
  0.00000000E+00  0.00000000E+00  0.00000000E+00
  0.00000000E+00  0.00000000E+00  0.00000000E+00
  0.00000000E+00  0.00000000E+00  0.00000000E+00
  0.00000000E+00  0.00000000E+00  0.00000000E+00
  0.00000000E+00  0.00000000E+00  0.00000000E+00
  0.00000000E+00  0.00000000E+00  0.00000000E+00
  0.00000000E+00  0.00000000E+00  0.00000000E+00
  0.00000000E+00  0.00000000E+00  0.00000000E+00
  0.00000000E+00  0.00000000E+00  0.00000000E+00
  0.00000000E+00  0.00000000E+00  0.00000000E+00
  0.00000000E+00  0.00000000E+00  0.00000000E+00
  0.00000000E+00  0.00000000E+00  0.00000000E+00
  0.00000000E+00  0.00000000E+00  0.00000000E+00
  0.00000000E+00  0.00000000E+00  0.00000000E+00
  0.00000000E+00  0.00000000E+00  0.00000000E+00
  0.00000000E+00  0.00000000E+00  0.00000000E+00
  0.00000000E+00  0.00000000E+00  0.00000000E+00
  0.00000000E+00  0.00000000E+00  0.00000000E+00
  0.00000000E+00  0.00000000E+00  0.00000000E+00
  0.00000000E+00  0.00000000E+00  0.00000000E+00
  0.00000000E+00  0.00000000E+00  0.00000000E+00
  0.00000000E+00  0.00000000E+00  0.00000000E+00
  0.00000000E+00  0.00000000E+00  0.00000000E+00
  0.00000000E+00  0.00000000E+00  0.00000000E+00
  0.00000000E+00  0.00000000E+00  0.00000000E+00
  0.00000000E+00  0.00000000E+00  0.00000000E+00
  0.00000000E+00  0.00000000E+00  0.00000000E+00
  0.00000000E+00  0.00000000E+00  0.00000000E+00
  0.00000000E+00  0.00000000E+00  0.00000000E+00
  0.00000000E+00  0.00000000E+00  0.00000000E+00
  0.00000000E+00  0.00000000E+00  0.00000000E+00
  0.00000000E+00  0.00000000E+00  0.00000000E+00
  0.00000000E+00  0.00000000E+00  0.00000000E+00
  0.00000000E+00  0.00000000E+00  0.00000000E+00
  0.00000000E+00  0.00000000E+00  0.00000000E+00
  0.00000000E+00  0.00000000E+00  0.00000000E+00
  0.00000000E+00  0.00000000E+00  0.00000000E+00
  0.00000000E+00  0.00000000E+00  0.00000000E+00
  0.00000000E+00  0.00000000E+00  0.00000000E+00
  0.00000000E+00  0.00000000E+00  0.00000000E+00
  0.00000000E+00  0.00000000E+00  0.00000000E+00
  0.00000000E+00  0.00000000E+00  0.00000000E+00
  0.00000000E+00  0.00000000E+00  0.00000000E+00
  0.00000000E+00  0.00000000E+00  0.00000000E+00
  0.00000000E+00  0.00000000E+00  0.00000000E+00
  0.00000000E+00  0.00000000E+00  0.00000000E+00
  0.00000000E+00  0.00000000E+00  0.00000000E+00
  0.00000000E+00  0.00000000E+00  0.00000000E+00
  0.00000000E+00  0.00000000E+00  0.00000000E+00
  0.00000000E+00  0.00000000E+00  0.00000000E+00
  0.00000000E+00  0.00000000E+00  0.00000000E+00
  0.00000000E+00  0.00000000E+00  0.00000000E+00
  0.00000000E+00  0.00000000E+00  0.00000000E+00
  0.00000000E+00  0.00000000E+00  0.00000000E+00
  0.00000000E+00  0.00000000E+00  0.00000000E+00
  0.00000000E+00  0.00000000E+00  0.00000000E+00
  0.00000000E+00  0.00000000E+00  0.00000000E+00
  0.00000000E+00  0.00000000E+00  0.00000000E+00
  0.00000000E+00  0.00000000E+00  0.00000000E+00
  0.00000000E+00  0.00000000E+00  0.00000000E+00
  0.00000000E+00  0.00000000E+00  0.00000000E+00
  0.00000000E+00  0.00000000E+00  0.00000000E+00
  0.00000000E+00  0.00000000E+00  0.00000000E+00
  0.00000000E+00  0.00000000E+00  0.00000000E+00
  0.00000000E+00  0.00000000E+00  0.00000000E+00
  0.00000000E+00  0.00000000E+00  0.00000000E+00
  0.00000000E+00  0.00000000E+00  0.00000000E+00
  0.00000000E+00  0.00000000E+00  0.00000000E+00
  0.00000000E+00  0.00000000E+00  0.00000000E+00
  0.00000000E+00  0.00000000E+00  0.00000000E+00
  0.00000000E+00  0.00000000E+00  0.00000000E+00
  0.00000000E+00  0.00000000E+00  0.00000000E+00
  0.00000000E+00  0.00000000E+00  0.00000000E+00
  0.00000000E+00  0.00000000E+00  0.00000000E+00
  0.00000000E+00  0.00000000E+00  0.00000000E+00
  0.00000000E+00  0.00000000E+00  0.00000000E+00
  0.00000000E+00  0.00000000E+00  0.00000000E+00
  0.00000000E+00  0.00000000E+00  0.00000000E+00
  0.00000000E+00  0.00000000E+00  0.00000000E+00
  0.00000000E+00  0.00000000E+00  0.00000000E+00
  0.00000000E+00  0.00000000E+00  0.00000000E+00
  0.00000000E+00  0.00000000E+00  0.00000000E+00
  0.00000000E+00  0.00000000E+00  0.00000000E+00
  0.00000000E+00  0.00000000E+00  0.00000000E+00
  0.00000000E+00  0.00000000E+00  0.00000000E+00
  0.00000000E+00  0.00000000E+00  0.00000000E+00
  0.00000000E+00  0.00000000E+00  0.00000000E+00
  0.00000000E+00  0.00000000E+00  0.00000000E+00
  0.00000000E+00  0.00000000E+00  0.00000000E+00
  0.00000000E+00  0.00000000E+00  0.00000000E+00
  0.00000000E+00  0.00000000E+00  0.00000000E+00
  0.00000000E+00  0.00000000E+00  0.00000000E+00
  0.00000000E+00  0.00000000E+00  0.00000000E+00
  0.00000000E+00  0.00000000E+00  0.00000000E+00
  0.00000000E+00  0.00000000E+00  0.00000000E+00
  0.00000000E+00  0.00000000E+00  0.00000000E+00
  0.00000000E+00  0.00000000E+00  0.00000000E+00
  0.00000000E+00  0.00000000E+00  0.00000000E+00
  0.00000000E+00  0.00000000E+00  0.00000000E+00
  0.00000000E+00  0.00000000E+00  0.00000000E+00
  0.00000000E+00  0.00000000E+00  0.00000000E+00
  0.00000000E+00  0.00000000E+00  0.00000000E+00
  0.00000000E+00  0.00000000E+00  0.00000000E+00
  0.00000000E+00  0.00000000E+00  0.00000000E+00
  0.00000000E+00  0.00000000E+00  0.00000000E+00
  0.00000000E+00  0.00000000E+00  0.00000000E+00
  0.00000000E+00  0.00000000E+00  0.00000000E+00
  0.00000000E+00  0.00000000E+00  0.00000000E+00
  0.00000000E+00  0.00000000E+00  0.00000000E+00
  0.00000000E+00  0.00000000E+00  0.00000000E+00
  0.00000000E+00  0.00000000E+00  0.00000000E+00
  0.00000000E+00  0.00000000E+00  0.00000000E+00
  0.00000000E+00  0.00000000E+00  0.00000000E+00
  0.00000000E+00  0.00000000E+00  0.00000000E+00
  0.00000000E+00  0.00000000E+00  0.00000000E+00
  0.00000000E+00  0.00000000E+00  0.00000000E+00
  0.00000000E+00  0.00000000E+00  0.00000000E+00
  0.00000000E+00  0.00000000E+00  0.00000000E+00
  0.00000000E+00  0.00000000E+00  0.00000000E+00
  0.00000000E+00  0.00000000E+00  0.00000000E+00
  0.00000000E+00  0.00000000E+00  0.00000000E+00
  0.00000000E+00  0.00000000E+00  0.00000000E+00
  0.00000000E+00  0.00000000E+00  0.00000000E+00
  0.00000000E+00  0.00000000E+00  0.00000000E+00
  0.00000000E+00  0.00000000E+00  0.00000000E+00
  0.00000000E+00  0.00000000E+00  0.00000000E+00
  0.00000000E+00  0.00000000E+00  0.00000000E+00
  0.00000000E+00  0.00000000E+00  0.00000000E+00
  0.00000000E+00  0.00000000E+00  0.00000000E+00
  0.00000000E+00  0.00000000E+00  0.00000000E+00
  0.00000000E+00  0.00000000E+00  0.00000000E+00
  0.00000000E+00  0.00000000E+00  0.00000000E+00
  0.00000000E+00  0.00000000E+00  0.00000000E+00
  0.00000000E+00  0.00000000E+00  0.00000000E+00
  0.00000000E+00  0.00000000E+00  0.00000000E+00
  0.00000000E+00  0.00000000E+00  0.00000000E+00
  0.00000000E+00  0.00000000E+00  0.00000000E+00
  0.00000000E+00  0.00000000E+00  0.00000000E+00
  0.00000000E+00  0.00000000E+00  0.00000000E+00
  0.00000000E+00  0.00000000E+00  0.00000000E+00
  0.00000000E+00  0.00000000E+00  0.00000000E+00
  0.00000000E+00  0.00000000E+00  0.00000000E+00
  0.00000000E+00  0.00000000E+00  0.00000000E+00
  0.00000000E+00  0.00000000E+00  0.00000000E+00
  0.00000000E+00  0.00000000E+00  0.00000000E+00
  0.00000000E+00  0.00000000E+00  0.00000000E+00
  0.00000000E+00  0.00000000E+00  0.00000000E+00
  0.00000000E+00  0.00000000E+00  0.00000000E+00
  0.00000000E+00  0.00000000E+00  0.00000000E+00
  0.00000000E+00  0.00000000E+00  0.00000000E+00
  0.00000000E+00  0.00000000E+00  0.00000000E+00
  0.00000000E+00  0.00000000E+00  0.00000000E+00
  0.00000000E+00  0.00000000E+00  0.00000000E+00
  0.00000000E+00  0.00000000E+00  0.00000000E+00
  0.00000000E+00  0.00000000E+00  0.00000000E+00
  0.00000000E+00  0.00000000E+00  0.00000000E+00
  0.00000000E+00  0.00000000E+00  0.00000000E+00
  0.00000000E+00  0.00000000E+00  0.00000000E+00
  0.00000000E+00  0.00000000E+00  0.00000000E+00
  0.00000000E+00  0.00000000E+00  0.00000000E+00
  0.00000000E+00  0.00000000E+00  0.00000000E+00
  0.00000000E+00  0.00000000E+00  0.00000000E+00
  0.00000000E+00  0.00000000E+00  0.00000000E+00
  0.00000000E+00  0.00000000E+00  0.00000000E+00
  0.00000000E+00  0.00000000E+00  0.00000000E+00
  0.00000000E+00  0.00000000E+00  0.00000000E+00
  0.00000000E+00  0.00000000E+00  0.00000000E+00
  0.00000000E+00  0.00000000E+00  0.00000000E+00
  0.00000000E+00  0.00000000E+00  0.00000000E+00
  0.00000000E+00  0.00000000E+00  0.00000000E+00
  0.00000000E+00  0.00000000E+00  0.00000000E+00
  0.00000000E+00  0.00000000E+00  0.00000000E+00
  0.00000000E+00  0.00000000E+00  0.00000000E+00
  0.00000000E+00  0.00000000E+00  0.00000000E+00
  0.00000000E+00  0.00000000E+00  0.00000000E+00
  0.00000000E+00  0.00000000E+00  0.00000000E+00
  0.00000000E+00  0.00000000E+00  0.00000000E+00
  0.00000000E+00  0.00000000E+00  0.00000000E+00
  0.00000000E+00  0.00000000E+00  0.00000000E+00
  0.00000000E+00  0.00000000E+00  0.00000000E+00
  0.00000000E+00  0.00000000E+00  0.00000000E+00
  0.00000000E+00  0.00000000E+00  0.00000000E+00
  0.00000000E+00  0.00000000E+00  0.00000000E+00
  0.00000000E+00  0.00000000E+00  0.00000000E+00
  0.00000000E+00  0.00000000E+00  0.00000000E+00
  0.00000000E+00  0.00000000E+00  0.00000000E+00
  0.00000000E+00  0.00000000E+00  0.00000000E+00
  0.00000000E+00  0.00000000E+00  0.00000000E+00
  0.00000000E+00  0.00000000E+00  0.00000000E+00
  0.00000000E+00  0.00000000E+00  0.00000000E+00
  0.00000000E+00  0.00000000E+00  0.00000000E+00
  0.00000000E+00  0.00000000E+00  0.00000000E+00
  0.00000000E+00  0.00000000E+00  0.00000000E+00
  0.00000000E+00  0.00000000E+00  0.00000000E+00
  0.00000000E+00  0.00000000E+00  0.00000000E+00
  0.00000000E+00  0.00000000E+00  0.00000000E+00
  0.00000000E+00  0.00000000E+00  0.00000000E+00
  0.00000000E+00  0.00000000E+00  0.00000000E+00
  0.00000000E+00  0.00000000E+00  0.00000000E+00
  0.00000000E+00  0.00000000E+00  0.00000000E+00
  0.00000000E+00  0.00000000E+00  0.00000000E+00
  0.00000000E+00  0.00000000E+00  0.00000000E+00
  0.00000000E+00  0.00000000E+00  0.00000000E+00
  0.00000000E+00  0.00000000E+00  0.00000000E+00
  0.00000000E+00  0.00000000E+00  0.00000000E+00
  0.00000000E+00  0.00000000E+00  0.00000000E+00
  0.00000000E+00  0.00000000E+00  0.00000000E+00
  0.00000000E+00  0.00000000E+00  0.00000000E+00
  0.00000000E+00  0.00000000E+00  0.00000000E+00
  0.00000000E+00  0.00000000E+00  0.00000000E+00
  0.00000000E+00  0.00000000E+00  0.00000000E+00
  0.00000000E+00  0.00000000E+00  0.00000000E+00
  0.00000000E+00  0.00000000E+00  0.00000000E+00
  0.00000000E+00  0.00000000E+00  0.00000000E+00
  0.00000000E+00  0.00000000E+00  0.00000000E+00
  0.00000000E+00  0.00000000E+00  0.00000000E+00
  0.00000000E+00  0.00000000E+00  0.00000000E+00
  0.00000000E+00  0.00000000E+00  0.00000000E+00
  0.00000000E+00  0.00000000E+00  0.00000000E+00