POSCAR file written by OVITO Basic 3.10.4
1
21.5751 0.0 0.0
0.0 21.5751 0.0
0.0 0.0 21.5751
Sb 
300 
Direct
0.9327743556 0.0803453982 0.4652353871
0.743083462 0.0358043763 0.0236778045
0.3319715783 0.7082887217 0.1675500925
0.1400790726 0.591668173 0.7488169232
0.085561133 0.6942447544 0.8238803065
0.7620961201 0.3346802564 0.2217913243
0.2339553467 0.6729516897 0.2508368443
0.8170159119 0.2278960468 0.5357286872
0.0215698189 0.4218455534 0.9946002568
0.2940171772 0.7889187072 0.3566328777
0.3851509379 0.3331386645 0.6723074285
0.8905034044 0.5205398816 0.8465963078
0.349527001 0.045573601 0.592191925
0.4997010443 0.4462319989 0.4065774898
0.9689410478 0.3609174465 0.4952422005
0.6340503636 0.8228467075 0.3028430923
0.4441448707 0.8098919588 0.0420156569
0.8188420911 0.7497439178 0.2573239521
0.1976301384 0.2030831839 0.6615867366
0.4723268954 0.4390788455 0.6639969224
0.2772191091 0.2029214233 0.9141973849
0.7069909294 0.5234506445 0.6150098957
0.646384026 0.1361444443 0.0064435391
0.42106317 0.812070396 0.2278181793
0.5815129478 0.6676770907 0.9729410292
0.0137281867 0.1863402719 0.298135814
0.7186154409 0.0205751074 0.7254705656
0.4327210534 0.25114507 0.2046590746
0.0289814184 0.7688909901 0.7145505699
0.2463497272 0.4785238539 0.3931712947
0.3919147536 0.1439520558 0.9318473611
0.2871921799 0.3234214442 0.2962934123
0.4128931036 0.3962707009 0.2947073246
0.4922480081 0.1177060593 0.2235136801
0.8168629578 0.7076630004 0.7268795973
0.6495728873 0.1964839097 0.4686745369
0.8700585397 0.2047184022 0.8260680136
0.7275377634 0.4018433287 0.0873965822
0.9385634366 0.1465008273 0.6395289014
0.0348232917 0.8150738583 0.1544396086
0.3112773521 0.4997891087 0.9603385384
0.3030257102 0.8206358256 0.0183514329
0.6291604674 0.0267681726 0.3757206224
0.5727111346 0.1451242404 0.654036366
0.6746156449 0.8524039286 0.4726791533
0.4072138715 0.2724840209 0.7983879565
0.9805655594 0.1130590356 0.1132045738
0.9484637383 0.1558161955 0.9352123513
0.7554495692 0.0313771894 0.8515742685
0.3504447256 0.0022918828 0.7679732655
0.66865507 0.9200050058 0.8962507706
0.1255363822 0.1024227002 0.1342487404
0.3568618454 0.5054159656 0.5273625615
0.3365031912 0.9162367729 0.1944968969
0.7890809313 0.8225083545 0.7897576373
0.5762615237 0.5056152695 0.3152360823
0.5882985479 0.5574528044 0.6824672887
0.7654750152 0.5126465231 0.7424901854
0.0592029701 0.0961135754 0.6826480526
0.7464391822 0.7961538996 0.3668474306
0.5206789308 0.1857548748 0.1019707904
0.693118456 0.6882053849 0.072379734
0.8153751315 0.618004088 0.2864473398
0.1518176046 0.7190696683 0.1427233246
0.579784103 0.5562986962 0.13943064
0.3805136477 0.2232587566 0.3374427001
0.0583519891 0.6547316119 0.2688580818
0.0722235355 0.46984255 0.250898026
0.3123035351 0.0845483914 0.3192601657
0.4808367053 0.3213014076 0.9890475595
0.4825052955 0.678161399 0.0665512558
0.9264383479 0.4772399664 0.2447066294
0.6465925998 0.3522013803 0.3384253144
0.8658777943 0.5591260295 0.6696237793
0.5020231656 0.8745312884 0.934572725
0.3485670982 0.8320934781 0.7396396772
0.595913808 0.9206307271 0.0184807486
0.5725720854 0.2356234734 0.8806911671
0.2731482125 0.7044138845 0.6235706903
0.7153153404 0.6444790522 0.8022535237
0.4248712636 0.8167378135 0.3646314501
0.0830577842 0.1367358668 0.4139141881
0.6999365009 0.9033839936 0.1522328981
0.9264846976 0.5983147239 0.5317935954
0.3781845739 0.0755546904 0.1553239614
0.6269913002 0.9302297556 0.5939207698
0.6010632627 0.6570444633 0.228633471
0.2185570403 0.0714063898 0.5985279327
0.4998632683 0.5045260509 0.5216939898
0.8710921386 0.1603111921 0.2267303512
0.7708376786 0.392613244 0.8936922656
0.8150923982 0.9518379984 0.2021696307
0.244520767 0.3048416925 0.7768260634
0.0280066836 0.8239776409 0.9739699932
0.5892301774 0.5607204602 0.8188096463
0.1961005974 0.8090993785 0.6895727019
0.8940630634 0.9256921173 0.0950572651
0.2487107823 0.6291094827 0.0756751997
0.3960857655 0.7591714523 0.6491232949
0.9486398673 0.8721859922 0.2623162813
0.4994832005 0.637220685 0.6205764979
0.7458320008 0.2857317 0.9921298163
0.6235336105 0.3724089344 0.4754323271
0.4695366418 0.9263178386 0.1407321403
0.8165941293 0.1144944867 0.4137162748
0.5193023439 0.5982498343 0.4002864413
0.7589814184 0.8836714546 0.6794823662
0.7628423507 0.3679806814 0.5716960756
0.9330153742 0.6875425838 0.8203252824
0.3897339989 0.1841150215 0.0808033335
0.0694379169 0.0770031193 0.5445583103
0.5699347859 0.9171915773 0.4020695153
0.0557248866 0.0378362557 0.9971726666
0.2156879922 0.4342093432 0.2706165904
0.7944204198 0.3714096343 0.7262770509
0.5254900325 0.7409050248 0.8702763834
0.8748835463 0.0189829943 0.8064342691
0.3500604864 0.3894906628 0.1453569161
0.8696413922 0.4500869057 0.9658078062
0.2447659571 0.8242511043 0.1569142206
0.9450431284 0.9086493226 0.5522291901
0.7425272652 0.5060046072 0.9974739399
0.236698787 0.1215507692 0.8155373556
0.0510055573 0.3787236212 0.1417611042
0.1954377963 0.925747737 0.0537870045
0.8122465249 0.9057895444 0.3516725299
0.0604567302 0.3261055569 0.8807328819
0.3141542797 0.0344841044 0.908746657
0.9177153292 0.7881446668 0.6222914378
0.4805539719 0.6703978197 0.2928185733
0.6725901618 0.6809933674 0.3766160991
0.4771750768 0.1208165895 0.4005687112
0.2212861122 0.1734216759 0.2072782977
0.014040213 0.2265240949 0.0546681128
0.0512516744 0.9816964927 0.8783134261
0.4261477351 0.009155647 0.0397579154
0.4240847088 0.2076592924 0.6142219503
0.3311150354 0.6597281125 0.5072467799
0.8258872497 0.1155341111 0.715723218
0.8765984862 0.3357402747 0.6205718629
0.4020658073 0.5377588053 0.0535561828
0.1208101005 0.2504400907 0.7711899365
0.3877798944 0.3682017696 0.8818406404
0.4840348365 0.4954090595 0.2167962142
0.2826730815 0.3743843597 0.5904213654
0.19668275 0.3353050507 0.902799987
0.4959467164 0.6421847407 0.7712548262
0.185636683 0.9924171846 0.1731180852
0.7764552656 0.5645999323 0.1138715464
0.8507121636 0.7808075049 0.9374788529
0.168484503 0.2851300805 0.4552669513
0.6504998818 0.1496910791 0.2439877451
0.5587645017 0.2807565202 0.5499719584
0.0234639005 0.5134715482 0.8928394306
0.1606805994 0.6257815723 0.544437801
0.2575654342 0.9596062127 0.3037890902
0.9428554213 0.595070243 0.3190914526
0.002041242 0.0878489555 0.8120843009
0.6002011578 0.3507626848 0.9520419372
0.4640302942 0.4269083341 0.0838665869
0.5918118572 0.4007360337 0.8311896584
0.9856223146 0.266782541 0.7158483622
0.2687255216 0.0570384378 0.0414834694
0.8554908204 0.7509907254 0.0640154623
0.2910526487 0.244185195 0.566532716
0.9499840093 0.4483200541 0.6665832372
0.6682471924 0.1497193524 0.7547265134
0.0867866198 0.8921858995 0.7558528118
0.944426677 0.8314909317 0.8035513161
0.0437642931 0.9514811055 0.6451603932
0.4585271911 0.705688502 0.4989501787
0.8717178599 0.2616664581 0.0339579423
0.332112945 0.6640154623 0.3607348286
0.9860811769 0.7184207721 0.0643848696
0.9878517365 0.5800807412 0.7369884728
0.0524855041 0.5283683506 0.5436359507
0.1133570644 0.8669299331 0.2556688034
0.8922878689 0.7726592229 0.4465272467
0.704330455 0.7694518218 0.1854480396
0.7155748988 0.5236823931 0.4358746889
0.7349490848 0.9941043147 0.4387886962
0.9228184342 0.2636455914 0.3592219735
0.191337236 0.0083241793 0.7155239141
0.8690017659 0.019907764 0.593206984
0.9801623167 0.0551547849 0.3379279818
0.1465165862 0.6023332453 0.3719394116
0.6596632229 0.7885340045 0.8509207373
0.2481963004 0.0886392184 0.4343697132
0.3580993831 0.8437736094 0.53525592
0.6332021636 0.7275331285 0.5044148115
0.5292814402 0.3403200912 0.2361787431
0.7635700414 0.2965891236 0.4308526959
0.3715746393 0.1331187341 0.4919420999
0.3837242933 0.9280837632 0.4234399841
0.8916714175 0.3334459632 0.8983550482
0.9439909896 0.8984709225 0.4074840905
0.1513313959 0.9569086586 0.554467882
0.7420359581 0.6821057608 0.5876589216
0.8383136115 0.0520901409 0.2942688562
0.2666481268 0.2489467024 0.0963494955
0.2724886559 0.503993029 0.1470157728
0.7523487724 0.6947824112 0.9300211818
0.6541939551 0.2965650217 0.6501615288
0.2564414533 0.7705595803 0.4866350562
0.048519358 0.9772700938 0.2163202025
0.5585976427 0.0491891115 0.0677697902
0.6487895769 0.6990465861 0.6917743139
0.2727699987 0.9207883162 0.6389495298
0.3444563409 0.698731408 0.9647185876
0.5156453504 0.9546467919 0.5234969942
0.0846656562 0.9048115652 0.4210701225
0.3904848645 0.5792047314 0.2484915481
0.6183841558 0.324985284 0.0966192509
0.0814865285 0.8284086748 0.6024305797
0.8014655784 0.4510514436 0.3051735566
0.1073269649 0.018663691 0.3383506913
0.5327808446 0.7538551386 0.1555288272
0.2754976802 0.6035476081 0.7281403099
0.4972120639 0.8321722727 0.587084185
0.287167151 0.4742411391 0.7690393092
0.8144898517 0.1338881396 0.1010771677
0.0366256472 0.8043485314 0.346053089
0.7209561022 0.0498180773 0.1566212903
0.9529040422 0.2153621536 0.4997752038
0.1603325129 0.4118391108 0.5016662727
0.2063846749 0.6822772548 0.9271753086
0.2942030396 0.3667783695 0.4278867769
0.3414111638 0.877488401 0.8981140296
0.5275201505 0.2906772159 0.7599454927
0.2189283016 0.5204518171 0.620900946
0.793715904 0.6333829275 0.4264471544
0.0651825484 0.4350241714 0.7938920329
0.5699625958 0.2433940051 0.3319229111
0.399069761 0.5483682579 0.6537721726
0.9182576211 0.0426248314 0.0085820691
0.992523789 0.7183883273 0.5188573865
0.3553642857 0.1255567761 0.7011972135
0.1752789095 0.4029320837 0.7188703644
0.0576173459 0.6522055518 0.6383330784
0.4930035087 0.8464387187 0.7571320643
0.048173589 0.5185329384 0.4022368378
0.1177663139 0.5734620002 0.1780988269
0.7073292824 0.1602745758 0.584873303
0.0600599765 0.3424456897 0.620734087
0.2126775774 0.7540776173 0.8133403785
0.2487042934 0.9495158771 0.4318858314
0.7736928218 0.1643635487 0.914011986
0.1514621021 0.2914368879 0.3220810101
0.1842285783 0.5384494162 0.9898725846
0.7777808678 0.2184444105 0.3067865271
0.4280527089 0.0143076509 0.3339247559
0.9526769285 0.3415553114 0.2263400865
0.6953664178 0.4964333885 0.190655895
0.3481536586 0.7440660762 0.8324086563
0.4652910068 0.4640256592 0.8086961358
0.4550338121 0.0496159925 0.8664803408
0.0869326214 0.2635334251 0.1932111555
0.9192958549 0.5305745976 0.1184763918
0.1073496762 0.2302765688 0.5614805957
0.7804088973 0.901275081 0.032418158
0.9427210071 0.6556029868 0.181135661
0.9189621369 0.402973335 0.784362529
0.8721489124 0.3964927161 0.4102289213
0.7242515678 0.0200392582 0.5655361968
0.5676358395 0.019735065 0.6900361991
0.8941186831 0.6308568674 0.9368948464
0.0559241904 0.546472554 0.0518950086
0.1902725827 0.4324661299 0.0707667635
0.8524549133 0.3626490723 0.1196346714
0.6304443548 0.8296276726 0.726082382
0.1767644182 0.4679097664 0.856580039
0.3763125084 0.5047531645 0.3656284328
0.2875013326 0.3571677536 0.0165676636
0.1227665225 0.7178553054 0.4392688794
0.1854684335 0.165002248 0.0289985678
0.8834536109 0.9310501458 0.7131322682
0.9271474987 0.9377801262 0.924561184
0.6141709656 0.4243808835 0.608673888
0.6189218126 0.5853089905 0.519789016
0.3993566658 0.3851982146 0.5226070795
0.4715992046 0.2805488735 0.413600864
0.5039003295 0.550375201 0.9362505852
0.064741299 0.3772863162 0.4015429824
0.6913849762 0.2190580808 0.1122024927
0.1637864946 0.7957831018 0.994215554
0.1227271253 0.1528210761 0.8747815769
0.8150692233 0.4855551075 0.5169199679
0.8038155095 0.8252847032 0.5412535747
0.4453110298 0.9392308726 0.6809516526
0.0285032746 0.6462820566 0.95326557
0.5924885632 0.4743523784 0.0256229172
0.2012551506 0.8687561124 0.8814791125
0.4096759691 0.5822452735 0.8499752029
0.57519548 0.0082639246 0.2012648841
0.5571190864 0.9470500716 0.8248304759
0.6960848385 0.2559292889 0.8361537142
0.5733044111 0.0859398102 0.4895875338
0.4851982146 0.1389940255 0.7699338589
0.0627232319 0.9115554505 0.0666824256
0.5906809238 0.1091888334 0.8571547756
