Na1 Sb1 Te2
1.0
   7.6683134500000003   -2.2005466000000000    0.0082454000000000
   7.6683134500000003    2.2005466000000000    0.0082454000000000
   7.0327902499999997   -0.0000000000000000    3.7663464900000001
Na Sb Te
1 1 2
direct
  -0.0000000000000000   -0.0000000000000000   -0.0000000000000000 Na
   0.5000000000000000    0.5000000000000000    0.5000000000000000 Sb
   0.2440632900000000    0.2440632900000000    0.2440632900000000 Te
   0.7559367100000001    0.7559367100000001    0.7559367100000001 Te
