As8 Se12                                
   1.00000000000000     
     0.0000000000000000   12.1609669720047489    2.1573944545072785
     5.0820474198835752    0.0000000000000000    0.0000000000000000
     0.0000000000000000   -1.2787046594686926   -7.9960271549747164
   As   Se
     8    12
Direct
  0.6717313573990981  0.5000000000000000  0.1196638779145694
  0.8282686426009017  0.0000000000000000  0.8803361220854311
  0.6371028354923287  0.0000000000000000  0.4176787743409064
  0.8628971645076713  0.5000000000000000  0.5823212256590936
  0.1717313573990982  0.0000000000000000  0.1196638779145694
  0.3282686426008946  0.5000000000000000  0.8803361220854311
  0.1371028354923296  0.5000000000000000  0.4176787743409063
  0.3628971645076707  0.0000000000000000  0.5823212256590936
  0.6290601240834335  0.5000000000000000  0.4113492648817616
  0.8709398759165665  0.0000000000000000  0.5886507351182393
  0.6514512870534334  0.0000000000000000  0.0955626199570431
  0.8485487129465666  0.5000000000000000  0.9044373800429567
  0.8837529716814021  0.5000000000000000  0.2739605789398906
  0.6162470283185979  0.0000000000000000  0.7260394210601092
  0.1290601240834341  0.0000000000000000  0.4113492648817615
  0.3709398759165658  0.5000000000000000  0.5886507351182393
  0.1514512870534339  0.5000000000000000  0.0955626199570430
  0.3485487129465662  0.0000000000000000  0.9044373800429567
  0.3837529716814023  0.0000000000000000  0.2739605789398906
  0.1162470283185978  0.5000000000000000  0.7260394210601091
 
  0.00000000E+00  0.00000000E+00  0.00000000E+00
  0.00000000E+00  0.00000000E+00  0.00000000E+00
  0.00000000E+00  0.00000000E+00  0.00000000E+00
  0.00000000E+00  0.00000000E+00  0.00000000E+00
  0.00000000E+00  0.00000000E+00  0.00000000E+00
  0.00000000E+00  0.00000000E+00  0.00000000E+00
  0.00000000E+00  0.00000000E+00  0.00000000E+00
  0.00000000E+00  0.00000000E+00  0.00000000E+00
  0.00000000E+00  0.00000000E+00  0.00000000E+00
  0.00000000E+00  0.00000000E+00  0.00000000E+00
  0.00000000E+00  0.00000000E+00  0.00000000E+00
  0.00000000E+00  0.00000000E+00  0.00000000E+00
  0.00000000E+00  0.00000000E+00  0.00000000E+00
  0.00000000E+00  0.00000000E+00  0.00000000E+00
  0.00000000E+00  0.00000000E+00  0.00000000E+00
  0.00000000E+00  0.00000000E+00  0.00000000E+00
  0.00000000E+00  0.00000000E+00  0.00000000E+00
  0.00000000E+00  0.00000000E+00  0.00000000E+00
  0.00000000E+00  0.00000000E+00  0.00000000E+00
  0.00000000E+00  0.00000000E+00  0.00000000E+00
