POSCAR                                  
   1.00000000000000     
    22.0035911595442357    0.0000000000000000    0.0000000000000000
     0.0000000000000000   22.0035911595442357    0.0000000000000000
     0.0000000000000000    0.0000000000000000   22.0035911595442357
   Sn   Sb   Te
    43    86   172
Direct
  0.3795077432814313  0.1380698873738343  0.7049932207314882
  0.5577517348341628  0.8824773370480549  0.4258081177798569
  0.3136412805538862  0.7377586463479497  0.2581406282135505
  0.2784164701317828  0.1635025246737966  0.2688966160491045
  0.1575167742581820  0.8288440815899368  0.1877781178554680
  0.1608484001381898  0.4182774967988709  0.5876627576199408
  0.9580384099711051  0.4225453169481823  0.3971703941215151
  0.5401856513316827  0.1174595315736880  0.5249713087038785
  0.0873933371173167  0.9344119245378899  0.5534257286384955
  0.9254606948118146  0.0524207858574524  0.5185442347913831
  0.6603433610370057  0.7465516491316119  0.3405923778513253
  0.1267647923931364  0.1513576830340202  0.8551618903337043
  0.3682205089898994  0.4788497111537983  0.5201721761132215
  0.0573310649052643  0.4372305669645332  0.0905497196769086
  0.6166670950100396  0.0452144221297038  0.3076917512244871
  0.8772185167711748  0.8970410838839175  0.0955139147833561
  0.6360901968240128  0.2172206923742629  0.7132721997819331
  0.2096221433357333  0.0452917307951740  0.0161231686246703
  0.9349465228010098  0.1411646820377433  0.9785782109195553
  0.7585449134674878  0.5645441009148066  0.7527065103738569
  0.2524049170647356  0.5400459083481585  0.0272953108570527
  0.4230670956496458  0.2844711372499535  0.5740263911352633
  0.5982781003068531  0.2360487027075916  0.9056482712472387
  0.9315964620992244 -0.0075756491081186  0.7166528166650438
  0.5556333006976897  0.0453981872665556  0.6516805768199572
  0.4807029938609897  0.9966703513770756  0.4540881511664634
  0.9381169700800797  0.7932147235436616  0.9454441247821049
  0.7131900491761621  0.8525493760396700  0.0992718613474324
  0.5857399814961105  0.9940882332441374  0.8282574920716630
  0.9524586511044285  0.1692825267213400  0.1509936892265412
  0.1837825337977884  0.5460385765918024  0.3487352240413919
  0.8072020096072806  0.1889833365128459  0.8931710133536380
  0.3301557932084191  0.1178095569916721  0.4762367577741798
  0.4174190179652638  0.8768254625780418  0.2430977386890582
  0.2863419699920291  0.3212150238978900  0.8148354243900545
  0.8682951224594418  0.7323589222648953  0.6919656015417172
  0.6995098647665801  0.8578217277299386  0.7099676492998216
  0.9711533287075471  0.4696901841425746  0.6014514347681751
  0.8770662018867633  0.8531634996110394  0.4896316077374550
  0.4657130076092315  0.9865191323700616  0.0282261637117648
  0.1187624485342891  0.8738409058251126  0.9248186046858231
  0.7089359969166634  0.4980101711345665  0.0627628447638559
  0.8784876791049514  0.5789520683556414  0.8859717891267171
  0.8522862107385314  0.2252857500332203  0.5533207805388082
  0.0287714214649973  0.1090053815549489  0.3754842879244846
  0.5536309344422038  0.2887634021119581  0.4258596503786962
  0.7642824193759841  0.5060093356984479  0.3688895727250769
  0.4569941005897830  0.7634222292990643  0.4178540181614749
  0.5456176376923234  0.9531377135312255  0.1459810280592496
  0.7595069554045245  0.0580987844657427  0.2911119866275616
  0.9185706098894553  0.9756413124998589  0.8628973086126431
  0.7320482220920150  0.9797682400998962  0.1486813909473478
  0.7366176014593551  0.0328229841151005  0.6289102797248954
  0.7740792311879193  0.6520644151559470  0.0343326090904719
  0.7405592066319815  0.1879561896680077  0.4867088466720115
  0.7672909074927958  0.2704176362732224  0.6427751523646736
  0.4266253036834781  0.0747699610100964  0.1802623601242477
  0.6994742753076769  0.3049227750613319  0.0176430877336091
  0.5076097228147921  0.4897210101169575  0.6193495094049745
  0.7089859161880919  0.0324574413822276  0.9084040767709163
  0.2856165434850342  0.4683683370659433  0.2889344204204767
  0.8090313440485787  0.9000287803356380  0.6444335325066524
  0.9089238215853689  0.0222575034844941  0.3753235737375605
  0.4815264892148136  0.6687681576127181  0.3260658320163924
  0.0421583359994487  0.3120371789953647  0.6938632753023712
  0.5806969636958629  0.4425769070134739  0.7223237219155578
  0.1636447091364465  0.1690391805098592  0.5098581709514663
  0.2654051718419507  0.9688859479846414  0.1470649649577173
  0.2099207610108364  0.9353157912505472  0.6434064182902036
  0.8262107162569391  0.8843514875057500  0.8910856647348030
  0.7105089656568491  0.2354198742144747  0.3145342323366536
  0.5344471485695955  0.6354567727298542  0.5572903329614347
  0.3491150895289987  0.7217831099240214  0.8845999034650510
  0.5711023048969130  0.8789459202702907  0.9823217333386007
  0.6381972833402922  0.3380269813699181  0.2650125582893712
  0.0063402166431946  0.1640500963382366  0.6647120123810087
  0.5488621627306186  0.1687157239005964  0.0618821394979816
  0.7721715914288643  0.7416744026358877  0.8537826742957998
  0.4911580559624563  0.1720809408748150  0.3097939043198069
  0.5344457099883457  0.6323920610725230  0.1048910691129533
  0.9235488796870145  0.5566633538381650  0.4479915207850057
  0.1108156618090483  0.1781350161561302  0.2063942331222597
  0.6466317950573274  0.5962128428539029  0.1640920522237859
  0.5109159320095601  0.8877866011980106  0.6482239010233432
  0.3633013349092536  0.2769542439359882  0.0913694727730451
  0.0544271974831804  0.6510153741713841  0.2673861973502609
  0.8572387437382550  0.5982306401342340  0.3387004499308449
  0.5802226963004484  0.8309741204508134  0.1041756431028149
  0.1649211668762410  0.6665584005412331  0.6311596940150500
  0.9609133031136583  0.7485458086264447  0.4984241618598770
  0.1050733118325229  0.7352369811471291  0.8698633820336683
  0.1592620172275112  0.5939655338078743  0.2033309346850543
  0.3519937428045176  0.5821420555608536  0.2641529028037448
  0.7811395272183577  0.4835760020347975  0.9466599783905815
  0.1237821958073083  0.7200973257082702  0.0391838145284847
  0.3019370894446116  0.9469522646271009  0.9314056593809117
  0.4527996551407662  0.4595245572011786  0.1167697653534399
  0.2850469062046127  0.6417813755253337  0.7941993361288138
  0.1535272759908213  0.1315959740644687  0.3273043075356604
  0.5872285976462436  0.4315641007365279  0.5296542689620695
  0.2243189128018127  0.3077492645152973  0.1411091792519803
  0.4836113814493800  0.4723760887984780  0.3465852986394332
  0.4976820153130007  0.6691054780623880  0.6820290489348837
  0.0319615125518538  0.1548820993542818  0.4995212370722508
  0.0943973041627536  0.6846816069085930  0.4723494028257421
  0.3852263063547103  0.9686369367231716  0.6210640633767966
  0.4312085014586943  0.9519365344734283  0.9020222974752344
  0.8610980240303793  0.6448883596695409  0.5309569199894824
  0.6506079266116226  0.7773600599881736  0.9394119364068559
  0.7959192161403063  0.3768765029651092  0.3578038914177044
  0.0910363571516437  0.0655001803632074  0.6382432973445820
  0.9465194819057152  0.4339382461538455  0.7781562372561190
  0.6066300996373688  0.4951836765211551  0.2415504621121040
  0.3155245268378287  0.1158922405706150  0.9302061342735335
  0.9706286983155404  0.2985342263178211  0.8307151132748500
  0.2189550408604165  0.5472677323085353  0.6173315210354055
  0.4789784133151014  0.9802503324798771  0.7399480218409537
  0.3946319390067078  0.1971655429552455  0.2152963031904162
  0.7520408152874372  0.9177613786986725  0.4585319471165558
  0.3493690186745931  0.7667771993806936  0.0741043288889259
  0.2352495102220850  0.9780854857560126  0.8170654095163953
  0.3561006889357328  0.8800093355566887  0.5250618171786126
  0.2815083511383304  0.4281953865025266  0.1604920503510273
  0.1629972886669805  0.2490313734006617  0.4014355399227513
  0.1657318082848208  0.6192433916680127  0.8526923539145866
  0.8054746847191769  0.2251716472340554  0.0938880605192786
  0.4059680960045441  0.5760486994696675  0.3849748237656251
  0.7137370458299829  0.3138946485615112  0.5295775377135115
  0.5132742975578861  0.8240346029840070  0.8362406758655905
  0.3886682485373548  0.6858451098532730  0.4997817351047963
  0.0593995399265688  0.5769845343187080  0.5621033043643324
  0.8489650118520304  0.1015666967473751  0.0903707054011936
  0.9627791289941885  0.7495640852554893  0.3648795323665142
  0.1757668576089643  0.1487762623316746  0.6854702439847468
  0.2670216616294163  0.1129040455977994  0.8086157916199620
  0.9425684331800995  0.3312366950755864  0.6096874183836454
  0.4542358478147593  0.8246805155105446  0.9627525030862295
  0.3055287325837792  0.0696724283455989  0.6063878322492494
  0.0891918370321398  0.9768057994677174  0.4276499738441090
  0.8900572001118923  0.0703855159838902  0.2506092238578606
  0.5398609829861936  0.7689713400349306  0.5485688049444751
  0.6998397247358568  0.1392828712580444 -0.0188136599096383
  0.1688212825958105  0.3359372918119198  0.8887199057148856
  0.4277514824780637  0.0858845010170542  0.8555236098252335
  0.0354105482078850  0.7761786367853148  0.1428874135083651
  0.1268983974535227  0.3284183091414047  0.0608689320191162
  0.5216682327080835  0.5353059501739413  0.0166931272906215
  0.3181339622364999  0.9023690374078375  0.7089638565215554
  0.0629987553590499  0.4430063978649265  0.7046655072602990
  0.0444372754981293  0.4312326017949876  0.3003214047462275
  0.1468413452604782  0.4668186462233906  0.1852571118914450
  0.0784632538410513  0.6126520626535936  0.0984147346378845
  0.8835274124822000  0.8571998450024951  0.7417918955371192
  0.9111803141225443  0.6894319245138361  0.1977365457751224
  0.1569636646388170  0.2898473987989413  0.2518086293870226
  0.5534861116317829  0.8327740342672914  0.3045391605544481
  0.1010026684179920  0.7857214465736403  0.3860016463974726
  0.5758812798482809  0.8019500272142468  0.7146625704950412
  0.7057287400099465  0.2521368756278527  0.8261431775626430
  0.2237264260516186  0.5118681850484130  0.7422513389995051
  0.3527703362962223  0.9726534334188243  0.4350992588361363
  0.0924422974840836  0.0310332465359148  0.0766923510286782
  0.9501852951231919  0.0047918780940123  0.1523592890211324
  0.5835257296410884  0.3083478238994848  0.5730135582624176
  0.0062196879707999  0.8615594912026727  0.8495984252122024
  0.3734895462093629  0.9129261162089639  0.0940697782840428
  0.4272202714941228  0.7552161932124429  0.1811284802228770
  0.2366975058563281  0.5517708600689346  0.4704977466732198
  0.6335662915019048  0.0174341380990082  0.0736969306851081
  0.5499237611180778  0.1249732505768351  0.1903524865181440
  0.3427545389251744  0.5864937477401684  0.6040549971607344
  0.2968638395853632  0.2457160298820526  0.5273175597585562
 -0.0157356242230526  0.1117079419009585  0.7820268711394789
  0.6896727995526202  0.4225994090283903  0.8774778248775531
  0.0013386636093238  0.4521923848119108  0.8952959489860587
  0.2220503163948553  0.1481727687731323  0.1475883714576355
  0.8487754138665435  0.3812742558212911  0.9881761903459915
  0.8547373626612726  0.3517589983692005  0.8643738333872408
  0.9532636451975609  0.5698529490219171  0.2323739226583560
  0.7865907425575314  0.6522354510939291  0.1767329758514623
  0.7993841818302168  0.7869341174294924  0.5801961200578248
  0.5155930782483050  0.3059540154044531  0.2976595346330928
  0.1127710076842889  0.5260520432010181  0.0011391984488043
  0.8283233767497951  0.7741617059383409  0.3805451408556048
  0.7684837671573987  0.6672830524649902  0.4198596834164722
  0.1390293883577648  0.0062862354116520  0.9042115766100401
  0.4532639478778592  0.1993664859519290  0.4417882194296993
  0.6390138839074688  0.7031754149404229  0.0460607645436733
  0.8897176301851633  0.2122685900351762  0.7775325956108834
  0.4700952656767534  0.5540194414161868  0.2111902395711538
  0.4804004813882499  0.4024334394980604  0.4592962738789169
  0.1965703399095886  0.8405436315246766  0.8128873769976113
  0.3697069428896310  0.3954961509780612  0.3474020741315560
  0.8859702630038280  0.1187706874001055  0.6300937569655676
  0.1828799483430781  0.9047125035519016  0.0698784289372978
  0.4353023077507958  0.6137546651134692  0.9576469331344613
  0.4417423091161349  0.2788903564330396  0.9121295204409514
  0.1311567790275955  0.4605708980312056  0.8776041952918197
  0.2238719558271761  0.6620343223644938  0.9687928428625803
  0.0055125354505823  0.2191049894428702  0.3101127136156407
  0.8100483066453532  0.0670430872426263  0.8333563750835363
  0.4998708909702367  0.4448219457746476  0.8239547339208360
  0.1876794926615059  0.0065977876137660  0.2776900231984769
  0.7453403273723388  0.7835258863184404  0.2093881409954816
  0.0363474728775405  0.2909339426275582  0.4931124728651309
  0.8376297046009882  0.3749780274398875  0.6803743117500035
  0.7779702787127827  0.9540348345514126 -0.0102994500624421
  0.6022937648127469  0.7060987164445797  0.2177151632401332
  0.5738476832980060  0.7128969969853640  0.8609572823325203
  0.3194373885877850  0.2529063202384510  0.6626982984000259
  0.6574402915570049  0.3793760750970769  0.3891325045533062
  0.6071373737568739  0.5707964083635858  0.7362254426857510
  0.1536575883166742  0.4184118896472052  0.3651938316240023
  0.8936215125187532  0.5884696740309491  0.0340484767389188
  0.2345040517758532  0.7267676185477679  0.1319967932219422
  0.9854278463786484  0.9113539201942116  0.3870569777628377
  0.4834164799995317  0.0245605616197608  0.3242190320795993
  0.7899099763182692  0.0347352822325470  0.5063234651657667
  0.6483551025240292  0.9288700658212465  0.2366220286820419
  0.5012128528606381  0.5721282803562087  0.8304200644458232
  0.4963883187424061  0.1783155086939455  0.6384015914051195
  0.8414776789384750  0.3602489750630793  0.4814779643052136
  0.8008812653985751  0.7800781050274420  0.0213303182831978
  0.0608131642821783  0.5896968331292242  0.3823921851195815
  0.2737805263385746  0.8190954934851377  0.9410300598582740
  0.7461775168329496  0.6201218102495638  0.8957132552038758
  0.0127928466620000  0.8561467756777664  0.2632667666190532
  0.2628698221353616  0.7243507571122636  0.6986804623972347
  0.8969513060867528  0.7103088194201295  0.8339485608588092
  0.3677185182621271  0.6315504076603755  0.0664954386481526
  0.5787014562981351  0.4262087997025056  0.1299284286033759
  0.6675302478841807  0.1417750337040705  0.5853883102298552
  0.7037277654801419  0.9004984914910762  0.8346625626249977
  0.6204698763370752  0.1714396669603099  0.3847150084811644
  0.7494650504916105  0.3798439469116335  0.1111814293367894
  0.2909044223837605  0.2395041613333246  0.3889462841367500
  0.9397195999853165  0.3287602569932122  0.2083874345847754
  0.1714907653467355  0.7315025086642435  0.2961346219476669
  0.3937317739316824  0.3567576744593908  0.1929037247380935
  0.6515171632386296  0.8015121678921083  0.4724033737796468
  0.8264662888324574  0.5296667214895994  0.1285760707895399
  0.9629431785322210  0.6474240077940481  0.6202557855819454
  0.4198000477201504  0.7551899460411298  0.6110842832973196
  0.5506931541223425  0.2967386685725471  0.7875009793218232
  0.2066222670026018  0.0665659259919145  0.4441193686558418
  0.1286274532601642  0.2866016354970689  0.5948995352405645
  0.9754785536062447 -0.0057074421512472  0.9770128818197277
  0.3118016932458927  0.0370333428792609  0.2893723606151075
  0.6899990178488802  0.5376532548264739  0.6319364056840497
  0.8396883189456064  0.2481216322181874  0.2186379787534302
  0.0680090559050335  0.8027662428926834  0.5530911435555649
  0.4118984013339802  0.1049514090710568  0.0540602421416773
  0.0297521260260287  0.2318901811281481  0.9233853139056689
  0.0529261158579426  0.4353563382512599  0.4990010445783125
  0.8251138288107486  0.5174587725688228  0.5250491791258484
  0.6035409487430405  0.3763849178742554  0.9674715826027235
  0.4229853795367612  0.2727213443393142  0.7773946545781686
  0.9335326740827113  0.2842281861444523  0.3992048666190536
  0.9223992045547086  0.2613985354786413  0.0508681887720396
  0.7162436232399216  0.1555645640559880  0.2115431671279351
  0.3565099091991375  0.8191276089116110  0.3581664514294260
  0.1925011112795622  0.1785752238376682  0.9725643462529396
  0.2237327722220780  0.6854392644055312  0.4878888627815636
  0.0023868050586373  0.8702018829923112  0.0510174535009587
  0.7303662981527879  0.4345127095660158  0.7418383872148853
  0.6419959660226435  0.9430167330264825  0.6067811451876519
  0.3619859989272211  0.4109303251604752  0.9008838500001480
  0.8897383296445976  0.4277204225044784  0.2698465453898535
  0.0620177510164000 -0.0008954236923599  0.7475629423754128
  0.0608184622957637  0.9589588052166097  0.2072446413261287
  0.6469399749573893  0.0813218777538182  0.7423427873638044
  0.8989407889640537  0.5527808005953458  0.7506163661769145
  0.4051920867175620  0.4121159537214530  0.6323044632813616
  0.6353456355296360  0.2534629760534692  0.1167030082985896
  0.4879229635334790  0.2846470892169831  0.0503259924177465
  0.3297101464961403  0.3963736865049687  0.0294872737614257
  0.1573297667079386  0.2593200913740744  0.7778474029844562
  0.0936013219360717  0.6120660379545799  0.7314876574234669
  0.4120660942427757  0.5776556276836327  0.7181862749213903
  0.2313078452650073  0.8564321676331390  0.5419101693121668
  0.5813059442481447  0.6535381801859963  0.4085254304589901
  0.6395365219001413  0.9904074356828605  0.4285201539365617
  0.0392596211578603  0.7252335286793916  0.7600820012013119
  0.6639639983043465  0.6459217519294441  0.5677558802926477
  0.2550827171637275  0.3938078159384932  0.7007850350847014
  0.1304383963630617  0.8488733875848516  0.7006556449141689
  0.2772403764872832  0.5095063379237633  0.8978587098238324
  0.8282093949506564  0.1400888038382707  0.3653544345600443
  0.2789417296994324  0.8773112410837709  0.2435958195617005
  0.6090713354355733  0.5301270275720212  0.3891996363162420
  0.3198481678889767  0.2438055538606249  0.9445411543539739
  0.5419849616337410  0.0956206772857608  0.9123327554403441
  0.8121006738201116  0.9288912016639098  0.3441529027387863
  0.0184816299807269  0.6829404276432174  0.9568930063643708
  0.2543859111545244  0.4121748640606788  0.4908415608605631
  0.0487445028774218  0.1493063772287876  0.0542926643787498
  0.8669274091343786  0.8341766633494568  0.2130498493001935
  0.9549979178331264  0.9414583206319284  0.5835492344043830
  0.7370274354764819  0.4673512656148419  0.2445007883088333
  0.7373875900708522  0.7220608603724424  0.7289795216686705
  0.4058677792403650  0.7734323612214429  0.7821871723538049
 
  0.00000000E+00  0.00000000E+00  0.00000000E+00
  0.00000000E+00  0.00000000E+00  0.00000000E+00
  0.00000000E+00  0.00000000E+00  0.00000000E+00
  0.00000000E+00  0.00000000E+00  0.00000000E+00
  0.00000000E+00  0.00000000E+00  0.00000000E+00
  0.00000000E+00  0.00000000E+00  0.00000000E+00
  0.00000000E+00  0.00000000E+00  0.00000000E+00
  0.00000000E+00  0.00000000E+00  0.00000000E+00
  0.00000000E+00  0.00000000E+00  0.00000000E+00
  0.00000000E+00  0.00000000E+00  0.00000000E+00
  0.00000000E+00  0.00000000E+00  0.00000000E+00
  0.00000000E+00  0.00000000E+00  0.00000000E+00
  0.00000000E+00  0.00000000E+00  0.00000000E+00
  0.00000000E+00  0.00000000E+00  0.00000000E+00
  0.00000000E+00  0.00000000E+00  0.00000000E+00
  0.00000000E+00  0.00000000E+00  0.00000000E+00
  0.00000000E+00  0.00000000E+00  0.00000000E+00
  0.00000000E+00  0.00000000E+00  0.00000000E+00
  0.00000000E+00  0.00000000E+00  0.00000000E+00
  0.00000000E+00  0.00000000E+00  0.00000000E+00
  0.00000000E+00  0.00000000E+00  0.00000000E+00
  0.00000000E+00  0.00000000E+00  0.00000000E+00
  0.00000000E+00  0.00000000E+00  0.00000000E+00
  0.00000000E+00  0.00000000E+00  0.00000000E+00
  0.00000000E+00  0.00000000E+00  0.00000000E+00
  0.00000000E+00  0.00000000E+00  0.00000000E+00
  0.00000000E+00  0.00000000E+00  0.00000000E+00
  0.00000000E+00  0.00000000E+00  0.00000000E+00
  0.00000000E+00  0.00000000E+00  0.00000000E+00
  0.00000000E+00  0.00000000E+00  0.00000000E+00
  0.00000000E+00  0.00000000E+00  0.00000000E+00
  0.00000000E+00  0.00000000E+00  0.00000000E+00
  0.00000000E+00  0.00000000E+00  0.00000000E+00
  0.00000000E+00  0.00000000E+00  0.00000000E+00
  0.00000000E+00  0.00000000E+00  0.00000000E+00
  0.00000000E+00  0.00000000E+00  0.00000000E+00
  0.00000000E+00  0.00000000E+00  0.00000000E+00
  0.00000000E+00  0.00000000E+00  0.00000000E+00
  0.00000000E+00  0.00000000E+00  0.00000000E+00
  0.00000000E+00  0.00000000E+00  0.00000000E+00
  0.00000000E+00  0.00000000E+00  0.00000000E+00
  0.00000000E+00  0.00000000E+00  0.00000000E+00
  0.00000000E+00  0.00000000E+00  0.00000000E+00
  0.00000000E+00  0.00000000E+00  0.00000000E+00
  0.00000000E+00  0.00000000E+00  0.00000000E+00
  0.00000000E+00  0.00000000E+00  0.00000000E+00
  0.00000000E+00  0.00000000E+00  0.00000000E+00
  0.00000000E+00  0.00000000E+00  0.00000000E+00
  0.00000000E+00  0.00000000E+00  0.00000000E+00
  0.00000000E+00  0.00000000E+00  0.00000000E+00
  0.00000000E+00  0.00000000E+00  0.00000000E+00
  0.00000000E+00  0.00000000E+00  0.00000000E+00
  0.00000000E+00  0.00000000E+00  0.00000000E+00
  0.00000000E+00  0.00000000E+00  0.00000000E+00
  0.00000000E+00  0.00000000E+00  0.00000000E+00
  0.00000000E+00  0.00000000E+00  0.00000000E+00
  0.00000000E+00  0.00000000E+00  0.00000000E+00
  0.00000000E+00  0.00000000E+00  0.00000000E+00
  0.00000000E+00  0.00000000E+00  0.00000000E+00
  0.00000000E+00  0.00000000E+00  0.00000000E+00
  0.00000000E+00  0.00000000E+00  0.00000000E+00
  0.00000000E+00  0.00000000E+00  0.00000000E+00
  0.00000000E+00  0.00000000E+00  0.00000000E+00
  0.00000000E+00  0.00000000E+00  0.00000000E+00
  0.00000000E+00  0.00000000E+00  0.00000000E+00
  0.00000000E+00  0.00000000E+00  0.00000000E+00
  0.00000000E+00  0.00000000E+00  0.00000000E+00
  0.00000000E+00  0.00000000E+00  0.00000000E+00
  0.00000000E+00  0.00000000E+00  0.00000000E+00
  0.00000000E+00  0.00000000E+00  0.00000000E+00
  0.00000000E+00  0.00000000E+00  0.00000000E+00
  0.00000000E+00  0.00000000E+00  0.00000000E+00
  0.00000000E+00  0.00000000E+00  0.00000000E+00
  0.00000000E+00  0.00000000E+00  0.00000000E+00
  0.00000000E+00  0.00000000E+00  0.00000000E+00
  0.00000000E+00  0.00000000E+00  0.00000000E+00
  0.00000000E+00  0.00000000E+00  0.00000000E+00
  0.00000000E+00  0.00000000E+00  0.00000000E+00
  0.00000000E+00  0.00000000E+00  0.00000000E+00
  0.00000000E+00  0.00000000E+00  0.00000000E+00
  0.00000000E+00  0.00000000E+00  0.00000000E+00
  0.00000000E+00  0.00000000E+00  0.00000000E+00
  0.00000000E+00  0.00000000E+00  0.00000000E+00
  0.00000000E+00  0.00000000E+00  0.00000000E+00
  0.00000000E+00  0.00000000E+00  0.00000000E+00
  0.00000000E+00  0.00000000E+00  0.00000000E+00
  0.00000000E+00  0.00000000E+00  0.00000000E+00
  0.00000000E+00  0.00000000E+00  0.00000000E+00
  0.00000000E+00  0.00000000E+00  0.00000000E+00
  0.00000000E+00  0.00000000E+00  0.00000000E+00
  0.00000000E+00  0.00000000E+00  0.00000000E+00
  0.00000000E+00  0.00000000E+00  0.00000000E+00
  0.00000000E+00  0.00000000E+00  0.00000000E+00
  0.00000000E+00  0.00000000E+00  0.00000000E+00
  0.00000000E+00  0.00000000E+00  0.00000000E+00
  0.00000000E+00  0.00000000E+00  0.00000000E+00
  0.00000000E+00  0.00000000E+00  0.00000000E+00
  0.00000000E+00  0.00000000E+00  0.00000000E+00
  0.00000000E+00  0.00000000E+00  0.00000000E+00
  0.00000000E+00  0.00000000E+00  0.00000000E+00
  0.00000000E+00  0.00000000E+00  0.00000000E+00
  0.00000000E+00  0.00000000E+00  0.00000000E+00
  0.00000000E+00  0.00000000E+00  0.00000000E+00
  0.00000000E+00  0.00000000E+00  0.00000000E+00
  0.00000000E+00  0.00000000E+00  0.00000000E+00
  0.00000000E+00  0.00000000E+00  0.00000000E+00
  0.00000000E+00  0.00000000E+00  0.00000000E+00
  0.00000000E+00  0.00000000E+00  0.00000000E+00
  0.00000000E+00  0.00000000E+00  0.00000000E+00
  0.00000000E+00  0.00000000E+00  0.00000000E+00
  0.00000000E+00  0.00000000E+00  0.00000000E+00
  0.00000000E+00  0.00000000E+00  0.00000000E+00
  0.00000000E+00  0.00000000E+00  0.00000000E+00
  0.00000000E+00  0.00000000E+00  0.00000000E+00
  0.00000000E+00  0.00000000E+00  0.00000000E+00
  0.00000000E+00  0.00000000E+00  0.00000000E+00
  0.00000000E+00  0.00000000E+00  0.00000000E+00
  0.00000000E+00  0.00000000E+00  0.00000000E+00
  0.00000000E+00  0.00000000E+00  0.00000000E+00
  0.00000000E+00  0.00000000E+00  0.00000000E+00
  0.00000000E+00  0.00000000E+00  0.00000000E+00
  0.00000000E+00  0.00000000E+00  0.00000000E+00
  0.00000000E+00  0.00000000E+00  0.00000000E+00
  0.00000000E+00  0.00000000E+00  0.00000000E+00
  0.00000000E+00  0.00000000E+00  0.00000000E+00
  0.00000000E+00  0.00000000E+00  0.00000000E+00
  0.00000000E+00  0.00000000E+00  0.00000000E+00
  0.00000000E+00  0.00000000E+00  0.00000000E+00
  0.00000000E+00  0.00000000E+00  0.00000000E+00
  0.00000000E+00  0.00000000E+00  0.00000000E+00
  0.00000000E+00  0.00000000E+00  0.00000000E+00
  0.00000000E+00  0.00000000E+00  0.00000000E+00
  0.00000000E+00  0.00000000E+00  0.00000000E+00
  0.00000000E+00  0.00000000E+00  0.00000000E+00
  0.00000000E+00  0.00000000E+00  0.00000000E+00
  0.00000000E+00  0.00000000E+00  0.00000000E+00
  0.00000000E+00  0.00000000E+00  0.00000000E+00
  0.00000000E+00  0.00000000E+00  0.00000000E+00
  0.00000000E+00  0.00000000E+00  0.00000000E+00
  0.00000000E+00  0.00000000E+00  0.00000000E+00
  0.00000000E+00  0.00000000E+00  0.00000000E+00
  0.00000000E+00  0.00000000E+00  0.00000000E+00
  0.00000000E+00  0.00000000E+00  0.00000000E+00
  0.00000000E+00  0.00000000E+00  0.00000000E+00
  0.00000000E+00  0.00000000E+00  0.00000000E+00
  0.00000000E+00  0.00000000E+00  0.00000000E+00
  0.00000000E+00  0.00000000E+00  0.00000000E+00
  0.00000000E+00  0.00000000E+00  0.00000000E+00
  0.00000000E+00  0.00000000E+00  0.00000000E+00
  0.00000000E+00  0.00000000E+00  0.00000000E+00
  0.00000000E+00  0.00000000E+00  0.00000000E+00
  0.00000000E+00  0.00000000E+00  0.00000000E+00
  0.00000000E+00  0.00000000E+00  0.00000000E+00
  0.00000000E+00  0.00000000E+00  0.00000000E+00
  0.00000000E+00  0.00000000E+00  0.00000000E+00
  0.00000000E+00  0.00000000E+00  0.00000000E+00
  0.00000000E+00  0.00000000E+00  0.00000000E+00
  0.00000000E+00  0.00000000E+00  0.00000000E+00
  0.00000000E+00  0.00000000E+00  0.00000000E+00
  0.00000000E+00  0.00000000E+00  0.00000000E+00
  0.00000000E+00  0.00000000E+00  0.00000000E+00
  0.00000000E+00  0.00000000E+00  0.00000000E+00
  0.00000000E+00  0.00000000E+00  0.00000000E+00
  0.00000000E+00  0.00000000E+00  0.00000000E+00
  0.00000000E+00  0.00000000E+00  0.00000000E+00
  0.00000000E+00  0.00000000E+00  0.00000000E+00
  0.00000000E+00  0.00000000E+00  0.00000000E+00
  0.00000000E+00  0.00000000E+00  0.00000000E+00
  0.00000000E+00  0.00000000E+00  0.00000000E+00
  0.00000000E+00  0.00000000E+00  0.00000000E+00
  0.00000000E+00  0.00000000E+00  0.00000000E+00
  0.00000000E+00  0.00000000E+00  0.00000000E+00
  0.00000000E+00  0.00000000E+00  0.00000000E+00
  0.00000000E+00  0.00000000E+00  0.00000000E+00
  0.00000000E+00  0.00000000E+00  0.00000000E+00
  0.00000000E+00  0.00000000E+00  0.00000000E+00
  0.00000000E+00  0.00000000E+00  0.00000000E+00
  0.00000000E+00  0.00000000E+00  0.00000000E+00
  0.00000000E+00  0.00000000E+00  0.00000000E+00
  0.00000000E+00  0.00000000E+00  0.00000000E+00
  0.00000000E+00  0.00000000E+00  0.00000000E+00
  0.00000000E+00  0.00000000E+00  0.00000000E+00
  0.00000000E+00  0.00000000E+00  0.00000000E+00
  0.00000000E+00  0.00000000E+00  0.00000000E+00
  0.00000000E+00  0.00000000E+00  0.00000000E+00
  0.00000000E+00  0.00000000E+00  0.00000000E+00
  0.00000000E+00  0.00000000E+00  0.00000000E+00
  0.00000000E+00  0.00000000E+00  0.00000000E+00
  0.00000000E+00  0.00000000E+00  0.00000000E+00
  0.00000000E+00  0.00000000E+00  0.00000000E+00
  0.00000000E+00  0.00000000E+00  0.00000000E+00
  0.00000000E+00  0.00000000E+00  0.00000000E+00
  0.00000000E+00  0.00000000E+00  0.00000000E+00
  0.00000000E+00  0.00000000E+00  0.00000000E+00
  0.00000000E+00  0.00000000E+00  0.00000000E+00
  0.00000000E+00  0.00000000E+00  0.00000000E+00
  0.00000000E+00  0.00000000E+00  0.00000000E+00
  0.00000000E+00  0.00000000E+00  0.00000000E+00
  0.00000000E+00  0.00000000E+00  0.00000000E+00
  0.00000000E+00  0.00000000E+00  0.00000000E+00
  0.00000000E+00  0.00000000E+00  0.00000000E+00
  0.00000000E+00  0.00000000E+00  0.00000000E+00
  0.00000000E+00  0.00000000E+00  0.00000000E+00
  0.00000000E+00  0.00000000E+00  0.00000000E+00
  0.00000000E+00  0.00000000E+00  0.00000000E+00
  0.00000000E+00  0.00000000E+00  0.00000000E+00
  0.00000000E+00  0.00000000E+00  0.00000000E+00
  0.00000000E+00  0.00000000E+00  0.00000000E+00
  0.00000000E+00  0.00000000E+00  0.00000000E+00
  0.00000000E+00  0.00000000E+00  0.00000000E+00
  0.00000000E+00  0.00000000E+00  0.00000000E+00
  0.00000000E+00  0.00000000E+00  0.00000000E+00
  0.00000000E+00  0.00000000E+00  0.00000000E+00
  0.00000000E+00  0.00000000E+00  0.00000000E+00
  0.00000000E+00  0.00000000E+00  0.00000000E+00
  0.00000000E+00  0.00000000E+00  0.00000000E+00
  0.00000000E+00  0.00000000E+00  0.00000000E+00
  0.00000000E+00  0.00000000E+00  0.00000000E+00
  0.00000000E+00  0.00000000E+00  0.00000000E+00
  0.00000000E+00  0.00000000E+00  0.00000000E+00
  0.00000000E+00  0.00000000E+00  0.00000000E+00
  0.00000000E+00  0.00000000E+00  0.00000000E+00
  0.00000000E+00  0.00000000E+00  0.00000000E+00
  0.00000000E+00  0.00000000E+00  0.00000000E+00
  0.00000000E+00  0.00000000E+00  0.00000000E+00
  0.00000000E+00  0.00000000E+00  0.00000000E+00
  0.00000000E+00  0.00000000E+00  0.00000000E+00
  0.00000000E+00  0.00000000E+00  0.00000000E+00
  0.00000000E+00  0.00000000E+00  0.00000000E+00
  0.00000000E+00  0.00000000E+00  0.00000000E+00
  0.00000000E+00  0.00000000E+00  0.00000000E+00