Sb                                      
   1.00000000000000     
    17.2273007965000005    0.0000000000000000    0.0000000000000000
     0.0000000000000000   17.2273007965000005    0.0000000000000000
     0.0000000000000000    0.0000000000000000   17.2273007965000005
   Si   Se
    66   132
Direct
  0.8581464389117323  0.0339491062197187  0.3257674149265574
  0.1283248078426351  0.9611515741603361  0.0101556307561473
  0.6932679355591544  0.2328542313710086  0.6778598522821695
  0.4293490604802671  0.5366163612740642  0.2090117118243822
  0.1749452475752078  0.6252258938163008  0.8532372787932638
  0.3824147306545316  0.9883056039976925  0.8029812274863211
  0.5075108746873384  0.9036663686384055  0.1848485387347460
  0.7917621078858152  0.1507235287422049  0.2851785722307170
  0.9784726260293939  0.0950250121080522  0.2955094611150419
  0.2783116081425519  0.9576255953964142  0.6239968233166887
  0.1241977280214815  0.9461015276200615  0.3281217564674304
  0.9882660993476979  0.2077703210554530  0.5530614747410988
  0.0185017512535508  0.6550566728719339  0.7452762012682422
  0.1873664973989580  0.7730155745621362  0.1082205573386182
  0.0723852600804771  0.3944689039203171  0.4003618276443753
  0.6501119241624376  0.3081286483767834  0.5763419304384444
  0.7487490020344647  0.3845064846458349  0.9137811270064646
  0.7630442508529693  0.8069947344593490  0.9788608962469874
  0.5023267768224753  0.3072710083425690  0.7007261037814356
  0.0282639876173985  0.8492139808319430  0.0708174263947990
  0.2827276597745023  0.0854985530895019  0.4858893619980466
  0.1801315282584081  0.3320288270318505  0.2382971121925834
  0.5871169433522525  0.9121219674709096  0.4591088439923507
  0.3961303801785497  0.7015753827104619  0.2414217184034355
  0.1815653892893861  0.9954843877891673  0.8856921340329837
  0.9362410240682283  0.8942436132647975  0.8616498005672458
  0.7781539767488586  0.1996271159797566  0.0578707249901506
  0.8965454142852132  0.2591286577642316  0.4253450017236878
  0.4617267191969714  0.1745605212866387  0.0478416056556464
  0.6972874079204557  0.7882215286377364  0.8590098239191168
  0.9772863538694605  0.4954960187386021  0.5289337359827120
  0.8202632961317854  0.9651432907188885  0.8866267302296388
  0.7603362347536503  0.5396050883376859  0.3247939631062306
  0.5521272605062010  0.4867064714724650  0.8287133483375489
  0.3926384642440932  0.7647765856027694  0.0116755028487222
  0.1457562683138388  0.6015328756161423  0.9861024234140933
  0.3732452590929569  0.2611181382078611  0.6630997111467735
  0.4764505891628694  0.3753327079236597  0.1546617833044960
  0.2422187042125929  0.7034730375310608  0.4771123462509822
  0.5555397799084991  0.8321124584302800  0.9972952219505510
  0.4681393512045435  0.5696095862650200  0.7594075501270773
  0.0795359435307498  0.1741127182179155  0.1232560484507302
  0.6632819008127707  0.2125466951565823  0.9827684954917679
  0.7790983622070711  0.3324214953090750  0.3909595233281726
  0.8629288448956935  0.4884922852477094  0.0674418719843301
  0.6937882217032604  0.4791629365969173  0.8287180807873241
  0.8769798495276980  0.7324330844941463  0.0041922064918993
  0.7459329396624480  0.5924935489950890  0.8820825721146301
  0.6154184207052734  0.1002296695638297  0.5706254703776480
  0.4780186482047144  0.9344514346125073  0.6339225744384157
  0.0578281504805460  0.8669906522147263  0.6640696168689159
  0.8830884250328583  0.0948112127428174  0.8949956076521198
  0.7748025765818295  0.6314971776471892  0.0149414156294708
  0.7928960385541405  0.8696421204204878  0.3470462935044898
  0.1435897680107537  0.7621112083965949  0.6434337936438540
  0.3562341387359358  0.5649483350408741  0.5669452679994466
  0.9971701858312551  0.0063983799593120  0.7973911732527105
  0.8763073199087587  0.6570120239780858  0.3630602901748486
  0.1705097679349606  0.1992636861000122  0.9774718891806168
  0.1137984428379071  0.8778732065854714  0.1707235156723841
  0.3241618106172625  0.2656201808879087  0.4822651345890038
  0.8401659316510622  0.5635573486173704  0.6863411622949176
  0.9042410205791744  0.9288549459696022  0.6291512205753067
  0.7994095538026936  0.1931930006524746  0.8414394135315107
  0.9626126410253488  0.6310321779273595  0.5390627460214155
  0.3780442068977728  0.5846621228392146  0.8675363315324137
  0.0059233317756080  0.0655512464440369  0.1621867914449068
  0.1946775862847054  0.9753458266862828  0.2162738463146898
  0.3473432719365960  0.7691706368487773  0.4256337515598697
  0.9674382214387707  0.7596192306772181  0.9036718208565661
  0.3830952615849953  0.9514184227237072  0.5350494456091508
  0.8370389503164675  0.2807094035631964  0.9348211652578188
  0.7970747765501889  0.5845669296119039  0.4510400543628272
  0.0100791951343023  0.5782229268629884  0.9752166502177225
  0.3584149270331957  0.4210595987276490  0.2055958670058367
  0.7953156890071751  0.9499100087688479  0.2381102844512763
  0.4076004040386866  0.9996907893792334  0.2033262773684117
  0.2904052937103920  0.7679076940654305  0.2955811770990016
  0.3044990994317481  0.3481484797678712  0.5845822917289739
  0.7309923034892671  0.4791672068872672  0.6937644047045095
  0.6644009081906996  0.6228711548718359  0.2648083305737535
  0.8598545065430291  0.6248231110856596  0.8070011609088640
  0.3982368934930496  0.1629206713008157  0.9265216101189536
  0.1855412958308348  0.1067369841480837  0.0722837000362053
  0.3097356553718433  0.8179830446947941  0.1096222663983569
  0.1251589144832337  0.2488676355152599  0.6049232554153663
  0.5654074831832253  0.4050849792275354  0.6241708428400941
  0.3070191404246574  0.5144091618803031  0.4509157378909930
  0.5697620861373509  0.6349379604796407  0.5925272295521978
  0.2795435048576302  0.1518512916783610  0.2569540466365280
  0.8644080543317851  0.4642996950421101  0.9377461434681075
  0.5653412324337311  0.8528057344879404  0.5806762113541514
  0.6923632071276511  0.7227866125734608  0.0727806034758108
  0.9070012771227050  0.3698330548326197  0.1208428511742508
  0.4281966636116257  0.4118946410795012  0.4714387817796378
  0.0355185503064147  0.2610520006832724  0.4224705242859882
  0.1287773122738327  0.7404506890755370  0.7890539746491977
  0.2098028851543987  0.3752899212643255  0.3642784247196700
  0.7998022585238560  0.2838756556154953  0.7413884792430143
  0.0197366652905342  0.9350928486625553  0.5560407752031922
  0.7399381434831882  0.9614940204943778  0.7722066803003710
  0.9098821434603628  0.2169556080731853  0.2736664007785765
  0.8983154891887080  0.2977733637725238  0.5654743854736783
  0.2705947348099083  0.5611129996202776  0.7873703486065975
  0.9856203072932148  0.9501478334723807  0.9860334148632227
  0.5094975490144579  0.1770267666961745  0.2270702404530464
  0.3348729109344618  0.7126361914221103  0.8972813758293080
  0.8757374454813704  0.1085252437386097  0.0290073251016263
  0.2626097392998479  0.3002772657541632  0.9747141633485782
  0.8339422619628949  0.7559130513002160  0.2829705699756083
  0.0794732383152555  0.6386782126256496  0.6117768856396028
  0.0537797814696063  0.2606125493600718  0.0235870693799613
  0.2145527761147580  0.1973436591118338  0.4490220801897444
  0.4096549404941975  0.1536810034705812  0.3223712001704607
  0.1327265928836036  0.8055039391733918  0.9905933387939517
  0.4335561189368003  0.8759641875457379  0.7433561527878000
  0.6476263407268159  0.0318947046847626  0.4655142024558518
  0.3574045179043990  0.6278553925608298  0.1347317221600531
  0.9809223619242314  0.7052092163996929  0.4283336284800723
  0.4030766954428678  0.4871650512705507  0.6707254991383981
  0.3036253643343411  0.0598821082127397  0.7151120980324184
  0.5852368668667141  0.2213540529768896  0.7594240862280922
  0.0111558047182580  0.1243025167115861  0.8635843864610693
  0.9391598505761263  0.7649714867913958  0.1232921133643205
  0.2744712118200421  0.6732096620033357  0.6048306527139101
  0.7314960679401097  0.1250613475977000  0.1728606727576062
  0.1706436557664571  0.3903101555036215  0.8962707406486652
  0.6045165031736477  0.9125328851524648  0.0933469265241087
  0.5300702553663121  0.5269140055693811  0.9575143615658843
  0.1881431924812965  0.0409251693126557  0.5677442827424555
  0.5631291425715205  0.3074599840339388  0.2263380661279004
  0.7447713429735313  0.4090457552233493  0.2840791395503485
  0.7853589171531613  0.3049264069454851  0.1459788992385532
  0.8839277027088636  0.9346331350920444  0.4210453392486047
  0.1485039883948743  0.6474496316744189  0.1233041508896475
  0.5109621084852559  0.6865901858712203  0.7076307117832202
  0.8536901883198542  0.6751691503936368  0.6071880557630954
  0.1105685567462219  0.3587191665540483  0.6936916836816943
  0.6098445905795092  0.6557590078904566  0.3879233954085315
  0.5440341722761920  0.4881336600573046  0.1594901281003926
  0.3847410335055361  0.1577557717009215  0.5465087504756834
  0.2842224268131034  0.2633118219120284  0.1708301616609522
  0.5261335429415641  0.4399140507763666  0.3734626572002429
  0.3155554546352266  0.2503074431560636  0.7749191719980624
  0.9307128139150881  0.4321493246341959  0.4164741507107788
  0.6320001285948923  0.3433764172771233  0.9709625746388253
  0.6825151352816932  0.8233309257346267  0.4249414221034852
  0.0899941439680891  0.2282619811039530  0.2467078063252449
  0.0358222221965522  0.1427650227272267  0.6581879699311322
  0.1888850299053733  0.6069166729539148  0.4120527804852951
  0.2523942087643503  0.8405839768264867  0.6764329263119063
  0.9115060591452296  0.1271022349353723  0.4662913263108371
  0.3895701912433357  0.5010837404686486  0.9719864272952712
  0.9693552301995908  0.5743654474356722  0.1089714268029504
  0.6173671163225067  0.5221739833347118  0.4345927584391115
  0.2932575688344985  0.9251346934094169  0.8866623897745447
  0.7351291807468837  0.1131962054926516  0.6299749743230886
  0.1304968090404039  0.4397590827398018  0.1736078669273367
  0.0429189176375133  0.8480660314840608  0.2776850189831820
  0.5850070185791587  0.1259034249698222  0.0442724852255901
  0.6407287096157360  0.6697649796500194  0.8502713873461909
  0.9098032382847255  0.0457966818398613  0.6939820245118260
  0.1314291500017045  0.7906094635835986  0.4965864918097374
  0.2269546495237802  0.4950203664137375  0.0018790293626538
  0.9397320014618389  0.8287951431467029  0.7140300937471142
  0.0716649670149925  0.5466194400646875  0.8140354774772612
  0.6046647142787086  0.8797876549662772  0.8815321404300333
  0.7555970057149985  0.8250542405218071  0.7394154129004953
  0.5942008428007057  0.9590483032564024  0.2735471037571589
  0.4906454363066799  0.9483095402359512  0.3736069551667511
  0.8808539993002933  0.5610180665160985  0.2649304888269538
  0.4000833365370668  0.3047115588526073  0.3741014123120456
  0.7387761607005144  0.3919977951427860  0.5063434594621126
  0.1073818170086136  0.4465525708192389  0.5238847543403731
  0.3013213223234296  0.0129760222895978  0.3744341335197884
  0.7928691806303092  0.8969606024351388  0.5811194319305830
  0.7828865589469454  0.9372623746309643  0.0103926110409752
  0.6988307457260431  0.2237096201450915  0.3622596501035798
  0.4317708764159786  0.5986512015052750  0.3239814809483850
  0.2050247603162310  0.8991676228436515  0.4259696166886547
  0.1165495094432816  0.9707078200231657  0.7444513939336145
  0.4369845746998998  0.8886877529564886  0.0006216559396938
  0.0725177650701680  0.0626554904285994  0.3868552522773697
  0.3891219861859364  0.0667901952160352  0.0756974031132291
  0.7447905961840030  0.5360689731559268  0.1081213391860237
  0.1960962228234024  0.1251931579730446  0.8543247872805428
  0.0292079682577525  0.4491926467670576  0.2854448744006151
  0.9385242624462838  0.4706115062414005  0.6595473567114958
  0.4551515831873543  0.6461166645881607  0.5118605702955573
  0.4576881595144225  0.3134350180783961  0.0327420656287159
  0.5145198850263253  0.7070538012539864  0.0367009156675263
  0.5062687133032964  0.7750684567045204  0.2372170846655941
  0.4701505929881823  0.3734274846645174  0.8151069864351179
  0.5703096677365398  0.2221440750429589  0.5161123321186001
  0.4740894829358452  0.0537711792909712  0.8733026916409888
  0.6845275248023560  0.1306553531783637  0.8819695914557513
  0.0779300035840778  0.2970216492048631  0.8158103966753294
  0.5345540139439527  0.0536502696973677  0.6767424227711630
 
  0.16206378E-04 -0.45647138E-03 -0.70520411E-03
  0.35262894E-02 -0.20950842E-02  0.36084533E-02
 -0.30471891E-02 -0.28759705E-03 -0.38727280E-02
 -0.68550935E-03  0.36635549E-03 -0.14656933E-02
 -0.40900364E-03 -0.26742913E-02 -0.34444306E-02
 -0.17969504E-02 -0.31140450E-03 -0.10717464E-02
  0.31119930E-03 -0.12788125E-02  0.30324067E-03
  0.83090629E-03 -0.32048322E-02 -0.25202368E-02
  0.31917983E-04  0.30249712E-02 -0.26231878E-02
  0.44163809E-02 -0.18074600E-02 -0.86393777E-03
 -0.44942322E-02  0.15751638E-03 -0.69172150E-03
  0.26732717E-02 -0.35146948E-03  0.18744706E-02
 -0.80667005E-03 -0.12850020E-02  0.42700553E-03
  0.32105389E-02 -0.29709669E-02  0.50663706E-03
 -0.14169176E-02  0.28759756E-02 -0.43623981E-02
 -0.32568290E-02 -0.49889110E-02 -0.14106598E-02
 -0.10618251E-02 -0.15131928E-02  0.11080915E-02
 -0.38181001E-02  0.26492929E-02 -0.14928450E-02
  0.61868610E-03  0.59128708E-02 -0.42124948E-04
  0.72177480E-03  0.25147399E-02  0.10471755E-02
  0.21485484E-02 -0.27853374E-02 -0.47273038E-02
  0.28839113E-02 -0.25521537E-02 -0.28717231E-02
  0.26218162E-02 -0.19748104E-02  0.11829921E-02
 -0.79210798E-02  0.39057982E-03 -0.13988779E-02
  0.50764653E-02  0.40318037E-02 -0.31037312E-02
  0.32905651E-03 -0.48640434E-03 -0.41630779E-03
 -0.15281432E-02  0.31168360E-02  0.19274090E-02
 -0.88380647E-03  0.26335456E-02 -0.90578799E-04
  0.11380373E-02 -0.47533171E-02  0.53433770E-02
 -0.80681873E-04 -0.13116825E-02 -0.49290827E-04
  0.70216875E-04  0.39174821E-04 -0.16743995E-02
  0.27216927E-03  0.12462678E-02 -0.53703089E-03
  0.10066720E-02 -0.18795961E-02 -0.44605889E-03
  0.12631112E-03 -0.98152810E-04  0.97508537E-03
 -0.24050055E-02 -0.21049069E-02 -0.53927719E-02
 -0.12522098E-02 -0.24130393E-02  0.52064152E-03
  0.69804100E-03 -0.26570871E-02  0.33202399E-02
 -0.34007270E-03 -0.23588399E-02  0.45603957E-02
 -0.28679164E-02 -0.26806501E-02  0.17666250E-02
 -0.48449733E-02  0.14825872E-02 -0.89039499E-03
 -0.28771425E-02 -0.11426414E-02  0.85028021E-03
  0.95027704E-03  0.66790607E-02 -0.22190822E-02
  0.27646938E-02  0.16629870E-02  0.28533258E-02
  0.23211990E-02 -0.19231515E-02  0.23280181E-02
 -0.78599614E-03 -0.59710726E-03 -0.41926648E-02
  0.14397443E-02 -0.29904154E-02  0.16303812E-02
  0.44025888E-02  0.64385467E-02 -0.20555608E-02
  0.41074994E-02 -0.72017186E-03 -0.99592763E-03
  0.47416440E-02 -0.16183535E-02  0.14601082E-02
 -0.37435837E-02  0.24858749E-02  0.23887472E-02
 -0.26985189E-02  0.24467288E-02 -0.13660595E-02
 -0.36414306E-02  0.35542602E-02  0.43006358E-02
 -0.46088829E-02  0.28686563E-02 -0.73748974E-03
  0.29208260E-02  0.74684728E-03  0.18341033E-02
 -0.68138468E-03  0.22531549E-02 -0.22079158E-02
  0.24936130E-02 -0.39595275E-03 -0.15926754E-02
 -0.16447276E-02 -0.24441907E-02 -0.48519949E-03
  0.38988811E-02 -0.18781477E-02  0.14753296E-02
 -0.14156538E-02  0.26882844E-02 -0.45349494E-02
  0.34720940E-03  0.25248814E-02 -0.14172542E-02
  0.12236272E-02 -0.19085250E-02 -0.26479101E-02
  0.52299548E-03  0.48880727E-02 -0.28817854E-02
 -0.12017968E-02  0.14309224E-02 -0.88492978E-03
 -0.28467750E-02  0.22853998E-02 -0.12478044E-02
  0.22075461E-02  0.92812512E-03 -0.34390233E-02
 -0.12201591E-02 -0.16688355E-02  0.29261137E-02
  0.16768752E-03  0.20790347E-02 -0.27123259E-02
  0.30406055E-03  0.13319104E-02 -0.35099391E-03
 -0.26853577E-02 -0.17421362E-02  0.18458823E-02
 -0.57920021E-03  0.34086675E-02  0.20935390E-03
 -0.17131704E-02  0.41133712E-02  0.47596664E-03
 -0.14248359E-02  0.29627791E-02 -0.14870865E-02
  0.26771707E-02 -0.22502646E-03  0.18917272E-02
  0.17407996E-02  0.29428772E-02  0.23748482E-02
  0.10765504E-02 -0.17729999E-02  0.26469374E-02
  0.51190101E-03  0.12325898E-02  0.11285365E-02
  0.11440136E-02 -0.11207255E-02  0.15913321E-02
  0.27319337E-03  0.18308439E-02  0.28796881E-03
 -0.13506819E-02 -0.18140702E-02 -0.31718987E-03
  0.14118878E-02  0.13306926E-02 -0.69568005E-03
  0.38784085E-02 -0.16841771E-02 -0.40913800E-02
  0.34087765E-02 -0.67143070E-03  0.34848129E-03
  0.20627092E-02 -0.11897471E-02  0.32093136E-02
  0.49720214E-03 -0.14499707E-02  0.34744093E-02
 -0.27728548E-02  0.11506493E-02  0.24916389E-02
 -0.16984484E-02  0.15544268E-02 -0.99000136E-03
  0.13953729E-02 -0.13752627E-03  0.26571483E-02
  0.17640466E-03 -0.60127724E-02  0.13985656E-02
  0.84048702E-03  0.20016934E-02 -0.15905675E-02
  0.64698643E-03  0.13110590E-02 -0.41710295E-03
 -0.68459180E-03 -0.16292982E-02 -0.41530225E-03
 -0.10260292E-02 -0.14997288E-02 -0.76346998E-03
  0.22355395E-02 -0.50333358E-03  0.24002535E-02
 -0.11866135E-02 -0.22528912E-02  0.48910589E-03
 -0.15205158E-02  0.21028434E-04  0.18991220E-02
  0.13914924E-02  0.11185407E-02  0.34365078E-02
  0.34880839E-03 -0.81940834E-03  0.17803589E-02
 -0.81313446E-03 -0.55670438E-03 -0.35212606E-03
  0.10116427E-02  0.57008917E-03  0.14643165E-02
 -0.10865244E-02  0.98878906E-03 -0.81004419E-03
 -0.11443954E-02  0.13439232E-02 -0.26223071E-02
  0.15273145E-02  0.43072197E-02  0.51783252E-02
  0.89559239E-03  0.16038081E-02  0.23307439E-02
  0.24863509E-03 -0.19971318E-02  0.16665143E-02
  0.74317421E-03  0.24328504E-02  0.87187938E-03
  0.28518560E-03 -0.27218932E-02  0.27004230E-02
  0.61965664E-03 -0.85368057E-03 -0.15500514E-02
 -0.23013030E-02 -0.49643067E-03  0.26281600E-03
 -0.68601949E-02  0.15124492E-02 -0.33607294E-02
  0.21711221E-02  0.22185647E-02  0.63315242E-04
 -0.57425067E-03  0.15026303E-03  0.16153292E-02
  0.19366859E-02  0.33851151E-02 -0.35197708E-02
 -0.21664029E-02 -0.26913028E-02  0.72456440E-04
 -0.25894244E-02  0.14151509E-02 -0.77588767E-03
  0.17605027E-03  0.19117128E-03  0.62395458E-03
  0.41217426E-02 -0.16246186E-02 -0.14992251E-02
 -0.25208695E-02 -0.66705863E-03 -0.25654242E-03
 -0.10233201E-02 -0.28602438E-02  0.17169971E-02
  0.89862839E-03 -0.10004105E-02 -0.16347225E-02
  0.87479590E-03 -0.17638788E-03  0.94801966E-03
 -0.29090586E-02  0.82347017E-03 -0.41846954E-02
  0.61403397E-03 -0.97689712E-04  0.63654858E-03
 -0.51538742E-03  0.42037910E-03  0.12579463E-02
 -0.40249867E-03  0.13096077E-03 -0.12933525E-03
  0.15036397E-02 -0.26055734E-02  0.17787172E-02
 -0.18408180E-02 -0.10811431E-02  0.16876188E-02
 -0.18840145E-02  0.28048263E-02 -0.24034979E-02
  0.26007124E-02  0.80509863E-03 -0.92962259E-03
 -0.78403472E-03  0.39197433E-05  0.67846800E-03
 -0.86370971E-03  0.12199905E-02 -0.14530157E-02
 -0.14968585E-02 -0.50751006E-02 -0.16761777E-02
  0.72446004E-03 -0.26625089E-03  0.13877990E-02
  0.11886137E-03  0.18109131E-02 -0.14576554E-02
  0.29794931E-03  0.34823808E-02 -0.15828169E-02
  0.26062226E-02 -0.14141645E-02  0.31282810E-02
  0.16787468E-02  0.55659908E-03 -0.13116156E-02
  0.55210102E-03  0.74720890E-03  0.10654160E-02
 -0.85570833E-03 -0.19557835E-02 -0.20917088E-02
 -0.36608077E-02  0.11578345E-02  0.23065285E-02
 -0.65449150E-03 -0.35320028E-02 -0.12595979E-02
  0.18103777E-03 -0.31258050E-03 -0.32777474E-03
 -0.18961093E-03  0.65286899E-03 -0.20093661E-02
  0.11318837E-02 -0.15264035E-02  0.17623495E-02
  0.10610412E-02  0.89108092E-03  0.10101792E-02
 -0.70809112E-03 -0.40184369E-03 -0.26879111E-02
  0.21044265E-03  0.77186892E-04 -0.58971985E-02
 -0.21414282E-03  0.76737320E-03  0.86264110E-03
 -0.28654025E-02  0.22242591E-02 -0.11365816E-02
 -0.48220443E-03  0.25427253E-02  0.19211910E-03
 -0.27503905E-03 -0.10349107E-02 -0.86056807E-03
  0.13277761E-02 -0.40120902E-03 -0.16445385E-02
  0.26472121E-02  0.29332688E-02  0.26328579E-02
 -0.15221915E-02  0.88725498E-03 -0.23481688E-02
 -0.59847622E-03  0.73284282E-03  0.13180569E-02
  0.44658509E-02 -0.26889042E-02  0.14815464E-03
  0.23021641E-02 -0.88438180E-03 -0.14224013E-02
  0.28777766E-02  0.70023351E-03 -0.79754791E-03
 -0.18235506E-02  0.91841828E-03 -0.94260256E-04
  0.11104079E-02 -0.16179367E-02 -0.45351096E-03
 -0.12086036E-02  0.35113169E-02  0.34668749E-02
 -0.91000790E-03 -0.23450045E-02  0.30177706E-02
 -0.27867289E-03 -0.38381278E-03  0.53034878E-03
  0.10111035E-02  0.10767428E-02 -0.24951787E-02
 -0.13368707E-02 -0.19908666E-02 -0.27161183E-02
 -0.75225655E-04 -0.24942649E-02 -0.22562107E-03
  0.49604030E-03 -0.33614184E-02  0.19503036E-03
  0.98946387E-03  0.81435407E-03  0.15698016E-02
  0.67172268E-04 -0.17769284E-02  0.45449322E-02
 -0.51491195E-03 -0.66238366E-03  0.33793176E-03
 -0.23951261E-03 -0.13004028E-03  0.14692186E-02
 -0.33583372E-03  0.84824488E-03 -0.22830139E-02
  0.64426432E-03  0.45524406E-03  0.18520944E-02
 -0.32458909E-03 -0.24294226E-02  0.18207852E-02
  0.15072028E-02  0.50888467E-03 -0.37321248E-03
  0.21168557E-02 -0.16346658E-03  0.71118123E-03
 -0.43033417E-02  0.34967557E-03 -0.25502989E-03
 -0.75814840E-03  0.62408238E-03 -0.21985837E-02
 -0.49232678E-03  0.21877487E-04  0.50610985E-03
 -0.48697776E-02 -0.13334446E-02 -0.22234895E-02
 -0.54187212E-03 -0.68468013E-03 -0.14807240E-02
  0.23796217E-02 -0.13195755E-03  0.30588554E-04
 -0.20318783E-02  0.32671723E-03  0.65969639E-03
 -0.21641912E-02  0.20280700E-02 -0.21637831E-02
  0.78186875E-04 -0.16554346E-02 -0.19299219E-02
  0.21553816E-02 -0.14834069E-02  0.30899575E-02
  0.11033910E-03  0.87389663E-03 -0.17265059E-03
 -0.17520781E-02 -0.15215331E-02  0.50615281E-03
  0.26902378E-02 -0.29841132E-02 -0.47846463E-02
  0.13821013E-02 -0.17706759E-02 -0.27853487E-02
 -0.28101345E-02 -0.30303319E-03  0.36798396E-02
  0.19628914E-02  0.38463427E-04 -0.16489450E-02
 -0.13366671E-02  0.24548079E-02  0.94138337E-03
  0.56581753E-03 -0.14823757E-02  0.39698272E-02
  0.15170010E-02 -0.17163917E-04  0.11074269E-02
  0.10979337E-02  0.23024612E-02 -0.30591411E-02
 -0.42690674E-03 -0.40721695E-03  0.19961125E-02
  0.24743375E-02  0.19248852E-02  0.19367951E-03
 -0.32875396E-02  0.26581020E-02  0.58866837E-03
 
           1
   3.00000000000000     
  0.10000000E+01  0.00000000E+00  0.00000000E+00  0.00000000E+00
  0.85814929E+00  0.33868682E-01  0.32564317E+00
  0.12894610E+00  0.96078245E+00  0.10791396E-01
  0.69273106E+00  0.23280356E+00  0.67717753E+00
  0.42922828E+00  0.53668091E+00  0.20875347E+00
  0.17487319E+00  0.62475472E+00  0.85263041E+00
  0.38209813E+00  0.98825074E+00  0.80279240E+00
  0.50756570E+00  0.90344106E+00  0.18490197E+00
  0.79190850E+00  0.15015888E+00  0.28473454E+00
  0.97847825E+00  0.95557975E-01  0.29504729E+00
  0.27908972E+00  0.95730714E+00  0.62384461E+00
  0.12340590E+00  0.94612928E+00  0.32799988E+00
  0.98873710E+00  0.20770840E+00  0.55339173E+00
  0.18359626E-01  0.65483027E+00  0.74535143E+00
  0.18793215E+00  0.77249213E+00  0.10830982E+00
  0.72135617E-01  0.39497562E+00  0.39959323E+00
  0.64953811E+00  0.30724966E+00  0.57609339E+00
  0.74856192E+00  0.38423988E+00  0.91397636E+00
  0.76237155E+00  0.80746151E+00  0.97859788E+00
  0.50243578E+00  0.30831278E+00  0.70071868E+00
  0.28391155E-01  0.84965705E+00  0.71001926E-01
  0.28310621E+00  0.85007811E-01  0.48505647E+00
  0.18063964E+00  0.33157917E+00  0.23779115E+00
  0.58757887E+00  0.91177403E+00  0.45931727E+00
  0.39473478E+00  0.70164420E+00  0.24117525E+00
  0.18245980E+00  0.99619474E+00  0.88514529E+00
  0.93629900E+00  0.89415791E+00  0.86157645E+00
  0.77788474E+00  0.20017626E+00  0.58210311E-01
  0.89638970E+00  0.25959266E+00  0.42532904E+00
  0.46192723E+00  0.17372305E+00  0.48783043E-01
  0.69727319E+00  0.78799043E+00  0.85900114E+00
  0.97729873E+00  0.49550292E+00  0.52863873E+00
  0.82031125E+00  0.96536287E+00  0.88653211E+00
  0.76051360E+00  0.53927393E+00  0.32471537E+00
  0.55214951E+00  0.48668918E+00  0.82888515E+00
  0.39221473E+00  0.76440573E+00  0.10725363E-01
  0.14553564E+00  0.60110773E+00  0.98619415E+00
  0.37336825E+00  0.26064999E+00  0.66368470E+00
  0.47639067E+00  0.37491711E+00  0.15546527E+00
  0.24171341E+00  0.70300074E+00  0.47742360E+00
  0.55468616E+00  0.83237367E+00  0.99713835E+00
  0.46763243E+00  0.56940827E+00  0.75955736E+00
  0.79703371E-01  0.17528949E+00  0.12286507E+00
  0.66376901E+00  0.21283969E+00  0.98327122E+00
  0.77950733E+00  0.33208266E+00  0.39136969E+00
  0.86279036E+00  0.48838708E+00  0.66703176E-01
  0.69404189E+00  0.47863606E+00  0.82900533E+00
  0.87775553E+00  0.73356748E+00  0.38300421E-02
  0.74665663E+00  0.59236666E+00  0.88190710E+00
  0.61625384E+00  0.99944536E-01  0.57088272E+00
  0.47735908E+00  0.93488942E+00  0.63434344E+00
  0.57352705E-01  0.86742174E+00  0.66382893E+00
  0.88244685E+00  0.95437429E-01  0.89575333E+00
  0.77399055E+00  0.63200260E+00  0.14811479E-01
  0.79341065E+00  0.86977371E+00  0.34736944E+00
  0.14346972E+00  0.76250819E+00  0.64304479E+00
  0.35667348E+00  0.56487857E+00  0.56666466E+00
  0.99688041E+00  0.59677438E-02  0.79730569E+00
  0.87699425E+00  0.65668112E+00  0.36332023E+00
  0.17026035E+00  0.19973733E+00  0.97667289E+00
  0.11385962E+00  0.87831806E+00  0.17047381E+00
  0.32437740E+00  0.26528392E+00  0.48179861E+00
  0.84025808E+00  0.56441857E+00  0.68583343E+00
  0.90402928E+00  0.92910706E+00  0.62899531E+00
  0.79890799E+00  0.19359566E+00  0.84121957E+00
  0.96300158E+00  0.63119570E+00  0.53845683E+00
  0.37782923E+00  0.58436809E+00  0.86805188E+00
  0.59528762E-02  0.65917547E-01  0.16170891E+00
  0.19473116E+00  0.97558049E+00  0.21621201E+00
  0.34687015E+00  0.76886369E+00  0.42595897E+00
  0.96733617E+00  0.76021980E+00  0.90370871E+00
  0.38279342E+00  0.95214315E+00  0.53513331E+00
  0.83678791E+00  0.28123141E+00  0.93455916E+00
  0.79754646E+00  0.58452728E+00  0.45137335E+00
  0.10385903E-01  0.57874143E+00  0.97563507E+00
  0.35860460E+00  0.42074722E+00  0.20606222E+00
  0.79540588E+00  0.95012718E+00  0.23830912E+00
  0.40780197E+00  0.99949333E+00  0.20360665E+00
  0.29045343E+00  0.76823027E+00  0.29563191E+00
  0.30426113E+00  0.34782886E+00  0.58452641E+00
  0.73124106E+00  0.47940166E+00  0.69364183E+00
  0.66508424E+00  0.62257442E+00  0.26408748E+00
  0.86045509E+00  0.62470481E+00  0.80706256E+00
  0.39860032E+00  0.16271105E+00  0.92708705E+00
  0.18562890E+00  0.10648152E+00  0.72895848E-01
  0.30924711E+00  0.81818577E+00  0.11006126E+00
  0.12485967E+00  0.24914151E+00  0.60474883E+00
  0.56565333E+00  0.40506075E+00  0.62463900E+00
  0.30705022E+00  0.51334979E+00  0.45116215E+00
  0.56991017E+00  0.63529063E+00  0.59224699E+00
  0.27965750E+00  0.15208228E+00  0.25688056E+00
  0.86428744E+00  0.46401263E+00  0.93767297E+00
  0.56516046E+00  0.85254150E+00  0.58054170E+00
  0.69275708E+00  0.72269793E+00  0.73203498E-01
  0.90679221E+00  0.36943612E+00  0.12092903E+00
  0.42792877E+00  0.41189835E+00  0.47177338E+00
  0.35763714E-01  0.26124907E+00  0.42307599E+00
  0.12883877E+00  0.74030632E+00  0.78936765E+00
  0.20965962E+00  0.37519184E+00  0.36421638E+00
  0.79998050E+00  0.28397610E+00  0.74164647E+00
  0.19545233E-01  0.93526706E+00  0.55589806E+00
  0.73973652E+00  0.96173080E+00  0.77174466E+00
  0.91015124E+00  0.21771449E+00  0.27457876E+00
  0.89847328E+00  0.29805593E+00  0.56588503E+00
  0.27063854E+00  0.56076113E+00  0.78766397E+00
  0.98575125E+00  0.95057647E+00  0.98618703E+00
  0.50954780E+00  0.17654720E+00  0.22754602E+00
  0.33498209E+00  0.71248578E+00  0.89700828E+00
  0.87533198E+00  0.10843778E+00  0.29053630E-01
  0.26140106E+00  0.30054374E+00  0.97412204E+00
  0.83432479E+00  0.75630393E+00  0.28298173E+00
  0.79372062E-01  0.63870469E+00  0.61206149E+00
  0.54121002E-01  0.26120896E+00  0.22966929E-01
  0.21417108E+00  0.19686948E+00  0.44903485E+00
  0.40919872E+00  0.15393034E+00  0.32223450E+00
  0.13275761E+00  0.80553762E+00  0.99070327E+00
  0.43428232E+00  0.87567795E+00  0.74309201E+00
  0.64718219E+00  0.31777177E-01  0.46546900E+00
  0.35722422E+00  0.62735145E+00  0.13503424E+00
  0.98108069E+00  0.70503296E+00  0.42804561E+00
  0.40323082E+00  0.48713397E+00  0.67089253E+00
  0.30311282E+00  0.60027193E-01  0.71437481E+00
  0.58534505E+00  0.22133684E+00  0.75953624E+00
  0.11065000E-01  0.12437658E+00  0.86380602E+00
  0.93908894E+00  0.76499456E+00  0.12326933E+00
  0.27473613E+00  0.67275059E+00  0.60514404E+00
  0.73117174E+00  0.12487086E+00  0.17315801E+00
  0.17031172E+00  0.39080433E+00  0.89584727E+00
  0.60497472E+00  0.91267473E+00  0.93183139E-01
  0.52993212E+00  0.52691470E+00  0.95763390E+00
  0.18799102E+00  0.41140117E-01  0.56748828E+00
  0.56286541E+00  0.30656581E+00  0.22604274E+00
  0.74489898E+00  0.40899885E+00  0.28432365E+00
  0.78537986E+00  0.30524547E+00  0.14572208E+00
  0.88398020E+00  0.93524669E+00  0.42076647E+00
  0.14896317E+00  0.64720047E+00  0.12385532E+00
  0.51125788E+00  0.68668825E+00  0.70739962E+00
  0.85378746E+00  0.67530080E+00  0.60737577E+00
  0.11041779E+00  0.35837458E+00  0.69332315E+00
  0.60919960E+00  0.65596300E+00  0.38832978E+00
  0.54391886E+00  0.48751136E+00  0.15926820E+00
  0.38477293E+00  0.15770070E+00  0.54645100E+00
  0.28418902E+00  0.26342685E+00  0.17047614E+00
  0.52633297E+00  0.43964512E+00  0.37377316E+00
  0.31574240E+00  0.25046444E+00  0.77509715E+00
  0.93058806E+00  0.43207852E+00  0.41600057E+00
  0.63203721E+00  0.34339002E+00  0.96992356E+00
  0.68247741E+00  0.82346613E+00  0.42509341E+00
  0.89489295E-01  0.22865387E+00  0.24650755E+00
  0.35737264E-01  0.14321302E+00  0.65822182E+00
  0.18883657E+00  0.60673433E+00  0.41190116E+00
  0.25262815E+00  0.84051329E+00  0.67614318E+00
  0.91197247E+00  0.12761904E+00  0.46675520E+00
  0.38930200E+00  0.50124006E+00  0.97157271E+00
  0.96924979E+00  0.57449457E+00  0.10920365E+00
  0.61815394E+00  0.52170023E+00  0.43461886E+00
  0.29366318E+00  0.92497888E+00  0.88641178E+00
  0.73563621E+00  0.11331958E+00  0.62983446E+00
  0.13017552E+00  0.43992090E+00  0.17359126E+00
  0.43114558E-01  0.84778097E+00  0.27760512E+00