Amorphous GeTe6                         
   1.00000000000000     
    22.2982823540567736    0.0000000000000000    0.0000000000000000
     0.0000000000000000   22.2982823540567736    0.0000000000000000
     0.0000000000000000    0.0000000000000000   22.2982823540567736
   Ge   Te
    43   257
Direct
  0.0603352760289679  0.8651318560554093  0.7772321132672035
  0.1246055728433612  0.7264321502758098  0.2599844751365731
  0.0460262175473128  0.7489016670402532  0.0319179508235097
  0.2044462038777865  0.9609284693339790  0.4217545685908100
  0.0020772473006637  0.3662178221435575  0.4015606621632917
  0.9522238881062164  0.6786304873195517  0.1617069823028681
  0.4712058213450890  0.6911078372609041  0.1717240712174103
  0.5207217033893363  0.2040070694098563  0.0305516101241912
  0.4203072262034121  0.1689314471645495  0.4498174166442762
  0.7039014710605562  0.2740089672748152  0.6211371775471799
  0.1628271680290438  0.1285285571134814  0.7140224885830379
  0.5885488177336566  0.3221660744691817  0.8806145935047959
  0.8276464992523804  0.5442657854719213  0.8202498781759637
  0.2998529067654706  0.7746410661356323  0.0087040749045003
  0.1588637355813657  0.0476737652632786  0.6058505160581442
  0.9742009867238109  0.8297394787433312  0.3086874881447050
  0.6355717826495426  0.1423438046647438  0.8682600426612027
  0.0964174902483570  0.1124542673578898  0.2175913998438765
  0.3407494319722734  0.9111631223961028  0.3998234045947962
  0.3994352358377173  0.1807392893898529  0.2952240142388692
  0.0634419031163496  0.5700300493846310  0.3749607005158063
  0.2144088011672059  0.8082703457941048  0.7318289242425359
  0.9413580686850352  0.4774231881523107  0.2629932967504673
  0.6844724575147190  0.8492425783423693  0.9202112293747765
  0.8211103440393899  0.4718575505923449  0.0541737277756093
  0.9436350554540345  0.0529919727936398  0.2835071067999635
  0.5645303573682080  0.8868314964289711  0.2867028615949306
  0.4205288182783884  0.1327824474957269  0.6105540614860205
  0.3431504892117973  0.7714425878683733  0.8315581974097652
  0.8769285293412117  0.8331212372069458  0.7269552153116359
  0.0682160630194414  0.3585581219976333  0.0574566152500467
  0.4341746802308786  0.5075561860242439  0.7475646986336472
  0.1019990361860867  0.5702865014055641  0.2551287172685262
  0.9958494259648668  0.7673623578128438  0.6300303287401839
  0.2267808326369197  0.8962005262424000  0.6052691275305626
  0.3604136996626402  0.0774107593830099  0.3295988197677850
  0.4136307980683036 -0.0023387959981006  0.4638538158472426
  0.7581835855285513  0.0929459866544603  0.6135969337366998
  0.5928527236463911  0.7905976303162524  0.5176642049178960
  0.5052522863628818  0.1942032147258121  0.7441760713718757
  0.7598521471008315  0.9197546814440092  0.6367607250931875
  0.4224792913114354  0.9762562697580149  0.6387954748185649
  0.4085419027673153  0.8369130333220858  0.2487087567737678
  0.8883214466352535  0.0801682497377699  0.1069460284967352
  0.5953863472432445  0.0442910813794675  0.3971851912104399
  0.0580102578688165  0.2117686010290306  0.3491567741523624
  0.3813449101362479  0.6925631918498832  0.9677154883024249
  0.8406199856826099  0.2003094515672674  0.0869194129526814
  0.3605418161053360  0.2714594928448339  0.3629025220910749
  0.4562416499527163  0.6158005642448356  0.6992392897797316
  0.9041324282327970  0.8651195464664033  0.5253013020450491
  0.2583175984362142  0.5620547033196767  0.6712453926096155
  0.4038060847562444  0.7361057366601331  0.3399966225057391
  0.5137135134564880  0.8631185030419306  0.7839240339638941
  0.0437060574459691  0.3358409528719444  0.7136722713321682
  0.6996435232350897  0.6536139034390666  0.9400797747543467
  0.1416457487056621  0.5317877705654470  0.7133120731912179
  0.6268985556244945  0.1673126254588628  0.7463291757712357
  0.7638165500423463  0.5889912522720336  0.3029197781053282
  0.8147466553476521  0.7160588571205518  0.1399664010823552
  0.8495434676163357  0.9108796761278002  0.0679607860374792
  0.6652872291054663  0.1254175644475991  0.5433673017674913
  0.1805797273770386  0.8781037786770232  0.0339392776902157
  0.7933674270604251  0.8172411994699530  0.2409322932338647
  0.2955329091182762  0.6592998604556499  0.4692601007357377
  0.9857041317611190  0.1629186140026947  0.1760303940871488
  0.7115513736711367  0.8155080915819845  0.6638236740781247
  0.3561194990272504  0.5053491899074932  0.8371473517104076
  0.7610298851601734  0.9787370728494715  0.3275373457625135
  0.1630263672758371  0.3434828766211956  0.1285795294701492
  0.3966002192330456  0.0286397914328341  0.9044558752578254
  0.1877609275476261  0.1397315299914556  0.5259721459560061
  0.1738146921633769  0.2146539777901809  0.8019807907677270
  0.2009816220004091  0.7811594469171880  0.6130099382780301
  0.5511864633939860  0.6627416642166174  0.8319900261775199
  0.5882168471825350  0.0435853575240349  0.7065139181243991
  0.4943134827013608  0.9499087318955636  0.9518675771077714
  0.9515035722049425  0.9776215171194780  0.4781300660289448
  0.5331725319109912  0.0830635608411151  0.0961066683756581
  0.3349139309018483  0.3073538240923016  0.8542500647487021
  0.8192447661779109  0.0472205782025434  0.2103643949390441
  0.5161617610910175  0.2247012158262960  0.5911425926529528
  0.5688178723795096  0.9579666018138118  0.8541018683015207
  0.7798114633352807  0.2349142008261865  0.2196572981010637
  0.0403681748765968  0.6767434618867123  0.6908206579753211
  0.0373344966322212  0.1106198366759523  0.7456225580262764
  0.1503964413445728  0.7733203764504462  0.1019073382870883
  0.6953434561384029  0.4781478484098602  0.0604898222784279
  0.5145490043111705  0.1637023483992024  0.3238168595067484
  0.4742612801052732  0.8266759993831736  0.5163821338821935
  0.1065739230270927  0.7493220776300257  0.7730027627383560
  0.7686931481277338  0.8338318127205321  0.7792917709437989
  0.0210178526770449  0.6543016862479702  0.8530423520130491
  0.1151170606939431  0.1984499838951612  0.6122328118075531
  0.5392487021391511  0.3774450760465914  0.0920278159270195
  0.5585329039726649  0.9068077039490647  0.6637802245128983
  0.3708199694420911  0.7585312278891220  0.1535595614634908
  0.3632645459206483  0.6162926867992924  0.2777698798136062
  0.6738293037274284  0.6396015189966173  0.7985284796121217
  0.3119179596675712  0.9120925861119916  0.9083716508359245
  0.5316370976908987  0.6263949927591133  0.0117649900354986
  0.6393524877787694  0.5371867762207848  0.4745798160439199
  0.2266451776118417  0.6837064159841942  0.0509828170614218
  0.0636975688963556  0.0172329952193766  0.2953758259708897
  0.8930712324241806  0.7913336561453450  0.4205561947473490
  0.8724330943209764  0.1598978829207372  0.5045137093563453
  0.9528869194284267  0.5499832374828905  0.8802135801720594
  0.6893238956819632  0.7604707791334253  0.0061873945035139
  0.1053598401972647  0.0123943414951928  0.1462641079300928
  0.7898351780589835  0.3618025993889248  0.6220962129151397
  0.6611607381417616  0.9214439799834100  0.0233664443003475
  0.0270449820660900  0.7576242671811246  0.5129303032429402
  0.2186688400078385  0.1314861270924959  0.3093016078571507
  0.7286478549652899  0.8787574081218327  0.1271563482897324
  0.0387599418314592  0.0876774974848063  0.6027492521662119
  0.2245361635909459  0.2858674049145870  0.6276705273126206
  0.3140233331223126  0.3916728278623264  0.5078198899679998
  0.8180322962774921  0.4517141993950647  0.9264806056741453
  0.8307795354588913  0.6154107877942062  0.0485547357260335
  0.5386010725807735  0.7831035708024613  0.6314147170314817
  0.1261717034085862  0.0604373195989169  0.4011621920153695
  0.3258970910330843  0.5555201899235419  0.0238374616545502
  0.4508699019312368  0.8520928064380106  0.3881114696168616
  0.3860401340030505  0.1996549571548384  0.1766847878666792
  0.3332945461280925  0.5383105605547417  0.4648800078400291
  0.6928953603489737  0.4779617221906547  0.9205684722359037
  0.6927723554922416  0.6701834042684954  0.3720845868291677
  0.7217706992953714  0.0618777655503156  0.4250414347982071
  0.7481373015750528  0.7834963620778000  0.5246286753932640
  0.3028564858806955  0.1301061216249028  0.8739848638677167
  0.4908308969698788  0.0881903021101449  0.5143955755312357
  0.6742305794272365  0.4714796861288748  0.6055749095780384
  0.0786607149571555  0.6537078215262864  0.1676896318647499
  0.1480582857720693  0.3669909767455386  0.8288069304229185
  0.3909075799807656  0.9431147956225798  0.7527024080895108
  0.2594143545330785  0.2765094134514864  0.5045652941196909
  0.2363359406748174  0.5151481407437557  0.3370203422426934
  0.1464543973425247  0.9484409964912329  0.5313968964297335
  0.7795394718026754  0.6514656192786404  0.5305921166626758
  0.8167848154989433  0.3411679710681881  0.0774453728663907
  0.6931369371356889  0.0489657239558245  0.0280241084871198
  0.3535204800891554  0.3808384934634408  0.1138768333792138
  0.5480953595533758  0.4218026320223540  0.4467525960755118
  0.2951362371674379  0.1407021051980652  0.6945918486787896
  0.9198434066267801  0.2865714775060196  0.4798092254536301
  0.2522442654986302  0.0493339481505664  0.7878801317454777
  0.4428605704938599  0.3632772182511347  0.8162131903099838
  0.2152551372301394  0.6427143390191822  0.8800471148724194
  0.0947408481514851  0.0767447386725823  0.0385966588573133
  0.8996783024393311  0.3787980563487033  0.3204465751746601
  0.4753275656805734  0.4807308392229465  0.3601335132770764
  0.3792217259134413  0.4449438110543007  0.6610576367917568
  0.9900051788080122  0.1206921356848048  0.4666136747189975
  0.3049941774667265  0.3757855020437114  0.9592977678605180
  0.5454271505006374  0.4601314196137256  0.7662031472828412
  0.5266008425505874  0.2903736648773928  0.2987927065936791
  0.6545765795105313  0.2048668511709316  0.0432833687319528
  0.0265385151052847  0.0031028617144959  0.8670262598794016
  0.6239184702338605  0.8114257611351612  0.3681096314350388
  0.7391799932563556  0.4844199691239149  0.4175547391383472
  0.8783046318445067  0.7523473647166929  0.6379151578762602
  0.1018130077330570  0.6545878656723824  0.9489134324612621
  0.2153235818335155  0.4671175715810152  0.4826768014175867
  0.3648517449346242  0.4164907225546502  0.2323686675580450
  0.0704735969316617  0.8312820950251495  0.2245102295814820
  0.6104810035643715  0.1577902030223598  0.1674274114326966
  0.2032556705192992  0.9769858969964406  0.8915235920840979
  0.2662278460810458  0.1477517250707802  0.1893606867285808
  0.6438143879688132  0.4763068247168654  0.2481702355964703
  0.9036755217159536  0.2742342079377456  0.2462151148960406
  0.5709906862878616  0.5448876973463772  0.6441915827687692
  0.6178055025231669  0.3660863090567834  0.5639623374342859
  0.5275480157734472  0.4349138395878591  0.2521894639998100
  0.2011700503901838  0.3029149945654480  0.9519780772528434
  0.6793940887738406  0.2426026064921921  0.9175328443157450
  0.0724925382355808  0.4578473572676942  0.9929777084095013
  0.4610646437145847  0.0781253026770938  0.7290872742669251
  0.5635249936643227  0.7113051794431788  0.0970343349565091
  0.2172382564870882  0.0931400405772916  0.9648091372303361
  0.5296973840447564  0.1273919146524116  0.9169848688799985
  0.6301797775074786  0.3135986164719614  0.7516349988458263
  0.6075812277155632  0.7770213922302779  0.8047373799009692
  0.7092224686274622  0.4922476064183679  0.7878618828005778
  0.4413497223873254  0.5761764049708851  0.1849012533061017
  0.5284406144958320  0.2965903673174341  0.4265545790836801
  0.0573789159498263  0.5653511811936225  0.5023393298375123
  0.2776060168473047  0.8224473372550390  0.4599490580994988
  0.6971222488403088  0.0460840536564267  0.1561112558546078
  0.1211431831147845  0.6745899685120799  0.5159637187288958
  0.4607852837375160  0.0120637845667217  0.3466310874766225
  0.2843038257929803  0.3326486969414857  0.2859002264373373
  0.3413331310742203  0.6507941563359734  0.8171045176288473
  0.8464273760151011  0.0394595740663141  0.5513535545222088
  0.9669586021876133  0.2935637167902096  0.6137363202981682
  0.3909728910349063  0.1898134320339808  0.0140640989598860
  0.9005600566953617  0.1978044900508151  0.9746347452644277
  0.6862535120924285  0.2411690166885314  0.3724828027219801
  0.9063057910098068  0.9880996097339443  0.8183163057576548
  0.8102332220381098  0.1199560746901763  0.9227450534309355
  0.9308806547536673  0.1517431513174759  0.3544941713278783
  0.0555039232615933  0.4573232979374243  0.2269709929799843
  0.0580114616019195  0.2698064939720687  0.9763830840046598
  0.2131654796933516  0.5408132721328817  0.2132422604215061
  0.9723402778652072  0.4935299879510323  0.0855736695492135
  0.1806545390895420  0.4055927999622124  0.6542252288523098
  0.2434759446100597  0.7986683675770314  0.8955303898077634
  0.1240220243312503  0.8834650863195134  0.3710261260977137
  0.0219119370479233  0.3684942359769499  0.8985416536552869
  0.0918266435403765  0.1381358072206323  0.8588813820299410
  0.6868097820896683  0.3495357599532701  0.0707742928648564
  0.3000529614085321  0.0174333763142495  0.2413023476031433
  0.2000375918036280  0.7838324749867870  0.3653554385014829
  0.5170170402565020  0.2542354906875202  0.1526600613500891
  0.9579712928827803  0.4610018947078346  0.4691692613330931
  0.9690080383290571  0.3598868889657678  0.1211499423637828
  0.1176153974779031  0.3729140702934789  0.4840065039870503
  0.3232006817202105  0.0826797178455962  0.4454779946230349
  0.9333229121046409  0.7124835046078785  0.2876526317226427
  0.2848386445550129  0.6593074515122651  0.1845008259331529
  0.8777152524964543  0.1122211719255040  0.8180820107181602
  0.0941575680962380  0.4336691994087561  0.3479690587020977
  0.0305656460716238  0.4078352018694540  0.5687129496556239
  0.0258756518017067  0.9467912286801892  0.9771993152620666
  0.7663499669048346  0.8051317847312941  0.3973221588416272
  0.4294099635676937  0.7956499788537041  0.9095591922773765
  0.0424262818603485  0.6977820573317298  0.3498758405709213
  0.3397034372270583  0.9078031548841230  0.5650443355352512
  0.8461894693258403  0.9558616416688632  0.9412703122323888
  0.8985608960792606  0.9607452788562338  0.3590772549863528
  0.4808190822998597  0.3024592910884917  0.6881459383302133
  0.0412039946957099  0.2667171986154169  0.2354474127489730
  0.3708354953812175  0.9136420368577937  0.0556759486723938
  0.0688430801749093  0.8326750903457137  0.9425729049613080
  0.8964184269993881  0.8896000572080315  0.2311984333253322
  0.8814614190020031  0.5319204882411367  0.1767690914897257
  0.9492604491884383  0.8337694994049073  0.8199531995043764
  0.9893187748916282  0.2707926475401425  0.8083783013380510
  0.7233852310987715  0.0168790086347676  0.7011650463241352
  0.3921652498039775  0.2470111359582383  0.5457720326359701
  0.5066568830816414  0.5143601205547189  0.0661601519216371
  0.2436225027330061  0.5310540427910033  0.9313095933710733
  0.8799162135906878  0.9324887376039647  0.6581424118967253
  0.9854897843579783  0.4771687984716478  0.7819215874178350
  0.3962891038083856  0.6914884242979115  0.5458867346099754
  0.3902980660046663  0.5693050424153757  0.5947537731491079
  0.4309596576885395  0.0603274461380860  0.1717338828658105
  0.8124050353422412  0.8401958588588159  0.9074844688992715
  0.2365824018865168  0.2071975134290446  0.0362025318331627
  0.6009579208935197  0.9136580102845470  0.5295678054897545
  0.4457293088202841  0.9302626508707188  0.1567321190195564
  0.0309396357148243  0.8758535821375645  0.6591937942941283
  0.7446725946454352  0.3680223639852652  0.7627405338760208
  0.3928739373883400  0.0656105677601380  0.0275917355884053
  0.1842964208754929  0.2432987321354071  0.3535994806684981
  0.8655884009750876  0.2968955150745363  0.8132496949670304
  0.7294433995960633  0.9256387598925556  0.5206325848412136
  0.2566414673205731  0.3653311019820012  0.7583887303580468
  0.7885654992531127  0.1888266202177247  0.6819001276406534
  0.1366274401048997  0.4949501625915509  0.8341723614485516
  0.2454637555137630  0.4321398344411623  0.0787724937710964
  0.5711451906622415  0.6535889993962598  0.5543529654683054
  0.5864609953672475  0.5955251026842403  0.3718460342609980
  0.4999742262962868  0.3226998139256081  0.9863501252656487
  0.8155119673072563  0.6564212407047979  0.7697981466538806
  0.9802069638829749  0.8000939610710832  0.1281635168009197
  0.7541880545201762  0.1475427520656883  0.3180471513329598
  0.3156436464612854  0.0465319768451575  0.6093298271252289
  0.6687624844336689  0.6249186694055032  0.6670108994043017
  0.3536715340149122  0.8240183857683326  0.7239270641601939
  0.4314459863201102  0.5123881590621224  0.9500639401089096
  0.9555397662971072  0.6195466861767933  0.0343651119417536
  0.9149993440161441  0.1783726719976874  0.6616247888280299
  0.2574279741446249  0.9486998487907263  0.1039153373836099
  0.5490957010784440  0.5223913643983233  0.8755992064576970
  0.8111350076217009  0.3485018003352321  0.4944127587861779
  0.1877122178336075  0.6215712029554032  0.3817921681051167
  0.6632262307893798  0.7437616542354426  0.2621340907306210
  0.6971232350242481  0.0437077083817684  0.8814464325264162
  0.8729304717973430  0.4778561275692680  0.7200705003236501
  0.9373280414154008  0.5445080018367933  0.3610664749469560
  0.6561182983410885  0.2800616017629114  0.2535642961675684
  0.4898506248308153  0.6517195713789981  0.4600396026866485
  0.6123322853296042  0.8412776749216682  0.1818216817656396
  0.2819096487326983  0.6827054266910227  0.7051673732676099
  0.9486734741457677  0.5865455819281681  0.5933630152573810
  0.7286162894845891  0.6358769219566303  0.1926618722802866
  0.5151238259191075  0.7234842570713228  0.2798358431129014
  0.8297332065172260  0.5800344505008039  0.6444392707626512
  0.1890517782657254  0.9351674208466241  0.7111380935089068
  0.3007386455114086  0.8903140881542174  0.2833794780413272
  0.6326806689410056  0.9928054267461086  0.2864256118172606
  0.8486589069521815  0.3223476248690803  0.9421108829430194
  0.7385720809594851  0.2313167740215342  0.5093463966631951
  0.4944148566498496  0.4105990321410214  0.6096754556864310
  0.8194236553887363  0.6660646876913476  0.8999832366577597
  0.8801077955963358  0.7931091911073894  0.0370274541220245
  0.9058933755528630  0.6763081968286955  0.5072787981453359
  0.1165338533215379  0.1932908405182460  0.0895331661789994
  0.4923634659785851  0.2414719938975046  0.8614839950410487
  0.6971775631707412  0.3995999402895657  0.3333679491605071
 
  0.00000000E+00  0.00000000E+00  0.00000000E+00
  0.00000000E+00  0.00000000E+00  0.00000000E+00
  0.00000000E+00  0.00000000E+00  0.00000000E+00
  0.00000000E+00  0.00000000E+00  0.00000000E+00
  0.00000000E+00  0.00000000E+00  0.00000000E+00
  0.00000000E+00  0.00000000E+00  0.00000000E+00
  0.00000000E+00  0.00000000E+00  0.00000000E+00
  0.00000000E+00  0.00000000E+00  0.00000000E+00
  0.00000000E+00  0.00000000E+00  0.00000000E+00
  0.00000000E+00  0.00000000E+00  0.00000000E+00
  0.00000000E+00  0.00000000E+00  0.00000000E+00
  0.00000000E+00  0.00000000E+00  0.00000000E+00
  0.00000000E+00  0.00000000E+00  0.00000000E+00
  0.00000000E+00  0.00000000E+00  0.00000000E+00
  0.00000000E+00  0.00000000E+00  0.00000000E+00
  0.00000000E+00  0.00000000E+00  0.00000000E+00
  0.00000000E+00  0.00000000E+00  0.00000000E+00
  0.00000000E+00  0.00000000E+00  0.00000000E+00
  0.00000000E+00  0.00000000E+00  0.00000000E+00
  0.00000000E+00  0.00000000E+00  0.00000000E+00
  0.00000000E+00  0.00000000E+00  0.00000000E+00
  0.00000000E+00  0.00000000E+00  0.00000000E+00
  0.00000000E+00  0.00000000E+00  0.00000000E+00
  0.00000000E+00  0.00000000E+00  0.00000000E+00
  0.00000000E+00  0.00000000E+00  0.00000000E+00
  0.00000000E+00  0.00000000E+00  0.00000000E+00
  0.00000000E+00  0.00000000E+00  0.00000000E+00
  0.00000000E+00  0.00000000E+00  0.00000000E+00
  0.00000000E+00  0.00000000E+00  0.00000000E+00
  0.00000000E+00  0.00000000E+00  0.00000000E+00
  0.00000000E+00  0.00000000E+00  0.00000000E+00
  0.00000000E+00  0.00000000E+00  0.00000000E+00
  0.00000000E+00  0.00000000E+00  0.00000000E+00
  0.00000000E+00  0.00000000E+00  0.00000000E+00
  0.00000000E+00  0.00000000E+00  0.00000000E+00
  0.00000000E+00  0.00000000E+00  0.00000000E+00
  0.00000000E+00  0.00000000E+00  0.00000000E+00
  0.00000000E+00  0.00000000E+00  0.00000000E+00
  0.00000000E+00  0.00000000E+00  0.00000000E+00
  0.00000000E+00  0.00000000E+00  0.00000000E+00
  0.00000000E+00  0.00000000E+00  0.00000000E+00
  0.00000000E+00  0.00000000E+00  0.00000000E+00
  0.00000000E+00  0.00000000E+00  0.00000000E+00
  0.00000000E+00  0.00000000E+00  0.00000000E+00
  0.00000000E+00  0.00000000E+00  0.00000000E+00
  0.00000000E+00  0.00000000E+00  0.00000000E+00
  0.00000000E+00  0.00000000E+00  0.00000000E+00
  0.00000000E+00  0.00000000E+00  0.00000000E+00
  0.00000000E+00  0.00000000E+00  0.00000000E+00
  0.00000000E+00  0.00000000E+00  0.00000000E+00
  0.00000000E+00  0.00000000E+00  0.00000000E+00
  0.00000000E+00  0.00000000E+00  0.00000000E+00
  0.00000000E+00  0.00000000E+00  0.00000000E+00
  0.00000000E+00  0.00000000E+00  0.00000000E+00
  0.00000000E+00  0.00000000E+00  0.00000000E+00
  0.00000000E+00  0.00000000E+00  0.00000000E+00
  0.00000000E+00  0.00000000E+00  0.00000000E+00
  0.00000000E+00  0.00000000E+00  0.00000000E+00
  0.00000000E+00  0.00000000E+00  0.00000000E+00
  0.00000000E+00  0.00000000E+00  0.00000000E+00
  0.00000000E+00  0.00000000E+00  0.00000000E+00
  0.00000000E+00  0.00000000E+00  0.00000000E+00
  0.00000000E+00  0.00000000E+00  0.00000000E+00
  0.00000000E+00  0.00000000E+00  0.00000000E+00
  0.00000000E+00  0.00000000E+00  0.00000000E+00
  0.00000000E+00  0.00000000E+00  0.00000000E+00
  0.00000000E+00  0.00000000E+00  0.00000000E+00
  0.00000000E+00  0.00000000E+00  0.00000000E+00
  0.00000000E+00  0.00000000E+00  0.00000000E+00
  0.00000000E+00  0.00000000E+00  0.00000000E+00
  0.00000000E+00  0.00000000E+00  0.00000000E+00
  0.00000000E+00  0.00000000E+00  0.00000000E+00
  0.00000000E+00  0.00000000E+00  0.00000000E+00
  0.00000000E+00  0.00000000E+00  0.00000000E+00
  0.00000000E+00  0.00000000E+00  0.00000000E+00
  0.00000000E+00  0.00000000E+00  0.00000000E+00
  0.00000000E+00  0.00000000E+00  0.00000000E+00
  0.00000000E+00  0.00000000E+00  0.00000000E+00
  0.00000000E+00  0.00000000E+00  0.00000000E+00
  0.00000000E+00  0.00000000E+00  0.00000000E+00
  0.00000000E+00  0.00000000E+00  0.00000000E+00
  0.00000000E+00  0.00000000E+00  0.00000000E+00
  0.00000000E+00  0.00000000E+00  0.00000000E+00
  0.00000000E+00  0.00000000E+00  0.00000000E+00
  0.00000000E+00  0.00000000E+00  0.00000000E+00
  0.00000000E+00  0.00000000E+00  0.00000000E+00
  0.00000000E+00  0.00000000E+00  0.00000000E+00
  0.00000000E+00  0.00000000E+00  0.00000000E+00
  0.00000000E+00  0.00000000E+00  0.00000000E+00
  0.00000000E+00  0.00000000E+00  0.00000000E+00
  0.00000000E+00  0.00000000E+00  0.00000000E+00
  0.00000000E+00  0.00000000E+00  0.00000000E+00
  0.00000000E+00  0.00000000E+00  0.00000000E+00
  0.00000000E+00  0.00000000E+00  0.00000000E+00
  0.00000000E+00  0.00000000E+00  0.00000000E+00
  0.00000000E+00  0.00000000E+00  0.00000000E+00
  0.00000000E+00  0.00000000E+00  0.00000000E+00
  0.00000000E+00  0.00000000E+00  0.00000000E+00
  0.00000000E+00  0.00000000E+00  0.00000000E+00
  0.00000000E+00  0.00000000E+00  0.00000000E+00
  0.00000000E+00  0.00000000E+00  0.00000000E+00
  0.00000000E+00  0.00000000E+00  0.00000000E+00
  0.00000000E+00  0.00000000E+00  0.00000000E+00
  0.00000000E+00  0.00000000E+00  0.00000000E+00
  0.00000000E+00  0.00000000E+00  0.00000000E+00
  0.00000000E+00  0.00000000E+00  0.00000000E+00
  0.00000000E+00  0.00000000E+00  0.00000000E+00
  0.00000000E+00  0.00000000E+00  0.00000000E+00
  0.00000000E+00  0.00000000E+00  0.00000000E+00
  0.00000000E+00  0.00000000E+00  0.00000000E+00
  0.00000000E+00  0.00000000E+00  0.00000000E+00
  0.00000000E+00  0.00000000E+00  0.00000000E+00
  0.00000000E+00  0.00000000E+00  0.00000000E+00
  0.00000000E+00  0.00000000E+00  0.00000000E+00
  0.00000000E+00  0.00000000E+00  0.00000000E+00
  0.00000000E+00  0.00000000E+00  0.00000000E+00
  0.00000000E+00  0.00000000E+00  0.00000000E+00
  0.00000000E+00  0.00000000E+00  0.00000000E+00
  0.00000000E+00  0.00000000E+00  0.00000000E+00
  0.00000000E+00  0.00000000E+00  0.00000000E+00
  0.00000000E+00  0.00000000E+00  0.00000000E+00
  0.00000000E+00  0.00000000E+00  0.00000000E+00
  0.00000000E+00  0.00000000E+00  0.00000000E+00
  0.00000000E+00  0.00000000E+00  0.00000000E+00
  0.00000000E+00  0.00000000E+00  0.00000000E+00
  0.00000000E+00  0.00000000E+00  0.00000000E+00
  0.00000000E+00  0.00000000E+00  0.00000000E+00
  0.00000000E+00  0.00000000E+00  0.00000000E+00
  0.00000000E+00  0.00000000E+00  0.00000000E+00
  0.00000000E+00  0.00000000E+00  0.00000000E+00
  0.00000000E+00  0.00000000E+00  0.00000000E+00
  0.00000000E+00  0.00000000E+00  0.00000000E+00
  0.00000000E+00  0.00000000E+00  0.00000000E+00
  0.00000000E+00  0.00000000E+00  0.00000000E+00
  0.00000000E+00  0.00000000E+00  0.00000000E+00
  0.00000000E+00  0.00000000E+00  0.00000000E+00
  0.00000000E+00  0.00000000E+00  0.00000000E+00
  0.00000000E+00  0.00000000E+00  0.00000000E+00
  0.00000000E+00  0.00000000E+00  0.00000000E+00
  0.00000000E+00  0.00000000E+00  0.00000000E+00
  0.00000000E+00  0.00000000E+00  0.00000000E+00
  0.00000000E+00  0.00000000E+00  0.00000000E+00
  0.00000000E+00  0.00000000E+00  0.00000000E+00
  0.00000000E+00  0.00000000E+00  0.00000000E+00
  0.00000000E+00  0.00000000E+00  0.00000000E+00
  0.00000000E+00  0.00000000E+00  0.00000000E+00
  0.00000000E+00  0.00000000E+00  0.00000000E+00
  0.00000000E+00  0.00000000E+00  0.00000000E+00
  0.00000000E+00  0.00000000E+00  0.00000000E+00
  0.00000000E+00  0.00000000E+00  0.00000000E+00
  0.00000000E+00  0.00000000E+00  0.00000000E+00
  0.00000000E+00  0.00000000E+00  0.00000000E+00
  0.00000000E+00  0.00000000E+00  0.00000000E+00
  0.00000000E+00  0.00000000E+00  0.00000000E+00
  0.00000000E+00  0.00000000E+00  0.00000000E+00
  0.00000000E+00  0.00000000E+00  0.00000000E+00
  0.00000000E+00  0.00000000E+00  0.00000000E+00
  0.00000000E+00  0.00000000E+00  0.00000000E+00
  0.00000000E+00  0.00000000E+00  0.00000000E+00
  0.00000000E+00  0.00000000E+00  0.00000000E+00
  0.00000000E+00  0.00000000E+00  0.00000000E+00
  0.00000000E+00  0.00000000E+00  0.00000000E+00
  0.00000000E+00  0.00000000E+00  0.00000000E+00
  0.00000000E+00  0.00000000E+00  0.00000000E+00
  0.00000000E+00  0.00000000E+00  0.00000000E+00
  0.00000000E+00  0.00000000E+00  0.00000000E+00
  0.00000000E+00  0.00000000E+00  0.00000000E+00
  0.00000000E+00  0.00000000E+00  0.00000000E+00
  0.00000000E+00  0.00000000E+00  0.00000000E+00
  0.00000000E+00  0.00000000E+00  0.00000000E+00
  0.00000000E+00  0.00000000E+00  0.00000000E+00
  0.00000000E+00  0.00000000E+00  0.00000000E+00
  0.00000000E+00  0.00000000E+00  0.00000000E+00
  0.00000000E+00  0.00000000E+00  0.00000000E+00
  0.00000000E+00  0.00000000E+00  0.00000000E+00
  0.00000000E+00  0.00000000E+00  0.00000000E+00
  0.00000000E+00  0.00000000E+00  0.00000000E+00
  0.00000000E+00  0.00000000E+00  0.00000000E+00
  0.00000000E+00  0.00000000E+00  0.00000000E+00
  0.00000000E+00  0.00000000E+00  0.00000000E+00
  0.00000000E+00  0.00000000E+00  0.00000000E+00
  0.00000000E+00  0.00000000E+00  0.00000000E+00
  0.00000000E+00  0.00000000E+00  0.00000000E+00
  0.00000000E+00  0.00000000E+00  0.00000000E+00
  0.00000000E+00  0.00000000E+00  0.00000000E+00
  0.00000000E+00  0.00000000E+00  0.00000000E+00
  0.00000000E+00  0.00000000E+00  0.00000000E+00
  0.00000000E+00  0.00000000E+00  0.00000000E+00
  0.00000000E+00  0.00000000E+00  0.00000000E+00
  0.00000000E+00  0.00000000E+00  0.00000000E+00
  0.00000000E+00  0.00000000E+00  0.00000000E+00
  0.00000000E+00  0.00000000E+00  0.00000000E+00
  0.00000000E+00  0.00000000E+00  0.00000000E+00
  0.00000000E+00  0.00000000E+00  0.00000000E+00
  0.00000000E+00  0.00000000E+00  0.00000000E+00
  0.00000000E+00  0.00000000E+00  0.00000000E+00
  0.00000000E+00  0.00000000E+00  0.00000000E+00
  0.00000000E+00  0.00000000E+00  0.00000000E+00
  0.00000000E+00  0.00000000E+00  0.00000000E+00
  0.00000000E+00  0.00000000E+00  0.00000000E+00
  0.00000000E+00  0.00000000E+00  0.00000000E+00
  0.00000000E+00  0.00000000E+00  0.00000000E+00
  0.00000000E+00  0.00000000E+00  0.00000000E+00
  0.00000000E+00  0.00000000E+00  0.00000000E+00
  0.00000000E+00  0.00000000E+00  0.00000000E+00
  0.00000000E+00  0.00000000E+00  0.00000000E+00
  0.00000000E+00  0.00000000E+00  0.00000000E+00
  0.00000000E+00  0.00000000E+00  0.00000000E+00
  0.00000000E+00  0.00000000E+00  0.00000000E+00
  0.00000000E+00  0.00000000E+00  0.00000000E+00
  0.00000000E+00  0.00000000E+00  0.00000000E+00
  0.00000000E+00  0.00000000E+00  0.00000000E+00
  0.00000000E+00  0.00000000E+00  0.00000000E+00
  0.00000000E+00  0.00000000E+00  0.00000000E+00
  0.00000000E+00  0.00000000E+00  0.00000000E+00
  0.00000000E+00  0.00000000E+00  0.00000000E+00
  0.00000000E+00  0.00000000E+00  0.00000000E+00
  0.00000000E+00  0.00000000E+00  0.00000000E+00
  0.00000000E+00  0.00000000E+00  0.00000000E+00
  0.00000000E+00  0.00000000E+00  0.00000000E+00
  0.00000000E+00  0.00000000E+00  0.00000000E+00
  0.00000000E+00  0.00000000E+00  0.00000000E+00
  0.00000000E+00  0.00000000E+00  0.00000000E+00
  0.00000000E+00  0.00000000E+00  0.00000000E+00
  0.00000000E+00  0.00000000E+00  0.00000000E+00
  0.00000000E+00  0.00000000E+00  0.00000000E+00
  0.00000000E+00  0.00000000E+00  0.00000000E+00
  0.00000000E+00  0.00000000E+00  0.00000000E+00
  0.00000000E+00  0.00000000E+00  0.00000000E+00
  0.00000000E+00  0.00000000E+00  0.00000000E+00
  0.00000000E+00  0.00000000E+00  0.00000000E+00
  0.00000000E+00  0.00000000E+00  0.00000000E+00