Amorphous Sb                            
   1.00000000000000     
    19.4978869700586870    0.0000000000000000    0.0000000000000000
     0.0000000000000000   19.4978869700586870    0.0000000000000000
     0.0000000000000000    0.0000000000000000   19.4978869700586870
   Ge   Se
   150   150
Direct
  0.8811127893840549  0.9245583210447634  0.7666261401700467
  0.3303286028003924  0.5372083260960423  0.5060552398361509
  0.2132202211817997  0.2522426102899260  0.6274533604138952
  0.7912607307086077  0.0621761892106889  0.5510999445606757
  0.0247018942300699  0.3452579190578149  0.8294567761924156
  0.1548565655740077  0.7762722768074397  0.8838636074811177
  0.1452826311326660  0.7894402532724740  0.2941741850756330
  0.3223480787287158  0.7142986880024011  0.5443510131528271
  0.3539667447812818  0.7519663187943024  0.1960108866562038
  0.1388664854465915  0.1073937159418321  0.5820201900904678
  0.0630250467548237  0.5152777922070726  0.2448688608822991
  0.9824091920286762  0.4150506120590052  0.7087366384807439
  0.6515475497540422  0.3806822869107123  0.6041266521410691
  0.2291423932306387  0.8102590733537482  0.5273676103920479
  0.6948992552549882  0.9885663021876212  0.3897383651817705
  0.9175172451302274  0.7412841674658424  0.3267952166276302
  0.1157450558259754  0.6095975134342950  0.3296594742632877
  0.8337952915044795  0.4166728326565874  0.2798173392749703
  0.2898855023885787  0.5876996571856665  0.7348316926926444
  0.8218633613426718  0.9408603241822888  0.2635899041622878
  0.2387529917177105  0.6328124568534008  0.9211543495403305
  0.4689890044746434  0.5946982485965506  0.9680707887407536
  0.8220619863346030  0.0941011820222784  0.9729717330706578
  0.8443312486185306  0.3425723275608732  0.1353568272302326
  0.6088564775206180  0.4048514866690809  0.2473806971989063
  0.5763207211249650  0.4175872438110915  0.7438970066229871
  0.4551947696375223  0.8183344008222591  0.3272172699032225
  0.7719454631010123  0.8764294941084145  0.9019636376736813
  0.7224797218724461  0.6327474212326365  0.5641194141756500
  0.7611401812004459  0.7059630528036465  0.3790132230210475
  0.3858438544824310  0.1358345738059157  0.8466506330573793
  0.3321375078082625  0.9508522975866214  0.0832407728062563
  0.8673268640929592  0.5698117255983206  0.4271650060771179
  0.1917452725579167  0.2422122796343729  0.4464438748722515
  0.1085110585023514  0.4628558885622880  0.6873015062092733
  0.5960538553662715  0.7466045403603161  0.9138002268324499
  0.3003240627272632  0.9707998137390987  0.8973291689202085
  0.3502425368773956  0.2335075618976319  0.3792788652315053
  0.1248005690384701  0.1878624259493193  0.9764780880890314
  0.8288917719032582  0.3247766764455804  0.8323947067045196
  0.9527588630973582  0.1700852416029193  0.1388566317144964
  0.8232940977132586  0.2359678946099208  0.6322230605808343
  0.5413399182141703  0.9275013495350919  0.0415870523881807
  0.2859921912811103  0.0574698608389710  0.3895471006358520
  0.2101702449874878  0.8867231689421331  0.4064848146168174
  0.3651736005185100  0.4714061809381107  0.3128440505790095
  0.7679040645056716  0.5488481315358982  0.2165356853608245
  0.2999621772649164  0.0923411193904542  0.1250014319479007
  0.8227425935694512  0.7491740539858824  0.8221919917279905
  0.5080938522884537  0.2465462857054277  0.2318569796187404
  0.9486566178915226  0.6257733140453752  0.5194447324331293
  0.2413675460974218  0.4575356997839251  0.0601137965582623
  0.4621640314623008  0.9658849974363122  0.6770680059936254
  0.4003924314484166  0.3394897954659797  0.7911960471404811
  0.7810667752496911  0.4205309878777541  0.7472584133145190
  0.8921627886353249  0.8798636890129998  0.5340173565510895
  0.2742241768825409  0.6631137774662648  0.3586282200517701
  0.9934071080090874  0.4015396977964869  0.4406855633655482
  0.3323437771024587  0.0925081978141904  0.6555608877654606
  0.5232711298097570  0.3181855136033889  0.4292942947297647
  0.4948131190465972  0.0034313225861027  0.3869882627969403
  0.4525657649163222  0.5683928354035785  0.7916127062647078
  0.5994041188913926  0.6321460123455935  0.3259090921205896
  0.8407592085326669  0.0979483595793837  0.7669255761938061
  0.3431414925936735  0.9648962821706348  0.2474400248306168
  0.9753631478604845  0.4074888964825405  0.1090414752094730
  0.7370270365608320  0.8192511997233112  0.6373449631873456
  0.9778944188249383  0.6335380230280023  0.7079621082179557
  0.5247994153149875  0.2509860059018791  0.9836776601390795
  0.8639039892414289  0.4672988786334571  0.9321904396282861
  0.1854746078381098  0.1939446492844752  0.7924729361367966
  0.3263036656188589  0.3007049852430370  0.1943855648322739
  0.1283664170769256  0.5566374560148262  0.5070537344011825
  0.7291561294933331  0.7963489033008457  0.2058955466400008
  0.5816995733345465  0.4911072661322322  0.5562762125578189
  0.4426594924283904  0.0614780777482338  0.0367134494079906
  0.2029514186373902  0.1608879032497725  0.2751410956538223
  0.0159001509955772  0.7678624115069042  0.9834644201392848
  0.0894877440419108  0.7772131692087640  0.7360390744882679
  0.2074607559604544  0.3201532868376660  0.0804554536050333
  0.5750449476541064  0.1590745911344484  0.1405689977275202
  0.0975522464452752  0.5822480986868399  0.0297317048415096
  0.6537891609450028  0.5143563124654307  0.0366260595435648
  0.8560178069729361  0.3842095389143978  0.6185003609733144
  0.9586513239137702  0.0452680002958132  0.6716578179406199
  0.5992432104848078  0.1466539533545088  0.9293727512991126
  0.5306177007673156  0.8299501272301768  0.6616354654076062
  0.9058875752051421  0.2682757151926296  0.4316686069180520
  0.6764619218206249  0.7073671314967669  0.6889253121864058
  0.7247164582900893  0.3254561114822465  0.4348390730375513
  0.6256453291866606  0.2924721786209545  0.8069443826714675
  0.0453079248395909  0.8135133812159410  0.4989058930097414
  0.4238201581531271  0.4485633019763924  0.4589732420767447
  0.6625553357970517  0.0265871986931288  0.2606182632762071
  0.5802187199926934  0.8760332351825113  0.4973565273861809
  0.6000431108257729  0.0781126994991155  0.5264189603322720
  0.3199875374817083  0.2838614380847275  0.0060738841463177
  0.2255530944063580  0.4115755654861530  0.7309326819811091
  0.4307569193697205  0.5641672193218312  0.6256909402421655
  0.1346518084575479  0.3584450340308649  0.9094079606507037
  0.1466492815249225  0.3565900019495700  0.1962953649026176
  0.6862906734358205  0.3648629579759728  0.9906624488629845
  0.2183673182618193  0.5741742428093062  0.2042169322281566
  0.1100291894441412  0.1295353455215604  0.1818243914079432
  0.3346860701196590  0.7930245597107017  0.8847094464883583
  0.8443245423381143  0.8147768725870961  0.0515728941274745
  0.6414416911404359  0.2792110069474631  0.0935876585694331
  0.9855514937238681  0.7996755709425898  0.1761840951627960
  0.6725365032971382  0.0228064399189520  0.8847609225688728
  0.6500891488329117  0.8896327116816138  0.7195318608562005
  0.0223861456907670  0.0073128414000863  0.4182179593728961
  0.9988240558387815  0.9881559934565516  0.1698342252492466
  0.4263498318047141  0.7919146510783150  0.5872313520470698
  0.8461148755550880  0.0756899214502695  0.2669485862742960
  0.5751959499366066  0.8075836340606202  0.2017655809968772
  0.5969753590268354  0.7074074118179254  0.5160560887573524
  0.4318549413396795  0.4693369805945551  0.1186279785550894
  0.8556967796262640  0.5713301504568236  0.6801427090725696
  0.9673877058308022  0.1585940636826990  0.2985094726380240
  0.1190822096176447  0.9164997323953230  0.5962743175423171
  0.5614645989688682  0.4703929428454572  0.4034547084743210
  0.0072370508533268  0.3422620397586797  0.3089264310503026
  0.0779992427463938  0.5169998574319834  0.8315184093730750
  0.1210826233658722  0.9678009889286301  0.7763335983829691
  0.2016084598446497  0.3861690805590499  0.4956258246212286
  0.3098900602131849  0.4402875890470881  0.8806442356236062
  0.3308371941932577  0.0233092853236414  0.5223215941953754
  0.4880941974284596  0.9390699139500001  0.8499356561724056
  0.0875249267641536  0.0602970594585983  0.8645133233342932
  0.4343321749519120  0.7724478147544502  0.0534772886263752
  0.5225719354063472  0.5848769672183849  0.1574678804828125
  0.9121594209056525  0.6236046866134046  0.0943534135863686
  0.4779712693241862  0.1730819162587736  0.7508892276805597
  0.5615057707874840  0.3749590983126367  0.9349596565322074
  0.9474227803352662  0.6168570319299320  0.8933640362792943
  0.1655777353175552  0.0388776086969003  0.0093033506804687
  0.9368176583613987  0.1759296479233257  0.9239219048478446
  0.8309068156491364  0.0782195592823172  0.4185100362364551
  0.5128558643523178  0.1275917013264731  0.3352414741988596
  0.2922166717139092  0.8890014816617082  0.7078941249582940
  0.7388832471970090  0.2458877252256997  0.3060032914257036
  0.6780366191401370  0.5865316023192406  0.7555572377377757
  0.1294605867927956  0.6722611523533928  0.5938668065702686
  0.9423313804401729  0.9870880120234631  0.9638339894152494
  0.6091430579087245  0.1821662632369723  0.6210556426326335
  0.3853813070550629  0.2743973451341049  0.5553748384180253
  0.1675446309625173  0.7938058705587991  0.1058391739273503
  0.7051018039057482  0.6985820795160933  0.0934629099160986
  0.0177229738069542  0.2349867501109415  0.6604815016979444
  0.7144869185950569  0.6012441021659072  0.9265569793311315
  0.2220488106674310  0.0726634788415836  0.8601727959415513
  0.8953915614849706  0.9580754355929315  0.4224962479676222
  0.8872481890589583  0.6145274111472219  0.3107838267566336
  0.1392811698908218  0.3126311876228485  0.7309270614537198
  0.4044072951080011  0.5994494758351721  0.0855455798184437
  0.0409832522760283  0.0507240609313726  0.2833314232148680
  0.3586710076012523  0.4137024259817537  0.0060598575307935
  0.9429850334274690  0.0624437346105893  0.8495695449718497
  0.7198219302227287  0.3232195081433531  0.1927496004093499
  0.3472107310220451  0.8946944992905941  0.5763257765887460
  0.9430923966198606  0.9025724397307897  0.2548823769729651
  0.5699978832224843  0.9930922004150275  0.7564912131706549
  0.6683716469545260  0.7827690098985514  0.7960145788347290
  0.3764466347645126  0.4841246675585467  0.7150121448157236
  0.5916895431234153  0.6332374070300517  0.0529812397584877
  0.4229875685802114  0.2557347015710221  0.8993659054560013
  0.3338924130056498  0.1230387785973548  0.2805049357603622
  0.5020008471934432  0.9907202117575622  0.5161816911544364
  0.0339951470339983  0.8947349677740561  0.7143919214758654
  0.7338939832859097  0.1316697370686484  0.2273776184655247
  0.6283191316567880  0.0862727110991131  0.0434241489073059
  0.6060342629981221  0.1637020454675095  0.7733185902631234
  0.2021776106093114  0.1919602294295331  0.1002176218296427
  0.0475140688701003  0.2192932381373183  0.8564817546029957
  0.0669990573766981  0.2351612870469353  0.3468541513612919
  0.3542053069304245  0.5668308149577612  0.8905568626793396
  0.2371834392869587  0.5889825626898286  0.0717274754611665
  0.4596393253138373  0.2050289264576364  0.4559110234924262
  0.3951768599323273  0.6637757318741748  0.7156141719389879
  0.2841476923411363  0.8624038173882909  0.1674063376239729
  0.6856460265530657  0.9846765538406714  0.5417675964247906
  0.1880168014977386  0.4738262780433473  0.9338409802358427
  0.5853044610987794  0.9137927707810434  0.3657039030683293
  0.5673519738865664  0.7975885085978121  0.0694304248237856
  0.2298428556997720  0.2867396356560334  0.2853193743414053
  0.0828581694416073  0.6331645545203628  0.9022285252215951
  0.6788402034536674  0.4650836836541004  0.8226484801489491
  0.2004991585876752  0.9884332548680703  0.6758945096311066
  0.4146463023043268  0.3158647192491131  0.2923524055687423
  0.6788115936506074  0.4623445431235211  0.3482249885951205
  0.5971240128953497  0.6175708232591148  0.8654200716223244
  0.2725521457074578  0.3772228873637644  0.6102310682000933
  0.2494020617352461  0.7115707309090880  0.8126688656049765
  0.9468392432948463  0.1401782617528866  0.4299826023503925
  0.4556770975517850  0.8659572535800066  0.1993338527526092
  0.4905988502042149  0.0757087688571687  0.9132427868244406
  0.7296721464003397  0.5249639304082621  0.6433812318715013
  0.2227140731712467  0.9754976739693788  0.3079344040914833
  0.1389834889965869  0.7216631028546701  0.4692403248495793
  0.6332232375710802  0.7455803109173189  0.3880699424605751
  0.8826642057999834  0.2298241760147306  0.7603816488419284
  0.3907416538150557  0.9304569855874405  0.3743988391918052
  0.7476259088101358  0.9574919281820371  0.7873990231694350
  0.2064957648513683  0.9861307571186657  0.4998476987382219
  0.7240785138903618  0.7300556805410068  0.9655418664721651
  0.7125133096619649  0.6637281360815024  0.2594733965310070
  0.0768485867245019  0.8847302239729160  0.3898957051331635
  0.2318627156809612  0.9246348659199768  0.0032912497192541
  0.9210233071023595  0.3450320586756135  0.9216982818032093
  0.0424009168327188  0.7061512541432791  0.2826415978496044
  0.2143922003146557  0.7092858115995639  0.2001389546327275
  0.9478745983411940  0.5035306918638227  0.8009570677233171
  0.3268729617502473  0.7812665325950192  0.3254962397617831
  0.4868624877366301  0.2922314512685134  0.7037176347894771
  0.5554890135641415  0.5408455975925932  0.6804967057292970
  0.0951492567782424  0.2330492930721348  0.5400242799590629
  0.8595762756059102  0.2344524317847103  0.0673016699345581
  0.5410797427100604  0.0519066940010404  0.2221486538385662
  0.9569950613576594  0.5157559584261762  0.0119474717622765
  0.1824002017438033  0.0239801926806962  0.1442977620257366
  0.7570177837676582  0.4111337329919138  0.5314349415726909
  0.5372550180560296  0.5927217619031637  0.4812679010852250
  0.2283361195069631  0.5075503095134763  0.4302597951973510
  0.7783409036068178  0.9155062999063972  0.1424072628162065
  0.4834014798260569  0.7850316647171169  0.4727160485545028
  0.0722978476640463  0.9557709164044823  0.9470641081257369
  0.5957478009732142  0.9017330143771360  0.9215308853882362
  0.4993388099504514  0.4907693639402737  0.2887688622998468
  0.8972954980223733  0.7027949651776737  0.9855941491702893
  0.7404941834378391  0.1600782353958223  0.0552937583977098
  0.7529550924879231  0.9800987824396259  0.9836438532681271
  0.6580571025583595  0.9523256128253266  0.1550409562306783
  0.8848275797042078  0.0550948037144821  0.1417613295144449
  0.0151913777636352  0.7377863793226922  0.6325633940267608
  0.8698059796174178  0.4403307972458705  0.4081987539668219
  0.3067118173206680  0.2025686834151728  0.7252631677591381
  0.8507963898581608  0.7467000677240492  0.1652639415262271
  0.5137340794611944  0.6903038311799392  0.2383626490909734
  0.3227899681294275  0.0920163670740948  0.9917975234245588
  0.7384851179072811  0.5827776389791666  0.4423302251666712
  0.5325830777322622  0.3421381419390599  0.1421198885867483
  0.4467207622702247  0.8425408248053401  0.7583456338005092
  0.7557998458873598  0.8542482982724593  0.3267829630608077
  0.4455512040490319  0.7264113927659892  0.9278608205493484
  0.1029171923998362  0.8685536417411583  0.1977497881950612
  0.1712998032798794  0.1209320375228984  0.3953043137520709
  0.8529014497898544  0.9744071560576160  0.6224942559736633
  0.2411126590334050  0.2869676718873251  0.8963450840633840
  0.1064235918086567  0.5929094018586412  0.7224884743977498
  0.0987087053793374  0.4686531685017741  0.1280698336226678
  0.5520503051073504  0.7029765919715487  0.6619124842205792
  0.0599461719362608  0.6981949789050574  0.0885462374772175
  0.5959496880871384  0.2772489223919266  0.3239668232630919
  0.4578465239273513  0.1853940218312644  0.0825753949029888
  0.7816979266977810  0.5887467081629438  0.0876547023635510
  0.6301935035639374  0.1106738463513963  0.4026739842081355
  0.2534561842159277  0.7509869164189169  0.9831875583531442
  0.7138867995596954  0.3104219718932910  0.7064487267145338
  0.2090201593663892  0.8872831250606694  0.8278588691476898
  0.3742419012586637  0.6451295951250415  0.4456342715964396
  0.0361996434580121  0.0181821390677896  0.5631885146916815
  0.7592280290856195  0.1286792576279296  0.8615884361432506
  0.0352802699169104  0.5484630006589413  0.4154057917381735
  0.0132236254556943  0.1261068522071227  0.0251895013939816
  0.4730522012348288  0.4160805388982851  0.5716357512984018
  0.6228223653497480  0.2823343733115493  0.5133315625379424
  0.2036411246892342  0.7800755869100513  0.6562009133665825
  0.8426464977539396  0.6714132519743004  0.5914074132036546
  0.1257854737548598  0.4206562421614350  0.3075362970488769
  0.9386774872734804  0.4796091299036007  0.2161219921197173
  0.0939057950902082  0.4410010038766643  0.5598376950697457
  0.0896923143042727  0.3174396048697758  0.0227407939056121
  0.7278957653724163  0.2775427109395920  0.9034139624695712
  0.0316494035618078  0.3002929442572722  0.1840592541020385
  0.7681763296829160  0.8328554415105245  0.5158732155619603
  0.7958233801170493  0.6158834000060622  0.8199949985318398
  0.4144428737342807  0.8937514328869653  0.9963351652983263
  0.4848667151758193  0.4300955077174535  0.8434251051761024
  0.7934001777792403  0.2213194086054955  0.4753338876677375
  0.7355299538583111  0.1332119347176928  0.6466913234571692
  0.3382327894672201  0.5947062668609817  0.2632435393563028
  0.2621883279060171  0.6084357124099427  0.5964740596437679
  0.9604949738407598  0.7199591025194891  0.8068247679035778
  0.5299104867636260  0.4674196084295303  0.0180724749539038
  0.9667003843674493  0.8690701063403736  0.0623973127843271
  0.9056818710219119  0.8768887700651220  0.8909803088189889
  0.9490822074328378  0.3246380308370931  0.5493444921315174
  0.3633773208618720  0.0083431310278854  0.7544853888903447
  0.3380020515934987  0.3511623403010304  0.4531483753174186
  0.8486639612741982  0.8079040012508969  0.7013447571590206
  0.9262238263995144  0.1524941554351713  0.6012923404187163
  0.8733859595769644  0.2869739754312448  0.2840833065441259
  0.7921435588039500  0.4182327316484660  0.0396098013720163
  0.3056898002314057  0.4337928060783867  0.1956470795543268
  0.4642236385370637  0.1147234061333293  0.6368066292928987
  0.9377269145329876  0.7449762785635414  0.4561350937844040
  0.0915581314220475  0.1301230812172136  0.7042366660073753
  0.9279095754551179  0.4946295208333922  0.6000866211658149
  0.6489852332724482  0.5085429438414621  0.1714796459414174
  0.2882566881470865  0.1847884691756576  0.5252180068028807
 
  0.00000000E+00  0.00000000E+00  0.00000000E+00
  0.00000000E+00  0.00000000E+00  0.00000000E+00
  0.00000000E+00  0.00000000E+00  0.00000000E+00
  0.00000000E+00  0.00000000E+00  0.00000000E+00
  0.00000000E+00  0.00000000E+00  0.00000000E+00
  0.00000000E+00  0.00000000E+00  0.00000000E+00
  0.00000000E+00  0.00000000E+00  0.00000000E+00
  0.00000000E+00  0.00000000E+00  0.00000000E+00
  0.00000000E+00  0.00000000E+00  0.00000000E+00
  0.00000000E+00  0.00000000E+00  0.00000000E+00
  0.00000000E+00  0.00000000E+00  0.00000000E+00
  0.00000000E+00  0.00000000E+00  0.00000000E+00
  0.00000000E+00  0.00000000E+00  0.00000000E+00
  0.00000000E+00  0.00000000E+00  0.00000000E+00
  0.00000000E+00  0.00000000E+00  0.00000000E+00
  0.00000000E+00  0.00000000E+00  0.00000000E+00
  0.00000000E+00  0.00000000E+00  0.00000000E+00
  0.00000000E+00  0.00000000E+00  0.00000000E+00
  0.00000000E+00  0.00000000E+00  0.00000000E+00
  0.00000000E+00  0.00000000E+00  0.00000000E+00
  0.00000000E+00  0.00000000E+00  0.00000000E+00
  0.00000000E+00  0.00000000E+00  0.00000000E+00
  0.00000000E+00  0.00000000E+00  0.00000000E+00
  0.00000000E+00  0.00000000E+00  0.00000000E+00
  0.00000000E+00  0.00000000E+00  0.00000000E+00
  0.00000000E+00  0.00000000E+00  0.00000000E+00
  0.00000000E+00  0.00000000E+00  0.00000000E+00
  0.00000000E+00  0.00000000E+00  0.00000000E+00
  0.00000000E+00  0.00000000E+00  0.00000000E+00
  0.00000000E+00  0.00000000E+00  0.00000000E+00
  0.00000000E+00  0.00000000E+00  0.00000000E+00
  0.00000000E+00  0.00000000E+00  0.00000000E+00
  0.00000000E+00  0.00000000E+00  0.00000000E+00
  0.00000000E+00  0.00000000E+00  0.00000000E+00
  0.00000000E+00  0.00000000E+00  0.00000000E+00
  0.00000000E+00  0.00000000E+00  0.00000000E+00
  0.00000000E+00  0.00000000E+00  0.00000000E+00
  0.00000000E+00  0.00000000E+00  0.00000000E+00
  0.00000000E+00  0.00000000E+00  0.00000000E+00
  0.00000000E+00  0.00000000E+00  0.00000000E+00
  0.00000000E+00  0.00000000E+00  0.00000000E+00
  0.00000000E+00  0.00000000E+00  0.00000000E+00
  0.00000000E+00  0.00000000E+00  0.00000000E+00
  0.00000000E+00  0.00000000E+00  0.00000000E+00
  0.00000000E+00  0.00000000E+00  0.00000000E+00
  0.00000000E+00  0.00000000E+00  0.00000000E+00
  0.00000000E+00  0.00000000E+00  0.00000000E+00
  0.00000000E+00  0.00000000E+00  0.00000000E+00
  0.00000000E+00  0.00000000E+00  0.00000000E+00
  0.00000000E+00  0.00000000E+00  0.00000000E+00
  0.00000000E+00  0.00000000E+00  0.00000000E+00
  0.00000000E+00  0.00000000E+00  0.00000000E+00
  0.00000000E+00  0.00000000E+00  0.00000000E+00
  0.00000000E+00  0.00000000E+00  0.00000000E+00
  0.00000000E+00  0.00000000E+00  0.00000000E+00
  0.00000000E+00  0.00000000E+00  0.00000000E+00
  0.00000000E+00  0.00000000E+00  0.00000000E+00
  0.00000000E+00  0.00000000E+00  0.00000000E+00
  0.00000000E+00  0.00000000E+00  0.00000000E+00
  0.00000000E+00  0.00000000E+00  0.00000000E+00
  0.00000000E+00  0.00000000E+00  0.00000000E+00
  0.00000000E+00  0.00000000E+00  0.00000000E+00
  0.00000000E+00  0.00000000E+00  0.00000000E+00
  0.00000000E+00  0.00000000E+00  0.00000000E+00
  0.00000000E+00  0.00000000E+00  0.00000000E+00
  0.00000000E+00  0.00000000E+00  0.00000000E+00
  0.00000000E+00  0.00000000E+00  0.00000000E+00
  0.00000000E+00  0.00000000E+00  0.00000000E+00
  0.00000000E+00  0.00000000E+00  0.00000000E+00
  0.00000000E+00  0.00000000E+00  0.00000000E+00
  0.00000000E+00  0.00000000E+00  0.00000000E+00
  0.00000000E+00  0.00000000E+00  0.00000000E+00
  0.00000000E+00  0.00000000E+00  0.00000000E+00
  0.00000000E+00  0.00000000E+00  0.00000000E+00
  0.00000000E+00  0.00000000E+00  0.00000000E+00
  0.00000000E+00  0.00000000E+00  0.00000000E+00
  0.00000000E+00  0.00000000E+00  0.00000000E+00
  0.00000000E+00  0.00000000E+00  0.00000000E+00
  0.00000000E+00  0.00000000E+00  0.00000000E+00
  0.00000000E+00  0.00000000E+00  0.00000000E+00
  0.00000000E+00  0.00000000E+00  0.00000000E+00
  0.00000000E+00  0.00000000E+00  0.00000000E+00
  0.00000000E+00  0.00000000E+00  0.00000000E+00
  0.00000000E+00  0.00000000E+00  0.00000000E+00
  0.00000000E+00  0.00000000E+00  0.00000000E+00
  0.00000000E+00  0.00000000E+00  0.00000000E+00
  0.00000000E+00  0.00000000E+00  0.00000000E+00
  0.00000000E+00  0.00000000E+00  0.00000000E+00
  0.00000000E+00  0.00000000E+00  0.00000000E+00
  0.00000000E+00  0.00000000E+00  0.00000000E+00
  0.00000000E+00  0.00000000E+00  0.00000000E+00
  0.00000000E+00  0.00000000E+00  0.00000000E+00
  0.00000000E+00  0.00000000E+00  0.00000000E+00
  0.00000000E+00  0.00000000E+00  0.00000000E+00
  0.00000000E+00  0.00000000E+00  0.00000000E+00
  0.00000000E+00  0.00000000E+00  0.00000000E+00
  0.00000000E+00  0.00000000E+00  0.00000000E+00
  0.00000000E+00  0.00000000E+00  0.00000000E+00
  0.00000000E+00  0.00000000E+00  0.00000000E+00
  0.00000000E+00  0.00000000E+00  0.00000000E+00
  0.00000000E+00  0.00000000E+00  0.00000000E+00
  0.00000000E+00  0.00000000E+00  0.00000000E+00
  0.00000000E+00  0.00000000E+00  0.00000000E+00
  0.00000000E+00  0.00000000E+00  0.00000000E+00
  0.00000000E+00  0.00000000E+00  0.00000000E+00
  0.00000000E+00  0.00000000E+00  0.00000000E+00
  0.00000000E+00  0.00000000E+00  0.00000000E+00
  0.00000000E+00  0.00000000E+00  0.00000000E+00
  0.00000000E+00  0.00000000E+00  0.00000000E+00
  0.00000000E+00  0.00000000E+00  0.00000000E+00
  0.00000000E+00  0.00000000E+00  0.00000000E+00
  0.00000000E+00  0.00000000E+00  0.00000000E+00
  0.00000000E+00  0.00000000E+00  0.00000000E+00
  0.00000000E+00  0.00000000E+00  0.00000000E+00
  0.00000000E+00  0.00000000E+00  0.00000000E+00
  0.00000000E+00  0.00000000E+00  0.00000000E+00
  0.00000000E+00  0.00000000E+00  0.00000000E+00
  0.00000000E+00  0.00000000E+00  0.00000000E+00
  0.00000000E+00  0.00000000E+00  0.00000000E+00
  0.00000000E+00  0.00000000E+00  0.00000000E+00
  0.00000000E+00  0.00000000E+00  0.00000000E+00
  0.00000000E+00  0.00000000E+00  0.00000000E+00
  0.00000000E+00  0.00000000E+00  0.00000000E+00
  0.00000000E+00  0.00000000E+00  0.00000000E+00
  0.00000000E+00  0.00000000E+00  0.00000000E+00
  0.00000000E+00  0.00000000E+00  0.00000000E+00
  0.00000000E+00  0.00000000E+00  0.00000000E+00
  0.00000000E+00  0.00000000E+00  0.00000000E+00
  0.00000000E+00  0.00000000E+00  0.00000000E+00
  0.00000000E+00  0.00000000E+00  0.00000000E+00
  0.00000000E+00  0.00000000E+00  0.00000000E+00
  0.00000000E+00  0.00000000E+00  0.00000000E+00
  0.00000000E+00  0.00000000E+00  0.00000000E+00
  0.00000000E+00  0.00000000E+00  0.00000000E+00
  0.00000000E+00  0.00000000E+00  0.00000000E+00
  0.00000000E+00  0.00000000E+00  0.00000000E+00
  0.00000000E+00  0.00000000E+00  0.00000000E+00
  0.00000000E+00  0.00000000E+00  0.00000000E+00
  0.00000000E+00  0.00000000E+00  0.00000000E+00
  0.00000000E+00  0.00000000E+00  0.00000000E+00
  0.00000000E+00  0.00000000E+00  0.00000000E+00
  0.00000000E+00  0.00000000E+00  0.00000000E+00
  0.00000000E+00  0.00000000E+00  0.00000000E+00
  0.00000000E+00  0.00000000E+00  0.00000000E+00
  0.00000000E+00  0.00000000E+00  0.00000000E+00
  0.00000000E+00  0.00000000E+00  0.00000000E+00
  0.00000000E+00  0.00000000E+00  0.00000000E+00
  0.00000000E+00  0.00000000E+00  0.00000000E+00
  0.00000000E+00  0.00000000E+00  0.00000000E+00
  0.00000000E+00  0.00000000E+00  0.00000000E+00
  0.00000000E+00  0.00000000E+00  0.00000000E+00
  0.00000000E+00  0.00000000E+00  0.00000000E+00
  0.00000000E+00  0.00000000E+00  0.00000000E+00
  0.00000000E+00  0.00000000E+00  0.00000000E+00
  0.00000000E+00  0.00000000E+00  0.00000000E+00
  0.00000000E+00  0.00000000E+00  0.00000000E+00
  0.00000000E+00  0.00000000E+00  0.00000000E+00
  0.00000000E+00  0.00000000E+00  0.00000000E+00
  0.00000000E+00  0.00000000E+00  0.00000000E+00
  0.00000000E+00  0.00000000E+00  0.00000000E+00
  0.00000000E+00  0.00000000E+00  0.00000000E+00
  0.00000000E+00  0.00000000E+00  0.00000000E+00
  0.00000000E+00  0.00000000E+00  0.00000000E+00
  0.00000000E+00  0.00000000E+00  0.00000000E+00
  0.00000000E+00  0.00000000E+00  0.00000000E+00
  0.00000000E+00  0.00000000E+00  0.00000000E+00
  0.00000000E+00  0.00000000E+00  0.00000000E+00
  0.00000000E+00  0.00000000E+00  0.00000000E+00
  0.00000000E+00  0.00000000E+00  0.00000000E+00
  0.00000000E+00  0.00000000E+00  0.00000000E+00
  0.00000000E+00  0.00000000E+00  0.00000000E+00
  0.00000000E+00  0.00000000E+00  0.00000000E+00
  0.00000000E+00  0.00000000E+00  0.00000000E+00
  0.00000000E+00  0.00000000E+00  0.00000000E+00
  0.00000000E+00  0.00000000E+00  0.00000000E+00
  0.00000000E+00  0.00000000E+00  0.00000000E+00
  0.00000000E+00  0.00000000E+00  0.00000000E+00
  0.00000000E+00  0.00000000E+00  0.00000000E+00
  0.00000000E+00  0.00000000E+00  0.00000000E+00
  0.00000000E+00  0.00000000E+00  0.00000000E+00
  0.00000000E+00  0.00000000E+00  0.00000000E+00
  0.00000000E+00  0.00000000E+00  0.00000000E+00
  0.00000000E+00  0.00000000E+00  0.00000000E+00
  0.00000000E+00  0.00000000E+00  0.00000000E+00
  0.00000000E+00  0.00000000E+00  0.00000000E+00
  0.00000000E+00  0.00000000E+00  0.00000000E+00
  0.00000000E+00  0.00000000E+00  0.00000000E+00
  0.00000000E+00  0.00000000E+00  0.00000000E+00
  0.00000000E+00  0.00000000E+00  0.00000000E+00
  0.00000000E+00  0.00000000E+00  0.00000000E+00
  0.00000000E+00  0.00000000E+00  0.00000000E+00
  0.00000000E+00  0.00000000E+00  0.00000000E+00
  0.00000000E+00  0.00000000E+00  0.00000000E+00
  0.00000000E+00  0.00000000E+00  0.00000000E+00
  0.00000000E+00  0.00000000E+00  0.00000000E+00
  0.00000000E+00  0.00000000E+00  0.00000000E+00
  0.00000000E+00  0.00000000E+00  0.00000000E+00
  0.00000000E+00  0.00000000E+00  0.00000000E+00
  0.00000000E+00  0.00000000E+00  0.00000000E+00
  0.00000000E+00  0.00000000E+00  0.00000000E+00
  0.00000000E+00  0.00000000E+00  0.00000000E+00
  0.00000000E+00  0.00000000E+00  0.00000000E+00
  0.00000000E+00  0.00000000E+00  0.00000000E+00
  0.00000000E+00  0.00000000E+00  0.00000000E+00
  0.00000000E+00  0.00000000E+00  0.00000000E+00
  0.00000000E+00  0.00000000E+00  0.00000000E+00
  0.00000000E+00  0.00000000E+00  0.00000000E+00
  0.00000000E+00  0.00000000E+00  0.00000000E+00
  0.00000000E+00  0.00000000E+00  0.00000000E+00
  0.00000000E+00  0.00000000E+00  0.00000000E+00
  0.00000000E+00  0.00000000E+00  0.00000000E+00
  0.00000000E+00  0.00000000E+00  0.00000000E+00
  0.00000000E+00  0.00000000E+00  0.00000000E+00
  0.00000000E+00  0.00000000E+00  0.00000000E+00
  0.00000000E+00  0.00000000E+00  0.00000000E+00
  0.00000000E+00  0.00000000E+00  0.00000000E+00
  0.00000000E+00  0.00000000E+00  0.00000000E+00
  0.00000000E+00  0.00000000E+00  0.00000000E+00
  0.00000000E+00  0.00000000E+00  0.00000000E+00
  0.00000000E+00  0.00000000E+00  0.00000000E+00
  0.00000000E+00  0.00000000E+00  0.00000000E+00
  0.00000000E+00  0.00000000E+00  0.00000000E+00
  0.00000000E+00  0.00000000E+00  0.00000000E+00
  0.00000000E+00  0.00000000E+00  0.00000000E+00
  0.00000000E+00  0.00000000E+00  0.00000000E+00
  0.00000000E+00  0.00000000E+00  0.00000000E+00
  0.00000000E+00  0.00000000E+00  0.00000000E+00
  0.00000000E+00  0.00000000E+00  0.00000000E+00
  0.00000000E+00  0.00000000E+00  0.00000000E+00
  0.00000000E+00  0.00000000E+00  0.00000000E+00
  0.00000000E+00  0.00000000E+00  0.00000000E+00
  0.00000000E+00  0.00000000E+00  0.00000000E+00