3D\Atomistic                            
   1.00000000000000     
    18.8173099491580764    0.0000000000000000    0.0000000000000000
     0.0000000000000000   18.8173099491580764    0.0000000000000000
     0.0000000000000000    0.0000000000000000   18.8173099491580764
   Sb
   216
Direct
  0.0731248870254078  0.0171347349442807  0.6032158636146329
  0.5632591586329212  0.7289568850389503  0.3523636589956580
  0.9577937589860668  0.0214734997336610  0.9995301785110782
  0.2680203018055135  0.3165924176327624  0.0369206600073966
  0.8665261612464316  0.9613038315836007  0.8407459048589773
  0.4103208488884226  0.0314157853307318  0.9792342822104431
  0.9885872872946995  0.1876302246306185  0.4789843831362333
  0.6692687008093728  0.2790022111229384  0.7235152576728495
  0.2665541005937532  0.6955389435736111  0.0686768013733329
  0.3393308108650804  0.0407985107762502  0.2797985199058552
  0.4004045665645904  0.8167564208734380  0.3831548076125822
  0.4429859423042257  0.3760982566767144  0.4726200282709910
  0.4737682425951959  0.9517006164300617  0.3465615043551901
  0.5128735875273912  0.8977360686146389  0.9825162600875953
  0.0943284694212758  0.3302451183291690  0.4556437352307949
  0.8295604434565415  0.2918029630624395  0.1021257989059793
  0.5575602776043942  0.7166890088599596  0.7201165773130472
  0.4851690550292241  0.2685155981434176  0.2858351545295718
  0.0892205956916085  0.8577778970864616  0.0715790041530825
  0.8212587359010203  0.1122440980917068  0.8617753048948067
  0.3750888597934423  0.1944217015705050  0.9494229438771687
  0.6042037355667387  0.7377876343130230  0.9429059724127645
  0.7820555256527605  0.9148076612316968  0.5983538643597575
  0.8182557176156102  0.1312866702350409  0.4850866892222211
  0.6750076590388424  0.9004493194556659  0.3283883523719904
  0.9457477749127018  0.3902922976671780  0.9662400654873805
  0.5778573370821123  0.5400232085311986  0.0621190958040668
  0.7810278860072680  0.5596618100533902  0.9410356323213517
  0.8612221011997759  0.9649379460522161  0.3857665851794143
  0.0787356092081882  0.3282487580588724  0.9097764291065907
  0.7401000751454173  0.6924803281939121  0.7189588578907968
  0.1303466964765339  0.4270037211046761  0.2444572966986619
  0.1595636811977449  0.2693321532388129  0.1866602575924740
  0.7459973751134292  0.6017013852315888  0.5791242556401489
  0.4084289256394711  0.3748445488630449  0.9956791308344765
  0.1734970707974327  0.0941552238930229  0.2139379063783360
  0.6869182573963698  0.6392026160614230  0.0434887382962490
  0.3805127042170579  0.1008190139862361  0.6136201045129378
  0.1286669196261168  0.6036811397986552  0.0850289271678520
  0.3246021250323692  0.5024362800205124  0.9418302575659232
  0.5715717452977013  0.8771108493343238  0.4574757631913849
  0.9714334407991686  0.2915976912976534  0.1643958732230355
  0.1829173421324771  0.1397620949453317  0.9288748311776648
  0.1144896729889213  0.7825317924343175  0.8680687762036839
  0.1957894792812976  0.4458850628782602  0.3817889008517200
  0.3117413630018507  0.4983964278043774  0.7445740645605999
  0.8171272196535035  0.4868726289113386  0.2984445008231601
  0.9997345600624142  0.7700065720417919  0.3951330235110005
  0.7158920148162129  0.7887294186615318  0.8603827163001055
  0.7848990778886896  0.9094437246308824  0.2103063416196050
  0.9257374616073175  0.6014181983507015  0.0080160746804831
  0.8519952996588949  0.8071468900810408  0.6958636817551792
  0.5760770638933146  0.6266771412474363  0.5778722898868224
  0.1920286413382765  0.6172427145699336  0.7475400402291550
  0.1094354744914181  0.7652317687158773  0.2930338502336924
  0.4990930706576331  0.2021092104266426  0.8586449643387092
  0.8533922914736417  0.7167112008221264  0.8921306961413432
  0.0455668240227462  0.6934964113990486  0.7483314095632829
  0.7568878126509208  0.0752302301974890  0.0152307232282607
  0.4783362775154442  0.6639124401975871  0.0362416263565552
  0.3700314156381083  0.4584479455714164  0.5965158380751074
  0.2387985699856295  0.6982844745951375  0.8820534496447584
  0.9997191626762157  0.8427380980015990  0.5675466681240334
  0.5245217584774627  0.7098686179314107  0.2045065238831659
  0.9401274138966931  0.6066145931138515  0.2150729460417335
  0.4197053351573372  0.8218568260603021  0.2247630984142659
  0.0030003384675224  0.4766646480872942  0.0875216210349744
  0.4445285758087700  0.9896756342143228  0.5291792518125239
  0.9614437900053726  0.7536417212061265  0.1709527728619023
  0.4098435853467154  0.1475863371755251  0.3867735827106729
  0.8317815917373148  0.7248513036317064  0.0868549645414536
  0.6826947234547021  0.2200670235154795  0.4105727126276759
  0.8750414279217965  0.1613279389066712  0.7162856132362392
  0.3303143629749814  0.9673639970150318  0.6940345472709341
  0.2814114611733824  0.9066996091490670  0.3525829912566236
  0.4813568570351014  0.2335228692579909  0.0620762908456340
  0.0105041876786108  0.8683201551444729  0.7275696940552382
  0.3037117981997012  0.0200703127755852  0.4588477047424885
  0.8291872014653671  0.3203380625057405  0.4220650320472128
  0.2677538469814289  0.2997484499121203  0.8452709154664430
  0.1172917053873481  0.8911329111289671  0.4394564789966994
  0.3159456538143701  0.0964994903675113  0.8233679349107561
  0.5371219372078236  0.0821949579170515  0.4577745529884697
  0.6487274630890492  0.8957476094976382  0.0632843506554390
  0.3446336024233435  0.9901261315586989  0.1292468425769334
  0.3810791728071005  0.1980571965745748  0.1882405453269025
  0.2405709559437700  0.5972161342154012  0.5715713573509834
  0.4082437647871591  0.6110132254428732  0.8977857688019417
  0.4632976175026128  0.4456107712545022  0.1306797168541808
  0.4423465701522220  0.8598686464090314  0.6911392342722582
  0.0917077884544595  0.2220223139703640  0.0394888893476070
  0.7769745449181290  0.7053748906666565  0.3130701775812407
  0.9866017008157287  0.9491870678472961  0.1972735125762560
  0.5670249219955773  0.9575666030250701  0.6522343614918270
  0.9482669804827013  0.0739181032535004  0.3018062983905768
  0.2704386837426444  0.1265654358100161  0.0965497714874651
  0.4249417405406733  0.2275743731203880  0.5204358618572789
  0.2572034750298197  0.2559455369677963  0.4844954330202106
  0.2206339126501984  0.8786053918852944  0.1674168661561457
  0.3355075588874386  0.3798398275164641  0.3472541709783854
  0.9845539603160058  0.4515693857203142  0.8238826657309232
  0.1998576974975278  0.1296824876411333  0.5429609720271636
  0.6589889786402862  0.6118427307043190  0.3708389165471573
  0.2716194526076456  0.2419510659413036  0.3202749084533054
  0.5108303773182977  0.1122479545474184  0.6983987293722169
  0.4178003119458599  0.6387210624611575  0.7350936100669897
  0.5244963249349651  0.5123625827806633  0.8931508321171827
  0.9439010631420035  0.2374348977412329  0.3044982224876381
  0.0040145640382900  0.5886316931007760  0.8756588363673639
  0.1449204847867537  0.4711214660932728  0.5551745554848150
  0.4041337024974823  0.6395857304621074  0.5672896461943500
  0.2745090653462486  0.7912997124074230  0.5628418777172914
  0.7356215585331645  0.4523064665730355  0.4518597596519522
  0.5720958522187395  0.3156640751832809  0.1572160803317594
  0.8850704465305526  0.7403159146662813  0.5536357290857686
  0.3206256185961552  0.3686383265466652  0.1794164839072514
  0.5587295671852650  0.3243915045865180  0.9450384135751441
  0.8012375523893065  0.0825694400852197  0.2264387546579499
  0.5498356329950179  0.0952801980940385  0.0441490841968543
  0.8661638083743536  0.8707977188933058  0.0614488836648806
  0.5495638751752473  0.9153972397602893  0.2253640673001611
  0.2697518168067778  0.7434911400398159  0.2208814844563678
  0.0342312685093922  0.0363448913675791  0.4476172197154326
  0.4743829951837257  0.2909625228433336  0.7253781140840552
  0.9113378275637660  0.8388492564182272  0.2901900653432198
  0.2437317361680997  0.4976385061491595  0.1625785632232997
  0.9213910279908885  0.6316303908850767  0.3579770583514039
  0.4853766056378159  0.4827486685164387  0.2894833910411395
  0.1277531861043075  0.7511980905218127  0.6268557952501214
  0.2824138701795472  0.9520206413611749  0.9028344335296470
  0.6038829795992391  0.0243933179409672  0.8958252527849635
  0.2174947598571576  0.8212879916673700  0.9923564390804053
  0.7578091698357263  0.9217849787808304  0.9558349348551438
  0.2160721485204452  0.9297577544440835  0.5829129530641731
  0.7131345636255877  0.4095676273343053  0.9226426260514412
  0.7148141465475982  0.0350144369411538  0.3593412051486738
  0.5429949313064569  0.5184693069816305  0.4538043864862052
  0.8970564224849229  0.0065706448492215  0.5459767652314703
  0.6706198859555369  0.7406087442421861  0.5031445463013791
  0.7125978228993065  0.7792268998181145  0.1835387509286755
  0.7902198039827315  0.8113668994547679  0.4307516000225770
  0.7756534718314082  0.5902115533600933  0.1837262223448233
  0.7752357833118331  0.0188454588310339  0.7228239825991036
  0.9488702751294605  0.4338818962179941  0.2291915619600745
  0.0645154199505190  0.9665992086595193  0.9021120487229646
  0.1652599545059733  0.0914562425050450  0.3922364059842448
  0.1703226784780570  0.0501685939788906  0.7326249712785956
  0.3352315459435350  0.2263426108228177  0.7268217310415307
  0.0391518448917035  0.0850507528162167  0.1184005333425405
  0.6118184779206922  0.3644581885211049  0.3863510311365504
  0.8215693308290730  0.3059123896802642  0.7735644587845408
  0.1888292449954566  0.9053180925286001  0.7730383007065554
  0.9664295777944635  0.3909684330550317  0.3876608546859226
  0.4582223717521874  0.0215920808657794  0.8221514548331048
  0.7172341782460356  0.1364280517054667  0.6122021237799594
  0.6695776209208054  0.1627580114950959  0.8299328994869997
  0.5897367983441892  0.1524733290286194  0.2905490683349575
  0.4860259851242474  0.0610771930144081  0.1829519185716300
  0.8814141447172748  0.6432880135306521  0.7567293266466777
  0.7267399842528169  0.3844486001944466  0.5858356529341671
  0.0607705760852142  0.1019048602098524  0.8313959327651416
  0.6171422744088846  0.4022718261058637  0.8073518488677757
  0.0315137821922234  0.3462196030836438  0.6428377944535469
  0.8604279927763659  0.2644245812280503  0.5629668304076034
  0.1005374817224683  0.2294289175813363  0.3347574029877540
  0.6663432242272981  0.2005590063436334  0.1576271167552860
  0.7817388765102509  0.2471090337757643  0.2555939592068885
  0.6827418831370549  0.0254582786080327  0.1446895014956331
  0.8382314159562201  0.4732670858419173  0.7622737384239258
  0.6840671934197262  0.4031354036436786  0.2528604126549284
  0.0698505151482025  0.5021427640758132  0.6856581225699756
  0.1516505585057629  0.4221464350587770  0.0206319133678413
  0.0369413166764054  0.7219910021448044  0.0091999286698762
  0.0401448544236812  0.5487303048489655  0.3964362883163681
  0.6119156964763576  0.5416760279419338  0.2254876228637783
  0.5376750944680452  0.5070549596620944  0.6685542354439445
  0.3030644968893898  0.7375209473590270  0.7245678687156507
  0.0934049207335830  0.5747104678507274  0.2568288276216955
  0.5606953914102163  0.3712305618473007  0.5967299689816236
  0.2429292583650868  0.3525873615494182  0.6006645426532464
  0.4083805658250585  0.6185416356386716  0.2610140645873810
  0.8725399556634030  0.5399944167916088  0.5122258626470433
  0.3946488470655309  0.3931361432878066  0.8360705180293069
  0.5177633924942745  0.8456045686330830  0.8353547655930715
  0.8765742501763949  0.1427583932483004  0.0891565510960765
  0.6548859714504941  0.9966911263355007  0.5086802407366798
  0.8206698809377777  0.4917865629202651  0.0691776291604533
  0.1839346310390324  0.4386588149792779  0.7997475706487600
  0.6177884553868438  0.6212228330350869  0.8326610445782854
  0.9504813739776301  0.8427708902583724  0.9196202513922842
  0.6797228354919232  0.4226322670495494  0.0771057114484808
  0.6657583779842783  0.8188990904930253  0.6415223126771670
  0.4340314648655654  0.7959717834546648  0.5442788336538149
  0.2479822202389670  0.5873993971959856  0.3207673740159257
  0.3129782858509492  0.5252682609936181  0.4564031360314277
  0.4035378670496907  0.8001147001425479  0.0505074365420359
  0.1071484517259421  0.6592276561236909  0.4949170081053289
  0.1199692475268292  0.9298021213335528  0.2730196769906582
  0.0679667096389929  0.1817073403612815  0.6138624909214333
  0.1578187501933083  0.0062637117663078  0.0101011544534501
  0.9855867166751391  0.6244413932638129  0.5804370024033317
  0.1639037936724188  0.2994551634473344  0.7220634553227950
  0.8130988162442765  0.2874627594672673  0.9304094260546155
  0.3705782353815373  0.8049779120169596  0.8871101270017625
  0.6932427834915037  0.5071314570862774  0.7000729095931081
  0.3731400247793594  0.5675607753721170  0.0852402996468670
  0.2298229849668779  0.7353587225541742  0.3855189285902811
  0.9497409263266631  0.1704447593545319  0.9534474357637786
  0.5905783325185214  0.2158715283209189  0.5384707290467571
  0.8810331250519873  0.4243667469300321  0.6195667238870770
  0.6773194111688901  0.2081308754991423  0.9793291797538014
  0.4557519503245586  0.6315870570111207  0.4105097744040754
  0.9913702994573559  0.2695244104813468  0.7664422935794436
  0.1589413092355549  0.5603587118069553  0.9393479164334324
  0.9558581752488101  0.0223136441286479  0.7127559079499974
  0.6602535426445351  0.9347156854615363  0.7797449300954694
 
 -0.21617731E-02 -0.31081783E-02  0.30375835E-03
 -0.36993049E-02 -0.20525855E-02  0.76067418E-03
  0.13630313E-02 -0.96351818E-03 -0.36269926E-03
  0.19633169E-02  0.69587134E-03 -0.27845737E-03
  0.51364554E-03 -0.35247313E-03 -0.92071566E-03
 -0.11782496E-02 -0.21329626E-02  0.18954944E-02
 -0.27440802E-03  0.15016453E-02 -0.32917959E-03
 -0.54752556E-03  0.22310646E-02  0.11606614E-04
  0.19140370E-02 -0.27685957E-02 -0.34626799E-02
 -0.40724369E-02  0.26464155E-02  0.16458702E-02
  0.32571213E-02  0.76450278E-03 -0.30473332E-03
  0.52738883E-03  0.13464614E-02 -0.22957467E-02
 -0.31763013E-02  0.32280446E-02 -0.59537787E-03
 -0.72004138E-03  0.83882610E-03 -0.54234782E-03
 -0.12124099E-02 -0.14694125E-02  0.13063719E-02
  0.45538619E-03  0.14448930E-02  0.16883933E-02
 -0.19737436E-02  0.17213876E-02  0.13542177E-02
  0.31113719E-03 -0.44030948E-02 -0.80480614E-04
  0.21477052E-04  0.39043960E-03 -0.61369569E-03
  0.20377981E-02  0.19508840E-02  0.12111662E-02
 -0.19867974E-02  0.58954449E-03 -0.38425276E-03
 -0.15633059E-02  0.19934238E-02  0.70001965E-03
 -0.10943102E-02 -0.20701481E-02  0.36672771E-03
  0.27433054E-03 -0.38342854E-02 -0.11505759E-02
 -0.30317020E-03 -0.29190178E-02  0.37299342E-02
  0.24580425E-02  0.60885613E-03  0.26689391E-03
 -0.27160682E-02 -0.13535562E-02  0.17685588E-02
 -0.99381951E-04 -0.11110441E-02  0.11325747E-02
 -0.12764037E-02  0.66421699E-03  0.22525252E-02
  0.93618311E-03 -0.17639465E-02 -0.18315753E-03
 -0.23021275E-03 -0.11042835E-02 -0.29691516E-02
 -0.21310429E-02 -0.82671177E-03  0.29625435E-03
  0.78518469E-03  0.29942353E-03 -0.15522747E-02
  0.19099264E-02  0.58131673E-03 -0.36923236E-03
  0.12368595E-02 -0.13384931E-02 -0.12102709E-02
  0.96718415E-03  0.17108590E-02 -0.76299576E-03
  0.16915142E-02  0.90048962E-03  0.15980634E-02
  0.68353414E-03  0.78036928E-03 -0.17269119E-03
  0.10178041E-02 -0.93424115E-03  0.45329482E-03
  0.27024819E-02 -0.24953312E-02  0.14513143E-02
 -0.10579055E-02 -0.15140970E-02  0.17418195E-02
  0.15536792E-02 -0.11347712E-02  0.13203450E-02
  0.44729346E-03  0.30696441E-02 -0.17686397E-02
 -0.73187101E-03  0.34376843E-03  0.22537333E-02
 -0.16734286E-02 -0.13525852E-03 -0.22023750E-03
 -0.15387965E-02 -0.12524608E-02 -0.19002930E-02
 -0.16914282E-02 -0.59021485E-03 -0.28926484E-02
 -0.20244599E-02 -0.34759922E-03  0.17261889E-02
 -0.25417420E-02  0.12895515E-02 -0.16543440E-02
 -0.16048770E-02 -0.32446609E-03  0.59525922E-05
 -0.50032582E-03 -0.13824566E-02 -0.12333839E-02
  0.21523822E-02 -0.61235653E-05  0.15313555E-02
  0.11337999E-02 -0.98740251E-03  0.88876660E-04
 -0.22030809E-02  0.28815964E-02 -0.21041848E-02
  0.10454984E-02  0.20990695E-02 -0.77824602E-03
  0.40315859E-04 -0.13472131E-02  0.36808985E-03
  0.19132770E-02  0.79177827E-03 -0.21035493E-02
  0.39664422E-03  0.37396507E-02  0.99727667E-03
 -0.25439435E-03  0.25112797E-02  0.18976169E-02
 -0.82771925E-03 -0.93457990E-03  0.48078183E-03
  0.17318115E-05 -0.22019604E-02 -0.23707909E-03
  0.15777606E-02 -0.26357535E-02 -0.26050782E-03
 -0.17581635E-02 -0.42968147E-03 -0.16841524E-03
  0.10418110E-02  0.23129089E-02  0.22086347E-02
 -0.32475660E-03  0.11333243E-02 -0.21690550E-02
 -0.85398809E-03  0.24440635E-02 -0.12898119E-02
 -0.18764345E-02 -0.61551505E-03 -0.22780109E-02
 -0.64128066E-03  0.23547344E-03  0.30542614E-03
 -0.85951352E-03  0.12212827E-02  0.76862844E-03
  0.10853157E-02 -0.28509261E-02  0.12285621E-02
  0.45317343E-04  0.29448570E-02 -0.65745453E-03
 -0.28433422E-02  0.18397340E-02 -0.21517197E-02
 -0.31429219E-03  0.41515769E-04 -0.63165892E-04
 -0.16963054E-02  0.19880721E-02  0.56250445E-04
  0.30826223E-02 -0.72344752E-03 -0.19112377E-02
  0.76509684E-04  0.12935831E-02 -0.33801288E-02
  0.25149868E-03 -0.57193391E-04 -0.76361395E-03
 -0.23654483E-03 -0.13588623E-02  0.21317466E-03
  0.41619442E-03 -0.11533745E-02  0.63527813E-03
 -0.33590084E-03  0.16406499E-02 -0.17047090E-02
 -0.13921853E-02  0.45544647E-03  0.10006234E-02
 -0.87387126E-03 -0.72746440E-04  0.68756406E-03
  0.16809834E-02  0.75413159E-03  0.71701605E-03
  0.17124959E-03  0.13059649E-02  0.54165956E-04
  0.20155871E-02  0.24917516E-02  0.19086548E-03
 -0.10444303E-02  0.12876946E-03 -0.71672827E-03
  0.54559714E-03 -0.88989512E-03 -0.53009561E-02
  0.17300327E-02  0.11777555E-02  0.30329446E-03
 -0.32324429E-03  0.94302250E-03  0.32400396E-05
 -0.75662897E-03 -0.17606157E-02 -0.19629291E-02
  0.11615936E-02 -0.25721109E-02  0.97723537E-03
 -0.29518154E-02  0.15378438E-02  0.21652497E-03
 -0.16186057E-02  0.35669664E-02  0.51650635E-03
 -0.23943068E-02  0.11122797E-02 -0.10985924E-02
 -0.13338883E-02  0.12653888E-02 -0.20351194E-02
  0.19016456E-02  0.19298547E-02  0.63631544E-03
  0.20290085E-02  0.21244633E-03  0.19507861E-02
  0.34395470E-02  0.27134675E-02  0.12290462E-02
  0.15694055E-02  0.41414293E-02  0.23779064E-02
  0.13598324E-03 -0.15414820E-02  0.99688997E-03
 -0.30872086E-02 -0.63583654E-03 -0.47572797E-03
  0.29098506E-02  0.58380260E-03 -0.21370291E-02
 -0.19586842E-02  0.87261866E-03  0.47614051E-02
  0.11649098E-02  0.31444029E-04  0.12184981E-03
  0.17487690E-02  0.15847140E-02  0.45303768E-03
 -0.38877670E-03  0.52579672E-03  0.29879708E-02
 -0.13055591E-02 -0.12688880E-02 -0.44212890E-03
  0.14325307E-02 -0.57057053E-03  0.24906621E-03
 -0.32699185E-02 -0.20695299E-02  0.33591682E-03
  0.12509587E-02 -0.13692297E-02 -0.20606345E-02
 -0.18511884E-02  0.88201233E-03 -0.89826469E-03
  0.15273312E-02  0.19063760E-02  0.33572902E-02
  0.11646013E-02 -0.13790006E-03  0.27757649E-02
 -0.14129519E-02 -0.23381545E-02 -0.14744313E-02
 -0.22869198E-02  0.24626119E-02  0.70682783E-03
 -0.67796274E-03 -0.33392716E-02 -0.66110695E-03
  0.34667636E-03 -0.15468444E-02  0.46677565E-03
 -0.88465925E-03  0.15287733E-02  0.96696705E-04
 -0.12464868E-02  0.11567390E-02  0.77361525E-03
  0.87544376E-03  0.36307888E-02 -0.22777141E-02
  0.13013721E-02  0.43255360E-03  0.44145672E-03
  0.12291857E-02  0.84126960E-03 -0.18607781E-02
  0.14484334E-02 -0.28717421E-03  0.91572399E-03
 -0.73532998E-03  0.37323316E-03 -0.34610348E-02
  0.22528984E-02 -0.84343858E-03  0.16420009E-02
  0.96377155E-03  0.46668544E-03  0.99471212E-03
  0.61701023E-03 -0.30219970E-02 -0.15827722E-02
 -0.37820548E-02 -0.14966362E-02 -0.27755969E-03
 -0.71353900E-03  0.72984935E-03 -0.92885807E-03
  0.21620223E-03  0.89914760E-03 -0.14342941E-02
 -0.21545985E-02 -0.37163623E-02  0.37295359E-03
 -0.21670554E-02  0.15515047E-02 -0.34118668E-02
  0.10828718E-02 -0.19219572E-02 -0.61032241E-03
  0.25563824E-02  0.21653318E-02  0.19783691E-02
  0.53836233E-04  0.12479397E-02  0.18233799E-02
 -0.54357464E-03  0.18709227E-02 -0.68200385E-03
  0.16829995E-02  0.16466084E-02 -0.24798493E-02
  0.19141385E-02 -0.44454734E-03 -0.22232443E-02
  0.19779099E-03  0.12181569E-02  0.15572021E-02
  0.19816377E-02  0.20754646E-02  0.25631511E-02
 -0.15222044E-02 -0.52768477E-03 -0.19863091E-02
 -0.40273414E-03 -0.26930465E-02 -0.13535485E-02
 -0.92090467E-03 -0.19373523E-02  0.18481049E-02
  0.26782390E-02  0.24951956E-03 -0.11859382E-03
  0.49696212E-03  0.38876744E-03  0.10510909E-02
 -0.17674471E-02 -0.21773494E-02  0.25526816E-02
  0.32608704E-03  0.21956883E-02 -0.22429047E-03
  0.28629022E-04 -0.18339835E-02  0.18152127E-02
 -0.11163342E-02 -0.29536849E-02  0.23275632E-03
  0.11641957E-02 -0.22890924E-02  0.11258023E-03
  0.11781870E-02 -0.33976497E-02  0.70379587E-03
  0.79705790E-03 -0.11700133E-02  0.80940932E-03
 -0.29907399E-02 -0.84187732E-03  0.68893843E-03
  0.13777125E-02  0.11252141E-02 -0.87813006E-03
  0.12572151E-02 -0.31889519E-02 -0.24713094E-03
 -0.92117168E-03 -0.10239277E-02 -0.22471973E-02
  0.14791168E-02  0.85956577E-03  0.60038361E-03
 -0.25331557E-03  0.15908764E-02 -0.19144092E-03
 -0.20524112E-03 -0.48300292E-03  0.37461799E-03
 -0.28120430E-03 -0.11596300E-03  0.70104431E-03
  0.17674436E-02  0.20078784E-02 -0.10882360E-02
 -0.90441813E-03 -0.12158952E-02 -0.17218633E-02
  0.23361969E-02  0.88802611E-03  0.84197450E-03
  0.47828155E-03 -0.25579701E-03 -0.29130113E-02
  0.20396760E-03  0.30701906E-02 -0.67471899E-03
  0.82452583E-03 -0.43321524E-02  0.18729076E-02
  0.26351661E-02 -0.55504867E-03 -0.24874854E-03
 -0.17203187E-02 -0.44273189E-03 -0.13322450E-02
 -0.47752399E-03  0.87248549E-03  0.11472002E-02
  0.26045675E-02  0.92658014E-03  0.18897183E-02
 -0.52614985E-03  0.23562440E-03  0.90851018E-03
 -0.12210370E-02 -0.16963888E-02  0.14411126E-02
 -0.18338288E-02  0.25929674E-02 -0.10069948E-04
 -0.97625525E-03 -0.74286219E-03 -0.64851157E-03
 -0.24269532E-03 -0.17463122E-02 -0.10374888E-02
  0.17894429E-02  0.85627038E-03  0.51855928E-03
  0.10171719E-02 -0.16002954E-02 -0.20412111E-03
 -0.16174233E-02  0.10978916E-02 -0.32055229E-03
  0.21359173E-02 -0.12227540E-02 -0.23959613E-03
  0.31291704E-03 -0.31137263E-03 -0.57214983E-03
  0.33571427E-02 -0.84739696E-03  0.26430248E-03
  0.13041388E-02  0.90737828E-04 -0.10018362E-02
 -0.57428913E-03  0.11883647E-03  0.11016060E-02
  0.12410129E-02 -0.23878762E-02  0.32417898E-03
 -0.13152135E-02  0.18149378E-02  0.13386304E-02
 -0.43373023E-03  0.12362377E-03  0.20131725E-02
 -0.16446635E-02 -0.10046558E-02  0.42842505E-05
 -0.73542708E-03  0.12834545E-02  0.37886748E-03
 -0.41904927E-03 -0.25439894E-02  0.17379741E-02
  0.35355789E-02 -0.11503712E-03  0.31346891E-03
  0.33931254E-02  0.56031006E-03  0.78207554E-03
 -0.80066156E-03  0.20138535E-02  0.39970623E-02
  0.40113730E-03 -0.29002674E-03 -0.67162799E-03
 -0.27756000E-02  0.24055951E-03  0.69804084E-03
  0.52314347E-03 -0.33150638E-02 -0.21267938E-02
  0.19288871E-02  0.14492965E-02  0.28107206E-02
  0.29406732E-03 -0.21500402E-03 -0.17052461E-02
  0.15672359E-02 -0.16442881E-02 -0.10709709E-02
  0.80233303E-03  0.20128636E-02 -0.26951319E-02
 -0.33431456E-02 -0.46501068E-03  0.42302690E-03
  0.55255961E-03 -0.30306751E-02  0.22031929E-03
  0.52880668E-03  0.16407153E-02  0.21729261E-03
  0.61208976E-03 -0.44089809E-03 -0.73602044E-03
  0.18239390E-02 -0.12022637E-02 -0.25804286E-02
 -0.13764004E-02 -0.13003864E-02  0.24151845E-02
  0.18124510E-02 -0.23952475E-02  0.14368804E-02
 -0.34222135E-02 -0.10602056E-02  0.61635766E-03
 -0.22014738E-02 -0.58897048E-03  0.32137352E-02
 -0.19339473E-02 -0.23244856E-04 -0.12161152E-04
  0.49197161E-03  0.37367637E-02 -0.12744583E-02
  0.33673293E-02 -0.17730106E-02 -0.24560820E-02
  0.21563747E-02  0.19676577E-02 -0.41708395E-02
 -0.17558743E-02  0.43145210E-03  0.29872758E-03
 -0.36764422E-02  0.15459653E-02  0.44801630E-04
  0.65680472E-03 -0.70051785E-03  0.14612649E-02
 -0.55643928E-03  0.18092083E-02  0.72235078E-05
 
           1
   5.00000000000000     
  0.10000000E+01  0.00000000E+00  0.00000000E+00  0.00000000E+00
  0.72550476E-01  0.16308852E-01  0.60329658E+00
  0.56227621E+00  0.72841149E+00  0.35256578E+00
  0.95815593E+00  0.21217481E-01  0.99943380E+00
  0.26854198E+00  0.31677732E+00  0.36846670E-01
  0.86666264E+00  0.96121017E+00  0.84050126E+00
  0.41000777E+00  0.30849030E-01  0.97973794E+00
  0.98851437E+00  0.18802923E+00  0.47889692E+00
  0.66912322E+00  0.27959503E+00  0.72351834E+00
  0.26706268E+00  0.69480329E+00  0.67756723E-01
  0.33824871E+00  0.41501697E-01  0.28023585E+00
  0.40127003E+00  0.81695956E+00  0.38307384E+00
  0.44312608E+00  0.37645603E+00  0.47201002E+00
  0.47292426E+00  0.95255835E+00  0.34640330E+00
  0.51268226E+00  0.89795896E+00  0.98237215E+00
  0.94006317E-01  0.32985468E+00  0.45599085E+00
  0.82968145E+00  0.29218689E+00  0.10257443E+00
  0.55703583E+00  0.71714640E+00  0.72047641E+00
  0.48525173E+00  0.26734564E+00  0.28581377E+00
  0.89226302E-01  0.85788164E+00  0.71415937E-01
  0.82180020E+00  0.11276247E+00  0.86209713E+00
  0.37456094E+00  0.19457835E+00  0.94932084E+00
  0.60378835E+00  0.73831731E+00  0.94309198E+00
  0.78176475E+00  0.91425760E+00  0.59845131E+00
  0.81832861E+00  0.13026785E+00  0.48478097E+00
  0.67492710E+00  0.89967370E+00  0.32937944E+00
  0.94640091E+00  0.39045408E+00  0.96631098E+00
  0.57713564E+00  0.53966355E+00  0.62589025E-01
  0.78100148E+00  0.55936659E+00  0.94133657E+00
  0.86088294E+00  0.96511444E+00  0.38636511E+00
  0.78984365E-01  0.32778005E+00  0.90972776E+00
  0.74003890E+00  0.69218691E+00  0.71816992E+00
  0.12978045E+00  0.42678405E+00  0.24453602E+00
  0.15977231E+00  0.26941171E+00  0.18624780E+00
  0.74650487E+00  0.60185585E+00  0.57902615E+00
  0.40875758E+00  0.37448889E+00  0.99535755E+00
  0.17375406E+00  0.94609821E-01  0.21373517E+00
  0.68736771E+00  0.63944189E+00  0.43913364E-01
  0.38069433E+00  0.10102637E+00  0.61357422E+00
  0.12893736E+00  0.60343290E+00  0.85149373E-01
  0.32532021E+00  0.50177324E+00  0.94221589E+00
  0.57129065E+00  0.87670853E+00  0.45793859E+00
  0.97184627E+00  0.29129617E+00  0.16474671E+00
  0.18303619E+00  0.14057774E+00  0.92840488E+00
  0.11429521E+00  0.78262314E+00  0.86866762E+00
  0.19534483E+00  0.44584912E+00  0.38173038E+00
  0.31133249E+00  0.49806363E+00  0.74406913E+00
  0.81667779E+00  0.48671580E+00  0.29767589E+00
  0.99919664E+00  0.76991421E+00  0.39559169E+00
  0.71521664E+00  0.78907207E+00  0.85994314E+00
  0.78447264E+00  0.90935751E+00  0.21030792E+00
  0.92560452E+00  0.60105086E+00  0.76883488E-02
  0.85256722E+00  0.80714526E+00  0.69627058E+00
  0.57637833E+00  0.62641478E+00  0.57789591E+00
  0.19144325E+00  0.61800839E+00  0.74698093E+00
  0.10971328E+00  0.76578952E+00  0.29282706E+00
  0.49910378E+00  0.20175124E+00  0.85874277E+00
  0.85390067E+00  0.71692159E+00  0.89157176E+00
  0.45672217E-01  0.69449008E+00  0.74859640E+00
  0.75682022E+00  0.75897509E-01  0.15734944E-01
  0.47811634E+00  0.66366411E+00  0.36369376E-01
  0.37003188E+00  0.45786286E+00  0.59645284E+00
  0.23921780E+00  0.69758412E+00  0.88198423E+00
  0.99925200E+00  0.84262393E+00  0.56750192E+00
  0.52479858E+00  0.71048319E+00  0.20509339E+00
  0.94004112E+00  0.60691573E+00  0.21449660E+00
  0.41947842E+00  0.82250625E+00  0.22442038E+00
  0.25017458E-02  0.47650110E+00  0.86916324E-01
  0.44435818E+00  0.98973820E+00  0.52926041E+00
  0.96121541E+00  0.75396623E+00  0.17115701E+00
  0.41013197E+00  0.14682881E+00  0.38710003E+00
  0.83179363E+00  0.72563379E+00  0.86680270E-01
  0.68193921E+00  0.22055586E+00  0.41000097E+00
  0.87495792E+00  0.16133897E+00  0.71626883E+00
  0.32986363E+00  0.96789225E+00  0.69404949E+00
  0.28223055E+00  0.90650738E+00  0.35207515E+00
  0.48137719E+00  0.23386659E+00  0.61178147E-01
  0.10571014E-01  0.86830496E+00  0.72736679E+00
  0.30364895E+00  0.19709246E-01  0.45890435E+00
  0.82929779E+00  0.32003160E+00  0.42223383E+00
  0.26766459E+00  0.30018439E+00  0.84481795E+00
  0.11692178E+00  0.89125393E+00  0.43972236E+00
  0.31571346E+00  0.96480161E-01  0.82355063E+00
  0.53756860E+00  0.82395340E-01  0.45796507E+00
  0.64877297E+00  0.89609462E+00  0.63298743E-01
  0.34516917E+00  0.99078822E+00  0.12929756E+00
  0.38080165E+00  0.19809141E+00  0.18805010E+00
  0.24071593E+00  0.59697968E+00  0.57016283E+00
  0.40870346E+00  0.61132617E+00  0.89786636E+00
  0.46321173E+00  0.44586134E+00  0.13068058E+00
  0.44214552E+00  0.85940083E+00  0.69061766E+00
  0.92016439E-01  0.22133887E+00  0.39748553E-01
  0.77619021E+00  0.70578352E+00  0.31312771E+00
  0.98617162E+00  0.95013486E+00  0.19741075E+00
  0.56638872E+00  0.95786215E+00  0.65194245E+00
  0.94791255E+00  0.74254333E-01  0.30126554E+00
  0.27094398E+00  0.12707822E+00  0.96718849E-01
  0.42548087E+00  0.22763082E+00  0.52095421E+00
  0.25811741E+00  0.25666654E+00  0.48482201E+00
  0.22105092E+00  0.87970582E+00  0.16804871E+00
  0.33554369E+00  0.37943024E+00  0.34751906E+00
  0.98373365E+00  0.45140044E+00  0.82375626E+00
  0.20063088E+00  0.12983761E+00  0.54239314E+00
  0.65846853E+00  0.61207460E+00  0.37210408E+00
  0.27192898E+00  0.24195942E+00  0.32030729E+00
  0.51129505E+00  0.11266903E+00  0.69851911E+00
  0.41769701E+00  0.63886077E+00  0.73588755E+00
  0.52414942E+00  0.51202542E+00  0.89303335E+00
  0.94428170E+00  0.23728329E+00  0.30456440E+00
  0.31457048E-02  0.58808179E+00  0.87574809E+00
  0.14525288E+00  0.47075764E+00  0.55462702E+00
  0.40364182E+00  0.63982009E+00  0.56705097E+00
  0.27491490E+00  0.79180626E+00  0.56373395E+00
  0.73593101E+00  0.45226982E+00  0.45259732E+00
  0.57172041E+00  0.31504280E+00  0.15682431E+00
  0.88446278E+00  0.74097026E+00  0.55382354E+00
  0.32044548E+00  0.36775104E+00  0.17924082E+00
  0.55882168E+00  0.32398049E+00  0.94516244E+00
  0.80100249E+00  0.82975655E-01  0.22646445E+00
  0.54950443E+00  0.95587558E-01  0.44354644E-01