Amorphous Sb                            
  0.980000000000000     
    20.1278869700586895    0.0000000000000000    0.0000000000000000
     0.0000000000000000   20.1278869700586895    0.0000000000000000
     0.0000000000000000    0.0000000000000000   20.1278869700586895
   Ge   Se
   150   150
Direct
  0.5145855544333002  0.6816208472310972  0.7877974693929835
  0.2106457625687238  0.4276532295130555  0.8029665390332252
  0.3844102537142258  0.3199876058235902  0.6033528162547390
  0.8313965978289984  0.0222463043744612  0.6557696367236172
  0.8973999278949116  0.6232945755990044  0.6648350181390814
  0.2197479347826257  0.7086570200447104  0.9338548086879161
  0.1154085529780703  0.1569560462062424  0.3678581876964300
  0.3323796029874215  0.6307844873507640  0.8020103522327754
  0.3567216301607775  0.8601528417815946  0.2203351031407709
  0.3679581974000434  0.0119009959748094  0.4274063693500498
  0.0086881881439105  0.0352037013371979  0.4566567994268417
  0.6088922228871165  0.3326618321597422  0.8434492932573144
  0.6063493533454701  0.4519629234192258  0.5914095622028639
  0.2609769819423479  0.0171309488457229  0.8592239293988032
  0.6823185720021127  0.9873393486167624  0.3906470199320461
  0.0334397644933879  0.7784852455731383  0.0840642302591434
  0.0485908180545284  0.7658396699229679  0.3337949590185388
  0.8163864016514942  0.3949269813317489  0.3608841944716313
  0.1096088280062804  0.4611578208115236  0.9651626462752534
  0.0561081137762655  0.9171816673817901  0.5066778229443681
  0.1528890867199362  0.8328678475065155  0.1981604679442955
  0.4357122960844914  0.7510167627963529  0.9652618077229170
  0.0039847817043261  0.1672073791639181  0.9399996507763091
  0.0267493993405180  0.0739990616327956  0.1310673839190067
  0.5626287654402305  0.3277289516349781  0.1852745369736311
  0.3690634625601195  0.1426747081100592  0.5830880003351272
  0.4122061515655404  0.7548220224519714  0.5472551477951795
  0.7875549062333558  0.9195581222320589  0.0306317165873956
  0.7595637016914264  0.5724938074726222  0.5994172517944392
  0.9489600430068702  0.7713689224827841  0.5852438375596961
  0.0831381558400972  0.3502868974484123  0.7429785262591238
  0.0354594779202834  0.1031850803755606  0.2597062149613535
  0.9149976950054048  0.5010993741799642  0.4706816669035454
  0.4082592249834145  0.4554210416058484  0.2611996633952186
  0.0323682078119953  0.5417774788412423  0.5829779157112905
  0.7255575645664863  0.6988785300487140  0.1716976803864756
  0.4481074295003981  0.4769971772954093  0.9167855863522580
  0.2731997403190430  0.0484689366823639  0.2332703032228523
  0.2533223311562575  0.3749593627817767  0.1340891482159655
  0.7415070047348059  0.3719914677506339  0.7716302333302164
  0.8389857724722631  0.8412651641587985  0.3730248073978280
  0.9150410064633919  0.1832176671506641  0.5625059713365889
  0.5929699694604772  0.8483596277297062  0.5355128330553621
  0.3783140313020613  0.9819445639905674  0.0923124393461763
  0.3524114920576532  0.6484902756330329  0.2194101889449242
  0.3925629101456302  0.4443663357629671  0.4992052833419152
  0.8992385614607431  0.7780651821871386  0.1681245535551044
  0.0420749038609843  0.3473860173173787  0.4045749601167676
  0.9916649693987690  0.7362554224335177  0.8042386958359390
  0.5406471717113001  0.0625863469518647  0.2964289864058519
  0.2614171371080124  0.4395238225354207  0.9505909675371172
  0.0479612734558365  0.2790198628195092  0.1517888954131756
  0.6256557110283739  0.7447619338468874  0.8151711331940351
  0.5751610862350172  0.2849636579251999  0.7249878890633121
  0.0469785948174980  0.5843098333655361  0.3519357329631195
  0.0371345217079358  0.9216076923780642  0.2265437605802916
  0.1859180815909900  0.5802483069764460  0.4544974681071467
  0.9502576524899224  0.3294885812254540  0.5839006809744907
  0.1011220764835393  0.0580321871851791  0.8277679809132925
  0.5231484904083202  0.4489719851123383  0.3339864114133946
  0.6811746117171147  0.1008158256825627  0.1216440226389548
  0.5376638133084548  0.6709052712595311  0.2144062611652191
  0.9229461555604845  0.6640637271378022  0.3092090790014317
  0.8584876191518998  0.0207198415080033  0.8432541846677247
  0.5715241263786891  0.8275490233502634  0.0126497789222808
  0.0737761722558714  0.3375479418241508  0.9318285342109175
  0.8216569249764551  0.8491911818615278  0.5337911414618727
  0.7351051452503343  0.7390741390243752  0.6819483285924778
  0.8233396539118207  0.2315694017946326  0.1547460447639898
  0.8329739779067576  0.3161676000850386  0.0331202347472789
  0.9500697204061866  0.4063818189947884  0.7406170933469743
  0.4134609442838702  0.1583545328953865  0.1708198012045648
  0.3562604299897818  0.5482625376585898  0.4267323419329530
  0.5051683142707405  0.8310165847340623  0.3820761604059841
  0.3281596853395832  0.4464703467088014  0.6585121940398603
  0.6872432169358984  0.9635274173067625  0.1442904617305486
  0.2469996629708114  0.2474599827527607  0.1782103467891209
  0.8681464803732015  0.0601014322324243  0.0264307363036186
  0.2613377498191858  0.8558228345788266  0.9339688836919581
  0.3643567812670299  0.2584695654516576  0.0291588577211507
  0.6526310405594054  0.9893243864393475  0.8891604303290395
  0.9659947134500267  0.5901013235804671  0.8414132221555044
  0.7964125451764280  0.4823923413539253  0.0608016889141275
  0.7611070405109139  0.5206146981013197  0.3528781091150169
  0.3542805281322097  0.0957808971723359  0.7122345496114971
  0.6019617082035442  0.1431337482996010  0.0232310609269052
  0.5367861118778837  0.6617772522861348  0.6084584277494728
  0.7656509523698082  0.3535638889223057  0.5245954788474329
  0.6549486680442280  0.5681962886952819  0.1602326094291353
  0.5198494020012304  0.2358068252997502  0.3550955156594307
  0.6163315691294355  0.1129303421180516  0.8955529274856667
  0.1101745609381408  0.1217241586020522  0.5925258896719227
  0.3008460733696629  0.5935082325941939  0.5940276892116981
  0.7625796810710357  0.0359318438064504  0.4880889665504666
  0.6646416289283175  0.9251317458243036  0.6194375582647168
  0.6807384933115885  0.7085544346187799  0.4848738870386644
  0.4228151917560075  0.9629427267785929  0.9385752808950106
  0.1563145389274705  0.4619723851101131  0.6438391740376946
  0.1622506575002531  0.7644281665735299  0.4696220759095056
  0.2054428218417679  0.1333868689741429  0.8417649457964059
  0.1061755561973035  0.4271280584016113  0.2343644368681490
  0.5323388734432585  0.2904876093847188  0.9387060650231007
  0.2353815517527869  0.5135768928845816  0.0823566394832340
  0.8810679392313495  0.0533004141205869  0.1963293078451111
  0.4334151590671262  0.8443111796519093  0.7266190805581806
  0.7263364678536676  0.7178238691707061  0.9718883503868347
  0.9864629989346750  0.4714665478944156  0.0108184604262592
  0.0529880895163661  0.6541476817264544  0.0389386348848610
  0.6914215461880137  0.1652722291016395  0.7187506014780556
  0.7144389624579632  0.9162715440201553  0.7980352294096241
  0.1121420418648941  0.8907377896505089  0.6855287999806136
  0.1526859122184555  0.9591086769411339  0.0579560531123062
  0.1537859467798293  0.9613039014492717  0.3711345263069978
  0.7491475578521892  0.1409300559991900  0.3058955039364485
  0.7398077755491315  0.8345082508222119  0.2820581878967668
  0.7346748436866843  0.6543236019349149  0.3797622706540833
  0.4103773705119029  0.2867534655816801  0.3025737355725382
  0.6786100831129619  0.5852349350473853  0.7246311638426310
  0.3093116679989460  0.2298053095773186  0.4493816528230989
  0.0820550847763206  0.9334594102330501  0.8017445663133617
  0.9172884074985700  0.4468702419792572  0.2016998491762393
  0.8393319949709377  0.2100687370030630  0.3778243809518971
  0.8045725857567191  0.6242430493291293  0.8158653610223252
  0.9536780790013143  0.9054322098889617  0.9614591452582160
  0.2113181152237277  0.4194831492996822  0.4042944356396059
  0.2349402386647176  0.6989902885603718  0.6672550277510132
  0.3742325176283897  0.9430128716518763  0.5504408079842704
  0.5513750544249211  0.8532940044518601  0.7873482662754442
  0.1788669933131749  0.1466757622371036  0.9961885327270942
  0.2870014983510336  0.8133717395353560  0.0663837228275305
  0.5408209093073201  0.5835577881093093  0.4359580047419027
  0.8945858245220601  0.7331358282676269  0.8970577234637787
  0.4640961057176582  0.1818507692476719  0.9291393409165930
  0.4423423413672898  0.5086829434552970  0.1005383032892701
  0.0550470477607388  0.7145544857677447  0.6359522505503252
  0.1754295592617590  0.6362020424202839  0.2075464598947009
  0.2977623035310010  0.2746721658320422  0.8036036834562755
  0.5324746871050308  0.0819830399345269  0.4906914110857002
  0.3629766509664866  0.7079741568385012  0.3466581491300663
  0.3000379936824669  0.8531812702440845  0.7178811270922857
  0.7188244611261401  0.4008699082798241  0.2206488502486917
  0.6026494653798468  0.4513536393459597  0.0310067714580848
  0.1768223111953356  0.9868822711384733  0.6210692268573152
  0.9139070974045319  0.2253454740389363  0.7611918113706714
  0.5772993219520668  0.2047307684733492  0.5490735402398068
  0.0990069282681716  0.2334057052886567  0.5158368502221469
  0.1382663564076211  0.6041550068346453  0.8213141642106341
  0.5393039826612455  0.8641587328924623  0.1867748285061175
  0.4387672673728452  0.4117448228522249  0.7421189979366029
  0.9059196498784431  0.4360797457272925  0.9139599395582372
  0.8695358554867523  0.1197116406835566  0.9082520395619555
  0.8637142706687613  0.9701369188748303  0.5105100919332342
  0.0746507339514098  0.7284219784527345  0.2003189730146156
  0.9364471281284646  0.4603707230129783  0.6218961358573951
  0.3261730110506147  0.7032343750261317  0.0120349900558626
  0.1311884974707900  0.0123470327788043  0.2515076304030709
  0.5753206251824504  0.4601260137898467  0.1609164367509402
  0.7066701225166500  0.0449409481468968  0.6038881196610767
  0.6114093809664753  0.2655223179963232  0.0289817647973283
  0.1325263419617067  0.0743348173518394  0.4722033217366821
  0.9288838272235072  0.8307753888335205  0.2817847325995508
  0.7605857349424957  0.0348514104867522  0.7705756442544893
  0.7840590390725646  0.7019635371924817  0.5687985203406933
  0.2933051822573415  0.7944031346405704  0.5996434300133764
  0.8576577907420545  0.6608422429034269  0.1986339698926194
  0.4807462797312819  0.1128838797817835  0.0323184530314321
  0.2856770671686739  0.1654989065478655  0.0883154365698474
  0.3884802320578594  0.8206481196360064  0.4357149938258376
  0.9478511043893399 -0.0030646763446518  0.7602136300397413
  0.7036473284735280  0.2052782606051007  0.2066197289089034
  0.7094226391777610  0.0152679555432423  0.9958926930973133
  0.5590440638089235  0.1705099737499177  0.6753199705501980
  0.1472633987836770  0.0892792852147855  0.1043767540226973
  0.8765246097368383  0.4895568203321273  0.8043674435945800
  0.2025673659363763  0.3791247946858872  0.2834356358779770
  0.3302880399979092  0.4007393896211174  0.8476359248842708
  0.2714240140672566  0.7618150512686636  0.1849308310199844
  0.2816995869966729  0.9696180937705851  0.3394191566099017
  0.3415465084281989  0.5235206380755992  0.0110156869088797
  0.4072629750625992  0.0344710932276902  0.2122256936938631
  0.4508196132810070  0.2303523972505608  0.5305738335263338
  0.4295021023489473  0.3427290631867425  0.1910801936259620
  0.9576875957064584  0.0037874067374475  0.2893726332354138
  0.4168082801972275  0.8556406969818838  0.1060036654890298
  0.0916918223949210  0.4864688769450432  0.4217045654477659
  0.0661659870470123  0.4956832966806876  0.8469328515998156
  0.5349718592517559  0.4386281660246421  0.8241217666798420
  0.3003408401802397  0.9803645292814192  0.6597598999983120
  0.5311354777975534  0.1793233774623159  0.2381091616437343
  0.8957374335110411  0.5377422468416957  0.3409072775474445
  0.6103144131182912  0.5401068523655963  0.3355896724468331
  0.3429071620712993  0.1987212250571981  0.9128060964177452
  0.1799617987085283  0.9066683902754724  0.5225437206423249
  0.0114653020421399  0.2134563051511176  0.4231863193501506
  0.5433675804336923  0.9190082605621788  0.9002963609182525
  0.6053643114728245  0.9545646504080253  0.7315252844774764
  0.7017327098863577  0.4617549904018414  0.6820315790448307
  0.1614734667592717  0.8363990150630836  0.3312647160099376
  0.9175967014289841  0.3699858712718729  0.4392327563874487
  0.5519975655233167  0.7326307541646773  0.4563906735840813
  0.8520163243253763  0.3309233322795971  0.7089422364959632
  0.3139548023974770  0.6524762175050642  0.4806330154894622
  0.6835352693741452  0.2017735186747745  0.8441877190774607
  0.2968110148580060  0.1021189579734737  0.4854346174057368
  0.7755098212052040  0.8214800742478181  0.1610587755647444
  0.7632205626428572  0.5220158672907407  0.2105315151529864
  0.1467942970079850  0.6732609123519012  0.3676869672452586
  0.0318497077051825  0.8468935763984644  0.8749734701465746
  0.7908233756974125  0.4087555429640356  0.9469213650533664
  0.9889452230272096  0.0751667880433511  0.5787445227994925
  0.2623887194420555  0.9466492999342896  0.1507067686887364
  0.5490678836116430  0.5831348220216578  0.7153482213787459
  0.0048011819676620  0.8972861191623315  0.6231982408822444
  0.1321725461644434  0.2807116443464480  0.8400644745996457
  0.5202784405127721  0.3698871590918793  0.6484152400686702
  0.2782446319639874  0.2555581805652701  0.5707990301652456
  0.2694856201405252  0.9816409303805776  0.9788965499329717
  0.7811376113050835  0.1487555211088127  0.0614102328382699
  0.8690843240027804  0.6136413863127685  0.9310735147408439
  0.9007257447831307  0.1730089946842141  0.2370640873953970
  0.5145598982609293  0.4538202719028046  0.4620295822864746
  0.5872130406513404  0.3420321840541368  0.3116668829007697
  0.6374297911503527  0.5964921918724321  0.5441092012548869
  0.6755070715546058  0.7238695017520319  0.2917902500939659
  0.4545143691378476  0.7642494494578225  0.2735970063484642
  0.1273829641445525  0.7710307341886993  0.7227435157440195
  0.7768938397213019  0.7493643364793592  0.8539967584509104
  0.5962483662479210  0.7569024920014356  0.1347434635440561
  0.8980034669010146  0.7497484370408510  0.7074508845792246
  0.0906047251262878  0.2456217274849460  0.0176692303140951
  0.8397744393350196  0.9135901198510588  0.8968028484438464
  0.6983604839883416  0.8425166895760607 -0.0161360534330271
  0.7750558706648386  0.0282637637590824  0.2622662897150694
  0.2403664996298200  0.5277280760742775  0.7223196528754107
  0.7857643120206576  0.4893870132003845  0.4915029124700021
  0.4079614314035967  0.2825796653013876  0.7325484711535114
  0.0092803334894110  0.9526895417139782  0.1044539805803641
  0.4345103080094598  0.5956802226419663  0.3419800111349935
  0.1355148091635480  0.2169122909579303  0.2235072679918266
  0.0355392558941472  0.7979082030735872  0.4686174153384261
  0.7462616116998669  0.2994404544174532  0.4017668850447041
  0.4279203489549032  0.7192138544585258  0.7077768323919674
  0.6434950641193807  0.9127488070617870  0.2627479409145592
  0.3856128448028735  0.8473668949152288  0.8912695135811758
  0.1482972759709429  0.8180847587030653  0.0405184649298128
  0.8059593165465703  0.1562575270778278  0.4941700797671021
  0.7088860036611689  0.8427092312266118  0.4659515378753346
  0.0159013168700851  0.2554090460508265  0.6817902168378418
  0.6954438052425104  0.5696155580502935  0.8462674328398434
  0.2572455439725902  0.3271663419785552  0.0139118971151599
  0.4378482218780280  0.6455091237158959  0.8817334741369809
  0.0657791188084308  0.6684295388698936  0.9138309210366294
  0.5714427480617860  0.9478666199252933  0.0954192977339967
  0.4587584715916362  0.3724327545035557  0.9930873116607771
  0.9030031872993957  0.7929268447562352  0.0040466523619135
  0.6432239288529480  0.1120923454031957  0.3705011524442898
  0.2403045680994559  0.5818735228254320  0.8944389681926799
  0.2445714938554724  0.4821976152649991  0.5506865778249992
  0.5079154608717599  0.1167075489407682  0.8373201988273621
  0.4127150313091815  0.5324879605359792  0.6018411522692337
  0.2083731908565113  0.9077462701335738  0.8221634152058253
  0.0661714016358365  0.0540858135923387  0.9461626158969521
  0.2560978221699399  0.5315196007299779  0.3563225449299953
  0.9554435861786296  0.1505886733233425  0.0593179728486923
  0.2116894778528840  0.3511911033049571  0.6940091659321383
  0.3234204023625076  0.2001487622443066  0.2712742547929015
  0.2694025154056575  0.7396948313858178  0.8115951534982163
  0.8433158291513507  0.7143348683711952  0.3988213794191021
  0.0757960958277832  0.5464529336962947  0.2283682657251645
  0.9636960751442599  0.5738622280301262  0.0733064802164327
  0.1825697493531956  0.2549264732870216  0.4209897474370398
  0.2446384743950121  0.1555362749947943  0.7232703671415317
  0.9535699818682281  0.3219342693337400  0.8923406850197416
  0.8403717409522704  0.3496821028168402  0.2445140202326027
  0.5712531147260793  0.9675725611054308  0.4541723939380889
  0.6903600786211572  0.5523150065207967  0.0369977772607300
  0.3777454432670151  0.0068815569787442  0.8234724571279993
  0.5200076872541802  0.5464789694946551  0.0041921728033591
  0.6418019100012622  0.3572105426152765  0.5160264299686529
  0.6107472244237852  0.7635479326602679  0.6450005359249416
  0.2870150848844542  0.5419830327516346  0.1946415905226297
  0.0719958135673202  0.3538588172415291  0.5393092679736085
  0.7726161152602240  0.8705607930229478  0.6573389868705314
  0.4415270684820662  0.6396532716303567  0.1305107180714231
  0.1732169068323431  0.6301054269537684  0.0756649418712164
  0.6011256607403949  0.7140735318899942  0.9359711090373066
  0.6937014879919851  0.2906561988321953  0.6812098281169600
  0.4657970517659660  0.8652525094907451  0.6024130327223367
  0.3577055371918096  0.3837202493312035  0.3608992248859466
  0.1468226969565243  0.6686913729978787  0.5665584450453021
  0.8461977041600838  0.1562736367861888  0.6684122650435264
  0.0039988817220487  0.3676141375237273  0.2625393969929009
  0.9385384985924210  0.3797465872578473  0.0843506524544835
  0.1228937326577883  0.3844065710911746  0.1189336564515167
  0.4557765827550611  0.1044326410171794  0.3879968983741652
  0.9438859622525824  0.6324859521676305  0.5424188655195982
  0.0086068316486907  0.1004578001870680  0.7546860066073088
  0.0267303066019864  0.6070481167584516  0.6986549331994322
  0.7326474612141193  0.3747718439332376  0.0953766550050667
  0.4555336867949178  0.0408104380103720  0.5806811033684817
 
  0.00000000E+00  0.00000000E+00  0.00000000E+00
  0.00000000E+00  0.00000000E+00  0.00000000E+00
  0.00000000E+00  0.00000000E+00  0.00000000E+00
  0.00000000E+00  0.00000000E+00  0.00000000E+00
  0.00000000E+00  0.00000000E+00  0.00000000E+00
  0.00000000E+00  0.00000000E+00  0.00000000E+00
  0.00000000E+00  0.00000000E+00  0.00000000E+00
  0.00000000E+00  0.00000000E+00  0.00000000E+00
  0.00000000E+00  0.00000000E+00  0.00000000E+00
  0.00000000E+00  0.00000000E+00  0.00000000E+00
  0.00000000E+00  0.00000000E+00  0.00000000E+00
  0.00000000E+00  0.00000000E+00  0.00000000E+00
  0.00000000E+00  0.00000000E+00  0.00000000E+00
  0.00000000E+00  0.00000000E+00  0.00000000E+00
  0.00000000E+00  0.00000000E+00  0.00000000E+00
  0.00000000E+00  0.00000000E+00  0.00000000E+00
  0.00000000E+00  0.00000000E+00  0.00000000E+00
  0.00000000E+00  0.00000000E+00  0.00000000E+00
  0.00000000E+00  0.00000000E+00  0.00000000E+00
  0.00000000E+00  0.00000000E+00  0.00000000E+00
  0.00000000E+00  0.00000000E+00  0.00000000E+00
  0.00000000E+00  0.00000000E+00  0.00000000E+00
  0.00000000E+00  0.00000000E+00  0.00000000E+00
  0.00000000E+00  0.00000000E+00  0.00000000E+00
  0.00000000E+00  0.00000000E+00  0.00000000E+00
  0.00000000E+00  0.00000000E+00  0.00000000E+00
  0.00000000E+00  0.00000000E+00  0.00000000E+00
  0.00000000E+00  0.00000000E+00  0.00000000E+00
  0.00000000E+00  0.00000000E+00  0.00000000E+00
  0.00000000E+00  0.00000000E+00  0.00000000E+00
  0.00000000E+00  0.00000000E+00  0.00000000E+00
  0.00000000E+00  0.00000000E+00  0.00000000E+00
  0.00000000E+00  0.00000000E+00  0.00000000E+00
  0.00000000E+00  0.00000000E+00  0.00000000E+00
  0.00000000E+00  0.00000000E+00  0.00000000E+00
  0.00000000E+00  0.00000000E+00  0.00000000E+00
  0.00000000E+00  0.00000000E+00  0.00000000E+00
  0.00000000E+00  0.00000000E+00  0.00000000E+00
  0.00000000E+00  0.00000000E+00  0.00000000E+00
  0.00000000E+00  0.00000000E+00  0.00000000E+00
  0.00000000E+00  0.00000000E+00  0.00000000E+00
  0.00000000E+00  0.00000000E+00  0.00000000E+00
  0.00000000E+00  0.00000000E+00  0.00000000E+00
  0.00000000E+00  0.00000000E+00  0.00000000E+00
  0.00000000E+00  0.00000000E+00  0.00000000E+00
  0.00000000E+00  0.00000000E+00  0.00000000E+00
  0.00000000E+00  0.00000000E+00  0.00000000E+00
  0.00000000E+00  0.00000000E+00  0.00000000E+00
  0.00000000E+00  0.00000000E+00  0.00000000E+00
  0.00000000E+00  0.00000000E+00  0.00000000E+00
  0.00000000E+00  0.00000000E+00  0.00000000E+00
  0.00000000E+00  0.00000000E+00  0.00000000E+00
  0.00000000E+00  0.00000000E+00  0.00000000E+00
  0.00000000E+00  0.00000000E+00  0.00000000E+00
  0.00000000E+00  0.00000000E+00  0.00000000E+00
  0.00000000E+00  0.00000000E+00  0.00000000E+00
  0.00000000E+00  0.00000000E+00  0.00000000E+00
  0.00000000E+00  0.00000000E+00  0.00000000E+00
  0.00000000E+00  0.00000000E+00  0.00000000E+00
  0.00000000E+00  0.00000000E+00  0.00000000E+00
  0.00000000E+00  0.00000000E+00  0.00000000E+00
  0.00000000E+00  0.00000000E+00  0.00000000E+00
  0.00000000E+00  0.00000000E+00  0.00000000E+00
  0.00000000E+00  0.00000000E+00  0.00000000E+00
  0.00000000E+00  0.00000000E+00  0.00000000E+00
  0.00000000E+00  0.00000000E+00  0.00000000E+00
  0.00000000E+00  0.00000000E+00  0.00000000E+00
  0.00000000E+00  0.00000000E+00  0.00000000E+00
  0.00000000E+00  0.00000000E+00  0.00000000E+00
  0.00000000E+00  0.00000000E+00  0.00000000E+00
  0.00000000E+00  0.00000000E+00  0.00000000E+00
  0.00000000E+00  0.00000000E+00  0.00000000E+00
  0.00000000E+00  0.00000000E+00  0.00000000E+00
  0.00000000E+00  0.00000000E+00  0.00000000E+00
  0.00000000E+00  0.00000000E+00  0.00000000E+00
  0.00000000E+00  0.00000000E+00  0.00000000E+00
  0.00000000E+00  0.00000000E+00  0.00000000E+00
  0.00000000E+00  0.00000000E+00  0.00000000E+00
  0.00000000E+00  0.00000000E+00  0.00000000E+00
  0.00000000E+00  0.00000000E+00  0.00000000E+00
  0.00000000E+00  0.00000000E+00  0.00000000E+00
  0.00000000E+00  0.00000000E+00  0.00000000E+00
  0.00000000E+00  0.00000000E+00  0.00000000E+00
  0.00000000E+00  0.00000000E+00  0.00000000E+00
  0.00000000E+00  0.00000000E+00  0.00000000E+00
  0.00000000E+00  0.00000000E+00  0.00000000E+00
  0.00000000E+00  0.00000000E+00  0.00000000E+00
  0.00000000E+00  0.00000000E+00  0.00000000E+00
  0.00000000E+00  0.00000000E+00  0.00000000E+00
  0.00000000E+00  0.00000000E+00  0.00000000E+00
  0.00000000E+00  0.00000000E+00  0.00000000E+00
  0.00000000E+00  0.00000000E+00  0.00000000E+00
  0.00000000E+00  0.00000000E+00  0.00000000E+00
  0.00000000E+00  0.00000000E+00  0.00000000E+00
  0.00000000E+00  0.00000000E+00  0.00000000E+00
  0.00000000E+00  0.00000000E+00  0.00000000E+00
  0.00000000E+00  0.00000000E+00  0.00000000E+00
  0.00000000E+00  0.00000000E+00  0.00000000E+00
  0.00000000E+00  0.00000000E+00  0.00000000E+00
  0.00000000E+00  0.00000000E+00  0.00000000E+00
  0.00000000E+00  0.00000000E+00  0.00000000E+00
  0.00000000E+00  0.00000000E+00  0.00000000E+00
  0.00000000E+00  0.00000000E+00  0.00000000E+00
  0.00000000E+00  0.00000000E+00  0.00000000E+00
  0.00000000E+00  0.00000000E+00  0.00000000E+00
  0.00000000E+00  0.00000000E+00  0.00000000E+00
  0.00000000E+00  0.00000000E+00  0.00000000E+00
  0.00000000E+00  0.00000000E+00  0.00000000E+00
  0.00000000E+00  0.00000000E+00  0.00000000E+00
  0.00000000E+00  0.00000000E+00  0.00000000E+00
  0.00000000E+00  0.00000000E+00  0.00000000E+00
  0.00000000E+00  0.00000000E+00  0.00000000E+00
  0.00000000E+00  0.00000000E+00  0.00000000E+00
  0.00000000E+00  0.00000000E+00  0.00000000E+00
  0.00000000E+00  0.00000000E+00  0.00000000E+00
  0.00000000E+00  0.00000000E+00  0.00000000E+00
  0.00000000E+00  0.00000000E+00  0.00000000E+00
  0.00000000E+00  0.00000000E+00  0.00000000E+00
  0.00000000E+00  0.00000000E+00  0.00000000E+00
  0.00000000E+00  0.00000000E+00  0.00000000E+00
  0.00000000E+00  0.00000000E+00  0.00000000E+00
  0.00000000E+00  0.00000000E+00  0.00000000E+00
  0.00000000E+00  0.00000000E+00  0.00000000E+00
  0.00000000E+00  0.00000000E+00  0.00000000E+00
  0.00000000E+00  0.00000000E+00  0.00000000E+00
  0.00000000E+00  0.00000000E+00  0.00000000E+00
  0.00000000E+00  0.00000000E+00  0.00000000E+00
  0.00000000E+00  0.00000000E+00  0.00000000E+00
  0.00000000E+00  0.00000000E+00  0.00000000E+00
  0.00000000E+00  0.00000000E+00  0.00000000E+00
  0.00000000E+00  0.00000000E+00  0.00000000E+00
  0.00000000E+00  0.00000000E+00  0.00000000E+00
  0.00000000E+00  0.00000000E+00  0.00000000E+00
  0.00000000E+00  0.00000000E+00  0.00000000E+00
  0.00000000E+00  0.00000000E+00  0.00000000E+00
  0.00000000E+00  0.00000000E+00  0.00000000E+00
  0.00000000E+00  0.00000000E+00  0.00000000E+00
  0.00000000E+00  0.00000000E+00  0.00000000E+00
  0.00000000E+00  0.00000000E+00  0.00000000E+00
  0.00000000E+00  0.00000000E+00  0.00000000E+00
  0.00000000E+00  0.00000000E+00  0.00000000E+00
  0.00000000E+00  0.00000000E+00  0.00000000E+00
  0.00000000E+00  0.00000000E+00  0.00000000E+00
  0.00000000E+00  0.00000000E+00  0.00000000E+00
  0.00000000E+00  0.00000000E+00  0.00000000E+00
  0.00000000E+00  0.00000000E+00  0.00000000E+00
  0.00000000E+00  0.00000000E+00  0.00000000E+00
  0.00000000E+00  0.00000000E+00  0.00000000E+00
  0.00000000E+00  0.00000000E+00  0.00000000E+00
  0.00000000E+00  0.00000000E+00  0.00000000E+00
  0.00000000E+00  0.00000000E+00  0.00000000E+00
  0.00000000E+00  0.00000000E+00  0.00000000E+00
  0.00000000E+00  0.00000000E+00  0.00000000E+00
  0.00000000E+00  0.00000000E+00  0.00000000E+00
  0.00000000E+00  0.00000000E+00  0.00000000E+00
  0.00000000E+00  0.00000000E+00  0.00000000E+00
  0.00000000E+00  0.00000000E+00  0.00000000E+00
  0.00000000E+00  0.00000000E+00  0.00000000E+00
  0.00000000E+00  0.00000000E+00  0.00000000E+00
  0.00000000E+00  0.00000000E+00  0.00000000E+00
  0.00000000E+00  0.00000000E+00  0.00000000E+00
  0.00000000E+00  0.00000000E+00  0.00000000E+00
  0.00000000E+00  0.00000000E+00  0.00000000E+00
  0.00000000E+00  0.00000000E+00  0.00000000E+00
  0.00000000E+00  0.00000000E+00  0.00000000E+00
  0.00000000E+00  0.00000000E+00  0.00000000E+00
  0.00000000E+00  0.00000000E+00  0.00000000E+00
  0.00000000E+00  0.00000000E+00  0.00000000E+00
  0.00000000E+00  0.00000000E+00  0.00000000E+00
  0.00000000E+00  0.00000000E+00  0.00000000E+00
  0.00000000E+00  0.00000000E+00  0.00000000E+00
  0.00000000E+00  0.00000000E+00  0.00000000E+00
  0.00000000E+00  0.00000000E+00  0.00000000E+00
  0.00000000E+00  0.00000000E+00  0.00000000E+00
  0.00000000E+00  0.00000000E+00  0.00000000E+00
  0.00000000E+00  0.00000000E+00  0.00000000E+00
  0.00000000E+00  0.00000000E+00  0.00000000E+00
  0.00000000E+00  0.00000000E+00  0.00000000E+00
  0.00000000E+00  0.00000000E+00  0.00000000E+00
  0.00000000E+00  0.00000000E+00  0.00000000E+00
  0.00000000E+00  0.00000000E+00  0.00000000E+00
  0.00000000E+00  0.00000000E+00  0.00000000E+00
  0.00000000E+00  0.00000000E+00  0.00000000E+00
  0.00000000E+00  0.00000000E+00  0.00000000E+00
  0.00000000E+00  0.00000000E+00  0.00000000E+00
  0.00000000E+00  0.00000000E+00  0.00000000E+00
  0.00000000E+00  0.00000000E+00  0.00000000E+00
  0.00000000E+00  0.00000000E+00  0.00000000E+00
  0.00000000E+00  0.00000000E+00  0.00000000E+00
  0.00000000E+00  0.00000000E+00  0.00000000E+00
  0.00000000E+00  0.00000000E+00  0.00000000E+00
  0.00000000E+00  0.00000000E+00  0.00000000E+00
  0.00000000E+00  0.00000000E+00  0.00000000E+00
  0.00000000E+00  0.00000000E+00  0.00000000E+00
  0.00000000E+00  0.00000000E+00  0.00000000E+00
  0.00000000E+00  0.00000000E+00  0.00000000E+00
  0.00000000E+00  0.00000000E+00  0.00000000E+00
  0.00000000E+00  0.00000000E+00  0.00000000E+00
  0.00000000E+00  0.00000000E+00  0.00000000E+00
  0.00000000E+00  0.00000000E+00  0.00000000E+00
  0.00000000E+00  0.00000000E+00  0.00000000E+00
  0.00000000E+00  0.00000000E+00  0.00000000E+00
  0.00000000E+00  0.00000000E+00  0.00000000E+00
  0.00000000E+00  0.00000000E+00  0.00000000E+00
  0.00000000E+00  0.00000000E+00  0.00000000E+00
  0.00000000E+00  0.00000000E+00  0.00000000E+00
  0.00000000E+00  0.00000000E+00  0.00000000E+00
  0.00000000E+00  0.00000000E+00  0.00000000E+00
  0.00000000E+00  0.00000000E+00  0.00000000E+00
  0.00000000E+00  0.00000000E+00  0.00000000E+00
  0.00000000E+00  0.00000000E+00  0.00000000E+00
  0.00000000E+00  0.00000000E+00  0.00000000E+00
  0.00000000E+00  0.00000000E+00  0.00000000E+00
  0.00000000E+00  0.00000000E+00  0.00000000E+00
  0.00000000E+00  0.00000000E+00  0.00000000E+00
  0.00000000E+00  0.00000000E+00  0.00000000E+00
  0.00000000E+00  0.00000000E+00  0.00000000E+00
  0.00000000E+00  0.00000000E+00  0.00000000E+00
  0.00000000E+00  0.00000000E+00  0.00000000E+00
  0.00000000E+00  0.00000000E+00  0.00000000E+00
  0.00000000E+00  0.00000000E+00  0.00000000E+00
  0.00000000E+00  0.00000000E+00  0.00000000E+00
  0.00000000E+00  0.00000000E+00  0.00000000E+00
  0.00000000E+00  0.00000000E+00  0.00000000E+00
  0.00000000E+00  0.00000000E+00  0.00000000E+00
  0.00000000E+00  0.00000000E+00  0.00000000E+00
  0.00000000E+00  0.00000000E+00  0.00000000E+00
  0.00000000E+00  0.00000000E+00  0.00000000E+00
  0.00000000E+00  0.00000000E+00  0.00000000E+00
  0.00000000E+00  0.00000000E+00  0.00000000E+00
  0.00000000E+00  0.00000000E+00  0.00000000E+00
  0.00000000E+00  0.00000000E+00  0.00000000E+00