Amorphous Sb                            
   1.00000000000000     
    19.5774470278815123    0.0000000000000000    0.0000000000000000
     0.0000000000000000   19.5774470278815123    0.0000000000000000
     0.0000000000000000    0.0000000000000000   19.5774470278815123
   Ge   N    Se
   135    30   135
Direct
  0.6900085166652159  0.1184898705889889  0.4362253709271852
  0.0533970577382839  0.0105213368445285  0.0344027842140135
  0.1892371450896592  0.2693669954567296  0.9835935630573683
  0.1755059636392002  0.4012491325583042  0.8226311730162575
  0.7851590766628624  0.8140390445696063  0.3315953109281167
  0.7946130767818237  0.8836973889021791  0.7004166017435842
  0.2995582277909590  0.5407317365017879  0.2547988372731816
  0.4639262420901069  0.8201590072663367  0.1954495977533948
  0.4936573362997383  0.6141192167019880  0.8050339892778953
  0.4758053053147322  0.2403850880585404  0.6289660423605039
  0.3142159111984542  0.0078630673770408  0.2443452316626236
  0.2015449732070549  0.7558671934836355  0.4567175923575312
  0.8445645825375450  0.2723047087243121  0.5495809868251478
  0.1010114171936999  0.5319525266302547  0.6338344404903944
  0.6454284956580230  0.3474824409747150  0.3600230071250405
  0.8765352834402663  0.8306781179082550  0.0977385570731608
  0.6771306875870643  0.4580942239055047  0.7408568609531793
  0.7680377299863356  0.9701589127085078  0.7829375849766357
  0.1566665341143438  0.6739364150801365  0.6189420345797715
  0.4924220014507345  0.8781663750298950  0.6909711095270382
  0.8321611614023776  0.5545254012735908  0.0055222356290762
  0.9207397623866432  0.6539716248097943  0.7872742451402893
  0.2715376013881459  0.4039676535168778  0.1154303190220293
  0.9642728818658944  0.7417673066123480  0.3827350169467079
  0.3367836302846252  0.6030141623242873  0.1168380769668571
  0.3650346457078786  0.3245046837740686  0.9192177185075880
  0.3251907002284683  0.9769087493404326  0.9097430001841375
  0.7794132192130097  0.7054843967389345  0.0463068561090804
  0.4002592881735668  0.5172023411721176  0.7646175711195091
  0.0929433112530211  0.1977360771759219  0.8434377655795972
  0.7013903658975614  0.0385752916034622  0.6517058081245251
  0.4984913495428467  0.4659636760883205  0.0586569596154537
  0.6574156915248651  0.6511374937785254  0.7802293486882725
  0.6218117991983867  0.1255941327029938  0.1841564444683376
  0.5182631086568414  0.0324248659592195  0.3451149683234326
  0.8063443350704262  0.0672385924447347  0.5086665385816470
  0.9858147835882730  0.0411920156735922  0.8208552449080095
  0.5744437162956548  0.2085679458552667  0.4897401575780063
  0.3599035119298422  0.1916217211423644  0.7246320170621525
  0.1202480891928187  0.8541562612575011  0.6747236228781434
  0.1793606984195714  0.0479845082309237  0.9059631801076079
  0.4399752880071179  0.6425700521640072  0.2255025190729385
  0.8553041792848968  0.6200867023106017  0.1899268532778881
  0.8291413565378266  0.1613485452817752  0.1072725451850743
  0.0542411949169664  0.7838852707801238  0.2366766133526254
  0.6838446971327665  0.4454501933402844  0.4739189991957434
  0.8581142225513341  0.7964969209897004  0.9330323412838157
  0.9795609254173044  0.0594558780969744  0.2556581155724014
  0.2047967177626568  0.6081982687675480  0.1259055537216205
  0.9016735331775737  0.2072248308271781  0.9035695317247060
  0.6011784207485987  0.4728167278270339  0.5929895863220236
  0.6539010614755771  0.2435617254107808  0.1105840867975397
  0.0959818762769422  0.3537362962162517  0.3619310933840638
  0.9730146089201367  0.8992077576463017  0.7116945564194126
  0.2055436395055496  0.1394225567198686  0.6855590342787490
  0.5587624504894319  0.4028474177311091  0.9232246165084040
  0.7363766562241255  0.5657050373200855  0.6342565328749189
  0.6797095948765544  0.7223199582706202  0.8835670228562315
  0.3449982377777977  0.5139244447571761  0.4796065673744193
  0.3358927357480079  0.5042682496588186  0.9747936611601224
  0.1246693572891702  0.5319606132989390  0.4009855372423084
  0.6377115481893514  0.3329671304748562  0.7340340514968230
  0.8398075183472158  0.3486801682049687  0.3461700024990245
  0.8291050682736218  0.4938147166727826  0.2949852393872108
  0.9318344167328624  0.3045276182165471  0.0575048636691869
  0.7484874489538104  0.4867724166472612  0.8806181516662294
  0.9133925305415924  0.9026140281629210  0.8787539261864503
  0.8365770908079641  0.3033306461892546  0.1891367948919152
  0.6139734214795158  0.5804806986487641  0.3290657170039755
  0.4206749830920846  0.4695320281030849  0.1716810230708493
  0.0614320143733155  0.6747768966774869  0.4909046037949345
  0.1461228335273133  0.9185748098654841  0.9533038664448854
  0.7607373096951764  0.2219291394964247  0.3197975168241106
  0.1931354573096141  0.6523525200307693  0.2982635037481629
  0.4414981974687271  0.7302967233408179  0.7116967536551815
  0.7359352701048251  0.4415659680933990  0.1138628417523866
  0.5223198143751761  0.2443052108097012  0.2603798091791431
  0.4112346349993948  0.1116001439485040  0.3374684651659047
  0.1951610709332807  0.0501321647995401  0.2847366265001393
  0.2364077565246894  0.0912315832041384  0.4355527534484056
  0.4765400286432350  0.1933229057675453  0.1189754076078348
  0.6250736976424129  0.8819621808949987  0.6643762051650937
  0.6724046642559376  0.6914115675081600  0.1812191721339014
  0.6052823443594471  0.0046323755688291  0.9385796694387544
  0.0334026281425965  0.3018842164007254  0.5212476785147074
  0.0513997926463590  0.7028986964437069  0.9009244104495326
  0.8316074846210875  0.1055255792596906  0.6759561785142667
  0.7988447776540009  0.3530830382106544  0.7952283890876878
  0.1842643714714483  0.4435941220806621  0.2708963579294820
  0.1320999935522855  0.2216972460594951  0.4253878005391507
  0.3252532685123130  0.4393501718585393  0.6044632211100723
  0.8997292961393594  0.4376055266923373  0.0740695584460860
  0.3073541418709025  0.7430175877633398  0.1930161097213786
  0.1041196908622438  0.3334328169036632  0.1673433317694906
  0.7015539638250913  0.1746165172460499  0.5925169353736016
  0.7861358000366013  0.5960474718548512  0.4477653604402814
  0.2789285258347605  0.2945169262511751  0.6241800267744975
  0.2796421157149121  0.1439804889083671  0.8880337506198591
  0.0317021551408698  0.1625422918154943  0.6508977767477807
  0.4235892214917579  0.8033639777045068  0.4718193856930287
  0.2652409480914256  0.5434203432624174  0.6728425225425222
  0.3472229279466816  0.6799427802410917  0.5508483916534564
  0.4356862146493167  0.5257555543826785  0.3916733496755365
  0.7073491494491417  0.3875126750183412  0.2580401672727134
  0.3318603598394368  0.3858880313098816  0.3119312161279916
  0.5673019382252864  0.8795760991766127  0.4952648129639320
  0.1530326839482494  0.9843568208287751  0.5585845378958528
  0.9936170837999200  0.5462147460332807  0.8496635688129348
  0.8884467423194203  0.9157487583137301  0.4474757092669805
  0.6426592877431008  0.0487392587144314  0.0808215307519642
  0.6172164938830187  0.7775595287621443  0.3886463147964952
  0.1430661367586897  0.8925164123674447  0.1252630737110049
  0.9783345608536481  0.1604028840108237  0.4398104810242587
  0.5707213499515632  0.6134094650604925  0.1446744631342378
  0.3278404543065740  0.1430220284527466  0.5703497716099067
  0.3133073322930613  0.7678479022172470  0.0201905282754922
  0.3112177859056335  0.2156925479851692  0.4605510490735338
  0.7288400184127750  0.1076779271887554  0.9013975249446349
  0.8646988766219762  0.0250171897392709  0.0923141867636309
  0.4653291338316801  0.0734904572949689  0.9599933732663793
  0.4552241423534762  0.9402445571855417  0.8648169924080246
  0.9879626890896430  0.2920293378240540  0.2380842689715938
  0.4384122193891566  0.3146139617579533  0.7943433304668842
  0.0266373771802175  0.4557672257187291  0.2765630039342307
  0.6024395619410251  0.7996950344179202  0.0597743887315183
  0.2200599351745744  0.6088640677378175  0.4787780315442314
  0.1734729065081122  0.5756530827700393  0.9316578222822047
  0.7511479236839604  0.8355987298009256  0.5370077780413876
  0.0451657894187801  0.8449971887808625  0.4032711823080951
  0.6496627262760083  0.8556218952581895  0.8587975313234302
  0.9983657707205276  0.3777460712340249  0.9223796982706797
  0.7970182909658398  0.0251148313325208  0.2718137132274618
  0.8576707002987609  0.4910635921342846  0.7550662107341517
  0.9601378731175249  0.4851201012511403  0.5287142102865832
  0.3963781906473998  0.0718995680712105  0.7103814382938202
  0.0468219400628396  0.2247010090311304  0.4683751605200018
  0.7708208878621449  0.4564133121821188  0.7797580130859476
  0.7692925931280830  0.0399851353975983  0.7173194776001788
  0.1862514470281903  0.5995161997578299  0.3818560632625673
  0.8237778730617288  0.7889243401483660  0.0253080391884680
  0.3709066796207398  0.6801662555731712  0.1651247619915334
  0.3454479050126108  0.5281668116620003  0.1737176558804953
  0.7592722578577513  0.0943482332791974  0.5939422872115994
  0.9946138338893391  0.6412079440185899  0.8503424833808372
  0.2313173951351471  0.0883748970745882  0.1135408137639342
  0.5122517554659779  0.9992962773073811  0.9241446716611574
  0.7725100548984216  0.3094813360750523  0.2672081265472315
  0.6769350399142845  0.9537280830023928  0.6176879588820540
  0.6741325894411113  0.5002378870900323  0.6578432752932928
  0.8127222484642880  0.4800933686941612  0.0599212753731860
  0.3090525895104109  0.6183838746246613  0.4927480575163957
  0.1202677522848687  0.9394817920133746  0.0426728080388048
  0.2252167437130914  0.5952244661509694  0.2256338421889930
  0.9125517102868264  0.5546565470316980  0.7992501546207360
  0.4420353411712857  0.2426848814935233  0.7235497534879596
  0.6729011865723904  0.1888456456066851  0.5071295050404546
  0.1150923623603427  0.4599544357726935  0.3374618051020097
  0.2544398191759144  0.1400879561515742  0.1169998736400203
  0.5434687023504994  0.1781320985993186  0.1876230297168213
  0.2965369136339617  0.1945353356642773  0.6516671017113866
  0.0364075056638890  0.3597597357748585  0.2860896402543553
  0.1838498080191699  0.5855441664141605  0.6455267883983244
  0.2695117612310191  0.4612388189332717  0.2909784047779913
  0.1675475854908608  0.6791994889321117  0.5196057406983348
  0.1787918216338900  0.9266575393131499  0.6392814449112354
  0.5842018032511380  0.3495340472231708  0.6183189929141304
  0.0715200374641481  0.8791979218736045  0.7805067821071767
  0.4186135763848321  0.4685939919835670  0.8803016059122017
  0.6475878613862714  0.6958311983141225  0.0086931923275254
  0.2149817654706982  0.2851692318742955  0.1163504672006494
  0.2819525030157518  0.6614150839741502  0.9616176519288329
  0.4310118303722494  0.5753615302795663  0.0395193708870563
  0.8220219476788366  0.0042431449231041  0.8877192585065508
  0.2656884616292464  0.8614142138943153  0.9359082521029219
  0.6134493220967888  0.2261523678222823  0.3552006788432700
  0.8953555987761505  0.2327732878515907  0.3432270178536584
  0.8553399675237986  0.4923733188650333  0.4655762068361838
  0.3143882383724351  0.2112638786429200  0.9869569070001432
  0.4315027107239292  0.8871958826363828  0.0340330263432065
  0.9398021125938865  0.7905479256857831  0.2711444581701112
  0.8992359661223533  0.6048690200684858  0.2998154934760021
  0.5342258161709766  0.6015746388990221  0.4161742231230482
  0.9838222675982438  0.7895591633551196  0.9474827298299109
  0.1267451365396300  0.8505139038794340  0.4913839035395689
  0.5363184846779406  0.3016135080415073  0.0650088364113130
  0.4003923978994238  0.1044170606317298  0.8656979074857299
  0.2021899193085797  0.7666449137025769  0.6836039035019963
  0.2198042105978898  0.3860422038848728  0.9442583293850091
  0.1346228076012143  0.1269591824517100  0.5783574904514779
  0.9534036258633157  0.0149629152241902  0.7020729340152264
  0.1202287866048032  0.2404964973927902  0.7156227696812206
  0.7407957643569123  0.3343053259192165  0.4412319539945621
  0.4371820895329702  0.0899783654906390  0.5962664916441349
  0.1238609277587095  0.3578784410591126  0.5740522515262135
  0.4638148850744870  0.8965081689989366  0.5691000718993308
  0.3690248513482252  0.3971436861734612  0.0346310061942492
  0.7304544212228297  0.7602292906819570  0.4400588129128635
  0.2742519185718656  0.0222662318703891  0.5350259753473872
  0.0861503571858821  0.1110536343869511  0.9735261825522648
  0.8629898723505458  0.9662283664448972  0.5605972023128483
  0.0120386287666006  0.5659209845561222  0.4324004612727093
  0.7646158318850974  0.6447595445386405  0.7213093143037330
  0.9642337234030021  0.3791018398808848  0.4521374000560835
  0.2227752405991663  0.6750485809597206  0.8577307723185150
  0.3758420155299455  0.0068629428006873  0.0256637133849842
  0.8963535105467312  0.9713766629208304  0.2081561759301564
  0.0216340628810146  0.8470180263559959  0.6077367870733982
  0.0456086564519352  0.3166670032508112  0.0168962763719869
  0.7911431806885756  0.2030959164893674  0.8633731054672250
  0.8033382433880947  0.6997550122406202  0.8778225295690262
  0.5594535445010012  0.6608329827616997  0.7081630626348329
  0.1077541448776160  0.5168906472126715  0.8071956259087798
  0.6924665394091291  0.6148147375832330  0.5381190714070336
  0.6079118200170380  0.3326696872191105  0.1912683769249935
  0.4097358543474978  0.7087261380619559  0.8268737652269770
  0.5347162175088793  0.3829109253192990  0.7912927734606502
  0.1133238902897380  0.4603429877242327  0.1739647478503522
  0.1306429088555502  0.8583362703770775  0.3030169645191114
  0.5893904220640710  0.5227835422243001  0.2238037051920546
  0.9905634653361329  0.9620652552319204  0.4064117928309631
  0.7763435945150838  0.2494553951493855  0.6541562450655271
  0.9709475757731308  0.1780041748986035  0.7994798518270166
  0.6317706226818119  0.5378568815415158  0.8282725258308559
  0.7103899079236148  0.5214898470379786  0.3765509323593367
  0.1372516484336100  0.0288889770371036  0.3965285852618163
  0.8877974843992923  0.4198682585603070  0.1977222956119895
  0.8954544029979307  0.7969462283530357  0.4761378495824929
  0.7646499946604614  0.2998482134036406  0.0757260779785877
  0.6789524175085923  0.9463852748899486  0.5205183390528018
  0.6483806958155176  0.9720508017426439  0.8084049682261646
  0.1398066774875241  0.7665060147727883  0.8514006112147571
  0.7821822177066392  0.9254015577347342  0.0905039188159172
  0.0602344844947952  0.1838596258309005  0.2998550061382329
  0.6953549294042487  0.3765064333041514  0.9056855990732560
  0.7808871144130261  0.9319063633696829  0.3770700594606147
  0.7530147486795270  0.1479521083836408  0.2122653300224672
  0.9425918317351611  0.9533737673404669  0.0179432678356741
  0.8963546521730514  0.8261454749723361  0.7790145518148500
  0.4255115371650543  0.5066553783191063  0.5815536550910820
  0.6548604222542572  0.8892900106275317  0.9791303784337473
  0.3647410320006523  0.4064775932216450  0.7298590557386659
  0.1730514899070614  0.1653834291018817  0.2522633544162313
  0.0511343249940119  0.0796733253690465  0.1375240129478346
  0.5283141136037026  0.8397243123079416  0.8404057217706880
  0.0904954298689339  0.6431633824268862  0.9960708130353156
  0.8874879961582064  0.3315395143454679  0.9342237473176308
  0.6227457406257573  0.1288225727428775  0.6709681535825996
  0.2156957436599196  0.7494297256435152  0.1085410844933266
  0.1771980503132658  0.5001588679712040  0.5084065741753091
  0.3356218294537452  0.6593832769734511  0.6724361939861401
  0.9799412399458571  0.4905210060987649  0.9630075282426676
  0.3059440325547540  0.7985909717674140  0.5303131431397425
  0.5101188414257083  0.9258658839146784  0.2086804875357622
  0.6439242445809672  0.8050665746370681  0.1785424926172400
  0.2778324510215248  0.5479230114890097  0.7965045273587371
  0.9259689795770062  0.6013301227153848  0.0897198353398612
  0.7123710909938338  0.9736199694548767  0.1827904752036731
  0.0345343709590338  0.6417950454185676  0.6139358420240193
  0.6629596356254089  0.8500799132125889  0.2969149096881800
  0.9012217198145039  0.1497345860595896  0.5379074832840947
  0.1919803558463505  0.3276735549065627  0.2730254465635236
  0.2151976708078953  0.3069914194685852  0.5053813047495159
  0.2853109876194861  0.2346747556515916  0.8074402009661222
  0.3364435896951952  0.0191961802453472  0.3735450214135889
  0.4440372122955719  0.4445040103228351  0.3101775567329475
  0.7530915529646252  0.5511696694744139  0.1974293605197911
  0.6279742651007173  0.7960973049236837  0.5776081345342048
  0.4911508396313743  0.9998848600961431  0.7501149379726021
  0.3634250599931777  0.6113185913058438  0.3303973545784635
  0.0592146157080546  0.3417057694877261  0.8265292737424234
  0.4237056966674479  0.2161684963831206  0.4072300066433429
  0.4775729079405090  0.7579233778658575  0.2911341664376481
  0.7956803046652039  0.7338815519172276  0.1765519482298937
  0.7387062245565110  0.1188020474933604  0.0285731889788996
  0.6964840788776303  0.8088995779413605  0.7350481444827212
  0.5748033570033722  0.4028933496168239  0.4390146260980105
  0.9304888503576698  0.1629096536922769  0.0104573645990917
  0.4769246455128310  0.7669617728687341  0.0662151255900529
  0.9064536249234365  0.3857299114220364  0.7450348444645606
  0.9597344563251780  0.2839460217220726  0.6183472736545175
  0.0832722674500396  0.6665694302774149  0.2692820283929542
  0.0464279980283660  0.8026794256944482  0.1192521537277144
  0.8522730136910877  0.5339734902031456  0.6411339154968795
  0.6724650666673790  0.6831689156227424  0.3074266131962086
  0.1118798492157196  0.0608487652625969  0.7960142365646102
  0.3698325301749897  0.3516861566357995  0.1925083076233938
  0.4588684653061307  0.6968645714161394  0.5174239387566321
  0.5470966558603791  0.1298944474291384  0.0191648327342059
  0.5025778407964211  0.2848913218407023  0.9467336984807102
  0.2685283347961595  0.7429327048621766  0.3080478181012139
  0.2638894843140915  0.9108728657413980  0.6702198644453076
  0.2846294887416326  0.0192870105415015  0.7309411778342570
  0.5650653788921858  0.0806244871202912  0.4503025678604466
  0.3462054766074796  0.8573114090206625  0.1803778132910887
  0.0929095961700300  0.9903339892926103  0.2134491032891657
  0.3506105342290092  0.1318152592237503  0.2343470380418734
  0.5230122203699795  0.9419848335550739  0.0885129386020892
  0.3837778170895922  0.3013203152172883  0.5524734828489376
  0.6274956303690759  0.0500584482874499  0.2779764701447626
  0.6199811018773934  0.5292409323439193  0.0608825895044062
 
 -0.42901110E-03  0.36920299E-03 -0.37755171E-02
 -0.12126589E-02 -0.25415724E-02  0.11246127E-02
  0.27983313E-02 -0.11483008E-02 -0.25324306E-02
  0.10238740E-02  0.32299620E-02  0.14380814E-02
 -0.20611194E-03 -0.10589024E-02  0.96108042E-03
  0.15160763E-03  0.13668412E-02  0.19112726E-02
 -0.84497440E-04  0.10793496E-02 -0.17318294E-05
 -0.90326402E-03 -0.18806743E-02  0.10138152E-02
  0.11676848E-02 -0.45779124E-03 -0.51494269E-03
 -0.16643569E-02  0.61892890E-03 -0.10748741E-02
 -0.28363309E-03 -0.21687002E-02 -0.11486974E-02
 -0.28118282E-02 -0.26398162E-03 -0.54707482E-03
 -0.41307578E-03  0.32686032E-02  0.24093437E-02
 -0.84444992E-03  0.22881081E-02  0.18336942E-02
  0.68725901E-04 -0.81576023E-03  0.11674026E-04
  0.20719926E-02 -0.19850202E-03  0.17062964E-02
  0.40301688E-02 -0.19879895E-02 -0.13796122E-02
 -0.78691041E-03  0.15108143E-02  0.30510045E-02
  0.27995044E-02 -0.24084334E-02 -0.10848116E-02
 -0.89019584E-03  0.96745206E-03  0.25096513E-02
  0.40974443E-03  0.12341823E-03 -0.23784454E-03
 -0.40066896E-03  0.40885812E-03 -0.32941286E-02
  0.26829298E-03  0.22593761E-03 -0.85774263E-04
  0.18455715E-02  0.25582057E-02 -0.12957545E-02
 -0.74232956E-03  0.16439750E-02 -0.43476763E-03
  0.27885060E-02  0.18248185E-02 -0.28030769E-03
 -0.69647527E-03  0.20778748E-02  0.53161873E-03
  0.18561254E-02  0.55762070E-03 -0.50298662E-03
 -0.16320525E-02 -0.33441499E-03  0.37571563E-02
  0.12636221E-02 -0.21481418E-03 -0.13579679E-02
  0.17257007E-02  0.10823460E-02  0.37317927E-03
 -0.20193843E-02  0.83445331E-03  0.28813760E-02
 -0.63210112E-03  0.16893896E-02 -0.17975847E-02
  0.83660170E-03  0.40220636E-02 -0.16382091E-02
  0.74809865E-04 -0.24668931E-04  0.11167353E-02
  0.80351090E-03  0.92071701E-03  0.83596345E-03
 -0.52045665E-03 -0.12028047E-02 -0.16581838E-02
  0.18367545E-02  0.24382851E-03  0.18181336E-02
 -0.10006029E-02 -0.35938644E-03 -0.14375302E-02
  0.19292091E-02 -0.24998792E-02 -0.72724251E-03
  0.40754093E-03  0.20964695E-02  0.16288393E-02
 -0.36735977E-02  0.18109607E-02  0.11347821E-02
  0.11955936E-02  0.61559528E-03 -0.12661908E-02
 -0.63495148E-03 -0.33743844E-02 -0.33135517E-02
 -0.24684463E-02  0.12769346E-02 -0.47873030E-03
 -0.33567466E-02 -0.97698585E-03 -0.79934385E-03
  0.12080966E-03  0.77958476E-03 -0.89579813E-03
 -0.26932703E-02 -0.11216707E-02  0.28565051E-02
 -0.19247381E-04 -0.95519501E-04 -0.58694676E-03
  0.46670676E-02 -0.25301153E-03 -0.85000421E-03
 -0.24364295E-02  0.18763685E-02  0.12274625E-02
  0.32519792E-03 -0.14641403E-02  0.11870586E-02
  0.42874751E-03  0.15389988E-02 -0.37734794E-02
 -0.46520129E-03  0.31197235E-02  0.16462481E-02
 -0.27541338E-03 -0.10137037E-02  0.13527443E-02
  0.20670962E-02 -0.14699857E-02  0.79822675E-03
 -0.23212176E-02  0.18289755E-02 -0.94325270E-03
 -0.81652945E-03  0.19120784E-02  0.67530270E-03
 -0.22565293E-02 -0.18040064E-02 -0.10842070E-02
 -0.78549072E-03 -0.18422347E-03 -0.16662359E-02
  0.29838129E-02 -0.37959832E-02  0.15385429E-02
  0.11643657E-02  0.19811027E-02 -0.46853455E-03
 -0.13190410E-02 -0.27605302E-02  0.16759735E-02
 -0.81978055E-03  0.20724018E-02 -0.20465099E-02
 -0.19206075E-02 -0.22142604E-02  0.14773006E-02
 -0.64945982E-03 -0.18383684E-02 -0.44240526E-03
  0.13429105E-02 -0.26743514E-02  0.81883062E-03
 -0.35949810E-03 -0.10407665E-02  0.21678143E-02
  0.12974804E-02 -0.15320905E-02 -0.82411256E-03
 -0.83878561E-03  0.64251535E-03  0.12278692E-02
  0.17815162E-02  0.94933502E-03  0.92252172E-05
 -0.73621221E-03  0.19406711E-02  0.11611208E-02
 -0.50031202E-03  0.84136560E-03  0.83665366E-03
 -0.23089862E-03  0.25191495E-02  0.18331427E-02
 -0.13558377E-02  0.21982200E-03 -0.36261075E-02
 -0.29461104E-03 -0.39062197E-03  0.16432385E-02
 -0.60997796E-03 -0.77049172E-05  0.11448853E-02
  0.18921537E-02  0.19901198E-02 -0.15722343E-02
  0.20590964E-02  0.24396384E-04 -0.36508210E-03
  0.15881753E-03  0.15449061E-02  0.36532019E-03
 -0.15084805E-02 -0.20538647E-02  0.65071493E-03
  0.25440601E-02 -0.12904335E-02 -0.34333502E-02
 -0.15093028E-02  0.34001738E-02 -0.10921250E-02
  0.46068005E-03  0.43907030E-02  0.64358181E-03
 -0.67418244E-04 -0.26734496E-02 -0.13748925E-02
  0.16398639E-02  0.88969113E-03  0.22914299E-02
  0.13270017E-02 -0.16760457E-02 -0.18059638E-02
 -0.22406398E-02  0.30994648E-03 -0.45627545E-04
 -0.79813151E-03 -0.42877019E-02  0.35434154E-02
 -0.14454723E-02 -0.23453737E-02 -0.91193317E-03
  0.13329078E-02 -0.24928486E-04  0.35283538E-04
  0.82058051E-03 -0.17792294E-02 -0.27966288E-02
  0.30583480E-02  0.14039507E-02  0.28713071E-02
 -0.79349330E-03  0.29229178E-03  0.82321042E-03
 -0.13118546E-02 -0.40864054E-02  0.23331534E-03
  0.11003019E-02  0.66657866E-03  0.75998706E-03
 -0.39067905E-03 -0.32278474E-02  0.26051952E-02
  0.20468732E-02 -0.10680080E-02  0.18230062E-02
  0.35726587E-02  0.54965674E-03  0.21976671E-02
  0.14143985E-02  0.31515816E-02 -0.33729480E-03
  0.25374376E-02 -0.82851185E-04 -0.17232278E-02
 -0.68505241E-04 -0.71190485E-04 -0.73389122E-03
 -0.10879874E-02 -0.28834581E-02  0.21836312E-02
  0.32935710E-04  0.12102850E-02  0.20199335E-02
 -0.12486245E-02  0.10935221E-02 -0.78065420E-03
  0.18958366E-02  0.22170670E-02 -0.19253272E-02
  0.18846793E-02 -0.13650434E-02 -0.10244780E-02
 -0.48600835E-02  0.13641551E-02 -0.21653782E-02
 -0.11769226E-02 -0.85137454E-03 -0.30460323E-03
 -0.25049324E-02 -0.31194691E-02 -0.32171192E-02
  0.47203125E-03  0.21580251E-03  0.11188829E-02
 -0.42763851E-03 -0.84247304E-03 -0.28875436E-02
 -0.60358947E-02  0.99000969E-03  0.28819918E-02
 -0.14857588E-02  0.14846443E-02 -0.27971936E-02
  0.22439235E-02  0.67539819E-03  0.17833553E-02
  0.68608220E-03 -0.30188425E-02  0.13935326E-02
 -0.41217764E-02 -0.31702867E-02 -0.10162113E-02
  0.22571323E-02  0.30960752E-03  0.86362951E-05
  0.51950625E-03  0.57661887E-03  0.22000742E-02
  0.22028300E-02 -0.24282323E-02  0.25139088E-02
 -0.14274644E-02  0.25909664E-02  0.21429767E-02
 -0.36086642E-03  0.19574282E-02 -0.49815477E-03
 -0.26953288E-02 -0.85099253E-03 -0.22078189E-02
  0.25349197E-03 -0.12614700E-02  0.11539617E-02
  0.14419888E-02  0.16387316E-02  0.39738207E-03
  0.16147100E-02  0.88055803E-03  0.22140239E-02
 -0.20789964E-02 -0.17618350E-02 -0.16984530E-03
  0.33362523E-03  0.10509590E-03  0.22943420E-02
 -0.11226954E-02  0.34118955E-02  0.97835470E-03
  0.21518874E-03 -0.16930002E-02 -0.23308132E-02
  0.46784516E-02 -0.29533757E-02  0.15104228E-02
 -0.15534851E-02 -0.45932225E-03  0.27035105E-02
  0.30306081E-04  0.91533820E-03  0.16937271E-02
 -0.23120151E-02 -0.30391181E-02  0.28513982E-03
  0.37631887E-02 -0.28848465E-02  0.80705928E-03
  0.71946597E-02 -0.16109261E-02  0.52759087E-02
 -0.23541911E-02  0.44082800E-02 -0.28423575E-02
  0.13578941E-02  0.39258262E-02 -0.45241124E-02
  0.74597181E-03  0.51507474E-02 -0.17394601E-02
  0.37936419E-02 -0.10115028E-03 -0.15235887E-02
  0.10058050E-02 -0.70537319E-02  0.44858822E-02
  0.11932935E-01 -0.26758324E-02 -0.54240522E-02
 -0.96236596E-03  0.18388813E-02 -0.47035835E-02
  0.51156612E-02 -0.82041316E-03 -0.82377562E-03
 -0.12107651E-01  0.84314600E-03 -0.14099691E-02
 -0.19430377E-02 -0.43753083E-02  0.17858507E-02
  0.78484428E-02  0.24205193E-02  0.31289824E-02
 -0.11827998E-01 -0.18947736E-02  0.64019966E-02
 -0.11716288E-02 -0.29105558E-02 -0.49507505E-03
  0.35524508E-02 -0.24875510E-03  0.34111562E-02
  0.20845460E-02 -0.53249813E-02  0.55976976E-02
  0.12014511E-02  0.21558078E-02  0.99874737E-02
 -0.28275571E-02  0.16785739E-02  0.14374264E-02
  0.53443295E-03  0.15422740E-03 -0.45906178E-02
  0.19455237E-02  0.63857291E-03 -0.54313512E-02
 -0.26719869E-02  0.38472443E-02  0.37308354E-02
 -0.22531992E-02  0.77910589E-05 -0.82200866E-03
 -0.64387414E-02 -0.22534259E-02 -0.83879714E-03
 -0.22189708E-02 -0.37325731E-02  0.35088635E-02
  0.34065612E-02  0.37538795E-02 -0.23835090E-02
 -0.59501793E-02  0.21469259E-02 -0.25171594E-02
 -0.22944050E-03  0.15822287E-02 -0.26819632E-02
  0.15386517E-03 -0.37870854E-02 -0.28849472E-02
 -0.50571766E-02 -0.63252840E-02  0.27447341E-02
 -0.12631163E-02 -0.36167237E-02  0.15302599E-02
  0.33241490E-02  0.13164540E-02  0.14945694E-02
 -0.25758387E-03 -0.71249786E-03  0.23195188E-03
  0.31771124E-02  0.45480139E-03 -0.14136558E-02
  0.17092470E-03  0.79866254E-04 -0.12242672E-02
 -0.38564439E-03  0.48560008E-02 -0.14190506E-02
 -0.12521123E-02 -0.21751768E-02  0.28612501E-03
 -0.73522618E-03  0.16883876E-02 -0.10255480E-02
  0.64252308E-03 -0.13643381E-02  0.51924328E-03
  0.16299738E-02  0.22266651E-02 -0.23816815E-03
 -0.40403342E-03 -0.72897413E-03  0.34262683E-02
 -0.81879249E-03 -0.27013996E-02  0.16715542E-02
 -0.21994968E-02  0.28548563E-03  0.82075168E-03
 -0.10750084E-02  0.16944837E-02 -0.18013974E-02
 -0.87278142E-03 -0.25545484E-02  0.25683025E-02
  0.60208109E-03  0.26473867E-03  0.45276238E-03
 -0.15129857E-02  0.21559798E-02  0.19324647E-02
 -0.11374562E-03  0.19873061E-02  0.56795159E-03
 -0.59292275E-03 -0.17622131E-02 -0.25032471E-02
  0.67465433E-03 -0.15035749E-02 -0.39684549E-03
 -0.26341757E-03 -0.29692004E-03 -0.28532912E-02
  0.28148169E-02  0.37175339E-03  0.14490777E-02
  0.10234911E-02 -0.18220224E-02  0.41790129E-03
  0.27762473E-02  0.31136992E-03  0.24427741E-03
  0.30659485E-02 -0.21260254E-02 -0.10738075E-02
 -0.25905619E-02  0.17565080E-03  0.48567917E-03
 -0.62557588E-03  0.10567205E-02 -0.16734323E-02
 -0.55617331E-03 -0.19979948E-02  0.97887268E-03
 -0.46787969E-03 -0.14396550E-02 -0.77129341E-03
 -0.74657288E-03 -0.35227737E-02 -0.44887296E-02
  0.12967631E-02  0.71353625E-03  0.75697743E-03
 -0.98236449E-03  0.23873107E-02  0.31352990E-02
  0.27443977E-02  0.11143653E-02 -0.12913207E-02
 -0.42549710E-03  0.19355253E-02  0.96436458E-03
  0.21851034E-02 -0.17826241E-02 -0.76302184E-03
 -0.60772026E-03  0.99644444E-03 -0.63896782E-03
 -0.57149578E-03 -0.24010980E-02  0.74858596E-04
  0.33861681E-03  0.21428171E-02  0.34621958E-02
 -0.22493770E-02 -0.42210366E-03  0.10360553E-04
  0.23824957E-03  0.28592639E-02 -0.81157129E-03
  0.81920554E-03  0.26184463E-02  0.12185205E-02
  0.34829707E-03  0.24739335E-02  0.45829907E-03
 -0.21168198E-03 -0.36885303E-03  0.28820264E-02
 -0.16704659E-02 -0.14545151E-02  0.28412982E-02
  0.31809566E-02  0.18711046E-02 -0.13901333E-02
  0.33923185E-02 -0.90969028E-03 -0.98003164E-04
 -0.93226612E-03  0.91196797E-03 -0.22587817E-02
  0.48023443E-03 -0.37704714E-02  0.20761443E-02
  0.13258913E-02  0.23810942E-02 -0.26034475E-03
 -0.35448997E-02  0.10854608E-02 -0.37012980E-02
 -0.10485513E-02  0.22313895E-02 -0.30271683E-02
  0.59200196E-04  0.84237079E-03 -0.45389772E-02
  0.15624640E-02 -0.23152534E-02 -0.23414247E-03
  0.93521652E-03 -0.41168350E-02 -0.18284669E-02
 -0.24088544E-04 -0.59094417E-03 -0.25582436E-02
 -0.38444275E-03  0.15602970E-03  0.10847473E-02
  0.15182122E-02 -0.20419089E-02  0.14494525E-02
 -0.60591668E-03  0.62779775E-03  0.47375016E-03
 -0.15989616E-02  0.39166680E-03 -0.20076473E-02
 -0.18536724E-02  0.13975427E-02  0.41503616E-02
 -0.15718929E-02 -0.32986071E-03 -0.17047921E-03
 -0.12207164E-02 -0.19432653E-02  0.29258293E-02
  0.24836412E-03 -0.43943396E-03  0.47263413E-03
 -0.15863609E-02 -0.24165293E-02 -0.13317068E-02
 -0.23648672E-02 -0.56173485E-04 -0.56316772E-03
 -0.34028632E-02 -0.26344760E-03 -0.25828784E-02
  0.66640982E-02  0.24940815E-02  0.31413966E-02
 -0.76564413E-03  0.45770756E-02 -0.10005532E-02