Amorphous GeSe2                         
   1.00000000000000     
    20.5078869700586921    0.0000000000000000    0.0000000000000000
     0.0000000000000000   20.5078869700586921    0.0000000000000000
     0.0000000000000000    0.0000000000000000   20.5078869700586921
   Ge   Se
   100   200
Direct
  0.2089747794935077  0.0954634224404643  0.5699718669298651
  0.1814193401760586  0.5867195527446076  0.3947186750644955
  0.5738485305073828  0.9794133984626873  0.0113404089599585
  0.6432998100724985  0.5990158983628217  0.1254069621078855
  0.1872386378507150  0.3885521310495317  0.5317281309963925
  0.8959069734426736  0.0971850336161549  0.1302497500376978
  0.8323684706528786  0.2960585324455702  0.7401290420595037
  0.3834048667995008  0.5615862719300679  0.7013644066125321
  0.4633248534573710  0.4209173734891298  0.5715192688480415
  0.2132918274824909  0.1509282775775784  0.1670068301528071
  0.0788480007697294  0.0058795705125114  0.6704596262815075
  0.2373989682302248  0.3978544743444306  0.6549407904272702
  0.5815761482290741  0.9764935666636512  0.2496083998486248
  0.8277771602651316  0.5406075491570727  0.6628479629668232
  0.1447704648241584  0.6061350892267571  0.8891709636453335
  0.6728168628949347  0.4509108052973299  0.3418479667047274
  0.8675002477249525  0.1625694094293176  0.6508615416984062
  0.8413937635971587  0.0980624430266913  0.3590652630819668
  0.0931048821701930  0.8226773942513349  0.1633342630592182
  0.2982055910867032  0.9166359027002376  0.7493352267245564
  0.2014650618434459  0.9510309746133141  0.2868161139720052
  0.2036641230143462  0.7224757250091480  0.3696231202526343
  0.1582429917401456  0.3488022706821398  0.2456546024923939
  0.7557335913604236  0.5022550614170768  0.8598226269778555
  0.8202675800255258  0.8459881556099511  0.6849346219629069
  0.6897394754894313  0.1873031297299843  0.6867492390079212
  0.3483104872975346  0.8930981782332889  0.5119603248207117
  0.6330016733274875  0.6525033525392685  0.9427159379522880
  0.4424531925936102  0.0832907987066096  0.8922870180893782
  0.0193688360580337  0.6804300695068347  0.3905803166469724
  0.0149064230115646  0.9387175685813779  0.3997650319127554
  0.4649079410856103  0.1046338664061474  0.4889850590396839
  0.2030717680552631  0.7296211249322807  0.0938632847322628
  0.6089630408432328  0.4254248768355452  0.1003535238396469
  0.0286510263994023  0.4345125803652359  0.6406645732755666
  0.3901386639643616  0.8336940051576717  0.0597967286313429
  0.1595427137662668  0.6137683288817334  0.2205329982001895
  0.0482998470853749  0.9829400403321614  0.1590856600131630
  0.4877121609141534  0.8970284848426937  0.3760093777183023
  0.1071313249809247  0.3896895764321214  0.3633627808873576
  0.3371226779594130  0.2066381411314995  0.5264041062251287
  0.7474967156871736  0.6895828362880929  0.7866303372048137
  0.9669965850040297  0.9090761590099087  0.8169890685074500
  0.5434988547099513  0.1607000981608791  0.8251485847056725
  0.7541424759722365  0.3641387552825992  0.1517951996367189
  0.4740462826637479  0.6999489654053318  0.5954259912684264
  0.7775221710792291  0.8064569437125331  0.3267294572095318
  0.8367007909834713  0.4173401008925047  0.5270585214423926
  0.8702958883336284  0.6421660241771496  0.1125318275694965
  0.6287910444848784  0.1576759034633654  0.1408797064112141
  0.3313614987257991  0.9595199766562063  0.9251083745774047
  0.9880552130891550  0.8470134718664390  0.5757622649410414
  0.9726385177381586  0.0824909281310050  0.4559521316425395
  0.4270621676471562  0.5752221453542682  0.1778122099979450
  0.7103856247233213  0.8407619858390230  0.5301776209677936
  0.1316321237106923  0.7045938839679797  0.5555919170464324
  0.9195757922463776  0.7160582653105524  0.6516076814467568
  0.5721655979921138  0.2706343534927514  0.6630120820304506
  0.0010959552074273  0.7192929058828285  0.8803574363287607
  0.9507084799960176  0.8276860096828725  0.0500762437796392
  0.4056959433409926  0.6824336697676920  0.4332537328733794
  0.5231438720657136  0.3723355076077922  0.2470022706838518
  0.4767092658800597  0.9371965574302528  0.2026517428447595
  0.7910466150441707  0.8090409572106012  0.1219602615742487
  0.1398287276019916  0.2254913628710796  0.9065999202084896
  0.2033517296178639  0.3213572482795132  0.1003771495747093
  0.3752583349258156  0.0514116252879368  0.6336225499915037
  0.3381919875666516  0.8300130476343890  0.3354435085138312
  0.3423513268333119  0.4296346399583685  0.9331168729040423
  0.4880614436291960  0.2672736151194228  0.4570630342739507
  0.4105269684077660  0.7017738753599976  0.8115551288994375
  0.4327094143930576  0.2614939076450388  0.2771901688381892
  0.0323988824343874  0.3475601448323514  0.1375028219596053
  0.0518731705011885  0.2869996036454121  0.5127761528247951
  0.3387831038480470  0.1588538787268048  0.3469336206232660
  0.4598728177759011  0.3117546700289600  0.7062690300888589
  0.7313724669697390  0.0353312265940276  0.0472605890631002
  0.7674711472826827  0.8988188399610079  0.9556754345294984
  0.4879142904093890  0.4459991690980498  0.3923689498883179
  0.6957513208296295  0.2550028871204533  0.0178487548277878
  0.2002279433404546  0.8887044079346467  0.5817145442358127
  0.7787346762281357  0.4152488320753605  0.9946718512444459
  0.7986565562753898  0.3264186231422407  0.8968744018499187
  0.7284432621410434  0.1350905763986247  0.4992829420795155
  0.4677347382233922  0.1888376142444289  0.0368300047398883
  0.8766494829971651  0.5936020790369890  0.4882261924173525
  0.4937647117849966  0.9410264535181431  0.7804363207054142
  0.5282561710661657  0.5641080775871853  0.2506471394729727
  0.7486847411568595  0.3062511972088265  0.4267926207708924
  0.8322512670218886  0.9812198672057854  0.2976969512886500
  0.2573370016926532  0.6002279528143084  0.5550622155954157
  0.1313822001778130  0.4155419178436182  0.8729368587971996
  0.6219172775312356  0.3812730772733430  0.8587958194437085
  0.4353469312296788  0.4515328394618618  0.0552176812856267
  0.1898875359527909  0.0861209909936843  0.7970940950586999
  0.0152656473874134  0.1946845699325911  0.6307308284692467
  0.2903154352867842  0.1391017178478898  0.0074899014603217
  0.1182904308417288  0.0879886075036724  0.3939401620707292
  0.8045285745961667  0.7000188044940799  0.9395502174216067
  0.6877017875663084  0.0023621232961795  0.5621526606928393
  0.1125728264452549  0.9384200502400333  0.7620558891800817
  0.4572648763934253  0.1980717303957901  0.5618876184475797
  0.9439909649979323  0.6953910940186119  0.1887006713156335
  0.0964261902706116  0.9504649872417777  0.5700636076898126
  0.5084812697657036  0.1962632679541233  0.1460008838853453
  0.2923053455961445  0.6485656757938323  0.9568578374332628
  0.6346798944059598  0.5549964736874639  0.4015757153690873
  0.6093464582662648  0.0009051660299081  0.8758894566635662
  0.7081052327965804  0.7497475554372041  0.4584467807950351
  0.7324611710239025  0.2477466973097591  0.5291007392316501
 -0.0056684037537745  0.8398610647088632  0.9147393381908090
  0.4042778725581482  0.4541603613077572  0.4766234686194666
  0.7339864486930539  0.3867705718873379  0.8051194495744205
  0.6224814091553647  0.2486771099723670  0.7750131908754583
  0.1769215290344648  0.2622688844849545  0.5383537744475787
  0.8590588503713739  0.6864626749914627  0.8376076344648216
  0.4952137568165982  0.9046859208415799  0.0922185062307457
  0.3795863815931974  0.2702677649905144  0.3908392657181796
  0.6546992399573484  0.9448394282063179  0.6611988147237471
  0.9626473663971409  0.0222607285687198  0.6817964038520709
  0.2409627735550792  0.7172327961643779  0.5920048271361207
  0.9671606625608926  0.6670000574456890  0.5164646953660581
  0.5940025335511023  0.8932726074575971  0.8341842375966056
  0.9162448694084430  0.4857277734587074  0.4746824971604606
  0.3247467831173634  0.6786034245683862  0.2749805405975287
  0.8467388908512501  0.8978679560147527  0.0540043524475590
  0.0665018490019757  0.9083194950934163  0.0708747859470103
  0.5822709569476128  0.7074767560703128  0.7194662979080773
  0.7284913720800428  0.4132162143148118  0.4787428773802339
  0.1082796046925720  0.7536133069840714  0.4489175675750859
  0.0816149169359249  0.9190497383253629  0.2538498660481577
  0.5295762984148528  0.6730559074898199  0.8180953478846775
  0.0384424553385827  0.1705791566519183  0.8861822235235235
  0.4562272194292791  0.0750808257150373  0.0135740805547371
  0.6278660883932421  0.0936087876150779  0.0310427814806232
  0.5147902113273948  0.0008420264431176  0.5241337539103094
  0.3885485564388030  0.2288761011871536  0.7576962312816375
  0.0547395237921018  0.5649012972442768  0.4184329793999047
  0.0849722023688646  0.7153071673256060  0.0672340453111231
  0.7455636971509612  0.4733281385846443  0.1145909019763141
  0.5397327641236181  0.2478378814683202  0.9682888646675673
  0.6785925709011078  0.9334978752106083  0.4656395730447999
  0.2242715325147807  0.3839511327485540  0.8050796167439601
  0.6455840021496593  0.3214675338841554  0.1587310051368319
  0.7798351384685590  0.5631090608592204  0.2443978872056709
  0.3310615133950530  0.7696036260304236  0.4438990702496176
  0.9624609458967841  0.1283051845176010  0.7295777450485931
  0.5305753466974069  0.1599739906334577  0.4083003583107099
  0.6107000573768928  0.3868699926386641  0.6608952233026535
  0.7612612269705282  0.6523164615992572  0.1681719995646085
  0.4033897006807554  0.5610527361318515  0.8215638300981249
  0.4873795339804632  0.3682951155147342  0.1198610251303556
  0.8239504015597554  0.4248967474585157  0.6436567570540948
  0.5948599334325823  0.5358743172138498  0.9669363629087463
  0.5309553696140752  0.5929897554091575  0.5885129989396389
  0.0745090678602815  0.1271459545760880  0.4971671931656331
  0.4145444203235349  0.6920680074383339  0.2016657765524456
  0.5851051909204251  0.3732024245588901  0.3846140028172595
  0.1399240468266242  0.4571605530381738  0.6900775006577604
  0.0804107645433328  0.5908505673323644  0.7903492451614005
  0.4900112623959527  0.8375294266872594  0.2724001493365782
  0.6307498707223379  0.8632219303665054  0.2374530518644476
  0.3569949118506441  0.2337839015041606  0.0259005559208827
  0.3635786885362386  0.8417682255855578  0.6843467976078976
  0.9262852607677864  0.5681994538047210  0.7181718180670795
  0.3965013602208191  0.6223599547895209  0.5329363626552694
  0.7788744819305611  0.9219317987994827  0.7636402778695263
  0.2449458548650096  0.5016340874605085  0.4579866483778695
  0.1102346577939026  0.7099941004046234  0.9499745835322194
  0.7957968896573003  0.0431839362305124  0.9479023400261560
  0.5146591921151656  0.7162624239568066  0.0913685031632022
  0.3901669743463210  0.6793936663589893  0.6892229940899949
  0.6394997351192074  0.0766698918082033  0.7159499529827976
  0.2148343124675080  0.8253269561812363  0.1589534354324143
  0.0696833280400198  0.2896577115309608  0.6833126340437646
  0.2407433823871158  0.6666269960132182  0.8517347198516962
  0.1785621370329872  0.9894367753838424  0.4030032055673092
  0.3732470903453891  0.9864646674960734  0.2274015476763022
  0.3622866093592174  0.6053145937149069  0.3552081882477598
  0.4565078356793559  0.1353990543301747  0.2965731883909302
  0.8176071988102873  0.8800704807852125  0.5718136219130889
  0.6294581775659149  0.5129443691580658  0.8573953736781210
  0.7588393772539822  0.6141787887248882  0.3456834420604312
  0.4837387186636666  0.4907591314294228  0.6786107588756223
  0.3374744837374818  0.5100099152484966  0.1888307300024288
  0.1636025786424128  0.5039989740322016  0.9487403942825458
  0.4424045799878674  0.8094225074425561  0.9522521103794001
  0.1162641486031695  0.7054480922823725  0.2816680609315710
  0.9141494635131200  0.8949143442074482  0.3330608901301557
  0.7371934667795376  0.2229301871489768  0.9075994619449715
  0.8614830333540097  0.3153756362839678  0.3938922268756426
  0.2006209894292735  0.5299930840435800  0.2904073156946275
  0.2096362796557300  0.2055924440528880  0.8162796634994828
  0.4586117151671021  0.4232928267660143  0.9420547796634463
  0.9343448631816331  0.9960557538290553  0.1813930955355798
  0.7240305234073131  0.7842937305151340  0.9402739101682976
  0.4650575833341083  0.2428353479035119  0.8735172831296094
  0.7917182861587204  0.0582900102153010  0.5650425863933186
  0.2189519204740953  0.8491208887185919  0.3606975681252743
  0.7437289609012195  0.5667879129796614  0.7440905758034237
  0.3906369076645307  0.3391706302785897  0.6104079137952897
  0.1815304341964689  0.2680540107050551  0.6579542416896839
  0.7792439762856673  0.0783001805223737  0.1462870162059942
  0.3043459717335351  0.5246239740997976  0.8704553315201956
  0.8995144237618783  0.5298395379398123  0.0903367846505840
  0.5134519409395600  0.8220809744607609  0.4648536134278370
  0.0845732296372684  0.7719866342806131  0.8072111969693898
  0.3179109396653192  0.4520950794123889  0.0477509390203112
  0.8538100587388735  0.8800305168882312  0.8457319932849924
  0.9168338834018138  0.1855595714573114  0.2055945418049163
  0.2963732023346456  0.1540228008853394  0.6334328837576763
  0.0695465532656169  0.4139079457072002  0.5189687952668838
  0.1243728134472425  0.5890426461745344  0.5496616600227784
  0.3507388420680257  0.0950315164220615  0.4608634014799229
  0.2422787114166495  0.6283837178640175  0.1374480227577761
  0.6240168940069915  0.0997802767785743  0.5439563919864862
  0.7449458423659969  0.6058554161723446  0.9732723504081751
  0.8441767770848579  0.1478103247609951  0.9730189726587685
  0.1355399241835983  0.1074724877516281  0.6744163118108784
  0.2251657497123905  0.3866979319653679  0.4160504042025396
  0.6611875976635794  0.3731211627893743  0.9813685113392321
  0.7239845334149948  0.1099357351767815  0.3857060944892756
  0.6340616665813914  0.8352570389198610  0.6170511020519229
  0.1414161192081068  0.4214497210324795  0.1493292461597895
  0.9070713583264535  0.8061112313627002  0.1741606806511982
  0.8211886199592587  0.1768145209780350  0.2702376578723473
  0.1920657731183792  0.8719919965057319  0.7071802912991132
  0.4536175510185757  0.8253979476329376  0.7559525807970761
  0.6440191083197305  0.0709649022615419  0.2300295666082441
  0.0871335528844337  0.0686265415136380  0.8620373972965103
  0.1917250852428137  0.0002192183407367  0.0728765792448262
  0.9787697478783658  0.5445958079256304  0.3254496866722060
  0.9460264648905796  0.4432557854282212  0.8799956687394707
  0.0612348722165852  0.7625203631414165  0.6299295092743284
  0.8999033076727203  0.2967623600263715  0.8396356269339786
  0.5232840165737693  0.5666862881226272  0.3747901436723468
  0.0115982347993435  0.0552807666377380  0.3444729619497195
  0.0352765020136187  0.4970024934561970  0.2383097598953972
  0.9418942183993669  0.9781780320884204  0.4924019105176557
  0.6829581997640677  0.9274953355483777  0.0568842192422461
  0.4641823880327289  0.1455651852132054  0.7269477240842531
  0.1152008380200556  0.2582584859269846  0.1738430910611190
  0.8093067172050891  0.3101679781064978  0.0596893565481948
  0.9021815010511220  0.4203638817670373  0.2290486483311947
  0.1070955395837971  0.0771356536532586  0.1151226910483826
  0.4512615000069812  0.7014181194324384 -0.0033125147953397
  0.6621105309531742  0.8078410600538679  0.3625025110038288
  0.0361382997545427  0.4414449455276426  0.8062131473259355
  0.7953701984409806  0.1737767297313155  0.7516523805261823
  0.0593276569397803  0.5830986320356836  0.1645667960663389
  0.3469602254762784  0.0210124180219670  0.7509528376457930
  0.6288840653871159  0.7061807089260170  0.0601747398533674
  0.7907453691159056  0.6029848662076551  0.5675357671578988
  0.8142774572219514  0.9089321118016921  0.3984737852094362
  0.0845037623025978  0.2745340515553816  0.3946254190331424
  0.5570563157831447  0.9900390343309169  0.3637319527505447
  0.7501217198899969  0.8810468820592903  0.2223591073512046
  0.2757196253404188  0.5334760620168216  0.6635266712026739
  0.8579470005388223  0.6573007267996279  0.3913526497124593
  0.3779380061734634  0.9399141485952635  0.3987351067296568
  0.2251707172939251  0.0856821352468893  0.2684997613499628
  0.9483214641407014  0.5535607994216595  0.9192784738501290
  0.4254807394335612  0.4329227900188482  0.2946061107612921
  0.2705017740760668  0.8859964645153273  0.8581773695061949
  0.1366681057680375  0.6834562756047486  0.7503286179846690
  0.4404383661723500  0.9337394356066469  0.5843099649190626
  0.1739010248781247  0.1733257555146627  0.3341210150769618
  0.9878238093695562  0.3432931748865668  0.2511362056468409
  0.9939921128947992  0.5466989411755868  0.0252033417773622
  0.5763813288971221  0.3956385877194896  0.5502240364414059
  0.4200260475959331  0.0889724295770984  0.1873243281358483
  0.8953281813589344  0.7096454618064962  0.0164952313602122
  0.2716680268371497  0.7550871720441077  0.0016429400486830
  0.6019166531622552  0.4731026559115837  0.2314926560391616
  0.9400374142528116  0.8388012130365454  0.6986274765888572
  0.1085278600632886  0.3318904306940657  0.9525567538331137
  0.3224319200939362  0.2317262055123425  0.2178815295499962
  0.4808729088357673  0.5604237307768215  0.0726851320691348
  0.9453604195848145  0.1141251178669435  0.0267251456312047
  0.4521821107268252  0.4150973902645320  0.7666220302124218
  0.4469609493405658  0.9531378302055600  0.9024618799470047
  0.8954602814327344  0.3163562948715744  0.5062889838475401
  0.6942259391744532  0.0567294301762125  0.8173103748526698
  0.5985737621422798  0.6555375902629222  0.2251206328823124
  0.6191126065209841  0.6142649398037251  0.6646864742421487
  0.9216331013738459  0.2784151364447305  0.6504191693213156
  0.2777849896233942  0.3395709832455827  0.2061367123308403
  0.1795419408151944  0.1793354534127424  0.0102727175122871
  0.2984017188648138  0.9179322756162431  0.0274431450926150
  0.8947889874208393  0.7619373920612398  0.5343983405800307
  0.3063427280418926  0.0784395775424106  0.9034165954004522
  0.0128065471576358  0.5620607221324984  0.6382757153555780
  0.5171079010384219  0.7191784895770298  0.4129946496385350
  0.8054157466264307  0.3624549274903405  0.2576739959987693
  0.2937033219724192  0.3326803366282071  0.8828376517990082
  0.7878521033256179  0.7328215420832145  0.6754529821289394
  0.8928216700393597  0.1636884740940073  0.4472838293144925
  0.6807297370182076  0.2878251431469052  0.3378269507793327
  0.2879626884973612  0.0652693678146566  0.1039152940617048
  0.2749592716138795  0.9873116578186658  0.5781541140366073
 
  0.00000000E+00  0.00000000E+00  0.00000000E+00
  0.00000000E+00  0.00000000E+00  0.00000000E+00
  0.00000000E+00  0.00000000E+00  0.00000000E+00
  0.00000000E+00  0.00000000E+00  0.00000000E+00
  0.00000000E+00  0.00000000E+00  0.00000000E+00
  0.00000000E+00  0.00000000E+00  0.00000000E+00
  0.00000000E+00  0.00000000E+00  0.00000000E+00
  0.00000000E+00  0.00000000E+00  0.00000000E+00
  0.00000000E+00  0.00000000E+00  0.00000000E+00
  0.00000000E+00  0.00000000E+00  0.00000000E+00
  0.00000000E+00  0.00000000E+00  0.00000000E+00
  0.00000000E+00  0.00000000E+00  0.00000000E+00
  0.00000000E+00  0.00000000E+00  0.00000000E+00
  0.00000000E+00  0.00000000E+00  0.00000000E+00
  0.00000000E+00  0.00000000E+00  0.00000000E+00
  0.00000000E+00  0.00000000E+00  0.00000000E+00
  0.00000000E+00  0.00000000E+00  0.00000000E+00
  0.00000000E+00  0.00000000E+00  0.00000000E+00
  0.00000000E+00  0.00000000E+00  0.00000000E+00
  0.00000000E+00  0.00000000E+00  0.00000000E+00
  0.00000000E+00  0.00000000E+00  0.00000000E+00
  0.00000000E+00  0.00000000E+00  0.00000000E+00
  0.00000000E+00  0.00000000E+00  0.00000000E+00
  0.00000000E+00  0.00000000E+00  0.00000000E+00
  0.00000000E+00  0.00000000E+00  0.00000000E+00
  0.00000000E+00  0.00000000E+00  0.00000000E+00
  0.00000000E+00  0.00000000E+00  0.00000000E+00
  0.00000000E+00  0.00000000E+00  0.00000000E+00
  0.00000000E+00  0.00000000E+00  0.00000000E+00
  0.00000000E+00  0.00000000E+00  0.00000000E+00
  0.00000000E+00  0.00000000E+00  0.00000000E+00
  0.00000000E+00  0.00000000E+00  0.00000000E+00
  0.00000000E+00  0.00000000E+00  0.00000000E+00
  0.00000000E+00  0.00000000E+00  0.00000000E+00
  0.00000000E+00  0.00000000E+00  0.00000000E+00
  0.00000000E+00  0.00000000E+00  0.00000000E+00
  0.00000000E+00  0.00000000E+00  0.00000000E+00
  0.00000000E+00  0.00000000E+00  0.00000000E+00
  0.00000000E+00  0.00000000E+00  0.00000000E+00
  0.00000000E+00  0.00000000E+00  0.00000000E+00
  0.00000000E+00  0.00000000E+00  0.00000000E+00
  0.00000000E+00  0.00000000E+00  0.00000000E+00
  0.00000000E+00  0.00000000E+00  0.00000000E+00
  0.00000000E+00  0.00000000E+00  0.00000000E+00
  0.00000000E+00  0.00000000E+00  0.00000000E+00
  0.00000000E+00  0.00000000E+00  0.00000000E+00
  0.00000000E+00  0.00000000E+00  0.00000000E+00
  0.00000000E+00  0.00000000E+00  0.00000000E+00
  0.00000000E+00  0.00000000E+00  0.00000000E+00
  0.00000000E+00  0.00000000E+00  0.00000000E+00
  0.00000000E+00  0.00000000E+00  0.00000000E+00
  0.00000000E+00  0.00000000E+00  0.00000000E+00
  0.00000000E+00  0.00000000E+00  0.00000000E+00
  0.00000000E+00  0.00000000E+00  0.00000000E+00
  0.00000000E+00  0.00000000E+00  0.00000000E+00
  0.00000000E+00  0.00000000E+00  0.00000000E+00
  0.00000000E+00  0.00000000E+00  0.00000000E+00
  0.00000000E+00  0.00000000E+00  0.00000000E+00
  0.00000000E+00  0.00000000E+00  0.00000000E+00
  0.00000000E+00  0.00000000E+00  0.00000000E+00
  0.00000000E+00  0.00000000E+00  0.00000000E+00
  0.00000000E+00  0.00000000E+00  0.00000000E+00
  0.00000000E+00  0.00000000E+00  0.00000000E+00
  0.00000000E+00  0.00000000E+00  0.00000000E+00
  0.00000000E+00  0.00000000E+00  0.00000000E+00
  0.00000000E+00  0.00000000E+00  0.00000000E+00
  0.00000000E+00  0.00000000E+00  0.00000000E+00
  0.00000000E+00  0.00000000E+00  0.00000000E+00
  0.00000000E+00  0.00000000E+00  0.00000000E+00
  0.00000000E+00  0.00000000E+00  0.00000000E+00
  0.00000000E+00  0.00000000E+00  0.00000000E+00
  0.00000000E+00  0.00000000E+00  0.00000000E+00
  0.00000000E+00  0.00000000E+00  0.00000000E+00
  0.00000000E+00  0.00000000E+00  0.00000000E+00
  0.00000000E+00  0.00000000E+00  0.00000000E+00
  0.00000000E+00  0.00000000E+00  0.00000000E+00
  0.00000000E+00  0.00000000E+00  0.00000000E+00
  0.00000000E+00  0.00000000E+00  0.00000000E+00
  0.00000000E+00  0.00000000E+00  0.00000000E+00
  0.00000000E+00  0.00000000E+00  0.00000000E+00
  0.00000000E+00  0.00000000E+00  0.00000000E+00
  0.00000000E+00  0.00000000E+00  0.00000000E+00
  0.00000000E+00  0.00000000E+00  0.00000000E+00
  0.00000000E+00  0.00000000E+00  0.00000000E+00
  0.00000000E+00  0.00000000E+00  0.00000000E+00
  0.00000000E+00  0.00000000E+00  0.00000000E+00
  0.00000000E+00  0.00000000E+00  0.00000000E+00
  0.00000000E+00  0.00000000E+00  0.00000000E+00
  0.00000000E+00  0.00000000E+00  0.00000000E+00
  0.00000000E+00  0.00000000E+00  0.00000000E+00
  0.00000000E+00  0.00000000E+00  0.00000000E+00
  0.00000000E+00  0.00000000E+00  0.00000000E+00
  0.00000000E+00  0.00000000E+00  0.00000000E+00
  0.00000000E+00  0.00000000E+00  0.00000000E+00
  0.00000000E+00  0.00000000E+00  0.00000000E+00
  0.00000000E+00  0.00000000E+00  0.00000000E+00
  0.00000000E+00  0.00000000E+00  0.00000000E+00
  0.00000000E+00  0.00000000E+00  0.00000000E+00
  0.00000000E+00  0.00000000E+00  0.00000000E+00
  0.00000000E+00  0.00000000E+00  0.00000000E+00
  0.00000000E+00  0.00000000E+00  0.00000000E+00
  0.00000000E+00  0.00000000E+00  0.00000000E+00
  0.00000000E+00  0.00000000E+00  0.00000000E+00
  0.00000000E+00  0.00000000E+00  0.00000000E+00
  0.00000000E+00  0.00000000E+00  0.00000000E+00
  0.00000000E+00  0.00000000E+00  0.00000000E+00
  0.00000000E+00  0.00000000E+00  0.00000000E+00
  0.00000000E+00  0.00000000E+00  0.00000000E+00
  0.00000000E+00  0.00000000E+00  0.00000000E+00
  0.00000000E+00  0.00000000E+00  0.00000000E+00
  0.00000000E+00  0.00000000E+00  0.00000000E+00
  0.00000000E+00  0.00000000E+00  0.00000000E+00
  0.00000000E+00  0.00000000E+00  0.00000000E+00
  0.00000000E+00  0.00000000E+00  0.00000000E+00
  0.00000000E+00  0.00000000E+00  0.00000000E+00
  0.00000000E+00  0.00000000E+00  0.00000000E+00
  0.00000000E+00  0.00000000E+00  0.00000000E+00
  0.00000000E+00  0.00000000E+00  0.00000000E+00
  0.00000000E+00  0.00000000E+00  0.00000000E+00
  0.00000000E+00  0.00000000E+00  0.00000000E+00
  0.00000000E+00  0.00000000E+00  0.00000000E+00
  0.00000000E+00  0.00000000E+00  0.00000000E+00
  0.00000000E+00  0.00000000E+00  0.00000000E+00
  0.00000000E+00  0.00000000E+00  0.00000000E+00
  0.00000000E+00  0.00000000E+00  0.00000000E+00
  0.00000000E+00  0.00000000E+00  0.00000000E+00
  0.00000000E+00  0.00000000E+00  0.00000000E+00
  0.00000000E+00  0.00000000E+00  0.00000000E+00
  0.00000000E+00  0.00000000E+00  0.00000000E+00
  0.00000000E+00  0.00000000E+00  0.00000000E+00
  0.00000000E+00  0.00000000E+00  0.00000000E+00
  0.00000000E+00  0.00000000E+00  0.00000000E+00
  0.00000000E+00  0.00000000E+00  0.00000000E+00
  0.00000000E+00  0.00000000E+00  0.00000000E+00
  0.00000000E+00  0.00000000E+00  0.00000000E+00
  0.00000000E+00  0.00000000E+00  0.00000000E+00
  0.00000000E+00  0.00000000E+00  0.00000000E+00
  0.00000000E+00  0.00000000E+00  0.00000000E+00
  0.00000000E+00  0.00000000E+00  0.00000000E+00
  0.00000000E+00  0.00000000E+00  0.00000000E+00
  0.00000000E+00  0.00000000E+00  0.00000000E+00
  0.00000000E+00  0.00000000E+00  0.00000000E+00
  0.00000000E+00  0.00000000E+00  0.00000000E+00
  0.00000000E+00  0.00000000E+00  0.00000000E+00
  0.00000000E+00  0.00000000E+00  0.00000000E+00
  0.00000000E+00  0.00000000E+00  0.00000000E+00
  0.00000000E+00  0.00000000E+00  0.00000000E+00
  0.00000000E+00  0.00000000E+00  0.00000000E+00
  0.00000000E+00  0.00000000E+00  0.00000000E+00
  0.00000000E+00  0.00000000E+00  0.00000000E+00
  0.00000000E+00  0.00000000E+00  0.00000000E+00
  0.00000000E+00  0.00000000E+00  0.00000000E+00
  0.00000000E+00  0.00000000E+00  0.00000000E+00
  0.00000000E+00  0.00000000E+00  0.00000000E+00
  0.00000000E+00  0.00000000E+00  0.00000000E+00
  0.00000000E+00  0.00000000E+00  0.00000000E+00
  0.00000000E+00  0.00000000E+00  0.00000000E+00
  0.00000000E+00  0.00000000E+00  0.00000000E+00
  0.00000000E+00  0.00000000E+00  0.00000000E+00
  0.00000000E+00  0.00000000E+00  0.00000000E+00
  0.00000000E+00  0.00000000E+00  0.00000000E+00
  0.00000000E+00  0.00000000E+00  0.00000000E+00
  0.00000000E+00  0.00000000E+00  0.00000000E+00
  0.00000000E+00  0.00000000E+00  0.00000000E+00
  0.00000000E+00  0.00000000E+00  0.00000000E+00
  0.00000000E+00  0.00000000E+00  0.00000000E+00
  0.00000000E+00  0.00000000E+00  0.00000000E+00
  0.00000000E+00  0.00000000E+00  0.00000000E+00
  0.00000000E+00  0.00000000E+00  0.00000000E+00
  0.00000000E+00  0.00000000E+00  0.00000000E+00
  0.00000000E+00  0.00000000E+00  0.00000000E+00
  0.00000000E+00  0.00000000E+00  0.00000000E+00
  0.00000000E+00  0.00000000E+00  0.00000000E+00
  0.00000000E+00  0.00000000E+00  0.00000000E+00
  0.00000000E+00  0.00000000E+00  0.00000000E+00
  0.00000000E+00  0.00000000E+00  0.00000000E+00
  0.00000000E+00  0.00000000E+00  0.00000000E+00
  0.00000000E+00  0.00000000E+00  0.00000000E+00
  0.00000000E+00  0.00000000E+00  0.00000000E+00
  0.00000000E+00  0.00000000E+00  0.00000000E+00
  0.00000000E+00  0.00000000E+00  0.00000000E+00
  0.00000000E+00  0.00000000E+00  0.00000000E+00
  0.00000000E+00  0.00000000E+00  0.00000000E+00
  0.00000000E+00  0.00000000E+00  0.00000000E+00
  0.00000000E+00  0.00000000E+00  0.00000000E+00
  0.00000000E+00  0.00000000E+00  0.00000000E+00
  0.00000000E+00  0.00000000E+00  0.00000000E+00
  0.00000000E+00  0.00000000E+00  0.00000000E+00
  0.00000000E+00  0.00000000E+00  0.00000000E+00
  0.00000000E+00  0.00000000E+00  0.00000000E+00
  0.00000000E+00  0.00000000E+00  0.00000000E+00
  0.00000000E+00  0.00000000E+00  0.00000000E+00
  0.00000000E+00  0.00000000E+00  0.00000000E+00
  0.00000000E+00  0.00000000E+00  0.00000000E+00
  0.00000000E+00  0.00000000E+00  0.00000000E+00
  0.00000000E+00  0.00000000E+00  0.00000000E+00
  0.00000000E+00  0.00000000E+00  0.00000000E+00
  0.00000000E+00  0.00000000E+00  0.00000000E+00
  0.00000000E+00  0.00000000E+00  0.00000000E+00
  0.00000000E+00  0.00000000E+00  0.00000000E+00
  0.00000000E+00  0.00000000E+00  0.00000000E+00
  0.00000000E+00  0.00000000E+00  0.00000000E+00
  0.00000000E+00  0.00000000E+00  0.00000000E+00
  0.00000000E+00  0.00000000E+00  0.00000000E+00
  0.00000000E+00  0.00000000E+00  0.00000000E+00
  0.00000000E+00  0.00000000E+00  0.00000000E+00
  0.00000000E+00  0.00000000E+00  0.00000000E+00
  0.00000000E+00  0.00000000E+00  0.00000000E+00
  0.00000000E+00  0.00000000E+00  0.00000000E+00
  0.00000000E+00  0.00000000E+00  0.00000000E+00
  0.00000000E+00  0.00000000E+00  0.00000000E+00
  0.00000000E+00  0.00000000E+00  0.00000000E+00
  0.00000000E+00  0.00000000E+00  0.00000000E+00
  0.00000000E+00  0.00000000E+00  0.00000000E+00
  0.00000000E+00  0.00000000E+00  0.00000000E+00
  0.00000000E+00  0.00000000E+00  0.00000000E+00
  0.00000000E+00  0.00000000E+00  0.00000000E+00
  0.00000000E+00  0.00000000E+00  0.00000000E+00
  0.00000000E+00  0.00000000E+00  0.00000000E+00
  0.00000000E+00  0.00000000E+00  0.00000000E+00
  0.00000000E+00  0.00000000E+00  0.00000000E+00
  0.00000000E+00  0.00000000E+00  0.00000000E+00
  0.00000000E+00  0.00000000E+00  0.00000000E+00
  0.00000000E+00  0.00000000E+00  0.00000000E+00
  0.00000000E+00  0.00000000E+00  0.00000000E+00
  0.00000000E+00  0.00000000E+00  0.00000000E+00
  0.00000000E+00  0.00000000E+00  0.00000000E+00
  0.00000000E+00  0.00000000E+00  0.00000000E+00
  0.00000000E+00  0.00000000E+00  0.00000000E+00
  0.00000000E+00  0.00000000E+00  0.00000000E+00
  0.00000000E+00  0.00000000E+00  0.00000000E+00
  0.00000000E+00  0.00000000E+00  0.00000000E+00