Amorphous Sb                            
   1.00000000000000     
    22.3283632703415016    0.0000000000000000    0.0000000000000000
     0.0000000000000000   22.3283632703415016    0.0000000000000000
     0.0000000000000000    0.0000000000000000   22.3283632703415016
   Sb   Te
   120   180
Direct
  0.6579556410985172  0.4439274662448136  0.6809828778633686
  0.1419582118742710  0.3180583291882026  0.1769893568511950
  0.6316139276221608  0.8650655223152104  0.9335103588561257
  0.0478986192121676  0.1897884761398880  0.9029366552457174
  0.2378591105540515  0.2655857596759286  0.0100144980851867
  0.5101643466233075  0.1227193660320604  0.6424972227102637
  0.2728175847716941  0.9403834501974991  0.9323073377211527
  0.6444651039750510  0.1705431963511490  0.1705231784884343
  0.3488605602231104  0.2124444876575978  0.6208647228336561
  0.9841738463608620  0.1884471569535029  0.3389062697332904
  0.9870339160325994  0.5414257269925284  0.1668422944894840
  0.1966637700380139  0.8021287437762650  0.5532065115460139
  0.3859868420335870  0.6783166396848259  0.0570131465330556
  0.4526013323012070  0.1581052972780148  0.2381077323125050
  0.4760284020789375  0.3906219755390298  0.2898575124868753
  0.5818318856883433  0.4548051129226698  0.7887701652774667
  0.9597514870643153  0.1424386372696654  0.5551286074612112
  0.2570240206807828  0.9576704298274722  0.5278080652691486
  0.5783599389451294  0.0412574557866452  0.3026162140518417
  0.4501309874327539  0.9571518416228587  0.3773314029213083
  0.4102985735974983  0.3824363766871444  0.9947653544606444
  0.5014886613420653  0.1667651356389855  0.0444475398687443
  0.2784683397915485  0.5088879782069312  0.1096685160773029
  0.8474572086324265  0.1429205275454819  0.2062503934354251
  0.1203904107334590  0.6002259307948992  0.0486935062609800
  0.6177764360158273  0.3247890153524190  0.5660706176058187
  0.9896868997322020  0.8540066945039229  0.0630168440034189
  0.1320840330663534  0.0361595205397182  0.1692409317086998
  0.3297227586390771  0.1558195470186400  0.1528962847539017
  0.8400476162490819  0.3253046229258275  0.2829641533381493
  0.9766280612287991  0.3506727218660023  0.9008251135777745
  0.2445369257839725  0.9758101068098822  0.7135216404900010
  0.3520705559047506  0.0246643698031813  0.6313976761057435
  0.0861709943226229  0.5254213653706462  0.6792874084577699
  0.1858030219373180  0.8255057264297820  0.7890878858438060
  0.9108002125794074  0.9523453452592053  0.4937179310208020
  0.6580681392853580  0.3265567493974733  0.0763276472998158
  0.6116590442214268  0.1468825604477282  0.7361458450411862
  0.3238311485725717  0.8265278902548249  0.4051805985671233
  0.6414267528991968  0.5711794054950992  0.5123703534298217
  0.9353584664684849  0.6590623030650868  0.8913632966039891
  0.2076600927258098  0.3413754911776974  0.6601862035904735
  0.9788326621460196  0.7827004119070461  0.6147510052356090
  0.8968742364160697  0.4643070418920752  0.1091382066931230
  0.8679946527170688  0.2120138640773598  0.9367303402416653
  0.4000270753038812  0.3984742765841890  0.1840828204475059
  0.0578131831081452  0.4067571894180238  0.7327171904295626
  0.5269700642326984  0.8271104919018278  0.8305403867757081
  0.3957075964653592  0.8257486069124744  0.1830124181899735
  0.9648967670657149  0.6168141240085209  0.2778721491204064
  0.9851315905615796  0.8346633984893166  0.8872609812955558
  0.5398298893374418  0.6765218872733192  0.5305945287821261
  0.7014825312084045  0.5896573617406131  0.3339444382283594
  0.7442999567052291  0.6342241454355481  0.4591653908372492
  0.0835161614812020  0.6030033467283823  0.9127855977231021
  0.8151538003342759  0.7922873709113786  0.9647379850165237
  0.0662392161332714  0.2343393925567882  0.6832043763271698
  0.3395855657127938  0.2029245270871134  0.9561793205677019
  0.6684057264197680  0.4552709583358900  0.4579438414068194
  0.3788322685498323  0.4954020148715326  0.6284577353708852
  0.7055138522710412  0.2198776680434000  0.6802203402578157
  0.3674713023252958  0.3630361714901237  0.5862923798942821
  0.7429901620028287  0.8701214435525169  0.0514515443458804
  0.4228036389164484  0.6651574469755754  0.8626271637499260
  0.9652514176965155  0.1063663648025960  0.0742291520210493
  0.4908074467446414  0.7825381312003306  0.2595344497624037
  0.5349144812924692  0.2406222815134363  0.3135452385521419
  0.0903150415877732  0.4742080458413424  0.9125289570929590
  0.0696671308839527  0.9296530426111144  0.2200584844029757
  0.0779371201055878  0.9444855912360195  0.5455770816685500
  0.1142915010589682  0.6624587239322790  0.7293873246419444
  0.6891665718161748  0.6333398139600245  0.0625898834399451
  0.3166678290604292  0.5047910578449595  0.8193399044856255
  0.1989412438523450  0.3516672344419760  0.8178481365443735
  0.5728353910255773  0.6785617421028407  0.7105879855421365
  0.9609590350397280  0.5688817942436596  0.6593427442986771
  0.1108524519406647  0.5554052092845082  0.4314784388003800
  0.5567721645549883  0.6622035154201843  0.0666033259036874
  0.9535488342996952  0.3783710324791542  0.2514795193187453
  0.5038756776980227  0.8998481663094845  0.0183708275949752
  0.8283719217185683  0.5290905867455996  0.9800726976595120
  0.2762660948845305  0.9923480414308153  0.1874332523563160
  0.7851651366614800  0.3092839178961354  0.0694595314657079
  0.0959953155718901  0.0649178250189446  0.4456579568721286
  0.4998061093958500  0.6023168753995914  0.6267877448425097
  0.2921249768320318  0.7390298332958682  0.3116652144866430
  0.3964081739088188  0.6819104598472812  0.6376352536768928
  0.4424386818546028  0.9299670188617494  0.6548625353054691
  0.3819225361554801  0.2749461602957148  0.3569226603517718
  0.9638861500749903  0.7592565544740416  0.3072424196785336
  0.6828642863363724  0.9750079223392912  0.0106024482199520
  0.3976182171822499  0.4034719617857990  0.8231721483611321
  0.7890516892834623  0.5508822806409250  0.6856543881612429
  0.3286466075729677  0.3858464174881587  0.4087831784871876
  0.6976399620818529  0.0406664480361711  0.6739944586806511
  0.7245764852398298  0.7141491649753575  0.8442112842404768
  0.7011526149767646  0.9917984596777111  0.2395115118308854
  0.5132645241742448  0.2497853550618332  0.5351254185260348
  0.8366603758435109  0.0785273274282232  0.7646174777912695
  0.6678756546417434  0.5550420007637437  0.1653619996517126
  0.9339575114518290  0.5137140865537558  0.3573974299103240
  0.2999941896262722  0.1160687230376215  0.3906078093057365
  0.3831685328839657  0.9463633367451376  0.0347857032259739
  0.7709293532052638  0.3895479365633451  0.8470928963138006
  0.6562176718536271  0.8205276353748473  0.1408860439373842
  0.8403370918606240  0.6691662967262962  0.7016575156343595
  0.6549693498525666  0.8921726647244196  0.4074325560854930
  0.4145583936991999  0.6003702935029541  0.3518755008830332
  0.8793567969854663  0.9035074337336922  0.2006466569112085
  0.2515083893150445  0.3678344015600857  0.2377802767929769
  0.9081499918849109  0.7514136977931767  0.4280689136432840
  0.2183208753212885  0.1904891231415207  0.8187346911910245
  0.9792951110839637  0.4564753146614528  0.8210387934218840
  0.1931073707317854  0.8794317484727667  0.0055954799468037
  0.4132696140876494  0.5553729268128840  0.0352585559808311
  0.5647124629063484  0.4851808122058851  0.2725101373849153
  0.9938085542023456  0.2984180586498423  0.4228805543336120
  0.0946666796132317  0.1658541756790182  0.5712842156667850
  0.9644870304261661  0.6158372473837830  0.0644659180261100
  0.1971277596101122  0.1543695992319015  0.3118974786447218
  0.0369422121948241  0.6610820958276044  0.6000830465757611
  0.8710447429560497  0.8949495654245739  0.6034182875293249
  0.4467564865829736  0.7321145353579653  0.3690304421261159
  0.1508818421936963  0.0316793318551057  0.3342888354913442
  0.1826316258059852  0.7783647118047657  0.9103685885683788
  0.5788366776831060  0.9834267868574528  0.7841703863881300
  0.0878083743214260  0.4749038823313778  0.5593637548957674
  0.4179400652392671  0.2477315990596510  0.1491831630221245
  0.9625115711865011  0.4937577789377321  0.5445063854768109
  0.4627578793494569  0.9432627426527568  0.7838029182077692
  0.3379929972043382  0.6121762817846934  0.9416942267753862
  0.5975490417553828  0.7237516758991890  0.8618131465256832
  0.0667844320265593  0.3153808099168848  0.5820774599458760
  0.2516503019393180  0.3573292773398352  0.5345428952134175
  0.5813533470887212  0.3264360278603740  0.4301064157082812
  0.2097373079647717  0.6110414783133894  0.5996194177457710
  0.7045898935391081  0.2933700043454135  0.8828957612969807
  0.6964153050472045  0.5121243306346809  0.9668977255285972
  0.5447028261087985  0.9933336243236804  0.6054311668412428
  0.5695821341258719  0.5632770063327064  0.3738183629593741
  0.1042183585631658  0.1454348359865084  0.7926873115943628
  0.8125231720287306  0.0813249738019235  0.6400045558996706
  0.3250428314351371  0.7217624271264170  0.8109326584336434
  0.0909052441741090  0.5921127053364105  0.2882095130274425
  0.4692693833768622  0.7439084656907874  0.7407615171530720
  0.6467745311976160  0.7704761988756986  0.0085502256905173
  0.0588096541428614  0.3018992386391676  0.2849943785302193
  0.2371589181871505  0.8773516608722515  0.2313358189379338
  0.8637415592029487  0.9336752829010539  0.7825557017729573
  0.6998443327661793  0.9342059793735865  0.5350105107734573
  0.7047472578080691  0.5630730350720752  0.8187965248079095
  0.5042089527399287  0.8097356257067814  0.1085710264875264
  0.4127835822317777  0.1099304446720189  0.5538331117708079
  0.8124053770756458  0.5269805083743105  0.5539020734706611
  0.1362854393753515  0.9519942652238294  0.7948060197261261
  0.4649472954333417  0.2368065978774688  0.6677360256590855
  0.2198393253575596  0.7226407738171838  0.6618633837768951
  0.6737636859756343  0.7448697690533955  0.4349341161729219
  0.4778491770384206  0.4260405311088722  0.7235847333355175
  0.5208056598472410  0.6023341467560476  0.9627625014743514
  0.4932644818270555  0.0915167105687859  0.8557389638282792
  0.3046840099837009  0.7280535370810559  0.5002293353053552
  0.3106082972091080  0.7871495152855685  0.9186526352925420
  0.1732106375208080  0.4719394935454041  0.8117085134302495
  0.6616193030506240  0.5758619643100586  0.6423485894977048
  0.9812578449219450  0.3668318919827829  0.1262322001873694
  0.5468103033761362  0.8511952970669203  0.4533943165683054
  0.1359607877213470  0.8495089171352931  0.1542059055155773
  0.5431551694818294  0.5634575833189889  0.1535575646003635
  0.9641287482335031  0.1020399603046337  0.7420226824456146
  0.7713609174304092  0.0172744208500012  0.3402731767317607
  0.8842438979787931  0.4594196352700104  0.7230901310225196
  0.4148177065741470  0.5746099792488997  0.7796001706381500
  0.0625801936781059  0.7675403894002377  0.7779150970460734
  0.2356527194239887  0.0823988407286051  0.4915682113340474
  0.2869957706793768  0.3591860123691655  0.9117253095591079
  0.9427876371496073  0.8950429512831404  0.3378875182281727
  0.2903261952895453  0.6287564630817621  0.3762369232032157
  0.2753742461861220  0.8605589114480777  0.6531913886754711
  0.2005898610549260  0.3751433114582566  0.3665406727203305
  0.1821273616718932  0.0271804386106945  0.8904542664910834
  0.2318959424103389  0.0003440143194803  0.0613340428224786
  0.2805706464046994  0.6748743703740361  0.1334855794700468
  0.7403418973247009  0.4615686627487500  0.0811025779133921
  0.8385438111410878  0.3311291903673098  0.7518909788752408
  0.9584572342842007  0.2266144527028671  0.0189137450640806
  0.2907573115281408  0.2485114888597348  0.2687354898333145
  0.3160932185618320  0.8346594721738324  0.0554881326992675
  0.5817665722658583  0.8610222702450409  0.5774037213456742
  0.4557144762715228  0.8015705093078295  0.9368887730525934
  0.3709961138033358  0.1126631334352024  0.0395051306787601
  0.9785126225257510  0.9628663077713713  0.1357691979461732
  0.1030300290735446  0.3154695765851199  0.9009460697249894
  0.5461490840459846  0.9032435166225666  0.3038236042550996
  0.8360461032506339  0.9597494764561101  0.0854609806946556
  0.9611752051246336  0.0899728942136939  0.4294535713507868
  0.7409536007057398  0.8506126987058483  0.8660033613735723
  0.3090944843331017  0.9121610786630132  0.7990796011901613
  0.1910831843135473  0.6235835475852741  0.8408726609026834
  0.8947480307966241  0.8986430951947626  0.9588940459409010
  0.8714534316757018  0.0832752343120489  0.9167589965201384
  0.7380212027613280  0.9198836555458539  0.6927247766762212
  0.0063167602826077  0.8155934181793498  0.4980809627338671
  0.2106733241053198  0.8835957780421678  0.4276496129339024
  0.8245203548378974  0.4580616060259983  0.2179232607047425
  0.6363285547288720  0.8644798997745039  0.7398287089278556
  0.8727333583214473  0.7536873514429510  0.8414990360268381
  0.3431294213937339  0.5884822206652585  0.5384790360398146
  0.7015490762934398  0.3055960980358354  0.3732744586178662
  0.6877034210402334  0.7277190463704855  0.3025760359890183
  0.0527823785718648  0.4684098465151400  0.3571353992785529
  0.7251007965533234  0.7101731669296426  0.1666286381929494
  0.4506924820586975  0.5509301348219532  0.4631427532395150
  0.7863768129780405  0.8102928236223225  0.5451840250115859
  0.6166376614646357  0.3038090680637152  0.6986706056072178
  0.3271115107134256  0.3218376787630109  0.7151550970878784
  0.1189351983847236  0.7062745676659951  0.2393342154761907
  0.3830330957785609  0.5266309888612403  0.1901291821568054
  0.4125634019151888  0.6924957076611817  0.1881287769817769
  0.9834468214823135  0.1791862984974865  0.1809533273230204
  0.5652879759829240  0.5804803349123502  0.8072580751877968
  0.1891798628950780  0.4977516810164124  0.0006791227310139
  0.8321171366877772  0.7406721643063767  0.3136081992553442
  0.0918862226859023  0.0650542442701977  0.0525392448797214
  0.9230793593969083  0.2674987299303036  0.5325297340693944
  0.9786785194260157  0.9790509020861228  0.8113830733891089
  0.1069292018445060  0.1949281303839288  0.4077218487878460
  0.7230921026866856  0.2609775615564786  0.4883156662591452
  0.7589907576930425  0.4759825847996437  0.3695544252302422
  0.9764918587427642  0.5939909769128032  0.4491365344534365
  0.9888681335401209  0.0456608350716068  0.9240246589746159
  0.7465407449214260  0.0672375470377786  0.1470095657827712
  0.6461162615755772  0.0171026182036553  0.4051649182083982
  0.7479535454773013  0.8692603025868810  0.2393827251891777
  0.9973690187892434  0.7603949866835150  0.1677738433825436
  0.9775231230866519  0.0083302641778736  0.5971225404936211
  0.0059123147673111  0.6011677862221037  0.7873767917914831
  0.6176741459466381  0.3517017661684977  0.9613759208220256
  0.0969863807020157  0.4445020641276027  0.1645082747855556
  0.4819649581860700  0.4439637776474419  0.9136134857479489
  0.8228815359301158  0.6202016133107625  0.2647938746436037
  0.9571967050096736  0.2484063785352578  0.8274820069610077
  0.1773469061503206  0.7146715196964244  0.0681309358519335
  0.6053482411081816  0.1527632086161317  0.5688073816328049
  0.7810103230566307  0.2205816866444295  0.7911740167237361
  0.5627083609312050  0.4341985310026757  0.5842971520366305
  0.8550711987674540  0.6936843142299024  0.5709105886886552
  0.3331830237518980  0.9334720562260855  0.3184305260584424
  0.8546955855912073  0.1974068946949071  0.3194110342421189
  0.8316085413936081  0.1894322974224048  0.4952627505589052
  0.9320576633001957  0.2016643814226951  0.6711334153438476
  0.2751440502633978  0.4984939343481002  0.6972877270884262
  0.6336224136621628  0.1648097828251034  0.3336100659037393
  0.0732604604412377  0.9136606786272723  0.9577429710880709
  0.0781834632605129  0.8551287747824055  0.6456652099731317
  0.5299509847458307  0.0953447708876219  0.1663115961250832
  0.3637587185598366  0.1263857878793181  0.7188239040138763
  0.2277280786960623  0.4990209705079783  0.3966984571740433
  0.7650891298445507  0.4104046379115375  0.5400236889950835
  0.8371384763365649  0.6401125371519100  0.0445853427102456
  0.6545180302365615  0.3951086171917573  0.2682598350759527
  0.4021697313971047  0.9845760437699871  0.1551442166209153
  0.8479919599870511  0.3766024707941591  0.9460134176434766
  0.4331866818951794  0.7613599280672094  0.5459434920090052
  0.4643191472132850  0.0822478993207221  0.3650770571253547
  0.6965520439971058  0.0752405395086058  0.7999477160139670
  0.8906220315651511  0.3647906276774107  0.4008378455126887
  0.5733313000911301  0.3079192903275769  0.2116545312299009
  0.3155618490041942  0.2271551532836361  0.4528175453973148
  0.7285027022681718  0.7310295409475756  0.7197699374651960
  0.2029598948912253  0.2157817737189480  0.6620752982595944
  0.1676700950877371  0.7637061643586599  0.3400392049797800
  0.4513385359426539  0.3658646888067530  0.4841435269531016
  0.7959030439032172  0.0144098936569299  0.4956985471300518
  0.6427113943763560  0.1950559931637547  0.0418091768633782
  0.8848442184075280  0.0359875207193492  0.2775937277034169
  0.5431893557203927  0.0575556279101642  0.9684569017640142
  0.4542125713845548  0.2617708368965087  0.9571493517518318
  0.9668135499935667  0.5122991445897518  0.9926443106125562
  0.8474310331696021  0.5606544024780438  0.8490234175170006
  0.3801800298074391  0.9459586138067971  0.5094736349611424
  0.5412338686451604  0.2068519541323623  0.8334502607921839
  0.3679843828477954  0.4648889065608091  0.3185899625466860
  0.1402843386269442  0.0348129601086634  0.6167339942682954
  0.4934106958532358  0.4039499372564349  0.0920444357850568
  0.5888986577493276  0.9646097050873265  0.0942218264224632
  0.0575890174303438  0.0975907595117710  0.2585480511633627
  0.7955572575806829  0.1852290491332100  0.0476654783523393
  0.8885662703087445  0.7966681610405602  0.1226957688980124
  0.9655805932370648  0.3919317118934841  0.6411019946136762
  0.0025743912095352  0.7467795988078596  0.9771917564112523
  0.8434465367119613  0.8605212004258692  0.4116182860227108
  0.2809826866050762  0.0792916813813084  0.8129280894520228
  0.2784398894276242  0.3751188202815021  0.0980838639565850
  0.2008058211294454  0.4999999292927824  0.2169033022109451
  0.7585655061105200  0.2645699428722637  0.1867576684492869
  0.1692383108463492  0.6834984506280301  0.5034376767339366
  0.1970648186721738  0.1570814126472757  0.9465368853272083
  0.2101529756091496  0.1923330434162548  0.1253893022841528
  0.6381629416539157  0.7319395517461545  0.5909509797637011
 
  0.16089797E-02  0.27832262E-02 -0.10046292E-02
  0.85148078E-03  0.39084398E-03 -0.17846474E-02
 -0.19705110E-03 -0.85283696E-03 -0.91429791E-03
 -0.19092731E-02  0.28723439E-02 -0.88891878E-03
 -0.22724102E-02  0.37106668E-03 -0.27930680E-03
  0.36092758E-02 -0.16153635E-03 -0.74213794E-03
 -0.36162474E-03  0.30091563E-04 -0.21911016E-03
 -0.15626811E-02  0.17684710E-02 -0.13307313E-02
 -0.94562449E-03 -0.73433131E-03  0.11196678E-02
  0.35154859E-02  0.17051616E-02  0.13473135E-02
 -0.22088212E-03 -0.73294488E-04 -0.67088379E-03
  0.24901816E-02 -0.42030912E-03 -0.35853602E-03
 -0.23472261E-04 -0.11000425E-02 -0.70755648E-03
  0.99191901E-04 -0.62387199E-03 -0.31365390E-03
 -0.22565443E-02  0.23025762E-02  0.31859567E-03
 -0.98045294E-05  0.14820587E-02 -0.86102859E-03
  0.72733058E-03  0.34374515E-02  0.17609695E-02
  0.18021571E-02 -0.14762700E-03  0.18582695E-03
  0.20532375E-02  0.17705121E-02  0.19605629E-02
 -0.45303383E-03 -0.20755274E-03  0.29293813E-02
 -0.16095680E-02  0.62664469E-03 -0.21973943E-02
 -0.16758298E-03  0.20852883E-03  0.16002643E-02
 -0.77720294E-03 -0.18821668E-02 -0.64985202E-03
  0.11329695E-02 -0.23596138E-02 -0.25568159E-03
  0.23221335E-02 -0.24198281E-02  0.32395307E-02
 -0.16134655E-02  0.97916579E-03 -0.14729532E-02
  0.20423983E-02  0.48053240E-03  0.57884818E-03
  0.10999479E-02  0.28217328E-03  0.33550197E-03
 -0.22892247E-02 -0.24596187E-03 -0.66387998E-03
 -0.94017395E-03  0.21171236E-02  0.74003470E-06
  0.10528298E-02  0.81435110E-03 -0.65293271E-03
 -0.27175573E-03  0.20636874E-02 -0.12541756E-02
  0.49371461E-03 -0.36765401E-02  0.94723656E-03
 -0.90873792E-03  0.31954608E-04 -0.26322622E-03
 -0.39738130E-03  0.70468119E-03 -0.28119226E-02
  0.27324351E-02 -0.10583822E-02  0.23236064E-03
  0.75759927E-04 -0.42028892E-02  0.28422021E-02
 -0.23066807E-02  0.33252635E-03  0.35817531E-03
 -0.56049038E-03 -0.10590470E-02 -0.45213692E-03
  0.23185839E-02 -0.14584659E-03  0.86824307E-03
  0.10989386E-02 -0.91692165E-03  0.18034457E-02
  0.51757822E-03  0.85628989E-03 -0.22999647E-02
 -0.15593496E-02 -0.90953717E-03 -0.19418262E-02
 -0.80446288E-03  0.43133001E-04  0.23979125E-02
 -0.11291993E-02  0.54455097E-03  0.89401836E-03
 -0.34410379E-03  0.56905974E-03 -0.12041219E-02
  0.18590938E-02  0.14580875E-03 -0.45186120E-03
 -0.19885160E-02  0.23679503E-02 -0.81854420E-03
 -0.12328671E-02  0.28004953E-03  0.14053895E-02
 -0.59783807E-03 -0.19006409E-02  0.21913106E-02
 -0.30520054E-02 -0.20219773E-03 -0.83534346E-03
 -0.40008458E-03  0.13939953E-02 -0.52798579E-03
  0.55710467E-04 -0.12210136E-02  0.16592106E-02
 -0.72509158E-03 -0.71248484E-03 -0.27335001E-02
 -0.98665520E-03  0.20125504E-03  0.21978574E-03
 -0.13085521E-02  0.11824545E-02 -0.83666821E-03
 -0.75950994E-03  0.17203875E-02 -0.22902232E-02
 -0.21799495E-02  0.14669376E-02 -0.50579880E-04
  0.27037660E-03 -0.15740507E-02 -0.11936062E-02
 -0.31050752E-03 -0.13285189E-03  0.14381094E-02
 -0.43229019E-03 -0.82106055E-03 -0.31594718E-03
  0.15094267E-02 -0.72764082E-03  0.16922050E-03
 -0.13088865E-02  0.12602848E-02  0.32297356E-02
  0.45584801E-03 -0.83388585E-03 -0.59467081E-05
  0.19755554E-03  0.30438608E-02  0.10828766E-02
  0.85037017E-03 -0.90342441E-03 -0.12442689E-02
  0.13346205E-02  0.11684098E-02  0.17344362E-02
 -0.20508591E-02  0.16783211E-02  0.10211918E-02
 -0.16034022E-03 -0.37893537E-03 -0.21935069E-03
 -0.11649076E-03  0.93390165E-03 -0.14959994E-02
 -0.19658955E-03  0.89127361E-04  0.20882135E-02
  0.15833005E-02  0.80603701E-03  0.21409058E-02
 -0.23147972E-04  0.33093526E-03  0.14993027E-02
  0.27151137E-03  0.53809801E-03  0.10264616E-02
 -0.17651403E-02 -0.30637019E-03 -0.57615566E-04
 -0.98621907E-03 -0.21816399E-02  0.18869074E-02
 -0.22942745E-02  0.11864674E-02  0.13726252E-02
 -0.34890485E-03  0.18748167E-02 -0.24544617E-02
  0.16596852E-03  0.28029326E-02  0.68073758E-03
 -0.15634936E-03 -0.33262742E-03  0.42078273E-03
 -0.14055610E-02  0.88161346E-03 -0.16034556E-02
  0.10115610E-03 -0.23773817E-02  0.18701879E-02
  0.47560966E-03 -0.90636137E-04 -0.20698206E-03
 -0.84508346E-03  0.70419589E-03 -0.18638754E-02
 -0.10752317E-02  0.15528282E-02 -0.16108688E-02
 -0.68164663E-04  0.22205939E-03  0.20442971E-02
 -0.50734584E-03 -0.16779339E-02  0.16765313E-02
 -0.14568643E-02  0.13484649E-03  0.10754641E-02
 -0.13578070E-02  0.44292599E-03  0.99028670E-03
 -0.17005212E-02  0.13640755E-02 -0.28590318E-04
  0.23258534E-02 -0.34684871E-03 -0.29309251E-03
  0.83810829E-03 -0.21781384E-02 -0.41581816E-02
  0.18206516E-02 -0.84814022E-03  0.13336130E-03
  0.26686244E-02  0.28068975E-03  0.13836089E-02
 -0.19922499E-02  0.13981392E-03 -0.48006338E-02
  0.55782055E-05  0.18109155E-02 -0.50247910E-04
 -0.20076267E-02  0.12361221E-02 -0.21588919E-03
 -0.41461294E-03  0.75864365E-03 -0.11144696E-02
 -0.24586444E-02  0.38073202E-03  0.33634021E-03
  0.40572319E-03  0.58208566E-03 -0.97286612E-03
  0.57143037E-04 -0.70004316E-03 -0.12691962E-02
  0.17934832E-02 -0.10776403E-02 -0.89575591E-04
  0.93311859E-03  0.13739632E-02  0.29258543E-02
 -0.16913392E-02 -0.20380243E-03  0.11240800E-02
  0.34136579E-03 -0.55138708E-03 -0.46808799E-03
 -0.43742207E-03 -0.23294338E-02 -0.31149936E-03
  0.17374521E-04  0.24162433E-02 -0.16170170E-02
 -0.50473058E-03  0.35780952E-02 -0.48468928E-03
 -0.13418095E-02  0.14483643E-02  0.10859696E-02
  0.97324447E-03 -0.30757668E-02 -0.24777120E-02
 -0.32280486E-02 -0.24402812E-02  0.99427533E-03
 -0.75537905E-03 -0.39425202E-02 -0.89689102E-04
 -0.17121942E-02 -0.14669461E-02  0.20664110E-03
 -0.68265192E-05  0.16033964E-02  0.43406677E-03
  0.18486794E-02  0.20207165E-02 -0.13264899E-03
  0.14956567E-02  0.32022116E-02 -0.20767758E-03
  0.87761584E-04  0.11806941E-02 -0.24881299E-03
  0.18037800E-02  0.98288568E-03 -0.13116747E-02
  0.11040982E-03 -0.54556877E-03  0.41861958E-03
  0.74444632E-03 -0.89758946E-03  0.19475915E-02
  0.18451177E-02  0.27749204E-03 -0.34000629E-03
 -0.17511586E-02 -0.92563804E-03 -0.82940376E-03
 -0.13725164E-03 -0.18671320E-02  0.10210990E-02
 -0.10657057E-02 -0.16130078E-02 -0.60266506E-05
  0.22938882E-02 -0.24219688E-03  0.12158941E-02
  0.25211103E-02 -0.12765615E-02  0.54141066E-03
  0.76099165E-03  0.22052251E-02  0.74046980E-03
 -0.24214818E-03 -0.41878923E-03 -0.87100531E-03
  0.19754610E-03  0.31989077E-03 -0.70148578E-03
 -0.65324313E-03 -0.43948286E-03 -0.34434400E-03
  0.10885854E-02  0.27602665E-02  0.73489467E-03
  0.11244859E-02  0.42342168E-02  0.14077942E-02
  0.47800617E-03 -0.15886846E-02  0.10921065E-02
  0.35477558E-03  0.36159711E-03  0.18907984E-03
  0.87799087E-03 -0.37467848E-03 -0.36454809E-02
 -0.10047637E-02 -0.20010482E-02 -0.47168994E-03
 -0.22189532E-02  0.83549546E-03  0.32477705E-02
 -0.40558342E-03 -0.57352758E-03  0.12891266E-02
  0.33960301E-03 -0.28267353E-02 -0.18920245E-02
 -0.33814420E-03  0.99149366E-03 -0.16258558E-02
 -0.26837846E-03  0.72599523E-03  0.38247518E-03
  0.34987634E-03  0.20099198E-02 -0.21648823E-02
  0.15844187E-02 -0.66185082E-03 -0.42810090E-03
  0.63384004E-03 -0.69424811E-03  0.13877436E-03
 -0.91482359E-03 -0.12700149E-02  0.22764137E-03
 -0.40446948E-03 -0.12909665E-02 -0.43129401E-03
 -0.23640595E-02 -0.45782288E-03  0.10567089E-02
  0.72186909E-03  0.86038486E-03  0.37323438E-03
  0.59088594E-04 -0.51308959E-03 -0.18632436E-02
 -0.15528696E-02 -0.12213815E-02  0.89248211E-03
  0.24911657E-02 -0.78526884E-03  0.23962482E-02
  0.15484289E-02 -0.12280123E-02 -0.33026904E-03
 -0.54076875E-03 -0.28551478E-02 -0.14700981E-02
 -0.20151387E-02  0.97537416E-03 -0.18339783E-02
 -0.74889838E-03 -0.29119897E-02 -0.73488205E-04
 -0.23020324E-02 -0.15326000E-02  0.15522885E-03
  0.14745107E-02 -0.20018085E-02 -0.21022302E-02
 -0.64460896E-03 -0.99678548E-03 -0.13607971E-02
 -0.31659811E-03  0.65851065E-03 -0.23082195E-02
  0.78811675E-03  0.80373216E-03 -0.54522741E-03
 -0.50195446E-03  0.14478630E-02  0.27030915E-03
  0.20883532E-03 -0.49898157E-03  0.28544639E-03
 -0.11948342E-03  0.37070352E-02  0.51365643E-03
 -0.96944042E-03 -0.20696847E-02  0.34894338E-03
  0.59657195E-03  0.71135097E-03  0.14840147E-02
  0.22982490E-03 -0.40175707E-03 -0.12371917E-02
 -0.47063505E-03 -0.65443002E-03 -0.17576608E-02
 -0.73745548E-03 -0.75692590E-04  0.22427863E-02
 -0.17049806E-02 -0.53652545E-03 -0.20488892E-02
  0.21415548E-04 -0.31355972E-02  0.20808684E-02
 -0.12563369E-05 -0.49850604E-03 -0.15787130E-02
  0.19944027E-02  0.41326161E-03 -0.36867230E-04
  0.22647786E-02  0.25807385E-02 -0.13842215E-02
  0.25156106E-03  0.12183457E-02 -0.62401054E-03
  0.21283929E-02  0.11932262E-03 -0.22010976E-02
  0.14908275E-02 -0.14276663E-02 -0.13839485E-02
 -0.18590888E-02 -0.12064407E-02  0.13952029E-02
 -0.24543924E-02  0.10702909E-02  0.10683447E-02
  0.13764590E-02  0.13631662E-02 -0.13768811E-02
  0.18635115E-02  0.24982398E-02 -0.18840201E-02
  0.34891489E-04 -0.94539531E-03  0.79133983E-03
 -0.60431225E-03  0.25343898E-03 -0.23046365E-02
 -0.23320305E-03  0.17944718E-03 -0.62316355E-03
 -0.20195176E-02  0.28658992E-02  0.12073275E-02
 -0.11688669E-02 -0.73109691E-03  0.29731936E-02
 -0.17997914E-03 -0.20649407E-02  0.12365910E-02
 -0.65401887E-03 -0.83118811E-04  0.12267523E-03
 -0.31297305E-03 -0.20923310E-02  0.73635565E-03
  0.18924131E-02 -0.20550827E-03 -0.44536188E-03
  0.13025297E-02  0.17912854E-03 -0.23949276E-03
 -0.25858030E-03  0.13010201E-03  0.12463520E-02
 -0.21824704E-02 -0.91255807E-03 -0.23024964E-02
  0.20902302E-02 -0.24025329E-03 -0.75700141E-03
  0.13575652E-02 -0.49988553E-05  0.21695533E-03
  0.50107539E-03  0.11395643E-02 -0.79943283E-03
 -0.38658337E-03  0.13261318E-02 -0.21993414E-02
  0.13746222E-02  0.72736043E-04  0.70971009E-04
 -0.11411809E-02  0.34405712E-03 -0.75317631E-03
 -0.67637644E-03  0.14184501E-02 -0.31729805E-03
  0.18185501E-02  0.10358956E-02  0.14191758E-02
  0.48246326E-03  0.30000526E-02  0.11384885E-02
  0.53963542E-03  0.14471830E-02 -0.26319858E-03
  0.11792845E-02 -0.66254363E-03  0.74409120E-03
  0.39335433E-04 -0.23372871E-02  0.89304741E-03
  0.28953760E-03 -0.10271380E-02  0.11479259E-02
 -0.35265614E-03 -0.30434787E-02 -0.83766167E-03
  0.13815812E-02 -0.75947056E-03  0.26648930E-02
  0.19148881E-02  0.77845412E-03  0.21367204E-02
  0.20253910E-02  0.11495091E-02 -0.74257884E-04
 -0.38151925E-03 -0.71409425E-03 -0.15608922E-03
 -0.43260758E-03 -0.20627033E-02 -0.97993479E-03
  0.22453860E-02  0.68593443E-03 -0.52434436E-03
  0.30110100E-02  0.39073154E-04  0.56464244E-03
 -0.12377363E-02 -0.90367193E-03  0.11169227E-02
 -0.23450591E-02  0.48600320E-03  0.28366725E-03
  0.16818574E-03  0.77399939E-03  0.72554539E-03
  0.51236221E-03 -0.10711892E-03 -0.18896874E-03
  0.17319929E-02 -0.11559176E-02 -0.65023023E-03
 -0.17373100E-02 -0.14946907E-02  0.25269239E-02
 -0.46949389E-02  0.17208430E-02  0.12340712E-03
  0.74029585E-05 -0.82951273E-03 -0.76136197E-03
  0.80285577E-03 -0.30876469E-03  0.12953274E-02
  0.11442946E-02  0.11376400E-02 -0.10333308E-02
  0.79797019E-03 -0.82834669E-03 -0.39516492E-03
 -0.82604187E-05 -0.18784913E-02 -0.25110476E-03
  0.75775477E-03  0.86006297E-04 -0.18068270E-03
 -0.30906080E-03 -0.55582692E-03 -0.15568530E-02
  0.77784988E-03 -0.21593414E-02 -0.27330509E-02
  0.16981609E-02 -0.48908107E-03 -0.94131065E-03
 -0.13651737E-02 -0.86989251E-03  0.15046839E-02
  0.52239021E-03  0.22372226E-02  0.15908291E-02
 -0.13860125E-02 -0.11746344E-02 -0.87135105E-03