Sb                                      
   1.00000000000000     
    18.6173007965000004    0.0000000000000000    0.0000000000000000
     0.0000000000000000   18.6173007965000004    0.0000000000000000
     0.0000000000000000    0.0000000000000000   18.6173007965000004
   As   Te
    80   120
Direct
  0.7092321920283222  0.3966650953052133  0.0309749844359605
  0.8454104657134058  0.0125655828609397  0.1264246687941996
  0.3811747213498248  0.5531587555880062  0.0508730884670430
  0.1478170028687278  0.7069754730938114  0.4301660018642584
  0.6613348228342358  0.8717065605342601  0.0374834680005701
  0.3534631870889318  0.7940790041676898  0.3115686433421618
  0.0764205410727892  0.2872085236612070  0.4190095491421285
  0.5296079465886324  0.9096924966963692  0.0384693218362304
  0.3827478097237270  0.1031062578218633  0.8941493633331492
  0.6009479107142202  0.2817581986569890  0.7435995648876377
  0.1786159914518103  0.0575553221154971  0.9296140826012672
  0.7957558045010623  0.8245350513247026  0.3743674607261430
  0.6925760438727236  0.6566689290343717  0.3400690355352804
  0.8407743509329471  0.0814293935364646  0.5468081346233623
  0.5641977437292088 -0.0895840905484679  0.3616510926122317
  0.9288554942428067  0.7294859232975818  0.2204435845719530
  0.1842214832621666  0.8018450422356366  0.8525253033658258
  0.2644712575574165  0.6917310957994381  0.8521724028333463
  0.2353846774947433  0.0079194244381036  0.7342676908521268
  0.9286851983311436  0.1210861472042807  0.6445853428515154
  0.2010982417503943  0.6029941715887283  0.3574627782028906
  0.6191097564927042 -0.0119504857142268  0.4593838041747778
  0.0907785821732602  0.9759360418036476  0.0896363952778028
  0.2271813517431124  0.5776205779960075  0.5477667687557251
  0.0410491210627459  0.4368389684381024  0.5183229177255637
  0.4452851259492620  0.6397811551334507  0.8632640384704926
  0.8321912363717149  0.2110490326425201  0.8583549136755513
  0.6656390388892152  0.4487320376645256  0.6810707721148141
  0.3523610488179030  0.4555073711760244  0.1479355942232385
  0.4514964750695613  0.6527668377669297  0.1818814746546534
  0.5457580760515165  0.0237196383807565  0.9623392651992945
  0.1301950442481908  0.0834166522301385  0.6243078764280154
  0.9025525892032114  0.8920049143728265  0.3207743864512512
  0.4275467627753551  0.2540212660642047  0.1205184965119513
  0.9672229365157555  0.8418944411296165  0.1551687725978085
  0.0286884420232453  0.3800924470611837  0.9372193895540840
  0.5165428019541569  0.5443149855489340  0.4097955860198381
  0.6849083891914723  0.0003785034979990  0.1895108300986602
  0.0413083637257061  0.6566394246983192  0.2118914112623986
 -0.0249689634326025  0.9530053419339906  0.7425079757874300
  0.4986102327390752  0.9127012190379300  0.5889592083460106
  0.5625909987049980  0.0989180687582471  0.3511239972928397
  0.4604605860302934  0.9800097811948240  0.8707632716745051
  0.5660584618297144  0.6867395979515765  0.8264376232713982
  0.8566404006049969  0.6483571139547905  0.8197068267421306
  0.2998811506923441  0.0005759005341659  0.9307172696489169
  0.7882502102907085  0.5606168194508117  0.3288754326555052
  0.7430247792783041  0.6194989156131703  0.7535435541150969
  0.3949507615282056  0.1643185515571208  0.5685465610732701
  0.0884450918376119  0.6807628909238431  0.0879911061408161
  0.4073408820807334  0.2121950565858869  0.7591121253783945
  0.0640577198334685  0.8793426619746619  0.2418680964724449
  0.5266998612530749  0.3882097785594641  0.1711950608653234
  0.6520611027279067  0.4081927320416444  0.2229588627912209
  0.8023935589523403  0.9276298500934748  0.4660300223839791
  0.8802311344473397  0.0458306299872941  0.7465503141388152
  0.3351140062083319  0.6488881584271847  0.5011421956668936
  0.6729570028145673  0.3047124896582985  0.3063888961714892
  0.1149312136961598  0.9407901288970244  0.9611448419273843
  0.5205684901270119  0.8582780282653043  0.7096577815090019
  0.1774669481066601  0.3752998685286151  0.2001815606984088
  0.0141574122421662  0.6066066559986867  0.0056451533386539
  0.4981513473148981  0.7717997290068240  0.1314234011164923
  0.6337797639775562  0.7204330296950963  0.6280534659639112
  0.3338965568565437  0.7184723848614490  0.2014529074778766
  0.8618334442774606  0.0955908060021038  0.3314677792374707
  0.7292145224737997  0.2491123233123242  0.7031942046113088
  0.4300354719787255  0.0768356190082231  0.3781946256218397
  0.5141045090660509  0.7254239589481187  0.0076214933025333
  0.8987707669687127  0.2107322019411492  0.3951080429458169
  0.5431415139085911  0.9811967083233517  0.7671916494220582
  0.0262755049095523  0.7928180418407040  0.0468554369631065
  0.2474007681975216  0.2658592178993329  0.8637544943097795
  0.1894308319581271  0.4972564410405781  0.4427307322082421
  0.1168367848543524  0.3244369617979498  0.5456105338158188
  0.8905287074253405  0.1364777450220115  0.1559854715307759
  0.4099200016197053  0.0975500299119522  0.6875260551340299
  0.9188182862420812  0.5559729280082124  0.0866288823491192
  0.0659173957262346  0.3532449920331631  0.1218811546627015
  0.5807732551497806  0.6213789562997324  0.7082353910195991
  0.3016164099596880  0.9905440083810036  0.5299424737946429
  0.1098624165935391  0.4737402445386297  0.8972787587727633
 -0.0244553230478404  0.6771397075631208  0.6830753631479998
  0.2614223793423598  0.6725287991482229  0.6586564792653817
  0.9407337075733031  0.1526805869267739  0.8399244122890571
  0.4016456950030498  0.8958110158879513  0.2417270484549224
  0.0966663408921451  0.1928452985828573  0.6895501502968772
  0.2539573862942905  0.2803155996535769  0.1513025199238043
  0.2482426515742601  0.7478684234311739  0.5057698237132812
  0.5404790397273893  0.0780897436762410  0.6780740141948205
  0.8118190486304155  0.5695287473725817  0.9153825513603637
  0.0134947263443368  0.0719378866149850  0.0407836593031820
  0.1617909721405664  0.7978396262431351  0.2123527907036354
  0.5338106778705517  0.4492376527589341  0.3221852765464008
  0.8101127735335649  0.4522016115813837  0.8541742686554165
  0.3096901086549738  0.2089764954729909  0.9598718968573496
  0.8817988424950659  0.2757034845766613 -0.0358121622524769
  0.2607984111043724  0.6580720567010108  0.9745325354832506
  0.1088017659035738  0.3028156600885311  0.0103014692127812
  0.6436072129965077  0.7432379292425234  0.0225950231338669
  0.6616695199633899  0.8844667426287548  0.5301674751355839
  0.7197313370321213  0.0795434241676433  0.5995595098647646
  0.0070294583783908  0.7608269976723496  0.7794125832913475
  0.3275575355064352  0.6264041024590767  0.3722577203047800
  0.0382828696743525  0.2496503727953811  0.1989110411166556
  0.7385456418752543  0.4732937744734117  0.4137601863437744
  0.1829567349938119  0.1530747080238380  0.5254386537864961
  0.5552554043662853  0.7945740533142930  0.4246087920985582
  0.4214471075353671  0.3038428592307860  0.6621043807961075
  0.1976269971289014  0.0465396725838023  0.1147325514004283
  0.8171340246169063  0.2000464429166162  0.4967354493165209
  0.1334806516902678  0.0478635182825594  0.8075454541889414
  0.1836847774988677  0.9368109729699468  0.5588412583466789
  0.6267459677885733  0.3988811441599783  0.7930573887860973
  0.6501499227958734  0.8195191328181608  0.7137730649405762
  0.0967332068744650  0.5071844976433496  0.0228384018120439
  0.2241829509443431  0.4815356626294962  0.1410965052844884
  0.7560663468226611  0.6765864058471477  0.6369290500401503
  0.8598032875075208  0.6750137338484021  0.1071342203472656
  0.2281787191906695  0.0627365665762801  0.4472717334236915
  0.0703324173454256  0.6272284030418120  0.5038803843955977
 -0.0003047893975627  0.8059721944153595  0.3372854595920636
  0.3288528715147911  0.3633409568657182  0.8186208452674851
  0.6554029548794500  0.1700114635007415  0.9196346312793113
  0.9781693279610914  0.3745737361698463  0.4213967945390528
  0.4985310079880239  0.4910613540542237  0.0326226129330577
  0.6616617233495073  0.9767561527907457  0.8252378299130509
  0.7916050380876268  0.1621325845727897  0.2379101409280342
  0.2986161408340222  0.9312985025438519  0.8216393892019970
  0.3807703489104230  0.9037241441885987  0.6387812640159287
  0.7853644020815799  0.7460087240124293  0.8702133025030147
  0.8236760306146331  0.3109604840812189  0.7680517048427794
  0.9828414865150764  0.5423923904235476  0.1979973182083926
  0.2940161412984615  0.4309368233232588  0.3977946646579942
  0.7128958679763280  0.0945736887394208  0.8340413499754011
  0.6987723117278000  0.9578307465177449  0.6345412045863933
  0.6244971703196526  0.5874628368005127  0.8924616112080010
  0.5952632207260820  0.1934843100209047  0.4294016589201944
  0.6275053860337129  0.6074925451615945  0.4445085433293006
  0.0879929374226910  0.7114780002374455  0.8651242108717869
  0.3931940355199751  0.4042222451352023  0.9191231671529877
  0.7861750368999658  0.4971049827151922  0.7211233187101377
  0.4968402962711137  0.2444357871233229  0.5770030496648731
  0.1918427837576303  0.8958994979134366  0.6786206697621721
  0.4489638829400999  0.1010507039676411  0.0079269564208775
  0.9105245317569772  0.7500079705265431  0.0081806211721046
  0.4510691805271452  0.0619294714775785  0.5060431988740667
  0.9665690196417354  0.0869994499359012  0.2516085465784373
  0.2776829718731025  0.1971110385995961  0.7554927366472334
  0.0167411007105865  0.4837858202449381  0.7034358519654125
  0.0119638742740887  0.0334715661182392  0.5937567737141480
  0.5294032414401290  0.5005698094462996  0.9084045252527480
  0.0970579701119467  0.3957729603952367  0.7533014626192269
  0.7078363705123178  0.3418640037407371  0.6156864810026751
  0.2547119007779054  0.4831256031266126  0.6327459568533178
  0.3831841626009425  0.7448211175828314  0.8194897918115063
  0.7292293915466636  0.3334557340022392  0.1400988986537129
  0.5422844041353369  0.2931748918037423  0.0787201623660997
  0.4280557134026455  0.5527811590933077  0.7612814818963954
  0.5691049752942677  0.3246683345986608  0.3819039522139917
  0.4677039282017454  0.8061904713025749  0.5183721842331096
  0.1662158133669457  0.0805560293904175  0.2335551883143731
  0.7617802634278711  0.5449038839038153  0.1755259130908015
  0.3736090385951153  0.8191085073464131  0.1226396976297533
  0.8390313847738512  0.3952772998331432 -0.0140115780014046
 -0.0034548593424496  0.7141313007835680  0.5640405531236912
  0.6718336120118494  0.8715762818128765  0.1681695205674580
  0.2021328646154947  0.8426451054121505  0.9759298916002157
  0.4343919953759658  0.9432835914609862  0.3737437660228887
  0.4562565990713744  0.6281259661949113  0.6643266287171046
  0.6324694955990766  0.6120074722083040  0.2338511835997775
  0.5557728783062974  0.0254103206625641  0.1780505828893404
  0.8398344415289458  0.7312750193199032  0.4561566675952113
  0.5476222947156177  0.1431367709255791  0.2273814186810846
  0.2569402335223286  0.5712935887901304  0.7296260913999330
  0.7027415228620481  0.5231941194582449  0.0632301517387070
  0.4139386909772703  0.4773618189104640  0.5576964508452189
  0.1497739463226214  0.2061573010893483  0.2485556377503834
  0.5596229206343698  0.2214242020853482  0.8529432772425030
  0.7276833772426176  0.0014917675485256  0.3843084534233145
  0.9125967924543019  0.0003165600228882  0.0132973787178413
  0.7780962982153580  0.3626699041464477  0.3649465365042718
  0.7293068238638157  0.0427845017541100  0.0733902410669339
  0.3423852211312717  0.3834596250079227  0.5039611812628592
  0.0311786530518140  0.3112022025121285  0.8225706046454631
  0.5186024916459029  0.6650330158889206  0.2920784605285661
  0.8218097672700662  0.8387290724285625  0.7855562313286145
  0.0145040946134110  0.1721661192145425  0.4384445209937421
  0.5329535877309588  0.4654916665103471  0.5161819924805557
  0.9483328995265579  0.4297041001074249  0.6118126401133387
  0.4840215531480107  0.8351823328630585  0.9416897241902483
  0.3168196190835397  0.5195757076994362  0.9444260218258220
  0.9237176050539994 -0.0307938926472427  0.4238131572463957
  0.4476839386733368  0.3060863881804710  0.2376983110995903
  0.9229396886183464  0.8888813483387108  0.8498644111002959
  0.3330565527725683  0.3484226623778055  0.0690423692097217
  0.8827570667414613  0.6335237900236631  0.3863544294149138
  0.2240958564894939  0.8170005845998830  0.3257917179870534
  0.0246566096448978  0.2651094152977255  0.6139510858549286
  0.8709505526063361  0.9295313377691085  0.6675115283884895
 
  0.00000000E+00  0.00000000E+00  0.00000000E+00
  0.00000000E+00  0.00000000E+00  0.00000000E+00
  0.00000000E+00  0.00000000E+00  0.00000000E+00
  0.00000000E+00  0.00000000E+00  0.00000000E+00
  0.00000000E+00  0.00000000E+00  0.00000000E+00
  0.00000000E+00  0.00000000E+00  0.00000000E+00
  0.00000000E+00  0.00000000E+00  0.00000000E+00
  0.00000000E+00  0.00000000E+00  0.00000000E+00
  0.00000000E+00  0.00000000E+00  0.00000000E+00
  0.00000000E+00  0.00000000E+00  0.00000000E+00
  0.00000000E+00  0.00000000E+00  0.00000000E+00
  0.00000000E+00  0.00000000E+00  0.00000000E+00
  0.00000000E+00  0.00000000E+00  0.00000000E+00
  0.00000000E+00  0.00000000E+00  0.00000000E+00
  0.00000000E+00  0.00000000E+00  0.00000000E+00
  0.00000000E+00  0.00000000E+00  0.00000000E+00
  0.00000000E+00  0.00000000E+00  0.00000000E+00
  0.00000000E+00  0.00000000E+00  0.00000000E+00
  0.00000000E+00  0.00000000E+00  0.00000000E+00
  0.00000000E+00  0.00000000E+00  0.00000000E+00
  0.00000000E+00  0.00000000E+00  0.00000000E+00
  0.00000000E+00  0.00000000E+00  0.00000000E+00
  0.00000000E+00  0.00000000E+00  0.00000000E+00
  0.00000000E+00  0.00000000E+00  0.00000000E+00
  0.00000000E+00  0.00000000E+00  0.00000000E+00
  0.00000000E+00  0.00000000E+00  0.00000000E+00
  0.00000000E+00  0.00000000E+00  0.00000000E+00
  0.00000000E+00  0.00000000E+00  0.00000000E+00
  0.00000000E+00  0.00000000E+00  0.00000000E+00
  0.00000000E+00  0.00000000E+00  0.00000000E+00
  0.00000000E+00  0.00000000E+00  0.00000000E+00
  0.00000000E+00  0.00000000E+00  0.00000000E+00
  0.00000000E+00  0.00000000E+00  0.00000000E+00
  0.00000000E+00  0.00000000E+00  0.00000000E+00
  0.00000000E+00  0.00000000E+00  0.00000000E+00
  0.00000000E+00  0.00000000E+00  0.00000000E+00
  0.00000000E+00  0.00000000E+00  0.00000000E+00
  0.00000000E+00  0.00000000E+00  0.00000000E+00
  0.00000000E+00  0.00000000E+00  0.00000000E+00
  0.00000000E+00  0.00000000E+00  0.00000000E+00
  0.00000000E+00  0.00000000E+00  0.00000000E+00
  0.00000000E+00  0.00000000E+00  0.00000000E+00
  0.00000000E+00  0.00000000E+00  0.00000000E+00
  0.00000000E+00  0.00000000E+00  0.00000000E+00
  0.00000000E+00  0.00000000E+00  0.00000000E+00
  0.00000000E+00  0.00000000E+00  0.00000000E+00
  0.00000000E+00  0.00000000E+00  0.00000000E+00
  0.00000000E+00  0.00000000E+00  0.00000000E+00
  0.00000000E+00  0.00000000E+00  0.00000000E+00
  0.00000000E+00  0.00000000E+00  0.00000000E+00
  0.00000000E+00  0.00000000E+00  0.00000000E+00
  0.00000000E+00  0.00000000E+00  0.00000000E+00
  0.00000000E+00  0.00000000E+00  0.00000000E+00
  0.00000000E+00  0.00000000E+00  0.00000000E+00
  0.00000000E+00  0.00000000E+00  0.00000000E+00
  0.00000000E+00  0.00000000E+00  0.00000000E+00
  0.00000000E+00  0.00000000E+00  0.00000000E+00
  0.00000000E+00  0.00000000E+00  0.00000000E+00
  0.00000000E+00  0.00000000E+00  0.00000000E+00
  0.00000000E+00  0.00000000E+00  0.00000000E+00
  0.00000000E+00  0.00000000E+00  0.00000000E+00
  0.00000000E+00  0.00000000E+00  0.00000000E+00
  0.00000000E+00  0.00000000E+00  0.00000000E+00
  0.00000000E+00  0.00000000E+00  0.00000000E+00
  0.00000000E+00  0.00000000E+00  0.00000000E+00
  0.00000000E+00  0.00000000E+00  0.00000000E+00
  0.00000000E+00  0.00000000E+00  0.00000000E+00
  0.00000000E+00  0.00000000E+00  0.00000000E+00
  0.00000000E+00  0.00000000E+00  0.00000000E+00
  0.00000000E+00  0.00000000E+00  0.00000000E+00
  0.00000000E+00  0.00000000E+00  0.00000000E+00
  0.00000000E+00  0.00000000E+00  0.00000000E+00
  0.00000000E+00  0.00000000E+00  0.00000000E+00
  0.00000000E+00  0.00000000E+00  0.00000000E+00
  0.00000000E+00  0.00000000E+00  0.00000000E+00
  0.00000000E+00  0.00000000E+00  0.00000000E+00
  0.00000000E+00  0.00000000E+00  0.00000000E+00
  0.00000000E+00  0.00000000E+00  0.00000000E+00
  0.00000000E+00  0.00000000E+00  0.00000000E+00
  0.00000000E+00  0.00000000E+00  0.00000000E+00
  0.00000000E+00  0.00000000E+00  0.00000000E+00
  0.00000000E+00  0.00000000E+00  0.00000000E+00
  0.00000000E+00  0.00000000E+00  0.00000000E+00
  0.00000000E+00  0.00000000E+00  0.00000000E+00
  0.00000000E+00  0.00000000E+00  0.00000000E+00
  0.00000000E+00  0.00000000E+00  0.00000000E+00
  0.00000000E+00  0.00000000E+00  0.00000000E+00
  0.00000000E+00  0.00000000E+00  0.00000000E+00
  0.00000000E+00  0.00000000E+00  0.00000000E+00
  0.00000000E+00  0.00000000E+00  0.00000000E+00
  0.00000000E+00  0.00000000E+00  0.00000000E+00
  0.00000000E+00  0.00000000E+00  0.00000000E+00
  0.00000000E+00  0.00000000E+00  0.00000000E+00
  0.00000000E+00  0.00000000E+00  0.00000000E+00
  0.00000000E+00  0.00000000E+00  0.00000000E+00
  0.00000000E+00  0.00000000E+00  0.00000000E+00
  0.00000000E+00  0.00000000E+00  0.00000000E+00
  0.00000000E+00  0.00000000E+00  0.00000000E+00
  0.00000000E+00  0.00000000E+00  0.00000000E+00
  0.00000000E+00  0.00000000E+00  0.00000000E+00
  0.00000000E+00  0.00000000E+00  0.00000000E+00
  0.00000000E+00  0.00000000E+00  0.00000000E+00
  0.00000000E+00  0.00000000E+00  0.00000000E+00
  0.00000000E+00  0.00000000E+00  0.00000000E+00
  0.00000000E+00  0.00000000E+00  0.00000000E+00
  0.00000000E+00  0.00000000E+00  0.00000000E+00
  0.00000000E+00  0.00000000E+00  0.00000000E+00
  0.00000000E+00  0.00000000E+00  0.00000000E+00
  0.00000000E+00  0.00000000E+00  0.00000000E+00
  0.00000000E+00  0.00000000E+00  0.00000000E+00
  0.00000000E+00  0.00000000E+00  0.00000000E+00
  0.00000000E+00  0.00000000E+00  0.00000000E+00
  0.00000000E+00  0.00000000E+00  0.00000000E+00
  0.00000000E+00  0.00000000E+00  0.00000000E+00
  0.00000000E+00  0.00000000E+00  0.00000000E+00
  0.00000000E+00  0.00000000E+00  0.00000000E+00
  0.00000000E+00  0.00000000E+00  0.00000000E+00
  0.00000000E+00  0.00000000E+00  0.00000000E+00
  0.00000000E+00  0.00000000E+00  0.00000000E+00
  0.00000000E+00  0.00000000E+00  0.00000000E+00
  0.00000000E+00  0.00000000E+00  0.00000000E+00
  0.00000000E+00  0.00000000E+00  0.00000000E+00
  0.00000000E+00  0.00000000E+00  0.00000000E+00
  0.00000000E+00  0.00000000E+00  0.00000000E+00
  0.00000000E+00  0.00000000E+00  0.00000000E+00
  0.00000000E+00  0.00000000E+00  0.00000000E+00
  0.00000000E+00  0.00000000E+00  0.00000000E+00
  0.00000000E+00  0.00000000E+00  0.00000000E+00
  0.00000000E+00  0.00000000E+00  0.00000000E+00
  0.00000000E+00  0.00000000E+00  0.00000000E+00
  0.00000000E+00  0.00000000E+00  0.00000000E+00
  0.00000000E+00  0.00000000E+00  0.00000000E+00
  0.00000000E+00  0.00000000E+00  0.00000000E+00
  0.00000000E+00  0.00000000E+00  0.00000000E+00
  0.00000000E+00  0.00000000E+00  0.00000000E+00
  0.00000000E+00  0.00000000E+00  0.00000000E+00
  0.00000000E+00  0.00000000E+00  0.00000000E+00
  0.00000000E+00  0.00000000E+00  0.00000000E+00
  0.00000000E+00  0.00000000E+00  0.00000000E+00
  0.00000000E+00  0.00000000E+00  0.00000000E+00
  0.00000000E+00  0.00000000E+00  0.00000000E+00
  0.00000000E+00  0.00000000E+00  0.00000000E+00
  0.00000000E+00  0.00000000E+00  0.00000000E+00
  0.00000000E+00  0.00000000E+00  0.00000000E+00
  0.00000000E+00  0.00000000E+00  0.00000000E+00
  0.00000000E+00  0.00000000E+00  0.00000000E+00
  0.00000000E+00  0.00000000E+00  0.00000000E+00
  0.00000000E+00  0.00000000E+00  0.00000000E+00
  0.00000000E+00  0.00000000E+00  0.00000000E+00
  0.00000000E+00  0.00000000E+00  0.00000000E+00
  0.00000000E+00  0.00000000E+00  0.00000000E+00
  0.00000000E+00  0.00000000E+00  0.00000000E+00
  0.00000000E+00  0.00000000E+00  0.00000000E+00
  0.00000000E+00  0.00000000E+00  0.00000000E+00
  0.00000000E+00  0.00000000E+00  0.00000000E+00
  0.00000000E+00  0.00000000E+00  0.00000000E+00
  0.00000000E+00  0.00000000E+00  0.00000000E+00
  0.00000000E+00  0.00000000E+00  0.00000000E+00
  0.00000000E+00  0.00000000E+00  0.00000000E+00
  0.00000000E+00  0.00000000E+00  0.00000000E+00
  0.00000000E+00  0.00000000E+00  0.00000000E+00
  0.00000000E+00  0.00000000E+00  0.00000000E+00
  0.00000000E+00  0.00000000E+00  0.00000000E+00
  0.00000000E+00  0.00000000E+00  0.00000000E+00
  0.00000000E+00  0.00000000E+00  0.00000000E+00
  0.00000000E+00  0.00000000E+00  0.00000000E+00
  0.00000000E+00  0.00000000E+00  0.00000000E+00
  0.00000000E+00  0.00000000E+00  0.00000000E+00
  0.00000000E+00  0.00000000E+00  0.00000000E+00
  0.00000000E+00  0.00000000E+00  0.00000000E+00
  0.00000000E+00  0.00000000E+00  0.00000000E+00
  0.00000000E+00  0.00000000E+00  0.00000000E+00
  0.00000000E+00  0.00000000E+00  0.00000000E+00
  0.00000000E+00  0.00000000E+00  0.00000000E+00
  0.00000000E+00  0.00000000E+00  0.00000000E+00
  0.00000000E+00  0.00000000E+00  0.00000000E+00
  0.00000000E+00  0.00000000E+00  0.00000000E+00
  0.00000000E+00  0.00000000E+00  0.00000000E+00
  0.00000000E+00  0.00000000E+00  0.00000000E+00
  0.00000000E+00  0.00000000E+00  0.00000000E+00
  0.00000000E+00  0.00000000E+00  0.00000000E+00
  0.00000000E+00  0.00000000E+00  0.00000000E+00
  0.00000000E+00  0.00000000E+00  0.00000000E+00
  0.00000000E+00  0.00000000E+00  0.00000000E+00
  0.00000000E+00  0.00000000E+00  0.00000000E+00
  0.00000000E+00  0.00000000E+00  0.00000000E+00
  0.00000000E+00  0.00000000E+00  0.00000000E+00
  0.00000000E+00  0.00000000E+00  0.00000000E+00
  0.00000000E+00  0.00000000E+00  0.00000000E+00
  0.00000000E+00  0.00000000E+00  0.00000000E+00
  0.00000000E+00  0.00000000E+00  0.00000000E+00
  0.00000000E+00  0.00000000E+00  0.00000000E+00
  0.00000000E+00  0.00000000E+00  0.00000000E+00
  0.00000000E+00  0.00000000E+00  0.00000000E+00
  0.00000000E+00  0.00000000E+00  0.00000000E+00
  0.00000000E+00  0.00000000E+00  0.00000000E+00
  0.00000000E+00  0.00000000E+00  0.00000000E+00
  0.00000000E+00  0.00000000E+00  0.00000000E+00
  0.00000000E+00  0.00000000E+00  0.00000000E+00
  0.00000000E+00  0.00000000E+00  0.00000000E+00
