Ge4 Te4                                 
   1.00000000000000     
    18.0257282257000000    0.0000000000000000    0.0000000000000000
     0.0000000000000000   18.0257282257000000    0.0000000000000000
     0.0000000000000000    0.0000000000000000   18.0257282257000000
   Ge   Te
   108   108
Selective dynamics
Direct
  0.0000000000000000  0.0000000000000000  0.6666666999999999   F   F   F
  0.0000000000000000  0.3333333500000000  0.6666666999999999   F   F   F
  0.0000000000000000  0.6666666999999999  0.6666666999999999   F   F   F
  0.3333333500000000  0.0000000000000000  0.6666666999999999   F   F   F
  0.3333333500000000  0.3333333500000000  0.6666666999999999   F   F   F
  0.3333333500000000  0.6666666999999999  0.6666666999999999   F   F   F
  0.6666666999999999  0.0000000000000000  0.6666666999999999   F   F   F
  0.6666666999999999  0.3333333500000000  0.6666666999999999   F   F   F
  0.6666666999999999  0.6666666999999999  0.6666666999999999   F   F   F
  0.0000000000000000  0.1666666800000000  0.5000000000000000   F   F   F
  0.0000000000000000  0.1666666800000000  0.8333333500000000   F   F   F
  0.0000000000000000  0.5000000000000000  0.5000000000000000   F   F   F
  0.0000000000000000  0.5000000000000000  0.8333333500000000   F   F   F
  0.0000000000000000  0.8333333500000000  0.5000000000000000   F   F   F
  0.0000000000000000  0.8333333500000000  0.8333333500000000   F   F   F
  0.3333333500000000  0.1666666800000000  0.5000000000000000   F   F   F
  0.3333333500000000  0.1666666800000000  0.8333333500000000   F   F   F
  0.3333333500000000  0.5000000000000000  0.5000000000000000   F   F   F
  0.3333333500000000  0.5000000000000000  0.8333333500000000   F   F   F
  0.3333333500000000  0.8333333500000000  0.5000000000000000   F   F   F
  0.3333333500000000  0.8333333500000000  0.8333333500000000   F   F   F
  0.6666666999999999  0.1666666800000000  0.5000000000000000   F   F   F
  0.6666666999999999  0.1666666800000000  0.8333333500000000   F   F   F
  0.6666666999999999  0.5000000000000000  0.5000000000000000   F   F   F
  0.6666666999999999  0.5000000000000000  0.8333333500000000   F   F   F
  0.6666666999999999  0.8333333500000000  0.5000000000000000   F   F   F
  0.6666666999999999  0.8333333500000000  0.8333333500000000   F   F   F
  0.1666666800000000  0.0000000000000000  0.5000000000000000   F   F   F
  0.1666666800000000  0.0000000000000000  0.8333333500000000   F   F   F
  0.1666666800000000  0.3333333500000000  0.5000000000000000   F   F   F
  0.1666666800000000  0.3333333500000000  0.8333333500000000   F   F   F
  0.1666666800000000  0.6666666999999999  0.5000000000000000   F   F   F
  0.1666666800000000  0.6666666999999999  0.8333333500000000   F   F   F
  0.5000000000000000  0.0000000000000000  0.5000000000000000   F   F   F
  0.5000000000000000  0.0000000000000000  0.8333333500000000   F   F   F
  0.5000000000000000  0.3333333500000000  0.5000000000000000   F   F   F
  0.5000000000000000  0.3333333500000000  0.8333333500000000   F   F   F
  0.5000000000000000  0.6666666999999999  0.5000000000000000   F   F   F
  0.5000000000000000  0.6666666999999999  0.8333333500000000   F   F   F
  0.8333333500000000  0.0000000000000000  0.5000000000000000   F   F   F
  0.8333333500000000  0.0000000000000000  0.8333333500000000   F   F   F
  0.8333333500000000  0.3333333500000000  0.5000000000000000   F   F   F
  0.8333333500000000  0.3333333500000000  0.8333333500000000   F   F   F
  0.8333333500000000  0.6666666999999999  0.5000000000000000   F   F   F
  0.8333333500000000  0.6666666999999999  0.8333333500000000   F   F   F
  0.1666666800000000  0.1666666800000000  0.6666666999999999   F   F   F
  0.1666666800000000  0.5000000000000000  0.6666666999999999   F   F   F
  0.1666666800000000  0.8333333500000000  0.6666666999999999   F   F   F
  0.5000000000000000  0.1666666800000000  0.6666666999999999   F   F   F
  0.5000000000000000  0.5000000000000000  0.6666666999999999   F   F   F
  0.5000000000000000  0.8333333500000000  0.6666666999999999   F   F   F
  0.8333333500000000  0.1666666800000000  0.6666666999999999   F   F   F
  0.8333333500000000  0.5000000000000000  0.6666666999999999   F   F   F
  0.8333333500000000  0.8333333500000000  0.6666666999999999   F   F   F
  0.5986797995001547  0.2510667321918476  0.2343718333721229   T   T   T
  0.0991204986640028  0.9742036884338332  0.0051050893600560   T   T   T
  0.9096356267091434  0.4408748785223829  0.3917798753654008   T   T   T
  0.2140115058248443  0.9180669226896254  0.2522194462513244   T   T   T
  0.4236950366989601  0.7418175421656994  0.4070835821686177   T   T   T
  0.9407729635958997  0.1290189582157592  0.3004274369293789   T   T   T
  0.9766771420287584  0.7994705846194493  0.1336008861375056   T   T   T
  0.5192430813198268  0.5545323247393293  0.0520928671111519   T   T   T
  0.2893998955017422  0.2993231596417252  0.3179173255306754   T   T   T
  0.8307441523851216  0.3473924130801899  0.2930825547078484   T   T   T
  0.7651405895651199  0.5656401872982246  0.1721687472458771   T   T   T
  0.4157506824636282  0.4171185849349645  0.4146912406317110   T   T   T
  0.9397545170227189  0.6916310597458409  0.2172553158063634   T   T   T
  0.3769635309124109  0.4624568199106378  0.2467913003485662   T   T   T
  0.0935190121291749  0.8383115327882309  0.3008350741611966   T   T   T
  0.1614373131057543  0.3913416068717260  0.2090909187449712   T   T   T
  0.4888230663250597  0.6516558847898091  0.2240408905967040   T   T   T
  0.9604630464823345  0.1062860502805460  0.0739230877744164   T   T   T
  0.1686344631713454  0.9401837546558538  0.1232504920178872   T   T   T
  0.6552789451757738  0.3937001921347362  0.2682987397030379   T   T   T
  0.2908561208521676  0.1120268822773043  0.1993055709765169   T   T   T
  0.3417690191759404  0.8829878228515289  0.1955513579443503   T   T   T
  0.5284165701450148  0.9787354846097676  0.1425051474513692   T   T   T
  0.5617584760855104  0.4270374136902964  0.3675293130434448   T   T   T
  0.0599858179144810  0.6329230210485622  0.0696078938386437   T   T   T
  0.1713664082211393  0.8001346526779258  0.1091609981468605   T   T   T
  0.5855002376171128  0.7536653901598163  0.4387231790741186   T   T   T
  0.4673222833754281  0.3042659521497973  0.0529956982346687   T   T   T
  0.6566418432369259  0.4075389224980180  0.0421807098112429   T   T   T
  0.1765199302099679  0.1130049983593548  0.3689000645492422   T   T   T
  0.9397010110173110  0.3112718226736602  0.0711363768213214   T   T   T
  0.8517516428393519  0.4664294330007168  0.2209447364222223   T   T   T
  0.4514695735939966  0.0593269337426337  0.0515237102656414   T   T   T
  0.1334110891218527  0.4367850853275468  0.0114664684707789   T   T   T
  0.0211728488241390  0.5921519220374445  0.1484294145024349   T   T   T
  0.0737349632613620  0.4255878252494256  0.4104964287062212   T   T   T
  0.2079964879106225  0.2093648572517271  0.1483029884390956   T   T   T
  0.3288458019800125  0.5368575124194478  0.3732505285555942   T   T   T
  0.9194316116178579  0.6977931395664100  0.3968047364068015   T   T   T
  0.5216765126879178  0.7532739787992597  0.1108128832495782   T   T   T
  0.0122165883382363  0.5540198223681647  0.2795157052834288   T   T   T
  0.7992769205525367  0.1387830057456800  0.1659446276000636   T   T   T
  0.7867266865807701  0.2200284725175062  0.0342708286469059   T   T   T
  0.7879128913913516  0.7321837742497082  0.0189469689467260   T   T   T
  0.9455566491601811  0.9246378196247269  0.3845586787515857   T   T   T
  0.7205504940293483  0.6290259332642191  0.3364933719515283   T   T   T
  0.3933105390249119  0.8359439039575560  0.0672071870449611   T   T   T
  0.6860400831307922  0.1349983527288130  0.3719914333846089   T   T   T
  0.7686704774318970  0.0383656176737147  0.3737540070719293   T   T   T
  0.4295712599952911  0.0391150562361554  0.3686090348286613   T   T   T
  0.3856540736892963  0.7244441372227499  0.1526338562619508   T   T   T
  0.6603975537155322  0.6799985253907124  0.2151170676944638   T   T   T
  0.2487960743224676  0.8297026930428933  0.3584109926503697   T   T   T
    0.6867266865807701  0.3200284725175062  0.3342708286469059   T   T   T
  0.1666666800000000  0.0000000000000000  0.6666666999999999   F   F   F
  0.1666666800000000  0.3333333500000000  0.6666666999999999   F   F   F
  0.1666666800000000  0.6666666999999999  0.6666666999999999   F   F   F
  0.5000000000000000  0.0000000000000000  0.6666666999999999   F   F   F
  0.5000000000000000  0.3333333500000000  0.6666666999999999   F   F   F
  0.5000000000000000  0.6666666999999999  0.6666666999999999   F   F   F
  0.8333333500000000  0.0000000000000000  0.6666666999999999   F   F   F
  0.8333333500000000  0.3333333500000000  0.6666666999999999   F   F   F
  0.8333333500000000  0.6666666999999999  0.6666666999999999   F   F   F
  0.1666666800000000  0.1666666800000000  0.5000000000000000   F   F   F
  0.1666666800000000  0.1666666800000000  0.8333333500000000   F   F   F
  0.1666666800000000  0.5000000000000000  0.5000000000000000   F   F   F
  0.1666666800000000  0.5000000000000000  0.8333333500000000   F   F   F
  0.1666666800000000  0.8333333500000000  0.5000000000000000   F   F   F
  0.1666666800000000  0.8333333500000000  0.8333333500000000   F   F   F
  0.5000000000000000  0.1666666800000000  0.5000000000000000   F   F   F
  0.5000000000000000  0.1666666800000000  0.8333333500000000   F   F   F
  0.5000000000000000  0.5000000000000000  0.5000000000000000   F   F   F
  0.5000000000000000  0.5000000000000000  0.8333333500000000   F   F   F
  0.5000000000000000  0.8333333500000000  0.5000000000000000   F   F   F
  0.5000000000000000  0.8333333500000000  0.8333333500000000   F   F   F
  0.8333333500000000  0.1666666800000000  0.5000000000000000   F   F   F
  0.8333333500000000  0.1666666800000000  0.8333333500000000   F   F   F
  0.8333333500000000  0.5000000000000000  0.5000000000000000   F   F   F
  0.8333333500000000  0.5000000000000000  0.8333333500000000   F   F   F
  0.8333333500000000  0.8333333500000000  0.5000000000000000   F   F   F
  0.8333333500000000  0.8333333500000000  0.8333333500000000   F   F   F
  0.0000000000000000  0.0000000000000000  0.5000000000000000   F   F   F
  0.0000000000000000  0.0000000000000000  0.8333333500000000   F   F   F
  0.0000000000000000  0.3333333500000000  0.5000000000000000   F   F   F
  0.0000000000000000  0.3333333500000000  0.8333333500000000   F   F   F
  0.0000000000000000  0.6666666999999999  0.5000000000000000   F   F   F
  0.0000000000000000  0.6666666999999999  0.8333333500000000   F   F   F
  0.3333333500000000  0.0000000000000000  0.5000000000000000   F   F   F
  0.3333333500000000  0.0000000000000000  0.8333333500000000   F   F   F
  0.3333333500000000  0.3333333500000000  0.5000000000000000   F   F   F
  0.3333333500000000  0.3333333500000000  0.8333333500000000   F   F   F
  0.3333333500000000  0.6666666999999999  0.5000000000000000   F   F   F
  0.3333333500000000  0.6666666999999999  0.8333333500000000   F   F   F
  0.6666666999999999  0.0000000000000000  0.5000000000000000   F   F   F
  0.6666666999999999  0.0000000000000000  0.8333333500000000   F   F   F
  0.6666666999999999  0.3333333500000000  0.5000000000000000   F   F   F
  0.6666666999999999  0.3333333500000000  0.8333333500000000   F   F   F
  0.6666666999999999  0.6666666999999999  0.5000000000000000   F   F   F
  0.6666666999999999  0.6666666999999999  0.8333333500000000   F   F   F
  0.0000000000000000  0.1666666800000000  0.6666666999999999   F   F   F
  0.0000000000000000  0.5000000000000000  0.6666666999999999   F   F   F
  0.0000000000000000  0.8333333500000000  0.6666666999999999   F   F   F
  0.3333333500000000  0.1666666800000000  0.6666666999999999   F   F   F
  0.3333333500000000  0.5000000000000000  0.6666666999999999   F   F   F
  0.3333333500000000  0.8333333500000000  0.6666666999999999   F   F   F
  0.6666666999999999  0.1666666800000000  0.6666666999999999   F   F   F
  0.6666666999999999  0.5000000000000000  0.6666666999999999   F   F   F
  0.6666666999999999  0.8333333500000000  0.6666666999999999   F   F   F
    0.0880105577072833  0.2613472668599782  0.4061102998683686   T   T   T
  0.7048051025739078  0.5574594435954163  0.0415545336959448   T   T   T
  0.3002715792412156  0.3332034107433026  0.1697183899286641   T   T   T
  0.1533312382223480  0.2310252044548929  0.2784447524836186   T   T   T
  0.8471436651621101  0.8478361931699027  0.0826106714368636   T   T   T
  0.4084508802112889  0.1857884596268748  0.1609125439430976   T   T   T
  0.5292223727273569  0.4219811464224990  0.1301103016751682   T   T   T
  0.9434574227670579  0.2014112468737433  0.1732158610940493   T   T   T
  0.7434561645149936  0.4125418009886724  0.3846419801212693   T   T   T
  0.9071447276900156  0.2502581632005112  0.4152649854291870   T   T   T
  0.7943544172219744  0.7191933920375920  0.1832620806188455   T   T   T
  0.6017278782283362  0.5751575112383082  0.3991761301736014   T   T   T
  0.2454332185569003  0.6538899772974095  0.3787944601778830   T   T   T
  0.0576831986542215  0.0457170751672414  0.3392962059866330   T   T   T
  0.1006759343344344  0.0972010616717691  0.0915921007439083   T   T   T
  0.5649791045019559  0.7269341985840033  0.3099168028938896   T   T   T
  0.3803113836182991  0.8990327459728614  0.3853061588301495   T   T   T
  0.8775579012018976  0.5784533700105893  0.3362218380785538   T   T   T
  0.0563001710227676  0.7841773213590302  0.0098152808416480   T   T   T
  0.1599060472361423  0.5253172219984631  0.1349524158271876   T   T   T
  0.3159748357103392  0.0082058871220161  0.0989281167807882   T   T   T
  0.4691760065502358  0.9216694283006424  0.2597333129845648   T   T   T
  0.9324323256191208  0.4764278614005383  0.0991976781611926   T   T   T
  0.5448674818862485  0.1449246100393763  0.3502767652368087   T   T   T
  0.4605354114183269  0.5653701121474816  0.3424515327871098   T   T   T
  0.7416486895926174  0.2245169297273862  0.2804651396700311   T   T   T
  0.8814298742001067  0.9961672949281458  0.0970983070790820   T   T   T
  0.0237668452918232  0.4154861242457474  0.2766636519314445   T   T   T
  0.6710303549478376  0.0438559731825004  0.2062333799528730   T   T   T
  0.9123792543366156  0.0776542391693043  0.4220424004589997   T   T   T
  0.7593038182298001  0.7465309788816212  0.4025669573016354   T   T   T
  0.6106945746712975  0.8663068045654864  0.1081182904763639   T   T   T
  0.2800125890350460  0.7237389891096148  0.0487864069980985   T   T   T
  0.9349790943690300  0.8051933830419471  0.3139746713270444   T   T   T
  0.2811974691891426  0.0328499660545233  0.3208660237416195   T   T   T
  0.7581065387024551  0.9021196483409685  0.3859819348183555   T   T   T
  0.6067188553465621  0.2463996648960887  0.0615696461045876   T   T   T
  0.1006246826220935  0.6141916917145761  0.3666781076386224   T   T   T
  0.2320166079085690  0.4418140466784384  0.3368433269674938   T   T   T
  0.3950115077819185  0.5779504094649939  0.1356773324752431   T   T   T
  0.6275926942162046  0.5376652336148616  0.2391712767358904   T   T   T
  0.4576091266762307  0.3391933008014027  0.2955594383698615   T   T   T
  0.1259556672778123  0.7188768153800703  0.2218122204635268   T   T   T
  0.0303040730924261  0.9237640507896030  0.1923530161914430   T   T   T
  0.8476132360616390  0.0159323344611940  0.2579799833673385   T   T   T
  0.0947183904069133  0.3017170744493817  0.0779645492324704   T   T   T
  0.5740664005540783  0.9844099305007469  0.3877037022502969   T   T   T
  0.0895473842939443  0.9161459768180059  0.4216009493112348   T   T   T
  0.7558851670558064  0.3645374044450554  0.1490785716193691   T   T   T
  0.3440883797539780  0.7406985514879574  0.2836253348546742   T   T   T
  0.4117230148772035  0.2393007766194787  0.4056822812032757   T   T   T
  0.6178003927982241  0.8633823701721350  0.3279911039176456   T   T   T
  0.5488136146499909  0.1243056119718885  0.1682677141918240   T   T   T
  0.9634172494153190  0.2821176207693156  0.2917337930073794   T   T   T
 
  0.00000000E+00  0.00000000E+00  0.00000000E+00
  0.00000000E+00  0.00000000E+00  0.00000000E+00
  0.00000000E+00  0.00000000E+00  0.00000000E+00
  0.00000000E+00  0.00000000E+00  0.00000000E+00
  0.00000000E+00  0.00000000E+00  0.00000000E+00
  0.00000000E+00  0.00000000E+00  0.00000000E+00
  0.00000000E+00  0.00000000E+00  0.00000000E+00
  0.00000000E+00  0.00000000E+00  0.00000000E+00
  0.00000000E+00  0.00000000E+00  0.00000000E+00
  0.00000000E+00  0.00000000E+00  0.00000000E+00
  0.00000000E+00  0.00000000E+00  0.00000000E+00
  0.00000000E+00  0.00000000E+00  0.00000000E+00
  0.00000000E+00  0.00000000E+00  0.00000000E+00
  0.00000000E+00  0.00000000E+00  0.00000000E+00
  0.00000000E+00  0.00000000E+00  0.00000000E+00
  0.00000000E+00  0.00000000E+00  0.00000000E+00
  0.00000000E+00  0.00000000E+00  0.00000000E+00
  0.00000000E+00  0.00000000E+00  0.00000000E+00
  0.00000000E+00  0.00000000E+00  0.00000000E+00
  0.00000000E+00  0.00000000E+00  0.00000000E+00
  0.00000000E+00  0.00000000E+00  0.00000000E+00
  0.00000000E+00  0.00000000E+00  0.00000000E+00
  0.00000000E+00  0.00000000E+00  0.00000000E+00
  0.00000000E+00  0.00000000E+00  0.00000000E+00
  0.00000000E+00  0.00000000E+00  0.00000000E+00
  0.00000000E+00  0.00000000E+00  0.00000000E+00
  0.00000000E+00  0.00000000E+00  0.00000000E+00
  0.00000000E+00  0.00000000E+00  0.00000000E+00
  0.00000000E+00  0.00000000E+00  0.00000000E+00
  0.00000000E+00  0.00000000E+00  0.00000000E+00
  0.00000000E+00  0.00000000E+00  0.00000000E+00
  0.00000000E+00  0.00000000E+00  0.00000000E+00
  0.00000000E+00  0.00000000E+00  0.00000000E+00
  0.00000000E+00  0.00000000E+00  0.00000000E+00
  0.00000000E+00  0.00000000E+00  0.00000000E+00
  0.00000000E+00  0.00000000E+00  0.00000000E+00
  0.00000000E+00  0.00000000E+00  0.00000000E+00
  0.00000000E+00  0.00000000E+00  0.00000000E+00
  0.00000000E+00  0.00000000E+00  0.00000000E+00
  0.00000000E+00  0.00000000E+00  0.00000000E+00
  0.00000000E+00  0.00000000E+00  0.00000000E+00
  0.00000000E+00  0.00000000E+00  0.00000000E+00
  0.00000000E+00  0.00000000E+00  0.00000000E+00
  0.00000000E+00  0.00000000E+00  0.00000000E+00
  0.00000000E+00  0.00000000E+00  0.00000000E+00
  0.00000000E+00  0.00000000E+00  0.00000000E+00
  0.00000000E+00  0.00000000E+00  0.00000000E+00
  0.00000000E+00  0.00000000E+00  0.00000000E+00
  0.00000000E+00  0.00000000E+00  0.00000000E+00
  0.00000000E+00  0.00000000E+00  0.00000000E+00
  0.00000000E+00  0.00000000E+00  0.00000000E+00
  0.00000000E+00  0.00000000E+00  0.00000000E+00
  0.00000000E+00  0.00000000E+00  0.00000000E+00
  0.00000000E+00  0.00000000E+00  0.00000000E+00
 -0.15490162E-03  0.31617163E-02 -0.28519522E-03
 -0.57591302E-04  0.32963769E-03 -0.15083818E-02
  0.12378952E-02 -0.15589096E-02 -0.94534037E-03
 -0.54152268E-03 -0.63015526E-04 -0.52767245E-03
  0.78113523E-03  0.11606021E-03 -0.16683584E-02
  0.16816382E-02  0.16149982E-02 -0.59638153E-02
  0.25200963E-03  0.39920135E-04 -0.53784147E-03
  0.83669236E-03 -0.49707644E-04 -0.71827310E-03
  0.62571311E-04 -0.36358250E-03 -0.62310208E-03
  0.37110231E-03  0.39390803E-03 -0.15701796E-02
 -0.49620933E-03 -0.75073874E-04 -0.52666599E-03
 -0.63017645E-03  0.98920391E-03 -0.25729454E-02
  0.11981653E-02 -0.14189292E-02 -0.16950227E-02
 -0.25241061E-03 -0.24444234E-03 -0.19833055E-02
  0.78257376E-03 -0.16648254E-02 -0.28235519E-02
  0.40433945E-04 -0.44509102E-03 -0.23439552E-02
 -0.50687477E-03 -0.32442648E-02 -0.35316482E-02
  0.89833122E-03  0.56828421E-03 -0.59316346E-02
 -0.10411958E-03  0.70829743E-03 -0.11395239E-02
 -0.79081692E-03 -0.25591271E-02 -0.14925811E-02
 -0.13463660E-02 -0.53165413E-03 -0.95660928E-03
 -0.58011746E-03  0.74936326E-04 -0.15725364E-02
 -0.39223482E-03 -0.29122315E-03 -0.19662610E-02
  0.50770423E-03 -0.28731725E-02  0.11152254E-03
 -0.11188817E-04  0.28044605E-04 -0.55155542E-03
  0.91161870E-04  0.23320979E-03 -0.13603739E-03
 -0.45314285E-03 -0.62561326E-03 -0.17118338E-02
  0.50575589E-03 -0.23147367E-03 -0.62220130E-03
 -0.25127208E-03 -0.31476221E-03 -0.12386662E-02
  0.59024471E-03  0.65155633E-03 -0.10417778E-02
 -0.76012758E-03  0.11321088E-02 -0.17596798E-02
  0.43776525E-03  0.58362989E-03 -0.96115879E-03
 -0.11619002E-04  0.36255334E-03 -0.84935365E-03
 -0.22318013E-03  0.10868942E-02 -0.22394000E-02
  0.56489887E-03  0.84541629E-04 -0.21188979E-02
  0.53481195E-02 -0.12407477E-03 -0.15674230E-02
  0.42283065E-03  0.67946250E-04 -0.38750263E-02
 -0.14589686E-02  0.13083309E-03 -0.15753270E-02
 -0.21292949E-02  0.55710955E-03 -0.48974490E-03
  0.83561794E-03 -0.14227966E-02 -0.17893400E-02
 -0.11319672E-02  0.13532292E-02 -0.20197986E-02
 -0.19101797E-02 -0.83991006E-03 -0.19914654E-02
  0.11917776E-03  0.10534819E-02  0.83039295E-03
 -0.11891588E-02 -0.20495971E-02 -0.54418407E-03
 -0.67015901E-02  0.26411517E-02 -0.10273402E-02
  0.22647510E-02 -0.31135216E-02 -0.36977121E-02
  0.14064970E-03  0.15850316E-02 -0.21862139E-02
 -0.12237129E-02  0.93358332E-03 -0.10932849E-02
  0.30349234E-02  0.39590088E-03  0.17071774E-02
 -0.44417433E-04  0.16653387E-02 -0.26788967E-03
 -0.16722654E-02  0.27949409E-02 -0.86585384E-03
 -0.27486856E-03  0.38676940E-03 -0.19785060E-02
 -0.80763944E-03  0.62270477E-03 -0.32364708E-02
 -0.18311040E-02 -0.11683426E-02  0.12780490E-02
  0.00000000E+00  0.00000000E+00  0.00000000E+00
  0.00000000E+00  0.00000000E+00  0.00000000E+00
  0.00000000E+00  0.00000000E+00  0.00000000E+00
  0.00000000E+00  0.00000000E+00  0.00000000E+00
  0.00000000E+00  0.00000000E+00  0.00000000E+00
  0.00000000E+00  0.00000000E+00  0.00000000E+00
  0.00000000E+00  0.00000000E+00  0.00000000E+00
  0.00000000E+00  0.00000000E+00  0.00000000E+00
  0.00000000E+00  0.00000000E+00  0.00000000E+00
  0.00000000E+00  0.00000000E+00  0.00000000E+00
  0.00000000E+00  0.00000000E+00  0.00000000E+00
  0.00000000E+00  0.00000000E+00  0.00000000E+00
  0.00000000E+00  0.00000000E+00  0.00000000E+00
  0.00000000E+00  0.00000000E+00  0.00000000E+00
  0.00000000E+00  0.00000000E+00  0.00000000E+00
  0.00000000E+00  0.00000000E+00  0.00000000E+00
  0.00000000E+00  0.00000000E+00  0.00000000E+00
  0.00000000E+00  0.00000000E+00  0.00000000E+00
  0.00000000E+00  0.00000000E+00  0.00000000E+00
  0.00000000E+00  0.00000000E+00  0.00000000E+00
  0.00000000E+00  0.00000000E+00  0.00000000E+00
  0.00000000E+00  0.00000000E+00  0.00000000E+00
  0.00000000E+00  0.00000000E+00  0.00000000E+00
  0.00000000E+00  0.00000000E+00  0.00000000E+00
  0.00000000E+00  0.00000000E+00  0.00000000E+00
  0.00000000E+00  0.00000000E+00  0.00000000E+00
  0.00000000E+00  0.00000000E+00  0.00000000E+00
  0.00000000E+00  0.00000000E+00  0.00000000E+00
  0.00000000E+00  0.00000000E+00  0.00000000E+00
  0.00000000E+00  0.00000000E+00  0.00000000E+00
  0.00000000E+00  0.00000000E+00  0.00000000E+00
  0.00000000E+00  0.00000000E+00  0.00000000E+00
  0.00000000E+00  0.00000000E+00  0.00000000E+00
  0.00000000E+00  0.00000000E+00  0.00000000E+00
  0.00000000E+00  0.00000000E+00  0.00000000E+00
  0.00000000E+00  0.00000000E+00  0.00000000E+00
  0.00000000E+00  0.00000000E+00  0.00000000E+00
  0.00000000E+00  0.00000000E+00  0.00000000E+00
  0.00000000E+00  0.00000000E+00  0.00000000E+00
  0.00000000E+00  0.00000000E+00  0.00000000E+00
  0.00000000E+00  0.00000000E+00  0.00000000E+00
  0.00000000E+00  0.00000000E+00  0.00000000E+00
  0.00000000E+00  0.00000000E+00  0.00000000E+00
  0.00000000E+00  0.00000000E+00  0.00000000E+00
  0.00000000E+00  0.00000000E+00  0.00000000E+00
  0.00000000E+00  0.00000000E+00  0.00000000E+00
  0.00000000E+00  0.00000000E+00  0.00000000E+00
  0.00000000E+00  0.00000000E+00  0.00000000E+00
  0.00000000E+00  0.00000000E+00  0.00000000E+00
  0.00000000E+00  0.00000000E+00  0.00000000E+00
  0.00000000E+00  0.00000000E+00  0.00000000E+00
  0.00000000E+00  0.00000000E+00  0.00000000E+00
  0.00000000E+00  0.00000000E+00  0.00000000E+00
  0.00000000E+00  0.00000000E+00  0.00000000E+00
 -0.11709530E-02 -0.41740750E-04 -0.27812509E-02
 -0.20156387E-03  0.24837544E-03 -0.91782985E-03
  0.29086706E-03  0.40905259E-03 -0.78343766E-03
  0.78366056E-03 -0.17448458E-03 -0.29029634E-02
 -0.34791282E-03 -0.94241347E-03 -0.73049408E-03
 -0.73952481E-03  0.16658456E-02 -0.82998020E-03
 -0.89980567E-04  0.12705684E-03 -0.23914519E-03
 -0.77518107E-03 -0.51650818E-03 -0.31050158E-02
 -0.98351326E-03  0.15019693E-02 -0.16157780E-02
 -0.23182038E-02  0.27544229E-03 -0.35562832E-02
  0.87854249E-03  0.49384640E-03 -0.14868955E-02
  0.54776363E-03 -0.48924408E-05 -0.30441852E-02
 -0.66979582E-03  0.79398051E-03 -0.28811960E-02
  0.29196594E-03  0.13616204E-02 -0.35295342E-02
  0.10508726E-02 -0.17767737E-03 -0.46762119E-03
 -0.20388909E-02 -0.83834796E-03 -0.17109111E-02
  0.48922965E-03 -0.67358897E-03 -0.26378423E-02
 -0.93813959E-03 -0.13885579E-02 -0.17377965E-02
 -0.18486753E-03 -0.27980231E-03 -0.62564410E-03
  0.52470672E-03  0.21133955E-03 -0.29153018E-03
 -0.28377629E-05 -0.41496178E-03 -0.77181797E-03
  0.88611783E-04 -0.15527720E-03 -0.17489490E-02
  0.10890937E-03 -0.22592195E-03 -0.10262563E-02
 -0.28672267E-03  0.18834170E-02 -0.34216710E-02
 -0.83562948E-03  0.83210083E-03 -0.26805448E-02
  0.20841612E-03  0.34269746E-03 -0.93345917E-03
 -0.44139218E-03  0.90478055E-03 -0.15176229E-02
  0.54836514E-03  0.20277178E-02 -0.33262675E-02
  0.21403741E-02 -0.18515075E-02 -0.30873853E-03
 -0.29218505E-03 -0.25051356E-03 -0.57728414E-02
 -0.18928199E-03  0.78470595E-04 -0.54905352E-02
  0.99560335E-03 -0.75210154E-03 -0.59966470E-03
 -0.29787179E-03  0.65036810E-04 -0.13706289E-02
 -0.75385946E-04  0.33675945E-03 -0.28944408E-02
  0.13575225E-02 -0.64405365E-03 -0.33430841E-04
  0.92937919E-03  0.79385742E-03 -0.39143585E-02
  0.65942026E-03  0.48116770E-03 -0.81591417E-03
 -0.95049122E-03 -0.29809264E-03 -0.65217370E-03
 -0.21301201E-02 -0.10028036E-02 -0.51904104E-04
 -0.11416517E-02 -0.18725210E-02 -0.13095758E-02
 -0.20714595E-03 -0.10343578E-02 -0.17378324E-02
  0.97937657E-03  0.32545399E-03 -0.36845272E-02
  0.24653433E-03 -0.82080485E-03 -0.49138555E-03
 -0.35184102E-03  0.16078434E-03 -0.27355739E-03
  0.26295116E-03 -0.73728553E-03 -0.11876726E-02
 -0.23856418E-03  0.23958589E-03 -0.16539714E-03
 -0.69461357E-04  0.25960294E-02 -0.50516611E-02
  0.53021168E-03 -0.42172793E-03 -0.86664382E-02
  0.26481371E-03 -0.74778911E-03 -0.15704079E-02
 -0.40301592E-03  0.36887300E-03 -0.13494666E-02
 -0.24034382E-03 -0.15607199E-02 -0.55517936E-02
  0.26285750E-02 -0.38974475E-04 -0.40747386E-02
  0.94823147E-03 -0.33175183E-04  0.30972579E-03
  0.34132528E-02  0.56388228E-03 -0.19446648E-02
 
           1
   3.00000000000000     
  0.10000000E+01  0.00000000E+00  0.00000000E+00  0.00000000E+00
  0.00000000E+00  0.00000000E+00  0.66666670E+00
  0.00000000E+00  0.33333335E+00  0.66666670E+00
  0.00000000E+00  0.66666670E+00  0.66666670E+00
  0.33333335E+00  0.00000000E+00  0.66666670E+00
  0.33333335E+00  0.33333335E+00  0.66666670E+00
  0.33333335E+00  0.66666670E+00  0.66666670E+00
  0.66666670E+00  0.00000000E+00  0.66666670E+00
  0.66666670E+00  0.33333335E+00  0.66666670E+00
  0.66666670E+00  0.66666670E+00  0.66666670E+00
  0.00000000E+00  0.16666668E+00  0.50000000E+00
  0.00000000E+00  0.16666668E+00  0.83333335E+00
  0.00000000E+00  0.50000000E+00  0.50000000E+00
  0.00000000E+00  0.50000000E+00  0.83333335E+00
  0.00000000E+00  0.83333335E+00  0.50000000E+00
  0.00000000E+00  0.83333335E+00  0.83333335E+00
  0.33333335E+00  0.16666668E+00  0.50000000E+00
  0.33333335E+00  0.16666668E+00  0.83333335E+00
  0.33333335E+00  0.50000000E+00  0.50000000E+00
  0.33333335E+00  0.50000000E+00  0.83333335E+00
  0.33333335E+00  0.83333335E+00  0.50000000E+00
  0.33333335E+00  0.83333335E+00  0.83333335E+00
  0.66666670E+00  0.16666668E+00  0.50000000E+00
  0.66666670E+00  0.16666668E+00  0.83333335E+00
  0.66666670E+00  0.50000000E+00  0.50000000E+00
  0.66666670E+00  0.50000000E+00  0.83333335E+00
  0.66666670E+00  0.83333335E+00  0.50000000E+00
  0.66666670E+00  0.83333335E+00  0.83333335E+00
  0.16666668E+00  0.00000000E+00  0.50000000E+00
  0.16666668E+00  0.00000000E+00  0.83333335E+00
  0.16666668E+00  0.33333335E+00  0.50000000E+00
  0.16666668E+00  0.33333335E+00  0.83333335E+00
  0.16666668E+00  0.66666670E+00  0.50000000E+00
  0.16666668E+00  0.66666670E+00  0.83333335E+00
  0.50000000E+00  0.00000000E+00  0.50000000E+00
  0.50000000E+00  0.00000000E+00  0.83333335E+00
  0.50000000E+00  0.33333335E+00  0.50000000E+00
  0.50000000E+00  0.33333335E+00  0.83333335E+00
  0.50000000E+00  0.66666670E+00  0.50000000E+00
  0.50000000E+00  0.66666670E+00  0.83333335E+00
  0.83333335E+00  0.00000000E+00  0.50000000E+00
  0.83333335E+00  0.00000000E+00  0.83333335E+00
  0.83333335E+00  0.33333335E+00  0.50000000E+00
  0.83333335E+00  0.33333335E+00  0.83333335E+00
  0.83333335E+00  0.66666670E+00  0.50000000E+00
  0.83333335E+00  0.66666670E+00  0.83333335E+00
  0.16666668E+00  0.16666668E+00  0.66666670E+00
  0.16666668E+00  0.50000000E+00  0.66666670E+00
  0.16666668E+00  0.83333335E+00  0.66666670E+00
  0.50000000E+00  0.16666668E+00  0.66666670E+00
  0.50000000E+00  0.50000000E+00  0.66666670E+00
  0.50000000E+00  0.83333335E+00  0.66666670E+00
  0.83333335E+00  0.16666668E+00  0.66666670E+00
  0.83333335E+00  0.50000000E+00  0.66666670E+00
  0.83333335E+00  0.83333335E+00  0.66666670E+00
  0.59865402E+00  0.25159293E+00  0.23432437E+00