Se Ge Sb Te                             
   1.00000000000000     
    17.7059702800124879    0.0000000000000000    0.0000000000000000
     0.0000000000000000   17.7059702800124879    0.0000000000000000
     0.0000000000000000    0.0000000000000000   17.7059702800124879
   Se   Ge   Sb   Te
     8    32    32    80
Direct
  0.5667072201911059  0.3309295196332575  0.8005668548636321
  0.9611169417144986  0.9531628387414570  0.2498144472333685
  0.9093580492650516  0.6749618033265358  0.8665761080441837
  0.2708054119853542  0.2409731201363904  0.0752069803403290
  0.5395756011337293  0.8873689572645094  0.1146684987012818
  0.8164993751741760  0.5653356123686528  0.2615493388363272
  0.7278192759467310  0.2154166381987120  0.7289584357194934
  0.1213316945022012  0.0659274207086779  0.3446016230803428
  0.5710153735221412  0.3073217469085746  0.9340348464831513
  0.5397228977888161  0.4833343622283013  0.4561727544561923
  0.2576055663835093  0.6984933036824102  0.7220205434438444
  0.1119722997223046  0.5287996553547971  0.6962447077287670
  0.1145231842802573  0.0215692235948182  0.8614826322220376
  0.8226656062218376  0.6377679900609783  0.3961691028771874
  0.9344642866727809  0.4980022442755091  0.2037213555318001
  0.8659932856435675  0.9090949619044263  0.3421186263812516
  0.7737829961053251  0.5572357170168111  0.5873429216675931
  0.7588663583746988  0.1257045854928389  0.6186965659552736
  0.7701788372568807  0.6917137849556432  0.8008938345721209
  0.4383670958510132  0.5106558751813469  0.7651371189657460
  0.9489871855778933  0.8282744604917665  0.1617514613526710
  0.2974862016509474  0.6256509470744399  0.9834082679134940
  0.0732830534344465  0.9241976409871439  0.3358934223217921
  0.7560031550180667  0.4702753978897968  0.0693123172981247
  0.6422104647544522  0.8691102094393234  0.8642247712751299
  0.3431975716792837  0.1949101191593203  0.8213815987873405
  0.2640307923564298  0.4791932435602366  0.2999793399683690
  0.4313367784934313  0.9587300461518390  0.1921903522648170
  0.7404466149779553  0.1144406264823862  0.0950342759424839
  0.8438341895331888  0.1436173593519793  0.2954316278625846
  0.6572364205842962  0.4779286851097416  0.2912136909005349
  0.8544915672782991  0.6872462123990636  0.2080455954342618
  0.0670346922477639  0.7290998123534728  0.6088849950028223
  0.5929782859306172  0.1053560979149565  0.7350554773584692
  0.4708231717763924  0.8962045721337160  0.5792738607725127
  0.6400682585378600  0.2257716889754854  0.0995924020148440
  0.4742545428294647  0.4721036634746134  0.1778313931525614
  0.1911348522704613  0.1602849327992247  0.0025670427193711
  0.4420097672374055  0.1583108274984333  0.0281343351695560
  0.0223907538205123  0.8523165341421720  0.8251981726507117
  0.1059108665655930  0.9603027343822617  0.6123796561991580
  0.5025093688739894  0.4931626493250167  0.9909581506114796
  0.1297183098144285  0.5175035930336638  0.2351257711361980
  0.6370105366634948  0.9505281434023470  0.5948217409582950
  0.2437291699528223  0.3823967521062030  0.9925173617888388
  0.8866538816712937  0.2896501414170645  0.0570606700896117
  0.2668656442396212  0.1427749918687279  0.6891578787504876
  0.3852739344146968  0.5801860504211963  0.2957780349217400
  0.7176367853155796  0.3462165633765426  0.5812676325504782
  0.1045321330370551  0.2842922892659864  0.9700427545690118
  0.8287039414285685  0.7415604090972793  0.9841852714384460
  0.8095519876630720  0.3495789984988880  0.7122172101501052
  0.4230072425595194  0.3495947022177491  0.9834712633415434
  0.0951117743493745  0.3242278642486795  0.7737735545337666
  0.1341964170129371  0.4165103683538738  0.4926288420995919
  0.0339353994661946  0.3281149384812428  0.1148218236865373
  0.2331229141742172  0.1469794065905254  0.4514387021406364
  0.0956111128659164  0.1166592931616477  0.6796430223435496
  0.2888366252412347  0.3859797417279692  0.4217680700850311
  0.1101663721057996  0.2154106128592841  0.5409006222665230
  0.0650388814439026  0.7991835747916709  0.9982506138012752
  0.3359283634434998  0.2280035688607404  0.5682602805035731
  0.4049909519819425  0.0159237855556402  0.9755771192161803
  0.4089668878087380  0.7268943053674518  0.4333355365955716
  0.9338425649889553  0.4282747980139721  0.5267796996596967
  0.2991292596796464  0.4848433098915799  0.5960297732226315
  0.2762322312443564  0.0641686935359285  0.8820538704313220
  0.5858561997869138  0.8387500677821105  0.4005138288670168
  0.9236620829729500  0.0802874346971561  0.9322111802766796
  0.3005848661289726  0.1189784060573718  0.1880269539040723
  0.8507022234592725  0.5362512510447315  0.8836904586367479
  0.4603165745801882  0.8437301123309053  0.9918458226777086
  0.1471174655653643  0.9389002315327809  0.9920355967635940
  0.7667111135179404  0.8975501197965073  0.1947310912762643
  0.7506320616589888  0.9234906225190541  0.4751662923962771
  0.9252687902754184  0.8842981373746825  0.0200919496554061
  0.9115505895445734  0.4784838205354381  0.0135815292824111
  0.2246702394919777  0.4006168645367396  0.1781959624631113
  0.3252745642960608  0.8523593290518640  0.6249512372170682
  0.6522829807512026  0.6556056726859061  0.7035262288526332
  0.2988999092929971  0.0248409939887321  0.3132535043499787
  0.8255145494616163  0.3764695545001054  0.1842612985012449
  0.7069072798033863  0.2122564273416732  0.2864549819862209
  0.1935201465467134  0.3567788116622978  0.6335014147704845
  0.9586965351426707  0.9944851813876412  0.8005814011442622
  0.0664086078480785  0.1997056208093834  0.2147867586256112
  0.9545347992252177  0.5825202939424915  0.4605981036855651
  0.1859736158428895  0.8883004486116827  0.2401082102059400
  0.5841582481622526  0.1187221194521706  0.5660134088021556
  0.1028313118776267  0.7747824138726276  0.1617153581587509
  0.4004747163394106  0.5531448581541515  0.4553464331898951
  0.6360872494809728  0.4857698121284984  0.6257076209559187
  0.7219877519452252  0.7458869466640587  0.1694972902339393
  0.4320096696244049  0.8978397008216712  0.4216450601379766
  0.2517902699795656  0.3198220784485816  0.8356596887783716
  0.9389320765082346  0.2513130810060588  0.3611172619310895
  0.7188438248203167  0.3261005531954247  0.9977425024549312
  0.9256907883528755  0.6927189730693863  0.5683249616457693
  0.3058161956940548  0.9761469265318007  0.0898259196014734
  0.2875308581392029  0.6998792581951606  0.3252768764203925
  0.1754685776927724  0.5690488082047741  0.5216178548822014
  0.4190032013592734  0.3763803597360211  0.6697707611723316
  0.7217196415816640  0.0166771005360734  0.7186403421681589
  0.3237937949355506  0.8488083163049461  0.8823681405811997
  0.5837389093587529  0.4732023811613342  0.8364802446456679
  0.1680275558259685  0.9016799387902638  0.7682726842952058
  0.5901487332084888  0.1611260454348563  0.9727706024031142
  0.9258021554545366  0.7502129807090043  0.3339029774956052
  0.3024752094408790  0.6621287864614861  0.1320799220809247
  0.2798518041295884  0.7295129067239459  0.5393432670890050
  0.2697709233749657  0.5394021070100655  0.7450380720678117
  0.0422113057101998  0.4620263656839880  0.8257272506540542
  0.5332989327171112  0.7161242153925222  0.2919429693307717
  0.5154093576878251  0.9750975291784959  0.7920720206281636
  0.0061702863629085  0.1205039100457629  0.4270087438974747
  0.9942801296700057  0.9115393576853783  0.4697070604552101
  0.5154287723343755  0.4125724090277029  0.3129598206754334
  0.2231612856414188  0.7239731467523288  0.8865203588569117
  0.4324787828030578  0.0938413659531429  0.5431399156659124
  0.3658222015459416  0.0228736111594698  0.7363882517624352
  0.9468033657390617  0.6681877293550346  0.0848178519180492
  0.9590666624507953  0.2456436578201801  0.8836065004237474
  0.9079662832301336  0.1020427175242342  0.5993022855809376
  0.8905748000861494  0.1303973745503634  0.1222784867971747
  0.0097587733314803  0.4394819750926913  0.3201532287100001
  0.6854178220188590  0.0623331455102265  0.2340275180907121
  0.1994535150762516  0.2652850947013788  0.3428652122376916
  0.7710037511242271  0.0976257674711107  0.8873473518203590
  0.6229016473193372  0.5221837274373621  0.1499215652910987
  0.7166545800133208  0.6206368424611148  0.9259337253041694
  0.4872191430522144  0.3525336947018992  0.5340606091311193
  0.4684494225064332  0.6190222070319903  0.6572771546812335
  0.6255787877781632  0.6039449310868023  0.3724248687101906
  0.4289757654621787  0.6091553788119998  0.9075896042522159
  0.7795028208633398  0.4431289374699896  0.4684601574068716
  0.5524494087885556  0.7624135115692020  0.5362350371989643
  0.1088636709660826  0.0841584638051780  0.1055672079739618
  0.8721849340905605  0.9324950605262402  0.5836392616537086
  0.7936248309108135  0.8388828868668017  0.8403078143179348
  0.9330917023053782  0.2857158255664700  0.6179682529998997
  0.1866175716837321  0.5360502012792949  0.9489896317387861
  0.5951968462717707  0.7532493409908123  0.9493384384530229
  0.4697855580585305  0.3226592558501953  0.1308087779524067
  0.9641321780153964  0.8337506954170246  0.6853071958776127
  0.7460120851054993  0.9883634809341617  0.0095984066481118
  0.4337111956292776  0.7652636877503117  0.1291289940719818
  0.6169882073428368  0.8156211776202910  0.7222615754277910
  0.2523879096574589  0.9788458464710303  0.5418833335553918
  0.4075229676190664  0.7417013363395478  0.7435279137747821
  0.0603888619563882  0.6581024063470083  0.7387321125561084
  0.4722846373059004  0.1146565529681833  0.1709439743071742
  0.8880851366324325  0.4906686927844489  0.6724620874572366
 
  0.30618906E-02  0.75773222E-03 -0.85639800E-03
 -0.31942153E-02  0.71471556E-03 -0.20922195E-02
  0.20692837E-02 -0.12518074E-02  0.14429865E-02
 -0.43211847E-04  0.25289061E-05 -0.13213904E-02
  0.20654776E-03  0.65916966E-03  0.89894293E-03
 -0.22181139E-02  0.88054993E-04  0.11631161E-02
  0.66589652E-03 -0.60102040E-03  0.13283706E-02
  0.21559052E-02  0.51279721E-03  0.42283220E-03
  0.12995666E-02 -0.31615206E-02  0.27844552E-02
 -0.27282079E-02  0.95729290E-03 -0.13726244E-02
 -0.22909788E-02 -0.52112413E-03  0.53728281E-03
 -0.11168150E-02 -0.27518833E-02  0.28908205E-02
  0.23758885E-04 -0.15135612E-02 -0.83360757E-03
 -0.43903424E-02 -0.14107709E-02  0.19933215E-03
 -0.13141791E-02  0.37100995E-02  0.45871293E-03
  0.40595633E-03  0.63594691E-03  0.16618659E-02
 -0.16677755E-02 -0.10975845E-02 -0.28848566E-02
  0.10355052E-02 -0.11179781E-02  0.39688555E-02
 -0.70325121E-03  0.33789532E-04  0.11227209E-02
 -0.17347573E-02 -0.35267290E-03  0.30051375E-03
  0.17995156E-02  0.17565712E-02 -0.30548012E-03
  0.37817459E-04  0.84856558E-04 -0.12943055E-02
 -0.14022101E-02 -0.91079140E-03 -0.23919352E-02
  0.37093242E-02 -0.68496974E-03  0.14431406E-02
 -0.28989033E-02  0.46263621E-05 -0.12638011E-02
  0.23905760E-03 -0.10318469E-02 -0.14289248E-03
  0.18488269E-03 -0.84583649E-03  0.16416720E-02
 -0.21951368E-03 -0.21396481E-02 -0.10775491E-03
  0.69013467E-03  0.17214192E-02 -0.14788010E-02
  0.12864723E-02  0.43296248E-03 -0.15455159E-02
 -0.18402074E-02  0.77255453E-03  0.44020360E-03
  0.37607233E-03  0.59506317E-03 -0.42385615E-02
 -0.43288129E-03  0.60599039E-02 -0.15804505E-02
 -0.12522866E-02 -0.23032608E-02  0.10200317E-02
  0.17538819E-02  0.27908566E-02  0.15880664E-02
  0.19981701E-02  0.40506161E-02 -0.11814860E-02
 -0.90934981E-03 -0.16844059E-02  0.59919932E-03
  0.11083033E-02 -0.40007756E-02 -0.15811628E-02
 -0.99986470E-03  0.61106860E-03 -0.15556542E-02
 -0.66440276E-03  0.13435891E-02  0.73631353E-03
 -0.40070142E-02 -0.14117093E-03  0.12932416E-03
 -0.10145416E-02 -0.22733474E-03 -0.70190105E-03
  0.86404293E-03  0.27827964E-03 -0.10508299E-02
 -0.14181532E-03  0.57025218E-03  0.29136993E-04
  0.12024144E-02 -0.12747373E-02 -0.14547234E-02
 -0.28329265E-02 -0.15285830E-02 -0.22493228E-02
  0.84181957E-03 -0.11141514E-02  0.13286923E-02
  0.27536803E-03 -0.14521702E-02 -0.21353578E-02
 -0.37189027E-03  0.18480491E-03  0.11706153E-02
  0.14515165E-02 -0.33997806E-03  0.77100351E-03
  0.21489677E-02  0.12133339E-02  0.99894022E-04
  0.45625902E-03  0.16956590E-03 -0.78957081E-03
 -0.13242394E-02  0.16185851E-02  0.65211674E-03
 -0.65123903E-03  0.22290534E-03  0.18933732E-03
 -0.22843890E-03 -0.87350434E-03 -0.42503440E-03
  0.14152578E-02 -0.17469638E-03  0.88999539E-04
  0.22863099E-02  0.69917930E-03  0.30264521E-02
  0.21150889E-03 -0.19416783E-02  0.36689871E-03
 -0.32206698E-03  0.40503603E-03  0.47822305E-03
  0.23429012E-02  0.72558332E-03  0.78651589E-03
 -0.18693576E-03  0.47710495E-03  0.17525272E-02
  0.72418075E-03  0.10071769E-02 -0.19433496E-02
 -0.15137086E-02  0.22164735E-03  0.17531213E-02
  0.17647748E-02 -0.63727206E-03 -0.18018783E-02
 -0.13571463E-02 -0.22302686E-02 -0.89331345E-03
  0.15593677E-02 -0.76491109E-03  0.20822284E-02
  0.95390629E-03 -0.12050633E-02  0.13524345E-02
  0.18658478E-02  0.23106732E-02 -0.13460523E-03
 -0.49224353E-03 -0.24144161E-02 -0.24102244E-02
 -0.19016244E-02  0.35196916E-03  0.25385707E-03
  0.50995922E-03 -0.33920255E-03  0.18884259E-02
 -0.12737958E-02 -0.10927294E-02 -0.37381092E-03
  0.68254380E-03  0.54347870E-03 -0.29529369E-02
 -0.24252838E-03 -0.51242556E-03 -0.38222300E-03
  0.39031568E-03  0.59397298E-03  0.45542722E-03
 -0.18513205E-02  0.30017830E-02 -0.14684445E-02
 -0.10174444E-02 -0.23939644E-03 -0.10693277E-02
  0.12503147E-02 -0.69098416E-03  0.26582012E-03
  0.22288951E-02 -0.10222579E-02  0.26429417E-03
  0.16205963E-02  0.13190384E-02  0.32775528E-03
  0.25182940E-03 -0.38212416E-03 -0.66514481E-04
 -0.18620270E-02 -0.12933210E-02  0.11380645E-02
 -0.41074913E-04  0.17090995E-02 -0.79729601E-05
 -0.65945426E-03  0.12518361E-02 -0.34260471E-03
 -0.11543591E-02 -0.16175430E-02 -0.47912180E-03
 -0.43789951E-03  0.19502765E-02 -0.20357636E-03
 -0.37528235E-04 -0.69555060E-03 -0.53836834E-03
  0.14748383E-02 -0.29993445E-03  0.20846396E-02
 -0.85875024E-03 -0.19732698E-02  0.16259065E-02
 -0.11764394E-03 -0.15535388E-02 -0.29990228E-02
 -0.42545005E-03 -0.15758184E-03 -0.15745752E-02
 -0.66992771E-03 -0.25798501E-02 -0.68586293E-03
 -0.26474539E-02 -0.17866006E-03 -0.10692625E-02
  0.13452643E-02  0.62651763E-03  0.17273081E-02
 -0.35054020E-03  0.14006831E-03 -0.10272863E-02
  0.13953434E-02  0.64639705E-03 -0.10761159E-02
  0.63993989E-03  0.21510946E-02  0.47236993E-03
 -0.18695176E-03  0.35179400E-03 -0.21258257E-03
 -0.71016627E-03 -0.93676085E-03 -0.42484210E-03
  0.11063739E-02 -0.16325292E-02  0.91861753E-03
  0.55142458E-03 -0.10272379E-02  0.12763235E-02
 -0.87279999E-04 -0.19686170E-03 -0.22733017E-02
 -0.32659009E-02  0.18626107E-03 -0.39779900E-03
  0.52895310E-03 -0.20449951E-02  0.24177605E-02
  0.77032468E-03  0.10307900E-02 -0.70874293E-03
 -0.60380469E-03 -0.44447955E-03 -0.16969223E-03
 -0.14217826E-02  0.40873781E-03 -0.15689894E-02
 -0.10898844E-02 -0.28543920E-02 -0.16333283E-02
 -0.76775744E-03 -0.32232104E-02  0.16782574E-03
  0.30415372E-02  0.95039783E-05  0.20519228E-03
 -0.13579709E-02  0.70470443E-03  0.16419320E-02
 -0.14459206E-03  0.21081276E-02 -0.16017063E-02
 -0.19323681E-02  0.19741154E-02  0.43196500E-03
  0.79754756E-03  0.12528566E-03 -0.14774610E-02
 -0.32738524E-02  0.95465065E-03 -0.51405945E-02
  0.40611660E-03  0.80126317E-03 -0.59891406E-03
  0.64061985E-03  0.53495603E-03 -0.71845963E-03
  0.16364142E-02  0.30334331E-02 -0.32043900E-04
 -0.40643867E-03  0.77305420E-04 -0.63645604E-03
  0.36372042E-02 -0.20398284E-02  0.57643718E-03
 -0.35750125E-03 -0.28294641E-03 -0.17401057E-02
  0.18489566E-03  0.22130980E-03  0.87437360E-03
  0.23616019E-02 -0.17534318E-02  0.24927602E-02
  0.66029104E-03  0.26349537E-02  0.86024439E-03
 -0.13566419E-02 -0.12399222E-02  0.63796581E-03
 -0.12675248E-02 -0.10213770E-02  0.11520124E-02
  0.25449644E-02 -0.58435187E-03  0.10705394E-02
 -0.12339240E-02  0.29680840E-02  0.19560201E-02
 -0.14811408E-03 -0.18137098E-02 -0.34601623E-03
  0.21896127E-02  0.25994322E-02 -0.43606730E-03
 -0.19623622E-02 -0.14400724E-02 -0.55504501E-03
  0.17404772E-02 -0.42837636E-03 -0.67642129E-03
 -0.10448252E-02  0.11501584E-02  0.20973634E-03
  0.36674401E-05  0.62635030E-03  0.22793161E-02
  0.12461863E-02  0.18063282E-02  0.48681455E-03
 -0.29606318E-03 -0.34745066E-03  0.18255751E-03
 -0.80824166E-03 -0.16889288E-03  0.18047356E-02
  0.14034099E-02 -0.21585749E-04  0.27120752E-03
 -0.38476803E-02  0.10860239E-02 -0.36688496E-03
  0.20841806E-02  0.15967701E-02 -0.15051558E-02
  0.18000347E-02  0.12999736E-02  0.34070807E-04
  0.26815336E-02 -0.19152329E-02  0.12852332E-02
 -0.67537129E-03 -0.88869017E-03  0.25818486E-03
 -0.84472756E-03 -0.18886740E-02  0.16343098E-02
  0.61696394E-04  0.18907466E-02  0.35180686E-03
 -0.19356474E-02  0.53808239E-03 -0.87625109E-03
 -0.16208500E-02 -0.38652432E-02  0.30053232E-03
  0.28715390E-02  0.14732557E-02  0.48080472E-03
  0.37387476E-03 -0.14380254E-02  0.22107928E-02
  0.12547263E-03  0.21392610E-02  0.25603532E-02
 -0.11545396E-02  0.28457474E-02 -0.44723057E-03
  0.70935538E-03  0.19805952E-02  0.79478292E-04
 
           1
   3.00000000000000     
  0.10000000E+01  0.00000000E+00  0.00000000E+00  0.00000000E+00
  0.56722513E+00  0.33105769E+00  0.80042200E+00
  0.96057665E+00  0.95328373E+00  0.24946055E+00
  0.90970806E+00  0.67475006E+00  0.86682019E+00
  0.27079810E+00  0.24097355E+00  0.74983470E-01
  0.53961054E+00  0.88748045E+00  0.11482055E+00
  0.81612419E+00  0.56535051E+00  0.26174608E+00
  0.72793191E+00  0.21531498E+00  0.72918313E+00
  0.12169636E+00  0.66014159E-01  0.34467314E+00
  0.57123519E+00  0.30678698E+00  0.93450583E+00
  0.53926143E+00  0.48349629E+00  0.45594058E+00
  0.25721805E+00  0.69840516E+00  0.72211142E+00
  0.11178339E+00  0.52833418E+00  0.69673368E+00
  0.11452720E+00  0.21313208E-01  0.86134163E+00
  0.82192299E+00  0.63752936E+00  0.39620282E+00
  0.93424200E+00  0.49862980E+00  0.20379895E+00
  0.86606195E+00  0.90920253E+00  0.34239973E+00
  0.77350090E+00  0.55705006E+00  0.58685495E+00
  0.75904151E+00  0.12551548E+00  0.61936789E+00
  0.77005988E+00  0.69171950E+00  0.80108374E+00
  0.43807367E+00  0.51059622E+00  0.76518795E+00
  0.94929157E+00  0.82857158E+00  0.16169979E+00
  0.29749260E+00  0.62566530E+00  0.98318934E+00
  0.73045873E-01  0.92404358E+00  0.33548883E+00
  0.75663058E+00  0.47015954E+00  0.69556421E-01
  0.64172012E+00  0.86911099E+00  0.86401100E+00
  0.34323801E+00  0.19473558E+00  0.82135743E+00
  0.26406206E+00  0.47905017E+00  0.30025703E+00
  0.43129965E+00  0.95836813E+00  0.19217213E+00
  0.74056335E+00  0.11473180E+00  0.94784140E-01
  0.84405179E+00  0.14369059E+00  0.29517021E+00
  0.65692515E+00  0.47805936E+00  0.29128815E+00
  0.85455518E+00  0.68734687E+00  0.20732865E+00
  0.66961471E-01  0.73012483E+00  0.60861767E+00
  0.59276646E+00  0.10496651E+00  0.73522801E+00
  0.47111984E+00  0.89667664E+00  0.57954248E+00
  0.64040624E+00  0.22645684E+00  0.99392556E-01
  0.47410073E+00  0.47181875E+00  0.17793275E+00
  0.19132232E+00  0.15960821E+00  0.22995925E-02
  0.44184064E+00  0.15841419E+00  0.27871200E-01
  0.22278372E-01  0.85254380E+00  0.82532272E+00
  0.10523309E+00  0.96027886E+00  0.61240153E+00
  0.50233776E+00  0.49312420E+00  0.99083943E+00
  0.12986446E+00  0.51755066E+00  0.23494803E+00
  0.63698655E+00  0.95062460E+00  0.59482667E+00
  0.24393256E+00  0.38218113E+00  0.99227130E+00
  0.88617470E+00  0.28939158E+00  0.56680202E-01
  0.26700804E+00  0.14258654E+00  0.68938262E+00
  0.38532051E+00  0.57994042E+00  0.29541684E+00
  0.71757388E+00  0.34624782E+00  0.58146564E+00
  0.10477765E+00  0.28423478E+00  0.97017317E+00
  0.82906743E+00  0.74176564E+00  0.98420217E+00
  0.80962916E+00  0.34960768E+00  0.71208366E+00
  0.42278325E+00  0.34986848E+00  0.98358157E+00
  0.95001619E-01  0.32426557E+00  0.77380558E+00
  0.13415778E+00  0.41636262E+00  0.49255695E+00
  0.34174787E-01  0.32808539E+00  0.11483688E+00
  0.23350964E+00  0.14709767E+00  0.45195062E+00
  0.95646889E-01  0.11633086E+00  0.67970508E+00
  0.28878215E+00  0.38604825E+00  0.42184896E+00
  0.11056267E+00  0.21553334E+00  0.54103366E+00
  0.65007262E-01  0.79926428E+00  0.99854705E+00
  0.33605086E+00  0.22817393E+00  0.56793157E+00
  0.40473491E+00  0.15961277E-01  0.97587366E+00
  0.40926540E+00  0.72678651E+00  0.43303075E+00
  0.93361301E+00  0.42789755E+00  0.52662860E+00
  0.29939302E+00  0.48471393E+00  0.59638198E+00
  0.27639358E+00  0.63964860E-01  0.88228263E+00
  0.58617180E+00  0.83914091E+00  0.40049106E+00
  0.92357882E+00  0.79879042E-01  0.93180350E+00
  0.30026321E+00  0.11903794E+00  0.18806989E+00
  0.85078848E+00  0.53619388E+00  0.88400988E+00
  0.46010111E+00  0.84354528E+00  0.99178259E+00
  0.14723292E+00  0.93899216E+00  0.99153611E+00
  0.76667009E+00  0.89746344E+00  0.19466644E+00
  0.75069808E+00  0.92359109E+00  0.47524333E+00
  0.92495564E+00  0.88480588E+00  0.19843566E-01
  0.91137849E+00  0.47844333E+00  0.13400655E-01
  0.22488173E+00  0.40049999E+00  0.17824093E+00
  0.32565158E+00  0.85218642E+00  0.62499594E+00
  0.65255710E+00  0.65582879E+00  0.70358167E+00
  0.29894251E+00  0.24776359E-01  0.31324225E+00
  0.82519959E+00  0.37625079E+00  0.18445380E+00
  0.70690033E+00  0.21254552E+00  0.28645363E+00
  0.19340860E+00  0.35699056E+00  0.63344346E+00
  0.95850128E+00  0.99421158E+00  0.80050036E+00
  0.66334538E-01  0.20003551E+00  0.21475232E+00
  0.95452845E+00  0.58240264E+00  0.46050704E+00
  0.18622308E+00  0.88824972E+00  0.24046082E+00
  0.58401299E+00  0.11838835E+00  0.56628843E+00
  0.10281141E+00  0.77451964E+00  0.16120808E+00
  0.40040275E+00  0.55311820E+00  0.45508010E+00
  0.63597393E+00  0.48533344E+00  0.62559161E+00
  0.72153994E+00  0.74585673E+00  0.16931643E+00
  0.43223722E+00  0.89794567E+00  0.42193723E+00
  0.25173098E+00  0.31984577E+00  0.83548593E+00
  0.93916810E+00  0.25142242E+00  0.36093524E+00
  0.71895207E+00  0.32646441E+00  0.99782240E+00
  0.92565917E+00  0.69277848E+00  0.56828900E+00
  0.30569607E+00  0.97598848E+00  0.89754059E-01
  0.28771800E+00  0.69960312E+00  0.32543226E+00
  0.17556185E+00  0.56887505E+00  0.52183374E+00
  0.41898844E+00  0.37634706E+00  0.66938624E+00
  0.72116722E+00  0.16708606E-01  0.71857306E+00
  0.32388327E+00  0.84846241E+00  0.88277710E+00
  0.58386921E+00  0.47337674E+00  0.83636036E+00
  0.16792542E+00  0.90160476E+00  0.76824398E+00
  0.58990824E+00  0.16119518E+00  0.97250521E+00
  0.92561780E+00  0.74973017E+00  0.33362670E+00
  0.30234534E+00  0.66158359E+00  0.13210831E+00
  0.28036627E+00  0.72951451E+00  0.53937797E+00
  0.26954123E+00  0.53952131E+00  0.74531580E+00
  0.42186848E-01  0.46238295E+00  0.82545633E+00
  0.53297208E+00  0.71645813E+00  0.29201604E+00
  0.51554426E+00  0.97511872E+00  0.79182211E+00
  0.56165215E-02  0.12066539E+00  0.42613922E+00
  0.99434882E+00  0.91167489E+00  0.46960576E+00
  0.51553713E+00  0.41266290E+00  0.31283829E+00
  0.22343808E+00  0.72448625E+00  0.88651494E+00
  0.43241003E+00  0.93854442E-01  0.54303226E+00
  0.36643743E+00  0.22528579E-01  0.73648575E+00
  0.94674290E+00  0.66813987E+00  0.84523517E-01
  0.95909794E+00  0.24568109E+00  0.88375440E+00
  0.90836574E+00  0.10174613E+00  0.59972393E+00
  0.89068649E+00  0.13084307E+00  0.12242400E+00
  0.95293004E-02  0.43927225E+00  0.32026114E+00
  0.68520342E+00  0.62160382E-01  0.23422238E+00
  0.19988399E+00  0.26518625E+00  0.34304629E+00
  0.77079504E+00  0.98127812E-01  0.88767821E+00
  0.62287659E+00  0.52187694E+00  0.14986304E+00
  0.71702495E+00  0.62107653E+00  0.92585997E+00
  0.48688721E+00  0.35229011E+00  0.53396672E+00
  0.46874382E+00  0.61894975E+00  0.65716274E+00
  0.62540206E+00  0.60413948E+00  0.37246035E+00
  0.42897639E+00  0.60926132E+00  0.90797515E+00
  0.77971361E+00  0.44343447E+00  0.46854250E+00
  0.55239933E+00  0.76235474E+00  0.53626592E+00
  0.10872696E+00  0.84129896E-01  0.10587247E+00
  0.87242232E+00  0.93249141E+00  0.58368514E+00
  0.79297400E+00  0.83906659E+00  0.84024576E+00
  0.93344424E+00  0.28598592E+00  0.61771366E+00
  0.18692204E+00  0.53627009E+00  0.94899539E+00
  0.59565042E+00  0.75292538E+00  0.94955583E+00
  0.46967132E+00  0.32250894E+00  0.13085245E+00
  0.96398929E+00  0.83343123E+00  0.68558364E+00
  0.74602252E+00  0.98868330E+00  0.96579140E-02
  0.43338379E+00  0.76535470E+00  0.12898078E+00
  0.61671404E+00  0.81496738E+00  0.72231241E+00
  0.25287362E+00  0.97909504E+00  0.54196466E+00
  0.40758621E+00  0.74145810E+00  0.74390186E+00
  0.60410085E-01  0.65846426E+00  0.73916519E+00
  0.47208935E+00  0.11513790E+00  0.17086833E+00
  0.88820512E+00  0.49100371E+00  0.67247553E+00
  0.51646379E-03  0.12070313E-03 -0.14173492E-03
 -0.55902573E-03  0.11594991E-03 -0.34835202E-03
  0.34517940E-03 -0.21038602E-03  0.23492057E-03
 -0.14641870E-04 -0.72855325E-05 -0.21736955E-03
  0.36180898E-04  0.93789405E-04  0.14216420E-03
 -0.37611479E-03  0.21903126E-04  0.18705112E-03
  0.10920614E-03 -0.90770519E-04  0.23582104E-03
  0.37034725E-03  0.87495335E-04  0.68490119E-04
  0.21528447E-03 -0.54012042E-03  0.45077564E-03
 -0.46659482E-03  0.16414544E-03 -0.22880552E-03
 -0.37829186E-03 -0.79294065E-04  0.85766459E-04
 -0.19516514E-03 -0.44420241E-03  0.49695610E-03
 -0.42818567E-05 -0.24147940E-03 -0.12793577E-03
 -0.74795054E-03 -0.24392054E-03  0.37333119E-04
 -0.21164848E-03  0.63729924E-03  0.92597103E-04
  0.67657679E-04  0.13023494E-03  0.27945522E-03
 -0.27124979E-03 -0.19222896E-03 -0.47974093E-03
  0.19143788E-03 -0.21219379E-03  0.66458909E-03
 -0.12604638E-03 -0.31200786E-05  0.19390385E-03
 -0.29138921E-03 -0.55642791E-04  0.48026499E-04
  0.30649898E-03  0.29734600E-03 -0.68717567E-04
  0.97634796E-05  0.10193268E-04 -0.22300749E-03
 -0.23539972E-03 -0.17849102E-03 -0.39754026E-03
  0.62314948E-03 -0.92168906E-04  0.23909835E-03
 -0.48975244E-03 -0.53986497E-05 -0.21303644E-03
  0.52894279E-04 -0.16775819E-03 -0.15085622E-04
  0.28458557E-04 -0.15063266E-03  0.27115600E-03
 -0.41876174E-04 -0.36008622E-03 -0.11523179E-04
  0.11503735E-03  0.30022226E-03 -0.26644903E-03
  0.21875751E-03  0.69975756E-04 -0.25353177E-03
 -0.31145075E-03  0.13290854E-03  0.76022778E-04
  0.52522159E-04  0.86901894E-04 -0.71785258E-03
 -0.79270014E-04  0.10027521E-02 -0.25552626E-03
 -0.21571755E-03 -0.39403859E-03  0.17889674E-03
  0.28778867E-03  0.47404865E-03  0.28701623E-03
  0.32388404E-03  0.67086343E-03 -0.21162450E-03
 -0.16111465E-03 -0.28947166E-03  0.11327983E-03
  0.19065687E-03 -0.65492345E-03 -0.25411593E-03
 -0.16820478E-03  0.96873262E-04 -0.26056893E-03
 -0.12811006E-03  0.21979668E-03  0.12277542E-03
 -0.68378681E-03 -0.25713788E-04  0.10814113E-04
 -0.17756199E-03 -0.38827635E-04 -0.11348327E-03
  0.14718520E-03  0.46882057E-04 -0.18151269E-03
 -0.24406951E-04  0.96683420E-04  0.74231929E-05
  0.19972699E-03 -0.22004243E-03 -0.24578585E-03
 -0.48036390E-03 -0.25215912E-03 -0.37801287E-03
  0.14617352E-03 -0.19219496E-03  0.21648998E-03
  0.49622946E-04 -0.23818844E-03 -0.34935249E-03
 -0.47499333E-04  0.32032048E-04  0.19688034E-03
  0.25961892E-03 -0.56924575E-04  0.12365431E-03
  0.36059099E-03  0.19932086E-03  0.12885003E-04
  0.68012352E-04  0.39845759E-04 -0.13466492E-03
 -0.22329195E-03  0.27594454E-03  0.11696325E-03
 -0.10446233E-03  0.43329447E-04  0.30932207E-04
 -0.43622063E-04 -0.14747423E-03 -0.63875796E-04
  0.22866503E-03 -0.24523610E-04  0.93431132E-05
  0.38528488E-03  0.11429830E-03  0.50705700E-03
  0.32923309E-04 -0.32811553E-03  0.70325241E-04
 -0.40918496E-04  0.77132591E-04  0.80446684E-04
  0.40004296E-03  0.13524930E-03  0.13575525E-03
 -0.27547771E-04  0.74596032E-04  0.29630929E-03
  0.11866608E-03  0.17499124E-03 -0.32047786E-03
 -0.25891894E-03  0.35208381E-04  0.30872205E-03
  0.29633512E-03 -0.11294840E-03 -0.30343336E-03
 -0.23037340E-03 -0.37913403E-03 -0.15088647E-03
  0.25666315E-03 -0.12550439E-03  0.35021447E-03
  0.15716172E-03 -0.21247878E-03  0.23238892E-03
  0.32461659E-03  0.39342012E-03 -0.19861245E-04
 -0.83847544E-04 -0.41843618E-03 -0.41055907E-03
 -0.32681517E-03  0.66869157E-04  0.44825259E-04
  0.79558280E-04 -0.52329984E-04  0.33052181E-03
 -0.21980369E-03 -0.18208949E-03 -0.64399225E-04
  0.11964140E-03  0.93375543E-04 -0.49360217E-03
 -0.40772969E-04 -0.82577070E-04 -0.66255237E-04
  0.76711023E-04  0.95916593E-04  0.72822235E-04
 -0.31755839E-03  0.50372150E-03 -0.24122942E-03
 -0.17542379E-03 -0.37556161E-04 -0.18389266E-03
  0.21473876E-03 -0.11583511E-03  0.43922046E-04
  0.38134395E-03 -0.18056331E-03  0.39936463E-04
  0.27836897E-03  0.21645740E-03  0.55376581E-04
  0.42258935E-04 -0.58643410E-04 -0.15417578E-04
 -0.31343647E-03 -0.22857860E-03  0.19238931E-03
 -0.12851116E-04  0.29633886E-03  0.14835154E-05
 -0.11117448E-03  0.21215624E-03 -0.55925406E-04
 -0.19843166E-03 -0.27401340E-03 -0.79279761E-04
 -0.75074564E-04  0.32539648E-03 -0.20426540E-04
 -0.13898410E-04 -0.11971164E-03 -0.81922797E-04
  0.24621217E-03 -0.52454426E-04  0.35641368E-03
 -0.15666613E-03 -0.33195281E-03  0.26633928E-03
 -0.17284378E-04 -0.26238137E-03 -0.50697617E-03
 -0.75506337E-04 -0.24448910E-04 -0.26867331E-03
 -0.11937166E-03 -0.43074553E-03 -0.11676594E-03
 -0.45442754E-03 -0.35533230E-04 -0.17998447E-03
  0.22163184E-03  0.10294939E-03  0.28997564E-03
 -0.65874239E-04  0.20396388E-04 -0.17118266E-03
  0.23516755E-03  0.11470941E-03 -0.18348651E-03
  0.11888552E-03  0.36147673E-03  0.78840487E-04
 -0.19234496E-04  0.58181462E-04 -0.36338448E-04
 -0.12716338E-03 -0.15970077E-03 -0.88148657E-04
  0.19199945E-03 -0.28032456E-03  0.15932372E-03
  0.10164886E-03 -0.17657833E-03  0.21307450E-03
 -0.11730734E-04 -0.38089964E-04 -0.39047884E-03
 -0.55085290E-03  0.41685165E-04 -0.67048440E-04
  0.94029675E-04 -0.33949536E-03  0.41453830E-03
  0.13006970E-03  0.17650557E-03 -0.12027292E-03
 -0.91042843E-04 -0.83752888E-04 -0.28777039E-04
 -0.22881890E-03  0.76996935E-04 -0.25344943E-03
 -0.17039222E-03 -0.48484965E-03 -0.26744253E-03
 -0.13026660E-03 -0.54322190E-03  0.34107441E-04
  0.51797503E-03  0.58709448E-05  0.35158213E-04