Ge Se                                   
   1.00000000000000     
    20.9974268207400137    0.0000000000000000    0.0000000000000000
     0.0000000000000000   20.9974268207400101    0.0000000000000000
     0.0000000000000000    0.0000000000000000   20.9974268207400101
   Ge   Se
   152   148
Direct
  0.8776679933177882  0.8641040426849987  0.7552074082070127
  0.3770426031085474  0.3004445954767732  0.4131598945785179
  0.4811516815672944  0.8811287001972536  0.0332700971418407
  0.0343325809816612  0.4704681830823348  0.2511030325607611
  0.8588209050089071  0.1396654549584770  0.1879016608222987
  0.6706744626683731  0.1094118371635112  0.7278826595442466
  0.5300048107714405  0.4526527129288048  0.7045681772021404
  0.0948143957510742  0.4253251501418389  0.9199132010835638
  0.0805861813753414  0.7525162376043972  0.1974178071645603
  0.1590370668562339  0.9458482354029983  0.8273300754434951
  0.3651453958074797  0.7476532388495544  0.8729803783818793
  0.1468695823028198  0.2306283503919705  0.8721676721008109
  0.2970314029818223  0.1060022482090874  0.6685074443911849
  0.5699209368143440  0.1793778890488587  0.3573119647715225
  0.5639294013347766  0.4708160056783000  0.0663712625824156
  0.5954432829825524  0.9857598335251904  0.9488534917166862
  0.6247771335873534  0.3188867588449348  0.5576089242138995
  0.7825748430833317  0.5277697549065354  0.9518230111366556
  0.8695487507230022  0.2685494119730304  0.9116999460500828
  0.0303811109533533  0.2765193153383065  0.4488976774463763
  0.3439956066720665  0.9401406775630684  0.7203826622152889
  0.2037724631928066  0.3347472643690816  0.5397035423365548
  0.8635969296958097  0.3351078498426051  0.1484447346829427
  0.3407238903699545  0.6268904082681518  0.4718537046217590
  0.1557146082090782  0.9076533035215927  0.1090165930745778
  0.7140246888804612  0.4693665165342850  0.5748419410138080
  0.3530675174401474  0.8800976213643399  0.1258926496107415
  0.3999222850773060  0.3038297928276989  0.1075118827711164
  0.0345308104023711  0.9713859239916207  0.3625214074654828
  0.5604779944947359  0.6271812102024980  0.9618073817874586
  0.2391550594523919  0.8086189694824178  0.5443619988755078
  0.3114732312085668  0.5601192988674869  0.9101739290470043
  0.3602959774254320  0.7598172027184361  0.0885169885260487
  0.4681091208663571  0.2168759528429262  0.0058424422755248
  0.3839802474185677  0.9039758978909013  0.9539886370137981
  0.1367803291524305  0.1724290990599388  0.6454834342015741
  0.5256622206229149  0.2751814098742038  0.8147347210321788
  0.9605976498232879  0.6417451398088162  0.3087784406488412
  0.9140468896231684  0.8100003941044894  0.4870141227866965
  0.9957790871046370  0.5281503515585615  0.0991306536745267
  0.8699720149427053  0.4116463303673655  0.6422781695105760
  0.1245103314282061  0.4224752850294322  0.4684541923063145
  0.4904580119357375  0.0184383814944787  0.3497997826749814
  0.0026830151535549  0.3106985055248027  0.7986897067597960
  0.9597773853094550  0.6939141830070746  0.9261973869003342
  0.5293780909379480  0.1255622690496095  0.9235845332712654
  0.6500926507397170  0.8961245166267089  0.1901850515266227
  0.8369649849692804  0.3870711751112381  0.9404818507825123
  0.7894561076790796  0.1133376951008215  0.4522412064841591
  0.5004047184035194  0.7964756432839890  0.2239107571859714
  0.0142532867929625  0.3854406225028844  0.3958993985429193
  0.5162881231977974  0.1003994196657911  0.0592989081231590
  0.9486700514683460  0.8017845528414975  0.1003943996671369
  0.7120634133002784  0.0376567296033357  0.6336069866294227
  0.6674733230621550  0.0371627768903936  0.4609790367030274
  0.1934571660496356  0.9732711973005881  0.3246930198126599
  0.8251751199874979  0.2028703845029198  0.3692351354770458
  0.5333989672564576  0.1617558504201656  0.6476379780916387
  0.2669283222661912  0.5067888079725240  0.6143933089117521
  0.9127031750346333  0.4629830692626802  0.2645880946310719
  0.5077310127931995  0.9338401838136112  0.7494838692434862
  0.9940325724379461  0.8274466364398948  0.6771349442273359
  0.4774548890401173  0.6677461477164736  0.4160637175458836
  0.8473268198804419  0.6977074919082924  0.0607765876902671
  0.3096791203736368  0.6562373181816769  0.6288706177178965
  0.0611368435360643  0.8891904155032153  0.0004885905662764
  0.2204212916668375  0.9206057017463148  0.9660958824380070
  0.3944093212138469  0.9563046441268015  0.2656327148234012
  0.8549820205724213  0.5281272710550573  0.5078274562094106
  0.7062585711338574  0.6023145639739982  0.8802461515640650
  0.4706553280116383  0.3342456639253584  0.3318090662711578
  0.8935706218585843  0.7660109612583366  0.2067846128270023
  0.8042062446981592  0.2776140776859093  0.7387024438292941
  0.3258107007968524  0.5337557795478435  0.2555467699520304
  0.4336963031203749  0.5537514962267772  0.5184028161504612
  0.0192925179812012  0.6424168576598759  0.1453579829233337
  0.5841771059540342  0.5903806978500123  0.6984585246191806
  0.8915607849193167  0.4280915686333116  0.8377978073509511
  0.1263781173349983  0.8163985822138093  0.3750094066392285
  0.2155726573477131  0.9498390144785075  0.4800805845468799
  0.2828755559433801  0.2214887935543531  0.0039549928119669
  0.1730806498354372  0.4147142387639958  0.7483819731140436
  0.6099910763453175  0.8946578118239950  0.3947282885017850
  0.8787002961288142  0.4831103819389121  0.1024245893701995
  0.2570979703910971  0.3557591705089082  0.9520364827518276
  0.7196037572876306  0.0492235396642853  0.3196667111606405
  0.5765333080091049  0.7231871407910735  0.8160079101941745
  0.1342497031652815  0.5298062027128316  0.8679920907701327
  0.9594409249275422  0.0156419662564125  0.1766619436603300
  0.8224175399898124  0.0124474908491677  0.7364358066595399
  0.5623198924769214  0.4379819265584725  0.8943962474586363
  0.2745655976836200  0.4329316080440694  0.5108534742530446
  0.0157585651674727  0.2992018911040721  0.2557892662203848
  0.9115989179288265  0.2416100063837704  0.4486238207070936
  0.1414184102966309  0.2317944515556645  0.4990975918416310
  0.2868927112762780  0.2114381800539878  0.1931293546650693
  0.2784216854169691  0.3124835336338495  0.6348779404539532
  0.1508635870507380  0.5410566843206364  0.0362560531944298
  0.7139333443276915  0.5767326024380520  0.0614618239621228
  0.9686839589563828  0.5749705678179905  0.9065784979775863
  0.5678116226853613  0.6034102958214013  0.2521947773591546
  0.0946268695085980  0.7488817402189146  0.5420451648982064
  0.4555562589325655  0.6949681955304301  0.9753056977377256
  0.0111376372091623  0.7931000781921514  0.8686156248291260
  0.4738461409578978  0.7576224435419262  0.5544142992276448
  0.6331072079659336  0.2137515515186240  0.4849636929070049
  0.0046704366885695  0.4992901455810433  0.4435389363615676
  0.0084906091637894  0.0662908327476707  0.5166595207689449
  0.6277304252948213  0.9980574224857911  0.7730930195008444
  0.0948564706727601  0.0080609294889272  0.6697883886197263
  0.5927665541002242  0.3376061983594548  0.3806883835446976
  0.7027025634229678  0.7170897514366225  0.1943657099168487
  0.4431271044646838  0.8933894589875455  0.5884379064840634
  0.7015205389664966  0.2698530463755937  0.1588174781338783
  0.6825798721699864  0.6539890124059321  0.4021480865129077
  0.6418663648130160  0.2174123616664256  0.6707455552193096
  0.4696749451191395  0.0580797863183657  0.6456120000509161
  0.2573701111771406  0.7983888921659547  0.7519233206849103
  0.0064618693902297  0.4315486058236240  0.7986666419008904
  0.1461803393864497  0.1711698160474820  0.3282297877818645
  0.3958742275735337  0.1789247435908763  0.3293847422909809
  0.0276045907971964  0.3505234874236365  0.6185355702750583
  0.8042937358641037  0.2808818994473020  0.5255901601943250
  0.0100831227393539  0.8801163042238453  0.4501473226910198
  0.1257816463596643  0.6394604710241373  0.3664590847845959
  0.0162985147021110  0.4948008004689667  0.9839089288136339
  0.4046623208076410  0.3499755948071575  0.2254518604829440
  0.7910962693675118  0.1764785643266598  0.0146450092295059
  0.2586842953205407  0.0810071248765717  0.3262775073534560
  0.1526530238975175  0.1507254745228734  0.7734111759527601
  0.3704038321830416  0.4417770335151811  0.0217659152699678
  0.6918756783726008  0.6021739322159494  0.2403729714020081
  0.8400992841118006  0.6712499891384943  0.4497376641471017
  0.6233960034982715  0.7948936142387882  0.4636186233657557
  0.2582962927554126  0.5569234891210321  0.1037957279706451
  0.1158409947225053  0.8136388278873447  0.7147481443858590
  0.6708990282686477  0.4962164141504681  0.4218153938293944
  0.2066121953839726  0.3415573152956574  0.2096267792176677
  0.6540081096024890  0.1909463586058533  0.8591494988929550
  0.4662487596455286  0.3817613603611547  0.5511463731126616
  0.8425881268469588  0.9860016912006744  0.2913442770355035
  0.6641867608407888  0.0927506316426483  0.1773388476952291
  0.7715351924462038  0.3831821585173829  0.3365714135452534
  0.3308718392701483  0.7206652495939154  0.2828190687873647
  0.9400192458813018  0.0289736916830170  0.7852614891313886
  0.4408355755490562  0.2178085855021271  0.5871000884257845
  0.9049865242067692  0.8253239463824432  0.9321619198560576
  0.4124403563000805  0.0508725929835706  0.5371205842262367
  0.8852883606287250  0.1423600439876348  0.6885063249633632
  0.5957993302178697  0.5516241536783294  0.8720630500217568
  0.0173402900093959  0.6495353999790147  0.5191338965075780
  0.6572428659626030  0.3665862914521051  0.9276203718190235
  0.4052378592444668  0.1740838050250726  0.1095387962207378
  0.9036638580067727  0.2384433771037500  0.8004903279616243
  0.9310632649601578  0.9645996574240203  0.4957890908844356
  0.8320003870252364  0.0489128357610681  0.6230542680741457
  0.3308291033868576  0.4386932911936921  0.9047620708066665
  0.8146659753391223  0.5185629695747918  0.6241902291874851
  0.2115551635244063  0.3261755547061633  0.8452504095062400
  0.0302561951941892  0.8898947073583250  0.1198954925959735
  0.9072793400472012  0.6445817403584819  0.1836250133306309
  0.2434517478158341  0.6081852836008146  0.5393618449371185
  0.0246352665750975  0.6964830777707401  0.4100772602686572
  0.9083930153599016  0.1339445781134012  0.4944128443083678
  0.2784719369627802  0.3034440776905825  0.1078656717050321
  0.1757151930033360  0.7447562173930805  0.6307672350969472
  0.5006800737695482  0.7837846707113687  0.4377989626092057
  0.2768194352443868  0.4623618527169669  0.1698995290951269
  0.0474596251155349  0.5923466173726607  0.8217920279986695
  0.1948015376029466  0.9033067440877121  0.7138919733706997
  0.3267222122503082  0.7983927365060575  0.9795266550476509
  0.7289532527190783  0.6462260087759302  0.5049387619569657
  0.9338007572970938  0.4359672836078973  0.5152219587745869
  0.7503971343888148  0.1697910409760595  0.2235243118899656
  0.4927294433983616  0.0082460442254173  0.9079616643055054
  0.7145764145580058  0.9482347411535280  0.3874198792815610
  0.1346932132634648  0.4151432187632008  0.5974176532902640
  0.8799301339457597  0.8686859622768640  0.0357485171860816
  0.6041950352310713  0.0813620979646659  0.2858661477887649
  0.1318949177911424  0.9879138782835806  0.0194901298305723
  0.5302964497697050  0.4425662164343969  0.1715402059320193
  0.7421573231810963  0.2820213453150175  0.3988002488380862
  0.0061416473780541  0.7181793414501635  0.0362483263317346
  0.8261478150707897  0.7899244656123233  0.4196791695531700
  0.6374690103460950  0.4910477294524157  0.7367710242977784
  0.5872967586017218  0.4070789682272638  0.4818272280294855
  0.5406935449380564  0.2113508810851294  0.0986242035483803
  0.8681377572074599  0.5458567232707208  0.8506238500582304
  0.3952670643140435  0.3120485624104463  0.6401744079483925
  0.5200304413288422  0.6137593205382816  0.8077877649040726
  0.8440155324723475  0.7208796833419582  0.9345738380324529
  0.6553649779291433  0.4073191294038754  0.0399457020019203
  0.6555480612834526  0.4248059213049549  0.3228183327911430
  0.6728666497363818  0.7579046581985818  0.3609608585676076
  0.3816474853915618  0.5529308877004084  0.6262235353577449
  0.1989257671094356  0.5989009142297509  0.9419036605778750
  0.5485856101035529  0.3435258943510895  0.6452623798954238
  0.9176453490255292  0.5306524652437244  0.3638862722749431
  0.1599645146028276  0.7313943799324277  0.2922675469214800
  0.2977865619450172  0.8980614676622530  0.2266220382610599
  0.6228521948177852  0.0905497523255185  0.9951709316534917
  0.1652325027236232  0.8252688389004915  0.0204806633744347
  0.8665694503200785  0.0631008632319815  0.1064587061135336
  0.0672197117815637  0.2798782359904713  0.7089087247192998
  0.9145377406117028  0.7092972456733346  0.5491134297982838
  0.6699187603008385  0.6724098075848405  0.7231622495117535
  0.5782352955256357  0.1244089081469318  0.5457465582846471
  0.2531694624594892  0.0115500044112390  0.8579589412300440
  0.9126281733549085  0.9180835869046989  0.2313785924719204
  0.2900758555182125  0.6298103999035127  0.1944083153762049
  0.7645976631715379  0.3542295877499996  0.2159531602298701
  0.3027339068431913  0.3344783731343701  0.2820504734758455
  0.5845358211969794  0.7111462978983076  0.1964411067560174
  0.1730571854100132  0.4241909451727487  0.0134422004296836
  0.3575443187771394  0.0739747548862010  0.2604035167905708
  0.3431476886087640  0.9675622185478411  0.5930796861573899
  0.0264556795443557  0.2166093837529405  0.3452087799579637
  0.4198467345232772  0.8481066358542858  0.6963449921469954
  0.9828630664454899  0.4456834300230117  0.6827199000648257
  0.9124511664298652  0.0863226428493216  0.2757155855943916
  0.3527118783852972  0.7311695310972867  0.5364836487940940
  0.9035574493603101  0.1835674515272028  0.9788627107445724
  0.6466761746931723  0.7006089544973944  0.9160095582929008
  0.8359559540898498  0.9004745353795556  0.8691611994619626
  0.9247120069426255  0.3556522229570467  0.3193150102542052
  0.7421172682324094  0.5313961499731448  0.1672227199785022
  0.8635726361199668  0.5819675315606992  0.0229770631517157
  0.7423259464325247  0.8231291456613709  0.2137954654956438
  0.7234551239048693  0.6970690066948121  0.0764727833860389
  0.4812412210688726  0.7674444513972466  0.0730473722898600
  0.5909169319396358  0.5865995083889011  0.0736173486864736
  0.7567536018018323  0.6264868147126086  0.7798881171955848
  0.7509996436259826  0.2430225114649098  0.9148920982665486
  0.1917665493493507  0.0658080411847500  0.6167257162411136
  0.5782223884339387  0.2702076636375453  0.9263206175323904
  0.6401575906817681  0.2796304755895299  0.7750760770181414
  0.5494939906243840  0.9789086931922335  0.4484965148132740
  0.2354645450619549  0.8777889892126740  0.3819968034889379
  0.9842920542602550  0.9169079235921255  0.7664813999059674
  0.0929581432858859  0.0452560358791471  0.7877380099738175
  0.0994263848611011  0.3899559419383720  0.3099795434660177
  0.6796477660433717  0.9704497657287752  0.8743557223092023
  0.4930072155401863  0.2289171836076334  0.2732339022725693
  0.1812900079075694  0.7402837428288969  0.4618278622941279
  0.6963617036241576  0.9651825766860102  0.5479633728864233
  0.9238043850186461  0.2332908877184154  0.1764839728904057
  0.1663068117673972  0.2223599279301764  0.2185566125474842
  0.9301053019883274  0.4144399001721096  0.0122762757519248
  0.8701942541901001  0.2528746502817562  0.6380823909632876
  0.5123951646512465  0.6418466962897680  0.5389890022887409
  0.3050954777194639  0.0307429213584796  0.4277699203164164
  0.4283706330398466  0.0284533910845475  0.7527327525948808
  0.2504746751749348  0.2188267567194643  0.6983902572801934
  0.4483216072507114  0.7069738421718941  0.2891616548667157
  0.1319036761001379  0.0201046658021955  0.4204862382717691
  0.0162139439509296  0.0968695526644812  0.6315839811585883
  0.9935103955668160  0.7743498969379260  0.2714795016239185
  0.0820751244171875  0.8676525723974134  0.5437110086068510
  0.7295992560922809  0.9923519058919984  0.2098952130863406
  0.2941955990902916  0.6410063874128704  0.3659539142893201
  0.0645118759860380  0.5868160328402194  0.2647758339642587
  0.7801292694196279  0.1192780593004663  0.7708089956222293
  0.9418140265574255  0.7599478589861459  0.7725829039871502
  0.4828719373339259  0.7772797336743864  0.8936905391287213
  0.0732030448481996  0.4526230626036462  0.1451132919249791
  0.4579960494352149  0.9305989747786098  0.1384070809158668
  0.4930132512067665  0.3947154359738594  0.8115736961126382
  0.3513118206483622  0.5635086474691283  0.0292756481196985
  0.2126357553159809  0.5222955436367274  0.7844385599373784
  0.0391925323545592  0.2631192834189275  0.8979659339900580
  0.7723606207162179  0.4462588774191126  0.4679093474951929
  0.3139777338620519  0.9561815414001988  0.0429808329738784
  0.7521565326833730  0.5861267414754694  0.3390792894430631
  0.4101583117087900  0.4619845399793132  0.1723179831582684
  0.2026577103433840  0.2469113358157485  0.4003958060833316
  0.7814149090314410  0.2892652543821884  0.0702859248253630
  0.5967048418045305  0.8976619435989026  0.0214880157888104
  0.3718880011389154  0.4163800682186343  0.4482211667463266
  0.4848777026977124  0.4774943653791883  0.9807241439395741
  0.2616285505005279  0.1095564361325124  0.7990473539483819
  0.3494540730344827  0.1551151954771663  0.5511280269129090
  0.2076509307991031  0.4910439186913890  0.4331173785590210
  0.5395879960842852  0.9636296430698268  0.6340516701677358
  0.2950715833419320  0.1353646514446876  0.0913950796329063
  0.4701728494746593  0.1238260216283407  0.4075032502581838
  0.8995503009415544  0.9915364495827541  0.8927136936115501
  0.5764835709512703  0.6062151505227549  0.3762069588579195
  0.4793699744945157  0.2745772291869060  0.4904483035019743
  0.7217235091614751  0.9469213012755120  0.7155772982194111
  0.0997957116210620  0.9246609369032026  0.2754652109346081
  0.7299115341817185  0.3495574932044733  0.6046633122597701
  0.3836125728314903  0.9552739981112639  0.3891325315457536
  0.1733898110276842  0.1896212431033127  0.9773226188109742
  0.8889245379178852  0.8894235670401008  0.5712047483986281
  0.7390789771816498  0.1804613689923556  0.5403929980462863
  0.2851012050295915  0.4021737453604047  0.7064318908913272
  0.1551085298908813  0.7623425754179036  0.8085365945811062
  0.3231281410051072  0.8549332857571177  0.8337328158447491
  0.8143632731683704  0.4022968878866645  0.7522675561261599
  0.5678084084956390  0.8908242505629635  0.2855861223444981
 
  0.00000000E+00  0.00000000E+00  0.00000000E+00
  0.00000000E+00  0.00000000E+00  0.00000000E+00
  0.00000000E+00  0.00000000E+00  0.00000000E+00
  0.00000000E+00  0.00000000E+00  0.00000000E+00
  0.00000000E+00  0.00000000E+00  0.00000000E+00
  0.00000000E+00  0.00000000E+00  0.00000000E+00
  0.00000000E+00  0.00000000E+00  0.00000000E+00
  0.00000000E+00  0.00000000E+00  0.00000000E+00
  0.00000000E+00  0.00000000E+00  0.00000000E+00
  0.00000000E+00  0.00000000E+00  0.00000000E+00
  0.00000000E+00  0.00000000E+00  0.00000000E+00
  0.00000000E+00  0.00000000E+00  0.00000000E+00
  0.00000000E+00  0.00000000E+00  0.00000000E+00
  0.00000000E+00  0.00000000E+00  0.00000000E+00
  0.00000000E+00  0.00000000E+00  0.00000000E+00
  0.00000000E+00  0.00000000E+00  0.00000000E+00
  0.00000000E+00  0.00000000E+00  0.00000000E+00
  0.00000000E+00  0.00000000E+00  0.00000000E+00
  0.00000000E+00  0.00000000E+00  0.00000000E+00
  0.00000000E+00  0.00000000E+00  0.00000000E+00
  0.00000000E+00  0.00000000E+00  0.00000000E+00
  0.00000000E+00  0.00000000E+00  0.00000000E+00
  0.00000000E+00  0.00000000E+00  0.00000000E+00
  0.00000000E+00  0.00000000E+00  0.00000000E+00
  0.00000000E+00  0.00000000E+00  0.00000000E+00
  0.00000000E+00  0.00000000E+00  0.00000000E+00
  0.00000000E+00  0.00000000E+00  0.00000000E+00
  0.00000000E+00  0.00000000E+00  0.00000000E+00
  0.00000000E+00  0.00000000E+00  0.00000000E+00
  0.00000000E+00  0.00000000E+00  0.00000000E+00
  0.00000000E+00  0.00000000E+00  0.00000000E+00
  0.00000000E+00  0.00000000E+00  0.00000000E+00
  0.00000000E+00  0.00000000E+00  0.00000000E+00
  0.00000000E+00  0.00000000E+00  0.00000000E+00
  0.00000000E+00  0.00000000E+00  0.00000000E+00
  0.00000000E+00  0.00000000E+00  0.00000000E+00
  0.00000000E+00  0.00000000E+00  0.00000000E+00
  0.00000000E+00  0.00000000E+00  0.00000000E+00
  0.00000000E+00  0.00000000E+00  0.00000000E+00
  0.00000000E+00  0.00000000E+00  0.00000000E+00
  0.00000000E+00  0.00000000E+00  0.00000000E+00
  0.00000000E+00  0.00000000E+00  0.00000000E+00
  0.00000000E+00  0.00000000E+00  0.00000000E+00
  0.00000000E+00  0.00000000E+00  0.00000000E+00
  0.00000000E+00  0.00000000E+00  0.00000000E+00
  0.00000000E+00  0.00000000E+00  0.00000000E+00
  0.00000000E+00  0.00000000E+00  0.00000000E+00
  0.00000000E+00  0.00000000E+00  0.00000000E+00
  0.00000000E+00  0.00000000E+00  0.00000000E+00
  0.00000000E+00  0.00000000E+00  0.00000000E+00
  0.00000000E+00  0.00000000E+00  0.00000000E+00
  0.00000000E+00  0.00000000E+00  0.00000000E+00
  0.00000000E+00  0.00000000E+00  0.00000000E+00
  0.00000000E+00  0.00000000E+00  0.00000000E+00
  0.00000000E+00  0.00000000E+00  0.00000000E+00
  0.00000000E+00  0.00000000E+00  0.00000000E+00
  0.00000000E+00  0.00000000E+00  0.00000000E+00
  0.00000000E+00  0.00000000E+00  0.00000000E+00
  0.00000000E+00  0.00000000E+00  0.00000000E+00
  0.00000000E+00  0.00000000E+00  0.00000000E+00
  0.00000000E+00  0.00000000E+00  0.00000000E+00
  0.00000000E+00  0.00000000E+00  0.00000000E+00
  0.00000000E+00  0.00000000E+00  0.00000000E+00
  0.00000000E+00  0.00000000E+00  0.00000000E+00
  0.00000000E+00  0.00000000E+00  0.00000000E+00
  0.00000000E+00  0.00000000E+00  0.00000000E+00
  0.00000000E+00  0.00000000E+00  0.00000000E+00
  0.00000000E+00  0.00000000E+00  0.00000000E+00
  0.00000000E+00  0.00000000E+00  0.00000000E+00
  0.00000000E+00  0.00000000E+00  0.00000000E+00
  0.00000000E+00  0.00000000E+00  0.00000000E+00
  0.00000000E+00  0.00000000E+00  0.00000000E+00
  0.00000000E+00  0.00000000E+00  0.00000000E+00
  0.00000000E+00  0.00000000E+00  0.00000000E+00
  0.00000000E+00  0.00000000E+00  0.00000000E+00
  0.00000000E+00  0.00000000E+00  0.00000000E+00
  0.00000000E+00  0.00000000E+00  0.00000000E+00
  0.00000000E+00  0.00000000E+00  0.00000000E+00
  0.00000000E+00  0.00000000E+00  0.00000000E+00
  0.00000000E+00  0.00000000E+00  0.00000000E+00
  0.00000000E+00  0.00000000E+00  0.00000000E+00
  0.00000000E+00  0.00000000E+00  0.00000000E+00
  0.00000000E+00  0.00000000E+00  0.00000000E+00
  0.00000000E+00  0.00000000E+00  0.00000000E+00
  0.00000000E+00  0.00000000E+00  0.00000000E+00
  0.00000000E+00  0.00000000E+00  0.00000000E+00
  0.00000000E+00  0.00000000E+00  0.00000000E+00
  0.00000000E+00  0.00000000E+00  0.00000000E+00
  0.00000000E+00  0.00000000E+00  0.00000000E+00
  0.00000000E+00  0.00000000E+00  0.00000000E+00
  0.00000000E+00  0.00000000E+00  0.00000000E+00
  0.00000000E+00  0.00000000E+00  0.00000000E+00
  0.00000000E+00  0.00000000E+00  0.00000000E+00
  0.00000000E+00  0.00000000E+00  0.00000000E+00
  0.00000000E+00  0.00000000E+00  0.00000000E+00
  0.00000000E+00  0.00000000E+00  0.00000000E+00
  0.00000000E+00  0.00000000E+00  0.00000000E+00
  0.00000000E+00  0.00000000E+00  0.00000000E+00
  0.00000000E+00  0.00000000E+00  0.00000000E+00
  0.00000000E+00  0.00000000E+00  0.00000000E+00
  0.00000000E+00  0.00000000E+00  0.00000000E+00
  0.00000000E+00  0.00000000E+00  0.00000000E+00
  0.00000000E+00  0.00000000E+00  0.00000000E+00
  0.00000000E+00  0.00000000E+00  0.00000000E+00
  0.00000000E+00  0.00000000E+00  0.00000000E+00
  0.00000000E+00  0.00000000E+00  0.00000000E+00
  0.00000000E+00  0.00000000E+00  0.00000000E+00
  0.00000000E+00  0.00000000E+00  0.00000000E+00
  0.00000000E+00  0.00000000E+00  0.00000000E+00
  0.00000000E+00  0.00000000E+00  0.00000000E+00
  0.00000000E+00  0.00000000E+00  0.00000000E+00
  0.00000000E+00  0.00000000E+00  0.00000000E+00
  0.00000000E+00  0.00000000E+00  0.00000000E+00
  0.00000000E+00  0.00000000E+00  0.00000000E+00
  0.00000000E+00  0.00000000E+00  0.00000000E+00
  0.00000000E+00  0.00000000E+00  0.00000000E+00
  0.00000000E+00  0.00000000E+00  0.00000000E+00
  0.00000000E+00  0.00000000E+00  0.00000000E+00
  0.00000000E+00  0.00000000E+00  0.00000000E+00
  0.00000000E+00  0.00000000E+00  0.00000000E+00
  0.00000000E+00  0.00000000E+00  0.00000000E+00
  0.00000000E+00  0.00000000E+00  0.00000000E+00
  0.00000000E+00  0.00000000E+00  0.00000000E+00
  0.00000000E+00  0.00000000E+00  0.00000000E+00
  0.00000000E+00  0.00000000E+00  0.00000000E+00
  0.00000000E+00  0.00000000E+00  0.00000000E+00
  0.00000000E+00  0.00000000E+00  0.00000000E+00
  0.00000000E+00  0.00000000E+00  0.00000000E+00
  0.00000000E+00  0.00000000E+00  0.00000000E+00
  0.00000000E+00  0.00000000E+00  0.00000000E+00
  0.00000000E+00  0.00000000E+00  0.00000000E+00
  0.00000000E+00  0.00000000E+00  0.00000000E+00
  0.00000000E+00  0.00000000E+00  0.00000000E+00
  0.00000000E+00  0.00000000E+00  0.00000000E+00
  0.00000000E+00  0.00000000E+00  0.00000000E+00
  0.00000000E+00  0.00000000E+00  0.00000000E+00
  0.00000000E+00  0.00000000E+00  0.00000000E+00
  0.00000000E+00  0.00000000E+00  0.00000000E+00
  0.00000000E+00  0.00000000E+00  0.00000000E+00
  0.00000000E+00  0.00000000E+00  0.00000000E+00
  0.00000000E+00  0.00000000E+00  0.00000000E+00
  0.00000000E+00  0.00000000E+00  0.00000000E+00
  0.00000000E+00  0.00000000E+00  0.00000000E+00
  0.00000000E+00  0.00000000E+00  0.00000000E+00
  0.00000000E+00  0.00000000E+00  0.00000000E+00
  0.00000000E+00  0.00000000E+00  0.00000000E+00
  0.00000000E+00  0.00000000E+00  0.00000000E+00
  0.00000000E+00  0.00000000E+00  0.00000000E+00
  0.00000000E+00  0.00000000E+00  0.00000000E+00
  0.00000000E+00  0.00000000E+00  0.00000000E+00
  0.00000000E+00  0.00000000E+00  0.00000000E+00
  0.00000000E+00  0.00000000E+00  0.00000000E+00
  0.00000000E+00  0.00000000E+00  0.00000000E+00
  0.00000000E+00  0.00000000E+00  0.00000000E+00
  0.00000000E+00  0.00000000E+00  0.00000000E+00
  0.00000000E+00  0.00000000E+00  0.00000000E+00
  0.00000000E+00  0.00000000E+00  0.00000000E+00
  0.00000000E+00  0.00000000E+00  0.00000000E+00
  0.00000000E+00  0.00000000E+00  0.00000000E+00
  0.00000000E+00  0.00000000E+00  0.00000000E+00
  0.00000000E+00  0.00000000E+00  0.00000000E+00
  0.00000000E+00  0.00000000E+00  0.00000000E+00
  0.00000000E+00  0.00000000E+00  0.00000000E+00
  0.00000000E+00  0.00000000E+00  0.00000000E+00
  0.00000000E+00  0.00000000E+00  0.00000000E+00
  0.00000000E+00  0.00000000E+00  0.00000000E+00
  0.00000000E+00  0.00000000E+00  0.00000000E+00
  0.00000000E+00  0.00000000E+00  0.00000000E+00
  0.00000000E+00  0.00000000E+00  0.00000000E+00
  0.00000000E+00  0.00000000E+00  0.00000000E+00
  0.00000000E+00  0.00000000E+00  0.00000000E+00
  0.00000000E+00  0.00000000E+00  0.00000000E+00
  0.00000000E+00  0.00000000E+00  0.00000000E+00
  0.00000000E+00  0.00000000E+00  0.00000000E+00
  0.00000000E+00  0.00000000E+00  0.00000000E+00
  0.00000000E+00  0.00000000E+00  0.00000000E+00
  0.00000000E+00  0.00000000E+00  0.00000000E+00
  0.00000000E+00  0.00000000E+00  0.00000000E+00
  0.00000000E+00  0.00000000E+00  0.00000000E+00
  0.00000000E+00  0.00000000E+00  0.00000000E+00
  0.00000000E+00  0.00000000E+00  0.00000000E+00
  0.00000000E+00  0.00000000E+00  0.00000000E+00
  0.00000000E+00  0.00000000E+00  0.00000000E+00
  0.00000000E+00  0.00000000E+00  0.00000000E+00
  0.00000000E+00  0.00000000E+00  0.00000000E+00
  0.00000000E+00  0.00000000E+00  0.00000000E+00
  0.00000000E+00  0.00000000E+00  0.00000000E+00
  0.00000000E+00  0.00000000E+00  0.00000000E+00
  0.00000000E+00  0.00000000E+00  0.00000000E+00
  0.00000000E+00  0.00000000E+00  0.00000000E+00
  0.00000000E+00  0.00000000E+00  0.00000000E+00
  0.00000000E+00  0.00000000E+00  0.00000000E+00
  0.00000000E+00  0.00000000E+00  0.00000000E+00
  0.00000000E+00  0.00000000E+00  0.00000000E+00
  0.00000000E+00  0.00000000E+00  0.00000000E+00
  0.00000000E+00  0.00000000E+00  0.00000000E+00
  0.00000000E+00  0.00000000E+00  0.00000000E+00
  0.00000000E+00  0.00000000E+00  0.00000000E+00
  0.00000000E+00  0.00000000E+00  0.00000000E+00
  0.00000000E+00  0.00000000E+00  0.00000000E+00
  0.00000000E+00  0.00000000E+00  0.00000000E+00
  0.00000000E+00  0.00000000E+00  0.00000000E+00
  0.00000000E+00  0.00000000E+00  0.00000000E+00
  0.00000000E+00  0.00000000E+00  0.00000000E+00
  0.00000000E+00  0.00000000E+00  0.00000000E+00
  0.00000000E+00  0.00000000E+00  0.00000000E+00
  0.00000000E+00  0.00000000E+00  0.00000000E+00
  0.00000000E+00  0.00000000E+00  0.00000000E+00
  0.00000000E+00  0.00000000E+00  0.00000000E+00
  0.00000000E+00  0.00000000E+00  0.00000000E+00
  0.00000000E+00  0.00000000E+00  0.00000000E+00
  0.00000000E+00  0.00000000E+00  0.00000000E+00
  0.00000000E+00  0.00000000E+00  0.00000000E+00
  0.00000000E+00  0.00000000E+00  0.00000000E+00
  0.00000000E+00  0.00000000E+00  0.00000000E+00
  0.00000000E+00  0.00000000E+00  0.00000000E+00
  0.00000000E+00  0.00000000E+00  0.00000000E+00
  0.00000000E+00  0.00000000E+00  0.00000000E+00
  0.00000000E+00  0.00000000E+00  0.00000000E+00
  0.00000000E+00  0.00000000E+00  0.00000000E+00
  0.00000000E+00  0.00000000E+00  0.00000000E+00
  0.00000000E+00  0.00000000E+00  0.00000000E+00
  0.00000000E+00  0.00000000E+00  0.00000000E+00
  0.00000000E+00  0.00000000E+00  0.00000000E+00
  0.00000000E+00  0.00000000E+00  0.00000000E+00
  0.00000000E+00  0.00000000E+00  0.00000000E+00
  0.00000000E+00  0.00000000E+00  0.00000000E+00
  0.00000000E+00  0.00000000E+00  0.00000000E+00
  0.00000000E+00  0.00000000E+00  0.00000000E+00
  0.00000000E+00  0.00000000E+00  0.00000000E+00
  0.00000000E+00  0.00000000E+00  0.00000000E+00
  0.00000000E+00  0.00000000E+00  0.00000000E+00