Ge Se                                   
   1.00000000000000     
    20.8706398010253906    0.0000000000000000    0.0000000000000000
     0.0000000000000000   20.8706398010253906    0.0000000000000000
     0.0000000000000000    0.0000000000000000   20.8706398010253906
   Ge   Se
   150   150
Direct
  0.1463657668855920  0.2941379929390590  0.4891561081873886
  0.6073745509778076  0.3059633076576521  0.5560319391821660
  0.7815893660138822  0.5453080194027220  0.0846663931189223
  0.3583357679181391  0.6591432734907070  0.2422478337404553
  0.9357380547948696  0.5901110911260965  0.3666690700147638
  0.0164906877092124  0.9709890635785224  0.8567477156585427
  0.9882098998749173  0.7867133928671799  0.7736555350558434
  0.9491409811874212  0.2477367031711883  0.8044021485716436
  0.4015319918688607  0.9195818637616732  0.2162974287284055
  0.0895524300167448  0.6823693037457705  0.8448365869316533
  0.4334466553329077  0.4052126122238242  0.5929298023608798
  0.4989110624613383  0.2799094268038684  0.7127618337556928
  0.3290208767694226  0.8136270853448404  0.5806301210552347
  0.8634712949737307  0.6913458933374792  0.5492426956539300
  0.4942497155776504  0.9501737980592303  0.0849527333780171
  0.6067470727451646  0.4032091837098141  0.1074756308730588
  0.2554355988365247  0.1459118027934466  0.2783183618220428
  0.8906389871883372  0.7739230452986985  0.2650269584465861
  0.4557453053881456  0.8219677504010928  0.5553829440718656
  0.0462089327757075  0.8382588378382028  0.6693043251991287
  0.8490441451749215  0.6888034315083464  0.8281924204069938
  0.0425671515440783  0.6425996840569860  0.4751374857418139
  0.6330820183448201  0.2912476766648618  0.0289641573441385
  0.9308478226487443  0.5672230575633630  0.7782149354612675
  0.5765048759739066  0.3076079718821090  0.1863775641556916
  0.0786104801817111  0.0549905144856468  0.9365698661428584
  0.6761454489707789  0.0962042398505593  0.0534901317536604
  0.8220639389822765  0.4837008987890901  0.5905056059071354
  0.1743908729394266  0.7608418835281302  0.5868726951848988
  0.3630984893580544  0.0228875788162957  0.5029559570162273
  0.8311170424151970  0.0135055207132188  0.2929835359119461
  0.7288123198166975  0.9642899331692294  0.0285725991688660
  0.2183962258577772  0.8337132478379859  0.3140015140196905
  0.3890250623929552  0.4892155232511014  0.7180542041160914
  0.3907523510327069  0.0429147014627972  0.2177210994671645
  0.3691776670351459  0.1693509036621482  0.6126045445046390
  0.1645972096288449  0.2549033623673321  0.6875621060531221
  0.8530524640837382  0.1085913829203399  0.6657403319022116
  0.9391492026034481  0.5581622017634723  0.1350442272443567
  0.9989343243732268  0.4238997127693351  0.6025794168113731
  0.1495833209222812  0.6094000523192477  0.1739051445291426
  0.8937474570095451  0.1908047466122696  0.9986723139246385
  0.6367719423689088  0.9694758001919224  0.9340136500296914
  0.6984344327795775  0.6190594767100385  0.6778578764096019
  0.2049862465135362  0.3797382362332682  0.5570135085314369
  0.8313040702299506  0.5321965751984599  0.2003965195427906
  0.4855314190048792  0.2042098163702764  0.0639187649002366
  0.6585882768780378  0.4281954855723710  0.9928842134977576
  0.3475213805633707  0.5258883253347216  0.1219928062358061
  0.8447778469547409 -0.0035822371012924  0.6089747983093649
  0.2357175722478161  0.0303170832742128  0.0179166760810572
  0.3598248114490475  0.6985956440870099  0.1255156132388577
  0.3148470670891335  0.6493871484215142  0.8841981028280811
  0.7268354206658914  0.1448152263600974  0.8916114618828664
  0.1423256298128810  0.5788658031579338  0.6184699446575026
  0.4311280236927558  0.2038449308346654  0.2424936293137771
  0.6511045623559018  0.7988955015195613  0.6907834612610100
  0.2042222582680878  0.1076361037181266  0.6025967199870635
  0.7428044332594638  0.6442090674719454  0.9427681644374779
  0.4344368111670845  0.6124303492483463  0.3379689806126489
  0.2327697723065694  0.8666267123277736  0.5090623534755644
  0.4621261858139326  0.7627166932409845  0.1248235939890195
  0.4867844258993668  0.5988177716639116  0.1594838131095895
  0.2019462037865000  0.7251079780501007  0.1833262790378274
  0.9502584513198070  0.0896403092868122  0.7415550118114064
  0.2529790645611100  0.5204783170811694  0.3741512479376221
  0.4066440906327851  0.7484349181656320  0.7597657683971896
  0.9022898792258954  0.3103537049797602  0.6931639732040998
  0.6645807802700394  0.1552641331582056  0.7094820150601929
  0.5453525659316132  0.5625196345500271  0.7894461496439120
  0.9387109283585804  0.8833385820033532  0.3860770155001364
  0.5046208422024188  0.8637673310522448  0.8506188611586760
  0.5634839516816466  0.6806854198031894  0.8049584932218722
  0.5982845557607345  0.6646834270925956  0.2977074351104207
  0.7459940262577553  0.3045940720170893  0.9381782599066015
  0.1917929135577502  0.9489824668423903  0.5905884431381229
  0.5694579433987786  0.7742524301881936  0.2339879921802781
  0.9926735030996685  0.3449549200155183  0.9670837854246270
  0.7667195951417621  0.8465997368774785  0.9280569077928773
  0.0235293753298235  0.2704466603102579  0.4969127312074251
  0.4357194560290699  0.3588060069612336  0.2966447898360797
  0.5469273543207673  0.5338818998442608  0.4192961111671514
  0.5574796466689941  0.8684180412869957  0.6226541060016378
  0.3492237175993621  0.6828923120342206  0.5343276140211620
  0.0436713796033255  0.4180631117372609  0.8225333674059565
  0.6885112707855858  0.4619528224860229  0.7096833669709504
  0.5432472562370607  0.9576574697462545  0.4393992680332507
  0.9926822008703896  0.5163720625073690  0.9698730439328380
  0.2535965947626700  0.9779295509264557  0.1327061369330141
  0.1917875093734195  0.6890565356036731  0.9841584521194615
  0.2598749987733329  0.8685800606728394  0.7402900666249725
  0.2954019422176877  0.6267466001367574  0.6589570065605690
  0.7787386681187622  0.2588573229545622  0.6575097945248417
  0.1473951713848078  0.8595605055304382  0.4177917508404985
  0.9806047624523315  0.9872352485654995  0.1859614442490135
  0.1379937852462923  0.9729310788376370  0.2915983006127376
  0.5192487910504839  0.3399617375612656  0.8790129488247082
  0.8884634738162017  0.1116612619153718  0.4972095628201298
  0.6187725618206062  0.0767594954810203  0.5661603001982769
  0.9739398762195357  0.0176589889812602  0.0015087766129103
  0.1110039823953520  0.9147173735336690  0.0977316481555319
  0.6840508876598133  0.2961732408353155  0.7624935994412314
  0.6925773674918682  0.6262053646657583  0.0562696760167478
  0.8537499165958572  0.3758374338765185  0.7902453208278488
  0.9046205753875937  0.5723407337098448  0.5700366802221980
  0.0115788658339748  0.7853823882625333  0.2384924736925310
  0.4613675601888225  0.0210471660066645  0.6196687369270802
  0.4418142470446981  0.7286627820185928  0.4006358360117221
  0.6035455867870479  0.3649922657996388  0.3389195831859691
  0.6663418606768593  0.0036103753198630  0.2119595772602842
  0.4220188523849065  0.3083998388017186  0.4415932603675358
  0.6567044728807396  0.5324340180580835  0.5756015756625135
  0.0353023492949513  0.2323816128176428  0.3335703952436255
  0.7452811159423469  0.4998671398980405  0.3185304363686770
  0.5832637535649534  0.0360412575651160  0.7429485485026219
  0.3530059981826114  0.9453010070975342  0.3521372100212829
  0.4313651239713242  0.5797661099114197  0.9736195705905153
  0.4063727020249128  0.4726085967415179  0.8395568153069854
  0.7538444456707427  0.3736262265814274  0.1361118647472911
  0.0555364732272871  0.6102775613765781  0.0257518609102888
  0.3673015895042658  0.2659765980683366  0.8461604180907651
  0.1599692503274397  0.1246558151312117  0.4300331312192483
  0.6729616261895520  0.6963440099972893  0.8550032829571580
  0.2901266049364595  0.5018951580013188  0.4907823887756694
  0.2708946648067485  0.3875619558178535  0.1946117002182441
  0.8524464170754473  0.0843106731893971  0.1889646251466340
  0.6999584287688674  0.6083893083920661  0.4875952824952173
  0.2624517197608370  0.1486166790131597  0.9256351507615357
  0.7637550335244099  0.6817593449785737  0.3350033022683402
  0.7569278868885411  0.3220845392522181  0.4010308601985718
  0.7920484396660339  0.9011125097590406  0.2576579890933331
  0.7814558507864541  0.9730082585092248  0.4362855774774947
  0.9966323978317888  0.2576123051782687  0.1249752380669422
  0.5118870156368059  0.0726550944014891  0.3417574653023196
  0.7204728117976943  0.1764695311812269  0.3284189890347979
  0.3056257051689014  0.9946635715202325  0.6087608282164750
  0.0064765356981788  0.7176086318562230  0.5839233830500876
  0.0952982962231966  0.3908916827555542  0.1190484202996547
  0.0368427175718971  0.7294923030430732  0.3475321151548318
  0.5354801367455092  0.2779546334766867  0.3938472353156705
  0.3107436563674814  0.1773969389419021  0.7764764311907841
  0.5438618835146736  0.5073688743386124  0.0925986934431342
  0.0353476904119362  0.4344703057217263  0.3883168485495688
  0.8471348450406202  0.2520565300627270  0.2449596297165652
  0.9012426637113804  0.3804895797631297  0.2856975387658776
  0.9392102537940831  0.8415839732769695  0.9140339830504781
  0.1463557091255484  0.2791526184236245  0.3030411169543736
  0.1345211671838669  0.4002562035279005  0.3183602508846986
  0.6165502523940734  0.8550167604155293  0.7984896985473350
  0.3698894946464998  0.5056983661707588  0.3447724449049866
  0.2739279048756435  0.5763617152488595  0.2145236410924104
  0.5271734061524576  0.5711619036179564  0.2685283601933934
  0.9493292375718329  0.0370247800706408  0.5695368835685937
  0.6223065686113215  0.9877453253619141  0.0890811549778270
  0.0680840856264582  0.7124373608547169  0.9655736898773593
  0.1035333351815551  0.0095589048545908  0.1758335433792086
  0.9510032212825604  0.7124975314924007  0.4289560216023694
  0.0787677307212112  0.4315875786203937  0.9442978744023365
  0.9767777377403069  0.5360451689514408  0.4843143550242158
  0.7675611246681182  0.1977176542049940 -0.0026066134297980
  0.6806825308211746  0.0387903541774585  0.6699476570373332
  0.8195622504533604  0.7352419245466523  0.9413500902298123
  0.2770020951738702  0.4396661858397089  0.0870046796429793
  0.7625271214997158  0.1671848984688335  0.2122390190366294
  0.6472351812240573  0.4594129235365484  0.3937877418628754
  0.1449815369684394  0.0950105257562563  0.3106368542764410
  0.9088647226455123  0.7287874490158952  0.6538789589723651
  0.8263717828870716  0.4194412551128404  0.3729906007053607
  0.4756919233089218  0.7104166898816585  0.5198824268133967
  0.4983526281753964  0.5313327155197278  0.6912827402578110
  0.7856917657128509  0.1718039938800392  0.7429051716955622
  0.5691951635342872  0.7103413596139505  0.6931565908443256
  0.2603050938617668  0.7176385118910407  0.2865584215879914
  0.3538146215362851  0.9012859092758652  0.6631602733606188
  0.2706666001202890  0.9677979815145225  0.4417578215864206
  0.8763759880011870  0.1972729903541611  0.5938133206160061
  0.0354534584928219  0.5745890318975628  0.8399640605403583
  0.0384108973139931  0.1660917184061277  0.4331062767279006
  0.5187436193265705  0.9455610996698783  0.9326876045563629
  0.3830884594002452  0.0669328647395701  0.3360561622783779
  0.2780596974184140  0.7796844626014116  0.1130023907771839
  0.6836002231995025  0.4602949249527095  0.1791283709631051
  0.3347896713126868  0.5301879889454155  0.9154743118229731
  0.1609899795755154  0.4482068703846863  0.2143236025042834
  0.3287384531669576  0.6939608115062765  0.4191637108963957
  0.6054990336338860  0.6466617874547420  0.4200599599053794
  0.3617888915789872  0.0668667128474261  0.6858530642121498
  0.7416249082127743  0.6883255449982294  0.5663327500385363
  0.5199976145478982  0.3120823711714840  0.0014281088021740
  0.7251712241907305  0.4412476885193140  0.5433256245012031
  0.4819060622094958  0.2333306395712017  0.8281267302086068
  0.3636265799509358  0.6361090427604659  0.7741209102042749
  0.3919931037258269  0.8981919195809187  0.8467692167192759
  0.8973154188098368 -0.0010070835731110  0.3943036815340908
  0.4749572879444334  0.2976871311497647  0.5509188585530161
  0.9692674632747110  0.1353015973680773  0.8440186443466062
  0.9802541247618428  0.9812199708811584  0.7444207313551423
  0.6767039137523544  0.8902852445585101  0.2539911590786764
  0.0272231578897055  0.8331298193430012  0.5544021746274140
  0.1405550833794144  0.9116565594913425  0.6893022780369011
  0.6034046208585593  0.9461617912211990  0.5459879090058565
  0.7315297799691481  0.0455611319109722  0.3492118687192178
  0.0269321172114484  0.3358004179462330  0.2041562598373784
  0.6577409381952996  0.2470048835205884  0.8751109033127340
  0.7394748212090998  0.8494834346493145  0.0434060264283041
  0.2088684312420873  0.2395464273456834  0.4010817918416011
  0.9750269174723474  0.4775025658429328  0.2939178990727376
  0.0195389221890013  0.1554560484329467  0.1771652917165005
  0.3663673160079180  0.5616152297301846  0.5564449617081015
  0.9247816432077177  0.4583558524744800  0.8422755302489336
  0.7858933797870965  0.5810775079159947  0.4099872483285503
  0.2056186158501690  0.1815309389662008  0.8308369957295607
  0.1898467103432902  0.1393398467985211  0.0151242008513024
  0.8276137243543751  0.2241180087770257  0.3674495746501524
  0.1742266956122379  0.4892241992412347  0.5280869407284404
  0.8860619582870897  0.8358612880718925  0.8062302107010278
  0.6978076878160782  0.3142859725526221  0.2925250423696218
  0.3588822740342711  0.9294146840324006  0.1034307596809346
  0.4421775286154528  0.8893336861108200  0.4608267512258519
  0.2390677371495591  0.4017067931900040  0.3705754754690477
  0.7420495266009794  0.7211481964453621  0.7642438888041480
  0.9798008383584180  0.3209092272854103  0.3904590818517709
  0.8821516563711717  0.3825103024321349  0.5897503619205727
  0.3204044380324757  0.3902806269744080  0.5272123049169837
  0.8620184779661770  0.6585306336254970  0.2673885272541496
  0.1420944419959040  0.8208657643394199  0.2235190087638901
  0.9764560013402932  0.5343741656868197  0.6593623742834768
  0.1773512924249025  0.3720473331951036  0.6665111248859703
  0.2875928948465526  0.2381702620731694  0.6766582570114369
  0.4461257817135853  0.7770258746263056  0.2422409023878953
  0.2604476328391931  0.9396749000183460  0.2674866967050151
  0.6052641295462086  0.1934880746827828  0.0968307783367492
  0.0526449482324114  0.8565598593941185  0.8569967747991107
  0.8843681783326739  0.2588652437822823  0.1018049901954172
  0.7773905296054237  0.9951312836409718  0.1545050887869432
  0.8104366191582182  0.5804408008928323  0.8753145571519093
  0.0545471172001982  0.6133866968799027  0.3378693768682048
  0.2123583616132008  0.6532493686442072  0.5473485214794491
  0.9871391176843375  0.9246514862344093  0.0794172009954305
  0.2957672286458923  0.1303257446218563  0.5212514715399741
  0.6504326369130332  0.8034368413114608  0.9023095232765431
  0.6960540211041609  0.6258616884739855  0.2507035500565485
  0.0940879802430535  0.7224686558689333  0.6705106422231792
  0.1400047144479486  0.9622052894425951  0.9847291637788581
  0.7786142898056544  0.0581168541076847  0.5240741988442611
  0.2647186245646057  0.7638748407729293  0.6738973119016621
  0.0137783943865674  0.3470956292445984  0.6955970629010536
  0.5859078233009065  0.3595866285171786  0.7423959251246403
  0.9104943067888657  0.9639211590376434  0.9148175779172250
  0.0185718776106526  0.6483028235061402  0.1322143891205703
  0.8867346811933556  0.0793022686299026  0.0474964626971006
  0.3786640214185010  0.4503250060961883  0.2398688333544749
  0.0402713049283731  0.2991294725056117  0.8627725061272913
  0.3979829983206760  0.3724527782516802  0.9020230587176201
  0.0634378865704339  0.2676231700458960  0.0337937903050513
  0.4468064428684062  0.4273213602615899  0.4025140735166485
  0.9511204368409659  0.1733391533618662  0.2666803197409786
  0.4801386931845382  0.7416695880373668  0.8639322388959657
  0.4445719450123963  0.4772673392639343  0.0377232872081740
  0.6649273059514863  0.9589105198850651  0.8147789038179671
  0.8823089983470640  0.5863077806486831  0.0360169521424011
  0.8597655755439650  0.2928908037752467  0.8743875471431035
  0.5105381806362733  0.9428276396208116  0.7054982879254837
  0.2148075516222717  0.5587474671461518  0.7087573537268215
  0.3004994481174072  0.0393683665437739  0.9211130815449319
  0.1293293694007401  0.0333146457127641  0.5433666546170043
  0.3478652986935599  0.2202512144785324  0.9537728639014155
  0.9973338813039342  0.4659531601195818  0.0848202272425854
  0.7366872491060406  0.3988809545953687  0.8087682897750429
  0.7919474829374737  0.5296138788651460  0.6969083673337235
  0.4915635617644685  0.8356369520147402  0.0433371526188927
  0.8606304514170059  0.4192463669298477  0.1760846173477291
  0.8354700554739402  0.8283424263253533  0.1786827346537436
  0.8319733707865867  0.8305128257603553  0.3550034592037738
  0.6795787127568288  0.2062211253714344  0.5998170629593584
  0.4788801848916848  0.1097956263113870  0.1820070739820982
  0.2021008805564195  0.2353151852747828  0.2143961256575902
  0.6167054032421412  0.5474801458992015  0.0041402707216669
  0.5117309170352509  0.5026990345820034  0.8823930134503901
  0.6611075486062026  0.5515168043740425  0.7894066773739734
  0.5181952256214899  0.9298519095341098  0.2008309107944523
  0.9981723742676971  0.9004084356375568  0.2785058706631319
  0.5378128564234786  0.4065271401010029  0.2518689698559923
  0.5512501328161638  0.5060258937692564  0.5351748517743016
  0.3281024262375817  0.6206008314002924  0.0441607429986285
  0.7732650143112269  0.4385291121465760  0.0290744543197412
  0.3276158705404665  0.8034323229801065  0.8359083396042332
  0.4069880679029064  0.3652043415539957  0.7042251176107076
  0.5283613625221487  0.1175821256907065  0.6403475228140996
  0.6247246763745965  0.0910971111356969  0.9409518513236109
  0.1360463290395440  0.2107501975243636  0.5758273596788658
  0.1946754836112546  0.6203408963720873  0.8823822508995948
  0.5088495347026659  0.0718836825947120  0.4618151913109201
  0.5602687905137751  0.6947623393216665  0.1362944669264377
  0.1692038700572932  0.5871548893413450  0.0544457511977781
  0.1338430588020976  0.7430745642265235  0.4137171046546321
  0.5373650662574707  0.1953696900595732  0.3078541370655420
  0.4593308737235178  0.2864450563483080  0.1543273765763966
  0.6204075188778507  0.2368528068664115  0.4606334883702625
  0.2913794904650223  0.0911210818234545  0.1709358995880046
 
  0.00000000E+00  0.00000000E+00  0.00000000E+00
  0.00000000E+00  0.00000000E+00  0.00000000E+00
  0.00000000E+00  0.00000000E+00  0.00000000E+00
  0.00000000E+00  0.00000000E+00  0.00000000E+00
  0.00000000E+00  0.00000000E+00  0.00000000E+00
  0.00000000E+00  0.00000000E+00  0.00000000E+00
  0.00000000E+00  0.00000000E+00  0.00000000E+00
  0.00000000E+00  0.00000000E+00  0.00000000E+00
  0.00000000E+00  0.00000000E+00  0.00000000E+00
  0.00000000E+00  0.00000000E+00  0.00000000E+00
  0.00000000E+00  0.00000000E+00  0.00000000E+00
  0.00000000E+00  0.00000000E+00  0.00000000E+00
  0.00000000E+00  0.00000000E+00  0.00000000E+00
  0.00000000E+00  0.00000000E+00  0.00000000E+00
  0.00000000E+00  0.00000000E+00  0.00000000E+00
  0.00000000E+00  0.00000000E+00  0.00000000E+00
  0.00000000E+00  0.00000000E+00  0.00000000E+00
  0.00000000E+00  0.00000000E+00  0.00000000E+00
  0.00000000E+00  0.00000000E+00  0.00000000E+00
  0.00000000E+00  0.00000000E+00  0.00000000E+00
  0.00000000E+00  0.00000000E+00  0.00000000E+00
  0.00000000E+00  0.00000000E+00  0.00000000E+00
  0.00000000E+00  0.00000000E+00  0.00000000E+00
  0.00000000E+00  0.00000000E+00  0.00000000E+00
  0.00000000E+00  0.00000000E+00  0.00000000E+00
  0.00000000E+00  0.00000000E+00  0.00000000E+00
  0.00000000E+00  0.00000000E+00  0.00000000E+00
  0.00000000E+00  0.00000000E+00  0.00000000E+00
  0.00000000E+00  0.00000000E+00  0.00000000E+00
  0.00000000E+00  0.00000000E+00  0.00000000E+00
  0.00000000E+00  0.00000000E+00  0.00000000E+00
  0.00000000E+00  0.00000000E+00  0.00000000E+00
  0.00000000E+00  0.00000000E+00  0.00000000E+00
  0.00000000E+00  0.00000000E+00  0.00000000E+00
  0.00000000E+00  0.00000000E+00  0.00000000E+00
  0.00000000E+00  0.00000000E+00  0.00000000E+00
  0.00000000E+00  0.00000000E+00  0.00000000E+00
  0.00000000E+00  0.00000000E+00  0.00000000E+00
  0.00000000E+00  0.00000000E+00  0.00000000E+00
  0.00000000E+00  0.00000000E+00  0.00000000E+00
  0.00000000E+00  0.00000000E+00  0.00000000E+00
  0.00000000E+00  0.00000000E+00  0.00000000E+00
  0.00000000E+00  0.00000000E+00  0.00000000E+00
  0.00000000E+00  0.00000000E+00  0.00000000E+00
  0.00000000E+00  0.00000000E+00  0.00000000E+00
  0.00000000E+00  0.00000000E+00  0.00000000E+00
  0.00000000E+00  0.00000000E+00  0.00000000E+00
  0.00000000E+00  0.00000000E+00  0.00000000E+00
  0.00000000E+00  0.00000000E+00  0.00000000E+00
  0.00000000E+00  0.00000000E+00  0.00000000E+00
  0.00000000E+00  0.00000000E+00  0.00000000E+00
  0.00000000E+00  0.00000000E+00  0.00000000E+00
  0.00000000E+00  0.00000000E+00  0.00000000E+00
  0.00000000E+00  0.00000000E+00  0.00000000E+00
  0.00000000E+00  0.00000000E+00  0.00000000E+00
  0.00000000E+00  0.00000000E+00  0.00000000E+00
  0.00000000E+00  0.00000000E+00  0.00000000E+00
  0.00000000E+00  0.00000000E+00  0.00000000E+00
  0.00000000E+00  0.00000000E+00  0.00000000E+00
  0.00000000E+00  0.00000000E+00  0.00000000E+00
  0.00000000E+00  0.00000000E+00  0.00000000E+00
  0.00000000E+00  0.00000000E+00  0.00000000E+00
  0.00000000E+00  0.00000000E+00  0.00000000E+00
  0.00000000E+00  0.00000000E+00  0.00000000E+00
  0.00000000E+00  0.00000000E+00  0.00000000E+00
  0.00000000E+00  0.00000000E+00  0.00000000E+00
  0.00000000E+00  0.00000000E+00  0.00000000E+00
  0.00000000E+00  0.00000000E+00  0.00000000E+00
  0.00000000E+00  0.00000000E+00  0.00000000E+00
  0.00000000E+00  0.00000000E+00  0.00000000E+00
  0.00000000E+00  0.00000000E+00  0.00000000E+00
  0.00000000E+00  0.00000000E+00  0.00000000E+00
  0.00000000E+00  0.00000000E+00  0.00000000E+00
  0.00000000E+00  0.00000000E+00  0.00000000E+00
  0.00000000E+00  0.00000000E+00  0.00000000E+00
  0.00000000E+00  0.00000000E+00  0.00000000E+00
  0.00000000E+00  0.00000000E+00  0.00000000E+00
  0.00000000E+00  0.00000000E+00  0.00000000E+00
  0.00000000E+00  0.00000000E+00  0.00000000E+00
  0.00000000E+00  0.00000000E+00  0.00000000E+00
  0.00000000E+00  0.00000000E+00  0.00000000E+00
  0.00000000E+00  0.00000000E+00  0.00000000E+00
  0.00000000E+00  0.00000000E+00  0.00000000E+00
  0.00000000E+00  0.00000000E+00  0.00000000E+00
  0.00000000E+00  0.00000000E+00  0.00000000E+00
  0.00000000E+00  0.00000000E+00  0.00000000E+00
  0.00000000E+00  0.00000000E+00  0.00000000E+00
  0.00000000E+00  0.00000000E+00  0.00000000E+00
  0.00000000E+00  0.00000000E+00  0.00000000E+00
  0.00000000E+00  0.00000000E+00  0.00000000E+00
  0.00000000E+00  0.00000000E+00  0.00000000E+00
  0.00000000E+00  0.00000000E+00  0.00000000E+00
  0.00000000E+00  0.00000000E+00  0.00000000E+00
  0.00000000E+00  0.00000000E+00  0.00000000E+00
  0.00000000E+00  0.00000000E+00  0.00000000E+00
  0.00000000E+00  0.00000000E+00  0.00000000E+00
  0.00000000E+00  0.00000000E+00  0.00000000E+00
  0.00000000E+00  0.00000000E+00  0.00000000E+00
  0.00000000E+00  0.00000000E+00  0.00000000E+00
  0.00000000E+00  0.00000000E+00  0.00000000E+00
  0.00000000E+00  0.00000000E+00  0.00000000E+00
  0.00000000E+00  0.00000000E+00  0.00000000E+00
  0.00000000E+00  0.00000000E+00  0.00000000E+00
  0.00000000E+00  0.00000000E+00  0.00000000E+00
  0.00000000E+00  0.00000000E+00  0.00000000E+00
  0.00000000E+00  0.00000000E+00  0.00000000E+00
  0.00000000E+00  0.00000000E+00  0.00000000E+00
  0.00000000E+00  0.00000000E+00  0.00000000E+00
  0.00000000E+00  0.00000000E+00  0.00000000E+00
  0.00000000E+00  0.00000000E+00  0.00000000E+00
  0.00000000E+00  0.00000000E+00  0.00000000E+00
  0.00000000E+00  0.00000000E+00  0.00000000E+00
  0.00000000E+00  0.00000000E+00  0.00000000E+00
  0.00000000E+00  0.00000000E+00  0.00000000E+00
  0.00000000E+00  0.00000000E+00  0.00000000E+00
  0.00000000E+00  0.00000000E+00  0.00000000E+00
  0.00000000E+00  0.00000000E+00  0.00000000E+00
  0.00000000E+00  0.00000000E+00  0.00000000E+00
  0.00000000E+00  0.00000000E+00  0.00000000E+00
  0.00000000E+00  0.00000000E+00  0.00000000E+00
  0.00000000E+00  0.00000000E+00  0.00000000E+00
  0.00000000E+00  0.00000000E+00  0.00000000E+00
  0.00000000E+00  0.00000000E+00  0.00000000E+00
  0.00000000E+00  0.00000000E+00  0.00000000E+00
  0.00000000E+00  0.00000000E+00  0.00000000E+00
  0.00000000E+00  0.00000000E+00  0.00000000E+00
  0.00000000E+00  0.00000000E+00  0.00000000E+00
  0.00000000E+00  0.00000000E+00  0.00000000E+00
  0.00000000E+00  0.00000000E+00  0.00000000E+00
  0.00000000E+00  0.00000000E+00  0.00000000E+00
  0.00000000E+00  0.00000000E+00  0.00000000E+00
  0.00000000E+00  0.00000000E+00  0.00000000E+00
  0.00000000E+00  0.00000000E+00  0.00000000E+00
  0.00000000E+00  0.00000000E+00  0.00000000E+00
  0.00000000E+00  0.00000000E+00  0.00000000E+00
  0.00000000E+00  0.00000000E+00  0.00000000E+00
  0.00000000E+00  0.00000000E+00  0.00000000E+00
  0.00000000E+00  0.00000000E+00  0.00000000E+00
  0.00000000E+00  0.00000000E+00  0.00000000E+00
  0.00000000E+00  0.00000000E+00  0.00000000E+00
  0.00000000E+00  0.00000000E+00  0.00000000E+00
  0.00000000E+00  0.00000000E+00  0.00000000E+00
  0.00000000E+00  0.00000000E+00  0.00000000E+00
  0.00000000E+00  0.00000000E+00  0.00000000E+00
  0.00000000E+00  0.00000000E+00  0.00000000E+00
  0.00000000E+00  0.00000000E+00  0.00000000E+00
  0.00000000E+00  0.00000000E+00  0.00000000E+00
  0.00000000E+00  0.00000000E+00  0.00000000E+00
  0.00000000E+00  0.00000000E+00  0.00000000E+00
  0.00000000E+00  0.00000000E+00  0.00000000E+00
  0.00000000E+00  0.00000000E+00  0.00000000E+00
  0.00000000E+00  0.00000000E+00  0.00000000E+00
  0.00000000E+00  0.00000000E+00  0.00000000E+00
  0.00000000E+00  0.00000000E+00  0.00000000E+00
  0.00000000E+00  0.00000000E+00  0.00000000E+00
  0.00000000E+00  0.00000000E+00  0.00000000E+00
  0.00000000E+00  0.00000000E+00  0.00000000E+00
  0.00000000E+00  0.00000000E+00  0.00000000E+00
  0.00000000E+00  0.00000000E+00  0.00000000E+00
  0.00000000E+00  0.00000000E+00  0.00000000E+00
  0.00000000E+00  0.00000000E+00  0.00000000E+00
  0.00000000E+00  0.00000000E+00  0.00000000E+00
  0.00000000E+00  0.00000000E+00  0.00000000E+00
  0.00000000E+00  0.00000000E+00  0.00000000E+00
  0.00000000E+00  0.00000000E+00  0.00000000E+00
  0.00000000E+00  0.00000000E+00  0.00000000E+00
  0.00000000E+00  0.00000000E+00  0.00000000E+00
  0.00000000E+00  0.00000000E+00  0.00000000E+00
  0.00000000E+00  0.00000000E+00  0.00000000E+00
  0.00000000E+00  0.00000000E+00  0.00000000E+00
  0.00000000E+00  0.00000000E+00  0.00000000E+00
  0.00000000E+00  0.00000000E+00  0.00000000E+00
  0.00000000E+00  0.00000000E+00  0.00000000E+00
  0.00000000E+00  0.00000000E+00  0.00000000E+00
  0.00000000E+00  0.00000000E+00  0.00000000E+00
  0.00000000E+00  0.00000000E+00  0.00000000E+00
  0.00000000E+00  0.00000000E+00  0.00000000E+00
  0.00000000E+00  0.00000000E+00  0.00000000E+00
  0.00000000E+00  0.00000000E+00  0.00000000E+00
  0.00000000E+00  0.00000000E+00  0.00000000E+00
  0.00000000E+00  0.00000000E+00  0.00000000E+00
  0.00000000E+00  0.00000000E+00  0.00000000E+00
  0.00000000E+00  0.00000000E+00  0.00000000E+00
  0.00000000E+00  0.00000000E+00  0.00000000E+00
  0.00000000E+00  0.00000000E+00  0.00000000E+00
  0.00000000E+00  0.00000000E+00  0.00000000E+00
  0.00000000E+00  0.00000000E+00  0.00000000E+00
  0.00000000E+00  0.00000000E+00  0.00000000E+00
  0.00000000E+00  0.00000000E+00  0.00000000E+00
  0.00000000E+00  0.00000000E+00  0.00000000E+00
  0.00000000E+00  0.00000000E+00  0.00000000E+00
  0.00000000E+00  0.00000000E+00  0.00000000E+00
  0.00000000E+00  0.00000000E+00  0.00000000E+00
  0.00000000E+00  0.00000000E+00  0.00000000E+00
  0.00000000E+00  0.00000000E+00  0.00000000E+00
  0.00000000E+00  0.00000000E+00  0.00000000E+00
  0.00000000E+00  0.00000000E+00  0.00000000E+00
  0.00000000E+00  0.00000000E+00  0.00000000E+00
  0.00000000E+00  0.00000000E+00  0.00000000E+00
  0.00000000E+00  0.00000000E+00  0.00000000E+00
  0.00000000E+00  0.00000000E+00  0.00000000E+00
  0.00000000E+00  0.00000000E+00  0.00000000E+00
  0.00000000E+00  0.00000000E+00  0.00000000E+00
  0.00000000E+00  0.00000000E+00  0.00000000E+00
  0.00000000E+00  0.00000000E+00  0.00000000E+00
  0.00000000E+00  0.00000000E+00  0.00000000E+00
  0.00000000E+00  0.00000000E+00  0.00000000E+00
  0.00000000E+00  0.00000000E+00  0.00000000E+00
  0.00000000E+00  0.00000000E+00  0.00000000E+00
  0.00000000E+00  0.00000000E+00  0.00000000E+00
  0.00000000E+00  0.00000000E+00  0.00000000E+00
  0.00000000E+00  0.00000000E+00  0.00000000E+00
  0.00000000E+00  0.00000000E+00  0.00000000E+00
  0.00000000E+00  0.00000000E+00  0.00000000E+00
  0.00000000E+00  0.00000000E+00  0.00000000E+00
  0.00000000E+00  0.00000000E+00  0.00000000E+00
  0.00000000E+00  0.00000000E+00  0.00000000E+00
  0.00000000E+00  0.00000000E+00  0.00000000E+00
  0.00000000E+00  0.00000000E+00  0.00000000E+00
  0.00000000E+00  0.00000000E+00  0.00000000E+00
  0.00000000E+00  0.00000000E+00  0.00000000E+00
  0.00000000E+00  0.00000000E+00  0.00000000E+00
  0.00000000E+00  0.00000000E+00  0.00000000E+00
  0.00000000E+00  0.00000000E+00  0.00000000E+00
  0.00000000E+00  0.00000000E+00  0.00000000E+00
  0.00000000E+00  0.00000000E+00  0.00000000E+00
  0.00000000E+00  0.00000000E+00  0.00000000E+00
  0.00000000E+00  0.00000000E+00  0.00000000E+00
  0.00000000E+00  0.00000000E+00  0.00000000E+00
  0.00000000E+00  0.00000000E+00  0.00000000E+00
  0.00000000E+00  0.00000000E+00  0.00000000E+00
  0.00000000E+00  0.00000000E+00  0.00000000E+00