Amorphous GeTe6                         
   1.00000000000000     
    20.7928235405677242    0.0000000000000000    0.0000000000000000
     0.0000000000000000   20.7928235405677242    0.0000000000000000
     0.0000000000000000    0.0000000000000000   20.7928235405677242
   C    Te
    90   210
Direct
  0.6951061769209274  0.9544149894186252  0.5465704499776303
  0.1307348310527341  0.1755574308682282  0.0147549401565128
  0.3442988680007337  0.8556711730027952  0.6847986667840776
  0.1188045794901957  0.3829604561106334  0.1471980765894574
  0.9899158470786296  0.7751657797313242  0.1218638381461729
  0.9096271327478643  0.4520562307017113  0.4442430063976949
  0.2734551114352702  0.5882876675235031  0.2349431726370039
  0.5241940983850715  0.1916379518561622  0.8489534440907548
  0.1358528983897363  0.3914712401654119  0.4152740827253690
  0.5912836727092012  0.9726388558499209  0.2073932486452492
  0.5075779171306842  0.7484652448372258  0.7061002111518606
  0.5541708096388355  0.6439586721510669  0.6148383356771853
  0.2119809182759744  0.2270635797938600  0.5156063972809123
  0.2783948544607316  0.8892370816785382  0.3131657633032989
  0.3323007956356265  0.3839573468429220  0.4493971883025578
  0.3550543380444183  0.1643719470324495  0.8343359856845607
  0.1299200371022608  0.2278772247911317  0.0426182995808420
  0.1274348212218158  0.1262211148404394  0.5510242515002469
  0.4058561342967630  0.8737280996490042  0.6729860135958412
  0.0388377740742260  0.8621094594659938  0.1962616590405354
  0.7806246140182654  0.3032427049781780  0.5300047849342909
  0.5129516445172158  0.7459421242069973  0.8725153551599791
  0.8981624451523129  0.7064524937628850  0.0811297636940029
  0.4125424351352027  0.7647971476017646  0.3680098647487332
  0.9227507511162043  0.4080047085476906  0.3422882283811156
  0.8582826651243075  0.0461318579979230  0.7411398972394569
  0.0546332375556740  0.9043009511403828  0.2433890977592335
  0.1051358030289649  0.1834872280814012  0.5276783344730699
  0.4897372566863261  0.7792276004527232  0.8190240578972847
  0.1750598351456960  0.8245464502003836  0.6246305450867915
  0.2729799334037132  0.9558951612923590  0.3089502149956503
  0.1186315117694519  0.2876770187956206  0.4766553797585992
  0.1042482728899769  0.9523862878796950  0.2479261579457993
  0.5268301028248421  0.1294490577592988  0.8393077046823356
  0.2971772911663090  0.8505769249175102  0.6363609720685255
  0.3677985275057735  0.0822027756957027  0.7404874480490965
  0.3613872998540061  0.3280622547558289  0.4796408451752388
  0.4037077605248384  0.0433324025906965  0.6050854373822546
  0.0124608228374882  0.8202877772770003  0.1598135893757299
  0.8663221234346143  0.0013467272252955  0.8564105385890379
  0.6580714299560639  0.8310730483146308  0.4800641667106172
  0.1042205600879685  0.0664246637626172  0.5538525423439752
  0.2188637307514843  0.9847062519817199  0.2859301704165404
  0.3749573022016531  0.8263252722368880  0.7926281409105392
  0.4257258742605776  0.8039036706261543  0.8145469060222006
  0.9236673038121950  0.7546789886663375  0.1181556691916981
  0.2947297049962151  0.9391801550040465  0.5120672890474536
  0.0352783589650033  0.2014919096673478  0.5350478164252069
  0.3704316237131640  0.8090894651430881  0.3519753877744839
  0.2553654027104127  0.2774586693280863  0.4943473713476373
  0.1448619298716214  0.2334537491783974  0.5040208027314872
  0.1598968115974886  0.3379236212186988  0.4494926021639504
  0.2315240508667876  0.8359006078572927  0.6581398683249974
  0.1265510712809264  0.2857155770688696  0.0786684462448109
  0.5125670336807880  0.8284876840156808  0.1328552082852379
  0.9310424735661849  0.1101569136631926  0.6603725002389075
  0.7069219856725204  0.0199232941133136  0.5354890045603733
  0.8636937353706776  0.4709066435062380  0.4798707407129313
  0.7833130851639261  0.5786754108673884  0.2307398422213872
  0.1222863784274971  0.3356694346569654  0.1133615011781108
  0.1574665131732569  0.0856962647449225  0.2518447978259888
  0.3256440150919433  0.9967241128501504  0.5210460014802200
  0.3258335223133210  0.8400359005315046  0.7506153239443216
  0.5266969347159561  0.0725460231984469  0.8341829572232343
  0.5790374338014495  0.8352741680190556  0.7519684314782284
  0.3303663390179499  0.8499985438278485  0.3341147384832180
  0.5277416391270839  0.7886728846037410  0.7597259840182988
  0.9039660735981994  0.0803576555651924  0.7017107547203869
  0.6809818720207853  0.2829848884094617  0.3469290761205537
  0.1668299512383258  0.9420882579836232  0.2695423224424401
  0.2266661300533024  0.3314342102854358  0.4593323354099427
  0.9530106515866840  0.4303828484317660  0.3936718040357022
  0.7114008917766611  0.0720403537786777  0.5116351104994432
  0.7297192402704487  0.9093772887895107  0.5820329792871560
  0.4660624075606596  0.8933373746505961  0.6707045903854073
  0.3735370247626961  0.0157155533785020  0.5651110253668479
  0.9624465812738267  0.1414258797728275  0.6150049859565632
  0.3239578756468547  0.2795651401474584  0.5027940003133772
  0.0698365363258917  0.3951311889581588  0.3919436111225783
  0.3642246475458966  0.1249165055539317  0.7969274454922664
  0.0210822374988815  0.4352743992538369  0.4108832190666014
  0.2657213071890062  0.3820949650970985  0.4376087689573477
  0.9945960597474576  0.1702013129128122  0.5715526943403186
  0.8618768376803019  0.0347366976746729  0.0052524869186313
  0.8395110433450159  0.5438577217911217  0.2252916073115510
  0.8663453925566241  0.0167137565862311  0.8006569174073646
  0.2109735344740342  0.0537934632603644  0.2762880489685667
  0.5182287721777221  0.2590073542787720  0.8642175637476041
  0.6915621531177250  0.3028969584752952  0.4089636673050472
  0.9175139996863865  0.0440004527918837  0.0350987109138319
  0.8461476539289978  0.5221839527167220  0.7182044454991611
  0.3958423982742080  0.3017887372712244  0.7213097798560621
  0.7790562732180859  0.8354505855704446  0.3349261327759530
  0.3546100130124700  0.0076535280774978  0.3457888454378706
  0.8077362129925684  0.2209632692931311  0.9943444642940772
  0.0577476294191153  0.1677294536440660  0.8535108693340778
  0.7158452990992468  0.1759154319379761  0.0984297853794664
  0.4487217846620312  0.0972030641070050  0.6748106218349872
  0.9128886314242155  0.4329737987564522  0.0121321098518461
  0.2191923012858441  0.5991940634111488  0.5275028359181615
  0.1531913734460284  0.6845280578146504  0.4486664909742240
  0.4734350914516222  0.3773847313273786  0.6123294994024027
  0.0573053929687023  0.5081943205148465  0.4768506768905756
  0.3690865208760138  0.2094166541762474  0.5626346289112290
  0.7240914031674424  0.1556088203833371  0.4618793072931596
  0.7437309254716846  0.8207465221141556  0.1404677475004289
  0.7632947185823936  0.0504440878039568  0.6953819374718331
  0.5520363912734755  0.2650912493369628  0.6674313988444498
  0.2089150258090258  0.9032751330075235  0.0256076145328913
  0.0192106413767623  0.2909472532027817  0.4875368002682396
  0.9567638316596002  0.6484296448377845  0.0214397525158190
  0.8829178794363004  0.5237043311929271  0.9148323347226930
  0.5031623216669880  0.9842368048259748  0.2519330607318025
  0.4405683858410014  0.0174584936951265  0.8610459805804329
  0.1861927920403197  0.6631814133825424  0.7123339100413301
  0.2845901153703611  0.1244798066103445  0.2960597259313180
  0.7739002209748171  0.3890576337782461  0.0242953387677597
  0.8143384273495747  0.6178284833960079  0.6066695235422911
  0.5831979364547237  0.7130845920924729  0.0210743364749014
  0.6614661830741972  0.2398729205842197  0.2660231286201197
  0.6146826415857607  0.7354690692008405  0.8832774932758891
  0.8800072838717365  0.9076689595341382  0.8996290360110735
  0.2989947822077738  0.0717342099140548  0.0126544720401731
  0.1719506887677526  0.3879491274668795  0.2376537481972748
  0.9325663079633469  0.3189752945219613  0.6935811922181220
  0.6617099020477030  0.7809654329892657  0.3946777337213397
  0.4538121307550479  0.7077743319389183  0.9467257778012880
  0.9701686833343243  0.1231603367165361  0.9925007493469791
  0.6287381281142607  0.3634752883455186  0.1992484365735530
  0.2941120302130970  0.5800156772938569  0.7343691533506510
  0.5031723467260459  0.4911986077021460  0.3658637711831967
  0.7485941620903848  0.1921839920002166  0.7347817532824565
  0.9100724413310786  0.2401952306486140  0.0984277215289324
  0.0586214534222858  0.4637871065169339  0.1218688046715768
  0.8087612481505307  0.9256012096611022  0.6422320010340730
  0.9251434739173412  0.7282808094121712  0.3930389629090649
  0.4979820626786351  0.0748479861025021  0.4575617082654961
  0.4110807644323501  0.6721027259157103  0.3207558457913979
  0.0879126012965585  0.0917687127954713  0.0599795778704707
  0.3034719588365771  0.5570335578691148  0.9453769418476914
  0.5669315605875629  0.8831504592709252  0.3388749018673786
  0.1419497323368678  0.3305869651287888  0.8498820593197853
  0.6531310477060075  0.3329458381070946  0.0675029578246569
  0.6058987577884801  0.6142039220817431  0.7029473891624127
  0.2535516812392168  0.7109646872989591  0.0281201433218545
  0.5606864202246591  0.9009949794796165  0.6679990334720657
  0.3472003569407164  0.1353463345054270  0.1296583161810254
  0.7039480571938879  0.9936860748739543  0.9391502307675009
  0.8231704734727725  0.3780680117233198  0.3435422820486623
  0.6802663685898954  0.3279629026893888  0.5017578949524782
  0.4263806632778349  0.4049678245221206  0.8183009304906893
  0.0465678029029661  0.7815118790337161  0.3634817177806917
  0.2904574178749713  0.9775635595387347  0.1110415137974333
  0.0022097294597932  0.1128291337909838  0.3835796590586312
  0.4342244465939058  0.5177410470706828  0.9212606103949496
  0.5829320675035845  0.4936864504876101  0.8758529365605284
  0.9935504083922639  0.3511139911602418  0.9366207878108894
  0.1238963076837450  0.6054996209664476  0.3343898133915543
  0.8113356835263310  0.3698883170873556  0.6086389609463085
  0.2583430421192829  0.6364338279556585  0.3294320276599693
  0.9970392256838659  0.5548728116370616  0.7283323560304670
  0.1266013968236628  0.5740877733919301  0.6258001308525698
  0.9317831569325256  0.5902376735910395  0.2279554373039088
  0.3211033126387532  0.6604189663237310  0.1739816325166402
  0.5125946111312187  0.3488304646501242  0.3353594532917177
  0.4160355910358945  0.8834884483510339  0.9965439485439612
  0.2924574815540859  0.9663545236328729  0.9071422621060968
  0.4105178223534467  0.5835643413346218  0.1059118740146158
  0.1772642101555280  0.1619755834587023  0.9223139334592093
  0.5044555634413375  0.6326200344021201  0.4146894740827559
  0.5516339061627117  0.4946402496256777  0.5468415327691196
  0.1084193855905565  0.3874531827671246  0.6493440831691102
  0.2954498088572658  0.2445970256518509  0.8023969336546481
  0.6956489588605507  0.5362523576427678  0.2007097098366156
  0.5234937556555163  0.3892683745845115  0.0313895028125174
  0.9444230703830451  0.2174309410497553  0.3026920341830223
  0.8498375738416530  0.8927893878664175  0.4385709643447175
  0.7659576752937369  0.8442396683908385  0.8071131054111685
  0.4744774726514541  0.0707099945156369  0.1112051152512159
  0.7764470848187204  0.4915071678981815  0.5172335129680380
  0.5954744946905288  0.8924225125047403  0.8430293775798782
  0.0721445906063362  0.0453538262116196  0.2238179484767795
  0.1826947349156559  0.5587484190600892  0.1864499266789046
  0.5329389008800204  0.1853184576987551  0.0721799174075673
  0.5389390242093799  0.1492787453773760  0.3565513378395007
  0.2275594509267288  0.8245975864863175  0.7606555450621449
  0.9807622581838814  0.4549635288912916  0.8237999049464524
  0.7439849080211327  0.0533027987609625  0.1604583659370866
  0.9605524216247455  0.3981578292988466  0.2461565074653354
  0.0472631947577250  0.0138555014354519  0.8935093547136260
  0.6108083232253527  0.0210898478398756  0.7992636637092634
  0.0221120135858486  0.6759162253247144  0.5906524422396146
  0.8763305103899263  0.1109481535493514  0.4300452205588752
  0.0139342858191286  0.6570003613054596  0.8238651085235706
  0.5222693406324816  0.7893920201552799  0.2313256416068121
  0.9806773756304907  0.4306837296562939  0.6250431061020144
  0.2125777592535399  0.4542317625646579  0.3932565527124063
  0.8687041872340893  0.8143748597923828  0.1855934197465895
  0.2635015556897574  0.3840613877746771  0.6944422673381936
  0.8015957591621115  0.9534898908024009  0.0244887167608056
  0.2779751233413891  0.3027870805975265  0.1636550318321801
  0.4567219707453745  0.6057083119119140  0.6040247897972052
  0.2707575828469336  0.8106707433005318  0.9352915848805079
  0.9584978180459601  0.8477062147192550  0.7959869373157767
  0.4254243354639298  0.6888034684216520  0.7118577415397624
  0.0323042037609697  0.9723226954852472  0.7649020863633188
  0.0434386554543438  0.0164735535775048  0.4841495395530035
  0.4329722262642766  0.4985540627895950  0.7118103980306251
  0.3553501654714258  0.3289704472656722  0.2702245492490892
  0.3778972978366915  0.4750277974080926  0.4405844935432111
  0.1986865545842254  0.7984557919770682  0.1169599459185148
  0.2017662403631823  0.9442025105169691  0.4685672672678536
  0.4634389952008691  0.3234204079383813  0.4870340305386099
  0.7939273599394370  0.2077684903969488  0.5756777721849230
  0.2948821850676494  0.0177915727671022  0.7150684488849585
  0.6309758190518420  0.1094679086499648  0.9980909888812709
  0.3905201274740093  0.1620149392912380  0.9335864425406306
  0.7990612181023568  0.6856242370247279  0.0684190587917804
  0.1325264997282421  0.9987659744117902  0.6256337979658128
  0.0620764725246076  0.3208838821578170  0.3148801903070497
  0.2581601674834790  0.4376653773827558  0.0202082678565845
  0.1029750659248667  0.0894942927340732  0.7266763141819919
  0.0180066801846469  0.2143934467976098  0.1924505009171759
  0.1719515590177793  0.1857295173178848  0.2379744170372019
  0.5421787953105051  0.1586593016545904  0.5570967934564377
  0.1017808961851179  0.6642518613496532  0.2059102967642909
  0.1590449732073272  0.8257288961770430  0.5236258853933385
  0.9564742019583746  0.9777382668163634  0.1018699540924813
  0.9208972378358655  0.9827116178370087  0.5459324720926790
  0.8360820853494212  0.4444714932864062  0.1995974301549615
  0.2102818554856890  0.0335331703737121  0.8158780133587955
  0.2732012018651392  0.3463696355468436  0.9158655328219333
  0.5520216662093159  0.7507225514022347  0.6144255285200696
  0.6946824128702301  0.1618869667022964  0.8561698032381089
  0.7927311463410542  0.6734692938075022  0.2688299519284031
  0.6488318925608372  0.5415342112705609  0.9853436166085964
  0.4905703887854626  0.7833125525875354  0.4292268471514668
  0.4503636376295979  0.5323477136454403  0.2346808676113133
  0.8452552477585960  0.7314837169980807  0.6791107752417946
  0.6857132464552813  0.3403232630578543  0.6626746455505963
  0.4407738146416557  0.2911899868344678  0.9223403823568267
  0.5949961289777103  0.8429556215332069  0.0700345816796156
  0.3322363290021908  0.8499106078132641  0.5426742193134534
  0.5573056869337740  0.5096612181733703  0.0826246054671383
  0.7174282279323131  0.8104731724675500  0.5593686218090581
  0.8246951886150926  0.6449000983201928  0.8103808516587229
  0.5103086227577067  0.9733198834256854  0.9674996014487053
  0.6071195480077333  0.0000453767070876  0.1106476699361429
  0.6331262300647276  0.4768154330440870  0.6646643116443498
  0.5838677729460862  0.3281293361347584  0.8325550526094285
  0.6934501975077836  0.2879490778583350  0.9071502310202805
  0.6618279762968969  0.1013915170908033  0.3383098570671170
  0.7837584869791799  0.6895492772660711  0.4741750519492295
  0.6150912390665915  0.6168683390016527  0.5313770768524232
  0.3844204463385414  0.2690699961487695  0.0844359873941221
  0.9067621368410663  0.2052175717182352  0.7960060832382839
  0.0585399295950475  0.8926511163097800  0.9632703036283178
  0.6294464408601164  0.1450772701024904  0.6723967435939858
  0.2903811567277708  0.0716205608576023  0.4546460788878107
  0.6754142112425621  0.7231560954988662  0.2303721266175796
  0.3202136919347791  0.4910468134726045  0.2446776237911182
  0.8024632781686480  0.5491814517583767  0.0355329937694259
  0.2738847149764229  0.4716581103966003  0.8160861789599434
  0.3261122297568128  0.4562515547651254  0.6053170034487351
  0.9963741790555055  0.8838326940810638  0.6109761382385511
  0.0608839884012901  0.7218032790304421  0.0641849022035528
  0.6189096253715605  0.9234435300668737  0.4845854011454856
  0.0616544231570513  0.7988484286395258  0.8691421283843914
  0.6751639017852635  0.7865882432990640  0.7248179776736849
  0.5019500775003197  0.5854976556610042  0.8031461180997428
  0.8721116179207963  0.2963119774358104  0.8865098903808003
  0.7327923469854287  0.5796186036575682  0.4179612733670346
  0.0643932884652785  0.2893997745406761  0.7343384393551619
  0.7314057344575049  0.4690452018259534  0.7735218372570156
  0.8940077173797616  0.9858303149337339  0.2361803340960653
  0.3301879490875481  0.6863835892263328  0.8776358253735677
  0.8043363106215599  0.2525967520405691  0.1862714550653187
  0.9475789454274436  0.5761325151692390  0.5331165418358599
  0.2365387215119849  0.1475256173793317  0.5740908587158899
  0.8221653302270929  0.0053990986654438  0.3611433383365426
  0.6064511844735104  0.5851425376059078  0.2923140340369934
  0.1480130415182097  0.5990640013516569  0.9941594574817223
  0.3869134063157857  0.4128767185883546  0.0705718090793207
  0.7014542550613676  0.5841384000101412  0.8418890950311955
  0.6722155982619545  0.9395209918337130  0.2536605916750636
  0.7830431705102953  0.7459767956406667  0.8984530291762043
  0.0957179326826689  0.7891198932979469  0.6764621014718177
  0.9891804206001303  0.9007422618713780  0.3253857116116247
  0.8462686788027840  0.2905365599450653  0.4494998248586255
  0.1243675146429159  0.4665781412006275  0.8328070445295928
  0.9204754977832171  0.7766610387316031  0.5672567925209859
  0.4703800769672506  0.7280701733934088  0.1206790883002526
  0.4784194519306229  0.3329949305911911  0.2066635743538548
  0.8437541153569618  0.1171616049021138  0.2340711150864563
  0.9486101865183565  0.6014716711046451  0.3607836034410127
  0.1909807350756950  0.8440947327494819  0.2869184154491050
  0.4360486782651449  0.9019110360945315  0.1303173568582770
  0.8426419827632383  0.0891409958835023  0.9195660184723449
  0.1419494717311558  0.6317279526672571  0.8578742884718210
  0.0971418281078072  0.4640431615870603  0.9882206730555712
 
 -0.92390765E-02 -0.24943449E-02 -0.10087798E-01
 -0.16547950E-02 -0.52183884E-02 -0.12688062E-03
  0.37159995E-02 -0.23607843E-02 -0.76729485E-02
 -0.15761722E-02 -0.81737777E-02 -0.94080801E-02
  0.45479722E-02  0.56229041E-02  0.73476159E-02
 -0.42974524E-04 -0.21538388E-02 -0.35631731E-03
 -0.80912489E-02 -0.29326591E-02 -0.34376059E-02
  0.16453710E-02 -0.21076987E-01 -0.10148513E-01
  0.12566849E-02  0.55719994E-02 -0.28235620E-02
  0.11477338E-02 -0.11587483E-01  0.10599360E-01
 -0.60470780E-02 -0.97163150E-02 -0.11064000E-01
  0.67656222E-02 -0.97117182E-02 -0.86215868E-03
 -0.96148651E-02 -0.11400592E-01  0.41985900E-02
 -0.10095266E-01  0.87177516E-02 -0.41183252E-02
 -0.39746302E-02  0.62730389E-02  0.76805425E-03
 -0.26418409E-03  0.17222506E-02 -0.35634933E-02
  0.55929860E-02 -0.10317770E-01 -0.91711091E-02
 -0.66286085E-02  0.66650242E-02  0.16600840E-02
 -0.53295803E-02 -0.27013418E-02  0.37790138E-03
  0.22489690E-02 -0.23890359E-02  0.13214297E-02
 -0.92697445E-02  0.65468353E-02 -0.10156926E-01
  0.62045920E-02 -0.28261513E-02 -0.13440528E-02
  0.75521850E-03  0.12074876E-02  0.28799977E-02
  0.31397147E-02  0.53008632E-02 -0.10808778E-02
  0.54146065E-02  0.68555216E-02  0.88298440E-02
 -0.14303952E-01 -0.41482351E-02  0.14752838E-02
  0.45313193E-02  0.24306682E-02  0.48361262E-02
  0.20821300E-01 -0.56086874E-02 -0.16125573E-02
  0.14266373E-01 -0.21497707E-02 -0.86222470E-02
 -0.33657006E-02  0.93774298E-03  0.87346263E-02
 -0.12067094E-01  0.40969756E-02 -0.49426803E-02
 -0.50850814E-02 -0.27812841E-02  0.49150002E-02
 -0.15278960E-02  0.28456620E-02  0.13907618E-02
  0.71879815E-02 -0.18203091E-01 -0.76403335E-02
  0.15704320E-01  0.24060968E-02 -0.17208448E-01
 -0.17745114E-02 -0.16151205E-01 -0.12748284E-01
  0.20828674E-02 -0.82694475E-02  0.83332496E-02
 -0.37201065E-03 -0.84065633E-03 -0.31077032E-02
 -0.33609062E-02  0.52096587E-04  0.81607535E-03
  0.23438019E-02  0.10298723E-02 -0.25794091E-02
 -0.41166309E-03 -0.70400324E-02 -0.17364825E-01
 -0.44091423E-03  0.10443994E-01 -0.26505970E-02
  0.69814744E-02 -0.44309236E-02  0.47302827E-02
 -0.84365021E-02 -0.27443780E-02 -0.62809158E-03
 -0.47889655E-02  0.81292726E-04  0.20962121E-02
  0.16526944E-02  0.27778686E-02 -0.56880076E-03
  0.48385531E-02 -0.55251898E-02  0.16104982E-02
 -0.19001681E-01 -0.17226154E-02  0.66349096E-02
  0.78045253E-02 -0.26980498E-02  0.74532359E-02
 -0.19748091E-02  0.14908350E-02  0.47765716E-02
 -0.12472289E-01  0.38149447E-02 -0.24991234E-02
  0.77450262E-02  0.12285250E-01 -0.32564882E-02
 -0.31714971E-02 -0.15682420E-02  0.13319110E-01
 -0.21692676E-02  0.18534274E-01  0.12738645E-01
 -0.34608534E-02 -0.11412270E-02 -0.83681341E-02
  0.55849035E-02  0.23406306E-02 -0.39196551E-02
  0.19216187E-03 -0.56287518E-03 -0.13890431E-02
 -0.56131788E-02  0.33782512E-02  0.23832953E-02
 -0.88405840E-02  0.63881607E-02 -0.41142649E-02
 -0.41002362E-02  0.87217357E-02  0.68709042E-02
 -0.13411303E-01 -0.93006987E-02  0.12068064E-02
 -0.33493058E-02  0.25220648E-02  0.51213590E-02
 -0.14029657E-01  0.67970607E-04  0.58163800E-03
  0.48969617E-02  0.45670934E-02 -0.14776570E-02
 -0.48297431E-02 -0.10395208E-01 -0.76990032E-02
  0.75137434E-02 -0.70445895E-02  0.13453843E-03
  0.57167478E-02  0.15394608E-01  0.13837530E-01
  0.53698707E-02  0.66912334E-02 -0.19478929E-02
 -0.64049140E-02 -0.48371825E-02 -0.25740513E-01
  0.92780433E-02  0.62618041E-02 -0.49453283E-02
 -0.44585403E-02  0.77489781E-02 -0.39171770E-02
  0.65039035E-02 -0.10247480E-01 -0.18246816E-01
 -0.47750559E-02 -0.36681817E-02 -0.14837658E-02
  0.68257434E-02  0.15916732E-02  0.58778054E-02
  0.11102243E-01  0.20821011E-02 -0.32124491E-02
  0.24024715E-02 -0.81655006E-03  0.13242865E-02
 -0.33633204E-02 -0.27966025E-02 -0.26198826E-04
 -0.54621048E-03  0.12552365E-01 -0.42523710E-02
 -0.77697995E-02  0.33351393E-02 -0.41028473E-02
  0.20884003E-02  0.48351458E-02  0.18156004E-01
 -0.74425692E-02 -0.91183411E-03  0.61011099E-02
 -0.47616895E-02  0.89684156E-02 -0.35427233E-02
 -0.49895340E-02 -0.10958069E-02 -0.30483024E-02
  0.12691553E-02  0.57613184E-02  0.62843436E-02
 -0.19794440E-02 -0.26495894E-02  0.84081764E-02
  0.30727763E-02 -0.13317151E-02  0.12606648E-01
  0.10385916E-02  0.38555007E-02 -0.10393706E-02
 -0.43903334E-02  0.30151829E-01 -0.21197134E-02
 -0.47636937E-02  0.86183012E-02  0.11031951E-01
 -0.14535499E-02 -0.77677101E-02 -0.16458678E-02
 -0.27053213E-03  0.87073833E-03 -0.72925692E-04
 -0.20531048E-03  0.98445598E-03 -0.44918437E-03
  0.40196028E-03  0.73037533E-03 -0.15624505E-02
  0.20006971E-03  0.35964534E-03  0.12317725E-02
 -0.54307842E-03  0.21228564E-04  0.16396500E-03
  0.78209811E-03  0.16473290E-03 -0.16544696E-03
  0.37918957E-03  0.74835474E-03  0.73085895E-03
  0.21935538E-03 -0.19800003E-03  0.16482783E-03
  0.45803898E-03  0.31520205E-03  0.76564848E-03
 -0.40384604E-04 -0.12531557E-03 -0.39186985E-03
  0.81824789E-03  0.17152981E-03  0.18372749E-03
  0.71082250E-04 -0.21527368E-03 -0.75094366E-03
 -0.62179678E-04  0.15892977E-03  0.27919145E-04
  0.84771882E-03  0.16187900E-03 -0.30533935E-03
 -0.59634109E-03  0.94814086E-03  0.78520291E-03
 -0.15296210E-03 -0.24371019E-03  0.67772183E-03
 -0.12964548E-04 -0.22932277E-03  0.41599662E-04
  0.61082649E-03  0.23496832E-03  0.91160202E-04
  0.51262425E-03  0.33146073E-03 -0.39144241E-03
 -0.14668262E-02  0.57996432E-03  0.36249435E-04
 -0.30398200E-04 -0.26698286E-03  0.33947425E-03
 -0.16043020E-04 -0.25159244E-03 -0.54587980E-03
 -0.16891962E-03  0.34422616E-04 -0.78112365E-03
  0.12456529E-02  0.10904015E-02 -0.91881866E-04
 -0.20458308E-03 -0.41579623E-03 -0.10961571E-04
  0.14848735E-03 -0.41874107E-03  0.35183142E-03
 -0.52819794E-03 -0.50243615E-03  0.48062042E-03
 -0.16680240E-03 -0.31695605E-03  0.59314736E-03
 -0.15707856E-03 -0.48268968E-03 -0.58284767E-03
 -0.20645818E-03  0.10829733E-02  0.10882194E-02
  0.94227446E-03 -0.20273795E-04  0.47703943E-03
  0.11197807E-03 -0.37215735E-03 -0.53079921E-04
  0.13915845E-03 -0.59083776E-03 -0.89557853E-03
 -0.32304532E-03 -0.26955723E-03  0.29213995E-03
 -0.22913706E-03 -0.42426315E-03  0.40178692E-04
 -0.10147927E-03  0.30705100E-03 -0.68385372E-04
  0.97438322E-03 -0.43576617E-03  0.77265989E-05
 -0.36041759E-04  0.19582872E-04 -0.57247248E-04
  0.33322762E-03  0.10525574E-03  0.44059967E-03
  0.64470981E-03 -0.93866331E-03  0.21610262E-03
 -0.73806350E-03 -0.34514471E-03 -0.78591954E-03
 -0.45953996E-04 -0.17405555E-03 -0.29038553E-03
 -0.49505253E-03 -0.51165489E-03 -0.32613485E-03
 -0.15141815E-03 -0.37933237E-03  0.17554903E-03
  0.33929960E-03 -0.20399560E-03  0.39985080E-03
  0.60165087E-03 -0.26243032E-03  0.14826429E-03
  0.15568962E-03  0.12199882E-02  0.95558835E-04
  0.39278359E-03 -0.53118914E-03 -0.19211409E-03
 -0.13245120E-03  0.14539857E-03 -0.14660096E-04
  0.38750531E-03 -0.66740184E-03 -0.47689424E-04
 -0.17596976E-03 -0.11630751E-02  0.22978095E-04
  0.46573085E-03 -0.40807743E-03  0.61344951E-03
 -0.39818499E-03  0.10988221E-03 -0.21429025E-03
 -0.31070213E-03 -0.73336549E-04 -0.15795109E-04
 -0.26951964E-03 -0.40985728E-03 -0.24402291E-03
 -0.86191943E-03  0.14878593E-04 -0.43242010E-03
  0.11631430E-02 -0.62986647E-03 -0.13790642E-04
 -0.31467345E-03  0.33035361E-03  0.90793470E-03
 -0.56523981E-03 -0.27605984E-03 -0.23889615E-03
  0.15855964E-02 -0.77961378E-03  0.11764989E-02
 -0.23085360E-03 -0.59351974E-03 -0.54485356E-03
 -0.45229330E-03  0.53919981E-04 -0.54561263E-04
  0.90898763E-03 -0.93600304E-03 -0.34948590E-03
 -0.11546361E-02  0.30577887E-03  0.98560782E-03
  0.70753573E-04  0.44102735E-05 -0.33927267E-03
  0.38495571E-03  0.14056022E-03 -0.89625459E-04
  0.24678304E-03  0.27767784E-03  0.15434616E-02
  0.18270802E-03  0.11015810E-04  0.23954494E-04
  0.84019963E-03 -0.54525395E-03 -0.12713713E-02
  0.13865712E-03  0.47208636E-05 -0.87866139E-03
 -0.24702955E-03 -0.87268847E-03  0.44640222E-03
  0.13448003E-03  0.20036956E-04 -0.91790187E-04
 -0.31148256E-04  0.20206234E-03 -0.14014115E-02
  0.28246919E-03  0.27882565E-03  0.58619811E-03
 -0.46173286E-03  0.27587973E-03  0.19921118E-03
 -0.74625747E-03  0.21107010E-03  0.25478343E-03
  0.39964055E-03  0.31219007E-03 -0.20521305E-03
 -0.58459942E-03 -0.95940594E-03 -0.18271345E-03
 -0.82081886E-03 -0.31329565E-03 -0.14278779E-03
 -0.31404832E-03 -0.39436014E-03 -0.57501431E-03
  0.64492466E-03  0.41508725E-03 -0.10000045E-03
  0.11734497E-02  0.17419068E-04 -0.30298402E-04
  0.81487086E-03 -0.33766428E-03  0.15273289E-03
  0.59190245E-03  0.41861531E-03  0.45682605E-03
 -0.77030855E-03  0.29160858E-03 -0.68207521E-03
 -0.67398742E-03  0.50804689E-03  0.50766458E-03
  0.27205262E-03  0.48189131E-03  0.85841702E-03
  0.15276797E-03  0.45267685E-03  0.22343010E-03
 -0.58329715E-03 -0.44878902E-03  0.36780548E-03
  0.17278986E-03  0.26994922E-03 -0.47942241E-03
  0.73638034E-03  0.80361691E-03 -0.35270338E-03
 -0.12355694E-03 -0.27399246E-03 -0.47699982E-03
  0.54332506E-03  0.40878851E-03 -0.65365747E-04
 -0.88569031E-03 -0.10407960E-02  0.21983738E-03
 -0.69147783E-03 -0.21862151E-03 -0.88498395E-03
  0.36771807E-03  0.27466277E-04 -0.26506712E-03
 -0.42884196E-03  0.16229027E-03  0.58174775E-05
 -0.25010334E-03  0.25828701E-03 -0.18049944E-03
  0.25491694E-03  0.39619353E-03 -0.12752259E-03
 -0.23452855E-04 -0.49187668E-03  0.10560296E-03
 -0.79047386E-03  0.64702860E-03  0.10585670E-04
 -0.37341183E-03 -0.38162204E-03 -0.26222555E-03
 -0.10467062E-02 -0.62837947E-03  0.36406215E-03
  0.34308185E-04 -0.60929165E-03 -0.15871148E-03
 -0.29693007E-03 -0.81244553E-03  0.28047167E-03
 -0.83549512E-03  0.75297755E-03  0.71144858E-03
 -0.27677315E-03 -0.51774425E-03 -0.12183627E-03
 -0.49849862E-03  0.35878915E-03 -0.68732018E-03
 -0.30491776E-03 -0.12683532E-03 -0.78516138E-03
  0.90881287E-03 -0.31610238E-03  0.87849313E-03
  0.33231417E-03 -0.54194993E-03  0.98472319E-04
 -0.22451390E-03 -0.29448425E-03  0.16853497E-03
  0.14714610E-02  0.11683966E-02 -0.45943464E-03
  0.27265317E-03 -0.26353043E-03 -0.39833374E-04
  0.23024994E-03 -0.60008461E-03 -0.11261836E-04
 -0.37952799E-03 -0.36832404E-03 -0.87733270E-03
 -0.34366665E-03 -0.57010162E-03  0.51916504E-03
  0.47312665E-03  0.34277501E-03 -0.22480772E-03
 -0.43081117E-04  0.11239222E-03 -0.30306563E-03
 -0.31329871E-04 -0.82649931E-03 -0.18700045E-03
  0.11785753E-03  0.17865797E-04  0.81666794E-04
  0.25555956E-03  0.78047404E-04  0.30027872E-03
  0.24696021E-03 -0.50383155E-03  0.28892596E-03
 -0.63566419E-03  0.31922196E-03  0.56042388E-03
 -0.70459749E-04  0.39603456E-03  0.19186255E-03
 -0.19563743E-03  0.94834399E-03  0.56748686E-04
 -0.42852651E-05  0.35902142E-03 -0.59821572E-03
 -0.52235180E-03 -0.55914669E-03  0.67000701E-03
  0.34392309E-03 -0.40906738E-03  0.37884242E-03
 -0.95847509E-04 -0.26736218E-03 -0.14465511E-03
  0.30155171E-03 -0.42857741E-03 -0.81419549E-04
  0.62097957E-03 -0.20074446E-03  0.43914021E-03
 -0.66735150E-03 -0.16028618E-02 -0.12231205E-02
  0.18016339E-04 -0.15672755E-03 -0.13221149E-04
  0.34204220E-03  0.87085662E-03 -0.55864677E-03
  0.31055771E-03 -0.34635150E-03  0.81212130E-03
 -0.35037134E-03  0.70461748E-03 -0.23089200E-03
  0.45686382E-03  0.85235798E-04  0.56707226E-04
 -0.43467057E-03  0.35228112E-03  0.20434966E-04
  0.22952013E-03 -0.16820515E-03 -0.36560662E-03
  0.46036649E-03  0.16637705E-03  0.23583882E-03
 -0.20003783E-03  0.68037327E-03  0.67077460E-03