Amorphous Sb                            
   1.00000000000000     
    20.5635286334900265    0.0000000000000000    0.0000000000000000
     0.0000000000000000   20.5635286334900265    0.0000000000000000
     0.0000000000000000    0.0000000000000000   20.5635286334900265
   Ge   Se
   150   150
Direct
  0.9280873455208904  0.0015353890601925  0.9064134237916934
  0.9816097350109150  0.3597868500537200  0.9936616519027026
  0.1325511851496526  0.2535391991687463  0.5622556031286121
  0.6833469686815277  0.2301542518331424  0.7595211011874859
  0.0534853639705861  0.7331812599797187  0.8830375742070666
  0.2267960183211934  0.8019756273661155  0.0624785936562492
  0.8929669321011442  0.1094050418942933  0.3535879805505486
  0.0198040553212285  0.7185472990573796  0.5191488722561037
  0.2458738315522365  0.6971165878345714  0.3033363259696681
  0.2375613480519759  0.0107316673979602  0.3394882741598928
  0.8260259053860975  0.4132910826111522  0.5890662508635518
  0.7417947600400304  0.4687447575465081  0.6693257607546838
  0.3962866025978624  0.2725319514199899  0.6178226062881482
 -0.0192742740116593  0.0862324595181735  0.1889041646688654
  0.6796819294254226  0.8123158430592451  0.5300765542149897
  0.9843197994262062  0.7526058026243397  0.3057217469573489
  0.9593441207912228  0.7254927322094685  0.6855101846301402
  0.0622758036083867  0.3621294552827921  0.2394960423255771
  0.0666106316722194  0.1511643102064426  0.0165581128354143
  0.0541079018085775  0.2140346202925288  0.3491760030252099
  0.1922603250971134  0.4824262233054306  0.2066823718458657
  0.5248933869541287  0.0617096365537284  0.9067901180945115
  0.0386239311826107  0.0722163733187366  0.7090324275177735
  0.0455701712045231  0.0339373312075931  0.2850312471880547
  0.6134454354719301  0.2611202060807719  0.1911994452374607
  0.5544222161462399  0.2927195767830524  0.6975712230599815
  0.5688251404381834  0.9288833317330865  0.6937525193464358
  0.7473413658827933  0.1617459404531528  0.9949575518380814
  0.9703058876908200  0.6805543507503180  0.8014890197130706
  0.9568786131141777  0.9684313971944203  0.5613412529327902
  0.9459976935337071  0.4008593346403731  0.6982960166246535
  0.7051402458115368  0.3022609798237925  0.5169760879281048
  0.8031161863165076  0.3742582655188604  0.1528446192870003
  0.6006201980150746  0.0685875181589895  0.3226484386182820
  0.7661782472790523  0.5701487676721176  0.3007184061314850
  0.9300705306067130  0.6047510020487689  0.0997255580236165
  0.5608584688835649  0.4900995642294630  0.8852253669468780
  0.4917921829563899  0.9570921067255991  0.2667355999254093
  0.3852969232911044  0.3075542086581404  0.1430337658417304
  0.7288739760473494  0.4158228291175993  0.0098603190659454
  0.5018639474868434  0.1437547194089511  0.5697266471002205
  0.8711058316808300  0.0282511710133997  0.4972803136189688
  0.7496463473524287  0.8456997088811418  0.0871026730120226
  0.2437892151626716  0.1878784467141712  0.8798264232926226
  0.4248663729161560  0.7994052744611780  0.2247198459263726
  0.5820396061606322  0.4531584950621134  0.5557699368093051
  0.7079445632049356  0.1356150205156698  0.3276601601820461
  0.2064350846633367  0.1300882126413503  0.6499807935841084
  0.7983286406591910  0.5650976203362948  0.9928248109288400
  0.3125461794023102  0.9267066234167184  0.1909158703636844
  0.9395490070157385  0.8155344865236195  0.5173904251934842
  0.4977995847412109  0.1909417812848956  0.0533003278913065
  0.4913402794786121  0.8295366430206959  0.7238739828173217
  0.6152660126346698  0.2323220119272360  0.9097896030599566
  0.1046910598570230  0.5475637370893712  0.8323627829779753
  0.0616453568800707  0.0846298493605666  0.4625976414646324
  0.0402670750562543  0.3366481006271237  0.8002999840193438
  0.8955519527469357  0.5884826880886558  0.5697166871465256
  0.8359601292707547  0.0762656886519007  0.6669356965791224
  0.4728349005770643  0.6223885656266893  0.2114640919203391
  0.7048907176781438  0.9350877153984499  0.7977375410866100
  0.7877606527536589  0.9617110469563425  0.3042321553034643
  0.8202466485418319  0.7012023854796428  0.4224819918712882
  0.0448063949242846  0.7811121106845397  0.0642175001030443
  0.7593012311307097  0.7294778495280192  0.0343185694414616
  0.6439590212857301  0.4875892960634146  0.7790988988136596
  0.7042756220878276  0.9963633831528922  0.4616137285322124
  0.9474893648824954  0.5674577709379256  0.9270991381891669
  0.8316384368386329  0.2828980670771909  0.3030532031499649
  0.8677066892726596  0.2169530166778514  0.6925751479404746
  0.3876866595563158  0.7569508320331471  0.0237964818405318
  0.5691004287614956  0.8269596649598355  0.0964839528062508
  0.5287808552657204  0.4142327982462907  0.6624027930155703
  0.3099732704003141  0.8903313897881535  0.4646448696911585
  0.0723524180234296  0.6475632008694400  0.0111886685858754
  0.8253071134615214  0.7512348056877639  0.2334186174447518
  0.3387350432372586  0.2228856928813390  0.3059794194290935
  0.0597956042302217  0.8861143577608900  0.9878405916002302
  0.2058952933503956  0.2769581633931352  0.7186180108602820
  0.3597481687605599  0.3238133392802182  0.9668061966289936
  0.6493637050811385  0.0125770510511170  0.0712764776656751
  0.0495185153017330  0.4647693397339306  0.0759885679589254
  0.4454938190112874  0.4612196198718874  0.0305742752381958
  0.5195411081048020  0.4417958719045152  0.3831832789032055
  0.4431496980903628  0.1368743554399021  0.7231084094796572
  0.4268422138966058  0.9859096220574693  0.7788357558895235
  0.3615024757555579  0.7594231716202114  0.5828786627836853
  0.9228324962900687  0.4551870279033442  0.2803980079935183
  0.6682536831737339  0.7152816720460299  0.1837161428331605
  0.5441623448291032  0.2010322309037615  0.3080690876381785
  0.1429126010284160  0.9488246269498487  0.9179952410300141
 -0.0133164715373320  0.4482079988390341  0.4502993000830061
  0.2159799402124160  0.6135198082124991  0.8408799434210301
  0.5393686832748862  0.0923319992976546  0.4589859654846563
  0.9047189045980859  0.8935446953049797  0.6533130054313682
  0.7350782295663518  0.6322668533053182  0.5593509524630399
  0.1723302049170270  0.8941323031876159  0.2078172469312628
  0.2816781322590042  0.1687623628332805  0.4787432361763123
  0.1434992981307690  0.8173675211190020  0.4221526614995187
  0.5882168644241595  0.8432156698442742  0.8908442116427127
  0.4191443430457556  0.5994082095191570  0.9152740945039884
  0.6503486417309797  0.2952427786139350  0.0398755703798988
  0.3168991817917061  0.5507848648454186  0.2953778867995122
  0.8523101482960489  0.1519195007389118  0.4660026527323687
  0.2976378843057123  0.8935008112384216  0.6961097902890668
  0.6264851063423830  0.5602679118387033  0.0325809344005845
  0.9466160253189817  0.2699385647596699  0.1405237074378182
  0.7120833173180926  0.4259548108147261  0.3965001750424663
  0.2305028944107265  0.3833166084931404  0.7922876021128915
  0.9374860889795763  0.1638771211029436  0.0063207913625425
  0.1978630611667745  0.6591048231830661  0.6585416451627010
  0.4321063615933417  0.9432938704624503  0.0151641999549820
  0.1603376843991415  0.0701753023375021  0.1800046690711279
  0.6568944894778630  0.2204828600888031  0.6367832134932516
  0.4408565719892462  0.6550418505267038  0.3910160850643755
  0.5413393366321448  0.7353578572179238  0.5260553730376746
  0.3345163469666533  0.1427136129477846  0.1588081600414260
  0.7948923589820879  0.7570828591094624  0.7508721088072183
  0.1731677698204385  0.3771942445341447  0.3353860519689148
  0.3665681299756864  0.6411535868929207  0.7139578428474870
  0.5970335969306269  0.5467604200255254  0.3420445839099577
  0.9393677973483888  0.9323661466968030  0.1217862439959072
  0.8752322347944939  0.4728606435706739  0.8477780624250097
  0.1171181210877583  0.8776949302802923  0.5681557895980017
  0.2797095884067989  0.3333725106256222  0.4647566043144242
  0.4734446049660010  0.0936469046515352  0.1477849067722776
  0.1386278856661538  0.8538387210422086  0.7362217989351770
  0.7707222504702982  0.1256191852893488  0.8545829321555096
  0.2511606298805017 -0.0130072685685731  0.0646961617471091
  0.6622595641296464  0.7490134137338185  0.7591454980342709
  0.0037214616621759  0.8547580903763135  0.2275302326669045
  0.9087560552861378  0.6234371212260834  0.3799484221643973
  0.5699720092521109  0.9352224008454613  0.4637390900357697
  0.5420774963330198  0.8348529540022184  0.3947378267793418
  0.8005798005077053  0.5721408504361222  0.7888655838096739
  0.2680870832672303  0.5550610042103359  0.0252749606528871
  0.4140289527802123  0.2584796129849644  0.4763646223028090
  0.3955805148721519  0.0360789883396143  0.3483606394830313
  0.3920853699854008  0.4810874174287137  0.5308487581215291
  0.0206281278342845  0.6371480392833881  0.4278849757802763
  0.5726735861071781  0.4584351157872021  0.1971931610802843
  0.1095347146799379  0.2809517521368609  0.8923449455237191
  0.4289362960475603  0.3548602482388927  0.2825150048360880
  0.2158607598441328  0.0274967675403827  0.7927511174429361
  0.3726895578128444  0.5147630831969850  0.8363581247072234
  0.0402857890159864  0.9126084573743920  0.7925780793214665
  0.2675747589997321  0.7369248061947284  0.9076717720757312
  0.8287072546638475  0.0120480077866142 -0.0018558450045630
  0.3094895266286191  0.6667640617188808  0.4588978317205723
  0.7769455474576862  0.8778147985581553  0.8845862152072907
  0.9183490741470013  0.1242073230142459  0.8953740463566576
  0.7995189155092808  0.3787801316199327  0.4744113883044725
  0.0775777543028605  0.2766522327747362  0.0099629600246876
  0.9353051766313193  0.4733745058870728  0.5854638344876284
  0.3893753752365384  0.8645081157690270  0.7796123245887798
  0.8059752338529426  0.4046891814294733  0.2755365063635151
  0.5363534002844631  0.3014546460615368  0.0902282921974343
  0.5556778335998982  0.1177877922472042  0.6717358306785776
  0.8301500546607867  0.2564991951798677  0.1808941104249644
  0.7813961602069366  0.1783806866983161  0.6162048287942795
  0.6260557696694675  0.7550514971355606  0.4289556178629812
  0.4462716627411845  0.4357103495536871  0.9009713291951073
  0.0118741407083417  0.8262812482176125  0.6546517949514451
  0.0892949915002018  0.9205624526590432  0.2994388153970324
  0.1637546697482134  0.4298199122021767  0.1073192319284621
  0.4362549964443490  0.9209820717553676  0.1618371762072905
  0.6587019906851129  0.1761564628416746  0.0783453913910234
  0.4146959970949225  0.4132788782793916  0.6295490689792718
 -0.0001083101300613  0.0759727882288580  0.5911947892140025
  0.9569587595396143  0.1747897922023342  0.2742938708983631
  0.8436909330393734  0.1140374237866939  0.0674263173822175
  0.2764758165383630  0.1897172473112810  0.7612925383248793
  0.2109975933561274  0.9025593320615364  0.8299770487357570
  0.1250417659531212  0.7425491212088420  0.7847730393613578
  0.2708428458624116  0.4191832599352737  0.2667798183136172
  0.5373473384771765  0.6040815227631156  0.9190640907702807
  0.2050460203271572  0.4218894788998034  0.4423433276369089
  0.9564974608598152  0.0085031083735005  0.3590091611216554
  0.3064847667382146  0.8426008326049477 -0.0226239121621206
  0.4882310623054243  0.8336657234574064  0.9970404880603222
  0.3026093180427419  0.1047771078870140  0.2758694596888372
  0.6773087735103139  0.3593634717086932  0.1510781800809902
  0.7958157752142890  0.9961563844710599  0.5869342290067555
  0.5377145688771922  0.5474758641037862  0.1195524263606455
  0.3896980098585244  0.5751138530179047  0.0303038717568848
  0.4618969026054833  0.7369026914373898  0.6522237103209744
  0.6575273050619573  0.7129820814091303  0.6044107707261591
  0.3590067001344118  0.8827956653315110  0.5879135032392925
  0.8133683330456188  0.9501030428287516  0.1041476922571202
  0.6572853728396700  0.5491098560307194  0.2373891656023368
  0.3714817532893568  0.6800821066922381  0.2897940084769182
  0.1230593058285209  0.1684651654616852  0.8641592635249759
  0.2451802179248839  0.2905685830713945  0.6055804158922081
  0.9844138118857026  0.3648559172594157  0.3372786441890087
  0.5315661120990212  0.0232648545641041  0.0266170023661457
  0.6786345721226924  0.8669567135431416  0.7006995569762045
  0.8510298747430878  0.6772121734371740  0.8299914356502980
  0.0263887546708495  0.8975626254799566  0.4824815473235040
  0.7508888535834998  0.6966089909778620  0.3185271845220949
  0.5457760710349503  0.8431191563695741  0.2759430523033998
  0.8068646927111419  0.5838106296190712  0.6603735508481873
  0.5445936815710928  0.6553427943737883  0.3169366088686944
  0.8375565912247233  0.4073656969210526  0.7524056998119927
  0.0741257524012246  0.1530141571143604  0.1454926685785933
  0.6682950021441968  0.9661036213057999  0.3424566407885579
  0.6053476139287822  0.4420519842112896  0.9916052385714490
  0.0699451842968604  0.5362745277185664  0.4563059029593380
  0.1172062458940911  0.4344121750520851  0.7831207438680089
  0.8939018160145900  0.2782762879996170  0.0245723478583856
  0.1506486041903475  0.0197168335317782  0.6839274439377068
  0.2984127075908090  0.8049575428670717  0.1643478565740536
  0.4606528478698688  0.4765658371991111  0.2728251881361992
  0.5129930073790181  0.2664112737837210  0.5568321403077743
  0.9486679235551642  0.3532252957476601  0.8747230689781441
  0.2374605501601380  0.2430325982029868  0.3854038764900217
  0.4599925883526187  0.1703449664856854  0.3981579655339601
  0.3928961365424928  0.7148577444419975  0.9009832273014829
  0.9560195608054581  0.9764164289841351  0.7364481354974555
  0.6845963175712221  0.6032940474285380  0.7942946921654813
  0.8151398999456644  0.9473929902656285  0.4261480654343406
  0.7093501357427279  0.2525841064732030  0.3109009129978462
  0.5484794659088703  0.3251863574679436  0.2959525645341826
  0.5650504162821343  0.8557912019395025  0.5615321932519030
  0.7820633771959856  0.6735502860576692  0.1450448606809529
  0.1332103380224966  0.7558723167938672  0.5334298669879067
  0.0068582246003780  0.6415164245166327  0.6131004138744395
  0.7972406831307939  0.2390783406796122  0.7956055040328429
  0.9500464864354422  0.6756624928355662  0.9964842259064132
  0.1924796452403124  0.9257122969983221  0.4764931090816897
  0.9669785612555157  0.3950706579677459  0.1589660491075647
  0.8503144488067297  0.8546574600668425  0.7903675255437235
  0.6366661715282754  0.7226364192384653  0.0605093600427352
  0.9035208863810642  0.7894656868370848  0.3925317570621826
  0.2354665451896833  0.6814668528306952  0.0147126491457679
  0.6833583331773425  0.5153845849376033  0.5658213004677101
  0.1101289680062156  0.2097322264242817  0.6799167668031658
  0.9332804488553454  0.8141777340644293  0.0938715570914029
  0.4419845877821900  0.2651648363974677  0.7352166470026025
  0.2854726660067015  0.2517198260378197  0.1951295920150533
  0.7287966822250741  0.1219045118861553  0.4446347106257692
  0.8893565404810048  0.5077893861498705  0.4003402145851635
  0.2627886455610490  0.7751763403903292  0.4136586436469021
  0.7157483085604689  0.8335155838818930  0.1998587941164292
  0.5391660338928663  0.7627458734112166  0.8099894985899149
  0.0836734885703613  0.7000233012529049  0.3487924241689979
  0.8972777734765148  0.3181561632355864  0.6194119485686633
  0.4463164535093020  0.7736001019467181  0.4345739877587651
  0.2273742768094136  0.3178464991632157  0.8984147447576131
  0.5414559734373283  0.5167936919308489  0.7187069417091434
  0.2527918715820759  0.5727556874027849  0.7314286955974723
  0.4819687631887597  0.7254962034814589  0.1455301564651823
  0.0654460755224970  0.5292022728688471  0.9450790085324868
  0.5847918410889762  0.9525801580931428  0.8179692320820731
  0.6571252695587133  0.8952597198772716  0.0277896704272133
  0.9036932103181183  0.5026688485264115  0.0255411578187602
  0.3888662712870986  0.1367102682488237  0.6102355486888601
  0.2590219605217410  0.6038319268533880  0.5588593263413663
  0.2665121956090505  0.5145252417762447  0.9019056631336038
  0.5003815613427339  0.1919509542109560  0.9304462984174620
  0.6431472938266711  0.1408071221085284  0.8312760713006837
  0.1213743088846385  0.1068457238495084  0.3423826479554213
 -0.0046620193112917  0.8426312123102379  0.8889267931056067
  0.9285304224333141  0.6550333127640772  0.2641573461889147
  0.1349143979915999 -0.0363506563669400  0.1122009097381361
  0.3034637775437788  0.0494311432828421  0.4368626721407634
  0.2370986932107379  0.1088048501372285  0.0918134584421911
  0.7658701529648910  0.0370606034455310  0.7635110897067809
  0.8521802884973311  0.7434473200990199  0.6427288357277511
  0.4055991823927896  0.3651681897291907  0.4111880813913291
  0.0503636681495494  0.5825308130457083  0.1210701815930179
 -0.0024178867570376  0.1876795296551964  0.4546045395251948
  0.4105494737377319  0.0126569630407556  0.8991205190129090
  0.0649451921852821  0.0120258575738716  0.8544362365227700
  0.6147296323541965  0.3786385189991088  0.4661850033539494
  0.8025033245802751  0.0830693562713510  0.2729187376250234
  0.6145652481230459  0.3156151112315592  0.8117301652192181
  0.3333112751123317  0.9259196310324689  0.3183640471810408
  0.7019368833866320  0.7812220193898843  0.8772642117788645
  0.6922747069205022  0.3433700706676226  0.6310813999771900
  0.5035038837219913  0.5220276212490217  0.4945073336930604
  0.2348095216478193  0.6024219980527304  0.3814736502260724
  0.0033014422687964  0.5691789443031116  0.7705233459038904
  0.4647331669125607  0.9957252042717052  0.4679463352607941
  0.3344055673038496  0.3970259321399290  0.0580730552301719
  0.2455725636383777  0.5869205151023420  0.1984412947329547
  0.9923393304061412  0.9850283998933831  0.0150556348341288
  0.7143777739186284  0.0434592525887645  0.9643978058643565
  0.3701571270286580  0.5970963086277100  0.5929443295131943
  0.4610136472072838  0.1934393314399347  0.2192296380976151
  0.2908989977853368  0.7359495331325897  0.6865901192209574
  0.1676312249622264  0.1373860651785986  0.5225104534450493
  0.0998648012983310  0.4755699465795747  0.2795927495313612
  0.7355810485924397  0.5133780926224434  0.0867756971751482
  0.3763760675385976  0.2259719958486856  0.0466329239639820
  0.5743752672945217  0.0333958102808837  0.2050120135237687
  0.7059004375714802  0.5535899464552463  0.4091178157755541
  0.2077041339936261  0.0335834818623123  0.9606256967693485
  0.0994134802491054  0.7951902502725671  0.1772699926924330
  0.7630797005975224  0.4792670864884870  0.9059837330346574
  0.3183762859212969  0.0153497360907923  0.7211467813819985
 
  0.00000000E+00  0.00000000E+00  0.00000000E+00
  0.00000000E+00  0.00000000E+00  0.00000000E+00
  0.00000000E+00  0.00000000E+00  0.00000000E+00
  0.00000000E+00  0.00000000E+00  0.00000000E+00
  0.00000000E+00  0.00000000E+00  0.00000000E+00
  0.00000000E+00  0.00000000E+00  0.00000000E+00
  0.00000000E+00  0.00000000E+00  0.00000000E+00
  0.00000000E+00  0.00000000E+00  0.00000000E+00
  0.00000000E+00  0.00000000E+00  0.00000000E+00
  0.00000000E+00  0.00000000E+00  0.00000000E+00
  0.00000000E+00  0.00000000E+00  0.00000000E+00
  0.00000000E+00  0.00000000E+00  0.00000000E+00
  0.00000000E+00  0.00000000E+00  0.00000000E+00
  0.00000000E+00  0.00000000E+00  0.00000000E+00
  0.00000000E+00  0.00000000E+00  0.00000000E+00
  0.00000000E+00  0.00000000E+00  0.00000000E+00
  0.00000000E+00  0.00000000E+00  0.00000000E+00
  0.00000000E+00  0.00000000E+00  0.00000000E+00
  0.00000000E+00  0.00000000E+00  0.00000000E+00
  0.00000000E+00  0.00000000E+00  0.00000000E+00
  0.00000000E+00  0.00000000E+00  0.00000000E+00
  0.00000000E+00  0.00000000E+00  0.00000000E+00
  0.00000000E+00  0.00000000E+00  0.00000000E+00
  0.00000000E+00  0.00000000E+00  0.00000000E+00
  0.00000000E+00  0.00000000E+00  0.00000000E+00
  0.00000000E+00  0.00000000E+00  0.00000000E+00
  0.00000000E+00  0.00000000E+00  0.00000000E+00
  0.00000000E+00  0.00000000E+00  0.00000000E+00
  0.00000000E+00  0.00000000E+00  0.00000000E+00
  0.00000000E+00  0.00000000E+00  0.00000000E+00
  0.00000000E+00  0.00000000E+00  0.00000000E+00
  0.00000000E+00  0.00000000E+00  0.00000000E+00
  0.00000000E+00  0.00000000E+00  0.00000000E+00
  0.00000000E+00  0.00000000E+00  0.00000000E+00
  0.00000000E+00  0.00000000E+00  0.00000000E+00
  0.00000000E+00  0.00000000E+00  0.00000000E+00
  0.00000000E+00  0.00000000E+00  0.00000000E+00
  0.00000000E+00  0.00000000E+00  0.00000000E+00
  0.00000000E+00  0.00000000E+00  0.00000000E+00
  0.00000000E+00  0.00000000E+00  0.00000000E+00
  0.00000000E+00  0.00000000E+00  0.00000000E+00
  0.00000000E+00  0.00000000E+00  0.00000000E+00
  0.00000000E+00  0.00000000E+00  0.00000000E+00
  0.00000000E+00  0.00000000E+00  0.00000000E+00
  0.00000000E+00  0.00000000E+00  0.00000000E+00
  0.00000000E+00  0.00000000E+00  0.00000000E+00
  0.00000000E+00  0.00000000E+00  0.00000000E+00
  0.00000000E+00  0.00000000E+00  0.00000000E+00
  0.00000000E+00  0.00000000E+00  0.00000000E+00
  0.00000000E+00  0.00000000E+00  0.00000000E+00
  0.00000000E+00  0.00000000E+00  0.00000000E+00
  0.00000000E+00  0.00000000E+00  0.00000000E+00
  0.00000000E+00  0.00000000E+00  0.00000000E+00
  0.00000000E+00  0.00000000E+00  0.00000000E+00
  0.00000000E+00  0.00000000E+00  0.00000000E+00
  0.00000000E+00  0.00000000E+00  0.00000000E+00
  0.00000000E+00  0.00000000E+00  0.00000000E+00
  0.00000000E+00  0.00000000E+00  0.00000000E+00
  0.00000000E+00  0.00000000E+00  0.00000000E+00
  0.00000000E+00  0.00000000E+00  0.00000000E+00
  0.00000000E+00  0.00000000E+00  0.00000000E+00
  0.00000000E+00  0.00000000E+00  0.00000000E+00
  0.00000000E+00  0.00000000E+00  0.00000000E+00
  0.00000000E+00  0.00000000E+00  0.00000000E+00
  0.00000000E+00  0.00000000E+00  0.00000000E+00
  0.00000000E+00  0.00000000E+00  0.00000000E+00
  0.00000000E+00  0.00000000E+00  0.00000000E+00
  0.00000000E+00  0.00000000E+00  0.00000000E+00
  0.00000000E+00  0.00000000E+00  0.00000000E+00
  0.00000000E+00  0.00000000E+00  0.00000000E+00
  0.00000000E+00  0.00000000E+00  0.00000000E+00
  0.00000000E+00  0.00000000E+00  0.00000000E+00
  0.00000000E+00  0.00000000E+00  0.00000000E+00
  0.00000000E+00  0.00000000E+00  0.00000000E+00
  0.00000000E+00  0.00000000E+00  0.00000000E+00
  0.00000000E+00  0.00000000E+00  0.00000000E+00
  0.00000000E+00  0.00000000E+00  0.00000000E+00
  0.00000000E+00  0.00000000E+00  0.00000000E+00
  0.00000000E+00  0.00000000E+00  0.00000000E+00
  0.00000000E+00  0.00000000E+00  0.00000000E+00
  0.00000000E+00  0.00000000E+00  0.00000000E+00
  0.00000000E+00  0.00000000E+00  0.00000000E+00
  0.00000000E+00  0.00000000E+00  0.00000000E+00
  0.00000000E+00  0.00000000E+00  0.00000000E+00
  0.00000000E+00  0.00000000E+00  0.00000000E+00
  0.00000000E+00  0.00000000E+00  0.00000000E+00
  0.00000000E+00  0.00000000E+00  0.00000000E+00
  0.00000000E+00  0.00000000E+00  0.00000000E+00
  0.00000000E+00  0.00000000E+00  0.00000000E+00
  0.00000000E+00  0.00000000E+00  0.00000000E+00
  0.00000000E+00  0.00000000E+00  0.00000000E+00
  0.00000000E+00  0.00000000E+00  0.00000000E+00
  0.00000000E+00  0.00000000E+00  0.00000000E+00
  0.00000000E+00  0.00000000E+00  0.00000000E+00
  0.00000000E+00  0.00000000E+00  0.00000000E+00
  0.00000000E+00  0.00000000E+00  0.00000000E+00
  0.00000000E+00  0.00000000E+00  0.00000000E+00
  0.00000000E+00  0.00000000E+00  0.00000000E+00
  0.00000000E+00  0.00000000E+00  0.00000000E+00
  0.00000000E+00  0.00000000E+00  0.00000000E+00
  0.00000000E+00  0.00000000E+00  0.00000000E+00
  0.00000000E+00  0.00000000E+00  0.00000000E+00
  0.00000000E+00  0.00000000E+00  0.00000000E+00
  0.00000000E+00  0.00000000E+00  0.00000000E+00
  0.00000000E+00  0.00000000E+00  0.00000000E+00
  0.00000000E+00  0.00000000E+00  0.00000000E+00
  0.00000000E+00  0.00000000E+00  0.00000000E+00
  0.00000000E+00  0.00000000E+00  0.00000000E+00
  0.00000000E+00  0.00000000E+00  0.00000000E+00
  0.00000000E+00  0.00000000E+00  0.00000000E+00
  0.00000000E+00  0.00000000E+00  0.00000000E+00
  0.00000000E+00  0.00000000E+00  0.00000000E+00
  0.00000000E+00  0.00000000E+00  0.00000000E+00
  0.00000000E+00  0.00000000E+00  0.00000000E+00
  0.00000000E+00  0.00000000E+00  0.00000000E+00
  0.00000000E+00  0.00000000E+00  0.00000000E+00
  0.00000000E+00  0.00000000E+00  0.00000000E+00
  0.00000000E+00  0.00000000E+00  0.00000000E+00
  0.00000000E+00  0.00000000E+00  0.00000000E+00
  0.00000000E+00  0.00000000E+00  0.00000000E+00
  0.00000000E+00  0.00000000E+00  0.00000000E+00
  0.00000000E+00  0.00000000E+00  0.00000000E+00
  0.00000000E+00  0.00000000E+00  0.00000000E+00
  0.00000000E+00  0.00000000E+00  0.00000000E+00
  0.00000000E+00  0.00000000E+00  0.00000000E+00
  0.00000000E+00  0.00000000E+00  0.00000000E+00
  0.00000000E+00  0.00000000E+00  0.00000000E+00
  0.00000000E+00  0.00000000E+00  0.00000000E+00
  0.00000000E+00  0.00000000E+00  0.00000000E+00
  0.00000000E+00  0.00000000E+00  0.00000000E+00
  0.00000000E+00  0.00000000E+00  0.00000000E+00
  0.00000000E+00  0.00000000E+00  0.00000000E+00
  0.00000000E+00  0.00000000E+00  0.00000000E+00
  0.00000000E+00  0.00000000E+00  0.00000000E+00
  0.00000000E+00  0.00000000E+00  0.00000000E+00
  0.00000000E+00  0.00000000E+00  0.00000000E+00
  0.00000000E+00  0.00000000E+00  0.00000000E+00
  0.00000000E+00  0.00000000E+00  0.00000000E+00
  0.00000000E+00  0.00000000E+00  0.00000000E+00
  0.00000000E+00  0.00000000E+00  0.00000000E+00
  0.00000000E+00  0.00000000E+00  0.00000000E+00
  0.00000000E+00  0.00000000E+00  0.00000000E+00
  0.00000000E+00  0.00000000E+00  0.00000000E+00
  0.00000000E+00  0.00000000E+00  0.00000000E+00
  0.00000000E+00  0.00000000E+00  0.00000000E+00
  0.00000000E+00  0.00000000E+00  0.00000000E+00
  0.00000000E+00  0.00000000E+00  0.00000000E+00
  0.00000000E+00  0.00000000E+00  0.00000000E+00
  0.00000000E+00  0.00000000E+00  0.00000000E+00
  0.00000000E+00  0.00000000E+00  0.00000000E+00
  0.00000000E+00  0.00000000E+00  0.00000000E+00
  0.00000000E+00  0.00000000E+00  0.00000000E+00
  0.00000000E+00  0.00000000E+00  0.00000000E+00
  0.00000000E+00  0.00000000E+00  0.00000000E+00
  0.00000000E+00  0.00000000E+00  0.00000000E+00
  0.00000000E+00  0.00000000E+00  0.00000000E+00
  0.00000000E+00  0.00000000E+00  0.00000000E+00
  0.00000000E+00  0.00000000E+00  0.00000000E+00
  0.00000000E+00  0.00000000E+00  0.00000000E+00
  0.00000000E+00  0.00000000E+00  0.00000000E+00
  0.00000000E+00  0.00000000E+00  0.00000000E+00
  0.00000000E+00  0.00000000E+00  0.00000000E+00
  0.00000000E+00  0.00000000E+00  0.00000000E+00
  0.00000000E+00  0.00000000E+00  0.00000000E+00
  0.00000000E+00  0.00000000E+00  0.00000000E+00
  0.00000000E+00  0.00000000E+00  0.00000000E+00
  0.00000000E+00  0.00000000E+00  0.00000000E+00
  0.00000000E+00  0.00000000E+00  0.00000000E+00
  0.00000000E+00  0.00000000E+00  0.00000000E+00
  0.00000000E+00  0.00000000E+00  0.00000000E+00
  0.00000000E+00  0.00000000E+00  0.00000000E+00
  0.00000000E+00  0.00000000E+00  0.00000000E+00
  0.00000000E+00  0.00000000E+00  0.00000000E+00
  0.00000000E+00  0.00000000E+00  0.00000000E+00
  0.00000000E+00  0.00000000E+00  0.00000000E+00
  0.00000000E+00  0.00000000E+00  0.00000000E+00
  0.00000000E+00  0.00000000E+00  0.00000000E+00
  0.00000000E+00  0.00000000E+00  0.00000000E+00
  0.00000000E+00  0.00000000E+00  0.00000000E+00
  0.00000000E+00  0.00000000E+00  0.00000000E+00
  0.00000000E+00  0.00000000E+00  0.00000000E+00
  0.00000000E+00  0.00000000E+00  0.00000000E+00
  0.00000000E+00  0.00000000E+00  0.00000000E+00
  0.00000000E+00  0.00000000E+00  0.00000000E+00
  0.00000000E+00  0.00000000E+00  0.00000000E+00
  0.00000000E+00  0.00000000E+00  0.00000000E+00
  0.00000000E+00  0.00000000E+00  0.00000000E+00
  0.00000000E+00  0.00000000E+00  0.00000000E+00
  0.00000000E+00  0.00000000E+00  0.00000000E+00
  0.00000000E+00  0.00000000E+00  0.00000000E+00
  0.00000000E+00  0.00000000E+00  0.00000000E+00
  0.00000000E+00  0.00000000E+00  0.00000000E+00
  0.00000000E+00  0.00000000E+00  0.00000000E+00
  0.00000000E+00  0.00000000E+00  0.00000000E+00
  0.00000000E+00  0.00000000E+00  0.00000000E+00
  0.00000000E+00  0.00000000E+00  0.00000000E+00
  0.00000000E+00  0.00000000E+00  0.00000000E+00
  0.00000000E+00  0.00000000E+00  0.00000000E+00
  0.00000000E+00  0.00000000E+00  0.00000000E+00
  0.00000000E+00  0.00000000E+00  0.00000000E+00
  0.00000000E+00  0.00000000E+00  0.00000000E+00
  0.00000000E+00  0.00000000E+00  0.00000000E+00
  0.00000000E+00  0.00000000E+00  0.00000000E+00
  0.00000000E+00  0.00000000E+00  0.00000000E+00
  0.00000000E+00  0.00000000E+00  0.00000000E+00
  0.00000000E+00  0.00000000E+00  0.00000000E+00
  0.00000000E+00  0.00000000E+00  0.00000000E+00
  0.00000000E+00  0.00000000E+00  0.00000000E+00
  0.00000000E+00  0.00000000E+00  0.00000000E+00
  0.00000000E+00  0.00000000E+00  0.00000000E+00
  0.00000000E+00  0.00000000E+00  0.00000000E+00
  0.00000000E+00  0.00000000E+00  0.00000000E+00
  0.00000000E+00  0.00000000E+00  0.00000000E+00
  0.00000000E+00  0.00000000E+00  0.00000000E+00
  0.00000000E+00  0.00000000E+00  0.00000000E+00
  0.00000000E+00  0.00000000E+00  0.00000000E+00
  0.00000000E+00  0.00000000E+00  0.00000000E+00
  0.00000000E+00  0.00000000E+00  0.00000000E+00
  0.00000000E+00  0.00000000E+00  0.00000000E+00
  0.00000000E+00  0.00000000E+00  0.00000000E+00
  0.00000000E+00  0.00000000E+00  0.00000000E+00
  0.00000000E+00  0.00000000E+00  0.00000000E+00
  0.00000000E+00  0.00000000E+00  0.00000000E+00
  0.00000000E+00  0.00000000E+00  0.00000000E+00
  0.00000000E+00  0.00000000E+00  0.00000000E+00
  0.00000000E+00  0.00000000E+00  0.00000000E+00
  0.00000000E+00  0.00000000E+00  0.00000000E+00
  0.00000000E+00  0.00000000E+00  0.00000000E+00
  0.00000000E+00  0.00000000E+00  0.00000000E+00
  0.00000000E+00  0.00000000E+00  0.00000000E+00
  0.00000000E+00  0.00000000E+00  0.00000000E+00
  0.00000000E+00  0.00000000E+00  0.00000000E+00