GeSe                                    
   1.00000000000000     
    20.1278870000000012    0.0000000000000000    0.0000000000000000
     0.0000000000000000   20.1278870000000012    0.0000000000000000
     0.0000000000000000    0.0000000000000000   20.1278870000000012
   Ge   Se
   150   150
Direct
  0.4916246895319291  0.2994873481695809  0.9237061911410296
  0.4948261121701754  0.8384374672972279  0.4259155323616455
  0.8884601838148651  0.5467520749960670  0.7395172497430912
  0.3941318832470268  0.2658013195535738  0.1297432792538376
  0.1777043809590452  0.3945814650838603  0.2855486516028632
  0.1127371538698000  0.2040562582323019  0.5149953207735977
  0.1716453971651886  0.9649435565296892  0.2418628148406824
  0.3254651105994448  0.6262179248286636  0.3453178055664587
  0.1066185036447824  0.3504917441412294  0.0997923671685994
  0.1201918579849901  0.9869163147907768  0.7043458806704728
  0.5785490639319006  0.0136668661775141  0.7626843247381304
  0.7311660901609665  0.5865774808472418  0.1043962133329374
  0.6551400036133618  0.7901578169488108  0.5795491672689101
  0.3948823592303651  0.7317484399848121  0.9716862243528959
  0.8448555224609018  0.3981289994360055  0.8789868779484907
  0.7385376808513365  0.7916894417499265 -0.0009784613730991
  0.0748420121785273  0.3649532540161097  0.5336092283774018
  0.4459436186950975  0.4582083407193334  0.5835323857805974
  0.5936142720880337  0.2386566320839970  0.1335029802623223
  0.9215946261476373  0.1535242879589463  0.6429646083002868
  0.4795423269906663  0.1874799417157402  0.5407516992545612
  0.4755869869098481  0.8676864142129200  0.0493507816853460
 -0.0192233179594400  0.7037695084715291  0.2054694270095566
  0.2956394376945129  0.5731561155469332  0.5959753412189611
  0.9319790722710481  0.6903414910887008  0.0440576788858715
  0.6819174335501115  0.0511732918895614  0.3160436460338695
  0.6402138391883526  0.6398881968601376  0.3449133287129887
  0.7617136665134264  0.0020697148774925  0.0524382532064973
  0.7171067485037099  0.1151492684183091  0.8293222368403849
  0.8518805729360125  0.4151244913138465  0.3679170478646511
  0.4638255013110691  0.5593837579394894  0.4251722911971958
  0.2034759135249091  0.2026398096597673  0.1186704200842580
  0.0568741859750529  0.2016151634452534  0.2624687759995161
  0.5310523070014730  0.8384116119853060  0.2089623838484851
  0.0181280821230435  0.5107099684943335  0.0676329229527408
  0.2232790153138873  0.1302118738877063  0.8247351879598033
  0.6284928427881606  0.9207410046328831  0.6893672922059535
  0.6689628361400112  0.5196668884117065  0.3794396766538047
  0.2932138682995156  0.9613495822296229  0.6117062361285736
  0.9062595836345099  0.7754665373737630  0.5247661976933724
  0.3897767294435072  0.8080878652486603  0.6911070001610458
  0.3259040839443688  0.0140139622078903  0.8814753240737030
  0.4985885651855573  0.1072448029361001  0.9421154545119668
  0.0394591838424626  0.9470508850851704  0.9409910246574938
  0.9082095576244643  0.4292349945548932  0.1726538499207697
  0.0088871545041991  0.9444103558741733  0.5637243760053150
  0.0944636660709621  0.6335280242282585  0.7915297170659295
  0.2140297813397623  0.3239387006670104  0.9420166123958142
  0.9625164272181840  0.5741322126401378  0.2414897552133537
  0.7389729769651618  0.7672070104909305  0.7039599059026623
  0.0560622423329648  0.0474407896887294  0.4182781848310388
  0.3364856886451772  0.9050433853077731  0.2053129711704386
  0.7061044503559117  0.7025101340808526  0.4379680318367573
  0.0032154301570023  0.8200153255829588  0.5935096049779872
  0.0684772371911156  0.6187101123041466  0.9164450389095563
  0.4628664661880140  0.0553575966071384  0.8012812476448783
  0.1205191148720811  0.1016520064168483  0.6441528340100787
  0.3683066114933511  0.4140944495164934  0.3134114370816152
  0.4135992064730998  0.4413920979750899  0.8350423815992508
  0.6855687171781187  0.9528658533712218  0.5790284324050152
  0.3741746257939692  0.5398934341007835  0.1939554089557373
  0.3144347042753772  0.0416438363715805  0.1766747210188494
  0.5992508083122168  0.9500621507046240  0.9612567580027248
  0.2329503105848438  0.6050754681650073  0.2006942711663962
  0.2559951326840623  0.0965330817624701  0.0212074256005068
  0.4313664940279259  0.9767919421218197  0.3437184759070868
  0.6906775398017340  0.4505843840564623  0.7154877855652633
  0.4372287570160215  0.0821694650756032  0.4723679287655180
  0.0810271177396935  0.7793793136962082  0.4153823134947857
  0.6786733911853120  0.1834108039372607  0.9875916636439571
  0.2354213845295062  0.9106446585732684  0.0732680666656580
  0.8410687975667709  0.4508382236090623  0.0190543127191103
  0.5284003733585061  0.4025386036511784  0.4009213688250408
  0.7469318937195708  0.8840656800332081  0.3915393143240224
  0.8821001876115543  0.1989496386077969  0.2879664608484314
  0.2060527068322083  0.7008807784971589  0.9595941833153654
  0.5942084894947558  0.7359966717112385  0.1195597850289392
  0.2162326305160507  0.8249297575571154  0.5989105327707233
  0.8912355972715900  0.2602440671221670  0.4835083919676907
  0.6182634367753612  0.4838701128210915  0.6108261300625729
  0.3411355849950008  0.7660101683695292  0.4633312244382385
  0.3049102880944369  0.2592761382566849  0.4704827722576865
  0.6795273304613086  0.2907492861649545  0.8344883965653209
  0.3675806572863202  0.1455526974672945  0.7175948630528913
  0.8722176196250552  0.5620811793092132  0.5500027189060520
  0.9433778731100196  0.2217159540456369  0.8606909301121410
  0.6958927217530095  0.5834889490992029  0.5726302499976057
  0.9747067779081512  0.0564005052770433  0.2345813755473209
  0.1151004424743966  0.1299522120230562  0.8859466994454223
  0.7846101446449549  0.8330986062527223  0.2082987647766909
  0.1880993546617089  0.4439417081325293  0.4305451710962673
  0.8048300325814371  0.9119704554822807  0.7700183923167624
  0.6584154865525835  0.9661911725889478  0.2167516532872347
  0.0849062783290786  0.6192223101114237  0.5430047052833570
  0.8336248353760524  0.3277000828055268  0.7688031841135567
  0.0463067247636714  0.2232950655215168  0.0133305516915170
  0.5704801276052633  0.3232440872861078  0.5236431718834773
  0.9117356284126072  0.7079286092678871  0.7102054680393372
  0.4330259843599877  0.8139581496917426  0.8101563562316156
  0.4582093436514111  0.6224266840479539  0.8365374150222163
  0.9616414152579228  0.4243167962325605  0.6579372558199725
  0.4246636269356149  0.1508497428147113  0.2874968949111489
  0.6338505587743607  0.6110827749369762  0.7962837153290186
  0.0696772614740109  0.9570147058101187  0.3189395464811003
  0.9658672376854999  0.8858173041371582  0.0574922930384643
  0.9244322684715812  0.1025711291459260  0.9054006906359656
  0.1716776088087268  0.4778279637096238  0.6905518169640263
  0.8038669636430099  0.6780165232817231  0.8929282381186766
  0.0298395298273938  0.8990346088671701  0.7713877497202334
  0.7326269404040486  0.0547783056449508  0.6417104381422229
  0.7990170333156879  0.8538749184012533  0.5333717184922462
  0.4436971732324836  0.3274607154069958  0.6339384941929889
  0.2530488741303769  0.4316150082589417  0.0943487927751917
  0.6529546585829052  0.4432496645347774  0.9069442521234996
  0.5113278700725306  0.6510538939226764  0.6326917376953608
  0.5826359533630390  0.5697423798884782  0.1767282187573193
  0.8079721938411092  0.6872790225649714  0.2541220130534887
  0.2460872477832945  0.2030995096152668  0.3018824502527011
  0.6767169236906391  0.1770337554796559  0.2943986744156658
  0.4848238547376065  0.4692196159059918  0.9890929203675871
  0.9294795786337190  0.6766245764805184  0.3620714149427506
  0.2916442199418220  0.4070359866084393  0.7216724104673738
  0.9930274863280452  0.4957652692864940  0.3967206940237658
  0.2322535364066343  0.0683986177571788  0.4761415822293933
  0.5767795600328668  0.2115395736129858  0.3739314770123972
  0.9784371006908681  0.1364301511564421  0.3559062337849507
  0.4301199131904924  0.2979331451546046  0.4848930774695720
  0.4087319626266007  0.6069788834546137  0.7175428747663933
  0.5149881955877804  0.0607261615909053  0.1082538858783207
  0.6888188949317227  0.4014366155054932  0.1090259645675594
  0.7545316288054525  0.2668186235997129  0.2435893545383834
  0.2639488203697368  0.5613001010578790  0.8886794544734512
  0.6675718427794635  0.3848003759158553  0.3858493929109810
  0.9545210249714631  0.3401916276394613  0.3287716034571558
  0.2466490536368546  0.8268896334901004  0.3561279016610754
  0.5766859023037766 -0.0342736454887498  0.4482179074946391
  0.0469156049551736  0.4377287329344210  0.8711276524370399
  0.4561434901015785  0.8604023489283265  0.5893789969807230
  0.4961022790160139  0.3970920631422546  0.1915371356646748
  0.8084007884172969  0.0498408515766430  0.3120933332400326
  0.1946592744760345  0.6380993560510781  0.4685051350270201
  0.8533977747045266 -0.0146317322178075  0.8995714115978887
  0.1452789416928149  0.7374849193588919  0.1511757281562432
  0.7818514657038524  0.3269174660693426  0.5628875219834075
  0.5183709503676041  0.1339069398144903  0.6525728368369050
  0.3994853783838975  0.9161246456820979  0.9505658242750167
  0.1166836167329215  0.7861552537887524  0.9646293403085522
 -0.0160414744302548  0.8751591056813074  0.2583306612133197
  0.7834237287211820  0.1836329603426169  0.4657195770504531
  0.9406603992033611  0.9519526660780955  0.4214769876581230
  0.5716260698653857  0.3774191329506882 -0.0102607125321536
  0.2784623626797272  0.5137153632476248  0.2929034375599742
  0.7979634992793994  0.1485242218032566  0.5895987947166859
  0.3804380092544177  0.6086490636522945  0.9324192356707570
  0.6480482761575620  0.3272572901981219  0.2124548236839423
  0.8783323334507823  0.9527724401644184  0.5290107745204347
  0.8531693747367325  0.7717433175417819  0.9678769850596798
  0.9327760750536372  0.2572056739068602  0.7449710560850771
  0.8591071374529883  0.5800159480318909  0.3138247669729026
  0.1600070417670928  0.2710003870777591  0.2295957993766542
 -0.0145805034904241  0.3879714275689685  0.0776368166510649
  0.0698001160568934  0.7772107890573610  0.2498228143576471
  0.3311369050996915  0.7037681029903846  0.7144861451004744
  0.7956734431985982  0.6329917667132916  0.6227654033884599
  0.4316958696050543  0.0432909792659729  0.6709001593086109
  0.4011496701523813  0.3418761605206304  0.7551296302036606
  0.0461699940127335  0.4172328075384805  0.3109716435809696
  0.2685983455844517  0.2761101958368791  0.0442509515464842
  0.7239175104941583  0.9101063018098454  0.9697121525319562
  0.7345048532922973  0.5105647533879047  0.0009305199953007
  0.5576862160850471  0.9396060950153138  0.1103562106041735
  0.5639286984803527  0.2970169286039216  0.6439475689168805
  0.1705601879892522  0.0029603351534072  0.1266360920619816
  0.1508733132818618  0.4497279391817374  0.1706644487971500
  0.8131420601658098  0.3664288084927782  0.1131430332771789
  0.8268076809714325  0.8467990019342327  0.6576699270780048
  0.7208019792765672  0.7640165310990150  0.1142873181818851
  0.9145221776998214  0.7820525368153165  0.1295219519447708
  0.4740363153288289  0.2094685019235887  0.0081494968034620
  0.6151989969864713  0.2109775238494602  0.4895098480265920
  0.7713366343421869  0.3167904380028209  0.3613095051479381
  0.5184831303298614  0.6466569653917177  0.3274347272796942
  0.3217061788378212  0.4376581287949098  0.6057508008102143
  0.1651265555051955  0.9481887037663547  0.5916114761035464
  0.2859693591285647  0.7391315383660525  0.0367666089558585
  0.8776137501820336  0.3841192062067237  0.4889515756133997
  0.3655760273038988  0.3831661777651730  0.1901385289445218
  0.4985641173501126  0.4722036438470556  0.2959615495595868
  0.2686363329453918  0.5388806092704247  0.4731818226379474
  0.8532987517044736  0.9356701779548515  0.3265574643263273
  0.8939755032698717  0.5362107265504453  0.1016772303394161
  0.4253513965227309  0.0359273240815364  0.0161596550514481
  0.0377975838291494  0.5987532251779636  0.3421366815746044
  0.6559760861244667  0.0050992346266601  0.8548628568595940
  0.3403354088398361  0.6662825922345945  0.2248193377543677
  0.7791901207119923  0.9529029242489552  0.1678223424540137
  0.1374019920175334  0.8944380847038162  0.4037675359016839
 -0.0125855324313062  0.5293103156514973  0.9411922856305155
  0.6450586938434387  0.1360300676467894  0.1846456114137995
  0.4029590053721398  0.3675853091193884 -0.0038096016767331
  0.5547629711682567  0.7840720746911916  0.0120763615014273
  0.4876847300016298  0.9132510680094046  0.8587932847926886
  0.0818285571670151  0.4893273590675266  0.4876212151512190
  0.1052221224780939  0.2027523326540077  0.7144277946686634
  0.0653047425220088  0.2408860339173037  0.8843658923114701
  0.4549900376474144  0.7540021312507968  0.5202876705353993
  0.6139630707388934  0.6215775364322077  0.0649009606559815
  0.3095039014110473  0.1421474735515926  0.9093056084566314
  0.8025902514087255  0.0374121030381685  0.7385665621867840
  0.6877073535140790  0.8598298256504578  0.7782751462717045
  0.1186034429833214  0.8400889173604583  0.0723602255721328
  0.9678443699871540  0.5519823090837622  0.6363048247460160
  0.6172552093801358  0.8413053464058807  0.4662237076206660
  0.8574707384555530  0.1028603799133064  0.2098088589953179
 -0.0011163821479472  0.9509263177341876  0.1595912970703376
  0.0353452599644777  0.0480107338266103  0.8520898295051705
  0.4824336942788139  0.1810766404485465  0.7616827382406924
  0.1315476883737388  0.5124298754986005  0.8093818833249626
  0.6130674744828741  0.2007327308378832  0.8767803937680819
  0.5762408222146471  0.5172846617817148  0.4632392271355294
  0.9547019279864436  0.6328923809092531  0.8020188902426637
  0.7785025886740217  0.1236649975524666  0.9397350796768074
  0.1281459429650844  0.1190600948844868  0.0044477745894670
  0.7294828766061031  0.5263363444420089  0.8005030959350660
  0.1491092970201400  0.1396913610661737  0.4079833164050052
  0.6889560396217344  0.4978094334337811  0.1889566885538476
  0.6124510841154203  0.3776060451883981  0.7867076708927025
  0.3119160259463484  0.1838886964730151  0.1882133530749448
  0.6870819933392304  0.7222640048633990  0.9192704848474161
  0.6328083654749480  0.1118367751559788  0.7037212714253078
  0.4325714500282481  0.0372238816746276  0.2286785247668332
  0.9599360635633037  0.8236241311599604  0.4204703127059240
  0.1563592375783234  0.5985133713991445 -0.0006182783202965
  0.2111784389280738  0.6812013284949944  0.3544388302153142
  0.0987626295746121  0.7619802031539246  0.5433289293064114
  0.4155868746292344  0.8187618203612841  0.1498409485669426
  0.3194726178743676  0.4106438652282065  0.9215854594770746
  0.1673320255133302  0.5918440453164183  0.6367442916029421
  0.9353856341217659  0.6588555496317038  0.4898544678743829
  0.2603286427849038  0.0304667024833865  0.2895236333219663
  0.8020066571594974  0.4019902560141971  0.6703797171787647
  0.7481019190040471  0.5795394074246197  0.4585960450821423
  0.0509760540127502  0.6578451148087788  0.1168973284076222
  0.3391782897042078  0.8054682920282263  0.8844717032062054
  0.8671145875215085  0.0961126472562611  0.4131818763654068
  0.9599738391868869  0.2770337633107973  0.2231516886818848
  0.4908088592305794  0.4998805493410319  0.1161448710981678
  0.7989844696082536  0.7449719921540485  0.3668384528995018
  0.2285983485417752  0.9861326563843650  0.9656422158751011
  0.2893150547945328  0.8772367976907550  0.7070305000901835
  0.9461187218203262  0.8993798195579210  0.8713885620735068
  0.9386139493033442  0.2656262452614128  0.5926831128242885
  0.4152772291767266  0.4266275380393627  0.4630557308163907
  0.8287271104598259  0.7574620977013167  0.7935816029303330
  0.2273166575275699  0.6762075645206329  0.8447409580982572
  0.6060887213486735  0.0743412717917276  0.0087953367086862
  0.2963770443760505  0.8774442750873579  0.5105993732621268
  0.4744348459031366  0.2819460035644554  0.3684370062785132
  0.4374718427287848  0.5843091776599026  0.5512696752228267
  0.3322310912811166  0.1375859361854181  0.4287453481142252
  0.7347089333291870  0.3414625134536706  0.9282120855225922
  0.3759037028684121  0.2171246547237430  0.6121183960598000
  0.6096173429230953  0.6728817101268050  0.5521521713245393
  0.7498371599891176  0.2407322569087834  0.7533437729773745
  0.2171688674824291  0.2224331358919170  0.7474094020540277
  0.2724115613596813  0.6998074401992573  0.5428219168911692
  0.4884900749372910  0.2298557594527908  0.2088302634227831
  0.5646375382545343  0.5555909127476785  0.6986725058298296
  0.9549991683649213  0.1399392218550413  0.0152785415762591
  0.3683192527989694  0.8692609835436926  0.3193372695936686
  0.0105318971580157  0.7286653643784955  0.9445241762228923
  0.5168843276233858  0.1034640792350938  0.3729975482025684
  0.2145212362895239  0.1469559928063351  0.5775952770291420
  0.0162213044218275  0.7855314764957895  0.7111520981717886
  0.9150614937707676  0.3115787455296543  0.9341175800549172
  0.2527699964788317  0.0271672608342730  0.7744690245002890
  0.6984853806707779  0.0050101480820097  0.4289206990295849
  0.0319202233452827  0.1121319653784398  0.5596515549301196
  0.2900370580243790  0.3096675493744523  0.3532165051996726
  0.1240107863437254  0.8709117109995977  0.8822565775422548
  0.1531964598601781  0.4183488744076670  0.0001171436060948
  0.0472280949380584  0.1283800789497950  0.1665565958775099
  0.3266072722995897  0.5212290804052526  0.7753227581762346
  0.9507991549364210  0.4427052177108579  0.7845175790802091
  0.5385802652007661  0.9218242369947520  0.3074507610348781
  0.1973187130058551  0.3542048085851451  0.5147709994850562
  0.0843438339347418  0.3932052395799377  0.6580577349190440
  0.2210343309050053  0.8486911864828485  0.2287255321712711
  0.5746898145763731  0.0055075557604916  0.5658041706042629
  0.2914022731789158  0.5553578975857545  0.0986367932161355
  0.5547473233420163  0.5574699208857115  0.8772987380369481
  0.5586046079651623  0.8220510041091250  0.6587294649709026
  0.5313349131719388  0.7667340895193265  0.3258685497558213
  0.8831575007888464 -0.0177455009822523  0.0228602373964428
  0.6829701557402519  0.8606361422576559  0.2818141598472562
  0.6865798224416237  0.6664645500494037  0.2373760272466798
 -0.0101451566623244  0.9842951916597723  0.6790489454202117
  0.5134769150128352  0.7302476549165627  0.8423055675166871
 -0.0061802962315759  0.2509890099569546  0.4133285519954612
  0.6847228635226486  0.3912936236921157  0.5124501691628432
 
  0.00000000E+00  0.00000000E+00  0.00000000E+00
  0.00000000E+00  0.00000000E+00  0.00000000E+00
  0.00000000E+00  0.00000000E+00  0.00000000E+00
  0.00000000E+00  0.00000000E+00  0.00000000E+00
  0.00000000E+00  0.00000000E+00  0.00000000E+00
  0.00000000E+00  0.00000000E+00  0.00000000E+00
  0.00000000E+00  0.00000000E+00  0.00000000E+00
  0.00000000E+00  0.00000000E+00  0.00000000E+00
  0.00000000E+00  0.00000000E+00  0.00000000E+00
  0.00000000E+00  0.00000000E+00  0.00000000E+00
  0.00000000E+00  0.00000000E+00  0.00000000E+00
  0.00000000E+00  0.00000000E+00  0.00000000E+00
  0.00000000E+00  0.00000000E+00  0.00000000E+00
  0.00000000E+00  0.00000000E+00  0.00000000E+00
  0.00000000E+00  0.00000000E+00  0.00000000E+00
  0.00000000E+00  0.00000000E+00  0.00000000E+00
  0.00000000E+00  0.00000000E+00  0.00000000E+00
  0.00000000E+00  0.00000000E+00  0.00000000E+00
  0.00000000E+00  0.00000000E+00  0.00000000E+00
  0.00000000E+00  0.00000000E+00  0.00000000E+00
  0.00000000E+00  0.00000000E+00  0.00000000E+00
  0.00000000E+00  0.00000000E+00  0.00000000E+00
  0.00000000E+00  0.00000000E+00  0.00000000E+00
  0.00000000E+00  0.00000000E+00  0.00000000E+00
  0.00000000E+00  0.00000000E+00  0.00000000E+00
  0.00000000E+00  0.00000000E+00  0.00000000E+00
  0.00000000E+00  0.00000000E+00  0.00000000E+00
  0.00000000E+00  0.00000000E+00  0.00000000E+00
  0.00000000E+00  0.00000000E+00  0.00000000E+00
  0.00000000E+00  0.00000000E+00  0.00000000E+00
  0.00000000E+00  0.00000000E+00  0.00000000E+00
  0.00000000E+00  0.00000000E+00  0.00000000E+00
  0.00000000E+00  0.00000000E+00  0.00000000E+00
  0.00000000E+00  0.00000000E+00  0.00000000E+00
  0.00000000E+00  0.00000000E+00  0.00000000E+00
  0.00000000E+00  0.00000000E+00  0.00000000E+00
  0.00000000E+00  0.00000000E+00  0.00000000E+00
  0.00000000E+00  0.00000000E+00  0.00000000E+00
  0.00000000E+00  0.00000000E+00  0.00000000E+00
  0.00000000E+00  0.00000000E+00  0.00000000E+00
  0.00000000E+00  0.00000000E+00  0.00000000E+00
  0.00000000E+00  0.00000000E+00  0.00000000E+00
  0.00000000E+00  0.00000000E+00  0.00000000E+00
  0.00000000E+00  0.00000000E+00  0.00000000E+00
  0.00000000E+00  0.00000000E+00  0.00000000E+00
  0.00000000E+00  0.00000000E+00  0.00000000E+00
  0.00000000E+00  0.00000000E+00  0.00000000E+00
  0.00000000E+00  0.00000000E+00  0.00000000E+00
  0.00000000E+00  0.00000000E+00  0.00000000E+00
  0.00000000E+00  0.00000000E+00  0.00000000E+00
  0.00000000E+00  0.00000000E+00  0.00000000E+00
  0.00000000E+00  0.00000000E+00  0.00000000E+00
  0.00000000E+00  0.00000000E+00  0.00000000E+00
  0.00000000E+00  0.00000000E+00  0.00000000E+00
  0.00000000E+00  0.00000000E+00  0.00000000E+00
  0.00000000E+00  0.00000000E+00  0.00000000E+00
  0.00000000E+00  0.00000000E+00  0.00000000E+00
  0.00000000E+00  0.00000000E+00  0.00000000E+00
  0.00000000E+00  0.00000000E+00  0.00000000E+00
  0.00000000E+00  0.00000000E+00  0.00000000E+00
  0.00000000E+00  0.00000000E+00  0.00000000E+00
  0.00000000E+00  0.00000000E+00  0.00000000E+00
  0.00000000E+00  0.00000000E+00  0.00000000E+00
  0.00000000E+00  0.00000000E+00  0.00000000E+00
  0.00000000E+00  0.00000000E+00  0.00000000E+00
  0.00000000E+00  0.00000000E+00  0.00000000E+00
  0.00000000E+00  0.00000000E+00  0.00000000E+00
  0.00000000E+00  0.00000000E+00  0.00000000E+00
  0.00000000E+00  0.00000000E+00  0.00000000E+00
  0.00000000E+00  0.00000000E+00  0.00000000E+00
  0.00000000E+00  0.00000000E+00  0.00000000E+00
  0.00000000E+00  0.00000000E+00  0.00000000E+00
  0.00000000E+00  0.00000000E+00  0.00000000E+00
  0.00000000E+00  0.00000000E+00  0.00000000E+00
  0.00000000E+00  0.00000000E+00  0.00000000E+00
  0.00000000E+00  0.00000000E+00  0.00000000E+00
  0.00000000E+00  0.00000000E+00  0.00000000E+00
  0.00000000E+00  0.00000000E+00  0.00000000E+00
  0.00000000E+00  0.00000000E+00  0.00000000E+00
  0.00000000E+00  0.00000000E+00  0.00000000E+00
  0.00000000E+00  0.00000000E+00  0.00000000E+00
  0.00000000E+00  0.00000000E+00  0.00000000E+00
  0.00000000E+00  0.00000000E+00  0.00000000E+00
  0.00000000E+00  0.00000000E+00  0.00000000E+00
  0.00000000E+00  0.00000000E+00  0.00000000E+00
  0.00000000E+00  0.00000000E+00  0.00000000E+00
  0.00000000E+00  0.00000000E+00  0.00000000E+00
  0.00000000E+00  0.00000000E+00  0.00000000E+00
  0.00000000E+00  0.00000000E+00  0.00000000E+00
  0.00000000E+00  0.00000000E+00  0.00000000E+00
  0.00000000E+00  0.00000000E+00  0.00000000E+00
  0.00000000E+00  0.00000000E+00  0.00000000E+00
  0.00000000E+00  0.00000000E+00  0.00000000E+00
  0.00000000E+00  0.00000000E+00  0.00000000E+00
  0.00000000E+00  0.00000000E+00  0.00000000E+00
  0.00000000E+00  0.00000000E+00  0.00000000E+00
  0.00000000E+00  0.00000000E+00  0.00000000E+00
  0.00000000E+00  0.00000000E+00  0.00000000E+00
  0.00000000E+00  0.00000000E+00  0.00000000E+00
  0.00000000E+00  0.00000000E+00  0.00000000E+00
  0.00000000E+00  0.00000000E+00  0.00000000E+00
  0.00000000E+00  0.00000000E+00  0.00000000E+00
  0.00000000E+00  0.00000000E+00  0.00000000E+00
  0.00000000E+00  0.00000000E+00  0.00000000E+00
  0.00000000E+00  0.00000000E+00  0.00000000E+00
  0.00000000E+00  0.00000000E+00  0.00000000E+00
  0.00000000E+00  0.00000000E+00  0.00000000E+00
  0.00000000E+00  0.00000000E+00  0.00000000E+00
  0.00000000E+00  0.00000000E+00  0.00000000E+00
  0.00000000E+00  0.00000000E+00  0.00000000E+00
  0.00000000E+00  0.00000000E+00  0.00000000E+00
  0.00000000E+00  0.00000000E+00  0.00000000E+00
  0.00000000E+00  0.00000000E+00  0.00000000E+00
  0.00000000E+00  0.00000000E+00  0.00000000E+00
  0.00000000E+00  0.00000000E+00  0.00000000E+00
  0.00000000E+00  0.00000000E+00  0.00000000E+00
  0.00000000E+00  0.00000000E+00  0.00000000E+00
  0.00000000E+00  0.00000000E+00  0.00000000E+00
  0.00000000E+00  0.00000000E+00  0.00000000E+00
  0.00000000E+00  0.00000000E+00  0.00000000E+00
  0.00000000E+00  0.00000000E+00  0.00000000E+00
  0.00000000E+00  0.00000000E+00  0.00000000E+00
  0.00000000E+00  0.00000000E+00  0.00000000E+00
  0.00000000E+00  0.00000000E+00  0.00000000E+00
  0.00000000E+00  0.00000000E+00  0.00000000E+00
  0.00000000E+00  0.00000000E+00  0.00000000E+00
  0.00000000E+00  0.00000000E+00  0.00000000E+00
  0.00000000E+00  0.00000000E+00  0.00000000E+00
  0.00000000E+00  0.00000000E+00  0.00000000E+00
  0.00000000E+00  0.00000000E+00  0.00000000E+00
  0.00000000E+00  0.00000000E+00  0.00000000E+00
  0.00000000E+00  0.00000000E+00  0.00000000E+00
  0.00000000E+00  0.00000000E+00  0.00000000E+00
  0.00000000E+00  0.00000000E+00  0.00000000E+00
  0.00000000E+00  0.00000000E+00  0.00000000E+00
  0.00000000E+00  0.00000000E+00  0.00000000E+00
  0.00000000E+00  0.00000000E+00  0.00000000E+00
  0.00000000E+00  0.00000000E+00  0.00000000E+00
  0.00000000E+00  0.00000000E+00  0.00000000E+00
  0.00000000E+00  0.00000000E+00  0.00000000E+00
  0.00000000E+00  0.00000000E+00  0.00000000E+00
  0.00000000E+00  0.00000000E+00  0.00000000E+00
  0.00000000E+00  0.00000000E+00  0.00000000E+00
  0.00000000E+00  0.00000000E+00  0.00000000E+00
  0.00000000E+00  0.00000000E+00  0.00000000E+00
  0.00000000E+00  0.00000000E+00  0.00000000E+00
  0.00000000E+00  0.00000000E+00  0.00000000E+00
  0.00000000E+00  0.00000000E+00  0.00000000E+00
  0.00000000E+00  0.00000000E+00  0.00000000E+00
  0.00000000E+00  0.00000000E+00  0.00000000E+00
  0.00000000E+00  0.00000000E+00  0.00000000E+00
  0.00000000E+00  0.00000000E+00  0.00000000E+00
  0.00000000E+00  0.00000000E+00  0.00000000E+00
  0.00000000E+00  0.00000000E+00  0.00000000E+00
  0.00000000E+00  0.00000000E+00  0.00000000E+00
  0.00000000E+00  0.00000000E+00  0.00000000E+00
  0.00000000E+00  0.00000000E+00  0.00000000E+00
  0.00000000E+00  0.00000000E+00  0.00000000E+00
  0.00000000E+00  0.00000000E+00  0.00000000E+00
  0.00000000E+00  0.00000000E+00  0.00000000E+00
  0.00000000E+00  0.00000000E+00  0.00000000E+00
  0.00000000E+00  0.00000000E+00  0.00000000E+00
  0.00000000E+00  0.00000000E+00  0.00000000E+00
  0.00000000E+00  0.00000000E+00  0.00000000E+00
  0.00000000E+00  0.00000000E+00  0.00000000E+00
  0.00000000E+00  0.00000000E+00  0.00000000E+00
  0.00000000E+00  0.00000000E+00  0.00000000E+00
  0.00000000E+00  0.00000000E+00  0.00000000E+00
  0.00000000E+00  0.00000000E+00  0.00000000E+00
  0.00000000E+00  0.00000000E+00  0.00000000E+00
  0.00000000E+00  0.00000000E+00  0.00000000E+00
  0.00000000E+00  0.00000000E+00  0.00000000E+00
  0.00000000E+00  0.00000000E+00  0.00000000E+00
  0.00000000E+00  0.00000000E+00  0.00000000E+00
  0.00000000E+00  0.00000000E+00  0.00000000E+00
  0.00000000E+00  0.00000000E+00  0.00000000E+00
  0.00000000E+00  0.00000000E+00  0.00000000E+00
  0.00000000E+00  0.00000000E+00  0.00000000E+00
  0.00000000E+00  0.00000000E+00  0.00000000E+00
  0.00000000E+00  0.00000000E+00  0.00000000E+00
  0.00000000E+00  0.00000000E+00  0.00000000E+00
  0.00000000E+00  0.00000000E+00  0.00000000E+00
  0.00000000E+00  0.00000000E+00  0.00000000E+00
  0.00000000E+00  0.00000000E+00  0.00000000E+00
  0.00000000E+00  0.00000000E+00  0.00000000E+00
  0.00000000E+00  0.00000000E+00  0.00000000E+00
  0.00000000E+00  0.00000000E+00  0.00000000E+00
  0.00000000E+00  0.00000000E+00  0.00000000E+00
  0.00000000E+00  0.00000000E+00  0.00000000E+00
  0.00000000E+00  0.00000000E+00  0.00000000E+00
  0.00000000E+00  0.00000000E+00  0.00000000E+00
  0.00000000E+00  0.00000000E+00  0.00000000E+00
  0.00000000E+00  0.00000000E+00  0.00000000E+00
  0.00000000E+00  0.00000000E+00  0.00000000E+00
  0.00000000E+00  0.00000000E+00  0.00000000E+00
  0.00000000E+00  0.00000000E+00  0.00000000E+00
  0.00000000E+00  0.00000000E+00  0.00000000E+00
  0.00000000E+00  0.00000000E+00  0.00000000E+00
  0.00000000E+00  0.00000000E+00  0.00000000E+00
  0.00000000E+00  0.00000000E+00  0.00000000E+00
  0.00000000E+00  0.00000000E+00  0.00000000E+00
  0.00000000E+00  0.00000000E+00  0.00000000E+00
  0.00000000E+00  0.00000000E+00  0.00000000E+00
  0.00000000E+00  0.00000000E+00  0.00000000E+00
  0.00000000E+00  0.00000000E+00  0.00000000E+00
  0.00000000E+00  0.00000000E+00  0.00000000E+00
  0.00000000E+00  0.00000000E+00  0.00000000E+00
  0.00000000E+00  0.00000000E+00  0.00000000E+00
  0.00000000E+00  0.00000000E+00  0.00000000E+00
  0.00000000E+00  0.00000000E+00  0.00000000E+00
  0.00000000E+00  0.00000000E+00  0.00000000E+00
  0.00000000E+00  0.00000000E+00  0.00000000E+00
  0.00000000E+00  0.00000000E+00  0.00000000E+00
  0.00000000E+00  0.00000000E+00  0.00000000E+00
  0.00000000E+00  0.00000000E+00  0.00000000E+00
  0.00000000E+00  0.00000000E+00  0.00000000E+00
  0.00000000E+00  0.00000000E+00  0.00000000E+00
  0.00000000E+00  0.00000000E+00  0.00000000E+00
  0.00000000E+00  0.00000000E+00  0.00000000E+00
  0.00000000E+00  0.00000000E+00  0.00000000E+00
  0.00000000E+00  0.00000000E+00  0.00000000E+00
  0.00000000E+00  0.00000000E+00  0.00000000E+00
  0.00000000E+00  0.00000000E+00  0.00000000E+00
  0.00000000E+00  0.00000000E+00  0.00000000E+00
  0.00000000E+00  0.00000000E+00  0.00000000E+00
  0.00000000E+00  0.00000000E+00  0.00000000E+00
  0.00000000E+00  0.00000000E+00  0.00000000E+00
  0.00000000E+00  0.00000000E+00  0.00000000E+00
  0.00000000E+00  0.00000000E+00  0.00000000E+00
  0.00000000E+00  0.00000000E+00  0.00000000E+00
  0.00000000E+00  0.00000000E+00  0.00000000E+00
  0.00000000E+00  0.00000000E+00  0.00000000E+00