Amorphous Sb                            
   1.00000000000000     
    19.6867014927297177    0.0000000000000000    0.0000000000000000
     0.0000000000000000   19.6867014927297177    0.0000000000000000
     0.0000000000000000    0.0000000000000000   19.6867014927297177
   Si   Se
   150   150
Direct
  0.0624870574979965  0.6024557085478434  0.6537632267517310
  0.1004945786755485  0.6591931606311991  0.8244718736126539
  0.3243892664300252  0.3404634474123169  0.1640234206102766
  0.2324725932748202  0.8606449633617718  0.6614678979991612
  0.0064800315962521  0.7122157427841087  0.8750872575010815
  0.5551077439124746  0.3780320608455722  0.1449836625472815
  0.5102333719925117  0.3516828511799029  0.8872762290241646
  0.2285646434176378  0.7899974817826652  0.2429183424938336
  0.6756818137423193  0.3648705694492034  0.3140258198929528
  0.4354789980304682  0.3622256798779004  0.5460543971147578
  0.3574325126870754  0.9221458712297866  0.7648315678169439
  0.7628157139087572  0.4679137955191194  0.6126722372681969
  0.4097841791857550  0.6987454800297852  0.0321548572147590
  0.3209912265218281  0.8787632027356579  0.1471332234875520
  0.4692416162206516  0.2419579585474615  0.9112353313858313
  0.7483494798145528  0.8119288853584784  0.7623760786747557
  0.5564600485250907  0.7309064705098978  0.5594062696017632
  0.8314388257649765  0.0236072025457553  0.1219407730506655
  0.5834801508804066  0.0317619555067302  0.1685463141371827
  0.7703988980059550  0.5241802961868718  0.8968220915636341
  0.9709828040315600  0.2911341927825249  0.8687703194366986
  0.0342531614606985  0.4015132567767364  0.3554494314266759
  0.3070556211437271  0.4578172681538029  0.3282407915184807
  0.2760039048635726  0.6317835184091023  0.2884211593157814
  0.9202293351095429  0.4149805530172216  0.5638683688390052
  0.7382719236080013  0.0223774960928713  0.4792104116572867
  0.8670382586108015  0.3146071775568901  0.1612872416410247
  0.5657607682981768  0.5076032054603367  0.2671160723005818
  0.1193907660283305  0.1924567111307341  0.8664084580063930
  0.1332896243244339  0.3146618284986455  0.1000364634327767
  0.5626944128501384  0.6588198752462250  0.2579126476635027
  0.5866943106620831  0.7753881075331066  0.2705263168127347
  0.7943004947279036  0.1439649389814775  0.3514167387260536
  0.1328543014657084  0.7725953557828523  0.1734061359794600
  0.9458214243590495  0.9858169156961273  0.0866425396209198
  0.0047566277200735  0.1878036352415989  0.9271835569358213
  0.9359984816576266  0.3753882898168410 -0.0043721274191797
  0.5286701096316713  0.6070080758076473  0.1516953640716773
  0.2035233508303975  0.6764126479559918  0.5057853419250646
  0.6627775133614626  0.4205682548935618  0.4216899804545471
  0.8968756847019862  0.1263903205979149  0.0900609326689191
  0.8518161358040935  0.1961808700611521  0.1758240793679904
  0.4082054831357254  0.2831662244365463  0.2300068186195967
  0.2894056603520551  0.1661434776048282  0.7366002528386754
  0.2078211346177075  0.6748202892393289  0.9884271973600728
  0.7897373852426498  0.7679631336296816  0.3333847202474665
  0.4560238963450646  0.6003168613341082  0.6931133127356991
  0.2346521315519538  0.2635495825525881  0.6458322298396427
  0.2203443617738871  0.6131652686858292  0.3990439330498592
  0.6609826811003819  0.6655010853531392  0.0362274833308166
  0.8732244947278943  0.4961510851724716  0.6531770653883120
  0.6972991436966542  0.0615711235595196  0.1241418125790604
  0.8860492009864390  0.1401291727769543  0.2757543396074648
  0.1258003603143155  0.9354646478185925  0.7731802023456817
  0.4815480302250794  0.3931812467637131  0.4357362780736633
  0.4085721460290611  0.8156681771259793  0.2132322216412635
  0.7237901269234098  0.4255598528576374  0.7177515041971354
  0.6580438692396503  0.1097326190864854  0.0169760437480466
  0.5287248393845692  0.2829142932990449  0.2160377098687876
  0.3423572305547671  0.5355323136061179  0.9178894580267243
  0.8446100109128930  0.8208178620987204  0.1742892624733954
  0.0836572943835450  0.9527884646156777  0.6596390499516083
  0.2936249463087375  0.0864088023740104  0.1745549258553906
  0.6207615840361210  0.9330223206816547  0.7249984772429500
  0.7143142073851124  0.3116231166233689  0.6713246913304171
  0.9881098614890397  0.1089743556163830  0.6220143761992623
  0.6630693988219515  0.1358826301464989  0.6783860384619789
  0.7090653262189516  0.1561675400703640  0.7877908938035193
  0.5375061002077676  0.8717415566731943  0.7858252823713464
  0.5138687291736281  0.2770044303490257  0.5810081016222927
  0.7667996677792579  0.0287561618106345  0.3629592060005009
  0.6492694744846927  0.4507048441819340  0.8136709601502466
  0.9378948218953089  0.7155568919626782  0.2163066185441380
  0.5011965665303648  0.7842858928037680  0.3558480160032847
  0.7944834989576210  0.7083278698349431  0.4417684980038425
  0.5590321098979558  0.4734626610114848  0.3888358225616318
  0.7314336530884373  0.1722744771799992  0.1772173236885615
  0.5425687913091679  0.1294306449061080  0.6930491256468109
  0.0827034873900073  0.2600295196509718  0.0001171579485881
  0.7827099839554573  0.0812648426960100  0.8541365500553084
  0.3261806408960667  0.7218032378614319  0.2182074337457386
  0.8982859857089411  0.6995459673532956  0.1035315433339225
  0.5051691941579072  0.5245516107121008  0.9115031694507503
  0.8809498559775801  0.8536065879360841  0.3468949104936703
  0.9677875895373682  0.9303860582766781  0.6709182666141402
  0.7243383368039080  0.6685690919071923  0.7378775601288694
  0.3124177730713239  0.3492528621690255  0.9871635355384990
  0.1738381237197368  0.7086244360890730  0.7419820826070017
  0.2034413994350505  0.0076632964384035  0.8366900175687337
  0.0109798504476360  0.2888673731783510  0.7538117353108310
  0.9389423273876220  0.1317056092208307  0.4355052340853665
  0.0392337978204457  0.4009401523965815  0.1914053208990987
  0.2765981458868836  0.0682532240307392  0.9962984529319564
  0.1855410842417481  0.2939062206566355  0.2844897853854332
  0.8641993858878662  0.9438423667378544  0.8278682388481577
  0.6201847259626160  0.3347051798585342  0.5924847372208154
  0.3075448710470707  0.6923531413557334  0.1008239331242892
  0.7101358262487854  0.2083140993615569  0.2914137571936457
  0.2564252589527956  0.3626372834992098  0.5825748877685702
  0.4844362152822519  0.0816641808922217  0.2218549945551620
  0.0990284262475459  0.6588928488823707  0.1835640231444380
  0.4297162305209909  0.5834516822338925  0.9930032941718381
  0.5872322426426616  0.9794632549623302  0.6162616471584403
  0.3100148658895476  0.4579851575475902  0.6345206691691003
  0.5455443175578486  0.7996120787906014  0.9772500477169487
  0.0725799447808825  0.3319095257759745  0.6025482337276320
  0.7931276664715320  0.5983896270071722  0.8061101362306210
  0.9245128801471281  0.3911990207764007  0.2346250992900628
  0.4144156299770765  0.1392872348617705  0.8749925487877053
  0.9705791925018077  0.6467631308354991  0.4982245436419726
  0.2280430713168023  0.6126533793788396  0.6064843131996993
  0.2423479767799100  0.0380256468637448  0.3543425851734733
  0.2676521429176558  0.6107994880412536  0.8545187518032341
  0.2097825441922264  0.7608797394910440  0.0759038259538263
  0.6608603790974777  0.5872239728464069  0.4809291456351951
  0.6550175344841304  0.9466225145174529  0.0770180466610143
  0.5727953191607427  0.1940325999817100  0.0518813644565497
  0.0489150500088508  0.8597513987523744  0.2034711200245299
  0.1317529019016400  0.8566030555059737  0.3810117958877438
  0.5880730934184202  0.0620954243118775  0.3852401453858127
  0.5996645347480570  0.2691473490015791  0.3147433913521692
  0.8947212637477066  0.0426776093696181  0.9000256291750078
  0.5310086688186724  0.8402310188030258  0.1841241884834497
  0.8212315600493042  0.7129704097255087  0.2299353152360059
  0.5882739335758306  0.9176722219196179  0.5058361994134464
  0.8591684604886052  0.5526234443776032  0.9734793182608824
  0.6527591213974702  0.0221480878290624  0.8022891464529287
  0.9452431430573119  0.4759842936351367  0.4040254417461300
  0.6893814216622287  0.0365236574205157  0.9196220943837553
  0.5470926746621801  0.2902407855471430  0.4217169873226063
  0.5975213980924813  0.8378644895582306  0.0821810796459116
  0.0856656759479047  0.6895106436172764  0.4686693681475854
  0.7214725015024529  0.2542712543591468  0.0895425070568662
  0.9414620127656543  0.8290304884975694  0.2435316673981494
  0.6852125898310035  0.4819338144726378  0.5241317857919946
  0.5564112368192616  0.0893314404800458  0.8078181987725417
  0.8205835804525795  0.9448108866379358  0.2922624097895230
  0.4758617073786963  0.7855232339573085  0.6230770015098356
  0.7569715547858075  0.6175469124419581  0.9743925052786542
  0.8534674487787925  0.0143616968074717  0.5332917261990426
  0.3523266721392219  0.9910731820425785  0.1390824108253085
  0.1980582025988037  0.9510671969856717  0.4155395002356156
  0.6577533057867672  0.6713960994893589  0.5624019818109434
  0.9892842239976031  0.6694086204449868  0.0285949267487545
  0.9613054886400638  0.5718899519554376  0.5923580308977723
  0.2521941740622942  0.6071383606300734  0.7301600362980191
  0.4711289283990679  0.7838159702426467  0.7419769335022308
  0.3947582612870255  0.3785353128858714  0.3542496705872174
  0.9547259559991906  0.8803013648200561  0.7809460054733578
  0.5303862068745679  0.8134254741104725  0.4766318261747571
  0.8597389006051938  0.8006045328363192  0.0587733926233041
  0.8377184781008731  0.4245906840190642  0.7497422651789315
  0.7914787640002411  0.3531549949182024  0.5868917756481714
  0.6544846188802610  0.3114792921334931  0.4750877988368951
  0.6660545222762251  0.0498050583659407  0.2998291775846005
  0.6786032072355974  0.8131894902021164  0.3367340541731387
  0.0419787093758242  0.3644427922046005  0.9375487882752191
  0.3587213851600129  0.6509509741277362  0.7473702909361081
  0.0243571408901238  0.7701028273424565  0.9743172860348039
  0.4388923557175938  0.5418047779333914  0.1053650509506976
  0.5999154318628447  0.5549178976802300  0.8430795334873020
  0.8853215036567066  0.9102993273439898  0.5868218273600517
  0.6477524191830258  0.4284626383125968  0.2161867739119231
  0.9096180873359022  0.4760005096420690  0.0497155104889410
  0.3143389081676055  0.1606310498162363  0.9329111690478015
  0.0833356518690000  0.2877796397932313  0.2051017763127309
  0.1758051793459014  0.0225689448144479  0.9504809581141096
  0.6494233451113727  0.1064536431694469  0.4747649281661319
  0.3321210222342164  0.3225260141657536  0.5011832884674400
  0.2989748051279246  0.9489637512720185  0.4780796020072876
  0.8099307778204686  0.7366761014384867  0.6966665700211694
  0.2648899939022309  0.5924513285314219  0.0520555659495569
  0.4472573749688841  0.4056989307129823  0.2506158981433249
  0.8100066350035103  0.6831831425533699  0.8918584192509803
  0.7088775153464915  0.2091045512706332  0.6018599097864032
  0.0882835325342870  0.9257111118985857  0.2959449491323839
  0.4667267016025666  0.6726218822837619  0.3284275427723805
  0.7410039266582871  0.1937005984542500  0.9915630780709195
  0.3424428528683320  0.0453002595777766  0.4155472894397338
  0.7955918851192310  0.0094049003884068  0.7586582684846579
  0.5891114297502162  0.6939607842917611  0.9480995477509108
  0.3841073502940880  0.3907635132745057  0.0783871876542841
  0.1238839142852275  0.2302072124397494  0.6287693945870363
  0.4651100084836697  0.9568989172996002  0.7438692448820826
  0.4509624019601053  0.6737041365627695  0.5820980465782923
  0.2189044546431229  0.1056413774938114  0.2629545413773969
  0.2465229171878202  0.4023287495454549  0.2353906925945691
  0.7565443455330060  0.2640871425160607  0.7746185399449256
  0.3215790414668698  0.5517359955637601  0.5659727340616820
  0.0101600280445092  0.4860777857696694  0.5252002295375501
  0.0213368398551780  0.1620871729050692  0.5100922765530795
  0.5348499341711369  0.4263938913988428  0.9726396265724730
  0.1919218103352474  0.5907018613857101  0.2122880279206147
  0.6096514929517096  0.1861735762154209  0.8498372072736556
  0.2733535765225709  0.7719284903189308  0.5086903386144989
  0.1866003460582863  0.1156845871109827  0.7826836902825105
  0.0055671209723014  0.0869396332170691  0.1067108548011926
  0.1487831056623523  0.0581796327833517  0.4251698449071130
  0.2965214817550817  0.7672672431090335  0.6295664843062587
  0.9665233702731910  0.6033610305432381  0.9307235997542158
  0.9763720893615497  0.3118502080016810  0.5398452862672074
  0.1464554317289048  0.8795372754897542  0.5875871514287969
  0.0447105836362110  0.9107819672956099  0.8525380353590688
  0.4187902657950693  0.9836807537768030  0.2341608190859910
  0.8692145569827706  0.1074430517185626  0.5991403783335275
  0.5749821255665386  0.8834461762598078  0.8977998154954421
  0.4206480353833983  0.5017778082696720  0.8342257455714858
  0.9617301933929386  0.3169654215019629  0.3162727234562889
  0.6234033710509832  0.5679434012318815  0.0901340389446509
  0.9181737001184384  0.0150552232628495  0.4334800218855070
  0.1395273720115150  0.5383678601182039  0.5937221054857306
  0.9549103847365058  0.1995712939089728  0.7046101681627472
  0.0686393811485256  0.5625762855222152  0.7663039184537279
  0.7182692785241782  0.4203101446222577  0.9050277918818516
  0.4043037552033430  0.8463080703192820  0.3303934064212333
  0.7030756470892640  0.9111859338031312  0.4845413739141218
  0.1192849296949039  0.2867002107522302  0.7967624101706273
  0.7262895478930773  0.7572455217308774  0.5268266114127714
  0.7767557347934374  0.3102594041174614  0.2972838671965636
  0.2134872251599227  0.7747431002445134  0.3583634414387678
  0.5230428497546169  0.9738063849250205  0.4239288900478216
  0.0312565989269373  0.3914835054029175  0.6967843154205847
  0.2437284216662238  0.2724919523546678  0.1088444732640070
  0.6601102426339295  0.7453739314803663  0.7977854041214696
  0.8404889173360175  0.1954020676193542  0.4453269495585960
  0.8075405232478423  0.6311659101920558  0.1393176851785737
  0.0893364233110239  0.0504101789448622  0.5955157027716530
  0.5022624089716747  0.0599237161737725  0.6069604458095494
  0.6810120315491616  0.7563066193334012  0.1077298407332336
  0.7908057567085993  0.8554496008730481  0.8615346788488319
  0.6196466899591765  0.3066405168834305  0.0538195366557893
  0.0932957132968456  0.7161670373814949  0.6534531239121487
  0.8966039119323588  0.7383027223079907  0.4967991005352065
  0.9896615013432448  0.1458287179602110  0.3295911145599140
  0.5710318296677545  0.1814084380090669  0.1696607107175823
  0.7644460175682711  0.9072320036116822  0.1901870639507724
  0.8944173134653340  0.1642906159316386  0.9784723517729793
  0.3569574708364247  0.5475656034209110  0.2732303007254694
  0.1524623029612906  0.3871265341098529  0.5354938733622926
  0.1066478122133738  0.4289646354721076  0.0960023110389601
  0.5853126660908877  0.4488500153024612  0.5795457761554398
  0.3605869766183065  0.8065716459528005  0.7793311946593209
  0.0056739823734175  0.6262555959408381  0.2450406335667421
  0.1534061027393588  0.5946407296362598  0.9128509967475897
  0.4858890114149013  0.0529707945392511  0.8973669165909143
  0.3941385777490460  0.1563054009665836  0.1792110968778167
  0.2812597279876338  0.2798111961874760  0.7542558078753181
  0.5502381064924436  0.0038776023770015  0.0567571915510896
  0.8914868705757744  0.0270104292474137  0.2322191989438749
  0.2756562911469675  0.7199421857022459  0.9015951032271000
  0.3763007809336952  0.0123662706910986  0.0249120660489931
  0.5038298843820759  0.2035887173150793  0.4878644071020474
  0.7655403861546212  0.5957961021869835  0.4263473710774613
  0.4285510243976671  0.7958841100909065  0.9676733762279603
  0.7108715782693883  0.8772266610143935  0.6754999991319957
  0.3854786929389101  0.1103444840856497  0.7644688999273502
  0.4958740318434117  0.7144107556767479  0.1106497966835907
  0.2574792387596011  0.4842581229075050  0.7348429802498425
  0.5686076890429306  0.3683064850220361  0.7876995878025577
  0.5152114392564755  0.6799032803363801  0.7655856043776124
  0.9209520923856940  0.9557295332431488  0.9758996487777696
  0.9360513259057454  0.5944492636522150  0.3981882173937701
  0.9583373845267140  0.3012736017056435  0.0825975988651660
  0.3911930901240582  0.3323088428833541  0.8858555638307291
  0.0403275676339647  0.9109290238238843  0.0993323894143828
  0.6937542695513688  0.0358127487243309  0.6229981890997458
  0.9495388504501264  0.7590123313885782  0.7857690357502574
  0.5023941318193084  0.1271857790524229  0.3326387892207583
  0.8824044216496526  0.4826445375977038  0.2903679472783932
  0.0483348798984800  0.8014029649615343  0.4408752921912670
  0.0812082992393977  0.6120203480168056  0.0744130289928158
  0.8859798490084292  0.5896671476027102  0.7322036574080837
  0.2644456090896688  0.4514417969026657  0.9417529689530448
  0.8692412385113432  0.3399195735232541  0.9078057058791196
  0.7268363068813634  0.9436238993019900  0.9834466819819151
  0.6705093539811019  0.6032483443877669  0.6574239997676768
  0.1864501201401408  0.2403122991021130  0.9507678788684670
  0.8579034310919267  0.4214543506805674  0.4600619564730958
  0.2166989759592174  0.1073009532007779  0.0887434254510549
  0.4605721970212883  0.2091259437271148  0.0245026295378342
  0.1265829487715488  0.3294109821472336  0.3824475489977044
  0.3633360805101811  0.2658491476553849  0.3375574152562948
  0.4781684443952917  0.2286861962879670  0.6811336373665032
  0.9701462681906917  0.0330726365022234  0.7246487666804553
  0.2847892377094995  0.1601531252160330  0.6203571821529803
  0.2417377397466511  0.9047459378078027  0.2283790926925736
  0.6505758679729704  0.5908707147473826  0.2894149613346437
  0.1930689149619936  0.8317535341599732  0.7702022958919200
  0.4210730458365719  0.4211135940638396  0.6468131816457806
  0.3073479498547821  0.9623342281751741  0.8629494525963992
  0.4361508274917913  0.8576419001022170  0.5398059301446195
  0.5499582840653415  0.5773515356856951  0.4455698132065798
  0.2355536601374322  0.4939495167436354  0.4114366992586755
  0.0845198817943853  0.4695616665645831  0.2734792927181403
  0.5843196663926534  0.9322166362292479  0.2355073458149914
  0.1049141296375505  0.6139306078393896  0.3803025114294449
  0.0040657043475744  0.0865062355313277  0.8708635033969303
  0.2925512378418753  0.9602669987711696  0.6740141745304806
  0.2640704564585821  0.8601617560556268  0.0437390824496584
  0.7794678856444927  0.3559475959839062  0.0963954712687404
 
  0.00000000E+00  0.00000000E+00  0.00000000E+00
  0.00000000E+00  0.00000000E+00  0.00000000E+00
  0.00000000E+00  0.00000000E+00  0.00000000E+00
  0.00000000E+00  0.00000000E+00  0.00000000E+00
  0.00000000E+00  0.00000000E+00  0.00000000E+00
  0.00000000E+00  0.00000000E+00  0.00000000E+00
  0.00000000E+00  0.00000000E+00  0.00000000E+00
  0.00000000E+00  0.00000000E+00  0.00000000E+00
  0.00000000E+00  0.00000000E+00  0.00000000E+00
  0.00000000E+00  0.00000000E+00  0.00000000E+00
  0.00000000E+00  0.00000000E+00  0.00000000E+00
  0.00000000E+00  0.00000000E+00  0.00000000E+00
  0.00000000E+00  0.00000000E+00  0.00000000E+00
  0.00000000E+00  0.00000000E+00  0.00000000E+00
  0.00000000E+00  0.00000000E+00  0.00000000E+00
  0.00000000E+00  0.00000000E+00  0.00000000E+00
  0.00000000E+00  0.00000000E+00  0.00000000E+00
  0.00000000E+00  0.00000000E+00  0.00000000E+00
  0.00000000E+00  0.00000000E+00  0.00000000E+00
  0.00000000E+00  0.00000000E+00  0.00000000E+00
  0.00000000E+00  0.00000000E+00  0.00000000E+00
  0.00000000E+00  0.00000000E+00  0.00000000E+00
  0.00000000E+00  0.00000000E+00  0.00000000E+00
  0.00000000E+00  0.00000000E+00  0.00000000E+00
  0.00000000E+00  0.00000000E+00  0.00000000E+00
  0.00000000E+00  0.00000000E+00  0.00000000E+00
  0.00000000E+00  0.00000000E+00  0.00000000E+00
  0.00000000E+00  0.00000000E+00  0.00000000E+00
  0.00000000E+00  0.00000000E+00  0.00000000E+00
  0.00000000E+00  0.00000000E+00  0.00000000E+00
  0.00000000E+00  0.00000000E+00  0.00000000E+00
  0.00000000E+00  0.00000000E+00  0.00000000E+00
  0.00000000E+00  0.00000000E+00  0.00000000E+00
  0.00000000E+00  0.00000000E+00  0.00000000E+00
  0.00000000E+00  0.00000000E+00  0.00000000E+00
  0.00000000E+00  0.00000000E+00  0.00000000E+00
  0.00000000E+00  0.00000000E+00  0.00000000E+00
  0.00000000E+00  0.00000000E+00  0.00000000E+00
  0.00000000E+00  0.00000000E+00  0.00000000E+00
  0.00000000E+00  0.00000000E+00  0.00000000E+00
  0.00000000E+00  0.00000000E+00  0.00000000E+00
  0.00000000E+00  0.00000000E+00  0.00000000E+00
  0.00000000E+00  0.00000000E+00  0.00000000E+00
  0.00000000E+00  0.00000000E+00  0.00000000E+00
  0.00000000E+00  0.00000000E+00  0.00000000E+00
  0.00000000E+00  0.00000000E+00  0.00000000E+00
  0.00000000E+00  0.00000000E+00  0.00000000E+00
  0.00000000E+00  0.00000000E+00  0.00000000E+00
  0.00000000E+00  0.00000000E+00  0.00000000E+00
  0.00000000E+00  0.00000000E+00  0.00000000E+00
  0.00000000E+00  0.00000000E+00  0.00000000E+00
  0.00000000E+00  0.00000000E+00  0.00000000E+00
  0.00000000E+00  0.00000000E+00  0.00000000E+00
  0.00000000E+00  0.00000000E+00  0.00000000E+00
  0.00000000E+00  0.00000000E+00  0.00000000E+00
  0.00000000E+00  0.00000000E+00  0.00000000E+00
  0.00000000E+00  0.00000000E+00  0.00000000E+00
  0.00000000E+00  0.00000000E+00  0.00000000E+00
  0.00000000E+00  0.00000000E+00  0.00000000E+00
  0.00000000E+00  0.00000000E+00  0.00000000E+00
  0.00000000E+00  0.00000000E+00  0.00000000E+00
  0.00000000E+00  0.00000000E+00  0.00000000E+00
  0.00000000E+00  0.00000000E+00  0.00000000E+00
  0.00000000E+00  0.00000000E+00  0.00000000E+00
  0.00000000E+00  0.00000000E+00  0.00000000E+00
  0.00000000E+00  0.00000000E+00  0.00000000E+00
  0.00000000E+00  0.00000000E+00  0.00000000E+00
  0.00000000E+00  0.00000000E+00  0.00000000E+00
  0.00000000E+00  0.00000000E+00  0.00000000E+00
  0.00000000E+00  0.00000000E+00  0.00000000E+00
  0.00000000E+00  0.00000000E+00  0.00000000E+00
  0.00000000E+00  0.00000000E+00  0.00000000E+00
  0.00000000E+00  0.00000000E+00  0.00000000E+00
  0.00000000E+00  0.00000000E+00  0.00000000E+00
  0.00000000E+00  0.00000000E+00  0.00000000E+00
  0.00000000E+00  0.00000000E+00  0.00000000E+00
  0.00000000E+00  0.00000000E+00  0.00000000E+00
  0.00000000E+00  0.00000000E+00  0.00000000E+00
  0.00000000E+00  0.00000000E+00  0.00000000E+00
  0.00000000E+00  0.00000000E+00  0.00000000E+00
  0.00000000E+00  0.00000000E+00  0.00000000E+00
  0.00000000E+00  0.00000000E+00  0.00000000E+00
  0.00000000E+00  0.00000000E+00  0.00000000E+00
  0.00000000E+00  0.00000000E+00  0.00000000E+00
  0.00000000E+00  0.00000000E+00  0.00000000E+00
  0.00000000E+00  0.00000000E+00  0.00000000E+00
  0.00000000E+00  0.00000000E+00  0.00000000E+00
  0.00000000E+00  0.00000000E+00  0.00000000E+00
  0.00000000E+00  0.00000000E+00  0.00000000E+00
  0.00000000E+00  0.00000000E+00  0.00000000E+00
  0.00000000E+00  0.00000000E+00  0.00000000E+00
  0.00000000E+00  0.00000000E+00  0.00000000E+00
  0.00000000E+00  0.00000000E+00  0.00000000E+00
  0.00000000E+00  0.00000000E+00  0.00000000E+00
  0.00000000E+00  0.00000000E+00  0.00000000E+00
  0.00000000E+00  0.00000000E+00  0.00000000E+00
  0.00000000E+00  0.00000000E+00  0.00000000E+00
  0.00000000E+00  0.00000000E+00  0.00000000E+00
  0.00000000E+00  0.00000000E+00  0.00000000E+00
  0.00000000E+00  0.00000000E+00  0.00000000E+00
  0.00000000E+00  0.00000000E+00  0.00000000E+00
  0.00000000E+00  0.00000000E+00  0.00000000E+00
  0.00000000E+00  0.00000000E+00  0.00000000E+00
  0.00000000E+00  0.00000000E+00  0.00000000E+00
  0.00000000E+00  0.00000000E+00  0.00000000E+00
  0.00000000E+00  0.00000000E+00  0.00000000E+00
  0.00000000E+00  0.00000000E+00  0.00000000E+00
  0.00000000E+00  0.00000000E+00  0.00000000E+00
  0.00000000E+00  0.00000000E+00  0.00000000E+00
  0.00000000E+00  0.00000000E+00  0.00000000E+00
  0.00000000E+00  0.00000000E+00  0.00000000E+00
  0.00000000E+00  0.00000000E+00  0.00000000E+00
  0.00000000E+00  0.00000000E+00  0.00000000E+00
  0.00000000E+00  0.00000000E+00  0.00000000E+00
  0.00000000E+00  0.00000000E+00  0.00000000E+00
  0.00000000E+00  0.00000000E+00  0.00000000E+00
  0.00000000E+00  0.00000000E+00  0.00000000E+00
  0.00000000E+00  0.00000000E+00  0.00000000E+00
  0.00000000E+00  0.00000000E+00  0.00000000E+00
  0.00000000E+00  0.00000000E+00  0.00000000E+00
  0.00000000E+00  0.00000000E+00  0.00000000E+00
  0.00000000E+00  0.00000000E+00  0.00000000E+00
  0.00000000E+00  0.00000000E+00  0.00000000E+00
  0.00000000E+00  0.00000000E+00  0.00000000E+00
  0.00000000E+00  0.00000000E+00  0.00000000E+00
  0.00000000E+00  0.00000000E+00  0.00000000E+00
  0.00000000E+00  0.00000000E+00  0.00000000E+00
  0.00000000E+00  0.00000000E+00  0.00000000E+00
  0.00000000E+00  0.00000000E+00  0.00000000E+00
  0.00000000E+00  0.00000000E+00  0.00000000E+00
  0.00000000E+00  0.00000000E+00  0.00000000E+00
  0.00000000E+00  0.00000000E+00  0.00000000E+00
  0.00000000E+00  0.00000000E+00  0.00000000E+00
  0.00000000E+00  0.00000000E+00  0.00000000E+00
  0.00000000E+00  0.00000000E+00  0.00000000E+00
  0.00000000E+00  0.00000000E+00  0.00000000E+00
  0.00000000E+00  0.00000000E+00  0.00000000E+00
  0.00000000E+00  0.00000000E+00  0.00000000E+00
  0.00000000E+00  0.00000000E+00  0.00000000E+00
  0.00000000E+00  0.00000000E+00  0.00000000E+00
  0.00000000E+00  0.00000000E+00  0.00000000E+00
  0.00000000E+00  0.00000000E+00  0.00000000E+00
  0.00000000E+00  0.00000000E+00  0.00000000E+00
  0.00000000E+00  0.00000000E+00  0.00000000E+00
  0.00000000E+00  0.00000000E+00  0.00000000E+00
  0.00000000E+00  0.00000000E+00  0.00000000E+00
  0.00000000E+00  0.00000000E+00  0.00000000E+00
  0.00000000E+00  0.00000000E+00  0.00000000E+00
  0.00000000E+00  0.00000000E+00  0.00000000E+00
  0.00000000E+00  0.00000000E+00  0.00000000E+00
  0.00000000E+00  0.00000000E+00  0.00000000E+00
  0.00000000E+00  0.00000000E+00  0.00000000E+00
  0.00000000E+00  0.00000000E+00  0.00000000E+00
  0.00000000E+00  0.00000000E+00  0.00000000E+00
  0.00000000E+00  0.00000000E+00  0.00000000E+00
  0.00000000E+00  0.00000000E+00  0.00000000E+00
  0.00000000E+00  0.00000000E+00  0.00000000E+00
  0.00000000E+00  0.00000000E+00  0.00000000E+00
  0.00000000E+00  0.00000000E+00  0.00000000E+00
  0.00000000E+00  0.00000000E+00  0.00000000E+00
  0.00000000E+00  0.00000000E+00  0.00000000E+00
  0.00000000E+00  0.00000000E+00  0.00000000E+00
  0.00000000E+00  0.00000000E+00  0.00000000E+00
  0.00000000E+00  0.00000000E+00  0.00000000E+00
  0.00000000E+00  0.00000000E+00  0.00000000E+00
  0.00000000E+00  0.00000000E+00  0.00000000E+00
  0.00000000E+00  0.00000000E+00  0.00000000E+00
  0.00000000E+00  0.00000000E+00  0.00000000E+00
  0.00000000E+00  0.00000000E+00  0.00000000E+00
  0.00000000E+00  0.00000000E+00  0.00000000E+00
  0.00000000E+00  0.00000000E+00  0.00000000E+00
  0.00000000E+00  0.00000000E+00  0.00000000E+00
  0.00000000E+00  0.00000000E+00  0.00000000E+00
  0.00000000E+00  0.00000000E+00  0.00000000E+00
  0.00000000E+00  0.00000000E+00  0.00000000E+00
  0.00000000E+00  0.00000000E+00  0.00000000E+00
  0.00000000E+00  0.00000000E+00  0.00000000E+00
  0.00000000E+00  0.00000000E+00  0.00000000E+00
  0.00000000E+00  0.00000000E+00  0.00000000E+00
  0.00000000E+00  0.00000000E+00  0.00000000E+00
  0.00000000E+00  0.00000000E+00  0.00000000E+00
  0.00000000E+00  0.00000000E+00  0.00000000E+00
  0.00000000E+00  0.00000000E+00  0.00000000E+00
  0.00000000E+00  0.00000000E+00  0.00000000E+00
  0.00000000E+00  0.00000000E+00  0.00000000E+00
  0.00000000E+00  0.00000000E+00  0.00000000E+00
  0.00000000E+00  0.00000000E+00  0.00000000E+00
  0.00000000E+00  0.00000000E+00  0.00000000E+00
  0.00000000E+00  0.00000000E+00  0.00000000E+00
  0.00000000E+00  0.00000000E+00  0.00000000E+00
  0.00000000E+00  0.00000000E+00  0.00000000E+00
  0.00000000E+00  0.00000000E+00  0.00000000E+00
  0.00000000E+00  0.00000000E+00  0.00000000E+00
  0.00000000E+00  0.00000000E+00  0.00000000E+00
  0.00000000E+00  0.00000000E+00  0.00000000E+00
  0.00000000E+00  0.00000000E+00  0.00000000E+00
  0.00000000E+00  0.00000000E+00  0.00000000E+00
  0.00000000E+00  0.00000000E+00  0.00000000E+00
  0.00000000E+00  0.00000000E+00  0.00000000E+00
  0.00000000E+00  0.00000000E+00  0.00000000E+00
  0.00000000E+00  0.00000000E+00  0.00000000E+00
  0.00000000E+00  0.00000000E+00  0.00000000E+00
  0.00000000E+00  0.00000000E+00  0.00000000E+00
  0.00000000E+00  0.00000000E+00  0.00000000E+00
  0.00000000E+00  0.00000000E+00  0.00000000E+00
  0.00000000E+00  0.00000000E+00  0.00000000E+00
  0.00000000E+00  0.00000000E+00  0.00000000E+00
  0.00000000E+00  0.00000000E+00  0.00000000E+00
  0.00000000E+00  0.00000000E+00  0.00000000E+00
  0.00000000E+00  0.00000000E+00  0.00000000E+00
  0.00000000E+00  0.00000000E+00  0.00000000E+00
  0.00000000E+00  0.00000000E+00  0.00000000E+00
  0.00000000E+00  0.00000000E+00  0.00000000E+00
  0.00000000E+00  0.00000000E+00  0.00000000E+00
  0.00000000E+00  0.00000000E+00  0.00000000E+00
  0.00000000E+00  0.00000000E+00  0.00000000E+00
  0.00000000E+00  0.00000000E+00  0.00000000E+00
  0.00000000E+00  0.00000000E+00  0.00000000E+00
  0.00000000E+00  0.00000000E+00  0.00000000E+00
  0.00000000E+00  0.00000000E+00  0.00000000E+00
  0.00000000E+00  0.00000000E+00  0.00000000E+00
  0.00000000E+00  0.00000000E+00  0.00000000E+00
  0.00000000E+00  0.00000000E+00  0.00000000E+00
  0.00000000E+00  0.00000000E+00  0.00000000E+00
  0.00000000E+00  0.00000000E+00  0.00000000E+00
  0.00000000E+00  0.00000000E+00  0.00000000E+00
  0.00000000E+00  0.00000000E+00  0.00000000E+00
  0.00000000E+00  0.00000000E+00  0.00000000E+00
  0.00000000E+00  0.00000000E+00  0.00000000E+00
  0.00000000E+00  0.00000000E+00  0.00000000E+00
  0.00000000E+00  0.00000000E+00  0.00000000E+00
  0.00000000E+00  0.00000000E+00  0.00000000E+00