Ge4 S4                                  
   1.00000000000000     
     3.7682916370426289    0.0000000000000004    0.0000000000000002
     0.0000000000000012    4.2363471218862196    0.0000000000000003
     0.0000000000000000   -0.0000000000000001   12.3738101960926326
   Ge   S 
     4     4
Direct
  0.2500000000000000  0.4005810037754471  0.8528934477825776
  0.7500000000000000  0.5994189962245529  0.1471065522174224
  0.7500000000000000  0.9005810037754471  0.6471065522174224
  0.2500000000000000  0.0994189962245528  0.3528934477825781
  0.2500000000000000  0.5136438492822026  0.6611712114827458
  0.7500000000000000  0.4863561507177970  0.3388287885172537
  0.7500000000000000  0.0136438492822027  0.8388287885172542
  0.2500000000000000  0.9863561507177974  0.1611712114827464
 
  0.00000000E+00  0.00000000E+00  0.00000000E+00
  0.00000000E+00  0.00000000E+00  0.00000000E+00
  0.00000000E+00  0.00000000E+00  0.00000000E+00
  0.00000000E+00  0.00000000E+00  0.00000000E+00
  0.00000000E+00  0.00000000E+00  0.00000000E+00
  0.00000000E+00  0.00000000E+00  0.00000000E+00
  0.00000000E+00  0.00000000E+00  0.00000000E+00
  0.00000000E+00  0.00000000E+00  0.00000000E+00
