Amorphous Sb                            
   1.00000000000000     
    20.7203980512409878    0.0000000000000000    0.0000000000000000
     0.0000000000000000   20.7203980512409878    0.0000000000000000
     0.0000000000000000    0.0000000000000000   20.7203980512409878
   Ge   Te   Se
   150    75    75
Direct
  0.6637119603923836  0.3709927441217928  0.3284198791356943
  0.6152727789224670  0.4479954745404839  0.8692567190614895
  0.5960901833252592  0.5638859192258678  0.2049561813898535
  0.0811306215904040  0.9787467920553610  0.2894103773878101
  0.7062708809543992  0.0750085397260634  0.0696364505156382
  0.8209045115778011  0.0561434594447903  0.5500773507798939
  0.0249472532441857  0.9080405351396834  0.0252948281317913
  0.4318934237824550  0.8230769420410624  0.7701028934227310
  0.4486760593425174  0.2754214398850863  0.1396012016664869
  0.8857201265064845  0.1078554560460461  0.6896436388399607
  0.3981039383865621  0.2644423704385090  0.3937132697452768
  0.9637699635104440  0.0634566998082420  0.9820405967921388
  0.7890929940240312  0.3738126017552759  0.7425991671815950
  0.6814628804977900  0.3330109996705488  0.9308558909887950
  0.5059046662507924  0.8422033922242633  0.5949351658456337
  0.1270229425480025  0.4517094895523712  0.8103828684485137
  0.3675128394955252  0.1010782803033479  0.9408167517849577
  0.2621294984304470  0.6590859039567931  0.7225351563023565
  0.9079228771308081  0.8056756873315294  0.8430620353481686
  0.4533088828570371  0.3602795371630307  0.2272463773022722
  0.6846869450703110  0.0676581479800973  0.3871422860191984
  0.4109597854001805  0.3120194512509897  0.7964207259455449
  0.4769780846659373  0.4647476101214778  0.4100362261396882
  0.1607405513274998  0.9015921747112898  0.1136611848523046
  0.7786392542743030  0.8691622158786458  0.3595599056552743
  0.6136560524155001  0.9584113086596844  0.1012346599490215
  0.9891678748308337  0.6410576279692748  0.9158310575078303
  0.5823255091895092  0.2788381546175316  0.7186399815933555
  0.4021869824197921  0.3359433917137196  0.0419210299402692
  0.6881372048975933  0.6036030845346332  0.6247864490651409
  0.5221858793068748  0.8310025911713481  0.2886147134409995
  0.6765338747017964  0.3901075901615982  0.6307351353139623
  0.5051999623764232  0.8307161339475968  0.1526353418281943
  0.6404115550740954  0.6127380594600211  0.0243541571142742
  0.8053378584127557  0.2159495999500791  0.0406769947341132
  0.8980631903882141  0.3402754766126037  0.4504621226224828
  0.6955839756406377  0.7429979788357883  0.3201648143771010
  0.6320208593472216  0.0414852100970506  0.5953518427755284
  0.7533089085747164  0.9381585439596734  0.7865712007602639
  0.7793078266922535  0.0823028268299879  0.2098673421765085
  0.9549627917454870  0.9185448474752604  0.6995108265024825
  0.3221086822467072  0.8667300603838299  0.8262481263383563
  0.6414474872209581  0.6321457171659475  0.8494035495356869
  0.2999075458924736  0.3974527401260843  0.1646137571180972
  0.0876397942233282  0.6522667870533780  0.3984272562173530
  0.8325945990895676  0.3589298545111319  0.5566783516789044
  0.8866484780164896  0.1800091884128605  0.5373688482120755
  0.1418946199170179  0.3304775695790809  0.5303035760868369
  0.2899856673850749  0.6717411662351509  0.9838063019531589
  0.0172824685356048  0.3188270108737754  0.4037724818555901
  0.1713999078931323  0.4894134630635065  0.3732777973236523
  0.1557489203649780  0.6563747565667910  0.2877876082118220
  0.0296322445237820  0.7912006413141484  0.0921996879336220
  0.2688267279425389  0.0263749465579650  0.6976863740137489
  0.0084164871270076  0.2179481966803749  0.5455612672764971
  0.1618566622312301  0.8579001958308581  0.5176524186023173
  0.3532934316004059  0.9300826190459475  0.2388873583451669
  0.9702669442021374  0.6540829031646993  0.2426308767992182
  0.1253759690336480  0.5320739823814549  0.0442099415726105
  0.5365665068208685  0.1849577744344941  0.2673795951418469
  0.5429217559189041  0.3200417500867516  0.2914513688673779
  0.6739091065255920  0.8775643863954130  0.9490373177462743
  0.8252830470568284  0.5584302994924215  0.4362935631148730
  0.6736633885939725  0.9202697936698883  0.5757910341110986
  0.3200999865825267  0.2176905574458843  0.6153505292606525
  0.3017684032758936  0.0332967376939379  0.1422174147405855
  0.6704084040670182  0.9403037280871445  0.3606663112957307
  0.3851094517660414  0.1635529370978901  0.1442230418700206
  0.3903457105475070  0.4721943536741264  0.2317988953686410
  0.5138194879357982  0.5610345876522729  0.9974528049728448
  0.4320979594961472  0.7589770423038118  0.9320748745906968
  0.5207287218526488  0.9984812601252742  0.9306069416478451
  0.3010214367542332  0.0223900909134969  0.5223355645075145
  0.5787655598383381  0.9702527835229091  0.2248311118207980
  0.2873095087989128  0.4356273697301134  0.4683248389510339
  0.2240635747353110  0.5396316080539236  0.8245904350930502
  0.3750187263031108  0.4486140191372954  0.0747659337943105
  0.8680446199749170  0.0234281980063784  0.3824265656560328
  0.2693865184614381  0.2030770111555995  0.1118669909989833
  0.8413531487530221  0.4690367844315730  0.7963687230628196
  0.8868458981060598  0.6181727780221067  0.5394870321711238
  0.8905872070838043  0.8779928572736964  0.2177156291011286
  0.9548922040049632  0.0320329254309115  0.2872232133377324
  0.1206515460187916  0.7126852701661193  0.1827105139849579
  0.2231063353637808  0.4258392459835818  0.2774097572367751
  0.2484332211261346  0.2398302840323723  0.3128905701920246
  0.5343457034648580  0.6844905386887561  0.3439156331020996
  0.2516876796020853  0.0535517492919055  0.2606333208134117
  0.7442500724011509  0.6655235093458458  0.4878771982877339
  0.1735280859599726  0.7762823567474157  0.7697474418841423
  0.5262458278407891  0.6233424189511894  0.4850325141930156
  0.3534442352846625  0.8417960318162514  0.4213308920850096
  0.5100379693263619  0.0629584663036056  0.4426398965185996
  0.4797874138170357  0.0778680622044092  0.6800188038227759
  0.5317088535499295  0.1333823504758200  0.1252658478386408
  0.1779054621888676  0.5566682818550248  0.5725846977209770
  0.2153093690533865  0.7159947957210235  0.8758815767335477
  0.4643072598249063  0.3305304827051998  0.9382873773780815
  0.4263947170394289  0.1508321607461767  0.4076671238595964
  0.3598489282405524  0.6373860634638078  0.5550574257474210
  0.6888352304816650  0.2704562757541069  0.1964323974955775
  0.5641759204734456  0.9555416707788638  0.7707574529893577
  0.0134939570855721  0.4105114349603909  0.8472623606027412
  0.9902763916858177  0.7492580015557451  0.6252915664670979
  0.9012296639441502  0.8585463131749052  0.5189509204562270
  0.2999063808109028  0.5694299010309365  0.1837512482788952
  0.1790866741677419  0.2868727106994342  0.0648769784194343
  0.8110486201736080  0.5231799805800534  0.0204895107806138
  0.2317464275947998  0.2046217884916857  0.4316100091754720
  0.0998857196506435  0.3910226558258074  0.1862468453916293
  0.1223020713779945  0.0160559374012266  0.8843268878573411
  0.7551845287663994  0.6207803081921099  0.8823782553751869
  0.1405750123668312  0.8807522925185296  0.3439255185859480
  0.9586298114842648  0.4688604577721307  0.0499073657655273
  0.0327191256132480  0.1507028267787405  0.3758753981325924
  0.9034835524292006  0.7554786348176066  0.3487810878155244
  0.9837587468270144  0.4685735597535086  0.6725446932209564
  0.9406465390963987  0.6301441825053118  0.0763142846234928
  0.3484655856617138  0.3050252862469023  0.2835286827429613
  0.2768453156525368  0.3928204490587603  0.9309358994996657
  0.5105835831082572  0.6906854663959408  0.0011003478374860
  0.0848485770446956  0.2486281537092268  0.7057433713521490
  0.7595501432989096  0.9558090670424662  0.4826422888050672
  0.2331913608570275  0.3118717288630535  0.8410945596381438
  0.3861834407964722  0.5322906237786640  0.9884830899960164
  0.4383269501633364  0.9167086853898212  0.0757363494327592
  0.7116531736139038  0.2645469840128953  0.5045256762737154
  0.0770550229994456  0.8968211283047438  0.9004517886965573
  0.3427878194572003  0.7236814701341387  0.3737065326851621
  0.6091239377349638  0.5858936283369616  0.3698023076224999
  0.1394896248494817  0.1376043102377409  0.5493799841712317
  0.0906283752470358  0.2326294591608971  0.4462989157168877
  0.0834251810802300  0.9196360458446833  0.7021728563192013
  0.2927442715532749  0.8918086065743296  0.9494282913990872
  0.8103933560079852  0.3133624639404573  0.9046016271714450
  0.2186731767908867  0.7742167814092440  0.3724367056040236
  0.5102701153174252  0.2082101930871474  0.9399186513109967
  0.0336259562350136  0.2668030989341688  0.0116366501614706
  0.0676377870068805  0.0158271462850053  0.4808131928567931
  0.4249696317101979  0.7492457044059933  0.2835315013888930
  0.2787664573350739  0.8059504414675871  0.5969795764869943
  0.2078175862275771  0.1077691250107833  0.8802244342631553
  0.0598124286712149  0.6273588752339165  0.7461570884009987
  0.4473778208316546  0.3774977369638464  0.5936449729411777
  0.3193153066688552  0.4793934906381097  0.7428510126240013
  0.9838553089880193  0.5426535391012166  0.3987593426044640
  0.9301548769846235  0.4587758834230939  0.3259078685843519
  0.7888183272554627  0.6735724699174597  0.7556452440173658
  0.8186906606625683  0.3415830506929964  0.2726258451128558
  0.4872661063938395  0.4876047095047085  0.6422043222481761
  0.0323908820652576  0.0928754844331223  0.8259599381768155
  0.4879205582105399  0.4622410793225527  0.1289949016877188
  0.4432161442240243  0.5263511385337409  0.7606517233667773
  0.7251824092480348  0.8091701424486430  0.7933771129796128
  0.4770416717444448  0.7080223005777881  0.7226406239220395
  0.4903366834996206  0.1039547952925091  0.8529013196533768
  0.4351429438839673  0.7204274944350786  0.4665648226901098
  0.0395128810702872  0.7519753434444709  0.3264392414415838
  0.3051892782629864  0.2181502567363367  0.7920404151649620
  0.4730474689006812  0.2053540907459137  0.7115040098560854
  0.9181428029562184  0.6880607266196535  0.7879983768368959
  0.0635935042127898  0.5399955679566943  0.3005792254620303
  0.3137410461589951  0.2905692997643925  0.4915714472651516
  0.5607511183549434  0.9254451751877397  0.5129614393368200
  0.7946387219939695  0.7948224731103934  0.9135548584393547
  0.9546822230382901  0.1327055188323243  0.0959664053611817
  0.2182448952721856  0.4291550797681865  0.5891414276673856
  0.8739721136520515  0.4672366298308432  0.2055567007591534
  0.8732295042576297  0.2810785557987288  0.7880275870482052
  0.0171936971386444  0.2842878623266074  0.8311874560294754
  0.7317312473095043  0.9415479532726678  0.0557191767956624
  0.3427976267260178  0.3618185769169102  0.6911105105746529
  0.4291040921511993  0.5635833331341473  0.3192719308780809
  0.3792987676833377  0.8749020901420366  0.5476298781671787
  0.5695068017939633  0.2535783111843486  0.0960532339697622
  0.5883359626101452  0.4986738236591606  0.4737129426647471
  0.6058719867910511  0.6985297336150253  0.7408946651448147
  0.7978001263834997  0.2485544449368078  0.6143742146359514
  0.6245760883526543  0.6870654867225809  0.5360534529760486
  0.2485448879929564  0.5420115707204189  0.9513493397532287
  0.2576824169318073  0.9313351620565484  0.4072280973080495
  0.8913831725181396  0.0807987890598980  0.8220192923332945
  0.9047385834206736  0.7572122323092643  0.0747921439801331
  0.7992530220965932  0.6852932248761476  0.6203789197274787
  0.8507789808605324  0.7434413442605816  0.2162002910629468
  0.0582235874057631  0.3963788908611150  0.9775252275811255
  0.5961914317582711  0.2952713833839411  0.5913549326931644
  0.2603311534154642  0.0972365961518591  0.0313384873293856
  0.7687578177353274  0.0546692467398984  0.6693932538231735
  0.6360209363347167  0.0988986516985335  0.2144364571697892
  0.9932227275387788  0.5779341686854806  0.5958139259086579
  0.2106309997488864  0.8075480711953844  0.1916362667135090
  0.0258253891289186  0.3271319225286788  0.6108249005322506
  0.7288313986110566  0.5420432319302861  0.1484408671690929
  0.0247153868224075  0.8735827510737408  0.1928124413656818
  0.5990989352624538  0.1697871993321698  0.3883452306667508
  0.5106524996271062  0.3270186053742847  0.4188306587480639
  0.1425685013752940  0.2259963113519916  0.9008717188715494
  0.1449591180680869  0.6990855532810158  0.6617711192016955
  0.9040825828804202  0.9421963463618184  0.8252936173304875
  0.4375054943632435  0.9120614307802910  0.3474313380279312
  0.8605634425639934  0.4285715059468203  0.9204958232674159
  0.7204592127406642  0.6729487003310126  0.1032346777515514
  0.5366675895905146  0.1216630986653655  0.5632298930644737
  0.1790992486833787  0.0187333962760974  0.5856058096882109
  0.7742189845117835  0.8147761987277491  0.4802739261918205
  0.6692331390420421  0.9899991650162008  0.8744877743361812
  0.5262497275796107  0.3802127007581007  0.7665183809830225
  0.9817266856893738  0.7746569968425234  0.9514855974169478
  0.8764724758367208  0.8343493074869102  0.6435111179472486
  0.3317633019113373  0.9957629317030054  0.8175964554896069
  0.1807559616816405  0.8319358027411923  0.9528086369937014
  0.4613759587295263  0.9222841354609912  0.6792853281668982
  0.0768474645815047  0.4255372923191700  0.4496679765782829
  0.2357529503473614  0.5802722619532332  0.4602646688066372
  0.2462839962360164  0.8710509820919299  0.7159572923674986
  0.8115980375996159  0.2146394724830927  0.1734941510229575
  0.9559378117919479  0.7304521183646884  0.4988398880736327
  0.9043530853210839  0.3706739805402393  0.1163320138608839
  0.9780120601142102  0.3368666998784349  0.2852617414203849
  0.9100459846047428  0.0207596218109884  0.1603230689050363
  0.1913416737199896  0.6248850189559292  0.1159253276463232
  0.6378168952335770  0.8687758166918726  0.6878091314828367
  0.0500493790444594  0.2731828271784167  0.1413007513626425
  0.1953726291403441  0.1365457618603685  0.7551799450476366
  0.0659392959257588  0.9028876402584203  0.4432498768486113
  0.3070094243021231  0.2862090553569629  0.9862878436796834
  0.8417890449580128  0.2356833233940350  0.4377548970863216
  0.6201335338177500  0.7062245529095250  0.9484384779333510
  0.7584514843457555  0.5459399705281811  0.7756170319621774
  0.0475690018019606  0.4885263896729626  0.1288879890740446
  0.7295737885476470  0.3066948136097736  0.0345869545718713
  0.9006335914607604  0.6165661255821817  0.3362865979752740
  0.5823253962861656  0.0646724161010184  0.0334158729541798
  0.7252772993229826  0.6309479735943242  0.3703814567443189
  0.9171123981304063  0.9514447079230877  0.0051721488391721
  0.4331862236321555  0.1572376077979314  0.0280916169365568
  0.5624622448978798  0.3998805915221837  0.9675624091573809
  0.7053783478692353  0.5335611818060215  0.9548025120895787
  0.9601929879988020  0.0847322524106744  0.4510476062539794
  0.0807598854621716  0.0332344230589285  0.0031310289469815
  0.5948204787017772  0.7901361478635565  0.3798351105792435
  0.8282519576808696  0.4181027436613221  0.3789709648505664
  0.3511408245553298  0.7951170651779051  0.0125487457574636
  0.7156074302211692  0.3963067104638611  0.2200728159861001
  0.3113492016391106  0.1113605579154466  0.4233462061768378
  0.5468234510191010  0.5573659073850550  0.8785706102886479
  0.5613149591625515  0.8841127011040300  0.0343843176457597
  0.3674289581549388  0.6620336735302885  0.8859969193288535
  0.3269279532939038  0.4107940791968545  0.3381390037968686
  0.1173201518590119  0.0601957376847437  0.3722116631260164
  0.7312521743021847  0.2630727353325284  0.3171032934106535
  0.2149689956620620  0.1630402163725506  0.2221985504597370
  0.4322786162355854  0.1128114003804797  0.2958677087220210
  0.0475081462080809  0.6318124369569205  0.0273634768571327
  0.4996195427167862  0.8365241690588903  0.8696014213014251
  0.2515575105021952  0.5901546899911310  0.2938638993408844
  0.6789975940789219  0.2436555093282422  0.7849872413234991
  0.0649756381655706  0.8539617561066208  0.6021312899526805
  0.1701797117519916  0.7398095516930070  0.4741916244039217
  0.1627330388632018  0.3541213907614633  0.7490454732380627
  0.0723720341219760  0.8369289923188958  0.7936616709186879
  0.9821691558750416  0.1407362978101858  0.2681568836890733
  0.0414463940914658  0.1427797957512595  0.6275021425157021
  0.4047731196386053  0.6462844358848585  0.2032618595014597
  0.2815174541543186  0.9215328050017177  0.0943211533287140
  0.1280501434207082  0.6304270791659192  0.8543868439362896
  0.3517247495934583  0.7216779501923085  0.6508441535873715
  0.1123729336341128  0.5150216162164867  0.7089676199394930
  0.2919099521804966  0.5666060121072150  0.6450206642380181
  0.8986721097600139  0.2572940300197786  0.9755853269676251
  0.3852827291120207  0.8177912976103983  0.1921609271274107
  0.1685488753382174  0.3221754239761907  0.2984046991667384
  0.9397381093732307  0.0182149349367293  0.6366074066294232
  0.7442084387012216  0.5357455474311621  0.5218727637381519
  0.7904661161654616  0.1043756690342619  0.3299006761029446
  0.6407397584532788  0.2292571535708277  0.8915834552911548
  0.3428041889590006  0.0976173091987462  0.6239164316140204
  0.6048252941223353  0.4821820430164436  0.6696084979901045
  0.7116623664445356  0.0998568115637397  0.5054289188106580
  0.9023898305233118  0.8870217282761175  0.3452622522499880
  0.4290441443202511  0.0006097783658845  0.1566983151558290
  0.1965043637224326  0.2216494313067869  0.6130420091039781
  0.1589648089387268  0.0048773960874797  0.1910907006636151
  0.6076706506053711  0.6815945743879013  0.2423448583530572
  0.5283948018595410  0.7188186972591737  0.1106798586314994
  0.5978603309149335  0.0619597632034257  0.7256003622937328
  0.4762229831193139  0.6012658448429704  0.5993973090382667
  0.8677297149897996  0.6150706448049235  0.9629558748456546
  0.2062192229217246  0.4000037987423894  0.0979389909489754
  0.6974887726357579  0.9426753940117649  0.2466396984352812
  0.3960776250414426  0.4655473564851036  0.5138886259950013
  0.4076930337730502  0.9787996290976579  0.9677750178116824
  0.8430524436233995  0.4333810968844674  0.6487928470732029
  0.7753489815478858  0.1177655262045505  0.9835607659397141
  0.3916042571728511  0.4121517952097591  0.8723317037951190
  0.7200637007772315  0.3880214413939100  0.5105565219322656
  0.6094428798480038  0.4878735350037999  0.2977636668139994
  0.9459350335172587  0.5207563295329649  0.7799540094880015
  0.3755652167850840  0.6294304694698241  0.0632983391038096
 
  0.00000000E+00  0.00000000E+00  0.00000000E+00
  0.00000000E+00  0.00000000E+00  0.00000000E+00
  0.00000000E+00  0.00000000E+00  0.00000000E+00
  0.00000000E+00  0.00000000E+00  0.00000000E+00
  0.00000000E+00  0.00000000E+00  0.00000000E+00
  0.00000000E+00  0.00000000E+00  0.00000000E+00
  0.00000000E+00  0.00000000E+00  0.00000000E+00
  0.00000000E+00  0.00000000E+00  0.00000000E+00
  0.00000000E+00  0.00000000E+00  0.00000000E+00
  0.00000000E+00  0.00000000E+00  0.00000000E+00
  0.00000000E+00  0.00000000E+00  0.00000000E+00
  0.00000000E+00  0.00000000E+00  0.00000000E+00
  0.00000000E+00  0.00000000E+00  0.00000000E+00
  0.00000000E+00  0.00000000E+00  0.00000000E+00
  0.00000000E+00  0.00000000E+00  0.00000000E+00
  0.00000000E+00  0.00000000E+00  0.00000000E+00
  0.00000000E+00  0.00000000E+00  0.00000000E+00
  0.00000000E+00  0.00000000E+00  0.00000000E+00
  0.00000000E+00  0.00000000E+00  0.00000000E+00
  0.00000000E+00  0.00000000E+00  0.00000000E+00
  0.00000000E+00  0.00000000E+00  0.00000000E+00
  0.00000000E+00  0.00000000E+00  0.00000000E+00
  0.00000000E+00  0.00000000E+00  0.00000000E+00
  0.00000000E+00  0.00000000E+00  0.00000000E+00
  0.00000000E+00  0.00000000E+00  0.00000000E+00
  0.00000000E+00  0.00000000E+00  0.00000000E+00
  0.00000000E+00  0.00000000E+00  0.00000000E+00
  0.00000000E+00  0.00000000E+00  0.00000000E+00
  0.00000000E+00  0.00000000E+00  0.00000000E+00
  0.00000000E+00  0.00000000E+00  0.00000000E+00
  0.00000000E+00  0.00000000E+00  0.00000000E+00
  0.00000000E+00  0.00000000E+00  0.00000000E+00
  0.00000000E+00  0.00000000E+00  0.00000000E+00
  0.00000000E+00  0.00000000E+00  0.00000000E+00
  0.00000000E+00  0.00000000E+00  0.00000000E+00
  0.00000000E+00  0.00000000E+00  0.00000000E+00
  0.00000000E+00  0.00000000E+00  0.00000000E+00
  0.00000000E+00  0.00000000E+00  0.00000000E+00
  0.00000000E+00  0.00000000E+00  0.00000000E+00
  0.00000000E+00  0.00000000E+00  0.00000000E+00
  0.00000000E+00  0.00000000E+00  0.00000000E+00
  0.00000000E+00  0.00000000E+00  0.00000000E+00
  0.00000000E+00  0.00000000E+00  0.00000000E+00
  0.00000000E+00  0.00000000E+00  0.00000000E+00
  0.00000000E+00  0.00000000E+00  0.00000000E+00
  0.00000000E+00  0.00000000E+00  0.00000000E+00
  0.00000000E+00  0.00000000E+00  0.00000000E+00
  0.00000000E+00  0.00000000E+00  0.00000000E+00
  0.00000000E+00  0.00000000E+00  0.00000000E+00
  0.00000000E+00  0.00000000E+00  0.00000000E+00
  0.00000000E+00  0.00000000E+00  0.00000000E+00
  0.00000000E+00  0.00000000E+00  0.00000000E+00
  0.00000000E+00  0.00000000E+00  0.00000000E+00
  0.00000000E+00  0.00000000E+00  0.00000000E+00
  0.00000000E+00  0.00000000E+00  0.00000000E+00
  0.00000000E+00  0.00000000E+00  0.00000000E+00
  0.00000000E+00  0.00000000E+00  0.00000000E+00
  0.00000000E+00  0.00000000E+00  0.00000000E+00
  0.00000000E+00  0.00000000E+00  0.00000000E+00
  0.00000000E+00  0.00000000E+00  0.00000000E+00
  0.00000000E+00  0.00000000E+00  0.00000000E+00
  0.00000000E+00  0.00000000E+00  0.00000000E+00
  0.00000000E+00  0.00000000E+00  0.00000000E+00
  0.00000000E+00  0.00000000E+00  0.00000000E+00
  0.00000000E+00  0.00000000E+00  0.00000000E+00
  0.00000000E+00  0.00000000E+00  0.00000000E+00
  0.00000000E+00  0.00000000E+00  0.00000000E+00
  0.00000000E+00  0.00000000E+00  0.00000000E+00
  0.00000000E+00  0.00000000E+00  0.00000000E+00
  0.00000000E+00  0.00000000E+00  0.00000000E+00
  0.00000000E+00  0.00000000E+00  0.00000000E+00
  0.00000000E+00  0.00000000E+00  0.00000000E+00
  0.00000000E+00  0.00000000E+00  0.00000000E+00
  0.00000000E+00  0.00000000E+00  0.00000000E+00
  0.00000000E+00  0.00000000E+00  0.00000000E+00
  0.00000000E+00  0.00000000E+00  0.00000000E+00
  0.00000000E+00  0.00000000E+00  0.00000000E+00
  0.00000000E+00  0.00000000E+00  0.00000000E+00
  0.00000000E+00  0.00000000E+00  0.00000000E+00
  0.00000000E+00  0.00000000E+00  0.00000000E+00
  0.00000000E+00  0.00000000E+00  0.00000000E+00
  0.00000000E+00  0.00000000E+00  0.00000000E+00
  0.00000000E+00  0.00000000E+00  0.00000000E+00
  0.00000000E+00  0.00000000E+00  0.00000000E+00
  0.00000000E+00  0.00000000E+00  0.00000000E+00
  0.00000000E+00  0.00000000E+00  0.00000000E+00
  0.00000000E+00  0.00000000E+00  0.00000000E+00
  0.00000000E+00  0.00000000E+00  0.00000000E+00
  0.00000000E+00  0.00000000E+00  0.00000000E+00
  0.00000000E+00  0.00000000E+00  0.00000000E+00
  0.00000000E+00  0.00000000E+00  0.00000000E+00
  0.00000000E+00  0.00000000E+00  0.00000000E+00
  0.00000000E+00  0.00000000E+00  0.00000000E+00
  0.00000000E+00  0.00000000E+00  0.00000000E+00
  0.00000000E+00  0.00000000E+00  0.00000000E+00
  0.00000000E+00  0.00000000E+00  0.00000000E+00
  0.00000000E+00  0.00000000E+00  0.00000000E+00
  0.00000000E+00  0.00000000E+00  0.00000000E+00
  0.00000000E+00  0.00000000E+00  0.00000000E+00
  0.00000000E+00  0.00000000E+00  0.00000000E+00
  0.00000000E+00  0.00000000E+00  0.00000000E+00
  0.00000000E+00  0.00000000E+00  0.00000000E+00
  0.00000000E+00  0.00000000E+00  0.00000000E+00
  0.00000000E+00  0.00000000E+00  0.00000000E+00
  0.00000000E+00  0.00000000E+00  0.00000000E+00
  0.00000000E+00  0.00000000E+00  0.00000000E+00
  0.00000000E+00  0.00000000E+00  0.00000000E+00
  0.00000000E+00  0.00000000E+00  0.00000000E+00
  0.00000000E+00  0.00000000E+00  0.00000000E+00
  0.00000000E+00  0.00000000E+00  0.00000000E+00
  0.00000000E+00  0.00000000E+00  0.00000000E+00
  0.00000000E+00  0.00000000E+00  0.00000000E+00
  0.00000000E+00  0.00000000E+00  0.00000000E+00
  0.00000000E+00  0.00000000E+00  0.00000000E+00
  0.00000000E+00  0.00000000E+00  0.00000000E+00
  0.00000000E+00  0.00000000E+00  0.00000000E+00
  0.00000000E+00  0.00000000E+00  0.00000000E+00
  0.00000000E+00  0.00000000E+00  0.00000000E+00
  0.00000000E+00  0.00000000E+00  0.00000000E+00
  0.00000000E+00  0.00000000E+00  0.00000000E+00
  0.00000000E+00  0.00000000E+00  0.00000000E+00
  0.00000000E+00  0.00000000E+00  0.00000000E+00
  0.00000000E+00  0.00000000E+00  0.00000000E+00
  0.00000000E+00  0.00000000E+00  0.00000000E+00
  0.00000000E+00  0.00000000E+00  0.00000000E+00
  0.00000000E+00  0.00000000E+00  0.00000000E+00
  0.00000000E+00  0.00000000E+00  0.00000000E+00
  0.00000000E+00  0.00000000E+00  0.00000000E+00
  0.00000000E+00  0.00000000E+00  0.00000000E+00
  0.00000000E+00  0.00000000E+00  0.00000000E+00
  0.00000000E+00  0.00000000E+00  0.00000000E+00
  0.00000000E+00  0.00000000E+00  0.00000000E+00
  0.00000000E+00  0.00000000E+00  0.00000000E+00
  0.00000000E+00  0.00000000E+00  0.00000000E+00
  0.00000000E+00  0.00000000E+00  0.00000000E+00
  0.00000000E+00  0.00000000E+00  0.00000000E+00
  0.00000000E+00  0.00000000E+00  0.00000000E+00
  0.00000000E+00  0.00000000E+00  0.00000000E+00
  0.00000000E+00  0.00000000E+00  0.00000000E+00
  0.00000000E+00  0.00000000E+00  0.00000000E+00
  0.00000000E+00  0.00000000E+00  0.00000000E+00
  0.00000000E+00  0.00000000E+00  0.00000000E+00
  0.00000000E+00  0.00000000E+00  0.00000000E+00
  0.00000000E+00  0.00000000E+00  0.00000000E+00
  0.00000000E+00  0.00000000E+00  0.00000000E+00
  0.00000000E+00  0.00000000E+00  0.00000000E+00
  0.00000000E+00  0.00000000E+00  0.00000000E+00
  0.00000000E+00  0.00000000E+00  0.00000000E+00
  0.00000000E+00  0.00000000E+00  0.00000000E+00
  0.00000000E+00  0.00000000E+00  0.00000000E+00
  0.00000000E+00  0.00000000E+00  0.00000000E+00
  0.00000000E+00  0.00000000E+00  0.00000000E+00
  0.00000000E+00  0.00000000E+00  0.00000000E+00
  0.00000000E+00  0.00000000E+00  0.00000000E+00
  0.00000000E+00  0.00000000E+00  0.00000000E+00
  0.00000000E+00  0.00000000E+00  0.00000000E+00
  0.00000000E+00  0.00000000E+00  0.00000000E+00
  0.00000000E+00  0.00000000E+00  0.00000000E+00
  0.00000000E+00  0.00000000E+00  0.00000000E+00
  0.00000000E+00  0.00000000E+00  0.00000000E+00
  0.00000000E+00  0.00000000E+00  0.00000000E+00
  0.00000000E+00  0.00000000E+00  0.00000000E+00
  0.00000000E+00  0.00000000E+00  0.00000000E+00
  0.00000000E+00  0.00000000E+00  0.00000000E+00
  0.00000000E+00  0.00000000E+00  0.00000000E+00
  0.00000000E+00  0.00000000E+00  0.00000000E+00
  0.00000000E+00  0.00000000E+00  0.00000000E+00
  0.00000000E+00  0.00000000E+00  0.00000000E+00
  0.00000000E+00  0.00000000E+00  0.00000000E+00
  0.00000000E+00  0.00000000E+00  0.00000000E+00
  0.00000000E+00  0.00000000E+00  0.00000000E+00
  0.00000000E+00  0.00000000E+00  0.00000000E+00
  0.00000000E+00  0.00000000E+00  0.00000000E+00
  0.00000000E+00  0.00000000E+00  0.00000000E+00
  0.00000000E+00  0.00000000E+00  0.00000000E+00
  0.00000000E+00  0.00000000E+00  0.00000000E+00
  0.00000000E+00  0.00000000E+00  0.00000000E+00
  0.00000000E+00  0.00000000E+00  0.00000000E+00
  0.00000000E+00  0.00000000E+00  0.00000000E+00
  0.00000000E+00  0.00000000E+00  0.00000000E+00
  0.00000000E+00  0.00000000E+00  0.00000000E+00
  0.00000000E+00  0.00000000E+00  0.00000000E+00
  0.00000000E+00  0.00000000E+00  0.00000000E+00
  0.00000000E+00  0.00000000E+00  0.00000000E+00
  0.00000000E+00  0.00000000E+00  0.00000000E+00
  0.00000000E+00  0.00000000E+00  0.00000000E+00
  0.00000000E+00  0.00000000E+00  0.00000000E+00
  0.00000000E+00  0.00000000E+00  0.00000000E+00
  0.00000000E+00  0.00000000E+00  0.00000000E+00
  0.00000000E+00  0.00000000E+00  0.00000000E+00
  0.00000000E+00  0.00000000E+00  0.00000000E+00
  0.00000000E+00  0.00000000E+00  0.00000000E+00
  0.00000000E+00  0.00000000E+00  0.00000000E+00
  0.00000000E+00  0.00000000E+00  0.00000000E+00
  0.00000000E+00  0.00000000E+00  0.00000000E+00
  0.00000000E+00  0.00000000E+00  0.00000000E+00
  0.00000000E+00  0.00000000E+00  0.00000000E+00
  0.00000000E+00  0.00000000E+00  0.00000000E+00
  0.00000000E+00  0.00000000E+00  0.00000000E+00
  0.00000000E+00  0.00000000E+00  0.00000000E+00
  0.00000000E+00  0.00000000E+00  0.00000000E+00
  0.00000000E+00  0.00000000E+00  0.00000000E+00
  0.00000000E+00  0.00000000E+00  0.00000000E+00
  0.00000000E+00  0.00000000E+00  0.00000000E+00
  0.00000000E+00  0.00000000E+00  0.00000000E+00
  0.00000000E+00  0.00000000E+00  0.00000000E+00
  0.00000000E+00  0.00000000E+00  0.00000000E+00
  0.00000000E+00  0.00000000E+00  0.00000000E+00
  0.00000000E+00  0.00000000E+00  0.00000000E+00
  0.00000000E+00  0.00000000E+00  0.00000000E+00
  0.00000000E+00  0.00000000E+00  0.00000000E+00
  0.00000000E+00  0.00000000E+00  0.00000000E+00
  0.00000000E+00  0.00000000E+00  0.00000000E+00
  0.00000000E+00  0.00000000E+00  0.00000000E+00
  0.00000000E+00  0.00000000E+00  0.00000000E+00
  0.00000000E+00  0.00000000E+00  0.00000000E+00
  0.00000000E+00  0.00000000E+00  0.00000000E+00
  0.00000000E+00  0.00000000E+00  0.00000000E+00
  0.00000000E+00  0.00000000E+00  0.00000000E+00
  0.00000000E+00  0.00000000E+00  0.00000000E+00
  0.00000000E+00  0.00000000E+00  0.00000000E+00
  0.00000000E+00  0.00000000E+00  0.00000000E+00
  0.00000000E+00  0.00000000E+00  0.00000000E+00
  0.00000000E+00  0.00000000E+00  0.00000000E+00
  0.00000000E+00  0.00000000E+00  0.00000000E+00
  0.00000000E+00  0.00000000E+00  0.00000000E+00
  0.00000000E+00  0.00000000E+00  0.00000000E+00
  0.00000000E+00  0.00000000E+00  0.00000000E+00
  0.00000000E+00  0.00000000E+00  0.00000000E+00
  0.00000000E+00  0.00000000E+00  0.00000000E+00
  0.00000000E+00  0.00000000E+00  0.00000000E+00
  0.00000000E+00  0.00000000E+00  0.00000000E+00