Amorphous Sb                            
   1.00000000000000     
    20.1278869700586895    0.0000000000000000    0.0000000000000000
     0.0000000000000000   20.1278869700586895    0.0000000000000000
     0.0000000000000000    0.0000000000000000   20.1278869700586895
   Ge   Se
   150   150
Direct
  0.5156398862539433  0.6891626902766532  0.7876575589314783
  0.2114864137599355  0.4267905236522296  0.8030138522796477
  0.3863285848732616  0.3155879625267488  0.6075469295871088
  0.8253758145947288  0.0288311206928142  0.6503981270004076
  0.9001823696380313  0.6247150400837356  0.6649183462106762
  0.2221017071917544  0.7108828760899328  0.9277953935537013
  0.1198462261753335  0.1634429943809650  0.3628178973649980
  0.3300074236967063  0.6307495539531445  0.8052054926021839
  0.3539365071718308  0.8506108787858153  0.2207280449991771
  0.3687247727291236  0.0167497875460612  0.4209767425513178
  0.0098352488582449  0.0324020220919223  0.4550723894073414
  0.6067148987454090  0.3341037849145891  0.8503739859970025
  0.6041128766379771  0.4386676349224317  0.5882295603298786
  0.2556827750580624  0.0168602466694878  0.8611967827291807
  0.6802685888588869  0.9520192970982748  0.3947067586543298
  0.0398193213186744  0.7757945588487587  0.0829468172973264
  0.0473348946075376  0.7636501776514422  0.3334231312670255
  0.8165118761084429  0.3946960685668159  0.3574110785410198
  0.1078401480471314  0.4561628890287892  0.9666026922713371
  0.0575600629450506  0.9147255926467750  0.5040365507908504
  0.1499270607435790  0.8305828123119596  0.2005051436202052
  0.4314915937231021  0.7585046297828697  0.9575209486155600
  0.9825395447562073  0.1595396546636465  0.9361807009629217
  0.0336082424795237  0.0755620728539128  0.1294051707438584
  0.5525045548465428  0.3330231757031825  0.1872537764709818
  0.3748888981208438  0.1383447257644264  0.5831405656647064
  0.4363608137146215  0.7536167884401266  0.5225196630798337
  0.8000646958391755  0.9199069750961186  0.9997887347981944
  0.7584902663070920  0.5502475810070493  0.6040062007574107
  0.9516059877423402  0.7717085554031584  0.5849467109724387
  0.0838000813875155  0.3536090798403961  0.7484392544810561
  0.0345547584047452  0.1002848240305383  0.2567473716974078
  0.9009632031466950  0.4910475315211897  0.4842960980619182
  0.3983668646400957  0.4537953669293628  0.2780572852190417
  0.0340615825695423  0.5439965665795086  0.5863681304458623
  0.7496009141249047  0.6805205982219178  0.1857844731063594
  0.4470875619525430  0.4718246390369387  0.9193169954504157
  0.2729710878583091  0.0491946345642376  0.2286307733666391
  0.2520018564986728  0.3734406393445724  0.1327334479857427
  0.7440465119256459  0.3797602969006277  0.7726495253635264
  0.8410634153523233  0.8268708865239347  0.3793723450527580
  0.9199628524086663  0.1864465652154621  0.5605160876065227
  0.5937990784335270  0.8538533085375093  0.5237411230926057
  0.3746543925730990  0.9824807579774131  0.0943804882246013
  0.3502209760833708  0.6495350667715911  0.2138170644278148
  0.3988486925358004  0.4515078880097789  0.5043892919070743
  0.9028793730991822  0.7732793382243912  0.1778098791072225
  0.0364786757787741  0.3513431211029641  0.4058486840666120
  0.9909776937128143  0.7384348087934711  0.8028722922533049
  0.5514517986134564  0.0732261062795274  0.2959605572519948
  0.2598229879036325  0.4370101385233127  0.9518870111226221
  0.0516987411394396  0.2814557688597219  0.1522018266358387
  0.6260162091599000  0.7513540967214567  0.8081886658292419
  0.5771127106115159  0.2901825247531775  0.7321790700805124
  0.0539344047816144  0.5799851810156653  0.3526567949053003
  0.0321625953376099  0.9230197780933906  0.2187954650981396
  0.1905378428535087  0.5803675632812570  0.4544585459177384
  0.9512156574305877  0.3287063220693014  0.5897492731394394
  0.0990760508392228  0.0603462492845068  0.8244904709829441
  0.5189162858435310  0.4502554510427998  0.3358754101212966
  0.6868337385383043  0.1041392160128041  0.1524474701859333
  0.5317826105761370  0.6763888225852099  0.2039994280211346
  0.9242142220195930  0.6569729274374083  0.3274040581647242
  0.8584714186808142  0.0216319595342114  0.8373102350627022
  0.5619011636796287  0.8212972265616401  0.0060717577602531
  0.0689085692484426  0.3367340937865322  0.9312852425330433
  0.8234204854507325  0.8625060467365984  0.5330084652277804
  0.7428033623065176  0.7506048838483963  0.6833686781180290
  0.8233556615650244  0.2309471604905298  0.1552850088096207
  0.8344153131408873  0.3221075391180221  0.0369713503640199
  0.9497661842465561  0.4088363675836959  0.7441890430521809
  0.4080534126724586  0.1620431152590101  0.1648514218187316
  0.3595763084735566  0.5524688953938153  0.4334256258781721
  0.4905665749049319  0.8388720414430750  0.3713101237317957
  0.3300342931002476  0.4466204182667184  0.6577288847020952
  0.6848016227662939  0.9368214712419487  0.0929456392060644
  0.2478207772321852  0.2482024556263340  0.1759495551214769
  0.8714289271695961  0.0495250746716067  0.0647596979730665
  0.2596578442578519  0.8568290830418519  0.9264587147520231
  0.3585817984611381  0.2602554742366152  0.0271347982644343
  0.6457657938425143  0.9946162128713638  0.8825095496583160
  0.9688352953651673  0.5917501882947249  0.8429128703564501
  0.7944447359774216  0.4838087753107629  0.0637487101821037
  0.7695150567050675  0.5198313344954713  0.3527172895318742
  0.3524311739258650  0.0797709521850010  0.7086557394118458
  0.5977972611678197  0.1368518419963678  0.0307525699111437
  0.5419463384890122  0.6540923976907820  0.6156413199907860
  0.7569697743074144  0.3357405211805613  0.5190030882989944
  0.6547109579823172  0.5662705933509429  0.1684091448242029
  0.5221295546530484  0.2339184597709973  0.3498524847386193
  0.6076288915340200  0.1155746068610597  0.9004634453408045
  0.1115848191473177  0.1198179362331686  0.5795557415765842
  0.3010537476479556  0.5951997378667855  0.5993771436869793
  0.7582998469950226  0.0475290459017685  0.4826925465230829
  0.6652484308385880  0.9307837179546681  0.6139921875605836
  0.6851938454720994  0.7016353208469326  0.5192888829918374
  0.4232050093927242  0.9622854983162554  0.9340445457154090
  0.1626087254803110  0.4656882359475887  0.6473051707425697
  0.1592233689310945  0.7602046679584618  0.4686413839660233
  0.2049724623718774  0.1313215558080927  0.8375063298984600
  0.1089737591797899  0.4275352965040327  0.2348065404222552
  0.5313886691567191  0.2898502129279734  0.9431225130086176
  0.2363394913907939  0.5107920177803038  0.0833891184985305
  0.8738736162929897  0.0615275402694664  0.1998048472265523
  0.4413919372744175  0.8429329201032729  0.7112622886733817
  0.7239614198957725  0.7182918497869721  0.9744455645578469
  0.9880654523648005  0.4723536581874725  0.0121175149057535
  0.0586222075434009  0.6541705969838461  0.0365101057439148
  0.6914253374315464  0.1720891874941444  0.7264806231578689
  0.7104297626834324  0.9239098726060035  0.7949268546350652
  0.1117638141038526  0.8907046398760912  0.6821625886491773
  0.1613371587398689  0.9602102408682711  0.0611706774944736
  0.1562161517493550  0.9604839051654750  0.3651468800392337
  0.7432416814182474  0.1495102057723017  0.3125292958580488
  0.7437457810638577  0.8140426588608136  0.2938403549783928
  0.7312344990340236  0.6466586085249659  0.4007344055038615
  0.4102462857625255  0.2862417032548308  0.3016736076008257
  0.6815903221211812  0.5923745850850679  0.7323263827191866
  0.3081578759973809  0.2296863198365315  0.4568279724063871
  0.0826533498286466  0.9360357009577385  0.7972210694817647
  0.9211552108431604  0.4467972983906776  0.2030193853061988
  0.8365761202915394  0.2162057949940746  0.3786075926837427
  0.8051722165410951  0.6275027205715205  0.8208006913722556
  0.9540860174041725  0.9066674283511205  0.9500497613743164
  0.2178882901119579  0.4208630681626317  0.4020793158091962
  0.2283851144179252  0.7030378325482189  0.6748026782316714
  0.3809868205882196  0.9468213380489203  0.5423712474829046
  0.5522292147007732  0.8581450382864162  0.7823340546882918
  0.1580844120349241  0.1518971681773138  0.9854235384216636
  0.2794051492816578  0.8127155801943147  0.0632567085844613
  0.5503658527826403  0.5881233625879716  0.4285543943935437
  0.8955897190556357  0.7358667398657985  0.8965235630086639
  0.4616296876818424  0.1848073805312112  0.9293245816868492
  0.4447294265676476  0.5080645970535826  0.0955651000972395
  0.0555846582998214  0.7137897094313601  0.6324183849778962
  0.1757702927814790  0.6343823431125983  0.2025545049462352
  0.3003378160173469  0.2734502682169122  0.8060462738284926
  0.5407549122555579  0.0739248897099571  0.4832377902199099
  0.3621505405948682  0.7074106347857736  0.3444976680186613
  0.3102729997967657  0.8543811097518557  0.7209294335823984
  0.7205893491984909  0.3969926982332552  0.2197672071056544
  0.6029875714988364  0.4541485096947326  0.0334759888202214
  0.1800503415988786  0.9811339012920683  0.6143716593957507
  0.9097860009620220  0.2299115423684981  0.7565915512035204
  0.5806120150606660  0.2056232935676903  0.5551303545988517
  0.0922512162761180  0.2319884736951394  0.5106122312499366
  0.1375963515319114  0.6035824453532044  0.8262149745022853
  0.5332695409490853  0.8667805289567738  0.1787868898856217
  0.4369458411956089  0.4111668780446749  0.7455947914408583
  0.9078040035670867  0.4398966718044690  0.9164402008350194
  0.8647469947752953  0.1044025976141967  0.9177703047668473
  0.8589564181730083  0.9815691730306426  0.5127153557626514
  0.0748477960271643  0.7284147760807116  0.1981965732018480
  0.9413693206016660  0.4598275688676452  0.6244997753588777
  0.3267442948212818  0.7081897131221311  0.0052631738983280
  0.1253356362289040  0.0083674547427677  0.2476961208371478
  0.5747447164026980  0.4620945806468555  0.1602674756520486
  0.7048169158920956  0.0509085792996373  0.6022834462037068
  0.6067668577674468  0.2599088106185405  0.0307023847442736
  0.1311757275078875  0.0747037110203692  0.4623693793630963
  0.9305045769504474  0.8254718159992649  0.2889504875812108
  0.7601259516361054  0.0389499226276513  0.7697503643910579
  0.7937417814264762  0.7033995230948449  0.5802567544761814
  0.2913508126531923  0.7908993545943019  0.6156551705485569
  0.8717901160839574  0.6535683275911808  0.2109665158191092
  0.4740839420916387  0.1159616962021772  0.0288134064432413
  0.2868806858459507  0.1681698134098255  0.0899417713746828
  0.3778909371337704  0.8162387245175680  0.4288232823931892
  0.9469285109063179  0.0033129448760931  0.7555360972983962
  0.7081152058179967  0.2183046473078321  0.2144473954030346
  0.7097523839297466  0.0114821068143698  0.9891686502515924
  0.5656092063303575  0.1789496410161746  0.6815722217651370
  0.1491535131541255  0.0926225884070604  0.0958479924942495
  0.8803548487172819  0.4936024025676815  0.8090230078785225
  0.2045470016255706  0.3816952552337227  0.2834575777983943
  0.3260136469582378  0.3954884198867958  0.8499382485873284
  0.2694162792477428  0.7585236421597017  0.1791872992232797
  0.2813074002580862  0.9741126777794236  0.3348443335318052
  0.3395749581451000  0.5179326812147877  0.0124679939747239
  0.4016460232736634  0.0405268946273125  0.2074146736094349
  0.4546524235508969  0.2290660387655805  0.5375898003333006
  0.4231904869529970  0.3541561868874510  0.1979714402606589
  0.9515274074474220  0.0047996901547052  0.2804633639294423
  0.4171689984466695  0.8598536373016898  0.1122410192954604
  0.0984619965631524  0.4858867197544612  0.4220051171056056
  0.0662218568273047  0.4983335086097185  0.8528198801613200
  0.5308305593461995  0.4359146845930013  0.8275664414425137
  0.3030065956475454  0.9701657654920766  0.6500465703989420
  0.5298326864108560  0.1838768246841624  0.2343938613918652
  0.8970372119645447  0.5344469472071225  0.3521536720768239
  0.6078886998462991  0.5345259989538960  0.3301166302958123
  0.3415395942511026  0.2021723532571400  0.9126424321721558
  0.1790193783247389  0.9032768841289638  0.5179026924734274
  0.0146640772097371  0.2161004602769339  0.4134948536722476
  0.5411606055217604  0.9194786468754614  0.8933474210995129
  0.6065024525874776  0.9564399363371905  0.7271133255417865
  0.6949490627350698  0.4668003601915913  0.6843244144858573
  0.1570483627803299  0.8352345088963702  0.3276021914015743
  0.9105228578945059  0.3674127202704653  0.4378188951597792
  0.5463727357042885  0.7527051524376702  0.4467817360673791
  0.8507169020223913  0.3381838723067574  0.7112765353091461
  0.3143715089588497  0.6515968013278339  0.4870086697518019
  0.6759908218466677  0.2020508128692100  0.8490157614283831
  0.3014629525430195  0.1019939790764823  0.4856381841938813
  0.7781775479095074  0.8070234850221922  0.1743865858330338
  0.7631037931368994  0.5180714056729983  0.2184454743530750
  0.1476312115204053  0.6696540795644950  0.3689916438161234
  0.0316731672472059  0.8491915550773257  0.8676421905922425
  0.7950382202394408  0.4135792205219246  0.9519599035936324
  0.9921457378803780  0.0763821359516896  0.5729850046409197
  0.2620240881223665  0.9461880017961093  0.1503911566357914
  0.5539942122740626  0.5877062733576182  0.7253459173935823
  0.0068926110440373  0.8946389594679687  0.6185593675563794
  0.1284744213686650  0.2818587088267037  0.8418718629927682
  0.5185345311720297  0.3696928756822402  0.6550784623914581
  0.2827833781777187  0.2499443650725581  0.5774203429105356
  0.2671691775681637  0.9767730705314150  0.9771000315726397
  0.7807717417556788  0.1392288584716894  0.0756195493451557
  0.8742789022429491  0.6179217441565257  0.9307764521199431
  0.8990245704585931  0.1743133084233150  0.2378430284846687
  0.5179852270009917  0.4659626839901847  0.4622078717928133
  0.5809891064827895  0.3463187740658569  0.3097135866816458
  0.6435668868475162  0.5857457079501600  0.5546893288173251
  0.6865011377259904  0.7020694783297117  0.2977844240252665
  0.4482431444768196  0.7610851976900932  0.2660726709942836
  0.1210109946454807  0.7730059850085667  0.7204318640282565
  0.7770886323885620  0.7507139003062946  0.8621851686352358
  0.5868576515386792  0.7626428676518344  0.1279541156782216
  0.9024968098122130  0.7510360848069553  0.7058589223564340
  0.0760623915315648  0.2477893599311258  0.0165118306091045
  0.8447329785613675  0.9085708095355329  0.8778443499997550
  0.6977498684005710  0.8438128114663783  0.9949057439347726
  0.7624773039423971  0.0421880395359437  0.2520601691684945
  0.2479176710956779  0.5235508000887918  0.7259449950196100
  0.7732399689726250  0.4710852286003728  0.4979439764817641
  0.4085372653169941  0.2848731603505357  0.7372499158301480
  0.0080819937488172  0.9595221815611126  0.1008273930448382
  0.4379981806786404  0.6028775790287568  0.3536490612991940
  0.1372537970210885  0.2174926383716809  0.2185225502046677
  0.0357487065081443  0.7971695014500497  0.4652109546764933
  0.7414086308127423  0.3046995959835570  0.3933571361782384
  0.4386737497383635  0.7199294431189998  0.6995010800735670
  0.6492030868761631  0.8866904619461451  0.2889211148680317
  0.3824697964205939  0.8515720384275411  0.8851558705881217
  0.1514821436410969  0.8173881977628525  0.0368051228804802
  0.8123629488064950  0.1668736480734694  0.4940693202057105
  0.7141183295166087  0.8465177791551142  0.4657817553445582
  0.0131111787311937  0.2634008903184153  0.6848163536598904
  0.6997603211281813  0.5711520906978365  0.8507342862806624
  0.2516798379797152  0.3269481111562058  0.0141648495376003
  0.4379911691191509  0.6553785775277916  0.8791103374014284
  0.0684354020529625  0.6707346295322978  0.9138831134702841
  0.5643590756994925  0.9447033623941863  0.0833361469322540
  0.4581342271247379  0.3714178305608158  0.9950645151544961
  0.9089212556713520  0.7990483743796588  0.9988945064165264
  0.6391925390713737  0.1279781281020149  0.3728801668280965
  0.2414884709779557  0.5844647302764514  0.8950659264227525
  0.2483071565380826  0.4841587373004614  0.5547273825951464
  0.5034575907552252  0.1204259063068420  0.8385648929910374
  0.4126346758785289  0.5339586790623372  0.6066248107724803
  0.2063610491083807  0.9102412926448267  0.8179649478128965
  0.0649215897597841  0.0622178691981858  0.9421292966875470
  0.2645526786495154  0.5324319490934215  0.3598560691636052
  0.9551018781830294  0.1453802051745612  0.0627021667836232
  0.2072005704439732  0.3529383514544193  0.6957836071939241
  0.3233934922846444  0.2036643730698344  0.2666384412341003
  0.2710889369455387  0.7399553200876312  0.8080600675664869
  0.8415665959214991  0.7041201477555958  0.4115778566658364
  0.0799663934558623  0.5447249536588217  0.2292552454355246
  0.9707684003041237  0.5755794795734985  0.0705203031968296
  0.1833249984110736  0.2550457089715366  0.4277323003773219
  0.2482025220409696  0.1433891467441839  0.7228120758682692
  0.9513867755692260  0.3286338496869803  0.8899277082485995
  0.8426703213182307  0.3523051542870661  0.2435380559425084
  0.5603541788786046  0.9550372402607081  0.4386545757905722
  0.6890330904531154  0.5520055910365613  0.0454530081350129
  0.3710438860562491  0.0148452989635643  0.8276651092557543
  0.5193406047160778  0.5441430324245573  0.0001153604182633
  0.6297007876507692  0.3315921375746314  0.5245684135775122
  0.6218443407499095  0.7562983494540845  0.6257421552811522
  0.2829320030655822  0.5457616469072590  0.1927629476706159
  0.0663151747467197  0.3498594131784927  0.5369699760867235
  0.7724589835580105  0.8789835800456061  0.6536165865693775
  0.4372245155267507  0.6376207654076822  0.1264514772923704
  0.1744956056980769  0.6270625156809189  0.0738522414532738
  0.6058555268905934  0.7190413493698742  0.9279159133115940
  0.6938578671504700  0.2968335235186004  0.6907881736806942
  0.4688307108577803  0.8650183103140776  0.5886364968272275
  0.3581608639310829  0.3754646873975673  0.3707111879462062
  0.1468049240060765  0.6714157841037789  0.5645461020608593
  0.8499072647883992  0.1622812930167044  0.6619642753421999
  0.0072806500775471  0.3700283748419366  0.2618179145759783
  0.9388302707635319  0.3843147215782565  0.0865560940155774
  0.1242654364710418  0.3846781020307901  0.1213826654466601
  0.4625999741288211  0.1030894140934890  0.3860828880941511
  0.9449801169929444  0.6281879419972043  0.5452649256837674
  0.0068499996845262  0.1043568471899050  0.7562025716755514
  0.0296980742484365  0.6103474829141788  0.6977832811924856
  0.7338443860240602  0.3767761331516084  0.0958552931327930
  0.4607874651693393  0.0393008121587854  0.5741932688874272
 
  0.00000000E+00  0.00000000E+00  0.00000000E+00
  0.00000000E+00  0.00000000E+00  0.00000000E+00
  0.00000000E+00  0.00000000E+00  0.00000000E+00
  0.00000000E+00  0.00000000E+00  0.00000000E+00
  0.00000000E+00  0.00000000E+00  0.00000000E+00
  0.00000000E+00  0.00000000E+00  0.00000000E+00
  0.00000000E+00  0.00000000E+00  0.00000000E+00
  0.00000000E+00  0.00000000E+00  0.00000000E+00
  0.00000000E+00  0.00000000E+00  0.00000000E+00
  0.00000000E+00  0.00000000E+00  0.00000000E+00
  0.00000000E+00  0.00000000E+00  0.00000000E+00
  0.00000000E+00  0.00000000E+00  0.00000000E+00
  0.00000000E+00  0.00000000E+00  0.00000000E+00
  0.00000000E+00  0.00000000E+00  0.00000000E+00
  0.00000000E+00  0.00000000E+00  0.00000000E+00
  0.00000000E+00  0.00000000E+00  0.00000000E+00
  0.00000000E+00  0.00000000E+00  0.00000000E+00
  0.00000000E+00  0.00000000E+00  0.00000000E+00
  0.00000000E+00  0.00000000E+00  0.00000000E+00
  0.00000000E+00  0.00000000E+00  0.00000000E+00
  0.00000000E+00  0.00000000E+00  0.00000000E+00
  0.00000000E+00  0.00000000E+00  0.00000000E+00
  0.00000000E+00  0.00000000E+00  0.00000000E+00
  0.00000000E+00  0.00000000E+00  0.00000000E+00
  0.00000000E+00  0.00000000E+00  0.00000000E+00
  0.00000000E+00  0.00000000E+00  0.00000000E+00
  0.00000000E+00  0.00000000E+00  0.00000000E+00
  0.00000000E+00  0.00000000E+00  0.00000000E+00
  0.00000000E+00  0.00000000E+00  0.00000000E+00
  0.00000000E+00  0.00000000E+00  0.00000000E+00
  0.00000000E+00  0.00000000E+00  0.00000000E+00
  0.00000000E+00  0.00000000E+00  0.00000000E+00
  0.00000000E+00  0.00000000E+00  0.00000000E+00
  0.00000000E+00  0.00000000E+00  0.00000000E+00
  0.00000000E+00  0.00000000E+00  0.00000000E+00
  0.00000000E+00  0.00000000E+00  0.00000000E+00
  0.00000000E+00  0.00000000E+00  0.00000000E+00
  0.00000000E+00  0.00000000E+00  0.00000000E+00
  0.00000000E+00  0.00000000E+00  0.00000000E+00
  0.00000000E+00  0.00000000E+00  0.00000000E+00
  0.00000000E+00  0.00000000E+00  0.00000000E+00
  0.00000000E+00  0.00000000E+00  0.00000000E+00
  0.00000000E+00  0.00000000E+00  0.00000000E+00
  0.00000000E+00  0.00000000E+00  0.00000000E+00
  0.00000000E+00  0.00000000E+00  0.00000000E+00
  0.00000000E+00  0.00000000E+00  0.00000000E+00
  0.00000000E+00  0.00000000E+00  0.00000000E+00
  0.00000000E+00  0.00000000E+00  0.00000000E+00
  0.00000000E+00  0.00000000E+00  0.00000000E+00
  0.00000000E+00  0.00000000E+00  0.00000000E+00
  0.00000000E+00  0.00000000E+00  0.00000000E+00
  0.00000000E+00  0.00000000E+00  0.00000000E+00
  0.00000000E+00  0.00000000E+00  0.00000000E+00
  0.00000000E+00  0.00000000E+00  0.00000000E+00
  0.00000000E+00  0.00000000E+00  0.00000000E+00
  0.00000000E+00  0.00000000E+00  0.00000000E+00
  0.00000000E+00  0.00000000E+00  0.00000000E+00
  0.00000000E+00  0.00000000E+00  0.00000000E+00
  0.00000000E+00  0.00000000E+00  0.00000000E+00
  0.00000000E+00  0.00000000E+00  0.00000000E+00
  0.00000000E+00  0.00000000E+00  0.00000000E+00
  0.00000000E+00  0.00000000E+00  0.00000000E+00
  0.00000000E+00  0.00000000E+00  0.00000000E+00
  0.00000000E+00  0.00000000E+00  0.00000000E+00
  0.00000000E+00  0.00000000E+00  0.00000000E+00
  0.00000000E+00  0.00000000E+00  0.00000000E+00
  0.00000000E+00  0.00000000E+00  0.00000000E+00
  0.00000000E+00  0.00000000E+00  0.00000000E+00
  0.00000000E+00  0.00000000E+00  0.00000000E+00
  0.00000000E+00  0.00000000E+00  0.00000000E+00
  0.00000000E+00  0.00000000E+00  0.00000000E+00
  0.00000000E+00  0.00000000E+00  0.00000000E+00
  0.00000000E+00  0.00000000E+00  0.00000000E+00
  0.00000000E+00  0.00000000E+00  0.00000000E+00
  0.00000000E+00  0.00000000E+00  0.00000000E+00
  0.00000000E+00  0.00000000E+00  0.00000000E+00
  0.00000000E+00  0.00000000E+00  0.00000000E+00
  0.00000000E+00  0.00000000E+00  0.00000000E+00
  0.00000000E+00  0.00000000E+00  0.00000000E+00
  0.00000000E+00  0.00000000E+00  0.00000000E+00
  0.00000000E+00  0.00000000E+00  0.00000000E+00
  0.00000000E+00  0.00000000E+00  0.00000000E+00
  0.00000000E+00  0.00000000E+00  0.00000000E+00
  0.00000000E+00  0.00000000E+00  0.00000000E+00
  0.00000000E+00  0.00000000E+00  0.00000000E+00
  0.00000000E+00  0.00000000E+00  0.00000000E+00
  0.00000000E+00  0.00000000E+00  0.00000000E+00
  0.00000000E+00  0.00000000E+00  0.00000000E+00
  0.00000000E+00  0.00000000E+00  0.00000000E+00
  0.00000000E+00  0.00000000E+00  0.00000000E+00
  0.00000000E+00  0.00000000E+00  0.00000000E+00
  0.00000000E+00  0.00000000E+00  0.00000000E+00
  0.00000000E+00  0.00000000E+00  0.00000000E+00
  0.00000000E+00  0.00000000E+00  0.00000000E+00
  0.00000000E+00  0.00000000E+00  0.00000000E+00
  0.00000000E+00  0.00000000E+00  0.00000000E+00
  0.00000000E+00  0.00000000E+00  0.00000000E+00
  0.00000000E+00  0.00000000E+00  0.00000000E+00
  0.00000000E+00  0.00000000E+00  0.00000000E+00
  0.00000000E+00  0.00000000E+00  0.00000000E+00
  0.00000000E+00  0.00000000E+00  0.00000000E+00
  0.00000000E+00  0.00000000E+00  0.00000000E+00
  0.00000000E+00  0.00000000E+00  0.00000000E+00
  0.00000000E+00  0.00000000E+00  0.00000000E+00
  0.00000000E+00  0.00000000E+00  0.00000000E+00
  0.00000000E+00  0.00000000E+00  0.00000000E+00
  0.00000000E+00  0.00000000E+00  0.00000000E+00
  0.00000000E+00  0.00000000E+00  0.00000000E+00
  0.00000000E+00  0.00000000E+00  0.00000000E+00
  0.00000000E+00  0.00000000E+00  0.00000000E+00
  0.00000000E+00  0.00000000E+00  0.00000000E+00
  0.00000000E+00  0.00000000E+00  0.00000000E+00
  0.00000000E+00  0.00000000E+00  0.00000000E+00
  0.00000000E+00  0.00000000E+00  0.00000000E+00
  0.00000000E+00  0.00000000E+00  0.00000000E+00
  0.00000000E+00  0.00000000E+00  0.00000000E+00
  0.00000000E+00  0.00000000E+00  0.00000000E+00
  0.00000000E+00  0.00000000E+00  0.00000000E+00
  0.00000000E+00  0.00000000E+00  0.00000000E+00
  0.00000000E+00  0.00000000E+00  0.00000000E+00
  0.00000000E+00  0.00000000E+00  0.00000000E+00
  0.00000000E+00  0.00000000E+00  0.00000000E+00
  0.00000000E+00  0.00000000E+00  0.00000000E+00
  0.00000000E+00  0.00000000E+00  0.00000000E+00
  0.00000000E+00  0.00000000E+00  0.00000000E+00
  0.00000000E+00  0.00000000E+00  0.00000000E+00
  0.00000000E+00  0.00000000E+00  0.00000000E+00
  0.00000000E+00  0.00000000E+00  0.00000000E+00
  0.00000000E+00  0.00000000E+00  0.00000000E+00
  0.00000000E+00  0.00000000E+00  0.00000000E+00
  0.00000000E+00  0.00000000E+00  0.00000000E+00
  0.00000000E+00  0.00000000E+00  0.00000000E+00
  0.00000000E+00  0.00000000E+00  0.00000000E+00
  0.00000000E+00  0.00000000E+00  0.00000000E+00
  0.00000000E+00  0.00000000E+00  0.00000000E+00
  0.00000000E+00  0.00000000E+00  0.00000000E+00
  0.00000000E+00  0.00000000E+00  0.00000000E+00
  0.00000000E+00  0.00000000E+00  0.00000000E+00
  0.00000000E+00  0.00000000E+00  0.00000000E+00
  0.00000000E+00  0.00000000E+00  0.00000000E+00
  0.00000000E+00  0.00000000E+00  0.00000000E+00
  0.00000000E+00  0.00000000E+00  0.00000000E+00
  0.00000000E+00  0.00000000E+00  0.00000000E+00
  0.00000000E+00  0.00000000E+00  0.00000000E+00
  0.00000000E+00  0.00000000E+00  0.00000000E+00
  0.00000000E+00  0.00000000E+00  0.00000000E+00
  0.00000000E+00  0.00000000E+00  0.00000000E+00
  0.00000000E+00  0.00000000E+00  0.00000000E+00
  0.00000000E+00  0.00000000E+00  0.00000000E+00
  0.00000000E+00  0.00000000E+00  0.00000000E+00
  0.00000000E+00  0.00000000E+00  0.00000000E+00
  0.00000000E+00  0.00000000E+00  0.00000000E+00
  0.00000000E+00  0.00000000E+00  0.00000000E+00
  0.00000000E+00  0.00000000E+00  0.00000000E+00
  0.00000000E+00  0.00000000E+00  0.00000000E+00
  0.00000000E+00  0.00000000E+00  0.00000000E+00
  0.00000000E+00  0.00000000E+00  0.00000000E+00
  0.00000000E+00  0.00000000E+00  0.00000000E+00
  0.00000000E+00  0.00000000E+00  0.00000000E+00
  0.00000000E+00  0.00000000E+00  0.00000000E+00
  0.00000000E+00  0.00000000E+00  0.00000000E+00
  0.00000000E+00  0.00000000E+00  0.00000000E+00
  0.00000000E+00  0.00000000E+00  0.00000000E+00
  0.00000000E+00  0.00000000E+00  0.00000000E+00
  0.00000000E+00  0.00000000E+00  0.00000000E+00
  0.00000000E+00  0.00000000E+00  0.00000000E+00
  0.00000000E+00  0.00000000E+00  0.00000000E+00
  0.00000000E+00  0.00000000E+00  0.00000000E+00
  0.00000000E+00  0.00000000E+00  0.00000000E+00
  0.00000000E+00  0.00000000E+00  0.00000000E+00
  0.00000000E+00  0.00000000E+00  0.00000000E+00
  0.00000000E+00  0.00000000E+00  0.00000000E+00
  0.00000000E+00  0.00000000E+00  0.00000000E+00
  0.00000000E+00  0.00000000E+00  0.00000000E+00
  0.00000000E+00  0.00000000E+00  0.00000000E+00
  0.00000000E+00  0.00000000E+00  0.00000000E+00
  0.00000000E+00  0.00000000E+00  0.00000000E+00
  0.00000000E+00  0.00000000E+00  0.00000000E+00
  0.00000000E+00  0.00000000E+00  0.00000000E+00
  0.00000000E+00  0.00000000E+00  0.00000000E+00
  0.00000000E+00  0.00000000E+00  0.00000000E+00
  0.00000000E+00  0.00000000E+00  0.00000000E+00
  0.00000000E+00  0.00000000E+00  0.00000000E+00
  0.00000000E+00  0.00000000E+00  0.00000000E+00
  0.00000000E+00  0.00000000E+00  0.00000000E+00
  0.00000000E+00  0.00000000E+00  0.00000000E+00
  0.00000000E+00  0.00000000E+00  0.00000000E+00
  0.00000000E+00  0.00000000E+00  0.00000000E+00
  0.00000000E+00  0.00000000E+00  0.00000000E+00
  0.00000000E+00  0.00000000E+00  0.00000000E+00
  0.00000000E+00  0.00000000E+00  0.00000000E+00
  0.00000000E+00  0.00000000E+00  0.00000000E+00
  0.00000000E+00  0.00000000E+00  0.00000000E+00
  0.00000000E+00  0.00000000E+00  0.00000000E+00
  0.00000000E+00  0.00000000E+00  0.00000000E+00
  0.00000000E+00  0.00000000E+00  0.00000000E+00
  0.00000000E+00  0.00000000E+00  0.00000000E+00
  0.00000000E+00  0.00000000E+00  0.00000000E+00
  0.00000000E+00  0.00000000E+00  0.00000000E+00
  0.00000000E+00  0.00000000E+00  0.00000000E+00
  0.00000000E+00  0.00000000E+00  0.00000000E+00
  0.00000000E+00  0.00000000E+00  0.00000000E+00
  0.00000000E+00  0.00000000E+00  0.00000000E+00
  0.00000000E+00  0.00000000E+00  0.00000000E+00
  0.00000000E+00  0.00000000E+00  0.00000000E+00
  0.00000000E+00  0.00000000E+00  0.00000000E+00
  0.00000000E+00  0.00000000E+00  0.00000000E+00
  0.00000000E+00  0.00000000E+00  0.00000000E+00
  0.00000000E+00  0.00000000E+00  0.00000000E+00
  0.00000000E+00  0.00000000E+00  0.00000000E+00
  0.00000000E+00  0.00000000E+00  0.00000000E+00
  0.00000000E+00  0.00000000E+00  0.00000000E+00
  0.00000000E+00  0.00000000E+00  0.00000000E+00
  0.00000000E+00  0.00000000E+00  0.00000000E+00
  0.00000000E+00  0.00000000E+00  0.00000000E+00
  0.00000000E+00  0.00000000E+00  0.00000000E+00
  0.00000000E+00  0.00000000E+00  0.00000000E+00
  0.00000000E+00  0.00000000E+00  0.00000000E+00
  0.00000000E+00  0.00000000E+00  0.00000000E+00
  0.00000000E+00  0.00000000E+00  0.00000000E+00
  0.00000000E+00  0.00000000E+00  0.00000000E+00
  0.00000000E+00  0.00000000E+00  0.00000000E+00
  0.00000000E+00  0.00000000E+00  0.00000000E+00
  0.00000000E+00  0.00000000E+00  0.00000000E+00
  0.00000000E+00  0.00000000E+00  0.00000000E+00
  0.00000000E+00  0.00000000E+00  0.00000000E+00
  0.00000000E+00  0.00000000E+00  0.00000000E+00
  0.00000000E+00  0.00000000E+00  0.00000000E+00
  0.00000000E+00  0.00000000E+00  0.00000000E+00
  0.00000000E+00  0.00000000E+00  0.00000000E+00
  0.00000000E+00  0.00000000E+00  0.00000000E+00
  0.00000000E+00  0.00000000E+00  0.00000000E+00