Sb300                                   
   1.00000000000000     
    21.2291714401205631    0.0000000000000000    0.0000000000000000
     0.0000000000000000   21.2291714401205631    0.0000000000000000
     0.0000000000000000    0.0000000000000000   21.2291714401205631
   Sb
   300
Direct
  0.4809904122685393  0.0832013959645937  0.7123978746572748
  0.8918563655332561  0.0057194040582534  0.1883461141115952
  0.8294813906357341  0.6198109749186644  0.3024522325991497
  0.2152787984408370  0.8040269229979173  0.7808607243584186
  0.4031561993591188  0.7571600538376129  0.1654015473434625
  0.3614548251420366  0.5395961896775813  0.9154767189887484
  0.0449325274929709  0.0454278173626969  0.8811512867761070
  0.7668498475393375  0.4361727005009263  0.0187959454878626
  0.4394600736373807  0.1505377826277674  0.5972414939192044
  0.1507703047289080  0.3962790967055529  0.7913132437320946
  0.6573710774691778  0.6757680158580129  0.8503504968038907
  0.8223594544335280  0.4518433013830258  0.6669596679044679
  0.5809035960995972  0.1580126117033197  0.8732457567801403
  0.2363552248545474  0.2732336636954077  0.7566787942016476
  0.0974007688161077  0.9402977575902153  0.8094478534849345
  0.2974460166479528  0.9946996815946423  0.5951895387336463
  0.0380888560048366  0.3248424073812685  0.7180031657183030
  0.1697986382735797  0.8276498672092050  0.0905674111172427
  0.7399701474468555  0.4666748833334688  0.3148768299598332
  0.8419142162832195  0.3557789474522705  0.7716405356230182
  0.7386943678355505  0.1590555645085458  0.5907400257237918
  0.9459937170647711  0.5010024839487180  0.7761214796583332
  0.3510915942464767  0.3221487651558003  0.8397855839652861
  0.7433266255286699  0.5087341240067557  0.4701641310396866
  0.5316923835385580  0.8293120287855710  0.8639472888440510
  0.3293716567076895  0.4681052065006782  0.0420513870537260
  0.8361021627650155  0.1264837001129205  0.0110531005527262
  0.0187208126105016  0.1014777013578544  0.4756560434955144
  0.6744023582362783  0.7240832191766740  0.9916904298176218
  0.0473216520055648  0.5756439962414259  0.9026667958941688
  0.6816106518069247  0.8294675718485394  0.8371385451725830
  0.9242162673398300  0.6738808160005134  0.4440230235361845
  0.8446831247229512  0.8293012965990010  0.9562124912372996
  0.4830590447068722  0.5918182936730549  0.6413849262091360
  0.5378483890432441  0.8972292764696803  0.7244480206067504
  0.0184645684673377  0.4065986863870324  0.4989948332946543
  0.7800925823502768  0.0810179708061154  0.1338370750822005
  0.6507129257521661  0.4162972539153257  0.7746829358315459
  0.7521917673644757  0.7360432869091147  0.7081415510427341
  0.4166474253653830  0.1565980513420875  0.3144179963446456
  0.9337186247867779  0.7941526815961550  0.5298535393262639
  0.6128810680989623  0.7142775613242414  0.5682455304171635
  0.0081163073047770  0.0951161107337431  0.7693126944273365
  0.0086725831553881  0.8464291232804000  0.9717844146036355
  0.2680917711518030  0.9151406897963777  0.9000933009716018
  0.3898420839074335  0.2621138569263756  0.1821735320861151
  0.5906326619116204  0.4691691877640682  0.4678947906418706
  0.7528791300624095  0.5850532106323170  0.7201408881581284
  0.7301351875971638  0.1185634120106082  0.4370998338916089
  0.3154872537087008  0.4265888203407864  0.5012135787557567
  0.0664476017479098  0.8157581459029096  0.3674578873958683
  0.9458006862971431  0.1833058710959304  0.9088933586989428
  0.9928756423764091  0.5374040571773354  0.2393153032818628
  0.0391973102049199  0.2886966415849417  0.5692065981850982
  0.1629879011420414  0.1551571261377130  0.9792855352905729
  0.6504530905052991  0.1418524872000538  0.1454809811559559
  0.8872005740687100  0.3634653012049059  0.4874733160172726
  0.7180417730490880  0.7473324357221804  0.1277627797282491
  0.4578044188398770  0.2928313050678180  0.6235070377760028
  0.3911179731938802  0.6709251850234063  0.5161880352540373
  0.0826407328862911  0.4314389399944886  0.9248697699266608
  0.7219541884426991  0.9993571057277397  0.9285864134276604
  0.3238851387718598  0.7377201586993026  0.8461589303908905
  0.0570461578215832  0.0699726062359337  0.0275272522346463
  0.0090317128215555  0.3758934584213973  0.3513842621526209
  0.6096584708593507  0.3218216721921041  0.4747705889182482
  0.6395453216304676  0.6408136791552850  0.1782703010332689
  0.9154722652158042  0.2785353479743006  0.1458382828719540
  0.0543413747130227  0.4185072511049477  0.0566279200493175
  0.4630010923896793  0.7099880883155770  0.8092295356462242
  0.2191688881873739  0.4770436686427137  0.9344900552075911
  0.1170385652264646  0.1151524247937376  0.3078000276028446
  0.6225641131785509  0.7141721313137309  0.7114710443403319
  0.0749854154484237  0.5394779955739072  0.7791076800484522
  0.3927115733812263  0.8578137105294853  0.8719343034219506
  0.2836082434370170  0.8859796186530389  0.0473639234766570
  0.8666487701899440  0.2319722227771038  0.4449471654626682
  0.5755395062917711  0.0185630721771793  0.2818664866924496
  0.2924445583405833  0.5812178200070209  0.4632777632331008
  0.1543347144604433  0.4462170065842512  0.2078577454213787
  0.6179706313023517  0.3799542183244055  0.0364714236581655
  0.7121730859849312  0.0972532467099286  0.7130833079396491
  0.0988267545093523  0.5824964685841039  0.0745438335497945
  0.5933314015255130  0.1716457997308133  0.7347920208911798
  0.1319943403034960  0.4624071669134823  0.3544259804968535
  0.4532166226148402  0.4164406827758932  0.7682691089898495
  0.0901831347972776  0.8811256592757605  0.5060574926748319
  0.1565208175103560  0.9004659832236410  0.2119249207817468
  0.7454019629867707  0.3637373410828201  0.4859470045295138
  0.2069946285546621  0.0264362803250050  0.1764316963489095
  0.9005023142568273  0.9826803027791884  0.8405543019314803
  0.2658914151507973  0.5936590164790124  0.7763345864469561
  0.8134338285202815  0.1068391165171473  0.8143438076315068
  0.6122707976824703  0.4876620320137913  0.1223922996537073
  0.7044016477294274  0.9335238237302922  0.2177070523615195
  0.8326726583083964  0.9034934705393236  0.7558471868257983
  0.3058431252035594  0.1408583301211795  0.4669277947514331
  0.0236721509911517  0.5898035455571908  0.5800256337558134
  0.5011574340666991  0.1959648392554032  0.0477859889439621
  0.6335508899230339  0.2026285404610052  0.0261149505892253
  0.0337678974837430  0.3772707852408781  0.2045976322525626
  0.4034916932936308  0.8764161878497858  0.7351859317847499
  0.6032137664600604  0.4707588454474219  0.3313592366095235
  0.1778768052151629  0.0918682835198678  0.8538864539967556
  0.6337179632132923  0.7195733588655526  0.3030658921046470
  0.0755756701215416  0.7277382461043960  0.5315345192482909
  0.2543842611448996  0.0414858781975197  0.9638157719956137
  0.3586989602202515  0.0612921802087967  0.0585430432743457
  0.5421663335717607  0.0384274744048541  0.4143733248736894
  0.4644257963113144  0.3087140612880415  0.4724218001177854
  0.0207969129131404  0.1411276095418146  0.6021055261030680
  0.9269963418769125  0.5712642982382149  0.1045719044410899
  0.4160527856172679  0.8410219287461127  0.5744452033235729
  0.0008591708467950  0.2305193623121785  0.4331369631785695
  0.0285820452275126  0.2878128709409172  0.0384820364868199
  0.2780400778357314  0.4597313872637695  0.8023133785129971
  0.4524836958215621  0.1510171266911532  0.4406405627975069
  0.1696406766405669  0.2727096103039903  0.5299034446463629
  0.8788919955934630  0.6466086762086771  0.8625961660237558
  0.1511683074272616  0.2094546836159370  0.1119885878518488
  0.8019637551175567  0.5755475623577186  0.1670729079035016
  0.6991406919530888  0.8533989815720410  0.9721675671954237
  0.1563865028172904  0.5647566431883617  0.6288720566250046
  0.4723168538705024  0.6167368218765906  0.3787347451346358
  0.8904158316409219  0.4029130687674067  0.1926518255181849
  0.1578579063899524  0.4211738053657179  0.6535544295447483
  0.5488186339702549  0.3170583300119174  0.7595451759215153
  0.6923148028936228  0.6162590753196671  0.3764422324676550
  0.7106946875946297  0.2865315692605910  0.7685682017327776
  0.4615499492970218  0.8858714840386158  0.1644817823286426
  0.7224430176719546  0.8766088778982480  0.6380611123782337
  0.8791240880033169  0.3227885038927636  0.6348644972194524
  0.4678304855384479  0.4454454744904052  0.6244761950066966
  0.4709558108372605  0.4509433814158125  0.9075691737642942
  0.6316759986013450  0.5678688055487879  0.0105449361914776
  0.4716574602566356  0.3459660486810711  0.0566218253730296
  0.3714431214909064  0.7825571579931770  0.4582158947156024
  0.5813901028566721  0.0216920294905696  0.1237791911020210
  0.1459094253574588  0.3248473895890218  0.3728642197070627
  0.3112151502223578  0.7042084134590025  0.6422620055950882
  0.7563198799688938  0.7062101284783330  0.5644307771866335
  0.1608391677699053  0.0042990577147325  0.4931468725442156
  0.4863178202754896  0.5926530353474280  0.2378474833576683
  0.6882787068809325  0.9338966855462592  0.3766730741496068
  0.8823507810694962  0.9612880050124779  0.5231460133871301
  0.9056704832791379  0.6854647946308131  0.0060166509774119
  0.8273918709656499  0.9344293103170792  0.3761829173411895
  0.0374143624004211  0.0004397169775974  0.3531029669260678
  0.8656903312317404  0.9770813273661278  0.9690813723407590
  0.5140033252121866  0.7780427278499261  0.4383308387266490
  0.2280405433626194  0.5842553134875932  0.3416848997562199
  0.8504198811271085  0.8488211947780604  0.0975122202539530
  0.4115273422282462  0.9066372587275592  0.3503800629169739
  0.5594505994383064  0.8731409761407515  0.0688555184705419
  0.6655519691138905  0.8110028379185907  0.4371774907520665
  0.4374792391255063  0.9707325760483242  0.9934543133721849
  0.7590587836539651  0.4457105655757072  0.1644469089049539
  0.8112010358943337  0.7828450068177141  0.8317606709226433
  0.7216543276727143  0.9721178560191889  0.0802241318548809
  0.8166218277390098  0.2654759438492403  0.0535955217906227
  0.5508362624527965  0.0107183504454943  0.8073477916644677
  0.7407889050097434  0.0635604060192435  0.2957301120832822
  0.2763595939778462  0.1727323737965642  0.1336807703024939
  0.3314008441775033  0.4712283473982656  0.2024296326296853
  0.4331157789472627  0.9821511870499839  0.5609994248822676
  0.6927382999561305  0.1990839724313407  0.2844180934976236
  0.3199802672967503  0.2728086833151606  0.0538844380252449
  0.9642052634494221  0.8885389787198870  0.4357047123863966
  0.2049576816415180  0.3265719134680638  0.9255534941916287
  0.1612067344593191  0.0156895911402513  0.6439911721712839
  0.6176054631927171  0.4770625283947595  0.9068471838525949
  0.5711290760096539  0.6145743594099683  0.4701411245210028
  0.1809347477218777  0.6963754751435018  0.0184671218324390
  0.7678015633312639  0.5797011854448888  0.0157858400690663
  0.3342704986180153  0.9649025176504858  0.1583013324341474
  0.2840982329048236  0.9995069931508044  0.3092672831180578
  0.1118048479936992  0.1860109998058763  0.7638569619494466
  0.2867076704978853  0.2184671817436014  0.9181257871535132
  0.7479750481826998  0.2976574066710869  0.6201474856708890
  0.3348833060164605  0.6100169177073149  0.2521535223911307
  0.0250234689111788  0.9658463919748471  0.2168692543788830
  0.2728232092998723  0.3445857456154656  0.1973119127574247
  0.9118498855661805  0.4384968459869680  0.0471245169258214
  0.8982541611728995  0.7288901954887756  0.1371574681718892
  0.5349468525778358  0.0641571803452738  0.0002647730882741
  0.5799565598658138  0.9396012606352224  0.9353419508889813
  0.6014650554560965  0.3041899417257641  0.8906283643649319
  0.6220900825689477  0.8278270929397303  0.1858428508336486
  0.9614476648809719  0.6746512407881667  0.2788920058725269
  0.3184918217295796  0.2903082139396160  0.4872511300959473
  0.9956139084466870  0.9777919340974476  0.6191880728360049
  0.9778250359048575  0.3796182274403507  0.8339096285408453
  0.0152984931413703  0.7107915643689217  0.8457053704199730
  0.1570401015307883  0.9488645708066961  0.3619172712944070
  0.8731852552798149  0.5073366680190426  0.5260721941652905
  0.0950501981360912  0.8210854026216354  0.6336331081898522
  0.1103480998268355  0.2789585223329499  0.2368097391773944
  0.2917239811552950  0.1536457172641821  0.6258774434701232
  0.0560775374969210  0.6743578037285786  0.3905158671020298
  0.5960910791111798  0.2844623402723041  0.6125580371590151
  0.1472120938874172  0.7550520057922118  0.8846309166996030
  0.2980333487158008  0.9945245823475187  0.4532475086726194
  0.9613848594773868  0.8519226502015484  0.6734086779107235
  0.4169989827127245  0.2229627063562833  0.7657479236518097
  0.8725006232155345  0.0897702913988813  0.3049712340632792
  0.2961141591314856  0.6514641002366908  0.1339848135185955
  0.6600467486002511  0.0137390292022866  0.4832480653883657
  0.9717144200990399  0.9358970180068501  0.0593304565158951
  0.6791888722165929  0.4303036991917937  0.6265628587614319
  0.3387573940322734  0.4379462234156410  0.6463578027959307
  0.7903813073312514  0.8309194229922366  0.5237856736918681
  0.3054246302261159  0.1571791420163191  0.7766285877233065
  0.4974535350570292  0.9174417520375672  0.4603454859709885
  0.5985303051337891  0.1859516205440606  0.4198606989154193
  0.7454578150703358  0.3299987559392269  0.3408847722108058
  0.2748685544785412  0.1452114295939774  0.3364249550542356
  0.1616334289758133  0.5640616337841715  0.4900345190979369
  0.2255263117166072  0.5267713810390802  0.1215898904476187
  0.0422207905730406  0.7034757812169012  0.0180179426726823
  0.3407297157133730  0.7501413405687243  0.3158622465707173
  0.7723112214935058  0.4373108830659568  0.8648602612768659
  0.2938356009077761  0.5713073053930018  0.6267772875018919
  0.7822458217414304  0.7167574921149559  0.4192635041622039
  0.2050794087020061  0.3453355359019183  0.0577445599504408
  0.0095969471559510  0.1883533240345340  0.2852459581406595
  0.1590810303188666  0.1523181521602188  0.6315787564466699
  0.2233740875973733  0.9690041653425240  0.7677285417317039
  0.8617436426899439  0.0825855161807698  0.4646422214076931
  0.5226330295832620  0.6876973701725185  0.1328861779115892
  0.4758450145729547  0.4650474044857158  0.1950790932220502
  0.6626732595322745  0.2935411209657179  0.1460007509789580
  0.9832989751635787  0.8360588338785913  0.2640617319069384
  0.1187646378557453  0.5801795094731322  0.2159549109509467
  0.4371956227091222  0.0173893183832946  0.2711083777022716
  0.7537667147346949  0.0066602058832247  0.6019567013766001
  0.7586689285143339  0.5829634333661485  0.8640527323842367
  0.9797013139933552  0.8543338685154040  0.8191467481659943
  0.5304034377261211  0.3181327981286718  0.1919139226582784
  0.4431072053008174  0.7259410691036832  0.6736535337403388
  0.2976652031596352  0.8370844856556137  0.2214232901257008
  0.4135594997894690  0.0365315559617675  0.8630295845329776
  0.5768483097308165  0.3385563910578696  0.3238978006489665
  0.1793529596119594  0.6872186785145717  0.7146261524849378
  0.5974736264956199  0.1496536168295063  0.5734479515443864
  0.2049483054051643  0.7368018320501059  0.1994225379043996
  0.3907681094557262  0.7813600572208803  0.0204921423638002
  0.8349653855922294  0.8728126815243049  0.2410824669225725
  0.3581186299897390  0.0025781157636588  0.7304421772370517
  0.0905336421147100  0.2504173231239875  0.9129037451981061
  0.9153433032497644  0.2062065819882332  0.7808973390121626
  0.6964314269927351  0.5663759040173830  0.5937457380602985
  0.0195411865156514  0.4463295582762742  0.6281216673701479
  0.2783014976225824  0.8614516609662460  0.6116882132719944
  0.7736516885194320  0.2918010660297851  0.8952195660164119
  0.2792455896717551  0.2908550359671307  0.6254495413040873
  0.3309421238325441  0.6705186030574080  0.9827770434512029
  0.7341947099194761  0.1341471400077061  0.9227368257502782
  0.5531268610754875  0.1874334541392362  0.2581226407841891
  0.0328175209363767  0.6557797686741195  0.7272356087407249
  0.9481809883066389  0.1156747684665691  0.1339934167524630
  0.8769993720979968  0.2966654658943065  0.3095422500082639
  0.6027093950444428  0.8534796955972931  0.5560403866066295
  0.1683674951471154  0.4207948050776592  0.5025053362611828
  0.7704628089529426  0.7355406478094159  0.2595836425694623
  0.9802571878540679  0.5330391436703136  0.4435278359812913
  0.0812412179052454  0.0870151207069400  0.1724350790106434
  0.4861661511000624  0.7381892067646491  0.3109336036121336
  0.8986598809363061  0.6237862784478742  0.7297701303130872
  0.8936970190839357  0.6467659064646842  0.5780414038032790
  0.4789234323025391  0.1244926289057255  0.1650710556290807
  0.4703836209629692  0.4969707552543324  0.0567454686988951
  0.8994946683903777  0.3037774291979345  0.9516137692119119
  0.2294520396610010  0.8553887531361608  0.4893986447703695
  0.1981161849317454  0.7215753676689015  0.3635237309358731
  0.5281495491976996  0.8846553662527299  0.2854375767208232
  0.4397777331268435  0.3213853011375705  0.3356692114147695
  0.1346033082896242  0.8849067698003013  0.9283880709726503
  0.4407846221818985  0.4702332487933799  0.3428421766701255
  0.1495691863655021  0.1346564206574455  0.4599139881563110
  0.4490821578542240  0.4506733035100739  0.4862045380387099
  0.8284236608571975  0.1928810286625108  0.2331586887552931
  0.4754673607730374  0.6287809852111254  0.0141550461579484
  0.1647920749619950  0.9776769533387416  0.0498138193800263
  0.5497916031684436  0.9991118726113146  0.6288767186721625
  0.8940128808534497  0.5167077794427635  0.9036753819666252
  0.5361681517154749  0.7582441232814164  0.9861246059199209
  0.5533897938843954  0.5914674759377769  0.8526425929724122
  0.8673003413554471  0.0354293326385490  0.6762733062947330
  0.4285867942485907  0.5505065989820033  0.7781567696080381
  0.3048681075425219  0.4542272803819692  0.3497697131791532
  0.6030308341877975  0.5861119711706049  0.7153614708936968
  0.7126524202830395  0.9600263806092336  0.7895213849989715
  0.4704169517136813  0.3076465657488218  0.9234481382235540
  0.1834667018851563  0.6103784195463026  0.8987505029682151
  0.9023239351542360  0.4672077321427537  0.3534518347952367
  0.2793604971020642  0.3109632618714611  0.3386015012758709
  0.2161087805939519  0.7144892348616899  0.5062463249080987
  0.8766283953331389  0.1525390149601289  0.5945621856144272
  0.4436720143893011  0.1683682502490833  0.8866155376661813
  0.0249758756469536  0.7384877880083850  0.1691375345541170
 
 -0.61550725E-03  0.95965675E-03  0.14040057E-02
 -0.17799141E-03  0.22461767E-03  0.18150370E-02
 -0.27173222E-03  0.17570835E-02 -0.37101442E-02
  0.11775001E-02 -0.22453046E-02  0.21414342E-03
  0.12270495E-02 -0.10055445E-02 -0.91364277E-03
  0.46126600E-03  0.93345083E-03 -0.53892838E-02
  0.17760980E-02  0.15611122E-02 -0.15401001E-02
 -0.33858932E-02  0.25368153E-02  0.44683107E-02
  0.29074904E-02 -0.17798214E-02 -0.14840974E-02
 -0.12474285E-02  0.15572124E-02 -0.20179280E-02
 -0.20777043E-02 -0.22229910E-03  0.21772119E-02
 -0.18091538E-02 -0.36990505E-03  0.23538682E-02
 -0.24444531E-02  0.39713965E-03  0.73811013E-03
  0.85267078E-03  0.23523294E-02 -0.16692982E-02
 -0.20064759E-02  0.10594129E-02 -0.87238729E-03
 -0.30610652E-02  0.11891145E-02  0.35908198E-03
 -0.13851676E-03  0.19820353E-02 -0.16540842E-02
 -0.13263534E-02 -0.83684014E-03  0.23474961E-02
 -0.30067441E-03  0.26983238E-02 -0.28146333E-02
 -0.45448408E-03  0.71700740E-03 -0.27792396E-02
 -0.16502051E-02 -0.11199402E-03 -0.17880517E-02
 -0.57451902E-03 -0.14242922E-02  0.57526605E-03
 -0.26404340E-02  0.86444548E-03  0.10228992E-02
 -0.96597671E-03  0.34200966E-03 -0.79545738E-04
  0.36446039E-03  0.25756027E-02  0.12007239E-02
  0.20804676E-02 -0.14408537E-02 -0.40215100E-03
  0.61442542E-04 -0.10250558E-02 -0.28381923E-03
 -0.10186615E-03 -0.11906229E-02  0.16909314E-02
  0.15323358E-02  0.11298012E-02  0.32012691E-03
  0.15996804E-02 -0.53063733E-03 -0.15017747E-02
  0.42232284E-03 -0.11873205E-02  0.70172321E-03
 -0.26255936E-02  0.33445519E-03  0.19402763E-02
  0.12940309E-02  0.78661519E-03  0.19625456E-03
  0.13188965E-02 -0.84265609E-03 -0.28692745E-03
  0.11226718E-02  0.95093158E-03 -0.18501936E-02
  0.73852392E-03 -0.22622567E-03  0.16109072E-02
 -0.16469625E-02  0.40745755E-03  0.45080165E-03
 -0.49374787E-03 -0.56497712E-03 -0.16524724E-02
 -0.14746898E-02  0.40553064E-03 -0.33623316E-02
  0.19910552E-03  0.32939691E-02 -0.19657953E-02
  0.10189502E-02  0.20070586E-02 -0.20339334E-02
 -0.26821004E-03  0.10993475E-02 -0.11480680E-02
 -0.18579997E-03 -0.10800452E-02  0.14631688E-02
  0.42523901E-02 -0.12240014E-02  0.35645008E-03
 -0.26907307E-02 -0.23276130E-02 -0.12493647E-03
  0.36425773E-02  0.36051038E-03 -0.11373113E-03
 -0.15756894E-02  0.14569908E-04 -0.14377722E-02
  0.47760272E-03  0.41730401E-03 -0.13033880E-02
  0.13289224E-03  0.80001059E-03  0.13655494E-02
 -0.21021300E-03 -0.23382643E-02 -0.28955200E-02
 -0.89970528E-03  0.99585313E-03 -0.18229403E-02
 -0.22968082E-02 -0.33318419E-03  0.41460772E-02
  0.88625426E-03  0.27358396E-02 -0.18739388E-02
  0.26199130E-02 -0.80133351E-03  0.16944589E-02
  0.58911635E-03 -0.17313121E-02  0.51171375E-02
  0.25535070E-02  0.11842928E-02 -0.98510288E-03
  0.18700710E-02  0.47972607E-03  0.30679125E-03
  0.16739480E-02 -0.33948198E-03 -0.94135786E-03
  0.60277491E-05  0.46557918E-03  0.11258485E-02
 -0.36414225E-02  0.26591852E-02  0.23576251E-02
 -0.84148247E-03 -0.21768267E-02  0.49636273E-04
 -0.27874912E-02  0.17106226E-02  0.13777597E-02
  0.49961520E-04  0.50445697E-03 -0.17518014E-02
  0.14231428E-02  0.16752006E-03  0.26748106E-02
  0.34174584E-02  0.14632055E-02  0.39084256E-03
  0.22864119E-02 -0.83258228E-03 -0.19003302E-02
 -0.11623375E-02 -0.77555470E-04  0.13925783E-02
  0.36299517E-04 -0.26885665E-02 -0.14789913E-02
  0.55777624E-03 -0.18634641E-02  0.21536339E-03
  0.26924186E-02  0.24898726E-02 -0.66698870E-03
  0.43182905E-02 -0.41919020E-03  0.19798506E-02
 -0.38259593E-02 -0.80385252E-03  0.10910200E-02
 -0.22709875E-02  0.44288628E-02  0.11180111E-02
 -0.37985755E-02  0.25254593E-03 -0.69201250E-03
 -0.14392922E-02 -0.87999351E-04  0.11977894E-02
 -0.47014126E-03 -0.12883201E-02 -0.23725768E-02
 -0.38329368E-03 -0.98289184E-03  0.16414755E-02
 -0.11630044E-02  0.43418204E-02 -0.12843110E-02
  0.20474768E-02 -0.13137113E-02  0.12154246E-02
 -0.17900895E-02 -0.19907934E-02 -0.28415845E-02
  0.68998625E-03 -0.24844300E-02 -0.19164201E-03
 -0.36615484E-02  0.16279900E-02 -0.10631205E-02
  0.34015472E-03 -0.10879774E-03 -0.86058392E-03
  0.74621515E-03  0.19728086E-02 -0.21794605E-03
 -0.47486386E-03 -0.20322694E-03  0.27272851E-02
  0.27895298E-02 -0.19069920E-02 -0.18306752E-02
  0.23151955E-02  0.21203171E-02 -0.14353469E-02
  0.32018610E-02  0.12925084E-02  0.20019239E-02
  0.21785873E-02  0.20100536E-02  0.19929384E-02
  0.73881383E-03 -0.74100030E-03  0.10578155E-02
  0.13932720E-02  0.89805186E-03 -0.10371033E-02
 -0.83606134E-04 -0.12598785E-02  0.54253048E-03
  0.83829514E-03  0.87007933E-03  0.11558038E-03
 -0.11788466E-02 -0.71464643E-03  0.15787133E-02
  0.30161419E-02 -0.77523484E-03 -0.61524901E-03
 -0.11745826E-02 -0.15935597E-02 -0.37044770E-03
 -0.15944494E-02 -0.35996089E-03 -0.87570385E-04
 -0.37294630E-02 -0.25508738E-02  0.22661868E-02
  0.24893247E-03 -0.64537472E-04  0.49532316E-03
  0.32441915E-02 -0.16728044E-02  0.85124399E-04
 -0.31685309E-03 -0.34185574E-02 -0.34421854E-03
 -0.52497660E-03  0.13553646E-04 -0.11229116E-03
 -0.11514729E-05 -0.22623671E-02  0.23547242E-02
 -0.24329961E-02 -0.24101524E-02  0.19751169E-02
 -0.47111743E-03 -0.17291200E-02 -0.41476686E-03
  0.32955146E-03  0.84540069E-03 -0.28152262E-02
 -0.38344175E-02  0.15073845E-02  0.22318464E-02
 -0.81405172E-04  0.11435276E-02  0.21363956E-02
  0.17192366E-02  0.28421887E-02 -0.15059263E-02
 -0.48234182E-03  0.12167122E-02 -0.89280468E-03
 -0.34966596E-02 -0.20518781E-02 -0.10093169E-02
 -0.11994211E-02  0.47277911E-03 -0.14979535E-02
  0.26613442E-03  0.30803232E-03 -0.18890231E-02
 -0.31981063E-02  0.11897556E-03 -0.26601550E-02
 -0.13144963E-02 -0.47084030E-04  0.73815616E-03
  0.13968471E-02  0.11862158E-02  0.11715250E-02
 -0.20034176E-03  0.10086239E-02  0.29225185E-02
  0.77862059E-04 -0.13053900E-02  0.39749333E-03
 -0.12108917E-04 -0.96957682E-03 -0.10481050E-02
  0.19335100E-03 -0.28101887E-02 -0.22413404E-02
  0.10116461E-03  0.54408443E-03 -0.13492269E-02
 -0.12737396E-02 -0.74217463E-03  0.21137338E-02
 -0.11562064E-02 -0.62990490E-02  0.17838942E-03
  0.85874246E-03  0.10560959E-02 -0.34920786E-02
 -0.29088563E-02 -0.58212075E-03  0.20997979E-02
 -0.21631040E-02 -0.42721960E-03  0.15250901E-02
  0.14925444E-02 -0.72010291E-03  0.42074340E-02
  0.16734576E-02  0.15764539E-02  0.29763855E-02
 -0.16034923E-02  0.10598883E-02  0.44245447E-03
  0.70330990E-03  0.74515064E-03 -0.11635629E-02
  0.22327234E-02 -0.10216133E-02  0.14832692E-02
  0.61939350E-03 -0.93891129E-03  0.20275611E-02
  0.42953743E-02 -0.37394831E-02 -0.10661000E-02
 -0.17163524E-02 -0.15381427E-02  0.63799448E-03
  0.37317058E-02  0.17395876E-02  0.14873814E-02
 -0.88454715E-03 -0.20463689E-02  0.38828976E-02
 -0.13158025E-02 -0.14941341E-03 -0.21205669E-03
 -0.10680036E-02 -0.22274725E-02  0.19448604E-02
 -0.67241083E-03 -0.44653695E-03  0.18387830E-03
 -0.24855084E-02 -0.91804776E-04  0.14960690E-02
  0.41978759E-03  0.19745954E-03 -0.45292391E-03
 -0.29274927E-03  0.13448414E-02 -0.10681246E-02
  0.17079887E-02  0.13818075E-02  0.49483870E-03
  0.10177065E-02 -0.10485837E-02  0.13568154E-02
 -0.32725787E-03  0.28196431E-02 -0.28311880E-03
  0.12253591E-02  0.10931819E-02  0.73624765E-05
 -0.14213700E-02 -0.45892336E-03 -0.28367046E-02
  0.38258018E-03 -0.41343889E-02 -0.23098305E-03
  0.60002490E-03 -0.13528316E-03 -0.46898936E-02
  0.32161002E-02  0.12525298E-03 -0.10715777E-02
 -0.81168026E-03  0.32845606E-02  0.10752600E-02
  0.79258312E-03  0.22309310E-02  0.18716937E-02
 -0.10739947E-03 -0.17573940E-02  0.10490676E-02
  0.24094276E-04 -0.10409411E-02  0.36332853E-02
  0.13882529E-02 -0.10844737E-02 -0.16831654E-02
  0.11170393E-02  0.78153301E-03 -0.16104012E-02
 -0.46074025E-03  0.21192917E-03 -0.92987072E-03
 -0.24384186E-02 -0.20152773E-02  0.19128816E-02
  0.56202499E-03  0.49634820E-03 -0.21768236E-04
 -0.16249158E-03 -0.20306398E-04  0.19018887E-02
 -0.25498433E-02  0.10284784E-02  0.26754862E-02
  0.58941466E-02 -0.66211677E-03 -0.27712115E-02
 -0.47075620E-02  0.32182265E-02 -0.13931540E-02
 -0.10099917E-02  0.34956726E-02  0.20507728E-02
 -0.95212578E-03 -0.72406860E-03 -0.41889608E-03
 -0.20352490E-02 -0.21628963E-02  0.28016891E-03
 -0.38662449E-04 -0.17436432E-03 -0.17214161E-02
  0.10839534E-02 -0.22178317E-02 -0.75287491E-03
  0.17170468E-02  0.17685760E-02  0.18760495E-02
  0.25001873E-02  0.11107678E-02 -0.51243245E-03
  0.70022750E-03 -0.25312980E-02  0.93430976E-03
 -0.14068077E-02 -0.17244343E-02 -0.52836945E-03
  0.94297828E-03 -0.82150948E-04 -0.17155853E-03
  0.69851269E-04  0.10613882E-02 -0.57492321E-03
  0.52343154E-03  0.67139819E-03 -0.17529820E-02
  0.34902368E-03  0.85081424E-03  0.46392077E-03
  0.12947729E-02  0.30116478E-02 -0.20564785E-04
  0.14595905E-02 -0.21194410E-03 -0.42742087E-03
  0.99101784E-03  0.62177852E-03 -0.16951394E-02
 -0.16484723E-02 -0.92417391E-05 -0.20492083E-02
 -0.23119120E-02 -0.17764979E-02  0.31790059E-02
 -0.83830931E-03 -0.34345153E-04 -0.12307629E-02
  0.94151065E-03  0.25524618E-03 -0.59991536E-03
  0.46788257E-03  0.35828738E-02  0.12554085E-02
 -0.30280598E-02  0.71279113E-03 -0.22493879E-02
  0.95976406E-03 -0.60637227E-03 -0.11441571E-02
  0.38073842E-02 -0.64521534E-04 -0.39166213E-02
 -0.25374231E-04 -0.86557546E-03 -0.28280422E-02
 -0.41876375E-03  0.38372049E-03 -0.12006722E-02
 -0.20326894E-02  0.94750718E-03  0.18693971E-02
 -0.19217840E-02 -0.14012363E-02 -0.25199338E-02
  0.70364684E-03  0.59627865E-03  0.13434661E-02
  0.16435943E-03  0.21289692E-02  0.39939763E-04
 -0.69836774E-04  0.22476930E-03 -0.21482349E-02
  0.30278687E-02  0.10080412E-02  0.18479629E-02
  0.90068412E-03  0.10512059E-02  0.94167413E-03
 -0.20299661E-04  0.33244079E-03 -0.54348226E-03
  0.92795586E-04  0.16679491E-02  0.40394637E-03
  0.21413351E-02 -0.12577733E-03 -0.17343624E-02
 -0.11801050E-02  0.15836658E-02 -0.63378351E-03
  0.62407144E-04 -0.51774883E-03  0.25037930E-03
  0.47023040E-03 -0.16650314E-02  0.18020419E-02
  0.82678747E-05  0.14841517E-02 -0.10435530E-02
  0.17585860E-03 -0.14243630E-03  0.15426688E-02
 -0.22488014E-02  0.11139926E-03  0.10781400E-02
  0.29207468E-02  0.10784007E-02  0.21074776E-02
 -0.25813251E-02  0.13428196E-02  0.28279347E-02
 -0.25343860E-02  0.14904291E-02  0.79729230E-03
 -0.12424990E-02 -0.11960410E-02 -0.51226869E-03
 -0.28877010E-02 -0.29997392E-02 -0.10319126E-02
  0.23711972E-02  0.14023630E-02 -0.13332512E-02
 -0.11108502E-02  0.84710554E-03  0.17805607E-02
  0.50958685E-03 -0.23295854E-02  0.21409424E-02
 -0.30237363E-02  0.35498143E-02 -0.40902426E-04
  0.28773544E-03  0.19897556E-02  0.48410273E-03
  0.51461926E-03  0.89681990E-03 -0.55456058E-03
 -0.21390489E-02  0.36932066E-03 -0.64547166E-03
  0.90276505E-04  0.57506008E-03 -0.35924381E-02
  0.23336981E-02  0.11663972E-02 -0.55239149E-03
 -0.44902160E-03  0.50207672E-02  0.13268944E-02
 -0.96878423E-04  0.28956299E-02 -0.26263416E-02
  0.84926047E-03  0.11608845E-02  0.26012797E-02
  0.21332828E-02  0.30016978E-03  0.12736606E-03
 -0.15770494E-02  0.54520110E-03 -0.23882444E-02
  0.17499997E-02 -0.72147712E-03 -0.17846210E-02
  0.32224856E-03  0.25916101E-02 -0.25046152E-02
  0.17288070E-02  0.85619013E-04  0.55768257E-03
 -0.27140250E-02 -0.15178125E-02 -0.30842023E-03
  0.14060043E-02  0.25647579E-02  0.32237874E-03
 -0.17150129E-02 -0.26392916E-02 -0.27260540E-02
  0.10058147E-02  0.14199198E-02  0.45285040E-03
  0.20377681E-02 -0.40108633E-03 -0.75633992E-04