Amorphous AsTe                          
   1.00000000000000     
    21.1072922372385499    0.0000000000000000    0.0000000000000000
     0.0000000000000000   21.1072922372385499    0.0000000000000000
     0.0000000000000000    0.0000000000000000   21.1072922372385499
   As   Te
   150   150
Direct
  0.2602936697829609  0.8095339455002853  0.3703766507550129
  0.1962865161174747  0.4602344907747018  0.5223002589703963
  0.3483721539152018  0.7825269432853520  0.6560990257629282
  0.8722430021991261  0.5585320137289681  0.5930818288908172
  0.8503212144005043  0.8358063820280063  0.7844996472252725
  0.3483800801858243  0.8799090313113365  0.5001083020845265
  0.2964261233287029  0.0933994462655072  0.1662631681760865
  0.2616104689710769  0.4314832314705187 -0.0628238882011002
  0.9361121669968469  0.3956439087081800  0.9281365285701665
  0.3209111386563392  0.1928602057127255  0.4857168151006248
  0.7940281909569024  0.9843033112394484  0.6029628629750832
  0.9493243352124683  0.9858066658549811  0.1406924416452298
  0.7039296828003566  0.7696320802331412  0.0212006599693270
  0.2778864894188808  0.3565406758856760  0.4321453142068679
  0.4675876116058588  0.1676369148680940  0.5773348299689083
  0.9908691884576969  0.3393682918750413  0.0774269793428880
  0.9422661118796694  0.2146676136565661  0.8614123824488570
  0.4497628381026408  0.0866661894659585  0.4238019015053478
  0.5685570026055038  0.1250512826778282  0.8549917616646039
  0.7692965550393973  0.5023085748692047  0.6113970557802370
  0.6406691899999404  0.2096846559160037  0.9787226839471496
  0.9663452258333928  0.7606541510720224  0.2778560355601438
  0.0599803499469214  0.1091450222259604  0.1234577596024685
  0.8936741728431444  0.4855520246816430  0.8333461049048877
  0.6735752918542613  0.3211723306352999  0.9569019787763134
  0.1516947744926329  0.5073025534020045  0.4241796551392438
  0.1814417165268344  0.9097521028270654  0.8824522599338067
  0.5780490430507969  0.0171938515650363  0.7503130815292819
  0.3248337731259161  0.9497487152856865  0.1126869498627655
  0.3039845104094930  0.2688197724487016  0.3571055670562358
  0.8754203269819185  0.8969619173601598  0.6026811039383514
  0.5042664287786187  0.6313041867935413  0.1698718658360106
  0.4553572899264833  0.6494695334285647  0.9295591460995631
  0.5861767969213607  0.5644570524624450  0.3152443694380240
  0.2992976087729757  0.9214875536223848  0.7615530507546379
  0.8733592055539402  0.3231177991176913  0.6176308639650316
  0.2732950052927182  0.0250534412062284  0.7064402602049099
  0.1918151705776879  0.8453055654657076  0.6617873920575295
  0.1701524690956303  0.6485975442118183  0.6285078892259555
  0.2612545653140535  0.0390484828625746  0.4389939178008097
  0.1980853257909358  0.4350770885049576  0.0366478518805045
  0.4668321505970824  0.1636297279354152  0.1774778873248714
  0.5980723986879130  0.9704572501091764  0.4577913025366830
  0.5865857212332385  0.2602593764530501  0.5741142527182641
  0.8744471349972253  0.7968049590513067  0.8949340213197351
  0.6223848477722639  0.8451303621362897  0.2708978852473730
  0.8264136260524675  0.1758968272394168  0.2296415788274783
  0.0872281450995464  0.9814802458936274  0.8701367381797709
  0.1860313918741437  0.9779431986637481  0.5462765148701044
  0.6634849704579913  0.4537051920751141  0.0564272685295094
  0.9250895414475850 -0.0038125958263753  0.8611285933390075
  0.0250829272906549  0.6362963828801530  0.2163543061013030
  0.4019498597513396  0.8728830816059457  0.0629556957157498
  0.8122004776184070  0.8195033604403040  0.5344905442332022
  0.8842792706679444  0.6543202108744696  0.1268208590932310
  0.4637281847478985  0.8056958964770826  0.6354074016744033
  0.7724943209788822  0.7487449894974670  0.7676042985201174
  0.6151436528689134  0.1193200611876827  0.2869126708459275
  0.3790775163591689  0.1940710406605269  0.9404595948525077
  0.9148618147206371  0.6421755116890585  0.2968307023194486
  0.5858226738808404  0.5156531528057622  0.1233733473354805
  0.1859581826263296  0.7480740150434479  0.9866917676419438
  0.5881058932543587  0.3568448602459910  0.8800698785408463
  0.7054396524863489  0.0546167420748406  0.9113927881199833
  0.1117161201332251  0.9304328775817714  0.6299904683561293
  0.4269452747531380  0.5455061697842731  0.1935053682316534
  0.7423569417033594  0.5095525402550934  0.7281854117453360
  0.4776536269610046  0.6903656320808645  0.6037147321618267
  0.1034157748398714  0.9334475226257448  0.1345095662119759
  0.4777737340388242  0.8097115949537846  0.9523140835980221
  0.4917212113338073  0.4973544937568434  0.2804934848680457
  0.4838739337074680  0.2345526042171060  0.0833390112454607
  0.5898636054002271  0.0390724452870655  0.9355758075111913
  0.6694693784560022  0.6348730188048900  0.7389812175406009
  0.9256985609209688  0.5723894678893752  0.2017811867147184
  0.0149837760955063  0.5846457437975012  0.3224173072393331
  0.8049087063305097  0.2928510093138480  0.2439848589126343
  0.5234726729050616  0.5496428924099527  0.5369837258525075
  0.5666745929133591  0.8732135613296619 -0.0001372445463155
  0.3973898650410679  0.0461611219019364  0.1243522838338044
  0.4914012205068727  0.9487554531897865  0.0537493934558432
  0.8332362118497803  0.8899312426066128  0.2559368498707784
  0.3568366852660475  0.1220047877889578  0.5732930059140823
  0.6648238210460464  0.5609545062672415  0.2254001724264822
  0.6717542218108483  0.4420622030124401  0.2246022700816640
  0.4879826989349891  0.4222944432583834  0.7799738175910900
  0.2279215401956887  0.7286525848616231  0.7791639548459769
  0.7663670704565198  0.1478889078839623  0.5778032557807290
  0.5258712067270939  0.6532944786737082  0.8325145732133961
  0.2809061564219983  0.2542438803969134  0.0904538839482056
  0.0383772010224537  0.3483703013465475  0.9668345821878790
  0.7714530722582204  0.7333113407039648  0.8863751295707796
  0.5115454438464184  0.0719891837803211  0.5234930820019775
  0.2761987091091476  0.2702645520394662  0.8222730020480394
  0.3683868473992642  0.0334178075808283  0.4920795748244453
  0.7347371106878955  0.2038561340469419  0.6761356515947808
  0.0554739097371393  0.2039541257812237  0.1982858797970983
  0.0130558183851358  0.4350316817548595  0.3617490384265118
  0.6989421351637719  0.5929303740868630  0.5843543298097832
 -0.0002769854696041  0.9022652862189373  0.8620814785457419
  0.3687763969164719  0.6654643486635204  0.6496178049965310
  0.3827288180361316  0.2736338443535018  0.0285204639271633
  0.0926714036134429  0.3986335080037633  0.5406889013871812
  0.6111821975725363  0.3475036695211502  0.0550170227954044
  0.2663192022009726  0.5300723084349356  0.3904921875704182
  0.9126368703124015  0.2324313246440716  0.5466179758321341
  0.5115380837799589  0.1320913360845871  0.0266049195113382
  0.5279315328971698  0.2041009872639112  0.9343931562622672
  0.2903395469212753  0.2988532664516808  0.5358865834561837
  0.8366463392290178  0.9753412592940764  0.1736306000829710
  0.4734133712688238  0.4736585219106298  0.1067590675445198
 -0.0113159375218186  0.6082285140198382  0.7354716770330587
  0.0666085960565700  0.0207044261258164  0.9810119310199759
  0.6799291240152832  0.8444704575577842  0.3745176744090536
  0.5054917021478768  0.3462135473872411  0.5644900885677014
  0.1463384335970519  0.0402921230392218  0.1710388212235806
  0.0107832303307466  0.4574609402475239  0.1008310341357003
  0.1572116940270583  0.8512269622796531  0.2039069849044148
  0.4999120825231243  0.1242938129796189  0.6857013942957425
  0.7385569669393381  0.7119806037447404  0.1399212502202540
  0.9901716136593836  0.3024225539657664  0.4914940823476122
  0.3056077736631252  0.9310534604182864  0.6432046819749548
  0.2619269289538203  0.1963325992931099  0.9181267796720325
  0.8438500068953182  0.6356410507672444  0.5075548343573855
  0.1025518566895381  0.1239385284982470  0.8342463761086286
  0.9378514142848451  0.9556272990736139  0.5202072926213815
  0.7515645887513844  0.4325078588675756  0.1376044652295269
  0.9485215958094774  0.0318045772241972  0.9727097635210676
  0.6275722502328198  0.8266044579910284  0.0933319205866708
  0.5312749497653330  0.6944140981725091  0.0093324755939962
  0.0121817464374726  0.9144614121199659  0.2116419864760139
  0.8218699982471547  0.0036582785273466  0.2885953622265723
  0.0997906856212577  0.1324260215040845  0.9527548320502954
  0.4398537200811724  0.6880479830596785  0.0864562276680972
  0.6961832270204076  0.9623321363023092  0.3925121251765004
  0.1424964669412231  0.1249171609239797  0.3442678791109461
  0.2138362237260217  0.1411340501144899  0.4765154615892233
  0.9792432464484399  0.2824306518890372  0.3035807069961511
  0.3233173740427424  0.5551181102908234  0.0650820487721761
  0.5272074981803268  0.5203459881243533  0.8410190521333013
  0.4595700344668901  0.8830843899289199  0.5450316675312670
  0.6186457845308091  0.7144448057275085  0.1463020076332769
  0.0058876604568077  0.7400399308492023  0.0178320399007168
  0.8302466176176316  0.8912676424201609  0.9500555519192998
  0.6223553280374914  0.7252635362113049  0.2647273013653242
  0.9779813108172287  0.0819451444782020  0.2037902024149376
  0.6803138872175312  0.1663325974081770  0.8762726810411302
  0.9354132439438227  0.7956105434377185  0.7132611324347636
  0.3865304205423126  0.3524671319158429  0.3837437583652540
  0.9719486765255497  0.8085037608266977  0.1669387156612047
  0.6068963534132767  0.4510392598775231  0.6761665148228816
  0.9806784505754107  0.0842749482451282  0.7906124008701033
  0.1095505881324690  0.4417655937284517  0.1793229914465872
  0.4104901399563921  0.4953969452040752  0.6941306809054970
  0.7619114865590327  0.0677340489885278  0.0245966820764417
  0.1063645484977073  0.8748875277129675  0.3921462033243657
  0.7413861003801705  0.3056487651495989  0.1356353958887044
  0.6821014473829947  0.3215414448115649  0.7754818614696749
  0.3453943464261832  0.4270300405116969  0.2652647442951298
  0.6633258148116843  0.0775065117303699  0.6047614927490413
  0.4681324806832123  0.4700836314984314  0.4524636591099827
  0.0915999753633879  0.0249846449680178  0.2829878616497178
  0.8352805039577060  0.5862673641920817  0.7753591432548450
  0.2086783058435889  0.3116477913583574 -0.0108081215741973
  0.1702389553625373  0.4407562715221862  0.8463525953535431
  0.2457058956853585  0.5585117546722409  0.5844355360549434
  0.9630102419754379  0.6244726310453567  0.0337915169664771
  0.9516925898458108  0.8738094605041401  0.3781585431464568
  0.0733103124203531  0.6134171672993211  0.5569218004985195
  0.6224543687144889  0.0994019804885542  0.4681174087846859
  0.6407864953489938  0.0245051811293343  0.1097915345804068
  0.6131989755163448  0.4558319274276538  0.3802429624654912
  0.0192100182361893  0.1157901460930355  0.5130109454694661
  0.1224395319279820  0.7934050416874524  0.7550461355743294
  0.3054418945154981  0.5133420845058037  0.7716517399744728
  0.0218999719100842  0.2126070116586719  0.6097479304908150
  0.2653386449412325  0.8050328526059272  0.1635538960089185
  0.7722934728672814  0.7103558049171719  0.2629672571962047
  0.6086595366289589  0.2934425778614594  0.4496144637269989
  0.2712884834933342  0.7587345437832423  0.8938022218506486
  0.2571193989838472  0.0913591573146508  0.8477293708863630
  0.4037790157517824  0.2682406197700658  0.8190572132205519
  0.6060658702775450  0.7343802515357858  0.6940461220440054
  0.8028591759184055  0.1917848988099820  0.9863792211853178
  0.4934503956546747  0.7041031674129418  0.2721417151573190
  0.1638880982360726  0.7900314077178181  0.5508550227775956
  0.4330647172139506  0.9645546392884392  0.6387728842194098
  0.7909669548166690  0.3961495490164720  0.7583533790067334
 -0.0120365710341491  0.7024138736391827  0.6035720698623019
  0.0663934759764445  0.4728040367999010  0.9861110655226490
  0.5068087837259595 -0.0119698678052589  0.3697324554336328
  0.5536774335461853  0.2338518493946016  0.7157501064810595
  0.8569258891110135  0.3025814963380757  0.9003562602732385
  0.0536781419544083  0.4379071690809561  0.6555011742689290
  0.8162853491482933  0.2396999279537734  0.4209741680171813
  0.2104063242241762  0.9132359098282975  0.3093689401350235
  0.9095941263236307  0.1656286246747164  0.1346474331078225
  0.2460008385194249 -0.0007372332994761  0.9460442441021955
  0.3984579220977993  0.0788990669466361  0.9972584040167372
  0.5821035254817010  0.9300493671037833  0.6622365683065518
  0.4662467643106661  0.5249633569725420  0.9525618246586504
  0.4408982963939947  0.7933285761796941  0.1565176661527720
  0.3485300268310230  0.2020405903586859  0.2034841553946308
  0.2667798131343103  0.6530387579380046  0.4120319694407714
  0.2529757899914215  0.5248164832804956  0.2672841597927778
  0.7222684633799742  0.8673089278520275  0.1955648992328017
  0.6938329748640045  0.3189339920468955  0.6238366982834335
  0.5661434870663844  0.8266665476047886  0.4262331598266066
  0.9099286161299842  0.1776948120122788  0.3260361791887510
  0.1317295998797358  0.5744196466403603  0.1687590933159074
  0.9769001449309578  0.3357198944029827  0.6897857698908155
  0.2675818908521891  0.0862923017244395  0.3222409226443939
  0.2391930491420033  0.3999622426806703  0.7352519593890079
  0.4354295491383857  0.6792182268193467  0.4855461107217757
  0.2355684212037417  0.1402514509384601  0.0631374873209081
  0.7968493113298181  0.6817834205771791  0.6133401710745321
  0.5408441874843112  0.9547918163783404  0.1684268856106477
  0.3132817627547710  0.7612897113763425  0.5337919890956417
  0.2661368044740658  0.7164346686686146  0.2862891628934033
  0.8353490441813316  0.0197031988238845  0.4861628881612944
  0.1478975912577619  0.0055682806048410  0.7238939815441091
  0.8294176824749944  0.8307529157604108  0.4072509669276351
  0.0921638354704231  0.7494716352077976  0.2979912826114167
  0.8482180288971758  0.1335841143017300  0.8716719030091077
  0.7346004782723623  0.5886795592807786  0.4634819786560823
  0.5858992937151176  0.9439114494621982  0.8536224434306304
  0.1420015971408519  0.8656828313045091  0.9929326919140448
  0.0072785746482785  0.5441471999891537  0.8428935641422856
  0.1510600521378307  0.2698261856160872  0.7065989347399538
  0.2704073729810056  0.1960519743611457  0.7198901014429273
  0.9133710274753535  0.3515846873893848  0.2143632639385883
  0.9932601012975729  0.1972636046774976  0.9766555112749141
 -0.0088704821123949  0.0247116477532708  0.6121935857796218
  0.1182144782363130  0.5763800342890842  0.7220305004648301
  0.5637567617070802  0.5749254899977106  0.6989198152611616
  0.0050871994086406  0.4918180882676426  0.4755854216801261
  0.1736330634455713  0.1950908143657817  0.2448575709226247
  0.1136759255059126  0.2498962036736308  0.8374743508623947
  0.4216900854076904  0.5589145932504471  0.3669966535080424
  0.6900042378891175  0.8272690155625702  0.9080250499338361
  0.4573544294425149  0.2730704917731877  0.4702022012882370
  0.1856944651406839  0.0954160668829006  0.5922640478457325
  0.0989835623721605  0.2973606226599019  0.1262584764947951
  0.0876107740754650  0.6865619500340155  0.9362570694601443
  0.6500354609982215  0.6380652816701793  0.8651476657072236
  0.0521918109510970  0.2226326604514300  0.4149940390025051
  0.8695333084371248  0.4471633833420910  0.0214429629058775
  0.6957279674250837  0.2143531701381128  0.3175058660395631
  0.6113894445885208  0.5963151590950500  0.0278327366821761
  0.6215066936134314  0.7727921878371997  0.5386058216419246
  0.2529940643327742  0.3317409960345883  0.2582308386851291
  0.9365095533370288  0.0045323143748975  0.3495968649751299
  0.6989198211798821  0.0617486660476897  0.7435076393507754
  0.3970259883897555  0.0343315816181053  0.2706979998452032
  0.2013364155447498  0.5813541645671201  0.0405883401060570
  0.5099769263806244  0.3763881568595520  0.9834070890458487
  0.8498144596851930  0.2402449614474180  0.7136184963520777
  0.3471708095863353  0.3991967711981190  0.6166944759615924
  0.7354386418912781  0.3291978533241310  0.4868350276971731
  0.4925234848210074  0.2390832040962485  0.2785713555163733
  0.3804069598370032  0.8489486412898298  0.3814981844906981
  0.4221292487401726  0.9346053210898633  0.7933770164438080
  0.6221126101682242  0.1475975726513829  0.1609106940064923
  0.3885475980478842  0.6511560931153498  0.7746289962948921
  0.8890544418908969  0.4472372143606500  0.5257253449276212
  0.8270210741321312  0.5369383746377695  0.9232035570315956
  0.4426031375824909  0.3101722143799164  0.6687748204147725
  0.6374875729290457  0.4730767269850273  0.8729406702837050
  0.3455843633271536  0.9147181093507563  0.2322583043612932
  0.1674915236206701  0.2814575529644004  0.5581063691588313
  0.4041749020319796  0.7854470711384711  0.7902018271694314
  0.9474372145141376  0.9082156973508487  0.0016260701602316
  0.7025569421913122  0.8776777706626676  0.5586587499951486
  0.3965553046296741  0.1239114905017543  0.7583381208763719
  0.5334687037691168  0.7860247083256057  0.8381261855154256
  0.1265993426960132  0.3869572497566556  0.3889903784199504
  0.0704893567227200  0.6679502316187750  0.3985648729788703
  0.3935847584822305  0.9044045230397411  0.9255531783445877
  0.9182086631486419  0.3501946539611806  0.3935326420661352
 -0.0252966045178054  0.7129557900132497  0.8007295153717980
  0.0017681928850443  0.9012494563956388  0.7312496877352905
  0.8145879916735482  0.8217898323637961  0.0529657656449627
  0.0972779935256888  0.9939999702811623  0.4545570017218988
  0.6705817178205629  0.0052070070899883  0.2740185477310688
  0.4871121332055158  0.3704287954749611  0.1776422417247651
  0.0302509060351251  0.8126112894776949  0.5408411508956604
  0.6075880157038663  0.2869944901278000  0.2336870115903114
  0.7813714865829423  0.9494385042793032  0.7585439903645517
  0.4048199560426364  0.3967970281440900  0.8675986852219172
  0.8488231602254808  0.0902611300978999  0.6535801350390251
  0.3203901564991705  0.4312683769030623  0.0798499309182110
  0.6870423003948275  0.8399405682674005  0.7404699000188454
  0.7753514227852552  0.5995679695221575  0.0931925928288617
  0.7384819924856977  0.4347809078275703  0.3310298431663554
  0.2987210144991801  0.5638559104671083 -0.0589256542175689
  0.1880411109313962  0.6210941579062945  0.8293201212644901
  0.6277084564097956  0.4761880164419904  0.5417284563722805
  0.0795092687260585  0.7593646235694070  0.1221866617431246
  0.5650926804963593  0.6406195706210243  0.4645410978865721
  0.7695150756300996  0.5793299981679879  0.3009501259230045
 
  0.00000000E+00  0.00000000E+00  0.00000000E+00
  0.00000000E+00  0.00000000E+00  0.00000000E+00
  0.00000000E+00  0.00000000E+00  0.00000000E+00
  0.00000000E+00  0.00000000E+00  0.00000000E+00
  0.00000000E+00  0.00000000E+00  0.00000000E+00
  0.00000000E+00  0.00000000E+00  0.00000000E+00
  0.00000000E+00  0.00000000E+00  0.00000000E+00
  0.00000000E+00  0.00000000E+00  0.00000000E+00
  0.00000000E+00  0.00000000E+00  0.00000000E+00
  0.00000000E+00  0.00000000E+00  0.00000000E+00
  0.00000000E+00  0.00000000E+00  0.00000000E+00
  0.00000000E+00  0.00000000E+00  0.00000000E+00
  0.00000000E+00  0.00000000E+00  0.00000000E+00
  0.00000000E+00  0.00000000E+00  0.00000000E+00
  0.00000000E+00  0.00000000E+00  0.00000000E+00
  0.00000000E+00  0.00000000E+00  0.00000000E+00
  0.00000000E+00  0.00000000E+00  0.00000000E+00
  0.00000000E+00  0.00000000E+00  0.00000000E+00
  0.00000000E+00  0.00000000E+00  0.00000000E+00
  0.00000000E+00  0.00000000E+00  0.00000000E+00
  0.00000000E+00  0.00000000E+00  0.00000000E+00
  0.00000000E+00  0.00000000E+00  0.00000000E+00
  0.00000000E+00  0.00000000E+00  0.00000000E+00
  0.00000000E+00  0.00000000E+00  0.00000000E+00
  0.00000000E+00  0.00000000E+00  0.00000000E+00
  0.00000000E+00  0.00000000E+00  0.00000000E+00
  0.00000000E+00  0.00000000E+00  0.00000000E+00
  0.00000000E+00  0.00000000E+00  0.00000000E+00
  0.00000000E+00  0.00000000E+00  0.00000000E+00
  0.00000000E+00  0.00000000E+00  0.00000000E+00
  0.00000000E+00  0.00000000E+00  0.00000000E+00
  0.00000000E+00  0.00000000E+00  0.00000000E+00
  0.00000000E+00  0.00000000E+00  0.00000000E+00
  0.00000000E+00  0.00000000E+00  0.00000000E+00
  0.00000000E+00  0.00000000E+00  0.00000000E+00
  0.00000000E+00  0.00000000E+00  0.00000000E+00
  0.00000000E+00  0.00000000E+00  0.00000000E+00
  0.00000000E+00  0.00000000E+00  0.00000000E+00
  0.00000000E+00  0.00000000E+00  0.00000000E+00
  0.00000000E+00  0.00000000E+00  0.00000000E+00
  0.00000000E+00  0.00000000E+00  0.00000000E+00
  0.00000000E+00  0.00000000E+00  0.00000000E+00
  0.00000000E+00  0.00000000E+00  0.00000000E+00
  0.00000000E+00  0.00000000E+00  0.00000000E+00
  0.00000000E+00  0.00000000E+00  0.00000000E+00
  0.00000000E+00  0.00000000E+00  0.00000000E+00
  0.00000000E+00  0.00000000E+00  0.00000000E+00
  0.00000000E+00  0.00000000E+00  0.00000000E+00
  0.00000000E+00  0.00000000E+00  0.00000000E+00
  0.00000000E+00  0.00000000E+00  0.00000000E+00
  0.00000000E+00  0.00000000E+00  0.00000000E+00
  0.00000000E+00  0.00000000E+00  0.00000000E+00
  0.00000000E+00  0.00000000E+00  0.00000000E+00
  0.00000000E+00  0.00000000E+00  0.00000000E+00
  0.00000000E+00  0.00000000E+00  0.00000000E+00
  0.00000000E+00  0.00000000E+00  0.00000000E+00
  0.00000000E+00  0.00000000E+00  0.00000000E+00
  0.00000000E+00  0.00000000E+00  0.00000000E+00
  0.00000000E+00  0.00000000E+00  0.00000000E+00
  0.00000000E+00  0.00000000E+00  0.00000000E+00
  0.00000000E+00  0.00000000E+00  0.00000000E+00
  0.00000000E+00  0.00000000E+00  0.00000000E+00
  0.00000000E+00  0.00000000E+00  0.00000000E+00
  0.00000000E+00  0.00000000E+00  0.00000000E+00
  0.00000000E+00  0.00000000E+00  0.00000000E+00
  0.00000000E+00  0.00000000E+00  0.00000000E+00
  0.00000000E+00  0.00000000E+00  0.00000000E+00
  0.00000000E+00  0.00000000E+00  0.00000000E+00
  0.00000000E+00  0.00000000E+00  0.00000000E+00
  0.00000000E+00  0.00000000E+00  0.00000000E+00
  0.00000000E+00  0.00000000E+00  0.00000000E+00
  0.00000000E+00  0.00000000E+00  0.00000000E+00
  0.00000000E+00  0.00000000E+00  0.00000000E+00
  0.00000000E+00  0.00000000E+00  0.00000000E+00
  0.00000000E+00  0.00000000E+00  0.00000000E+00
  0.00000000E+00  0.00000000E+00  0.00000000E+00
  0.00000000E+00  0.00000000E+00  0.00000000E+00
  0.00000000E+00  0.00000000E+00  0.00000000E+00
  0.00000000E+00  0.00000000E+00  0.00000000E+00
  0.00000000E+00  0.00000000E+00  0.00000000E+00
  0.00000000E+00  0.00000000E+00  0.00000000E+00
  0.00000000E+00  0.00000000E+00  0.00000000E+00
  0.00000000E+00  0.00000000E+00  0.00000000E+00
  0.00000000E+00  0.00000000E+00  0.00000000E+00
  0.00000000E+00  0.00000000E+00  0.00000000E+00
  0.00000000E+00  0.00000000E+00  0.00000000E+00
  0.00000000E+00  0.00000000E+00  0.00000000E+00
  0.00000000E+00  0.00000000E+00  0.00000000E+00
  0.00000000E+00  0.00000000E+00  0.00000000E+00
  0.00000000E+00  0.00000000E+00  0.00000000E+00
  0.00000000E+00  0.00000000E+00  0.00000000E+00
  0.00000000E+00  0.00000000E+00  0.00000000E+00
  0.00000000E+00  0.00000000E+00  0.00000000E+00
  0.00000000E+00  0.00000000E+00  0.00000000E+00
  0.00000000E+00  0.00000000E+00  0.00000000E+00
  0.00000000E+00  0.00000000E+00  0.00000000E+00
  0.00000000E+00  0.00000000E+00  0.00000000E+00
  0.00000000E+00  0.00000000E+00  0.00000000E+00
  0.00000000E+00  0.00000000E+00  0.00000000E+00
  0.00000000E+00  0.00000000E+00  0.00000000E+00
  0.00000000E+00  0.00000000E+00  0.00000000E+00
  0.00000000E+00  0.00000000E+00  0.00000000E+00
  0.00000000E+00  0.00000000E+00  0.00000000E+00
  0.00000000E+00  0.00000000E+00  0.00000000E+00
  0.00000000E+00  0.00000000E+00  0.00000000E+00
  0.00000000E+00  0.00000000E+00  0.00000000E+00
  0.00000000E+00  0.00000000E+00  0.00000000E+00
  0.00000000E+00  0.00000000E+00  0.00000000E+00
  0.00000000E+00  0.00000000E+00  0.00000000E+00
  0.00000000E+00  0.00000000E+00  0.00000000E+00
  0.00000000E+00  0.00000000E+00  0.00000000E+00
  0.00000000E+00  0.00000000E+00  0.00000000E+00
  0.00000000E+00  0.00000000E+00  0.00000000E+00
  0.00000000E+00  0.00000000E+00  0.00000000E+00
  0.00000000E+00  0.00000000E+00  0.00000000E+00
  0.00000000E+00  0.00000000E+00  0.00000000E+00
  0.00000000E+00  0.00000000E+00  0.00000000E+00
  0.00000000E+00  0.00000000E+00  0.00000000E+00
  0.00000000E+00  0.00000000E+00  0.00000000E+00
  0.00000000E+00  0.00000000E+00  0.00000000E+00
  0.00000000E+00  0.00000000E+00  0.00000000E+00
  0.00000000E+00  0.00000000E+00  0.00000000E+00
  0.00000000E+00  0.00000000E+00  0.00000000E+00
  0.00000000E+00  0.00000000E+00  0.00000000E+00
  0.00000000E+00  0.00000000E+00  0.00000000E+00
  0.00000000E+00  0.00000000E+00  0.00000000E+00
  0.00000000E+00  0.00000000E+00  0.00000000E+00
  0.00000000E+00  0.00000000E+00  0.00000000E+00
  0.00000000E+00  0.00000000E+00  0.00000000E+00
  0.00000000E+00  0.00000000E+00  0.00000000E+00
  0.00000000E+00  0.00000000E+00  0.00000000E+00
  0.00000000E+00  0.00000000E+00  0.00000000E+00
  0.00000000E+00  0.00000000E+00  0.00000000E+00
  0.00000000E+00  0.00000000E+00  0.00000000E+00
  0.00000000E+00  0.00000000E+00  0.00000000E+00
  0.00000000E+00  0.00000000E+00  0.00000000E+00
  0.00000000E+00  0.00000000E+00  0.00000000E+00
  0.00000000E+00  0.00000000E+00  0.00000000E+00
  0.00000000E+00  0.00000000E+00  0.00000000E+00
  0.00000000E+00  0.00000000E+00  0.00000000E+00
  0.00000000E+00  0.00000000E+00  0.00000000E+00
  0.00000000E+00  0.00000000E+00  0.00000000E+00
  0.00000000E+00  0.00000000E+00  0.00000000E+00
  0.00000000E+00  0.00000000E+00  0.00000000E+00
  0.00000000E+00  0.00000000E+00  0.00000000E+00
  0.00000000E+00  0.00000000E+00  0.00000000E+00
  0.00000000E+00  0.00000000E+00  0.00000000E+00
  0.00000000E+00  0.00000000E+00  0.00000000E+00
  0.00000000E+00  0.00000000E+00  0.00000000E+00
  0.00000000E+00  0.00000000E+00  0.00000000E+00
  0.00000000E+00  0.00000000E+00  0.00000000E+00
  0.00000000E+00  0.00000000E+00  0.00000000E+00
  0.00000000E+00  0.00000000E+00  0.00000000E+00
  0.00000000E+00  0.00000000E+00  0.00000000E+00
  0.00000000E+00  0.00000000E+00  0.00000000E+00
  0.00000000E+00  0.00000000E+00  0.00000000E+00
  0.00000000E+00  0.00000000E+00  0.00000000E+00
  0.00000000E+00  0.00000000E+00  0.00000000E+00
  0.00000000E+00  0.00000000E+00  0.00000000E+00
  0.00000000E+00  0.00000000E+00  0.00000000E+00
  0.00000000E+00  0.00000000E+00  0.00000000E+00
  0.00000000E+00  0.00000000E+00  0.00000000E+00
  0.00000000E+00  0.00000000E+00  0.00000000E+00
  0.00000000E+00  0.00000000E+00  0.00000000E+00
  0.00000000E+00  0.00000000E+00  0.00000000E+00
  0.00000000E+00  0.00000000E+00  0.00000000E+00
  0.00000000E+00  0.00000000E+00  0.00000000E+00
  0.00000000E+00  0.00000000E+00  0.00000000E+00
  0.00000000E+00  0.00000000E+00  0.00000000E+00
  0.00000000E+00  0.00000000E+00  0.00000000E+00
  0.00000000E+00  0.00000000E+00  0.00000000E+00
  0.00000000E+00  0.00000000E+00  0.00000000E+00
  0.00000000E+00  0.00000000E+00  0.00000000E+00
  0.00000000E+00  0.00000000E+00  0.00000000E+00
  0.00000000E+00  0.00000000E+00  0.00000000E+00
  0.00000000E+00  0.00000000E+00  0.00000000E+00
  0.00000000E+00  0.00000000E+00  0.00000000E+00
  0.00000000E+00  0.00000000E+00  0.00000000E+00
  0.00000000E+00  0.00000000E+00  0.00000000E+00
  0.00000000E+00  0.00000000E+00  0.00000000E+00
  0.00000000E+00  0.00000000E+00  0.00000000E+00
  0.00000000E+00  0.00000000E+00  0.00000000E+00
  0.00000000E+00  0.00000000E+00  0.00000000E+00
  0.00000000E+00  0.00000000E+00  0.00000000E+00
  0.00000000E+00  0.00000000E+00  0.00000000E+00
  0.00000000E+00  0.00000000E+00  0.00000000E+00
  0.00000000E+00  0.00000000E+00  0.00000000E+00
  0.00000000E+00  0.00000000E+00  0.00000000E+00
  0.00000000E+00  0.00000000E+00  0.00000000E+00
  0.00000000E+00  0.00000000E+00  0.00000000E+00
  0.00000000E+00  0.00000000E+00  0.00000000E+00
  0.00000000E+00  0.00000000E+00  0.00000000E+00
  0.00000000E+00  0.00000000E+00  0.00000000E+00
  0.00000000E+00  0.00000000E+00  0.00000000E+00
  0.00000000E+00  0.00000000E+00  0.00000000E+00
  0.00000000E+00  0.00000000E+00  0.00000000E+00
  0.00000000E+00  0.00000000E+00  0.00000000E+00
  0.00000000E+00  0.00000000E+00  0.00000000E+00
  0.00000000E+00  0.00000000E+00  0.00000000E+00
  0.00000000E+00  0.00000000E+00  0.00000000E+00
  0.00000000E+00  0.00000000E+00  0.00000000E+00
  0.00000000E+00  0.00000000E+00  0.00000000E+00
  0.00000000E+00  0.00000000E+00  0.00000000E+00
  0.00000000E+00  0.00000000E+00  0.00000000E+00
  0.00000000E+00  0.00000000E+00  0.00000000E+00
  0.00000000E+00  0.00000000E+00  0.00000000E+00
  0.00000000E+00  0.00000000E+00  0.00000000E+00
  0.00000000E+00  0.00000000E+00  0.00000000E+00
  0.00000000E+00  0.00000000E+00  0.00000000E+00
  0.00000000E+00  0.00000000E+00  0.00000000E+00
  0.00000000E+00  0.00000000E+00  0.00000000E+00
  0.00000000E+00  0.00000000E+00  0.00000000E+00
  0.00000000E+00  0.00000000E+00  0.00000000E+00
  0.00000000E+00  0.00000000E+00  0.00000000E+00
  0.00000000E+00  0.00000000E+00  0.00000000E+00
  0.00000000E+00  0.00000000E+00  0.00000000E+00
  0.00000000E+00  0.00000000E+00  0.00000000E+00
  0.00000000E+00  0.00000000E+00  0.00000000E+00
  0.00000000E+00  0.00000000E+00  0.00000000E+00
  0.00000000E+00  0.00000000E+00  0.00000000E+00
  0.00000000E+00  0.00000000E+00  0.00000000E+00
  0.00000000E+00  0.00000000E+00  0.00000000E+00
  0.00000000E+00  0.00000000E+00  0.00000000E+00
  0.00000000E+00  0.00000000E+00  0.00000000E+00
  0.00000000E+00  0.00000000E+00  0.00000000E+00
  0.00000000E+00  0.00000000E+00  0.00000000E+00
  0.00000000E+00  0.00000000E+00  0.00000000E+00
  0.00000000E+00  0.00000000E+00  0.00000000E+00
  0.00000000E+00  0.00000000E+00  0.00000000E+00
  0.00000000E+00  0.00000000E+00  0.00000000E+00
  0.00000000E+00  0.00000000E+00  0.00000000E+00
  0.00000000E+00  0.00000000E+00  0.00000000E+00