Amorphous GeAsSeSi                      
   1.00000000000000     
    18.6736188657994724    0.0000000000000000    0.0000000000000000
     0.0000000000000000   18.6736188657994724    0.0000000000000000
     0.0000000000000000    0.0000000000000000   18.6736188657994724
   Ge   N    Se
   108    24   108
Direct
  0.4158429624426900  0.0352127713272923  0.8762983088265770
  0.0925956455975570  0.5782407894389197  0.3332187243509203
  0.5752469522822786  0.8376180840132108  0.6094399666170258
  0.5583642281030119  0.1006091099478114  0.0692170009468046
  0.5002199388603629  0.3538930638500726  0.4604741569178307
  0.4397281900968295  0.6529853837584969  0.2980845547546730
  0.6333247924691234  0.2659647014295993  0.4523894310657884
  0.2453423628450871  0.3193083297577876  0.3488962671634840
  0.1530948839669030  0.3838842044269024  0.1172273794711453
  0.9277900664187168  0.9390331609094943  0.9528015189694020
  0.0315299082586351  0.4914835734221829  0.1865355549737831
  0.0122575919667281  0.2000533423494956  0.9165391303992635
  0.5327925789017113  0.9121472177193817  0.9552469485388699
  0.9427997015270712  0.1980791528113920  0.5492644905367382
  0.1988778616859301  0.9838153572935475  0.6230164553768057
  0.0237030538457662  0.2269169138595833  0.1591694096429082
  0.3308723290278564  0.8310024148685082  0.0429222138982242
  0.1397731358833440  0.2719709463574551 -0.0020829472102369
  0.4526641258938794  0.3503237518686924  0.0926517037878883
  0.6913245082700185  0.7941784945246065  0.4515158412225431
  0.8056111476619039  0.4958785004181905  0.9668454282077238
  0.5101034484908800  0.4193286724004063  0.9817221099919610
  0.6933565286017466  0.1772274196112054  0.9536009475380745
  0.5330911652984526  0.8628052564401337  0.4286104790736702
  0.7679386364982389  0.0788043437642129  0.6186689905997982
  0.8615319616904866  0.1930133873303146  0.9950294144059394
  0.7832655457413277  0.6454423768860870  0.5101730307839443
  0.4820341414590413  0.8596128222808676  0.1463473621577640
  0.0503428383093617  0.9596994005101678  0.7598672651879550
  0.8324741638301707  0.2015615492443861  0.7269953287363528
  0.5529245089775074  0.3054410005199322  0.6920677999229259
  0.2990833555855706  0.9439982862692869  0.5350119658615626
  0.4155022025091542  0.0640648183366189  0.4218213899019718
  0.6553360707120769  0.1670307558911717  0.6298724240470326
  0.1080150169447157  0.7674202653458739  0.9032137715385342
  0.3318608412688586  0.3776273639942614  0.9590307955373694
  0.5233504138039135  0.5388180286803615  0.7426321829955089
  0.3349420696465524  0.8219661042610434  0.8243892927528775
  0.0172804286958701  0.0812714859634225  0.6918742973234463
  0.7219805754424951  0.4796582186582225  0.2201543418989091
  0.7796752774687212  0.0361583856492153  0.9178600404747350
  0.0904441708599769  0.5998699603160886  0.8534140459440683
  0.4191320610325201  0.9258795041017762  0.6934745700697356
  0.7823912663196255  0.8968636508700508  0.4889490366094956
  0.3844158375241682  0.6596352778867429  0.7065974847424208
  0.6774818757029312  0.3509625100812068  0.8953764909485828
  0.1287929928599413  0.1811886293195877  0.6886135227804069
  0.5976770750916776  0.5403457910448052  0.4195038318993621
  0.7923515482123739  0.6761167406479870 -0.0022281417939840
  0.1911659092262696  0.0465371521302683  0.4022161769010784
  0.8701557281351640  0.3235264439436007  0.1309586750611429
  0.6152915734483252  0.5871284653117295  0.9206886244572404
  0.8645999445239291  0.0851789197765039  0.2978368141581474
  0.0235520013689819  0.9749668041678070  0.1534248353597209
  0.8668445801580609  0.0081600854966303  0.7434091184718462
  0.4223061923639465  0.8127012695725416  0.3551835909859378
  0.6929304309005918  0.7762823819326037  0.6563877915948472
  0.5630858095895575  0.9881911261257865  0.5511547796295073
  0.7535160094847204  0.2769759502950558  0.3781099120764808
  0.2137114748253442  0.5481618233799544  0.2295501032610489
  0.0927957087571989  0.9090427367040064  0.9941582862142715
  0.2095756172906639  0.0858625107211447  0.0467657127826325
  0.6011496814306599  0.7754144020296123  0.9020543114773933
  0.0321025440190025  0.8011791875379745  0.1058495875821300
  0.5359326583203903  0.9733504974474474  0.2571726667953931
  0.1907004299430995  0.6806487120438328  0.0370588854566119
  0.1795901876386359  0.9030502869505269  0.1450692061460031
  0.9558663905793106  0.3253413771955739 -0.0009286744482750
  0.1338116975750689  0.7450108426963099  0.3881253585199370
  0.2942061274754374  0.6194429954385532  0.3681322783563804
  0.5986269257774375  0.6508600003204678  0.7978101611229942
  0.8758722366092117  0.9197440354028121  0.2942964561569495
  0.0777435461460154  0.7065193754467711  0.7282864787069626
  0.5712459635955482  0.3677547345314626  0.2893109374256215
  0.4212216813913358  0.7574968394567325  0.5054429152772162
  0.9165549666222884  0.7561087521456619  0.5857641137033484
  0.0231483932035928  0.6652349436100592  0.0339373552050395
  0.2618371381177960  0.6367637864484513  0.8515501929555062
  0.8024688748639082  0.5721237506994565  0.8470208837512286
  0.6388797682619242  0.2596599799471781  0.0861466342866646
  0.8151014869042593  0.7531608947953000  0.1628863150045769
  0.0374038249250633  0.3425512358151150  0.6360918682458105
  0.3616580229430066  0.2408003641287890  0.7736365736267843
  0.8367576246899868  0.5984276629304213  0.1122906130184978
  0.5890771094987556  0.7480136002885757  0.3078009074281298
  0.7311284194532438  0.0863743214474586  0.0749257663147925
  0.1055626061984057  0.3230205560796653  0.7847755185403602
  0.1836025454620298  0.5386247697066427  0.9819833603493140
  0.4995160246956416  0.5043281740320699  0.2075018536854365
  0.3346826748359798  0.4294893334710134  0.5278174504999371
  0.0339325305757609  0.4393250280730036  0.0094898577593327
  0.3691093374977444  0.5558700381311042  0.5972906034455484
  0.8225244873685083  0.4559823138841766  0.4011357255816856
  0.4433422439824801  0.3632495316223087  0.8297867861662223
  0.6046807829538757  0.3874039855352409  0.5905238296928293
  0.7736018459452532  0.8837864579275977  0.0003907451837381
  0.2438218194446830  0.0855912652040907  0.7224110216814998
  0.0659228688159294  0.9558144375669727  0.2939913608786781
  0.3701198280796160  0.1671132147638795  0.0588379381870086
  0.9740730859116892  0.7312384596599361  0.3522276326866836
  0.1027490170424140  0.2296297735654856  0.4254200513492951
  0.9461136535055042  0.5852046657771965  0.6974322592666181
  0.0922788332701827  0.7283765416852062  0.2271129878923022
  0.1490035215097679  0.3963279597403621  0.4636215662705370
  0.2145712258636965  0.0241366938393643  0.2395098395244583
  0.2643935733633549  0.8269724815825910  0.6820636654538637
  0.3982495401428750  0.6222292568054191  0.9017593334036079
  0.7812327629226254  0.7582601043759148  0.7824997920206189
  0.0814808470726151  0.6971790426451270  0.8319366887610571
  0.0716130286351837  0.6855240746935658  0.3276447158502040
  0.4279840853825947  0.3947952853018319  0.9215953014337056
  0.5579311782854693  0.8877140410899224  0.5239226638983023
  0.6089086930191339  0.8045060902057971  0.3938499969644023
  0.4844546237989161  0.7448932094464695  0.3099158172126146
  0.7845274167183649  0.1194601918194273  0.9916547891713545
  0.1048725832108572  0.7061448494043663  0.9879250188977382
  0.0780196374380017  0.8955089033661938  0.1078910004855638
  0.4559703561736179  0.2622570097435347  0.8083633425439408
  0.0736348210591587  0.4482143345988259  0.1026042225265697
  0.0361328615854387  0.2610651420458757 -0.0014455595761153
  0.8475066643891040  0.6974320213070704  0.0807817848378244
  0.1514308947475825  0.0013404251547050  0.3191437172517747
  0.8332226352228831  0.9614733743308046  0.9687602410836705
  0.3548159559832225  0.3451231620521936  0.7781322369526211
  0.6531793129114607  0.1548184873269144  0.0552946551798222
  0.5933939219796805  0.3491724463326775  0.4978684805736145
  0.7897830636822056  0.5790682580577514  0.0244367878051897
  0.1716461047078531  0.3065353647313884  0.4191305968247246
  0.8724633153052070  0.6664864920642478  0.5541634650620353
  0.3587376537086601  0.3417450016334854  0.0539358127081049
  0.1843460451730578  0.5791624847572028  0.8831225546360496
  0.0941982470199624  0.2753495533832190  0.6927792791420546
  0.2614615457515215  0.1402206260403920  0.3206363352502526
  0.5561394622313809  0.9414869396676857  0.6896309756720717
  0.9529886294402126  0.3202161224167231  0.8570826064225306
  0.5600264296022907  0.4141442397232109  0.7890757537907515
  0.2677748902584132  0.4675428055456771  0.1283972046464421
  0.1523378988415817  0.9276510938856215  0.8333771383972047
  0.3964386317427904  0.9086763961104398  0.9122104759112510
  0.1427770828135732  0.8586894911687895  0.6096659372960663
  0.9316778344575541  0.9131908200571734  0.8144254093138679
  0.2323818627806553  0.3681979726901864  0.5916182279785099
  0.7464528910865953  0.0395171528329004  0.1982302341574233
  0.0002972747263497  0.2332489124919156  0.2938113335609192
  0.2768730940781146  0.4447027369528507  0.4084869124100466
  0.0153424051943508  0.3060451105623211  0.5013512399279934
  0.2977489281150146  0.8120300765027613  0.5455875299375793
  0.1752353056296988  0.5855800295086665  0.4496151482746600
  0.2203970698125175  0.9521698970939868  0.0217654503205569
  0.6916306450389920  0.4568916209240664  0.3537161310876613
  0.0021904840022715  0.5549242386525517  0.9396720817678514
  0.9623368502038463  0.0038141706071875  0.3667269138602299
  0.4421262443908726  0.7549522346274570  0.0909826684807383
  0.5984908845550169  0.8664201986258350  0.2075785602427743
  0.2484607602521939  0.6943409848598624  0.7113502347347161
  0.6054467547744223  0.4525661694680607  0.1527962728375938
  0.0137557444617676  0.0244129983678210  0.9902279170715331
  0.7504038059169742  0.3434985478695313  0.2016671117002337
  0.5733569327394148  0.2937413767808261  0.9606547475888660
  0.4813250030893939  0.7450645808748045  0.6252112228960136
  0.7559197667411321  0.2932299796952016  0.0054656728412769
  0.5376646153613166  0.2069129276652280  0.8141368438054833
  0.9391446031084215  0.5934566914149020  0.5626896020442906
  0.6599301089190878  0.5085211771535009  0.5727460584311886
  0.4154824857295693  0.9193553897900221  0.2428026169521954
 -0.0071907187536973  0.5289324659799177  0.4098816804802195
  0.6670916625023809  0.6940763635752817  0.5527101259630066
  0.6747959511041643  0.9835650123671745  0.0013501517261353
  0.8155189556492627  0.2274558774028454  0.5117341607304435
  0.9156909473623527  0.4984526478575177  0.1102838469747545
  0.3998338921849388  0.5414790911530271  0.7896863389737687
  0.5027667539643174  0.5901946042357216  0.9806033249315215
  0.8314419633845954  0.2856612598810434  0.8313388614354631
  0.3850529950343862  0.0468514776655380  0.7512039296266168
  0.3195067857442116  0.0735741760424414  0.1273564162675959
  0.5889656459617638  0.1611602585710976  0.5178683101503179
  0.7723356580104901  0.7021325022199587  0.3956978308797907
  0.1760317785907350  0.0565519495324425  0.8332947758547757
  0.2644191107944501  0.7612427911122428  0.9278471291107552
  0.8873503236858732  0.1905301797164025  0.1324218312815699
  0.7809819399661778  0.1496258252834635  0.4146589221835761
  0.2664454234607313  0.3865473342648716  0.7952094428101467
  0.3520242432897758  0.1365036906317643  0.9289756546637860
  0.7704891205972483  0.9905375499784996  0.3383545093081688
  0.5357838450034565  0.1536459571294634  0.6936169239092674
  0.4386379655797105  0.3848138362303227  0.2247570130569607
  0.0542091201533652  0.8480798503301932  0.3891669183543576
  0.3136675208355015  0.9668414978208044  0.4082054273989765
  0.7256669717962982  0.6334036467563713  0.7534115503247489
  0.4352201300422777  0.7286435499111954  0.8208168045626490
  0.4022474847627657  0.3171449021400139  0.5335145098005684
  0.5228564421570917  0.2606343686078390  0.3707901633006906
  0.7032494484465636 -0.0025465720597010  0.5284716281998264
  0.7422091742621536  0.0057766514876257  0.7323838764076971
  0.6608787580876254  0.6931326313922965 -0.0002060058912780
  0.1006426299188411  0.0444938544326232  0.5576013122568464
  0.9245380874526321  0.0092742119702644  0.6277844924070725
  0.8053205952536975  0.8375345884377484  0.6118907799368396
  0.7847560244270113  0.5134230824998514  0.5301230135124705
  0.4018211091181447  0.0032229907050921  0.5832125093798501
  0.9400602205604471  0.8206000252277112 -0.0014694857839687
  0.1444982002219471  0.2160747294190092  0.8566728133844699
  0.1167673436933578  0.0771178764182632  0.1538410270005529
  0.4794932723495579  0.2148936160312270  0.1149238240573202
  0.3146560306675216  0.5144022924467460  0.0139152111030748
  0.6695003204775132  0.4708347831640545  0.9673735209714525
  0.8761795603937420 -0.0000408991979460  0.1756048630652975
  0.5005175393942425  0.5245712208936166  0.6148814361467920
  0.1713892085133612  0.4205977433804097  0.2519750979384958
  0.6655344287231305  0.2631449343053269  0.2604497436486639
  0.3840158612996684  0.1109917279821021  0.2996080150059007
  0.5422989277241296  0.0319645339506370  0.8955713086875010
  0.3872979313436249  0.6293650586653887  0.4826587427248779
  0.2515344264119287  0.7458893087691187  0.3397759535362526
  0.9515405570641576  0.7684013432346221  0.2187551395002562
  0.1564248376038567  0.1595661802245309  0.5533778281217627
  0.0720896475292322  0.5553026039198756  0.7278338991554236
  0.0374791482791217  0.8536543586760537  0.6829610150068459
  0.1258072310308078  0.6905627905034867  0.5034386271649834
  0.9720111981588788  0.3399993999433983  0.2269416637455234
  0.4768663131124600  0.9598053131823355  0.0668092893155383
  0.7072504099295472  0.8426945417814024  0.8647206970755746
  0.2402572459787748  0.4530074233226944  0.6883846103095606
  0.4820939142708122  0.4661555793105316  0.4050252563605404
  0.2972823072003854  0.2706570358375964  0.0854703397292227
  0.9072899219619375  0.2821595598015912  0.6490839973760981
  0.8871203400849700  0.5597144745274287  0.3414849243497762
  0.2361010499059576  0.7795547812977347  0.1293170294248941
  0.9293708873334935  0.7113959845808059  0.7228275584035884
  0.8794891961229729  0.5028716627740857  0.7694501591538152
  0.1071082957169848  0.6167966716037909  0.1505695143089435
  0.6880487602884896  0.2940675984971162  0.6598482456654083
  0.1458730688551965  0.4049798180751991  0.9467521877272435
  0.8592939563881085  0.6889732755987306  0.8865397911909980
  0.5403863683790143  0.0023385460175755  0.3851512621796229
  0.5603485142119351  0.5862110276197122  0.2929608478199375
  0.4255666005130027  0.5969092035074371  0.1656956762033526
  0.7766824212369923  0.6323352921234222  0.2206185794703134
  0.9215979317381966  0.1145177972709653  0.7951716404976985
  0.5764209832685681  0.0837510622632119  0.2088442298188075
 
  0.00000000E+00  0.00000000E+00  0.00000000E+00
  0.00000000E+00  0.00000000E+00  0.00000000E+00
  0.00000000E+00  0.00000000E+00  0.00000000E+00
  0.00000000E+00  0.00000000E+00  0.00000000E+00
  0.00000000E+00  0.00000000E+00  0.00000000E+00
  0.00000000E+00  0.00000000E+00  0.00000000E+00
  0.00000000E+00  0.00000000E+00  0.00000000E+00
  0.00000000E+00  0.00000000E+00  0.00000000E+00
  0.00000000E+00  0.00000000E+00  0.00000000E+00
  0.00000000E+00  0.00000000E+00  0.00000000E+00
  0.00000000E+00  0.00000000E+00  0.00000000E+00
  0.00000000E+00  0.00000000E+00  0.00000000E+00
  0.00000000E+00  0.00000000E+00  0.00000000E+00
  0.00000000E+00  0.00000000E+00  0.00000000E+00
  0.00000000E+00  0.00000000E+00  0.00000000E+00
  0.00000000E+00  0.00000000E+00  0.00000000E+00
  0.00000000E+00  0.00000000E+00  0.00000000E+00
  0.00000000E+00  0.00000000E+00  0.00000000E+00
  0.00000000E+00  0.00000000E+00  0.00000000E+00
  0.00000000E+00  0.00000000E+00  0.00000000E+00
  0.00000000E+00  0.00000000E+00  0.00000000E+00
  0.00000000E+00  0.00000000E+00  0.00000000E+00
  0.00000000E+00  0.00000000E+00  0.00000000E+00
  0.00000000E+00  0.00000000E+00  0.00000000E+00
  0.00000000E+00  0.00000000E+00  0.00000000E+00
  0.00000000E+00  0.00000000E+00  0.00000000E+00
  0.00000000E+00  0.00000000E+00  0.00000000E+00
  0.00000000E+00  0.00000000E+00  0.00000000E+00
  0.00000000E+00  0.00000000E+00  0.00000000E+00
  0.00000000E+00  0.00000000E+00  0.00000000E+00
  0.00000000E+00  0.00000000E+00  0.00000000E+00
  0.00000000E+00  0.00000000E+00  0.00000000E+00
  0.00000000E+00  0.00000000E+00  0.00000000E+00
  0.00000000E+00  0.00000000E+00  0.00000000E+00
  0.00000000E+00  0.00000000E+00  0.00000000E+00
  0.00000000E+00  0.00000000E+00  0.00000000E+00
  0.00000000E+00  0.00000000E+00  0.00000000E+00
  0.00000000E+00  0.00000000E+00  0.00000000E+00
  0.00000000E+00  0.00000000E+00  0.00000000E+00
  0.00000000E+00  0.00000000E+00  0.00000000E+00
  0.00000000E+00  0.00000000E+00  0.00000000E+00
  0.00000000E+00  0.00000000E+00  0.00000000E+00
  0.00000000E+00  0.00000000E+00  0.00000000E+00
  0.00000000E+00  0.00000000E+00  0.00000000E+00
  0.00000000E+00  0.00000000E+00  0.00000000E+00
  0.00000000E+00  0.00000000E+00  0.00000000E+00
  0.00000000E+00  0.00000000E+00  0.00000000E+00
  0.00000000E+00  0.00000000E+00  0.00000000E+00
  0.00000000E+00  0.00000000E+00  0.00000000E+00
  0.00000000E+00  0.00000000E+00  0.00000000E+00
  0.00000000E+00  0.00000000E+00  0.00000000E+00
  0.00000000E+00  0.00000000E+00  0.00000000E+00
  0.00000000E+00  0.00000000E+00  0.00000000E+00
  0.00000000E+00  0.00000000E+00  0.00000000E+00
  0.00000000E+00  0.00000000E+00  0.00000000E+00
  0.00000000E+00  0.00000000E+00  0.00000000E+00
  0.00000000E+00  0.00000000E+00  0.00000000E+00
  0.00000000E+00  0.00000000E+00  0.00000000E+00
  0.00000000E+00  0.00000000E+00  0.00000000E+00
  0.00000000E+00  0.00000000E+00  0.00000000E+00
  0.00000000E+00  0.00000000E+00  0.00000000E+00
  0.00000000E+00  0.00000000E+00  0.00000000E+00
  0.00000000E+00  0.00000000E+00  0.00000000E+00
  0.00000000E+00  0.00000000E+00  0.00000000E+00
  0.00000000E+00  0.00000000E+00  0.00000000E+00
  0.00000000E+00  0.00000000E+00  0.00000000E+00
  0.00000000E+00  0.00000000E+00  0.00000000E+00
  0.00000000E+00  0.00000000E+00  0.00000000E+00
  0.00000000E+00  0.00000000E+00  0.00000000E+00
  0.00000000E+00  0.00000000E+00  0.00000000E+00
  0.00000000E+00  0.00000000E+00  0.00000000E+00
  0.00000000E+00  0.00000000E+00  0.00000000E+00
  0.00000000E+00  0.00000000E+00  0.00000000E+00
  0.00000000E+00  0.00000000E+00  0.00000000E+00
  0.00000000E+00  0.00000000E+00  0.00000000E+00
  0.00000000E+00  0.00000000E+00  0.00000000E+00
  0.00000000E+00  0.00000000E+00  0.00000000E+00
  0.00000000E+00  0.00000000E+00  0.00000000E+00
  0.00000000E+00  0.00000000E+00  0.00000000E+00
  0.00000000E+00  0.00000000E+00  0.00000000E+00
  0.00000000E+00  0.00000000E+00  0.00000000E+00
  0.00000000E+00  0.00000000E+00  0.00000000E+00
  0.00000000E+00  0.00000000E+00  0.00000000E+00
  0.00000000E+00  0.00000000E+00  0.00000000E+00
  0.00000000E+00  0.00000000E+00  0.00000000E+00
  0.00000000E+00  0.00000000E+00  0.00000000E+00
  0.00000000E+00  0.00000000E+00  0.00000000E+00
  0.00000000E+00  0.00000000E+00  0.00000000E+00
  0.00000000E+00  0.00000000E+00  0.00000000E+00
  0.00000000E+00  0.00000000E+00  0.00000000E+00
  0.00000000E+00  0.00000000E+00  0.00000000E+00
  0.00000000E+00  0.00000000E+00  0.00000000E+00
  0.00000000E+00  0.00000000E+00  0.00000000E+00
  0.00000000E+00  0.00000000E+00  0.00000000E+00
  0.00000000E+00  0.00000000E+00  0.00000000E+00
  0.00000000E+00  0.00000000E+00  0.00000000E+00
  0.00000000E+00  0.00000000E+00  0.00000000E+00
  0.00000000E+00  0.00000000E+00  0.00000000E+00
  0.00000000E+00  0.00000000E+00  0.00000000E+00
  0.00000000E+00  0.00000000E+00  0.00000000E+00
  0.00000000E+00  0.00000000E+00  0.00000000E+00
  0.00000000E+00  0.00000000E+00  0.00000000E+00
  0.00000000E+00  0.00000000E+00  0.00000000E+00
  0.00000000E+00  0.00000000E+00  0.00000000E+00
  0.00000000E+00  0.00000000E+00  0.00000000E+00
  0.00000000E+00  0.00000000E+00  0.00000000E+00
  0.00000000E+00  0.00000000E+00  0.00000000E+00
  0.00000000E+00  0.00000000E+00  0.00000000E+00
  0.00000000E+00  0.00000000E+00  0.00000000E+00
  0.00000000E+00  0.00000000E+00  0.00000000E+00
  0.00000000E+00  0.00000000E+00  0.00000000E+00
  0.00000000E+00  0.00000000E+00  0.00000000E+00
  0.00000000E+00  0.00000000E+00  0.00000000E+00
  0.00000000E+00  0.00000000E+00  0.00000000E+00
  0.00000000E+00  0.00000000E+00  0.00000000E+00
  0.00000000E+00  0.00000000E+00  0.00000000E+00
  0.00000000E+00  0.00000000E+00  0.00000000E+00
  0.00000000E+00  0.00000000E+00  0.00000000E+00
  0.00000000E+00  0.00000000E+00  0.00000000E+00
  0.00000000E+00  0.00000000E+00  0.00000000E+00
  0.00000000E+00  0.00000000E+00  0.00000000E+00
  0.00000000E+00  0.00000000E+00  0.00000000E+00
  0.00000000E+00  0.00000000E+00  0.00000000E+00
  0.00000000E+00  0.00000000E+00  0.00000000E+00
  0.00000000E+00  0.00000000E+00  0.00000000E+00
  0.00000000E+00  0.00000000E+00  0.00000000E+00
  0.00000000E+00  0.00000000E+00  0.00000000E+00
  0.00000000E+00  0.00000000E+00  0.00000000E+00
  0.00000000E+00  0.00000000E+00  0.00000000E+00
  0.00000000E+00  0.00000000E+00  0.00000000E+00
  0.00000000E+00  0.00000000E+00  0.00000000E+00
  0.00000000E+00  0.00000000E+00  0.00000000E+00
  0.00000000E+00  0.00000000E+00  0.00000000E+00
  0.00000000E+00  0.00000000E+00  0.00000000E+00
  0.00000000E+00  0.00000000E+00  0.00000000E+00
  0.00000000E+00  0.00000000E+00  0.00000000E+00
  0.00000000E+00  0.00000000E+00  0.00000000E+00
  0.00000000E+00  0.00000000E+00  0.00000000E+00
  0.00000000E+00  0.00000000E+00  0.00000000E+00
  0.00000000E+00  0.00000000E+00  0.00000000E+00
  0.00000000E+00  0.00000000E+00  0.00000000E+00
  0.00000000E+00  0.00000000E+00  0.00000000E+00
  0.00000000E+00  0.00000000E+00  0.00000000E+00
  0.00000000E+00  0.00000000E+00  0.00000000E+00
  0.00000000E+00  0.00000000E+00  0.00000000E+00
  0.00000000E+00  0.00000000E+00  0.00000000E+00
  0.00000000E+00  0.00000000E+00  0.00000000E+00
  0.00000000E+00  0.00000000E+00  0.00000000E+00
  0.00000000E+00  0.00000000E+00  0.00000000E+00
  0.00000000E+00  0.00000000E+00  0.00000000E+00
  0.00000000E+00  0.00000000E+00  0.00000000E+00
  0.00000000E+00  0.00000000E+00  0.00000000E+00
  0.00000000E+00  0.00000000E+00  0.00000000E+00
  0.00000000E+00  0.00000000E+00  0.00000000E+00
  0.00000000E+00  0.00000000E+00  0.00000000E+00
  0.00000000E+00  0.00000000E+00  0.00000000E+00
  0.00000000E+00  0.00000000E+00  0.00000000E+00
  0.00000000E+00  0.00000000E+00  0.00000000E+00
  0.00000000E+00  0.00000000E+00  0.00000000E+00
  0.00000000E+00  0.00000000E+00  0.00000000E+00
  0.00000000E+00  0.00000000E+00  0.00000000E+00
  0.00000000E+00  0.00000000E+00  0.00000000E+00
  0.00000000E+00  0.00000000E+00  0.00000000E+00
  0.00000000E+00  0.00000000E+00  0.00000000E+00
  0.00000000E+00  0.00000000E+00  0.00000000E+00
  0.00000000E+00  0.00000000E+00  0.00000000E+00
  0.00000000E+00  0.00000000E+00  0.00000000E+00
  0.00000000E+00  0.00000000E+00  0.00000000E+00
  0.00000000E+00  0.00000000E+00  0.00000000E+00
  0.00000000E+00  0.00000000E+00  0.00000000E+00
  0.00000000E+00  0.00000000E+00  0.00000000E+00
  0.00000000E+00  0.00000000E+00  0.00000000E+00
  0.00000000E+00  0.00000000E+00  0.00000000E+00
  0.00000000E+00  0.00000000E+00  0.00000000E+00
  0.00000000E+00  0.00000000E+00  0.00000000E+00
  0.00000000E+00  0.00000000E+00  0.00000000E+00
  0.00000000E+00  0.00000000E+00  0.00000000E+00
  0.00000000E+00  0.00000000E+00  0.00000000E+00
  0.00000000E+00  0.00000000E+00  0.00000000E+00
  0.00000000E+00  0.00000000E+00  0.00000000E+00
  0.00000000E+00  0.00000000E+00  0.00000000E+00
  0.00000000E+00  0.00000000E+00  0.00000000E+00
  0.00000000E+00  0.00000000E+00  0.00000000E+00
  0.00000000E+00  0.00000000E+00  0.00000000E+00
  0.00000000E+00  0.00000000E+00  0.00000000E+00
  0.00000000E+00  0.00000000E+00  0.00000000E+00
  0.00000000E+00  0.00000000E+00  0.00000000E+00
  0.00000000E+00  0.00000000E+00  0.00000000E+00
  0.00000000E+00  0.00000000E+00  0.00000000E+00
  0.00000000E+00  0.00000000E+00  0.00000000E+00
  0.00000000E+00  0.00000000E+00  0.00000000E+00
  0.00000000E+00  0.00000000E+00  0.00000000E+00
  0.00000000E+00  0.00000000E+00  0.00000000E+00
  0.00000000E+00  0.00000000E+00  0.00000000E+00
  0.00000000E+00  0.00000000E+00  0.00000000E+00
  0.00000000E+00  0.00000000E+00  0.00000000E+00
  0.00000000E+00  0.00000000E+00  0.00000000E+00
  0.00000000E+00  0.00000000E+00  0.00000000E+00
  0.00000000E+00  0.00000000E+00  0.00000000E+00
  0.00000000E+00  0.00000000E+00  0.00000000E+00
  0.00000000E+00  0.00000000E+00  0.00000000E+00
  0.00000000E+00  0.00000000E+00  0.00000000E+00
  0.00000000E+00  0.00000000E+00  0.00000000E+00
  0.00000000E+00  0.00000000E+00  0.00000000E+00
  0.00000000E+00  0.00000000E+00  0.00000000E+00
  0.00000000E+00  0.00000000E+00  0.00000000E+00
  0.00000000E+00  0.00000000E+00  0.00000000E+00
  0.00000000E+00  0.00000000E+00  0.00000000E+00
  0.00000000E+00  0.00000000E+00  0.00000000E+00
  0.00000000E+00  0.00000000E+00  0.00000000E+00
  0.00000000E+00  0.00000000E+00  0.00000000E+00
  0.00000000E+00  0.00000000E+00  0.00000000E+00
  0.00000000E+00  0.00000000E+00  0.00000000E+00
  0.00000000E+00  0.00000000E+00  0.00000000E+00
  0.00000000E+00  0.00000000E+00  0.00000000E+00
  0.00000000E+00  0.00000000E+00  0.00000000E+00
  0.00000000E+00  0.00000000E+00  0.00000000E+00
  0.00000000E+00  0.00000000E+00  0.00000000E+00
  0.00000000E+00  0.00000000E+00  0.00000000E+00
  0.00000000E+00  0.00000000E+00  0.00000000E+00
  0.00000000E+00  0.00000000E+00  0.00000000E+00
  0.00000000E+00  0.00000000E+00  0.00000000E+00
  0.00000000E+00  0.00000000E+00  0.00000000E+00
  0.00000000E+00  0.00000000E+00  0.00000000E+00
  0.00000000E+00  0.00000000E+00  0.00000000E+00
  0.00000000E+00  0.00000000E+00  0.00000000E+00
  0.00000000E+00  0.00000000E+00  0.00000000E+00
  0.00000000E+00  0.00000000E+00  0.00000000E+00
  0.00000000E+00  0.00000000E+00  0.00000000E+00
  0.00000000E+00  0.00000000E+00  0.00000000E+00
  0.00000000E+00  0.00000000E+00  0.00000000E+00
  0.00000000E+00  0.00000000E+00  0.00000000E+00
  0.00000000E+00  0.00000000E+00  0.00000000E+00
  0.00000000E+00  0.00000000E+00  0.00000000E+00
  0.00000000E+00  0.00000000E+00  0.00000000E+00
  0.00000000E+00  0.00000000E+00  0.00000000E+00
  0.00000000E+00  0.00000000E+00  0.00000000E+00
  0.00000000E+00  0.00000000E+00  0.00000000E+00
  0.00000000E+00  0.00000000E+00  0.00000000E+00
  0.00000000E+00  0.00000000E+00  0.00000000E+00
