Amorphous Sb                            
   1.00000000000000     
    20.9858902478061466    0.0000000000000000    0.0000000000000000
     0.0000000000000000   20.9858902478061466    0.0000000000000000
     0.0000000000000000    0.0000000000000000   20.9858902478061466
   Ge   Te   Se
   150   105    45
Direct
  0.2108428408614072  0.0404324177907734  0.8157254330637030
  0.9650813467988817  0.2312828377875797  0.3221034553811830
  0.4961867687684344  0.9249483510260844  0.2593367829861183
  0.5204297917643417  0.7862213564899859  0.0901252708481013
  0.3293374604559852  0.7443461495601127  0.9888417627021083
  0.6426094525124794  0.0684604747251869  0.8277616026313944
  0.9400446928603977  0.8493289574866434  0.9928439733493343
  0.7409815198013093  0.3615398618523899  0.9274544006441635
  0.1640581902629214  0.8626705759753156  0.0688212379735224
  0.1138138930103358  0.6735320105556941  0.0172610325980525
  0.3209292621569751  0.9872127860726841  0.8384983758233224
  0.2932270108999159  0.7715745366929084  0.8710728207049419
  0.1137387297880891  0.9081090954250601  0.8064257939684651
  0.7309394710039178  0.7216674258245598  0.3145282608295041
  0.7999472375899612  0.7987434556509921  0.6732991047820901
  0.4891666875318130  0.0450805127311707  0.4487257233021716
  0.2618369464769749  0.6428705702440402  0.8687454741865965
  0.2378009875323316  0.0436646851960742  0.0311524698800093
  0.1161874790337128  0.4357540989722724  0.1525308434093267
  0.6197856753706759  0.0643017747957246  0.6269674481651522
  0.6888785610624187  0.0716769923144137  0.3959096069531352
  0.2551101294309089  0.3553516446129774  0.7177396134758440
  0.9663455033413679  0.1991523994746354  0.6300200970359775
  0.8313457391817793  0.0278779985903331  0.6147160623502830
  0.7224194824748645  0.8297130796330288  0.9725826290218486
  0.0956991906978400  0.1458309056022061  0.3259489894595899
  0.2943942423945834  0.4873293632617632  0.4157525268716308
  0.3865588520784214  0.8614890055302813  0.5845143292546631
  0.4542407593543323  0.9704455342690864  0.0473014166392512
  0.3052125702467033  0.5636001692903165  0.6126583694597264
  0.0700632133489948  0.3285869977714512  0.9873007402948887
  0.4735446600341716  0.2966362813666737  0.0853196674804173
  0.8360449243604767  0.3378169692074062  0.7925492429505233
  0.6400828571372816  0.4489129393184716  0.8712371240623019
  0.6377554375045313  0.6423607583219445  0.9650422459135931
  0.3606967640381881  0.8978059319955648  0.0716380543110000
  0.4171637077982296  0.2505989947722114  0.9842870009279523
  0.9834652370589565  0.0493643796092286  0.4817047452214243
  0.5879758346532727  0.2844057958301446  0.0331766622768390
  0.5550226799759672  0.7057002231409314  0.7273359147273554
  0.0396217532527468  0.5221798988943636  0.0914679874635669
  0.8152504153592769  0.7868516388189581  0.1621153191267767
  0.5833358808749388  0.8387967031076228  0.5865674896339053
  0.7497588064489038  0.4673834129148602  0.5196609401789140
  0.4895821115768380  0.0461157050245074  0.2910398033754671
  0.4008497140500383  0.6131830009823810  0.3000954594417610
  0.3797195989667106  0.6363335805253652  0.0216154645299883
  0.4463807956550226  0.2042562217275155  0.2789452767027988
  0.6252611004859748  0.4538181702414551  0.5146240362696073
  0.5828960786486586  0.5701083506797583  0.3014703479916577
  0.5251738539348613  0.5773945297423309  0.8944353909950911
  0.9542182445257682  0.1899211875770346  0.2050820571815228
  0.7833991398359592  0.5987147784648514  0.5804757467675101
  0.6336126327625023  0.3830658880799304  0.2017850868469186
  0.4379309020432182  0.1380474208407585  0.7551537746017285
  0.7991891536277391  0.9377023846878207  0.9032321548076174
  0.3270993090063287  0.3179168103268333  0.5456351789639461
  0.8701693187010429  0.5341809486657296  0.4047360442915989
  0.6205897971476569  0.9162562011983101  0.9658910113848959
  0.8512913447111139  0.4003715923826100  0.6864910510104788
  0.1065583767017168  0.1882386167862524  0.0433181764375371
  0.8279943170436349  0.6097942708801410  0.9906847779827396
  0.0533544430321484  0.4955988253702448  0.3389052317280723
  0.4615011099026703  0.3609524164545640  0.9401449435195010
  0.6386542020294683  0.6020041198680950  0.6160240408592994
  0.2565463196402805  0.9220176935025477  0.0137794604811723
  0.3387708457111753  0.6742371887453463  0.4485619037233973
  0.9772796903925564  0.3304916633149579  0.1184815342429250
  0.1348686643081863  0.7019031131664769  0.3914192094294598
  0.1207651585759502  0.1848689583060455  0.5673869534082371
  0.2441998814651952  0.2254071968377170  0.0857352231137295
  0.3105397035637512  0.3870922352408463  0.0964336556453276
  0.7404812063031109  0.6377326313229125  0.4703768494980582
  0.3245339395178259  0.8442695064317827  0.1786625578185932
  0.3855730909490554  0.1967376982336933  0.8553772551655185
  0.0995502245308361  0.4309858796285677  0.8377332339151353
  0.2001002355842263  0.7020832871112881  0.2341884800307293
  0.6679422838684514  0.4746499263136543  0.1089418448389676
  0.6723163711687468  0.0284218376390493 -0.0081751611400521
  0.3698579990034147  0.2841890637368522  0.3553357493392787
  0.0602043858010038  0.3054537982011627  0.3500367149253054
  0.0236231797070061  0.7261422836058945  0.3549776588104443
  0.9592733109757288  0.6223168061690193  0.4948483403515078
  0.2119002889119864  0.5981774153877404  0.1526630560701068
  0.6420502604003570  0.9486751390383795  0.5076158285350620
  0.5202703834282923  0.6299231550953167  0.1690328877018099
  0.9365091903062234  0.6434109921070793  0.3691906837103076
  0.9424741490044621  0.6495585028488033  0.6998484089585478
  0.2257515837459084  0.9199674207174485  0.6090580528266187
  0.9763545284046282  0.1810383457138589  0.0241139168757834
  0.0300544194480585  0.9756014454772348  0.2854467647779687
  0.7361018667437297  0.5241022868650682  0.8210913434291065
  0.9889628171938798  0.8787543563923046  0.8251670197044046
  0.9570246876332361  0.9087956245459187  0.3875102843999138
  0.1254410937335187  0.1463638447817775  0.9190518881986703
  0.8545176318239317  0.7219473198151429  0.3191282625796616
  0.5959179679136917  0.2135331498753301  0.2235733370382396
  0.2045094838750425  0.3084016702574409  0.2459616524673208
  0.4103243976757461  0.3932545946980995  0.4889759556482138
  0.0093239225713264  0.5213764318632802  0.7497800204107392
  0.9161012661825827  0.9787160166870112  0.1060197051248838
  0.5838248808328305  0.3787294518459864  0.9566100501203979
  0.3475588081661661  0.9152906298920266  0.3593678857609235
  0.0259922480473183  0.3286005446909082  0.6249339462262156
  0.1036067442577025  0.7716545168741429  0.6441829702715067
  0.4970415880463994  0.7301909148274455  0.5699946703202420
  0.5581354214785363  0.3120782947321027  0.5979246089676722
  0.1053714317853946  0.4602184183526698  0.4924960807588687
  0.9295060466260354  0.5385083882622841  0.9459132365099024
  0.6865078814385026  0.3151917196018334  0.3710748014384014
  0.0558638356487073  0.7123875418751054  0.8085155945554355
  0.7404456743344352  0.2389266352787314  0.6432379277273750
  0.4115463581486403  0.1085421169681229  0.3758039830179435
  0.1793936238887719  0.1586601253936772  0.8071209240071279
  0.1114287140340360  0.2210237303549746  0.7208107288514376
  0.3744524655291479  0.4329799873696235  0.9843997317457673
  0.1768679839497740  0.0930507031672998  0.1841839505586701
  0.8887797250067908  0.0938669989767188  0.8084406749832390
  0.1530420989119883  0.2405519858220643  0.4124065879237099
  0.8576842468260583  0.4656686226638971  0.0314732692918563
  0.5726338609373015  0.0842409927261583  0.3700007940021103
  0.6650162231669848  0.7390759573496960  0.4606001347398809
  0.3486941358092809  0.0097661907174300  0.5081716166106968
  0.1381539303119791  0.4851362660995188  0.6731991917999548
  0.3573737417575036  0.0846699804323238  0.9143204670837441
  0.7923108919733293  0.9047459297354205  0.3449735592606749
  0.7504728988011153  0.2330613918737072  0.8878369741283055
  0.8545751604139034  0.1168540715196753  0.2028117913651389
  0.8350153579671128  0.7363662303560277  0.4569438360169042
  0.4940394718010873  0.7602863470626628  0.4042523982956550
  0.9986835991166186  0.2310118858863333  0.7871306267019947
  0.8268485089665504  0.7182502157501252  0.0488596074447202
  0.4714792351254734  0.7404276537240398  0.1967732196103844
  0.6645092597259783  0.2665887910823263  0.8071582497288674
  0.2911850402384226  0.1477534927125270  0.6859809784828885
  0.2162257874631916  0.6978372796773940  0.4853549225381548
  0.8376795664501383  0.6838150814148151  0.8147107275179848
  0.6588632581123242  0.6730502536118647  0.7927486551229425
  0.8998508958266485  0.5148945780189409  0.6874666059533482
  0.3576879693406994  0.7115238809876209  0.2377168882629941
  0.8255141365426081  0.2549925151060945  0.0701102247402760
  0.1128108658129845  0.8572507706889481  0.2546429648068154
  0.6397866899124672  0.2125457306724898  0.9480729753163887
  0.7431124965626836  0.4538729388390367  0.3174227151692827
  0.7629574297961856  0.1175274658722349  0.8285110483593772
  0.7170061299960642  0.9626701288979875  0.1592961829748285
  0.3938500077568006  0.9084438155047826  0.7658428013277954
  0.2355562160628970  0.4111563662206882  0.9349415979192476
  0.9937464361242740  0.7050981007909267  0.2349076223372207
  0.6796725014254519  0.4747969631048145  0.6911604257976848
  0.1971634093895131  0.3470816191297287  0.4755579626128308
  0.7245237326741664  0.8362486190443198  0.2506799404973061
  0.1165325301188048  0.0559660547014424  0.0754612073622405
  0.8947083628060620  0.2464385713012396  0.4194093852057525
  0.8838387917846996  0.9691110661494613  0.4745267239265176
  0.2454463868052956  0.0537956089583118  0.5803369329911943
  0.4281540652291720  0.3217643931331323  0.8235586026724461
  0.9365930270373908  0.5425645140405628  0.2905298694478079
  0.5454820048227577  0.7903427287677550  0.2864506477565862
  0.5006852016172220  0.9504420468954370  0.9318952969549481
  0.7894383310466223  0.3857859932582269  0.4244210182189397
  0.0072452988739492  0.4014718515001043  0.4206618760821655
  0.9760273830918885  0.0921920527942302  0.3403225561641536
  0.0714113231707208  0.9557925694921032  0.5642518132387190
  0.5051974704766490  0.1196560090284390  0.1884920333997044
  0.5237915252127997  0.9959259163807330  0.5604147884134242
  0.7990433059013038  0.6628733336081275  0.2165894565204016
  0.1959338039627567  0.8039484410927681  0.3385980329621332
  0.3977046288923474  0.5491254542830160  0.9285258509124052
  0.2108783665706415  0.2584018164940493  0.6221729584731748
  0.6818132412987912  0.0799652091188855  0.1062146669088345
  0.6689221676655285  0.9312649296114230  0.6356590252001317
  0.4696335186075615  0.6755193275266778  0.8226893322468659
  0.3181608080772727  0.2821904471056325  0.1808616484493795
  0.0083354665893012  0.8582519784983781  0.6314289171240540
  0.9907326689890890  0.1512247566923889  0.8937891287138878
  0.0409687785475682  0.8048248305899495  0.9180563815861027
  0.1729018116091079  0.1199538711673477  0.4730625649049958
  0.9170923686060434  0.8122732594013745  0.2451037552032367
  0.6770038553570660  0.2431754425314840  0.5262583658263215
  0.5057317985686527  0.6531875848455652  0.0428192079980690
  0.6023918886242592  0.7425067986280071  0.8868516038270473
  0.8305137561424887  0.4440727866288001  0.8717460303800736
  0.3922158015236296  0.2308157050503181  0.4697518895857752
  0.0727105112491831  0.6499413967956479  0.6730639271650458
  0.9587562502778727  0.7909328592794149  0.4468032265846363
  0.5355453505327957  0.4865772727060799  0.8051025858085342
  0.9081764559289156  0.9966467696461870  0.7227266830462572
  0.5534009405993355  0.2104509898466321  0.3586572719361130
  0.3663696671503361  0.7286773075870059  0.5678895980983130
  0.2308842061295185  0.8864837791461431  0.8930788033928085
  0.5117482664443941  0.6202439712297799  0.6425030250997170
  0.4751514347342043  0.5281355533025873  0.2347642518591505
  0.9798224103299478  0.6303871606073810  0.0270679833781029
  0.9320984537845831  0.9569511434490758  0.9156026833793249
  0.4219687407832705  0.3236775946986543  0.6444541468996694
  0.8722885613739861  0.1099835486008304  0.0722304368368249
  0.6155791942914429  0.5833880022128900  0.4886689457035246
  0.2533949251386395  0.2226857874705556  0.3314383162648400
  0.2124531878532953  0.5084881244345211  0.8395149003325646
  0.1241580935272704  0.0178819247204339  0.9084326769654415
  0.4755102846678383  0.6269258906858702  0.4027476547102012
  0.8571065615307856  0.7082006405410781  0.5898931087343221
  0.5606527957855729  0.1853158082410305  0.5501612353645547
  0.1533235325752962  0.0313780513386024  0.2936166700911305
  0.7875925817442919  0.9008684678619454  0.0640796838272265
  0.2964391438012288  0.0932467328255553  0.1364316063288667
  0.1179808126189876  0.2062288789661662  0.1950512013373565
  0.3420235107569164  0.5906958498554171  0.1324419904564236
  0.1966130043556841  0.4193292797525739  0.3573273138682012
  0.7339989930813049  0.1550513820872530  0.2329219634753076
  0.8452565833590874  0.7782091485450844  0.9329072589124519
  0.0948298634955041  0.7587179879391454  0.1696813497861016
  0.5416227295728108  0.9284696415547480  0.1298640623155730
  0.4130990660220203  0.5159618007919516  0.5388624914124986
  0.2785126246135931  0.6646369275740994  0.7422692506660454
  0.8931353181101521  0.1255430042405339  0.5525614930632395
  0.6726673372085691  0.2811898481036242  0.1231497169779600
  0.9266639213717007  0.4502756107736210  0.1381508974290739
  0.2057860987177619  0.5795772405666679  0.5293361934544046
  0.4224087296656738  0.4595792717713891  0.6608648084703055
  0.5032779190055768  0.3113549150764453  0.2133320778445461
  0.6414428550715028  0.5904390779117868  0.1763030969568532
  0.1321402034087920  0.6412095837609528  0.8887110059613734
  0.0313188780959817  0.2545864128046572  0.5110385906139777
  0.3131998965712154  0.4160470590852930  0.8253907230550475
  0.9004128092379108  0.3326959142460779  0.5922622325039596
  0.2099745256580803  0.9124886275010040  0.1817676932474464
  0.6133325747915654  0.4478463979625275  0.3362617448765469
  0.7544128132384145  0.8379978768638580  0.4591544945788046
  0.5422180211577187  0.0561419393325245  0.7449806530036496
  0.0415303250255416  0.4589845460309334  0.9774441040503213
  0.7491092935242926  0.1101645922638696  0.6800157782387196
  0.7578280545972398  0.1792505607981188  0.3633724564582360
  0.0792005982685045  0.9308357125384283  0.4333724252592165
  0.6950604890138832  0.7295003376175299  0.0549842351983778
  0.7858472239242343  0.9542263178251381  0.7742252577513593
  0.8885230474099752  0.5224069500721097  0.5544883156767556
  0.3694855332967042  0.7708393864588117  0.3608832340446432
  0.5366620236190282  0.3647672171842766  0.4738302943017466
  0.3047829465487643  0.0417970329332579  0.3876501454269818
  0.8401220331754458  0.9896244957986172  0.2132644529419550
  0.6487031707311006  0.9390599077513090  0.8385320455277496
  0.6236537700333024  0.2228647241711073  0.6990323662876879
  0.1582361173216945  0.7928371353443161  0.7586774251578126
  0.4157055370383966  0.0929909530372169  0.0319624612020710
  0.2386022154422159  0.7512992296870754  0.0772113846130575
  0.2210889797824107  0.4772185593969324  0.2098892631070270
  0.6714893263320555  0.7381164385814482  0.5950648122990836
  0.9664473005434892  0.3517204520910336  0.8082203155923305
  0.9194884455915303  0.7784423284324127  0.7453042650377588
  0.4687370493132401  0.9238371351802884  0.4091848083533368
  0.0409670550656501  0.3756334172692180  0.2405225526298132
  0.1664109877453849  0.3448982559936324  0.0756887872008334
  0.2513753454105014  0.4429785424869088  0.6151571117846681
  0.0716636748263455  0.1240692750547143  0.6555528799040483
  0.5664767854922677  0.2557136984012220  0.8672989193842396
  0.3948752275144258  0.8176117723684078  0.8400754069981599
  0.1482917735283139  0.3326267105230877  0.8921362624089726
  0.7490975817758481  0.4004432025617338  0.6225399046307225
  0.4229085029202398  0.8128905558728923  0.0183553870790861
  0.1362227389170193  0.6266338815484271  0.3020197949341161
  0.4343591742240341  0.4113857332558086  0.0907897906092108
  0.3868082578508772  0.6067075173880646  0.7525584599141610
  0.5837619421545066  0.4577022622009436  0.6247547088372678
  0.9222424543573838  0.2834220628985496  0.0032071517265523
  0.1678087648712079  0.5690695619300675  0.0470002183344229
  0.2805304922191663  0.2222146106157711  0.8002688821866178
  0.3835298351676499  0.4054729869913814  0.3742099039176390
  0.5055271183662573  0.8024272892282019  0.6744099339865458
  0.8973491038569580  0.1909692835558387  0.7371719549585587
  0.2975429324289715  0.5721618588726690  0.3297418018679875
  0.4046983095240029  0.1802861605960482  0.6501851592698051
  0.7450371226155275  0.7560637031177287  0.7750258708568541
  0.0463200797079410  0.4496453305097691  0.6001115261188855
  0.5947369690401548  0.1011272334960631  0.9352599130631434
  0.7673303505806810  0.5860207027392610  0.3681861105205637
  0.6964500230661149  0.9761075523355434  0.3318313112846949
  0.7806117456440640  0.3719152376458282  0.0412745691947399
  0.7746825002408666  0.0548215108193257  0.9364213868372541
  0.1825280461041603  0.7860601459303008  0.5605837103158340
  0.2999983175352584  0.8978667587781011  0.5059450515896083
  0.8810016357760223  0.2839254517136209  0.1789456294301174
  0.0181945070400402  0.9757476032080581  0.1676688131610059
  0.7776631685148735  0.5425263057836935  0.0745403277251225
 -0.0313549305983926  0.6044606590681232  0.8202379718748526
  0.3097294038809147  0.2965714204776071  0.0028711814727949
  0.7319002442086572  0.3414834032824455  0.2614478189637843
  0.1369076962091433  0.3783413866511607  0.7340478798391693
  0.8095796989016765  0.5808558758863455  0.7296081925588113
  0.7063447732875252  0.0512472884414122  0.5090110382952086
  0.6814572401287873  0.3814855454022735  0.7796533667819781
  0.0541224120235925  0.5676284740094960  0.4462186085628077
  0.2575828087345787  0.1338927095149768  0.9591326279528117
  0.7463152660680217  0.6203981320598860  0.8998077790973911
  0.3134584737702343  0.8671644463703841  0.6825836221643854
  0.3599190823811147  0.0526060385421306  0.7355240292487835
  0.1599033307131042  0.9827537973565539  0.7266217020596661
  0.3784185847273827  0.9380879374626471  0.2397745066785884
  0.5839728481006772  0.4764028621204165  0.0287339346783302
 
  0.00000000E+00  0.00000000E+00  0.00000000E+00
  0.00000000E+00  0.00000000E+00  0.00000000E+00
  0.00000000E+00  0.00000000E+00  0.00000000E+00
  0.00000000E+00  0.00000000E+00  0.00000000E+00
  0.00000000E+00  0.00000000E+00  0.00000000E+00
  0.00000000E+00  0.00000000E+00  0.00000000E+00
  0.00000000E+00  0.00000000E+00  0.00000000E+00
  0.00000000E+00  0.00000000E+00  0.00000000E+00
  0.00000000E+00  0.00000000E+00  0.00000000E+00
  0.00000000E+00  0.00000000E+00  0.00000000E+00
  0.00000000E+00  0.00000000E+00  0.00000000E+00
  0.00000000E+00  0.00000000E+00  0.00000000E+00
  0.00000000E+00  0.00000000E+00  0.00000000E+00
  0.00000000E+00  0.00000000E+00  0.00000000E+00
  0.00000000E+00  0.00000000E+00  0.00000000E+00
  0.00000000E+00  0.00000000E+00  0.00000000E+00
  0.00000000E+00  0.00000000E+00  0.00000000E+00
  0.00000000E+00  0.00000000E+00  0.00000000E+00
  0.00000000E+00  0.00000000E+00  0.00000000E+00
  0.00000000E+00  0.00000000E+00  0.00000000E+00
  0.00000000E+00  0.00000000E+00  0.00000000E+00
  0.00000000E+00  0.00000000E+00  0.00000000E+00
  0.00000000E+00  0.00000000E+00  0.00000000E+00
  0.00000000E+00  0.00000000E+00  0.00000000E+00
  0.00000000E+00  0.00000000E+00  0.00000000E+00
  0.00000000E+00  0.00000000E+00  0.00000000E+00
  0.00000000E+00  0.00000000E+00  0.00000000E+00
  0.00000000E+00  0.00000000E+00  0.00000000E+00
  0.00000000E+00  0.00000000E+00  0.00000000E+00
  0.00000000E+00  0.00000000E+00  0.00000000E+00
  0.00000000E+00  0.00000000E+00  0.00000000E+00
  0.00000000E+00  0.00000000E+00  0.00000000E+00
  0.00000000E+00  0.00000000E+00  0.00000000E+00
  0.00000000E+00  0.00000000E+00  0.00000000E+00
  0.00000000E+00  0.00000000E+00  0.00000000E+00
  0.00000000E+00  0.00000000E+00  0.00000000E+00
  0.00000000E+00  0.00000000E+00  0.00000000E+00
  0.00000000E+00  0.00000000E+00  0.00000000E+00
  0.00000000E+00  0.00000000E+00  0.00000000E+00
  0.00000000E+00  0.00000000E+00  0.00000000E+00
  0.00000000E+00  0.00000000E+00  0.00000000E+00
  0.00000000E+00  0.00000000E+00  0.00000000E+00
  0.00000000E+00  0.00000000E+00  0.00000000E+00
  0.00000000E+00  0.00000000E+00  0.00000000E+00
  0.00000000E+00  0.00000000E+00  0.00000000E+00
  0.00000000E+00  0.00000000E+00  0.00000000E+00
  0.00000000E+00  0.00000000E+00  0.00000000E+00
  0.00000000E+00  0.00000000E+00  0.00000000E+00
  0.00000000E+00  0.00000000E+00  0.00000000E+00
  0.00000000E+00  0.00000000E+00  0.00000000E+00
  0.00000000E+00  0.00000000E+00  0.00000000E+00
  0.00000000E+00  0.00000000E+00  0.00000000E+00
  0.00000000E+00  0.00000000E+00  0.00000000E+00
  0.00000000E+00  0.00000000E+00  0.00000000E+00
  0.00000000E+00  0.00000000E+00  0.00000000E+00
  0.00000000E+00  0.00000000E+00  0.00000000E+00
  0.00000000E+00  0.00000000E+00  0.00000000E+00
  0.00000000E+00  0.00000000E+00  0.00000000E+00
  0.00000000E+00  0.00000000E+00  0.00000000E+00
  0.00000000E+00  0.00000000E+00  0.00000000E+00
  0.00000000E+00  0.00000000E+00  0.00000000E+00
  0.00000000E+00  0.00000000E+00  0.00000000E+00
  0.00000000E+00  0.00000000E+00  0.00000000E+00
  0.00000000E+00  0.00000000E+00  0.00000000E+00
  0.00000000E+00  0.00000000E+00  0.00000000E+00
  0.00000000E+00  0.00000000E+00  0.00000000E+00
  0.00000000E+00  0.00000000E+00  0.00000000E+00
  0.00000000E+00  0.00000000E+00  0.00000000E+00
  0.00000000E+00  0.00000000E+00  0.00000000E+00
  0.00000000E+00  0.00000000E+00  0.00000000E+00
  0.00000000E+00  0.00000000E+00  0.00000000E+00
  0.00000000E+00  0.00000000E+00  0.00000000E+00
  0.00000000E+00  0.00000000E+00  0.00000000E+00
  0.00000000E+00  0.00000000E+00  0.00000000E+00
  0.00000000E+00  0.00000000E+00  0.00000000E+00
  0.00000000E+00  0.00000000E+00  0.00000000E+00
  0.00000000E+00  0.00000000E+00  0.00000000E+00
  0.00000000E+00  0.00000000E+00  0.00000000E+00
  0.00000000E+00  0.00000000E+00  0.00000000E+00
  0.00000000E+00  0.00000000E+00  0.00000000E+00
  0.00000000E+00  0.00000000E+00  0.00000000E+00
  0.00000000E+00  0.00000000E+00  0.00000000E+00
  0.00000000E+00  0.00000000E+00  0.00000000E+00
  0.00000000E+00  0.00000000E+00  0.00000000E+00
  0.00000000E+00  0.00000000E+00  0.00000000E+00
  0.00000000E+00  0.00000000E+00  0.00000000E+00
  0.00000000E+00  0.00000000E+00  0.00000000E+00
  0.00000000E+00  0.00000000E+00  0.00000000E+00
  0.00000000E+00  0.00000000E+00  0.00000000E+00
  0.00000000E+00  0.00000000E+00  0.00000000E+00
  0.00000000E+00  0.00000000E+00  0.00000000E+00
  0.00000000E+00  0.00000000E+00  0.00000000E+00
  0.00000000E+00  0.00000000E+00  0.00000000E+00
  0.00000000E+00  0.00000000E+00  0.00000000E+00
  0.00000000E+00  0.00000000E+00  0.00000000E+00
  0.00000000E+00  0.00000000E+00  0.00000000E+00
  0.00000000E+00  0.00000000E+00  0.00000000E+00
  0.00000000E+00  0.00000000E+00  0.00000000E+00
  0.00000000E+00  0.00000000E+00  0.00000000E+00
  0.00000000E+00  0.00000000E+00  0.00000000E+00
  0.00000000E+00  0.00000000E+00  0.00000000E+00
  0.00000000E+00  0.00000000E+00  0.00000000E+00
  0.00000000E+00  0.00000000E+00  0.00000000E+00
  0.00000000E+00  0.00000000E+00  0.00000000E+00
  0.00000000E+00  0.00000000E+00  0.00000000E+00
  0.00000000E+00  0.00000000E+00  0.00000000E+00
  0.00000000E+00  0.00000000E+00  0.00000000E+00
  0.00000000E+00  0.00000000E+00  0.00000000E+00
  0.00000000E+00  0.00000000E+00  0.00000000E+00
  0.00000000E+00  0.00000000E+00  0.00000000E+00
  0.00000000E+00  0.00000000E+00  0.00000000E+00
  0.00000000E+00  0.00000000E+00  0.00000000E+00
  0.00000000E+00  0.00000000E+00  0.00000000E+00
  0.00000000E+00  0.00000000E+00  0.00000000E+00
  0.00000000E+00  0.00000000E+00  0.00000000E+00
  0.00000000E+00  0.00000000E+00  0.00000000E+00
  0.00000000E+00  0.00000000E+00  0.00000000E+00
  0.00000000E+00  0.00000000E+00  0.00000000E+00
  0.00000000E+00  0.00000000E+00  0.00000000E+00
  0.00000000E+00  0.00000000E+00  0.00000000E+00
  0.00000000E+00  0.00000000E+00  0.00000000E+00
  0.00000000E+00  0.00000000E+00  0.00000000E+00
  0.00000000E+00  0.00000000E+00  0.00000000E+00
  0.00000000E+00  0.00000000E+00  0.00000000E+00
  0.00000000E+00  0.00000000E+00  0.00000000E+00
  0.00000000E+00  0.00000000E+00  0.00000000E+00
  0.00000000E+00  0.00000000E+00  0.00000000E+00
  0.00000000E+00  0.00000000E+00  0.00000000E+00
  0.00000000E+00  0.00000000E+00  0.00000000E+00
  0.00000000E+00  0.00000000E+00  0.00000000E+00
  0.00000000E+00  0.00000000E+00  0.00000000E+00
  0.00000000E+00  0.00000000E+00  0.00000000E+00
  0.00000000E+00  0.00000000E+00  0.00000000E+00
  0.00000000E+00  0.00000000E+00  0.00000000E+00
  0.00000000E+00  0.00000000E+00  0.00000000E+00
  0.00000000E+00  0.00000000E+00  0.00000000E+00
  0.00000000E+00  0.00000000E+00  0.00000000E+00
  0.00000000E+00  0.00000000E+00  0.00000000E+00
  0.00000000E+00  0.00000000E+00  0.00000000E+00
  0.00000000E+00  0.00000000E+00  0.00000000E+00
  0.00000000E+00  0.00000000E+00  0.00000000E+00
  0.00000000E+00  0.00000000E+00  0.00000000E+00
  0.00000000E+00  0.00000000E+00  0.00000000E+00
  0.00000000E+00  0.00000000E+00  0.00000000E+00
  0.00000000E+00  0.00000000E+00  0.00000000E+00
  0.00000000E+00  0.00000000E+00  0.00000000E+00
  0.00000000E+00  0.00000000E+00  0.00000000E+00
  0.00000000E+00  0.00000000E+00  0.00000000E+00
  0.00000000E+00  0.00000000E+00  0.00000000E+00
  0.00000000E+00  0.00000000E+00  0.00000000E+00
  0.00000000E+00  0.00000000E+00  0.00000000E+00
  0.00000000E+00  0.00000000E+00  0.00000000E+00
  0.00000000E+00  0.00000000E+00  0.00000000E+00
  0.00000000E+00  0.00000000E+00  0.00000000E+00
  0.00000000E+00  0.00000000E+00  0.00000000E+00
  0.00000000E+00  0.00000000E+00  0.00000000E+00
  0.00000000E+00  0.00000000E+00  0.00000000E+00
  0.00000000E+00  0.00000000E+00  0.00000000E+00
  0.00000000E+00  0.00000000E+00  0.00000000E+00
  0.00000000E+00  0.00000000E+00  0.00000000E+00
  0.00000000E+00  0.00000000E+00  0.00000000E+00
  0.00000000E+00  0.00000000E+00  0.00000000E+00
  0.00000000E+00  0.00000000E+00  0.00000000E+00
  0.00000000E+00  0.00000000E+00  0.00000000E+00
  0.00000000E+00  0.00000000E+00  0.00000000E+00
  0.00000000E+00  0.00000000E+00  0.00000000E+00
  0.00000000E+00  0.00000000E+00  0.00000000E+00
  0.00000000E+00  0.00000000E+00  0.00000000E+00
  0.00000000E+00  0.00000000E+00  0.00000000E+00
  0.00000000E+00  0.00000000E+00  0.00000000E+00
  0.00000000E+00  0.00000000E+00  0.00000000E+00
  0.00000000E+00  0.00000000E+00  0.00000000E+00
  0.00000000E+00  0.00000000E+00  0.00000000E+00
  0.00000000E+00  0.00000000E+00  0.00000000E+00
  0.00000000E+00  0.00000000E+00  0.00000000E+00
  0.00000000E+00  0.00000000E+00  0.00000000E+00
  0.00000000E+00  0.00000000E+00  0.00000000E+00
  0.00000000E+00  0.00000000E+00  0.00000000E+00
  0.00000000E+00  0.00000000E+00  0.00000000E+00
  0.00000000E+00  0.00000000E+00  0.00000000E+00
  0.00000000E+00  0.00000000E+00  0.00000000E+00
  0.00000000E+00  0.00000000E+00  0.00000000E+00
  0.00000000E+00  0.00000000E+00  0.00000000E+00
  0.00000000E+00  0.00000000E+00  0.00000000E+00
  0.00000000E+00  0.00000000E+00  0.00000000E+00
  0.00000000E+00  0.00000000E+00  0.00000000E+00
  0.00000000E+00  0.00000000E+00  0.00000000E+00
  0.00000000E+00  0.00000000E+00  0.00000000E+00
  0.00000000E+00  0.00000000E+00  0.00000000E+00
  0.00000000E+00  0.00000000E+00  0.00000000E+00
  0.00000000E+00  0.00000000E+00  0.00000000E+00
  0.00000000E+00  0.00000000E+00  0.00000000E+00
  0.00000000E+00  0.00000000E+00  0.00000000E+00
  0.00000000E+00  0.00000000E+00  0.00000000E+00
  0.00000000E+00  0.00000000E+00  0.00000000E+00
  0.00000000E+00  0.00000000E+00  0.00000000E+00
  0.00000000E+00  0.00000000E+00  0.00000000E+00
  0.00000000E+00  0.00000000E+00  0.00000000E+00
  0.00000000E+00  0.00000000E+00  0.00000000E+00
  0.00000000E+00  0.00000000E+00  0.00000000E+00
  0.00000000E+00  0.00000000E+00  0.00000000E+00
  0.00000000E+00  0.00000000E+00  0.00000000E+00
  0.00000000E+00  0.00000000E+00  0.00000000E+00
  0.00000000E+00  0.00000000E+00  0.00000000E+00
  0.00000000E+00  0.00000000E+00  0.00000000E+00
  0.00000000E+00  0.00000000E+00  0.00000000E+00
  0.00000000E+00  0.00000000E+00  0.00000000E+00
  0.00000000E+00  0.00000000E+00  0.00000000E+00
  0.00000000E+00  0.00000000E+00  0.00000000E+00
  0.00000000E+00  0.00000000E+00  0.00000000E+00
  0.00000000E+00  0.00000000E+00  0.00000000E+00
  0.00000000E+00  0.00000000E+00  0.00000000E+00
  0.00000000E+00  0.00000000E+00  0.00000000E+00
  0.00000000E+00  0.00000000E+00  0.00000000E+00
  0.00000000E+00  0.00000000E+00  0.00000000E+00
  0.00000000E+00  0.00000000E+00  0.00000000E+00
  0.00000000E+00  0.00000000E+00  0.00000000E+00
  0.00000000E+00  0.00000000E+00  0.00000000E+00
  0.00000000E+00  0.00000000E+00  0.00000000E+00
  0.00000000E+00  0.00000000E+00  0.00000000E+00
  0.00000000E+00  0.00000000E+00  0.00000000E+00
  0.00000000E+00  0.00000000E+00  0.00000000E+00
  0.00000000E+00  0.00000000E+00  0.00000000E+00
  0.00000000E+00  0.00000000E+00  0.00000000E+00
  0.00000000E+00  0.00000000E+00  0.00000000E+00
  0.00000000E+00  0.00000000E+00  0.00000000E+00
  0.00000000E+00  0.00000000E+00  0.00000000E+00
  0.00000000E+00  0.00000000E+00  0.00000000E+00
  0.00000000E+00  0.00000000E+00  0.00000000E+00
  0.00000000E+00  0.00000000E+00  0.00000000E+00
  0.00000000E+00  0.00000000E+00  0.00000000E+00
  0.00000000E+00  0.00000000E+00  0.00000000E+00