Sb1 Te2                                 
   1.00000000000000     
     2.8435060158940830   -4.9250957640367448    0.0000000000000003
     2.8435060158940830    4.9250957640367448   -0.0000000000000004
     0.0000000000000000    0.0000000000000000    3.3172349653049964
   Sb   Te
     1     2
Direct
  0.0000000000000000  0.0000000000000000  0.0000000000000000
  0.6666669999999968  0.3333330000000032  0.9997295039535646
  0.3333330000000032  0.6666669999999968  0.0002704960464355
 
  0.00000000E+00  0.00000000E+00  0.00000000E+00
  0.00000000E+00  0.00000000E+00  0.00000000E+00
  0.00000000E+00  0.00000000E+00  0.00000000E+00
