Amorphous Sb2Se3                        
  0.884000000000000     
    20.9867606951059820    0.0000000000000000    0.0000000000000000
     0.0000000000000000   20.9867606951059820    0.0000000000000000
     0.0000000000000000    0.0000000000000000   20.9867606951059820
   Sb   Se
   120   180
Direct
  0.2645500896931821  0.6049845030443387  0.1458349381128700
  0.1474211698515014  0.5298552136538058  0.4130497392577278
  0.5501954717790948  0.8687921281006349  0.1734550668369018
  0.5874927098635736  0.2389156878893877  0.0111080996888700
  0.2896592438368316  0.8171594875389444  0.6247654121748928
  0.5947749286355793  0.9085248119087093  0.3293291974917622
  0.6606759378996491  0.4295593015556773  0.3184159779991639
 -0.0027515407025602  0.7417998624862714  0.2442597764159408
  0.9706422177559568  0.0359930714594634  0.5626167503689986
  0.4484222238444961  0.6471368621995848  0.0582487718045205
  0.9139559071957091  0.5251618824845774  0.2894387020935771
  0.4628842883597221  0.6225176592613083  0.5145407110940652
  0.7815009489690475  0.9433765886324159  0.7485889127213690
  0.7236448647896538  0.0492035531001057  0.2838755954407177
  0.5312476610061027  0.5237187709100852  0.3180889623266169
  0.3297256822071779  0.2647451214835816  0.9282735107833123
  0.8175647363814446  0.6486794917968808  0.4784318435358684
  0.9852723393712458  0.9120852471585434  0.7127729761445717
  0.5854855601900522  0.6425871301558580  0.2001706532495924
  0.5132222770874513  0.3034671430197542  0.1982596310931086
  0.7042690928048606  0.3801747828406257  0.9126991447749094
  0.7516682978861449  0.5570868968403758  0.9144963070056645
  0.3555682564053004  0.5516105204960505  0.8607312022454466
  0.9541959419131586  0.3702534819415710  0.0914487523486806
  0.9051913562006427  0.4579964498020720  0.8919116411751922
  0.6847047722399771  0.1276436433153129  0.5935240053990981
  0.6088211553800940  0.9028953096815654  0.4816882653179799
  0.5172415055788587  0.3616340820171580  0.8896490337654771
  0.3617285513220187  0.4287779463372454  0.4280539062641656
  0.6695676430497307  0.0829540014453411  0.0804212230113017
  0.9357027466821149  0.7838067419850659  0.0192969756031655
  0.7253153063318917  0.3500436428113325  0.1233427027389400
  0.7701421695380972  0.4215089546621968  0.5310241150115425
  0.3745222348207067  0.8648460133204073  0.2760384465686366
  0.1564620111990571  0.0399975157589779  0.5044647447066041
  0.4508249806354212  0.4733990765558959  0.1486832293144513
  0.7367887064237600  0.6147095977042070  0.3395633267845098
  0.9935756430025579  0.5184409261300350  0.1500500091735305
  0.6345902935679882  0.3951011706455960  0.6094092294533119
  0.5769662972247870  0.0567313918764207  0.4770632202550873
  0.5548454276394625  0.8588177975888007  0.9706517968686577
  0.4273029279630254  0.6398729092310772  0.3536797444378686
  0.6356161389478714  0.7849231977251874  0.8126463175747248
  0.0781219707166360  0.3552888553589293  0.4885338337450336
  0.8717709677402166  0.2560696359460822  0.9833806341867614
  0.1701202663033358  0.4425786469309759  0.2816246879020459
  0.8640191196781726  0.2084816398125259  0.5393075351270011
  0.3342180194962708  0.0720514869713351  0.2665825813434089
 -0.0027720404847574  0.7410184732649518  0.4105782478777379
  0.0507238972874939  0.6296920944776164  0.7922341950934516
  0.3036346005909968  0.5834178490497703  0.6769035788369497
  0.2076561430046354  0.2368135607299892  0.6572231529309924
 -0.0053640265875083  0.4695163176242147  0.6466777653926374
  0.5052194019532513  0.3441739957556909  0.5124175866298109
 -0.0014056898209569  0.1365257849740862  0.0184542623235628
  0.8912634591170383  0.7353798867530966  0.7365122954914247
  0.1125759499999099  0.2207755681599436  0.9150991151951798
  0.7693233804941744  0.9736638709610630  0.0232116094475884
  0.0235307604516296  0.6259759043077395 -0.0086413107123499
  0.5766084852048706  0.2448833573319771  0.6812815813985401
  0.0296042803423775  0.8517858749258946  0.5163151750881517
  0.6699738040321108  0.4309839287405243  0.7592982615408269
  0.0838798301471860  0.8997650194704759  0.0096050601138184
  0.1446137762868356  0.8057619160209110  0.8093730284475462
  0.5491672917992353  0.6575100797474758  0.8746663937451458
  0.1800960547273503  0.8222885020202456  0.1719666455556069
  0.4467800840740133  0.4409301742408316  0.6309779716166143
  0.5284162153002886  0.0535192898242421  0.3328474364493482
  0.2601789959762101  0.0428587570501752  0.6617586428144355
  0.4246549494122645  0.7207283038646564  0.7677212440736676
  0.7472977601506139  0.1728344642139219  0.8804268262053457
  0.4625960206439432  0.1979289294032743  0.3777576260243476
  0.3184960016528248  0.8327404080245044  0.9694819647341617
  0.1095249355048578  0.4062722228852031  0.7970854453673828
  0.2476742392116735  0.0363276516986771  0.9677060757755923
  0.2775072029325321  0.4082192655940416 -0.0010588281699960
  0.1289595825619440  0.0875562372033358  0.1829090769257396
  0.6269883833144114 -0.0049908129156079  0.7836821806902966
  0.3917712346308089  0.0923605217729302  0.8048986539186930
  0.2309707492731104  0.9517331611574212  0.2560423212586559
  0.3095303334073800  0.6846631403272306  0.4942929294358943
  0.8674974672622785  0.3594408124980037  0.2881041576755651
  0.5168103839160052  0.1075464293632686  0.9332983196017227
  0.1905127129984036  0.5931842448206893  0.0020108811568816
  0.8068167781980556  0.5925108735424115  0.1231026966007469
  0.6297463672268598  0.6841159546828275  0.5592507188078727
  0.6651689704173088  0.2439855424476939  0.4151108630623515
  0.8100349944376111  0.1889884954757890  0.3389347226410799
  0.8881633805363613  0.1052957265235395  0.1674630614014511
  0.9324086743572763  0.4612844429684960  0.4665127931677471
  0.6986476270203704  0.7453619626489072  0.0024049318558528
  0.3681311037761541  0.3399021543629250  0.7342572841724100
  0.3315548430672019  0.9118043005894373  0.7912674722686509
  0.6536564480264334  0.8325103281420974  0.6144478906176980
  0.0128411737110921  0.2106317154702556  0.6172208298542986
  0.9502539035537941  0.2645796339555287  0.8126678974219087
  0.9288151795989101  0.9261856413935147  0.1973079678160054
  0.2284519683486555  0.2081712397256179  0.4005408115602396
  0.7646573762801575  0.9611777609751538  0.4865056628777176
  0.9489514667649495  0.9798653592272707  0.8931274580715581
  0.0931246592814641  0.0935651848658185  0.8005593547803116
  0.2278759917069739  0.8314846243326536  0.4469797364008715
  0.0199870037531331  0.1537457288665706  0.4532834240377683
  0.7316211419694655  0.5574480762550472  0.6441538898349682
  0.7074505023491592  0.8429692700012056  0.2123777504520144
  0.5479059595844250  0.0422176266829339  0.6464043527922626
  0.3555641598698199  0.2817908917750527  0.2569472171733460
  0.8417283602607837  0.0990716109092515  0.7439831721402955
  0.0867515060899081  0.6497921394967252  0.6136088121124179
  0.5843831973921536  0.5701652365819544  0.7419058973433341
  0.4151600714613288 -0.0026201564922750  0.0773209267485213
  0.4176318936298257  0.1248734131079802  0.5876874042756910
  0.0133599899916316  0.0085289004816278  0.3602395145295147
  0.3112202168170308  0.4887662159609502  0.2450524369160866
  0.1445944123369324  0.3129008479408616  0.1913536463260256
  0.5311834321050228  0.7658805627675827  0.3801097694148083
  0.7369165555399479  0.2894433043158003  0.7238632116864495
  0.2164090755521636  0.4444432373758667  0.6112349278696609
  0.1970964838492194  0.6720767382876087  0.3100866265257730
  0.3670369574339820  0.1918937326419664  0.1120251678381064
  0.6949619655015976  0.5447381286566260  0.4971092719040162
  0.4976170147925573  0.4840339990941808  0.4498220646977795
  0.0434228162732755  0.2082513074938417  0.1629420432698382
  0.4614537436193089  0.1542195033269221  0.2328246600214964
  0.8595566956352227  0.0960706908648580  0.0234409700717438
  0.4901007157112788  0.9246547839484859  0.5628468055383057
  0.0535630479218423  0.6060071973257388  0.3046669490830313
  0.8783118725965571  0.2305719028878274  0.6907094163027976
  0.7330204137310993  0.2152703790426663  0.0176887702733287
  0.9469349335724975  0.1331746923341712  0.8707895005276217
  0.0778703934726148  0.4742008415302869  0.0389872208327134
  0.4374664732513600  0.8496877982363298  0.0747982568779146
  0.0568656058297289  0.5199630429316993  0.5307035813769693
  0.5356154627776475  0.3738187942459572  0.7468216144982864
  0.7930345414102731  0.9743418362141085  0.1659129218768138
  0.9679912437535247  0.8707915099468844  0.3309322854715314
  0.3005708199058237  0.3282887407927939  0.5954123480683154
  0.6978563147661437  0.7566039743633090  0.4496805554686286
  0.9226005109389286  0.9301550525796526  0.0289982787881061
  0.1283502939353951  0.0971771715468616  0.6580285731012585
  0.8321648882571162  0.3864946238205724  0.6716166533145839
  0.3350543981353247  0.1790335125184421  0.7077547606706808
  0.7728316541183359  0.7411857135979929  0.8645298353643167
  0.0339883678284751  0.7733935388305230  0.7161204672448210
  0.1170997365406896  0.5282337287187311  0.7111249508928059
  0.7275161206406393  0.2639440034993513  0.5677570218983256
  0.0360809298868054  0.4408732427874142  0.3675782068784491
  0.3683730907818688  0.8215381036601124  0.4991326440965529
  0.6233051358410455  0.2321025383528574  0.1512309237082904
  0.4142121930793536  0.6137402479242156  0.2075019532149163
  0.5544820287301861  0.5493599020672757  0.0911603287144522
  0.2448033655859164  0.0422766050390812  0.8202900460722325
  0.1983672253668244  0.7111416379713927  0.7020189237689338
  0.1345724176351170  0.6900043921106550  0.8982455212759261
  0.6329415151066650  0.2587995349617195  0.8540584568223405
  0.3485671529115425  0.5300427209018240  0.0569076867480124
  0.3512304909132750  0.1114510108759927  0.4087166295431454
  0.5530932078184461 -0.0046996291960585  0.0215774627736326
  0.7070060420797148  0.6999494531586428  0.1419825853784084
  0.2114058258474527  0.9063725875466911  0.7105271905224663
  0.3830737810342260  0.6894199189073198  0.6259723135304125
  0.7325193148915993  0.3063969200101360  0.2743072465735715
  0.2735663411239367  0.1437688486840848  0.5484472797155202
  0.8155013461504913  0.6597930231974601 -0.0044150437771572
  0.9146383281232540  0.7951227338912779  0.5976976332682544
  0.8840044028873053  0.1083512595035880  0.4344282483490133
  0.7801522702386987  0.6857698702183277  0.6197457581758271
  0.8524848640709271  0.6497583956957510  0.2634626753408791
  0.4473138404973139  0.7344295785923257  0.9376605774382417
  0.0270242983704258  0.8309620998114555  0.1351278441908142
  0.4050003392419114  0.0084740843515563  0.6822541662430198
  0.5096348576842645  0.7620480376184356  0.5290239642430851
  0.6468041084186761  0.3847021337313107  0.4548844157930310
  0.0885290950840058  0.9569940447806387  0.2474928347625801
  0.2164651179416168  0.4963111780150251  0.9017530322958563
  0.9541119345127242  0.6583579003468497  0.1288197802379913
  0.5277567781372827  0.1378393720762874  0.7625706404319026
  0.2114201556997665  0.4137808058816176  0.4712593678797163
  0.3177546866560590  0.7201850671730881  0.0767237074867870
  0.0226439476590434  0.0279341375159218  0.1116790303941412
  0.9450065131824846  0.6965598181721188  0.8762034852372388
  0.3736530664658642  0.9624092583133849  0.9359411934854127
  0.3177418100717218  0.7439152928015957  0.3560884802069454
  0.3627055045857797  0.1325960013557460  0.9704727707294113
  0.6550285016823036  0.0730419759006749  0.9157423709913172
  0.1841535257344556  0.9672649423468254  0.0953826024608895
  0.6357359943278869  0.6175213681875168  0.9788244518209016
  0.4570095634905278  0.8961034175722026  0.3873793186265456
  0.2094694163734569  0.5931186774004112  0.5596928651922015
  0.3053509350274264  0.5594008375166287  0.3766432058459152
  0.8870636596464280  0.8708224626269591  0.8126938267030489
  0.3825114064352003  0.4087779607865955  0.8659498328056675
  0.3019306219954568  0.9004812801236387  0.1030721272631152
  0.6213115703818238  0.1572464131768949  0.3031771941181827
  0.4451304892483511  0.2906374905296655  0.0332027172770894
  0.8160767822358517  0.3146863362858054  0.8447505079085655
  0.8378002305679945  0.4444218348342967  0.1765829816973645
  0.7442716191005012  0.9063842995007099  0.3460009013439320
  0.6152159112985727  0.3775335681040422  0.0255924540678460
  0.1714063974041705  0.1541026370759399  0.0335310407900685
  0.1126450688984454  0.2885827504958522  0.3510912793340887
  0.5661675049870238  0.8784647898778145  0.7193835371920306
  0.0820956278676949  0.2471507605934332  0.7655731794638698
  0.2388246230528243  0.3178389622832632  0.7957463235402558
  0.6157382230195588  0.0134640485559920  0.1960731298595114
  0.2992675930399097  0.7802971512678452  0.8300047499018939
  0.4294090586706987  0.4154744280158105  0.2991075630568564
  0.8148069705429820  0.8345394563070988  0.9481398302109508
  0.4281144894699698  0.0169593730294971  0.4897559194336346
  0.1347485007127177  0.2253038286095018  0.5264437821773461
  0.5558157840159547  0.2009916690700313  0.5032010230634382
  0.2999672747707666  0.7471130794927061  0.2050469049224968
  0.5508700962815704  0.3168635315525044  0.3384632910828564
  0.6903852300298254  0.9767199029216149  0.6179849766352733
  0.1461497788941518  0.7866024766778088  0.5760796949109742
  0.4513301261092836  0.4192926992898677  0.0143068222878509
  0.9671330978464190  0.4040409206552424  0.7686689540456895
  0.5992811284600136  0.4153584234727292  0.1829934354943631
  0.6973088947666722  0.1340547732314355  0.7388701879727553
  0.9502926573107213  0.3407543297691887  0.5716646713922376
  0.0518013036269286  0.1426439230194369  0.2974366961660870
  0.4138694251895301  0.8430787749851575  0.6889687353204829
  0.8058281627710793  0.0186987738130406  0.8801821967267917
  0.3183769334694572  0.3695022682441973  0.1501497162424754
  0.8736042037133591  0.5934731933916938  0.8338366743947968
  0.0821530568254169  0.9503054615587379  0.8089481372232469
  0.1160388195871083  0.9233111283628390  0.4261808593438124
  0.1749685377587674  0.0788567434628992  0.3691810535705621
  0.9134345105419730  0.5314045099898783  0.0168171758341599
  0.4759423420858744  0.5519751474896679  0.9382815215520736
  0.5547695612532866  0.7388114967352587  0.0914775548479679
  0.4516885962020267  0.2684496023367079  0.6256299179312959
  0.4998141328598079  0.9878613525021478  0.8448936813494794
  0.2690354730474614  0.9586184579710552  0.5410431507812670
  0.9825368751669422  0.2856805186383031  0.3980506547921879
  0.0421119305043449  0.5198485018610385  0.8850265825189630
  0.8268898792091163  0.0787550375294522  0.5966818121711880
  0.7556991349848595  0.1539662266768194  0.1830635676546983
  0.7102594444563989  0.6303144148290682  0.7882695167386627
  0.1316673362744931  0.7959636581005750  0.3055951181605072
  0.1515177041052236  0.6881200997512401  0.4427175999820676
  0.0180055101643037  0.8255375919142152  0.8988247301353294
  0.6962649426922914  0.5419298531762761  0.2237787375090048
  0.4761128541719690  0.7659597363592220  0.2416694648295762
  0.6711088966384495  0.9011617524458854  0.8895783087474407
  0.0158495995023269  0.3788570963155112  0.2193711935127246
  0.8590042078605884  0.7684385731669205  0.4038163650094269
  0.1087439506019908  0.3605831655348968  0.6481908065234478
  0.8367216875138247  0.3020292176463130  0.4271582245805592
  0.1990152936039571  0.9001423698873121  0.9184806011821768
  0.2931078993550867  0.0757241843849515  0.1267155044928894
  0.8570947968591311  0.9207052972924171  0.6260267174616141
  0.4448710539541242  0.9779487377482240  0.2195114704579448
  0.5576137285324126  0.7047723693172460  0.6958721793826602
  0.5012857384637323  0.1265102492045999  0.0973813803110034
  0.8590328833242070  0.8038891757566954  0.2322705161242668
  0.2427104381498574  0.1914829799831144  0.2532464541081905
  0.8703162772441444  0.2618507332087578  0.1283345284759538
  0.1254101947032368  0.6916274535921928  0.1134812797135303
  0.8639686366221299  0.5318627092040682  0.5753003058543290
  0.2642657924350530  0.3478230694808050  0.3425539265354726
  0.1188191016056470  0.5613395407044587  0.2016143404990319
  0.2394759730712565  0.2576914813028837  0.0751792793554729
  0.1852705143596758  0.4437509884738651  0.1085431969682705
  0.9224405450054157  0.9382536463580168  0.4675533273301807
  0.8834976218630899  0.0256437556824067  0.2991131920153683
  0.9422249277122150  0.5931443465876456  0.4111637773498965
  0.1676055725734363  0.7789509520760391  0.0237363692191160
  0.1528253285029173  0.3532473916679857  0.9403454627973966
  0.9471704400488066  0.6078347788213208  0.6882256655321772
  0.5982420526396590  0.4865498789585652  0.8841426702664462
 -0.0120003006069170  0.3429331382036915  0.9345488190361956
  0.5633154910549455  0.5213341958688652  0.5977845430500092
  0.9768116877090827  0.0668155408004927  0.7104529075816106
  0.0805901228548027  0.9485279803423182  0.6071631626518026
  0.2327637317482825  0.1904835880294601  0.8374582911301973
  0.7432169688943319  0.8048064339855692  0.7185379103354710
  0.3807967942905666  0.2827272187243029  0.4589178821362117
  0.6645671418228074  0.7342797885363624  0.2970678786539619
  0.4766295151194602  0.8392276330848824  0.8463378849199963
  0.4365934668508782  0.5502092994104372  0.7369509879514168
  0.2375520186320655  0.6305662890603716  0.7966517701760015
  0.4383249262996025  0.2417945640206197  0.8412497722406654
  0.7754080561115385  0.8224787000029681  0.5303747081196848
  0.2918590045903201  0.9443976441892620  0.3817698292063288
  0.8093317690775162  0.4877620322318014  0.7507325944371069
  0.0869265824655992  0.0419378464808881  0.9495774980577569
  0.8240548589112903  0.7993887131387074  0.1065616983060085
  0.6634252741345467  0.8833855878433394  0.0702263219167906
  0.7152167905681912  0.0952210525057066  0.4470503465038650
  0.2723864583941824  0.4548390407536628  0.7488341097776794
  0.9277739367083496  0.2141483520567727  0.2689706019072711
  0.5898479264993364  0.6263154989450100  0.4093085339736119
  0.7135420354230148  0.5013654449377571  0.0569240599817777
  0.9620781189516955  0.6808362943817087  0.5391577124605940
  0.8159938463854749  0.3893323699118556  0.0076188431802900
  0.8001533716726128  0.4731851622318735  0.3719280805502538
  0.0705810687073934  0.2908134416588244  0.0605391574590210
  0.3543389231503912  0.5140928076087862  0.5551747887096441
  0.3032283264783128  0.6620058649864691  0.9493506494324784
 
  0.00000000E+00  0.00000000E+00  0.00000000E+00
  0.00000000E+00  0.00000000E+00  0.00000000E+00
  0.00000000E+00  0.00000000E+00  0.00000000E+00
  0.00000000E+00  0.00000000E+00  0.00000000E+00
  0.00000000E+00  0.00000000E+00  0.00000000E+00
  0.00000000E+00  0.00000000E+00  0.00000000E+00
  0.00000000E+00  0.00000000E+00  0.00000000E+00
  0.00000000E+00  0.00000000E+00  0.00000000E+00
  0.00000000E+00  0.00000000E+00  0.00000000E+00
  0.00000000E+00  0.00000000E+00  0.00000000E+00
  0.00000000E+00  0.00000000E+00  0.00000000E+00
  0.00000000E+00  0.00000000E+00  0.00000000E+00
  0.00000000E+00  0.00000000E+00  0.00000000E+00
  0.00000000E+00  0.00000000E+00  0.00000000E+00
  0.00000000E+00  0.00000000E+00  0.00000000E+00
  0.00000000E+00  0.00000000E+00  0.00000000E+00
  0.00000000E+00  0.00000000E+00  0.00000000E+00
  0.00000000E+00  0.00000000E+00  0.00000000E+00
  0.00000000E+00  0.00000000E+00  0.00000000E+00
  0.00000000E+00  0.00000000E+00  0.00000000E+00
  0.00000000E+00  0.00000000E+00  0.00000000E+00
  0.00000000E+00  0.00000000E+00  0.00000000E+00
  0.00000000E+00  0.00000000E+00  0.00000000E+00
  0.00000000E+00  0.00000000E+00  0.00000000E+00
  0.00000000E+00  0.00000000E+00  0.00000000E+00
  0.00000000E+00  0.00000000E+00  0.00000000E+00
  0.00000000E+00  0.00000000E+00  0.00000000E+00
  0.00000000E+00  0.00000000E+00  0.00000000E+00
  0.00000000E+00  0.00000000E+00  0.00000000E+00
  0.00000000E+00  0.00000000E+00  0.00000000E+00
  0.00000000E+00  0.00000000E+00  0.00000000E+00
  0.00000000E+00  0.00000000E+00  0.00000000E+00
  0.00000000E+00  0.00000000E+00  0.00000000E+00
  0.00000000E+00  0.00000000E+00  0.00000000E+00
  0.00000000E+00  0.00000000E+00  0.00000000E+00
  0.00000000E+00  0.00000000E+00  0.00000000E+00
  0.00000000E+00  0.00000000E+00  0.00000000E+00
  0.00000000E+00  0.00000000E+00  0.00000000E+00
  0.00000000E+00  0.00000000E+00  0.00000000E+00
  0.00000000E+00  0.00000000E+00  0.00000000E+00
  0.00000000E+00  0.00000000E+00  0.00000000E+00
  0.00000000E+00  0.00000000E+00  0.00000000E+00
  0.00000000E+00  0.00000000E+00  0.00000000E+00
  0.00000000E+00  0.00000000E+00  0.00000000E+00
  0.00000000E+00  0.00000000E+00  0.00000000E+00
  0.00000000E+00  0.00000000E+00  0.00000000E+00
  0.00000000E+00  0.00000000E+00  0.00000000E+00
  0.00000000E+00  0.00000000E+00  0.00000000E+00
  0.00000000E+00  0.00000000E+00  0.00000000E+00
  0.00000000E+00  0.00000000E+00  0.00000000E+00
  0.00000000E+00  0.00000000E+00  0.00000000E+00
  0.00000000E+00  0.00000000E+00  0.00000000E+00
  0.00000000E+00  0.00000000E+00  0.00000000E+00
  0.00000000E+00  0.00000000E+00  0.00000000E+00
  0.00000000E+00  0.00000000E+00  0.00000000E+00
  0.00000000E+00  0.00000000E+00  0.00000000E+00
  0.00000000E+00  0.00000000E+00  0.00000000E+00
  0.00000000E+00  0.00000000E+00  0.00000000E+00
  0.00000000E+00  0.00000000E+00  0.00000000E+00
  0.00000000E+00  0.00000000E+00  0.00000000E+00
  0.00000000E+00  0.00000000E+00  0.00000000E+00
  0.00000000E+00  0.00000000E+00  0.00000000E+00
  0.00000000E+00  0.00000000E+00  0.00000000E+00
  0.00000000E+00  0.00000000E+00  0.00000000E+00
  0.00000000E+00  0.00000000E+00  0.00000000E+00
  0.00000000E+00  0.00000000E+00  0.00000000E+00
  0.00000000E+00  0.00000000E+00  0.00000000E+00
  0.00000000E+00  0.00000000E+00  0.00000000E+00
  0.00000000E+00  0.00000000E+00  0.00000000E+00
  0.00000000E+00  0.00000000E+00  0.00000000E+00
  0.00000000E+00  0.00000000E+00  0.00000000E+00
  0.00000000E+00  0.00000000E+00  0.00000000E+00
  0.00000000E+00  0.00000000E+00  0.00000000E+00
  0.00000000E+00  0.00000000E+00  0.00000000E+00
  0.00000000E+00  0.00000000E+00  0.00000000E+00
  0.00000000E+00  0.00000000E+00  0.00000000E+00
  0.00000000E+00  0.00000000E+00  0.00000000E+00
  0.00000000E+00  0.00000000E+00  0.00000000E+00
  0.00000000E+00  0.00000000E+00  0.00000000E+00
  0.00000000E+00  0.00000000E+00  0.00000000E+00
  0.00000000E+00  0.00000000E+00  0.00000000E+00
  0.00000000E+00  0.00000000E+00  0.00000000E+00
  0.00000000E+00  0.00000000E+00  0.00000000E+00
  0.00000000E+00  0.00000000E+00  0.00000000E+00
  0.00000000E+00  0.00000000E+00  0.00000000E+00
  0.00000000E+00  0.00000000E+00  0.00000000E+00
  0.00000000E+00  0.00000000E+00  0.00000000E+00
  0.00000000E+00  0.00000000E+00  0.00000000E+00
  0.00000000E+00  0.00000000E+00  0.00000000E+00
  0.00000000E+00  0.00000000E+00  0.00000000E+00
  0.00000000E+00  0.00000000E+00  0.00000000E+00
  0.00000000E+00  0.00000000E+00  0.00000000E+00
  0.00000000E+00  0.00000000E+00  0.00000000E+00
  0.00000000E+00  0.00000000E+00  0.00000000E+00
  0.00000000E+00  0.00000000E+00  0.00000000E+00
  0.00000000E+00  0.00000000E+00  0.00000000E+00
  0.00000000E+00  0.00000000E+00  0.00000000E+00
  0.00000000E+00  0.00000000E+00  0.00000000E+00
  0.00000000E+00  0.00000000E+00  0.00000000E+00
  0.00000000E+00  0.00000000E+00  0.00000000E+00
  0.00000000E+00  0.00000000E+00  0.00000000E+00
  0.00000000E+00  0.00000000E+00  0.00000000E+00
  0.00000000E+00  0.00000000E+00  0.00000000E+00
  0.00000000E+00  0.00000000E+00  0.00000000E+00
  0.00000000E+00  0.00000000E+00  0.00000000E+00
  0.00000000E+00  0.00000000E+00  0.00000000E+00
  0.00000000E+00  0.00000000E+00  0.00000000E+00
  0.00000000E+00  0.00000000E+00  0.00000000E+00
  0.00000000E+00  0.00000000E+00  0.00000000E+00
  0.00000000E+00  0.00000000E+00  0.00000000E+00
  0.00000000E+00  0.00000000E+00  0.00000000E+00
  0.00000000E+00  0.00000000E+00  0.00000000E+00
  0.00000000E+00  0.00000000E+00  0.00000000E+00
  0.00000000E+00  0.00000000E+00  0.00000000E+00
  0.00000000E+00  0.00000000E+00  0.00000000E+00
  0.00000000E+00  0.00000000E+00  0.00000000E+00
  0.00000000E+00  0.00000000E+00  0.00000000E+00
  0.00000000E+00  0.00000000E+00  0.00000000E+00
  0.00000000E+00  0.00000000E+00  0.00000000E+00
  0.00000000E+00  0.00000000E+00  0.00000000E+00
  0.00000000E+00  0.00000000E+00  0.00000000E+00
  0.00000000E+00  0.00000000E+00  0.00000000E+00
  0.00000000E+00  0.00000000E+00  0.00000000E+00
  0.00000000E+00  0.00000000E+00  0.00000000E+00
  0.00000000E+00  0.00000000E+00  0.00000000E+00
  0.00000000E+00  0.00000000E+00  0.00000000E+00
  0.00000000E+00  0.00000000E+00  0.00000000E+00
  0.00000000E+00  0.00000000E+00  0.00000000E+00
  0.00000000E+00  0.00000000E+00  0.00000000E+00
  0.00000000E+00  0.00000000E+00  0.00000000E+00
  0.00000000E+00  0.00000000E+00  0.00000000E+00
  0.00000000E+00  0.00000000E+00  0.00000000E+00
  0.00000000E+00  0.00000000E+00  0.00000000E+00
  0.00000000E+00  0.00000000E+00  0.00000000E+00
  0.00000000E+00  0.00000000E+00  0.00000000E+00
  0.00000000E+00  0.00000000E+00  0.00000000E+00
  0.00000000E+00  0.00000000E+00  0.00000000E+00
  0.00000000E+00  0.00000000E+00  0.00000000E+00
  0.00000000E+00  0.00000000E+00  0.00000000E+00
  0.00000000E+00  0.00000000E+00  0.00000000E+00
  0.00000000E+00  0.00000000E+00  0.00000000E+00
  0.00000000E+00  0.00000000E+00  0.00000000E+00
  0.00000000E+00  0.00000000E+00  0.00000000E+00
  0.00000000E+00  0.00000000E+00  0.00000000E+00
  0.00000000E+00  0.00000000E+00  0.00000000E+00
  0.00000000E+00  0.00000000E+00  0.00000000E+00
  0.00000000E+00  0.00000000E+00  0.00000000E+00
  0.00000000E+00  0.00000000E+00  0.00000000E+00
  0.00000000E+00  0.00000000E+00  0.00000000E+00
  0.00000000E+00  0.00000000E+00  0.00000000E+00
  0.00000000E+00  0.00000000E+00  0.00000000E+00
  0.00000000E+00  0.00000000E+00  0.00000000E+00
  0.00000000E+00  0.00000000E+00  0.00000000E+00
  0.00000000E+00  0.00000000E+00  0.00000000E+00
  0.00000000E+00  0.00000000E+00  0.00000000E+00
  0.00000000E+00  0.00000000E+00  0.00000000E+00
  0.00000000E+00  0.00000000E+00  0.00000000E+00
  0.00000000E+00  0.00000000E+00  0.00000000E+00
  0.00000000E+00  0.00000000E+00  0.00000000E+00
  0.00000000E+00  0.00000000E+00  0.00000000E+00
  0.00000000E+00  0.00000000E+00  0.00000000E+00
  0.00000000E+00  0.00000000E+00  0.00000000E+00
  0.00000000E+00  0.00000000E+00  0.00000000E+00
  0.00000000E+00  0.00000000E+00  0.00000000E+00
  0.00000000E+00  0.00000000E+00  0.00000000E+00
  0.00000000E+00  0.00000000E+00  0.00000000E+00
  0.00000000E+00  0.00000000E+00  0.00000000E+00
  0.00000000E+00  0.00000000E+00  0.00000000E+00
  0.00000000E+00  0.00000000E+00  0.00000000E+00
  0.00000000E+00  0.00000000E+00  0.00000000E+00
  0.00000000E+00  0.00000000E+00  0.00000000E+00
  0.00000000E+00  0.00000000E+00  0.00000000E+00
  0.00000000E+00  0.00000000E+00  0.00000000E+00
  0.00000000E+00  0.00000000E+00  0.00000000E+00
  0.00000000E+00  0.00000000E+00  0.00000000E+00
  0.00000000E+00  0.00000000E+00  0.00000000E+00
  0.00000000E+00  0.00000000E+00  0.00000000E+00
  0.00000000E+00  0.00000000E+00  0.00000000E+00
  0.00000000E+00  0.00000000E+00  0.00000000E+00
  0.00000000E+00  0.00000000E+00  0.00000000E+00
  0.00000000E+00  0.00000000E+00  0.00000000E+00
  0.00000000E+00  0.00000000E+00  0.00000000E+00
  0.00000000E+00  0.00000000E+00  0.00000000E+00
  0.00000000E+00  0.00000000E+00  0.00000000E+00
  0.00000000E+00  0.00000000E+00  0.00000000E+00
  0.00000000E+00  0.00000000E+00  0.00000000E+00
  0.00000000E+00  0.00000000E+00  0.00000000E+00
  0.00000000E+00  0.00000000E+00  0.00000000E+00
  0.00000000E+00  0.00000000E+00  0.00000000E+00
  0.00000000E+00  0.00000000E+00  0.00000000E+00
  0.00000000E+00  0.00000000E+00  0.00000000E+00
  0.00000000E+00  0.00000000E+00  0.00000000E+00
  0.00000000E+00  0.00000000E+00  0.00000000E+00
  0.00000000E+00  0.00000000E+00  0.00000000E+00
  0.00000000E+00  0.00000000E+00  0.00000000E+00
  0.00000000E+00  0.00000000E+00  0.00000000E+00
  0.00000000E+00  0.00000000E+00  0.00000000E+00
  0.00000000E+00  0.00000000E+00  0.00000000E+00
  0.00000000E+00  0.00000000E+00  0.00000000E+00
  0.00000000E+00  0.00000000E+00  0.00000000E+00
  0.00000000E+00  0.00000000E+00  0.00000000E+00
  0.00000000E+00  0.00000000E+00  0.00000000E+00
  0.00000000E+00  0.00000000E+00  0.00000000E+00
  0.00000000E+00  0.00000000E+00  0.00000000E+00
  0.00000000E+00  0.00000000E+00  0.00000000E+00
  0.00000000E+00  0.00000000E+00  0.00000000E+00
  0.00000000E+00  0.00000000E+00  0.00000000E+00
  0.00000000E+00  0.00000000E+00  0.00000000E+00
  0.00000000E+00  0.00000000E+00  0.00000000E+00
  0.00000000E+00  0.00000000E+00  0.00000000E+00
  0.00000000E+00  0.00000000E+00  0.00000000E+00
  0.00000000E+00  0.00000000E+00  0.00000000E+00
  0.00000000E+00  0.00000000E+00  0.00000000E+00
  0.00000000E+00  0.00000000E+00  0.00000000E+00
  0.00000000E+00  0.00000000E+00  0.00000000E+00
  0.00000000E+00  0.00000000E+00  0.00000000E+00
  0.00000000E+00  0.00000000E+00  0.00000000E+00
  0.00000000E+00  0.00000000E+00  0.00000000E+00
  0.00000000E+00  0.00000000E+00  0.00000000E+00
  0.00000000E+00  0.00000000E+00  0.00000000E+00
  0.00000000E+00  0.00000000E+00  0.00000000E+00
  0.00000000E+00  0.00000000E+00  0.00000000E+00
  0.00000000E+00  0.00000000E+00  0.00000000E+00
  0.00000000E+00  0.00000000E+00  0.00000000E+00
  0.00000000E+00  0.00000000E+00  0.00000000E+00
  0.00000000E+00  0.00000000E+00  0.00000000E+00
  0.00000000E+00  0.00000000E+00  0.00000000E+00
  0.00000000E+00  0.00000000E+00  0.00000000E+00
  0.00000000E+00  0.00000000E+00  0.00000000E+00
  0.00000000E+00  0.00000000E+00  0.00000000E+00
  0.00000000E+00  0.00000000E+00  0.00000000E+00
  0.00000000E+00  0.00000000E+00  0.00000000E+00