GeSe                                    
   1.00000000000000     
    20.1278870000000012    0.0000000000000000    0.0000000000000000
     0.0000000000000000   20.1278870000000012    0.0000000000000000
     0.0000000000000000    0.0000000000000000   20.1278870000000012
   Ge   Se
   150   150
Direct
  0.3453139636013184  0.3669004786982169  0.8996018389490087
  0.2626544387669745  0.7559612177234086  0.3336985677960131
  0.1196352211804134  0.3123285470425208  0.2548959880946017
  0.8463811317429046  0.5599483274388163  0.0217391093396690
  0.8560510089556153  0.0811116152117548  0.2664958347012091
  0.9579327850628655  0.6918093768035246  0.0861113446079490
  0.5682230829782602  0.6135055881078366  0.3751763199821532
  0.7189721797000398  0.9583882529036135  0.4581803641393060
  0.7645513577563973  0.5821605092858181  0.6602237521540968
  0.7689909961648439  0.7363754964607856  0.4997166437766923
  0.3501749365154110  0.2041374188887693  0.9745648349467506
  0.6206864520505422  0.1697754808729963  0.9763183689537263
  0.0166499883870464  0.6504581810650832  0.6127213489014041
  0.4566992399180257  0.0330084472195295  0.5021579687774207
  0.9100486762519358  0.0805432483911573  0.1099709703128422
  0.8453094709617829  0.7870560110405109  0.0798996383817661
  0.2595983180786306  0.6455899558913137  0.1993646800741102
  0.5964522464638622  0.5417454956301564  0.7251321549836622
  0.2680624398115192  0.8181485091319896  0.9345720833192733
  0.1306238431593748  0.3581334931237234  0.9112564970508481
  0.2808902985252938  0.4593446280381735  0.4889313469968068
  0.5639800056895967  0.7459064401962778  0.6367033406208253
  0.6989962390882000  0.6898662881287577  0.0905449656823097
  0.5258763680646199  0.6295554871116316  0.2525845855066545
  0.3221459220572587  0.3146585161030041  0.5487555873223643
  0.8874182083687826  0.9473526990429231 -0.0008444014570273
  0.5835919983265463  0.3114969720029231  0.6601669241132959
  0.4393041630504810  0.8618049161419238  0.8994271167059098
  0.5140468875818113  0.8933597603830312  0.5369821122269712
  0.0612890371863218  0.7506406471880378  0.7364823493218798
  0.3746644051496376  0.8225009988504796  0.4397860388258489
  0.0452016180907478  0.9665352129148116  0.3302686980537982
  0.5345241280067059  0.6352228486857151  0.8175776899477957
  0.8191835675710611  0.8659142351006510  0.8252330892305973
 -0.0012237356613742  0.0789633806234760  0.4221392287749702
  0.3948367036438933  0.5897685361436620  0.7243368347931202
  0.4796264097611703  0.4817786721553345  0.6175739800245015
  0.0705927632769357  0.9126865976257208  0.5401333378716683
  0.8412677099330135  0.3097601142323863  0.2868994213384001
  0.0944149120050588  0.7788105936067350  0.4503889556648178
  0.9015577636434142  0.1178856623028147 -0.0172019561988049
  0.9146939778217253  0.7753847630821235  0.7983950598620476
  0.7690760724669317  0.7649094043786495  0.6816776683526401
  0.7510494201951843  0.7891291744863760  0.8993851881639501
  0.2117986026343897  0.0729192495332443  0.0084979481871871
  0.6494933761128489  0.8973249441510902  0.1312046853783876
  0.2146914557807499  0.5573648363297323  0.7219802115263014
  0.2046441226835259  0.2160120837039556  0.8348034591492799
  0.4718675566959300  0.1748418756979061  0.0854739390357966
  0.9221208546241165  0.4207067058217248  0.4290172385400451
  0.6554744961946759  0.0446520171649242  0.2940146515625838
  0.4150851728973393  0.8412461232474042  0.6954174099721288
  0.3375897170021932  0.9778215537716726  0.0171061870109367
  0.1282543840706970  0.3573888258310329  0.5317748270943063
  0.2424706479786062  0.8836693684299828  0.7669358187266827
  0.4090559772333990  0.5836333962659838  0.0581807440537349
  0.5389055873580719  0.1910804211375789  0.6802495539164513
  0.6706236511808041  0.1889580915633806  0.2013031850340914
  0.6996034298190209  0.7949406141432869  0.0145558961499459
  0.7056014997034374  0.9264338215222863  0.5853451922043430
  0.9088576913725858 -0.0045197196135903  0.7029916945665510
  0.8490039746414955  0.4062586751140367  0.1403434281533173
  0.3163448733681046  0.9060596927378732  0.2350317129705626
  0.3013701899766204  0.0304089616612857  0.1777989886352513
  0.1009671252320070  0.9903671172780751  0.7159975349128828
  0.9748445846760707  0.6845140463451829  0.3826629850212620
  0.8474456481485649  0.5689993694649313  0.5632542944929450
  0.6555757080368817  0.8399811677178241  0.3114665746415946
  0.2416237964282459  0.4176240012893859  0.1564269380163237
  0.5522091895099730  0.0687070900592881  0.2123873167013095
  0.4252293155933338  0.1854797389056701  0.3622470211139888
  0.9515372644506491  0.0326102491910950  0.5873959335739911
  0.6268850668924009  0.5611610761521567  0.5294078945731971
  0.9254294894046532  0.2505684941921519  0.6476386539844441
  0.2811614645014078  0.1099841268795957  0.7289317582004513
  0.4292986539083742  0.4054442714404704  0.7351161779019860
  0.4594524643397472  0.3856080469644894  0.0040891555539120
  0.7212813205879669  0.6668359100790180  0.2921261102207363
  0.3084555473918392  0.4707375298096018  0.6929713788249449
  0.1037210355580853  0.2104272558071512  0.3733299667143319
  0.1156746197273611  0.2924807534238430  0.7381308996276911
  0.3548295272520791  0.6543027972920020  0.4689915022491144
  0.1447882733718914  0.2412670782395209  0.0744747566741304
  0.1749703941065631  0.2037882684523736  0.6015353339684397
  0.2751331754026747  0.7089264424291259  0.6270039926256055
  0.7649977060465725  0.3209593352964903  0.6841432648870663
  0.1058774824140864  0.8692259946685377  0.8841078777506322
  0.2714874482033328  0.5202078917563153  0.9746518168760306
  0.1343456017601291  0.6051780400788284  0.6335866704364291
  0.0115742484635688  0.5283158803044042  0.9426507395514054
  0.6316589161634359  0.2681914942287341  0.5424960801758315
  0.6422215015552668  0.5803952523408409  0.9113567956302694
  0.0302448300947393  0.1066625761314872  0.9804245726155963
  0.1928825438048479  0.0465981854490794  0.4147540192728504
  0.1641076155710604  0.0592307375152113  0.8523755311044025
  0.6555801973765111  0.3554223014469169  0.0950493745249055
  0.2736816388327001  0.2376440476246799  0.3096001873416374
  0.5041943284220157  0.7806552156268562  0.0384208230690702
  0.7276933255357270  0.3889099885724765  0.3914583568567618
  0.5992331800590983  0.0509517190258069  0.7778547565577221
  0.0604203567309610  0.3812016119404632  0.3674169065258895
  0.0031540199343099  0.8413936011878226  0.3200264185136998
  0.3811518033895578  0.6677478371748006  0.8732028586988814
  0.5849648969407357  0.9873228312765773  0.6529291806320555
  0.5081285297478915  0.0207498687084503  0.9682947406155706
  0.2209108755169881  0.3897790031787216  0.6455525388648499
  0.8887976032565390  0.2785972829534394  0.7904340135347353
  0.6191852410014745  0.4917393250022274  0.2701286267046920
  0.9184730164667021  0.5973664695478288  0.7396879699436816
  0.5644479015463734  0.3479533222610692  0.4096537098091639
  0.0426528608474929  0.3794089606336454  0.0719179546406733
  0.4375700070691728  0.9119396494701061  0.2053980962439225
  0.9770218362058657  0.9386997882621185  0.8537495370604118
  0.9341193290572523  0.8294494171127059  0.5841927255812367
  0.9198774220247898  0.4831251450810667  0.2923969777079140
  0.1762056146810754  0.7177856278619036  0.9356671812338277
  0.1530227989589159  0.7769118093110361  0.0950242318836735
  0.4694726448218410  0.2299453847322320  0.2147710112219593
  0.1650138045714998  0.4961139803662157  0.8244774999783464
  0.7375361720877018  0.6764872914926791  0.7783754101505123
  0.1342048872424172  0.5474954164443034  0.9737735774671271
  0.8996809201209484  0.4218366710115686  0.8852549627134586
  0.8248188674189609  0.9337746579891131  0.3177923386910483
  0.6694529904527599  0.3863928299592913  0.2231550532813235
  0.3464171857506569  0.3453696282870553  0.3325037157194064
  0.2941363318602798  0.1397625758850405  0.4535373039536567
  0.7854492147067077  0.0286635158274538  0.7386926870021532
  0.0893566754076421  0.9667802713877379  0.1321896536950629
  0.0248673609131403  0.1403790025333999  0.2242112627723825
  0.2681095862631857  0.5560531524468081  0.2974220654541573
  0.3864967177446493  0.7492561283509023  0.1197530575230325
  0.6456513120832532  0.8959671244182316  0.8627570396727166
  0.4955014868843400 -0.0163721263764273  0.7850203333489201
  0.7117724529145767  0.0885894722689609  0.1273289053611940
  0.8234775472647640  0.3744089782817066  0.5382915513126256
  0.4839961950637977  0.6100153253839192  0.4737247821949903
  0.7030705164441439  0.1348178793025916  0.6439204551271041
  0.7562892425580701  0.4256205265548791  0.9626884096788826
  0.0995995700354854  0.5597261007921827  0.1000619148805836
  0.4022544944207755  0.1211519782888596  0.5820137596336050
  0.1710280173139385  0.6268267607042798  0.4338637563548548
  0.4463502788512209  0.4248260933645377  0.1823329328559341
  0.1599252118003530  0.4909329530595577  0.3129219356696268
  0.5303981649763184  0.6039760701785255 -0.0042502042766383
  0.6256361603849103  0.3606502259344027  0.8517184026396041
  0.8093607675671609  0.3192380978333350  0.8903600379423448
  0.5398257287537762  0.7539558579597941  0.4583300013973225
  0.7761103350932876  0.2281482510482556  0.0322016494200489
  0.2672768410892081  0.9673994611081631  0.5938475136965167
  0.8163471890933230  0.1470366559127574  0.4452664567041023
  0.8146263398243210  0.2076302701343516  0.7173405804002339
  0.1510752692579440  0.7302033668845406  0.6377385832025886
  0.5816267593477973  0.1017580493344871  0.6010013897735922
  0.0849914590598752  0.7901125828759742  0.9818138424757319
  0.8186636514662531  0.4869034423110382  0.4739528293367602
  0.8226549505506741  0.3097170301869307  0.4184507154360832
  0.5355166681451222  0.6310063158205520  0.5866324476290953
  0.6207221166079745  0.8128612074652571  0.5341244012193256
  0.0554620752460160  0.6583492015654268  0.4816899767436634
  0.9462832411796853  0.3851385175983588  0.5442180922538569
  0.5902657183486033  0.2195698093157178  0.0876738385827976
  0.6444735957926144  0.7078953638325323  0.3916844204426657
  0.6511201014063899  0.5215118913071859  0.3814282473202495
  0.3301244882372497  0.5462035812475733  0.4037020446508950
  0.2794828591940311  0.1158015205231987  0.8608295366573756
 -0.0021625662991795  0.0410357188003452  0.7771289298524994
  0.9466894075269119  0.4393376907599972  0.0010186477664639
  0.4547691535968864  0.7897960346156416  0.5856497699393266
  0.1523091112649579  0.4286035460264673  0.0133266059521851
  0.8203895717033052  0.0181984000766829  0.4290903975117361
  0.1288071198123570  0.4204865784511672  0.7237128627523496
  0.3833539843317330  0.7148141193967643  0.3613270980903805
  0.3168232333701644  0.4490583196525014  0.2551306654447106
  0.6437934361074399  0.5960011303670419  0.2112767208908491
  0.8301690602384596  0.6982317346817103  0.8631887909013449
  0.9494969122500463  0.9378742930773315  0.5095627588132526
  0.5665046739719214  0.2298625409453391  0.4506489817014736
  0.7436654008394258  0.1135903618453648  0.0113900971740549
  0.9499649737206776  0.3661412942236918  0.2620551034179659
  0.8926347668622600  0.2393914781079143  0.0066675384053948
  0.6528159012368949  0.7399739282941725  0.8427074432805709
  0.2143766193750838  0.9243034500863075  0.9127378641812816
  0.5179372000987930  0.9657955536593419  0.2748688505155187
  0.0312387001823575  0.4922496103920836  0.4461658036263630
  0.7566032591793026  0.8570557197099848  0.3942849511361469
  0.5403886156626004  0.4247248301436755  0.0977838184373979
  0.0571722482627311  0.2851248680128986  0.9874754805295520
  0.7124161580129753  0.6807880011875813  0.6031036147947926
  0.2856504980163551  0.6547935342339281  0.7478293174354153
  0.8508118321291093  0.9746901479274194  0.8777685332596276
  0.8058635382294677  0.8409517494084734  0.5752302397582015
  0.2224967628084646  0.7427913285429760  0.4570449097489587
  0.3723625903125173  0.9445460390055419  0.5274916222606286
  0.2286425914795308  0.2813707823270540  0.2040444716120357
  0.5448507429947357  0.8723455993762367  0.7919033987252971
  0.3780852871551316  0.3785965770916651  0.4462881201091148
  0.4173452639467186 -0.0119299134746715  0.8803641955661337
  0.9336680592704427  0.5096186496933722  0.1680870684290488
  0.3913155467728203  0.3101338463063399  0.8002492869826494
  0.8882963686646110  0.7208249898161031  0.6862117505257597
  0.2937947176324308  0.1450567174606546  0.0690146909913955
  0.3051031814658831  0.9865121014235552  0.7163956912368910
  0.8204957766662712  0.5164689239061018  0.9029506993018966
  0.0908192141197265  0.1562634977722556  0.8857762774314062
  0.2885417451143997  0.7999809089728198  0.1812365481408593
  0.8759278067214638  0.6683320996918338  0.5016549515563822
  0.9622504750942193  0.8873185483072541  0.6938407629653356
  0.4934792746742352  0.8628773427578008  0.4129045205552597
  0.9798674309434259  0.0154038462154898  0.1894948089307070
  0.7469461559406818  0.4597437981690163  0.0842853029838347
  0.5214137827798619  0.4901177525897925  0.4993987866460430
  0.7406527767203478  0.3779349711815121  0.8009072058205235
  0.3888149463297898  0.0698295078016214  0.4020720771060527
  0.7609584730409695  0.2635217880256694  0.1465074894179530
  0.2812798979629580  0.0975515225770368  0.5753248984227430
  0.3601545715884872  0.8542613523636214  0.0113404156629019
  0.6245707615150227  0.0138806977688922  0.4073046171362120
  0.2097534558105205  0.5774219245046367  0.5403451045289794
  0.4577273451570462  0.9732137402119270  0.6695669807664653
  0.9253244757101935  0.8512931425228585  0.1465973786237674
  0.0720067403808023  0.2813104702782331  0.6199814078590051
  0.1084052416483319  0.1153618187449769  0.0754345671237360
  0.0759236346015025  0.0293715166660859  0.5970531616238088
  0.7328303997710550  0.9129793290598057  0.7503784214368403
  0.5868904878552181  0.1691926228408545  0.7887123809255971
  0.1592908770743579  0.7691243426521207  0.8199197979603466
  0.9308654319814534  0.1342597020940915  0.5211828755585982
  0.5709446985977689  0.6830365721154142  0.0852799001773533
  0.5580601408895706  0.4310574861955705  0.7724160650418188
  0.0440883061645901  0.5382140334041973  0.3364245624839119
  0.9484020514012981  0.6307893055285272  0.9728153888926322
  0.2305798749143421  0.9724262600663380  0.0879448325373473
  0.3906304117057331  0.2174293085992396  0.5062811449149216
  0.1532137696115296  0.1067046775427495  0.7299805290014364
  0.2411168092638853  0.2919806159597034  0.9298930059450582
  0.2156513724004955  0.2703947575587260  0.4952704955815537
  0.7113740931929857  0.9427961000764316  0.2489234566830909
  0.6226998135803841  0.0136124393107908  0.0929950193515667
  0.4774138464378517  0.1431309208485460  0.9580410242839574
  0.6212712839013576  0.0204991216417416  0.8946414870736558
  0.4954025974208974  0.7013661291082244  0.9243210617465443
  0.2459234068168135  0.2731904926912809  0.6871567928962682
  0.2875949534004320  0.4740120569606346  0.8523074921840599
  0.4691027505545912  0.3505777654458201  0.6221537777490146
  0.3383886123589310  0.8176592373206123  0.8306276955952281
  0.1450167521814666  0.9613179645369743  0.2496221305045909
  0.1086761609059361  0.1244619210988789  0.4685943692246018
  0.1637439347611863  0.0769274055167980  0.2962407973588017
  0.7731499047021625  0.0334625669609396  0.6103167734076752
  0.7010092160298145  0.5557942553403682  0.8009732159899953
  0.6736374278746807  0.4973879719342846  0.6314902446242527
  0.1880014029439969  0.4046834500860794  0.3906142123548960
  0.5952363342419925  0.8586409155948647  0.9987989956198607
  0.7339868278946537  0.6241719095962784  0.9881075692461705
  0.1244221880448818  0.4336391181235569  0.2094569854096500
  0.2955174121711088  0.8797362676480267  0.3545881519963285
  0.0385479423601536  0.6329266907047458  0.7648814170586133
  0.6944625031622186  0.2784385612661309  0.9581121091304372
  0.9042140053967896  0.1750206527852807  0.1895690865190310
  0.4211614240188434  0.1643633698942413  0.6937623278078109
  0.2243119659485688  0.5514034579420705  0.1223932283205659
  0.4367488046833476  0.5560243295808867  0.8433983663858585
  0.9518088981815049  0.5409153408556036  0.6259224046066403
  0.9029670132644542  0.8278075474144854 -0.0248987685317863
  0.8834913660620467  0.3662163380028873  0.6989781564159367
  0.8877053731395347  0.6198384647394933  0.1619421991430043
  0.0449153922660119  0.2914840235792462  0.4518757134591977
  0.4631902334863470  0.3359048914835778  0.2838328679658034
  0.3823767002238794  0.6257159676722984  0.1768778320088206
  0.9425408405461669  0.8014222133907456  0.4198986093598322
  0.7437847953974051  0.1346947084826609  0.3025174286592875
 -0.0180556588394157  0.1762521566532525  0.3419972153475409
  0.1252105309976329  0.9344943540854610  0.4238705122510687
  0.7390080296213154  0.2004601306570014  0.5425785441403812
  0.0907945238043838  0.8486634114726731  0.1763509086879402
  0.9876444182927128  0.4874134282410000  0.8289064801527994
  0.3615207137649795  0.1718963275004575  0.2499639612759878
  0.2935332418770742  0.8332914167306373  0.6560254933168495
  0.6552546478126448  0.3095601941707098  0.3172815838058880
  0.3659788544879639  0.4639486697752533  0.0546349096363753
  0.3222725687461507  0.6379533563916487  0.9866038716642617
  0.7592549162740526  0.8898470217251432  0.0636546394271464
  0.0528346845916246  0.2695449335097964  0.1578473847854677
  0.6370101606613507  0.4539025713911401  0.9416272143058841
  0.0756501525316197  0.6781758614233324  0.1341932108672814
  0.4152325839257432  0.0001306879318899  0.1185244583668354
  0.4621449859861804  0.6997779378987151  0.7388039363166957
  0.4874444364790009  0.8061748868345519  0.1751582386135066
 -0.0101655724280063  0.2221067951564953  0.7541695812504385
  0.6596601819139768  0.3790407346010813  0.4986314233930995
  0.4037205309899213  0.2841166726479904  0.0641881466236750
  0.7868282961791371  0.4242964874594349  0.2527989342018121
  0.8120411184449691  0.0214716358975556  0.1580227639684456
  0.0228440675830119  0.9817997811383252  0.9672527332679426
  0.8983224830087014  0.8175510560604793  0.2573291742893738
  0.7160975454072604  0.7706485459963779  0.2257074448427492
  0.0810724322687696  0.7445865321171220  0.3263967652315836
  0.5337497954949527  0.1656981754381280  0.3025111730327103
  0.4976009451997802  0.5049104750340064  0.2724530452366239
  0.3609098783446239  0.5101256948592875  0.5850539091845106
 
  0.00000000E+00  0.00000000E+00  0.00000000E+00
  0.00000000E+00  0.00000000E+00  0.00000000E+00
  0.00000000E+00  0.00000000E+00  0.00000000E+00
  0.00000000E+00  0.00000000E+00  0.00000000E+00
  0.00000000E+00  0.00000000E+00  0.00000000E+00
  0.00000000E+00  0.00000000E+00  0.00000000E+00
  0.00000000E+00  0.00000000E+00  0.00000000E+00
  0.00000000E+00  0.00000000E+00  0.00000000E+00
  0.00000000E+00  0.00000000E+00  0.00000000E+00
  0.00000000E+00  0.00000000E+00  0.00000000E+00
  0.00000000E+00  0.00000000E+00  0.00000000E+00
  0.00000000E+00  0.00000000E+00  0.00000000E+00
  0.00000000E+00  0.00000000E+00  0.00000000E+00
  0.00000000E+00  0.00000000E+00  0.00000000E+00
  0.00000000E+00  0.00000000E+00  0.00000000E+00
  0.00000000E+00  0.00000000E+00  0.00000000E+00
  0.00000000E+00  0.00000000E+00  0.00000000E+00
  0.00000000E+00  0.00000000E+00  0.00000000E+00
  0.00000000E+00  0.00000000E+00  0.00000000E+00
  0.00000000E+00  0.00000000E+00  0.00000000E+00
  0.00000000E+00  0.00000000E+00  0.00000000E+00
  0.00000000E+00  0.00000000E+00  0.00000000E+00
  0.00000000E+00  0.00000000E+00  0.00000000E+00
  0.00000000E+00  0.00000000E+00  0.00000000E+00
  0.00000000E+00  0.00000000E+00  0.00000000E+00
  0.00000000E+00  0.00000000E+00  0.00000000E+00
  0.00000000E+00  0.00000000E+00  0.00000000E+00
  0.00000000E+00  0.00000000E+00  0.00000000E+00
  0.00000000E+00  0.00000000E+00  0.00000000E+00
  0.00000000E+00  0.00000000E+00  0.00000000E+00
  0.00000000E+00  0.00000000E+00  0.00000000E+00
  0.00000000E+00  0.00000000E+00  0.00000000E+00
  0.00000000E+00  0.00000000E+00  0.00000000E+00
  0.00000000E+00  0.00000000E+00  0.00000000E+00
  0.00000000E+00  0.00000000E+00  0.00000000E+00
  0.00000000E+00  0.00000000E+00  0.00000000E+00
  0.00000000E+00  0.00000000E+00  0.00000000E+00
  0.00000000E+00  0.00000000E+00  0.00000000E+00
  0.00000000E+00  0.00000000E+00  0.00000000E+00
  0.00000000E+00  0.00000000E+00  0.00000000E+00
  0.00000000E+00  0.00000000E+00  0.00000000E+00
  0.00000000E+00  0.00000000E+00  0.00000000E+00
  0.00000000E+00  0.00000000E+00  0.00000000E+00
  0.00000000E+00  0.00000000E+00  0.00000000E+00
  0.00000000E+00  0.00000000E+00  0.00000000E+00
  0.00000000E+00  0.00000000E+00  0.00000000E+00
  0.00000000E+00  0.00000000E+00  0.00000000E+00
  0.00000000E+00  0.00000000E+00  0.00000000E+00
  0.00000000E+00  0.00000000E+00  0.00000000E+00
  0.00000000E+00  0.00000000E+00  0.00000000E+00
  0.00000000E+00  0.00000000E+00  0.00000000E+00
  0.00000000E+00  0.00000000E+00  0.00000000E+00
  0.00000000E+00  0.00000000E+00  0.00000000E+00
  0.00000000E+00  0.00000000E+00  0.00000000E+00
  0.00000000E+00  0.00000000E+00  0.00000000E+00
  0.00000000E+00  0.00000000E+00  0.00000000E+00
  0.00000000E+00  0.00000000E+00  0.00000000E+00
  0.00000000E+00  0.00000000E+00  0.00000000E+00
  0.00000000E+00  0.00000000E+00  0.00000000E+00
  0.00000000E+00  0.00000000E+00  0.00000000E+00
  0.00000000E+00  0.00000000E+00  0.00000000E+00
  0.00000000E+00  0.00000000E+00  0.00000000E+00
  0.00000000E+00  0.00000000E+00  0.00000000E+00
  0.00000000E+00  0.00000000E+00  0.00000000E+00
  0.00000000E+00  0.00000000E+00  0.00000000E+00
  0.00000000E+00  0.00000000E+00  0.00000000E+00
  0.00000000E+00  0.00000000E+00  0.00000000E+00
  0.00000000E+00  0.00000000E+00  0.00000000E+00
  0.00000000E+00  0.00000000E+00  0.00000000E+00
  0.00000000E+00  0.00000000E+00  0.00000000E+00
  0.00000000E+00  0.00000000E+00  0.00000000E+00
  0.00000000E+00  0.00000000E+00  0.00000000E+00
  0.00000000E+00  0.00000000E+00  0.00000000E+00
  0.00000000E+00  0.00000000E+00  0.00000000E+00
  0.00000000E+00  0.00000000E+00  0.00000000E+00
  0.00000000E+00  0.00000000E+00  0.00000000E+00
  0.00000000E+00  0.00000000E+00  0.00000000E+00
  0.00000000E+00  0.00000000E+00  0.00000000E+00
  0.00000000E+00  0.00000000E+00  0.00000000E+00
  0.00000000E+00  0.00000000E+00  0.00000000E+00
  0.00000000E+00  0.00000000E+00  0.00000000E+00
  0.00000000E+00  0.00000000E+00  0.00000000E+00
  0.00000000E+00  0.00000000E+00  0.00000000E+00
  0.00000000E+00  0.00000000E+00  0.00000000E+00
  0.00000000E+00  0.00000000E+00  0.00000000E+00
  0.00000000E+00  0.00000000E+00  0.00000000E+00
  0.00000000E+00  0.00000000E+00  0.00000000E+00
  0.00000000E+00  0.00000000E+00  0.00000000E+00
  0.00000000E+00  0.00000000E+00  0.00000000E+00
  0.00000000E+00  0.00000000E+00  0.00000000E+00
  0.00000000E+00  0.00000000E+00  0.00000000E+00
  0.00000000E+00  0.00000000E+00  0.00000000E+00
  0.00000000E+00  0.00000000E+00  0.00000000E+00
  0.00000000E+00  0.00000000E+00  0.00000000E+00
  0.00000000E+00  0.00000000E+00  0.00000000E+00
  0.00000000E+00  0.00000000E+00  0.00000000E+00
  0.00000000E+00  0.00000000E+00  0.00000000E+00
  0.00000000E+00  0.00000000E+00  0.00000000E+00
  0.00000000E+00  0.00000000E+00  0.00000000E+00
  0.00000000E+00  0.00000000E+00  0.00000000E+00
  0.00000000E+00  0.00000000E+00  0.00000000E+00
  0.00000000E+00  0.00000000E+00  0.00000000E+00
  0.00000000E+00  0.00000000E+00  0.00000000E+00
  0.00000000E+00  0.00000000E+00  0.00000000E+00
  0.00000000E+00  0.00000000E+00  0.00000000E+00
  0.00000000E+00  0.00000000E+00  0.00000000E+00
  0.00000000E+00  0.00000000E+00  0.00000000E+00
  0.00000000E+00  0.00000000E+00  0.00000000E+00
  0.00000000E+00  0.00000000E+00  0.00000000E+00
  0.00000000E+00  0.00000000E+00  0.00000000E+00
  0.00000000E+00  0.00000000E+00  0.00000000E+00
  0.00000000E+00  0.00000000E+00  0.00000000E+00
  0.00000000E+00  0.00000000E+00  0.00000000E+00
  0.00000000E+00  0.00000000E+00  0.00000000E+00
  0.00000000E+00  0.00000000E+00  0.00000000E+00
  0.00000000E+00  0.00000000E+00  0.00000000E+00
  0.00000000E+00  0.00000000E+00  0.00000000E+00
  0.00000000E+00  0.00000000E+00  0.00000000E+00
  0.00000000E+00  0.00000000E+00  0.00000000E+00
  0.00000000E+00  0.00000000E+00  0.00000000E+00
  0.00000000E+00  0.00000000E+00  0.00000000E+00
  0.00000000E+00  0.00000000E+00  0.00000000E+00
  0.00000000E+00  0.00000000E+00  0.00000000E+00
  0.00000000E+00  0.00000000E+00  0.00000000E+00
  0.00000000E+00  0.00000000E+00  0.00000000E+00
  0.00000000E+00  0.00000000E+00  0.00000000E+00
  0.00000000E+00  0.00000000E+00  0.00000000E+00
  0.00000000E+00  0.00000000E+00  0.00000000E+00
  0.00000000E+00  0.00000000E+00  0.00000000E+00
  0.00000000E+00  0.00000000E+00  0.00000000E+00
  0.00000000E+00  0.00000000E+00  0.00000000E+00
  0.00000000E+00  0.00000000E+00  0.00000000E+00
  0.00000000E+00  0.00000000E+00  0.00000000E+00
  0.00000000E+00  0.00000000E+00  0.00000000E+00
  0.00000000E+00  0.00000000E+00  0.00000000E+00
  0.00000000E+00  0.00000000E+00  0.00000000E+00
  0.00000000E+00  0.00000000E+00  0.00000000E+00
  0.00000000E+00  0.00000000E+00  0.00000000E+00
  0.00000000E+00  0.00000000E+00  0.00000000E+00
  0.00000000E+00  0.00000000E+00  0.00000000E+00
  0.00000000E+00  0.00000000E+00  0.00000000E+00
  0.00000000E+00  0.00000000E+00  0.00000000E+00
  0.00000000E+00  0.00000000E+00  0.00000000E+00
  0.00000000E+00  0.00000000E+00  0.00000000E+00
  0.00000000E+00  0.00000000E+00  0.00000000E+00
  0.00000000E+00  0.00000000E+00  0.00000000E+00
  0.00000000E+00  0.00000000E+00  0.00000000E+00
  0.00000000E+00  0.00000000E+00  0.00000000E+00
  0.00000000E+00  0.00000000E+00  0.00000000E+00
  0.00000000E+00  0.00000000E+00  0.00000000E+00
  0.00000000E+00  0.00000000E+00  0.00000000E+00
  0.00000000E+00  0.00000000E+00  0.00000000E+00
  0.00000000E+00  0.00000000E+00  0.00000000E+00
  0.00000000E+00  0.00000000E+00  0.00000000E+00
  0.00000000E+00  0.00000000E+00  0.00000000E+00
  0.00000000E+00  0.00000000E+00  0.00000000E+00
  0.00000000E+00  0.00000000E+00  0.00000000E+00
  0.00000000E+00  0.00000000E+00  0.00000000E+00
  0.00000000E+00  0.00000000E+00  0.00000000E+00
  0.00000000E+00  0.00000000E+00  0.00000000E+00
  0.00000000E+00  0.00000000E+00  0.00000000E+00
  0.00000000E+00  0.00000000E+00  0.00000000E+00
  0.00000000E+00  0.00000000E+00  0.00000000E+00
  0.00000000E+00  0.00000000E+00  0.00000000E+00
  0.00000000E+00  0.00000000E+00  0.00000000E+00
  0.00000000E+00  0.00000000E+00  0.00000000E+00
  0.00000000E+00  0.00000000E+00  0.00000000E+00
  0.00000000E+00  0.00000000E+00  0.00000000E+00
  0.00000000E+00  0.00000000E+00  0.00000000E+00
  0.00000000E+00  0.00000000E+00  0.00000000E+00
  0.00000000E+00  0.00000000E+00  0.00000000E+00
  0.00000000E+00  0.00000000E+00  0.00000000E+00
  0.00000000E+00  0.00000000E+00  0.00000000E+00
  0.00000000E+00  0.00000000E+00  0.00000000E+00
  0.00000000E+00  0.00000000E+00  0.00000000E+00
  0.00000000E+00  0.00000000E+00  0.00000000E+00
  0.00000000E+00  0.00000000E+00  0.00000000E+00
  0.00000000E+00  0.00000000E+00  0.00000000E+00
  0.00000000E+00  0.00000000E+00  0.00000000E+00
  0.00000000E+00  0.00000000E+00  0.00000000E+00
  0.00000000E+00  0.00000000E+00  0.00000000E+00
  0.00000000E+00  0.00000000E+00  0.00000000E+00
  0.00000000E+00  0.00000000E+00  0.00000000E+00
  0.00000000E+00  0.00000000E+00  0.00000000E+00
  0.00000000E+00  0.00000000E+00  0.00000000E+00
  0.00000000E+00  0.00000000E+00  0.00000000E+00
  0.00000000E+00  0.00000000E+00  0.00000000E+00
  0.00000000E+00  0.00000000E+00  0.00000000E+00
  0.00000000E+00  0.00000000E+00  0.00000000E+00
  0.00000000E+00  0.00000000E+00  0.00000000E+00
  0.00000000E+00  0.00000000E+00  0.00000000E+00
  0.00000000E+00  0.00000000E+00  0.00000000E+00
  0.00000000E+00  0.00000000E+00  0.00000000E+00
  0.00000000E+00  0.00000000E+00  0.00000000E+00
  0.00000000E+00  0.00000000E+00  0.00000000E+00
  0.00000000E+00  0.00000000E+00  0.00000000E+00
  0.00000000E+00  0.00000000E+00  0.00000000E+00
  0.00000000E+00  0.00000000E+00  0.00000000E+00
  0.00000000E+00  0.00000000E+00  0.00000000E+00
  0.00000000E+00  0.00000000E+00  0.00000000E+00
  0.00000000E+00  0.00000000E+00  0.00000000E+00
  0.00000000E+00  0.00000000E+00  0.00000000E+00
  0.00000000E+00  0.00000000E+00  0.00000000E+00
  0.00000000E+00  0.00000000E+00  0.00000000E+00
  0.00000000E+00  0.00000000E+00  0.00000000E+00
  0.00000000E+00  0.00000000E+00  0.00000000E+00
  0.00000000E+00  0.00000000E+00  0.00000000E+00
  0.00000000E+00  0.00000000E+00  0.00000000E+00
  0.00000000E+00  0.00000000E+00  0.00000000E+00
  0.00000000E+00  0.00000000E+00  0.00000000E+00
  0.00000000E+00  0.00000000E+00  0.00000000E+00
  0.00000000E+00  0.00000000E+00  0.00000000E+00
  0.00000000E+00  0.00000000E+00  0.00000000E+00
  0.00000000E+00  0.00000000E+00  0.00000000E+00
  0.00000000E+00  0.00000000E+00  0.00000000E+00
  0.00000000E+00  0.00000000E+00  0.00000000E+00
  0.00000000E+00  0.00000000E+00  0.00000000E+00
  0.00000000E+00  0.00000000E+00  0.00000000E+00
  0.00000000E+00  0.00000000E+00  0.00000000E+00
  0.00000000E+00  0.00000000E+00  0.00000000E+00
  0.00000000E+00  0.00000000E+00  0.00000000E+00
  0.00000000E+00  0.00000000E+00  0.00000000E+00
  0.00000000E+00  0.00000000E+00  0.00000000E+00
  0.00000000E+00  0.00000000E+00  0.00000000E+00
  0.00000000E+00  0.00000000E+00  0.00000000E+00
  0.00000000E+00  0.00000000E+00  0.00000000E+00
  0.00000000E+00  0.00000000E+00  0.00000000E+00
  0.00000000E+00  0.00000000E+00  0.00000000E+00
  0.00000000E+00  0.00000000E+00  0.00000000E+00
  0.00000000E+00  0.00000000E+00  0.00000000E+00
  0.00000000E+00  0.00000000E+00  0.00000000E+00
  0.00000000E+00  0.00000000E+00  0.00000000E+00