Amorphous Sb                            
   1.00000000000000     
    22.5913554274211243    0.0000000000000000    0.0000000000000000
     0.0000000000000000   22.5913554274211243    0.0000000000000000
     0.0000000000000000    0.0000000000000000   22.5913554274211243
   Sn   Te
    30   270
Direct
  0.0443754483115365  0.1040670623093974  0.1713857140974799
  0.7183242633418266  0.5746993817191535  0.7944887854300143
  0.8826094276432491  0.2774440770773992  0.6099563763531606
  0.8609922018438746  0.3489257292736294  0.7899689212394253
  0.6463134921721586  0.1636431858620935  0.8560566506224681
  0.0019617331663020  0.0294928353003156  0.3444340486404062
  0.8996645914387015  0.0894944546287164  0.5262580441134126
  0.4577554321064486  0.6641935363793054  0.3788518215779852
  0.4370249444950665  0.2822801215216442  0.9424043572661698
  0.6549316664824701  0.5100394463939077  0.3215071357405924
  0.7473267753797094  0.9196417025373111  0.0411883579253370
  0.1732916997135162  0.6338723218504762  0.8523862534571253
  0.7824922069086379  0.8839045936449244  0.7807032184425116
  0.5329580628625242  0.3548987004389801  0.2726497918522569
  0.7013331935185985  0.7399701027382686  0.2898777126539511
  0.9060324492173036  0.8518900853901471  0.0777099129805008
  0.2133950852615447  0.0412565477039629  0.4382474033174117
  0.2023948990519594  0.4502662118790829  0.0097181173377879
  0.2719716563014357  0.2982674822129282  0.9122682786800729
  0.5022333147385021  0.0708987322108637  0.9320391911545338
  0.2841188787627581  0.1099395234930627  0.9126534208260042
  0.6262003449533725  0.0130004809552666  0.0612390469286061
  0.8202760845323831  0.1549275839471479  0.3658027265618917
  0.4198872273348666  0.0835830554609176  0.7840668208763822
  0.1791138579945427  0.3263166919627135  0.4454360092760983
  0.6614747962835644  0.0132073934126533  0.2028246614699739
  0.7453108004297488  0.7624545807482019  0.5196599145685328
  0.1742958840080195  0.6326998404587331  0.0375697420598905
  0.0498650373586804  0.3089662565599989  0.1772464039814828
  0.7743343192942788  0.1560260930486346  0.6617109173998413
  0.9072245808255094  0.0060789659848938  0.2557663904811338
  0.3128541038953034  0.7821408198417256  0.4748925545537358
  0.1143606803707304  0.8662357426747470  0.9541406401960140
  0.1878855618567027  0.7761178017536313  0.3567007304042260
  0.8383288737159628  0.8341513331656679  0.3217300702089381
  0.8842553755152177  0.4622049752467496  0.6337451012524494
  0.6260771589152655  0.2816576686742014  0.7393774848989902
  0.3285214017914390  0.0648530970250371  0.3805877562863520
  0.2182896682726701  0.9953004770728793  0.8420069122571571
  0.0714257095211964  0.6921874084750732  0.6338289763380819
  0.7369989896712584  0.5811168343274952  0.9214894354255022
  0.9139930447232220  0.1607361984580780  0.6398018360464589
  0.1059772672446583  0.6610915665262737  0.5182990156949864
  0.5343929649592692  0.5788582782845695  0.8641613747453875
  0.5508867981519435  0.8440229461854413  0.0708603032851117
  0.4364218083485332 -0.0082203263581021  0.2985410720304796
  0.2075365878138498  0.0473401390828321  0.3054505132813769
  0.4828220198506901  0.6246896284379818  0.0367086633120943
  0.0136704825131573  0.8872498122899314  0.3721884465063642
  0.9597339350187709  0.0051783177234712  0.1380470083195610
  0.1025378283069498  0.6146894868484546  0.1656913131313091
  0.4354229621953978  0.2859519227911146  0.1817078945034093
  0.8807636763583307  0.8963761156144657  0.4403257589772702
  0.1135386114444661  0.8774557270288322  0.2937324950292274
  0.5156667657475862  0.3539900741146064  0.5063736047882020
  0.7751305837849493  0.0378149680385922  0.1433300515106966
  0.8843166504227259  0.5072595729721252  0.1262036323439068
  0.5197874289135143  0.4207311869871330  0.0536216535022211
  0.1662660539765954  0.2471357533825390  0.0954004750280046
  0.0069738733095081  0.2514023889119888  0.2922207958181783
  0.8491880441633708  0.9722429250225464  0.7011369999879041
  0.4944905898990901  0.8697678871346284  0.6499181254471690
  0.3298138713929550  0.2767156839431868  0.3985584303971997
  0.7899159158399731  0.9560555961610159  0.5904670878727943
  0.1070232959635766  0.8654244729820038  0.5667472980057786
  0.5436361060455773  0.4632767658267180  0.4281114503909427
  0.3076309815800722  0.1658375108298391  0.7896322804332454
  0.9213250020783678  0.1945396257960877  0.4461432940458258
  0.8803614427091985  0.5102067870139182  0.4612573597834145
  0.4836834383888663  0.2357876285855472  0.5476356268478290
  0.5605246832159304  0.9345523699350583  0.9800100268889183
  0.6910508775365937  0.9191693729598472  0.4813377034984551
  0.3631787700279777  0.9580597036310603  0.1205273773747438
  0.2346731512493508  0.0571028316483503  0.7275381825996602
  0.7994298937300426  0.2549450728831675  0.2833533491985735
  0.0080537469196014  0.8455468484723675  0.7705155643197135
  0.8626019294601512  0.7524651104968885  0.7998898060585077
  0.5818029678203120  0.5348360750008465  0.9960068252245119
  0.3376828482075654  0.5398397902524100  0.5856124448257841
  0.6559287880880426  0.6592225005204100  0.6029289273136914
  0.1965486472850262  0.4334660376711806  0.1876805347193112
  0.3857555818625213  0.0241012502777552  0.8997644460242393
  0.9845084717383616  0.6628456176811162  0.2932459665768255
  0.7116385981672815  0.1167497264608336  0.2942664952050199
  0.0254650311827514  0.5855854810465890  0.4373123356260448
  0.1747596070687986  0.7668055539722118  0.6169211831144046
  0.6614414067280172  0.8901073803662356  0.1378385922282730
  0.6295692726325173  0.3864738479872842  0.3643253446343745
  0.0554064618428392  0.7312484134608443  0.9616665621563124
  0.7739258780759766  0.3379000715544263  0.1041362380853978
  0.9872825950418723  0.0385567645802271  0.9027122598915110
  0.8965249158725154  0.4144250249664339  0.3597011480320320
  0.4925813258054970  0.1755684382703095  0.2068635377591682
  0.8926282550306304  0.8647075103034615  0.8854825234781118
  0.9756569494122801  0.2632852316587732  0.9593746129005927
  0.0817638214144367  0.4799490006655718  0.4820883200533866
  0.1065436897553241  0.5373074043276688  0.9763958962317875
  0.7867729029422502  0.4647089212190270  0.0572459341326357
  0.9671334337212962  0.5288400099255641  0.5684497357300426
  0.9556411076381474  0.7147455709523903  0.4061146478993245
  0.1699185917567380  0.4551682335046965  0.3974872546054360
  0.2599894585754240  0.4928640509179447  0.8966926318556632
  0.9622156604999524  0.0152137878050211  0.7830153698183480
  0.7273918761522966  0.6765174876325573  0.4067368466077644
  0.1104938212626682  0.2477139773560557  0.5933330753542517
  0.5011669773397521  0.1812599470572469  0.8693841586000918
  0.9086458895743027  0.6502617757853563  0.0624710881773923
  0.8946264715359644  0.3410808680732162  0.2547252832568943
  0.6088268907394090 -0.0065090039753206  0.5828737535694712
  0.2689973517398824  0.9463095349897858  0.5555053352432039
  0.8616059297868260  0.6393900131667546  0.6619914672708059
  0.3927170983045291  0.2648789901066858  0.8125002319948941
  0.4824993932689598  0.5440447531808050  0.5765008871797890
  0.4099548242653885  0.2131154477456987  0.3169994409333520
  0.9679975722267181  0.3521581255992414  0.6655349661600760
  0.4424061921050719  0.5058577036028610  0.1305596092354502
  0.8032663333841997  0.4995692166738062  0.3342990166896663
  0.6668211359301961  0.6309616224978744  0.2277184746175941
  0.8287487703757953  0.6604776087989498  0.5414025677486928
  0.3686927578995669  0.4865518017801393  0.4717213296848842
  0.7650664562630067  0.0773535687585078  0.5381022231674385
  0.5300898122777780  0.0470578692237409  0.4956155678132019
  0.6258067342979000  0.1232780889583209  0.9836366004025654
  0.3572347711982112  0.5682074891457020  0.0497253742171160
  0.7553027922446625  0.9908765792792276  0.8726789661921440
  0.5260183336684626 -0.0087396463698832  0.6829131524731492
  0.1497269045396214  0.3457802927290703  0.9315770223292886
  0.0530320403850334  0.2825514189075948  0.4530849610335010
  0.2688734651365485  0.3732680395616682  0.6196044129536810
  0.6549362786661105  0.4597123532259005  0.6038907738759247
  0.5222700055787083  0.7332610457196962  0.6384431350907713
  0.4525092032773355  0.7800847485408600  0.4559768795119012
  0.5720704979934230  0.1689798603152020  0.7228612826348937
  0.5311184519368797  0.3533524023610330  0.6927076517127998
  0.2262244538659037  0.6535177285182029  0.7298149992041572
  0.8026339825833201  0.3442496090962374  0.9092828777873545
  0.3600507552108410  0.3863454272001114  0.8028892133574156
  0.5995641472030052  0.2355053103463531  0.2294815007250740
  0.4835448761831873  0.6899672412484384  0.9281986116184929
  0.0826805339945968  0.1344711942170684  0.4375136169428932
  0.4494569206376387  0.9039542099218294  0.3948720260345862
  0.0390436122171082  0.6742116266458262  0.8423903836725835
  0.7431552670812123  0.1699078088447754  0.0111416145120770
  0.4460058269122893  0.7949306550433957 -0.0014227706425919
  0.8484429869548855  0.6471533915886512  0.8761304188259926
  0.3759345170179227  0.1527043042695175  0.4556534382751105
  0.5247493727051414  0.3790036081598950  0.8703620888603475
  0.1046597488521315 -0.0018643258542828  0.2467980367870732
  0.9842245497453311  0.3836778003129230  0.0128617748709003
  0.1512452290916897  0.3404254521323385  0.2592852680119698
  0.2451631487571258  0.9740630787993068  0.1498614254541435
  0.0638458144106104  0.7615228116421574  0.4541117556583797
  0.5605316131029263  0.7560771031821694  0.3019238639412276
  0.7619229914384810  0.2909600982757259  0.6365888167339662
  0.2722585891271905  0.7980124934890663  0.2657299437828551
  0.0356293946165085  0.8934516485261930  0.1250890223261078
  0.1875601890988068  0.1873349844934244  0.4845031827931013
  0.1381449668058856  0.1983125153154515 -0.0159659349088152
  0.4339402846500752  0.6842531028278139  0.1609263753167337
  0.4304359756929542  0.9723933247317598  0.4953095050548547
  0.3775902934577825  0.6922098693225016  0.2736423216846304
  0.2095879204120762  0.6206953929645342  0.2304469048656429
  0.0409935462229257  0.0857086843160656  0.5517629301941098
  0.3564317836916633  0.9900435330244721  0.7089304257874839
  0.1647310359456365  0.6546830916763358  0.3397522212247204
  0.9896388911781058  0.4221030121306564  0.1987218119879510
 -0.0010642393254757  0.2132861318475354  0.0977085906988015
  0.5861936645324368  0.8719113001150848  0.5537426318816335
  0.0780858511572228  0.4434284105358176  0.2923203632263102
  0.5017356331698978  0.2922018375030770  0.0724266153771929
  0.7511466140260475  0.1934949395717361  0.4747053351305757
  0.6440801847599191  0.5172761386250200  0.4842499665104260
 -0.0183194792739401  0.3099954002005658  0.8416230551957272
  0.2316713084582300  0.1515991175991291  0.1553069669395995
  0.1915795195972957  0.3170499189671618  0.8144706349960851
  0.6039985948326673  0.6458298228796787  0.4754440581902656
  0.3604381429065991  0.1256223403566584  0.0918060851334439
  0.2943987609963079  0.2468850868934153  0.5953211138936726
  0.2656493271275826  0.9216036936318113  0.2960053258372481
  0.1923499425329168  0.7703056549850402  0.8953662751617645
  0.3342854697136594  0.6704567231545913  0.5406935630680503
  0.7448459009190755  0.4620790837858715  0.2285425290511650
  0.1646341367673342  0.9541719849259267  0.6310211442937136
  0.1982991290027699  0.0147874985814097  0.0392948540707679
  0.3034601645073773  0.9100218104449939  0.8076606795589245
  0.8057447420000792  0.4853524014697584  0.7652791772149201
  0.9365552705873543  0.5808129876136425  0.9613144557360074
  0.3003940748882978  0.8263268656217262  0.5903263235356822
  0.7809920622648739  0.8100179826115036  0.9065217477962269
  0.5800148045755575  0.7726108349926515  0.4377072520342387
  0.7032010598414896  0.3399376511762208  0.2602741341595730
  0.1481307599619958  0.3682758098499883  0.5702713997778808
  0.5026352722723705  0.2644289965015013  0.3871089604246260
  0.4979086156899989  0.6191413389785820  0.7475372387799906
  0.1068853747145008  0.0926618591272524  0.8792459709511448
  0.3422396440765996  0.6135681375594838  0.4120432318581883
  0.4812163383571941  0.1254025543202315  0.0525137819501134
  0.6386181993196831  0.1370834082691228  0.6229960093007412
  0.7727720988179800  0.2416589666487493  0.7688007444917316
  0.7180348157742205  0.9915900394243720  0.3216166278863349
  0.6108878913186097  0.0074166020157204  0.3989478084052840
  0.6242702742777214  0.4865395486193048  0.7945856426424672
  0.5723563754342154  0.8062415838875094  0.7443848472010011
  0.6102466182326927  0.4087339256527532  0.1725211561713293
  0.6781890212285240  0.8845114302392214  0.6952980128424180
  0.3730640319758075  0.6236055396334246  0.7363598918004339
  0.8672068823858367  0.9713153694356296  0.9484098095659026
  0.2427346112990569  0.5458807756959012  0.1084587057737772
  0.0982660029901435  0.3685793310045382  0.0640709338547704
  0.7790843344171875  0.8121710162264829  0.1728994229139800
  0.2164516644319820  0.2136519231962357  0.3438201873416641
  0.2487142996754444  0.9136239251772724  0.4300304866512600
  0.1046668706828062  0.7872575173589118  0.0781837041240660
  0.7654021727633477  0.8069180371824608  0.6575901676295717
  0.5510796639663323  0.4992659864768794  0.2409663958387340
  0.8696064222412112  0.4440898192315717  0.9413644634044933
  0.5301273850282526  0.0770144176536242  0.3276954310753702
  0.0603585520855782  0.7289955495158111  0.1808494765714913
  0.6939596008843170  0.4077114920539024  0.7252115558089528
  0.8951779352342509  0.7585345236764641  0.1697402150787646
  0.6556580163473614  0.3013894772410038  0.0940746967302972
  0.9329810467552473  0.7510638161734378  0.9901193161808283
  0.3169883733192507  0.1132414005336861  0.5599980387393193
  0.8707290894179376  0.0365546283014526  0.3913031305986123
  0.9069952265989807  0.5643771801735405  0.7847016122410539
  0.5467705702195917  0.7339390215593881  0.1694911816568805
  0.9756522160420200  0.5418810038983093  0.3239579002251003
  0.2278412896382487  0.9255953643198801  0.9581988939249972
  0.4697624976600262  0.6642990586976649  0.5369750051828220
  0.7326853509747812  0.1539495925265957  0.1342401002243860
  0.3847510240620062  0.5596722538747676  0.3019327774428353
  0.2694705335623665  0.2422429726221327  0.2295444039152194
  0.3219812688617147  0.5061587373141244  0.7410967088911414
  0.3863635764608138  0.4093168460513505  0.6809279281400736
  0.4403037813641192  0.8540151036236608  0.8873277144883175
  0.7798320601018335  0.5922991233810670  0.1929663724752159
  0.5412056648642956  0.9945145770297129  0.8289916329385637
  0.3933869388175514  0.3750158466292345  0.5283229931303588
 -0.0075953405541628  0.5067961138631812  0.6979158433151943
  0.0691803956881004  0.9608041388854486  0.7500405408335992
  0.7276888124521502  0.6885936357676526  0.7217677145500292
  0.8803073274812186  0.2012320961021129  0.1285939796480869
  0.6833092261410080  0.4685283170196357  0.9531330761083722
  0.2628754311220381  0.7899359117761697  0.0912745187219513
  0.0399930967699507  0.9728193674192296  0.4991086230328722
  0.7054802279767430  0.8556429629834412  0.3707397365638748
  0.8492005923594120  0.2688767901384094  0.0227132579182428
  0.1106942826411630  0.0936312412805855  0.7509547761526587
  0.3746058084144595  0.4189389815628238  0.1928500776252250
  0.9193437154679164  0.9522407865160186  0.5505020067801040
  0.9476188824417162  0.1333236621052892  0.2630622391874534
  0.4618062280445239  0.7648983439283462  0.8064888909816662
  0.5621757043767311  0.5270292201098201  0.6736806789923665
  0.8296166770544935  0.7059884512565487  0.3347768026516653
  0.1010140319065151  0.7632825175239394  0.7799209901723810
  0.5088755183653876  0.0259344498475676  0.1234243402784022
  0.7524676829092116  0.6126582575639953  0.0676805523118079
  0.4499937673646300  0.2677364551411843  0.6652916528870106
  0.3483662176805255  0.3969548599631996  0.9539851990899499
  0.5988009868719725  0.3482904331900423  0.9749906353084894
  0.3686311923454611  0.8316995228660390  0.1401168160584995
  0.2298117201352318  0.8458426807247894  0.7206465976167047
  0.2055653863690997  0.2136112833385426  0.6726511520968638
  0.6739757216705087  0.8903238139769996  0.9319848548570787
  0.1428308436502739  0.4993770446931019  0.8344684342170502
  0.0283250266033175  0.9444875285389259  0.0083111409493966
  0.2831394328264998  0.3763405464223147  0.1200734604392961
  0.8739136383994530  0.3065616024785068  0.4847098839574404
  0.4904597556971344  0.9117169239637717  0.2160398896809548
  0.4111355397777258  0.4368307697679747  0.3480104284855059
  0.1544837293090953  0.5433705463795989  0.6670775345581780
  0.9349114667524875  0.7350025067249252  0.6987668287724443
  0.2796312697914662  0.6167690182509762  0.9454111797099620
  0.0483714311202652  0.2632246107424466  0.7039650443338675
  0.9837755737651770  0.3835725013039294  0.4735507405905267
  0.5871338594026518  0.8783858568843684  0.2906269298590305
  0.6506842392490415  0.7264008289315265  0.8125160466884805
  0.4609997252033810  0.4766403269952651  0.9044659165298793
  0.7837697717237588  0.1674986223661507  0.8721678486512644
  0.8759030062232380  0.7867844349722892  0.5043231514617446
  0.8110899796091829  0.0714901839330051  0.7869114989319334
  0.3025310273843925  0.7503250021384029  0.7607094018214710
  0.9551364282018887  0.8277494810775532  0.2679226094185981
  0.1042473263949398  0.1673226567931807  0.3010629896366340
  0.3046470190192233  0.3756946524778343  0.3221514152651339
  0.6092569174320561  0.1925965659349494  0.3556685708353085
  0.8092236124848432  0.4346607988116868  0.5274589970604903
  0.6297277799928955  0.6184114666482162  0.0790254894838922
  0.6263752092302705  0.1875414806283913  0.4897556516111315
  0.0808207878374106  0.0953276116855852  0.0223463527281000
  0.4197560236472109  0.0656526942273040  0.6204679794344659
  0.9999730843596463  0.5120529623889495  0.0544454162398881
  0.7376303661991516  0.5665265654714904  0.5791211168523550
  0.2114415996031225  0.5279674647399619  0.5600261409062524
  0.9584060762631395  0.4356327462850175  0.8426341292062157
  0.7819666242745256  0.7927869557225158  0.0438823563272619
  0.2917898259730987  0.7518427842681995  0.9749849334338300
  0.3299737897062511  0.2080654909243864  0.9968803171074807
  0.1873101433258152  0.4370244034471361  0.7345580390857452
  0.6521068879625322  0.0411691468770540  0.7996094357894945
 
  0.00000000E+00  0.00000000E+00  0.00000000E+00
  0.00000000E+00  0.00000000E+00  0.00000000E+00
  0.00000000E+00  0.00000000E+00  0.00000000E+00
  0.00000000E+00  0.00000000E+00  0.00000000E+00
  0.00000000E+00  0.00000000E+00  0.00000000E+00
  0.00000000E+00  0.00000000E+00  0.00000000E+00
  0.00000000E+00  0.00000000E+00  0.00000000E+00
  0.00000000E+00  0.00000000E+00  0.00000000E+00
  0.00000000E+00  0.00000000E+00  0.00000000E+00
  0.00000000E+00  0.00000000E+00  0.00000000E+00
  0.00000000E+00  0.00000000E+00  0.00000000E+00
  0.00000000E+00  0.00000000E+00  0.00000000E+00
  0.00000000E+00  0.00000000E+00  0.00000000E+00
  0.00000000E+00  0.00000000E+00  0.00000000E+00
  0.00000000E+00  0.00000000E+00  0.00000000E+00
  0.00000000E+00  0.00000000E+00  0.00000000E+00
  0.00000000E+00  0.00000000E+00  0.00000000E+00
  0.00000000E+00  0.00000000E+00  0.00000000E+00
  0.00000000E+00  0.00000000E+00  0.00000000E+00
  0.00000000E+00  0.00000000E+00  0.00000000E+00
  0.00000000E+00  0.00000000E+00  0.00000000E+00
  0.00000000E+00  0.00000000E+00  0.00000000E+00
  0.00000000E+00  0.00000000E+00  0.00000000E+00
  0.00000000E+00  0.00000000E+00  0.00000000E+00
  0.00000000E+00  0.00000000E+00  0.00000000E+00
  0.00000000E+00  0.00000000E+00  0.00000000E+00
  0.00000000E+00  0.00000000E+00  0.00000000E+00
  0.00000000E+00  0.00000000E+00  0.00000000E+00
  0.00000000E+00  0.00000000E+00  0.00000000E+00
  0.00000000E+00  0.00000000E+00  0.00000000E+00
  0.00000000E+00  0.00000000E+00  0.00000000E+00
  0.00000000E+00  0.00000000E+00  0.00000000E+00
  0.00000000E+00  0.00000000E+00  0.00000000E+00
  0.00000000E+00  0.00000000E+00  0.00000000E+00
  0.00000000E+00  0.00000000E+00  0.00000000E+00
  0.00000000E+00  0.00000000E+00  0.00000000E+00
  0.00000000E+00  0.00000000E+00  0.00000000E+00
  0.00000000E+00  0.00000000E+00  0.00000000E+00
  0.00000000E+00  0.00000000E+00  0.00000000E+00
  0.00000000E+00  0.00000000E+00  0.00000000E+00
  0.00000000E+00  0.00000000E+00  0.00000000E+00
  0.00000000E+00  0.00000000E+00  0.00000000E+00
  0.00000000E+00  0.00000000E+00  0.00000000E+00
  0.00000000E+00  0.00000000E+00  0.00000000E+00
  0.00000000E+00  0.00000000E+00  0.00000000E+00
  0.00000000E+00  0.00000000E+00  0.00000000E+00
  0.00000000E+00  0.00000000E+00  0.00000000E+00
  0.00000000E+00  0.00000000E+00  0.00000000E+00
  0.00000000E+00  0.00000000E+00  0.00000000E+00
  0.00000000E+00  0.00000000E+00  0.00000000E+00
  0.00000000E+00  0.00000000E+00  0.00000000E+00
  0.00000000E+00  0.00000000E+00  0.00000000E+00
  0.00000000E+00  0.00000000E+00  0.00000000E+00
  0.00000000E+00  0.00000000E+00  0.00000000E+00
  0.00000000E+00  0.00000000E+00  0.00000000E+00
  0.00000000E+00  0.00000000E+00  0.00000000E+00
  0.00000000E+00  0.00000000E+00  0.00000000E+00
  0.00000000E+00  0.00000000E+00  0.00000000E+00
  0.00000000E+00  0.00000000E+00  0.00000000E+00
  0.00000000E+00  0.00000000E+00  0.00000000E+00
  0.00000000E+00  0.00000000E+00  0.00000000E+00
  0.00000000E+00  0.00000000E+00  0.00000000E+00
  0.00000000E+00  0.00000000E+00  0.00000000E+00
  0.00000000E+00  0.00000000E+00  0.00000000E+00
  0.00000000E+00  0.00000000E+00  0.00000000E+00
  0.00000000E+00  0.00000000E+00  0.00000000E+00
  0.00000000E+00  0.00000000E+00  0.00000000E+00
  0.00000000E+00  0.00000000E+00  0.00000000E+00
  0.00000000E+00  0.00000000E+00  0.00000000E+00
  0.00000000E+00  0.00000000E+00  0.00000000E+00
  0.00000000E+00  0.00000000E+00  0.00000000E+00
  0.00000000E+00  0.00000000E+00  0.00000000E+00
  0.00000000E+00  0.00000000E+00  0.00000000E+00
  0.00000000E+00  0.00000000E+00  0.00000000E+00
  0.00000000E+00  0.00000000E+00  0.00000000E+00
  0.00000000E+00  0.00000000E+00  0.00000000E+00
  0.00000000E+00  0.00000000E+00  0.00000000E+00
  0.00000000E+00  0.00000000E+00  0.00000000E+00
  0.00000000E+00  0.00000000E+00  0.00000000E+00
  0.00000000E+00  0.00000000E+00  0.00000000E+00
  0.00000000E+00  0.00000000E+00  0.00000000E+00
  0.00000000E+00  0.00000000E+00  0.00000000E+00
  0.00000000E+00  0.00000000E+00  0.00000000E+00
  0.00000000E+00  0.00000000E+00  0.00000000E+00
  0.00000000E+00  0.00000000E+00  0.00000000E+00
  0.00000000E+00  0.00000000E+00  0.00000000E+00
  0.00000000E+00  0.00000000E+00  0.00000000E+00
  0.00000000E+00  0.00000000E+00  0.00000000E+00
  0.00000000E+00  0.00000000E+00  0.00000000E+00
  0.00000000E+00  0.00000000E+00  0.00000000E+00
  0.00000000E+00  0.00000000E+00  0.00000000E+00
  0.00000000E+00  0.00000000E+00  0.00000000E+00
  0.00000000E+00  0.00000000E+00  0.00000000E+00
  0.00000000E+00  0.00000000E+00  0.00000000E+00
  0.00000000E+00  0.00000000E+00  0.00000000E+00
  0.00000000E+00  0.00000000E+00  0.00000000E+00
  0.00000000E+00  0.00000000E+00  0.00000000E+00
  0.00000000E+00  0.00000000E+00  0.00000000E+00
  0.00000000E+00  0.00000000E+00  0.00000000E+00
  0.00000000E+00  0.00000000E+00  0.00000000E+00
  0.00000000E+00  0.00000000E+00  0.00000000E+00
  0.00000000E+00  0.00000000E+00  0.00000000E+00
  0.00000000E+00  0.00000000E+00  0.00000000E+00
  0.00000000E+00  0.00000000E+00  0.00000000E+00
  0.00000000E+00  0.00000000E+00  0.00000000E+00
  0.00000000E+00  0.00000000E+00  0.00000000E+00
  0.00000000E+00  0.00000000E+00  0.00000000E+00
  0.00000000E+00  0.00000000E+00  0.00000000E+00
  0.00000000E+00  0.00000000E+00  0.00000000E+00
  0.00000000E+00  0.00000000E+00  0.00000000E+00
  0.00000000E+00  0.00000000E+00  0.00000000E+00
  0.00000000E+00  0.00000000E+00  0.00000000E+00
  0.00000000E+00  0.00000000E+00  0.00000000E+00
  0.00000000E+00  0.00000000E+00  0.00000000E+00
  0.00000000E+00  0.00000000E+00  0.00000000E+00
  0.00000000E+00  0.00000000E+00  0.00000000E+00
  0.00000000E+00  0.00000000E+00  0.00000000E+00
  0.00000000E+00  0.00000000E+00  0.00000000E+00
  0.00000000E+00  0.00000000E+00  0.00000000E+00
  0.00000000E+00  0.00000000E+00  0.00000000E+00
  0.00000000E+00  0.00000000E+00  0.00000000E+00
  0.00000000E+00  0.00000000E+00  0.00000000E+00
  0.00000000E+00  0.00000000E+00  0.00000000E+00
  0.00000000E+00  0.00000000E+00  0.00000000E+00
  0.00000000E+00  0.00000000E+00  0.00000000E+00
  0.00000000E+00  0.00000000E+00  0.00000000E+00
  0.00000000E+00  0.00000000E+00  0.00000000E+00
  0.00000000E+00  0.00000000E+00  0.00000000E+00
  0.00000000E+00  0.00000000E+00  0.00000000E+00
  0.00000000E+00  0.00000000E+00  0.00000000E+00
  0.00000000E+00  0.00000000E+00  0.00000000E+00
  0.00000000E+00  0.00000000E+00  0.00000000E+00
  0.00000000E+00  0.00000000E+00  0.00000000E+00
  0.00000000E+00  0.00000000E+00  0.00000000E+00
  0.00000000E+00  0.00000000E+00  0.00000000E+00
  0.00000000E+00  0.00000000E+00  0.00000000E+00
  0.00000000E+00  0.00000000E+00  0.00000000E+00
  0.00000000E+00  0.00000000E+00  0.00000000E+00
  0.00000000E+00  0.00000000E+00  0.00000000E+00
  0.00000000E+00  0.00000000E+00  0.00000000E+00
  0.00000000E+00  0.00000000E+00  0.00000000E+00
  0.00000000E+00  0.00000000E+00  0.00000000E+00
  0.00000000E+00  0.00000000E+00  0.00000000E+00
  0.00000000E+00  0.00000000E+00  0.00000000E+00
  0.00000000E+00  0.00000000E+00  0.00000000E+00
  0.00000000E+00  0.00000000E+00  0.00000000E+00
  0.00000000E+00  0.00000000E+00  0.00000000E+00
  0.00000000E+00  0.00000000E+00  0.00000000E+00
  0.00000000E+00  0.00000000E+00  0.00000000E+00
  0.00000000E+00  0.00000000E+00  0.00000000E+00
  0.00000000E+00  0.00000000E+00  0.00000000E+00
  0.00000000E+00  0.00000000E+00  0.00000000E+00
  0.00000000E+00  0.00000000E+00  0.00000000E+00
  0.00000000E+00  0.00000000E+00  0.00000000E+00
  0.00000000E+00  0.00000000E+00  0.00000000E+00
  0.00000000E+00  0.00000000E+00  0.00000000E+00
  0.00000000E+00  0.00000000E+00  0.00000000E+00
  0.00000000E+00  0.00000000E+00  0.00000000E+00
  0.00000000E+00  0.00000000E+00  0.00000000E+00
  0.00000000E+00  0.00000000E+00  0.00000000E+00
  0.00000000E+00  0.00000000E+00  0.00000000E+00
  0.00000000E+00  0.00000000E+00  0.00000000E+00
  0.00000000E+00  0.00000000E+00  0.00000000E+00
  0.00000000E+00  0.00000000E+00  0.00000000E+00
  0.00000000E+00  0.00000000E+00  0.00000000E+00
  0.00000000E+00  0.00000000E+00  0.00000000E+00
  0.00000000E+00  0.00000000E+00  0.00000000E+00
  0.00000000E+00  0.00000000E+00  0.00000000E+00
  0.00000000E+00  0.00000000E+00  0.00000000E+00
  0.00000000E+00  0.00000000E+00  0.00000000E+00
  0.00000000E+00  0.00000000E+00  0.00000000E+00
  0.00000000E+00  0.00000000E+00  0.00000000E+00
  0.00000000E+00  0.00000000E+00  0.00000000E+00
  0.00000000E+00  0.00000000E+00  0.00000000E+00
  0.00000000E+00  0.00000000E+00  0.00000000E+00
  0.00000000E+00  0.00000000E+00  0.00000000E+00
  0.00000000E+00  0.00000000E+00  0.00000000E+00
  0.00000000E+00  0.00000000E+00  0.00000000E+00
  0.00000000E+00  0.00000000E+00  0.00000000E+00
  0.00000000E+00  0.00000000E+00  0.00000000E+00
  0.00000000E+00  0.00000000E+00  0.00000000E+00
  0.00000000E+00  0.00000000E+00  0.00000000E+00
  0.00000000E+00  0.00000000E+00  0.00000000E+00
  0.00000000E+00  0.00000000E+00  0.00000000E+00
  0.00000000E+00  0.00000000E+00  0.00000000E+00
  0.00000000E+00  0.00000000E+00  0.00000000E+00
  0.00000000E+00  0.00000000E+00  0.00000000E+00
  0.00000000E+00  0.00000000E+00  0.00000000E+00
  0.00000000E+00  0.00000000E+00  0.00000000E+00
  0.00000000E+00  0.00000000E+00  0.00000000E+00
  0.00000000E+00  0.00000000E+00  0.00000000E+00
  0.00000000E+00  0.00000000E+00  0.00000000E+00
  0.00000000E+00  0.00000000E+00  0.00000000E+00
  0.00000000E+00  0.00000000E+00  0.00000000E+00
  0.00000000E+00  0.00000000E+00  0.00000000E+00
  0.00000000E+00  0.00000000E+00  0.00000000E+00
  0.00000000E+00  0.00000000E+00  0.00000000E+00
  0.00000000E+00  0.00000000E+00  0.00000000E+00
  0.00000000E+00  0.00000000E+00  0.00000000E+00
  0.00000000E+00  0.00000000E+00  0.00000000E+00
  0.00000000E+00  0.00000000E+00  0.00000000E+00
  0.00000000E+00  0.00000000E+00  0.00000000E+00
  0.00000000E+00  0.00000000E+00  0.00000000E+00
  0.00000000E+00  0.00000000E+00  0.00000000E+00
  0.00000000E+00  0.00000000E+00  0.00000000E+00
  0.00000000E+00  0.00000000E+00  0.00000000E+00
  0.00000000E+00  0.00000000E+00  0.00000000E+00
  0.00000000E+00  0.00000000E+00  0.00000000E+00
  0.00000000E+00  0.00000000E+00  0.00000000E+00
  0.00000000E+00  0.00000000E+00  0.00000000E+00
  0.00000000E+00  0.00000000E+00  0.00000000E+00
  0.00000000E+00  0.00000000E+00  0.00000000E+00
  0.00000000E+00  0.00000000E+00  0.00000000E+00
  0.00000000E+00  0.00000000E+00  0.00000000E+00
  0.00000000E+00  0.00000000E+00  0.00000000E+00
  0.00000000E+00  0.00000000E+00  0.00000000E+00
  0.00000000E+00  0.00000000E+00  0.00000000E+00
  0.00000000E+00  0.00000000E+00  0.00000000E+00
  0.00000000E+00  0.00000000E+00  0.00000000E+00
  0.00000000E+00  0.00000000E+00  0.00000000E+00
  0.00000000E+00  0.00000000E+00  0.00000000E+00
  0.00000000E+00  0.00000000E+00  0.00000000E+00
  0.00000000E+00  0.00000000E+00  0.00000000E+00
  0.00000000E+00  0.00000000E+00  0.00000000E+00
  0.00000000E+00  0.00000000E+00  0.00000000E+00
  0.00000000E+00  0.00000000E+00  0.00000000E+00
  0.00000000E+00  0.00000000E+00  0.00000000E+00
  0.00000000E+00  0.00000000E+00  0.00000000E+00
  0.00000000E+00  0.00000000E+00  0.00000000E+00
  0.00000000E+00  0.00000000E+00  0.00000000E+00
  0.00000000E+00  0.00000000E+00  0.00000000E+00
  0.00000000E+00  0.00000000E+00  0.00000000E+00