Amorphous Sb                            
   1.00000000000000     
    20.1278877258000009    0.0000000000000000    0.0000000000000000
     0.0000000000000000   20.1278877258000009    0.0000000000000000
     0.0000000000000000    0.0000000000000000   20.1278877258000009
   Ge   Se
   150   150
Selective dynamics
Direct
  0.8165118690000028  0.3946960569999973  0.3574110870000027   F   F   F
  0.7584902640000024  0.5502476099999996  0.6040061710000018   F   F   F
  0.9009631870000021  0.4910475309999995  0.4842960829999967   F   F   F
  0.7496008869999997  0.6805205940000008  0.1857844740000019   F   F   F
  0.8410634399999992  0.8268708590000031  0.3793723579999977   F   F   F
  0.5937990549999981  0.8538532849999996  0.5237411259999973   F   F   F
  0.0364786760000015  0.3513431249999996  0.4058486819999985   F   F   F
  0.9242142439999981  0.6569729449999997  0.3274040519999986   F   F   F
  0.7428033349999978  0.7506048680000035  0.6833686829999976   F   F   F
  0.7695150380000015  0.5198313590000012  0.3527172800000002   F   F   F
  0.5419463519999965  0.6540923709999973  0.6156412959999997   F   F   F
  0.7569697500000032  0.3357405069999970  0.5190030930000020   F   F   F
  0.6547109480000017  0.5662705900000020  0.1684091389999978   F   F   F
  0.6851938369999999  0.7016353010000032  0.5192888979999992   F   F   F
  0.7437458039999996  0.8140426869999970  0.2938403489999999   F   F   F
  0.7312344910000022  0.6466585989999984  0.4007343950000006   F   F   F
  0.9211552140000023  0.4467973109999974  0.2030193809999972   F   F   F
  0.8365761040000024  0.2162057910000001  0.3786076009999988   F   F   F
  0.7205893399999965  0.3969926830000006  0.2197672129999972   F   F   F
  0.4077582332988148  0.9719307932741571  0.8719081324715674   T   T   T
  0.4398112624168378  0.4763060344094375  0.8811136261150284   T   T   T
  0.1891688622337818  0.6070795348496956  0.3576556750259143   T   T   T
  0.9033929224346054  0.0232056067486781  0.5691085249890082   T   T   T
  0.6698107981677951  0.9410919372108120  0.8668894238723175   T   T   T
  0.9418558841257182  0.3170288436836401  0.0594377689350379   T   T   T
  0.9819102043835199  0.2503292450281230  0.6770124996806006   T   T   T
  0.1927022076188513  0.5807388358215930  0.7492767342394954   T   T   T
  0.3964401775286746  0.3028312313555036  0.2723485535866839   T   T   T
  0.8684503289562153  0.0624635930657766  0.3339353132956849   T   T   T
  0.9975477565959043  0.1266758319835970  0.4130604918947675   T   T   T
  0.3532600376168241  0.5742224832847584  0.2887990094313115   T   T   T
  0.6050586176016304  0.2797892068128740  0.6703068838968159   T   T   T
  0.6926773437474759  0.1820829758066223  0.1371105461360541   T   T   T
  0.5042352798949783  0.2371062354921110  0.1448810521199323   T   T   T
  0.3374055671840704  0.0597237952824569  0.2289940749700990   T   T   T
  0.1844101350993962  0.1367960273965168  0.4936276973422276   T   T   T
  0.1529619819774641  0.7224590029088526  0.8988834129991314   T   T   T
  0.0394786095680572  0.9064069438421802  0.9296156258228147   T   T   T
  0.0026457732066126  0.9399122473688940  0.4839477054595960   T   T   T
  0.2502602877803148  0.7798041204083678  0.2675497751810895   T   T   T
  0.6072707095346821  0.2766185515977905  0.8747849697918272   T   T   T
  0.0796735927979023  0.1699453150696111  0.2664140991582026   T   T   T
  0.3348845133678153  0.5936462112595239  0.0552964617581650   T   T   T
  0.2434354227183248  0.4969936063976816  0.9121914081938427   T   T   T
  0.6129373686689462  0.5368200903325363  0.4246584721050991   T   T   T
  0.8868249413142921  0.9263602302201308  0.2387426058120818   T   T   T
  0.9448394168829526  0.8252105896408535  0.8506680475738820   T   T   T
  0.0881560690959872  0.2753940417674955  0.8185108149815923   T   T   T
  0.4542644102750230  0.0087002980497554  0.1988915236409531   T   T   T
  0.3642130122530328  0.8716330107108533  0.2830231380785960   T   T   T
  0.8933163078791874  0.8476532537475380  0.5966718218654234   T   T   T
  0.1274294181213771  0.4387370826694200  0.2021816892843931   T   T   T
  0.3542578034306848  0.0928891945876434  0.9468902456779132   T   T   T
  0.0544161078411125  0.3032072804562538  0.1350817535946315   T   T   T
  0.7410514091069910  0.5403346717310443  0.7947021649226703   T   T   T
  0.0497506445151150  0.2963475849526970  0.5185867293264008   T   T   T
  0.5757866335016435  0.4361941881404791  0.1279777238871336   T   T   T
  0.4031440886965987  0.1738575450463729  0.4255847215357097   T   T   T
  0.4727993166712411  0.6816657352400800  0.5070760302973043   T   T   T
  0.7714700743496032  0.9036784674859962  0.1197048532692855   T   T   T
  0.1865239063941594  0.8794562808718532  0.0948127745434852   T   T   T
  0.6756425323236638  0.0798486054280995  0.3129932685970996   T   T   T
  0.0508664433463970  0.5308911759510705  0.0657154038603648   T   T   T
  0.0735123756310440  0.4271525836334859  0.9262335868875259   T   T   T
  0.6496344627325323  0.7926035764922612  0.8582498052387640   T   T   T
  0.5677632620091833  0.4621288880560702  0.7323348842230629   T   T   T
  0.2476112361467398  0.7641335977499880  0.7127131311070940   T   T   T
  0.2262260978853575  0.9945952089671253  0.3626653633185732   T   T   T
  0.2902273196234612  0.9569228451682537  0.5488201135005641   T   T   T
  0.8149532494331644  0.7046731177205923  0.8041938488689123   T   T   T
  0.8924582949590819  0.3045406267805862  0.8819255467943208   T   T   T
  0.4817495759763387  0.5613050038568452  0.2661026986756226   T   T   T
  0.4868106717996150  0.3998821276797758  0.0375557417579421   T   T   T
  0.8451417938930206  0.8928273052958197  0.0076975989143328   T   T   T
  0.7644528936687703  0.1520206757837334  0.6344361720453966   T   T   T
  0.7060068086894853 -0.0383622731998062  0.6364287857291676   T   T   T
 -0.0124192324071373  0.5674370816158558  0.9481197072863002   T   T   T
  0.6006620178291264  0.1518936607923609  0.7033242286458129   T   T   T
  0.6117810954683961  0.4730037045909617  0.9562245295409371   T   T   T
  0.9912096537357699  0.0732799503264858  0.2238424871176247   T   T   T
  0.6286375843435505  0.6736578249613954  0.0213041468486218   T   T   T
  0.3162234360542195  0.2983916728567304  0.0466968898496626   T   T   T
  0.3697437627830010  0.4234578802390225  0.5764796392538364   T   T   T
  0.3983380838864509  0.9625175547409764  0.6556142295602301   T   T   T
  0.1894733317461946  0.4469029160750704  0.4549492657116315   T   T   T
  0.8197110467128597  0.7849375785272399  0.1413971648297671   T   T   T
  0.3679303243972911  0.6553102983865632  0.3880423499661566   T   T   T
  0.7666363242496753  0.2075178336049181  0.9497204870246631   T   T   T
  0.9791403579056157  0.9099065089480705  0.1390907941566041   T   T   T
  0.4470189209319774  0.7343294139126765  0.2539598623157367   T   T   T
  0.5901207288651933  0.9159893298666939  0.0385542736292754   T   T   T
  0.1217389990780928  0.7188376877633009  0.7192218101329281   T   T   T
  0.6294560194827699  0.6322368760623885  0.7877951492161555   T   T   T
  0.2092836024737360  0.3890262722318912  0.7535061106505204   T   T   T
  0.4106998310328229  0.1222060689581596  0.5884988993056428   T   T   T
  0.6586895615132864  0.2461932728867648  0.3119601527248121   T   T   T
  0.4592021821725626  0.4598436012730046  0.3874176516742043   T   T   T
  0.0916145799107667  0.4635720501744044  0.6247966106700128   T   T   T
  0.1748202204726316  0.8500104765304690  0.4528987743981167   T   T   T
  0.6988705681843421  0.2002321825226428  0.5024654209424976   T   T   T
  0.4274274857884204  0.7708905881625110  0.3821961819083906   T   T   T
  0.5073551150270752  0.0863576725243043  0.8591464447504493   T   T   T
  0.3238273893162585  0.8329643482701551  0.4523642081982667   T   T   T
  0.8111978955523352  0.9392243102165280  0.8341904029354649   T   T   T
  0.2687724054463592  0.6251141751612485  0.6311288544931897   T   T   T
  0.0705513011635525  0.7712286192677463  0.3442469229052816   T   T   T
  0.3779080338081680  0.4699587603750995  0.0356247061131537   T   T   T
  0.0542988995372809  0.5117403917319963  0.3484491478151726   T   T   T
  0.7297999943360736  0.0238211046938760  0.0106176664494008   T   T   T
  0.0073528337187042  0.0266199816875273  0.8202727193718912   T   T   T
  0.6508235391931605  0.7772165203262840  0.1404305220732438   T   T   T
  0.8602591067429686  0.6797900308487672  0.9406345793728005   T   T   T
  0.2930542037712043 -0.0165955518305909 -0.0074919830371965   T   T   T
  0.7227354627486627  0.9568078338984021  0.4619971504720500   T   T   T
  0.9287214331578351  0.1052518829299889  0.0049685745143310   T   T   T
  0.9859407259770117  0.1435165097934934  0.7776306943778502   T   T   T
  0.0326681083578144  0.5591040629523274  0.8176495989933165   T   T   T
  0.1498732379977901  0.0044531229832724  0.1009613776360287   T   T   T
  0.5620243999886059  0.0859174519969027  0.0503336099198329   T   T   T
  0.4574112550610454  0.2410654962580483  0.5535995660306338   T   T   T
  0.5287170078840462  0.8249987473026837  0.6962652980727249   T   T   T
  0.3712611442384245  0.4322638832149270  0.2238902464897875   T   T   T
  0.2549513443190044  0.2958805677077080  0.5994802035107013   T   T   T
  0.8278267580735866  0.5257272659675944  0.0615310250100933   T   T   T
  0.1971727062070467  0.1833306733988504  0.1229168248939609   T   T   T
  0.0383625249656972  0.5883052420431579  0.6216404335630832   T   T   T
  0.3356554331019634  0.8332021834399647  0.8094743155436347   T   T   T
  0.1021990779819932  0.1236880150222928  0.7273932307207331   T   T   T
  0.2114694092687317  0.0286481612793155  0.6830072130611744   T   T   T
  0.0626606653324667  0.7347517085576846  0.1373485603924410   T   T   T
  0.7395514839576947  0.0627868590764313  0.8011217487700234   T   T   T
  0.8789977220537309  0.5348462324399266  0.6463030345415672   T   T   T
  0.8771549887915341  0.2438152411009673  0.5302416427002602   T   T   T
  0.1767535373728719  0.1775289823219246 -0.0086527693789666   T   T   T
  0.1399067194315667  0.7234450459105516  0.0282209672943358   T   T   T
  0.3590524751559473  0.8863898567038961  0.0926921568797199   T   T   T
  0.2851132920975940  0.1836139904897529  0.3018628718597809   T   T   T
  0.2838956494958250  0.7179398967714810  0.9274732430984806   T   T   T
  0.5812253539035124  0.3705189047806702  0.3481673022271404   T   T   T
  0.3995710824392459  0.7790250059600183  0.5672456920997369   T   T   T
  0.5544510418492967  0.0197384914744591  0.5486180334357241   T   T   T
  0.1844979951987577  0.5901035919583102  0.1734851739370008   T   T   T
  0.1923615201097237  0.0733923641302871  0.8055977098069109   T   T   T
  0.7671768124403623  0.4189814464758115  0.0180968110257000   T   T   T
  0.3328526947219962  0.5742882406922079  0.4801433996454553   T   T   T
  0.2629486386559797  0.2157977783801439  0.7042380777193872   T   T   T
  0.4504568757377309  0.8284661132068609  0.1685125594607459   T   T   T
  0.4394719495964703  0.3186370900472955  0.7759600773402278   T   T   T
  0.4518035976662124  0.6659465337911016  0.8632951839434942   T   T   T
  0.9338157531421565  0.7453792261726068  0.1815530010622187   T   T   T
  0.4366874977544966  0.4441846592032095  0.7608535285315777   T   T   T
  0.7158566618414811  0.8367143180326225  0.4227911899946770   T   T   T
  0.4431772523169935  0.7370922572101440  0.6757153782394665   T   T   T
  0.9643110881072707  0.8595730644054670  0.0256404184175213   T   T   T
  0.0665675639401395  0.1721191246777881  0.8728099980923816   T   T   T
  0.4162418484492481  0.1703174936301708  0.2980806349305919   T   T   T
  0.3445100614715185  0.9398825581832210  0.3842524555242089   T   T   T
  0.6226036437367315  0.1717258049887296  0.4063249987072372   T   T   T
  0.1600652133943259  0.5995239429051267  0.0481788543272594   T   T   T
  0.9845888669084049  0.2223958641129422  0.3317784923286398   T   T   T
  0.1874304264098120  0.0798969462948547  0.1882370960056948   T   T   T
  0.6840435283445020  0.6831338399328967  0.9104862150693146   T   T   T
  0.1151297693981485  0.9737562752535510  0.8021020702335102   T   T   T
  0.8761717375033703  0.6391445573800237  0.2125140257690100   T   T   T
  0.0235194323135938  0.0211147167125778  0.1096206086153015   T   T   T
  0.0870596826123978  0.4691588148506197  0.7513823441492892   T   T   T
 -0.0154746046082087  0.9363422192221688  0.6172142100615206   T   T   T
 -0.0013556606215966  0.1855413754972343  0.5326683097011128   T   T   T
  0.4423034274848449  0.2862070363046726  0.0438133231981208   T   T   T
  0.4848848038187547  0.3159162704078611  0.6525968685912982   T   T   T
  0.4915962865291086  0.9058526733353324  0.2573263357645565   T   T   T
  0.8622745647357806  0.5493047370490262  0.9405585956591519   T   T   T
  0.8674008938574601  0.0507606927569710  0.2044118957941569   T   T   T
  0.1801894522595255  0.9751562101719188  0.4798754679839790   T   T   T
  0.3284373013168053  0.5991470378772056  0.9281125312974144   T   T   T
  0.1199639735583912  0.1176534588981476  0.3829052426384933   T   T   T
  0.3144552658987393  0.2145138098435023  0.1497627896640518   T   T   T
  0.3061368755122736  0.4116398732944908  0.1209055771424661   T   T   T
  0.4550683142602756  0.4990041039483433  0.1631429388694372   T   T   T
  0.2892375983003995  0.1181829407993954  0.4144156292321562   T   T   T
  0.0260392360636226  0.1800066084184231  0.0515499655514238   T   T   T
  0.8103967178904058  0.1387675153384562  0.4793213532804440   T   T   T
  0.1493912787678998  0.7018022223853524  0.2254793511470488   T   T   T
  0.0477391290290969  0.8208206067699071  0.4638859021977986   T   T   T
  0.0162805452177181  0.6457152287210330  0.7303986242116807   T   T   T
  0.5266070458254600  0.5894283869464439  0.7134503371425002   T   T   T
  0.2448625537975959  0.4176050134239177  0.6122637749653049   T   T   T
  0.5565261657287913  0.4305368442922752  0.4639148873188715   T   T   T
  0.5816180521890350  0.4923287517133983  0.2960401355268976   T   T   T
  0.3801931278711774  0.0866998437585296  0.8248697164085357   T   T   T
  0.9329418461269533  0.9365964667974074  0.7838011559456664   T   T   T
  0.8088009146529368  0.0338664005191880  0.6602089107829586   T   T   T
  0.3642255710633811  0.1089510280665343  0.1149081628655537   T   T   T
  0.3088175119743615  0.3061352962126680  0.7742374295832167   T   T   T
  0.8523995526856524  0.5879458580951298  0.7582582500861363   T   T   T
  0.1731100576531443  0.2731489248952946  0.5067122927721566   T   T   T
  0.4999283631988599  0.5953749001826033  0.4229038163183644   T   T   T
  0.8572915498535948  0.2475520648321613  0.6547319767052674   T   T   T
  0.3001938155562480  0.6578933662922878  0.7535661149732754   T   T   T
  0.7108334508434956  0.4793828060861342  0.6941604911906035   T   T   T
  0.1779802422419680  0.4757655482772832  0.3246800733766323   T   T   T
  0.5387652736221424  0.6611329594187104  0.2276080885801887   T   T   T
  0.4846010318070619  0.8900349627606532  0.5844287671362077   T   T   T
  0.0185507014718871  0.0349541977310803  0.9419542159220282   T   T   T
  0.9043486621743544  0.7654165177232954  0.7488116533054950   T   T   T
  0.8812478817434116  0.1751265693255534  0.9024418865063746   T   T   T
  0.3018221811138170  0.9381354059486822  0.1947083830592950   T   T   T
  0.3465995824214557  0.4566781059908797  0.4530058878077806   T   T   T
  0.6436715596037846 -0.0049998724552477  0.7501361240051823   T   T   T
  0.8240807509095446  0.3075133064445708  0.0100698694860848   T   T   T
  0.2741390048544143  0.4907848479774347  0.7895781591273474   T   T   T
  0.3515059511198640  0.3007734883855996  0.5224833281704462   T   T   T
  0.5476032070449255  0.0944440272665581  0.1861731755605744   T   T   T
  0.4394547130923153  0.6599262458891499  0.0634215411974166   T   T   T
  0.9780998959818604  0.1943938615350097  0.1605307908578347   T   T   T
 -0.0032500717498790  0.3255735257758074  0.9478192628985264   T   T   T
  0.2092321269694167  0.5735889475288560  0.4848192816085530   T   T   T
  0.1671336381409395  0.8710188633019259  0.3279104044769230   T   T   T
  0.4684430452078563  0.1349689691021484  0.9700017409607242   T   T   T
  0.1827969623931192  0.0510794494337948 -0.0097897005418421   T   T   T
  0.5684342017053929  0.8793226421448239  0.9164758897970374   T   T   T
  0.6612822217883463  0.0639310663765754  0.9089816913902390   T   T   T
  0.8223420541041606  0.8283590993910072  0.9035439471638019   T   T   T
  0.0717533314186929  0.6313412345347118  0.3902690912497884   T   T   T
  0.6605718265891168  0.0569846489760086  0.1664611742609999   T   T   T
  0.5325639118057595  0.1995773987276069  0.8093050965168106   T   T   T
  0.8010927164349934  0.6991605172393823  0.0530754858990480   T   T   T
  0.0699346096653802  0.7755194418790464  0.6252877529456840   T   T   T
  0.7720648301529129  0.4711209498289382  0.5013255308432004   T   T   T
  0.3362545139151112  0.4080541527657226  0.9339217318417916   T   T   T
  0.6909432253696148  0.3681950368943308  0.0999140534562590   T   T   T
  0.2770397677304476  0.7457874240942527  0.5882093579175273   T   T   T
  0.9292821979289605  0.4412942036468731  0.0792242078057183   T   T   T
  0.8725458722151308  0.9232952046094687  0.4919407280056573   T   T   T
  0.3971060677302064  0.7753901260614267  0.9072742300773430   T   T   T
  0.8395238002776615  0.0020932279163424  0.9443188618331188   T   T   T
  0.1494899485851822  0.8727661180627595  0.9775961906352983   T   T   T
  0.3475320240397926  0.6734751303309975  0.2145391064918925   T   T   T
  0.7165789212464613  0.1758453357597622  0.7527427035428436   T   T   T
  0.6694691170776551  0.8761717473324153  0.2208110828593064   T   T   T
  0.0033750324018502  0.3632342879935228  0.6089901498480766   T   T   T
  0.5382264687181548  0.8070377163677900  0.0862964781894939   T   T   T
  0.3795910938195701  0.5785854772585666  0.5913973397183206   T   T   T
  0.6864837533472127  0.5624046378525329  0.0456046263417141   T   T   T
  0.9613258239155706  0.9723247582200235  0.3272072628578824   T   T   T
  0.7114811818150489  0.4149430011700564  0.9109471912800051   T   T   T
  0.5545721187850515  0.3367918382942902  0.1995843625742647   T   T   T
  0.6955868343224689  0.8422182945055323  0.0397273937734165   T   T   T
  0.7615448097564944  0.1693391439034383  0.2825328022427355   T   T   T
  0.1428178052861239  0.6020347129864965  0.8669145231221486   T   T   T
  0.1079874931050366  0.6775823947965298  0.5707303656722174   T   T   T
  0.4488888953159181  0.0631675135592143  0.4874025466971899   T   T   T
  0.9300026638082495  0.6192041402613240  0.5751165327387967   T   T   T
  0.2909870618145024  0.0819385884256858  0.5914420213280586   T   T   T
  0.7771521298533380  0.1345062678222067  0.0533203355949060   T   T   T
  0.1049506425018313  0.7948250268396740  0.8175026802901626   T   T   T
  0.5799673339476520  0.5303778543246686  0.8445899486625882   T   T   T
  0.7841918469501223  0.8709051408137928  0.6785872566548733   T   T   T
  0.2909765634832607  0.3023744410867125  0.3350720997762640   T   T   T
  0.5210737323853591  0.3808238988840331  0.9175997923081988   T   T   T
  0.9550204270295058  0.7995014606419772  0.2916153038648143   T   T   T
  0.0848130918858082  0.8545848450339594  0.1702813391758597   T   T   T
  0.0227060125100200  0.3742426947442411  0.2362136566982549   T   T   T
  0.1372084387576410  0.2468592476667303  0.7077672122749759   T   T   T
  0.6353345247244805  0.3436142280288031  0.7733180763117176   T   T   T
  0.5976363485740500  0.2070653987551606  0.0558017748901404   T   T   T
  0.4440211314555887  0.9783127474108998  0.0811769517235169   T   T   T
  0.2936754225219638  0.1979519926862402  0.9503483651307250   T   T   T
  0.5512202215087045  0.7348624281630050  0.8066677928356994   T   T   T
  0.6448875576581017  0.3514423513810528  0.5774284430326005   T   T   T
  0.1166311084461276  0.0702566723963958  0.6177108873286870   T   T   T
  0.0622245191091888  0.4629333612017819  0.4719873687489602   T   T   T
  0.4666456061942672  0.0634474856962940  0.6782970335482907   T   T   T
  0.7622431648161218  0.9897950918604018  0.3424571649689950   T   T   T
  0.2625187315947041  0.7439663726132435  0.0447053200789914   T   T   T
  0.5409980239322857  0.7664646848705022  0.4411205718204955   T   T   T
  0.4654405347065126  0.3306001860097007  0.3736380863515284   T   T   T
  0.4335543437863555  0.9038893012892680  0.7663754985450276   T   T   T
  0.2634867308935208  0.7295947996654415  0.3852930324211297   T   T   T
  0.2862257422924805  0.9364315251750958  0.8706611037781857   T   T   T
  0.6445319064606583  0.1131526038457359  0.5735099504670997   T   T   T
  0.1552338037137247  0.2663658321568940  0.2037697787366824   T   T   T
  0.0642267569381483  0.5481386363102440  0.1976005787952745   T   T   T
  0.1165255633805971  0.4263691007678134  0.0454101887729211   T   T   T
  0.1645927515891746  0.3448679182887596  0.8801104975956024   T   T   T
  0.2308172833465102  0.9140675827921489  0.6494842322811681   T   T   T
  0.9828640821980007  0.3234726928611906  0.7828443613469513   T   T   T
 -0.0156907591895780  0.6889756415854148  0.9610712135581916   T   T   T
  0.5102919841100108  0.6270383728272577  0.9739849147135836   T   T   T
  0.5945870464969422  0.9613273626610025  0.4432982636718885   T   T   T
  0.7937417629999999  0.7033995390000030  0.5802567599999975   F   F   F
  0.8970372080000004  0.5344469549999999  0.3521536590000025   F   F   F
  0.9105228780000019  0.3674127159999969  0.4378188849999987   F   F   F
  0.7631037829999983  0.5180714130000013  0.2184454799999997   F   F   F
  0.6435669059999967  0.5857456920000033  0.5546893479999966   F   F   F
  0.6865011450000011  0.7020694610000007  0.2977844179999991   F   F   F
  0.7414086459999965  0.3046995999999993  0.3933571279999981   F   F   F
  0.8415666220000020  0.7041201589999986  0.4115778509999970   F   F   F
  0.8426703209999999  0.3523051439999989  0.2435380519999981   F   F   F
  0.6218443510000000  0.7562983629999991  0.6257421370000031   F   F   F
 
  0.00000000E+00  0.00000000E+00  0.00000000E+00
  0.00000000E+00  0.00000000E+00  0.00000000E+00
  0.00000000E+00  0.00000000E+00  0.00000000E+00
  0.00000000E+00  0.00000000E+00  0.00000000E+00
  0.00000000E+00  0.00000000E+00  0.00000000E+00
  0.00000000E+00  0.00000000E+00  0.00000000E+00
  0.00000000E+00  0.00000000E+00  0.00000000E+00
  0.00000000E+00  0.00000000E+00  0.00000000E+00
  0.00000000E+00  0.00000000E+00  0.00000000E+00
  0.00000000E+00  0.00000000E+00  0.00000000E+00
  0.00000000E+00  0.00000000E+00  0.00000000E+00
  0.00000000E+00  0.00000000E+00  0.00000000E+00
  0.00000000E+00  0.00000000E+00  0.00000000E+00
  0.00000000E+00  0.00000000E+00  0.00000000E+00
  0.00000000E+00  0.00000000E+00  0.00000000E+00
  0.00000000E+00  0.00000000E+00  0.00000000E+00
  0.00000000E+00  0.00000000E+00  0.00000000E+00
  0.00000000E+00  0.00000000E+00  0.00000000E+00
  0.00000000E+00  0.00000000E+00  0.00000000E+00
  0.00000000E+00  0.00000000E+00  0.00000000E+00
  0.00000000E+00  0.00000000E+00  0.00000000E+00
  0.00000000E+00  0.00000000E+00  0.00000000E+00
  0.00000000E+00  0.00000000E+00  0.00000000E+00
  0.00000000E+00  0.00000000E+00  0.00000000E+00
  0.00000000E+00  0.00000000E+00  0.00000000E+00
  0.00000000E+00  0.00000000E+00  0.00000000E+00
  0.00000000E+00  0.00000000E+00  0.00000000E+00
  0.00000000E+00  0.00000000E+00  0.00000000E+00
  0.00000000E+00  0.00000000E+00  0.00000000E+00
  0.00000000E+00  0.00000000E+00  0.00000000E+00
  0.00000000E+00  0.00000000E+00  0.00000000E+00
  0.00000000E+00  0.00000000E+00  0.00000000E+00
  0.00000000E+00  0.00000000E+00  0.00000000E+00
  0.00000000E+00  0.00000000E+00  0.00000000E+00
  0.00000000E+00  0.00000000E+00  0.00000000E+00
  0.00000000E+00  0.00000000E+00  0.00000000E+00
  0.00000000E+00  0.00000000E+00  0.00000000E+00
  0.00000000E+00  0.00000000E+00  0.00000000E+00
  0.00000000E+00  0.00000000E+00  0.00000000E+00
  0.00000000E+00  0.00000000E+00  0.00000000E+00
  0.00000000E+00  0.00000000E+00  0.00000000E+00
  0.00000000E+00  0.00000000E+00  0.00000000E+00
  0.00000000E+00  0.00000000E+00  0.00000000E+00
  0.00000000E+00  0.00000000E+00  0.00000000E+00
  0.00000000E+00  0.00000000E+00  0.00000000E+00
  0.00000000E+00  0.00000000E+00  0.00000000E+00
  0.00000000E+00  0.00000000E+00  0.00000000E+00
  0.00000000E+00  0.00000000E+00  0.00000000E+00
  0.00000000E+00  0.00000000E+00  0.00000000E+00
  0.00000000E+00  0.00000000E+00  0.00000000E+00
  0.00000000E+00  0.00000000E+00  0.00000000E+00
  0.00000000E+00  0.00000000E+00  0.00000000E+00
  0.00000000E+00  0.00000000E+00  0.00000000E+00
  0.00000000E+00  0.00000000E+00  0.00000000E+00
  0.00000000E+00  0.00000000E+00  0.00000000E+00
  0.00000000E+00  0.00000000E+00  0.00000000E+00
  0.00000000E+00  0.00000000E+00  0.00000000E+00
  0.00000000E+00  0.00000000E+00  0.00000000E+00
  0.00000000E+00  0.00000000E+00  0.00000000E+00
  0.00000000E+00  0.00000000E+00  0.00000000E+00
  0.00000000E+00  0.00000000E+00  0.00000000E+00
  0.00000000E+00  0.00000000E+00  0.00000000E+00
  0.00000000E+00  0.00000000E+00  0.00000000E+00
  0.00000000E+00  0.00000000E+00  0.00000000E+00
  0.00000000E+00  0.00000000E+00  0.00000000E+00
  0.00000000E+00  0.00000000E+00  0.00000000E+00
  0.00000000E+00  0.00000000E+00  0.00000000E+00
  0.00000000E+00  0.00000000E+00  0.00000000E+00
  0.00000000E+00  0.00000000E+00  0.00000000E+00
  0.00000000E+00  0.00000000E+00  0.00000000E+00
  0.00000000E+00  0.00000000E+00  0.00000000E+00
  0.00000000E+00  0.00000000E+00  0.00000000E+00
  0.00000000E+00  0.00000000E+00  0.00000000E+00
  0.00000000E+00  0.00000000E+00  0.00000000E+00
  0.00000000E+00  0.00000000E+00  0.00000000E+00
  0.00000000E+00  0.00000000E+00  0.00000000E+00
  0.00000000E+00  0.00000000E+00  0.00000000E+00
  0.00000000E+00  0.00000000E+00  0.00000000E+00
  0.00000000E+00  0.00000000E+00  0.00000000E+00
  0.00000000E+00  0.00000000E+00  0.00000000E+00
  0.00000000E+00  0.00000000E+00  0.00000000E+00
  0.00000000E+00  0.00000000E+00  0.00000000E+00
  0.00000000E+00  0.00000000E+00  0.00000000E+00
  0.00000000E+00  0.00000000E+00  0.00000000E+00
  0.00000000E+00  0.00000000E+00  0.00000000E+00
  0.00000000E+00  0.00000000E+00  0.00000000E+00
  0.00000000E+00  0.00000000E+00  0.00000000E+00
  0.00000000E+00  0.00000000E+00  0.00000000E+00
  0.00000000E+00  0.00000000E+00  0.00000000E+00
  0.00000000E+00  0.00000000E+00  0.00000000E+00
  0.00000000E+00  0.00000000E+00  0.00000000E+00
  0.00000000E+00  0.00000000E+00  0.00000000E+00
  0.00000000E+00  0.00000000E+00  0.00000000E+00
  0.00000000E+00  0.00000000E+00  0.00000000E+00
  0.00000000E+00  0.00000000E+00  0.00000000E+00
  0.00000000E+00  0.00000000E+00  0.00000000E+00
  0.00000000E+00  0.00000000E+00  0.00000000E+00
  0.00000000E+00  0.00000000E+00  0.00000000E+00
  0.00000000E+00  0.00000000E+00  0.00000000E+00
  0.00000000E+00  0.00000000E+00  0.00000000E+00
  0.00000000E+00  0.00000000E+00  0.00000000E+00
  0.00000000E+00  0.00000000E+00  0.00000000E+00
  0.00000000E+00  0.00000000E+00  0.00000000E+00
  0.00000000E+00  0.00000000E+00  0.00000000E+00
  0.00000000E+00  0.00000000E+00  0.00000000E+00
  0.00000000E+00  0.00000000E+00  0.00000000E+00
  0.00000000E+00  0.00000000E+00  0.00000000E+00
  0.00000000E+00  0.00000000E+00  0.00000000E+00
  0.00000000E+00  0.00000000E+00  0.00000000E+00
  0.00000000E+00  0.00000000E+00  0.00000000E+00
  0.00000000E+00  0.00000000E+00  0.00000000E+00
  0.00000000E+00  0.00000000E+00  0.00000000E+00
  0.00000000E+00  0.00000000E+00  0.00000000E+00
  0.00000000E+00  0.00000000E+00  0.00000000E+00
  0.00000000E+00  0.00000000E+00  0.00000000E+00
  0.00000000E+00  0.00000000E+00  0.00000000E+00
  0.00000000E+00  0.00000000E+00  0.00000000E+00
  0.00000000E+00  0.00000000E+00  0.00000000E+00
  0.00000000E+00  0.00000000E+00  0.00000000E+00
  0.00000000E+00  0.00000000E+00  0.00000000E+00
  0.00000000E+00  0.00000000E+00  0.00000000E+00
  0.00000000E+00  0.00000000E+00  0.00000000E+00
  0.00000000E+00  0.00000000E+00  0.00000000E+00
  0.00000000E+00  0.00000000E+00  0.00000000E+00
  0.00000000E+00  0.00000000E+00  0.00000000E+00
  0.00000000E+00  0.00000000E+00  0.00000000E+00
  0.00000000E+00  0.00000000E+00  0.00000000E+00
  0.00000000E+00  0.00000000E+00  0.00000000E+00
  0.00000000E+00  0.00000000E+00  0.00000000E+00
  0.00000000E+00  0.00000000E+00  0.00000000E+00
  0.00000000E+00  0.00000000E+00  0.00000000E+00
  0.00000000E+00  0.00000000E+00  0.00000000E+00
  0.00000000E+00  0.00000000E+00  0.00000000E+00
  0.00000000E+00  0.00000000E+00  0.00000000E+00
  0.00000000E+00  0.00000000E+00  0.00000000E+00
  0.00000000E+00  0.00000000E+00  0.00000000E+00
  0.00000000E+00  0.00000000E+00  0.00000000E+00
  0.00000000E+00  0.00000000E+00  0.00000000E+00
  0.00000000E+00  0.00000000E+00  0.00000000E+00
  0.00000000E+00  0.00000000E+00  0.00000000E+00
  0.00000000E+00  0.00000000E+00  0.00000000E+00
  0.00000000E+00  0.00000000E+00  0.00000000E+00
  0.00000000E+00  0.00000000E+00  0.00000000E+00
  0.00000000E+00  0.00000000E+00  0.00000000E+00
  0.00000000E+00  0.00000000E+00  0.00000000E+00
  0.00000000E+00  0.00000000E+00  0.00000000E+00
  0.00000000E+00  0.00000000E+00  0.00000000E+00
  0.00000000E+00  0.00000000E+00  0.00000000E+00
  0.00000000E+00  0.00000000E+00  0.00000000E+00
  0.00000000E+00  0.00000000E+00  0.00000000E+00
  0.00000000E+00  0.00000000E+00  0.00000000E+00
  0.00000000E+00  0.00000000E+00  0.00000000E+00
  0.00000000E+00  0.00000000E+00  0.00000000E+00
  0.00000000E+00  0.00000000E+00  0.00000000E+00
  0.00000000E+00  0.00000000E+00  0.00000000E+00
  0.00000000E+00  0.00000000E+00  0.00000000E+00
  0.00000000E+00  0.00000000E+00  0.00000000E+00
  0.00000000E+00  0.00000000E+00  0.00000000E+00