Amorphous Sb                            
   1.00000000000000     
    20.2291714401205596    0.0000000000000000    0.0000000000000000
     0.0000000000000000   20.2291714401205596    0.0000000000000000
     0.0000000000000000    0.0000000000000000   20.2291714401205596
   Si   Te
   150   150
Direct
  0.5334668164712986  0.5073471815748238  0.7873243574557913
  0.6915916351620677  0.4334455197528863  0.5405178916920947
  0.6313072134070501  0.6209271331504096  0.8753171648152919
  0.6233926128669571  0.1148849816421153  0.9600359042149706
  0.5332495118419498  0.0758536625623941  0.3952039271856178
  0.4761748808062796  0.3955836497161540  0.9799812194522215
  0.3006213245551939  0.4389327903449092  0.9809523496835814
  0.4739053977885163  0.0771649188735199  0.4992417169255718
  0.8752249881037583  0.5243600604897233  0.5852136577561423
  0.2488814487856678  0.9645349781592344  0.6558328584953741
  0.8161059399577147  0.3721973654950547  0.0671204250942643
  0.8339069427768818  0.3368802980455309  0.5357940781121523
  0.3245312102737680  0.0905790564240530  0.8285934032546320
  0.1761264281435694 -0.0016080574058979  0.7424457888439459
  0.5708429354212154  0.1993345291934382  0.0422508874561792
  0.4320080247915222  0.1965155889646409  0.9391963345638714
  0.9489818164070769  0.7306195525394300  0.8103688772459381
  0.8161957234047758  0.6261324996465790  0.2935491844244951
  0.1410051739880623  0.5729376296142336  0.3774566081302195
  0.0485481724609018  0.4976452719941784  0.6659337579247503
  0.3685721614845600  0.2943074670988197  0.3985787637515589
  0.8553916612855061  0.8948152795185101  0.8511103835030901
  0.0078604428956697  0.6621874015108080  0.0022521398554469
  0.6536236480489797  0.4508338986779326  0.0354923539500051
  0.5293681281893832  0.1433847650915236  0.8885514662637448
  0.6162769585020967  0.5055885375431497  0.8729871795740209
  0.3991760579446483  0.0868463637967937  0.1339743904851467
  0.1752484126106405  0.1675312492725092  0.1338879599851156
  0.2413722222684387  0.9134489902973458  0.0305671335371406
  0.7816529299546032  0.3306167593773740  0.3350954725479132
  0.2042728195135769  0.8714122045085765  0.9278527272621029
  0.5010821702066146  0.3272719415255601  0.8270970201689258
  0.9335915941952536  0.5093112952182116  0.6841711490950704
  0.8943932430186947  0.8850509352270076  0.3070768996397308
  0.0083861182318711  0.9903964738062735  0.2518644008884791
 -0.0038508006708924  0.6964493418221067  0.2707344235823597
  0.3170790946952826  0.5599990619595946  0.6276936866029120
  0.5245052782259469  0.9339739327814539  0.2970727333613977
  0.6380994191421895  0.7377849832115256  0.0220587625664359
  0.4653004853701381  0.9514231422428496  0.8413486539723557
  0.9176350697016170  0.0470809848884255  0.0698235781142761
  0.6011251904117003  0.3236190022019152  0.8821830674114851
  0.7307307989839219  0.7971451109541299  0.3566084115493027
  0.7578931986907547  0.0257152563942972  0.8304743289437488
  0.6342656517265316  0.9041694761957052  0.9142017057241553
  0.6483087886575754  0.0187829300911152  0.8861476414831521
  0.9900496701883875  0.3899683180042097  0.0715104856531622
  0.0097254724069950  0.5938592225057999  0.0949599930935564
  0.9786352234356910  0.3388620955459427  0.7407358050917978
  0.7906055401657702  0.8032894763265458  0.8845972339106863
  0.5185874000410542  0.5731892162103298  0.0353302756719891
  0.4865691872552006  0.7175392328874430  0.5035815690747226
  0.8986895729659985  0.6976516703377234  0.3410419615716228
  0.0044275038228915  0.2286615654150027  0.0801252211007849
  0.3109312319785375  0.0999941526952344  0.0116864887798075
  0.6387047066461998  0.8294328773048931  0.1898368477134201
  0.5490995660179978  0.1887521431857424  0.2427394873504033
  0.5989271363028112  0.9834030237580483  0.3717363608119196
  0.6194869566872221  0.1999769972508873  0.1487686986770900
  0.4860481128759214  0.5851264631269171  0.7127696732042689
  0.4603840135337822  0.1486761756915368  0.0456237854607403
  0.6173437089039663  0.4771479331926323  0.4588346841307078
  0.3582677907222397  0.9884628225347823  0.8719127443394717
  0.3680563761761022  0.5988235157233545  0.7249762468148119
  0.9072692965778970  0.3615253062319143  0.9937185825816915
  0.7286992306518829  0.0755866927479825  0.2583529146268704
  0.2927634202643118  0.4374801354876771  0.8625466775781658
  0.8532450993219249  0.7018072803385605  0.8715210453166292
  0.8485708505168026  0.7997205688785500  0.3725484701710011
  0.0013026113445811  0.6275408206390680  0.8165554507870643
  0.5686339527580746  0.5980781853274931  0.3394991763819942
  0.0622678249609563  0.5219495437962626  0.5520415217937281
  0.8057360708701111  0.4511007301704155  0.5269616286750530
  0.3945839589196814  0.4238599216821250  0.7037998926942280
  0.2744302053544957  0.7033599179687159  0.9460809109006264
  0.5595834278697386  0.4794664446804413  0.9724664294089885
  0.6949510805995880  0.9762687361974841  0.3071084628146241
  0.0947625508181131  0.0063924327198238  0.6565145403680136
  0.0466844724201352  0.7887555068177413  0.2220609994395996
  0.6444562881846544  0.2686003999994906  0.9772333284703347
  0.3788284593164104  0.0074549579880668  0.9841390226512318
  0.3925131713889121  0.2260790938986967  0.2479690808863886
  0.1592774281452833  0.3154842834368988  0.8321117351658854
  0.8661132896180977  0.0440432330829751  0.6865247878568554
  0.9891456070712269  0.1245028288412314  0.1221343095559824
  0.9715699578423826  0.7935419520204151  0.5655499301130098
  0.7160937689631065  0.8683583194811365  0.2653082120312810
  0.0112764420516816  0.8778197637423021  0.2858467036423994
  0.9069049279377113  0.5973293386486447  0.7533963649238076
  0.5731278112790965  0.6736955900110269  0.4319556231456808
  0.1020218655878416  0.9431341670027112  0.8104253545801081
  0.3768535193077096  0.7974205264626926  0.0288615308043284
  0.5035072482047415  0.4055251975314056  0.7401435169905557
  0.9706638983739992  0.6860190523975181  0.6108913197894204
  0.5800067784143231  0.8621175463491638  0.4643556216623104
  0.4231120019949545  0.9564805188524880  0.3478247323282974
  0.3326186819965654  0.3304183790123991  0.8420702358100107
  0.1145414004302440  0.2303530063839927  0.0502461256155246
  0.7006679765498953  0.3458251937932780  0.0482325520204728
  0.9665680920411363  0.3113353437549149  0.1502747443237898
  0.1208965250763841  0.1679114352114598  0.2417154347353526
  0.3457000382682841  0.4980747249644781  0.7800005613569438
  0.6723407686864113  0.3756429332428965  0.7195551955425707
  0.0596564782140924  0.2371086756191458  0.5241791005263736
  0.9064849245570268  0.7045634398660726  0.7060233755948423
  0.0553245967927845  0.3460395617475717  0.5664053501436599
  0.0373158985499457  0.6102700888360871  0.3363967381008678
  0.5889780330669061  0.1667960192376349  0.3510214359751166
  0.3998713223544383  0.4597686007164430  0.0403981299504561
  0.3779696386796237  0.1722004019563596  0.3683912187618329
  0.3552433307290485  0.9130142027470578  0.0491071259299486
  0.4638184159806584  0.1093695715145424  0.2296877235397618
  0.9579246727190658  0.4973187796889951  0.0507861019934986
  0.8414433654945592  0.9972165410868433  0.9150950545169911
  0.6427590698429393  0.7717551683252721  0.4308740154183289
  0.7711625295865683  0.5230508397981197  0.3313556283725390
  0.3198171030877105  0.1651861764765666  0.9161198301158328
  0.9634984543691214  0.5884372245141487  0.5427600020391025
  0.6715971332028442  0.8484891099954767  0.0080084900589238
  0.4341948028424414  0.0738796883506208  0.3356560095116402
  0.9890443619597223  0.2050263715825430  0.8985573992108813
  0.6634281677152051  0.4063023511160899  0.8315592894812103
  0.6539352685475320  0.5168524853665249  0.3550965306600923
  0.9515880474673198  0.6281358326260459  0.1886854513362608
  0.3936193314351776  0.4766123282954320  0.5994899407160358
  0.6536158280919659  0.9492029811641907  0.4679154607989746
  0.4130447464313599  0.4109345288247762  0.5051997946477896
  0.8525734214684012  0.2923036024656738  0.1444644419060486
  0.1064122874652943  0.0515574651297360  0.2546128818689575
  0.5319283477094657  0.5425695184575403  0.1463732031666015
  0.5059294174246958  0.4318774743502442  0.4342791662905747
  0.9215492338064610  0.0530007134832154  0.4915142552689469
  0.9084787312842201  0.0031908291840779  0.3131920842029505
  0.4730631863190940  0.9030755127054603  0.4399696772281738
  0.9930122481578936  0.0650135498161039  0.6792420244333597
  0.1249025347735797  0.1871150644801412  0.3596742528601961
  0.0677530846965179  0.8922012859988206  0.6570548187493551
  0.2967050748021250  0.1443077484593253  0.1185086271740150
  0.5386945120308968  0.6838784205842930  0.0068119051657523
  0.2527602348600056  0.2627812222721153  0.8904570835990210
  0.0671067304970104  0.3794318165943631  0.6774065279842429
  0.1197911444077727  0.4280967723339647  0.5106170840437498
  0.3117541423593860  0.6663443047184237  0.3192852442848231
  0.8193207351057512  0.9547203811885010  0.7558813603919678
  0.4791723254490482  0.3297250523799066  0.3760888066764574
  0.4256813417986134  0.3122709551404678  0.9109331270516449
  0.5437814061453160  0.0401008416858908  0.8326964196874586
  0.9327313571290046  0.2481828449985131  0.9914754213188193
  0.9461068280809469  0.2326401360409319  0.7107036431031953
  0.1519292282109913  0.3949842604065789  0.1490651303372601
  0.3751076235359989  0.7665728913720664  0.9049271754675769
  0.3900634210451713  0.9603434325319249  0.1593175515763854
  0.6837076787753994  0.3058218282230007  0.1669390864055384
  0.9810007079152202  0.6663634004272306  0.4385131640898078
  0.6212279940003539  0.4242498180234485  0.2764134031213058
  0.8801737001028126  0.2305432424710841  0.6015066738874930
  0.5533286730281330  0.0404439521925955  0.7059313165569984
  0.3235370924922242  0.4174989256712895  0.4152491294049310
  0.4378467254022795  0.5032774391594765  0.8700066450401904
  0.4521141315991182  0.9614562618335717  0.5485132448963356
  0.1006424808951634  0.5861497793645126  0.7432604945770505
  0.3709514421642631  0.6103069387389392  0.4236814085638282
  0.9549710570481461  0.0517218519599234  0.9457052144942364
  0.1166561370405531  0.8298457557119363  0.7556935609935250
  0.5044661310063429  0.5347970749018137  0.5979168917880658
  0.7542700509423752  0.2880121099130840  0.7449330198389149
  0.0767675770557031  0.7640752459519069  0.0241260939993777
  0.4006524431331352  0.2884905636999829  0.5302974015098810
  0.7208616214332064  0.1845858270390608  0.9182839434451676
  0.7941941752953928  0.8235470637576287  0.0096201493130048
  0.3038670637294906  0.3141707566687808  0.2758887734006101
  0.0980993590247950  0.4438598401767645  0.3886940312548585
  0.9728203212158961  0.7705391074778609  0.1201266055773565
  0.5304141332438703  0.3272242320564518  0.0730705377793088
  0.8622437890332977  0.2881944426972003  0.4219953458833782
  0.4984424478633664  0.3080641913086465  0.2494888810340867
  0.6483709547873920  0.0002565002018013  0.5808688460372571
  0.2770708910765383  0.7299154996032314  0.0693042760837040
  0.8259667033282524  0.8600966722318131  0.2041150121228331
  0.1831161305187844  0.2225306116983750  0.5438162866185544
  0.8051896617064024  0.5904560497153085  0.8268239326303686
  0.7060049455599363  0.3089249169965279  0.5483537604995122
  0.3574327013606847  0.7592999060266459  0.2488766523841558
  0.9726473133388580  0.9495697727193251  0.1343495096171258
  0.1590812267091671  0.9274310292185232  0.4474958622502045
  0.5032610263410709  0.0338905989773555 -0.0016964698866676
  0.0301981404681809  0.3243188074123987  0.8595681015961064
  0.1695200541339569  0.3116394688180885  0.7059087989895922
  0.9645056970776623  0.8357282804355669  0.8770675238545907
  0.3044112921261604  0.5844229627096487  0.2275217046959695
  0.6632652161033596  0.3391397000905652  0.3794239875474282
  0.8235872262347246  0.2384993015800124  0.2565373278050641
  0.5365996712892960  0.8136318013675173  0.2635240131091877
  0.7132061142398087  0.1475210650568132  0.3627983305350692
  0.8449255987477792  0.0568983269605114  0.2164696198308380
  0.9341519239233750  0.4672698099849192  0.9283239002322590
  0.1021883164561899  0.0633049083010953  0.1087518481301043
  0.4141419407307855  0.1564486632755998  0.7711067964216214
  0.1104162656796836  0.3614522793695266  0.0288826648765372
  0.8163452658511988  0.6968122465723700  0.5056460568013477
  0.7668257904164777  0.9509813983336022  0.4124411815586256
  0.6907611597380090  0.4873905056492526  0.6572251173060443
  0.6482672137832141  0.1350160255842137  0.5457436881162973
  0.1743892413052166  0.7768958411927762  0.2196949161636639
  0.2673852669533269  0.4336390439687848  0.1423143776489762
  0.2785513568268065  0.8592637300004941  0.4817991332515779
  0.2532673207709021  0.5923514048776277  0.8934113039048134
  0.4409179028878098  0.4552602598278772  0.1646462373311537
  0.5179600638166039  0.1525962984502378  0.5931215081780005
  0.3523760055160230  0.1135648343609696  0.4823607740395237
  0.5458577830521427  0.6952123085364986  0.7123552457730946
  0.7690700212788369  0.1160676261308258  0.7379069020255680
  0.8751541220953868  0.8381819586596020  0.4942194029853981
  0.8092947788547540  0.4254933797106021  0.2582953767226350
  0.0940960162275493  0.6977370353959634  0.6446428837817068
  0.0626855158174844  0.5881824508381798  0.9172845439902870
  0.0657534660824253  0.4739443570020416  0.1969189544580839
  0.8455264868736823  0.4900227214571947  0.1105125995205651
  0.5835872529061708  0.9048530536167849  0.7230359354090916
  0.2015936808851725  0.9703907120800870  0.2417410674225779
  0.8979620077336004  0.1725104218391749  0.8134057272789670
  0.5112479914566246  0.8748572494324282  0.9308419747044062
  0.0964867928425555  0.8184915291842479  0.5553828041394705
  0.2432621647601900  0.4348689322650218  0.5417009832932872
  0.0743285784354095  0.8251020855218412  0.3818883579935489
  0.1421366908993322  0.6137513644945781  0.4993414109055995
  0.5773202531237819  0.2265860461506524  0.7980739730014883
  0.2121562284223098  0.1127192666278256  0.7765098106670540
  0.9435222594168343  0.8753016682141790  0.6590046293960894
  0.8836726548080508  0.6662363866413635  0.9902565378766132
  0.6247981176688719  0.9163288374040853  0.1011970269018720
  0.7480657802350285  0.4937895793681790  0.9607431446840159
  0.3209540252544138  0.8847722233166464  0.3203212143456297
  0.6701783904752990  0.6429143995472405  0.7567552732125962
  0.2135190504975915  0.0280907144493579  0.9791266531596179
  0.4107250227613145  0.7104883255916282  0.6096413876473132
  0.2186812682679725  0.5055752309467547  0.3061425452442318
  0.5193499583834692  0.6394816137279574  0.2288358638542355
  0.9596186593747092  0.4131657310997972  0.5258936770575708
  0.2221006135031105  0.5268064873443045  0.0228604666618058
  0.1960000361182629  0.7038605801293245  0.3540803172270133
  0.7615789337370915  0.8868789199561857  0.6660898393263965
  0.7748496109864215  0.3793293978616671  0.8803279977673978
  0.5329654252407693  0.2365599774325602  0.4404806851812034
  0.9892500781451238  0.9922583931502836  0.7876755467257351
  0.6384441146714019  0.5959818872491671  0.5062210452970357
  0.6702886049647137  0.7186352619922126  0.1417448314534063
  0.3757063325756879  0.2456108144727649  0.1190731859307246
  0.5502697984781003  0.8069960745960797  0.5746149152683129
  0.3943663503000834  0.5843259029232728  0.0274801230110667
  0.2526990613850451  0.0156135351062316  0.3673467155673367
  0.8306700922647832  0.6552083339308796  0.1724803179370296
  0.2834617360805049  0.1341295329118022  0.2896656794624649
  0.5208892234997301  0.6826272877370574  0.8819494220547746
  0.9761570428001660  0.9461985305214012  0.4530341394973850
  0.1440464042344323  0.3152118479163097  0.2475953050382584
  0.1679917503825044  0.7531858543302202  0.8998112640777088
  0.4649476111735205  0.5200625153999031  0.3495375237706793
  0.5607594177910153  0.0222982798460976  0.2125575267693579
  0.4488293277396778  0.8722192143683855  0.7436033264702696
  0.2751248093111291  0.9041234754272814  0.8261949831849926
  0.7035354731562609  0.6815356418445779  0.3099309443145395
  0.0320233863211399  0.2607564823790299  0.4046643987400801
  0.8343745483190915  0.1977850396119994  0.0571750658315315
  0.6738618695466841  0.8119244712734437  0.8374362286610073
  0.2920782849639393  0.6610258949156445  0.5526429243911615
  0.6909756019134882  0.7603995449685623  0.5482728201989839
  0.0878720453827671  0.0707320810161056  0.3876220987241817
  0.6982927853213488  0.1036382439535492  0.1387028450144737
  0.8760096760214726  0.4076269343284531  0.7300544666872338
  0.9898903519537250  0.1624635904503462  0.2426443306194527
  0.7893084485655770  0.7572430730410491  0.7123155780309801
  0.4178327753291544  0.7897338861052186  0.4264014510734184
  0.3660114168513544  0.0050426866328111  0.6852511043129665
  0.8219029431439882  0.0391235122951506  0.5670831780261850
  0.2236676825382613  0.4915071006694628  0.6754566097719162
  0.7845183744227227  0.6086146026290961  0.6130530461986106
  0.8849078714640662  0.1055728173848178  0.3840269689244984
  0.2225145853188581  0.2522757602169410  0.4133487680411351
  0.3503052320731310  0.3074982550679856  0.7186950715851167
  0.2535735457426821  0.8431197833841568  0.6206950702022280
  0.1536080301900176  0.8888512953920565  0.1171919190868054
  0.1073209253848009  0.1680195110298658  0.9388138701017629
  0.8508390501463998  0.5117777603408438  0.4270852319499153
  0.7135616110383819  0.6545261177009448  0.9665064435909001
  0.3591669832653416  0.1409872107175287  0.6409698855370478
  0.1216486370411897  0.5973619171849036  0.1522298277823798
  0.0934672618418621  0.9323741543730796  0.9341769167003693
  0.9483027802923152  0.5353741401127974  0.2848659510157787
  0.1661227671308516  0.4371500394792465  0.8618496960643847
  0.0170883857055468  0.1133985938609396  0.5497202368811891
  0.5699014176257650  0.3420594894010250  0.6533949087930889
  0.2687919463268533  0.3164009660756765  0.0041933730954041
  0.0571395629336268  0.1730739386515893  0.7065526447392860
  0.0032757340111559  0.3467372633144719  0.2632892430155954
  0.3166618756829498  0.7053669274215875  0.7567830219138285
  0.4793284766516204  0.7584647650636703  0.0897700051405235
  0.6571431677897641  0.5194553007505337  0.1428357179618451
  0.8029030501515116  0.0025792374585584  0.0372685274318050
  0.1869333227964121  0.0340299410390663  0.5699460704460324
 
  0.00000000E+00  0.00000000E+00  0.00000000E+00
  0.00000000E+00  0.00000000E+00  0.00000000E+00
  0.00000000E+00  0.00000000E+00  0.00000000E+00
  0.00000000E+00  0.00000000E+00  0.00000000E+00
  0.00000000E+00  0.00000000E+00  0.00000000E+00
  0.00000000E+00  0.00000000E+00  0.00000000E+00
  0.00000000E+00  0.00000000E+00  0.00000000E+00
  0.00000000E+00  0.00000000E+00  0.00000000E+00
  0.00000000E+00  0.00000000E+00  0.00000000E+00
  0.00000000E+00  0.00000000E+00  0.00000000E+00
  0.00000000E+00  0.00000000E+00  0.00000000E+00
  0.00000000E+00  0.00000000E+00  0.00000000E+00
  0.00000000E+00  0.00000000E+00  0.00000000E+00
  0.00000000E+00  0.00000000E+00  0.00000000E+00
  0.00000000E+00  0.00000000E+00  0.00000000E+00
  0.00000000E+00  0.00000000E+00  0.00000000E+00
  0.00000000E+00  0.00000000E+00  0.00000000E+00
  0.00000000E+00  0.00000000E+00  0.00000000E+00
  0.00000000E+00  0.00000000E+00  0.00000000E+00
  0.00000000E+00  0.00000000E+00  0.00000000E+00
  0.00000000E+00  0.00000000E+00  0.00000000E+00
  0.00000000E+00  0.00000000E+00  0.00000000E+00
  0.00000000E+00  0.00000000E+00  0.00000000E+00
  0.00000000E+00  0.00000000E+00  0.00000000E+00
  0.00000000E+00  0.00000000E+00  0.00000000E+00
  0.00000000E+00  0.00000000E+00  0.00000000E+00
  0.00000000E+00  0.00000000E+00  0.00000000E+00
  0.00000000E+00  0.00000000E+00  0.00000000E+00
  0.00000000E+00  0.00000000E+00  0.00000000E+00
  0.00000000E+00  0.00000000E+00  0.00000000E+00
  0.00000000E+00  0.00000000E+00  0.00000000E+00
  0.00000000E+00  0.00000000E+00  0.00000000E+00
  0.00000000E+00  0.00000000E+00  0.00000000E+00
  0.00000000E+00  0.00000000E+00  0.00000000E+00
  0.00000000E+00  0.00000000E+00  0.00000000E+00
  0.00000000E+00  0.00000000E+00  0.00000000E+00
  0.00000000E+00  0.00000000E+00  0.00000000E+00
  0.00000000E+00  0.00000000E+00  0.00000000E+00
  0.00000000E+00  0.00000000E+00  0.00000000E+00
  0.00000000E+00  0.00000000E+00  0.00000000E+00
  0.00000000E+00  0.00000000E+00  0.00000000E+00
  0.00000000E+00  0.00000000E+00  0.00000000E+00
  0.00000000E+00  0.00000000E+00  0.00000000E+00
  0.00000000E+00  0.00000000E+00  0.00000000E+00
  0.00000000E+00  0.00000000E+00  0.00000000E+00
  0.00000000E+00  0.00000000E+00  0.00000000E+00
  0.00000000E+00  0.00000000E+00  0.00000000E+00
  0.00000000E+00  0.00000000E+00  0.00000000E+00
  0.00000000E+00  0.00000000E+00  0.00000000E+00
  0.00000000E+00  0.00000000E+00  0.00000000E+00
  0.00000000E+00  0.00000000E+00  0.00000000E+00
  0.00000000E+00  0.00000000E+00  0.00000000E+00
  0.00000000E+00  0.00000000E+00  0.00000000E+00
  0.00000000E+00  0.00000000E+00  0.00000000E+00
  0.00000000E+00  0.00000000E+00  0.00000000E+00
  0.00000000E+00  0.00000000E+00  0.00000000E+00
  0.00000000E+00  0.00000000E+00  0.00000000E+00
  0.00000000E+00  0.00000000E+00  0.00000000E+00
  0.00000000E+00  0.00000000E+00  0.00000000E+00
  0.00000000E+00  0.00000000E+00  0.00000000E+00
  0.00000000E+00  0.00000000E+00  0.00000000E+00
  0.00000000E+00  0.00000000E+00  0.00000000E+00
  0.00000000E+00  0.00000000E+00  0.00000000E+00
  0.00000000E+00  0.00000000E+00  0.00000000E+00
  0.00000000E+00  0.00000000E+00  0.00000000E+00
  0.00000000E+00  0.00000000E+00  0.00000000E+00
  0.00000000E+00  0.00000000E+00  0.00000000E+00
  0.00000000E+00  0.00000000E+00  0.00000000E+00
  0.00000000E+00  0.00000000E+00  0.00000000E+00
  0.00000000E+00  0.00000000E+00  0.00000000E+00
  0.00000000E+00  0.00000000E+00  0.00000000E+00
  0.00000000E+00  0.00000000E+00  0.00000000E+00
  0.00000000E+00  0.00000000E+00  0.00000000E+00
  0.00000000E+00  0.00000000E+00  0.00000000E+00
  0.00000000E+00  0.00000000E+00  0.00000000E+00
  0.00000000E+00  0.00000000E+00  0.00000000E+00
  0.00000000E+00  0.00000000E+00  0.00000000E+00
  0.00000000E+00  0.00000000E+00  0.00000000E+00
  0.00000000E+00  0.00000000E+00  0.00000000E+00
  0.00000000E+00  0.00000000E+00  0.00000000E+00
  0.00000000E+00  0.00000000E+00  0.00000000E+00
  0.00000000E+00  0.00000000E+00  0.00000000E+00
  0.00000000E+00  0.00000000E+00  0.00000000E+00
  0.00000000E+00  0.00000000E+00  0.00000000E+00
  0.00000000E+00  0.00000000E+00  0.00000000E+00
  0.00000000E+00  0.00000000E+00  0.00000000E+00
  0.00000000E+00  0.00000000E+00  0.00000000E+00
  0.00000000E+00  0.00000000E+00  0.00000000E+00
  0.00000000E+00  0.00000000E+00  0.00000000E+00
  0.00000000E+00  0.00000000E+00  0.00000000E+00
  0.00000000E+00  0.00000000E+00  0.00000000E+00
  0.00000000E+00  0.00000000E+00  0.00000000E+00
  0.00000000E+00  0.00000000E+00  0.00000000E+00
  0.00000000E+00  0.00000000E+00  0.00000000E+00
  0.00000000E+00  0.00000000E+00  0.00000000E+00
  0.00000000E+00  0.00000000E+00  0.00000000E+00
  0.00000000E+00  0.00000000E+00  0.00000000E+00
  0.00000000E+00  0.00000000E+00  0.00000000E+00
  0.00000000E+00  0.00000000E+00  0.00000000E+00
  0.00000000E+00  0.00000000E+00  0.00000000E+00
  0.00000000E+00  0.00000000E+00  0.00000000E+00
  0.00000000E+00  0.00000000E+00  0.00000000E+00
  0.00000000E+00  0.00000000E+00  0.00000000E+00
  0.00000000E+00  0.00000000E+00  0.00000000E+00
  0.00000000E+00  0.00000000E+00  0.00000000E+00
  0.00000000E+00  0.00000000E+00  0.00000000E+00
  0.00000000E+00  0.00000000E+00  0.00000000E+00
  0.00000000E+00  0.00000000E+00  0.00000000E+00
  0.00000000E+00  0.00000000E+00  0.00000000E+00
  0.00000000E+00  0.00000000E+00  0.00000000E+00
  0.00000000E+00  0.00000000E+00  0.00000000E+00
  0.00000000E+00  0.00000000E+00  0.00000000E+00
  0.00000000E+00  0.00000000E+00  0.00000000E+00
  0.00000000E+00  0.00000000E+00  0.00000000E+00
  0.00000000E+00  0.00000000E+00  0.00000000E+00
  0.00000000E+00  0.00000000E+00  0.00000000E+00
  0.00000000E+00  0.00000000E+00  0.00000000E+00
  0.00000000E+00  0.00000000E+00  0.00000000E+00
  0.00000000E+00  0.00000000E+00  0.00000000E+00
  0.00000000E+00  0.00000000E+00  0.00000000E+00
  0.00000000E+00  0.00000000E+00  0.00000000E+00
  0.00000000E+00  0.00000000E+00  0.00000000E+00
  0.00000000E+00  0.00000000E+00  0.00000000E+00
  0.00000000E+00  0.00000000E+00  0.00000000E+00
  0.00000000E+00  0.00000000E+00  0.00000000E+00
  0.00000000E+00  0.00000000E+00  0.00000000E+00
  0.00000000E+00  0.00000000E+00  0.00000000E+00
  0.00000000E+00  0.00000000E+00  0.00000000E+00
  0.00000000E+00  0.00000000E+00  0.00000000E+00
  0.00000000E+00  0.00000000E+00  0.00000000E+00
  0.00000000E+00  0.00000000E+00  0.00000000E+00
  0.00000000E+00  0.00000000E+00  0.00000000E+00
  0.00000000E+00  0.00000000E+00  0.00000000E+00
  0.00000000E+00  0.00000000E+00  0.00000000E+00
  0.00000000E+00  0.00000000E+00  0.00000000E+00
  0.00000000E+00  0.00000000E+00  0.00000000E+00
  0.00000000E+00  0.00000000E+00  0.00000000E+00
  0.00000000E+00  0.00000000E+00  0.00000000E+00
  0.00000000E+00  0.00000000E+00  0.00000000E+00
  0.00000000E+00  0.00000000E+00  0.00000000E+00
  0.00000000E+00  0.00000000E+00  0.00000000E+00
  0.00000000E+00  0.00000000E+00  0.00000000E+00
  0.00000000E+00  0.00000000E+00  0.00000000E+00
  0.00000000E+00  0.00000000E+00  0.00000000E+00
  0.00000000E+00  0.00000000E+00  0.00000000E+00
  0.00000000E+00  0.00000000E+00  0.00000000E+00
  0.00000000E+00  0.00000000E+00  0.00000000E+00
  0.00000000E+00  0.00000000E+00  0.00000000E+00
  0.00000000E+00  0.00000000E+00  0.00000000E+00
  0.00000000E+00  0.00000000E+00  0.00000000E+00
  0.00000000E+00  0.00000000E+00  0.00000000E+00
  0.00000000E+00  0.00000000E+00  0.00000000E+00
  0.00000000E+00  0.00000000E+00  0.00000000E+00
  0.00000000E+00  0.00000000E+00  0.00000000E+00
  0.00000000E+00  0.00000000E+00  0.00000000E+00
  0.00000000E+00  0.00000000E+00  0.00000000E+00
  0.00000000E+00  0.00000000E+00  0.00000000E+00
  0.00000000E+00  0.00000000E+00  0.00000000E+00
  0.00000000E+00  0.00000000E+00  0.00000000E+00
  0.00000000E+00  0.00000000E+00  0.00000000E+00
  0.00000000E+00  0.00000000E+00  0.00000000E+00
  0.00000000E+00  0.00000000E+00  0.00000000E+00
  0.00000000E+00  0.00000000E+00  0.00000000E+00
  0.00000000E+00  0.00000000E+00  0.00000000E+00
  0.00000000E+00  0.00000000E+00  0.00000000E+00
  0.00000000E+00  0.00000000E+00  0.00000000E+00
  0.00000000E+00  0.00000000E+00  0.00000000E+00
  0.00000000E+00  0.00000000E+00  0.00000000E+00
  0.00000000E+00  0.00000000E+00  0.00000000E+00
  0.00000000E+00  0.00000000E+00  0.00000000E+00
  0.00000000E+00  0.00000000E+00  0.00000000E+00
  0.00000000E+00  0.00000000E+00  0.00000000E+00
  0.00000000E+00  0.00000000E+00  0.00000000E+00
  0.00000000E+00  0.00000000E+00  0.00000000E+00
  0.00000000E+00  0.00000000E+00  0.00000000E+00
  0.00000000E+00  0.00000000E+00  0.00000000E+00
  0.00000000E+00  0.00000000E+00  0.00000000E+00
  0.00000000E+00  0.00000000E+00  0.00000000E+00
  0.00000000E+00  0.00000000E+00  0.00000000E+00
  0.00000000E+00  0.00000000E+00  0.00000000E+00
  0.00000000E+00  0.00000000E+00  0.00000000E+00
  0.00000000E+00  0.00000000E+00  0.00000000E+00
  0.00000000E+00  0.00000000E+00  0.00000000E+00
  0.00000000E+00  0.00000000E+00  0.00000000E+00
  0.00000000E+00  0.00000000E+00  0.00000000E+00
  0.00000000E+00  0.00000000E+00  0.00000000E+00
  0.00000000E+00  0.00000000E+00  0.00000000E+00
  0.00000000E+00  0.00000000E+00  0.00000000E+00
  0.00000000E+00  0.00000000E+00  0.00000000E+00
  0.00000000E+00  0.00000000E+00  0.00000000E+00
  0.00000000E+00  0.00000000E+00  0.00000000E+00
  0.00000000E+00  0.00000000E+00  0.00000000E+00
  0.00000000E+00  0.00000000E+00  0.00000000E+00
  0.00000000E+00  0.00000000E+00  0.00000000E+00
  0.00000000E+00  0.00000000E+00  0.00000000E+00
  0.00000000E+00  0.00000000E+00  0.00000000E+00
  0.00000000E+00  0.00000000E+00  0.00000000E+00
  0.00000000E+00  0.00000000E+00  0.00000000E+00
  0.00000000E+00  0.00000000E+00  0.00000000E+00
  0.00000000E+00  0.00000000E+00  0.00000000E+00
  0.00000000E+00  0.00000000E+00  0.00000000E+00
  0.00000000E+00  0.00000000E+00  0.00000000E+00
  0.00000000E+00  0.00000000E+00  0.00000000E+00
  0.00000000E+00  0.00000000E+00  0.00000000E+00
  0.00000000E+00  0.00000000E+00  0.00000000E+00
  0.00000000E+00  0.00000000E+00  0.00000000E+00
  0.00000000E+00  0.00000000E+00  0.00000000E+00
  0.00000000E+00  0.00000000E+00  0.00000000E+00
  0.00000000E+00  0.00000000E+00  0.00000000E+00
  0.00000000E+00  0.00000000E+00  0.00000000E+00
  0.00000000E+00  0.00000000E+00  0.00000000E+00
  0.00000000E+00  0.00000000E+00  0.00000000E+00
  0.00000000E+00  0.00000000E+00  0.00000000E+00
  0.00000000E+00  0.00000000E+00  0.00000000E+00
  0.00000000E+00  0.00000000E+00  0.00000000E+00
  0.00000000E+00  0.00000000E+00  0.00000000E+00
  0.00000000E+00  0.00000000E+00  0.00000000E+00
  0.00000000E+00  0.00000000E+00  0.00000000E+00
  0.00000000E+00  0.00000000E+00  0.00000000E+00
  0.00000000E+00  0.00000000E+00  0.00000000E+00
  0.00000000E+00  0.00000000E+00  0.00000000E+00
  0.00000000E+00  0.00000000E+00  0.00000000E+00
  0.00000000E+00  0.00000000E+00  0.00000000E+00
  0.00000000E+00  0.00000000E+00  0.00000000E+00
  0.00000000E+00  0.00000000E+00  0.00000000E+00
  0.00000000E+00  0.00000000E+00  0.00000000E+00
  0.00000000E+00  0.00000000E+00  0.00000000E+00
  0.00000000E+00  0.00000000E+00  0.00000000E+00
  0.00000000E+00  0.00000000E+00  0.00000000E+00
  0.00000000E+00  0.00000000E+00  0.00000000E+00
  0.00000000E+00  0.00000000E+00  0.00000000E+00
  0.00000000E+00  0.00000000E+00  0.00000000E+00