Amorphous Sb2Se3                        
   1.00000000000000     
    20.8035720557989272    0.0000000000000000    0.0000000000000000
     0.0000000000000000   20.8035720557989272    0.0000000000000000
     0.0000000000000000    0.0000000000000000   20.8035720557989272
   In   S 
   120   180
Direct
  0.4437968762124591  0.5988490304644893  0.1353278523358631
  0.2370919648665663  0.9659237159526329  0.7571072723323159
  0.0592595035113909  0.7377755940759538  0.5686038043180347
  0.7662676877151416  0.5984418000309153  0.0663034860074912
  0.8214756152830658  0.7055250562070341  0.3200536490175686
  0.3194832611171278  0.2782366515264742  0.3519382118326339
  0.3280138827792344  0.6698886263272484  0.5792918662060935
  0.1558379185149656  0.2108776020268102  0.3603488565054626
  0.4788693702083201 -0.0307480399737561  0.7959435380708624
  0.1048411244522378  0.4087061705659744 -0.0267422281457650
  0.1322695163332624  0.5130395611728370  0.0967468634078412
  0.7031953491147758  0.1583563165548127  0.0121387971810357
  0.4611267311951966  0.5051920788440201  0.9032115668721125
  0.3929102426081637  0.4081952448026875  0.2244868808702099
  0.6463023929369610  0.4799618132855307  0.9745886694310733
  0.0107602339104239  0.0338448837887530  0.0538125680118087
  0.5302228754497108  0.0563041728680632  0.9830908234602045
  0.3056691485000630  0.0355246767602311  0.1857147688624458
  0.7168643119623912  0.0160751170250990  0.3108815029455690
  0.3229885947872074  0.9037230383957184  0.5610470446376912
  0.3703325905497589  0.8727215323591669  0.8404602047453543
  0.6558820367350167  0.8591091163191944  0.0674666830338104
  0.0303369126610475  0.4301682824005484  0.2901674689831235
  0.2649361559216404  0.8594728937212126  0.0080294646815938
  0.9322365240208317  0.6622044761849997  0.4593782224448232
  0.8067862793022874  0.5208571394737166  0.4558454552753406
  0.0184335494073436  0.5205507624156571  0.5529591594836268
  0.1341206673001470  0.6173081173705414  0.2863550847606303
  0.1895856340719418  0.8365424719397400  0.4198853908250060
  0.6742037983422999  0.5434500142697292  0.4643511816449227
  0.9382932318905348  0.0362583991313447  0.8716734960662685
  0.4813751602908258  0.0795738273504563  0.6173291959821485
  0.4221172717324989  0.2370418887138933  0.5578340770938279
  0.7670660936173922  0.2711281203714209  0.7483114045044257
  0.9644789108597139  0.6131829661769950  0.2087407828557333
  0.6418239853956761  0.6504853084674513  0.8090146614035955
  0.7276666148130406  0.3392608528616404  0.9464372719719710
  0.9164156232390583  0.1432224796222897  0.7148297391564646
  0.1906962212152243  0.2059211807452809  0.1485403623776798
  0.8873231403088259  0.5798191721733332  0.0071016244433278
  0.7205000759069868  0.5224791318980140  0.6668452252445672
  0.9753406698825197  0.4242414387380871  0.4666479372319305
  0.9443467310493820  0.3098614894512402  0.8140783195203416
  0.4664204854859056  0.2452486884488768  0.2594973961814993
  0.2494532086475956  0.5184058273123433  0.6517816895807547
  0.8093763211219424  0.6912114998159335  0.7476803385500852
  0.3435733659587336  0.7919316393605526  0.3419963209237118
  0.1144198299288652  0.3146093310940641  0.8240657139849187
  0.0619445889135184  0.2078052548992064  0.4588948246315702
  0.5818830077108121  0.6504173508091393 -0.0042634510222373
  0.5472177603899621  0.5608232498192203  0.6568913160224106
  0.8817470761991860  0.2724590929253639  0.2273384739680349
  0.6841238369241389  0.8192723250753104  0.1937401602176849
  0.4340158261101686  0.6924037156516850  0.6927926806891918
  0.1688800468781398  0.6744004953820080  0.9152659580682020
  0.6718257779184289  0.8488216205145127  0.7272721695625991
  0.6352341943734479  0.9545325228851955  0.8885876060698075
  0.7949814838702851  0.1774377703551921  0.5725064015856839
  0.6400563519836870  0.7246259792497276  0.5840781861621156
  0.1041601539554395  0.6644365734529954  0.7315117802510989
 -0.0481503526596687  0.9742640746352054  0.6271307308852753
  0.4535223079765083  0.7575679973035164  0.4170950236323880
  0.0677208651438263  0.4761603693201484  0.7305317382426495
  0.8304146534186658  0.0829083224141539  0.1551766560993049
  0.6777025501751072  0.0329715133980897  0.5247940985732265
  0.0554788560279290  0.3157572704656274  0.6515442570014685
  0.0946500200192425  0.9789636123947266  0.6888013264960237
  0.5209044143370973  0.8420930856591068  0.9437901255045512
  0.5999321188421901  0.6123777156921438  0.2481846221642456
  0.7521971774257856  0.3888934647716843  0.1483613789920021
  0.4889087575543582  0.9223682678871897  0.3160208515212528
  0.8688603166160710  0.3656294812303666  0.6496599797569673
  0.6639815853912981  0.0804726429358865  0.1546135777595120
  0.2554928411775962  0.8057682207560872  0.7540999624186807
  0.9696053149152666  0.8372978035335198  0.7881822444459449
  0.5050786469010063  0.9542641989900806  0.5010137873735123
  0.7719496255852929  0.7705441740792468  0.9460206423269197
  0.2249003746470373  0.2775911378494043  0.5589032376220571
  0.4148167550164972  0.0732883952248873  0.2524968572273114
  0.3548493774309008  0.2190271550320037  0.8941936215235009
  0.8610705583632131  0.8224748641210109  0.6084388323130776
  0.8999441540777295  0.1293452743713808  0.3204429765404037
  0.9486412964066037  0.3737785986745878  0.1134766516276751
  0.6517571549518425  0.2444656884026199  0.4731354710094025
  0.8463817178555098  0.7490442792676447  0.1398560868940208
  0.9311209381108009  0.6429449663864846  0.7104613101796436
  0.9344827028491687  0.9023224167472239  0.1902113516037750
  0.1305063377138001  0.2113635607029825 -0.0074632657954085
  0.9706350169694147  0.2198178159945342  0.9923388143898891
  0.5905549918938282  0.2330426879031991  0.6686739883272443
  0.0462750291629565  0.0257138276024945  0.4046661789163841
  0.2050450718602553  0.3952013566381008  0.2583932026888245
  0.4969001831365699  0.7626545627761284  0.2356986882408507
  0.4066546910816839  0.6946210401674927  0.9287632925792514
  0.0759045759110326  0.9271433345913859  0.9006425109886560
  0.8626202192422604  0.9633993814132575  0.4543478334776641
  0.0756161009312682  0.7367032368382365  0.3141712338998914
  0.8107358031907410  0.0746329010989858  0.8549607145391193
  0.3004920908736758  0.5411213129360843  0.1933505897934322
  0.9629437036859044  0.8493319791042262  0.0063011187889008
  0.5681770251868210  0.3163492288714204  0.0540461104454459
  0.4462862963847000  0.1244529819036959  0.4447244578804344
  0.0473953578267549  0.1200797344988836  0.2266200485213259
  0.2944771774547949  0.7030460654195760  0.1061551945277724
  0.4913916492754453  0.3659241978993589  0.4662684050127029
  0.7983469508793103  0.9692433388081193  0.0279744084178646
  0.3412992573065231  0.2080818220254964  0.7165605561327846
  0.2935404088556071  0.0769654798472859  0.4315063752108590
  0.6638555321205659  0.4123945876749241  0.5505242230171596
  0.4287909943688821  0.3518459228365666  0.7382074956521066
  0.6515274506029486  0.7944726514027907  0.3994368480258447
  0.2291815276448746  0.9098767021099513  0.2699858790909297
  0.9793503780109348  0.8326712890901939  0.4135596449533370
  0.6450153587857952  0.3560125033853029  0.3051087223498702
  0.1102516658278823  0.1200459281951241  0.8258149262021836
  0.4079256620383824  0.1630358507885387  0.0939366005009343
  0.6092164599411407  0.3924251112686145  0.7939602310832961
  0.8206870969162627  0.3160087940303146  0.4039918619166125
  0.3023339715481724  0.6173145080263210  0.8199935283119950
  0.1330492073848106  0.8386918493136991  0.1284433678756288
  0.1881750834790838  0.4822154666215844  0.7741458178216999
  0.0613265198735131  0.3831112847210889  0.3927174628856999
  0.1393610164352864  0.9112440018068014  0.5377417454294908
  0.4166916539434407  0.8558383816629719  0.2466929211301609
  0.0087135844661718  0.7375042253301015  0.6902443969449218
  0.2800467618032098  0.6350121075341879  0.9383421733702532
  0.2380869311209549  0.9026106639345496  0.8724646584282897
  0.7555451856324088  0.7237392704113452  0.0611241304214658
  0.6638132686475711  0.9185329903528490  0.5807321748329853
  0.5421993161902560  0.4327292005398900  0.9891041571363562
  0.2641248344378071  0.9353014653717399  0.4354480801294138
  0.4919784324511765  0.7044696004253413  0.5217731381432485
  0.3521166893212888  0.7928306650972674  0.5123072503261484
  0.5675090516023954  0.9049047521452659  0.6013300908028025
  0.9852437150521952  0.4163670032752314  0.6522688019531611
  0.1859314736710263  0.5806840387779282  0.7949581588529341
  0.6351543612857343  0.0888047590805321  0.2680594093254839
  0.5223639325039711  0.8680648955912046  0.4198135196519473
  0.9518938052126357  0.5678387518935801  0.9070235599325852
  0.8585195344227288  0.6015462141497432  0.5463948065258215
  0.2117586840914157  0.5924411000892831  0.3763109111076290
  0.4159914069572961  0.3482879977977946  0.3294351978242054
  0.3019115597112226  0.1935715711687324  0.6042534337866484
  0.9067419255452491  0.4869575892252996  0.0940319073506211
  0.5615326698850930  0.0607463963594647  0.5033982695346066
  0.3379495202673131  0.5780398158899457  0.0821069860974019
  0.7055892990453967  0.5460196592685922  0.1584000390680630
  0.2511159703652917  0.4390116195516119  0.3602224548590383
  0.8771547820232735  0.1007896099430042  0.6118072452368871
  0.7984403409244396  0.8054688267567500  0.2341537513967852
  0.4783226927577314  0.0368838857836546  0.3466429062327981
  0.4668821496825050  0.2443363412982680  0.6880913170036270
  0.2708203076601604  0.3905796142705779  0.5671761860257992
  0.6587880308255881  0.9024977192758046  0.2837273004833390
  0.8300682074524594  0.0371698573659761  0.2698637665641119
  0.0427808699534744  0.0496003862026781  0.9358577454923860
  0.4117317538931574  0.4272420620285897  0.6430963333337655
  0.4043500704800931  0.6973021692778116  0.1909829609923994
  0.7065207192477431  0.0936638149187243  0.6317598032644544
  0.3629508526279089  0.8716146107221779  0.6744495130608031
  0.4968039285095397  0.3868645788198036  0.8303530001181441
  0.2275047703255077  0.2768911852698657  0.2736141938098314
  0.5765914879950801  0.9226358477987028  0.2308094177074914
  0.5996844020742592  0.7342024010693857  0.1781247915351280
  0.5776684844287701  0.2462226514407621  0.3158640045854180
  0.1045405556599951  0.2980330034221922  0.5421881721809958
  0.2445896644208384  0.0887635474315809  0.7907713775436104
  0.1149685803176932  0.5142125017398016  0.6240463208692794
  0.6870248888082348  0.6619887018666637  0.4276461340735068
  0.0337637401456109  0.9195464806093749  0.0828041880924281
  0.3679142919070352  0.5299996662035659  0.7653654105134863
  0.8705832186801519  0.4268839088504398  0.3988309157402055
  0.0205426752899623  0.5830981882611254  0.7703873329767521
  0.0415544731195220  0.5412816866494784  0.9385935967895684
  0.0839425779769680  0.6185381681319434  0.9837335538925710
  0.0518278660747125  0.8621077274066759  0.2978913121189845
  0.8889108819697655  0.0533181783905409  0.0501125389967907
  0.3535612702671645  0.7246025703127451  0.7968276351057628
  0.6157061329225091  0.4582705008259815  0.6897613445424314
  0.3702100335512484  0.3770884023141078  0.5688379011441836
  0.9570455954666690  0.2584094942954343  0.6989790616406129
  0.6645350412390759  0.3219334895449127  0.1929124557506775
  0.2856612751023038  0.4198965452628318  0.1696719443244294
  0.8497331501785151  0.6436058774496723  0.2067095677243323
  0.0418270076150473  0.6307923887265909  0.4993667662358283
  0.7427855342064711  0.4260494711871836  0.0310290404137895
  0.5675303449806043  0.0536789878516506  0.8692081401068867
  0.5777698926616235  0.4761567770297837  0.4207508373293521
  0.9468995379671570  0.9108983669692359  0.8960073951549835
  0.4746859300691342  0.5514761940724264  0.5582112396655978
  0.6183945536852039  0.1155869308834318  0.6722199346974765
  0.5376945563240021  0.7186628782085018  0.3397555707509276
  0.7013285129950844  0.3444024277735971  0.4184909529761879
  0.4079347360607536  0.2873680415957715  0.0826570623088729
  0.3872908699651527  0.1792800689622790  0.3236442749288175
  0.7294912648999828  0.8841356704327590  0.9666551791717158
  0.4044063918564804  0.8286098457552989  0.9598680843419488
  0.6504987637807664  0.2484849337695427  0.9544999239350251
  0.8092994060083638  0.7934843195722725  0.4121715291788271
  0.7411727955109183  0.9868529517558349  0.1340601452526930
  0.2178518408597836  0.2097082317096043  0.8922369393976292
  0.6963611649624722  0.4295359241844064  0.8689287132265180
  0.8628069421850649  0.8675874899932002  0.3731327748076687
  0.1656220306297290  0.6807236005360562  0.6233313210816386
  0.7274844804530176  0.7415262111730681  0.8334201397542198
  0.5476970758377172  0.6302728412686582  0.8816529291183588
  0.2588819520084455  0.2309378709048543  0.4441496018115914
  0.5527541733163522  0.5869956269689909  0.0923338340210907
  0.1737892446101342  0.1231380606358745  0.2664299955270111
  0.2366309758144699  0.0498177375146129  0.2928415121081424
  0.0231935959560739  0.5557567223936172  0.2972961791753820
  0.0370115347147165  0.2278932633888879  0.8602692976329184
  0.2497286538198165  0.9324487963837723  0.1554399057290299
  0.9897210087792409  0.9407658441827976  0.4692971500217395
  0.7386054118114739  0.9849509941855173  0.4270880980213508
  0.1216546301866787  0.9210557573069563  0.3384858283067409
  0.1576215820828080  0.7372036311053612  0.8123381776245724
  0.0907951338449459  0.7717941638307221  0.4400814601178982
  0.7482194014316601  0.1689238388162763  0.1257694871428708
  0.9924581775230747  0.0407818066230306  0.2973626248917040
  0.1565553562105997  0.3160954624811861  0.7132868853727755
  0.8632304376492484  0.8675301801194533  0.0728266924185053
  0.0359930044133311  0.3271780165695221  0.0511616750835637
  0.9305723905324337  0.3846014896182965  0.2352310408229916
  0.9817232160390561  0.1038193120535656  0.4810323297848307
  0.0492239174639730  0.2343160275528859  0.2796407836295215
  0.6564267952647728  0.5846835173039093  0.5825105246153475
  0.5963341768684639  0.1209403563785218  0.0626945462642342
  0.9813827284510562  0.5551270573983725  0.0995628078558021
  0.8948094485006264  0.8851086303465511  0.7082261613265259
  0.8377885925441749  0.3670650402731540  0.7698748575790110
  0.0291842808628053  0.4029424485520430  0.8282082396461243
  0.8897894105924833  0.0913760990593033  0.4419307342379997
  0.9182464239685220  0.7365821225945735  0.8419769728582872
  0.5768706200707561  0.6723965179947801  0.7062367165428433
  0.0881682929841601  0.8570874920605539  0.6034142092282945
  0.4191990883929300  0.0919563152996887 -0.0014236122015751
  0.2249876976823722  0.7907978161695975  0.3006875707556121
  0.8111184793937685  0.2327923192094277  0.3153980309593719
  0.0641175454618908  0.8063518005479497  0.9439055521073031
  0.7491238401944463  0.0215078617648125  0.7669975278557569
  0.2907025209352833  0.1300635884508792  0.1121654788698624
  0.7409069886713606  0.5848372095402720  0.7682001735391845
  0.6465040520446514  0.2758714299125982  0.7705015165151432
  0.0794189739203700  0.8889721021619365  0.7848067745324705
  0.8375093751844437  0.1851675541708536  0.7992486200556407
  0.9674156842476942  0.7724357807204350  0.1280138106899906
  0.7692165350113106  0.7567996903003683  0.6507702721920993
  0.9908350015132487  0.0616030574695975  0.7620808708371987
  0.7893114819067389  0.4492311710968952  0.6012872781337631
  0.0829664503620993  0.1068891438324783  0.1144380953465932
  0.4568487769316980  0.5758407266837783  0.7545557346434543
  0.9147593114166962  0.5596215816652595  0.6165899539729290
  0.5173018270749590  0.6116257083543369  0.4932747346480224
  0.9795444191124997  0.2294948669334423  0.3492885060804177
  0.1064578828854647  0.4166416709124733  0.1985122120734413
  0.4597995131084772  0.3244682871531010  0.1597777073871680
  0.5924271365747165  0.2953363171490572  0.5655251067314280
  0.8354321866094935  0.9356456139384760  0.5683087043333782
  0.2795097952542407  0.5322082691963367  0.3387050283474172
  0.7010919489314248  0.6721709376337037  0.3297337723090530
  0.3227314564394097  0.9227081478946287  0.3553642173996095
  0.5889082875626348  0.4618267020242155  0.3235753438967769
  0.8643320638254065  0.6010519330562060  0.3796214885573479
  0.8825828671849421  0.2563277627542017  0.4905892411068082
  0.0314938878773925  0.7136250579191903  0.1789638160245296
  0.7378581474793390  0.0563389982623146  0.9532301808678685
  0.5625454184877074  0.8688745252346486  0.8341119753190579
  0.3435461000980483  0.1134046016658927  0.7917022763523756
  0.5337355101466276  0.9687916856190918  0.6710221994947821
  0.2775862206326368  0.7532856750466098  0.4601435642627212
  0.2145980791492327  0.9553115000418133  0.5859292840637460
  0.9015362307087817  0.3191512470926355  0.9310287268520290
  0.8933393460195586  0.7491988669051974  0.9373741430316468
  0.4177622920018972  0.5254659562124323  0.2372251274343533
  0.9548750975792202  0.7282165017506632  0.3499744248143452
  0.6888893419405673  0.5927678642067523  0.9692186812156891
  0.7315401452487955  0.1578456793844114  0.4704216993041038
  0.4873506855108057  0.1478339416167593  0.1842355154551759
  0.1979234955869555  0.3079550993373698  0.9123758029544795
  0.3499762625062006  0.9650699682905836  0.7040589920328022
  0.9314503891378194  0.3259314337897178  0.5421904628225799
  0.9405347854106324  0.7723040693741702  0.5256192631293475
  0.1530422320673460  0.0760317818515669  0.4381350164131582
  0.7699717054688116  0.4909047408582238  0.2097046652029482
  0.5454149216889698  0.2387725798251443  0.4104918806078875
  0.2327956369039008  0.7531335740998456  0.6376866099710934
  0.8185626856235854  0.2650406705336043  0.9320059637160661
  0.1875286496039688  0.9549097632356215  0.9439739846856445
  0.7355104343405203  0.9384126271723302  0.8193743739527575
  0.1954168813046032  0.6027432368338270  0.1826527796373161
  0.7707731668766570  0.2812208088531435  0.6273191508969628
  0.1242274230660970  0.1182481224271288  0.5224818691825622
  0.3256920894589617  0.3065129521276878  0.7805523076530669
  0.6072130612935196  0.7695341298157197  0.9894908419242381
  0.9234787046762258  0.1613581170445828  0.1962588309456264
  0.5737313465050831  0.9384322905389858  0.0043100617435481
  0.1411984599368542  0.7750184598361174  0.9975461394354834
  0.8428610052507093  0.3088899284916521  0.1166987534222673
  0.3984284881336381 -0.0041695128641900  0.5325896921570799
 
  0.00000000E+00  0.00000000E+00  0.00000000E+00
  0.00000000E+00  0.00000000E+00  0.00000000E+00
  0.00000000E+00  0.00000000E+00  0.00000000E+00
  0.00000000E+00  0.00000000E+00  0.00000000E+00
  0.00000000E+00  0.00000000E+00  0.00000000E+00
  0.00000000E+00  0.00000000E+00  0.00000000E+00
  0.00000000E+00  0.00000000E+00  0.00000000E+00
  0.00000000E+00  0.00000000E+00  0.00000000E+00
  0.00000000E+00  0.00000000E+00  0.00000000E+00
  0.00000000E+00  0.00000000E+00  0.00000000E+00
  0.00000000E+00  0.00000000E+00  0.00000000E+00
  0.00000000E+00  0.00000000E+00  0.00000000E+00
  0.00000000E+00  0.00000000E+00  0.00000000E+00
  0.00000000E+00  0.00000000E+00  0.00000000E+00
  0.00000000E+00  0.00000000E+00  0.00000000E+00
  0.00000000E+00  0.00000000E+00  0.00000000E+00
  0.00000000E+00  0.00000000E+00  0.00000000E+00
  0.00000000E+00  0.00000000E+00  0.00000000E+00
  0.00000000E+00  0.00000000E+00  0.00000000E+00
  0.00000000E+00  0.00000000E+00  0.00000000E+00
  0.00000000E+00  0.00000000E+00  0.00000000E+00
  0.00000000E+00  0.00000000E+00  0.00000000E+00
  0.00000000E+00  0.00000000E+00  0.00000000E+00
  0.00000000E+00  0.00000000E+00  0.00000000E+00
  0.00000000E+00  0.00000000E+00  0.00000000E+00
  0.00000000E+00  0.00000000E+00  0.00000000E+00
  0.00000000E+00  0.00000000E+00  0.00000000E+00
  0.00000000E+00  0.00000000E+00  0.00000000E+00
  0.00000000E+00  0.00000000E+00  0.00000000E+00
  0.00000000E+00  0.00000000E+00  0.00000000E+00
  0.00000000E+00  0.00000000E+00  0.00000000E+00
  0.00000000E+00  0.00000000E+00  0.00000000E+00
  0.00000000E+00  0.00000000E+00  0.00000000E+00
  0.00000000E+00  0.00000000E+00  0.00000000E+00
  0.00000000E+00  0.00000000E+00  0.00000000E+00
  0.00000000E+00  0.00000000E+00  0.00000000E+00
  0.00000000E+00  0.00000000E+00  0.00000000E+00
  0.00000000E+00  0.00000000E+00  0.00000000E+00
  0.00000000E+00  0.00000000E+00  0.00000000E+00
  0.00000000E+00  0.00000000E+00  0.00000000E+00
  0.00000000E+00  0.00000000E+00  0.00000000E+00
  0.00000000E+00  0.00000000E+00  0.00000000E+00
  0.00000000E+00  0.00000000E+00  0.00000000E+00
  0.00000000E+00  0.00000000E+00  0.00000000E+00
  0.00000000E+00  0.00000000E+00  0.00000000E+00
  0.00000000E+00  0.00000000E+00  0.00000000E+00
  0.00000000E+00  0.00000000E+00  0.00000000E+00
  0.00000000E+00  0.00000000E+00  0.00000000E+00
  0.00000000E+00  0.00000000E+00  0.00000000E+00
  0.00000000E+00  0.00000000E+00  0.00000000E+00
  0.00000000E+00  0.00000000E+00  0.00000000E+00
  0.00000000E+00  0.00000000E+00  0.00000000E+00
  0.00000000E+00  0.00000000E+00  0.00000000E+00
  0.00000000E+00  0.00000000E+00  0.00000000E+00
  0.00000000E+00  0.00000000E+00  0.00000000E+00
  0.00000000E+00  0.00000000E+00  0.00000000E+00
  0.00000000E+00  0.00000000E+00  0.00000000E+00
  0.00000000E+00  0.00000000E+00  0.00000000E+00
  0.00000000E+00  0.00000000E+00  0.00000000E+00
  0.00000000E+00  0.00000000E+00  0.00000000E+00
  0.00000000E+00  0.00000000E+00  0.00000000E+00
  0.00000000E+00  0.00000000E+00  0.00000000E+00
  0.00000000E+00  0.00000000E+00  0.00000000E+00
  0.00000000E+00  0.00000000E+00  0.00000000E+00
  0.00000000E+00  0.00000000E+00  0.00000000E+00
  0.00000000E+00  0.00000000E+00  0.00000000E+00
  0.00000000E+00  0.00000000E+00  0.00000000E+00
  0.00000000E+00  0.00000000E+00  0.00000000E+00
  0.00000000E+00  0.00000000E+00  0.00000000E+00
  0.00000000E+00  0.00000000E+00  0.00000000E+00
  0.00000000E+00  0.00000000E+00  0.00000000E+00
  0.00000000E+00  0.00000000E+00  0.00000000E+00
  0.00000000E+00  0.00000000E+00  0.00000000E+00
  0.00000000E+00  0.00000000E+00  0.00000000E+00
  0.00000000E+00  0.00000000E+00  0.00000000E+00
  0.00000000E+00  0.00000000E+00  0.00000000E+00
  0.00000000E+00  0.00000000E+00  0.00000000E+00
  0.00000000E+00  0.00000000E+00  0.00000000E+00
  0.00000000E+00  0.00000000E+00  0.00000000E+00
  0.00000000E+00  0.00000000E+00  0.00000000E+00
  0.00000000E+00  0.00000000E+00  0.00000000E+00
  0.00000000E+00  0.00000000E+00  0.00000000E+00
  0.00000000E+00  0.00000000E+00  0.00000000E+00
  0.00000000E+00  0.00000000E+00  0.00000000E+00
  0.00000000E+00  0.00000000E+00  0.00000000E+00
  0.00000000E+00  0.00000000E+00  0.00000000E+00
  0.00000000E+00  0.00000000E+00  0.00000000E+00
  0.00000000E+00  0.00000000E+00  0.00000000E+00
  0.00000000E+00  0.00000000E+00  0.00000000E+00
  0.00000000E+00  0.00000000E+00  0.00000000E+00
  0.00000000E+00  0.00000000E+00  0.00000000E+00
  0.00000000E+00  0.00000000E+00  0.00000000E+00
  0.00000000E+00  0.00000000E+00  0.00000000E+00
  0.00000000E+00  0.00000000E+00  0.00000000E+00
  0.00000000E+00  0.00000000E+00  0.00000000E+00
  0.00000000E+00  0.00000000E+00  0.00000000E+00
  0.00000000E+00  0.00000000E+00  0.00000000E+00
  0.00000000E+00  0.00000000E+00  0.00000000E+00
  0.00000000E+00  0.00000000E+00  0.00000000E+00
  0.00000000E+00  0.00000000E+00  0.00000000E+00
  0.00000000E+00  0.00000000E+00  0.00000000E+00
  0.00000000E+00  0.00000000E+00  0.00000000E+00
  0.00000000E+00  0.00000000E+00  0.00000000E+00
  0.00000000E+00  0.00000000E+00  0.00000000E+00
  0.00000000E+00  0.00000000E+00  0.00000000E+00
  0.00000000E+00  0.00000000E+00  0.00000000E+00
  0.00000000E+00  0.00000000E+00  0.00000000E+00
  0.00000000E+00  0.00000000E+00  0.00000000E+00
  0.00000000E+00  0.00000000E+00  0.00000000E+00
  0.00000000E+00  0.00000000E+00  0.00000000E+00
  0.00000000E+00  0.00000000E+00  0.00000000E+00
  0.00000000E+00  0.00000000E+00  0.00000000E+00
  0.00000000E+00  0.00000000E+00  0.00000000E+00
  0.00000000E+00  0.00000000E+00  0.00000000E+00
  0.00000000E+00  0.00000000E+00  0.00000000E+00
  0.00000000E+00  0.00000000E+00  0.00000000E+00
  0.00000000E+00  0.00000000E+00  0.00000000E+00
  0.00000000E+00  0.00000000E+00  0.00000000E+00
  0.00000000E+00  0.00000000E+00  0.00000000E+00
  0.00000000E+00  0.00000000E+00  0.00000000E+00
  0.00000000E+00  0.00000000E+00  0.00000000E+00
  0.00000000E+00  0.00000000E+00  0.00000000E+00
  0.00000000E+00  0.00000000E+00  0.00000000E+00
  0.00000000E+00  0.00000000E+00  0.00000000E+00
  0.00000000E+00  0.00000000E+00  0.00000000E+00
  0.00000000E+00  0.00000000E+00  0.00000000E+00
  0.00000000E+00  0.00000000E+00  0.00000000E+00
  0.00000000E+00  0.00000000E+00  0.00000000E+00
  0.00000000E+00  0.00000000E+00  0.00000000E+00
  0.00000000E+00  0.00000000E+00  0.00000000E+00
  0.00000000E+00  0.00000000E+00  0.00000000E+00
  0.00000000E+00  0.00000000E+00  0.00000000E+00
  0.00000000E+00  0.00000000E+00  0.00000000E+00
  0.00000000E+00  0.00000000E+00  0.00000000E+00
  0.00000000E+00  0.00000000E+00  0.00000000E+00
  0.00000000E+00  0.00000000E+00  0.00000000E+00
  0.00000000E+00  0.00000000E+00  0.00000000E+00
  0.00000000E+00  0.00000000E+00  0.00000000E+00
  0.00000000E+00  0.00000000E+00  0.00000000E+00
  0.00000000E+00  0.00000000E+00  0.00000000E+00
  0.00000000E+00  0.00000000E+00  0.00000000E+00
  0.00000000E+00  0.00000000E+00  0.00000000E+00
  0.00000000E+00  0.00000000E+00  0.00000000E+00
  0.00000000E+00  0.00000000E+00  0.00000000E+00
  0.00000000E+00  0.00000000E+00  0.00000000E+00
  0.00000000E+00  0.00000000E+00  0.00000000E+00
  0.00000000E+00  0.00000000E+00  0.00000000E+00
  0.00000000E+00  0.00000000E+00  0.00000000E+00
  0.00000000E+00  0.00000000E+00  0.00000000E+00
  0.00000000E+00  0.00000000E+00  0.00000000E+00
  0.00000000E+00  0.00000000E+00  0.00000000E+00
  0.00000000E+00  0.00000000E+00  0.00000000E+00
  0.00000000E+00  0.00000000E+00  0.00000000E+00
  0.00000000E+00  0.00000000E+00  0.00000000E+00
  0.00000000E+00  0.00000000E+00  0.00000000E+00
  0.00000000E+00  0.00000000E+00  0.00000000E+00
  0.00000000E+00  0.00000000E+00  0.00000000E+00
  0.00000000E+00  0.00000000E+00  0.00000000E+00
  0.00000000E+00  0.00000000E+00  0.00000000E+00
  0.00000000E+00  0.00000000E+00  0.00000000E+00
  0.00000000E+00  0.00000000E+00  0.00000000E+00
  0.00000000E+00  0.00000000E+00  0.00000000E+00
  0.00000000E+00  0.00000000E+00  0.00000000E+00
  0.00000000E+00  0.00000000E+00  0.00000000E+00
  0.00000000E+00  0.00000000E+00  0.00000000E+00
  0.00000000E+00  0.00000000E+00  0.00000000E+00
  0.00000000E+00  0.00000000E+00  0.00000000E+00
  0.00000000E+00  0.00000000E+00  0.00000000E+00
  0.00000000E+00  0.00000000E+00  0.00000000E+00
  0.00000000E+00  0.00000000E+00  0.00000000E+00
  0.00000000E+00  0.00000000E+00  0.00000000E+00
  0.00000000E+00  0.00000000E+00  0.00000000E+00
  0.00000000E+00  0.00000000E+00  0.00000000E+00
  0.00000000E+00  0.00000000E+00  0.00000000E+00
  0.00000000E+00  0.00000000E+00  0.00000000E+00
  0.00000000E+00  0.00000000E+00  0.00000000E+00
  0.00000000E+00  0.00000000E+00  0.00000000E+00
  0.00000000E+00  0.00000000E+00  0.00000000E+00
  0.00000000E+00  0.00000000E+00  0.00000000E+00
  0.00000000E+00  0.00000000E+00  0.00000000E+00
  0.00000000E+00  0.00000000E+00  0.00000000E+00
  0.00000000E+00  0.00000000E+00  0.00000000E+00
  0.00000000E+00  0.00000000E+00  0.00000000E+00
  0.00000000E+00  0.00000000E+00  0.00000000E+00
  0.00000000E+00  0.00000000E+00  0.00000000E+00
  0.00000000E+00  0.00000000E+00  0.00000000E+00
  0.00000000E+00  0.00000000E+00  0.00000000E+00
  0.00000000E+00  0.00000000E+00  0.00000000E+00
  0.00000000E+00  0.00000000E+00  0.00000000E+00
  0.00000000E+00  0.00000000E+00  0.00000000E+00
  0.00000000E+00  0.00000000E+00  0.00000000E+00
  0.00000000E+00  0.00000000E+00  0.00000000E+00
  0.00000000E+00  0.00000000E+00  0.00000000E+00
  0.00000000E+00  0.00000000E+00  0.00000000E+00
  0.00000000E+00  0.00000000E+00  0.00000000E+00
  0.00000000E+00  0.00000000E+00  0.00000000E+00
  0.00000000E+00  0.00000000E+00  0.00000000E+00
  0.00000000E+00  0.00000000E+00  0.00000000E+00
  0.00000000E+00  0.00000000E+00  0.00000000E+00
  0.00000000E+00  0.00000000E+00  0.00000000E+00
  0.00000000E+00  0.00000000E+00  0.00000000E+00
  0.00000000E+00  0.00000000E+00  0.00000000E+00
  0.00000000E+00  0.00000000E+00  0.00000000E+00
  0.00000000E+00  0.00000000E+00  0.00000000E+00
  0.00000000E+00  0.00000000E+00  0.00000000E+00
  0.00000000E+00  0.00000000E+00  0.00000000E+00
  0.00000000E+00  0.00000000E+00  0.00000000E+00
  0.00000000E+00  0.00000000E+00  0.00000000E+00
  0.00000000E+00  0.00000000E+00  0.00000000E+00
  0.00000000E+00  0.00000000E+00  0.00000000E+00
  0.00000000E+00  0.00000000E+00  0.00000000E+00
  0.00000000E+00  0.00000000E+00  0.00000000E+00
  0.00000000E+00  0.00000000E+00  0.00000000E+00
  0.00000000E+00  0.00000000E+00  0.00000000E+00
  0.00000000E+00  0.00000000E+00  0.00000000E+00
  0.00000000E+00  0.00000000E+00  0.00000000E+00
  0.00000000E+00  0.00000000E+00  0.00000000E+00
  0.00000000E+00  0.00000000E+00  0.00000000E+00
  0.00000000E+00  0.00000000E+00  0.00000000E+00
  0.00000000E+00  0.00000000E+00  0.00000000E+00
  0.00000000E+00  0.00000000E+00  0.00000000E+00
  0.00000000E+00  0.00000000E+00  0.00000000E+00
  0.00000000E+00  0.00000000E+00  0.00000000E+00
  0.00000000E+00  0.00000000E+00  0.00000000E+00
  0.00000000E+00  0.00000000E+00  0.00000000E+00
  0.00000000E+00  0.00000000E+00  0.00000000E+00
  0.00000000E+00  0.00000000E+00  0.00000000E+00
  0.00000000E+00  0.00000000E+00  0.00000000E+00
  0.00000000E+00  0.00000000E+00  0.00000000E+00
  0.00000000E+00  0.00000000E+00  0.00000000E+00
  0.00000000E+00  0.00000000E+00  0.00000000E+00
  0.00000000E+00  0.00000000E+00  0.00000000E+00