Amorphous GeAsSeSi                      
   1.00000000000000     
    19.5865499336000006    0.0000000000000000    0.0000000000000000
     0.0000000000000000   19.5865499336000006    0.0000000000000000
     0.0000000000000000    0.0000000000000000   19.5865499336000006
   Ge   Se   Si
   100   100   100
Direct
  0.4298186995701344  0.5354149343135342  0.2168410955665378
  0.9141431540797248  0.5670219271780368  0.0075369877826458
  0.6947613567648617  0.2154475009305832  0.2786380827106875
  0.3734682918351752  0.1352604754142379  0.4381242234917824
  0.8033736838548559  0.2957646852004120  0.5398409986031054
  0.7004257341243745  0.1416343538534142  0.8038995860015014
  0.9129381888781202  0.6457601060329805  0.4718519408314573
  0.5934204415487215  0.5069085463515098  0.1175590760304422
  0.5203733336395693  0.5758119850327501  0.3596959898696962
  0.3075895675869330  0.3848586306575586  0.5882026432775135
  0.8253657609660683  0.4927517130140502  0.9395283930606368
  0.0068505791506618  0.6959213024486327  0.8610200804599699
  0.2214761991145932  0.3196020036377418  0.9834522142777237
  0.0661318258064770  0.7289968735028182  0.6183284386533437
  0.5597684202302585  0.4747625804452231  0.2753804288442276
  0.7586994851637668  0.2554157066835503  0.3898900789268586
  0.8138979765504912  0.5666000498166295  0.4313286012786052
  0.9184059476373547  0.7452806346321004  0.7794376333064874
  0.0673475874003524  0.2968422170025775  0.7925729246161237
  0.4946325540742484  0.2367431499405743  0.8082727390055590
  0.8507246732032685  0.0497316960033240  0.9174124132644772
  0.5240587666460718  0.4657963633983859  0.5099898744146499
  0.1564304363846517  0.8281736234248098  0.2714526141401523
  0.1741325812727864  0.3380986108407991  0.7220769267907983
  0.2697966763596458  0.2589469727063201  0.3257569010391727
  0.0125787717676423  0.7123497746100333  0.3054423457698648
  0.2689898791588939  0.7182783495425298  0.0599488897725058
  0.8518993750381174  0.1733877550743606  0.7524887021774568
  0.5476443292102423  0.6212784349265629  0.9584235794051094
  0.6594142637798328  0.4165493041784959  0.7322681455776066
  0.8689930592843713  0.8454942798672036  0.8500875965623732
  0.8057171734787023  0.7566286352136091  0.9285617499286489
  0.2824642526292457  0.2844781951993792  0.7705607786518219
  0.9449564985440791  0.0080273424260401  0.3767634380338253
  0.2128281930324572  0.4584346570395310  0.7487950813388496
  0.0319972401387451  0.6572902861264448  0.4192391639510452
  0.3937768243918283  0.2471982817341573  0.7174567208539244
  0.4988454295864087  0.3672243015342250  0.2243790109447836
  0.5174089309331436  0.8343635169618842  0.3921171466781048
  0.1069885264659872  0.2162959965317270  0.4631610876145001
  0.7589144343135905  0.8524490458090240  0.0033627742982389
  0.8936331070250294  0.2553118386808726  0.3941040796539469
  0.5598307949806883  0.8255294849589279  0.8123636254198598
  0.2063158958134338  0.9248668569312006  0.8357652534594481
  0.4783114227223810  0.2400943455665194  0.2682669336584175
  0.1200533399162415  0.5474626913349196  0.7495374216759770
  0.3368637079290199  0.0132642445871772  0.2449772014390367
  0.2615441968886806  0.2059673717797736  0.8734162877808747
  0.1785669876269012  0.7028941526249332  0.3054574152224760
  0.1854320106709502  0.1983825179092220  0.0739137120388423
  0.9422895350315861  0.9296831690643349  0.9232000251143498
  0.8237093479642407  0.9691751388149481  0.8143519325321870
  0.9278459963394098  0.5793613561415876  0.6707597855227673
  0.1305262200537688  0.5102526793815133  0.3051284544928086
  0.8195840427785099  0.2992811389108382  0.0538477636929478
  0.0959521556591896  0.6899955355670230  0.0289544341227491
  0.8945497544071623  0.5984425951126544  0.1302419622229755
  0.3662665764514167  0.3568908468954654  0.4777524452679662
  0.7422084625632377  0.6601742581779860  0.4815866903692725
  0.5991834762101246  0.3238134001538104  0.3481563275445566
  0.9442878566968209  0.5180258973467015  0.3190070926189192
  0.5789622315823398  0.2796140384685000  0.5092732901661523
  0.6736039587653702  0.5481185467762960  0.7639891220226883
  0.4614487410853274 -0.0049768819744534  0.0020857083907787
  0.6127017674773316  0.9092360671599076  0.3529085767237158
  0.6367297383603407  0.7124120714128690  0.2057875130795189
  0.6917892984100328  0.2691100592417852  0.9736780418525002
  0.9421712865431643  0.0886104647561081  0.8001128863927001
  0.6285373136073134  0.0336028548835251  0.3299077833883797
  0.6953242148041463  0.4868509758509867  0.8996909258853033
  0.5071714909621979  0.7166133921696667  0.1062487907448946
  0.4455920709394074  0.6106987327051100  0.6540717524610263
  0.6151945178549335  0.1079631142314295  0.4362606558982457
  0.3529789094521859  0.3812978693895322  0.8268727777515195
  0.3965898297863958  0.7380124233518172  0.9344848418519515
  0.5775723677274941  0.1514727304136112  0.5607678948529146
  0.0862719710043753  0.5911083492399205  0.8627141209009811
  0.6841457429444887  0.7705394979798307  0.6593005988385180
  0.9927376007932885  0.7344116343958385  0.1757186110359022
  0.5182808162376584  0.4160009504171687  0.3845557075377447
  0.8119236580153456  0.7006636468973403  0.1149162921195287
  0.8646095905241805  0.1490755528663993  0.3246905581131517
  0.6882358745793473  0.3575759827204210  0.8792575512791093
  0.0722237140637699  0.1119518817774231  0.5337307464111991
  0.4560778262292459  0.1129102582695509  0.5358659516815941
  0.3779491674243174  0.9064285008534219  0.5356020408459669
  0.0272982415902848  0.6113053980123357  0.1363817437453566
  0.9595715326644236  0.0925631568710757  0.5972477946487843
  0.1880779199183013  0.1741606569169586  0.3732796723882823
  0.3660928099465638  0.7163797219837055  0.3885944156154953
  0.4589587960807728  0.7580020627107962  0.3067475124501664
  0.6849922638842093  0.5794970327168085  0.6368472304068582
  0.6228369919423141  0.3553436955322966  0.6214066532969499
  0.1917276439594910  0.1159318761292853  0.5985877420677230
  0.5063122579188839  0.8696383883594511  0.6888690076690211
  0.8754828518533947  0.7156570277168249  0.5741198044863384
  0.1698413145898874  0.6651589333128919  0.1369759534717472
  0.0093910242886715  0.0696556043237587  0.1710278995803122
  0.4716223882597586  0.6596147268153587  0.4507874331286048
  0.7176145601171092  0.0469648315646807  0.9578936169972381
  0.7657592822075299  0.3457404087890735  0.7744309708124860
  0.9381957494595170  0.3465856284614081  0.1047734371984109
  0.0666375045938819  0.0247754943681446  0.4368979614846672
  0.4821859717338433  0.9516526720065885  0.8788534272808359
  0.7527906236426376  0.4251411358122941  0.3667481701718375
  0.7304405671377662  0.4242707990717609  0.0857866791579010
  0.3766233821938348  0.8873065863402647  0.7073527997413039
  0.6499061860029326  0.9565164633693637  0.7657525277633361
  0.1397607224141220  0.6693920531679095  0.7091648425527124
  0.3580650499318145  0.4722774870760700  0.0373569765909660
  0.4692870008246199  0.9942328238131161  0.5642201293588575
  0.1699238616293591  0.0641200349232502  0.2605714838559536
  0.2973205881300675  0.1474836796219030  0.0267731725509824
  0.3553884386767918  0.8575366138375499  0.9552661104436556
  0.8649303981905907  0.3646752752953716  0.9377484643923516
  0.7058849918335557  0.7111026053277031  0.3145711976066764
  0.8047988646284818  0.1777695076272754  0.8734709905993665
  0.2800510264855478  0.7501074450901237  0.7944483932177149
  0.5012008284757820  0.8894950656259089  0.0686875073745209
  0.6998907520505288  0.8163254872167122  0.1080242551079329
  0.8798131097795173  0.1819164884384778  0.0384393886354250
  0.0969546658601720  0.3726876126386290  0.3370729716927263
  0.0167778764314698  0.8290116207660733  0.4841809616860049
  0.6650920313171078  0.9301305359119801  0.9569253581224076
  0.2157376769685610 -0.0117033089989273  0.7165753322873550
  0.3681735784756411  0.1569981519438788  0.6251198515613452
  0.7760392867045476  0.8654319462370051  0.6515392213920448
  0.9068414028441647  0.2167928125780455  0.5822278802012423
  0.0252478622773685  0.9591696763478539  0.6162454934930375
  0.8662105827754453  0.7743772598111464  0.3946199583522189
  0.1832390984378233  0.5351891590029213  0.1285587448604863
  0.2558660949821122  0.7648017880638587  0.6113980760298635
  0.7646168106553908  0.2841522731310389  0.2004912244735348
  0.4968352648319270  0.5033260372855524  0.7050750513442912
  0.8113370979452608  0.4173816712902201  0.5761555174531852
  0.6322043177510652  0.6023286824683971  0.4533777236065742
  0.0440314365237065  0.2742966957552370  0.9827645218561109
  0.9175582691812922  0.0299024544345917  0.1013126523985872
  0.6843029126302971  0.5993424201295442  0.1472585374424946
  0.7212054544803365  0.0786379065922565  0.0802260445405491
  0.4380807283383381  0.1387858316635416  0.8849012230986443
  0.3330617877680400  0.6286921485958998  0.1909300004152477
  0.5219226455586576  0.6613743501389695  0.2601741958241559
  0.7551570643061135  0.6382062095017120  0.9274718308373469
  0.4371671404260483  0.5599850010540962  0.5287601642107806
  0.5442535517075902  0.2161478051374337  0.3978752723020201
  0.3640338517132483 -0.0133807217683715  0.1236628745279919
  0.1041015906659612  0.8584455370869835  0.7439003607824367
 -0.0047543527657942  0.3354452632010459  0.6936565095428059
  0.1798228794344351  0.5829497129521598  0.5440334863698486
  0.1390397618664227  0.4020714454444524  0.5268280856477434
  0.5883315663448830  0.2185940600055033  0.1121438685732276
  0.9815407519976935  0.5634052655370165  0.5514847965370550
  0.9636397116240247  0.3696918937416677  0.4633315771844939
  0.9785852427724006  0.1021783379256142  0.2955072860916715
  0.1622256145427727  0.9108480257728839  0.3646536982478200
  0.5809516637577536  0.6555227512207582  0.6440463041020923
  0.3148857936004463  0.3835287074371116  0.2906769784873522
  0.8483825956658719  0.4959204013726513  0.1892353863056751
  0.4474625447534740  0.5676432261067033  0.8833265649054814
  0.8066611745451790  0.6917345394146029  0.7500012064423467
  0.3865396527882365  0.5379464058200750  0.3446599082134036
  0.9359658582787801  0.9716661822615100  0.7517684302911365
  0.2337559069444797  0.8752452744395842  0.1844666323836114
  0.4195440392681647  0.9115457758135720  0.4095493957065369
  0.0314444474904011  0.5051690351379954  0.2239550904047029
  0.2972541747403475  0.0233235239865894  0.8886697396266394
  0.8681658716538851  0.9168329696650044  0.4999619760338910
  0.7036893720964684  0.2518468225563144  0.6223929020588099
  0.2250750319964959  0.3235652234492852  0.1209298368372422
  0.2919444074511650  0.0354253017971943  0.4497733499617904
  0.0172413549263447  0.4790522458286767  0.0214352346232183
  0.1939880139470034  0.7325753103701204  0.4325929073194662
  0.7770257883205998  0.1193377064450711  0.2308015676842024
  0.5204766424337574  0.7458824817864961  0.9792396050546839
  0.8575292517054846  0.5160568161593088  0.8178532909242907
  0.6341369282998058  0.8102864320985979  0.5353684419539219
  0.4562193774742193  0.8052219876825933  0.5822687374224873
  0.4984687171983566  0.5886237052717652  0.0760534026432358
  0.6578907427618594  0.9803594303829636  0.4994106019860999
  0.5807320280698542  0.3649335374089439  0.8146937708958628
  0.5847238274341308  0.8726904367812788  0.2352634251570086
  0.0233857924391186  0.4983734497955908  0.7009705581295715
  0.4667869171824963  0.0370699407233901  0.2804710300817315
  0.5622157113387485  0.1700484183020630  0.7122362061049706
  0.0495595850214857  0.5329305795083823  0.4036554265413143
  0.5831115512735190  0.2094085918234705  0.9411361515036064
  0.4469502292842897  0.7637954889646935  0.8128598994611038
  0.7388933497338152  0.1454438157273044  0.4578964059193621
  0.0209458470647208  0.1376767963669923  0.7018843787825787
  0.3946192422065730  0.2192927068123415  0.1593969258548539
  0.1553240494778123  0.1401325877605571  0.8215456777914720
  0.1172664192112163  0.0691542818027555  0.9862841350893388
  0.6349870822797024  0.7226593721361196  0.8164412885880383
  0.0198218387807721  0.4048443819716979  0.8616477418675585
  0.0426184560195517  0.1884241975953602  0.1518768751970187
  0.9211461293882590  0.3122395709701098  0.2862419534719743
  0.4255772956080200  0.3394743721959597  0.9209757864321798
  0.5947338218854740  0.4696776790888028  0.9810160407943791
  0.7495613791045593  0.0645131833760172  0.6333427567178137
  0.2463762988620576  0.5162283465696356  0.0330053444132942
  0.7710387462327378  0.9132723095661716  0.2703032666208274
  0.1716323154949183 -0.0047726485184553  0.0653641778428878
  0.3286545134929635  0.9861666269030340  0.6650605387923083
  0.6366592508871812  0.3695790842352770  0.0326979272685865
  0.4054940690450371  0.4313601943660116  0.7231191418181400
  0.1765002766155956  0.0383396517678063  0.8862095593995796
  0.3237368130760441  0.8876386081694190  0.2636652823157156
  0.6846390671858268  0.4531117753654896  0.2743734694492057
  0.4104081931003179  0.1401110723966164  0.3132854757128212
  0.4564211130396829  0.6466392908998184  0.7880499733063099
  0.8987691132019935  0.9780318612510512  0.6284328265737058
  0.8779259714301573  0.8764222772528190  0.2301735522038106
  0.9756598079172033  0.3703572535813509  0.9807543168173164
  0.9733042196638000  0.2385825215646905  0.0713992860001369
  0.7496284516523110  0.0277058482012824  0.3044782639064861
  0.1667241794313745  0.6517162622828432  0.9318759304241752
  0.3344979932723292  0.1162176036709098  0.8159028304130825
  0.3443478028666656  0.3240776414158839  0.1185598879151727
  0.0770019715048566  0.3376723127800718  0.4514769231287092
  0.0756214619036506  0.6390427949968858  0.5330847294136324
  0.2737734850722577  0.0556628661290509  0.0961124758273178
  0.0657239473711893  0.8963663889794199  0.2233922610895297
  0.2703015857061111  0.6196241969396662  0.9807801421171245
  0.9759346090570850  0.3970611101343486  0.3450062983326614
  0.7512652349909894  0.5469806845298583  0.2342699289458022
  0.8128584779967101  0.8204904768659459  0.5510830627341400
  0.5802044162338960  0.9680907987389132  0.0392804815176619
 -0.0221338341308399  0.8137406245128292  0.3704757531204556
  0.7692880957136174  0.9614371214916494  0.4534670691154447
  0.9761950914915125  0.6790934145154812  0.9813058125800576
  0.2283777247343883  0.1290747881681558  0.1776183540083900
  0.2501577327649402  0.8120567095049828  0.9769218975804166
  0.8872760227818351  0.7493481220089721  0.0237566735456262
  0.3243985228919912  0.5754395849824164  0.8823411715677897
  0.4113270984832685  0.3425531071623036  0.6434071761151891
  0.0601622331824634  0.8757301099506500  0.9293654356911329
  0.1126500378991258 -0.0023291386419967  0.1766634504406399
  0.3187316377854958  0.1753156304662695  0.2429711946085996
  0.3412872121341695  0.3581575484186768  0.0020103412343488
  0.1847979549574733  0.9062440066116905  0.5436733038971849
  0.3283437554899009  0.6407592798760590  0.7818474250548425
  0.6385882057338931  0.0437784034206714  0.5990059487945620
  0.5702668754199433  0.9805103240264924  0.6769245258655950
  0.2698478062659871  0.4677739336470343  0.8603740061964883
  0.2245985945362567  0.6518651851743649  0.6271865001384496
  0.0710705003658260  0.9312774005061630  0.5106664669348806
  0.2141639438935827  0.2226690552945482  0.5293325260968460
  0.3942077898073879  0.4209023806281946  0.3729116437121049
  0.7291178714119700  0.8735764206165388  0.3782048746470745
  0.2307018086752139  0.1118156601732589  0.7260015544498422
  0.0867794668817768  0.4819877019596020  0.9218288273591736
  0.0924227110352899  0.7918502714329638  0.8465524096766828
  0.3786717911023552  0.7215513223356559  0.1227215517644094
  0.8842609909003870  0.6950814120888512  0.3047049340344613
  0.3183091600630243  0.5959022356591385  0.6712751828199355
  0.3850108651743550  0.4107881276321259  0.1928766424996588
  0.5835677021329767  0.3352510884362788  0.1372703766275932
  0.7761169937943344  0.6002875323521363  0.8164354192279465
  0.5762443742302858  0.0640468734315102  0.2231778602343977
  0.6886563349028214  0.3711216392108089  0.1852710241322275
  0.6224374534088956  0.1087920851434528  0.8949461729060909
  0.7569573874779260  0.6779317976702570  0.6029567496057537
  0.5818053689654870  0.1840109609742206  0.2232808019906845
  0.8752011916544488  0.7585292091490253  0.2060876338409048
  0.1641404138832697  0.8930819406407081 -0.0005081151068453
  0.6867068229065331  0.3476208606176522  0.4362462662930769
  0.7322834661927019  0.7852774303798277  0.4640882391175682
  0.3886792421138163  0.0773756314650760  0.7131715790578703
  0.9440272085684522  0.2333880509896530  0.6936032714960099
  0.2236795173824764  0.8461148309727335  0.4415755273044911
  0.5077515332201507  0.0665831725214295  0.7306727291520965
  0.2005603360439243  0.7531795260850503  0.8826574435348862
  0.2563069949326408  0.0097507546597946  0.5639326613533018
  0.5297328995363361  0.7662070181983281  0.4966272913648340
  0.4767518148906140  0.3509069943289099  0.5420757479071940
  0.7876665470170817  0.6242827648543980  0.3204435064437413
  0.3052003094273015  0.7109268086738256  0.2784644012318871
  0.6999124197463341  0.4123417255681696  0.5387055043419792
  0.9716869670265386  0.9096086260572148  0.2997895312940520
  0.3065673077938869  0.4782035305695393  0.6724987985061878
  0.6396529031607532  0.5163194492212984  0.5350936561902930
  0.0790700848990690  0.8133010913753470  0.0293208886082111
  0.1525978938694751  0.8210479155710481  0.6323285658505466
  0.7377332254329704  0.0343010088636580  0.7473629605621610
  0.0193563483092236  0.8459001392912773  0.1264568539947888
  0.9182144762980615  0.9131188254964746  0.1238281012657046
  0.3090530730098127  0.2430079699807382  0.4483003019640517
  0.5203858410768480  0.0563324432544789  0.8486770424824326
  0.8844260665497640  0.8700948580098872  0.0192000135692985
  0.6429922083367430  0.0073783724287932  0.1325073265738289
  0.1993908399054117  0.3254154134751452  0.5967053839349298
  0.3766379998361862  0.7919724111475817  0.2208959079513003
  0.8104608596799150  0.0614939597934610  0.4009828242348809
  0.9554643795317191  0.7054819548568093  0.6681464075658406
  0.1971491524315318  0.4414149567506383  0.9533989663807658
  0.5779916646600858  0.6351294530761710  0.7633076209833750
  0.7450614631954841  0.2343895993469846  0.7326556281536434
  0.3273047929737491  0.8377111544000316  0.3782016672302024
  0.6859108044364083  0.9067599095505412  0.1845114401670880
 
  0.00000000E+00  0.00000000E+00  0.00000000E+00
  0.00000000E+00  0.00000000E+00  0.00000000E+00
  0.00000000E+00  0.00000000E+00  0.00000000E+00
  0.00000000E+00  0.00000000E+00  0.00000000E+00
  0.00000000E+00  0.00000000E+00  0.00000000E+00
  0.00000000E+00  0.00000000E+00  0.00000000E+00
  0.00000000E+00  0.00000000E+00  0.00000000E+00
  0.00000000E+00  0.00000000E+00  0.00000000E+00
  0.00000000E+00  0.00000000E+00  0.00000000E+00
  0.00000000E+00  0.00000000E+00  0.00000000E+00
  0.00000000E+00  0.00000000E+00  0.00000000E+00
  0.00000000E+00  0.00000000E+00  0.00000000E+00
  0.00000000E+00  0.00000000E+00  0.00000000E+00
  0.00000000E+00  0.00000000E+00  0.00000000E+00
  0.00000000E+00  0.00000000E+00  0.00000000E+00
  0.00000000E+00  0.00000000E+00  0.00000000E+00
  0.00000000E+00  0.00000000E+00  0.00000000E+00
  0.00000000E+00  0.00000000E+00  0.00000000E+00
  0.00000000E+00  0.00000000E+00  0.00000000E+00
  0.00000000E+00  0.00000000E+00  0.00000000E+00
  0.00000000E+00  0.00000000E+00  0.00000000E+00
  0.00000000E+00  0.00000000E+00  0.00000000E+00
  0.00000000E+00  0.00000000E+00  0.00000000E+00
  0.00000000E+00  0.00000000E+00  0.00000000E+00
  0.00000000E+00  0.00000000E+00  0.00000000E+00
  0.00000000E+00  0.00000000E+00  0.00000000E+00
  0.00000000E+00  0.00000000E+00  0.00000000E+00
  0.00000000E+00  0.00000000E+00  0.00000000E+00
  0.00000000E+00  0.00000000E+00  0.00000000E+00
  0.00000000E+00  0.00000000E+00  0.00000000E+00
  0.00000000E+00  0.00000000E+00  0.00000000E+00
  0.00000000E+00  0.00000000E+00  0.00000000E+00
  0.00000000E+00  0.00000000E+00  0.00000000E+00
  0.00000000E+00  0.00000000E+00  0.00000000E+00
  0.00000000E+00  0.00000000E+00  0.00000000E+00
  0.00000000E+00  0.00000000E+00  0.00000000E+00
  0.00000000E+00  0.00000000E+00  0.00000000E+00
  0.00000000E+00  0.00000000E+00  0.00000000E+00
  0.00000000E+00  0.00000000E+00  0.00000000E+00
  0.00000000E+00  0.00000000E+00  0.00000000E+00
  0.00000000E+00  0.00000000E+00  0.00000000E+00
  0.00000000E+00  0.00000000E+00  0.00000000E+00
  0.00000000E+00  0.00000000E+00  0.00000000E+00
  0.00000000E+00  0.00000000E+00  0.00000000E+00
  0.00000000E+00  0.00000000E+00  0.00000000E+00
  0.00000000E+00  0.00000000E+00  0.00000000E+00
  0.00000000E+00  0.00000000E+00  0.00000000E+00
  0.00000000E+00  0.00000000E+00  0.00000000E+00
  0.00000000E+00  0.00000000E+00  0.00000000E+00
  0.00000000E+00  0.00000000E+00  0.00000000E+00
  0.00000000E+00  0.00000000E+00  0.00000000E+00
  0.00000000E+00  0.00000000E+00  0.00000000E+00
  0.00000000E+00  0.00000000E+00  0.00000000E+00
  0.00000000E+00  0.00000000E+00  0.00000000E+00
  0.00000000E+00  0.00000000E+00  0.00000000E+00
  0.00000000E+00  0.00000000E+00  0.00000000E+00
  0.00000000E+00  0.00000000E+00  0.00000000E+00
  0.00000000E+00  0.00000000E+00  0.00000000E+00
  0.00000000E+00  0.00000000E+00  0.00000000E+00
  0.00000000E+00  0.00000000E+00  0.00000000E+00
  0.00000000E+00  0.00000000E+00  0.00000000E+00
  0.00000000E+00  0.00000000E+00  0.00000000E+00
  0.00000000E+00  0.00000000E+00  0.00000000E+00
  0.00000000E+00  0.00000000E+00  0.00000000E+00
  0.00000000E+00  0.00000000E+00  0.00000000E+00
  0.00000000E+00  0.00000000E+00  0.00000000E+00
  0.00000000E+00  0.00000000E+00  0.00000000E+00
  0.00000000E+00  0.00000000E+00  0.00000000E+00
  0.00000000E+00  0.00000000E+00  0.00000000E+00
  0.00000000E+00  0.00000000E+00  0.00000000E+00
  0.00000000E+00  0.00000000E+00  0.00000000E+00
  0.00000000E+00  0.00000000E+00  0.00000000E+00
  0.00000000E+00  0.00000000E+00  0.00000000E+00
  0.00000000E+00  0.00000000E+00  0.00000000E+00
  0.00000000E+00  0.00000000E+00  0.00000000E+00
  0.00000000E+00  0.00000000E+00  0.00000000E+00
  0.00000000E+00  0.00000000E+00  0.00000000E+00
  0.00000000E+00  0.00000000E+00  0.00000000E+00
  0.00000000E+00  0.00000000E+00  0.00000000E+00
  0.00000000E+00  0.00000000E+00  0.00000000E+00
  0.00000000E+00  0.00000000E+00  0.00000000E+00
  0.00000000E+00  0.00000000E+00  0.00000000E+00
  0.00000000E+00  0.00000000E+00  0.00000000E+00
  0.00000000E+00  0.00000000E+00  0.00000000E+00
  0.00000000E+00  0.00000000E+00  0.00000000E+00
  0.00000000E+00  0.00000000E+00  0.00000000E+00
  0.00000000E+00  0.00000000E+00  0.00000000E+00
  0.00000000E+00  0.00000000E+00  0.00000000E+00
  0.00000000E+00  0.00000000E+00  0.00000000E+00
  0.00000000E+00  0.00000000E+00  0.00000000E+00
  0.00000000E+00  0.00000000E+00  0.00000000E+00
  0.00000000E+00  0.00000000E+00  0.00000000E+00
  0.00000000E+00  0.00000000E+00  0.00000000E+00
  0.00000000E+00  0.00000000E+00  0.00000000E+00
  0.00000000E+00  0.00000000E+00  0.00000000E+00
  0.00000000E+00  0.00000000E+00  0.00000000E+00
  0.00000000E+00  0.00000000E+00  0.00000000E+00
  0.00000000E+00  0.00000000E+00  0.00000000E+00
  0.00000000E+00  0.00000000E+00  0.00000000E+00
  0.00000000E+00  0.00000000E+00  0.00000000E+00
  0.00000000E+00  0.00000000E+00  0.00000000E+00
  0.00000000E+00  0.00000000E+00  0.00000000E+00
  0.00000000E+00  0.00000000E+00  0.00000000E+00
  0.00000000E+00  0.00000000E+00  0.00000000E+00
  0.00000000E+00  0.00000000E+00  0.00000000E+00
  0.00000000E+00  0.00000000E+00  0.00000000E+00
  0.00000000E+00  0.00000000E+00  0.00000000E+00
  0.00000000E+00  0.00000000E+00  0.00000000E+00
  0.00000000E+00  0.00000000E+00  0.00000000E+00
  0.00000000E+00  0.00000000E+00  0.00000000E+00
  0.00000000E+00  0.00000000E+00  0.00000000E+00
  0.00000000E+00  0.00000000E+00  0.00000000E+00
  0.00000000E+00  0.00000000E+00  0.00000000E+00
  0.00000000E+00  0.00000000E+00  0.00000000E+00
  0.00000000E+00  0.00000000E+00  0.00000000E+00
  0.00000000E+00  0.00000000E+00  0.00000000E+00
  0.00000000E+00  0.00000000E+00  0.00000000E+00
  0.00000000E+00  0.00000000E+00  0.00000000E+00
  0.00000000E+00  0.00000000E+00  0.00000000E+00
  0.00000000E+00  0.00000000E+00  0.00000000E+00
  0.00000000E+00  0.00000000E+00  0.00000000E+00
  0.00000000E+00  0.00000000E+00  0.00000000E+00
  0.00000000E+00  0.00000000E+00  0.00000000E+00
  0.00000000E+00  0.00000000E+00  0.00000000E+00
  0.00000000E+00  0.00000000E+00  0.00000000E+00
  0.00000000E+00  0.00000000E+00  0.00000000E+00
  0.00000000E+00  0.00000000E+00  0.00000000E+00
  0.00000000E+00  0.00000000E+00  0.00000000E+00
  0.00000000E+00  0.00000000E+00  0.00000000E+00
  0.00000000E+00  0.00000000E+00  0.00000000E+00
  0.00000000E+00  0.00000000E+00  0.00000000E+00
  0.00000000E+00  0.00000000E+00  0.00000000E+00
  0.00000000E+00  0.00000000E+00  0.00000000E+00
  0.00000000E+00  0.00000000E+00  0.00000000E+00
  0.00000000E+00  0.00000000E+00  0.00000000E+00
  0.00000000E+00  0.00000000E+00  0.00000000E+00
  0.00000000E+00  0.00000000E+00  0.00000000E+00
  0.00000000E+00  0.00000000E+00  0.00000000E+00
  0.00000000E+00  0.00000000E+00  0.00000000E+00
  0.00000000E+00  0.00000000E+00  0.00000000E+00
  0.00000000E+00  0.00000000E+00  0.00000000E+00
  0.00000000E+00  0.00000000E+00  0.00000000E+00
  0.00000000E+00  0.00000000E+00  0.00000000E+00
  0.00000000E+00  0.00000000E+00  0.00000000E+00
  0.00000000E+00  0.00000000E+00  0.00000000E+00
  0.00000000E+00  0.00000000E+00  0.00000000E+00
  0.00000000E+00  0.00000000E+00  0.00000000E+00
  0.00000000E+00  0.00000000E+00  0.00000000E+00
  0.00000000E+00  0.00000000E+00  0.00000000E+00
  0.00000000E+00  0.00000000E+00  0.00000000E+00
  0.00000000E+00  0.00000000E+00  0.00000000E+00
  0.00000000E+00  0.00000000E+00  0.00000000E+00
  0.00000000E+00  0.00000000E+00  0.00000000E+00
  0.00000000E+00  0.00000000E+00  0.00000000E+00
  0.00000000E+00  0.00000000E+00  0.00000000E+00
  0.00000000E+00  0.00000000E+00  0.00000000E+00
  0.00000000E+00  0.00000000E+00  0.00000000E+00
  0.00000000E+00  0.00000000E+00  0.00000000E+00
  0.00000000E+00  0.00000000E+00  0.00000000E+00
  0.00000000E+00  0.00000000E+00  0.00000000E+00
  0.00000000E+00  0.00000000E+00  0.00000000E+00
  0.00000000E+00  0.00000000E+00  0.00000000E+00
  0.00000000E+00  0.00000000E+00  0.00000000E+00
  0.00000000E+00  0.00000000E+00  0.00000000E+00
  0.00000000E+00  0.00000000E+00  0.00000000E+00
  0.00000000E+00  0.00000000E+00  0.00000000E+00
  0.00000000E+00  0.00000000E+00  0.00000000E+00
  0.00000000E+00  0.00000000E+00  0.00000000E+00
  0.00000000E+00  0.00000000E+00  0.00000000E+00
  0.00000000E+00  0.00000000E+00  0.00000000E+00
  0.00000000E+00  0.00000000E+00  0.00000000E+00
  0.00000000E+00  0.00000000E+00  0.00000000E+00
  0.00000000E+00  0.00000000E+00  0.00000000E+00
  0.00000000E+00  0.00000000E+00  0.00000000E+00
  0.00000000E+00  0.00000000E+00  0.00000000E+00
  0.00000000E+00  0.00000000E+00  0.00000000E+00
  0.00000000E+00  0.00000000E+00  0.00000000E+00
  0.00000000E+00  0.00000000E+00  0.00000000E+00
  0.00000000E+00  0.00000000E+00  0.00000000E+00
  0.00000000E+00  0.00000000E+00  0.00000000E+00
  0.00000000E+00  0.00000000E+00  0.00000000E+00
  0.00000000E+00  0.00000000E+00  0.00000000E+00
  0.00000000E+00  0.00000000E+00  0.00000000E+00
  0.00000000E+00  0.00000000E+00  0.00000000E+00
  0.00000000E+00  0.00000000E+00  0.00000000E+00
  0.00000000E+00  0.00000000E+00  0.00000000E+00
  0.00000000E+00  0.00000000E+00  0.00000000E+00
  0.00000000E+00  0.00000000E+00  0.00000000E+00
  0.00000000E+00  0.00000000E+00  0.00000000E+00
  0.00000000E+00  0.00000000E+00  0.00000000E+00
  0.00000000E+00  0.00000000E+00  0.00000000E+00
  0.00000000E+00  0.00000000E+00  0.00000000E+00
  0.00000000E+00  0.00000000E+00  0.00000000E+00
  0.00000000E+00  0.00000000E+00  0.00000000E+00
  0.00000000E+00  0.00000000E+00  0.00000000E+00
  0.00000000E+00  0.00000000E+00  0.00000000E+00
  0.00000000E+00  0.00000000E+00  0.00000000E+00
  0.00000000E+00  0.00000000E+00  0.00000000E+00
  0.00000000E+00  0.00000000E+00  0.00000000E+00
  0.00000000E+00  0.00000000E+00  0.00000000E+00
  0.00000000E+00  0.00000000E+00  0.00000000E+00
  0.00000000E+00  0.00000000E+00  0.00000000E+00
  0.00000000E+00  0.00000000E+00  0.00000000E+00
  0.00000000E+00  0.00000000E+00  0.00000000E+00
  0.00000000E+00  0.00000000E+00  0.00000000E+00
  0.00000000E+00  0.00000000E+00  0.00000000E+00
  0.00000000E+00  0.00000000E+00  0.00000000E+00
  0.00000000E+00  0.00000000E+00  0.00000000E+00
  0.00000000E+00  0.00000000E+00  0.00000000E+00
  0.00000000E+00  0.00000000E+00  0.00000000E+00
  0.00000000E+00  0.00000000E+00  0.00000000E+00
  0.00000000E+00  0.00000000E+00  0.00000000E+00
  0.00000000E+00  0.00000000E+00  0.00000000E+00
  0.00000000E+00  0.00000000E+00  0.00000000E+00
  0.00000000E+00  0.00000000E+00  0.00000000E+00
  0.00000000E+00  0.00000000E+00  0.00000000E+00
  0.00000000E+00  0.00000000E+00  0.00000000E+00
  0.00000000E+00  0.00000000E+00  0.00000000E+00
  0.00000000E+00  0.00000000E+00  0.00000000E+00
  0.00000000E+00  0.00000000E+00  0.00000000E+00
  0.00000000E+00  0.00000000E+00  0.00000000E+00
  0.00000000E+00  0.00000000E+00  0.00000000E+00
  0.00000000E+00  0.00000000E+00  0.00000000E+00
  0.00000000E+00  0.00000000E+00  0.00000000E+00
  0.00000000E+00  0.00000000E+00  0.00000000E+00
  0.00000000E+00  0.00000000E+00  0.00000000E+00
  0.00000000E+00  0.00000000E+00  0.00000000E+00
  0.00000000E+00  0.00000000E+00  0.00000000E+00
  0.00000000E+00  0.00000000E+00  0.00000000E+00
  0.00000000E+00  0.00000000E+00  0.00000000E+00
  0.00000000E+00  0.00000000E+00  0.00000000E+00
  0.00000000E+00  0.00000000E+00  0.00000000E+00