Ge1 Te7 As4                             
   1.00000000000000     
     2.0595808212052362   -3.5672986246219014    0.0000000000000000
     2.0595808212052362    3.5672986246219014    0.0000000000000000
     0.0000000000000000    0.0000000000000000   23.5116887370998455
   Ge   Te   As
     1     7     4
Direct
  0.0000000000000000  0.0000000000000000  0.5000000000000000
  0.6666666666666643  0.3333333333333357  0.8538962836061412
  0.3333333333333357  0.6666666666666643  0.1461037163938585
  0.3333333333333357  0.6666666666666643  0.4245225757691322
  0.6666666666666643  0.3333333333333357  0.5754774242308680
  0.0000000000000000  0.0000000000000000  0.2782663083437525
  0.0000000000000000  0.0000000000000000  0.7217336916562473
  0.0000000000000000  0.0000000000000000  0.0000000000000000
  0.6666666666666643  0.3333333333333357  0.0782121357890348
  0.3333333333333357  0.6666666666666643  0.9217878642109651
  0.3333333333333357  0.6666666666666643  0.6549672097772146
  0.6666666666666643  0.3333333333333357  0.3450327902227851
 
  0.00000000E+00  0.00000000E+00  0.00000000E+00
  0.00000000E+00  0.00000000E+00  0.00000000E+00
  0.00000000E+00  0.00000000E+00  0.00000000E+00
  0.00000000E+00  0.00000000E+00  0.00000000E+00
  0.00000000E+00  0.00000000E+00  0.00000000E+00
  0.00000000E+00  0.00000000E+00  0.00000000E+00
  0.00000000E+00  0.00000000E+00  0.00000000E+00
  0.00000000E+00  0.00000000E+00  0.00000000E+00
  0.00000000E+00  0.00000000E+00  0.00000000E+00
  0.00000000E+00  0.00000000E+00  0.00000000E+00
  0.00000000E+00  0.00000000E+00  0.00000000E+00
  0.00000000E+00  0.00000000E+00  0.00000000E+00
