Amorphous GeSe2                         
   1.00000000000000     
    20.8078869700586964    0.0000000000000000    0.0000000000000000
     0.0000000000000000   20.8078869700586964    0.0000000000000000
     0.0000000000000000    0.0000000000000000   20.8078869700586964
   Ge   Se
    75   225
Direct
  0.8890283395614959  0.7119560815454502  0.4396059424401268
  0.4289192169885365  0.3645114017359085  0.8287914295490999
  0.8569768501806804  0.8287656575744038  0.6051906736126494
  0.5235150058627782  0.2459336751396723  0.0987447462738877
  0.0784976501779425  0.1019699301169118  0.6686014051987949
  0.3570071304064067  0.0015040488688262  0.0555561466335540
  0.2563882627783509  0.3180405433378508  0.8684598423811851
  0.1781908233189800  0.3286014251003566  0.4332074513363574
  0.7701817136445889  0.5549971098698303  0.4245477473654017
  0.8947687602490296  0.3903604092002219  0.4119827986019184
  0.9962641266480898  0.0446733016771611  0.7919141511241248
  0.9668925029830762  0.9357366352680748  0.5841839234975585
  0.8417161832652413  0.8133303315413379  0.3164618808555954
  0.9021385906608280  0.4305544309021358  0.9537742519986896
  0.8282881555452855  0.1123030003124030  0.2668066301977248
  0.9587766736260193  0.4822474538983365  0.0689181091266340
  0.0327575422999484  0.3514863543543941  0.7341434715805704
  0.3564370193646352  0.7117132711972083  0.7546891949016233
  0.3963721699800109  0.4144623799513045  0.1717381264541829
  0.3153407557328300  0.2859889624810358  0.7079606507282636
  0.1212157619170956  0.9934682086452572  0.4450798079639400
  0.3324214687406364  0.2459773656006788  0.1861610427403553
  0.6767102942101388  0.1885643099630889  0.1568378290293568
  0.2898730860268383  0.0310061404501662  0.4122585803329762
  0.5519584148515985  0.5695277512769672  0.4598802926237657
  0.8329551856098164  0.0218863118601879  0.0082319736408636
  0.1662577918619341  0.4503418555996684  0.7593074791814549
  0.4889413344977089  0.9189774406895285  0.7695037599587596
  0.3199269058454676  0.6882417650014141  0.2257994299668670
  0.9317125262458521  0.1939600174326563  0.3917679217248817
  0.1111407144881772  0.8515589950593058  0.3251125166324841
  0.1277853208661798  0.7293327090986509  0.4531661157247018
  0.6014064994309966  0.0685962283387209  0.7129445594010986
  0.7966957294747925  0.8106207006489866  0.8794189134799346
  0.9848178982537791  0.1128000466021731  0.2363035807519437
  0.9479694437778715  0.7237168913201711  0.8416326894040751
  0.9384726819998221  0.8672456038946351  0.0059435097338181
  0.5490728419778381  0.0366261953888492  0.3979878406244081
  0.4977618460145910  0.5764223295964277  0.3395011523562692
  0.0980772858895150  0.2282865346839210  0.3012363357170992
  0.0362602969726485  0.8239560747458348  0.9536383195911494
  0.2637908678231873  0.7730541348621580  0.7981048226563460
  0.6265959899980434  0.8438096182828474  0.1803933202733079
  0.4818294300655690  0.8933794369415727  0.1159127377107616
  0.5389909440519514  0.7537199105370000  0.8206003613548903
  0.8173118890711438  0.0193617168671688  0.6664724926913619
  0.1731606517793229  0.5121808415668135  0.2313664818648123
  0.7216777700352041  0.3864714869102002  0.9588064172273792
  0.4876672119866005  0.3005873884911403  0.4031741198405585
  0.8868248549779258  0.2933680278002773  0.8805549365319206
  0.5649805937696774  0.7256552506725356  0.4482861900125943
  0.6485106115598066  0.5396148382789053  0.6299937526600297
  0.1220353412416093  0.9073092237496778  0.9706625686090014
  0.6986289569158397  0.6780909229256015  0.8277888368892967
  0.6167082185621240  0.5597586679617187  0.9912917041986065
  0.4865103710099125  0.6821251693764455  0.0063131038763653
  0.5655386117820557  0.5507952843261446  0.7889306032824442
  0.0657104027075659  0.5789129777430746  0.5084652346597817
  0.1302668229643738  0.6788009497690006  0.2734690178535507
  0.3874866579165194  0.1569728082952116  0.0570227131104914
  0.3712576853252512  0.0187357769904669  0.8594366814091832
  0.7468398723644825  0.3987361412787709  0.3287549135218299
  0.5091242798398216  0.2761222905041184  0.5749274797104694
  0.2813062520335588  0.8899961772823788  0.8327499544866021
  0.5295120347951863  0.5389278947457090  0.1493592277986623
  0.6910512412666218  0.0321834417529561  0.3478057177693257
  0.2402387434274786  0.2231271156226578  0.5567402161705037
  0.3936449265193412  0.6928444248492270  0.4977342669309218
  0.1900324107400060  0.3921917844432541  0.6039570422143646
  0.2622857007248016  0.5973038510893223  0.8509463066945768
  0.7199811665018817  0.9352218778530998  0.7043572647218349
  0.6764155099210146  0.2224468908636487  0.9879744226962196
  0.4442085699415252  0.9092060686857902  0.2744088295050732
  0.0007626865832485  0.0385524289150985  0.0229193937646465
  0.9981917689352326  0.3236370269385755  0.0987196083621452
  0.4847097553114417  0.2515474619195923  0.9386560000295662
  0.7816476358397271  0.4326780880448407  0.4427952947999051
  0.5172729564015588  0.4083284208976350  0.4397254170258010
  0.9205481291111176  0.5781280717927865  0.1533099551453017
  0.9342501509719010  0.8910465804802770  0.1200015766518103
  0.2213530097791543  0.4853430063970766  0.6649879547938387
  0.7763426829935295  0.7335164704099489  0.3758757208188018
  0.7684937695966787  0.6724993477580070  0.5560743337581266
  0.2192611773689997  0.8484026539415174  0.9933218136978541
  0.3006454210986316  0.8728753219429616  0.5867551695443596
  0.5389600625027745  0.8496178587270374  0.3245346212179513
  0.4470708874726056  0.0676234686152598  0.0159717085278586
  0.3492012833315341  0.5941221758870048  0.5516347852003967
  0.5803455758378312  0.2348396226662555  0.3881051641962063
  0.3801974727976412  0.4933307403956139  0.3520377353785800
  0.5627847354923269  0.8459887380082375  0.8898771276056630
  0.4832281377776704  0.0297470971968987  0.7086738169299819
  0.6507657344003109  0.3009300263151782  0.8349749279548736
  0.0021425999080685  0.3659235760069769  0.9889434774340814
  0.4697867475199847  0.9809926834237387  0.6037343129442552
  0.0655118153178184  0.5324816101606744  0.0563229007270197
  0.1083691203725233  0.2877846004538990  0.1195681393386780
  0.3697195349450472  0.3304487019068540  0.2641643955291048
  0.7515335945665285  0.8767594315803872  0.5816653927238523
  0.3060012475053498  0.0595853517863385  0.5252537428382309
  0.3050478417061708  0.9146250947105317  0.4004892741424310
  0.5167634777798548  0.4134983135936305  0.1882411910735160
  0.3600932882873676  0.4458839375708645  0.4546321312180623
  0.9479024954854380  0.7791231938441169  0.3371197173906252
  0.6391881396098563  0.9712392948687274  0.4309776827505206
  0.1365472389588833  0.1459246846842689  0.0016652826141734
  0.6608360267881103  0.3147893962712641  0.5070046473399259
  0.6041928465012181  0.6499219715688086  0.3717269379619254
  0.0825316660927115  0.7241287983739589  0.9875877291876545
  0.8059463891743710  0.8101803744589091  0.2043049188829107
  0.7975055429806313  0.0033863071263402  0.2081407886860787
  0.6052298960868382  0.1276753809285869  0.8634981560285504
  0.7096726652102788  0.3977389162990267  0.8433647081576102
  0.0543418841907430  0.4677749057675001  0.7464099360310414
  0.3118884828405818  0.5711657944402529  0.9520676824688561
  0.2018014550965037  0.0644311163097888  0.9540429480710533
  0.4561250839989501  0.2519956811760104  0.8276245240451258
  0.9574387562762574  0.5645762586967676  0.9106749232611400
  0.7589158649242252  0.9293838197522289  0.0099682857767043
  0.7227659141208526  0.2241478801775502  0.8806335267407166
  0.5547047684834453  0.4749212879324473  0.6626757088926705
  0.8167591577516765  0.5430459005428372  0.8200327325040028
  0.8535815565928855  0.4445744439231647  0.2069986093761808
  0.1032414130792091  0.1658902711660545  0.4078874599460288
  0.8486206349696783  0.6008143960085307  0.5085778436124453
  0.9465002752411915  0.1256918528890266  0.9127578992740843
  0.9347196959515643  0.2569864758677184  0.6386737738207638
  0.0525278822640262  0.9906228723225616  0.7011667504838311
  0.7835184876243487  0.5680188896207682  0.0149728088661544
  0.8682928924922440  0.0200664665250788  0.5562869167097059
  0.5038719187474271  0.1016967401912589  0.4821241573809468
  0.8468716375194952  0.2795027926478367  0.4052162293138263
  0.1199018932357927  0.2383993288664987  0.9359112027045144
  0.2031803596942970  0.6977219795723708  0.8621038833994693
  0.7126429868368914  0.4766458139260965  0.0375655881509963
  0.0454300594664249  0.9555793294932078  0.3055113010728136
  0.3401767290896134  0.3900749759735909  0.8994312541023249
  0.1861168443356343  0.1732068552618701  0.8064730539153271
  0.1727727460162908  0.9109389298145035  0.7908618008479026
  0.8941716765282595  0.9575185891461506  0.2726972188334491
  0.9199154026660802  0.3726534513100483  0.6689360737820955
  0.1705669270619812  0.0227005195791192  0.1015081275792767
  0.9726434824738325  0.7392606817891618  0.1867403229153927
  0.9196225950363189  0.8420012581774733  0.5128267720273058
  0.3919726152271727  0.6735828263615740  0.3777100618659797
  0.2838289921577459  0.2824809434093956  0.0940194723120447
  0.4008197233672416  0.3994289714517539  0.7229499463938317
  0.6002666725664201  0.1335082598435492  0.9827063955688962
  0.1956631456005006  0.5033561910963505  0.8574534546491513
  0.1027155103176828  0.1360798682831398  0.2098606187292312
  0.8629610934664849  0.5446898930595123  0.3425891167273813
  0.7528010726516188  0.4929674495476083  0.6547248231960443
  0.6029626744999661  0.2723930372888033  0.1830837989381455
  0.9115238299419279  0.8920798691373506  0.6832351447225320
  0.2974564946624265  0.7821199953679326  0.1506166113761175
  0.5132047111537273  0.4231426146090638  0.8805338151516440
  0.2288305684994267  0.3852848174363385  0.3382576724313377
  0.3160326019865385  0.5889031501002089  0.3580967037515422
  0.4940486312499310  0.9826899306911855  0.8753714598627864
  0.6319506195566487  0.6441988992797962  0.6776129661324199
  0.4323354981458130  0.1817891707517753  0.1649440676581626
  0.5744523847685242  0.7886689311076420  0.7178341207993540
  0.9571506614982016  0.1222107056608996  0.6216989481421725
  0.2983296354568796  0.1886172029253250  0.3523020118897685
  0.2962507477172228  0.1652595110523213  0.6539994151174504
  0.6428566854423857  0.0018699617410944  0.6167709567576724
  0.1716386512147702  0.8851803790048011  0.4431562070483086
  0.8452247473359429  0.7478235659313898  0.7930827365037759
  0.7201974967319655  0.5674498085891029  0.8798723144902422
  0.3966611547337817  0.8370192185576421  0.6363093693303365
  0.8234066391534995  0.3300680227974216  0.9803196065440849
  0.6574072916058845  0.5514598702957239  0.5147566759552721
  0.4375905285606626  0.2896530328445427  0.6809419575235497
  0.1571579565848434  0.7764959005514739  0.0578174736024037
  0.4447577795674361  0.7913176088974870  0.1829634401937595
  0.6454757423008700  0.6415546959457780  0.0764220440765186
  0.0641036129975176  0.5398779687657947  0.9414806300282913
  0.8021224255391122  0.5779816505408123  0.7145608717077435
  0.8113691065575096  0.6032340351865124  0.1199912503981802
  0.5816928843147646  0.8431496005644746  0.0667781248988340
  0.0622582451270645  0.7672823032910797  0.6409961426994685
  0.3710909023192285  0.6679403058617950  0.9337523610765306
  0.5395652835146919  0.9461890358570271  0.2095059606879999
  0.7532671597147516  0.2021744748711986  0.0708452782822683
  0.5847400857495310  0.1680435825385280  0.6439170687549122
  0.6277224803507028  0.5456683613848465  0.2136200445475434
  0.5105529599928781  0.6629944777989837  0.5298233573290492
  0.8383869445726313  0.9210683912012657  0.3621725099311954
  0.1843524946735642  0.0534091028185551  0.3664768441851528
  0.1826972425146224  0.8926527223068277  0.2318237000557931
  0.5816260978192007  0.6573526319155010  0.8688671680780689
  0.9320620905455830  0.9657620321730250  0.9458659309339478
  0.4530247887253408  0.9780134171162332  0.3777837565960409
  0.2572416636804322  0.1830903126869957  0.2463135974462793
  0.0321489700031182  0.6674967772019743  0.4395196595181731
  0.9208999059649895  0.4349678896359725  0.5736995711534019
  0.1937060319998733  0.3200170115808621  0.9656342923640979
  0.4317664993698107  0.5551208396144804  0.2167255206398237
  0.4827404491062648  0.7989002184922794  0.4130498877296184
  0.6314967157065206  0.3297765979905854  0.0038453855555197
  0.2891797898340316  0.3324031905825675  0.5907468199822021
  0.4706720118094785  0.1726990611900881  0.6251561206277305
  0.8958064302620620  0.6615388544617558  0.3272029459451856
  0.5626234538233011  0.9175200455955430  0.5981784735343448
  0.5790406298847356  0.4884115965555983  0.3011572514382591
  0.9510922212827332  0.1478526858941765  0.1212592884895691
  0.3409172165406424  0.5978429984642186  0.7654482021021731
  0.9253779430346802  0.6717440520383766  0.9437234750614626
  0.0277052183796236  0.5911745216143864  0.6167176482110193
  0.2281748182862689  0.1046999649349344  0.7256473300263151
  0.0641762947032049  0.3354463872577685  0.3873535862547820
  0.0121619246656035  0.9776089111423010  0.4128795444340829
  0.2223068622902718  0.0022534429034482  0.5785360612355105
  0.1246858772837689  0.0529327127785885  0.5454091670068245
  0.1922601312223105  0.4938787283606239  0.3449260843750753
  0.8403405604206918  0.1311319226202346  0.8719297520069804
  0.4727355074604674  0.3580332201000723  0.0928257766296928
  0.7051801889421558  0.7587817494797797  0.9189579230927214
  0.7291534443099156  0.1806756101224664  0.2572602405193742
  0.2039373700573579  0.6248451429864594  0.1981158400520106
  0.8577574334537913  0.2171786081994525  0.7982094754469643
  0.0819623436445247  0.7671817269559223  0.2089007394084057
  0.5216319438630416  0.6210148942220529  0.6994851613902291
  0.2161636632880117  0.4277845514970923  0.1658309482754374
  0.4977590473353418  0.8091674098230607  0.9822362626314475
  0.4104165766582923  0.2891502164703879  0.4934828878357894
  0.5447746926139300  0.7644755201324708  0.2332471484136098
  0.3499953571249368  0.9491574288366111  0.7614210684667708
  0.7095630511983008  0.9566474781875894  0.2591195940148933
  0.5848643813053697  0.1800524449480058  0.4917760306803906
  0.0591847205121367  0.5961999741652731  0.3138525471587195
  0.6991996237084291  0.8199756339598201  0.4086718165623823
  0.7823585274492582  0.9586221996274646  0.5080772732608926
  0.3820683441263499  0.6288864794784946  0.1399655139779281
  0.4246267836906477  0.7680945968762070  0.8310836058552855
  0.7753644567478802  0.1807679169737786  0.5672055894119817
  0.0139604108812816  0.6510732331952263  0.7769250879157135
  0.5166199552706261  0.5148005964795983  0.0366834672279639
  0.1982526081193135  0.7206838221406094  0.3592951876617896
  0.7900119368674093  0.0810478175061725  0.3769037847201437
  0.3732716440735703  0.7245183876527952  0.0343225204949062
  0.2035031871260277  0.8282770877474021  0.7129171744359731
  0.9096538212141773  0.2535920450207785  0.1258503115076383
  0.1854654882834543  0.3354772429536126  0.7747496219553409
  0.7051001479491116  0.7609869973862703  0.2216865496564288
  0.2909078134814398  0.0981635118917354  0.0787047645671737
  0.6064063094980400  0.0996069410792980  0.1286502406201569
  0.7098258512991599  0.9829221711089158  0.8284030219082139
  0.6819099638414021  0.0195613660340885  0.0975026045239596
  0.7751363894111191  0.5092265009143415  0.2735486670196297
  0.9623865547700248  0.2381636533218759  0.9506017827839075
  0.3686321759525925  0.8907610588766662  0.4912873379199225
  0.9819141606982374  0.6947828457097009  0.6125445260271830
  0.8012975149171654  0.9149510177381164  0.8226500705272535
  0.0105068871671552  0.4947889006761473  0.4526592080174532
  0.6192959866798422  0.8867682700484514  0.7704754388180267
  0.0592407966235501  0.5272486609784302  0.2219943178995229
  0.1885794548594943  0.6865503752653829  0.5407619800021496
  0.0740788304514043  0.8291460641246871  0.4762328980550268
  0.4178417758039162  0.5060303865389917  0.5325772555186618
  0.5436963244035099  0.6652521745597150  0.1237819504217366
  0.2942897927639583  0.2118358712632228  0.8440739011659760
  0.9156993683371386  0.0065250364871457  0.1106771140368361
  0.3866147228673809  0.2610774649384762  0.0031139329686039
  0.3475970565840765  0.1915983037531807  0.5015763466152051
  0.0813190256982691  0.9496246405250189  0.0736597642625329
  0.2879161210765995  0.8511026659581653  0.2426436772145242
  0.4977278547317583  0.0964501740622419  0.8471679312729761
  0.0495628817053928  0.1509685841519081  0.7743528671828525
  0.8590139191656571  0.3583408856667885  0.2946930885773221
  0.8179945538669550  0.2688432691563141  0.6188011859863629
  0.9747456942361292  0.4121210653548620  0.1677914865163430
  0.1540634076067941  0.0289355427924854  0.2133567742910331
  0.0293559412100007  0.2469581722440078  0.4516596862208856
  0.6505477477897352  0.7808066043687890  0.5023024009690102
  0.6894471681920273  0.0196384834247299  0.9807694091334032
  0.1051418457342033  0.3221713875493710  0.6335614118609704
  0.1831844062338331  0.5784159829225537  0.5039070469721662
  0.7381402336999809  0.1117075899514554  0.6526078339899474
  0.6309960961537258  0.3961560714878439  0.4333589185284390
  0.6085334814658815  0.3726680863556892  0.6787150777222939
  0.9752401040140299  0.2261021378202701  0.2830449782344972
  0.0952652092579173  0.7205249721532496  0.7452136512211963
  0.1684245048226426  0.4315884867841163  0.4974141012498212
  0.3204567689399396  0.9356522657991886  0.9331105401916387
  0.8177554918017924  0.7238411981878324  0.6440057766143904
  0.6936140186267739  0.3659061779276244  0.6046415182706050
  0.3665025150984699  0.0940890098310749  0.3540519554343886
  0.0349316393941742  0.4236247557569051  0.5400685372351688
  0.9014160286024290  0.0929450131946740  0.7170014235895730
  0.9234726039014848  0.3893181927904895  0.8354674509264460
  0.6030114990752746  0.0989210863027349  0.3166972590551990
  0.4638343540253860  0.5209156334956376  0.8457330320237613
  0.8504553195858238  0.7963760594099587  0.9836392833604334
  0.3818207888498539  0.7230053590342889  0.6418529491348535
  0.9818918348185872  0.6629634992779113  0.1020468201013957
  0.1272755222130478  0.9968222791492993  0.8952637440051546
  0.0011712785757126  0.8263934682659011  0.8447738926451269
  0.1495473211680579  0.3418181827103361  0.2117983762537024
  0.4643446575112758  0.2717742357448843  0.2943198943580679
 
  0.00000000E+00  0.00000000E+00  0.00000000E+00
  0.00000000E+00  0.00000000E+00  0.00000000E+00
  0.00000000E+00  0.00000000E+00  0.00000000E+00
  0.00000000E+00  0.00000000E+00  0.00000000E+00
  0.00000000E+00  0.00000000E+00  0.00000000E+00
  0.00000000E+00  0.00000000E+00  0.00000000E+00
  0.00000000E+00  0.00000000E+00  0.00000000E+00
  0.00000000E+00  0.00000000E+00  0.00000000E+00
  0.00000000E+00  0.00000000E+00  0.00000000E+00
  0.00000000E+00  0.00000000E+00  0.00000000E+00
  0.00000000E+00  0.00000000E+00  0.00000000E+00
  0.00000000E+00  0.00000000E+00  0.00000000E+00
  0.00000000E+00  0.00000000E+00  0.00000000E+00
  0.00000000E+00  0.00000000E+00  0.00000000E+00
  0.00000000E+00  0.00000000E+00  0.00000000E+00
  0.00000000E+00  0.00000000E+00  0.00000000E+00
  0.00000000E+00  0.00000000E+00  0.00000000E+00
  0.00000000E+00  0.00000000E+00  0.00000000E+00
  0.00000000E+00  0.00000000E+00  0.00000000E+00
  0.00000000E+00  0.00000000E+00  0.00000000E+00
  0.00000000E+00  0.00000000E+00  0.00000000E+00
  0.00000000E+00  0.00000000E+00  0.00000000E+00
  0.00000000E+00  0.00000000E+00  0.00000000E+00
  0.00000000E+00  0.00000000E+00  0.00000000E+00
  0.00000000E+00  0.00000000E+00  0.00000000E+00
  0.00000000E+00  0.00000000E+00  0.00000000E+00
  0.00000000E+00  0.00000000E+00  0.00000000E+00
  0.00000000E+00  0.00000000E+00  0.00000000E+00
  0.00000000E+00  0.00000000E+00  0.00000000E+00
  0.00000000E+00  0.00000000E+00  0.00000000E+00
  0.00000000E+00  0.00000000E+00  0.00000000E+00
  0.00000000E+00  0.00000000E+00  0.00000000E+00
  0.00000000E+00  0.00000000E+00  0.00000000E+00
  0.00000000E+00  0.00000000E+00  0.00000000E+00
  0.00000000E+00  0.00000000E+00  0.00000000E+00
  0.00000000E+00  0.00000000E+00  0.00000000E+00
  0.00000000E+00  0.00000000E+00  0.00000000E+00
  0.00000000E+00  0.00000000E+00  0.00000000E+00
  0.00000000E+00  0.00000000E+00  0.00000000E+00
  0.00000000E+00  0.00000000E+00  0.00000000E+00
  0.00000000E+00  0.00000000E+00  0.00000000E+00
  0.00000000E+00  0.00000000E+00  0.00000000E+00
  0.00000000E+00  0.00000000E+00  0.00000000E+00
  0.00000000E+00  0.00000000E+00  0.00000000E+00
  0.00000000E+00  0.00000000E+00  0.00000000E+00
  0.00000000E+00  0.00000000E+00  0.00000000E+00
  0.00000000E+00  0.00000000E+00  0.00000000E+00
  0.00000000E+00  0.00000000E+00  0.00000000E+00
  0.00000000E+00  0.00000000E+00  0.00000000E+00
  0.00000000E+00  0.00000000E+00  0.00000000E+00
  0.00000000E+00  0.00000000E+00  0.00000000E+00
  0.00000000E+00  0.00000000E+00  0.00000000E+00
  0.00000000E+00  0.00000000E+00  0.00000000E+00
  0.00000000E+00  0.00000000E+00  0.00000000E+00
  0.00000000E+00  0.00000000E+00  0.00000000E+00
  0.00000000E+00  0.00000000E+00  0.00000000E+00
  0.00000000E+00  0.00000000E+00  0.00000000E+00
  0.00000000E+00  0.00000000E+00  0.00000000E+00
  0.00000000E+00  0.00000000E+00  0.00000000E+00
  0.00000000E+00  0.00000000E+00  0.00000000E+00
  0.00000000E+00  0.00000000E+00  0.00000000E+00
  0.00000000E+00  0.00000000E+00  0.00000000E+00
  0.00000000E+00  0.00000000E+00  0.00000000E+00
  0.00000000E+00  0.00000000E+00  0.00000000E+00
  0.00000000E+00  0.00000000E+00  0.00000000E+00
  0.00000000E+00  0.00000000E+00  0.00000000E+00
  0.00000000E+00  0.00000000E+00  0.00000000E+00
  0.00000000E+00  0.00000000E+00  0.00000000E+00
  0.00000000E+00  0.00000000E+00  0.00000000E+00
  0.00000000E+00  0.00000000E+00  0.00000000E+00
  0.00000000E+00  0.00000000E+00  0.00000000E+00
  0.00000000E+00  0.00000000E+00  0.00000000E+00
  0.00000000E+00  0.00000000E+00  0.00000000E+00
  0.00000000E+00  0.00000000E+00  0.00000000E+00
  0.00000000E+00  0.00000000E+00  0.00000000E+00
  0.00000000E+00  0.00000000E+00  0.00000000E+00
  0.00000000E+00  0.00000000E+00  0.00000000E+00
  0.00000000E+00  0.00000000E+00  0.00000000E+00
  0.00000000E+00  0.00000000E+00  0.00000000E+00
  0.00000000E+00  0.00000000E+00  0.00000000E+00
  0.00000000E+00  0.00000000E+00  0.00000000E+00
  0.00000000E+00  0.00000000E+00  0.00000000E+00
  0.00000000E+00  0.00000000E+00  0.00000000E+00
  0.00000000E+00  0.00000000E+00  0.00000000E+00
  0.00000000E+00  0.00000000E+00  0.00000000E+00
  0.00000000E+00  0.00000000E+00  0.00000000E+00
  0.00000000E+00  0.00000000E+00  0.00000000E+00
  0.00000000E+00  0.00000000E+00  0.00000000E+00
  0.00000000E+00  0.00000000E+00  0.00000000E+00
  0.00000000E+00  0.00000000E+00  0.00000000E+00
  0.00000000E+00  0.00000000E+00  0.00000000E+00
  0.00000000E+00  0.00000000E+00  0.00000000E+00
  0.00000000E+00  0.00000000E+00  0.00000000E+00
  0.00000000E+00  0.00000000E+00  0.00000000E+00
  0.00000000E+00  0.00000000E+00  0.00000000E+00
  0.00000000E+00  0.00000000E+00  0.00000000E+00
  0.00000000E+00  0.00000000E+00  0.00000000E+00
  0.00000000E+00  0.00000000E+00  0.00000000E+00
  0.00000000E+00  0.00000000E+00  0.00000000E+00
  0.00000000E+00  0.00000000E+00  0.00000000E+00
  0.00000000E+00  0.00000000E+00  0.00000000E+00
  0.00000000E+00  0.00000000E+00  0.00000000E+00
  0.00000000E+00  0.00000000E+00  0.00000000E+00
  0.00000000E+00  0.00000000E+00  0.00000000E+00
  0.00000000E+00  0.00000000E+00  0.00000000E+00
  0.00000000E+00  0.00000000E+00  0.00000000E+00
  0.00000000E+00  0.00000000E+00  0.00000000E+00
  0.00000000E+00  0.00000000E+00  0.00000000E+00
  0.00000000E+00  0.00000000E+00  0.00000000E+00
  0.00000000E+00  0.00000000E+00  0.00000000E+00
  0.00000000E+00  0.00000000E+00  0.00000000E+00
  0.00000000E+00  0.00000000E+00  0.00000000E+00
  0.00000000E+00  0.00000000E+00  0.00000000E+00
  0.00000000E+00  0.00000000E+00  0.00000000E+00
  0.00000000E+00  0.00000000E+00  0.00000000E+00
  0.00000000E+00  0.00000000E+00  0.00000000E+00
  0.00000000E+00  0.00000000E+00  0.00000000E+00
  0.00000000E+00  0.00000000E+00  0.00000000E+00
  0.00000000E+00  0.00000000E+00  0.00000000E+00
  0.00000000E+00  0.00000000E+00  0.00000000E+00
  0.00000000E+00  0.00000000E+00  0.00000000E+00
  0.00000000E+00  0.00000000E+00  0.00000000E+00
  0.00000000E+00  0.00000000E+00  0.00000000E+00
  0.00000000E+00  0.00000000E+00  0.00000000E+00
  0.00000000E+00  0.00000000E+00  0.00000000E+00
  0.00000000E+00  0.00000000E+00  0.00000000E+00
  0.00000000E+00  0.00000000E+00  0.00000000E+00
  0.00000000E+00  0.00000000E+00  0.00000000E+00
  0.00000000E+00  0.00000000E+00  0.00000000E+00
  0.00000000E+00  0.00000000E+00  0.00000000E+00
  0.00000000E+00  0.00000000E+00  0.00000000E+00
  0.00000000E+00  0.00000000E+00  0.00000000E+00
  0.00000000E+00  0.00000000E+00  0.00000000E+00
  0.00000000E+00  0.00000000E+00  0.00000000E+00
  0.00000000E+00  0.00000000E+00  0.00000000E+00
  0.00000000E+00  0.00000000E+00  0.00000000E+00
  0.00000000E+00  0.00000000E+00  0.00000000E+00
  0.00000000E+00  0.00000000E+00  0.00000000E+00
  0.00000000E+00  0.00000000E+00  0.00000000E+00
  0.00000000E+00  0.00000000E+00  0.00000000E+00
  0.00000000E+00  0.00000000E+00  0.00000000E+00
  0.00000000E+00  0.00000000E+00  0.00000000E+00
  0.00000000E+00  0.00000000E+00  0.00000000E+00
  0.00000000E+00  0.00000000E+00  0.00000000E+00
  0.00000000E+00  0.00000000E+00  0.00000000E+00
  0.00000000E+00  0.00000000E+00  0.00000000E+00
  0.00000000E+00  0.00000000E+00  0.00000000E+00
  0.00000000E+00  0.00000000E+00  0.00000000E+00
  0.00000000E+00  0.00000000E+00  0.00000000E+00
  0.00000000E+00  0.00000000E+00  0.00000000E+00
  0.00000000E+00  0.00000000E+00  0.00000000E+00
  0.00000000E+00  0.00000000E+00  0.00000000E+00
  0.00000000E+00  0.00000000E+00  0.00000000E+00
  0.00000000E+00  0.00000000E+00  0.00000000E+00
  0.00000000E+00  0.00000000E+00  0.00000000E+00
  0.00000000E+00  0.00000000E+00  0.00000000E+00
  0.00000000E+00  0.00000000E+00  0.00000000E+00
  0.00000000E+00  0.00000000E+00  0.00000000E+00
  0.00000000E+00  0.00000000E+00  0.00000000E+00
  0.00000000E+00  0.00000000E+00  0.00000000E+00
  0.00000000E+00  0.00000000E+00  0.00000000E+00
  0.00000000E+00  0.00000000E+00  0.00000000E+00
  0.00000000E+00  0.00000000E+00  0.00000000E+00
  0.00000000E+00  0.00000000E+00  0.00000000E+00
  0.00000000E+00  0.00000000E+00  0.00000000E+00
  0.00000000E+00  0.00000000E+00  0.00000000E+00
  0.00000000E+00  0.00000000E+00  0.00000000E+00
  0.00000000E+00  0.00000000E+00  0.00000000E+00
  0.00000000E+00  0.00000000E+00  0.00000000E+00
  0.00000000E+00  0.00000000E+00  0.00000000E+00
  0.00000000E+00  0.00000000E+00  0.00000000E+00
  0.00000000E+00  0.00000000E+00  0.00000000E+00
  0.00000000E+00  0.00000000E+00  0.00000000E+00
  0.00000000E+00  0.00000000E+00  0.00000000E+00
  0.00000000E+00  0.00000000E+00  0.00000000E+00
  0.00000000E+00  0.00000000E+00  0.00000000E+00
  0.00000000E+00  0.00000000E+00  0.00000000E+00
  0.00000000E+00  0.00000000E+00  0.00000000E+00
  0.00000000E+00  0.00000000E+00  0.00000000E+00
  0.00000000E+00  0.00000000E+00  0.00000000E+00
  0.00000000E+00  0.00000000E+00  0.00000000E+00
  0.00000000E+00  0.00000000E+00  0.00000000E+00
  0.00000000E+00  0.00000000E+00  0.00000000E+00
  0.00000000E+00  0.00000000E+00  0.00000000E+00
  0.00000000E+00  0.00000000E+00  0.00000000E+00
  0.00000000E+00  0.00000000E+00  0.00000000E+00
  0.00000000E+00  0.00000000E+00  0.00000000E+00
  0.00000000E+00  0.00000000E+00  0.00000000E+00
  0.00000000E+00  0.00000000E+00  0.00000000E+00
  0.00000000E+00  0.00000000E+00  0.00000000E+00
  0.00000000E+00  0.00000000E+00  0.00000000E+00
  0.00000000E+00  0.00000000E+00  0.00000000E+00
  0.00000000E+00  0.00000000E+00  0.00000000E+00
  0.00000000E+00  0.00000000E+00  0.00000000E+00
  0.00000000E+00  0.00000000E+00  0.00000000E+00
  0.00000000E+00  0.00000000E+00  0.00000000E+00
  0.00000000E+00  0.00000000E+00  0.00000000E+00
  0.00000000E+00  0.00000000E+00  0.00000000E+00
  0.00000000E+00  0.00000000E+00  0.00000000E+00
  0.00000000E+00  0.00000000E+00  0.00000000E+00
  0.00000000E+00  0.00000000E+00  0.00000000E+00
  0.00000000E+00  0.00000000E+00  0.00000000E+00
  0.00000000E+00  0.00000000E+00  0.00000000E+00
  0.00000000E+00  0.00000000E+00  0.00000000E+00
  0.00000000E+00  0.00000000E+00  0.00000000E+00
  0.00000000E+00  0.00000000E+00  0.00000000E+00
  0.00000000E+00  0.00000000E+00  0.00000000E+00
  0.00000000E+00  0.00000000E+00  0.00000000E+00
  0.00000000E+00  0.00000000E+00  0.00000000E+00
  0.00000000E+00  0.00000000E+00  0.00000000E+00
  0.00000000E+00  0.00000000E+00  0.00000000E+00
  0.00000000E+00  0.00000000E+00  0.00000000E+00
  0.00000000E+00  0.00000000E+00  0.00000000E+00
  0.00000000E+00  0.00000000E+00  0.00000000E+00
  0.00000000E+00  0.00000000E+00  0.00000000E+00
  0.00000000E+00  0.00000000E+00  0.00000000E+00
  0.00000000E+00  0.00000000E+00  0.00000000E+00
  0.00000000E+00  0.00000000E+00  0.00000000E+00
  0.00000000E+00  0.00000000E+00  0.00000000E+00
  0.00000000E+00  0.00000000E+00  0.00000000E+00
  0.00000000E+00  0.00000000E+00  0.00000000E+00
  0.00000000E+00  0.00000000E+00  0.00000000E+00
  0.00000000E+00  0.00000000E+00  0.00000000E+00
  0.00000000E+00  0.00000000E+00  0.00000000E+00
  0.00000000E+00  0.00000000E+00  0.00000000E+00
  0.00000000E+00  0.00000000E+00  0.00000000E+00
  0.00000000E+00  0.00000000E+00  0.00000000E+00
  0.00000000E+00  0.00000000E+00  0.00000000E+00
  0.00000000E+00  0.00000000E+00  0.00000000E+00
  0.00000000E+00  0.00000000E+00  0.00000000E+00
  0.00000000E+00  0.00000000E+00  0.00000000E+00
  0.00000000E+00  0.00000000E+00  0.00000000E+00