Sb                                      
   1.00000000000000     
    17.7173007964999989    0.0000000000000000    0.0000000000000000
     0.0000000000000000   17.7173007964999989    0.0000000000000000
     0.0000000000000000    0.0000000000000000   17.7173007964999989
   Tl   S 
    57   143
Direct
  0.3367904527349411  0.3433096900193922  0.4060552200919573
  0.7352780150610665  0.9599758418977958  0.3185952473335817
  0.6412418303270380  0.3623307224353429  0.5675938724693456
  0.6260353109256921  0.2382610563653088  0.8837945991701562
  0.4819572348886452  0.7305277527723217  0.6370777798015246
  0.3416664088038686  0.3426959619244760  0.2188979510676956
  0.9302503229876061  0.2371074914370034  0.3048339364721221
  0.7004393227685368  0.9452005618579562  0.9262661326979629
  0.2891411345359306  0.6777044415915333  0.3248636595208720
  0.1894675849542627  0.4757457460553821  0.5855783601188709
  0.1953923863899128  0.8123647729904954  0.0260487796440275
  0.3465463750436243  0.9944664326880968  0.9636445035658573
  0.6458323546915113  0.6417281703495975  0.4202783143752656
  0.9012434071398525  0.3450754747608425  0.9967613915628480
  0.9502687980794036  0.8582317896922980  0.1479031733778416
  0.3998413960757279  0.5792391679870927  0.1666255548836300
  0.8896405041837135  0.6373921612142279  0.8685537879933090
  0.1034007174624777  0.4826607057367160  0.8683013186349425
  0.1490228307343033  0.2158515779104791  0.6507624163127870
  0.2931994345027401  0.0314424124922559  0.2454882643123782
  0.3490127141159824  0.6317285082390566  0.7580715241648250
  0.6841793592745110  0.7127417075421634  0.8521917248109310
  0.1385190335852711  0.9024185013143132  0.1816336683313590
  0.5137013937246289  0.7108747242215478  0.0587200147375463
  0.7434864272077846  0.4445261670416784  0.2183763026523628
  0.0980414901456167  0.8834923919207021  0.4316611828943081
  0.4089049096436052  0.4057186243128050  0.8970369316043290
  0.9829100092941447  0.1047210209939094  0.6799302953207746
  0.8528960015351176  0.5255445556645187  0.5235087695005675
  0.1266501445638376  0.1757933416444201  0.9705143258300760
  0.1279120559143477  0.5168647426948564  0.1764056557685000
  0.9005742420999422  0.8279597838720346  0.4345607222248475
  0.7267971996891336  0.0203448946589175  0.6787807411811967
  0.6102030477372452  0.0897830903322005  0.2120108706215035
  0.5733756608182227  0.8891799671443287  0.1287390708977242
  0.8523697336553007  0.0893896419364089  0.1899895964635047
  0.7956979744762647  0.3082831207511179  0.4252424025862248
  0.2727692566133643  0.9879317733353282  0.7236457126242674
  0.5623147575870121  0.0306013856986693  0.8376493938912309
  0.0270736914277774  0.6853177520622059  0.0611894461823312
  0.2194629183208360  0.7087346960853080  0.8530278894983045
  0.8258689961130610  0.3493813289349089  0.7882934888568517
  0.4105199229886327  0.2066648377711680  0.8023132866054261
  0.4788566401328774  0.4772878198148978  0.4121913707746708
  0.9596767617480296  0.1322106306404911  0.8702121579839508
  0.5618833606031626  0.0903810154946698  0.5830248184957247
  0.4626048655843837  0.9143566124847564  0.5377624207431012
  0.8199200724832045  0.8333836489297961  0.7003596894792035
  0.1747337351567008  0.7762273504122672  0.6437536403384710
  0.2738500131236968  0.0516493268761084  0.4319405364307002
  0.5070689954757560  0.7757823807913624  0.2878020653859690
  0.0042480456509634  0.5501032012869281  0.3476153795181853
  0.3149683025853218  0.2405971596323402  0.9688368373215313
  0.8694675734810692  0.9946083524922154  0.9937967372210977
  0.6491563036154174  0.5553233968310514  0.6096063106411593
  0.7387826870937277  0.1895826974301121  0.0497506774649541
  0.5507681338316714  0.2736529796464581  0.3642091708417891
  0.9978601629286219  0.0404357701235709  0.3078259153252156
  0.3383647503985738  0.8815653181622435  0.3707512091231665
  0.9581272383510907  0.3341567688553906  0.4850488033251286
  0.4236335774302945  0.8702221272998162  0.7240705705688244
  0.8318993121522861  0.8225053539978786  0.8895625441697302
  0.3668133910210455  0.1630902499275477  0.1103015080961168
  0.9647370172140581  0.4695634837181956  0.7044336914883438
  0.7452212874897159  0.4787570766377365  0.3995672748432253
  0.3152451055430254  0.9114755115012180  0.1184277900439799
  0.9721578871480120  0.9155836999021559  0.7718919787844831
  0.3811795618185021  0.7902762659093463  0.4249285983072690
  0.9213123063559928  0.9485717202330133  0.3047727543503322
  0.5219636196165204  0.9707584053775532  0.3370173996502724
  0.9775535973894004  0.3632790140856799  0.1931543397445634
  0.5833703078900712  0.6015836107351845  0.2440867376601922
  0.4617619571462941  0.9896977987636819  0.2439886200471991
  0.3998644115413690  0.8401018238724290  0.8369813330448529
  0.0533402219942328  0.4567183307735253  0.0245893060200334
  0.8671718212108738  0.6576405980620522  0.3904075160243611
  0.0469839724757635  0.0269341613883934  0.0033763242942872
  0.5650175357714705  0.6261243188385068  0.7475880289368956
  0.5752760734065582  0.4093778748029147  0.2352762652251192
  0.5013847496611054  0.5344241353438965  0.7645184830561550
  0.4867045947178187  0.5933754764635185  0.5211685093674834
  0.5725675858076501  0.3682009699064172  0.7809319784267629
  0.7506612238681264  0.7074696602772282  0.5603774501503314
  0.6769619602255866  0.1959232882789559  0.5111819264824745
  0.0448175448238015  0.1547608825111248  0.4650836085483272
  0.3416197140092206  0.3904860311077011  0.0555455875515711
  0.5027985769990503  0.4326720928311307  0.1525455363981392
  0.8401038260150520  0.6789007386915995  0.6222242207319244
  0.3881748451080573  0.1891067055348741  0.3590756871437056
  0.5664515223904438  0.1697137063863336  0.7333572336303275
  0.9640847753347114  0.5340202211546635  0.0149147159720162
  0.8986647881909526  0.5360320668345048  0.1170658374212748
  0.4174950689542380  0.5431671356229215  0.6033124383960904
  0.7168381997743990  0.4555675118342761  0.7485126324141478
  0.4424262805690646  0.1213086203688181  0.4393847132360331
  0.6532999638026417  0.4041798091574741  0.4076596532597480
  0.9960603589178602  0.2872836670948537  0.7667303055031950
  0.0110707933743017  0.7788183057469531  0.5843917641697627
  0.5454624393159355  0.0751102484984979  0.3821331809229594
  0.3626772006780811  0.2965607038762286  0.6059259226142917
  0.3025345054093102  0.5476989975751571  0.4472648799236107
  0.9921918469804610  0.1678232051014499  0.1108385422713367
  0.1332140388963096  0.9964390484921397  0.8553727615622395
  0.4758404672584786  0.1379386228037369  0.9536165267352918
  0.7062871292114816  0.4048259707598625  0.9141466725366036
  0.9155612291573506  0.4080003611229268  0.2843004041440588
  0.1032550750940846  0.0021769630739142  0.3044481754905006
  0.2249801968756399  0.5169998498714955  0.3613021333624130
  0.1032441210979250  0.0752276336125577  0.5361096819858173
  0.5182214071912462  0.9251268563334550  0.9671696751877890
  0.2576778308269487  0.1198464609872253  0.0815820760109595
  0.0191093133488296  0.2963962176223924  0.8812038172317315
  0.1639783617801437  0.6122478314884118  0.7101934438454541
  0.0812923374918787  0.9694942779193853  0.7525988242379509
  0.4804186882618263  0.4687865327374541  0.6695700438717902
  0.7492160656049882  0.9486437223883923  0.1457164138755263
  0.3303976596326997  0.7218611057689758  0.1138918634476242
  0.6941943941825527  0.0200865126770800  0.0735108026794509
  0.7903645812188477  0.9239271573924358  0.5565385747818147
  0.6607419005668929  0.6185973454882647  0.0009058445123601
  0.6964328210554976  0.9615976050345507  0.4998727370645343
  0.1672392459156435  0.6187443124597006  0.9836651433206832
  0.9058084857795878  0.8099825103496501  0.9801004620109095
  0.0642044623856651  0.7321868768209068  0.9016580507562952
  0.7232052867702607  0.2191059072422882  0.2860957087911223
  0.0281692397717253  0.7886105743757595  0.2966015438010970
  0.2818450302166203  0.9119761704002755  0.5456041397824868
  0.5865501525995023  0.2683714260098021  0.1420774237745849
  0.8354378846304252  0.1352493136033125  0.5631451271845259
  0.2817183815229694  0.4841196375969981  0.2682124508055712
  0.0480837126885079  0.3763949474658437  0.7075998947629943
  0.5824004379127146  0.5262566807490919  0.0794651663504537
  0.4934925174744450  0.6119094142902423  0.3220333343193464
  0.9038137614500180  0.1705231686763568  0.0335695161371869
  0.4618534592286583  0.0954342046359302  0.0655550179994459
  0.7923635799697046  0.2679247080352779  0.1983569080542128
  0.2660416637019637  0.1184166548325169  0.5891071024746795
  0.4411639757596355  0.6532519996783070  0.9093832169043418
  0.2549896669899646  0.4550194634094406  0.7439232669216623
  0.6212464015598489  0.8736358823145782  0.4690967395914256
  0.2902059548637225  0.5057161667828182  0.8453647268825535
  0.1145505707207412  0.6334784444139494  0.5121659938849493
  0.9270859802061637  0.4785658394615264  0.8118593129724563
  0.8169726164034591  0.3234356744415068  0.6094049316508768
  0.9216680956492733  0.2799397016929165  0.5813303255172504
  0.7859687876490279  0.6312054472909968  0.3123877447556973
  0.7406940256636640  0.1809136523687158  0.6058489620815906
  0.6593857391551980  0.8868453362319449  0.7542831609473318
  0.1957525440904825  0.1807652179626339  0.8071173438402864
  0.8842292906678723  0.9941578166931379  0.7836128911595456
  0.1632826822886565  0.7100719662160095  0.1820244194855964
  0.2220375866900037  0.9205482648748193  0.8765454490300987
  0.0196569878963540  0.8334651111273589  0.9454275829639278
  0.6203745044304160  0.8548496884130806  0.6503510858229559
  0.2440998232431494  0.5564564773146896  0.0456796974522266
  0.9992923372771618  0.6819430116259459  0.5326975374586419
  0.1866359711310787  0.7153323582838150  0.4796905964058445
  0.4439588821172171  0.9848622527840910  0.7093216754288765
  0.6587453170788212  0.8080731091129377  0.0080531539382370
  0.6578187490619354  0.7379872335471720  0.6312705128765745
  0.0434099629812380  0.0556411467259363  0.1152653590202678
  0.2674091576273787  0.3043519259048296  0.5462046712148840
  0.7585127624299017  0.6520900942310757  0.0452852160188560
  0.2860501357699974  0.3377408146300703  0.7545194223415349
  0.1104882559355660  0.4325055268443803  0.4373460650632036
  0.1015088996954107  0.7009156732210834  0.2823587651709864
  0.7352871018656266  0.7684613116158114  0.0866803835458123
  0.7794577084260389  0.1398075826214042  0.3486072177771409
  0.5379222987327369  0.4875514070819897  0.9812514350418297
  0.5054678431252748  0.2229912501975128  0.2204018365635591
  0.1585869853964909  0.2798466678317680  0.1866225992232683
  0.5075228891464458  0.8402072486112496  0.8921268070047309
  0.3355429485325287  0.8085218936516010  0.5617250430642081
  0.8294304530128178  0.8115011879617530  0.2604441248468303
  0.0975992443599876  0.3602946071596031  0.2499926813198773
  0.3620697254555629  0.1574107017806500  0.6351035904194370
  0.7469059701024277  0.4065418938409674  0.0231390855378070
  0.0436104193090586  0.6342942578407630  0.7052425038743987
  0.6571154048014423  0.8125773795693253  0.3773149542488445
  0.2344134665953417  0.4308019600167253  0.0251430664250380
  0.1991279070748813  0.2034550056691443  0.3527583005572461
  0.6348834401836573  0.6967158346939057  0.1984153496377363
  0.7923841823864718  0.7154992257006654  0.2192676235638766
  0.7297922832175132  0.1142879076931508  0.8491588263651372
  0.5317084630663154  0.3230178321825021  0.0643304633642998
  0.4568400142670541  0.3204862093825594  0.5408160056824870
  0.8078094801554807  0.5908555295592339  0.6946751851710136
  0.1480251303432721  0.1857279535817474  0.2469703198541248
  0.5436850380445066  0.2869971638441994  0.6995647540409990
  0.1986074058399247  0.2946789949453569  0.8328701267231668
  0.0143885179054666  0.7470427002119171  0.7121623695594715
  0.9512739364697681  0.6107404072413524  0.1908924191551283
  0.4311732156939115  0.5550507154316222  0.9790076448619903
  0.7146729017211323  0.5034190865358962  0.8520871205545251
  0.2362166101668525  0.8603007082918648  0.3196681888450227
  0.1177224135966560  0.2388603747712606  0.4323883662482265
  0.7998399850755443  0.1990864406904457  0.8786190599810290
  0.3702572864062285  0.8167096492066104  0.1634834652251714
  0.0137566830716587  0.0062217048030505  0.5505499418722093
  0.0185254680622035  0.4476071059783133  0.5022189946271917
 
  0.94726215E-03 -0.14075921E-03 -0.77599707E-03
  0.13824077E-02 -0.54787968E-03  0.97611625E-03
 -0.96448567E-03 -0.19587390E-03  0.84496475E-03
 -0.14181710E-02  0.10856313E-02 -0.23015350E-02
 -0.38320936E-03  0.43230347E-03  0.30813276E-03
  0.59564918E-03 -0.34233409E-04 -0.11357375E-02
  0.15422733E-02 -0.63392110E-03  0.26438322E-03
  0.93307900E-03  0.85193753E-03  0.13352526E-02
 -0.29274297E-03  0.25518387E-03 -0.30400700E-03
 -0.64845441E-03  0.15714861E-03 -0.83724080E-03
  0.58975753E-03  0.41389154E-03 -0.15770551E-03
  0.23954573E-02 -0.36508273E-03  0.98377008E-03
  0.25494953E-02  0.63045573E-03  0.38241532E-03
  0.14069647E-02  0.30733352E-03  0.18097368E-02
  0.13210656E-03  0.10168037E-02  0.29712189E-03
 -0.59649347E-03 -0.21163664E-02  0.11539575E-02
  0.65336470E-03 -0.24102551E-03  0.22610965E-02
 -0.23106434E-03  0.13917535E-02 -0.33713114E-03
 -0.98810220E-03  0.61208893E-03 -0.92518229E-03
  0.58671148E-03 -0.15006552E-02 -0.24840141E-02
  0.56735890E-03 -0.93117847E-04 -0.28195006E-02
 -0.63229724E-03 -0.20059621E-02  0.10040428E-02
 -0.94777354E-03 -0.14152612E-02 -0.55203315E-03
 -0.52704555E-03  0.20682215E-02 -0.22704242E-02
 -0.15498385E-02 -0.50551788E-03  0.25578588E-02
 -0.16971143E-02 -0.87891325E-03 -0.13218998E-02
 -0.56688662E-03 -0.67685283E-03 -0.57862418E-03
  0.15596929E-02 -0.80159792E-04 -0.54887097E-03
  0.57273412E-03 -0.81038045E-03  0.24930825E-02
  0.43924871E-03 -0.14037491E-02  0.32462261E-02
  0.45486770E-04  0.61596277E-03 -0.15355206E-03
  0.15099328E-02  0.68242768E-03 -0.87145537E-04
  0.26487224E-03 -0.12964949E-02  0.12800341E-02
  0.33098481E-03  0.43566272E-03  0.15030269E-02
 -0.97200853E-03  0.11790364E-02  0.54855965E-03
 -0.11994418E-02 -0.10691512E-02  0.27425075E-03
 -0.36056598E-03 -0.10534254E-02 -0.64790651E-03
 -0.22225557E-03  0.23993217E-02 -0.10320773E-02
 -0.18632366E-02 -0.92545968E-04  0.11108828E-02
 -0.40632200E-03  0.16474745E-02 -0.22678982E-02
 -0.12326475E-02  0.18334172E-02 -0.61344348E-03
 -0.72577880E-03 -0.11485087E-02  0.52924133E-03
 -0.25326118E-03 -0.61249598E-03 -0.24232722E-02
 -0.24624099E-03 -0.34182237E-03  0.13379567E-02
  0.10838831E-02 -0.61672774E-03 -0.28299346E-03
  0.92301900E-03 -0.68116932E-03 -0.19133957E-02
 -0.56772945E-03  0.23915866E-02  0.21945581E-02
 -0.12133365E-02 -0.84040103E-04  0.56040038E-03
 -0.14214339E-02  0.17261944E-02 -0.60656359E-03
 -0.92468059E-03  0.53326136E-03  0.26201958E-03
  0.92149509E-04  0.16297491E-03 -0.10625883E-02
 -0.88510288E-03  0.20288444E-03  0.10613517E-03
  0.73872074E-03 -0.30829166E-03 -0.62385688E-03
  0.55762454E-03 -0.29905678E-04  0.10390263E-02
  0.14413944E-02 -0.14095161E-02 -0.50039908E-04
 -0.20021658E-02  0.86442310E-03  0.25162191E-02
  0.17546398E-02 -0.17914249E-02  0.26895251E-03
  0.20886725E-03 -0.19260653E-02 -0.28582808E-02
 -0.76166511E-03  0.21316913E-02  0.14477513E-02
 -0.33544054E-03 -0.13662350E-02 -0.23591877E-02
 -0.24965123E-03 -0.29049839E-02  0.55340178E-02
 -0.24098708E-02 -0.56566530E-03 -0.40868891E-02
 -0.20036679E-02  0.24964745E-02 -0.11017688E-02
  0.21083756E-02  0.13592661E-02  0.13536033E-02
  0.20299128E-02 -0.32201841E-02  0.29277861E-03
 -0.30149336E-03 -0.11539944E-02  0.62094047E-03
  0.20009669E-03  0.34026073E-03  0.17159268E-03
  0.20471687E-03  0.17087172E-02  0.41041203E-03
  0.53647921E-02  0.14199088E-02 -0.29084891E-03
  0.24094970E-02  0.39889665E-03  0.29390419E-02
  0.11493151E-02  0.46647440E-03 -0.23952305E-02
 -0.38948803E-02 -0.13521022E-02  0.46750806E-03
 -0.32661812E-02 -0.30645512E-02 -0.19047727E-02
 -0.10479459E-02  0.15557156E-02 -0.15250572E-02
 -0.29015455E-02 -0.15770054E-02 -0.13407655E-02
  0.51689846E-02 -0.97889886E-03 -0.13259390E-03
 -0.13513377E-02  0.19676941E-02 -0.23744008E-02
  0.41559648E-03 -0.12463528E-02 -0.76591357E-03
 -0.20742531E-02  0.36058989E-02  0.65339331E-03
  0.24062385E-02  0.15257192E-02  0.89213161E-03
  0.14082154E-02  0.19527153E-02 -0.37597915E-03
 -0.72450404E-03 -0.66307561E-03  0.67505239E-03
 -0.15534032E-02 -0.17369123E-02  0.33479914E-02
 -0.17265824E-02  0.28565728E-02  0.76218193E-03
  0.20402256E-02 -0.15574472E-02  0.28041815E-02
 -0.53618531E-02  0.61370682E-03 -0.51618992E-03
  0.30415441E-02  0.23279429E-03  0.44639199E-02
  0.14963657E-02 -0.22517163E-03  0.50085488E-03
  0.73910636E-02 -0.26428526E-02 -0.64539581E-03
 -0.22283002E-02  0.71393965E-03 -0.87693610E-03
 -0.22326641E-03 -0.51081484E-02 -0.41470217E-02
  0.34040224E-02  0.16440841E-02 -0.28369047E-02
 -0.29748676E-02  0.32931449E-02  0.50339997E-03
  0.44480313E-02 -0.21415919E-02  0.16028921E-02
  0.49116736E-03  0.40647649E-02  0.73004221E-03
  0.11927126E-02 -0.57433163E-03  0.66800020E-03
 -0.20101678E-02 -0.56295817E-02 -0.25159249E-02
  0.17729041E-02  0.11609476E-02  0.18530386E-02
  0.24924603E-03  0.15987882E-02 -0.19685892E-02
 -0.53175381E-03  0.69659443E-02  0.37578103E-02
  0.64797884E-02 -0.28580561E-04 -0.31755241E-02
  0.13904946E-02  0.16496444E-02  0.17886924E-02
  0.32698573E-02  0.49867496E-02  0.51367876E-02
 -0.30191179E-02  0.19380374E-02  0.37551523E-02
  0.82892995E-04  0.23615273E-02  0.99545987E-03
 -0.56078642E-02 -0.27046326E-02 -0.30934056E-02
  0.15774715E-02 -0.37449145E-02  0.21870990E-02
  0.10825974E-03 -0.21729045E-02 -0.21815406E-02
  0.20833670E-02 -0.22791420E-02  0.18361242E-02
 -0.40810567E-03 -0.17034516E-02  0.28782515E-03
  0.69928659E-03 -0.47149175E-03 -0.22158725E-02
  0.27759896E-03  0.43031898E-02  0.25778545E-02
  0.15670164E-03 -0.19057349E-02  0.22833621E-02
 -0.63646065E-02  0.48215301E-02 -0.44682263E-02
  0.33521528E-02 -0.21170236E-02 -0.36502264E-02
  0.59611962E-02 -0.39541983E-02 -0.10251421E-02
 -0.18853759E-02  0.77133038E-03  0.27276256E-02
  0.22305413E-02 -0.42742663E-02  0.21770775E-02
 -0.19777292E-02  0.43501324E-02 -0.17930107E-02
 -0.34999717E-02  0.76162411E-03  0.31854757E-02
  0.35589165E-02  0.14073948E-02 -0.14268714E-02
 -0.40127437E-02 -0.52128862E-03 -0.15740671E-02
 -0.22440002E-02  0.52916825E-02 -0.25534275E-02
 -0.33906329E-02 -0.41763269E-03 -0.11157307E-02
 -0.56242231E-02 -0.14132584E-02 -0.55143646E-02
  0.10203323E-02 -0.26621237E-02 -0.19717199E-02
 -0.28940767E-02 -0.30022715E-03 -0.93863166E-03
  0.15068030E-02  0.34017785E-03  0.28826689E-02
 -0.40297760E-02 -0.43858779E-03  0.80010005E-02
 -0.19259689E-02  0.11566451E-02  0.23334033E-02
 -0.41690563E-02 -0.56549269E-02  0.37965201E-02
  0.12786724E-03  0.66996127E-03  0.75226740E-03
 -0.13951243E-02  0.22078300E-02 -0.63994096E-03
  0.46098229E-02 -0.94693575E-03 -0.60875727E-02
  0.34008123E-02 -0.77899288E-02  0.27248922E-03
  0.10230740E-02  0.22579314E-02  0.11293737E-02
  0.69996180E-02  0.20639935E-02 -0.79741285E-03
 -0.53422374E-02 -0.48194735E-03 -0.24875600E-03
 -0.43747313E-02 -0.14855053E-02 -0.35998703E-02
 -0.37313122E-02 -0.27900970E-03  0.42164114E-03
 -0.34931846E-02  0.30255437E-02 -0.43320512E-03
  0.54608823E-02 -0.31628972E-02  0.10934436E-02
 -0.34494983E-03 -0.12851209E-02  0.24099128E-02
  0.36725370E-02  0.17653862E-02  0.17798506E-02
 -0.28384058E-02 -0.24716642E-02 -0.82160239E-02
  0.43166275E-02  0.52766618E-02 -0.26123152E-02
 -0.34220787E-03  0.41677122E-02 -0.33727385E-02
 -0.25237262E-02  0.13366026E-02 -0.18968616E-02
 -0.13336181E-02 -0.29769671E-02  0.19955608E-02
  0.77193048E-02  0.35724597E-02  0.26919373E-02
  0.65367287E-03  0.16305607E-02 -0.48923444E-02
 -0.34030557E-02 -0.42966016E-02  0.26176517E-02
 -0.27046546E-02  0.26494935E-02 -0.19683972E-02
  0.24446635E-02 -0.64874354E-02 -0.84410861E-03
  0.22508515E-03 -0.47522891E-03 -0.21129734E-03
  0.19151086E-02 -0.33223260E-02 -0.11751820E-02
 -0.18328521E-02  0.36635826E-02 -0.17638087E-02
 -0.19743462E-02 -0.98965144E-03 -0.32238910E-02
  0.52519085E-02  0.15621040E-02 -0.28557822E-02
 -0.19982623E-02  0.78103399E-03  0.19299235E-02
 -0.15250197E-02  0.11353309E-02 -0.28099835E-02
 -0.35293261E-02  0.26798744E-02 -0.31767793E-02
  0.10997933E-02 -0.43326252E-02 -0.25580458E-02
  0.44570594E-03  0.21049306E-02 -0.78807087E-03
  0.12237057E-02 -0.56193704E-03  0.27743254E-02
  0.25306159E-03  0.19336840E-03  0.10583186E-02
 -0.30637269E-02  0.98305608E-03 -0.34547229E-03
  0.29043308E-03 -0.12957165E-02 -0.11375594E-02
 -0.29460332E-02 -0.19656146E-02 -0.44157398E-02
 -0.87404153E-03  0.14439556E-02 -0.14411356E-02
  0.38590696E-02  0.76131184E-03  0.83610976E-03
 -0.27998295E-02  0.11334962E-02  0.12966001E-02
  0.28536067E-02 -0.23595980E-02 -0.34071841E-03
  0.82401778E-04  0.26150714E-02 -0.19586173E-03
  0.57382954E-02  0.34744149E-02 -0.36600795E-03
  0.40405073E-02  0.80082057E-03 -0.27076957E-03
 -0.14358778E-02 -0.41252924E-02 -0.20320357E-02
  0.48788011E-03 -0.24812365E-02 -0.16636058E-03
  0.23552500E-02  0.88512093E-03 -0.11014392E-02
  0.84513404E-03  0.19401129E-02  0.39634826E-03
  0.36127518E-02  0.26496416E-02  0.20103862E-02
 -0.57849304E-03 -0.64358138E-02 -0.13683612E-02
 -0.13821939E-02 -0.23140506E-02  0.37716858E-03
  0.23485623E-02  0.26452644E-02 -0.80289940E-03
  0.23026700E-02 -0.34619863E-02  0.28172874E-02
 -0.31057689E-03  0.95254321E-03  0.40976028E-02
  0.18690008E-02  0.15127397E-02 -0.21073070E-02
 -0.29553910E-02 -0.23161046E-02  0.44260376E-02
  0.38491058E-03 -0.91377490E-03 -0.38267922E-02
 -0.16025999E-02  0.87307457E-03  0.20365923E-02
  0.16408296E-02  0.15925366E-02 -0.82082421E-03
  0.31784243E-02 -0.61795160E-03 -0.58096066E-03
 -0.50524709E-02  0.30606643E-02  0.56674491E-02
  0.18389984E-02  0.37035071E-02  0.15871011E-02
 -0.13509506E-02 -0.50084106E-03 -0.89435385E-03
  0.23638749E-02 -0.26564829E-02 -0.27953577E-03
 -0.32706039E-02  0.26724524E-03  0.57641724E-03
 -0.15142694E-02 -0.52564972E-04  0.41263664E-03
 -0.37374725E-02 -0.71000290E-03 -0.20826111E-02
 -0.12752276E-02  0.92420845E-03 -0.37511749E-02
 
           1
   3.00000000000000     
  0.10000000E+01  0.00000000E+00  0.00000000E+00  0.00000000E+00
  0.33695268E+00  0.34328558E+00  0.40592232E+00
  0.73551477E+00  0.95988201E+00  0.31876242E+00
  0.64107665E+00  0.36229718E+00  0.56773858E+00
  0.62579244E+00  0.23844698E+00  0.88340044E+00
  0.48189161E+00  0.73060179E+00  0.63713055E+00
  0.34176842E+00  0.34269010E+00  0.21870345E+00
  0.93051445E+00  0.23699893E+00  0.30487921E+00
  0.70059912E+00  0.94534646E+00  0.92649481E+00
  0.28909100E+00  0.67774814E+00  0.32481160E+00
  0.18935653E+00  0.47577266E+00  0.58543497E+00
  0.19549339E+00  0.81243566E+00  0.26021771E-01
  0.34695662E+00  0.99440391E+00  0.96381298E+00
  0.64626898E+00  0.64183614E+00  0.42034381E+00
  0.90148436E+00  0.34512811E+00  0.99707133E+00
  0.95029142E+00  0.85840593E+00  0.14795406E+00
  0.39973924E+00  0.57887672E+00  0.16682318E+00
  0.88975240E+00  0.63735088E+00  0.86894102E+00
  0.10336115E+00  0.48289906E+00  0.86824358E+00
  0.14885361E+00  0.21595640E+00  0.65060397E+00
  0.29329991E+00  0.31185411E-01  0.24506285E+00
  0.34910988E+00  0.63171256E+00  0.75758866E+00
  0.68407107E+00  0.71239817E+00  0.85236368E+00
  0.13835672E+00  0.90217612E+00  0.18153913E+00
  0.51361113E+00  0.71122893E+00  0.58331184E-01
  0.74322100E+00  0.44443959E+00  0.21881436E+00
  0.97750844E-01  0.88334187E+00  0.43143480E+00
  0.40880783E+00  0.40560271E+00  0.89693784E+00
  0.98317712E+00  0.10470729E+00  0.67983630E+00
  0.85299409E+00  0.52540577E+00  0.52393573E+00
  0.12672537E+00  0.17555294E+00  0.97107027E+00
  0.12791985E+00  0.51697023E+00  0.17637936E+00
  0.90083283E+00  0.82807666E+00  0.43454580E+00
  0.72684256E+00  0.20122858E-01  0.67899996E+00
  0.61025973E+00  0.89857702E-01  0.21226828E+00
  0.57320920E+00  0.88938189E+00  0.12883302E+00
  0.85216432E+00  0.89206540E-01  0.19003656E+00
  0.79563622E+00  0.30810271E+00  0.42513144E+00
  0.27273119E+00  0.98834268E+00  0.72346896E+00
  0.56199566E+00  0.30585536E-01  0.83783964E+00
  0.27004105E-01  0.68559990E+00  0.60801048E-01
  0.21925182E+00  0.70904869E+00  0.85292283E+00
  0.82574470E+00  0.34918464E+00  0.78838413E+00
  0.41047655E+00  0.20655994E+00  0.80189828E+00
  0.47881447E+00  0.47722928E+00  0.41242051E+00
  0.95986239E+00  0.13210501E+00  0.87016369E+00
  0.56204144E+00  0.90264359E-01  0.58269713E+00
  0.46250764E+00  0.91476619E+00  0.53813826E+00
  0.81971228E+00  0.83336926E+00  0.70045566E+00
  0.17449030E+00  0.77652298E+00  0.64364976E+00
  0.27369165E+00  0.51740653E-01  0.43198541E+00
  0.50708478E+00  0.77581029E+00  0.28762009E+00
  0.40964636E-02  0.55013795E+00  0.34763356E+00
  0.31509482E+00  0.24054436E+00  0.96873000E+00
  0.86956307E+00  0.99460323E+00  0.99397468E+00
  0.64940316E+00  0.55508200E+00  0.60959774E+00
  0.73843980E+00  0.18973074E+00  0.50181603E-01
  0.55106863E+00  0.27334618E+00  0.36425523E+00
  0.99789593E+00  0.40105914E-01  0.30733641E+00
  0.33823431E+00  0.88193039E+00  0.37099915E+00
  0.95806979E+00  0.33392279E+00  0.48464477E+00
  0.42359082E+00  0.86972462E+00  0.72501832E+00
  0.83148660E+00  0.82240848E+00  0.88886263E+00
  0.36647024E+00  0.16351779E+00  0.11011282E+00
  0.96509810E+00  0.46979627E+00  0.70466551E+00
  0.74556893E+00  0.47820559E+00  0.39961742E+00
  0.31519347E+00  0.91127788E+00  0.11853413E+00
  0.97219216E+00  0.91564197E+00  0.77192137E+00
  0.38121462E+00  0.79056890E+00  0.42499889E+00
  0.92223108E+00  0.94881489E+00  0.30472294E+00
  0.52237627E+00  0.97082672E+00  0.33752074E+00
  0.97775043E+00  0.36335890E+00  0.19274413E+00
  0.58270327E+00  0.60135205E+00  0.24416680E+00
  0.46120259E+00  0.98917297E+00  0.24366241E+00
  0.39968494E+00  0.84036825E+00  0.83672015E+00
  0.52843305E-01  0.45644825E+00  0.24359688E-01
  0.86805706E+00  0.65747295E+00  0.39038481E+00
  0.46752543E-01  0.27271147E-01  0.29696862E-02
  0.56508871E+00  0.62591087E+00  0.74745686E+00
  0.57492084E+00  0.40999542E+00  0.23538816E+00
  0.50179684E+00  0.53468543E+00  0.76467127E+00
  0.48694576E+00  0.59370990E+00  0.52110412E+00
  0.57244351E+00  0.36808741E+00  0.78104759E+00
  0.75039519E+00  0.70717220E+00  0.56095082E+00
  0.67666627E+00  0.19641250E+00  0.51131246E+00
  0.45166952E-01  0.15449416E+00  0.46556385E+00
  0.34070145E+00  0.39059113E+00  0.55457185E-01
  0.50331947E+00  0.43271196E+00  0.15331002E+00
  0.84036009E+00  0.67886218E+00  0.62231000E+00
  0.38944063E+00  0.18865409E+00  0.35896516E+00
  0.56606991E+00  0.16983598E+00  0.73320705E+00
  0.96404654E+00  0.53314540E+00  0.14204500E-01
  0.89924776E+00  0.53631363E+00  0.11657999E+00
  0.41698560E+00  0.54373112E+00  0.60339865E+00
  0.71759997E+00  0.45520074E+00  0.74878714E+00
  0.44251040E+00  0.12200475E+00  0.43950974E+00
  0.65350423E+00  0.40408145E+00  0.40777405E+00
  0.99571610E+00  0.28631955E+00  0.76629943E+00
  0.11374420E-01  0.77901713E+00  0.58470911E+00
  0.54550513E+00  0.75384056E-01  0.38179604E+00
  0.36258613E+00  0.29775369E+00  0.60656948E+00
  0.30364423E+00  0.54769410E+00  0.44672104E+00
  0.99242998E+00  0.16810572E+00  0.11114487E+00
  0.13377403E+00  0.99729308E+00  0.85625248E+00
  0.47532342E+00  0.13827053E+00  0.95425963E+00
  0.70630133E+00  0.40523040E+00  0.91431715E+00
  0.91460083E+00  0.40753717E+00  0.28377063E+00
  0.10352523E+00  0.15356118E-02  0.30482274E+00
  0.22499874E+00  0.51662772E+00  0.36092852E+00
  0.10360092E+00  0.74837309E-01  0.53642414E+00
  0.51815152E+00  0.92483512E+00  0.96721897E+00
  0.25779759E+00  0.11976571E+00  0.81202587E-01
  0.19156855E-01  0.29713318E+00  0.88164530E+00
  0.16400520E+00  0.61192146E+00  0.71058449E+00
  0.80202340E-01  0.97032001E+00  0.75183360E+00
  0.48099278E+00  0.46842397E+00  0.66894491E+00
  0.75023698E+00  0.94796653E+00  0.14554085E+00
  0.33007477E+00  0.72199320E+00  0.11435899E+00
  0.69457640E+00  0.19354505E-01  0.73883647E-01
  0.79002588E+00  0.92467216E+00  0.55623151E+00
  0.66014250E+00  0.61872778E+00  0.14513867E-02
  0.69704232E+00  0.96183863E+00  0.49962837E+00
  0.16655203E+00  0.61865504E+00  0.98339557E+00
  0.90542418E+00  0.81088876E+00  0.97966316E+00
  0.63623785E-01  0.73211535E+00  0.90146697E+00
  0.72224209E+00  0.21886387E+00  0.28515132E+00
  0.28343981E-01  0.78815466E+00  0.29626387E+00
  0.28134939E+00  0.91192475E+00  0.54544339E+00
  0.58680821E+00  0.26842968E+00  0.14257111E+00
  0.83474775E+00  0.13517420E+00  0.56451537E+00
  0.28138854E+00  0.48431772E+00  0.26861207E+00
  0.47369723E-01  0.37542649E+00  0.70825008E+00
  0.58242234E+00  0.52637142E+00  0.79593999E-01
  0.49325359E+00  0.61228753E+00  0.32192374E+00
  0.90460324E+00  0.17036100E+00  0.32526963E-01
  0.46243588E+00  0.94100107E-01  0.65601684E-01
  0.79253879E+00  0.26831140E+00  0.19855032E+00
  0.26724041E+00  0.11877013E+00  0.58897054E+00
  0.44024907E+00  0.65316946E+00  0.90934062E+00
  0.25424045E+00  0.45476506E+00  0.74330676E+00
  0.62060738E+00  0.87358810E+00  0.46916895E+00
  0.28960771E+00  0.50623432E+00  0.84529054E+00
  0.11548580E+00  0.63293677E+00  0.51235326E+00
  0.92702690E+00  0.47834575E+00  0.81227203E+00
  0.81760157E+00  0.32373801E+00  0.60970975E+00
  0.92118199E+00  0.27951641E+00  0.57992326E+00
  0.78670805E+00  0.63210912E+00  0.31194036E+00
  0.74063542E+00  0.18162741E+00  0.60527135E+00
  0.65895353E+00  0.88707424E+00  0.75395831E+00
  0.19552415E+00  0.18025538E+00  0.80745910E+00
  0.88555129E+00  0.99476963E+00  0.78407391E+00
  0.16339463E+00  0.71035121E+00  0.18118656E+00
  0.22145478E+00  0.91981243E+00  0.87699375E+00
  0.19193791E-01  0.83391886E+00  0.94509048E+00
  0.62079318E+00  0.85373866E+00  0.65020652E+00