Ge Sb Te                                
   1.00000000000000     
    13.2492088473267469   -0.0000000264961705    0.0000000000000000
    -6.6246059537241555   11.4482659858063300    0.0000000000000000
     0.0000000000000000    0.0000000000000000   74.8501217186323373
   Ge   Sb   Te
    27   108   189
Direct
  0.8430174099626367  0.9368746772986351  0.2754969042828574
  0.1332135093007373  0.3007598978246821  0.4360829602115458
  0.3794105273862529  0.4019537340404671  0.7719318261217507
  0.2607338833850162  0.4776914315336028  0.1923055216026568
  0.6091079902530689  0.1679412674229626  0.5504647210431709
  0.9970550494633598  0.0073502600438917  0.8762063768037510
  0.9716924303767556  0.2729493120615887  0.1628012346086805
  0.1836522361092563  0.9768655718114989  0.4225056507291121
  0.4908979100889603  0.1743725693263228  0.8846303121762268
  0.8637792093352963  0.1530877549547121  0.2710500169252065
  0.8969152231697621  0.1187248943446402  0.6124274542517569
  0.2844118479670493  0.5201822413452593  0.8652353457649287
  0.9523906947981483  0.1285997772075855  0.1098903055511122
  0.0504151275982994  0.5529020863181339  0.5364036398703574
  0.8882398749500894  0.6886549580841739  0.8627044758635177
  0.3720052549441382  0.8660972954284308  0.1537401510657445
  0.7368818968780576  0.6888914885055232  0.5961722069397078
  0.3991253528210417  0.4057885356657434  0.8698354159599769
  0.4242948996298894  0.4315833390060003  0.1290436195565839
  0.4924309368097382  0.3556151091620011  0.4336943345511368
  0.2893559607918991  0.6987340426034674  0.9140349967443980
  0.9044762712207024  0.4617774162588731  0.2029389688041899
  0.5358369093163283  0.2230481933495287  0.4539577684751663
  0.8464604563306340  0.0986880353839251  0.8382090532578395
  0.0771319616263931  0.4001846320403009  0.2421802637789237
  0.1865364383445030  0.1037612819945491  0.5500457772433291
  0.0487048053204701  0.8857982415820350  0.7786284461820779
  0.8804714154614340  0.6095174048892881  0.2460302912097538
  0.6794727897878451  0.3931582952356997  0.6446230441002616
  0.6658886245987108  0.6846331589480944  0.9944136062951805
  0.5869653958305013  0.5482915310973491  0.2824156834053564
  0.4574981642178774  0.3149506509858157  0.5924868402715164
  0.5463127372527625  0.6513929222802826  0.9064222810153075
  0.7675028604872572  0.3993156028728913  0.3392394767855865
  0.6163051761511537  0.1381396089337200  0.6406109548193208
  0.7175678874113339  0.7361550887044890  0.9564204480028824
  0.7188081456825304  0.8160919525088801  0.2405774574322425
  0.8548427267069788  0.1464430835030291  0.5323765356732146
  0.5054431730248891  0.1275468259051467  0.9944938002472788
  0.3118543895619071  0.1848102801813721  0.2593814039493565
  0.6331277691865030  0.1309356465915130  0.7174596277182888
  0.9260574758311392  0.6518935641155388  0.0344871068124569
  0.3414715832685464  0.8974090548056447  0.2834345488293334
  0.1478213098492654  0.5627912782337084  0.5726862168017540
  0.6485467494038890  0.2114022143213650  0.1673691142841648
  0.2862023736478487  0.8823501150814806  0.3683921771486900
  0.0303337793632235  0.8239805256422276  0.6386736749897743
  0.9345104229501299  0.9843788740779511  0.9708170944616912
  0.9709571408848277  0.8615348464847039  0.2555770274514124
  0.2884345245398851  0.7055807986929480  0.6251518895496094
  0.9906793460077601  0.2882045731480160  0.8962424404095755
  0.1197431302447349  0.8492954199030291  0.2050033028325278
  0.2308083043431998  0.2242169427018827  0.6420291275809699
  0.1136114836684218  0.4352036868610437  0.9584037592015160
  0.0496816835738496  0.5517169376955205  0.0770228624279139
  0.9721523548607341  0.0585060372562282  0.4340445317788745
  0.3552536594733350  0.9427300523856875  0.7589310283192440
  0.8982381567407581  0.4255125642958673  0.2909855723043810
  0.6687713014908701  0.6565905254296742  0.4449329541017360
  0.1354982643360431  0.7786288406576537  0.9076507313636103
  0.2475159091077332  0.1975770141410899  0.0800379325138833
  0.3707358648351030  0.5815306983273989  0.3591558772500751
  0.4576504340508384  0.6390638171027546  0.6545218383211461
  0.8502334387601440  0.3024239973726482  0.0790255130127740
  0.9692071173556008  0.8292268101229159  0.4493629150591357
  0.5984300015613678  0.3088470441430821  0.7436371518773326
  0.1959227749534795  0.1784476282537054  0.1183420947659135
  0.3356849526953876  0.8925763893660593  0.4269967987255231
  0.7509944981823002  0.4572941202165393  0.6818826418623511
  0.7711674257834604  0.7053395245406217  0.1545292373994953
  0.7623576377705118  0.9165953064370389  0.4857173107420391
  0.0630724252516546  0.1269484054225752  0.8089984749263465
  0.6615335861835356  0.1934342403652966  0.1281259515208950
  0.8414832663207923  0.5485200696456756  0.4297604205712968
  0.0820390058011013  0.9021793092707573  0.8165176268395546
  0.3773695749847255  0.0354001667350795  0.2105593927218373
  0.2656047783257522  0.6282657609548972  0.4206193236618535
  0.1064313509595421  0.0328149102211340  0.7505052217370525
  0.6496491871990994  0.4038945186448552  0.0355194840118457
  0.9069015744947038  0.9854175651388793  0.3642738909167196
  0.6302807015951930  0.2562520307252661  0.8141261018336045
  0.2656105639999655  0.4428494665357109  0.0159527182657352
  0.9310899558043457  0.2668448602479001  0.3306035209144715
  0.8764444586749682  0.3382701029278216  0.7090126105986108
  0.0717993655080993  0.9500903117342774  0.0738213160382763
  0.5676905295440782  0.3006029818877262  0.2957358578924781
  0.0050536968154124  0.3753438141982118  0.7424383922466067
  0.9289180004241052  0.7967549508812974  0.9924911023703905
  0.8560415700250096  0.6638818854872874  0.2842357442007671
  0.5527896074211454  0.8803802593788347  0.7064154451973659
  0.1258823499320267  0.0315494051052544  0.0359003453109815
  0.3446821752912738  0.6377595527667149  0.4945504952444929
  0.1631931807770152  0.2977356714671888  0.7257757203629792
  0.2220862006545643  0.4294851369009559  0.1137909534047373
  0.4801364418955423  0.5170071790449116  0.4042740714358558
  0.0679912761055371  0.5470174257198949  0.7794039290253933
  0.5218365993845266  0.0248740988710562  0.0493326182736546
  0.8160033578907634  0.0081558627867259  0.3299626468271569
  0.8571420540273691  0.1247808570821643  0.7532756507410751
  0.4849782642863611  0.4680115657631850  0.0745868224180174
  0.1236261040478327  0.4152567291088833  0.4929781507841576
  0.0648133731332086  0.6138352496698997  0.6057706221041818
  0.0442888159603080  0.2492055030835221  0.0727561179559614
  0.4591718620137292  0.4112735426314916  0.3691182990497635
  0.6077023084281223  0.5218815076147562  0.7317295427131132
  0.9339577358862472  0.5167437057216484  0.9521388369566325
  0.5203132588224832  0.2227332672723208  0.3879824889835222
  0.2611951723013292  0.8089467542369546  0.6834361048730160
  0.0130086279713730  0.3319092028849114  0.2065688803553929
  0.4655624904003635  0.6078372743234139  0.5622955965166752
  0.6162839176687824  0.9331157578118425  0.7995554073562983
  0.7204548616082449  0.0346847583963838  0.1733094385368986
  0.5114850068007946  0.9905105821318126  0.5248851728352938
  0.7197280128366158  0.4784511328587532  0.9036953928784752
  0.0912508975187023  0.5992412431328531  0.3245706846927380
  0.1347042460224119  0.1402944225595998  0.5160141412349382
  0.9822743765556005  0.1298603505871359  0.9263532112263572
  0.4712973338305746  0.7641669989860501  0.0881259544390662
  0.9634059378682677  0.3464169304134133  0.6204675871950719
  0.2659407826232993  0.8356504167468850  0.9747067804368064
  0.2936006990589514  0.6856997816475351  0.2400706809847468
  0.3309530265202578  0.3302744061857756  0.5610984562317807
  0.9931759472239430  0.9345063538357552  0.9105415874051495
  0.6427544553341018  0.4471074655252681  0.1645428252614300
  0.2849603449542748  0.7305656639235367  0.5265288278429556
  0.6020977333024279  0.6226855984670489  0.8689906172570440
  0.6403835773391331  0.5631813502186727  0.2442771353851216
  0.2708999038749577  0.9512650559964506  0.5485751514131957
  0.0806721875540256  0.2033913058508173  0.7715607853631460
  0.6309910661664206  0.6667970065814007  0.3241290885431084
  0.9308926374516294  0.1602595118648746  0.5751974724600121
  0.4839221382847753  0.7426090364922830  0.8575153620533611
  0.8082017062292273  0.8609438496445864  0.2042508452962910
  0.4219501924824554  0.3361725055060057  0.5042881835146119
  0.5945975635636570  0.4222608228314786  0.8388475055335411
  0.0669227912716214  0.1143448370118018  0.1617996524027909
  0.4922339033325422  0.5611775493248228  0.5991059968665780
  0.7513711120200977  0.1260255196625841  0.8860090823920809
  0.3916357072646788  0.5025503114619836  0.3239315969987001
  0.2210671679617990  0.1629121942225784  0.6050462800505840
  0.7017300148501173  0.5167004187617042  0.9476389060846704
  0.3248869675124065  0.1341630103264246  0.2975451957040157
  0.1695034659912152  0.3713453739153580  0.5882213266919626
  0.4825442538017469  0.5417502309090089  0.9460467808714317
  0.3487886630296588  0.2303365022252954  0.2161707393563869
  0.6947510227700231  0.2206673197230977  0.6048225361065888
  0.6777626314544536  0.4127891882076069  0.0784535467316545
  0.3283044780185159  0.4232383283423573  0.2689314927950789
  0.0755750700598562  0.8327800981024255  0.6001187588245436
  0.7634996703210027  0.2467110492476246  0.9523614542441734
  0.8634442984541982  0.6557007805836166  0.1234883775232428
  0.6299152848928551  0.8583125217894954  0.4489959984778056
  0.9587772961155473  0.5138790079506189  0.9124863977430678
  0.5221434810484941  0.8757402204467559  0.2331287932870331
  0.7033431069653980  0.8194235269645667  0.6430420486209645
  0.6342669771706876  0.4445912790898572  0.9943992763594356
  0.2544019803200530  0.9140969131623644  0.2488853281464102
  0.1807563037806024  0.4176815849365548  0.6413758927277665
  0.1092723658077940  0.7046729885293828  0.8658183555198347
  0.3428757717807890  0.4858650171875630  0.2328485177865327
  0.9041977248649269  0.9562432308785253  0.5207458273400957
  0.3723126999807815  0.0015770347010026  0.9085906593265988
  0.5591428944025910  0.8146703590505504  0.0514635777463646
  0.5835761008222017  0.0107339317250418  0.2717213809638218
  0.5121219848110999  0.8975596051392909  0.6698781510260315
  0.4282286552519378  0.2027480777712851  0.0411862454163764
  0.6747470507511220  0.1843751493495744  0.3592820680486245
  0.0644273092957677  0.7951738504859286  0.7043408715767012
  0.8556011896847935  0.0012887317019382  0.0648696165868616
  0.1274242151402256  0.3245399060088641  0.3526135003587148
  0.8550100509274873  0.8080750461369223  0.7591542564128742
  0.6262398635023337  0.6778035405469055  0.0963824381967957
  0.0681883048033783  0.4371676325554187  0.4525142705396608
  0.8438699244553979  0.6694497703048460  0.8261279959015719
  0.7621318840425267  0.2244621064066994  0.0432768705697006
  0.2046125547838026  0.3964360291868161  0.4041877219153457
  0.2760131218387513  0.0091222549609253  0.6535116039281076
  0.4171473805601990  0.1686987844794020  0.1228955885057083
  0.4693870998249118  0.7285607269543369  0.3978052503727371
  0.5150343048267226  0.6839599124172702  0.8216065497320171
  0.1696598364273616  0.8283913343841197  0.0324530476039761
  0.6047461431670075  0.7770991709074585  0.2845167770410594
  0.5117373396884746  0.6279508417715458  0.6924875137506845
  0.2402077680046081  0.8606922717230158  0.0699312979739992
  0.4918693200561517  0.9907837177198571  0.3967081986059588
  0.1738667527686170  0.4020215954502637  0.6919840868819580
  0.4852814595184080  0.8511281511753204  0.1848554885899765
  0.9789045036714463  0.5343606620053339  0.3591252077426138
  0.1890342173047656  0.0582085026516697  0.6973693583327716
  0.3237800226322411  0.6634943070574871  0.2810716054885422
  0.8908389898676367  0.7190034958462169  0.6764131280456238
  0.7621294369998585  0.4372085746124405  0.8653275085801381
  0.0906101591233343  0.8730086149895870  0.1665053062618869
  0.6783147407391474  0.9890549160140822  0.5593751307954077
  0.8662284098520833  0.4767254088025561  0.9957380269113462
  0.5619572376068149  0.2749339047890503  0.2580860259787731
  0.9730698842757536  0.0221702166967995  0.6362969109692566
  0.0878829223782126  0.7904330676241655  0.9496782043802922
  0.0857446677997558  0.6492343935885574  0.2796966049338445
  0.4423121328337855  0.0815926130426653  0.5765183464307042
  0.0586048721364235  0.4683299713100894  0.8606840482699143
  0.4356188425789909  0.1397161779401962  0.3521949796336206
  0.9903034177564050  0.5253782338179742  0.4989142719447376
  0.7585461022613424  0.8744876261366114  0.9165558893114705
  0.0313711341384732  0.2941070903121884  0.2962847495316039
  0.3828005471456412  0.7675817274139469  0.5724650719529180
  0.4936176245824034  0.9368059689912802  0.0140659906968180
  0.8902244560961775  0.4539075637030869  0.1656442254597644
  0.3334953129416295  0.0369596679594237  0.5097851843172102
  0.8878716672092859  0.8629843981236607  0.0276535385452910
  0.7951676669072230  0.1027425810076624  0.2104674002581946
  0.4740686875785483  0.4334375400694224  0.6422402176101021
  0.4476741056228016  0.3377343609836553  0.9013478504977479
  0.0517051141896143  0.1855321473524284  0.2522272992866170
  0.7619808744874126  0.6379472986807826  0.6321166985433685
  0.2239310610428597  0.2961633645618525  0.9325043244759015
  0.5753632917317963  0.5804589060058585  0.0412649266991056
  0.7835735275026522  0.0559666035405317  0.4132980930319567
  0.3920859523379512  0.7565321959258720  0.7478331725253629
  0.2894158654516751  0.6426489764851042  0.0368203420785358
  0.4913683921385323  0.0012099367176737  0.4570733435164434
  0.2484132387983730  0.5024827442453722  0.8172489897912720
  0.0586592328841517  0.2392174171172585  0.0338747448406717
  0.1280641302562657  0.3420538931473578  0.5311299017725767
  0.3207123441699007  0.3358463542694668  0.8090882391235326
  0.0800649462048964  0.9116553938540044  0.1221313659900405
  0.7103818108713813  0.1265721459612315  0.5014726839895755
  0.7763269495859667  0.9379600604814090  0.8660377464088285
  0.4927792619954705  0.6359863295762748  0.1763676913174269
  0.7163866047115121  0.7272219982712199  0.4046423039255120
  0.2702808810560847  0.4998853632375427  0.9019045012932867
  0.6916149457645980  0.2731641446781300  0.2121972674585222
  0.1659436306096830  0.7818621290920881  0.4994382727218002
  0.6209726874174459  0.5751250976966480  0.7728659040210787
  0.1834830244985818  0.4598533600668493  0.1583246765147384
  0.3234037423102757  0.1997286255068535  0.4095497709905365
  0.8184451393012960  0.9248736988470938  0.8135023223365726
  0.6037453977840693  0.4378377044444228  0.2074632604078137
  0.7641419048886586  0.5656439521672783  0.5493316698643592
  0.3450495780479266  0.9609344326311626  0.7182499485601900
  0.2049448220052585  0.6407152186951495  0.2019073946117015
  0.9337231325271301  0.1247047641983606  0.4682310736468465
  0.3544248283310942  0.8722811536452492  0.7995074623760471
  0.2696912696228602  0.5112500907026404  0.0757181717416421
  0.0102134638678519  0.7329349798583881  0.5462477201990721
  0.9980023885238968  0.3269390035076375  0.8057810981987531
  0.8442422754433113  0.3440292748337284  0.2542931065313622
  0.5550317692933494  0.1871387917896001  0.6865203400037347
  0.3735786502678438  0.2222102613745475  0.8508749070035706
  0.5591544416738836  0.6757700606726522  0.1367909912360226
  0.6669412889895306  0.9729297731067182  0.6191553487449680
  0.1310211001329787  0.9492288529238870  0.8581330415148131
  0.8464265384302323  0.6538935222860606  0.2041721627784086
  0.3223866452914391  0.3429324489195375  0.4555985307862409
  0.8842932324772639  0.4661734551260209  0.8192994484776097
  0.9333963930662366  0.3007142305307148  0.1253808468180428
  0.5147881952083231  0.3232159931958745  0.5388921883018932
  0.6681494491672771  0.2441847191923401  0.9115649930929419
  0.0491524816043898  0.8327082905978856  0.3543712637822229
  0.7119169099485571  0.7649709745507729  0.5558959269653387
  0.3512343060911066  0.0678389719476396  0.8137182344533914
  0.8873896136288957  0.9756783591747197  0.1383570767273455
  0.1917017386274844  0.0198514722139568  0.4582612068097408
  0.6942423661990733  0.1503153169588381  0.7757112772808498
  0.3908231284002944  0.3731933733581684  0.1643118110743615
  0.9959376995850163  0.9851932919099193  0.5697130171996093
  0.6195085662266984  0.0561406734202227  0.8344248199230436
  0.7202432182160021  0.9993259176386574  0.0948651963230017
  0.4932443836229610  0.5752544360862384  0.5127055480780971
  0.5033600515209893  0.8536182566715473  0.9036359984428822
  0.3102290962127762  0.6555453457340422  0.9490894271720375
  0.0433714071338128  0.0034904066590023  0.2175954712911921
  0.8409123378705794  0.3564157940031737  0.5502848512516424
  0.1242705348480918  0.2133543883811455  0.9831958422131332
  0.0368880566272316  0.7830737314279519  0.3170905903221828
  0.3738289496468161  0.4960339425557273  0.7386907185343522
  0.7851444864853966  0.2156200483399975  0.9896576279532282
  0.6571541245721989  0.1431529918507674  0.3039612869229422
  0.7568948909360805  0.4998932884615725  0.5861304625312237
  0.1286290283504941  0.5154038730642210  0.9947101482270368
  0.9802457734908973  0.0027712989594704  0.3065583614799324
  0.7482585388480888  0.8502113707838016  0.7011967160701715
  0.4779446499556662  0.0293488962901715  0.9596933998994719
  0.6907712469791921  0.5517694585980062  0.3561504040588790
  0.3687764293659103  0.9639772701339522  0.6228395755338059
  0.2372854948516987  0.0120790248167000  0.9941442663793320
  0.3207423276843652  0.7606542962346179  0.3390884531538121
  0.3574154676962329  0.1936001726813338  0.7624535109208569
  0.7486154417921526  0.9654125002836162  0.9913162466742153
  0.9224982570727330  0.7080566570693211  0.4001412783439689
  0.8638993268911114  0.3218353091453492  0.6543822462281569
  0.2528460611610900  0.1570201870573747  0.9600077584123321
  0.6033457416739240  0.7809342708240871  0.3549525035083667
  0.5227921445141700  0.4048817985367510  0.6941368337726733
  0.4550079647856656  0.1727008638566285  0.0829644238473913
  0.1435772765814932  0.1008936943238102  0.3516755819952764
  0.1113206384975187  0.7604665796668971  0.7568280378457385
  0.2889412295551192  0.9019271611527707  0.1149850260078233
  0.0615252323817027  0.6661929615359831  0.4488804926438022
  0.1252580370137460  0.6776237277508907  0.8136395590185360
  0.2597912090116255  0.6628192755294969  0.1186812594707214
  0.1483873513429788  0.6917017357999622  0.3946032133240475
  0.0951100619060901  0.2326800624751353  0.8666795286199656
  0.6422616554547613  0.4278227553244557  0.1250727629470030
  0.4340076965722450  0.6083615004984705  0.4531010355521117
  0.3157280517506515  0.6207654183085523  0.7803294437292591
  0.3917342415169197  0.0657052835783651  0.1688756645022439
  0.8307666587433818  0.7374133175137882  0.4808404055177328
  0.9098315236181054  0.1008539838025323  0.7106589058140577
  0.4048806711690224  0.4725309484119803  0.9831016662325789
  0.7694713560264138  0.3116411717809864  0.4535959265538881
  0.6383373361567289  0.8306211614734095  0.7616915796604490
  0.0320987736216997  0.4914453018299531  0.0397479520236798
  0.0614977763785950  0.1449331597014412  0.6804532812775697
  0.8346946261095692  0.4969833659474067  0.7315741706559693
  0.8877719312066139  0.6529920295103008  0.0735043249990229
  0.9103475649642127  0.1823674595866951  0.3815997682736110
  0.6993416186847820  0.4062471356408469  0.7780857281021168
  0.5854453682864638  0.9468884266239150  0.1336383360579248
  0.6102282877107527  0.3807528696261321  0.4809609088432674
  0.1193810188686011  0.5889717783791195  0.7040573147951303
  0.1264983950396020  0.6742221602991311  0.1581252584558606
  0.8129006807164667  0.3315044985061311  0.4169738010463813
  0.1175020962239666  0.6587769112364515  0.6516345667292162
 
  0.00000000E+00  0.00000000E+00  0.00000000E+00
  0.00000000E+00  0.00000000E+00  0.00000000E+00
  0.00000000E+00  0.00000000E+00  0.00000000E+00
  0.00000000E+00  0.00000000E+00  0.00000000E+00
  0.00000000E+00  0.00000000E+00  0.00000000E+00
  0.00000000E+00  0.00000000E+00  0.00000000E+00
  0.00000000E+00  0.00000000E+00  0.00000000E+00
  0.00000000E+00  0.00000000E+00  0.00000000E+00
  0.00000000E+00  0.00000000E+00  0.00000000E+00
  0.00000000E+00  0.00000000E+00  0.00000000E+00
  0.00000000E+00  0.00000000E+00  0.00000000E+00
  0.00000000E+00  0.00000000E+00  0.00000000E+00
  0.00000000E+00  0.00000000E+00  0.00000000E+00
  0.00000000E+00  0.00000000E+00  0.00000000E+00
  0.00000000E+00  0.00000000E+00  0.00000000E+00
  0.00000000E+00  0.00000000E+00  0.00000000E+00
  0.00000000E+00  0.00000000E+00  0.00000000E+00
  0.00000000E+00  0.00000000E+00  0.00000000E+00
  0.00000000E+00  0.00000000E+00  0.00000000E+00
  0.00000000E+00  0.00000000E+00  0.00000000E+00
  0.00000000E+00  0.00000000E+00  0.00000000E+00
  0.00000000E+00  0.00000000E+00  0.00000000E+00
  0.00000000E+00  0.00000000E+00  0.00000000E+00
  0.00000000E+00  0.00000000E+00  0.00000000E+00
  0.00000000E+00  0.00000000E+00  0.00000000E+00
  0.00000000E+00  0.00000000E+00  0.00000000E+00
  0.00000000E+00  0.00000000E+00  0.00000000E+00
  0.00000000E+00  0.00000000E+00  0.00000000E+00
  0.00000000E+00  0.00000000E+00  0.00000000E+00
  0.00000000E+00  0.00000000E+00  0.00000000E+00
  0.00000000E+00  0.00000000E+00  0.00000000E+00
  0.00000000E+00  0.00000000E+00  0.00000000E+00
  0.00000000E+00  0.00000000E+00  0.00000000E+00
  0.00000000E+00  0.00000000E+00  0.00000000E+00
  0.00000000E+00  0.00000000E+00  0.00000000E+00
  0.00000000E+00  0.00000000E+00  0.00000000E+00
  0.00000000E+00  0.00000000E+00  0.00000000E+00
  0.00000000E+00  0.00000000E+00  0.00000000E+00
  0.00000000E+00  0.00000000E+00  0.00000000E+00
  0.00000000E+00  0.00000000E+00  0.00000000E+00
  0.00000000E+00  0.00000000E+00  0.00000000E+00
  0.00000000E+00  0.00000000E+00  0.00000000E+00
  0.00000000E+00  0.00000000E+00  0.00000000E+00
  0.00000000E+00  0.00000000E+00  0.00000000E+00
  0.00000000E+00  0.00000000E+00  0.00000000E+00
  0.00000000E+00  0.00000000E+00  0.00000000E+00
  0.00000000E+00  0.00000000E+00  0.00000000E+00
  0.00000000E+00  0.00000000E+00  0.00000000E+00
  0.00000000E+00  0.00000000E+00  0.00000000E+00
  0.00000000E+00  0.00000000E+00  0.00000000E+00
  0.00000000E+00  0.00000000E+00  0.00000000E+00
  0.00000000E+00  0.00000000E+00  0.00000000E+00
  0.00000000E+00  0.00000000E+00  0.00000000E+00
  0.00000000E+00  0.00000000E+00  0.00000000E+00
  0.00000000E+00  0.00000000E+00  0.00000000E+00
  0.00000000E+00  0.00000000E+00  0.00000000E+00
  0.00000000E+00  0.00000000E+00  0.00000000E+00
  0.00000000E+00  0.00000000E+00  0.00000000E+00
  0.00000000E+00  0.00000000E+00  0.00000000E+00
  0.00000000E+00  0.00000000E+00  0.00000000E+00
  0.00000000E+00  0.00000000E+00  0.00000000E+00
  0.00000000E+00  0.00000000E+00  0.00000000E+00
  0.00000000E+00  0.00000000E+00  0.00000000E+00
  0.00000000E+00  0.00000000E+00  0.00000000E+00
  0.00000000E+00  0.00000000E+00  0.00000000E+00
  0.00000000E+00  0.00000000E+00  0.00000000E+00
  0.00000000E+00  0.00000000E+00  0.00000000E+00
  0.00000000E+00  0.00000000E+00  0.00000000E+00
  0.00000000E+00  0.00000000E+00  0.00000000E+00
  0.00000000E+00  0.00000000E+00  0.00000000E+00
  0.00000000E+00  0.00000000E+00  0.00000000E+00
  0.00000000E+00  0.00000000E+00  0.00000000E+00
  0.00000000E+00  0.00000000E+00  0.00000000E+00
  0.00000000E+00  0.00000000E+00  0.00000000E+00
  0.00000000E+00  0.00000000E+00  0.00000000E+00
  0.00000000E+00  0.00000000E+00  0.00000000E+00
  0.00000000E+00  0.00000000E+00  0.00000000E+00
  0.00000000E+00  0.00000000E+00  0.00000000E+00
  0.00000000E+00  0.00000000E+00  0.00000000E+00
  0.00000000E+00  0.00000000E+00  0.00000000E+00
  0.00000000E+00  0.00000000E+00  0.00000000E+00
  0.00000000E+00  0.00000000E+00  0.00000000E+00
  0.00000000E+00  0.00000000E+00  0.00000000E+00
  0.00000000E+00  0.00000000E+00  0.00000000E+00
  0.00000000E+00  0.00000000E+00  0.00000000E+00
  0.00000000E+00  0.00000000E+00  0.00000000E+00
  0.00000000E+00  0.00000000E+00  0.00000000E+00
  0.00000000E+00  0.00000000E+00  0.00000000E+00
  0.00000000E+00  0.00000000E+00  0.00000000E+00
  0.00000000E+00  0.00000000E+00  0.00000000E+00
  0.00000000E+00  0.00000000E+00  0.00000000E+00
  0.00000000E+00  0.00000000E+00  0.00000000E+00
  0.00000000E+00  0.00000000E+00  0.00000000E+00
  0.00000000E+00  0.00000000E+00  0.00000000E+00
  0.00000000E+00  0.00000000E+00  0.00000000E+00
  0.00000000E+00  0.00000000E+00  0.00000000E+00
  0.00000000E+00  0.00000000E+00  0.00000000E+00
  0.00000000E+00  0.00000000E+00  0.00000000E+00
  0.00000000E+00  0.00000000E+00  0.00000000E+00
  0.00000000E+00  0.00000000E+00  0.00000000E+00
  0.00000000E+00  0.00000000E+00  0.00000000E+00
  0.00000000E+00  0.00000000E+00  0.00000000E+00
  0.00000000E+00  0.00000000E+00  0.00000000E+00
  0.00000000E+00  0.00000000E+00  0.00000000E+00
  0.00000000E+00  0.00000000E+00  0.00000000E+00
  0.00000000E+00  0.00000000E+00  0.00000000E+00
  0.00000000E+00  0.00000000E+00  0.00000000E+00
  0.00000000E+00  0.00000000E+00  0.00000000E+00
  0.00000000E+00  0.00000000E+00  0.00000000E+00
  0.00000000E+00  0.00000000E+00  0.00000000E+00
  0.00000000E+00  0.00000000E+00  0.00000000E+00
  0.00000000E+00  0.00000000E+00  0.00000000E+00
  0.00000000E+00  0.00000000E+00  0.00000000E+00
  0.00000000E+00  0.00000000E+00  0.00000000E+00
  0.00000000E+00  0.00000000E+00  0.00000000E+00
  0.00000000E+00  0.00000000E+00  0.00000000E+00
  0.00000000E+00  0.00000000E+00  0.00000000E+00
  0.00000000E+00  0.00000000E+00  0.00000000E+00
  0.00000000E+00  0.00000000E+00  0.00000000E+00
  0.00000000E+00  0.00000000E+00  0.00000000E+00
  0.00000000E+00  0.00000000E+00  0.00000000E+00
  0.00000000E+00  0.00000000E+00  0.00000000E+00
  0.00000000E+00  0.00000000E+00  0.00000000E+00
  0.00000000E+00  0.00000000E+00  0.00000000E+00
  0.00000000E+00  0.00000000E+00  0.00000000E+00
  0.00000000E+00  0.00000000E+00  0.00000000E+00
  0.00000000E+00  0.00000000E+00  0.00000000E+00
  0.00000000E+00  0.00000000E+00  0.00000000E+00
  0.00000000E+00  0.00000000E+00  0.00000000E+00
  0.00000000E+00  0.00000000E+00  0.00000000E+00
  0.00000000E+00  0.00000000E+00  0.00000000E+00
  0.00000000E+00  0.00000000E+00  0.00000000E+00
  0.00000000E+00  0.00000000E+00  0.00000000E+00
  0.00000000E+00  0.00000000E+00  0.00000000E+00
  0.00000000E+00  0.00000000E+00  0.00000000E+00
  0.00000000E+00  0.00000000E+00  0.00000000E+00
  0.00000000E+00  0.00000000E+00  0.00000000E+00
  0.00000000E+00  0.00000000E+00  0.00000000E+00
  0.00000000E+00  0.00000000E+00  0.00000000E+00
  0.00000000E+00  0.00000000E+00  0.00000000E+00
  0.00000000E+00  0.00000000E+00  0.00000000E+00
  0.00000000E+00  0.00000000E+00  0.00000000E+00
  0.00000000E+00  0.00000000E+00  0.00000000E+00
  0.00000000E+00  0.00000000E+00  0.00000000E+00
  0.00000000E+00  0.00000000E+00  0.00000000E+00
  0.00000000E+00  0.00000000E+00  0.00000000E+00
  0.00000000E+00  0.00000000E+00  0.00000000E+00
  0.00000000E+00  0.00000000E+00  0.00000000E+00
  0.00000000E+00  0.00000000E+00  0.00000000E+00
  0.00000000E+00  0.00000000E+00  0.00000000E+00
  0.00000000E+00  0.00000000E+00  0.00000000E+00
  0.00000000E+00  0.00000000E+00  0.00000000E+00
  0.00000000E+00  0.00000000E+00  0.00000000E+00
  0.00000000E+00  0.00000000E+00  0.00000000E+00
  0.00000000E+00  0.00000000E+00  0.00000000E+00
  0.00000000E+00  0.00000000E+00  0.00000000E+00
  0.00000000E+00  0.00000000E+00  0.00000000E+00
  0.00000000E+00  0.00000000E+00  0.00000000E+00
  0.00000000E+00  0.00000000E+00  0.00000000E+00
  0.00000000E+00  0.00000000E+00  0.00000000E+00
  0.00000000E+00  0.00000000E+00  0.00000000E+00
  0.00000000E+00  0.00000000E+00  0.00000000E+00
  0.00000000E+00  0.00000000E+00  0.00000000E+00
  0.00000000E+00  0.00000000E+00  0.00000000E+00
  0.00000000E+00  0.00000000E+00  0.00000000E+00
  0.00000000E+00  0.00000000E+00  0.00000000E+00
  0.00000000E+00  0.00000000E+00  0.00000000E+00
  0.00000000E+00  0.00000000E+00  0.00000000E+00
  0.00000000E+00  0.00000000E+00  0.00000000E+00
  0.00000000E+00  0.00000000E+00  0.00000000E+00
  0.00000000E+00  0.00000000E+00  0.00000000E+00
  0.00000000E+00  0.00000000E+00  0.00000000E+00
  0.00000000E+00  0.00000000E+00  0.00000000E+00
  0.00000000E+00  0.00000000E+00  0.00000000E+00
  0.00000000E+00  0.00000000E+00  0.00000000E+00
  0.00000000E+00  0.00000000E+00  0.00000000E+00
  0.00000000E+00  0.00000000E+00  0.00000000E+00
  0.00000000E+00  0.00000000E+00  0.00000000E+00
  0.00000000E+00  0.00000000E+00  0.00000000E+00
  0.00000000E+00  0.00000000E+00  0.00000000E+00
  0.00000000E+00  0.00000000E+00  0.00000000E+00
  0.00000000E+00  0.00000000E+00  0.00000000E+00
  0.00000000E+00  0.00000000E+00  0.00000000E+00
  0.00000000E+00  0.00000000E+00  0.00000000E+00
  0.00000000E+00  0.00000000E+00  0.00000000E+00
  0.00000000E+00  0.00000000E+00  0.00000000E+00
  0.00000000E+00  0.00000000E+00  0.00000000E+00
  0.00000000E+00  0.00000000E+00  0.00000000E+00
  0.00000000E+00  0.00000000E+00  0.00000000E+00
  0.00000000E+00  0.00000000E+00  0.00000000E+00
  0.00000000E+00  0.00000000E+00  0.00000000E+00
  0.00000000E+00  0.00000000E+00  0.00000000E+00
  0.00000000E+00  0.00000000E+00  0.00000000E+00
  0.00000000E+00  0.00000000E+00  0.00000000E+00
  0.00000000E+00  0.00000000E+00  0.00000000E+00
  0.00000000E+00  0.00000000E+00  0.00000000E+00
  0.00000000E+00  0.00000000E+00  0.00000000E+00
  0.00000000E+00  0.00000000E+00  0.00000000E+00
  0.00000000E+00  0.00000000E+00  0.00000000E+00
  0.00000000E+00  0.00000000E+00  0.00000000E+00
  0.00000000E+00  0.00000000E+00  0.00000000E+00
  0.00000000E+00  0.00000000E+00  0.00000000E+00